    1C
    1UUSER                                                              
    1UDATE              27.october.2022                                 
    1UTIME              01:05:27                                        
    1UHOST                                                              
    1UPGM               CalculiX                                        
    1UVERSION           Version 2.17                             
    1UCOMPILETIME       Thu Jul 23 21:43:50 CEST 2020                    
    1UDIR                                                               
    1UDBN                                                               
    1UMAT    1SOLIDMATERIAL                                             
    2C                          4345                                     1
 -1         1 8.45393E+01 3.36770E+01 0.00000E+00
 -1         2 8.81497E+01 2.75524E+01 0.00000E+00
 -1         3 1.50000E+02 0.00000E+00 0.00000E+00
 -1         4 1.50000E+02 5.00000E+01 0.00000E+00
 -1         5 0.00000E+00 0.00000E+00 0.00000E+00
 -1         6 0.00000E+00 5.00000E+01 0.00000E+00
 -1         7 0.00000E+00 4.70500E+01 0.00000E+00
 -1         8 0.00000E+00 4.41000E+01 0.00000E+00
 -1         9 0.00000E+00 4.11500E+01 0.00000E+00
 -1        10 0.00000E+00 3.82000E+01 0.00000E+00
 -1        11 0.00000E+00 3.52500E+01 0.00000E+00
 -1        12 0.00000E+00 3.23500E+01 0.00000E+00
 -1        13 0.00000E+00 2.94000E+01 0.00000E+00
 -1        14 0.00000E+00 2.64500E+01 0.00000E+00
 -1        15 0.00000E+00 2.35000E+01 0.00000E+00
 -1        16 0.00000E+00 2.05500E+01 0.00000E+00
 -1        17 0.00000E+00 1.76000E+01 0.00000E+00
 -1        18 0.00000E+00 1.47000E+01 0.00000E+00
 -1        19 0.00000E+00 1.17500E+01 0.00000E+00
 -1        20 0.00000E+00 8.80000E+00 0.00000E+00
 -1        21 0.00000E+00 5.85000E+00 0.00000E+00
 -1        22 0.00000E+00 2.90000E+00 0.00000E+00
 -1        23 3.15000E+00 5.00000E+01 0.00000E+00
 -1        24 6.15000E+00 5.00000E+01 0.00000E+00
 -1        25 9.15000E+00 5.00000E+01 0.00000E+00
 -1        26 1.21500E+01 5.00000E+01 0.00000E+00
 -1        27 1.51500E+01 5.00000E+01 0.00000E+00
 -1        28 1.81500E+01 5.00000E+01 0.00000E+00
 -1        29 2.11500E+01 5.00000E+01 0.00000E+00
 -1        30 2.41500E+01 5.00000E+01 0.00000E+00
 -1        31 2.71500E+01 5.00000E+01 0.00000E+00
 -1        32 3.01500E+01 5.00000E+01 0.00000E+00
 -1        33 3.31500E+01 5.00000E+01 0.00000E+00
 -1        34 3.61500E+01 5.00000E+01 0.00000E+00
 -1        35 3.91500E+01 5.00000E+01 0.00000E+00
 -1        36 4.21500E+01 5.00000E+01 0.00000E+00
 -1        37 4.51500E+01 5.00000E+01 0.00000E+00
 -1        38 4.81500E+01 5.00000E+01 0.00000E+00
 -1        39 5.11500E+01 5.00000E+01 0.00000E+00
 -1        40 5.41500E+01 5.00000E+01 0.00000E+00
 -1        41 5.71500E+01 5.00000E+01 0.00000E+00
 -1        42 6.01500E+01 5.00000E+01 0.00000E+00
 -1        43 6.31500E+01 5.00000E+01 0.00000E+00
 -1        44 6.61500E+01 5.00000E+01 0.00000E+00
 -1        45 6.91500E+01 5.00000E+01 0.00000E+00
 -1        46 7.21500E+01 5.00000E+01 0.00000E+00
 -1        47 7.51500E+01 5.00000E+01 0.00000E+00
 -1        48 7.81500E+01 5.00000E+01 0.00000E+00
 -1        49 8.11500E+01 5.00000E+01 0.00000E+00
 -1        50 8.41500E+01 5.00000E+01 0.00000E+00
 -1        51 8.71500E+01 5.00000E+01 0.00000E+00
 -1        52 9.01500E+01 5.00000E+01 0.00000E+00
 -1        53 9.31500E+01 5.00000E+01 0.00000E+00
 -1        54 9.61500E+01 5.00000E+01 0.00000E+00
 -1        55 9.91500E+01 5.00000E+01 0.00000E+00
 -1        56 1.02150E+02 5.00000E+01 0.00000E+00
 -1        57 1.05150E+02 5.00000E+01 0.00000E+00
 -1        58 1.08150E+02 5.00000E+01 0.00000E+00
 -1        59 1.11150E+02 5.00000E+01 0.00000E+00
 -1        60 1.14150E+02 5.00000E+01 0.00000E+00
 -1        61 1.17150E+02 5.00000E+01 0.00000E+00
 -1        62 1.20150E+02 5.00000E+01 0.00000E+00
 -1        63 1.23150E+02 5.00000E+01 0.00000E+00
 -1        64 1.26150E+02 5.00000E+01 0.00000E+00
 -1        65 1.29150E+02 5.00000E+01 0.00000E+00
 -1        66 1.32150E+02 5.00000E+01 0.00000E+00
 -1        67 1.35150E+02 5.00000E+01 0.00000E+00
 -1        68 1.38150E+02 5.00000E+01 0.00000E+00
 -1        69 1.41150E+02 5.00000E+01 0.00000E+00
 -1        70 1.44150E+02 5.00000E+01 0.00000E+00
 -1        71 1.47150E+02 5.00000E+01 0.00000E+00
 -1        72 3.15000E+00 0.00000E+00 0.00000E+00
 -1        73 6.15000E+00 0.00000E+00 0.00000E+00
 -1        74 9.15000E+00 0.00000E+00 0.00000E+00
 -1        75 1.21500E+01 0.00000E+00 0.00000E+00
 -1        76 1.51500E+01 0.00000E+00 0.00000E+00
 -1        77 1.81500E+01 0.00000E+00 0.00000E+00
 -1        78 2.11500E+01 0.00000E+00 0.00000E+00
 -1        79 2.41500E+01 0.00000E+00 0.00000E+00
 -1        80 2.71500E+01 0.00000E+00 0.00000E+00
 -1        81 3.01500E+01 0.00000E+00 0.00000E+00
 -1        82 3.31500E+01 0.00000E+00 0.00000E+00
 -1        83 3.61500E+01 0.00000E+00 0.00000E+00
 -1        84 3.91500E+01 0.00000E+00 0.00000E+00
 -1        85 4.21500E+01 0.00000E+00 0.00000E+00
 -1        86 4.51500E+01 0.00000E+00 0.00000E+00
 -1        87 4.81500E+01 0.00000E+00 0.00000E+00
 -1        88 5.11500E+01 0.00000E+00 0.00000E+00
 -1        89 5.41500E+01 0.00000E+00 0.00000E+00
 -1        90 5.71500E+01 0.00000E+00 0.00000E+00
 -1        91 6.01500E+01 0.00000E+00 0.00000E+00
 -1        92 6.31500E+01 0.00000E+00 0.00000E+00
 -1        93 6.61500E+01 0.00000E+00 0.00000E+00
 -1        94 6.91500E+01 0.00000E+00 0.00000E+00
 -1        95 7.21500E+01 0.00000E+00 0.00000E+00
 -1        96 7.51500E+01 0.00000E+00 0.00000E+00
 -1        97 7.81500E+01 0.00000E+00 0.00000E+00
 -1        98 8.11500E+01 0.00000E+00 0.00000E+00
 -1        99 8.41500E+01 0.00000E+00 0.00000E+00
 -1       100 8.71500E+01 0.00000E+00 0.00000E+00
 -1       101 9.01500E+01 0.00000E+00 0.00000E+00
 -1       102 9.31500E+01 0.00000E+00 0.00000E+00
 -1       103 9.61500E+01 0.00000E+00 0.00000E+00
 -1       104 9.91500E+01 0.00000E+00 0.00000E+00
 -1       105 1.02150E+02 0.00000E+00 0.00000E+00
 -1       106 1.05150E+02 0.00000E+00 0.00000E+00
 -1       107 1.08150E+02 0.00000E+00 0.00000E+00
 -1       108 1.11150E+02 0.00000E+00 0.00000E+00
 -1       109 1.14150E+02 0.00000E+00 0.00000E+00
 -1       110 1.17150E+02 0.00000E+00 0.00000E+00
 -1       111 1.20150E+02 0.00000E+00 0.00000E+00
 -1       112 1.23150E+02 0.00000E+00 0.00000E+00
 -1       113 1.26150E+02 0.00000E+00 0.00000E+00
 -1       114 1.29150E+02 0.00000E+00 0.00000E+00
 -1       115 1.32150E+02 0.00000E+00 0.00000E+00
 -1       116 1.35150E+02 0.00000E+00 0.00000E+00
 -1       117 1.38150E+02 0.00000E+00 0.00000E+00
 -1       118 1.41150E+02 0.00000E+00 0.00000E+00
 -1       119 1.44150E+02 0.00000E+00 0.00000E+00
 -1       120 1.47150E+02 0.00000E+00 0.00000E+00
 -1       121 1.50000E+02 2.95000E+00 0.00000E+00
 -1       122 1.50000E+02 5.90000E+00 0.00000E+00
 -1       123 1.50000E+02 8.85000E+00 0.00000E+00
 -1       124 1.50000E+02 1.18000E+01 0.00000E+00
 -1       125 1.50000E+02 1.47500E+01 0.00000E+00
 -1       126 1.50000E+02 1.76500E+01 0.00000E+00
 -1       127 1.50000E+02 2.06000E+01 0.00000E+00
 -1       128 1.50000E+02 2.35500E+01 0.00000E+00
 -1       129 1.50000E+02 2.65000E+01 0.00000E+00
 -1       130 1.50000E+02 2.94500E+01 0.00000E+00
 -1       131 1.50000E+02 3.24000E+01 0.00000E+00
 -1       132 1.50000E+02 3.53000E+01 0.00000E+00
 -1       133 1.50000E+02 3.82500E+01 0.00000E+00
 -1       134 1.50000E+02 4.12000E+01 0.00000E+00
 -1       135 1.50000E+02 4.41500E+01 0.00000E+00
 -1       136 1.50000E+02 4.71000E+01 0.00000E+00
 -1       137 8.79557E+01 2.59160E+01 0.00000E+00
 -1       138 8.74931E+01 2.45925E+01 0.00000E+00
 -1       139 8.66558E+01 2.32301E+01 0.00000E+00
 -1       140 8.56138E+01 2.21606E+01 0.00000E+00
 -1       141 8.43709E+01 2.13376E+01 0.00000E+00
 -1       142 8.29978E+01 2.08008E+01 0.00000E+00
 -1       143 8.14245E+01 2.05578E+01 0.00000E+00
 -1       144 7.99933E+01 2.06486E+01 0.00000E+00
 -1       145 7.84988E+01 2.10738E+01 0.00000E+00
 -1       146 7.70882E+01 2.18512E+01 0.00000E+00
 -1       147 7.60193E+01 2.27902E+01 0.00000E+00
 -1       148 7.50550E+01 2.41094E+01 0.00000E+00
 -1       149 7.44852E+01 2.54114E+01 0.00000E+00
 -1       150 7.41848E+01 2.68523E+01 0.00000E+00
 -1       151 7.42014E+01 2.84017E+01 0.00000E+00
 -1       152 7.45337E+01 2.98390E+01 0.00000E+00
 -1       153 7.51523E+01 3.11623E+01 0.00000E+00
 -1       154 7.60391E+01 3.23359E+01 0.00000E+00
 -1       155 7.71759E+01 3.33151E+01 0.00000E+00
 -1       156 7.85296E+01 3.40436E+01 0.00000E+00
 -1       157 8.00282E+01 3.44620E+01 0.00000E+00
 -1       158 8.14604E+01 3.45455E+01 0.00000E+00
 -1       159 8.30719E+01 3.42833E+01 0.00000E+00
 -1       160 8.57532E+01 3.28258E+01 0.00000E+00
 -1       161 8.67373E+01 3.17689E+01 0.00000E+00
 -1       162 8.74857E+01 3.05281E+01 0.00000E+00
 -1       163 8.79742E+01 2.91101E+01 0.00000E+00
 -1       164 2.59800E+00 4.55750E+01 0.00000E+00
 -1       165 2.59800E+00 4.26250E+01 0.00000E+00
 -1       166 2.59800E+00 3.96750E+01 0.00000E+00
 -1       167 2.59800E+00 3.67250E+01 0.00000E+00
 -1       168 2.59800E+00 3.38250E+01 0.00000E+00
 -1       169 2.59800E+00 3.08750E+01 0.00000E+00
 -1       170 2.59800E+00 2.79250E+01 0.00000E+00
 -1       171 2.59800E+00 2.49750E+01 0.00000E+00
 -1       172 2.59800E+00 2.20250E+01 0.00000E+00
 -1       173 2.59800E+00 1.90750E+01 0.00000E+00
 -1       174 2.59800E+00 1.61750E+01 0.00000E+00
 -1       175 2.59800E+00 1.32250E+01 0.00000E+00
 -1       176 2.59800E+00 1.02750E+01 0.00000E+00
 -1       177 2.59800E+00 7.32500E+00 0.00000E+00
 -1       178 2.59800E+00 4.37500E+00 0.00000E+00
 -1       179 2.87400E+00 2.18750E+00 0.00000E+00
 -1       180 4.65000E+00 4.74020E+01 0.00000E+00
 -1       181 7.65000E+00 4.74020E+01 0.00000E+00
 -1       182 1.06500E+01 4.74020E+01 0.00000E+00
 -1       183 1.36500E+01 4.74020E+01 0.00000E+00
 -1       184 1.66500E+01 4.74020E+01 0.00000E+00
 -1       185 1.96500E+01 4.74020E+01 0.00000E+00
 -1       186 2.26500E+01 4.74020E+01 0.00000E+00
 -1       187 2.56500E+01 4.74020E+01 0.00000E+00
 -1       188 2.86500E+01 4.74020E+01 0.00000E+00
 -1       189 3.16500E+01 4.74020E+01 0.00000E+00
 -1       190 3.46500E+01 4.74020E+01 0.00000E+00
 -1       191 3.76500E+01 4.74020E+01 0.00000E+00
 -1       192 4.06500E+01 4.74020E+01 0.00000E+00
 -1       193 4.36500E+01 4.74020E+01 0.00000E+00
 -1       194 4.66500E+01 4.74020E+01 0.00000E+00
 -1       195 4.96500E+01 4.74020E+01 0.00000E+00
 -1       196 5.26500E+01 4.74020E+01 0.00000E+00
 -1       197 5.56500E+01 4.74020E+01 0.00000E+00
 -1       198 5.86500E+01 4.74020E+01 0.00000E+00
 -1       199 6.16500E+01 4.74020E+01 0.00000E+00
 -1       200 6.46500E+01 4.74020E+01 0.00000E+00
 -1       201 6.76500E+01 4.74020E+01 0.00000E+00
 -1       202 7.06500E+01 4.74020E+01 0.00000E+00
 -1       203 7.36500E+01 4.74020E+01 0.00000E+00
 -1       204 7.66500E+01 4.74020E+01 0.00000E+00
 -1       205 7.96500E+01 4.74020E+01 0.00000E+00
 -1       206 8.26500E+01 4.74020E+01 0.00000E+00
 -1       207 8.56500E+01 4.74020E+01 0.00000E+00
 -1       208 8.86500E+01 4.74020E+01 0.00000E+00
 -1       209 9.16500E+01 4.74020E+01 0.00000E+00
 -1       210 9.46500E+01 4.74020E+01 0.00000E+00
 -1       211 9.76500E+01 4.74020E+01 0.00000E+00
 -1       212 1.00650E+02 4.74020E+01 0.00000E+00
 -1       213 1.03650E+02 4.74020E+01 0.00000E+00
 -1       214 1.06650E+02 4.74020E+01 0.00000E+00
 -1       215 1.09650E+02 4.74020E+01 0.00000E+00
 -1       216 1.12650E+02 4.74020E+01 0.00000E+00
 -1       217 1.15650E+02 4.74020E+01 0.00000E+00
 -1       218 1.18650E+02 4.74020E+01 0.00000E+00
 -1       219 1.21650E+02 4.74020E+01 0.00000E+00
 -1       220 1.24650E+02 4.74020E+01 0.00000E+00
 -1       221 1.27650E+02 4.74020E+01 0.00000E+00
 -1       222 1.30650E+02 4.74020E+01 0.00000E+00
 -1       223 1.33650E+02 4.74020E+01 0.00000E+00
 -1       224 1.36650E+02 4.74020E+01 0.00000E+00
 -1       225 1.39650E+02 4.74020E+01 0.00000E+00
 -1       226 1.42650E+02 4.74020E+01 0.00000E+00
 -1       227 1.45650E+02 4.74020E+01 0.00000E+00
 -1       228 5.87400E+00 2.18750E+00 0.00000E+00
 -1       229 8.87400E+00 2.18750E+00 0.00000E+00
 -1       230 1.18740E+01 2.18750E+00 0.00000E+00
 -1       231 1.48740E+01 2.18750E+00 0.00000E+00
 -1       232 1.78740E+01 2.18750E+00 0.00000E+00
 -1       233 2.08740E+01 2.18750E+00 0.00000E+00
 -1       234 2.38740E+01 2.18750E+00 0.00000E+00
 -1       235 2.68740E+01 2.18750E+00 0.00000E+00
 -1       236 2.98740E+01 2.18750E+00 0.00000E+00
 -1       237 3.28740E+01 2.18750E+00 0.00000E+00
 -1       238 3.58740E+01 2.18750E+00 0.00000E+00
 -1       239 3.88740E+01 2.18750E+00 0.00000E+00
 -1       240 4.18740E+01 2.18750E+00 0.00000E+00
 -1       241 4.48740E+01 2.18750E+00 0.00000E+00
 -1       242 4.78740E+01 2.18750E+00 0.00000E+00
 -1       243 5.08740E+01 2.18750E+00 0.00000E+00
 -1       244 5.38740E+01 2.18750E+00 0.00000E+00
 -1       245 5.68740E+01 2.18750E+00 0.00000E+00
 -1       246 5.98740E+01 2.18750E+00 0.00000E+00
 -1       247 6.28740E+01 2.18750E+00 0.00000E+00
 -1       248 6.58740E+01 2.18750E+00 0.00000E+00
 -1       249 6.88740E+01 2.18750E+00 0.00000E+00
 -1       250 7.18740E+01 2.18750E+00 0.00000E+00
 -1       251 7.48740E+01 2.18750E+00 0.00000E+00
 -1       252 7.78740E+01 2.18750E+00 0.00000E+00
 -1       253 8.08740E+01 2.18750E+00 0.00000E+00
 -1       254 8.38740E+01 2.18750E+00 0.00000E+00
 -1       255 8.68740E+01 2.18750E+00 0.00000E+00
 -1       256 8.98740E+01 2.18750E+00 0.00000E+00
 -1       257 9.28740E+01 2.18750E+00 0.00000E+00
 -1       258 9.58740E+01 2.18750E+00 0.00000E+00
 -1       259 9.88740E+01 2.18750E+00 0.00000E+00
 -1       260 1.01874E+02 2.18750E+00 0.00000E+00
 -1       261 1.04874E+02 2.18750E+00 0.00000E+00
 -1       262 1.07874E+02 2.18750E+00 0.00000E+00
 -1       263 1.10874E+02 2.18750E+00 0.00000E+00
 -1       264 1.13874E+02 2.18750E+00 0.00000E+00
 -1       265 1.16874E+02 2.18750E+00 0.00000E+00
 -1       266 1.19874E+02 2.18750E+00 0.00000E+00
 -1       267 1.22874E+02 2.18750E+00 0.00000E+00
 -1       268 1.25874E+02 2.18750E+00 0.00000E+00
 -1       269 1.28874E+02 2.18750E+00 0.00000E+00
 -1       270 1.31874E+02 2.18750E+00 0.00000E+00
 -1       271 1.34874E+02 2.18750E+00 0.00000E+00
 -1       272 1.37874E+02 2.18750E+00 0.00000E+00
 -1       273 1.40874E+02 2.18750E+00 0.00000E+00
 -1       274 1.43874E+02 2.18750E+00 0.00000E+00
 -1       275 1.46874E+02 2.18750E+00 0.00000E+00
 -1       276 1.47402E+02 4.42500E+00 0.00000E+00
 -1       277 1.47402E+02 7.37500E+00 0.00000E+00
 -1       278 1.47402E+02 1.03250E+01 0.00000E+00
 -1       279 1.47402E+02 1.32750E+01 0.00000E+00
 -1       280 1.47402E+02 1.61750E+01 0.00000E+00
 -1       281 1.47402E+02 1.91250E+01 0.00000E+00
 -1       282 1.47402E+02 2.20750E+01 0.00000E+00
 -1       283 1.47402E+02 2.50250E+01 0.00000E+00
 -1       284 1.47402E+02 2.79750E+01 0.00000E+00
 -1       285 1.47402E+02 3.09250E+01 0.00000E+00
 -1       286 1.47402E+02 3.38250E+01 0.00000E+00
 -1       287 1.47402E+02 3.67750E+01 0.00000E+00
 -1       288 1.47402E+02 3.97250E+01 0.00000E+00
 -1       289 1.47402E+02 4.26750E+01 0.00000E+00
 -1       290 1.46526E+02 4.50385E+01 0.00000E+00
 -1       291 8.95895E+01 2.65520E+01 0.00000E+00
 -1       292 8.88689E+01 2.48542E+01 0.00000E+00
 -1       293 8.83215E+01 2.31449E+01 0.00000E+00
 -1       294 8.70632E+01 2.17908E+01 0.00000E+00
 -1       295 8.56617E+01 2.07383E+01 0.00000E+00
 -1       296 8.41258E+01 1.99400E+01 0.00000E+00
 -1       297 8.24218E+01 1.93155E+01 0.00000E+00
 -1       298 8.06322E+01 1.93932E+01 0.00000E+00
 -1       299 7.88684E+01 1.95339E+01 0.00000E+00
 -1       300 7.70465E+01 2.01071E+01 0.00000E+00
 -1       301 7.57536E+01 2.14098E+01 0.00000E+00
 -1       302 7.42878E+01 2.25365E+01 0.00000E+00
 -1       303 7.36594E+01 2.42743E+01 0.00000E+00
 -1       304 7.30661E+01 2.58673E+01 0.00000E+00
 -1       305 7.28132E+01 2.76418E+01 0.00000E+00
 -1       306 7.31047E+01 2.94123E+01 0.00000E+00
 -1       307 7.37447E+01 3.10141E+01 0.00000E+00
 -1       308 7.46284E+01 3.24800E+01 0.00000E+00
 -1       309 7.56522E+01 3.39346E+01 0.00000E+00
 -1       310 7.72385E+01 3.48208E+01 0.00000E+00
 -1       311 7.89078E+01 3.55819E+01 0.00000E+00
 -1       312 8.06737E+01 3.57141E+01 0.00000E+00
 -1       313 8.25147E+01 3.59419E+01 0.00000E+00
 -1       314 8.43966E+01 3.54104E+01 0.00000E+00
 -1       315 8.58424E+01 3.42440E+01 0.00000E+00
 -1       316 8.71325E+01 3.31235E+01 0.00000E+00
 -1       317 8.81497E+01 3.17747E+01 0.00000E+00
 -1       318 8.89555E+01 3.02413E+01 0.00000E+00
 -1       319 8.94332E+01 2.84858E+01 0.00000E+00
 -1       320 5.19600E+00 4.11500E+01 0.00000E+00
 -1       321 5.19600E+00 4.41000E+01 0.00000E+00
 -1       322 5.19600E+00 3.52750E+01 0.00000E+00
 -1       323 5.19600E+00 3.23250E+01 0.00000E+00
 -1       324 5.19600E+00 2.93750E+01 0.00000E+00
 -1       325 5.19600E+00 2.64250E+01 0.00000E+00
 -1       326 5.19600E+00 2.34750E+01 0.00000E+00
 -1       327 5.19600E+00 2.05250E+01 0.00000E+00
 -1       328 5.19600E+00 1.76250E+01 0.00000E+00
 -1       329 5.19600E+00 1.46750E+01 0.00000E+00
 -1       330 5.19600E+00 1.17250E+01 0.00000E+00
 -1       331 5.19600E+00 8.77500E+00 0.00000E+00
 -1       332 5.19600E+00 5.82500E+00 0.00000E+00
 -1       333 5.53500E+00 4.00625E+00 0.00000E+00
 -1       334 8.53500E+00 4.00625E+00 0.00000E+00
 -1       335 9.15000E+00 4.48040E+01 0.00000E+00
 -1       336 1.21500E+01 4.48040E+01 0.00000E+00
 -1       337 1.51500E+01 4.48040E+01 0.00000E+00
 -1       338 1.81500E+01 4.48040E+01 0.00000E+00
 -1       339 2.11500E+01 4.48040E+01 0.00000E+00
 -1       340 2.41500E+01 4.48040E+01 0.00000E+00
 -1       341 2.71500E+01 4.48040E+01 0.00000E+00
 -1       342 3.01500E+01 4.48040E+01 0.00000E+00
 -1       343 3.31500E+01 4.48040E+01 0.00000E+00
 -1       344 3.61500E+01 4.48040E+01 0.00000E+00
 -1       345 3.91500E+01 4.48040E+01 0.00000E+00
 -1       346 4.21500E+01 4.48040E+01 0.00000E+00
 -1       347 4.51500E+01 4.48040E+01 0.00000E+00
 -1       348 4.81500E+01 4.48040E+01 0.00000E+00
 -1       349 5.11500E+01 4.48040E+01 0.00000E+00
 -1       350 5.41500E+01 4.48040E+01 0.00000E+00
 -1       351 5.71500E+01 4.48040E+01 0.00000E+00
 -1       352 6.01500E+01 4.48040E+01 0.00000E+00
 -1       353 6.31500E+01 4.48040E+01 0.00000E+00
 -1       354 6.61500E+01 4.48040E+01 0.00000E+00
 -1       355 6.91500E+01 4.48040E+01 0.00000E+00
 -1       356 7.21500E+01 4.48040E+01 0.00000E+00
 -1       357 7.51500E+01 4.48040E+01 0.00000E+00
 -1       358 7.81500E+01 4.48040E+01 0.00000E+00
 -1       359 8.11500E+01 4.48040E+01 0.00000E+00
 -1       360 8.41500E+01 4.48040E+01 0.00000E+00
 -1       361 8.71500E+01 4.48040E+01 0.00000E+00
 -1       362 9.01500E+01 4.48040E+01 0.00000E+00
 -1       363 9.31500E+01 4.48040E+01 0.00000E+00
 -1       364 9.61500E+01 4.48040E+01 0.00000E+00
 -1       365 9.91500E+01 4.48040E+01 0.00000E+00
 -1       366 1.02150E+02 4.48040E+01 0.00000E+00
 -1       367 1.05150E+02 4.48040E+01 0.00000E+00
 -1       368 1.08150E+02 4.48040E+01 0.00000E+00
 -1       369 1.11150E+02 4.48040E+01 0.00000E+00
 -1       370 1.14150E+02 4.48040E+01 0.00000E+00
 -1       371 1.17150E+02 4.48040E+01 0.00000E+00
 -1       372 1.20150E+02 4.48040E+01 0.00000E+00
 -1       373 1.23150E+02 4.48040E+01 0.00000E+00
 -1       374 1.26150E+02 4.48040E+01 0.00000E+00
 -1       375 1.29150E+02 4.48040E+01 0.00000E+00
 -1       376 1.32150E+02 4.48040E+01 0.00000E+00
 -1       377 1.35150E+02 4.48040E+01 0.00000E+00
 -1       378 1.38150E+02 4.48040E+01 0.00000E+00
 -1       379 1.41150E+02 4.48040E+01 0.00000E+00
 -1       380 1.43838E+02 4.49212E+01 0.00000E+00
 -1       381 1.15350E+01 4.00625E+00 0.00000E+00
 -1       382 1.45350E+01 4.00625E+00 0.00000E+00
 -1       383 1.75350E+01 4.00625E+00 0.00000E+00
 -1       384 2.05350E+01 4.00625E+00 0.00000E+00
 -1       385 2.35350E+01 4.00625E+00 0.00000E+00
 -1       386 2.65350E+01 4.00625E+00 0.00000E+00
 -1       387 2.95350E+01 4.00625E+00 0.00000E+00
 -1       388 3.25350E+01 4.00625E+00 0.00000E+00
 -1       389 3.55350E+01 4.00625E+00 0.00000E+00
 -1       390 3.85350E+01 4.00625E+00 0.00000E+00
 -1       391 4.15350E+01 4.00625E+00 0.00000E+00
 -1       392 4.45350E+01 4.00625E+00 0.00000E+00
 -1       393 4.75350E+01 4.00625E+00 0.00000E+00
 -1       394 5.05350E+01 4.00625E+00 0.00000E+00
 -1       395 5.35350E+01 4.00625E+00 0.00000E+00
 -1       396 5.65350E+01 4.00625E+00 0.00000E+00
 -1       397 5.95350E+01 4.00625E+00 0.00000E+00
 -1       398 6.25350E+01 4.00625E+00 0.00000E+00
 -1       399 6.55350E+01 4.00625E+00 0.00000E+00
 -1       400 6.85350E+01 4.00625E+00 0.00000E+00
 -1       401 7.15350E+01 4.00625E+00 0.00000E+00
 -1       402 7.45350E+01 4.00625E+00 0.00000E+00
 -1       403 7.75350E+01 4.00625E+00 0.00000E+00
 -1       404 8.05350E+01 4.00625E+00 0.00000E+00
 -1       405 8.35350E+01 4.00625E+00 0.00000E+00
 -1       406 8.65350E+01 4.00625E+00 0.00000E+00
 -1       407 8.95350E+01 4.00625E+00 0.00000E+00
 -1       408 9.25350E+01 4.00625E+00 0.00000E+00
 -1       409 9.55350E+01 4.00625E+00 0.00000E+00
 -1       410 9.85350E+01 4.00625E+00 0.00000E+00
 -1       411 1.01535E+02 4.00625E+00 0.00000E+00
 -1       412 1.04535E+02 4.00625E+00 0.00000E+00
 -1       413 1.07535E+02 4.00625E+00 0.00000E+00
 -1       414 1.10535E+02 4.00625E+00 0.00000E+00
 -1       415 1.13535E+02 4.00625E+00 0.00000E+00
 -1       416 1.16535E+02 4.00625E+00 0.00000E+00
 -1       417 1.19535E+02 4.00625E+00 0.00000E+00
 -1       418 1.22535E+02 4.00625E+00 0.00000E+00
 -1       419 1.25535E+02 4.00625E+00 0.00000E+00
 -1       420 1.28535E+02 4.00625E+00 0.00000E+00
 -1       421 1.31535E+02 4.00625E+00 0.00000E+00
 -1       422 1.34535E+02 4.00625E+00 0.00000E+00
 -1       423 1.37535E+02 4.00625E+00 0.00000E+00
 -1       424 1.40535E+02 4.00625E+00 0.00000E+00
 -1       425 1.43535E+02 4.00625E+00 0.00000E+00
 -1       426 1.45469E+02 4.21562E+00 0.00000E+00
 -1       427 1.44804E+02 1.18000E+01 0.00000E+00
 -1       428 1.44804E+02 8.85000E+00 0.00000E+00
 -1       429 1.45136E+02 6.53281E+00 0.00000E+00
 -1       430 1.44804E+02 1.47000E+01 0.00000E+00
 -1       431 1.44804E+02 1.76500E+01 0.00000E+00
 -1       432 1.44804E+02 2.06000E+01 0.00000E+00
 -1       433 1.44804E+02 2.35500E+01 0.00000E+00
 -1       434 1.44804E+02 2.65000E+01 0.00000E+00
 -1       435 1.44804E+02 2.94500E+01 0.00000E+00
 -1       436 1.44804E+02 3.23500E+01 0.00000E+00
 -1       437 1.44804E+02 3.53000E+01 0.00000E+00
 -1       438 1.44804E+02 3.82500E+01 0.00000E+00
 -1       439 1.44804E+02 4.12000E+01 0.00000E+00
 -1       440 9.02286E+01 2.34765E+01 0.00000E+00
 -1       441 9.11374E+01 2.76503E+01 0.00000E+00
 -1       442 9.09492E+01 2.51743E+01 0.00000E+00
 -1       443 8.86419E+01 2.15855E+01 0.00000E+00
 -1       444 8.71409E+01 2.02281E+01 0.00000E+00
 -1       445 5.19600E+00 3.82125E+01 0.00000E+00
 -1       446 8.37487E+01 1.83321E+01 0.00000E+00
 -1       447 8.14634E+01 1.78920E+01 0.00000E+00
 -1       448 7.96997E+01 1.80327E+01 0.00000E+00
 -1       449 7.74427E+01 1.81845E+01 0.00000E+00
 -1       450 7.52422E+01 1.96093E+01 0.00000E+00
 -1       451 7.37764E+01 2.07360E+01 0.00000E+00
 -1       452 7.26759E+01 2.29362E+01 0.00000E+00
 -1       453 7.20825E+01 2.45292E+01 0.00000E+00
 -1       454 7.14076E+01 2.65362E+01 0.00000E+00
 -1       455 7.16800E+01 2.87375E+01 0.00000E+00
 -1       456 7.20654E+01 3.07563E+01 0.00000E+00
 -1       457 7.28612E+01 3.25460E+01 0.00000E+00
 -1       458 7.38849E+01 3.40005E+01 0.00000E+00
 -1       459 7.56906E+01 3.57287E+01 0.00000E+00
 -1       460 7.74659E+01 3.65332E+01 0.00000E+00
 -1       461 7.96878E+01 3.70241E+01 0.00000E+00
 -1       462 8.15287E+01 3.72519E+01 0.00000E+00
 -1       463 8.38990E+01 3.72461E+01 0.00000E+00
 -1       464 8.60912E+01 3.60317E+01 0.00000E+00
 -1       465 8.73813E+01 3.49112E+01 0.00000E+00
 -1       466 8.88767E+01 3.33809E+01 0.00000E+00
 -1       467 8.97742E+01 3.16499E+01 0.00000E+00
 -1       468 9.06067E+01 2.97479E+01 0.00000E+00
 -1       469 8.56074E+01 1.89660E+01 0.00000E+00
 -1       470 1.00350E+01 6.60425E+00 0.00000E+00
 -1       471 7.79400E+00 3.08500E+01 0.00000E+00
 -1       472 7.79400E+00 3.38000E+01 0.00000E+00
 -1       473 7.79400E+00 2.49500E+01 0.00000E+00
 -1       474 7.79400E+00 2.20000E+01 0.00000E+00
 -1       475 7.79400E+00 1.91000E+01 0.00000E+00
 -1       476 7.79400E+00 1.61500E+01 0.00000E+00
 -1       477 7.79400E+00 1.32000E+01 0.00000E+00
 -1       478 7.79400E+00 1.02500E+01 0.00000E+00
 -1       479 1.30350E+01 6.60425E+00 0.00000E+00
 -1       480 1.06500E+01 4.22060E+01 0.00000E+00
 -1       481 8.52046E+01 1.71050E+01 0.00000E+00
 -1       482 1.36500E+01 4.22060E+01 0.00000E+00
 -1       483 1.66500E+01 4.22060E+01 0.00000E+00
 -1       484 1.96500E+01 4.22060E+01 0.00000E+00
 -1       485 2.26500E+01 4.22060E+01 0.00000E+00
 -1       486 2.56500E+01 4.22060E+01 0.00000E+00
 -1       487 2.86500E+01 4.22060E+01 0.00000E+00
 -1       488 3.16500E+01 4.22060E+01 0.00000E+00
 -1       489 3.46500E+01 4.22060E+01 0.00000E+00
 -1       490 3.76500E+01 4.22060E+01 0.00000E+00
 -1       491 4.06500E+01 4.22060E+01 0.00000E+00
 -1       492 4.36500E+01 4.22060E+01 0.00000E+00
 -1       493 4.66500E+01 4.22060E+01 0.00000E+00
 -1       494 4.96500E+01 4.22060E+01 0.00000E+00
 -1       495 5.26500E+01 4.22060E+01 0.00000E+00
 -1       496 5.56500E+01 4.22060E+01 0.00000E+00
 -1       497 5.86500E+01 4.22060E+01 0.00000E+00
 -1       498 6.16500E+01 4.22060E+01 0.00000E+00
 -1       499 6.46500E+01 4.22060E+01 0.00000E+00
 -1       500 6.76500E+01 4.22060E+01 0.00000E+00
 -1       501 7.06500E+01 4.22060E+01 0.00000E+00
 -1       502 7.36500E+01 4.22060E+01 0.00000E+00
 -1       503 7.66500E+01 4.22060E+01 0.00000E+00
 -1       504 7.96500E+01 4.22060E+01 0.00000E+00
 -1       505 8.26500E+01 4.22060E+01 0.00000E+00
 -1       506 8.56500E+01 4.22060E+01 0.00000E+00
 -1       507 8.86500E+01 4.22060E+01 0.00000E+00
 -1       508 9.16500E+01 4.22060E+01 0.00000E+00
 -1       509 9.46500E+01 4.22060E+01 0.00000E+00
 -1       510 9.76500E+01 4.22060E+01 0.00000E+00
 -1       511 1.00650E+02 4.22060E+01 0.00000E+00
 -1       512 1.03650E+02 4.22060E+01 0.00000E+00
 -1       513 1.06650E+02 4.22060E+01 0.00000E+00
 -1       514 1.09650E+02 4.22060E+01 0.00000E+00
 -1       515 1.12650E+02 4.22060E+01 0.00000E+00
 -1       516 1.15650E+02 4.22060E+01 0.00000E+00
 -1       517 1.18650E+02 4.22060E+01 0.00000E+00
 -1       518 1.21650E+02 4.22060E+01 0.00000E+00
 -1       519 1.24650E+02 4.22060E+01 0.00000E+00
 -1       520 1.27650E+02 4.22060E+01 0.00000E+00
 -1       521 1.30650E+02 4.22060E+01 0.00000E+00
 -1       522 1.33650E+02 4.22060E+01 0.00000E+00
 -1       523 1.36650E+02 4.22060E+01 0.00000E+00
 -1       524 1.39650E+02 4.22060E+01 0.00000E+00
 -1       525 9.20135E+01 2.37208E+01 0.00000E+00
 -1       526 1.90350E+01 6.60425E+00 0.00000E+00
 -1       527 2.20350E+01 6.60425E+00 0.00000E+00
 -1       528 2.50350E+01 6.60425E+00 0.00000E+00
 -1       529 2.80350E+01 6.60425E+00 0.00000E+00
 -1       530 3.10350E+01 6.60425E+00 0.00000E+00
 -1       531 3.40350E+01 6.60425E+00 0.00000E+00
 -1       532 3.70350E+01 6.60425E+00 0.00000E+00
 -1       533 4.00350E+01 6.60425E+00 0.00000E+00
 -1       534 4.30350E+01 6.60425E+00 0.00000E+00
 -1       535 4.60350E+01 6.60425E+00 0.00000E+00
 -1       536 4.90350E+01 6.60425E+00 0.00000E+00
 -1       537 5.20350E+01 6.60425E+00 0.00000E+00
 -1       538 5.50350E+01 6.60425E+00 0.00000E+00
 -1       539 5.80350E+01 6.60425E+00 0.00000E+00
 -1       540 6.10350E+01 6.60425E+00 0.00000E+00
 -1       541 6.40350E+01 6.60425E+00 0.00000E+00
 -1       542 6.70350E+01 6.60425E+00 0.00000E+00
 -1       543 7.00350E+01 6.60425E+00 0.00000E+00
 -1       544 7.30350E+01 6.60425E+00 0.00000E+00
 -1       545 7.60350E+01 6.60425E+00 0.00000E+00
 -1       546 7.90350E+01 6.60425E+00 0.00000E+00
 -1       547 8.20350E+01 6.60425E+00 0.00000E+00
 -1       548 8.50350E+01 6.60425E+00 0.00000E+00
 -1       549 8.80350E+01 6.60425E+00 0.00000E+00
 -1       550 9.10350E+01 6.60425E+00 0.00000E+00
 -1       551 9.40350E+01 6.60425E+00 0.00000E+00
 -1       552 9.70350E+01 6.60425E+00 0.00000E+00
 -1       553 1.00035E+02 6.60425E+00 0.00000E+00
 -1       554 1.03035E+02 6.60425E+00 0.00000E+00
 -1       555 1.06035E+02 6.60425E+00 0.00000E+00
 -1       556 1.09035E+02 6.60425E+00 0.00000E+00
 -1       557 1.12035E+02 6.60425E+00 0.00000E+00
 -1       558 1.15035E+02 6.60425E+00 0.00000E+00
 -1       559 1.18035E+02 6.60425E+00 0.00000E+00
 -1       560 1.21035E+02 6.60425E+00 0.00000E+00
 -1       561 1.24035E+02 6.60425E+00 0.00000E+00
 -1       562 1.27035E+02 6.60425E+00 0.00000E+00
 -1       563 1.30035E+02 6.60425E+00 0.00000E+00
 -1       564 1.33035E+02 6.60425E+00 0.00000E+00
 -1       565 1.36035E+02 6.60425E+00 0.00000E+00
 -1       566 1.39035E+02 6.60425E+00 0.00000E+00
 -1       567 1.42035E+02 6.60425E+00 0.00000E+00
 -1       568 1.42206E+02 1.61750E+01 0.00000E+00
 -1       569 1.42206E+02 1.91250E+01 0.00000E+00
 -1       570 1.42206E+02 1.03250E+01 0.00000E+00
 -1       571 1.42206E+02 1.32500E+01 0.00000E+00
 -1       572 1.42206E+02 2.20750E+01 0.00000E+00
 -1       573 1.42206E+02 2.50250E+01 0.00000E+00
 -1       574 1.42206E+02 2.79750E+01 0.00000E+00
 -1       575 1.42206E+02 3.08750E+01 0.00000E+00
 -1       576 1.42206E+02 3.38250E+01 0.00000E+00
 -1       577 1.42206E+02 3.67750E+01 0.00000E+00
 -1       578 1.42206E+02 3.97250E+01 0.00000E+00
 -1       579 9.24536E+01 2.90992E+01 0.00000E+00
 -1       580 1.60350E+01 6.60425E+00 0.00000E+00
 -1       581 9.07491E+01 2.14285E+01 0.00000E+00
 -1       582 9.19151E+01 3.14539E+01 0.00000E+00
 -1       583 7.92300E+00 4.16780E+01 0.00000E+00
 -1       584 8.89855E+01 1.96969E+01 0.00000E+00
 -1       585 8.27179E+01 3.88803E+01 0.00000E+00
 -1       586 7.81706E+01 3.86170E+01 0.00000E+00
 -1       587 7.09727E+01 3.23139E+01 0.00000E+00
 -1       588 7.84617E+01 1.64809E+01 0.00000E+00
 -1       589 7.79400E+00 2.79000E+01 0.00000E+00
 -1       590 8.29304E+01 1.64279E+01 0.00000E+00
 -1       591 7.54103E+01 1.74572E+01 0.00000E+00
 -1       592 8.02255E+01 1.63403E+01 0.00000E+00
 -1       593 6.98417E+01 2.78475E+01 0.00000E+00
 -1       594 7.33620E+01 1.86800E+01 0.00000E+00
 -1       595 7.18421E+01 2.11438E+01 0.00000E+00
 -1       596 7.09290E+01 2.31925E+01 0.00000E+00
 -1       597 7.58703E+01 3.76931E+01 0.00000E+00
 -1       598 7.02540E+01 2.51996E+01 0.00000E+00
 -1       599 7.01880E+01 3.00686E+01 0.00000E+00
 -1       600 7.21076E+01 3.41640E+01 0.00000E+00
 -1       601 8.57856E+01 3.80659E+01 0.00000E+00
 -1       602 7.37177E+01 3.59826E+01 0.00000E+00
 -1       603 8.00116E+01 3.88448E+01 0.00000E+00
 -1       604 9.10177E+01 3.31848E+01 0.00000E+00
 -1       605 8.78609E+01 3.67663E+01 0.00000E+00
 -1       606 8.93563E+01 3.52360E+01 0.00000E+00
 -1       607 9.27535E+01 2.62823E+01 0.00000E+00
 -1       608 7.61550E+00 6.21462E+00 0.00000E+00
 -1       609 8.74521E+01 1.84347E+01 0.00000E+00
 -1       610 7.79400E+00 3.67375E+01 0.00000E+00
 -1       611 1.41678E+02 4.22645E+01 0.00000E+00
 -1       612 8.46045E+01 3.97001E+01 0.00000E+00
 -1       613 7.14276E+01 1.90877E+01 0.00000E+00
 -1       614 7.64293E+01 1.57537E+01 0.00000E+00
 -1       615 1.03920E+01 2.05500E+01 0.00000E+00
 -1       616 1.03920E+01 2.35000E+01 0.00000E+00
 -1       617 1.03920E+01 1.46750E+01 0.00000E+00
 -1       618 1.03920E+01 1.17250E+01 0.00000E+00
 -1       619 1.15350E+01 9.20225E+00 0.00000E+00
 -1       620 9.11864E+01 1.92193E+01 0.00000E+00
 -1       621 1.45350E+01 9.20225E+00 0.00000E+00
 -1       622 8.45569E+01 1.51227E+01 0.00000E+00
 -1       623 9.16499E+01 3.53954E+01 0.00000E+00
 -1       624 1.51500E+01 3.96080E+01 0.00000E+00
 -1       625 1.81500E+01 3.96080E+01 0.00000E+00
 -1       626 2.11500E+01 3.96080E+01 0.00000E+00
 -1       627 2.41500E+01 3.96080E+01 0.00000E+00
 -1       628 2.71500E+01 3.96080E+01 0.00000E+00
 -1       629 3.01500E+01 3.96080E+01 0.00000E+00
 -1       630 3.31500E+01 3.96080E+01 0.00000E+00
 -1       631 3.61500E+01 3.96080E+01 0.00000E+00
 -1       632 3.91500E+01 3.96080E+01 0.00000E+00
 -1       633 4.21500E+01 3.96080E+01 0.00000E+00
 -1       634 4.51500E+01 3.96080E+01 0.00000E+00
 -1       635 4.81500E+01 3.96080E+01 0.00000E+00
 -1       636 5.11500E+01 3.96080E+01 0.00000E+00
 -1       637 5.41500E+01 3.96080E+01 0.00000E+00
 -1       638 5.71500E+01 3.96080E+01 0.00000E+00
 -1       639 6.01500E+01 3.96080E+01 0.00000E+00
 -1       640 6.31500E+01 3.96080E+01 0.00000E+00
 -1       641 6.61500E+01 3.96080E+01 0.00000E+00
 -1       642 6.91500E+01 3.96080E+01 0.00000E+00
 -1       643 7.21500E+01 3.96080E+01 0.00000E+00
 -1       644 7.81500E+01 4.01558E+01 0.00000E+00
 -1       645 9.01500E+01 3.96530E+01 0.00000E+00
 -1       646 9.31500E+01 3.96530E+01 0.00000E+00
 -1       647 9.61500E+01 3.96530E+01 0.00000E+00
 -1       648 9.91500E+01 3.96530E+01 0.00000E+00
 -1       649 1.02150E+02 3.96530E+01 0.00000E+00
 -1       650 1.05150E+02 3.96530E+01 0.00000E+00
 -1       651 1.08150E+02 3.96530E+01 0.00000E+00
 -1       652 1.11150E+02 3.96530E+01 0.00000E+00
 -1       653 1.14150E+02 3.96530E+01 0.00000E+00
 -1       654 1.17150E+02 3.96530E+01 0.00000E+00
 -1       655 1.20150E+02 3.96530E+01 0.00000E+00
 -1       656 1.23150E+02 3.96530E+01 0.00000E+00
 -1       657 1.26150E+02 3.96530E+01 0.00000E+00
 -1       658 1.29150E+02 3.96530E+01 0.00000E+00
 -1       659 1.32150E+02 3.96530E+01 0.00000E+00
 -1       660 1.35150E+02 3.96530E+01 0.00000E+00
 -1       661 1.38150E+02 3.96530E+01 0.00000E+00
 -1       662 6.81876E+01 2.62338E+01 0.00000E+00
 -1       663 7.16285E+01 3.62103E+01 0.00000E+00
 -1       664 2.05350E+01 9.20225E+00 0.00000E+00
 -1       665 2.95350E+01 9.20225E+00 0.00000E+00
 -1       666 3.25350E+01 9.20225E+00 0.00000E+00
 -1       667 3.55350E+01 9.20225E+00 0.00000E+00
 -1       668 3.85350E+01 9.20225E+00 0.00000E+00
 -1       669 4.15350E+01 9.20225E+00 0.00000E+00
 -1       670 4.45350E+01 9.20225E+00 0.00000E+00
 -1       671 4.75350E+01 9.20225E+00 0.00000E+00
 -1       672 5.05350E+01 9.20225E+00 0.00000E+00
 -1       673 5.35350E+01 9.20225E+00 0.00000E+00
 -1       674 5.65350E+01 9.20225E+00 0.00000E+00
 -1       675 5.95350E+01 9.20225E+00 0.00000E+00
 -1       676 6.25350E+01 9.20225E+00 0.00000E+00
 -1       677 6.55350E+01 9.20225E+00 0.00000E+00
 -1       678 6.85350E+01 9.20225E+00 0.00000E+00
 -1       679 7.15350E+01 9.20225E+00 0.00000E+00
 -1       680 7.45350E+01 9.20225E+00 0.00000E+00
 -1       681 7.75350E+01 9.20225E+00 0.00000E+00
 -1       682 8.05350E+01 9.20225E+00 0.00000E+00
 -1       683 8.35350E+01 9.20225E+00 0.00000E+00
 -1       684 8.65350E+01 9.20225E+00 0.00000E+00
 -1       685 8.95350E+01 9.20225E+00 0.00000E+00
 -1       686 9.25350E+01 9.20225E+00 0.00000E+00
 -1       687 9.55350E+01 9.20225E+00 0.00000E+00
 -1       688 9.85350E+01 9.20225E+00 0.00000E+00
 -1       689 1.01535E+02 9.20225E+00 0.00000E+00
 -1       690 1.04535E+02 9.20225E+00 0.00000E+00
 -1       691 1.07535E+02 9.20225E+00 0.00000E+00
 -1       692 1.10535E+02 9.20225E+00 0.00000E+00
 -1       693 1.13535E+02 9.20225E+00 0.00000E+00
 -1       694 1.16535E+02 9.20225E+00 0.00000E+00
 -1       695 1.19535E+02 9.20225E+00 0.00000E+00
 -1       696 1.22535E+02 9.20225E+00 0.00000E+00
 -1       697 1.25535E+02 9.20225E+00 0.00000E+00
 -1       698 1.28535E+02 9.20225E+00 0.00000E+00
 -1       699 1.31535E+02 9.20225E+00 0.00000E+00
 -1       700 1.34535E+02 9.20225E+00 0.00000E+00
 -1       701 1.37535E+02 9.20225E+00 0.00000E+00
 -1       702 1.39870E+02 9.76363E+00 0.00000E+00
 -1       703 1.39608E+02 2.35500E+01 0.00000E+00
 -1       704 1.40178E+02 3.96890E+01 0.00000E+00
 -1       705 1.39608E+02 1.76500E+01 0.00000E+00
 -1       706 1.39608E+02 2.65000E+01 0.00000E+00
 -1       707 1.39608E+02 2.06000E+01 0.00000E+00
 -1       708 9.31765E+01 2.15844E+01 0.00000E+00
 -1       709 1.39608E+02 2.94000E+01 0.00000E+00
 -1       710 1.39608E+02 3.23500E+01 0.00000E+00
 -1       711 1.39608E+02 3.53000E+01 0.00000E+00
 -1       712 1.75350E+01 9.20225E+00 0.00000E+00
 -1       713 9.41830E+01 3.07336E+01 0.00000E+00
 -1       714 9.78035E+00 3.93914E+01 0.00000E+00
 -1       715 7.37270E+01 3.81807E+01 0.00000E+00
 -1       716 7.91939E+01 1.45339E+01 0.00000E+00
 -1       717 9.44829E+01 2.79167E+01 0.00000E+00
 -1       718 7.60273E+01 3.91045E+01 0.00000E+00
 -1       719 2.65350E+01 9.20225E+00 0.00000E+00
 -1       720 2.35350E+01 9.20225E+00 0.00000E+00
 -1       721 6.84858E+01 2.91965E+01 0.00000E+00
 -1       722 7.33352E+01 1.63082E+01 0.00000E+00
 -1       723 1.24652E+01 3.94997E+01 0.00000E+00
 -1       724 7.00781E+01 3.41358E+01 0.00000E+00
 -1       725 6.98190E+01 2.14699E+01 0.00000E+00
 -1       726 8.16335E+01 1.46699E+01 0.00000E+00
 -1       727 6.89612E+01 3.17570E+01 0.00000E+00
 -1       728 8.78224E+01 3.90118E+01 0.00000E+00
 -1       729 1.03920E+01 1.76125E+01 0.00000E+00
 -1       730 6.90453E+01 2.36761E+01 0.00000E+00
 -1       731 1.03920E+01 3.23250E+01 0.00000E+00
 -1       732 9.29890E+01 3.31088E+01 0.00000E+00
 -1       733 9.43532E+01 2.44325E+01 0.00000E+00
 -1       734 9.00750E+01 3.74341E+01 0.00000E+00
 -1       735 8.94152E+01 1.76122E+01 0.00000E+00
 -1       736 8.72870E+01 1.61495E+01 0.00000E+00
 -1       737 1.03920E+01 3.52625E+01 0.00000E+00
 -1       738 1.03920E+01 2.64500E+01 0.00000E+00
 -1       739 7.51500E+01 3.99882E+01 0.00000E+00
 -1       740 1.39608E+02 1.47250E+01 0.00000E+00
 -1       741 8.71500E+01 3.98206E+01 0.00000E+00
 -1       742 1.39739E+02 1.22443E+01 0.00000E+00
 -1       743 7.14009E+01 1.67159E+01 0.00000E+00
 -1       744 1.38879E+02 3.74765E+01 0.00000E+00
 -1       745 7.71615E+01 1.38066E+01 0.00000E+00
 -1       746 9.60826E+01 2.60669E+01 0.00000E+00
 -1       747 7.43542E+01 1.46046E+01 0.00000E+00
 -1       748 1.03920E+01 2.93875E+01 0.00000E+00
 -1       749 6.87853E+01 1.90377E+01 0.00000E+00
 -1       750 1.29900E+01 1.32000E+01 0.00000E+00
 -1       751 8.97022E+01 1.49150E+01 0.00000E+00
 -1       752 9.58146E+01 2.21616E+01 0.00000E+00
 -1       753 1.96500E+01 3.70100E+01 0.00000E+00
 -1       754 2.26500E+01 3.70100E+01 0.00000E+00
 -1       755 2.56500E+01 3.70100E+01 0.00000E+00
 -1       756 2.86500E+01 3.70100E+01 0.00000E+00
 -1       757 3.16500E+01 3.70100E+01 0.00000E+00
 -1       758 3.46500E+01 3.70100E+01 0.00000E+00
 -1       759 3.76500E+01 3.70100E+01 0.00000E+00
 -1       760 4.06500E+01 3.70100E+01 0.00000E+00
 -1       761 4.36500E+01 3.70100E+01 0.00000E+00
 -1       762 4.66500E+01 3.70100E+01 0.00000E+00
 -1       763 4.96500E+01 3.70100E+01 0.00000E+00
 -1       764 5.26500E+01 3.70100E+01 0.00000E+00
 -1       765 5.56500E+01 3.70100E+01 0.00000E+00
 -1       766 5.86500E+01 3.70100E+01 0.00000E+00
 -1       767 6.16500E+01 3.70100E+01 0.00000E+00
 -1       768 6.46500E+01 3.70100E+01 0.00000E+00
 -1       769 6.76500E+01 3.70100E+01 0.00000E+00
 -1       770 6.68315E+01 2.43564E+01 0.00000E+00
 -1       771 9.46500E+01 3.70550E+01 0.00000E+00
 -1       772 9.76500E+01 3.70550E+01 0.00000E+00
 -1       773 1.00650E+02 3.70550E+01 0.00000E+00
 -1       774 1.03650E+02 3.70550E+01 0.00000E+00
 -1       775 1.06650E+02 3.70550E+01 0.00000E+00
 -1       776 1.09650E+02 3.70550E+01 0.00000E+00
 -1       777 1.12650E+02 3.70550E+01 0.00000E+00
 -1       778 1.15650E+02 3.70550E+01 0.00000E+00
 -1       779 1.18650E+02 3.70550E+01 0.00000E+00
 -1       780 1.21650E+02 3.70550E+01 0.00000E+00
 -1       781 1.24650E+02 3.70550E+01 0.00000E+00
 -1       782 1.27650E+02 3.70550E+01 0.00000E+00
 -1       783 1.30650E+02 3.70550E+01 0.00000E+00
 -1       784 1.33650E+02 3.70550E+01 0.00000E+00
 -1       785 1.36264E+02 3.72658E+01 0.00000E+00
 -1       786 8.33833E+01 1.30358E+01 0.00000E+00
 -1       787 3.10350E+01 1.18003E+01 0.00000E+00
 -1       788 4.00350E+01 1.18003E+01 0.00000E+00
 -1       789 4.30350E+01 1.18003E+01 0.00000E+00
 -1       790 4.60350E+01 1.18003E+01 0.00000E+00
 -1       791 4.90350E+01 1.18003E+01 0.00000E+00
 -1       792 5.20350E+01 1.18003E+01 0.00000E+00
 -1       793 5.50350E+01 1.18003E+01 0.00000E+00
 -1       794 5.80350E+01 1.18003E+01 0.00000E+00
 -1       795 6.10350E+01 1.18003E+01 0.00000E+00
 -1       796 6.40350E+01 1.18003E+01 0.00000E+00
 -1       797 6.70350E+01 1.18003E+01 0.00000E+00
 -1       798 7.00350E+01 1.18003E+01 0.00000E+00
 -1       799 7.30350E+01 1.18003E+01 0.00000E+00
 -1       800 8.20350E+01 1.18003E+01 0.00000E+00
 -1       801 8.80350E+01 1.18003E+01 0.00000E+00
 -1       802 9.10350E+01 1.18003E+01 0.00000E+00
 -1       803 9.40350E+01 1.18003E+01 0.00000E+00
 -1       804 9.70350E+01 1.18003E+01 0.00000E+00
 -1       805 1.00035E+02 1.18003E+01 0.00000E+00
 -1       806 1.03035E+02 1.18003E+01 0.00000E+00
 -1       807 1.06035E+02 1.18003E+01 0.00000E+00
 -1       808 1.09035E+02 1.18003E+01 0.00000E+00
 -1       809 1.12035E+02 1.18003E+01 0.00000E+00
 -1       810 1.15035E+02 1.18003E+01 0.00000E+00
 -1       811 1.18035E+02 1.18003E+01 0.00000E+00
 -1       812 1.21035E+02 1.18003E+01 0.00000E+00
 -1       813 1.24035E+02 1.18003E+01 0.00000E+00
 -1       814 1.27035E+02 1.18003E+01 0.00000E+00
 -1       815 1.30035E+02 1.18003E+01 0.00000E+00
 -1       816 1.33035E+02 1.18003E+01 0.00000E+00
 -1       817 1.36035E+02 1.18003E+01 0.00000E+00
 -1       818 1.37887E+02 1.20223E+01 0.00000E+00
 -1       819 1.29900E+01 2.20250E+01 0.00000E+00
 -1       820 1.37010E+02 3.08750E+01 0.00000E+00
 -1       821 1.37010E+02 2.50250E+01 0.00000E+00
 -1       822 1.37010E+02 3.38250E+01 0.00000E+00
 -1       823 1.37010E+02 2.79500E+01 0.00000E+00
 -1       824 6.64635E+01 2.79037E+01 0.00000E+00
 -1       825 3.70350E+01 1.18003E+01 0.00000E+00
 -1       826 6.68725E+01 3.08205E+01 0.00000E+00
 -1       827 3.40350E+01 1.18003E+01 0.00000E+00
 -1       828 8.05185E+01 1.27221E+01 0.00000E+00
 -1       829 6.93453E+01 3.63001E+01 0.00000E+00
 -1       830 6.74974E+01 2.18945E+01 0.00000E+00
 -1       831 9.62051E+01 2.95244E+01 0.00000E+00
 -1       832 8.65848E+01 1.38740E+01 0.00000E+00
 -1       833 1.66500E+01 3.70100E+01 0.00000E+00
 -1       834 2.20350E+01 1.18003E+01 0.00000E+00
 -1       835 2.80350E+01 1.18003E+01 0.00000E+00
 -1       836 2.50350E+01 1.18003E+01 0.00000E+00
 -1       837 9.43779E+01 3.54575E+01 0.00000E+00
 -1       838 9.15660E+01 1.70215E+01 0.00000E+00
 -1       839 1.37625E+01 1.12011E+01 0.00000E+00
 -1       840 6.78155E+01 3.37466E+01 0.00000E+00
 -1       841 9.24849E+01 3.76682E+01 0.00000E+00
 -1       842 9.55719E+01 3.30823E+01 0.00000E+00
 -1       843 9.36220E+01 1.91897E+01 0.00000E+00
 -1       844 1.29900E+01 2.49750E+01 0.00000E+00
 -1       845 1.29900E+01 3.37938E+01 0.00000E+00
 -1       846 1.29900E+01 1.61375E+01 0.00000E+00
 -1       847 9.75441E+01 2.37960E+01 0.00000E+00
 -1       848 6.51073E+01 2.60262E+01 0.00000E+00
 -1       849 1.37010E+02 1.61875E+01 0.00000E+00
 -1       850 7.90350E+01 1.15876E+01 0.00000E+00
 -1       851 8.50350E+01 1.15876E+01 0.00000E+00
 -1       852 1.29900E+01 1.90875E+01 0.00000E+00
 -1       853 1.37010E+02 1.91375E+01 0.00000E+00
 -1       854 1.29900E+01 3.08563E+01 0.00000E+00
 -1       855 1.67625E+01 1.12011E+01 0.00000E+00
 -1       856 1.37010E+02 2.20812E+01 0.00000E+00
 -1       857 1.93988E+01 1.15007E+01 0.00000E+00
 -1       858 1.39652E+01 3.69017E+01 0.00000E+00
 -1       859 9.78048E+01 2.76746E+01 0.00000E+00
 -1       860 7.19414E+01 1.43179E+01 0.00000E+00
 -1       861 9.75939E+01 3.18732E+01 0.00000E+00
 -1       862 9.62601E+01 1.97669E+01 0.00000E+00
 -1       863 1.36637E+02 3.55454E+01 0.00000E+00
 -1       864 2.41500E+01 3.44120E+01 0.00000E+00
 -1       865 2.71500E+01 3.44120E+01 0.00000E+00
 -1       866 3.01500E+01 3.44120E+01 0.00000E+00
 -1       867 3.31500E+01 3.44120E+01 0.00000E+00
 -1       868 3.61500E+01 3.44120E+01 0.00000E+00
 -1       869 3.91500E+01 3.44120E+01 0.00000E+00
 -1       870 4.21500E+01 3.44120E+01 0.00000E+00
 -1       871 4.51500E+01 3.44120E+01 0.00000E+00
 -1       872 4.81500E+01 3.44120E+01 0.00000E+00
 -1       873 5.11500E+01 3.44120E+01 0.00000E+00
 -1       874 5.41500E+01 3.44120E+01 0.00000E+00
 -1       875 5.71500E+01 3.44120E+01 0.00000E+00
 -1       876 6.01500E+01 3.44120E+01 0.00000E+00
 -1       877 6.31500E+01 3.44120E+01 0.00000E+00
 -1       878 6.54828E+01 3.40793E+01 0.00000E+00
 -1       879 9.55350E+01 1.43982E+01 0.00000E+00
 -1       880 6.85096E+01 1.60928E+01 0.00000E+00
 -1       881 9.91500E+01 3.44570E+01 0.00000E+00
 -1       882 1.02150E+02 3.44570E+01 0.00000E+00
 -1       883 1.05150E+02 3.44570E+01 0.00000E+00
 -1       884 1.08150E+02 3.44570E+01 0.00000E+00
 -1       885 1.11150E+02 3.44570E+01 0.00000E+00
 -1       886 1.14150E+02 3.44570E+01 0.00000E+00
 -1       887 1.17150E+02 3.44570E+01 0.00000E+00
 -1       888 1.20150E+02 3.44570E+01 0.00000E+00
 -1       889 1.23150E+02 3.44570E+01 0.00000E+00
 -1       890 1.26150E+02 3.44570E+01 0.00000E+00
 -1       891 1.29150E+02 3.44570E+01 0.00000E+00
 -1       892 1.32150E+02 3.44570E+01 0.00000E+00
 -1       893 1.37449E+02 1.41049E+01 0.00000E+00
 -1       894 4.15350E+01 1.43982E+01 0.00000E+00
 -1       895 5.05350E+01 1.43982E+01 0.00000E+00
 -1       896 5.35350E+01 1.43982E+01 0.00000E+00
 -1       897 5.65350E+01 1.43982E+01 0.00000E+00
 -1       898 5.95350E+01 1.43982E+01 0.00000E+00
 -1       899 6.25350E+01 1.43982E+01 0.00000E+00
 -1       900 6.55350E+01 1.43982E+01 0.00000E+00
 -1       901 9.85350E+01 1.43982E+01 0.00000E+00
 -1       902 1.01535E+02 1.43982E+01 0.00000E+00
 -1       903 1.04535E+02 1.43982E+01 0.00000E+00
 -1       904 1.07535E+02 1.43982E+01 0.00000E+00
 -1       905 1.10535E+02 1.43982E+01 0.00000E+00
 -1       906 1.13535E+02 1.43982E+01 0.00000E+00
 -1       907 1.16535E+02 1.43982E+01 0.00000E+00
 -1       908 1.19535E+02 1.43982E+01 0.00000E+00
 -1       909 1.22535E+02 1.43982E+01 0.00000E+00
 -1       910 1.25535E+02 1.43982E+01 0.00000E+00
 -1       911 1.28535E+02 1.43982E+01 0.00000E+00
 -1       912 1.31535E+02 1.43982E+01 0.00000E+00
 -1       913 6.62723E+01 1.96235E+01 0.00000E+00
 -1       914 9.24206E+01 1.43876E+01 0.00000E+00
 -1       915 1.34412E+02 3.23500E+01 0.00000E+00
 -1       916 3.85350E+01 1.43982E+01 0.00000E+00
 -1       917 6.50236E+01 2.25463E+01 0.00000E+00
 -1       918 1.59900E+01 1.32000E+01 0.00000E+00
 -1       919 2.95350E+01 1.43982E+01 0.00000E+00
 -1       920 2.35350E+01 1.43982E+01 0.00000E+00
 -1       921 1.81500E+01 3.44120E+01 0.00000E+00
 -1       922 4.75350E+01 1.43982E+01 0.00000E+00
 -1       923 6.48035E+01 2.96235E+01 0.00000E+00
 -1       924 2.65350E+01 1.43982E+01 0.00000E+00
 -1       925 1.29900E+01 2.79188E+01 0.00000E+00
 -1       926 4.45350E+01 1.43982E+01 0.00000E+00
 -1       927 2.11500E+01 3.44120E+01 0.00000E+00
 -1       928 9.43403E+01 1.70773E+01 0.00000E+00
 -1       929 9.63999E+01 3.42484E+01 0.00000E+00
 -1       930 9.79895E+01 2.14013E+01 0.00000E+00
 -1       931 1.55880E+01 3.23250E+01 0.00000E+00
 -1       932 6.34474E+01 2.77460E+01 0.00000E+00
 -1       933 1.34394E+02 3.50012E+01 0.00000E+00
 -1       934 1.55880E+01 2.35000E+01 0.00000E+00
 -1       935 6.39768E+01 3.20177E+01 0.00000E+00
 -1       936 1.55880E+01 2.05625E+01 0.00000E+00
 -1       937 1.34535E+02 1.43982E+01 0.00000E+00
 -1       938 1.34412E+02 2.64875E+01 0.00000E+00
 -1       939 1.34412E+02 2.35438E+01 0.00000E+00
 -1       940 1.34412E+02 2.94250E+01 0.00000E+00
 -1       941 3.55350E+01 1.43982E+01 0.00000E+00
 -1       942 9.91936E+01 3.00234E+01 0.00000E+00
 -1       943 3.25350E+01 1.43982E+01 0.00000E+00
 -1       944 2.08988E+01 1.40987E+01 0.00000E+00
 -1       945 9.92662E+01 2.54038E+01 0.00000E+00
 -1       946 1.34250E+02 1.73983E+01 0.00000E+00
 -1       947 1.55880E+01 2.93875E+01 0.00000E+00
 -1       948 2.86500E+01 3.18140E+01 0.00000E+00
 -1       949 3.16500E+01 3.18140E+01 0.00000E+00
 -1       950 3.46500E+01 3.18140E+01 0.00000E+00
 -1       951 3.76500E+01 3.18140E+01 0.00000E+00
 -1       952 4.06500E+01 3.18140E+01 0.00000E+00
 -1       953 4.36500E+01 3.18140E+01 0.00000E+00
 -1       954 4.66500E+01 3.18140E+01 0.00000E+00
 -1       955 4.96500E+01 3.18140E+01 0.00000E+00
 -1       956 5.26500E+01 3.18140E+01 0.00000E+00
 -1       957 5.56500E+01 3.18140E+01 0.00000E+00
 -1       958 5.86500E+01 3.18140E+01 0.00000E+00
 -1       959 6.13134E+01 3.19159E+01 0.00000E+00
 -1       960 1.85098E+01 3.13542E+01 0.00000E+00
 -1       961 1.63076E+01 1.65250E+01 0.00000E+00
 -1       962 1.03650E+02 3.18590E+01 0.00000E+00
 -1       963 1.06650E+02 3.18590E+01 0.00000E+00
 -1       964 1.09650E+02 3.18590E+01 0.00000E+00
 -1       965 1.12650E+02 3.18590E+01 0.00000E+00
 -1       966 1.15650E+02 3.18590E+01 0.00000E+00
 -1       967 1.18650E+02 3.18590E+01 0.00000E+00
 -1       968 1.21650E+02 3.18590E+01 0.00000E+00
 -1       969 1.24650E+02 3.18590E+01 0.00000E+00
 -1       970 1.27650E+02 3.18590E+01 0.00000E+00
 -1       971 1.30650E+02 3.18590E+01 0.00000E+00
 -1       972 5.80350E+01 1.69963E+01 0.00000E+00
 -1       973 6.44036E+01 1.70109E+01 0.00000E+00
 -1       974 1.55880E+01 2.64438E+01 0.00000E+00
 -1       975 5.50350E+01 1.69963E+01 0.00000E+00
 -1       976 5.20350E+01 1.69963E+01 0.00000E+00
 -1       977 6.10350E+01 1.69963E+01 0.00000E+00
 -1       978 1.78532E+01 1.40129E+01 0.00000E+00
 -1       979 4.00350E+01 1.69963E+01 0.00000E+00
 -1       980 1.06035E+02 1.69963E+01 0.00000E+00
 -1       981 1.09035E+02 1.69963E+01 0.00000E+00
 -1       982 1.12035E+02 1.69963E+01 0.00000E+00
 -1       983 1.15035E+02 1.69963E+01 0.00000E+00
 -1       984 1.18035E+02 1.69963E+01 0.00000E+00
 -1       985 1.21035E+02 1.69963E+01 0.00000E+00
 -1       986 1.24035E+02 1.69963E+01 0.00000E+00
 -1       987 1.27035E+02 1.69963E+01 0.00000E+00
 -1       988 1.30035E+02 1.69963E+01 0.00000E+00
 -1       989 6.31549E+01 1.99337E+01 0.00000E+00
 -1       990 1.03035E+02 1.69963E+01 0.00000E+00
 -1       991 2.50350E+01 1.69963E+01 0.00000E+00
 -1       992 1.00035E+02 1.69963E+01 0.00000E+00
 -1       993 1.34250E+02 2.03421E+01 0.00000E+00
 -1       994 2.80350E+01 1.69963E+01 0.00000E+00
 -1       995 2.26500E+01 3.18140E+01 0.00000E+00
 -1       996 6.30158E+01 2.43356E+01 0.00000E+00
 -1       997 4.90350E+01 1.69963E+01 0.00000E+00
 -1       998 2.56500E+01 3.18140E+01 0.00000E+00
 -1       999 1.00672E+02 3.22402E+01 0.00000E+00
 -1      1000 9.88783E+01 1.87286E+01 0.00000E+00
 -1      1001 9.72066E+01 1.65634E+01 0.00000E+00
 -1      1002 4.30350E+01 1.69963E+01 0.00000E+00
 -1      1003 1.31814E+02 2.79562E+01 0.00000E+00
 -1      1004 1.81860E+01 2.49719E+01 0.00000E+00
 -1      1005 6.23804E+01 2.98310E+01 0.00000E+00
 -1      1006 1.81860E+01 2.20344E+01 0.00000E+00
 -1      1007 6.11472E+01 2.17230E+01 0.00000E+00
 -1      1008 3.70350E+01 1.69963E+01 0.00000E+00
 -1      1009 1.00655E+02 2.77525E+01 0.00000E+00
 -1      1010 2.23988E+01 1.66967E+01 0.00000E+00
 -1      1011 9.97117E+01 2.30091E+01 0.00000E+00
 -1      1012 3.10350E+01 1.69963E+01 0.00000E+00
 -1      1013 1.30035E+02 1.99400E+01 0.00000E+00
 -1      1014 4.60350E+01 1.69963E+01 0.00000E+00
 -1      1015 1.31814E+02 2.50125E+01 0.00000E+00
 -1      1016 2.71500E+01 2.92160E+01 0.00000E+00
 -1      1017 1.93532E+01 1.66109E+01 0.00000E+00
 -1      1018 3.31500E+01 2.92160E+01 0.00000E+00
 -1      1019 3.61500E+01 2.92160E+01 0.00000E+00
 -1      1020 3.91500E+01 2.92160E+01 0.00000E+00
 -1      1021 4.21500E+01 2.92160E+01 0.00000E+00
 -1      1022 4.51500E+01 2.92160E+01 0.00000E+00
 -1      1023 4.81500E+01 2.92160E+01 0.00000E+00
 -1      1024 5.11500E+01 2.92160E+01 0.00000E+00
 -1      1025 5.41500E+01 2.92160E+01 0.00000E+00
 -1      1026 5.71500E+01 2.92160E+01 0.00000E+00
 -1      1027 5.05350E+01 1.95942E+01 0.00000E+00
 -1      1028 1.02153E+02 2.98058E+01 0.00000E+00
 -1      1029 1.08150E+02 2.92610E+01 0.00000E+00
 -1      1030 1.11150E+02 2.92610E+01 0.00000E+00
 -1      1031 1.14150E+02 2.92610E+01 0.00000E+00
 -1      1032 1.17150E+02 2.92610E+01 0.00000E+00
 -1      1033 1.20150E+02 2.92610E+01 0.00000E+00
 -1      1034 1.23150E+02 2.92610E+01 0.00000E+00
 -1      1035 1.26150E+02 2.92610E+01 0.00000E+00
 -1      1036 1.28982E+02 2.86086E+01 0.00000E+00
 -1      1037 5.35350E+01 1.95942E+01 0.00000E+00
 -1      1038 1.81860E+01 2.79156E+01 0.00000E+00
 -1      1039 1.13535E+02 1.95942E+01 0.00000E+00
 -1      1040 1.10535E+02 1.95942E+01 0.00000E+00
 -1      1041 1.07535E+02 1.95942E+01 0.00000E+00
 -1      1042 1.16535E+02 1.95942E+01 0.00000E+00
 -1      1043 1.19535E+02 1.95942E+01 0.00000E+00
 -1      1044 1.22535E+02 1.95942E+01 0.00000E+00
 -1      1045 1.25535E+02 1.95942E+01 0.00000E+00
 -1      1046 1.27785E+02 1.97671E+01 0.00000E+00
 -1      1047 6.10313E+01 2.63193E+01 0.00000E+00
 -1      1048 1.04535E+02 1.95942E+01 0.00000E+00
 -1      1049 5.95350E+01 1.95942E+01 0.00000E+00
 -1      1050 1.00600E+02 2.03364E+01 0.00000E+00
 -1      1051 3.40350E+01 1.69963E+01 0.00000E+00
 -1      1052 1.30924E+02 2.24762E+01 0.00000E+00
 -1      1053 2.65350E+01 1.95942E+01 0.00000E+00
 -1      1054 1.05150E+02 2.92610E+01 0.00000E+00
 -1      1055 2.41500E+01 2.92160E+01 0.00000E+00
 -1      1056 5.65350E+01 1.95942E+01 0.00000E+00
 -1      1057 2.11680E+01 2.85658E+01 0.00000E+00
 -1      1058 3.01500E+01 2.92160E+01 0.00000E+00
 -1      1059 1.01818E+02 1.86663E+01 0.00000E+00
 -1      1060 1.85055E+01 1.89997E+01 0.00000E+00
 -1      1061 4.75350E+01 1.95942E+01 0.00000E+00
 -1      1062 5.98134E+01 2.93179E+01 0.00000E+00
 -1      1063 1.28982E+02 2.56649E+01 0.00000E+00
 -1      1064 2.11680E+01 2.56221E+01 0.00000E+00
 -1      1065 2.11680E+01 2.26846E+01 0.00000E+00
 -1      1066 5.91627E+01 2.37067E+01 0.00000E+00
 -1      1067 3.85350E+01 1.95942E+01 0.00000E+00
 -1      1068 1.02197E+02 2.52558E+01 0.00000E+00
 -1      1069 2.38988E+01 1.92947E+01 0.00000E+00
 -1      1070 2.95350E+01 1.95942E+01 0.00000E+00
 -1      1071 4.15350E+01 1.95942E+01 0.00000E+00
 -1      1072 2.86500E+01 2.66180E+01 0.00000E+00
 -1      1073 4.45350E+01 1.95942E+01 0.00000E+00
 -1      1074 1.03318E+02 2.12643E+01 0.00000E+00
 -1      1075 3.76500E+01 2.66180E+01 0.00000E+00
 -1      1076 4.06500E+01 2.66180E+01 0.00000E+00
 -1      1077 4.36500E+01 2.66180E+01 0.00000E+00
 -1      1078 4.66500E+01 2.66180E+01 0.00000E+00
 -1      1079 4.96500E+01 2.66180E+01 0.00000E+00
 -1      1080 5.26500E+01 2.66180E+01 0.00000E+00
 -1      1081 5.56500E+01 2.66180E+01 0.00000E+00
 -1      1082 2.56500E+01 2.66180E+01 0.00000E+00
 -1      1083 1.12650E+02 2.66630E+01 0.00000E+00
 -1      1084 1.15650E+02 2.66630E+01 0.00000E+00
 -1      1085 1.18650E+02 2.66630E+01 0.00000E+00
 -1      1086 1.21650E+02 2.66630E+01 0.00000E+00
 -1      1087 1.24650E+02 2.66630E+01 0.00000E+00
 -1      1088 1.26816E+02 2.61640E+01 0.00000E+00
 -1      1089 1.12035E+02 2.21922E+01 0.00000E+00
 -1      1090 1.18035E+02 2.21922E+01 0.00000E+00
 -1      1091 1.15035E+02 2.21922E+01 0.00000E+00
 -1      1092 1.09035E+02 2.21922E+01 0.00000E+00
 -1      1093 5.78489E+01 2.16505E+01 0.00000E+00
 -1      1094 2.02924E+01 1.93655E+01 0.00000E+00
 -1      1095 1.21035E+02 2.21922E+01 0.00000E+00
 -1      1096 1.24035E+02 2.21922E+01 0.00000E+00
 -1      1097 1.06035E+02 2.21922E+01 0.00000E+00
 -1      1098 5.20350E+01 2.21922E+01 0.00000E+00
 -1      1099 5.50350E+01 2.21922E+01 0.00000E+00
 -1      1100 1.03673E+02 2.72584E+01 0.00000E+00
 -1      1101 3.46500E+01 2.66180E+01 0.00000E+00
 -1      1102 3.16500E+01 2.66180E+01 0.00000E+00
 -1      1103 3.55350E+01 1.95942E+01 0.00000E+00
 -1      1104 1.06650E+02 2.66630E+01 0.00000E+00
 -1      1105 3.25350E+01 1.95942E+01 0.00000E+00
 -1      1106 1.09650E+02 2.66630E+01 0.00000E+00
 -1      1107 4.90350E+01 2.21922E+01 0.00000E+00
 -1      1108 5.83407E+01 2.64686E+01 0.00000E+00
 -1      1109 2.34090E+01 2.61200E+01 0.00000E+00
 -1      1110 2.49235E+01 2.20259E+01 0.00000E+00
 -1      1111 1.26285E+02 2.23651E+01 0.00000E+00
 -1      1112 1.28674E+02 2.23034E+01 0.00000E+00
 -1      1113 2.79235E+01 2.20259E+01 0.00000E+00
 -1      1114 3.70350E+01 2.21922E+01 0.00000E+00
 -1      1115 1.04854E+02 2.47253E+01 0.00000E+00
 -1      1116 4.00350E+01 2.21922E+01 0.00000E+00
 -1      1117 4.30350E+01 2.21922E+01 0.00000E+00
 -1      1118 2.71500E+01 2.40200E+01 0.00000E+00
 -1      1119 4.81500E+01 2.40200E+01 0.00000E+00
 -1      1120 3.40350E+01 2.21922E+01 0.00000E+00
 -1      1121 3.31500E+01 2.40200E+01 0.00000E+00
 -1      1122 2.37660E+01 2.41533E+01 0.00000E+00
 -1      1123 3.01500E+01 2.40200E+01 0.00000E+00
 -1      1124 4.60350E+01 2.21922E+01 0.00000E+00
 -1      1125 3.09793E+01 2.21091E+01 0.00000E+00
 -1      1126 5.68513E+01 2.39493E+01 0.00000E+00
 -1      1127 4.51500E+01 2.40200E+01 0.00000E+00
 -1      1128 0.00000E+00 4.85250E+01 0.00000E+00
 -1      1129 0.00000E+00 4.55750E+01 0.00000E+00
 -1      1130 0.00000E+00 4.26250E+01 0.00000E+00
 -1      1131 0.00000E+00 3.96750E+01 0.00000E+00
 -1      1132 0.00000E+00 3.67250E+01 0.00000E+00
 -1      1133 0.00000E+00 3.38000E+01 0.00000E+00
 -1      1134 0.00000E+00 3.08750E+01 0.00000E+00
 -1      1135 0.00000E+00 2.79250E+01 0.00000E+00
 -1      1136 0.00000E+00 2.49750E+01 0.00000E+00
 -1      1137 0.00000E+00 2.20250E+01 0.00000E+00
 -1      1138 0.00000E+00 1.90750E+01 0.00000E+00
 -1      1139 0.00000E+00 1.61500E+01 0.00000E+00
 -1      1140 0.00000E+00 1.32250E+01 0.00000E+00
 -1      1141 0.00000E+00 1.02750E+01 0.00000E+00
 -1      1142 0.00000E+00 7.32500E+00 0.00000E+00
 -1      1143 0.00000E+00 4.37500E+00 0.00000E+00
 -1      1144 0.00000E+00 1.45000E+00 0.00000E+00
 -1      1145 1.57500E+00 5.00000E+01 0.00000E+00
 -1      1146 4.65000E+00 5.00000E+01 0.00000E+00
 -1      1147 7.65000E+00 5.00000E+01 0.00000E+00
 -1      1148 1.06500E+01 5.00000E+01 0.00000E+00
 -1      1149 1.36500E+01 5.00000E+01 0.00000E+00
 -1      1150 1.66500E+01 5.00000E+01 0.00000E+00
 -1      1151 1.96500E+01 5.00000E+01 0.00000E+00
 -1      1152 2.26500E+01 5.00000E+01 0.00000E+00
 -1      1153 2.56500E+01 5.00000E+01 0.00000E+00
 -1      1154 2.86500E+01 5.00000E+01 0.00000E+00
 -1      1155 3.16500E+01 5.00000E+01 0.00000E+00
 -1      1156 3.46500E+01 5.00000E+01 0.00000E+00
 -1      1157 3.76500E+01 5.00000E+01 0.00000E+00
 -1      1158 4.06500E+01 5.00000E+01 0.00000E+00
 -1      1159 4.36500E+01 5.00000E+01 0.00000E+00
 -1      1160 4.66500E+01 5.00000E+01 0.00000E+00
 -1      1161 4.96500E+01 5.00000E+01 0.00000E+00
 -1      1162 5.26500E+01 5.00000E+01 0.00000E+00
 -1      1163 5.56500E+01 5.00000E+01 0.00000E+00
 -1      1164 5.86500E+01 5.00000E+01 0.00000E+00
 -1      1165 6.16500E+01 5.00000E+01 0.00000E+00
 -1      1166 6.46500E+01 5.00000E+01 0.00000E+00
 -1      1167 6.76500E+01 5.00000E+01 0.00000E+00
 -1      1168 7.06500E+01 5.00000E+01 0.00000E+00
 -1      1169 7.36500E+01 5.00000E+01 0.00000E+00
 -1      1170 7.66500E+01 5.00000E+01 0.00000E+00
 -1      1171 7.96500E+01 5.00000E+01 0.00000E+00
 -1      1172 8.26500E+01 5.00000E+01 0.00000E+00
 -1      1173 8.56500E+01 5.00000E+01 0.00000E+00
 -1      1174 8.86500E+01 5.00000E+01 0.00000E+00
 -1      1175 9.16500E+01 5.00000E+01 0.00000E+00
 -1      1176 9.46500E+01 5.00000E+01 0.00000E+00
 -1      1177 9.76500E+01 5.00000E+01 0.00000E+00
 -1      1178 1.00650E+02 5.00000E+01 0.00000E+00
 -1      1179 1.03650E+02 5.00000E+01 0.00000E+00
 -1      1180 1.06650E+02 5.00000E+01 0.00000E+00
 -1      1181 1.09650E+02 5.00000E+01 0.00000E+00
 -1      1182 1.12650E+02 5.00000E+01 0.00000E+00
 -1      1183 1.15650E+02 5.00000E+01 0.00000E+00
 -1      1184 1.18650E+02 5.00000E+01 0.00000E+00
 -1      1185 1.21650E+02 5.00000E+01 0.00000E+00
 -1      1186 1.24650E+02 5.00000E+01 0.00000E+00
 -1      1187 1.27650E+02 5.00000E+01 0.00000E+00
 -1      1188 1.30650E+02 5.00000E+01 0.00000E+00
 -1      1189 1.33650E+02 5.00000E+01 0.00000E+00
 -1      1190 1.36650E+02 5.00000E+01 0.00000E+00
 -1      1191 1.39650E+02 5.00000E+01 0.00000E+00
 -1      1192 1.42650E+02 5.00000E+01 0.00000E+00
 -1      1193 1.45650E+02 5.00000E+01 0.00000E+00
 -1      1194 1.48575E+02 5.00000E+01 0.00000E+00
 -1      1195 1.57500E+00 0.00000E+00 0.00000E+00
 -1      1196 4.65000E+00 0.00000E+00 0.00000E+00
 -1      1197 7.65000E+00 0.00000E+00 0.00000E+00
 -1      1198 1.06500E+01 0.00000E+00 0.00000E+00
 -1      1199 1.36500E+01 0.00000E+00 0.00000E+00
 -1      1200 1.66500E+01 0.00000E+00 0.00000E+00
 -1      1201 1.96500E+01 0.00000E+00 0.00000E+00
 -1      1202 2.26500E+01 0.00000E+00 0.00000E+00
 -1      1203 2.56500E+01 0.00000E+00 0.00000E+00
 -1      1204 2.86500E+01 0.00000E+00 0.00000E+00
 -1      1205 3.16500E+01 0.00000E+00 0.00000E+00
 -1      1206 3.46500E+01 0.00000E+00 0.00000E+00
 -1      1207 3.76500E+01 0.00000E+00 0.00000E+00
 -1      1208 4.06500E+01 0.00000E+00 0.00000E+00
 -1      1209 4.36500E+01 0.00000E+00 0.00000E+00
 -1      1210 4.66500E+01 0.00000E+00 0.00000E+00
 -1      1211 4.96500E+01 0.00000E+00 0.00000E+00
 -1      1212 5.26500E+01 0.00000E+00 0.00000E+00
 -1      1213 5.56500E+01 0.00000E+00 0.00000E+00
 -1      1214 5.86500E+01 0.00000E+00 0.00000E+00
 -1      1215 6.16500E+01 0.00000E+00 0.00000E+00
 -1      1216 6.46500E+01 0.00000E+00 0.00000E+00
 -1      1217 6.76500E+01 0.00000E+00 0.00000E+00
 -1      1218 7.06500E+01 0.00000E+00 0.00000E+00
 -1      1219 7.36500E+01 0.00000E+00 0.00000E+00
 -1      1220 7.66500E+01 0.00000E+00 0.00000E+00
 -1      1221 7.96500E+01 0.00000E+00 0.00000E+00
 -1      1222 8.26500E+01 0.00000E+00 0.00000E+00
 -1      1223 8.56500E+01 0.00000E+00 0.00000E+00
 -1      1224 8.86500E+01 0.00000E+00 0.00000E+00
 -1      1225 9.16500E+01 0.00000E+00 0.00000E+00
 -1      1226 9.46500E+01 0.00000E+00 0.00000E+00
 -1      1227 9.76500E+01 0.00000E+00 0.00000E+00
 -1      1228 1.00650E+02 0.00000E+00 0.00000E+00
 -1      1229 1.03650E+02 0.00000E+00 0.00000E+00
 -1      1230 1.06650E+02 0.00000E+00 0.00000E+00
 -1      1231 1.09650E+02 0.00000E+00 0.00000E+00
 -1      1232 1.12650E+02 0.00000E+00 0.00000E+00
 -1      1233 1.15650E+02 0.00000E+00 0.00000E+00
 -1      1234 1.18650E+02 0.00000E+00 0.00000E+00
 -1      1235 1.21650E+02 0.00000E+00 0.00000E+00
 -1      1236 1.24650E+02 0.00000E+00 0.00000E+00
 -1      1237 1.27650E+02 0.00000E+00 0.00000E+00
 -1      1238 1.30650E+02 0.00000E+00 0.00000E+00
 -1      1239 1.33650E+02 0.00000E+00 0.00000E+00
 -1      1240 1.36650E+02 0.00000E+00 0.00000E+00
 -1      1241 1.39650E+02 0.00000E+00 0.00000E+00
 -1      1242 1.42650E+02 0.00000E+00 0.00000E+00
 -1      1243 1.45650E+02 0.00000E+00 0.00000E+00
 -1      1244 1.48575E+02 0.00000E+00 0.00000E+00
 -1      1245 1.50000E+02 1.47500E+00 0.00000E+00
 -1      1246 1.50000E+02 4.42500E+00 0.00000E+00
 -1      1247 1.50000E+02 7.37500E+00 0.00000E+00
 -1      1248 1.50000E+02 1.03250E+01 0.00000E+00
 -1      1249 1.50000E+02 1.32750E+01 0.00000E+00
 -1      1250 1.50000E+02 1.62000E+01 0.00000E+00
 -1      1251 1.50000E+02 1.91250E+01 0.00000E+00
 -1      1252 1.50000E+02 2.20750E+01 0.00000E+00
 -1      1253 1.50000E+02 2.50250E+01 0.00000E+00
 -1      1254 1.50000E+02 2.79750E+01 0.00000E+00
 -1      1255 1.50000E+02 3.09250E+01 0.00000E+00
 -1      1256 1.50000E+02 3.38500E+01 0.00000E+00
 -1      1257 1.50000E+02 3.67750E+01 0.00000E+00
 -1      1258 1.50000E+02 3.97250E+01 0.00000E+00
 -1      1259 1.50000E+02 4.26750E+01 0.00000E+00
 -1      1260 1.50000E+02 4.56250E+01 0.00000E+00
 -1      1261 1.50000E+02 4.85500E+01 0.00000E+00
 -1      1262 8.81010E+01 2.67285E+01 0.00000E+00
 -1      1263 8.77576E+01 2.52426E+01 0.00000E+00
 -1      1264 8.71135E+01 2.38873E+01 0.00000E+00
 -1      1265 8.61634E+01 2.26675E+01 0.00000E+00
 -1      1266 8.50143E+01 2.17159E+01 0.00000E+00
 -1      1267 8.36985E+01 2.10330E+01 0.00000E+00
 -1      1268 8.22181E+01 2.06344E+01 0.00000E+00
 -1      1269 8.07066E+01 2.05665E+01 0.00000E+00
 -1      1270 7.92342E+01 2.08196E+01 0.00000E+00
 -1      1271 7.77710E+01 2.14218E+01 0.00000E+00
 -1      1272 7.65298E+01 2.22934E+01 0.00000E+00
 -1      1273 7.54985E+01 2.34215E+01 0.00000E+00
 -1      1274 7.47369E+01 2.47459E+01 0.00000E+00
 -1      1275 7.42970E+01 2.61239E+01 0.00000E+00
 -1      1276 7.41501E+01 2.76274E+01 0.00000E+00
 -1      1277 7.43296E+01 2.91291E+01 0.00000E+00
 -1      1278 7.48084E+01 3.05168E+01 0.00000E+00
 -1      1279 7.55648E+01 3.17725E+01 0.00000E+00
 -1      1280 7.65812E+01 3.28561E+01 0.00000E+00
 -1      1281 7.78327E+01 3.37166E+01 0.00000E+00
 -1      1282 7.92672E+01 3.42946E+01 0.00000E+00
 -1      1283 8.07422E+01 3.45406E+01 0.00000E+00
 -1      1284 8.22738E+01 3.44616E+01 0.00000E+00
 -1      1285 8.38228E+01 3.40219E+01 0.00000E+00
 -1      1286 8.51689E+01 3.32836E+01 0.00000E+00
 -1      1287 8.62726E+01 3.23228E+01 0.00000E+00
 -1      1288 8.71437E+01 3.11679E+01 0.00000E+00
 -1      1289 8.77680E+01 2.98322E+01 0.00000E+00
 -1      1290 8.81057E+01 2.83362E+01 0.00000E+00
 -1      1291 1.57500E+00 4.85250E+01 0.00000E+00
 -1      1292 1.29900E+00 4.48375E+01 0.00000E+00
 -1      1293 1.29900E+00 4.63125E+01 0.00000E+00
 -1      1294 1.29900E+00 4.18875E+01 0.00000E+00
 -1      1295 1.29900E+00 4.33625E+01 0.00000E+00
 -1      1296 2.59800E+00 4.41000E+01 0.00000E+00
 -1      1297 1.29900E+00 3.89375E+01 0.00000E+00
 -1      1298 1.29900E+00 4.04125E+01 0.00000E+00
 -1      1299 2.59800E+00 4.11500E+01 0.00000E+00
 -1      1300 1.29900E+00 3.59875E+01 0.00000E+00
 -1      1301 1.29900E+00 3.74625E+01 0.00000E+00
 -1      1302 2.59800E+00 3.82000E+01 0.00000E+00
 -1      1303 1.29900E+00 3.30875E+01 0.00000E+00
 -1      1304 1.29900E+00 3.45375E+01 0.00000E+00
 -1      1305 2.59800E+00 3.52750E+01 0.00000E+00
 -1      1306 1.29900E+00 3.01375E+01 0.00000E+00
 -1      1307 1.29900E+00 3.16125E+01 0.00000E+00
 -1      1308 2.59800E+00 3.23500E+01 0.00000E+00
 -1      1309 1.29900E+00 2.71875E+01 0.00000E+00
 -1      1310 1.29900E+00 2.86625E+01 0.00000E+00
 -1      1311 2.59800E+00 2.94000E+01 0.00000E+00
 -1      1312 1.29900E+00 2.42375E+01 0.00000E+00
 -1      1313 1.29900E+00 2.57125E+01 0.00000E+00
 -1      1314 2.59800E+00 2.64500E+01 0.00000E+00
 -1      1315 1.29900E+00 2.12875E+01 0.00000E+00
 -1      1316 1.29900E+00 2.27625E+01 0.00000E+00
 -1      1317 2.59800E+00 2.35000E+01 0.00000E+00
 -1      1318 1.29900E+00 1.83375E+01 0.00000E+00
 -1      1319 1.29900E+00 1.98125E+01 0.00000E+00
 -1      1320 2.59800E+00 2.05500E+01 0.00000E+00
 -1      1321 1.29900E+00 1.54375E+01 0.00000E+00
 -1      1322 1.29900E+00 1.68875E+01 0.00000E+00
 -1      1323 2.59800E+00 1.76250E+01 0.00000E+00
 -1      1324 1.29900E+00 1.24875E+01 0.00000E+00
 -1      1325 1.29900E+00 1.39625E+01 0.00000E+00
 -1      1326 2.59800E+00 1.47000E+01 0.00000E+00
 -1      1327 1.29900E+00 9.53750E+00 0.00000E+00
 -1      1328 1.29900E+00 1.10125E+01 0.00000E+00
 -1      1329 2.59800E+00 1.17500E+01 0.00000E+00
 -1      1330 1.29900E+00 6.58750E+00 0.00000E+00
 -1      1331 1.29900E+00 8.06250E+00 0.00000E+00
 -1      1332 2.59800E+00 8.80000E+00 0.00000E+00
 -1      1333 1.29900E+00 3.63750E+00 0.00000E+00
 -1      1334 1.29900E+00 5.11250E+00 0.00000E+00
 -1      1335 2.59800E+00 5.85000E+00 0.00000E+00
 -1      1336 1.43700E+00 1.09375E+00 0.00000E+00
 -1      1337 1.43700E+00 2.54375E+00 0.00000E+00
 -1      1338 2.73600E+00 3.28125E+00 0.00000E+00
 -1      1339 3.01200E+00 1.09375E+00 0.00000E+00
 -1      1340 3.90000E+00 4.87010E+01 0.00000E+00
 -1      1341 5.40000E+00 4.87010E+01 0.00000E+00
 -1      1342 6.90000E+00 4.87010E+01 0.00000E+00
 -1      1343 8.40000E+00 4.87010E+01 0.00000E+00
 -1      1344 6.15000E+00 4.74020E+01 0.00000E+00
 -1      1345 9.90000E+00 4.87010E+01 0.00000E+00
 -1      1346 1.14000E+01 4.87010E+01 0.00000E+00
 -1      1347 9.15000E+00 4.74020E+01 0.00000E+00
 -1      1348 1.29000E+01 4.87010E+01 0.00000E+00
 -1      1349 1.44000E+01 4.87010E+01 0.00000E+00
 -1      1350 1.21500E+01 4.74020E+01 0.00000E+00
 -1      1351 1.59000E+01 4.87010E+01 0.00000E+00
 -1      1352 1.74000E+01 4.87010E+01 0.00000E+00
 -1      1353 1.51500E+01 4.74020E+01 0.00000E+00
 -1      1354 1.89000E+01 4.87010E+01 0.00000E+00
 -1      1355 2.04000E+01 4.87010E+01 0.00000E+00
 -1      1356 1.81500E+01 4.74020E+01 0.00000E+00
 -1      1357 2.19000E+01 4.87010E+01 0.00000E+00
 -1      1358 2.34000E+01 4.87010E+01 0.00000E+00
 -1      1359 2.11500E+01 4.74020E+01 0.00000E+00
 -1      1360 2.49000E+01 4.87010E+01 0.00000E+00
 -1      1361 2.64000E+01 4.87010E+01 0.00000E+00
 -1      1362 2.41500E+01 4.74020E+01 0.00000E+00
 -1      1363 2.79000E+01 4.87010E+01 0.00000E+00
 -1      1364 2.94000E+01 4.87010E+01 0.00000E+00
 -1      1365 2.71500E+01 4.74020E+01 0.00000E+00
 -1      1366 3.09000E+01 4.87010E+01 0.00000E+00
 -1      1367 3.24000E+01 4.87010E+01 0.00000E+00
 -1      1368 3.01500E+01 4.74020E+01 0.00000E+00
 -1      1369 3.39000E+01 4.87010E+01 0.00000E+00
 -1      1370 3.54000E+01 4.87010E+01 0.00000E+00
 -1      1371 3.31500E+01 4.74020E+01 0.00000E+00
 -1      1372 3.69000E+01 4.87010E+01 0.00000E+00
 -1      1373 3.84000E+01 4.87010E+01 0.00000E+00
 -1      1374 3.61500E+01 4.74020E+01 0.00000E+00
 -1      1375 3.99000E+01 4.87010E+01 0.00000E+00
 -1      1376 4.14000E+01 4.87010E+01 0.00000E+00
 -1      1377 3.91500E+01 4.74020E+01 0.00000E+00
 -1      1378 4.29000E+01 4.87010E+01 0.00000E+00
 -1      1379 4.44000E+01 4.87010E+01 0.00000E+00
 -1      1380 4.21500E+01 4.74020E+01 0.00000E+00
 -1      1381 4.59000E+01 4.87010E+01 0.00000E+00
 -1      1382 4.74000E+01 4.87010E+01 0.00000E+00
 -1      1383 4.51500E+01 4.74020E+01 0.00000E+00
 -1      1384 4.89000E+01 4.87010E+01 0.00000E+00
 -1      1385 5.04000E+01 4.87010E+01 0.00000E+00
 -1      1386 4.81500E+01 4.74020E+01 0.00000E+00
 -1      1387 5.19000E+01 4.87010E+01 0.00000E+00
 -1      1388 5.34000E+01 4.87010E+01 0.00000E+00
 -1      1389 5.11500E+01 4.74020E+01 0.00000E+00
 -1      1390 5.49000E+01 4.87010E+01 0.00000E+00
 -1      1391 5.64000E+01 4.87010E+01 0.00000E+00
 -1      1392 5.41500E+01 4.74020E+01 0.00000E+00
 -1      1393 5.79000E+01 4.87010E+01 0.00000E+00
 -1      1394 5.94000E+01 4.87010E+01 0.00000E+00
 -1      1395 5.71500E+01 4.74020E+01 0.00000E+00
 -1      1396 6.09000E+01 4.87010E+01 0.00000E+00
 -1      1397 6.24000E+01 4.87010E+01 0.00000E+00
 -1      1398 6.01500E+01 4.74020E+01 0.00000E+00
 -1      1399 6.39000E+01 4.87010E+01 0.00000E+00
 -1      1400 6.54000E+01 4.87010E+01 0.00000E+00
 -1      1401 6.31500E+01 4.74020E+01 0.00000E+00
 -1      1402 6.69000E+01 4.87010E+01 0.00000E+00
 -1      1403 6.84000E+01 4.87010E+01 0.00000E+00
 -1      1404 6.61500E+01 4.74020E+01 0.00000E+00
 -1      1405 6.99000E+01 4.87010E+01 0.00000E+00
 -1      1406 7.14000E+01 4.87010E+01 0.00000E+00
 -1      1407 6.91500E+01 4.74020E+01 0.00000E+00
 -1      1408 7.29000E+01 4.87010E+01 0.00000E+00
 -1      1409 7.44000E+01 4.87010E+01 0.00000E+00
 -1      1410 7.21500E+01 4.74020E+01 0.00000E+00
 -1      1411 7.59000E+01 4.87010E+01 0.00000E+00
 -1      1412 7.74000E+01 4.87010E+01 0.00000E+00
 -1      1413 7.51500E+01 4.74020E+01 0.00000E+00
 -1      1414 7.89000E+01 4.87010E+01 0.00000E+00
 -1      1415 8.04000E+01 4.87010E+01 0.00000E+00
 -1      1416 7.81500E+01 4.74020E+01 0.00000E+00
 -1      1417 8.19000E+01 4.87010E+01 0.00000E+00
 -1      1418 8.34000E+01 4.87010E+01 0.00000E+00
 -1      1419 8.11500E+01 4.74020E+01 0.00000E+00
 -1      1420 8.49000E+01 4.87010E+01 0.00000E+00
 -1      1421 8.64000E+01 4.87010E+01 0.00000E+00
 -1      1422 8.41500E+01 4.74020E+01 0.00000E+00
 -1      1423 8.79000E+01 4.87010E+01 0.00000E+00
 -1      1424 8.94000E+01 4.87010E+01 0.00000E+00
 -1      1425 8.71500E+01 4.74020E+01 0.00000E+00
 -1      1426 9.09000E+01 4.87010E+01 0.00000E+00
 -1      1427 9.24000E+01 4.87010E+01 0.00000E+00
 -1      1428 9.01500E+01 4.74020E+01 0.00000E+00
 -1      1429 9.39000E+01 4.87010E+01 0.00000E+00
 -1      1430 9.54000E+01 4.87010E+01 0.00000E+00
 -1      1431 9.31500E+01 4.74020E+01 0.00000E+00
 -1      1432 9.69000E+01 4.87010E+01 0.00000E+00
 -1      1433 9.84000E+01 4.87010E+01 0.00000E+00
 -1      1434 9.61500E+01 4.74020E+01 0.00000E+00
 -1      1435 9.99000E+01 4.87010E+01 0.00000E+00
 -1      1436 1.01400E+02 4.87010E+01 0.00000E+00
 -1      1437 9.91500E+01 4.74020E+01 0.00000E+00
 -1      1438 1.02900E+02 4.87010E+01 0.00000E+00
 -1      1439 1.04400E+02 4.87010E+01 0.00000E+00
 -1      1440 1.02150E+02 4.74020E+01 0.00000E+00
 -1      1441 1.05900E+02 4.87010E+01 0.00000E+00
 -1      1442 1.07400E+02 4.87010E+01 0.00000E+00
 -1      1443 1.05150E+02 4.74020E+01 0.00000E+00
 -1      1444 1.08900E+02 4.87010E+01 0.00000E+00
 -1      1445 1.10400E+02 4.87010E+01 0.00000E+00
 -1      1446 1.08150E+02 4.74020E+01 0.00000E+00
 -1      1447 1.11900E+02 4.87010E+01 0.00000E+00
 -1      1448 1.13400E+02 4.87010E+01 0.00000E+00
 -1      1449 1.11150E+02 4.74020E+01 0.00000E+00
 -1      1450 1.14900E+02 4.87010E+01 0.00000E+00
 -1      1451 1.16400E+02 4.87010E+01 0.00000E+00
 -1      1452 1.14150E+02 4.74020E+01 0.00000E+00
 -1      1453 1.17900E+02 4.87010E+01 0.00000E+00
 -1      1454 1.19400E+02 4.87010E+01 0.00000E+00
 -1      1455 1.17150E+02 4.74020E+01 0.00000E+00
 -1      1456 1.20900E+02 4.87010E+01 0.00000E+00
 -1      1457 1.22400E+02 4.87010E+01 0.00000E+00
 -1      1458 1.20150E+02 4.74020E+01 0.00000E+00
 -1      1459 1.23900E+02 4.87010E+01 0.00000E+00
 -1      1460 1.25400E+02 4.87010E+01 0.00000E+00
 -1      1461 1.23150E+02 4.74020E+01 0.00000E+00
 -1      1462 1.26900E+02 4.87010E+01 0.00000E+00
 -1      1463 1.28400E+02 4.87010E+01 0.00000E+00
 -1      1464 1.26150E+02 4.74020E+01 0.00000E+00
 -1      1465 1.29900E+02 4.87010E+01 0.00000E+00
 -1      1466 1.31400E+02 4.87010E+01 0.00000E+00
 -1      1467 1.29150E+02 4.74020E+01 0.00000E+00
 -1      1468 1.32900E+02 4.87010E+01 0.00000E+00
 -1      1469 1.34400E+02 4.87010E+01 0.00000E+00
 -1      1470 1.32150E+02 4.74020E+01 0.00000E+00
 -1      1471 1.35900E+02 4.87010E+01 0.00000E+00
 -1      1472 1.37400E+02 4.87010E+01 0.00000E+00
 -1      1473 1.35150E+02 4.74020E+01 0.00000E+00
 -1      1474 1.38900E+02 4.87010E+01 0.00000E+00
 -1      1475 1.40400E+02 4.87010E+01 0.00000E+00
 -1      1476 1.38150E+02 4.74020E+01 0.00000E+00
 -1      1477 1.41900E+02 4.87010E+01 0.00000E+00
 -1      1478 1.43400E+02 4.87010E+01 0.00000E+00
 -1      1479 1.41150E+02 4.74020E+01 0.00000E+00
 -1      1480 1.44900E+02 4.87010E+01 0.00000E+00
 -1      1481 1.46400E+02 4.87010E+01 0.00000E+00
 -1      1482 1.44150E+02 4.74020E+01 0.00000E+00
 -1      1483 1.48575E+02 4.85500E+01 0.00000E+00
 -1      1484 1.47825E+02 4.72510E+01 0.00000E+00
 -1      1485 6.01200E+00 1.09375E+00 0.00000E+00
 -1      1486 4.51200E+00 1.09375E+00 0.00000E+00
 -1      1487 4.37400E+00 2.18750E+00 0.00000E+00
 -1      1488 9.01200E+00 1.09375E+00 0.00000E+00
 -1      1489 7.51200E+00 1.09375E+00 0.00000E+00
 -1      1490 7.37400E+00 2.18750E+00 0.00000E+00
 -1      1491 1.20120E+01 1.09375E+00 0.00000E+00
 -1      1492 1.05120E+01 1.09375E+00 0.00000E+00
 -1      1493 1.03740E+01 2.18750E+00 0.00000E+00
 -1      1494 1.50120E+01 1.09375E+00 0.00000E+00
 -1      1495 1.35120E+01 1.09375E+00 0.00000E+00
 -1      1496 1.33740E+01 2.18750E+00 0.00000E+00
 -1      1497 1.80120E+01 1.09375E+00 0.00000E+00
 -1      1498 1.65120E+01 1.09375E+00 0.00000E+00
 -1      1499 1.63740E+01 2.18750E+00 0.00000E+00
 -1      1500 2.10120E+01 1.09375E+00 0.00000E+00
 -1      1501 1.95120E+01 1.09375E+00 0.00000E+00
 -1      1502 1.93740E+01 2.18750E+00 0.00000E+00
 -1      1503 2.40120E+01 1.09375E+00 0.00000E+00
 -1      1504 2.25120E+01 1.09375E+00 0.00000E+00
 -1      1505 2.23740E+01 2.18750E+00 0.00000E+00
 -1      1506 2.70120E+01 1.09375E+00 0.00000E+00
 -1      1507 2.55120E+01 1.09375E+00 0.00000E+00
 -1      1508 2.53740E+01 2.18750E+00 0.00000E+00
 -1      1509 3.00120E+01 1.09375E+00 0.00000E+00
 -1      1510 2.85120E+01 1.09375E+00 0.00000E+00
 -1      1511 2.83740E+01 2.18750E+00 0.00000E+00
 -1      1512 3.30120E+01 1.09375E+00 0.00000E+00
 -1      1513 3.15120E+01 1.09375E+00 0.00000E+00
 -1      1514 3.13740E+01 2.18750E+00 0.00000E+00
 -1      1515 3.60120E+01 1.09375E+00 0.00000E+00
 -1      1516 3.45120E+01 1.09375E+00 0.00000E+00
 -1      1517 3.43740E+01 2.18750E+00 0.00000E+00
 -1      1518 3.90120E+01 1.09375E+00 0.00000E+00
 -1      1519 3.75120E+01 1.09375E+00 0.00000E+00
 -1      1520 3.73740E+01 2.18750E+00 0.00000E+00
 -1      1521 4.20120E+01 1.09375E+00 0.00000E+00
 -1      1522 4.05120E+01 1.09375E+00 0.00000E+00
 -1      1523 4.03740E+01 2.18750E+00 0.00000E+00
 -1      1524 4.50120E+01 1.09375E+00 0.00000E+00
 -1      1525 4.35120E+01 1.09375E+00 0.00000E+00
 -1      1526 4.33740E+01 2.18750E+00 0.00000E+00
 -1      1527 4.80120E+01 1.09375E+00 0.00000E+00
 -1      1528 4.65120E+01 1.09375E+00 0.00000E+00
 -1      1529 4.63740E+01 2.18750E+00 0.00000E+00
 -1      1530 5.10120E+01 1.09375E+00 0.00000E+00
 -1      1531 4.95120E+01 1.09375E+00 0.00000E+00
 -1      1532 4.93740E+01 2.18750E+00 0.00000E+00
 -1      1533 5.40120E+01 1.09375E+00 0.00000E+00
 -1      1534 5.25120E+01 1.09375E+00 0.00000E+00
 -1      1535 5.23740E+01 2.18750E+00 0.00000E+00
 -1      1536 5.70120E+01 1.09375E+00 0.00000E+00
 -1      1537 5.55120E+01 1.09375E+00 0.00000E+00
 -1      1538 5.53740E+01 2.18750E+00 0.00000E+00
 -1      1539 6.00120E+01 1.09375E+00 0.00000E+00
 -1      1540 5.85120E+01 1.09375E+00 0.00000E+00
 -1      1541 5.83740E+01 2.18750E+00 0.00000E+00
 -1      1542 6.30120E+01 1.09375E+00 0.00000E+00
 -1      1543 6.15120E+01 1.09375E+00 0.00000E+00
 -1      1544 6.13740E+01 2.18750E+00 0.00000E+00
 -1      1545 6.60120E+01 1.09375E+00 0.00000E+00
 -1      1546 6.45120E+01 1.09375E+00 0.00000E+00
 -1      1547 6.43740E+01 2.18750E+00 0.00000E+00
 -1      1548 6.90120E+01 1.09375E+00 0.00000E+00
 -1      1549 6.75120E+01 1.09375E+00 0.00000E+00
 -1      1550 6.73740E+01 2.18750E+00 0.00000E+00
 -1      1551 7.20120E+01 1.09375E+00 0.00000E+00
 -1      1552 7.05120E+01 1.09375E+00 0.00000E+00
 -1      1553 7.03740E+01 2.18750E+00 0.00000E+00
 -1      1554 7.50120E+01 1.09375E+00 0.00000E+00
 -1      1555 7.35120E+01 1.09375E+00 0.00000E+00
 -1      1556 7.33740E+01 2.18750E+00 0.00000E+00
 -1      1557 7.80120E+01 1.09375E+00 0.00000E+00
 -1      1558 7.65120E+01 1.09375E+00 0.00000E+00
 -1      1559 7.63740E+01 2.18750E+00 0.00000E+00
 -1      1560 8.10120E+01 1.09375E+00 0.00000E+00
 -1      1561 7.95120E+01 1.09375E+00 0.00000E+00
 -1      1562 7.93740E+01 2.18750E+00 0.00000E+00
 -1      1563 8.40120E+01 1.09375E+00 0.00000E+00
 -1      1564 8.25120E+01 1.09375E+00 0.00000E+00
 -1      1565 8.23740E+01 2.18750E+00 0.00000E+00
 -1      1566 8.70120E+01 1.09375E+00 0.00000E+00
 -1      1567 8.55120E+01 1.09375E+00 0.00000E+00
 -1      1568 8.53740E+01 2.18750E+00 0.00000E+00
 -1      1569 9.00120E+01 1.09375E+00 0.00000E+00
 -1      1570 8.85120E+01 1.09375E+00 0.00000E+00
 -1      1571 8.83740E+01 2.18750E+00 0.00000E+00
 -1      1572 9.30120E+01 1.09375E+00 0.00000E+00
 -1      1573 9.15120E+01 1.09375E+00 0.00000E+00
 -1      1574 9.13740E+01 2.18750E+00 0.00000E+00
 -1      1575 9.60120E+01 1.09375E+00 0.00000E+00
 -1      1576 9.45120E+01 1.09375E+00 0.00000E+00
 -1      1577 9.43740E+01 2.18750E+00 0.00000E+00
 -1      1578 9.90120E+01 1.09375E+00 0.00000E+00
 -1      1579 9.75120E+01 1.09375E+00 0.00000E+00
 -1      1580 9.73740E+01 2.18750E+00 0.00000E+00
 -1      1581 1.02012E+02 1.09375E+00 0.00000E+00
 -1      1582 1.00512E+02 1.09375E+00 0.00000E+00
 -1      1583 1.00374E+02 2.18750E+00 0.00000E+00
 -1      1584 1.05012E+02 1.09375E+00 0.00000E+00
 -1      1585 1.03512E+02 1.09375E+00 0.00000E+00
 -1      1586 1.03374E+02 2.18750E+00 0.00000E+00
 -1      1587 1.08012E+02 1.09375E+00 0.00000E+00
 -1      1588 1.06512E+02 1.09375E+00 0.00000E+00
 -1      1589 1.06374E+02 2.18750E+00 0.00000E+00
 -1      1590 1.11012E+02 1.09375E+00 0.00000E+00
 -1      1591 1.09512E+02 1.09375E+00 0.00000E+00
 -1      1592 1.09374E+02 2.18750E+00 0.00000E+00
 -1      1593 1.14012E+02 1.09375E+00 0.00000E+00
 -1      1594 1.12512E+02 1.09375E+00 0.00000E+00
 -1      1595 1.12374E+02 2.18750E+00 0.00000E+00
 -1      1596 1.17012E+02 1.09375E+00 0.00000E+00
 -1      1597 1.15512E+02 1.09375E+00 0.00000E+00
 -1      1598 1.15374E+02 2.18750E+00 0.00000E+00
 -1      1599 1.20012E+02 1.09375E+00 0.00000E+00
 -1      1600 1.18512E+02 1.09375E+00 0.00000E+00
 -1      1601 1.18374E+02 2.18750E+00 0.00000E+00
 -1      1602 1.23012E+02 1.09375E+00 0.00000E+00
 -1      1603 1.21512E+02 1.09375E+00 0.00000E+00
 -1      1604 1.21374E+02 2.18750E+00 0.00000E+00
 -1      1605 1.26012E+02 1.09375E+00 0.00000E+00
 -1      1606 1.24512E+02 1.09375E+00 0.00000E+00
 -1      1607 1.24374E+02 2.18750E+00 0.00000E+00
 -1      1608 1.29012E+02 1.09375E+00 0.00000E+00
 -1      1609 1.27512E+02 1.09375E+00 0.00000E+00
 -1      1610 1.27374E+02 2.18750E+00 0.00000E+00
 -1      1611 1.32012E+02 1.09375E+00 0.00000E+00
 -1      1612 1.30512E+02 1.09375E+00 0.00000E+00
 -1      1613 1.30374E+02 2.18750E+00 0.00000E+00
 -1      1614 1.35012E+02 1.09375E+00 0.00000E+00
 -1      1615 1.33512E+02 1.09375E+00 0.00000E+00
 -1      1616 1.33374E+02 2.18750E+00 0.00000E+00
 -1      1617 1.38012E+02 1.09375E+00 0.00000E+00
 -1      1618 1.36512E+02 1.09375E+00 0.00000E+00
 -1      1619 1.36374E+02 2.18750E+00 0.00000E+00
 -1      1620 1.41012E+02 1.09375E+00 0.00000E+00
 -1      1621 1.39512E+02 1.09375E+00 0.00000E+00
 -1      1622 1.39374E+02 2.18750E+00 0.00000E+00
 -1      1623 1.44012E+02 1.09375E+00 0.00000E+00
 -1      1624 1.42512E+02 1.09375E+00 0.00000E+00
 -1      1625 1.42374E+02 2.18750E+00 0.00000E+00
 -1      1626 1.47012E+02 1.09375E+00 0.00000E+00
 -1      1627 1.45512E+02 1.09375E+00 0.00000E+00
 -1      1628 1.45374E+02 2.18750E+00 0.00000E+00
 -1      1629 1.48575E+02 1.47500E+00 0.00000E+00
 -1      1630 1.48701E+02 5.16250E+00 0.00000E+00
 -1      1631 1.48701E+02 3.68750E+00 0.00000E+00
 -1      1632 1.48701E+02 8.11250E+00 0.00000E+00
 -1      1633 1.48701E+02 6.63750E+00 0.00000E+00
 -1      1634 1.47402E+02 5.90000E+00 0.00000E+00
 -1      1635 1.48701E+02 1.10625E+01 0.00000E+00
 -1      1636 1.48701E+02 9.58750E+00 0.00000E+00
 -1      1637 1.47402E+02 8.85000E+00 0.00000E+00
 -1      1638 1.48701E+02 1.40125E+01 0.00000E+00
 -1      1639 1.48701E+02 1.25375E+01 0.00000E+00
 -1      1640 1.47402E+02 1.18000E+01 0.00000E+00
 -1      1641 1.48701E+02 1.69125E+01 0.00000E+00
 -1      1642 1.48701E+02 1.54625E+01 0.00000E+00
 -1      1643 1.47402E+02 1.47250E+01 0.00000E+00
 -1      1644 1.48701E+02 1.98625E+01 0.00000E+00
 -1      1645 1.48701E+02 1.83875E+01 0.00000E+00
 -1      1646 1.47402E+02 1.76500E+01 0.00000E+00
 -1      1647 1.48701E+02 2.28125E+01 0.00000E+00
 -1      1648 1.48701E+02 2.13375E+01 0.00000E+00
 -1      1649 1.47402E+02 2.06000E+01 0.00000E+00
 -1      1650 1.48701E+02 2.57625E+01 0.00000E+00
 -1      1651 1.48701E+02 2.42875E+01 0.00000E+00
 -1      1652 1.47402E+02 2.35500E+01 0.00000E+00
 -1      1653 1.48701E+02 2.87125E+01 0.00000E+00
 -1      1654 1.48701E+02 2.72375E+01 0.00000E+00
 -1      1655 1.47402E+02 2.65000E+01 0.00000E+00
 -1      1656 1.48701E+02 3.16625E+01 0.00000E+00
 -1      1657 1.48701E+02 3.01875E+01 0.00000E+00
 -1      1658 1.47402E+02 2.94500E+01 0.00000E+00
 -1      1659 1.48701E+02 3.45625E+01 0.00000E+00
 -1      1660 1.48701E+02 3.31125E+01 0.00000E+00
 -1      1661 1.47402E+02 3.23750E+01 0.00000E+00
 -1      1662 1.48701E+02 3.75125E+01 0.00000E+00
 -1      1663 1.48701E+02 3.60375E+01 0.00000E+00
 -1      1664 1.47402E+02 3.53000E+01 0.00000E+00
 -1      1665 1.48701E+02 4.04625E+01 0.00000E+00
 -1      1666 1.48701E+02 3.89875E+01 0.00000E+00
 -1      1667 1.47402E+02 3.82500E+01 0.00000E+00
 -1      1668 1.48701E+02 4.34125E+01 0.00000E+00
 -1      1669 1.48701E+02 4.19375E+01 0.00000E+00
 -1      1670 1.47402E+02 4.12000E+01 0.00000E+00
 -1      1671 1.48263E+02 4.60692E+01 0.00000E+00
 -1      1672 1.48263E+02 4.45942E+01 0.00000E+00
 -1      1673 1.46964E+02 4.38568E+01 0.00000E+00
 -1      1674 1.46088E+02 4.62202E+01 0.00000E+00
 -1      1675 8.87726E+01 2.62340E+01 0.00000E+00
 -1      1676 8.88696E+01 2.70522E+01 0.00000E+00
 -1      1677 8.81810E+01 2.47234E+01 0.00000E+00
 -1      1678 8.84123E+01 2.53851E+01 0.00000E+00
 -1      1679 8.74887E+01 2.31875E+01 0.00000E+00
 -1      1680 8.79073E+01 2.38687E+01 0.00000E+00
 -1      1681 8.63385E+01 2.19757E+01 0.00000E+00
 -1      1682 8.68595E+01 2.25104E+01 0.00000E+00
 -1      1683 8.50163E+01 2.10379E+01 0.00000E+00
 -1      1684 8.56378E+01 2.14494E+01 0.00000E+00
 -1      1685 8.35618E+01 2.03704E+01 0.00000E+00
 -1      1686 8.42484E+01 2.06388E+01 0.00000E+00
 -1      1687 8.19231E+01 1.99367E+01 0.00000E+00
 -1      1688 8.27098E+01 2.00582E+01 0.00000E+00
 -1      1689 8.03127E+01 2.00209E+01 0.00000E+00
 -1      1690 8.10283E+01 1.99755E+01 0.00000E+00
 -1      1691 7.86836E+01 2.03039E+01 0.00000E+00
 -1      1692 7.94309E+01 2.00913E+01 0.00000E+00
 -1      1693 7.70674E+01 2.09792E+01 0.00000E+00
 -1      1694 7.77727E+01 2.05905E+01 0.00000E+00
 -1      1695 7.58864E+01 2.21000E+01 0.00000E+00
 -1      1696 7.64209E+01 2.16305E+01 0.00000E+00
 -1      1697 7.46714E+01 2.33230E+01 0.00000E+00
 -1      1698 7.51535E+01 2.26634E+01 0.00000E+00
 -1      1699 7.40723E+01 2.48429E+01 0.00000E+00
 -1      1700 7.43572E+01 2.41918E+01 0.00000E+00
 -1      1701 7.36254E+01 2.63598E+01 0.00000E+00
 -1      1702 7.37756E+01 2.56394E+01 0.00000E+00
 -1      1703 7.35073E+01 2.80217E+01 0.00000E+00
 -1      1704 7.34990E+01 2.72470E+01 0.00000E+00
 -1      1705 7.38192E+01 2.96256E+01 0.00000E+00
 -1      1706 7.36530E+01 2.89070E+01 0.00000E+00
 -1      1707 7.44485E+01 3.10882E+01 0.00000E+00
 -1      1708 7.41392E+01 3.04265E+01 0.00000E+00
 -1      1709 7.53337E+01 3.24080E+01 0.00000E+00
 -1      1710 7.48903E+01 3.18212E+01 0.00000E+00
 -1      1711 7.64140E+01 3.36248E+01 0.00000E+00
 -1      1712 7.58456E+01 3.31352E+01 0.00000E+00
 -1      1713 7.78841E+01 3.44322E+01 0.00000E+00
 -1      1714 7.72072E+01 3.40680E+01 0.00000E+00
 -1      1715 7.94680E+01 3.50220E+01 0.00000E+00
 -1      1716 7.87187E+01 3.48128E+01 0.00000E+00
 -1      1717 8.10671E+01 3.51298E+01 0.00000E+00
 -1      1718 8.03509E+01 3.50881E+01 0.00000E+00
 -1      1719 8.27933E+01 3.51126E+01 0.00000E+00
 -1      1720 8.19875E+01 3.52437E+01 0.00000E+00
 -1      1721 8.44680E+01 3.45437E+01 0.00000E+00
 -1      1722 8.37342E+01 3.48469E+01 0.00000E+00
 -1      1723 8.57978E+01 3.35349E+01 0.00000E+00
 -1      1724 8.51909E+01 3.39605E+01 0.00000E+00
 -1      1725 8.69349E+01 3.24462E+01 0.00000E+00
 -1      1726 8.64428E+01 3.29746E+01 0.00000E+00
 -1      1727 8.78177E+01 3.11514E+01 0.00000E+00
 -1      1728 8.74435E+01 3.17718E+01 0.00000E+00
 -1      1729 8.84648E+01 2.96757E+01 0.00000E+00
 -1      1730 8.82206E+01 3.03847E+01 0.00000E+00
 -1      1731 8.87915E+01 2.80191E+01 0.00000E+00
 -1      1732 8.87037E+01 2.87980E+01 0.00000E+00
 -1      1733 8.63625E+01 2.12645E+01 0.00000E+00
 -1      1734 8.76924E+01 2.24678E+01 0.00000E+00
 -1      1735 1.48437E+02 2.56875E+00 0.00000E+00
 -1      1736 1.47138E+02 3.30625E+00 0.00000E+00
 -1      1737 8.92292E+01 2.57031E+01 0.00000E+00
 -1      1738 8.85952E+01 2.39995E+01 0.00000E+00
 -1      1739 8.95114E+01 2.75189E+01 0.00000E+00
 -1      1740 8.48938E+01 2.03391E+01 0.00000E+00
 -1      1741 8.32738E+01 1.96278E+01 0.00000E+00
 -1      1742 8.15270E+01 1.93544E+01 0.00000E+00
 -1      1743 7.97503E+01 1.94636E+01 0.00000E+00
 -1      1744 7.79575E+01 1.98205E+01 0.00000E+00
 -1      1745 7.64001E+01 2.07585E+01 0.00000E+00
 -1      1746 7.50207E+01 2.19732E+01 0.00000E+00
 -1      1747 7.39736E+01 2.34054E+01 0.00000E+00
 -1      1748 7.33627E+01 2.50708E+01 0.00000E+00
 -1      1749 7.29396E+01 2.67545E+01 0.00000E+00
 -1      1750 7.29589E+01 2.85270E+01 0.00000E+00
 -1      1751 7.34247E+01 3.02132E+01 0.00000E+00
 -1      1752 7.41865E+01 3.17470E+01 0.00000E+00
 -1      1753 7.51403E+01 3.32073E+01 0.00000E+00
 -1      1754 7.64453E+01 3.43777E+01 0.00000E+00
 -1      1755 7.80732E+01 3.52014E+01 0.00000E+00
 -1      1756 7.97908E+01 3.56480E+01 0.00000E+00
 -1      1757 8.15942E+01 3.58280E+01 0.00000E+00
 -1      1758 8.34556E+01 3.56762E+01 0.00000E+00
 -1      1759 8.51195E+01 3.48272E+01 0.00000E+00
 -1      1760 8.64874E+01 3.36838E+01 0.00000E+00
 -1      1761 8.76411E+01 3.24491E+01 0.00000E+00
 -1      1762 8.85526E+01 3.10080E+01 0.00000E+00
 -1      1763 8.91943E+01 2.93635E+01 0.00000E+00
 -1      1764 2.87400E+00 4.77875E+01 0.00000E+00
 -1      1765 3.89700E+00 4.04125E+01 0.00000E+00
 -1      1766 3.89700E+00 4.18875E+01 0.00000E+00
 -1      1767 3.89700E+00 4.33625E+01 0.00000E+00
 -1      1768 3.89700E+00 4.48375E+01 0.00000E+00
 -1      1769 5.19600E+00 4.26250E+01 0.00000E+00
 -1      1770 3.89700E+00 3.45500E+01 0.00000E+00
 -1      1771 3.89700E+00 3.60000E+01 0.00000E+00
 -1      1772 3.89700E+00 3.16000E+01 0.00000E+00
 -1      1773 3.89700E+00 3.30750E+01 0.00000E+00
 -1      1774 5.19600E+00 3.38000E+01 0.00000E+00
 -1      1775 3.89700E+00 2.86500E+01 0.00000E+00
 -1      1776 3.89700E+00 3.01250E+01 0.00000E+00
 -1      1777 5.19600E+00 3.08500E+01 0.00000E+00
 -1      1778 3.89700E+00 2.57000E+01 0.00000E+00
 -1      1779 3.89700E+00 2.71750E+01 0.00000E+00
 -1      1780 5.19600E+00 2.79000E+01 0.00000E+00
 -1      1781 3.89700E+00 2.27500E+01 0.00000E+00
 -1      1782 3.89700E+00 2.42250E+01 0.00000E+00
 -1      1783 5.19600E+00 2.49500E+01 0.00000E+00
 -1      1784 3.89700E+00 1.98000E+01 0.00000E+00
 -1      1785 3.89700E+00 2.12750E+01 0.00000E+00
 -1      1786 5.19600E+00 2.20000E+01 0.00000E+00
 -1      1787 3.89700E+00 1.69000E+01 0.00000E+00
 -1      1788 3.89700E+00 1.83500E+01 0.00000E+00
 -1      1789 5.19600E+00 1.90750E+01 0.00000E+00
 -1      1790 3.89700E+00 1.39500E+01 0.00000E+00
 -1      1791 3.89700E+00 1.54250E+01 0.00000E+00
 -1      1792 5.19600E+00 1.61500E+01 0.00000E+00
 -1      1793 3.89700E+00 1.10000E+01 0.00000E+00
 -1      1794 3.89700E+00 1.24750E+01 0.00000E+00
 -1      1795 5.19600E+00 1.32000E+01 0.00000E+00
 -1      1796 3.89700E+00 8.05000E+00 0.00000E+00
 -1      1797 3.89700E+00 9.52500E+00 0.00000E+00
 -1      1798 5.19600E+00 1.02500E+01 0.00000E+00
 -1      1799 3.89700E+00 5.10000E+00 0.00000E+00
 -1      1800 3.89700E+00 6.57500E+00 0.00000E+00
 -1      1801 5.19600E+00 7.30000E+00 0.00000E+00
 -1      1802 4.20450E+00 3.09687E+00 0.00000E+00
 -1      1803 4.06650E+00 4.19063E+00 0.00000E+00
 -1      1804 5.36550E+00 4.91563E+00 0.00000E+00
 -1      1805 5.70450E+00 3.09687E+00 0.00000E+00
 -1      1806 3.62400E+00 4.64885E+01 0.00000E+00
 -1      1807 8.70450E+00 3.09687E+00 0.00000E+00
 -1      1808 7.20450E+00 3.09687E+00 0.00000E+00
 -1      1809 7.03500E+00 4.00625E+00 0.00000E+00
 -1      1810 4.92300E+00 4.57510E+01 0.00000E+00
 -1      1811 8.40000E+00 4.61030E+01 0.00000E+00
 -1      1812 9.90000E+00 4.61030E+01 0.00000E+00
 -1      1813 1.14000E+01 4.61030E+01 0.00000E+00
 -1      1814 1.29000E+01 4.61030E+01 0.00000E+00
 -1      1815 1.06500E+01 4.48040E+01 0.00000E+00
 -1      1816 1.44000E+01 4.61030E+01 0.00000E+00
 -1      1817 1.59000E+01 4.61030E+01 0.00000E+00
 -1      1818 1.36500E+01 4.48040E+01 0.00000E+00
 -1      1819 1.74000E+01 4.61030E+01 0.00000E+00
 -1      1820 1.89000E+01 4.61030E+01 0.00000E+00
 -1      1821 1.66500E+01 4.48040E+01 0.00000E+00
 -1      1822 2.04000E+01 4.61030E+01 0.00000E+00
 -1      1823 2.19000E+01 4.61030E+01 0.00000E+00
 -1      1824 1.96500E+01 4.48040E+01 0.00000E+00
 -1      1825 2.34000E+01 4.61030E+01 0.00000E+00
 -1      1826 2.49000E+01 4.61030E+01 0.00000E+00
 -1      1827 2.26500E+01 4.48040E+01 0.00000E+00
 -1      1828 2.64000E+01 4.61030E+01 0.00000E+00
 -1      1829 2.79000E+01 4.61030E+01 0.00000E+00
 -1      1830 2.56500E+01 4.48040E+01 0.00000E+00
 -1      1831 2.94000E+01 4.61030E+01 0.00000E+00
 -1      1832 3.09000E+01 4.61030E+01 0.00000E+00
 -1      1833 2.86500E+01 4.48040E+01 0.00000E+00
 -1      1834 3.24000E+01 4.61030E+01 0.00000E+00
 -1      1835 3.39000E+01 4.61030E+01 0.00000E+00
 -1      1836 3.16500E+01 4.48040E+01 0.00000E+00
 -1      1837 3.54000E+01 4.61030E+01 0.00000E+00
 -1      1838 3.69000E+01 4.61030E+01 0.00000E+00
 -1      1839 3.46500E+01 4.48040E+01 0.00000E+00
 -1      1840 3.84000E+01 4.61030E+01 0.00000E+00
 -1      1841 3.99000E+01 4.61030E+01 0.00000E+00
 -1      1842 3.76500E+01 4.48040E+01 0.00000E+00
 -1      1843 4.14000E+01 4.61030E+01 0.00000E+00
 -1      1844 4.29000E+01 4.61030E+01 0.00000E+00
 -1      1845 4.06500E+01 4.48040E+01 0.00000E+00
 -1      1846 4.44000E+01 4.61030E+01 0.00000E+00
 -1      1847 4.59000E+01 4.61030E+01 0.00000E+00
 -1      1848 4.36500E+01 4.48040E+01 0.00000E+00
 -1      1849 4.74000E+01 4.61030E+01 0.00000E+00
 -1      1850 4.89000E+01 4.61030E+01 0.00000E+00
 -1      1851 4.66500E+01 4.48040E+01 0.00000E+00
 -1      1852 5.04000E+01 4.61030E+01 0.00000E+00
 -1      1853 5.19000E+01 4.61030E+01 0.00000E+00
 -1      1854 4.96500E+01 4.48040E+01 0.00000E+00
 -1      1855 5.34000E+01 4.61030E+01 0.00000E+00
 -1      1856 5.49000E+01 4.61030E+01 0.00000E+00
 -1      1857 5.26500E+01 4.48040E+01 0.00000E+00
 -1      1858 5.64000E+01 4.61030E+01 0.00000E+00
 -1      1859 5.79000E+01 4.61030E+01 0.00000E+00
 -1      1860 5.56500E+01 4.48040E+01 0.00000E+00
 -1      1861 5.94000E+01 4.61030E+01 0.00000E+00
 -1      1862 6.09000E+01 4.61030E+01 0.00000E+00
 -1      1863 5.86500E+01 4.48040E+01 0.00000E+00
 -1      1864 6.24000E+01 4.61030E+01 0.00000E+00
 -1      1865 6.39000E+01 4.61030E+01 0.00000E+00
 -1      1866 6.16500E+01 4.48040E+01 0.00000E+00
 -1      1867 6.54000E+01 4.61030E+01 0.00000E+00
 -1      1868 6.69000E+01 4.61030E+01 0.00000E+00
 -1      1869 6.46500E+01 4.48040E+01 0.00000E+00
 -1      1870 6.84000E+01 4.61030E+01 0.00000E+00
 -1      1871 6.99000E+01 4.61030E+01 0.00000E+00
 -1      1872 6.76500E+01 4.48040E+01 0.00000E+00
 -1      1873 7.14000E+01 4.61030E+01 0.00000E+00
 -1      1874 7.29000E+01 4.61030E+01 0.00000E+00
 -1      1875 7.06500E+01 4.48040E+01 0.00000E+00
 -1      1876 7.44000E+01 4.61030E+01 0.00000E+00
 -1      1877 7.59000E+01 4.61030E+01 0.00000E+00
 -1      1878 7.36500E+01 4.48040E+01 0.00000E+00
 -1      1879 7.74000E+01 4.61030E+01 0.00000E+00
 -1      1880 7.89000E+01 4.61030E+01 0.00000E+00
 -1      1881 7.66500E+01 4.48040E+01 0.00000E+00
 -1      1882 8.04000E+01 4.61030E+01 0.00000E+00
 -1      1883 8.19000E+01 4.61030E+01 0.00000E+00
 -1      1884 7.96500E+01 4.48040E+01 0.00000E+00
 -1      1885 8.34000E+01 4.61030E+01 0.00000E+00
 -1      1886 8.49000E+01 4.61030E+01 0.00000E+00
 -1      1887 8.26500E+01 4.48040E+01 0.00000E+00
 -1      1888 8.64000E+01 4.61030E+01 0.00000E+00
 -1      1889 8.79000E+01 4.61030E+01 0.00000E+00
 -1      1890 8.56500E+01 4.48040E+01 0.00000E+00
 -1      1891 8.94000E+01 4.61030E+01 0.00000E+00
 -1      1892 9.09000E+01 4.61030E+01 0.00000E+00
 -1      1893 8.86500E+01 4.48040E+01 0.00000E+00
 -1      1894 9.24000E+01 4.61030E+01 0.00000E+00
 -1      1895 9.39000E+01 4.61030E+01 0.00000E+00
 -1      1896 9.16500E+01 4.48040E+01 0.00000E+00
 -1      1897 9.54000E+01 4.61030E+01 0.00000E+00
 -1      1898 9.69000E+01 4.61030E+01 0.00000E+00
 -1      1899 9.46500E+01 4.48040E+01 0.00000E+00
 -1      1900 9.84000E+01 4.61030E+01 0.00000E+00
 -1      1901 9.99000E+01 4.61030E+01 0.00000E+00
 -1      1902 9.76500E+01 4.48040E+01 0.00000E+00
 -1      1903 1.01400E+02 4.61030E+01 0.00000E+00
 -1      1904 1.02900E+02 4.61030E+01 0.00000E+00
 -1      1905 1.00650E+02 4.48040E+01 0.00000E+00
 -1      1906 1.04400E+02 4.61030E+01 0.00000E+00
 -1      1907 1.05900E+02 4.61030E+01 0.00000E+00
 -1      1908 1.03650E+02 4.48040E+01 0.00000E+00
 -1      1909 1.07400E+02 4.61030E+01 0.00000E+00
 -1      1910 1.08900E+02 4.61030E+01 0.00000E+00
 -1      1911 1.06650E+02 4.48040E+01 0.00000E+00
 -1      1912 1.10400E+02 4.61030E+01 0.00000E+00
 -1      1913 1.11900E+02 4.61030E+01 0.00000E+00
 -1      1914 1.09650E+02 4.48040E+01 0.00000E+00
 -1      1915 1.13400E+02 4.61030E+01 0.00000E+00
 -1      1916 1.14900E+02 4.61030E+01 0.00000E+00
 -1      1917 1.12650E+02 4.48040E+01 0.00000E+00
 -1      1918 1.16400E+02 4.61030E+01 0.00000E+00
 -1      1919 1.17900E+02 4.61030E+01 0.00000E+00
 -1      1920 1.15650E+02 4.48040E+01 0.00000E+00
 -1      1921 1.19400E+02 4.61030E+01 0.00000E+00
 -1      1922 1.20900E+02 4.61030E+01 0.00000E+00
 -1      1923 1.18650E+02 4.48040E+01 0.00000E+00
 -1      1924 1.22400E+02 4.61030E+01 0.00000E+00
 -1      1925 1.23900E+02 4.61030E+01 0.00000E+00
 -1      1926 1.21650E+02 4.48040E+01 0.00000E+00
 -1      1927 1.25400E+02 4.61030E+01 0.00000E+00
 -1      1928 1.26900E+02 4.61030E+01 0.00000E+00
 -1      1929 1.24650E+02 4.48040E+01 0.00000E+00
 -1      1930 1.28400E+02 4.61030E+01 0.00000E+00
 -1      1931 1.29900E+02 4.61030E+01 0.00000E+00
 -1      1932 1.27650E+02 4.48040E+01 0.00000E+00
 -1      1933 1.31400E+02 4.61030E+01 0.00000E+00
 -1      1934 1.32900E+02 4.61030E+01 0.00000E+00
 -1      1935 1.30650E+02 4.48040E+01 0.00000E+00
 -1      1936 1.34400E+02 4.61030E+01 0.00000E+00
 -1      1937 1.35900E+02 4.61030E+01 0.00000E+00
 -1      1938 1.33650E+02 4.48040E+01 0.00000E+00
 -1      1939 1.37400E+02 4.61030E+01 0.00000E+00
 -1      1940 1.38900E+02 4.61030E+01 0.00000E+00
 -1      1941 1.36650E+02 4.48040E+01 0.00000E+00
 -1      1942 1.40400E+02 4.61030E+01 0.00000E+00
 -1      1943 1.41900E+02 4.61030E+01 0.00000E+00
 -1      1944 1.39650E+02 4.48040E+01 0.00000E+00
 -1      1945 1.43244E+02 4.61616E+01 0.00000E+00
 -1      1946 1.44744E+02 4.61616E+01 0.00000E+00
 -1      1947 1.45182E+02 4.49799E+01 0.00000E+00
 -1      1948 1.42494E+02 4.48626E+01 0.00000E+00
 -1      1949 1.17045E+01 3.09687E+00 0.00000E+00
 -1      1950 1.02045E+01 3.09687E+00 0.00000E+00
 -1      1951 1.00350E+01 4.00625E+00 0.00000E+00
 -1      1952 1.47045E+01 3.09687E+00 0.00000E+00
 -1      1953 1.32045E+01 3.09687E+00 0.00000E+00
 -1      1954 1.30350E+01 4.00625E+00 0.00000E+00
 -1      1955 1.77045E+01 3.09687E+00 0.00000E+00
 -1      1956 1.62045E+01 3.09687E+00 0.00000E+00
 -1      1957 1.60350E+01 4.00625E+00 0.00000E+00
 -1      1958 2.07045E+01 3.09687E+00 0.00000E+00
 -1      1959 1.92045E+01 3.09687E+00 0.00000E+00
 -1      1960 1.90350E+01 4.00625E+00 0.00000E+00
 -1      1961 2.37045E+01 3.09687E+00 0.00000E+00
 -1      1962 2.22045E+01 3.09687E+00 0.00000E+00
 -1      1963 2.20350E+01 4.00625E+00 0.00000E+00
 -1      1964 2.67045E+01 3.09687E+00 0.00000E+00
 -1      1965 2.52045E+01 3.09687E+00 0.00000E+00
 -1      1966 2.50350E+01 4.00625E+00 0.00000E+00
 -1      1967 2.97045E+01 3.09687E+00 0.00000E+00
 -1      1968 2.82045E+01 3.09687E+00 0.00000E+00
 -1      1969 2.80350E+01 4.00625E+00 0.00000E+00
 -1      1970 3.27045E+01 3.09687E+00 0.00000E+00
 -1      1971 3.12045E+01 3.09687E+00 0.00000E+00
 -1      1972 3.10350E+01 4.00625E+00 0.00000E+00
 -1      1973 3.57045E+01 3.09687E+00 0.00000E+00
 -1      1974 3.42045E+01 3.09687E+00 0.00000E+00
 -1      1975 3.40350E+01 4.00625E+00 0.00000E+00
 -1      1976 3.87045E+01 3.09687E+00 0.00000E+00
 -1      1977 3.72045E+01 3.09687E+00 0.00000E+00
 -1      1978 3.70350E+01 4.00625E+00 0.00000E+00
 -1      1979 4.17045E+01 3.09687E+00 0.00000E+00
 -1      1980 4.02045E+01 3.09687E+00 0.00000E+00
 -1      1981 4.00350E+01 4.00625E+00 0.00000E+00
 -1      1982 4.47045E+01 3.09687E+00 0.00000E+00
 -1      1983 4.32045E+01 3.09687E+00 0.00000E+00
 -1      1984 4.30350E+01 4.00625E+00 0.00000E+00
 -1      1985 4.77045E+01 3.09687E+00 0.00000E+00
 -1      1986 4.62045E+01 3.09687E+00 0.00000E+00
 -1      1987 4.60350E+01 4.00625E+00 0.00000E+00
 -1      1988 5.07045E+01 3.09687E+00 0.00000E+00
 -1      1989 4.92045E+01 3.09687E+00 0.00000E+00
 -1      1990 4.90350E+01 4.00625E+00 0.00000E+00
 -1      1991 5.37045E+01 3.09687E+00 0.00000E+00
 -1      1992 5.22045E+01 3.09687E+00 0.00000E+00
 -1      1993 5.20350E+01 4.00625E+00 0.00000E+00
 -1      1994 5.67045E+01 3.09687E+00 0.00000E+00
 -1      1995 5.52045E+01 3.09687E+00 0.00000E+00
 -1      1996 5.50350E+01 4.00625E+00 0.00000E+00
 -1      1997 5.97045E+01 3.09687E+00 0.00000E+00
 -1      1998 5.82045E+01 3.09687E+00 0.00000E+00
 -1      1999 5.80350E+01 4.00625E+00 0.00000E+00
 -1      2000 6.27045E+01 3.09687E+00 0.00000E+00
 -1      2001 6.12045E+01 3.09687E+00 0.00000E+00
 -1      2002 6.10350E+01 4.00625E+00 0.00000E+00
 -1      2003 6.57045E+01 3.09687E+00 0.00000E+00
 -1      2004 6.42045E+01 3.09687E+00 0.00000E+00
 -1      2005 6.40350E+01 4.00625E+00 0.00000E+00
 -1      2006 6.87045E+01 3.09687E+00 0.00000E+00
 -1      2007 6.72045E+01 3.09687E+00 0.00000E+00
 -1      2008 6.70350E+01 4.00625E+00 0.00000E+00
 -1      2009 7.17045E+01 3.09687E+00 0.00000E+00
 -1      2010 7.02045E+01 3.09687E+00 0.00000E+00
 -1      2011 7.00350E+01 4.00625E+00 0.00000E+00
 -1      2012 7.47045E+01 3.09687E+00 0.00000E+00
 -1      2013 7.32045E+01 3.09687E+00 0.00000E+00
 -1      2014 7.30350E+01 4.00625E+00 0.00000E+00
 -1      2015 7.77045E+01 3.09687E+00 0.00000E+00
 -1      2016 7.62045E+01 3.09687E+00 0.00000E+00
 -1      2017 7.60350E+01 4.00625E+00 0.00000E+00
 -1      2018 8.07045E+01 3.09687E+00 0.00000E+00
 -1      2019 7.92045E+01 3.09687E+00 0.00000E+00
 -1      2020 7.90350E+01 4.00625E+00 0.00000E+00
 -1      2021 8.37045E+01 3.09687E+00 0.00000E+00
 -1      2022 8.22045E+01 3.09687E+00 0.00000E+00
 -1      2023 8.20350E+01 4.00625E+00 0.00000E+00
 -1      2024 8.67045E+01 3.09687E+00 0.00000E+00
 -1      2025 8.52045E+01 3.09687E+00 0.00000E+00
 -1      2026 8.50350E+01 4.00625E+00 0.00000E+00
 -1      2027 8.97045E+01 3.09687E+00 0.00000E+00
 -1      2028 8.82045E+01 3.09687E+00 0.00000E+00
 -1      2029 8.80350E+01 4.00625E+00 0.00000E+00
 -1      2030 9.27045E+01 3.09687E+00 0.00000E+00
 -1      2031 9.12045E+01 3.09687E+00 0.00000E+00
 -1      2032 9.10350E+01 4.00625E+00 0.00000E+00
 -1      2033 9.57045E+01 3.09687E+00 0.00000E+00
 -1      2034 9.42045E+01 3.09687E+00 0.00000E+00
 -1      2035 9.40350E+01 4.00625E+00 0.00000E+00
 -1      2036 9.87045E+01 3.09687E+00 0.00000E+00
 -1      2037 9.72045E+01 3.09687E+00 0.00000E+00
 -1      2038 9.70350E+01 4.00625E+00 0.00000E+00
 -1      2039 1.01704E+02 3.09687E+00 0.00000E+00
 -1      2040 1.00204E+02 3.09687E+00 0.00000E+00
 -1      2041 1.00035E+02 4.00625E+00 0.00000E+00
 -1      2042 1.04704E+02 3.09687E+00 0.00000E+00
 -1      2043 1.03204E+02 3.09687E+00 0.00000E+00
 -1      2044 1.03035E+02 4.00625E+00 0.00000E+00
 -1      2045 1.07704E+02 3.09687E+00 0.00000E+00
 -1      2046 1.06204E+02 3.09687E+00 0.00000E+00
 -1      2047 1.06035E+02 4.00625E+00 0.00000E+00
 -1      2048 1.10704E+02 3.09687E+00 0.00000E+00
 -1      2049 1.09204E+02 3.09687E+00 0.00000E+00
 -1      2050 1.09035E+02 4.00625E+00 0.00000E+00
 -1      2051 1.13704E+02 3.09687E+00 0.00000E+00
 -1      2052 1.12204E+02 3.09687E+00 0.00000E+00
 -1      2053 1.12035E+02 4.00625E+00 0.00000E+00
 -1      2054 1.16704E+02 3.09687E+00 0.00000E+00
 -1      2055 1.15204E+02 3.09687E+00 0.00000E+00
 -1      2056 1.15035E+02 4.00625E+00 0.00000E+00
 -1      2057 1.19704E+02 3.09687E+00 0.00000E+00
 -1      2058 1.18204E+02 3.09687E+00 0.00000E+00
 -1      2059 1.18035E+02 4.00625E+00 0.00000E+00
 -1      2060 1.22704E+02 3.09687E+00 0.00000E+00
 -1      2061 1.21204E+02 3.09687E+00 0.00000E+00
 -1      2062 1.21035E+02 4.00625E+00 0.00000E+00
 -1      2063 1.25704E+02 3.09687E+00 0.00000E+00
 -1      2064 1.24204E+02 3.09687E+00 0.00000E+00
 -1      2065 1.24035E+02 4.00625E+00 0.00000E+00
 -1      2066 1.28704E+02 3.09687E+00 0.00000E+00
 -1      2067 1.27204E+02 3.09687E+00 0.00000E+00
 -1      2068 1.27035E+02 4.00625E+00 0.00000E+00
 -1      2069 1.31704E+02 3.09687E+00 0.00000E+00
 -1      2070 1.30204E+02 3.09687E+00 0.00000E+00
 -1      2071 1.30035E+02 4.00625E+00 0.00000E+00
 -1      2072 1.34704E+02 3.09687E+00 0.00000E+00
 -1      2073 1.33204E+02 3.09687E+00 0.00000E+00
 -1      2074 1.33035E+02 4.00625E+00 0.00000E+00
 -1      2075 1.37704E+02 3.09687E+00 0.00000E+00
 -1      2076 1.36204E+02 3.09687E+00 0.00000E+00
 -1      2077 1.36035E+02 4.00625E+00 0.00000E+00
 -1      2078 1.40704E+02 3.09687E+00 0.00000E+00
 -1      2079 1.39204E+02 3.09687E+00 0.00000E+00
 -1      2080 1.39035E+02 4.00625E+00 0.00000E+00
 -1      2081 1.43704E+02 3.09687E+00 0.00000E+00
 -1      2082 1.42204E+02 3.09687E+00 0.00000E+00
 -1      2083 1.42035E+02 4.00625E+00 0.00000E+00
 -1      2084 1.46171E+02 3.20156E+00 0.00000E+00
 -1      2085 1.44671E+02 3.20156E+00 0.00000E+00
 -1      2086 1.44502E+02 4.11094E+00 0.00000E+00
 -1      2087 1.46435E+02 4.32031E+00 0.00000E+00
 -1      2088 1.46103E+02 1.25375E+01 0.00000E+00
 -1      2089 1.46103E+02 1.10625E+01 0.00000E+00
 -1      2090 1.46103E+02 9.58750E+00 0.00000E+00
 -1      2091 1.46103E+02 8.11250E+00 0.00000E+00
 -1      2092 1.44804E+02 1.03250E+01 0.00000E+00
 -1      2093 1.46269E+02 6.95391E+00 0.00000E+00
 -1      2094 1.46269E+02 5.47891E+00 0.00000E+00
 -1      2095 1.45302E+02 5.37422E+00 0.00000E+00
 -1      2096 1.44970E+02 7.69141E+00 0.00000E+00
 -1      2097 1.46103E+02 1.54375E+01 0.00000E+00
 -1      2098 1.46103E+02 1.39875E+01 0.00000E+00
 -1      2099 1.44804E+02 1.32500E+01 0.00000E+00
 -1      2100 1.46103E+02 1.83875E+01 0.00000E+00
 -1      2101 1.46103E+02 1.69125E+01 0.00000E+00
 -1      2102 1.44804E+02 1.61750E+01 0.00000E+00
 -1      2103 1.46103E+02 2.13375E+01 0.00000E+00
 -1      2104 1.46103E+02 1.98625E+01 0.00000E+00
 -1      2105 1.44804E+02 1.91250E+01 0.00000E+00
 -1      2106 1.46103E+02 2.42875E+01 0.00000E+00
 -1      2107 1.46103E+02 2.28125E+01 0.00000E+00
 -1      2108 1.44804E+02 2.20750E+01 0.00000E+00
 -1      2109 1.46103E+02 2.72375E+01 0.00000E+00
 -1      2110 1.46103E+02 2.57625E+01 0.00000E+00
 -1      2111 1.44804E+02 2.50250E+01 0.00000E+00
 -1      2112 1.46103E+02 3.01875E+01 0.00000E+00
 -1      2113 1.46103E+02 2.87125E+01 0.00000E+00
 -1      2114 1.44804E+02 2.79750E+01 0.00000E+00
 -1      2115 1.46103E+02 3.30875E+01 0.00000E+00
 -1      2116 1.46103E+02 3.16375E+01 0.00000E+00
 -1      2117 1.44804E+02 3.09000E+01 0.00000E+00
 -1      2118 1.46103E+02 3.60375E+01 0.00000E+00
 -1      2119 1.46103E+02 3.45625E+01 0.00000E+00
 -1      2120 1.44804E+02 3.38250E+01 0.00000E+00
 -1      2121 1.46103E+02 3.89875E+01 0.00000E+00
 -1      2122 1.46103E+02 3.75125E+01 0.00000E+00
 -1      2123 1.44804E+02 3.67750E+01 0.00000E+00
 -1      2124 1.46103E+02 4.19375E+01 0.00000E+00
 -1      2125 1.46103E+02 4.04625E+01 0.00000E+00
 -1      2126 1.44804E+02 3.97250E+01 0.00000E+00
 -1      2127 8.92751E+01 2.33107E+01 0.00000E+00
 -1      2128 8.95488E+01 2.41653E+01 0.00000E+00
 -1      2129 9.03634E+01 2.71012E+01 0.00000E+00
 -1      2130 9.02853E+01 2.80681E+01 0.00000E+00
 -1      2131 8.99090E+01 2.50142E+01 0.00000E+00
 -1      2132 9.02693E+01 2.58632E+01 0.00000E+00
 -1      2133 9.05889E+01 2.43254E+01 0.00000E+00
 -1      2134 8.78525E+01 2.16881E+01 0.00000E+00
 -1      2135 8.84817E+01 2.23652E+01 0.00000E+00
 -1      2136 8.64013E+01 2.04832E+01 0.00000E+00
 -1      2137 8.71020E+01 2.10094E+01 0.00000E+00
 -1      2138 3.89700E+00 3.74688E+01 0.00000E+00
 -1      2139 3.89700E+00 3.89437E+01 0.00000E+00
 -1      2140 5.19600E+00 3.96813E+01 0.00000E+00
 -1      2141 5.19600E+00 3.67438E+01 0.00000E+00
 -1      2142 8.30852E+01 1.88238E+01 0.00000E+00
 -1      2143 8.39372E+01 1.91361E+01 0.00000E+00
 -1      2144 8.10478E+01 1.86426E+01 0.00000E+00
 -1      2145 8.19426E+01 1.86038E+01 0.00000E+00
 -1      2146 7.92841E+01 1.87833E+01 0.00000E+00
 -1      2147 8.01659E+01 1.87130E+01 0.00000E+00
 -1      2148 8.05816E+01 1.79623E+01 0.00000E+00
 -1      2149 7.72446E+01 1.91458E+01 0.00000E+00
 -1      2150 7.81556E+01 1.88592E+01 0.00000E+00
 -1      2151 7.54979E+01 2.05096E+01 0.00000E+00
 -1      2152 7.61444E+01 1.98582E+01 0.00000E+00
 -1      2153 7.40321E+01 2.16363E+01 0.00000E+00
 -1      2154 7.47650E+01 2.10729E+01 0.00000E+00
 -1      2155 7.45093E+01 2.01726E+01 0.00000E+00
 -1      2156 7.31676E+01 2.36052E+01 0.00000E+00
 -1      2157 7.34818E+01 2.27363E+01 0.00000E+00
 -1      2158 7.25743E+01 2.51982E+01 0.00000E+00
 -1      2159 7.28710E+01 2.44017E+01 0.00000E+00
 -1      2160 7.23792E+01 2.37327E+01 0.00000E+00
 -1      2161 7.21104E+01 2.70890E+01 0.00000E+00
 -1      2162 7.22368E+01 2.62018E+01 0.00000E+00
 -1      2163 7.23923E+01 2.90749E+01 0.00000E+00
 -1      2164 7.22466E+01 2.81896E+01 0.00000E+00
 -1      2165 7.29050E+01 3.08852E+01 0.00000E+00
 -1      2166 7.25850E+01 3.00843E+01 0.00000E+00
 -1      2167 7.37448E+01 3.25130E+01 0.00000E+00
 -1      2168 7.33029E+01 3.17800E+01 0.00000E+00
 -1      2169 7.47685E+01 3.39675E+01 0.00000E+00
 -1      2170 7.42567E+01 3.32403E+01 0.00000E+00
 -1      2171 7.33731E+01 3.32733E+01 0.00000E+00
 -1      2172 7.64646E+01 3.52747E+01 0.00000E+00
 -1      2173 7.56714E+01 3.48316E+01 0.00000E+00
 -1      2174 7.81868E+01 3.60576E+01 0.00000E+00
 -1      2175 7.73522E+01 3.56770E+01 0.00000E+00
 -1      2176 8.01807E+01 3.63691E+01 0.00000E+00
 -1      2177 7.92978E+01 3.63030E+01 0.00000E+00
 -1      2178 8.20217E+01 3.65969E+01 0.00000E+00
 -1      2179 8.11012E+01 3.64830E+01 0.00000E+00
 -1      2180 8.06082E+01 3.71380E+01 0.00000E+00
 -1      2181 8.41478E+01 3.63283E+01 0.00000E+00
 -1      2182 8.32068E+01 3.65940E+01 0.00000E+00
 -1      2183 8.59668E+01 3.51378E+01 0.00000E+00
 -1      2184 8.52439E+01 3.57210E+01 0.00000E+00
 -1      2185 8.72569E+01 3.40174E+01 0.00000E+00
 -1      2186 8.66118E+01 3.45776E+01 0.00000E+00
 -1      2187 8.67362E+01 3.54714E+01 0.00000E+00
 -1      2188 8.85132E+01 3.25778E+01 0.00000E+00
 -1      2189 8.80046E+01 3.32522E+01 0.00000E+00
 -1      2190 8.93648E+01 3.09456E+01 0.00000E+00
 -1      2191 8.89619E+01 3.17123E+01 0.00000E+00
 -1      2192 9.00200E+01 2.91169E+01 0.00000E+00
 -1      2193 8.97811E+01 2.99946E+01 0.00000E+00
 -1      2194 8.48666E+01 1.94530E+01 0.00000E+00
 -1      2195 8.56346E+01 1.98521E+01 0.00000E+00
 -1      2196 8.63741E+01 1.95970E+01 0.00000E+00
 -1      2197 6.42300E+00 4.57510E+01 0.00000E+00
 -1      2198 8.46780E+01 1.86490E+01 0.00000E+00
 -1      2199 7.17300E+00 4.44520E+01 0.00000E+00
 -1      2200 9.10433E+01 2.64123E+01 0.00000E+00
 -1      2201 8.94352E+01 2.25310E+01 0.00000E+00
 -1      2202 1.45665E+02 4.31193E+01 0.00000E+00
 -1      2203 9.08721E+01 2.86991E+01 0.00000E+00
 -1      2204 8.78913E+01 2.09068E+01 0.00000E+00
 -1      2205 9.01904E+01 3.06989E+01 0.00000E+00
 -1      2206 8.81290E+01 3.41460E+01 0.00000E+00
 -1      2207 8.27138E+01 3.72490E+01 0.00000E+00
 -1      2208 7.85768E+01 3.67787E+01 0.00000E+00
 -1      2209 7.47878E+01 3.48646E+01 0.00000E+00
 -1      2210 7.24633E+01 3.16511E+01 0.00000E+00
 -1      2211 7.18727E+01 2.97469E+01 0.00000E+00
 -1      2212 7.17451E+01 2.55327E+01 0.00000E+00
 -1      2213 7.32262E+01 2.18361E+01 0.00000E+00
 -1      2214 7.85712E+01 1.81086E+01 0.00000E+00
 -1      2215 8.26061E+01 1.81120E+01 0.00000E+00
 -1      2216 7.63425E+01 1.88969E+01 0.00000E+00
 -1      2217 7.15438E+01 2.76369E+01 0.00000E+00
 -1      2218 7.65782E+01 3.61309E+01 0.00000E+00
 -1      2219 8.49951E+01 3.66389E+01 0.00000E+00
 -1      2220 8.93254E+01 3.25154E+01 0.00000E+00
 -1      2221 1.07850E+01 5.30525E+00 0.00000E+00
 -1      2222 9.28500E+00 5.30525E+00 0.00000E+00
 -1      2223 6.49500E+00 3.01125E+01 0.00000E+00
 -1      2224 6.49500E+00 3.15875E+01 0.00000E+00
 -1      2225 6.49500E+00 3.30625E+01 0.00000E+00
 -1      2226 6.49500E+00 3.45375E+01 0.00000E+00
 -1      2227 7.79400E+00 3.23250E+01 0.00000E+00
 -1      2228 6.49500E+00 2.42125E+01 0.00000E+00
 -1      2229 6.49500E+00 2.56875E+01 0.00000E+00
 -1      2230 6.49500E+00 2.12625E+01 0.00000E+00
 -1      2231 6.49500E+00 2.27375E+01 0.00000E+00
 -1      2232 7.79400E+00 2.34750E+01 0.00000E+00
 -1      2233 6.49500E+00 1.83625E+01 0.00000E+00
 -1      2234 6.49500E+00 1.98125E+01 0.00000E+00
 -1      2235 7.79400E+00 2.05500E+01 0.00000E+00
 -1      2236 6.49500E+00 1.54125E+01 0.00000E+00
 -1      2237 6.49500E+00 1.68875E+01 0.00000E+00
 -1      2238 7.79400E+00 1.76250E+01 0.00000E+00
 -1      2239 6.49500E+00 1.24625E+01 0.00000E+00
 -1      2240 6.49500E+00 1.39375E+01 0.00000E+00
 -1      2241 7.79400E+00 1.46750E+01 0.00000E+00
 -1      2242 6.49500E+00 9.51250E+00 0.00000E+00
 -1      2243 6.49500E+00 1.09875E+01 0.00000E+00
 -1      2244 7.79400E+00 1.17250E+01 0.00000E+00
 -1      2245 1.37850E+01 5.30525E+00 0.00000E+00
 -1      2246 1.22850E+01 5.30525E+00 0.00000E+00
 -1      2247 1.15350E+01 6.60425E+00 0.00000E+00
 -1      2248 9.90000E+00 4.35050E+01 0.00000E+00
 -1      2249 1.14000E+01 4.35050E+01 0.00000E+00
 -1      2250 8.44766E+01 1.77186E+01 0.00000E+00
 -1      2251 8.54060E+01 1.80355E+01 0.00000E+00
 -1      2252 1.29000E+01 4.35050E+01 0.00000E+00
 -1      2253 1.44000E+01 4.35050E+01 0.00000E+00
 -1      2254 1.21500E+01 4.22060E+01 0.00000E+00
 -1      2255 1.59000E+01 4.35050E+01 0.00000E+00
 -1      2256 1.74000E+01 4.35050E+01 0.00000E+00
 -1      2257 1.51500E+01 4.22060E+01 0.00000E+00
 -1      2258 1.89000E+01 4.35050E+01 0.00000E+00
 -1      2259 2.04000E+01 4.35050E+01 0.00000E+00
 -1      2260 1.81500E+01 4.22060E+01 0.00000E+00
 -1      2261 2.19000E+01 4.35050E+01 0.00000E+00
 -1      2262 2.34000E+01 4.35050E+01 0.00000E+00
 -1      2263 2.11500E+01 4.22060E+01 0.00000E+00
 -1      2264 2.49000E+01 4.35050E+01 0.00000E+00
 -1      2265 2.64000E+01 4.35050E+01 0.00000E+00
 -1      2266 2.41500E+01 4.22060E+01 0.00000E+00
 -1      2267 2.79000E+01 4.35050E+01 0.00000E+00
 -1      2268 2.94000E+01 4.35050E+01 0.00000E+00
 -1      2269 2.71500E+01 4.22060E+01 0.00000E+00
 -1      2270 3.09000E+01 4.35050E+01 0.00000E+00
 -1      2271 3.24000E+01 4.35050E+01 0.00000E+00
 -1      2272 3.01500E+01 4.22060E+01 0.00000E+00
 -1      2273 3.39000E+01 4.35050E+01 0.00000E+00
 -1      2274 3.54000E+01 4.35050E+01 0.00000E+00
 -1      2275 3.31500E+01 4.22060E+01 0.00000E+00
 -1      2276 3.69000E+01 4.35050E+01 0.00000E+00
 -1      2277 3.84000E+01 4.35050E+01 0.00000E+00
 -1      2278 3.61500E+01 4.22060E+01 0.00000E+00
 -1      2279 3.99000E+01 4.35050E+01 0.00000E+00
 -1      2280 4.14000E+01 4.35050E+01 0.00000E+00
 -1      2281 3.91500E+01 4.22060E+01 0.00000E+00
 -1      2282 4.29000E+01 4.35050E+01 0.00000E+00
 -1      2283 4.44000E+01 4.35050E+01 0.00000E+00
 -1      2284 4.21500E+01 4.22060E+01 0.00000E+00
 -1      2285 4.59000E+01 4.35050E+01 0.00000E+00
 -1      2286 4.74000E+01 4.35050E+01 0.00000E+00
 -1      2287 4.51500E+01 4.22060E+01 0.00000E+00
 -1      2288 4.89000E+01 4.35050E+01 0.00000E+00
 -1      2289 5.04000E+01 4.35050E+01 0.00000E+00
 -1      2290 4.81500E+01 4.22060E+01 0.00000E+00
 -1      2291 5.19000E+01 4.35050E+01 0.00000E+00
 -1      2292 5.34000E+01 4.35050E+01 0.00000E+00
 -1      2293 5.11500E+01 4.22060E+01 0.00000E+00
 -1      2294 5.49000E+01 4.35050E+01 0.00000E+00
 -1      2295 5.64000E+01 4.35050E+01 0.00000E+00
 -1      2296 5.41500E+01 4.22060E+01 0.00000E+00
 -1      2297 5.79000E+01 4.35050E+01 0.00000E+00
 -1      2298 5.94000E+01 4.35050E+01 0.00000E+00
 -1      2299 5.71500E+01 4.22060E+01 0.00000E+00
 -1      2300 6.09000E+01 4.35050E+01 0.00000E+00
 -1      2301 6.24000E+01 4.35050E+01 0.00000E+00
 -1      2302 6.01500E+01 4.22060E+01 0.00000E+00
 -1      2303 6.39000E+01 4.35050E+01 0.00000E+00
 -1      2304 6.54000E+01 4.35050E+01 0.00000E+00
 -1      2305 6.31500E+01 4.22060E+01 0.00000E+00
 -1      2306 6.69000E+01 4.35050E+01 0.00000E+00
 -1      2307 6.84000E+01 4.35050E+01 0.00000E+00
 -1      2308 6.61500E+01 4.22060E+01 0.00000E+00
 -1      2309 6.99000E+01 4.35050E+01 0.00000E+00
 -1      2310 7.14000E+01 4.35050E+01 0.00000E+00
 -1      2311 6.91500E+01 4.22060E+01 0.00000E+00
 -1      2312 7.29000E+01 4.35050E+01 0.00000E+00
 -1      2313 7.44000E+01 4.35050E+01 0.00000E+00
 -1      2314 7.21500E+01 4.22060E+01 0.00000E+00
 -1      2315 7.59000E+01 4.35050E+01 0.00000E+00
 -1      2316 7.74000E+01 4.35050E+01 0.00000E+00
 -1      2317 7.51500E+01 4.22060E+01 0.00000E+00
 -1      2318 7.89000E+01 4.35050E+01 0.00000E+00
 -1      2319 8.04000E+01 4.35050E+01 0.00000E+00
 -1      2320 7.81500E+01 4.22060E+01 0.00000E+00
 -1      2321 8.19000E+01 4.35050E+01 0.00000E+00
 -1      2322 8.34000E+01 4.35050E+01 0.00000E+00
 -1      2323 8.11500E+01 4.22060E+01 0.00000E+00
 -1      2324 8.49000E+01 4.35050E+01 0.00000E+00
 -1      2325 8.64000E+01 4.35050E+01 0.00000E+00
 -1      2326 8.41500E+01 4.22060E+01 0.00000E+00
 -1      2327 8.79000E+01 4.35050E+01 0.00000E+00
 -1      2328 8.94000E+01 4.35050E+01 0.00000E+00
 -1      2329 8.71500E+01 4.22060E+01 0.00000E+00
 -1      2330 9.09000E+01 4.35050E+01 0.00000E+00
 -1      2331 9.24000E+01 4.35050E+01 0.00000E+00
 -1      2332 9.01500E+01 4.22060E+01 0.00000E+00
 -1      2333 9.39000E+01 4.35050E+01 0.00000E+00
 -1      2334 9.54000E+01 4.35050E+01 0.00000E+00
 -1      2335 9.31500E+01 4.22060E+01 0.00000E+00
 -1      2336 9.69000E+01 4.35050E+01 0.00000E+00
 -1      2337 9.84000E+01 4.35050E+01 0.00000E+00
 -1      2338 9.61500E+01 4.22060E+01 0.00000E+00
 -1      2339 9.99000E+01 4.35050E+01 0.00000E+00
 -1      2340 1.01400E+02 4.35050E+01 0.00000E+00
 -1      2341 9.91500E+01 4.22060E+01 0.00000E+00
 -1      2342 1.02900E+02 4.35050E+01 0.00000E+00
 -1      2343 1.04400E+02 4.35050E+01 0.00000E+00
 -1      2344 1.02150E+02 4.22060E+01 0.00000E+00
 -1      2345 1.05900E+02 4.35050E+01 0.00000E+00
 -1      2346 1.07400E+02 4.35050E+01 0.00000E+00
 -1      2347 1.05150E+02 4.22060E+01 0.00000E+00
 -1      2348 1.08900E+02 4.35050E+01 0.00000E+00
 -1      2349 1.10400E+02 4.35050E+01 0.00000E+00
 -1      2350 1.08150E+02 4.22060E+01 0.00000E+00
 -1      2351 1.11900E+02 4.35050E+01 0.00000E+00
 -1      2352 1.13400E+02 4.35050E+01 0.00000E+00
 -1      2353 1.11150E+02 4.22060E+01 0.00000E+00
 -1      2354 1.14900E+02 4.35050E+01 0.00000E+00
 -1      2355 1.16400E+02 4.35050E+01 0.00000E+00
 -1      2356 1.14150E+02 4.22060E+01 0.00000E+00
 -1      2357 1.17900E+02 4.35050E+01 0.00000E+00
 -1      2358 1.19400E+02 4.35050E+01 0.00000E+00
 -1      2359 1.17150E+02 4.22060E+01 0.00000E+00
 -1      2360 1.20900E+02 4.35050E+01 0.00000E+00
 -1      2361 1.22400E+02 4.35050E+01 0.00000E+00
 -1      2362 1.20150E+02 4.22060E+01 0.00000E+00
 -1      2363 1.23900E+02 4.35050E+01 0.00000E+00
 -1      2364 1.25400E+02 4.35050E+01 0.00000E+00
 -1      2365 1.23150E+02 4.22060E+01 0.00000E+00
 -1      2366 1.26900E+02 4.35050E+01 0.00000E+00
 -1      2367 1.28400E+02 4.35050E+01 0.00000E+00
 -1      2368 1.26150E+02 4.22060E+01 0.00000E+00
 -1      2369 1.29900E+02 4.35050E+01 0.00000E+00
 -1      2370 1.31400E+02 4.35050E+01 0.00000E+00
 -1      2371 1.29150E+02 4.22060E+01 0.00000E+00
 -1      2372 1.32900E+02 4.35050E+01 0.00000E+00
 -1      2373 1.34400E+02 4.35050E+01 0.00000E+00
 -1      2374 1.32150E+02 4.22060E+01 0.00000E+00
 -1      2375 1.35900E+02 4.35050E+01 0.00000E+00
 -1      2376 1.37400E+02 4.35050E+01 0.00000E+00
 -1      2377 1.35150E+02 4.22060E+01 0.00000E+00
 -1      2378 1.38900E+02 4.35050E+01 0.00000E+00
 -1      2379 1.40400E+02 4.35050E+01 0.00000E+00
 -1      2380 1.38150E+02 4.22060E+01 0.00000E+00
 -1      2381 9.11210E+01 2.35986E+01 0.00000E+00
 -1      2382 9.14813E+01 2.44475E+01 0.00000E+00
 -1      2383 1.97850E+01 5.30525E+00 0.00000E+00
 -1      2384 1.82850E+01 5.30525E+00 0.00000E+00
 -1      2385 2.27850E+01 5.30525E+00 0.00000E+00
 -1      2386 2.12850E+01 5.30525E+00 0.00000E+00
 -1      2387 2.05350E+01 6.60425E+00 0.00000E+00
 -1      2388 2.57850E+01 5.30525E+00 0.00000E+00
 -1      2389 2.42850E+01 5.30525E+00 0.00000E+00
 -1      2390 2.35350E+01 6.60425E+00 0.00000E+00
 -1      2391 2.87850E+01 5.30525E+00 0.00000E+00
 -1      2392 2.72850E+01 5.30525E+00 0.00000E+00
 -1      2393 2.65350E+01 6.60425E+00 0.00000E+00
 -1      2394 3.17850E+01 5.30525E+00 0.00000E+00
 -1      2395 3.02850E+01 5.30525E+00 0.00000E+00
 -1      2396 2.95350E+01 6.60425E+00 0.00000E+00
 -1      2397 3.47850E+01 5.30525E+00 0.00000E+00
 -1      2398 3.32850E+01 5.30525E+00 0.00000E+00
 -1      2399 3.25350E+01 6.60425E+00 0.00000E+00
 -1      2400 3.77850E+01 5.30525E+00 0.00000E+00
 -1      2401 3.62850E+01 5.30525E+00 0.00000E+00
 -1      2402 3.55350E+01 6.60425E+00 0.00000E+00
 -1      2403 4.07850E+01 5.30525E+00 0.00000E+00
 -1      2404 3.92850E+01 5.30525E+00 0.00000E+00
 -1      2405 3.85350E+01 6.60425E+00 0.00000E+00
 -1      2406 4.37850E+01 5.30525E+00 0.00000E+00
 -1      2407 4.22850E+01 5.30525E+00 0.00000E+00
 -1      2408 4.15350E+01 6.60425E+00 0.00000E+00
 -1      2409 4.67850E+01 5.30525E+00 0.00000E+00
 -1      2410 4.52850E+01 5.30525E+00 0.00000E+00
 -1      2411 4.45350E+01 6.60425E+00 0.00000E+00
 -1      2412 4.97850E+01 5.30525E+00 0.00000E+00
 -1      2413 4.82850E+01 5.30525E+00 0.00000E+00
 -1      2414 4.75350E+01 6.60425E+00 0.00000E+00
 -1      2415 5.27850E+01 5.30525E+00 0.00000E+00
 -1      2416 5.12850E+01 5.30525E+00 0.00000E+00
 -1      2417 5.05350E+01 6.60425E+00 0.00000E+00
 -1      2418 5.57850E+01 5.30525E+00 0.00000E+00
 -1      2419 5.42850E+01 5.30525E+00 0.00000E+00
 -1      2420 5.35350E+01 6.60425E+00 0.00000E+00
 -1      2421 5.87850E+01 5.30525E+00 0.00000E+00
 -1      2422 5.72850E+01 5.30525E+00 0.00000E+00
 -1      2423 5.65350E+01 6.60425E+00 0.00000E+00
 -1      2424 6.17850E+01 5.30525E+00 0.00000E+00
 -1      2425 6.02850E+01 5.30525E+00 0.00000E+00
 -1      2426 5.95350E+01 6.60425E+00 0.00000E+00
 -1      2427 6.47850E+01 5.30525E+00 0.00000E+00
 -1      2428 6.32850E+01 5.30525E+00 0.00000E+00
 -1      2429 6.25350E+01 6.60425E+00 0.00000E+00
 -1      2430 6.77850E+01 5.30525E+00 0.00000E+00
 -1      2431 6.62850E+01 5.30525E+00 0.00000E+00
 -1      2432 6.55350E+01 6.60425E+00 0.00000E+00
 -1      2433 7.07850E+01 5.30525E+00 0.00000E+00
 -1      2434 6.92850E+01 5.30525E+00 0.00000E+00
 -1      2435 6.85350E+01 6.60425E+00 0.00000E+00
 -1      2436 7.37850E+01 5.30525E+00 0.00000E+00
 -1      2437 7.22850E+01 5.30525E+00 0.00000E+00
 -1      2438 7.15350E+01 6.60425E+00 0.00000E+00
 -1      2439 7.67850E+01 5.30525E+00 0.00000E+00
 -1      2440 7.52850E+01 5.30525E+00 0.00000E+00
 -1      2441 7.45350E+01 6.60425E+00 0.00000E+00
 -1      2442 7.97850E+01 5.30525E+00 0.00000E+00
 -1      2443 7.82850E+01 5.30525E+00 0.00000E+00
 -1      2444 7.75350E+01 6.60425E+00 0.00000E+00
 -1      2445 8.27850E+01 5.30525E+00 0.00000E+00
 -1      2446 8.12850E+01 5.30525E+00 0.00000E+00
 -1      2447 8.05350E+01 6.60425E+00 0.00000E+00
 -1      2448 8.57850E+01 5.30525E+00 0.00000E+00
 -1      2449 8.42850E+01 5.30525E+00 0.00000E+00
 -1      2450 8.35350E+01 6.60425E+00 0.00000E+00
 -1      2451 8.87850E+01 5.30525E+00 0.00000E+00
 -1      2452 8.72850E+01 5.30525E+00 0.00000E+00
 -1      2453 8.65350E+01 6.60425E+00 0.00000E+00
 -1      2454 9.17850E+01 5.30525E+00 0.00000E+00
 -1      2455 9.02850E+01 5.30525E+00 0.00000E+00
 -1      2456 8.95350E+01 6.60425E+00 0.00000E+00
 -1      2457 9.47850E+01 5.30525E+00 0.00000E+00
 -1      2458 9.32850E+01 5.30525E+00 0.00000E+00
 -1      2459 9.25350E+01 6.60425E+00 0.00000E+00
 -1      2460 9.77850E+01 5.30525E+00 0.00000E+00
 -1      2461 9.62850E+01 5.30525E+00 0.00000E+00
 -1      2462 9.55350E+01 6.60425E+00 0.00000E+00
 -1      2463 1.00785E+02 5.30525E+00 0.00000E+00
 -1      2464 9.92850E+01 5.30525E+00 0.00000E+00
 -1      2465 9.85350E+01 6.60425E+00 0.00000E+00
 -1      2466 1.03785E+02 5.30525E+00 0.00000E+00
 -1      2467 1.02285E+02 5.30525E+00 0.00000E+00
 -1      2468 1.01535E+02 6.60425E+00 0.00000E+00
 -1      2469 1.06785E+02 5.30525E+00 0.00000E+00
 -1      2470 1.05285E+02 5.30525E+00 0.00000E+00
 -1      2471 1.04535E+02 6.60425E+00 0.00000E+00
 -1      2472 1.09785E+02 5.30525E+00 0.00000E+00
 -1      2473 1.08285E+02 5.30525E+00 0.00000E+00
 -1      2474 1.07535E+02 6.60425E+00 0.00000E+00
 -1      2475 1.12785E+02 5.30525E+00 0.00000E+00
 -1      2476 1.11285E+02 5.30525E+00 0.00000E+00
 -1      2477 1.10535E+02 6.60425E+00 0.00000E+00
 -1      2478 1.15785E+02 5.30525E+00 0.00000E+00
 -1      2479 1.14285E+02 5.30525E+00 0.00000E+00
 -1      2480 1.13535E+02 6.60425E+00 0.00000E+00
 -1      2481 1.18785E+02 5.30525E+00 0.00000E+00
 -1      2482 1.17285E+02 5.30525E+00 0.00000E+00
 -1      2483 1.16535E+02 6.60425E+00 0.00000E+00
 -1      2484 1.21785E+02 5.30525E+00 0.00000E+00
 -1      2485 1.20285E+02 5.30525E+00 0.00000E+00
 -1      2486 1.19535E+02 6.60425E+00 0.00000E+00
 -1      2487 1.24785E+02 5.30525E+00 0.00000E+00
 -1      2488 1.23285E+02 5.30525E+00 0.00000E+00
 -1      2489 1.22535E+02 6.60425E+00 0.00000E+00
 -1      2490 1.27785E+02 5.30525E+00 0.00000E+00
 -1      2491 1.26285E+02 5.30525E+00 0.00000E+00
 -1      2492 1.25535E+02 6.60425E+00 0.00000E+00
 -1      2493 1.30785E+02 5.30525E+00 0.00000E+00
 -1      2494 1.29285E+02 5.30525E+00 0.00000E+00
 -1      2495 1.28535E+02 6.60425E+00 0.00000E+00
 -1      2496 1.33785E+02 5.30525E+00 0.00000E+00
 -1      2497 1.32285E+02 5.30525E+00 0.00000E+00
 -1      2498 1.31535E+02 6.60425E+00 0.00000E+00
 -1      2499 1.36785E+02 5.30525E+00 0.00000E+00
 -1      2500 1.35285E+02 5.30525E+00 0.00000E+00
 -1      2501 1.34535E+02 6.60425E+00 0.00000E+00
 -1      2502 1.39785E+02 5.30525E+00 0.00000E+00
 -1      2503 1.38285E+02 5.30525E+00 0.00000E+00
 -1      2504 1.37535E+02 6.60425E+00 0.00000E+00
 -1      2505 1.42785E+02 5.30525E+00 0.00000E+00
 -1      2506 1.41285E+02 5.30525E+00 0.00000E+00
 -1      2507 1.40535E+02 6.60425E+00 0.00000E+00
 -1      2508 1.44336E+02 5.26953E+00 0.00000E+00
 -1      2509 1.43505E+02 1.69125E+01 0.00000E+00
 -1      2510 1.43505E+02 1.54375E+01 0.00000E+00
 -1      2511 1.43505E+02 1.98625E+01 0.00000E+00
 -1      2512 1.43505E+02 1.83875E+01 0.00000E+00
 -1      2513 1.42206E+02 1.76500E+01 0.00000E+00
 -1      2514 1.43505E+02 1.10625E+01 0.00000E+00
 -1      2515 1.43505E+02 9.58750E+00 0.00000E+00
 -1      2516 1.43505E+02 1.39750E+01 0.00000E+00
 -1      2517 1.43505E+02 1.25250E+01 0.00000E+00
 -1      2518 1.42206E+02 1.17875E+01 0.00000E+00
 -1      2519 1.42206E+02 1.47125E+01 0.00000E+00
 -1      2520 1.43505E+02 2.28125E+01 0.00000E+00
 -1      2521 1.43505E+02 2.13375E+01 0.00000E+00
 -1      2522 1.42206E+02 2.06000E+01 0.00000E+00
 -1      2523 1.43505E+02 2.57625E+01 0.00000E+00
 -1      2524 1.43505E+02 2.42875E+01 0.00000E+00
 -1      2525 1.42206E+02 2.35500E+01 0.00000E+00
 -1      2526 1.43505E+02 2.87125E+01 0.00000E+00
 -1      2527 1.43505E+02 2.72375E+01 0.00000E+00
 -1      2528 1.42206E+02 2.65000E+01 0.00000E+00
 -1      2529 1.43505E+02 3.16125E+01 0.00000E+00
 -1      2530 1.43505E+02 3.01625E+01 0.00000E+00
 -1      2531 1.42206E+02 2.94250E+01 0.00000E+00
 -1      2532 1.43505E+02 3.45625E+01 0.00000E+00
 -1      2533 1.43505E+02 3.30875E+01 0.00000E+00
 -1      2534 1.42206E+02 3.23500E+01 0.00000E+00
 -1      2535 1.43505E+02 3.75125E+01 0.00000E+00
 -1      2536 1.43505E+02 3.60375E+01 0.00000E+00
 -1      2537 1.42206E+02 3.53000E+01 0.00000E+00
 -1      2538 1.43505E+02 4.04625E+01 0.00000E+00
 -1      2539 1.43505E+02 3.89875E+01 0.00000E+00
 -1      2540 1.42206E+02 3.82500E+01 0.00000E+00
 -1      2541 1.44321E+02 4.30606E+01 0.00000E+00
 -1      2542 9.17955E+01 2.83748E+01 0.00000E+00
 -1      2543 9.15301E+01 2.94236E+01 0.00000E+00
 -1      2544 1.67850E+01 5.30525E+00 0.00000E+00
 -1      2545 1.52850E+01 5.30525E+00 0.00000E+00
 -1      2546 1.75350E+01 6.60425E+00 0.00000E+00
 -1      2547 8.96955E+01 2.15070E+01 0.00000E+00
 -1      2548 9.04888E+01 2.24525E+01 0.00000E+00
 -1      2549 9.12609E+01 3.06009E+01 0.00000E+00
 -1      2550 9.08446E+01 3.15519E+01 0.00000E+00
 -1      2551 6.55950E+00 4.28890E+01 0.00000E+00
 -1      2552 8.53650E+00 4.32410E+01 0.00000E+00
 -1      2553 9.28650E+00 4.19420E+01 0.00000E+00
 -1      2554 6.55950E+00 4.14140E+01 0.00000E+00
 -1      2555 8.80632E+01 1.99625E+01 0.00000E+00
 -1      2556 8.88137E+01 2.06412E+01 0.00000E+00
 -1      2557 8.33084E+01 3.80632E+01 0.00000E+00
 -1      2558 8.21233E+01 3.80661E+01 0.00000E+00
 -1      2559 7.89292E+01 3.78206E+01 0.00000E+00
 -1      2560 7.78182E+01 3.75751E+01 0.00000E+00
 -1      2561 7.19169E+01 3.24299E+01 0.00000E+00
 -1      2562 7.15190E+01 3.15351E+01 0.00000E+00
 -1      2563 7.79522E+01 1.73327E+01 0.00000E+00
 -1      2564 7.90807E+01 1.72568E+01 0.00000E+00
 -1      2565 6.49500E+00 2.71625E+01 0.00000E+00
 -1      2566 6.49500E+00 2.86375E+01 0.00000E+00
 -1      2567 7.79400E+00 2.93750E+01 0.00000E+00
 -1      2568 7.79400E+00 2.64250E+01 0.00000E+00
 -1      2569 8.21969E+01 1.71599E+01 0.00000E+00
 -1      2570 8.33395E+01 1.73800E+01 0.00000E+00
 -1      2571 7.53263E+01 1.85333E+01 0.00000E+00
 -1      2572 7.64265E+01 1.78209E+01 0.00000E+00
 -1      2573 7.99626E+01 1.71865E+01 0.00000E+00
 -1      2574 8.08445E+01 1.71161E+01 0.00000E+00
 -1      2575 7.93436E+01 1.64106E+01 0.00000E+00
 -1      2576 7.07608E+01 2.82925E+01 0.00000E+00
 -1      2577 7.06246E+01 2.71919E+01 0.00000E+00
 -1      2578 7.35692E+01 1.97080E+01 0.00000E+00
 -1      2579 7.43021E+01 1.91446E+01 0.00000E+00
 -1      2580 7.22590E+01 2.20400E+01 0.00000E+00
 -1      2581 7.28093E+01 2.09399E+01 0.00000E+00
 -1      2582 7.15058E+01 2.38608E+01 0.00000E+00
 -1      2583 7.18024E+01 2.30643E+01 0.00000E+00
 -1      2584 7.66681E+01 3.71132E+01 0.00000E+00
 -1      2585 7.57804E+01 3.67109E+01 0.00000E+00
 -1      2586 7.08308E+01 2.58679E+01 0.00000E+00
 -1      2587 7.11683E+01 2.48644E+01 0.00000E+00
 -1      2588 7.05915E+01 2.41960E+01 0.00000E+00
 -1      2589 7.11267E+01 3.04124E+01 0.00000E+00
 -1      2590 7.09340E+01 2.94031E+01 0.00000E+00
 -1      2591 7.29962E+01 3.40823E+01 0.00000E+00
 -1      2592 7.24844E+01 3.33550E+01 0.00000E+00
 -1      2593 8.59384E+01 3.70488E+01 0.00000E+00
 -1      2594 8.48423E+01 3.76560E+01 0.00000E+00
 -1      2595 7.47042E+01 3.58557E+01 0.00000E+00
 -1      2596 7.38013E+01 3.49916E+01 0.00000E+00
 -1      2597 8.07701E+01 3.80484E+01 0.00000E+00
 -1      2598 7.98497E+01 3.79345E+01 0.00000E+00
 -1      2599 7.90911E+01 3.87309E+01 0.00000E+00
 -1      2600 9.03959E+01 3.24174E+01 0.00000E+00
 -1      2601 8.99472E+01 3.32829E+01 0.00000E+00
 -1      2602 9.14664E+01 3.23194E+01 0.00000E+00
 -1      2603 8.76211E+01 3.58388E+01 0.00000E+00
 -1      2604 8.69760E+01 3.63990E+01 0.00000E+00
 -1      2605 8.91165E+01 3.43085E+01 0.00000E+00
 -1      2606 8.83688E+01 3.50736E+01 0.00000E+00
 -1      2607 8.86086E+01 3.60012E+01 0.00000E+00
 -1      2608 9.18513E+01 2.57283E+01 0.00000E+00
 -1      2609 9.19454E+01 2.69663E+01 0.00000E+00
 -1      2610 8.07525E+00 5.11044E+00 0.00000E+00
 -1      2611 6.57525E+00 5.11044E+00 0.00000E+00
 -1      2612 6.40575E+00 6.01981E+00 0.00000E+00
 -1      2613 8.82525E+00 6.40944E+00 0.00000E+00
 -1      2614 8.65297E+01 1.87004E+01 0.00000E+00
 -1      2615 8.72965E+01 1.93314E+01 0.00000E+00
 -1      2616 8.82188E+01 1.90658E+01 0.00000E+00
 -1      2617 8.40675E+01 1.67665E+01 0.00000E+00
 -1      2618 7.79400E+00 3.52687E+01 0.00000E+00
 -1      2619 6.49500E+00 3.60062E+01 0.00000E+00
 -1      2620 6.49500E+00 3.74750E+01 0.00000E+00
 -1      2621 1.45350E+01 6.60425E+00 0.00000E+00
 -1      2622 6.40575E+00 7.49481E+00 0.00000E+00
 -1      2623 8.63283E+01 1.77699E+01 0.00000E+00
 -1      2624 9.01870E+01 3.42104E+01 0.00000E+00
 -1      2625 8.13647E+01 3.88625E+01 0.00000E+00
 -1      2626 7.47940E+01 3.68379E+01 0.00000E+00
 -1      2627 8.68232E+01 3.74161E+01 0.00000E+00
 -1      2628 9.21843E+01 3.02765E+01 0.00000E+00
 -1      2629 9.13813E+01 2.25746E+01 0.00000E+00
 -1      2630 1.43586E+02 6.56853E+00 0.00000E+00
 -1      2631 1.43419E+02 7.72713E+00 0.00000E+00
 -1      2632 7.29126E+01 3.50733E+01 0.00000E+00
 -1      2633 1.42758E+02 4.35929E+01 0.00000E+00
 -1      2634 1.43241E+02 4.17323E+01 0.00000E+00
 -1      2635 1.41942E+02 4.09948E+01 0.00000E+00
 -1      2636 1.41414E+02 4.35342E+01 0.00000E+00
 -1      2637 7.00478E+01 2.65235E+01 0.00000E+00
 -1      2638 7.70205E+01 3.81551E+01 0.00000E+00
 -1      2639 9.26035E+01 2.76908E+01 0.00000E+00
 -1      2640 7.70475E+00 8.23231E+00 0.00000E+00
 -1      2641 8.98673E+01 2.05627E+01 0.00000E+00
 -1      2642 7.00148E+01 2.89580E+01 0.00000E+00
 -1      2643 7.13856E+01 2.21681E+01 0.00000E+00
 -1      2644 8.42517E+01 3.84731E+01 0.00000E+00
 -1      2645 8.36612E+01 3.92902E+01 0.00000E+00
 -1      2646 8.51950E+01 3.88830E+01 0.00000E+00
 -1      2647 7.26020E+01 1.99119E+01 0.00000E+00
 -1      2648 7.23948E+01 1.88839E+01 0.00000E+00
 -1      2649 7.16349E+01 2.01157E+01 0.00000E+00
 -1      2650 7.05803E+01 3.11912E+01 0.00000E+00
 -1      2651 7.69360E+01 1.69691E+01 0.00000E+00
 -1      2652 7.74455E+01 1.61173E+01 0.00000E+00
 -1      2653 7.59198E+01 1.66054E+01 0.00000E+00
 -1      2654 7.15401E+01 3.32389E+01 0.00000E+00
 -1      2655 6.55950E+00 3.99453E+01 0.00000E+00
 -1      2656 7.43861E+01 1.80686E+01 0.00000E+00
 -1      2657 8.15779E+01 1.63841E+01 0.00000E+00
 -1      2658 9.23835E+01 2.50016E+01 0.00000E+00
 -1      2659 1.42120E+02 8.46463E+00 0.00000E+00
 -1      2660 1.40664E+02 4.22352E+01 0.00000E+00
 -1      2661 9.09300E+00 1.98250E+01 0.00000E+00
 -1      2662 9.09300E+00 2.12750E+01 0.00000E+00
 -1      2663 9.09300E+00 2.27500E+01 0.00000E+00
 -1      2664 9.09300E+00 2.42250E+01 0.00000E+00
 -1      2665 1.03920E+01 2.20250E+01 0.00000E+00
 -1      2666 9.09300E+00 1.39375E+01 0.00000E+00
 -1      2667 9.09300E+00 1.54125E+01 0.00000E+00
 -1      2668 9.09300E+00 1.09875E+01 0.00000E+00
 -1      2669 9.09300E+00 1.24625E+01 0.00000E+00
 -1      2670 1.03920E+01 1.32000E+01 0.00000E+00
 -1      2671 1.22850E+01 7.90325E+00 0.00000E+00
 -1      2672 1.07850E+01 7.90325E+00 0.00000E+00
 -1      2673 9.00860E+01 1.94581E+01 0.00000E+00
 -1      2674 9.09677E+01 2.03239E+01 0.00000E+00
 -1      2675 1.52850E+01 7.90325E+00 0.00000E+00
 -1      2676 1.37850E+01 7.90325E+00 0.00000E+00
 -1      2677 1.30350E+01 9.20225E+00 0.00000E+00
 -1      2678 8.37437E+01 1.57753E+01 0.00000E+00
 -1      2679 8.48808E+01 1.61138E+01 0.00000E+00
 -1      2680 9.13338E+01 3.42901E+01 0.00000E+00
 -1      2681 9.05031E+01 3.53157E+01 0.00000E+00
 -1      2682 1.44000E+01 4.09070E+01 0.00000E+00
 -1      2683 1.59000E+01 4.09070E+01 0.00000E+00
 -1      2684 1.74000E+01 4.09070E+01 0.00000E+00
 -1      2685 1.89000E+01 4.09070E+01 0.00000E+00
 -1      2686 1.66500E+01 3.96080E+01 0.00000E+00
 -1      2687 2.04000E+01 4.09070E+01 0.00000E+00
 -1      2688 2.19000E+01 4.09070E+01 0.00000E+00
 -1      2689 1.96500E+01 3.96080E+01 0.00000E+00
 -1      2690 2.34000E+01 4.09070E+01 0.00000E+00
 -1      2691 2.49000E+01 4.09070E+01 0.00000E+00
 -1      2692 2.26500E+01 3.96080E+01 0.00000E+00
 -1      2693 2.64000E+01 4.09070E+01 0.00000E+00
 -1      2694 2.79000E+01 4.09070E+01 0.00000E+00
 -1      2695 2.56500E+01 3.96080E+01 0.00000E+00
 -1      2696 2.94000E+01 4.09070E+01 0.00000E+00
 -1      2697 3.09000E+01 4.09070E+01 0.00000E+00
 -1      2698 2.86500E+01 3.96080E+01 0.00000E+00
 -1      2699 3.24000E+01 4.09070E+01 0.00000E+00
 -1      2700 3.39000E+01 4.09070E+01 0.00000E+00
 -1      2701 3.16500E+01 3.96080E+01 0.00000E+00
 -1      2702 3.54000E+01 4.09070E+01 0.00000E+00
 -1      2703 3.69000E+01 4.09070E+01 0.00000E+00
 -1      2704 3.46500E+01 3.96080E+01 0.00000E+00
 -1      2705 3.84000E+01 4.09070E+01 0.00000E+00
 -1      2706 3.99000E+01 4.09070E+01 0.00000E+00
 -1      2707 3.76500E+01 3.96080E+01 0.00000E+00
 -1      2708 4.14000E+01 4.09070E+01 0.00000E+00
 -1      2709 4.29000E+01 4.09070E+01 0.00000E+00
 -1      2710 4.06500E+01 3.96080E+01 0.00000E+00
 -1      2711 4.44000E+01 4.09070E+01 0.00000E+00
 -1      2712 4.59000E+01 4.09070E+01 0.00000E+00
 -1      2713 4.36500E+01 3.96080E+01 0.00000E+00
 -1      2714 4.74000E+01 4.09070E+01 0.00000E+00
 -1      2715 4.89000E+01 4.09070E+01 0.00000E+00
 -1      2716 4.66500E+01 3.96080E+01 0.00000E+00
 -1      2717 5.04000E+01 4.09070E+01 0.00000E+00
 -1      2718 5.19000E+01 4.09070E+01 0.00000E+00
 -1      2719 4.96500E+01 3.96080E+01 0.00000E+00
 -1      2720 5.34000E+01 4.09070E+01 0.00000E+00
 -1      2721 5.49000E+01 4.09070E+01 0.00000E+00
 -1      2722 5.26500E+01 3.96080E+01 0.00000E+00
 -1      2723 5.64000E+01 4.09070E+01 0.00000E+00
 -1      2724 5.79000E+01 4.09070E+01 0.00000E+00
 -1      2725 5.56500E+01 3.96080E+01 0.00000E+00
 -1      2726 5.94000E+01 4.09070E+01 0.00000E+00
 -1      2727 6.09000E+01 4.09070E+01 0.00000E+00
 -1      2728 5.86500E+01 3.96080E+01 0.00000E+00
 -1      2729 6.24000E+01 4.09070E+01 0.00000E+00
 -1      2730 6.39000E+01 4.09070E+01 0.00000E+00
 -1      2731 6.16500E+01 3.96080E+01 0.00000E+00
 -1      2732 6.54000E+01 4.09070E+01 0.00000E+00
 -1      2733 6.69000E+01 4.09070E+01 0.00000E+00
 -1      2734 6.46500E+01 3.96080E+01 0.00000E+00
 -1      2735 6.84000E+01 4.09070E+01 0.00000E+00
 -1      2736 6.99000E+01 4.09070E+01 0.00000E+00
 -1      2737 6.76500E+01 3.96080E+01 0.00000E+00
 -1      2738 7.14000E+01 4.09070E+01 0.00000E+00
 -1      2739 7.29000E+01 4.09070E+01 0.00000E+00
 -1      2740 7.06500E+01 3.96080E+01 0.00000E+00
 -1      2741 7.74000E+01 4.11809E+01 0.00000E+00
 -1      2742 7.89000E+01 4.11809E+01 0.00000E+00
 -1      2743 7.98308E+01 4.05254E+01 0.00000E+00
 -1      2744 8.13308E+01 4.05254E+01 0.00000E+00
 -1      2745 8.36272E+01 4.09530E+01 0.00000E+00
 -1      2746 8.51272E+01 4.09530E+01 0.00000E+00
 -1      2747 8.94000E+01 4.09295E+01 0.00000E+00
 -1      2748 9.09000E+01 4.09295E+01 0.00000E+00
 -1      2749 9.24000E+01 4.09295E+01 0.00000E+00
 -1      2750 9.39000E+01 4.09295E+01 0.00000E+00
 -1      2751 9.16500E+01 3.96530E+01 0.00000E+00
 -1      2752 9.54000E+01 4.09295E+01 0.00000E+00
 -1      2753 9.69000E+01 4.09295E+01 0.00000E+00
 -1      2754 9.46500E+01 3.96530E+01 0.00000E+00
 -1      2755 9.84000E+01 4.09295E+01 0.00000E+00
 -1      2756 9.99000E+01 4.09295E+01 0.00000E+00
 -1      2757 9.76500E+01 3.96530E+01 0.00000E+00
 -1      2758 1.01400E+02 4.09295E+01 0.00000E+00
 -1      2759 1.02900E+02 4.09295E+01 0.00000E+00
 -1      2760 1.00650E+02 3.96530E+01 0.00000E+00
 -1      2761 1.04400E+02 4.09295E+01 0.00000E+00
 -1      2762 1.05900E+02 4.09295E+01 0.00000E+00
 -1      2763 1.03650E+02 3.96530E+01 0.00000E+00
 -1      2764 1.07400E+02 4.09295E+01 0.00000E+00
 -1      2765 1.08900E+02 4.09295E+01 0.00000E+00
 -1      2766 1.06650E+02 3.96530E+01 0.00000E+00
 -1      2767 1.10400E+02 4.09295E+01 0.00000E+00
 -1      2768 1.11900E+02 4.09295E+01 0.00000E+00
 -1      2769 1.09650E+02 3.96530E+01 0.00000E+00
 -1      2770 1.13400E+02 4.09295E+01 0.00000E+00
 -1      2771 1.14900E+02 4.09295E+01 0.00000E+00
 -1      2772 1.12650E+02 3.96530E+01 0.00000E+00
 -1      2773 1.16400E+02 4.09295E+01 0.00000E+00
 -1      2774 1.17900E+02 4.09295E+01 0.00000E+00
 -1      2775 1.15650E+02 3.96530E+01 0.00000E+00
 -1      2776 1.19400E+02 4.09295E+01 0.00000E+00
 -1      2777 1.20900E+02 4.09295E+01 0.00000E+00
 -1      2778 1.18650E+02 3.96530E+01 0.00000E+00
 -1      2779 1.22400E+02 4.09295E+01 0.00000E+00
 -1      2780 1.23900E+02 4.09295E+01 0.00000E+00
 -1      2781 1.21650E+02 3.96530E+01 0.00000E+00
 -1      2782 1.25400E+02 4.09295E+01 0.00000E+00
 -1      2783 1.26900E+02 4.09295E+01 0.00000E+00
 -1      2784 1.24650E+02 3.96530E+01 0.00000E+00
 -1      2785 1.28400E+02 4.09295E+01 0.00000E+00
 -1      2786 1.29900E+02 4.09295E+01 0.00000E+00
 -1      2787 1.27650E+02 3.96530E+01 0.00000E+00
 -1      2788 1.31400E+02 4.09295E+01 0.00000E+00
 -1      2789 1.32900E+02 4.09295E+01 0.00000E+00
 -1      2790 1.30650E+02 3.96530E+01 0.00000E+00
 -1      2791 1.34400E+02 4.09295E+01 0.00000E+00
 -1      2792 1.35900E+02 4.09295E+01 0.00000E+00
 -1      2793 1.33650E+02 3.96530E+01 0.00000E+00
 -1      2794 1.37400E+02 4.09295E+01 0.00000E+00
 -1      2795 1.38900E+02 4.09295E+01 0.00000E+00
 -1      2796 1.36650E+02 3.96530E+01 0.00000E+00
 -1      2797 6.90146E+01 2.70407E+01 0.00000E+00
 -1      2798 6.92208E+01 2.57167E+01 0.00000E+00
 -1      2799 7.26731E+01 3.60964E+01 0.00000E+00
 -1      2800 7.18680E+01 3.51871E+01 0.00000E+00
 -1      2801 2.12850E+01 7.90325E+00 0.00000E+00
 -1      2802 1.97850E+01 7.90325E+00 0.00000E+00
 -1      2803 3.02850E+01 7.90325E+00 0.00000E+00
 -1      2804 2.87850E+01 7.90325E+00 0.00000E+00
 -1      2805 3.32850E+01 7.90325E+00 0.00000E+00
 -1      2806 3.17850E+01 7.90325E+00 0.00000E+00
 -1      2807 3.10350E+01 9.20225E+00 0.00000E+00
 -1      2808 3.62850E+01 7.90325E+00 0.00000E+00
 -1      2809 3.47850E+01 7.90325E+00 0.00000E+00
 -1      2810 3.40350E+01 9.20225E+00 0.00000E+00
 -1      2811 3.92850E+01 7.90325E+00 0.00000E+00
 -1      2812 3.77850E+01 7.90325E+00 0.00000E+00
 -1      2813 3.70350E+01 9.20225E+00 0.00000E+00
 -1      2814 4.22850E+01 7.90325E+00 0.00000E+00
 -1      2815 4.07850E+01 7.90325E+00 0.00000E+00
 -1      2816 4.00350E+01 9.20225E+00 0.00000E+00
 -1      2817 4.52850E+01 7.90325E+00 0.00000E+00
 -1      2818 4.37850E+01 7.90325E+00 0.00000E+00
 -1      2819 4.30350E+01 9.20225E+00 0.00000E+00
 -1      2820 4.82850E+01 7.90325E+00 0.00000E+00
 -1      2821 4.67850E+01 7.90325E+00 0.00000E+00
 -1      2822 4.60350E+01 9.20225E+00 0.00000E+00
 -1      2823 5.12850E+01 7.90325E+00 0.00000E+00
 -1      2824 4.97850E+01 7.90325E+00 0.00000E+00
 -1      2825 4.90350E+01 9.20225E+00 0.00000E+00
 -1      2826 5.42850E+01 7.90325E+00 0.00000E+00
 -1      2827 5.27850E+01 7.90325E+00 0.00000E+00
 -1      2828 5.20350E+01 9.20225E+00 0.00000E+00
 -1      2829 5.72850E+01 7.90325E+00 0.00000E+00
 -1      2830 5.57850E+01 7.90325E+00 0.00000E+00
 -1      2831 5.50350E+01 9.20225E+00 0.00000E+00
 -1      2832 6.02850E+01 7.90325E+00 0.00000E+00
 -1      2833 5.87850E+01 7.90325E+00 0.00000E+00
 -1      2834 5.80350E+01 9.20225E+00 0.00000E+00
 -1      2835 6.32850E+01 7.90325E+00 0.00000E+00
 -1      2836 6.17850E+01 7.90325E+00 0.00000E+00
 -1      2837 6.10350E+01 9.20225E+00 0.00000E+00
 -1      2838 6.62850E+01 7.90325E+00 0.00000E+00
 -1      2839 6.47850E+01 7.90325E+00 0.00000E+00
 -1      2840 6.40350E+01 9.20225E+00 0.00000E+00
 -1      2841 6.92850E+01 7.90325E+00 0.00000E+00
 -1      2842 6.77850E+01 7.90325E+00 0.00000E+00
 -1      2843 6.70350E+01 9.20225E+00 0.00000E+00
 -1      2844 7.22850E+01 7.90325E+00 0.00000E+00
 -1      2845 7.07850E+01 7.90325E+00 0.00000E+00
 -1      2846 7.00350E+01 9.20225E+00 0.00000E+00
 -1      2847 7.52850E+01 7.90325E+00 0.00000E+00
 -1      2848 7.37850E+01 7.90325E+00 0.00000E+00
 -1      2849 7.30350E+01 9.20225E+00 0.00000E+00
 -1      2850 7.82850E+01 7.90325E+00 0.00000E+00
 -1      2851 7.67850E+01 7.90325E+00 0.00000E+00
 -1      2852 7.60350E+01 9.20225E+00 0.00000E+00
 -1      2853 8.12850E+01 7.90325E+00 0.00000E+00
 -1      2854 7.97850E+01 7.90325E+00 0.00000E+00
 -1      2855 7.90350E+01 9.20225E+00 0.00000E+00
 -1      2856 8.42850E+01 7.90325E+00 0.00000E+00
 -1      2857 8.27850E+01 7.90325E+00 0.00000E+00
 -1      2858 8.20350E+01 9.20225E+00 0.00000E+00
 -1      2859 8.72850E+01 7.90325E+00 0.00000E+00
 -1      2860 8.57850E+01 7.90325E+00 0.00000E+00
 -1      2861 8.50350E+01 9.20225E+00 0.00000E+00
 -1      2862 9.02850E+01 7.90325E+00 0.00000E+00
 -1      2863 8.87850E+01 7.90325E+00 0.00000E+00
 -1      2864 8.80350E+01 9.20225E+00 0.00000E+00
 -1      2865 9.32850E+01 7.90325E+00 0.00000E+00
 -1      2866 9.17850E+01 7.90325E+00 0.00000E+00
 -1      2867 9.10350E+01 9.20225E+00 0.00000E+00
 -1      2868 9.62850E+01 7.90325E+00 0.00000E+00
 -1      2869 9.47850E+01 7.90325E+00 0.00000E+00
 -1      2870 9.40350E+01 9.20225E+00 0.00000E+00
 -1      2871 9.92850E+01 7.90325E+00 0.00000E+00
 -1      2872 9.77850E+01 7.90325E+00 0.00000E+00
 -1      2873 9.70350E+01 9.20225E+00 0.00000E+00
 -1      2874 1.02285E+02 7.90325E+00 0.00000E+00
 -1      2875 1.00785E+02 7.90325E+00 0.00000E+00
 -1      2876 1.00035E+02 9.20225E+00 0.00000E+00
 -1      2877 1.05285E+02 7.90325E+00 0.00000E+00
 -1      2878 1.03785E+02 7.90325E+00 0.00000E+00
 -1      2879 1.03035E+02 9.20225E+00 0.00000E+00
 -1      2880 1.08285E+02 7.90325E+00 0.00000E+00
 -1      2881 1.06785E+02 7.90325E+00 0.00000E+00
 -1      2882 1.06035E+02 9.20225E+00 0.00000E+00
 -1      2883 1.11285E+02 7.90325E+00 0.00000E+00
 -1      2884 1.09785E+02 7.90325E+00 0.00000E+00
 -1      2885 1.09035E+02 9.20225E+00 0.00000E+00
 -1      2886 1.14285E+02 7.90325E+00 0.00000E+00
 -1      2887 1.12785E+02 7.90325E+00 0.00000E+00
 -1      2888 1.12035E+02 9.20225E+00 0.00000E+00
 -1      2889 1.17285E+02 7.90325E+00 0.00000E+00
 -1      2890 1.15785E+02 7.90325E+00 0.00000E+00
 -1      2891 1.15035E+02 9.20225E+00 0.00000E+00
 -1      2892 1.20285E+02 7.90325E+00 0.00000E+00
 -1      2893 1.18785E+02 7.90325E+00 0.00000E+00
 -1      2894 1.18035E+02 9.20225E+00 0.00000E+00
 -1      2895 1.23285E+02 7.90325E+00 0.00000E+00
 -1      2896 1.21785E+02 7.90325E+00 0.00000E+00
 -1      2897 1.21035E+02 9.20225E+00 0.00000E+00
 -1      2898 1.26285E+02 7.90325E+00 0.00000E+00
 -1      2899 1.24785E+02 7.90325E+00 0.00000E+00
 -1      2900 1.24035E+02 9.20225E+00 0.00000E+00
 -1      2901 1.29285E+02 7.90325E+00 0.00000E+00
 -1      2902 1.27785E+02 7.90325E+00 0.00000E+00
 -1      2903 1.27035E+02 9.20225E+00 0.00000E+00
 -1      2904 1.32285E+02 7.90325E+00 0.00000E+00
 -1      2905 1.30785E+02 7.90325E+00 0.00000E+00
 -1      2906 1.30035E+02 9.20225E+00 0.00000E+00
 -1      2907 1.35285E+02 7.90325E+00 0.00000E+00
 -1      2908 1.33785E+02 7.90325E+00 0.00000E+00
 -1      2909 1.33035E+02 9.20225E+00 0.00000E+00
 -1      2910 1.38285E+02 7.90325E+00 0.00000E+00
 -1      2911 1.36785E+02 7.90325E+00 0.00000E+00
 -1      2912 1.36035E+02 9.20225E+00 0.00000E+00
 -1      2913 1.40953E+02 8.18394E+00 0.00000E+00
 -1      2914 1.39453E+02 8.18394E+00 0.00000E+00
 -1      2915 1.38703E+02 9.48294E+00 0.00000E+00
 -1      2916 1.41038E+02 1.00443E+01 0.00000E+00
 -1      2917 1.40907E+02 2.42875E+01 0.00000E+00
 -1      2918 1.40907E+02 2.28125E+01 0.00000E+00
 -1      2919 1.39914E+02 4.09475E+01 0.00000E+00
 -1      2920 1.40928E+02 4.09768E+01 0.00000E+00
 -1      2921 1.41192E+02 3.97070E+01 0.00000E+00
 -1      2922 1.39164E+02 3.96710E+01 0.00000E+00
 -1      2923 1.40907E+02 1.83875E+01 0.00000E+00
 -1      2924 1.40907E+02 1.69125E+01 0.00000E+00
 -1      2925 1.40907E+02 2.72375E+01 0.00000E+00
 -1      2926 1.40907E+02 2.57625E+01 0.00000E+00
 -1      2927 1.39608E+02 2.50250E+01 0.00000E+00
 -1      2928 1.40907E+02 2.13375E+01 0.00000E+00
 -1      2929 1.40907E+02 1.98625E+01 0.00000E+00
 -1      2930 1.39608E+02 1.91250E+01 0.00000E+00
 -1      2931 1.39608E+02 2.20750E+01 0.00000E+00
 -1      2932 9.19628E+01 2.15065E+01 0.00000E+00
 -1      2933 9.25950E+01 2.26526E+01 0.00000E+00
 -1      2934 1.40907E+02 3.01375E+01 0.00000E+00
 -1      2935 1.40907E+02 2.86875E+01 0.00000E+00
 -1      2936 1.39608E+02 2.79500E+01 0.00000E+00
 -1      2937 1.40907E+02 3.30875E+01 0.00000E+00
 -1      2938 1.40907E+02 3.16125E+01 0.00000E+00
 -1      2939 1.39608E+02 3.08750E+01 0.00000E+00
 -1      2940 1.40907E+02 3.60375E+01 0.00000E+00
 -1      2941 1.40907E+02 3.45625E+01 0.00000E+00
 -1      2942 1.39608E+02 3.38250E+01 0.00000E+00
 -1      2943 1.41192E+02 3.82320E+01 0.00000E+00
 -1      2944 1.82850E+01 7.90325E+00 0.00000E+00
 -1      2945 1.67850E+01 7.90325E+00 0.00000E+00
 -1      2946 1.60350E+01 9.20225E+00 0.00000E+00
 -1      2947 1.90350E+01 9.20225E+00 0.00000E+00
 -1      2948 9.33183E+01 2.99164E+01 0.00000E+00
 -1      2949 9.30491E+01 3.10937E+01 0.00000E+00
 -1      2950 8.85168E+00 4.05347E+01 0.00000E+00
 -1      2951 1.02152E+01 4.07987E+01 0.00000E+00
 -1      2952 8.91450E+00 8.42712E+00 0.00000E+00
 -1      2953 7.47986E+01 3.79369E+01 0.00000E+00
 -1      2954 7.37224E+01 3.70816E+01 0.00000E+00
 -1      2955 7.88278E+01 1.55074E+01 0.00000E+00
 -1      2956 7.97097E+01 1.54371E+01 0.00000E+00
 -1      2957 9.36182E+01 2.70995E+01 0.00000E+00
 -1      2958 9.34682E+01 2.85079E+01 0.00000E+00
 -1      2959 9.43330E+01 2.93251E+01 0.00000E+00
 -1      2960 7.70990E+01 3.88608E+01 0.00000E+00
 -1      2961 7.59488E+01 3.83988E+01 0.00000E+00
 -1      2962 7.48771E+01 3.86426E+01 0.00000E+00
 -1      2963 2.72850E+01 7.90325E+00 0.00000E+00
 -1      2964 2.57850E+01 7.90325E+00 0.00000E+00
 -1      2965 2.80350E+01 9.20225E+00 0.00000E+00
 -1      2966 2.42850E+01 7.90325E+00 0.00000E+00
 -1      2967 2.27850E+01 7.90325E+00 0.00000E+00
 -1      2968 2.50350E+01 9.20225E+00 0.00000E+00
 -1      2969 6.93369E+01 2.96325E+01 0.00000E+00
 -1      2970 6.91637E+01 2.85220E+01 0.00000E+00
 -1      2971 7.33486E+01 1.74941E+01 0.00000E+00
 -1      2972 7.43728E+01 1.68827E+01 0.00000E+00
 -1      2973 1.15576E+01 4.08528E+01 0.00000E+00
 -1      2974 1.30576E+01 4.08528E+01 0.00000E+00
 -1      2975 1.38076E+01 3.95538E+01 0.00000E+00
 -1      2976 1.11228E+01 3.94455E+01 0.00000E+00
 -1      2977 7.10928E+01 3.41499E+01 0.00000E+00
 -1      2978 7.05254E+01 3.32248E+01 0.00000E+00
 -1      2979 7.03740E+01 2.23312E+01 0.00000E+00
 -1      2980 7.08306E+01 2.13068E+01 0.00000E+00
 -1      2981 8.09295E+01 1.55051E+01 0.00000E+00
 -1      2982 8.22819E+01 1.55489E+01 0.00000E+00
 -1      2983 6.99669E+01 3.20355E+01 0.00000E+00
 -1      2984 6.95746E+01 3.09128E+01 0.00000E+00
 -1      2985 8.78416E+01 3.78891E+01 0.00000E+00
 -1      2986 8.68040E+01 3.85388E+01 0.00000E+00
 -1      2987 9.09300E+00 1.68813E+01 0.00000E+00
 -1      2988 9.09300E+00 1.83563E+01 0.00000E+00
 -1      2989 1.03920E+01 1.90812E+01 0.00000E+00
 -1      2990 1.03920E+01 1.61437E+01 0.00000E+00
 -1      2991 6.96497E+01 2.44378E+01 0.00000E+00
 -1      2992 6.99872E+01 2.34343E+01 0.00000E+00
 -1      2993 7.48818E+00 3.88019E+01 0.00000E+00
 -1      2994 9.09300E+00 3.15875E+01 0.00000E+00
 -1      2995 9.09300E+00 3.30625E+01 0.00000E+00
 -1      2996 7.90808E+01 3.95003E+01 0.00000E+00
 -1      2997 7.81603E+01 3.93864E+01 0.00000E+00
 -1      2998 9.24521E+01 3.22813E+01 0.00000E+00
 -1      2999 9.20033E+01 3.31468E+01 0.00000E+00
 -1      3000 9.31833E+01 2.40767E+01 0.00000E+00
 -1      3001 9.35533E+01 2.53574E+01 0.00000E+00
 -1      3002 8.97156E+01 3.63351E+01 0.00000E+00
 -1      3003 8.89679E+01 3.71002E+01 0.00000E+00
 -1      3004 8.84337E+01 1.80234E+01 0.00000E+00
 -1      3005 8.92004E+01 1.86545E+01 0.00000E+00
 -1      3006 8.62458E+01 1.66273E+01 0.00000E+00
 -1      3007 8.73695E+01 1.72921E+01 0.00000E+00
 -1      3008 9.09300E+00 3.45313E+01 0.00000E+00
 -1      3009 9.09300E+00 3.60000E+01 0.00000E+00
 -1      3010 1.03920E+01 3.37938E+01 0.00000E+00
 -1      3011 1.03920E+01 2.49750E+01 0.00000E+00
 -1      3012 9.09300E+00 2.57000E+01 0.00000E+00
 -1      3013 9.09300E+00 2.71750E+01 0.00000E+00
 -1      3014 8.59220E+01 1.56361E+01 0.00000E+00
 -1      3015 8.83511E+01 1.68809E+01 0.00000E+00
 -1      3016 9.08624E+01 3.64148E+01 0.00000E+00
 -1      3017 9.37648E+01 2.30085E+01 0.00000E+00
 -1      3018 9.35860E+01 3.19212E+01 0.00000E+00
 -1      3019 8.30952E+01 1.48963E+01 0.00000E+00
 -1      3020 6.94322E+01 2.25730E+01 0.00000E+00
 -1      3021 8.89487E+01 3.82229E+01 0.00000E+00
 -1      3022 6.95197E+01 3.29464E+01 0.00000E+00
 -1      3023 7.44000E+01 4.10971E+01 0.00000E+00
 -1      3024 7.59000E+01 4.10971E+01 0.00000E+00
 -1      3025 8.26839E+01 4.05432E+01 0.00000E+00
 -1      3026 1.39608E+02 1.61875E+01 0.00000E+00
 -1      3027 1.40907E+02 1.54500E+01 0.00000E+00
 -1      3028 1.40907E+02 1.39875E+01 0.00000E+00
 -1      3029 8.64000E+01 4.10133E+01 0.00000E+00
 -1      3030 8.79000E+01 4.10133E+01 0.00000E+00
 -1      3031 6.86165E+01 2.49549E+01 0.00000E+00
 -1      3032 6.83367E+01 2.77151E+01 0.00000E+00
 -1      3033 8.04137E+01 1.46019E+01 0.00000E+00
 -1      3034 7.08533E+01 3.51730E+01 0.00000E+00
 -1      3035 2.20350E+01 9.20225E+00 0.00000E+00
 -1      3036 1.40973E+02 1.27472E+01 0.00000E+00
 -1      3037 1.40973E+02 1.12847E+01 0.00000E+00
 -1      3038 1.39805E+02 1.10040E+01 0.00000E+00
 -1      3039 1.39674E+02 1.34847E+01 0.00000E+00
 -1      3040 7.23814E+01 1.76980E+01 0.00000E+00
 -1      3041 7.23681E+01 1.65120E+01 0.00000E+00
 -1      3042 7.14143E+01 1.79018E+01 0.00000E+00
 -1      3043 1.39529E+02 3.85828E+01 0.00000E+00
 -1      3044 1.40542E+02 3.71258E+01 0.00000E+00
 -1      3045 1.39243E+02 3.63883E+01 0.00000E+00
 -1      3046 1.38514E+02 3.85648E+01 0.00000E+00
 -1      3047 7.78116E+01 1.51438E+01 0.00000E+00
 -1      3048 7.81777E+01 1.41702E+01 0.00000E+00
 -1      3049 7.67954E+01 1.47801E+01 0.00000E+00
 -1      3050 9.44180E+01 2.61746E+01 0.00000E+00
 -1      3051 9.52828E+01 2.69918E+01 0.00000E+00
 -1      3052 9.52179E+01 2.52497E+01 0.00000E+00
 -1      3053 7.26777E+01 3.71955E+01 0.00000E+00
 -1      3054 8.86500E+01 3.97368E+01 0.00000E+00
 -1      3055 7.66500E+01 4.00720E+01 0.00000E+00
 -1      3056 9.66450E+00 9.72612E+00 0.00000E+00
 -1      3057 7.06233E+01 2.02788E+01 0.00000E+00
 -1      3058 7.48823E+01 1.60309E+01 0.00000E+00
 -1      3059 7.53918E+01 1.51791E+01 0.00000E+00
 -1      3060 7.38447E+01 1.54564E+01 0.00000E+00
 -1      3061 9.23195E+01 3.42521E+01 0.00000E+00
 -1      3062 9.09300E+00 2.86437E+01 0.00000E+00
 -1      3063 9.09300E+00 3.01187E+01 0.00000E+00
 -1      3064 1.03920E+01 3.08563E+01 0.00000E+00
 -1      3065 1.03920E+01 2.79188E+01 0.00000E+00
 -1      3066 6.87235E+01 3.04767E+01 0.00000E+00
 -1      3067 9.03008E+01 1.84158E+01 0.00000E+00
 -1      3068 8.78718E+00 3.80644E+01 0.00000E+00
 -1      3069 1.09635E+01 1.04636E+01 0.00000E+00
 -1      3070 7.36500E+01 3.97981E+01 0.00000E+00
 -1      3071 8.58772E+01 3.97603E+01 0.00000E+00
 -1      3072 6.93022E+01 2.02538E+01 0.00000E+00
 -1      3073 7.01065E+01 1.90627E+01 0.00000E+00
 -1      3074 1.16910E+01 1.24625E+01 0.00000E+00
 -1      3075 1.16910E+01 1.39375E+01 0.00000E+00
 -1      3076 9.21814E+01 2.04019E+01 0.00000E+00
 -1      3077 8.84946E+01 1.55323E+01 0.00000E+00
 -1      3078 8.95587E+01 1.62636E+01 0.00000E+00
 -1      3079 9.44956E+01 2.18730E+01 0.00000E+00
 -1      3080 9.50839E+01 2.32971E+01 0.00000E+00
 -1      3081 1.89000E+01 3.83090E+01 0.00000E+00
 -1      3082 2.04000E+01 3.83090E+01 0.00000E+00
 -1      3083 2.19000E+01 3.83090E+01 0.00000E+00
 -1      3084 2.34000E+01 3.83090E+01 0.00000E+00
 -1      3085 2.11500E+01 3.70100E+01 0.00000E+00
 -1      3086 2.49000E+01 3.83090E+01 0.00000E+00
 -1      3087 2.64000E+01 3.83090E+01 0.00000E+00
 -1      3088 2.41500E+01 3.70100E+01 0.00000E+00
 -1      3089 2.79000E+01 3.83090E+01 0.00000E+00
 -1      3090 2.94000E+01 3.83090E+01 0.00000E+00
 -1      3091 2.71500E+01 3.70100E+01 0.00000E+00
 -1      3092 3.09000E+01 3.83090E+01 0.00000E+00
 -1      3093 3.24000E+01 3.83090E+01 0.00000E+00
 -1      3094 3.01500E+01 3.70100E+01 0.00000E+00
 -1      3095 3.39000E+01 3.83090E+01 0.00000E+00
 -1      3096 3.54000E+01 3.83090E+01 0.00000E+00
 -1      3097 3.31500E+01 3.70100E+01 0.00000E+00
 -1      3098 3.69000E+01 3.83090E+01 0.00000E+00
 -1      3099 3.84000E+01 3.83090E+01 0.00000E+00
 -1      3100 3.61500E+01 3.70100E+01 0.00000E+00
 -1      3101 3.99000E+01 3.83090E+01 0.00000E+00
 -1      3102 4.14000E+01 3.83090E+01 0.00000E+00
 -1      3103 3.91500E+01 3.70100E+01 0.00000E+00
 -1      3104 4.29000E+01 3.83090E+01 0.00000E+00
 -1      3105 4.44000E+01 3.83090E+01 0.00000E+00
 -1      3106 4.21500E+01 3.70100E+01 0.00000E+00
 -1      3107 4.59000E+01 3.83090E+01 0.00000E+00
 -1      3108 4.74000E+01 3.83090E+01 0.00000E+00
 -1      3109 4.51500E+01 3.70100E+01 0.00000E+00
 -1      3110 4.89000E+01 3.83090E+01 0.00000E+00
 -1      3111 5.04000E+01 3.83090E+01 0.00000E+00
 -1      3112 4.81500E+01 3.70100E+01 0.00000E+00
 -1      3113 5.19000E+01 3.83090E+01 0.00000E+00
 -1      3114 5.34000E+01 3.83090E+01 0.00000E+00
 -1      3115 5.11500E+01 3.70100E+01 0.00000E+00
 -1      3116 5.49000E+01 3.83090E+01 0.00000E+00
 -1      3117 5.64000E+01 3.83090E+01 0.00000E+00
 -1      3118 5.41500E+01 3.70100E+01 0.00000E+00
 -1      3119 5.79000E+01 3.83090E+01 0.00000E+00
 -1      3120 5.94000E+01 3.83090E+01 0.00000E+00
 -1      3121 5.71500E+01 3.70100E+01 0.00000E+00
 -1      3122 6.09000E+01 3.83090E+01 0.00000E+00
 -1      3123 6.24000E+01 3.83090E+01 0.00000E+00
 -1      3124 6.01500E+01 3.70100E+01 0.00000E+00
 -1      3125 6.39000E+01 3.83090E+01 0.00000E+00
 -1      3126 6.54000E+01 3.83090E+01 0.00000E+00
 -1      3127 6.31500E+01 3.70100E+01 0.00000E+00
 -1      3128 6.69000E+01 3.83090E+01 0.00000E+00
 -1      3129 6.84000E+01 3.83090E+01 0.00000E+00
 -1      3130 6.61500E+01 3.70100E+01 0.00000E+00
 -1      3131 6.75095E+01 2.52951E+01 0.00000E+00
 -1      3132 6.79384E+01 2.40162E+01 0.00000E+00
 -1      3133 9.39000E+01 3.83540E+01 0.00000E+00
 -1      3134 9.54000E+01 3.83540E+01 0.00000E+00
 -1      3135 9.69000E+01 3.83540E+01 0.00000E+00
 -1      3136 9.84000E+01 3.83540E+01 0.00000E+00
 -1      3137 9.61500E+01 3.70550E+01 0.00000E+00
 -1      3138 9.99000E+01 3.83540E+01 0.00000E+00
 -1      3139 1.01400E+02 3.83540E+01 0.00000E+00
 -1      3140 9.91500E+01 3.70550E+01 0.00000E+00
 -1      3141 1.02900E+02 3.83540E+01 0.00000E+00
 -1      3142 1.04400E+02 3.83540E+01 0.00000E+00
 -1      3143 1.02150E+02 3.70550E+01 0.00000E+00
 -1      3144 1.05900E+02 3.83540E+01 0.00000E+00
 -1      3145 1.07400E+02 3.83540E+01 0.00000E+00
 -1      3146 1.05150E+02 3.70550E+01 0.00000E+00
 -1      3147 1.08900E+02 3.83540E+01 0.00000E+00
 -1      3148 1.10400E+02 3.83540E+01 0.00000E+00
 -1      3149 1.08150E+02 3.70550E+01 0.00000E+00
 -1      3150 1.11900E+02 3.83540E+01 0.00000E+00
 -1      3151 1.13400E+02 3.83540E+01 0.00000E+00
 -1      3152 1.11150E+02 3.70550E+01 0.00000E+00
 -1      3153 1.14900E+02 3.83540E+01 0.00000E+00
 -1      3154 1.16400E+02 3.83540E+01 0.00000E+00
 -1      3155 1.14150E+02 3.70550E+01 0.00000E+00
 -1      3156 1.17900E+02 3.83540E+01 0.00000E+00
 -1      3157 1.19400E+02 3.83540E+01 0.00000E+00
 -1      3158 1.17150E+02 3.70550E+01 0.00000E+00
 -1      3159 1.20900E+02 3.83540E+01 0.00000E+00
 -1      3160 1.22400E+02 3.83540E+01 0.00000E+00
 -1      3161 1.20150E+02 3.70550E+01 0.00000E+00
 -1      3162 1.23900E+02 3.83540E+01 0.00000E+00
 -1      3163 1.25400E+02 3.83540E+01 0.00000E+00
 -1      3164 1.23150E+02 3.70550E+01 0.00000E+00
 -1      3165 1.26900E+02 3.83540E+01 0.00000E+00
 -1      3166 1.28400E+02 3.83540E+01 0.00000E+00
 -1      3167 1.26150E+02 3.70550E+01 0.00000E+00
 -1      3168 1.29900E+02 3.83540E+01 0.00000E+00
 -1      3169 1.31400E+02 3.83540E+01 0.00000E+00
 -1      3170 1.29150E+02 3.70550E+01 0.00000E+00
 -1      3171 1.32900E+02 3.83540E+01 0.00000E+00
 -1      3172 1.34400E+02 3.83540E+01 0.00000E+00
 -1      3173 1.32150E+02 3.70550E+01 0.00000E+00
 -1      3174 1.35707E+02 3.84594E+01 0.00000E+00
 -1      3175 1.37207E+02 3.84594E+01 0.00000E+00
 -1      3176 1.37572E+02 3.73711E+01 0.00000E+00
 -1      3177 1.34957E+02 3.71604E+01 0.00000E+00
 -1      3178 8.25084E+01 1.38528E+01 0.00000E+00
 -1      3179 8.39701E+01 1.40792E+01 0.00000E+00
 -1      3180 3.17850E+01 1.05013E+01 0.00000E+00
 -1      3181 3.02850E+01 1.05013E+01 0.00000E+00
 -1      3182 4.07850E+01 1.05013E+01 0.00000E+00
 -1      3183 3.92850E+01 1.05013E+01 0.00000E+00
 -1      3184 4.37850E+01 1.05013E+01 0.00000E+00
 -1      3185 4.22850E+01 1.05013E+01 0.00000E+00
 -1      3186 4.15350E+01 1.18003E+01 0.00000E+00
 -1      3187 4.67850E+01 1.05013E+01 0.00000E+00
 -1      3188 4.52850E+01 1.05013E+01 0.00000E+00
 -1      3189 4.45350E+01 1.18003E+01 0.00000E+00
 -1      3190 4.97850E+01 1.05013E+01 0.00000E+00
 -1      3191 4.82850E+01 1.05013E+01 0.00000E+00
 -1      3192 4.75350E+01 1.18003E+01 0.00000E+00
 -1      3193 5.27850E+01 1.05013E+01 0.00000E+00
 -1      3194 5.12850E+01 1.05013E+01 0.00000E+00
 -1      3195 5.05350E+01 1.18003E+01 0.00000E+00
 -1      3196 5.57850E+01 1.05013E+01 0.00000E+00
 -1      3197 5.42850E+01 1.05013E+01 0.00000E+00
 -1      3198 5.35350E+01 1.18003E+01 0.00000E+00
 -1      3199 5.87850E+01 1.05013E+01 0.00000E+00
 -1      3200 5.72850E+01 1.05013E+01 0.00000E+00
 -1      3201 5.65350E+01 1.18003E+01 0.00000E+00
 -1      3202 6.17850E+01 1.05013E+01 0.00000E+00
 -1      3203 6.02850E+01 1.05013E+01 0.00000E+00
 -1      3204 5.95350E+01 1.18003E+01 0.00000E+00
 -1      3205 6.47850E+01 1.05013E+01 0.00000E+00
 -1      3206 6.32850E+01 1.05013E+01 0.00000E+00
 -1      3207 6.25350E+01 1.18003E+01 0.00000E+00
 -1      3208 6.77850E+01 1.05013E+01 0.00000E+00
 -1      3209 6.62850E+01 1.05013E+01 0.00000E+00
 -1      3210 6.55350E+01 1.18003E+01 0.00000E+00
 -1      3211 7.07850E+01 1.05013E+01 0.00000E+00
 -1      3212 6.92850E+01 1.05013E+01 0.00000E+00
 -1      3213 6.85350E+01 1.18003E+01 0.00000E+00
 -1      3214 7.37850E+01 1.05013E+01 0.00000E+00
 -1      3215 7.22850E+01 1.05013E+01 0.00000E+00
 -1      3216 7.15350E+01 1.18003E+01 0.00000E+00
 -1      3217 7.73483E+01 1.15044E+01 0.00000E+00
 -1      3218 7.58483E+01 1.15044E+01 0.00000E+00
 -1      3219 8.27850E+01 1.05013E+01 0.00000E+00
 -1      3220 8.12850E+01 1.05013E+01 0.00000E+00
 -1      3221 8.87850E+01 1.05013E+01 0.00000E+00
 -1      3222 8.72850E+01 1.05013E+01 0.00000E+00
 -1      3223 9.17850E+01 1.05013E+01 0.00000E+00
 -1      3224 9.02850E+01 1.05013E+01 0.00000E+00
 -1      3225 8.95350E+01 1.18003E+01 0.00000E+00
 -1      3226 9.47850E+01 1.05013E+01 0.00000E+00
 -1      3227 9.32850E+01 1.05013E+01 0.00000E+00
 -1      3228 9.25350E+01 1.18003E+01 0.00000E+00
 -1      3229 9.77850E+01 1.05013E+01 0.00000E+00
 -1      3230 9.62850E+01 1.05013E+01 0.00000E+00
 -1      3231 9.55350E+01 1.18003E+01 0.00000E+00
 -1      3232 1.00785E+02 1.05013E+01 0.00000E+00
 -1      3233 9.92850E+01 1.05013E+01 0.00000E+00
 -1      3234 9.85350E+01 1.18003E+01 0.00000E+00
 -1      3235 1.03785E+02 1.05013E+01 0.00000E+00
 -1      3236 1.02285E+02 1.05013E+01 0.00000E+00
 -1      3237 1.01535E+02 1.18003E+01 0.00000E+00
 -1      3238 1.06785E+02 1.05013E+01 0.00000E+00
 -1      3239 1.05285E+02 1.05013E+01 0.00000E+00
 -1      3240 1.04535E+02 1.18003E+01 0.00000E+00
 -1      3241 1.09785E+02 1.05013E+01 0.00000E+00
 -1      3242 1.08285E+02 1.05013E+01 0.00000E+00
 -1      3243 1.07535E+02 1.18003E+01 0.00000E+00
 -1      3244 1.12785E+02 1.05013E+01 0.00000E+00
 -1      3245 1.11285E+02 1.05013E+01 0.00000E+00
 -1      3246 1.10535E+02 1.18003E+01 0.00000E+00
 -1      3247 1.15785E+02 1.05013E+01 0.00000E+00
 -1      3248 1.14285E+02 1.05013E+01 0.00000E+00
 -1      3249 1.13535E+02 1.18003E+01 0.00000E+00
 -1      3250 1.18785E+02 1.05013E+01 0.00000E+00
 -1      3251 1.17285E+02 1.05013E+01 0.00000E+00
 -1      3252 1.16535E+02 1.18003E+01 0.00000E+00
 -1      3253 1.21785E+02 1.05013E+01 0.00000E+00
 -1      3254 1.20285E+02 1.05013E+01 0.00000E+00
 -1      3255 1.19535E+02 1.18003E+01 0.00000E+00
 -1      3256 1.24785E+02 1.05013E+01 0.00000E+00
 -1      3257 1.23285E+02 1.05013E+01 0.00000E+00
 -1      3258 1.22535E+02 1.18003E+01 0.00000E+00
 -1      3259 1.27785E+02 1.05013E+01 0.00000E+00
 -1      3260 1.26285E+02 1.05013E+01 0.00000E+00
 -1      3261 1.25535E+02 1.18003E+01 0.00000E+00
 -1      3262 1.30785E+02 1.05013E+01 0.00000E+00
 -1      3263 1.29285E+02 1.05013E+01 0.00000E+00
 -1      3264 1.28535E+02 1.18003E+01 0.00000E+00
 -1      3265 1.33785E+02 1.05013E+01 0.00000E+00
 -1      3266 1.32285E+02 1.05013E+01 0.00000E+00
 -1      3267 1.31535E+02 1.18003E+01 0.00000E+00
 -1      3268 1.36785E+02 1.05013E+01 0.00000E+00
 -1      3269 1.35285E+02 1.05013E+01 0.00000E+00
 -1      3270 1.34535E+02 1.18003E+01 0.00000E+00
 -1      3271 1.38879E+02 1.08930E+01 0.00000E+00
 -1      3272 1.37711E+02 1.06123E+01 0.00000E+00
 -1      3273 1.36961E+02 1.19113E+01 0.00000E+00
 -1      3274 1.38813E+02 1.21333E+01 0.00000E+00
 -1      3275 1.16910E+01 2.12875E+01 0.00000E+00
 -1      3276 1.16910E+01 2.27625E+01 0.00000E+00
 -1      3277 1.38309E+02 3.16125E+01 0.00000E+00
 -1      3278 1.38309E+02 3.01375E+01 0.00000E+00
 -1      3279 1.38309E+02 2.57625E+01 0.00000E+00
 -1      3280 1.38309E+02 2.42875E+01 0.00000E+00
 -1      3281 1.38309E+02 3.45625E+01 0.00000E+00
 -1      3282 1.38309E+02 3.30875E+01 0.00000E+00
 -1      3283 1.37010E+02 3.23500E+01 0.00000E+00
 -1      3284 1.38309E+02 2.86750E+01 0.00000E+00
 -1      3285 1.38309E+02 2.72250E+01 0.00000E+00
 -1      3286 1.37010E+02 2.64875E+01 0.00000E+00
 -1      3287 1.37010E+02 2.94125E+01 0.00000E+00
 -1      3288 6.74746E+01 2.85501E+01 0.00000E+00
 -1      3289 6.73255E+01 2.70687E+01 0.00000E+00
 -1      3290 3.77850E+01 1.05013E+01 0.00000E+00
 -1      3291 3.62850E+01 1.05013E+01 0.00000E+00
 -1      3292 3.85350E+01 1.18003E+01 0.00000E+00
 -1      3293 6.79168E+01 3.12888E+01 0.00000E+00
 -1      3294 6.76791E+01 3.00085E+01 0.00000E+00
 -1      3295 3.47850E+01 1.05013E+01 0.00000E+00
 -1      3296 3.32850E+01 1.05013E+01 0.00000E+00
 -1      3297 3.25350E+01 1.18003E+01 0.00000E+00
 -1      3298 3.55350E+01 1.18003E+01 0.00000E+00
 -1      3299 8.64678E+01 3.89432E+01 0.00000E+00
 -1      3300 7.98562E+01 1.36280E+01 0.00000E+00
 -1      3301 8.10760E+01 1.36960E+01 0.00000E+00
 -1      3302 7.04869E+01 3.62551E+01 0.00000E+00
 -1      3303 6.97117E+01 3.52179E+01 0.00000E+00
 -1      3304 6.82714E+01 2.27853E+01 0.00000E+00
 -1      3305 6.86582E+01 2.16822E+01 0.00000E+00
 -1      3306 9.53440E+01 2.87206E+01 0.00000E+00
 -1      3307 9.51940E+01 3.01290E+01 0.00000E+00
 -1      3308 7.70886E+01 3.96301E+01 0.00000E+00
 -1      3309 8.55709E+01 1.44983E+01 0.00000E+00
 -1      3310 8.69359E+01 1.50118E+01 0.00000E+00
 -1      3311 1.59000E+01 3.83090E+01 0.00000E+00
 -1      3312 1.74000E+01 3.83090E+01 0.00000E+00
 -1      3313 1.81500E+01 3.70100E+01 0.00000E+00
 -1      3314 2.27850E+01 1.05013E+01 0.00000E+00
 -1      3315 2.12850E+01 1.05013E+01 0.00000E+00
 -1      3316 2.87850E+01 1.05013E+01 0.00000E+00
 -1      3317 2.72850E+01 1.05013E+01 0.00000E+00
 -1      3318 2.95350E+01 1.18003E+01 0.00000E+00
 -1      3319 2.57850E+01 1.05013E+01 0.00000E+00
 -1      3320 2.42850E+01 1.05013E+01 0.00000E+00
 -1      3321 2.65350E+01 1.18003E+01 0.00000E+00
 -1      3322 9.36835E+01 3.42832E+01 0.00000E+00
 -1      3323 9.30139E+01 3.54265E+01 0.00000E+00
 -1      3324 9.04906E+01 1.73168E+01 0.00000E+00
 -1      3325 9.13762E+01 1.81204E+01 0.00000E+00
 -1      3326 8.74862E+01 3.94162E+01 0.00000E+00
 -1      3327 1.26488E+01 1.02017E+01 0.00000E+00
 -1      3328 1.20772E+01 1.14631E+01 0.00000E+00
 -1      3329 1.33763E+01 1.22006E+01 0.00000E+00
 -1      3330 1.41488E+01 1.02017E+01 0.00000E+00
 -1      3331 6.89468E+01 3.39412E+01 0.00000E+00
 -1      3332 6.83884E+01 3.27518E+01 0.00000E+00
 -1      3333 1.00862E+01 3.73269E+01 0.00000E+00
 -1      3334 9.20674E+01 3.65318E+01 0.00000E+00
 -1      3335 9.12799E+01 3.75512E+01 0.00000E+00
 -1      3336 9.48774E+01 3.19079E+01 0.00000E+00
 -1      3337 9.42804E+01 3.30956E+01 0.00000E+00
 -1      3338 9.49749E+01 3.42699E+01 0.00000E+00
 -1      3339 9.24042E+01 1.92045E+01 0.00000E+00
 -1      3340 9.33992E+01 2.03871E+01 0.00000E+00
 -1      3341 1.16910E+01 2.42375E+01 0.00000E+00
 -1      3342 1.16910E+01 2.57125E+01 0.00000E+00
 -1      3343 1.29900E+01 2.35000E+01 0.00000E+00
 -1      3344 1.16910E+01 3.30594E+01 0.00000E+00
 -1      3345 1.16910E+01 3.45281E+01 0.00000E+00
 -1      3346 1.29900E+01 1.46687E+01 0.00000E+00
 -1      3347 1.16910E+01 1.54063E+01 0.00000E+00
 -1      3348 1.16910E+01 1.68750E+01 0.00000E+00
 -1      3349 8.81435E+01 1.43945E+01 0.00000E+00
 -1      3350 6.73440E+01 3.22835E+01 0.00000E+00
 -1      3351 9.66794E+01 2.29788E+01 0.00000E+00
 -1      3352 9.59486E+01 2.41143E+01 0.00000E+00
 -1      3353 9.68133E+01 2.49314E+01 0.00000E+00
 -1      3354 6.84976E+01 3.66550E+01 0.00000E+00
 -1      3355 6.92476E+01 3.79540E+01 0.00000E+00
 -1      3356 6.85804E+01 3.50233E+01 0.00000E+00
 -1      3357 8.19509E+01 1.28789E+01 0.00000E+00
 -1      3358 6.71645E+01 2.31254E+01 0.00000E+00
 -1      3359 6.66475E+01 2.61300E+01 0.00000E+00
 -1      3360 6.59694E+01 2.51913E+01 0.00000E+00
 -1      3361 6.57854E+01 2.69649E+01 0.00000E+00
 -1      3362 7.03893E+01 3.79091E+01 0.00000E+00
 -1      3363 7.18893E+01 3.79091E+01 0.00000E+00
 -1      3364 7.29385E+01 3.88943E+01 0.00000E+00
 -1      3365 7.44385E+01 3.90844E+01 0.00000E+00
 -1      3366 1.38309E+02 1.69188E+01 0.00000E+00
 -1      3367 1.38309E+02 1.54563E+01 0.00000E+00
 -1      3368 7.00931E+01 1.78768E+01 0.00000E+00
 -1      3369 6.81414E+01 2.04661E+01 0.00000E+00
 -1      3370 8.49841E+01 1.34549E+01 0.00000E+00
 -1      3371 2.35350E+01 1.18003E+01 0.00000E+00
 -1      3372 6.66680E+01 2.93621E+01 0.00000E+00
 -1      3373 7.50983E+01 1.28034E+01 0.00000E+00
 -1      3374 7.97850E+01 1.03949E+01 0.00000E+00
 -1      3375 7.82850E+01 1.03949E+01 0.00000E+00
 -1      3376 8.57850E+01 1.03949E+01 0.00000E+00
 -1      3377 8.42850E+01 1.03949E+01 0.00000E+00
 -1      3378 1.16910E+01 1.98188E+01 0.00000E+00
 -1      3379 1.29900E+01 2.05562E+01 0.00000E+00
 -1      3380 1.16910E+01 1.83500E+01 0.00000E+00
 -1      3381 1.38309E+02 1.98687E+01 0.00000E+00
 -1      3382 1.38309E+02 1.83937E+01 0.00000E+00
 -1      3383 1.37010E+02 1.76625E+01 0.00000E+00
 -1      3384 7.80983E+01 1.26971E+01 0.00000E+00
 -1      3385 7.91145E+01 1.30608E+01 0.00000E+00
 -1      3386 1.14286E+01 3.73811E+01 0.00000E+00
 -1      3387 1.16910E+01 3.15906E+01 0.00000E+00
 -1      3388 1.29900E+01 3.23250E+01 0.00000E+00
 -1      3389 1.16910E+01 3.01219E+01 0.00000E+00
 -1      3390 7.97767E+01 1.21549E+01 0.00000E+00
 -1      3391 7.55886E+01 3.95464E+01 0.00000E+00
 -1      3392 8.65350E+01 1.16939E+01 0.00000E+00
 -1      3393 8.35350E+01 1.16939E+01 0.00000E+00
 -1      3394 1.71488E+01 1.02017E+01 0.00000E+00
 -1      3395 1.56488E+01 1.02017E+01 0.00000E+00
 -1      3396 1.52625E+01 1.12011E+01 0.00000E+00
 -1      3397 1.38309E+02 2.28156E+01 0.00000E+00
 -1      3398 1.38309E+02 2.13406E+01 0.00000E+00
 -1      3399 1.37010E+02 2.06094E+01 0.00000E+00
 -1      3400 1.37010E+02 2.35531E+01 0.00000E+00
 -1      3401 9.06341E+01 1.59682E+01 0.00000E+00
 -1      3402 7.57579E+01 1.42056E+01 0.00000E+00
 -1      3403 1.99669E+01 1.03515E+01 0.00000E+00
 -1      3404 1.84669E+01 1.03515E+01 0.00000E+00
 -1      3405 1.80806E+01 1.13509E+01 0.00000E+00
 -1      3406 2.07169E+01 1.16505E+01 0.00000E+00
 -1      3407 1.45576E+01 3.82548E+01 0.00000E+00
 -1      3408 1.53076E+01 3.69558E+01 0.00000E+00
 -1      3409 1.32152E+01 3.82007E+01 0.00000E+00
 -1      3410 9.61438E+01 2.77957E+01 0.00000E+00
 -1      3411 9.70049E+01 2.85995E+01 0.00000E+00
 -1      3412 9.69437E+01 2.68708E+01 0.00000E+00
 -1      3413 9.13175E+01 3.86606E+01 0.00000E+00
 -1      3414 9.28175E+01 3.86606E+01 0.00000E+00
 -1      3415 7.26383E+01 1.53130E+01 0.00000E+00
 -1      3416 7.31478E+01 1.44613E+01 0.00000E+00
 -1      3417 9.68995E+01 3.06988E+01 0.00000E+00
 -1      3418 9.58885E+01 3.13034E+01 0.00000E+00
 -1      3419 9.65829E+01 3.24778E+01 0.00000E+00
 -1      3420 9.34314E+01 3.65629E+01 0.00000E+00
 -1      3421 7.16712E+01 1.55169E+01 0.00000E+00
 -1      3422 9.49410E+01 1.94783E+01 0.00000E+00
 -1      3423 9.47183E+01 2.06757E+01 0.00000E+00
 -1      3424 9.60374E+01 2.09643E+01 0.00000E+00
 -1      3425 9.35675E+01 3.73616E+01 0.00000E+00
 -1      3426 9.25940E+01 1.81056E+01 0.00000E+00
 -1      3427 1.37758E+02 3.65110E+01 0.00000E+00
 -1      3428 1.38123E+02 3.54227E+01 0.00000E+00
 -1      3429 1.36824E+02 3.46852E+01 0.00000E+00
 -1      3430 1.36451E+02 3.64056E+01 0.00000E+00
 -1      3431 9.01125E+01 3.85436E+01 0.00000E+00
 -1      3432 6.77328E+01 3.53783E+01 0.00000E+00
 -1      3433 2.34000E+01 3.57110E+01 0.00000E+00
 -1      3434 2.49000E+01 3.57110E+01 0.00000E+00
 -1      3435 2.64000E+01 3.57110E+01 0.00000E+00
 -1      3436 2.79000E+01 3.57110E+01 0.00000E+00
 -1      3437 2.56500E+01 3.44120E+01 0.00000E+00
 -1      3438 2.94000E+01 3.57110E+01 0.00000E+00
 -1      3439 3.09000E+01 3.57110E+01 0.00000E+00
 -1      3440 2.86500E+01 3.44120E+01 0.00000E+00
 -1      3441 3.24000E+01 3.57110E+01 0.00000E+00
 -1      3442 3.39000E+01 3.57110E+01 0.00000E+00
 -1      3443 3.16500E+01 3.44120E+01 0.00000E+00
 -1      3444 3.54000E+01 3.57110E+01 0.00000E+00
 -1      3445 3.69000E+01 3.57110E+01 0.00000E+00
 -1      3446 3.46500E+01 3.44120E+01 0.00000E+00
 -1      3447 3.84000E+01 3.57110E+01 0.00000E+00
 -1      3448 3.99000E+01 3.57110E+01 0.00000E+00
 -1      3449 3.76500E+01 3.44120E+01 0.00000E+00
 -1      3450 4.14000E+01 3.57110E+01 0.00000E+00
 -1      3451 4.29000E+01 3.57110E+01 0.00000E+00
 -1      3452 4.06500E+01 3.44120E+01 0.00000E+00
 -1      3453 4.44000E+01 3.57110E+01 0.00000E+00
 -1      3454 4.59000E+01 3.57110E+01 0.00000E+00
 -1      3455 4.36500E+01 3.44120E+01 0.00000E+00
 -1      3456 4.74000E+01 3.57110E+01 0.00000E+00
 -1      3457 4.89000E+01 3.57110E+01 0.00000E+00
 -1      3458 4.66500E+01 3.44120E+01 0.00000E+00
 -1      3459 5.04000E+01 3.57110E+01 0.00000E+00
 -1      3460 5.19000E+01 3.57110E+01 0.00000E+00
 -1      3461 4.96500E+01 3.44120E+01 0.00000E+00
 -1      3462 5.34000E+01 3.57110E+01 0.00000E+00
 -1      3463 5.49000E+01 3.57110E+01 0.00000E+00
 -1      3464 5.26500E+01 3.44120E+01 0.00000E+00
 -1      3465 5.64000E+01 3.57110E+01 0.00000E+00
 -1      3466 5.79000E+01 3.57110E+01 0.00000E+00
 -1      3467 5.56500E+01 3.44120E+01 0.00000E+00
 -1      3468 5.94000E+01 3.57110E+01 0.00000E+00
 -1      3469 6.09000E+01 3.57110E+01 0.00000E+00
 -1      3470 5.86500E+01 3.44120E+01 0.00000E+00
 -1      3471 6.24000E+01 3.57110E+01 0.00000E+00
 -1      3472 6.39000E+01 3.57110E+01 0.00000E+00
 -1      3473 6.16500E+01 3.44120E+01 0.00000E+00
 -1      3474 6.50664E+01 3.55446E+01 0.00000E+00
 -1      3475 6.65664E+01 3.55446E+01 0.00000E+00
 -1      3476 6.66491E+01 3.39129E+01 0.00000E+00
 -1      3477 6.43164E+01 3.42456E+01 0.00000E+00
 -1      3478 9.62850E+01 1.30992E+01 0.00000E+00
 -1      3479 9.47850E+01 1.30992E+01 0.00000E+00
 -1      3480 6.86474E+01 1.75653E+01 0.00000E+00
 -1      3481 6.99552E+01 1.64044E+01 0.00000E+00
 -1      3482 8.89862E+01 3.93324E+01 0.00000E+00
 -1      3483 9.84000E+01 3.57560E+01 0.00000E+00
 -1      3484 9.99000E+01 3.57560E+01 0.00000E+00
 -1      3485 1.01400E+02 3.57560E+01 0.00000E+00
 -1      3486 1.02900E+02 3.57560E+01 0.00000E+00
 -1      3487 1.00650E+02 3.44570E+01 0.00000E+00
 -1      3488 1.04400E+02 3.57560E+01 0.00000E+00
 -1      3489 1.05900E+02 3.57560E+01 0.00000E+00
 -1      3490 1.03650E+02 3.44570E+01 0.00000E+00
 -1      3491 1.07400E+02 3.57560E+01 0.00000E+00
 -1      3492 1.08900E+02 3.57560E+01 0.00000E+00
 -1      3493 1.06650E+02 3.44570E+01 0.00000E+00
 -1      3494 1.10400E+02 3.57560E+01 0.00000E+00
 -1      3495 1.11900E+02 3.57560E+01 0.00000E+00
 -1      3496 1.09650E+02 3.44570E+01 0.00000E+00
 -1      3497 1.13400E+02 3.57560E+01 0.00000E+00
 -1      3498 1.14900E+02 3.57560E+01 0.00000E+00
 -1      3499 1.12650E+02 3.44570E+01 0.00000E+00
 -1      3500 1.16400E+02 3.57560E+01 0.00000E+00
 -1      3501 1.17900E+02 3.57560E+01 0.00000E+00
 -1      3502 1.15650E+02 3.44570E+01 0.00000E+00
 -1      3503 1.19400E+02 3.57560E+01 0.00000E+00
 -1      3504 1.20900E+02 3.57560E+01 0.00000E+00
 -1      3505 1.18650E+02 3.44570E+01 0.00000E+00
 -1      3506 1.22400E+02 3.57560E+01 0.00000E+00
 -1      3507 1.23900E+02 3.57560E+01 0.00000E+00
 -1      3508 1.21650E+02 3.44570E+01 0.00000E+00
 -1      3509 1.25400E+02 3.57560E+01 0.00000E+00
 -1      3510 1.26900E+02 3.57560E+01 0.00000E+00
 -1      3511 1.24650E+02 3.44570E+01 0.00000E+00
 -1      3512 1.28400E+02 3.57560E+01 0.00000E+00
 -1      3513 1.29900E+02 3.57560E+01 0.00000E+00
 -1      3514 1.27650E+02 3.44570E+01 0.00000E+00
 -1      3515 1.31400E+02 3.57560E+01 0.00000E+00
 -1      3516 1.32900E+02 3.57560E+01 0.00000E+00
 -1      3517 1.30650E+02 3.44570E+01 0.00000E+00
 -1      3518 1.38528E+02 1.44149E+01 0.00000E+00
 -1      3519 1.38594E+02 1.31746E+01 0.00000E+00
 -1      3520 1.37668E+02 1.30636E+01 0.00000E+00
 -1      3521 1.37229E+02 1.51462E+01 0.00000E+00
 -1      3522 4.22850E+01 1.30992E+01 0.00000E+00
 -1      3523 4.07850E+01 1.30992E+01 0.00000E+00
 -1      3524 5.12850E+01 1.30992E+01 0.00000E+00
 -1      3525 4.97850E+01 1.30992E+01 0.00000E+00
 -1      3526 5.42850E+01 1.30992E+01 0.00000E+00
 -1      3527 5.27850E+01 1.30992E+01 0.00000E+00
 -1      3528 5.20350E+01 1.43982E+01 0.00000E+00
 -1      3529 5.72850E+01 1.30992E+01 0.00000E+00
 -1      3530 5.57850E+01 1.30992E+01 0.00000E+00
 -1      3531 5.50350E+01 1.43982E+01 0.00000E+00
 -1      3532 6.02850E+01 1.30992E+01 0.00000E+00
 -1      3533 5.87850E+01 1.30992E+01 0.00000E+00
 -1      3534 5.80350E+01 1.43982E+01 0.00000E+00
 -1      3535 6.32850E+01 1.30992E+01 0.00000E+00
 -1      3536 6.17850E+01 1.30992E+01 0.00000E+00
 -1      3537 6.10350E+01 1.43982E+01 0.00000E+00
 -1      3538 6.62850E+01 1.30992E+01 0.00000E+00
 -1      3539 6.47850E+01 1.30992E+01 0.00000E+00
 -1      3540 6.40350E+01 1.43982E+01 0.00000E+00
 -1      3541 6.92723E+01 1.39465E+01 0.00000E+00
 -1      3542 6.77723E+01 1.39465E+01 0.00000E+00
 -1      3543 7.24882E+01 1.30591E+01 0.00000E+00
 -1      3544 7.09882E+01 1.30591E+01 0.00000E+00
 -1      3545 8.05350E+01 1.16939E+01 0.00000E+00
 -1      3546 9.92850E+01 1.30992E+01 0.00000E+00
 -1      3547 9.77850E+01 1.30992E+01 0.00000E+00
 -1      3548 9.70350E+01 1.43982E+01 0.00000E+00
 -1      3549 1.02285E+02 1.30992E+01 0.00000E+00
 -1      3550 1.00785E+02 1.30992E+01 0.00000E+00
 -1      3551 1.00035E+02 1.43982E+01 0.00000E+00
 -1      3552 1.05285E+02 1.30992E+01 0.00000E+00
 -1      3553 1.03785E+02 1.30992E+01 0.00000E+00
 -1      3554 1.03035E+02 1.43982E+01 0.00000E+00
 -1      3555 1.08285E+02 1.30992E+01 0.00000E+00
 -1      3556 1.06785E+02 1.30992E+01 0.00000E+00
 -1      3557 1.06035E+02 1.43982E+01 0.00000E+00
 -1      3558 1.11285E+02 1.30992E+01 0.00000E+00
 -1      3559 1.09785E+02 1.30992E+01 0.00000E+00
 -1      3560 1.09035E+02 1.43982E+01 0.00000E+00
 -1      3561 1.14285E+02 1.30992E+01 0.00000E+00
 -1      3562 1.12785E+02 1.30992E+01 0.00000E+00
 -1      3563 1.12035E+02 1.43982E+01 0.00000E+00
 -1      3564 1.17285E+02 1.30992E+01 0.00000E+00
 -1      3565 1.15785E+02 1.30992E+01 0.00000E+00
 -1      3566 1.15035E+02 1.43982E+01 0.00000E+00
 -1      3567 1.20285E+02 1.30992E+01 0.00000E+00
 -1      3568 1.18785E+02 1.30992E+01 0.00000E+00
 -1      3569 1.18035E+02 1.43982E+01 0.00000E+00
 -1      3570 1.23285E+02 1.30992E+01 0.00000E+00
 -1      3571 1.21785E+02 1.30992E+01 0.00000E+00
 -1      3572 1.21035E+02 1.43982E+01 0.00000E+00
 -1      3573 1.26285E+02 1.30992E+01 0.00000E+00
 -1      3574 1.24785E+02 1.30992E+01 0.00000E+00
 -1      3575 1.24035E+02 1.43982E+01 0.00000E+00
 -1      3576 1.29285E+02 1.30992E+01 0.00000E+00
 -1      3577 1.27785E+02 1.30992E+01 0.00000E+00
 -1      3578 1.27035E+02 1.43982E+01 0.00000E+00
 -1      3579 1.32285E+02 1.30992E+01 0.00000E+00
 -1      3580 1.30785E+02 1.30992E+01 0.00000E+00
 -1      3581 1.30035E+02 1.43982E+01 0.00000E+00
 -1      3582 6.68848E+01 2.07590E+01 0.00000E+00
 -1      3583 6.75288E+01 1.93306E+01 0.00000E+00
 -1      3584 1.21786E+01 3.60821E+01 0.00000E+00
 -1      3585 9.10614E+01 1.46513E+01 0.00000E+00
 -1      3586 9.19933E+01 1.57046E+01 0.00000E+00
 -1      3587 1.35711E+02 3.30875E+01 0.00000E+00
 -1      3588 1.35711E+02 3.16125E+01 0.00000E+00
 -1      3589 3.92850E+01 1.30992E+01 0.00000E+00
 -1      3590 3.77850E+01 1.30992E+01 0.00000E+00
 -1      3591 4.00350E+01 1.43982E+01 0.00000E+00
 -1      3592 6.59275E+01 2.34513E+01 0.00000E+00
 -1      3593 6.62605E+01 2.22204E+01 0.00000E+00
 -1      3594 1.48763E+01 1.22006E+01 0.00000E+00
 -1      3595 1.44900E+01 1.32000E+01 0.00000E+00
 -1      3596 1.63762E+01 1.22006E+01 0.00000E+00
 -1      3597 3.02850E+01 1.30992E+01 0.00000E+00
 -1      3598 2.87850E+01 1.30992E+01 0.00000E+00
 -1      3599 1.34776E+01 3.53477E+01 0.00000E+00
 -1      3600 7.36946E+01 1.32024E+01 0.00000E+00
 -1      3601 9.32278E+01 1.30939E+01 0.00000E+00
 -1      3602 9.17278E+01 1.30939E+01 0.00000E+00
 -1      3603 2.42850E+01 1.30992E+01 0.00000E+00
 -1      3604 2.27850E+01 1.30992E+01 0.00000E+00
 -1      3605 1.74000E+01 3.57110E+01 0.00000E+00
 -1      3606 1.89000E+01 3.57110E+01 0.00000E+00
 -1      3607 4.82850E+01 1.30992E+01 0.00000E+00
 -1      3608 4.67850E+01 1.30992E+01 0.00000E+00
 -1      3609 4.90350E+01 1.43982E+01 0.00000E+00
 -1      3610 6.58380E+01 3.02220E+01 0.00000E+00
 -1      3611 6.56335E+01 2.87636E+01 0.00000E+00
 -1      3612 2.72850E+01 1.30992E+01 0.00000E+00
 -1      3613 2.57850E+01 1.30992E+01 0.00000E+00
 -1      3614 2.80350E+01 1.43982E+01 0.00000E+00
 -1      3615 1.16910E+01 2.71844E+01 0.00000E+00
 -1      3616 1.16910E+01 2.86531E+01 0.00000E+00
 -1      3617 1.29900E+01 2.93875E+01 0.00000E+00
 -1      3618 4.52850E+01 1.30992E+01 0.00000E+00
 -1      3619 4.37850E+01 1.30992E+01 0.00000E+00
 -1      3620 4.30350E+01 1.43982E+01 0.00000E+00
 -1      3621 4.60350E+01 1.43982E+01 0.00000E+00
 -1      3622 8.73099E+01 1.28371E+01 0.00000E+00
 -1      3623 8.58099E+01 1.27308E+01 0.00000E+00
 -1      3624 2.04000E+01 3.57110E+01 0.00000E+00
 -1      3625 2.19000E+01 3.57110E+01 0.00000E+00
 -1      3626 2.26500E+01 3.44120E+01 0.00000E+00
 -1      3627 9.29531E+01 1.70494E+01 0.00000E+00
 -1      3628 9.39811E+01 1.81335E+01 0.00000E+00
 -1      3629 9.53002E+01 1.84221E+01 0.00000E+00
 -1      3630 9.33805E+01 1.57324E+01 0.00000E+00
 -1      3631 6.61776E+01 3.24499E+01 0.00000E+00
 -1      3632 7.02255E+01 1.52054E+01 0.00000E+00
 -1      3633 9.59859E+01 3.36654E+01 0.00000E+00
 -1      3634 9.53889E+01 3.48530E+01 0.00000E+00
 -1      3635 9.69969E+01 3.30608E+01 0.00000E+00
 -1      3636 8.88686E+01 1.33576E+01 0.00000E+00
 -1      3637 9.03686E+01 1.33576E+01 0.00000E+00
 -1      3638 1.29900E+01 1.76125E+01 0.00000E+00
 -1      3639 1.29900E+01 2.64469E+01 0.00000E+00
 -1      3640 9.69021E+01 2.17815E+01 0.00000E+00
 -1      3641 9.77668E+01 2.25986E+01 0.00000E+00
 -1      3642 9.71248E+01 2.05841E+01 0.00000E+00
 -1      3643 1.42890E+01 3.15906E+01 0.00000E+00
 -1      3644 1.42890E+01 3.30594E+01 0.00000E+00
 -1      3645 6.49554E+01 2.78249E+01 0.00000E+00
 -1      3646 6.42774E+01 2.68861E+01 0.00000E+00
 -1      3647 6.41255E+01 2.86848E+01 0.00000E+00
 -1      3648 9.39778E+01 1.43929E+01 0.00000E+00
 -1      3649 6.73909E+01 1.78582E+01 0.00000E+00
 -1      3650 6.56479E+01 2.10849E+01 0.00000E+00
 -1      3651 9.70250E+01 3.56517E+01 0.00000E+00
 -1      3652 9.77750E+01 3.43527E+01 0.00000E+00
 -1      3653 1.61190E+01 3.46675E+01 0.00000E+00
 -1      3654 1.68690E+01 3.33685E+01 0.00000E+00
 -1      3655 1.34022E+02 3.60281E+01 0.00000E+00
 -1      3656 1.35329E+02 3.61335E+01 0.00000E+00
 -1      3657 1.35515E+02 3.52733E+01 0.00000E+00
 -1      3658 1.33272E+02 3.47291E+01 0.00000E+00
 -1      3659 1.44900E+01 1.46687E+01 0.00000E+00
 -1      3660 1.42890E+01 2.27625E+01 0.00000E+00
 -1      3661 1.42890E+01 2.42375E+01 0.00000E+00
 -1      3662 6.70223E+01 1.52455E+01 0.00000E+00
 -1      3663 6.47298E+01 3.30485E+01 0.00000E+00
 -1      3664 6.54246E+01 3.14191E+01 0.00000E+00
 -1      3665 6.43901E+01 3.08206E+01 0.00000E+00
 -1      3666 6.35634E+01 3.32149E+01 0.00000E+00
 -1      3667 8.42092E+01 1.23117E+01 0.00000E+00
 -1      3668 8.27092E+01 1.24180E+01 0.00000E+00
 -1      3669 1.42890E+01 1.98250E+01 0.00000E+00
 -1      3670 1.42890E+01 2.12938E+01 0.00000E+00
 -1      3671 1.55880E+01 2.20313E+01 0.00000E+00
 -1      3672 1.35285E+02 1.30992E+01 0.00000E+00
 -1      3673 1.33785E+02 1.30992E+01 0.00000E+00
 -1      3674 1.36742E+02 1.29526E+01 0.00000E+00
 -1      3675 1.35711E+02 2.72188E+01 0.00000E+00
 -1      3676 1.35711E+02 2.57563E+01 0.00000E+00
 -1      3677 1.35711E+02 2.42844E+01 0.00000E+00
 -1      3678 1.35711E+02 2.28125E+01 0.00000E+00
 -1      3679 1.34412E+02 2.50156E+01 0.00000E+00
 -1      3680 1.34412E+02 3.08875E+01 0.00000E+00
 -1      3681 1.35711E+02 3.01500E+01 0.00000E+00
 -1      3682 1.35711E+02 2.86875E+01 0.00000E+00
 -1      3683 3.70350E+01 1.43982E+01 0.00000E+00
 -1      3684 3.62850E+01 1.30992E+01 0.00000E+00
 -1      3685 3.47850E+01 1.30992E+01 0.00000E+00
 -1      3686 9.76993E+01 2.97739E+01 0.00000E+00
 -1      3687 9.83938E+01 3.09483E+01 0.00000E+00
 -1      3688 9.84992E+01 2.88490E+01 0.00000E+00
 -1      3689 6.50655E+01 2.42863E+01 0.00000E+00
 -1      3690 3.17850E+01 1.30992E+01 0.00000E+00
 -1      3691 3.10350E+01 1.43982E+01 0.00000E+00
 -1      3692 3.32850E+01 1.30992E+01 0.00000E+00
 -1      3693 2.14669E+01 1.29495E+01 0.00000E+00
 -1      3694 2.01488E+01 1.27997E+01 0.00000E+00
 -1      3695 2.22169E+01 1.42485E+01 0.00000E+00
 -1      3696 9.76744E+01 2.57353E+01 0.00000E+00
 -1      3697 9.85355E+01 2.65392E+01 0.00000E+00
 -1      3698 9.84052E+01 2.45999E+01 0.00000E+00
 -1      3699 2.50350E+01 1.43982E+01 0.00000E+00
 -1      3700 8.12767E+01 1.22612E+01 0.00000E+00
 -1      3701 1.35773E+02 1.52929E+01 0.00000E+00
 -1      3702 1.35992E+02 1.42516E+01 0.00000E+00
 -1      3703 1.96500E+01 3.44120E+01 0.00000E+00
 -1      3704 1.35630E+02 1.67929E+01 0.00000E+00
 -1      3705 1.34393E+02 1.58983E+01 0.00000E+00
 -1      3706 1.47766E+01 3.46133E+01 0.00000E+00
 -1      3707 1.33035E+02 1.43982E+01 0.00000E+00
 -1      3708 1.35630E+02 1.82679E+01 0.00000E+00
 -1      3709 9.45139E+01 3.62563E+01 0.00000E+00
 -1      3710 9.55250E+01 3.56517E+01 0.00000E+00
 -1      3711 1.35702E+02 3.44131E+01 0.00000E+00
 -1      3712 1.34403E+02 3.36756E+01 0.00000E+00
 -1      3713 1.42890E+01 3.01219E+01 0.00000E+00
 -1      3714 1.55880E+01 3.08563E+01 0.00000E+00
 -1      3715 1.42890E+01 2.86531E+01 0.00000E+00
 -1      3716 2.79000E+01 3.31130E+01 0.00000E+00
 -1      3717 2.94000E+01 3.31130E+01 0.00000E+00
 -1      3718 3.09000E+01 3.31130E+01 0.00000E+00
 -1      3719 3.24000E+01 3.31130E+01 0.00000E+00
 -1      3720 3.01500E+01 3.18140E+01 0.00000E+00
 -1      3721 3.39000E+01 3.31130E+01 0.00000E+00
 -1      3722 3.54000E+01 3.31130E+01 0.00000E+00
 -1      3723 3.31500E+01 3.18140E+01 0.00000E+00
 -1      3724 3.69000E+01 3.31130E+01 0.00000E+00
 -1      3725 3.84000E+01 3.31130E+01 0.00000E+00
 -1      3726 3.61500E+01 3.18140E+01 0.00000E+00
 -1      3727 3.99000E+01 3.31130E+01 0.00000E+00
 -1      3728 4.14000E+01 3.31130E+01 0.00000E+00
 -1      3729 3.91500E+01 3.18140E+01 0.00000E+00
 -1      3730 4.29000E+01 3.31130E+01 0.00000E+00
 -1      3731 4.44000E+01 3.31130E+01 0.00000E+00
 -1      3732 4.21500E+01 3.18140E+01 0.00000E+00
 -1      3733 4.59000E+01 3.31130E+01 0.00000E+00
 -1      3734 4.74000E+01 3.31130E+01 0.00000E+00
 -1      3735 4.51500E+01 3.18140E+01 0.00000E+00
 -1      3736 4.89000E+01 3.31130E+01 0.00000E+00
 -1      3737 5.04000E+01 3.31130E+01 0.00000E+00
 -1      3738 4.81500E+01 3.18140E+01 0.00000E+00
 -1      3739 5.19000E+01 3.31130E+01 0.00000E+00
 -1      3740 5.34000E+01 3.31130E+01 0.00000E+00
 -1      3741 5.11500E+01 3.18140E+01 0.00000E+00
 -1      3742 5.49000E+01 3.31130E+01 0.00000E+00
 -1      3743 5.64000E+01 3.31130E+01 0.00000E+00
 -1      3744 5.41500E+01 3.18140E+01 0.00000E+00
 -1      3745 5.79000E+01 3.31130E+01 0.00000E+00
 -1      3746 5.94000E+01 3.31130E+01 0.00000E+00
 -1      3747 5.71500E+01 3.18140E+01 0.00000E+00
 -1      3748 6.07317E+01 3.31639E+01 0.00000E+00
 -1      3749 6.22317E+01 3.31639E+01 0.00000E+00
 -1      3750 6.26451E+01 3.19668E+01 0.00000E+00
 -1      3751 5.99817E+01 3.18649E+01 0.00000E+00
 -1      3752 1.70489E+01 3.18396E+01 0.00000E+00
 -1      3753 1.83299E+01 3.28831E+01 0.00000E+00
 -1      3754 1.61488E+01 1.48625E+01 0.00000E+00
 -1      3755 1.46488E+01 1.63313E+01 0.00000E+00
 -1      3756 1.02900E+02 3.31580E+01 0.00000E+00
 -1      3757 1.04400E+02 3.31580E+01 0.00000E+00
 -1      3758 1.05900E+02 3.31580E+01 0.00000E+00
 -1      3759 1.07400E+02 3.31580E+01 0.00000E+00
 -1      3760 1.05150E+02 3.18590E+01 0.00000E+00
 -1      3761 1.08900E+02 3.31580E+01 0.00000E+00
 -1      3762 1.10400E+02 3.31580E+01 0.00000E+00
 -1      3763 1.08150E+02 3.18590E+01 0.00000E+00
 -1      3764 1.11900E+02 3.31580E+01 0.00000E+00
 -1      3765 1.13400E+02 3.31580E+01 0.00000E+00
 -1      3766 1.11150E+02 3.18590E+01 0.00000E+00
 -1      3767 1.14900E+02 3.31580E+01 0.00000E+00
 -1      3768 1.16400E+02 3.31580E+01 0.00000E+00
 -1      3769 1.14150E+02 3.18590E+01 0.00000E+00
 -1      3770 1.17900E+02 3.31580E+01 0.00000E+00
 -1      3771 1.19400E+02 3.31580E+01 0.00000E+00
 -1      3772 1.17150E+02 3.18590E+01 0.00000E+00
 -1      3773 1.20900E+02 3.31580E+01 0.00000E+00
 -1      3774 1.22400E+02 3.31580E+01 0.00000E+00
 -1      3775 1.20150E+02 3.18590E+01 0.00000E+00
 -1      3776 1.23900E+02 3.31580E+01 0.00000E+00
 -1      3777 1.25400E+02 3.31580E+01 0.00000E+00
 -1      3778 1.23150E+02 3.18590E+01 0.00000E+00
 -1      3779 1.26900E+02 3.31580E+01 0.00000E+00
 -1      3780 1.28400E+02 3.31580E+01 0.00000E+00
 -1      3781 1.26150E+02 3.18590E+01 0.00000E+00
 -1      3782 1.29900E+02 3.31580E+01 0.00000E+00
 -1      3783 1.31400E+02 3.31580E+01 0.00000E+00
 -1      3784 1.29150E+02 3.18590E+01 0.00000E+00
 -1      3785 1.33281E+02 3.34035E+01 0.00000E+00
 -1      3786 5.87850E+01 1.56973E+01 0.00000E+00
 -1      3787 5.72850E+01 1.56973E+01 0.00000E+00
 -1      3788 6.64566E+01 1.65519E+01 0.00000E+00
 -1      3789 6.49693E+01 1.57046E+01 0.00000E+00
 -1      3790 6.34693E+01 1.57046E+01 0.00000E+00
 -1      3791 6.53380E+01 1.83172E+01 0.00000E+00
 -1      3792 1.42890E+01 2.57094E+01 0.00000E+00
 -1      3793 1.42890E+01 2.71812E+01 0.00000E+00
 -1      3794 1.55880E+01 2.79156E+01 0.00000E+00
 -1      3795 1.55880E+01 2.49719E+01 0.00000E+00
 -1      3796 5.57850E+01 1.56973E+01 0.00000E+00
 -1      3797 5.42850E+01 1.56973E+01 0.00000E+00
 -1      3798 5.65350E+01 1.69963E+01 0.00000E+00
 -1      3799 9.49377E+01 1.57378E+01 0.00000E+00
 -1      3800 5.27850E+01 1.56973E+01 0.00000E+00
 -1      3801 5.12850E+01 1.56973E+01 0.00000E+00
 -1      3802 5.35350E+01 1.69963E+01 0.00000E+00
 -1      3803 6.17850E+01 1.56973E+01 0.00000E+00
 -1      3804 6.02850E+01 1.56973E+01 0.00000E+00
 -1      3805 5.95350E+01 1.69963E+01 0.00000E+00
 -1      3806 1.73078E+01 1.26070E+01 0.00000E+00
 -1      3807 1.69216E+01 1.36064E+01 0.00000E+00
 -1      3808 1.70804E+01 1.52690E+01 0.00000E+00
 -1      3809 1.86260E+01 1.27568E+01 0.00000E+00
 -1      3810 4.07850E+01 1.56973E+01 0.00000E+00
 -1      3811 3.92850E+01 1.56973E+01 0.00000E+00
 -1      3812 1.06785E+02 1.56973E+01 0.00000E+00
 -1      3813 1.05285E+02 1.56973E+01 0.00000E+00
 -1      3814 1.09785E+02 1.56973E+01 0.00000E+00
 -1      3815 1.08285E+02 1.56973E+01 0.00000E+00
 -1      3816 1.07535E+02 1.69963E+01 0.00000E+00
 -1      3817 1.12785E+02 1.56973E+01 0.00000E+00
 -1      3818 1.11285E+02 1.56973E+01 0.00000E+00
 -1      3819 1.10535E+02 1.69963E+01 0.00000E+00
 -1      3820 1.15785E+02 1.56973E+01 0.00000E+00
 -1      3821 1.14285E+02 1.56973E+01 0.00000E+00
 -1      3822 1.13535E+02 1.69963E+01 0.00000E+00
 -1      3823 1.18785E+02 1.56973E+01 0.00000E+00
 -1      3824 1.17285E+02 1.56973E+01 0.00000E+00
 -1      3825 1.16535E+02 1.69963E+01 0.00000E+00
 -1      3826 1.21785E+02 1.56973E+01 0.00000E+00
 -1      3827 1.20285E+02 1.56973E+01 0.00000E+00
 -1      3828 1.19535E+02 1.69963E+01 0.00000E+00
 -1      3829 1.24785E+02 1.56973E+01 0.00000E+00
 -1      3830 1.23285E+02 1.56973E+01 0.00000E+00
 -1      3831 1.22535E+02 1.69963E+01 0.00000E+00
 -1      3832 1.27785E+02 1.56973E+01 0.00000E+00
 -1      3833 1.26285E+02 1.56973E+01 0.00000E+00
 -1      3834 1.25535E+02 1.69963E+01 0.00000E+00
 -1      3835 1.30785E+02 1.56973E+01 0.00000E+00
 -1      3836 1.29285E+02 1.56973E+01 0.00000E+00
 -1      3837 1.28535E+02 1.69963E+01 0.00000E+00
 -1      3838 6.40893E+01 2.12400E+01 0.00000E+00
 -1      3839 6.47136E+01 1.97786E+01 0.00000E+00
 -1      3840 6.37793E+01 1.84723E+01 0.00000E+00
 -1      3841 1.34412E+02 2.79562E+01 0.00000E+00
 -1      3842 1.03785E+02 1.56973E+01 0.00000E+00
 -1      3843 1.02285E+02 1.56973E+01 0.00000E+00
 -1      3844 1.04535E+02 1.69963E+01 0.00000E+00
 -1      3845 1.46488E+01 1.78063E+01 0.00000E+00
 -1      3846 2.57850E+01 1.56973E+01 0.00000E+00
 -1      3847 2.42850E+01 1.56973E+01 0.00000E+00
 -1      3848 1.00785E+02 1.56973E+01 0.00000E+00
 -1      3849 9.92850E+01 1.56973E+01 0.00000E+00
 -1      3850 1.01535E+02 1.69963E+01 0.00000E+00
 -1      3851 1.98299E+01 3.28831E+01 0.00000E+00
 -1      3852 1.35630E+02 1.97398E+01 0.00000E+00
 -1      3853 1.34250E+02 1.88702E+01 0.00000E+00
 -1      3854 1.35630E+02 2.12117E+01 0.00000E+00
 -1      3855 1.32893E+02 1.58983E+01 0.00000E+00
 -1      3856 2.87850E+01 1.56973E+01 0.00000E+00
 -1      3857 2.72850E+01 1.56973E+01 0.00000E+00
 -1      3858 2.65350E+01 1.69963E+01 0.00000E+00
 -1      3859 2.19000E+01 3.31130E+01 0.00000E+00
 -1      3860 2.34000E+01 3.31130E+01 0.00000E+00
 -1      3861 6.40616E+01 2.51809E+01 0.00000E+00
 -1      3862 6.40197E+01 2.34410E+01 0.00000E+00
 -1      3863 9.83720E+01 3.31651E+01 0.00000E+00
 -1      3864 1.32143E+02 1.71973E+01 0.00000E+00
 -1      3865 4.97850E+01 1.56973E+01 0.00000E+00
 -1      3866 4.82850E+01 1.56973E+01 0.00000E+00
 -1      3867 5.05350E+01 1.69963E+01 0.00000E+00
 -1      3868 2.49000E+01 3.31130E+01 0.00000E+00
 -1      3869 2.64000E+01 3.31130E+01 0.00000E+00
 -1      3870 2.41500E+01 3.18140E+01 0.00000E+00
 -1      3871 1.32531E+02 3.21045E+01 0.00000E+00
 -1      3872 9.91329E+01 3.20567E+01 0.00000E+00
 -1      3873 9.99109E+01 3.33486E+01 0.00000E+00
 -1      3874 1.01411E+02 3.33486E+01 0.00000E+00
 -1      3875 9.99327E+01 3.11318E+01 0.00000E+00
 -1      3876 9.75692E+01 1.92478E+01 0.00000E+00
 -1      3877 9.84339E+01 2.00649E+01 0.00000E+00
 -1      3878 2.71500E+01 3.18140E+01 0.00000E+00
 -1      3879 9.57735E+01 1.68203E+01 0.00000E+00
 -1      3880 9.67334E+01 1.81652E+01 0.00000E+00
 -1      3881 9.80425E+01 1.76460E+01 0.00000E+00
 -1      3882 9.63708E+01 1.54808E+01 0.00000E+00
 -1      3883 6.32316E+01 2.60408E+01 0.00000E+00
 -1      3884 4.22850E+01 1.56973E+01 0.00000E+00
 -1      3885 4.15350E+01 1.69963E+01 0.00000E+00
 -1      3886 4.37850E+01 1.56973E+01 0.00000E+00
 -1      3887 1.02161E+02 3.20496E+01 0.00000E+00
 -1      3888 1.33113E+02 2.86906E+01 0.00000E+00
 -1      3889 1.33113E+02 2.72219E+01 0.00000E+00
 -1      3890 6.27193E+01 1.70036E+01 0.00000E+00
 -1      3891 1.68870E+01 2.42359E+01 0.00000E+00
 -1      3892 1.68870E+01 2.57078E+01 0.00000E+00
 -1      3893 1.70489E+01 3.03709E+01 0.00000E+00
 -1      3894 6.31786E+01 3.09244E+01 0.00000E+00
 -1      3895 6.35920E+01 2.97272E+01 0.00000E+00
 -1      3896 6.29139E+01 2.87885E+01 0.00000E+00
 -1      3897 6.18469E+01 3.08734E+01 0.00000E+00
 -1      3898 9.78708E+01 1.54808E+01 0.00000E+00
 -1      3899 1.59478E+01 1.85438E+01 0.00000E+00
 -1      3900 1.68870E+01 2.12984E+01 0.00000E+00
 -1      3901 1.68870E+01 2.27672E+01 0.00000E+00
 -1      3902 1.81860E+01 2.35031E+01 0.00000E+00
 -1      3903 6.30854E+01 2.21347E+01 0.00000E+00
 -1      3904 6.21511E+01 2.08283E+01 0.00000E+00
 -1      3905 6.20815E+01 2.30293E+01 0.00000E+00
 -1      3906 1.34331E+02 2.19429E+01 0.00000E+00
 -1      3907 1.32531E+02 3.06420E+01 0.00000E+00
 -1      3908 3.77850E+01 1.56973E+01 0.00000E+00
 -1      3909 3.62850E+01 1.56973E+01 0.00000E+00
 -1      3910 3.85350E+01 1.69963E+01 0.00000E+00
 -1      3911 9.92299E+01 2.77136E+01 0.00000E+00
 -1      3912 9.99244E+01 2.88880E+01 0.00000E+00
 -1      3913 9.99607E+01 2.65781E+01 0.00000E+00
 -1      3914 3.40350E+01 1.43982E+01 0.00000E+00
 -1      3915 2.29669E+01 1.55475E+01 0.00000E+00
 -1      3916 2.16488E+01 1.53977E+01 0.00000E+00
 -1      3917 2.37169E+01 1.68465E+01 0.00000E+00
 -1      3918 9.86279E+01 2.34025E+01 0.00000E+00
 -1      3919 9.94890E+01 2.42064E+01 0.00000E+00
 -1      3920 9.88506E+01 2.22052E+01 0.00000E+00
 -1      3921 9.86208E+01 1.67798E+01 0.00000E+00
 -1      3922 1.93760E+01 1.40558E+01 0.00000E+00
 -1      3923 3.17850E+01 1.56973E+01 0.00000E+00
 -1      3924 3.02850E+01 1.56973E+01 0.00000E+00
 -1      3925 2.95350E+01 1.69963E+01 0.00000E+00
 -1      3926 1.32143E+02 2.01410E+01 0.00000E+00
 -1      3927 1.32143E+02 1.86692E+01 0.00000E+00
 -1      3928 1.30035E+02 1.84681E+01 0.00000E+00
 -1      3929 4.67850E+01 1.56973E+01 0.00000E+00
 -1      3930 4.52850E+01 1.56973E+01 0.00000E+00
 -1      3931 4.75350E+01 1.69963E+01 0.00000E+00
 -1      3932 2.05799E+01 3.15841E+01 0.00000E+00
 -1      3933 1.33113E+02 2.57500E+01 0.00000E+00
 -1      3934 1.33113E+02 2.42781E+01 0.00000E+00
 -1      3935 1.31814E+02 2.64844E+01 0.00000E+00
 -1      3936 2.64000E+01 3.05150E+01 0.00000E+00
 -1      3937 2.79000E+01 3.05150E+01 0.00000E+00
 -1      3938 2.01260E+01 1.53548E+01 0.00000E+00
 -1      3939 1.86032E+01 1.53119E+01 0.00000E+00
 -1      3940 2.08760E+01 1.66538E+01 0.00000E+00
 -1      3941 3.24000E+01 3.05150E+01 0.00000E+00
 -1      3942 3.39000E+01 3.05150E+01 0.00000E+00
 -1      3943 3.54000E+01 3.05150E+01 0.00000E+00
 -1      3944 3.69000E+01 3.05150E+01 0.00000E+00
 -1      3945 3.46500E+01 2.92160E+01 0.00000E+00
 -1      3946 3.84000E+01 3.05150E+01 0.00000E+00
 -1      3947 3.99000E+01 3.05150E+01 0.00000E+00
 -1      3948 3.76500E+01 2.92160E+01 0.00000E+00
 -1      3949 4.14000E+01 3.05150E+01 0.00000E+00
 -1      3950 4.29000E+01 3.05150E+01 0.00000E+00
 -1      3951 4.06500E+01 2.92160E+01 0.00000E+00
 -1      3952 4.44000E+01 3.05150E+01 0.00000E+00
 -1      3953 4.59000E+01 3.05150E+01 0.00000E+00
 -1      3954 4.36500E+01 2.92160E+01 0.00000E+00
 -1      3955 4.74000E+01 3.05150E+01 0.00000E+00
 -1      3956 4.89000E+01 3.05150E+01 0.00000E+00
 -1      3957 4.66500E+01 2.92160E+01 0.00000E+00
 -1      3958 5.04000E+01 3.05150E+01 0.00000E+00
 -1      3959 5.19000E+01 3.05150E+01 0.00000E+00
 -1      3960 4.96500E+01 2.92160E+01 0.00000E+00
 -1      3961 5.34000E+01 3.05150E+01 0.00000E+00
 -1      3962 5.49000E+01 3.05150E+01 0.00000E+00
 -1      3963 5.26500E+01 2.92160E+01 0.00000E+00
 -1      3964 5.64000E+01 3.05150E+01 0.00000E+00
 -1      3965 5.79000E+01 3.05150E+01 0.00000E+00
 -1      3966 5.56500E+01 2.92160E+01 0.00000E+00
 -1      3967 5.12850E+01 1.82952E+01 0.00000E+00
 -1      3968 4.97850E+01 1.82952E+01 0.00000E+00
 -1      3969 1.00673E+02 2.99146E+01 0.00000E+00
 -1      3970 1.01412E+02 3.10230E+01 0.00000E+00
 -1      3971 1.02901E+02 3.08324E+01 0.00000E+00
 -1      3972 1.01404E+02 2.87791E+01 0.00000E+00
 -1      3973 1.31232E+02 2.99076E+01 0.00000E+00
 -1      3974 1.07400E+02 3.05600E+01 0.00000E+00
 -1      3975 1.08900E+02 3.05600E+01 0.00000E+00
 -1      3976 1.10400E+02 3.05600E+01 0.00000E+00
 -1      3977 1.11900E+02 3.05600E+01 0.00000E+00
 -1      3978 1.09650E+02 2.92610E+01 0.00000E+00
 -1      3979 1.13400E+02 3.05600E+01 0.00000E+00
 -1      3980 1.14900E+02 3.05600E+01 0.00000E+00
 -1      3981 1.12650E+02 2.92610E+01 0.00000E+00
 -1      3982 1.16400E+02 3.05600E+01 0.00000E+00
 -1      3983 1.17900E+02 3.05600E+01 0.00000E+00
 -1      3984 1.15650E+02 2.92610E+01 0.00000E+00
 -1      3985 1.19400E+02 3.05600E+01 0.00000E+00
 -1      3986 1.20900E+02 3.05600E+01 0.00000E+00
 -1      3987 1.18650E+02 2.92610E+01 0.00000E+00
 -1      3988 1.22400E+02 3.05600E+01 0.00000E+00
 -1      3989 1.23900E+02 3.05600E+01 0.00000E+00
 -1      3990 1.21650E+02 2.92610E+01 0.00000E+00
 -1      3991 1.25400E+02 3.05600E+01 0.00000E+00
 -1      3992 1.26900E+02 3.05600E+01 0.00000E+00
 -1      3993 1.24650E+02 2.92610E+01 0.00000E+00
 -1      3994 1.28316E+02 3.02338E+01 0.00000E+00
 -1      3995 1.29816E+02 3.02338E+01 0.00000E+00
 -1      3996 1.30398E+02 2.82824E+01 0.00000E+00
 -1      3997 1.27566E+02 2.89348E+01 0.00000E+00
 -1      3998 6.20950E+01 1.84650E+01 0.00000E+00
 -1      3999 5.42850E+01 1.82952E+01 0.00000E+00
 -1      4000 5.27850E+01 1.82952E+01 0.00000E+00
 -1      4001 5.20350E+01 1.95942E+01 0.00000E+00
 -1      4002 1.81860E+01 2.64438E+01 0.00000E+00
 -1      4003 1.68870E+01 2.71797E+01 0.00000E+00
 -1      4004 1.68870E+01 2.86516E+01 0.00000E+00
 -1      4005 1.83479E+01 2.96349E+01 0.00000E+00
 -1      4006 1.14285E+02 1.82952E+01 0.00000E+00
 -1      4007 1.12785E+02 1.82952E+01 0.00000E+00
 -1      4008 1.11285E+02 1.82952E+01 0.00000E+00
 -1      4009 1.09785E+02 1.82952E+01 0.00000E+00
 -1      4010 1.12035E+02 1.95942E+01 0.00000E+00
 -1      4011 1.08285E+02 1.82952E+01 0.00000E+00
 -1      4012 1.06785E+02 1.82952E+01 0.00000E+00
 -1      4013 1.09035E+02 1.95942E+01 0.00000E+00
 -1      4014 1.17285E+02 1.82952E+01 0.00000E+00
 -1      4015 1.15785E+02 1.82952E+01 0.00000E+00
 -1      4016 1.15035E+02 1.95942E+01 0.00000E+00
 -1      4017 1.20285E+02 1.82952E+01 0.00000E+00
 -1      4018 1.18785E+02 1.82952E+01 0.00000E+00
 -1      4019 1.18035E+02 1.95942E+01 0.00000E+00
 -1      4020 1.23285E+02 1.82952E+01 0.00000E+00
 -1      4021 1.21785E+02 1.82952E+01 0.00000E+00
 -1      4022 1.21035E+02 1.95942E+01 0.00000E+00
 -1      4023 1.26285E+02 1.82952E+01 0.00000E+00
 -1      4024 1.24785E+02 1.82952E+01 0.00000E+00
 -1      4025 1.24035E+02 1.95942E+01 0.00000E+00
 -1      4026 1.28910E+02 1.83817E+01 0.00000E+00
 -1      4027 1.27410E+02 1.83817E+01 0.00000E+00
 -1      4028 1.26660E+02 1.96807E+01 0.00000E+00
 -1      4029 1.28910E+02 1.98536E+01 0.00000E+00
 -1      4030 6.22394E+01 2.70327E+01 0.00000E+00
 -1      4031 6.20236E+01 2.53274E+01 0.00000E+00
 -1      4032 1.05285E+02 1.82952E+01 0.00000E+00
 -1      4033 1.03785E+02 1.82952E+01 0.00000E+00
 -1      4034 1.06035E+02 1.95942E+01 0.00000E+00
 -1      4035 6.02850E+01 1.82952E+01 0.00000E+00
 -1      4036 5.87850E+01 1.82952E+01 0.00000E+00
 -1      4037 9.97394E+01 1.95325E+01 0.00000E+00
 -1      4038 9.92950E+01 2.08688E+01 0.00000E+00
 -1      4039 1.00156E+02 2.16727E+01 0.00000E+00
 -1      4040 3.47850E+01 1.56973E+01 0.00000E+00
 -1      4041 3.32850E+01 1.56973E+01 0.00000E+00
 -1      4042 3.55350E+01 1.69963E+01 0.00000E+00
 -1      4043 6.13450E+01 1.97640E+01 0.00000E+00
 -1      4044 9.94566E+01 1.78624E+01 0.00000E+00
 -1      4045 1.32668E+02 2.30100E+01 0.00000E+00
 -1      4046 1.32587E+02 2.14092E+01 0.00000E+00
 -1      4047 1.30480E+02 2.12081E+01 0.00000E+00
 -1      4048 1.31369E+02 2.37444E+01 0.00000E+00
 -1      4049 2.72850E+01 1.82952E+01 0.00000E+00
 -1      4050 2.57850E+01 1.82952E+01 0.00000E+00
 -1      4051 1.04400E+02 3.05600E+01 0.00000E+00
 -1      4052 1.05900E+02 3.05600E+01 0.00000E+00
 -1      4053 1.06650E+02 2.92610E+01 0.00000E+00
 -1      4054 2.34000E+01 3.05150E+01 0.00000E+00
 -1      4055 2.49000E+01 3.05150E+01 0.00000E+00
 -1      4056 2.56500E+01 2.92160E+01 0.00000E+00
 -1      4057 1.78304E+01 1.65680E+01 0.00000E+00
 -1      4058 5.72850E+01 1.82952E+01 0.00000E+00
 -1      4059 5.57850E+01 1.82952E+01 0.00000E+00
 -1      4060 5.80350E+01 1.95942E+01 0.00000E+00
 -1      4061 1.98389E+01 2.99600E+01 0.00000E+00
 -1      4062 2.19090E+01 3.01899E+01 0.00000E+00
 -1      4063 2.26590E+01 2.88909E+01 0.00000E+00
 -1      4064 1.96770E+01 2.82407E+01 0.00000E+00
 -1      4065 2.94000E+01 3.05150E+01 0.00000E+00
 -1      4066 3.09000E+01 3.05150E+01 0.00000E+00
 -1      4067 3.16500E+01 2.92160E+01 0.00000E+00
 -1      4068 1.00926E+02 1.78313E+01 0.00000E+00
 -1      4069 1.00348E+02 1.86975E+01 0.00000E+00
 -1      4070 1.01209E+02 1.95013E+01 0.00000E+00
 -1      4071 1.02426E+02 1.78313E+01 0.00000E+00
 -1      4072 5.50350E+01 1.95942E+01 0.00000E+00
 -1      4073 1.74066E+01 1.77624E+01 0.00000E+00
 -1      4074 1.70468E+01 1.97811E+01 0.00000E+00
 -1      4075 4.45350E+01 1.69963E+01 0.00000E+00
 -1      4076 4.90350E+01 1.95942E+01 0.00000E+00
 -1      4077 4.82850E+01 1.82952E+01 0.00000E+00
 -1      4078 4.67850E+01 1.82952E+01 0.00000E+00
 -1      4079 5.92317E+01 3.05659E+01 0.00000E+00
 -1      4080 6.05634E+01 3.06169E+01 0.00000E+00
 -1      4081 5.84817E+01 2.92669E+01 0.00000E+00
 -1      4082 1.03651E+02 2.95334E+01 0.00000E+00
 -1      4083 1.28982E+02 2.71368E+01 0.00000E+00
 -1      4084 1.30398E+02 2.68106E+01 0.00000E+00
 -1      4085 1.30398E+02 2.53387E+01 0.00000E+00
 -1      4086 1.83458E+01 2.05170E+01 0.00000E+00
 -1      4087 6.03411E+01 2.06586E+01 0.00000E+00
 -1      4088 1.96770E+01 2.52970E+01 0.00000E+00
 -1      4089 1.96770E+01 2.67688E+01 0.00000E+00
 -1      4090 2.11680E+01 2.70939E+01 0.00000E+00
 -1      4091 6.17059E+01 2.80751E+01 0.00000E+00
 -1      4092 1.96770E+01 2.23595E+01 0.00000E+00
 -1      4093 1.96770E+01 2.38282E+01 0.00000E+00
 -1      4094 2.11680E+01 2.41533E+01 0.00000E+00
 -1      4095 6.10893E+01 2.40211E+01 0.00000E+00
 -1      4096 6.01549E+01 2.27148E+01 0.00000E+00
 -1      4097 6.00970E+01 2.50130E+01 0.00000E+00
 -1      4098 1.03176E+02 1.91303E+01 0.00000E+00
 -1      4099 3.92850E+01 1.82952E+01 0.00000E+00
 -1      4100 3.77850E+01 1.82952E+01 0.00000E+00
 -1      4101 1.00732E+02 2.53298E+01 0.00000E+00
 -1      4102 1.01426E+02 2.65041E+01 0.00000E+00
 -1      4103 2.44669E+01 1.81455E+01 0.00000E+00
 -1      4104 2.31488E+01 1.79957E+01 0.00000E+00
 -1      4105 2.52169E+01 1.94445E+01 0.00000E+00
 -1      4106 3.25350E+01 1.69963E+01 0.00000E+00
 -1      4107 2.87850E+01 1.82952E+01 0.00000E+00
 -1      4108 2.80350E+01 1.95942E+01 0.00000E+00
 -1      4109 3.02850E+01 1.82952E+01 0.00000E+00
 -1      4110 4.22850E+01 1.82952E+01 0.00000E+00
 -1      4111 4.07850E+01 1.82952E+01 0.00000E+00
 -1      4112 4.00350E+01 1.95942E+01 0.00000E+00
 -1      4113 1.00954E+02 2.41324E+01 0.00000E+00
 -1      4114 1.89293E+01 1.78053E+01 0.00000E+00
 -1      4115 2.86500E+01 2.92160E+01 0.00000E+00
 -1      4116 2.79000E+01 2.79170E+01 0.00000E+00
 -1      4117 2.94000E+01 2.79170E+01 0.00000E+00
 -1      4118 4.52850E+01 1.82952E+01 0.00000E+00
 -1      4119 4.37850E+01 1.82952E+01 0.00000E+00
 -1      4120 4.30350E+01 1.95942E+01 0.00000E+00
 -1      4121 1.02568E+02 1.99653E+01 0.00000E+00
 -1      4122 1.01959E+02 2.08003E+01 0.00000E+00
 -1      4123 1.03926E+02 2.04293E+01 0.00000E+00
 -1      4124 3.69000E+01 2.79170E+01 0.00000E+00
 -1      4125 3.84000E+01 2.79170E+01 0.00000E+00
 -1      4126 3.99000E+01 2.79170E+01 0.00000E+00
 -1      4127 4.14000E+01 2.79170E+01 0.00000E+00
 -1      4128 3.91500E+01 2.66180E+01 0.00000E+00
 -1      4129 4.29000E+01 2.79170E+01 0.00000E+00
 -1      4130 4.44000E+01 2.79170E+01 0.00000E+00
 -1      4131 4.21500E+01 2.66180E+01 0.00000E+00
 -1      4132 4.59000E+01 2.79170E+01 0.00000E+00
 -1      4133 4.74000E+01 2.79170E+01 0.00000E+00
 -1      4134 4.51500E+01 2.66180E+01 0.00000E+00
 -1      4135 4.89000E+01 2.79170E+01 0.00000E+00
 -1      4136 5.04000E+01 2.79170E+01 0.00000E+00
 -1      4137 4.81500E+01 2.66180E+01 0.00000E+00
 -1      4138 5.19000E+01 2.79170E+01 0.00000E+00
 -1      4139 5.34000E+01 2.79170E+01 0.00000E+00
 -1      4140 5.11500E+01 2.66180E+01 0.00000E+00
 -1      4141 5.49000E+01 2.79170E+01 0.00000E+00
 -1      4142 5.64000E+01 2.79170E+01 0.00000E+00
 -1      4143 5.41500E+01 2.66180E+01 0.00000E+00
 -1      4144 2.49000E+01 2.79170E+01 0.00000E+00
 -1      4145 2.64000E+01 2.79170E+01 0.00000E+00
 -1      4146 2.71500E+01 2.66180E+01 0.00000E+00
 -1      4147 1.11900E+02 2.79620E+01 0.00000E+00
 -1      4148 1.13400E+02 2.79620E+01 0.00000E+00
 -1      4149 1.14900E+02 2.79620E+01 0.00000E+00
 -1      4150 1.16400E+02 2.79620E+01 0.00000E+00
 -1      4151 1.14150E+02 2.66630E+01 0.00000E+00
 -1      4152 1.17900E+02 2.79620E+01 0.00000E+00
 -1      4153 1.19400E+02 2.79620E+01 0.00000E+00
 -1      4154 1.17150E+02 2.66630E+01 0.00000E+00
 -1      4155 1.20900E+02 2.79620E+01 0.00000E+00
 -1      4156 1.22400E+02 2.79620E+01 0.00000E+00
 -1      4157 1.20150E+02 2.66630E+01 0.00000E+00
 -1      4158 1.23900E+02 2.79620E+01 0.00000E+00
 -1      4159 1.25400E+02 2.79620E+01 0.00000E+00
 -1      4160 1.23150E+02 2.66630E+01 0.00000E+00
 -1      4161 1.26483E+02 2.77125E+01 0.00000E+00
 -1      4162 1.27899E+02 2.73863E+01 0.00000E+00
 -1      4163 1.27899E+02 2.59144E+01 0.00000E+00
 -1      4164 1.25733E+02 2.64135E+01 0.00000E+00
 -1      4165 1.12785E+02 2.08932E+01 0.00000E+00
 -1      4166 1.11285E+02 2.08932E+01 0.00000E+00
 -1      4167 1.18785E+02 2.08932E+01 0.00000E+00
 -1      4168 1.17285E+02 2.08932E+01 0.00000E+00
 -1      4169 6.10969E+01 2.95744E+01 0.00000E+00
 -1      4170 1.15785E+02 2.08932E+01 0.00000E+00
 -1      4171 1.14285E+02 2.08932E+01 0.00000E+00
 -1      4172 1.16535E+02 2.21922E+01 0.00000E+00
 -1      4173 1.09785E+02 2.08932E+01 0.00000E+00
 -1      4174 1.08285E+02 2.08932E+01 0.00000E+00
 -1      4175 1.10535E+02 2.21922E+01 0.00000E+00
 -1      4176 5.94980E+01 2.16867E+01 0.00000E+00
 -1      4177 5.86919E+01 2.06224E+01 0.00000E+00
 -1      4178 5.71919E+01 2.06224E+01 0.00000E+00
 -1      4179 5.85058E+01 2.26786E+01 0.00000E+00
 -1      4180 1.98228E+01 1.79882E+01 0.00000E+00
 -1      4181 1.93989E+01 1.91826E+01 0.00000E+00
 -1      4182 1.92392E+01 2.07000E+01 0.00000E+00
 -1      4183 2.13456E+01 1.80311E+01 0.00000E+00
 -1      4184 1.21785E+02 2.08932E+01 0.00000E+00
 -1      4185 1.20285E+02 2.08932E+01 0.00000E+00
 -1      4186 1.19535E+02 2.21922E+01 0.00000E+00
 -1      4187 1.24785E+02 2.08932E+01 0.00000E+00
 -1      4188 1.23285E+02 2.08932E+01 0.00000E+00
 -1      4189 1.22535E+02 2.21922E+01 0.00000E+00
 -1      4190 1.06785E+02 2.08932E+01 0.00000E+00
 -1      4191 1.05285E+02 2.08932E+01 0.00000E+00
 -1      4192 1.07535E+02 2.21922E+01 0.00000E+00
 -1      4193 5.27850E+01 2.08932E+01 0.00000E+00
 -1      4194 5.12850E+01 2.08932E+01 0.00000E+00
 -1      4195 1.01515E+02 2.21367E+01 0.00000E+00
 -1      4196 5.57850E+01 2.08932E+01 0.00000E+00
 -1      4197 5.42850E+01 2.08932E+01 0.00000E+00
 -1      4198 5.35350E+01 2.21922E+01 0.00000E+00
 -1      4199 1.02164E+02 2.75055E+01 0.00000E+00
 -1      4200 1.02913E+02 2.85321E+01 0.00000E+00
 -1      4201 1.04412E+02 2.82597E+01 0.00000E+00
 -1      4202 1.02935E+02 2.62571E+01 0.00000E+00
 -1      4203 3.39000E+01 2.79170E+01 0.00000E+00
 -1      4204 3.54000E+01 2.79170E+01 0.00000E+00
 -1      4205 3.61500E+01 2.66180E+01 0.00000E+00
 -1      4206 3.09000E+01 2.79170E+01 0.00000E+00
 -1      4207 3.24000E+01 2.79170E+01 0.00000E+00
 -1      4208 3.01500E+01 2.66180E+01 0.00000E+00
 -1      4209 3.62850E+01 1.82952E+01 0.00000E+00
 -1      4210 3.47850E+01 1.82952E+01 0.00000E+00
 -1      4211 3.70350E+01 1.95942E+01 0.00000E+00
 -1      4212 1.05900E+02 2.79620E+01 0.00000E+00
 -1      4213 1.07400E+02 2.79620E+01 0.00000E+00
 -1      4214 3.32850E+01 1.82952E+01 0.00000E+00
 -1      4215 3.17850E+01 1.82952E+01 0.00000E+00
 -1      4216 3.40350E+01 1.95942E+01 0.00000E+00
 -1      4217 1.08900E+02 2.79620E+01 0.00000E+00
 -1      4218 1.10400E+02 2.79620E+01 0.00000E+00
 -1      4219 1.08150E+02 2.66630E+01 0.00000E+00
 -1      4220 6.04224E+01 2.78186E+01 0.00000E+00
 -1      4221 1.04676E+02 2.17283E+01 0.00000E+00
 -1      4222 4.97850E+01 2.08932E+01 0.00000E+00
 -1      4223 4.82850E+01 2.08932E+01 0.00000E+00
 -1      4224 5.05350E+01 2.21922E+01 0.00000E+00
 -1      4225 3.31500E+01 2.66180E+01 0.00000E+00
 -1      4226 5.77453E+01 2.78423E+01 0.00000E+00
 -1      4227 5.90770E+01 2.78933E+01 0.00000E+00
 -1      4228 5.96860E+01 2.63939E+01 0.00000E+00
 -1      4229 5.69953E+01 2.65433E+01 0.00000E+00
 -1      4230 2.22885E+01 2.73429E+01 0.00000E+00
 -1      4231 2.37795E+01 2.76680E+01 0.00000E+00
 -1      4232 2.45295E+01 2.63690E+01 0.00000E+00
 -1      4233 2.22885E+01 2.58710E+01 0.00000E+00
 -1      4234 1.13535E+02 2.21922E+01 0.00000E+00
 -1      4235 1.11150E+02 2.66630E+01 0.00000E+00
 -1      4236 2.07302E+01 2.10250E+01 0.00000E+00
 -1      4237 2.57293E+01 2.08101E+01 0.00000E+00
 -1      4238 2.44111E+01 2.06603E+01 0.00000E+00
 -1      4239 5.87517E+01 2.50876E+01 0.00000E+00
 -1      4240 1.25910E+02 2.09797E+01 0.00000E+00
 -1      4241 1.25160E+02 2.22787E+01 0.00000E+00
 -1      4242 1.27035E+02 2.10661E+01 0.00000E+00
 -1      4243 1.29355E+02 2.11217E+01 0.00000E+00
 -1      4244 1.28230E+02 2.10352E+01 0.00000E+00
 -1      4245 1.29799E+02 2.23898E+01 0.00000E+00
 -1      4246 1.05162E+02 2.69607E+01 0.00000E+00
 -1      4247 1.02757E+02 2.32600E+01 0.00000E+00
 -1      4248 2.20956E+01 1.93301E+01 0.00000E+00
 -1      4249 5.64419E+01 2.19214E+01 0.00000E+00
 -1      4250 3.10350E+01 1.95942E+01 0.00000E+00
 -1      4251 2.87293E+01 2.08101E+01 0.00000E+00
 -1      4252 2.72293E+01 2.08101E+01 0.00000E+00
 -1      4253 2.64235E+01 2.20259E+01 0.00000E+00
 -1      4254 3.77850E+01 2.08932E+01 0.00000E+00
 -1      4255 3.62850E+01 2.08932E+01 0.00000E+00
 -1      4256 1.04086E+02 2.29948E+01 0.00000E+00
 -1      4257 1.03526E+02 2.49905E+01 0.00000E+00
 -1      4258 1.04264E+02 2.59919E+01 0.00000E+00
 -1      4259 1.05445E+02 2.34588E+01 0.00000E+00
 -1      4260 4.07850E+01 2.08932E+01 0.00000E+00
 -1      4261 3.92850E+01 2.08932E+01 0.00000E+00
 -1      4262 3.85350E+01 2.21922E+01 0.00000E+00
 -1      4263 1.29953E+02 2.40706E+01 0.00000E+00
 -1      4264 4.60350E+01 1.95942E+01 0.00000E+00
 -1      4265 4.37850E+01 2.08932E+01 0.00000E+00
 -1      4266 4.22850E+01 2.08932E+01 0.00000E+00
 -1      4267 4.15350E+01 2.21922E+01 0.00000E+00
 -1      4268 2.64000E+01 2.53190E+01 0.00000E+00
 -1      4269 2.79000E+01 2.53190E+01 0.00000E+00
 -1      4270 4.18425E+01 2.44051E+01 0.00000E+00
 -1      4271 4.33425E+01 2.44051E+01 0.00000E+00
 -1      4272 4.74000E+01 2.53190E+01 0.00000E+00
 -1      4273 4.89000E+01 2.53190E+01 0.00000E+00
 -1      4274 5.08425E+01 2.44051E+01 0.00000E+00
 -1      4275 5.23425E+01 2.44051E+01 0.00000E+00
 -1      4276 5.38425E+01 2.44051E+01 0.00000E+00
 -1      4277 5.53425E+01 2.44051E+01 0.00000E+00
 -1      4278 1.16842E+02 2.44276E+01 0.00000E+00
 -1      4279 1.18342E+02 2.44276E+01 0.00000E+00
 -1      4280 1.19842E+02 2.44276E+01 0.00000E+00
 -1      4281 1.21342E+02 2.44276E+01 0.00000E+00
 -1      4282 1.22842E+02 2.44276E+01 0.00000E+00
 -1      4283 1.24342E+02 2.44276E+01 0.00000E+00
 -1      4284 3.55350E+01 2.21922E+01 0.00000E+00
 -1      4285 3.47850E+01 2.08932E+01 0.00000E+00
 -1      4286 3.32850E+01 2.08932E+01 0.00000E+00
 -1      4287 3.24000E+01 2.53190E+01 0.00000E+00
 -1      4288 3.39000E+01 2.53190E+01 0.00000E+00
 -1      4289 1.15342E+02 2.44276E+01 0.00000E+00
 -1      4290 1.10842E+02 2.44276E+01 0.00000E+00
 -1      4291 1.09342E+02 2.44276E+01 0.00000E+00
 -1      4292 2.30458E+01 2.23552E+01 0.00000E+00
 -1      4293 2.25334E+01 2.09896E+01 0.00000E+00
 -1      4294 1.07842E+02 2.44276E+01 0.00000E+00
 -1      4295 1.06342E+02 2.44276E+01 0.00000E+00
 -1      4296 2.24670E+01 2.34189E+01 0.00000E+00
 -1      4297 2.24670E+01 2.48877E+01 0.00000E+00
 -1      4298 3.58425E+01 2.44051E+01 0.00000E+00
 -1      4299 3.73425E+01 2.44051E+01 0.00000E+00
 -1      4300 1.13842E+02 2.44276E+01 0.00000E+00
 -1      4301 1.12342E+02 2.44276E+01 0.00000E+00
 -1      4302 2.94000E+01 2.53190E+01 0.00000E+00
 -1      4303 3.09000E+01 2.53190E+01 0.00000E+00
 -1      4304 2.86500E+01 2.40200E+01 0.00000E+00
 -1      4305 1.28828E+02 2.39841E+01 0.00000E+00
 -1      4306 3.88425E+01 2.44051E+01 0.00000E+00
 -1      4307 4.03425E+01 2.44051E+01 0.00000E+00
 -1      4308 4.67850E+01 2.08932E+01 0.00000E+00
 -1      4309 4.52850E+01 2.08932E+01 0.00000E+00
 -1      4310 4.75350E+01 2.21922E+01 0.00000E+00
 -1      4311 3.17571E+01 2.08517E+01 0.00000E+00
 -1      4312 3.02571E+01 2.08517E+01 0.00000E+00
 -1      4313 2.94514E+01 2.20675E+01 0.00000E+00
 -1      4314 3.25071E+01 2.21507E+01 0.00000E+00
 -1      4315 2.35875E+01 2.51367E+01 0.00000E+00
 -1      4316 2.47080E+01 2.53857E+01 0.00000E+00
 -1      4317 2.43448E+01 2.30896E+01 0.00000E+00
 -1      4318 2.54580E+01 2.40867E+01 0.00000E+00
 -1      4319 2.60368E+01 2.30229E+01 0.00000E+00
 -1      4320 2.75368E+01 2.30229E+01 0.00000E+00
 -1      4321 5.62507E+01 2.52837E+01 0.00000E+00
 -1      4322 5.75960E+01 2.52090E+01 0.00000E+00
 -1      4323 4.44000E+01 2.53190E+01 0.00000E+00
 -1      4324 4.59000E+01 2.53190E+01 0.00000E+00
 -1      4325 5.59432E+01 2.30708E+01 0.00000E+00
 -1      4326 1.26550E+02 2.42645E+01 0.00000E+00
 -1      4327 1.27633E+02 2.40150E+01 0.00000E+00
 -1      4328 1.25467E+02 2.45141E+01 0.00000E+00
 -1      4329 3.16500E+01 2.40200E+01 0.00000E+00
 -1      4330 5.80070E+01 2.38280E+01 0.00000E+00
 -1      4331 3.50925E+01 2.31061E+01 0.00000E+00
 -1      4332 5.73501E+01 2.27999E+01 0.00000E+00
 -1      4333 1.27480E+02 2.23342E+01 0.00000E+00
 -1      4334 5.00925E+01 2.31061E+01 0.00000E+00
 -1      4335 4.45350E+01 2.21922E+01 0.00000E+00
 -1      4336 4.66500E+01 2.40200E+01 0.00000E+00
 -1      4337 1.05752E+02 2.56942E+01 0.00000E+00
 -1      4338 4.40925E+01 2.31061E+01 0.00000E+00
 -1      4339 4.55925E+01 2.31061E+01 0.00000E+00
 -1      4340 2.90368E+01 2.30229E+01 0.00000E+00
 -1      4341 3.05646E+01 2.30645E+01 0.00000E+00
 -1      4342 3.20646E+01 2.30645E+01 0.00000E+00
 -1      4343 4.70925E+01 2.31061E+01 0.00000E+00
 -1      4344 4.85925E+01 2.31061E+01 0.00000E+00
 -1      4345 3.35925E+01 2.31061E+01 0.00000E+00
 -3
    3C                          2091                                     1
 -1       164    8    0    1
 -2         6         7        23      1128      1291      1145
 -1       165    8    0    1
 -2         7         8       164      1129      1292      1293
 -1       166    8    0    1
 -2         8         9       165      1130      1294      1295
 -1       167    8    0    1
 -2         8       165       164      1295      1296      1292
 -1       168    8    0    1
 -2         9        10       166      1131      1297      1298
 -1       169    8    0    1
 -2         9       166       165      1298      1299      1294
 -1       170    8    0    1
 -2        10        11       167      1132      1300      1301
 -1       171    8    0    1
 -2        10       167       166      1301      1302      1297
 -1       172    8    0    1
 -2        11        12       168      1133      1303      1304
 -1       173    8    0    1
 -2        11       168       167      1304      1305      1300
 -1       174    8    0    1
 -2        12        13       169      1134      1306      1307
 -1       175    8    0    1
 -2        12       169       168      1307      1308      1303
 -1       176    8    0    1
 -2        13        14       170      1135      1309      1310
 -1       177    8    0    1
 -2        13       170       169      1310      1311      1306
 -1       178    8    0    1
 -2        14        15       171      1136      1312      1313
 -1       179    8    0    1
 -2        14       171       170      1313      1314      1309
 -1       180    8    0    1
 -2        15        16       172      1137      1315      1316
 -1       181    8    0    1
 -2        15       172       171      1316      1317      1312
 -1       182    8    0    1
 -2        16        17       173      1138      1318      1319
 -1       183    8    0    1
 -2        16       173       172      1319      1320      1315
 -1       184    8    0    1
 -2        17        18       174      1139      1321      1322
 -1       185    8    0    1
 -2        17       174       173      1322      1323      1318
 -1       186    8    0    1
 -2        18        19       175      1140      1324      1325
 -1       187    8    0    1
 -2        18       175       174      1325      1326      1321
 -1       188    8    0    1
 -2        19        20       176      1141      1327      1328
 -1       189    8    0    1
 -2        19       176       175      1328      1329      1324
 -1       190    8    0    1
 -2        20        21       177      1142      1330      1331
 -1       191    8    0    1
 -2        20       177       176      1331      1332      1327
 -1       192    8    0    1
 -2        21        22       178      1143      1333      1334
 -1       193    8    0    1
 -2        21       178       177      1334      1335      1330
 -1       194    8    0    1
 -2        22         5       179      1144      1336      1337
 -1       195    8    0    1
 -2       178        22       179      1333      1337      1338
 -1       196    8    0    1
 -2         5        72       179      1195      1339      1336
 -1       197    8    0    1
 -2        24        23       180      1146      1340      1341
 -1       198    8    0    1
 -2        25        24       181      1147      1342      1343
 -1       199    8    0    1
 -2        24       180       181      1341      1344      1342
 -1       200    8    0    1
 -2        26        25       182      1148      1345      1346
 -1       201    8    0    1
 -2        25       181       182      1343      1347      1345
 -1       202    8    0    1
 -2        27        26       183      1149      1348      1349
 -1       203    8    0    1
 -2        26       182       183      1346      1350      1348
 -1       204    8    0    1
 -2        28        27       184      1150      1351      1352
 -1       205    8    0    1
 -2        27       183       184      1349      1353      1351
 -1       206    8    0    1
 -2        29        28       185      1151      1354      1355
 -1       207    8    0    1
 -2        28       184       185      1352      1356      1354
 -1       208    8    0    1
 -2        30        29       186      1152      1357      1358
 -1       209    8    0    1
 -2        29       185       186      1355      1359      1357
 -1       210    8    0    1
 -2        31        30       187      1153      1360      1361
 -1       211    8    0    1
 -2        30       186       187      1358      1362      1360
 -1       212    8    0    1
 -2        32        31       188      1154      1363      1364
 -1       213    8    0    1
 -2        31       187       188      1361      1365      1363
 -1       214    8    0    1
 -2        33        32       189      1155      1366      1367
 -1       215    8    0    1
 -2        32       188       189      1364      1368      1366
 -1       216    8    0    1
 -2        34        33       190      1156      1369      1370
 -1       217    8    0    1
 -2        33       189       190      1367      1371      1369
 -1       218    8    0    1
 -2        35        34       191      1157      1372      1373
 -1       219    8    0    1
 -2        34       190       191      1370      1374      1372
 -1       220    8    0    1
 -2        36        35       192      1158      1375      1376
 -1       221    8    0    1
 -2        35       191       192      1373      1377      1375
 -1       222    8    0    1
 -2        37        36       193      1159      1378      1379
 -1       223    8    0    1
 -2        36       192       193      1376      1380      1378
 -1       224    8    0    1
 -2        38        37       194      1160      1381      1382
 -1       225    8    0    1
 -2        37       193       194      1379      1383      1381
 -1       226    8    0    1
 -2        39        38       195      1161      1384      1385
 -1       227    8    0    1
 -2        38       194       195      1382      1386      1384
 -1       228    8    0    1
 -2        40        39       196      1162      1387      1388
 -1       229    8    0    1
 -2        39       195       196      1385      1389      1387
 -1       230    8    0    1
 -2        41        40       197      1163      1390      1391
 -1       231    8    0    1
 -2        40       196       197      1388      1392      1390
 -1       232    8    0    1
 -2        42        41       198      1164      1393      1394
 -1       233    8    0    1
 -2        41       197       198      1391      1395      1393
 -1       234    8    0    1
 -2        43        42       199      1165      1396      1397
 -1       235    8    0    1
 -2        42       198       199      1394      1398      1396
 -1       236    8    0    1
 -2        44        43       200      1166      1399      1400
 -1       237    8    0    1
 -2        43       199       200      1397      1401      1399
 -1       238    8    0    1
 -2        45        44       201      1167      1402      1403
 -1       239    8    0    1
 -2        44       200       201      1400      1404      1402
 -1       240    8    0    1
 -2        46        45       202      1168      1405      1406
 -1       241    8    0    1
 -2        45       201       202      1403      1407      1405
 -1       242    8    0    1
 -2        47        46       203      1169      1408      1409
 -1       243    8    0    1
 -2        46       202       203      1406      1410      1408
 -1       244    8    0    1
 -2        48        47       204      1170      1411      1412
 -1       245    8    0    1
 -2        47       203       204      1409      1413      1411
 -1       246    8    0    1
 -2        49        48       205      1171      1414      1415
 -1       247    8    0    1
 -2        48       204       205      1412      1416      1414
 -1       248    8    0    1
 -2        50        49       206      1172      1417      1418
 -1       249    8    0    1
 -2        49       205       206      1415      1419      1417
 -1       250    8    0    1
 -2        51        50       207      1173      1420      1421
 -1       251    8    0    1
 -2        50       206       207      1418      1422      1420
 -1       252    8    0    1
 -2        52        51       208      1174      1423      1424
 -1       253    8    0    1
 -2        51       207       208      1421      1425      1423
 -1       254    8    0    1
 -2        53        52       209      1175      1426      1427
 -1       255    8    0    1
 -2        52       208       209      1424      1428      1426
 -1       256    8    0    1
 -2        54        53       210      1176      1429      1430
 -1       257    8    0    1
 -2        53       209       210      1427      1431      1429
 -1       258    8    0    1
 -2        55        54       211      1177      1432      1433
 -1       259    8    0    1
 -2        54       210       211      1430      1434      1432
 -1       260    8    0    1
 -2        56        55       212      1178      1435      1436
 -1       261    8    0    1
 -2        55       211       212      1433      1437      1435
 -1       262    8    0    1
 -2        57        56       213      1179      1438      1439
 -1       263    8    0    1
 -2        56       212       213      1436      1440      1438
 -1       264    8    0    1
 -2        58        57       214      1180      1441      1442
 -1       265    8    0    1
 -2        57       213       214      1439      1443      1441
 -1       266    8    0    1
 -2        59        58       215      1181      1444      1445
 -1       267    8    0    1
 -2        58       214       215      1442      1446      1444
 -1       268    8    0    1
 -2        60        59       216      1182      1447      1448
 -1       269    8    0    1
 -2        59       215       216      1445      1449      1447
 -1       270    8    0    1
 -2        61        60       217      1183      1450      1451
 -1       271    8    0    1
 -2        60       216       217      1448      1452      1450
 -1       272    8    0    1
 -2        62        61       218      1184      1453      1454
 -1       273    8    0    1
 -2        61       217       218      1451      1455      1453
 -1       274    8    0    1
 -2        63        62       219      1185      1456      1457
 -1       275    8    0    1
 -2        62       218       219      1454      1458      1456
 -1       276    8    0    1
 -2        64        63       220      1186      1459      1460
 -1       277    8    0    1
 -2        63       219       220      1457      1461      1459
 -1       278    8    0    1
 -2        65        64       221      1187      1462      1463
 -1       279    8    0    1
 -2        64       220       221      1460      1464      1462
 -1       280    8    0    1
 -2        66        65       222      1188      1465      1466
 -1       281    8    0    1
 -2        65       221       222      1463      1467      1465
 -1       282    8    0    1
 -2        67        66       223      1189      1468      1469
 -1       283    8    0    1
 -2        66       222       223      1466      1470      1468
 -1       284    8    0    1
 -2        68        67       224      1190      1471      1472
 -1       285    8    0    1
 -2        67       223       224      1469      1473      1471
 -1       286    8    0    1
 -2        69        68       225      1191      1474      1475
 -1       287    8    0    1
 -2        68       224       225      1472      1476      1474
 -1       288    8    0    1
 -2        70        69       226      1192      1477      1478
 -1       289    8    0    1
 -2        69       225       226      1475      1479      1477
 -1       290    8    0    1
 -2        71        70       227      1193      1480      1481
 -1       291    8    0    1
 -2        70       226       227      1478      1482      1480
 -1       292    8    0    1
 -2         4        71       136      1194      1483      1261
 -1       293    8    0    1
 -2       136        71       227      1483      1481      1484
 -1       294    8    0    1
 -2        72        73       228      1196      1485      1486
 -1       295    8    0    1
 -2        72       228       179      1486      1487      1339
 -1       296    8    0    1
 -2        73        74       229      1197      1488      1489
 -1       297    8    0    1
 -2        73       229       228      1489      1490      1485
 -1       298    8    0    1
 -2        74        75       230      1198      1491      1492
 -1       299    8    0    1
 -2        74       230       229      1492      1493      1488
 -1       300    8    0    1
 -2        75        76       231      1199      1494      1495
 -1       301    8    0    1
 -2        75       231       230      1495      1496      1491
 -1       302    8    0    1
 -2        76        77       232      1200      1497      1498
 -1       303    8    0    1
 -2        76       232       231      1498      1499      1494
 -1       304    8    0    1
 -2        77        78       233      1201      1500      1501
 -1       305    8    0    1
 -2        77       233       232      1501      1502      1497
 -1       306    8    0    1
 -2        78        79       234      1202      1503      1504
 -1       307    8    0    1
 -2        78       234       233      1504      1505      1500
 -1       308    8    0    1
 -2        79        80       235      1203      1506      1507
 -1       309    8    0    1
 -2        79       235       234      1507      1508      1503
 -1       310    8    0    1
 -2        80        81       236      1204      1509      1510
 -1       311    8    0    1
 -2        80       236       235      1510      1511      1506
 -1       312    8    0    1
 -2        81        82       237      1205      1512      1513
 -1       313    8    0    1
 -2        81       237       236      1513      1514      1509
 -1       314    8    0    1
 -2        82        83       238      1206      1515      1516
 -1       315    8    0    1
 -2        82       238       237      1516      1517      1512
 -1       316    8    0    1
 -2        83        84       239      1207      1518      1519
 -1       317    8    0    1
 -2        83       239       238      1519      1520      1515
 -1       318    8    0    1
 -2        84        85       240      1208      1521      1522
 -1       319    8    0    1
 -2        84       240       239      1522      1523      1518
 -1       320    8    0    1
 -2        85        86       241      1209      1524      1525
 -1       321    8    0    1
 -2        85       241       240      1525      1526      1521
 -1       322    8    0    1
 -2        86        87       242      1210      1527      1528
 -1       323    8    0    1
 -2        86       242       241      1528      1529      1524
 -1       324    8    0    1
 -2        87        88       243      1211      1530      1531
 -1       325    8    0    1
 -2        87       243       242      1531      1532      1527
 -1       326    8    0    1
 -2        88        89       244      1212      1533      1534
 -1       327    8    0    1
 -2        88       244       243      1534      1535      1530
 -1       328    8    0    1
 -2        89        90       245      1213      1536      1537
 -1       329    8    0    1
 -2        89       245       244      1537      1538      1533
 -1       330    8    0    1
 -2        90        91       246      1214      1539      1540
 -1       331    8    0    1
 -2        90       246       245      1540      1541      1536
 -1       332    8    0    1
 -2        91        92       247      1215      1542      1543
 -1       333    8    0    1
 -2        91       247       246      1543      1544      1539
 -1       334    8    0    1
 -2        92        93       248      1216      1545      1546
 -1       335    8    0    1
 -2        92       248       247      1546      1547      1542
 -1       336    8    0    1
 -2        93        94       249      1217      1548      1549
 -1       337    8    0    1
 -2        93       249       248      1549      1550      1545
 -1       338    8    0    1
 -2        94        95       250      1218      1551      1552
 -1       339    8    0    1
 -2        94       250       249      1552      1553      1548
 -1       340    8    0    1
 -2        95        96       251      1219      1554      1555
 -1       341    8    0    1
 -2        95       251       250      1555      1556      1551
 -1       342    8    0    1
 -2        96        97       252      1220      1557      1558
 -1       343    8    0    1
 -2        96       252       251      1558      1559      1554
 -1       344    8    0    1
 -2        97        98       253      1221      1560      1561
 -1       345    8    0    1
 -2        97       253       252      1561      1562      1557
 -1       346    8    0    1
 -2        98        99       254      1222      1563      1564
 -1       347    8    0    1
 -2        98       254       253      1564      1565      1560
 -1       348    8    0    1
 -2        99       100       255      1223      1566      1567
 -1       349    8    0    1
 -2        99       255       254      1567      1568      1563
 -1       350    8    0    1
 -2       100       101       256      1224      1569      1570
 -1       351    8    0    1
 -2       100       256       255      1570      1571      1566
 -1       352    8    0    1
 -2       101       102       257      1225      1572      1573
 -1       353    8    0    1
 -2       101       257       256      1573      1574      1569
 -1       354    8    0    1
 -2       102       103       258      1226      1575      1576
 -1       355    8    0    1
 -2       102       258       257      1576      1577      1572
 -1       356    8    0    1
 -2       103       104       259      1227      1578      1579
 -1       357    8    0    1
 -2       103       259       258      1579      1580      1575
 -1       358    8    0    1
 -2       104       105       260      1228      1581      1582
 -1       359    8    0    1
 -2       104       260       259      1582      1583      1578
 -1       360    8    0    1
 -2       105       106       261      1229      1584      1585
 -1       361    8    0    1
 -2       105       261       260      1585      1586      1581
 -1       362    8    0    1
 -2       106       107       262      1230      1587      1588
 -1       363    8    0    1
 -2       106       262       261      1588      1589      1584
 -1       364    8    0    1
 -2       107       108       263      1231      1590      1591
 -1       365    8    0    1
 -2       107       263       262      1591      1592      1587
 -1       366    8    0    1
 -2       108       109       264      1232      1593      1594
 -1       367    8    0    1
 -2       108       264       263      1594      1595      1590
 -1       368    8    0    1
 -2       109       110       265      1233      1596      1597
 -1       369    8    0    1
 -2       109       265       264      1597      1598      1593
 -1       370    8    0    1
 -2       110       111       266      1234      1599      1600
 -1       371    8    0    1
 -2       110       266       265      1600      1601      1596
 -1       372    8    0    1
 -2       111       112       267      1235      1602      1603
 -1       373    8    0    1
 -2       111       267       266      1603      1604      1599
 -1       374    8    0    1
 -2       112       113       268      1236      1605      1606
 -1       375    8    0    1
 -2       112       268       267      1606      1607      1602
 -1       376    8    0    1
 -2       113       114       269      1237      1608      1609
 -1       377    8    0    1
 -2       113       269       268      1609      1610      1605
 -1       378    8    0    1
 -2       114       115       270      1238      1611      1612
 -1       379    8    0    1
 -2       114       270       269      1612      1613      1608
 -1       380    8    0    1
 -2       115       116       271      1239      1614      1615
 -1       381    8    0    1
 -2       115       271       270      1615      1616      1611
 -1       382    8    0    1
 -2       116       117       272      1240      1617      1618
 -1       383    8    0    1
 -2       116       272       271      1618      1619      1614
 -1       384    8    0    1
 -2       117       118       273      1241      1620      1621
 -1       385    8    0    1
 -2       117       273       272      1621      1622      1617
 -1       386    8    0    1
 -2       118       119       274      1242      1623      1624
 -1       387    8    0    1
 -2       118       274       273      1624      1625      1620
 -1       388    8    0    1
 -2       119       120       275      1243      1626      1627
 -1       389    8    0    1
 -2       119       275       274      1627      1628      1623
 -1       390    8    0    1
 -2       120         3       121      1244      1245      1629
 -1       391    8    0    1
 -2       121       122       276      1246      1630      1631
 -1       392    8    0    1
 -2       122       123       277      1247      1632      1633
 -1       393    8    0    1
 -2       122       277       276      1633      1634      1630
 -1       394    8    0    1
 -2       123       124       278      1248      1635      1636
 -1       395    8    0    1
 -2       123       278       277      1636      1637      1632
 -1       396    8    0    1
 -2       124       125       279      1249      1638      1639
 -1       397    8    0    1
 -2       124       279       278      1639      1640      1635
 -1       398    8    0    1
 -2       125       126       280      1250      1641      1642
 -1       399    8    0    1
 -2       125       280       279      1642      1643      1638
 -1       400    8    0    1
 -2       126       127       281      1251      1644      1645
 -1       401    8    0    1
 -2       126       281       280      1645      1646      1641
 -1       402    8    0    1
 -2       127       128       282      1252      1647      1648
 -1       403    8    0    1
 -2       127       282       281      1648      1649      1644
 -1       404    8    0    1
 -2       128       129       283      1253      1650      1651
 -1       405    8    0    1
 -2       128       283       282      1651      1652      1647
 -1       406    8    0    1
 -2       129       130       284      1254      1653      1654
 -1       407    8    0    1
 -2       129       284       283      1654      1655      1650
 -1       408    8    0    1
 -2       130       131       285      1255      1656      1657
 -1       409    8    0    1
 -2       130       285       284      1657      1658      1653
 -1       410    8    0    1
 -2       131       132       286      1256      1659      1660
 -1       411    8    0    1
 -2       131       286       285      1660      1661      1656
 -1       412    8    0    1
 -2       132       133       287      1257      1662      1663
 -1       413    8    0    1
 -2       132       287       286      1663      1664      1659
 -1       414    8    0    1
 -2       133       134       288      1258      1665      1666
 -1       415    8    0    1
 -2       133       288       287      1666      1667      1662
 -1       416    8    0    1
 -2       134       135       289      1259      1668      1669
 -1       417    8    0    1
 -2       134       289       288      1669      1670      1665
 -1       418    8    0    1
 -2       135       136       290      1260      1671      1672
 -1       419    8    0    1
 -2       289       135       290      1668      1672      1673
 -1       420    8    0    1
 -2       136       227       290      1484      1674      1671
 -1       421    8    0    1
 -2         2       137       291      1262      1675      1676
 -1       422    8    0    1
 -2       137       138       292      1263      1677      1678
 -1       423    8    0    1
 -2       138       139       293      1264      1679      1680
 -1       424    8    0    1
 -2       139       140       294      1265      1681      1682
 -1       425    8    0    1
 -2       140       141       295      1266      1683      1684
 -1       426    8    0    1
 -2       141       142       296      1267      1685      1686
 -1       427    8    0    1
 -2       142       143       297      1268      1687      1688
 -1       428    8    0    1
 -2       143       144       298      1269      1689      1690
 -1       429    8    0    1
 -2       144       145       299      1270      1691      1692
 -1       430    8    0    1
 -2       145       146       300      1271      1693      1694
 -1       431    8    0    1
 -2       146       147       301      1272      1695      1696
 -1       432    8    0    1
 -2       147       148       302      1273      1697      1698
 -1       433    8    0    1
 -2       148       149       303      1274      1699      1700
 -1       434    8    0    1
 -2       149       150       304      1275      1701      1702
 -1       435    8    0    1
 -2       150       151       305      1276      1703      1704
 -1       436    8    0    1
 -2       151       152       306      1277      1705      1706
 -1       437    8    0    1
 -2       152       153       307      1278      1707      1708
 -1       438    8    0    1
 -2       153       154       308      1279      1709      1710
 -1       439    8    0    1
 -2       154       155       309      1280      1711      1712
 -1       440    8    0    1
 -2       155       156       310      1281      1713      1714
 -1       441    8    0    1
 -2       156       157       311      1282      1715      1716
 -1       442    8    0    1
 -2       157       158       312      1283      1717      1718
 -1       443    8    0    1
 -2       158       159       313      1284      1719      1720
 -1       444    8    0    1
 -2       159         1       314      1285      1721      1722
 -1       445    8    0    1
 -2         1       160       315      1286      1723      1724
 -1       446    8    0    1
 -2       160       161       316      1287      1725      1726
 -1       447    8    0    1
 -2       161       162       317      1288      1727      1728
 -1       448    8    0    1
 -2       162       163       318      1289      1729      1730
 -1       449    8    0    1
 -2       163         2       319      1290      1731      1732
 -1       450    8    0    1
 -2       294       140       295      1681      1684      1733
 -1       451    8    0    1
 -2       293       139       294      1679      1682      1734
 -1       452    8    0    1
 -2       120       121       275      1629      1735      1626
 -1       453    8    0    1
 -2       121       276       275      1631      1736      1735
 -1       454    8    0    1
 -2       291       137       292      1675      1678      1737
 -1       455    8    0    1
 -2       292       138       293      1677      1680      1738
 -1       456    8    0    1
 -2         2       291       319      1676      1739      1731
 -1       457    8    0    1
 -2       141       296       295      1686      1740      1683
 -1       458    8    0    1
 -2       142       297       296      1688      1741      1685
 -1       459    8    0    1
 -2       143       298       297      1690      1742      1687
 -1       460    8    0    1
 -2       144       299       298      1692      1743      1689
 -1       461    8    0    1
 -2       145       300       299      1694      1744      1691
 -1       462    8    0    1
 -2       146       301       300      1696      1745      1693
 -1       463    8    0    1
 -2       147       302       301      1698      1746      1695
 -1       464    8    0    1
 -2       148       303       302      1700      1747      1697
 -1       465    8    0    1
 -2       149       304       303      1702      1748      1699
 -1       466    8    0    1
 -2       150       305       304      1704      1749      1701
 -1       467    8    0    1
 -2       151       306       305      1706      1750      1703
 -1       468    8    0    1
 -2       152       307       306      1708      1751      1705
 -1       469    8    0    1
 -2       153       308       307      1710      1752      1707
 -1       470    8    0    1
 -2       154       309       308      1712      1753      1709
 -1       471    8    0    1
 -2       155       310       309      1714      1754      1711
 -1       472    8    0    1
 -2       156       311       310      1716      1755      1713
 -1       473    8    0    1
 -2       157       312       311      1718      1756      1715
 -1       474    8    0    1
 -2       158       313       312      1720      1757      1717
 -1       475    8    0    1
 -2       159       314       313      1722      1758      1719
 -1       476    8    0    1
 -2         1       315       314      1724      1759      1721
 -1       477    8    0    1
 -2       160       316       315      1726      1760      1723
 -1       478    8    0    1
 -2       161       317       316      1728      1761      1725
 -1       479    8    0    1
 -2       162       318       317      1730      1762      1727
 -1       480    8    0    1
 -2       163       319       318      1732      1763      1729
 -1       481    8    0    1
 -2        23         7       164      1291      1293      1764
 -1       482    8    0    1
 -2       165       166       320      1299      1765      1766
 -1       483    8    0    1
 -2       164       165       321      1296      1767      1768
 -1       484    8    0    1
 -2       165       320       321      1766      1769      1767
 -1       485    8    0    1
 -2       167       168       322      1305      1770      1771
 -1       486    8    0    1
 -2       168       169       323      1308      1772      1773
 -1       487    8    0    1
 -2       168       323       322      1773      1774      1770
 -1       488    8    0    1
 -2       169       170       324      1311      1775      1776
 -1       489    8    0    1
 -2       169       324       323      1776      1777      1772
 -1       490    8    0    1
 -2       170       171       325      1314      1778      1779
 -1       491    8    0    1
 -2       170       325       324      1779      1780      1775
 -1       492    8    0    1
 -2       171       172       326      1317      1781      1782
 -1       493    8    0    1
 -2       171       326       325      1782      1783      1778
 -1       494    8    0    1
 -2       172       173       327      1320      1784      1785
 -1       495    8    0    1
 -2       172       327       326      1785      1786      1781
 -1       496    8    0    1
 -2       173       174       328      1323      1787      1788
 -1       497    8    0    1
 -2       173       328       327      1788      1789      1784
 -1       498    8    0    1
 -2       174       175       329      1326      1790      1791
 -1       499    8    0    1
 -2       174       329       328      1791      1792      1787
 -1       500    8    0    1
 -2       175       176       330      1329      1793      1794
 -1       501    8    0    1
 -2       175       330       329      1794      1795      1790
 -1       502    8    0    1
 -2       176       177       331      1332      1796      1797
 -1       503    8    0    1
 -2       176       331       330      1797      1798      1793
 -1       504    8    0    1
 -2       177       178       332      1335      1799      1800
 -1       505    8    0    1
 -2       177       332       331      1800      1801      1796
 -1       506    8    0    1
 -2       178       179       333      1338      1802      1803
 -1       507    8    0    1
 -2       332       178       333      1799      1803      1804
 -1       508    8    0    1
 -2       179       228       333      1487      1805      1802
 -1       509    8    0    1
 -2       180        23       164      1340      1764      1806
 -1       510    8    0    1
 -2       228       229       334      1490      1807      1808
 -1       511    8    0    1
 -2       228       334       333      1808      1809      1805
 -1       512    8    0    1
 -2       180       164       321      1806      1768      1810
 -1       513    8    0    1
 -2       182       181       335      1347      1811      1812
 -1       514    8    0    1
 -2       183       182       336      1350      1813      1814
 -1       515    8    0    1
 -2       182       335       336      1812      1815      1813
 -1       516    8    0    1
 -2       184       183       337      1353      1816      1817
 -1       517    8    0    1
 -2       183       336       337      1814      1818      1816
 -1       518    8    0    1
 -2       185       184       338      1356      1819      1820
 -1       519    8    0    1
 -2       184       337       338      1817      1821      1819
 -1       520    8    0    1
 -2       186       185       339      1359      1822      1823
 -1       521    8    0    1
 -2       185       338       339      1820      1824      1822
 -1       522    8    0    1
 -2       187       186       340      1362      1825      1826
 -1       523    8    0    1
 -2       186       339       340      1823      1827      1825
 -1       524    8    0    1
 -2       188       187       341      1365      1828      1829
 -1       525    8    0    1
 -2       187       340       341      1826      1830      1828
 -1       526    8    0    1
 -2       189       188       342      1368      1831      1832
 -1       527    8    0    1
 -2       188       341       342      1829      1833      1831
 -1       528    8    0    1
 -2       190       189       343      1371      1834      1835
 -1       529    8    0    1
 -2       189       342       343      1832      1836      1834
 -1       530    8    0    1
 -2       191       190       344      1374      1837      1838
 -1       531    8    0    1
 -2       190       343       344      1835      1839      1837
 -1       532    8    0    1
 -2       192       191       345      1377      1840      1841
 -1       533    8    0    1
 -2       191       344       345      1838      1842      1840
 -1       534    8    0    1
 -2       193       192       346      1380      1843      1844
 -1       535    8    0    1
 -2       192       345       346      1841      1845      1843
 -1       536    8    0    1
 -2       194       193       347      1383      1846      1847
 -1       537    8    0    1
 -2       193       346       347      1844      1848      1846
 -1       538    8    0    1
 -2       195       194       348      1386      1849      1850
 -1       539    8    0    1
 -2       194       347       348      1847      1851      1849
 -1       540    8    0    1
 -2       196       195       349      1389      1852      1853
 -1       541    8    0    1
 -2       195       348       349      1850      1854      1852
 -1       542    8    0    1
 -2       197       196       350      1392      1855      1856
 -1       543    8    0    1
 -2       196       349       350      1853      1857      1855
 -1       544    8    0    1
 -2       198       197       351      1395      1858      1859
 -1       545    8    0    1
 -2       197       350       351      1856      1860      1858
 -1       546    8    0    1
 -2       199       198       352      1398      1861      1862
 -1       547    8    0    1
 -2       198       351       352      1859      1863      1861
 -1       548    8    0    1
 -2       200       199       353      1401      1864      1865
 -1       549    8    0    1
 -2       199       352       353      1862      1866      1864
 -1       550    8    0    1
 -2       201       200       354      1404      1867      1868
 -1       551    8    0    1
 -2       200       353       354      1865      1869      1867
 -1       552    8    0    1
 -2       202       201       355      1407      1870      1871
 -1       553    8    0    1
 -2       201       354       355      1868      1872      1870
 -1       554    8    0    1
 -2       203       202       356      1410      1873      1874
 -1       555    8    0    1
 -2       202       355       356      1871      1875      1873
 -1       556    8    0    1
 -2       204       203       357      1413      1876      1877
 -1       557    8    0    1
 -2       203       356       357      1874      1878      1876
 -1       558    8    0    1
 -2       205       204       358      1416      1879      1880
 -1       559    8    0    1
 -2       204       357       358      1877      1881      1879
 -1       560    8    0    1
 -2       206       205       359      1419      1882      1883
 -1       561    8    0    1
 -2       205       358       359      1880      1884      1882
 -1       562    8    0    1
 -2       207       206       360      1422      1885      1886
 -1       563    8    0    1
 -2       206       359       360      1883      1887      1885
 -1       564    8    0    1
 -2       208       207       361      1425      1888      1889
 -1       565    8    0    1
 -2       207       360       361      1886      1890      1888
 -1       566    8    0    1
 -2       209       208       362      1428      1891      1892
 -1       567    8    0    1
 -2       208       361       362      1889      1893      1891
 -1       568    8    0    1
 -2       210       209       363      1431      1894      1895
 -1       569    8    0    1
 -2       209       362       363      1892      1896      1894
 -1       570    8    0    1
 -2       211       210       364      1434      1897      1898
 -1       571    8    0    1
 -2       210       363       364      1895      1899      1897
 -1       572    8    0    1
 -2       212       211       365      1437      1900      1901
 -1       573    8    0    1
 -2       211       364       365      1898      1902      1900
 -1       574    8    0    1
 -2       213       212       366      1440      1903      1904
 -1       575    8    0    1
 -2       212       365       366      1901      1905      1903
 -1       576    8    0    1
 -2       214       213       367      1443      1906      1907
 -1       577    8    0    1
 -2       213       366       367      1904      1908      1906
 -1       578    8    0    1
 -2       215       214       368      1446      1909      1910
 -1       579    8    0    1
 -2       214       367       368      1907      1911      1909
 -1       580    8    0    1
 -2       216       215       369      1449      1912      1913
 -1       581    8    0    1
 -2       215       368       369      1910      1914      1912
 -1       582    8    0    1
 -2       217       216       370      1452      1915      1916
 -1       583    8    0    1
 -2       216       369       370      1913      1917      1915
 -1       584    8    0    1
 -2       218       217       371      1455      1918      1919
 -1       585    8    0    1
 -2       217       370       371      1916      1920      1918
 -1       586    8    0    1
 -2       219       218       372      1458      1921      1922
 -1       587    8    0    1
 -2       218       371       372      1919      1923      1921
 -1       588    8    0    1
 -2       220       219       373      1461      1924      1925
 -1       589    8    0    1
 -2       219       372       373      1922      1926      1924
 -1       590    8    0    1
 -2       221       220       374      1464      1927      1928
 -1       591    8    0    1
 -2       220       373       374      1925      1929      1927
 -1       592    8    0    1
 -2       222       221       375      1467      1930      1931
 -1       593    8    0    1
 -2       221       374       375      1928      1932      1930
 -1       594    8    0    1
 -2       223       222       376      1470      1933      1934
 -1       595    8    0    1
 -2       222       375       376      1931      1935      1933
 -1       596    8    0    1
 -2       224       223       377      1473      1936      1937
 -1       597    8    0    1
 -2       223       376       377      1934      1938      1936
 -1       598    8    0    1
 -2       225       224       378      1476      1939      1940
 -1       599    8    0    1
 -2       224       377       378      1937      1941      1939
 -1       600    8    0    1
 -2       226       225       379      1479      1942      1943
 -1       601    8    0    1
 -2       225       378       379      1940      1944      1942
 -1       602    8    0    1
 -2       227       226       380      1482      1945      1946
 -1       603    8    0    1
 -2       290       227       380      1674      1946      1947
 -1       604    8    0    1
 -2       226       379       380      1943      1948      1945
 -1       605    8    0    1
 -2       229       230       381      1493      1949      1950
 -1       606    8    0    1
 -2       229       381       334      1950      1951      1807
 -1       607    8    0    1
 -2       230       231       382      1496      1952      1953
 -1       608    8    0    1
 -2       230       382       381      1953      1954      1949
 -1       609    8    0    1
 -2       231       232       383      1499      1955      1956
 -1       610    8    0    1
 -2       231       383       382      1956      1957      1952
 -1       611    8    0    1
 -2       232       233       384      1502      1958      1959
 -1       612    8    0    1
 -2       232       384       383      1959      1960      1955
 -1       613    8    0    1
 -2       233       234       385      1505      1961      1962
 -1       614    8    0    1
 -2       233       385       384      1962      1963      1958
 -1       615    8    0    1
 -2       234       235       386      1508      1964      1965
 -1       616    8    0    1
 -2       234       386       385      1965      1966      1961
 -1       617    8    0    1
 -2       235       236       387      1511      1967      1968
 -1       618    8    0    1
 -2       235       387       386      1968      1969      1964
 -1       619    8    0    1
 -2       236       237       388      1514      1970      1971
 -1       620    8    0    1
 -2       236       388       387      1971      1972      1967
 -1       621    8    0    1
 -2       237       238       389      1517      1973      1974
 -1       622    8    0    1
 -2       237       389       388      1974      1975      1970
 -1       623    8    0    1
 -2       238       239       390      1520      1976      1977
 -1       624    8    0    1
 -2       238       390       389      1977      1978      1973
 -1       625    8    0    1
 -2       239       240       391      1523      1979      1980
 -1       626    8    0    1
 -2       239       391       390      1980      1981      1976
 -1       627    8    0    1
 -2       240       241       392      1526      1982      1983
 -1       628    8    0    1
 -2       240       392       391      1983      1984      1979
 -1       629    8    0    1
 -2       241       242       393      1529      1985      1986
 -1       630    8    0    1
 -2       241       393       392      1986      1987      1982
 -1       631    8    0    1
 -2       242       243       394      1532      1988      1989
 -1       632    8    0    1
 -2       242       394       393      1989      1990      1985
 -1       633    8    0    1
 -2       243       244       395      1535      1991      1992
 -1       634    8    0    1
 -2       243       395       394      1992      1993      1988
 -1       635    8    0    1
 -2       244       245       396      1538      1994      1995
 -1       636    8    0    1
 -2       244       396       395      1995      1996      1991
 -1       637    8    0    1
 -2       245       246       397      1541      1997      1998
 -1       638    8    0    1
 -2       245       397       396      1998      1999      1994
 -1       639    8    0    1
 -2       246       247       398      1544      2000      2001
 -1       640    8    0    1
 -2       246       398       397      2001      2002      1997
 -1       641    8    0    1
 -2       247       248       399      1547      2003      2004
 -1       642    8    0    1
 -2       247       399       398      2004      2005      2000
 -1       643    8    0    1
 -2       248       249       400      1550      2006      2007
 -1       644    8    0    1
 -2       248       400       399      2007      2008      2003
 -1       645    8    0    1
 -2       249       250       401      1553      2009      2010
 -1       646    8    0    1
 -2       249       401       400      2010      2011      2006
 -1       647    8    0    1
 -2       250       251       402      1556      2012      2013
 -1       648    8    0    1
 -2       250       402       401      2013      2014      2009
 -1       649    8    0    1
 -2       251       252       403      1559      2015      2016
 -1       650    8    0    1
 -2       251       403       402      2016      2017      2012
 -1       651    8    0    1
 -2       252       253       404      1562      2018      2019
 -1       652    8    0    1
 -2       252       404       403      2019      2020      2015
 -1       653    8    0    1
 -2       253       254       405      1565      2021      2022
 -1       654    8    0    1
 -2       253       405       404      2022      2023      2018
 -1       655    8    0    1
 -2       254       255       406      1568      2024      2025
 -1       656    8    0    1
 -2       254       406       405      2025      2026      2021
 -1       657    8    0    1
 -2       255       256       407      1571      2027      2028
 -1       658    8    0    1
 -2       255       407       406      2028      2029      2024
 -1       659    8    0    1
 -2       256       257       408      1574      2030      2031
 -1       660    8    0    1
 -2       256       408       407      2031      2032      2027
 -1       661    8    0    1
 -2       257       258       409      1577      2033      2034
 -1       662    8    0    1
 -2       257       409       408      2034      2035      2030
 -1       663    8    0    1
 -2       258       259       410      1580      2036      2037
 -1       664    8    0    1
 -2       258       410       409      2037      2038      2033
 -1       665    8    0    1
 -2       259       260       411      1583      2039      2040
 -1       666    8    0    1
 -2       259       411       410      2040      2041      2036
 -1       667    8    0    1
 -2       260       261       412      1586      2042      2043
 -1       668    8    0    1
 -2       260       412       411      2043      2044      2039
 -1       669    8    0    1
 -2       261       262       413      1589      2045      2046
 -1       670    8    0    1
 -2       261       413       412      2046      2047      2042
 -1       671    8    0    1
 -2       262       263       414      1592      2048      2049
 -1       672    8    0    1
 -2       262       414       413      2049      2050      2045
 -1       673    8    0    1
 -2       263       264       415      1595      2051      2052
 -1       674    8    0    1
 -2       263       415       414      2052      2053      2048
 -1       675    8    0    1
 -2       264       265       416      1598      2054      2055
 -1       676    8    0    1
 -2       264       416       415      2055      2056      2051
 -1       677    8    0    1
 -2       265       266       417      1601      2057      2058
 -1       678    8    0    1
 -2       265       417       416      2058      2059      2054
 -1       679    8    0    1
 -2       266       267       418      1604      2060      2061
 -1       680    8    0    1
 -2       266       418       417      2061      2062      2057
 -1       681    8    0    1
 -2       267       268       419      1607      2063      2064
 -1       682    8    0    1
 -2       267       419       418      2064      2065      2060
 -1       683    8    0    1
 -2       268       269       420      1610      2066      2067
 -1       684    8    0    1
 -2       268       420       419      2067      2068      2063
 -1       685    8    0    1
 -2       269       270       421      1613      2069      2070
 -1       686    8    0    1
 -2       269       421       420      2070      2071      2066
 -1       687    8    0    1
 -2       270       271       422      1616      2072      2073
 -1       688    8    0    1
 -2       270       422       421      2073      2074      2069
 -1       689    8    0    1
 -2       271       272       423      1619      2075      2076
 -1       690    8    0    1
 -2       271       423       422      2076      2077      2072
 -1       691    8    0    1
 -2       272       273       424      1622      2078      2079
 -1       692    8    0    1
 -2       272       424       423      2079      2080      2075
 -1       693    8    0    1
 -2       273       274       425      1625      2081      2082
 -1       694    8    0    1
 -2       273       425       424      2082      2083      2078
 -1       695    8    0    1
 -2       274       275       426      1628      2084      2085
 -1       696    8    0    1
 -2       425       274       426      2081      2085      2086
 -1       697    8    0    1
 -2       275       276       426      1736      2087      2084
 -1       698    8    0    1
 -2       278       279       427      1640      2088      2089
 -1       699    8    0    1
 -2       277       278       428      1637      2090      2091
 -1       700    8    0    1
 -2       278       427       428      2089      2092      2090
 -1       701    8    0    1
 -2       276       277       429      1634      2093      2094
 -1       702    8    0    1
 -2       426       276       429      2087      2094      2095
 -1       703    8    0    1
 -2       277       428       429      2091      2096      2093
 -1       704    8    0    1
 -2       279       280       430      1643      2097      2098
 -1       705    8    0    1
 -2       279       430       427      2098      2099      2088
 -1       706    8    0    1
 -2       280       281       431      1646      2100      2101
 -1       707    8    0    1
 -2       280       431       430      2101      2102      2097
 -1       708    8    0    1
 -2       281       282       432      1649      2103      2104
 -1       709    8    0    1
 -2       281       432       431      2104      2105      2100
 -1       710    8    0    1
 -2       282       283       433      1652      2106      2107
 -1       711    8    0    1
 -2       282       433       432      2107      2108      2103
 -1       712    8    0    1
 -2       283       284       434      1655      2109      2110
 -1       713    8    0    1
 -2       283       434       433      2110      2111      2106
 -1       714    8    0    1
 -2       284       285       435      1658      2112      2113
 -1       715    8    0    1
 -2       284       435       434      2113      2114      2109
 -1       716    8    0    1
 -2       285       286       436      1661      2115      2116
 -1       717    8    0    1
 -2       285       436       435      2116      2117      2112
 -1       718    8    0    1
 -2       286       287       437      1664      2118      2119
 -1       719    8    0    1
 -2       286       437       436      2119      2120      2115
 -1       720    8    0    1
 -2       287       288       438      1667      2121      2122
 -1       721    8    0    1
 -2       287       438       437      2122      2123      2118
 -1       722    8    0    1
 -2       288       289       439      1670      2124      2125
 -1       723    8    0    1
 -2       288       439       438      2125      2126      2121
 -1       724    8    0    1
 -2       292       293       440      1738      2127      2128
 -1       725    8    0    1
 -2       319       291       441      1739      2129      2130
 -1       726    8    0    1
 -2       291       292       442      1737      2131      2132
 -1       727    8    0    1
 -2       292       440       442      2128      2133      2131
 -1       728    8    0    1
 -2       293       294       443      1734      2134      2135
 -1       729    8    0    1
 -2       294       295       444      1733      2136      2137
 -1       730    8    0    1
 -2       166       167       445      1302      2138      2139
 -1       731    8    0    1
 -2       320       166       445      1765      2139      2140
 -1       732    8    0    1
 -2       167       322       445      1771      2141      2138
 -1       733    8    0    1
 -2       296       297       446      1741      2142      2143
 -1       734    8    0    1
 -2       297       298       447      1742      2144      2145
 -1       735    8    0    1
 -2       298       299       448      1743      2146      2147
 -1       736    8    0    1
 -2       298       448       447      2147      2148      2144
 -1       737    8    0    1
 -2       299       300       449      1744      2149      2150
 -1       738    8    0    1
 -2       300       301       450      1745      2151      2152
 -1       739    8    0    1
 -2       301       302       451      1746      2153      2154
 -1       740    8    0    1
 -2       301       451       450      2154      2155      2151
 -1       741    8    0    1
 -2       302       303       452      1747      2156      2157
 -1       742    8    0    1
 -2       303       304       453      1748      2158      2159
 -1       743    8    0    1
 -2       303       453       452      2159      2160      2156
 -1       744    8    0    1
 -2       304       305       454      1749      2161      2162
 -1       745    8    0    1
 -2       305       306       455      1750      2163      2164
 -1       746    8    0    1
 -2       306       307       456      1751      2165      2166
 -1       747    8    0    1
 -2       307       308       457      1752      2167      2168
 -1       748    8    0    1
 -2       308       309       458      1753      2169      2170
 -1       749    8    0    1
 -2       308       458       457      2170      2171      2167
 -1       750    8    0    1
 -2       309       310       459      1754      2172      2173
 -1       751    8    0    1
 -2       310       311       460      1755      2174      2175
 -1       752    8    0    1
 -2       311       312       461      1756      2176      2177
 -1       753    8    0    1
 -2       312       313       462      1757      2178      2179
 -1       754    8    0    1
 -2       312       462       461      2179      2180      2176
 -1       755    8    0    1
 -2       313       314       463      1758      2181      2182
 -1       756    8    0    1
 -2       314       315       464      1759      2183      2184
 -1       757    8    0    1
 -2       315       316       465      1760      2185      2186
 -1       758    8    0    1
 -2       315       465       464      2186      2187      2183
 -1       759    8    0    1
 -2       316       317       466      1761      2188      2189
 -1       760    8    0    1
 -2       317       318       467      1762      2190      2191
 -1       761    8    0    1
 -2       318       319       468      1763      2192      2193
 -1       762    8    0    1
 -2       295       296       469      1740      2194      2195
 -1       763    8    0    1
 -2       444       295       469      2136      2195      2196
 -1       764    8    0    1
 -2       180       321       181      1810      2197      1344
 -1       765    8    0    1
 -2       296       446       469      2143      2198      2194
 -1       766    8    0    1
 -2       335       181       321      1811      2197      2199
 -1       767    8    0    1
 -2       441       291       442      2129      2132      2200
 -1       768    8    0    1
 -2       293       443       440      2135      2201      2127
 -1       769    8    0    1
 -2       439       289       290      2124      1673      2202
 -1       770    8    0    1
 -2       319       441       468      2130      2203      2192
 -1       771    8    0    1
 -2       443       294       444      2134      2137      2204
 -1       772    8    0    1
 -2       467       318       468      2190      2193      2205
 -1       773    8    0    1
 -2       465       316       466      2185      2189      2206
 -1       774    8    0    1
 -2       462       313       463      2178      2182      2207
 -1       775    8    0    1
 -2       460       311       461      2174      2177      2208
 -1       776    8    0    1
 -2       458       309       459      2169      2173      2209
 -1       777    8    0    1
 -2       456       307       457      2165      2168      2210
 -1       778    8    0    1
 -2       455       306       456      2163      2166      2211
 -1       779    8    0    1
 -2       453       304       454      2158      2162      2212
 -1       780    8    0    1
 -2       451       302       452      2153      2157      2213
 -1       781    8    0    1
 -2       448       299       449      2146      2150      2214
 -1       782    8    0    1
 -2       446       297       447      2142      2145      2215
 -1       783    8    0    1
 -2       449       300       450      2149      2152      2216
 -1       784    8    0    1
 -2       454       305       455      2161      2164      2217
 -1       785    8    0    1
 -2       459       310       460      2172      2175      2218
 -1       786    8    0    1
 -2       463       314       464      2181      2184      2219
 -1       787    8    0    1
 -2       466       317       467      2188      2191      2220
 -1       788    8    0    1
 -2       334       381       470      1951      2221      2222
 -1       789    8    0    1
 -2       323       324       471      1777      2223      2224
 -1       790    8    0    1
 -2       322       323       472      1774      2225      2226
 -1       791    8    0    1
 -2       323       471       472      2224      2227      2225
 -1       792    8    0    1
 -2       325       326       473      1783      2228      2229
 -1       793    8    0    1
 -2       326       327       474      1786      2230      2231
 -1       794    8    0    1
 -2       326       474       473      2231      2232      2228
 -1       795    8    0    1
 -2       327       328       475      1789      2233      2234
 -1       796    8    0    1
 -2       327       475       474      2234      2235      2230
 -1       797    8    0    1
 -2       328       329       476      1792      2236      2237
 -1       798    8    0    1
 -2       328       476       475      2237      2238      2233
 -1       799    8    0    1
 -2       329       330       477      1795      2239      2240
 -1       800    8    0    1
 -2       329       477       476      2240      2241      2236
 -1       801    8    0    1
 -2       330       331       478      1798      2242      2243
 -1       802    8    0    1
 -2       330       478       477      2243      2244      2239
 -1       803    8    0    1
 -2       381       382       479      1954      2245      2246
 -1       804    8    0    1
 -2       381       479       470      2246      2247      2221
 -1       805    8    0    1
 -2       336       335       480      1815      2248      2249
 -1       806    8    0    1
 -2       469       446       481      2198      2250      2251
 -1       807    8    0    1
 -2       337       336       482      1818      2252      2253
 -1       808    8    0    1
 -2       336       480       482      2249      2254      2252
 -1       809    8    0    1
 -2       338       337       483      1821      2255      2256
 -1       810    8    0    1
 -2       337       482       483      2253      2257      2255
 -1       811    8    0    1
 -2       339       338       484      1824      2258      2259
 -1       812    8    0    1
 -2       338       483       484      2256      2260      2258
 -1       813    8    0    1
 -2       340       339       485      1827      2261      2262
 -1       814    8    0    1
 -2       339       484       485      2259      2263      2261
 -1       815    8    0    1
 -2       341       340       486      1830      2264      2265
 -1       816    8    0    1
 -2       340       485       486      2262      2266      2264
 -1       817    8    0    1
 -2       342       341       487      1833      2267      2268
 -1       818    8    0    1
 -2       341       486       487      2265      2269      2267
 -1       819    8    0    1
 -2       343       342       488      1836      2270      2271
 -1       820    8    0    1
 -2       342       487       488      2268      2272      2270
 -1       821    8    0    1
 -2       344       343       489      1839      2273      2274
 -1       822    8    0    1
 -2       343       488       489      2271      2275      2273
 -1       823    8    0    1
 -2       345       344       490      1842      2276      2277
 -1       824    8    0    1
 -2       344       489       490      2274      2278      2276
 -1       825    8    0    1
 -2       346       345       491      1845      2279      2280
 -1       826    8    0    1
 -2       345       490       491      2277      2281      2279
 -1       827    8    0    1
 -2       347       346       492      1848      2282      2283
 -1       828    8    0    1
 -2       346       491       492      2280      2284      2282
 -1       829    8    0    1
 -2       348       347       493      1851      2285      2286
 -1       830    8    0    1
 -2       347       492       493      2283      2287      2285
 -1       831    8    0    1
 -2       349       348       494      1854      2288      2289
 -1       832    8    0    1
 -2       348       493       494      2286      2290      2288
 -1       833    8    0    1
 -2       350       349       495      1857      2291      2292
 -1       834    8    0    1
 -2       349       494       495      2289      2293      2291
 -1       835    8    0    1
 -2       351       350       496      1860      2294      2295
 -1       836    8    0    1
 -2       350       495       496      2292      2296      2294
 -1       837    8    0    1
 -2       352       351       497      1863      2297      2298
 -1       838    8    0    1
 -2       351       496       497      2295      2299      2297
 -1       839    8    0    1
 -2       353       352       498      1866      2300      2301
 -1       840    8    0    1
 -2       352       497       498      2298      2302      2300
 -1       841    8    0    1
 -2       354       353       499      1869      2303      2304
 -1       842    8    0    1
 -2       353       498       499      2301      2305      2303
 -1       843    8    0    1
 -2       355       354       500      1872      2306      2307
 -1       844    8    0    1
 -2       354       499       500      2304      2308      2306
 -1       845    8    0    1
 -2       356       355       501      1875      2309      2310
 -1       846    8    0    1
 -2       355       500       501      2307      2311      2309
 -1       847    8    0    1
 -2       357       356       502      1878      2312      2313
 -1       848    8    0    1
 -2       356       501       502      2310      2314      2312
 -1       849    8    0    1
 -2       358       357       503      1881      2315      2316
 -1       850    8    0    1
 -2       357       502       503      2313      2317      2315
 -1       851    8    0    1
 -2       359       358       504      1884      2318      2319
 -1       852    8    0    1
 -2       358       503       504      2316      2320      2318
 -1       853    8    0    1
 -2       360       359       505      1887      2321      2322
 -1       854    8    0    1
 -2       359       504       505      2319      2323      2321
 -1       855    8    0    1
 -2       361       360       506      1890      2324      2325
 -1       856    8    0    1
 -2       360       505       506      2322      2326      2324
 -1       857    8    0    1
 -2       362       361       507      1893      2327      2328
 -1       858    8    0    1
 -2       361       506       507      2325      2329      2327
 -1       859    8    0    1
 -2       363       362       508      1896      2330      2331
 -1       860    8    0    1
 -2       362       507       508      2328      2332      2330
 -1       861    8    0    1
 -2       364       363       509      1899      2333      2334
 -1       862    8    0    1
 -2       363       508       509      2331      2335      2333
 -1       863    8    0    1
 -2       365       364       510      1902      2336      2337
 -1       864    8    0    1
 -2       364       509       510      2334      2338      2336
 -1       865    8    0    1
 -2       366       365       511      1905      2339      2340
 -1       866    8    0    1
 -2       365       510       511      2337      2341      2339
 -1       867    8    0    1
 -2       367       366       512      1908      2342      2343
 -1       868    8    0    1
 -2       366       511       512      2340      2344      2342
 -1       869    8    0    1
 -2       368       367       513      1911      2345      2346
 -1       870    8    0    1
 -2       367       512       513      2343      2347      2345
 -1       871    8    0    1
 -2       369       368       514      1914      2348      2349
 -1       872    8    0    1
 -2       368       513       514      2346      2350      2348
 -1       873    8    0    1
 -2       370       369       515      1917      2351      2352
 -1       874    8    0    1
 -2       369       514       515      2349      2353      2351
 -1       875    8    0    1
 -2       371       370       516      1920      2354      2355
 -1       876    8    0    1
 -2       370       515       516      2352      2356      2354
 -1       877    8    0    1
 -2       372       371       517      1923      2357      2358
 -1       878    8    0    1
 -2       371       516       517      2355      2359      2357
 -1       879    8    0    1
 -2       373       372       518      1926      2360      2361
 -1       880    8    0    1
 -2       372       517       518      2358      2362      2360
 -1       881    8    0    1
 -2       374       373       519      1929      2363      2364
 -1       882    8    0    1
 -2       373       518       519      2361      2365      2363
 -1       883    8    0    1
 -2       375       374       520      1932      2366      2367
 -1       884    8    0    1
 -2       374       519       520      2364      2368      2366
 -1       885    8    0    1
 -2       376       375       521      1935      2369      2370
 -1       886    8    0    1
 -2       375       520       521      2367      2371      2369
 -1       887    8    0    1
 -2       377       376       522      1938      2372      2373
 -1       888    8    0    1
 -2       376       521       522      2370      2374      2372
 -1       889    8    0    1
 -2       378       377       523      1941      2375      2376
 -1       890    8    0    1
 -2       377       522       523      2373      2377      2375
 -1       891    8    0    1
 -2       379       378       524      1944      2378      2379
 -1       892    8    0    1
 -2       378       523       524      2376      2380      2378
 -1       893    8    0    1
 -2       442       440       525      2133      2381      2382
 -1       894    8    0    1
 -2       383       384       526      1960      2383      2384
 -1       895    8    0    1
 -2       384       385       527      1963      2385      2386
 -1       896    8    0    1
 -2       384       527       526      2386      2387      2383
 -1       897    8    0    1
 -2       385       386       528      1966      2388      2389
 -1       898    8    0    1
 -2       385       528       527      2389      2390      2385
 -1       899    8    0    1
 -2       386       387       529      1969      2391      2392
 -1       900    8    0    1
 -2       386       529       528      2392      2393      2388
 -1       901    8    0    1
 -2       387       388       530      1972      2394      2395
 -1       902    8    0    1
 -2       387       530       529      2395      2396      2391
 -1       903    8    0    1
 -2       388       389       531      1975      2397      2398
 -1       904    8    0    1
 -2       388       531       530      2398      2399      2394
 -1       905    8    0    1
 -2       389       390       532      1978      2400      2401
 -1       906    8    0    1
 -2       389       532       531      2401      2402      2397
 -1       907    8    0    1
 -2       390       391       533      1981      2403      2404
 -1       908    8    0    1
 -2       390       533       532      2404      2405      2400
 -1       909    8    0    1
 -2       391       392       534      1984      2406      2407
 -1       910    8    0    1
 -2       391       534       533      2407      2408      2403
 -1       911    8    0    1
 -2       392       393       535      1987      2409      2410
 -1       912    8    0    1
 -2       392       535       534      2410      2411      2406
 -1       913    8    0    1
 -2       393       394       536      1990      2412      2413
 -1       914    8    0    1
 -2       393       536       535      2413      2414      2409
 -1       915    8    0    1
 -2       394       395       537      1993      2415      2416
 -1       916    8    0    1
 -2       394       537       536      2416      2417      2412
 -1       917    8    0    1
 -2       395       396       538      1996      2418      2419
 -1       918    8    0    1
 -2       395       538       537      2419      2420      2415
 -1       919    8    0    1
 -2       396       397       539      1999      2421      2422
 -1       920    8    0    1
 -2       396       539       538      2422      2423      2418
 -1       921    8    0    1
 -2       397       398       540      2002      2424      2425
 -1       922    8    0    1
 -2       397       540       539      2425      2426      2421
 -1       923    8    0    1
 -2       398       399       541      2005      2427      2428
 -1       924    8    0    1
 -2       398       541       540      2428      2429      2424
 -1       925    8    0    1
 -2       399       400       542      2008      2430      2431
 -1       926    8    0    1
 -2       399       542       541      2431      2432      2427
 -1       927    8    0    1
 -2       400       401       543      2011      2433      2434
 -1       928    8    0    1
 -2       400       543       542      2434      2435      2430
 -1       929    8    0    1
 -2       401       402       544      2014      2436      2437
 -1       930    8    0    1
 -2       401       544       543      2437      2438      2433
 -1       931    8    0    1
 -2       402       403       545      2017      2439      2440
 -1       932    8    0    1
 -2       402       545       544      2440      2441      2436
 -1       933    8    0    1
 -2       403       404       546      2020      2442      2443
 -1       934    8    0    1
 -2       403       546       545      2443      2444      2439
 -1       935    8    0    1
 -2       404       405       547      2023      2445      2446
 -1       936    8    0    1
 -2       404       547       546      2446      2447      2442
 -1       937    8    0    1
 -2       405       406       548      2026      2448      2449
 -1       938    8    0    1
 -2       405       548       547      2449      2450      2445
 -1       939    8    0    1
 -2       406       407       549      2029      2451      2452
 -1       940    8    0    1
 -2       406       549       548      2452      2453      2448
 -1       941    8    0    1
 -2       407       408       550      2032      2454      2455
 -1       942    8    0    1
 -2       407       550       549      2455      2456      2451
 -1       943    8    0    1
 -2       408       409       551      2035      2457      2458
 -1       944    8    0    1
 -2       408       551       550      2458      2459      2454
 -1       945    8    0    1
 -2       409       410       552      2038      2460      2461
 -1       946    8    0    1
 -2       409       552       551      2461      2462      2457
 -1       947    8    0    1
 -2       410       411       553      2041      2463      2464
 -1       948    8    0    1
 -2       410       553       552      2464      2465      2460
 -1       949    8    0    1
 -2       411       412       554      2044      2466      2467
 -1       950    8    0    1
 -2       411       554       553      2467      2468      2463
 -1       951    8    0    1
 -2       412       413       555      2047      2469      2470
 -1       952    8    0    1
 -2       412       555       554      2470      2471      2466
 -1       953    8    0    1
 -2       413       414       556      2050      2472      2473
 -1       954    8    0    1
 -2       413       556       555      2473      2474      2469
 -1       955    8    0    1
 -2       414       415       557      2053      2475      2476
 -1       956    8    0    1
 -2       414       557       556      2476      2477      2472
 -1       957    8    0    1
 -2       415       416       558      2056      2478      2479
 -1       958    8    0    1
 -2       415       558       557      2479      2480      2475
 -1       959    8    0    1
 -2       416       417       559      2059      2481      2482
 -1       960    8    0    1
 -2       416       559       558      2482      2483      2478
 -1       961    8    0    1
 -2       417       418       560      2062      2484      2485
 -1       962    8    0    1
 -2       417       560       559      2485      2486      2481
 -1       963    8    0    1
 -2       418       419       561      2065      2487      2488
 -1       964    8    0    1
 -2       418       561       560      2488      2489      2484
 -1       965    8    0    1
 -2       419       420       562      2068      2490      2491
 -1       966    8    0    1
 -2       419       562       561      2491      2492      2487
 -1       967    8    0    1
 -2       420       421       563      2071      2493      2494
 -1       968    8    0    1
 -2       420       563       562      2494      2495      2490
 -1       969    8    0    1
 -2       421       422       564      2074      2496      2497
 -1       970    8    0    1
 -2       421       564       563      2497      2498      2493
 -1       971    8    0    1
 -2       422       423       565      2077      2499      2500
 -1       972    8    0    1
 -2       422       565       564      2500      2501      2496
 -1       973    8    0    1
 -2       423       424       566      2080      2502      2503
 -1       974    8    0    1
 -2       423       566       565      2503      2504      2499
 -1       975    8    0    1
 -2       424       425       567      2083      2505      2506
 -1       976    8    0    1
 -2       424       567       566      2506      2507      2502
 -1       977    8    0    1
 -2       425       426       429      2086      2095      2508
 -1       978    8    0    1
 -2       430       431       568      2102      2509      2510
 -1       979    8    0    1
 -2       431       432       569      2105      2511      2512
 -1       980    8    0    1
 -2       431       569       568      2512      2513      2509
 -1       981    8    0    1
 -2       428       427       570      2092      2514      2515
 -1       982    8    0    1
 -2       427       430       571      2099      2516      2517
 -1       983    8    0    1
 -2       570       427       571      2514      2517      2518
 -1       984    8    0    1
 -2       430       568       571      2510      2519      2516
 -1       985    8    0    1
 -2       432       433       572      2108      2520      2521
 -1       986    8    0    1
 -2       432       572       569      2521      2522      2511
 -1       987    8    0    1
 -2       433       434       573      2111      2523      2524
 -1       988    8    0    1
 -2       433       573       572      2524      2525      2520
 -1       989    8    0    1
 -2       434       435       574      2114      2526      2527
 -1       990    8    0    1
 -2       434       574       573      2527      2528      2523
 -1       991    8    0    1
 -2       435       436       575      2117      2529      2530
 -1       992    8    0    1
 -2       435       575       574      2530      2531      2526
 -1       993    8    0    1
 -2       436       437       576      2120      2532      2533
 -1       994    8    0    1
 -2       436       576       575      2533      2534      2529
 -1       995    8    0    1
 -2       437       438       577      2123      2535      2536
 -1       996    8    0    1
 -2       437       577       576      2536      2537      2532
 -1       997    8    0    1
 -2       438       439       578      2126      2538      2539
 -1       998    8    0    1
 -2       438       578       577      2539      2540      2535
 -1       999    8    0    1
 -2       439       290       380      2202      1947      2541
 -1      1000    8    0    1
 -2       468       441       579      2203      2542      2543
 -1      1001    8    0    1
 -2       382       383       580      1957      2544      2545
 -1      1002    8    0    1
 -2       383       526       580      2384      2546      2544
 -1      1003    8    0    1
 -2       440       443       581      2201      2547      2548
 -1      1004    8    0    1
 -2       467       468       582      2205      2549      2550
 -1      1005    8    0    1
 -2       335       321       583      2199      2551      2552
 -1      1006    8    0    1
 -2       480       335       583      2248      2552      2553
 -1      1007    8    0    1
 -2       321       320       583      1769      2554      2551
 -1      1008    8    0    1
 -2       443       444       584      2204      2555      2556
 -1      1009    8    0    1
 -2       462       463       585      2207      2557      2558
 -1      1010    8    0    1
 -2       460       461       586      2208      2559      2560
 -1      1011    8    0    1
 -2       456       457       587      2210      2561      2562
 -1      1012    8    0    1
 -2       448       449       588      2214      2563      2564
 -1      1013    8    0    1
 -2       324       325       589      1780      2565      2566
 -1      1014    8    0    1
 -2       471       324       589      2223      2566      2567
 -1      1015    8    0    1
 -2       325       473       589      2229      2568      2565
 -1      1016    8    0    1
 -2       446       447       590      2215      2569      2570
 -1      1017    8    0    1
 -2       449       450       591      2216      2571      2572
 -1      1018    8    0    1
 -2       447       448       592      2148      2573      2574
 -1      1019    8    0    1
 -2       448       588       592      2564      2575      2573
 -1      1020    8    0    1
 -2       454       455       593      2217      2576      2577
 -1      1021    8    0    1
 -2       450       451       594      2155      2578      2579
 -1      1022    8    0    1
 -2       451       452       595      2213      2580      2581
 -1      1023    8    0    1
 -2       452       453       596      2160      2582      2583
 -1      1024    8    0    1
 -2       459       460       597      2218      2584      2585
 -1      1025    8    0    1
 -2       453       454       598      2212      2586      2587
 -1      1026    8    0    1
 -2       453       598       596      2587      2588      2582
 -1      1027    8    0    1
 -2       455       456       599      2211      2589      2590
 -1      1028    8    0    1
 -2       457       458       600      2171      2591      2592
 -1      1029    8    0    1
 -2       463       464       601      2219      2593      2594
 -1      1030    8    0    1
 -2       458       459       602      2209      2595      2596
 -1      1031    8    0    1
 -2       461       462       603      2180      2597      2598
 -1      1032    8    0    1
 -2       461       603       586      2598      2599      2559
 -1      1033    8    0    1
 -2       466       467       604      2220      2600      2601
 -1      1034    8    0    1
 -2       467       582       604      2550      2602      2600
 -1      1035    8    0    1
 -2       464       465       605      2187      2603      2604
 -1      1036    8    0    1
 -2       465       466       606      2206      2605      2606
 -1      1037    8    0    1
 -2       465       606       605      2606      2607      2603
 -1      1038    8    0    1
 -2       441       442       607      2200      2608      2609
 -1      1039    8    0    1
 -2       333       334       608      1809      2610      2611
 -1      1040    8    0    1
 -2       332       333       608      1804      2611      2612
 -1      1041    8    0    1
 -2       334       470       608      2222      2613      2610
 -1      1042    8    0    1
 -2       444       469       609      2196      2614      2615
 -1      1043    8    0    1
 -2       444       609       584      2615      2616      2555
 -1      1044    8    0    1
 -2       446       590       481      2570      2617      2250
 -1      1045    8    0    1
 -2       322       472       610      2226      2618      2619
 -1      1046    8    0    1
 -2       322       610       445      2619      2620      2141
 -1      1047    8    0    1
 -2       479       382       580      2245      2545      2621
 -1      1048    8    0    1
 -2       331       332       608      1801      2612      2622
 -1      1049    8    0    1
 -2       609       469       481      2614      2251      2623
 -1      1050    8    0    1
 -2       606       466       604      2605      2601      2624
 -1      1051    8    0    1
 -2       603       462       585      2597      2558      2625
 -1      1052    8    0    1
 -2       602       459       597      2595      2585      2626
 -1      1053    8    0    1
 -2       601       464       605      2593      2604      2627
 -1      1054    8    0    1
 -2       468       579       582      2543      2628      2549
 -1      1055    8    0    1
 -2       525       440       581      2381      2548      2629
 -1      1056    8    0    1
 -2       425       429       567      2508      2630      2505
 -1      1057    8    0    1
 -2       429       428       567      2096      2631      2630
 -1      1058    8    0    1
 -2       600       458       602      2591      2596      2632
 -1      1059    8    0    1
 -2       439       380       611      2541      2633      2634
 -1      1060    8    0    1
 -2       578       439       611      2538      2634      2635
 -1      1061    8    0    1
 -2       380       379       611      1948      2636      2633
 -1      1062    8    0    1
 -2       598       454       593      2586      2577      2637
 -1      1063    8    0    1
 -2       597       460       586      2584      2560      2638
 -1      1064    8    0    1
 -2       579       441       607      2542      2609      2639
 -1      1065    8    0    1
 -2       331       608       478      2622      2640      2242
 -1      1066    8    0    1
 -2       581       443       584      2547      2556      2641
 -1      1067    8    0    1
 -2       455       599       593      2590      2642      2576
 -1      1068    8    0    1
 -2       595       452       596      2580      2583      2643
 -1      1069    8    0    1
 -2       585       463       612      2557      2644      2645
 -1      1070    8    0    1
 -2       463       601       612      2594      2646      2644
 -1      1071    8    0    1
 -2       594       451       613      2578      2647      2648
 -1      1072    8    0    1
 -2       451       595       613      2581      2649      2647
 -1      1073    8    0    1
 -2       456       587       599      2562      2650      2589
 -1      1074    8    0    1
 -2       588       449       614      2563      2651      2652
 -1      1075    8    0    1
 -2       449       591       614      2572      2653      2651
 -1      1076    8    0    1
 -2       587       457       600      2561      2592      2654
 -1      1077    8    0    1
 -2       583       320       445      2554      2140      2655
 -1      1078    8    0    1
 -2       591       450       594      2571      2579      2656
 -1      1079    8    0    1
 -2       447       592       590      2574      2657      2569
 -1      1080    8    0    1
 -2       442       525       607      2382      2658      2608
 -1      1081    8    0    1
 -2       567       428       570      2631      2515      2659
 -1      1082    8    0    1
 -2       611       379       524      2636      2379      2660
 -1      1083    8    0    1
 -2       474       475       615      2235      2661      2662
 -1      1084    8    0    1
 -2       473       474       616      2232      2663      2664
 -1      1085    8    0    1
 -2       474       615       616      2662      2665      2663
 -1      1086    8    0    1
 -2       476       477       617      2241      2666      2667
 -1      1087    8    0    1
 -2       477       478       618      2244      2668      2669
 -1      1088    8    0    1
 -2       477       618       617      2669      2670      2666
 -1      1089    8    0    1
 -2       470       479       619      2247      2671      2672
 -1      1090    8    0    1
 -2       581       584       620      2641      2673      2674
 -1      1091    8    0    1
 -2       479       580       621      2621      2675      2676
 -1      1092    8    0    1
 -2       479       621       619      2676      2677      2671
 -1      1093    8    0    1
 -2       481       590       622      2617      2678      2679
 -1      1094    8    0    1
 -2       606       604       623      2624      2680      2681
 -1      1095    8    0    1
 -2       483       482       624      2257      2682      2683
 -1      1096    8    0    1
 -2       484       483       625      2260      2684      2685
 -1      1097    8    0    1
 -2       483       624       625      2683      2686      2684
 -1      1098    8    0    1
 -2       485       484       626      2263      2687      2688
 -1      1099    8    0    1
 -2       484       625       626      2685      2689      2687
 -1      1100    8    0    1
 -2       486       485       627      2266      2690      2691
 -1      1101    8    0    1
 -2       485       626       627      2688      2692      2690
 -1      1102    8    0    1
 -2       487       486       628      2269      2693      2694
 -1      1103    8    0    1
 -2       486       627       628      2691      2695      2693
 -1      1104    8    0    1
 -2       488       487       629      2272      2696      2697
 -1      1105    8    0    1
 -2       487       628       629      2694      2698      2696
 -1      1106    8    0    1
 -2       489       488       630      2275      2699      2700
 -1      1107    8    0    1
 -2       488       629       630      2697      2701      2699
 -1      1108    8    0    1
 -2       490       489       631      2278      2702      2703
 -1      1109    8    0    1
 -2       489       630       631      2700      2704      2702
 -1      1110    8    0    1
 -2       491       490       632      2281      2705      2706
 -1      1111    8    0    1
 -2       490       631       632      2703      2707      2705
 -1      1112    8    0    1
 -2       492       491       633      2284      2708      2709
 -1      1113    8    0    1
 -2       491       632       633      2706      2710      2708
 -1      1114    8    0    1
 -2       493       492       634      2287      2711      2712
 -1      1115    8    0    1
 -2       492       633       634      2709      2713      2711
 -1      1116    8    0    1
 -2       494       493       635      2290      2714      2715
 -1      1117    8    0    1
 -2       493       634       635      2712      2716      2714
 -1      1118    8    0    1
 -2       495       494       636      2293      2717      2718
 -1      1119    8    0    1
 -2       494       635       636      2715      2719      2717
 -1      1120    8    0    1
 -2       496       495       637      2296      2720      2721
 -1      1121    8    0    1
 -2       495       636       637      2718      2722      2720
 -1      1122    8    0    1
 -2       497       496       638      2299      2723      2724
 -1      1123    8    0    1
 -2       496       637       638      2721      2725      2723
 -1      1124    8    0    1
 -2       498       497       639      2302      2726      2727
 -1      1125    8    0    1
 -2       497       638       639      2724      2728      2726
 -1      1126    8    0    1
 -2       499       498       640      2305      2729      2730
 -1      1127    8    0    1
 -2       498       639       640      2727      2731      2729
 -1      1128    8    0    1
 -2       500       499       641      2308      2732      2733
 -1      1129    8    0    1
 -2       499       640       641      2730      2734      2732
 -1      1130    8    0    1
 -2       501       500       642      2311      2735      2736
 -1      1131    8    0    1
 -2       500       641       642      2733      2737      2735
 -1      1132    8    0    1
 -2       502       501       643      2314      2738      2739
 -1      1133    8    0    1
 -2       501       642       643      2736      2740      2738
 -1      1134    8    0    1
 -2       504       503       644      2320      2741      2742
 -1      1135    8    0    1
 -2       505       504       603      2323      2743      2744
 -1      1136    8    0    1
 -2       506       505       612      2326      2745      2746
 -1      1137    8    0    1
 -2       508       507       645      2332      2747      2748
 -1      1138    8    0    1
 -2       509       508       646      2335      2749      2750
 -1      1139    8    0    1
 -2       508       645       646      2748      2751      2749
 -1      1140    8    0    1
 -2       510       509       647      2338      2752      2753
 -1      1141    8    0    1
 -2       509       646       647      2750      2754      2752
 -1      1142    8    0    1
 -2       511       510       648      2341      2755      2756
 -1      1143    8    0    1
 -2       510       647       648      2753      2757      2755
 -1      1144    8    0    1
 -2       512       511       649      2344      2758      2759
 -1      1145    8    0    1
 -2       511       648       649      2756      2760      2758
 -1      1146    8    0    1
 -2       513       512       650      2347      2761      2762
 -1      1147    8    0    1
 -2       512       649       650      2759      2763      2761
 -1      1148    8    0    1
 -2       514       513       651      2350      2764      2765
 -1      1149    8    0    1
 -2       513       650       651      2762      2766      2764
 -1      1150    8    0    1
 -2       515       514       652      2353      2767      2768
 -1      1151    8    0    1
 -2       514       651       652      2765      2769      2767
 -1      1152    8    0    1
 -2       516       515       653      2356      2770      2771
 -1      1153    8    0    1
 -2       515       652       653      2768      2772      2770
 -1      1154    8    0    1
 -2       517       516       654      2359      2773      2774
 -1      1155    8    0    1
 -2       516       653       654      2771      2775      2773
 -1      1156    8    0    1
 -2       518       517       655      2362      2776      2777
 -1      1157    8    0    1
 -2       517       654       655      2774      2778      2776
 -1      1158    8    0    1
 -2       519       518       656      2365      2779      2780
 -1      1159    8    0    1
 -2       518       655       656      2777      2781      2779
 -1      1160    8    0    1
 -2       520       519       657      2368      2782      2783
 -1      1161    8    0    1
 -2       519       656       657      2780      2784      2782
 -1      1162    8    0    1
 -2       521       520       658      2371      2785      2786
 -1      1163    8    0    1
 -2       520       657       658      2783      2787      2785
 -1      1164    8    0    1
 -2       522       521       659      2374      2788      2789
 -1      1165    8    0    1
 -2       521       658       659      2786      2790      2788
 -1      1166    8    0    1
 -2       523       522       660      2377      2791      2792
 -1      1167    8    0    1
 -2       522       659       660      2789      2793      2791
 -1      1168    8    0    1
 -2       524       523       661      2380      2794      2795
 -1      1169    8    0    1
 -2       523       660       661      2792      2796      2794
 -1      1170    8    0    1
 -2       598       593       662      2637      2797      2798
 -1      1171    8    0    1
 -2       600       602       663      2632      2799      2800
 -1      1172    8    0    1
 -2       526       527       664      2387      2801      2802
 -1      1173    8    0    1
 -2       529       530       665      2396      2803      2804
 -1      1174    8    0    1
 -2       530       531       666      2399      2805      2806
 -1      1175    8    0    1
 -2       530       666       665      2806      2807      2803
 -1      1176    8    0    1
 -2       531       532       667      2402      2808      2809
 -1      1177    8    0    1
 -2       531       667       666      2809      2810      2805
 -1      1178    8    0    1
 -2       532       533       668      2405      2811      2812
 -1      1179    8    0    1
 -2       532       668       667      2812      2813      2808
 -1      1180    8    0    1
 -2       533       534       669      2408      2814      2815
 -1      1181    8    0    1
 -2       533       669       668      2815      2816      2811
 -1      1182    8    0    1
 -2       534       535       670      2411      2817      2818
 -1      1183    8    0    1
 -2       534       670       669      2818      2819      2814
 -1      1184    8    0    1
 -2       535       536       671      2414      2820      2821
 -1      1185    8    0    1
 -2       535       671       670      2821      2822      2817
 -1      1186    8    0    1
 -2       536       537       672      2417      2823      2824
 -1      1187    8    0    1
 -2       536       672       671      2824      2825      2820
 -1      1188    8    0    1
 -2       537       538       673      2420      2826      2827
 -1      1189    8    0    1
 -2       537       673       672      2827      2828      2823
 -1      1190    8    0    1
 -2       538       539       674      2423      2829      2830
 -1      1191    8    0    1
 -2       538       674       673      2830      2831      2826
 -1      1192    8    0    1
 -2       539       540       675      2426      2832      2833
 -1      1193    8    0    1
 -2       539       675       674      2833      2834      2829
 -1      1194    8    0    1
 -2       540       541       676      2429      2835      2836
 -1      1195    8    0    1
 -2       540       676       675      2836      2837      2832
 -1      1196    8    0    1
 -2       541       542       677      2432      2838      2839
 -1      1197    8    0    1
 -2       541       677       676      2839      2840      2835
 -1      1198    8    0    1
 -2       542       543       678      2435      2841      2842
 -1      1199    8    0    1
 -2       542       678       677      2842      2843      2838
 -1      1200    8    0    1
 -2       543       544       679      2438      2844      2845
 -1      1201    8    0    1
 -2       543       679       678      2845      2846      2841
 -1      1202    8    0    1
 -2       544       545       680      2441      2847      2848
 -1      1203    8    0    1
 -2       544       680       679      2848      2849      2844
 -1      1204    8    0    1
 -2       545       546       681      2444      2850      2851
 -1      1205    8    0    1
 -2       545       681       680      2851      2852      2847
 -1      1206    8    0    1
 -2       546       547       682      2447      2853      2854
 -1      1207    8    0    1
 -2       546       682       681      2854      2855      2850
 -1      1208    8    0    1
 -2       547       548       683      2450      2856      2857
 -1      1209    8    0    1
 -2       547       683       682      2857      2858      2853
 -1      1210    8    0    1
 -2       548       549       684      2453      2859      2860
 -1      1211    8    0    1
 -2       548       684       683      2860      2861      2856
 -1      1212    8    0    1
 -2       549       550       685      2456      2862      2863
 -1      1213    8    0    1
 -2       549       685       684      2863      2864      2859
 -1      1214    8    0    1
 -2       550       551       686      2459      2865      2866
 -1      1215    8    0    1
 -2       550       686       685      2866      2867      2862
 -1      1216    8    0    1
 -2       551       552       687      2462      2868      2869
 -1      1217    8    0    1
 -2       551       687       686      2869      2870      2865
 -1      1218    8    0    1
 -2       552       553       688      2465      2871      2872
 -1      1219    8    0    1
 -2       552       688       687      2872      2873      2868
 -1      1220    8    0    1
 -2       553       554       689      2468      2874      2875
 -1      1221    8    0    1
 -2       553       689       688      2875      2876      2871
 -1      1222    8    0    1
 -2       554       555       690      2471      2877      2878
 -1      1223    8    0    1
 -2       554       690       689      2878      2879      2874
 -1      1224    8    0    1
 -2       555       556       691      2474      2880      2881
 -1      1225    8    0    1
 -2       555       691       690      2881      2882      2877
 -1      1226    8    0    1
 -2       556       557       692      2477      2883      2884
 -1      1227    8    0    1
 -2       556       692       691      2884      2885      2880
 -1      1228    8    0    1
 -2       557       558       693      2480      2886      2887
 -1      1229    8    0    1
 -2       557       693       692      2887      2888      2883
 -1      1230    8    0    1
 -2       558       559       694      2483      2889      2890
 -1      1231    8    0    1
 -2       558       694       693      2890      2891      2886
 -1      1232    8    0    1
 -2       559       560       695      2486      2892      2893
 -1      1233    8    0    1
 -2       559       695       694      2893      2894      2889
 -1      1234    8    0    1
 -2       560       561       696      2489      2895      2896
 -1      1235    8    0    1
 -2       560       696       695      2896      2897      2892
 -1      1236    8    0    1
 -2       561       562       697      2492      2898      2899
 -1      1237    8    0    1
 -2       561       697       696      2899      2900      2895
 -1      1238    8    0    1
 -2       562       563       698      2495      2901      2902
 -1      1239    8    0    1
 -2       562       698       697      2902      2903      2898
 -1      1240    8    0    1
 -2       563       564       699      2498      2904      2905
 -1      1241    8    0    1
 -2       563       699       698      2905      2906      2901
 -1      1242    8    0    1
 -2       564       565       700      2501      2907      2908
 -1      1243    8    0    1
 -2       564       700       699      2908      2909      2904
 -1      1244    8    0    1
 -2       565       566       701      2504      2910      2911
 -1      1245    8    0    1
 -2       565       701       700      2911      2912      2907
 -1      1246    8    0    1
 -2       566       567       702      2507      2913      2914
 -1      1247    8    0    1
 -2       701       566       702      2910      2914      2915
 -1      1248    8    0    1
 -2       567       570       702      2659      2916      2913
 -1      1249    8    0    1
 -2       572       573       703      2525      2917      2918
 -1      1250    8    0    1
 -2       611       524       704      2660      2919      2920
 -1      1251    8    0    1
 -2       578       611       704      2635      2920      2921
 -1      1252    8    0    1
 -2       524       661       704      2795      2922      2919
 -1      1253    8    0    1
 -2       568       569       705      2513      2923      2924
 -1      1254    8    0    1
 -2       573       574       706      2528      2925      2926
 -1      1255    8    0    1
 -2       573       706       703      2926      2927      2917
 -1      1256    8    0    1
 -2       569       572       707      2522      2928      2929
 -1      1257    8    0    1
 -2       705       569       707      2923      2929      2930
 -1      1258    8    0    1
 -2       572       703       707      2918      2931      2928
 -1      1259    8    0    1
 -2       525       581       708      2629      2932      2933
 -1      1260    8    0    1
 -2       574       575       709      2531      2934      2935
 -1      1261    8    0    1
 -2       574       709       706      2935      2936      2925
 -1      1262    8    0    1
 -2       575       576       710      2534      2937      2938
 -1      1263    8    0    1
 -2       575       710       709      2938      2939      2934
 -1      1264    8    0    1
 -2       576       577       711      2537      2940      2941
 -1      1265    8    0    1
 -2       576       711       710      2941      2942      2937
 -1      1266    8    0    1
 -2       577       578       704      2540      2921      2943
 -1      1267    8    0    1
 -2       580       526       712      2546      2944      2945
 -1      1268    8    0    1
 -2       621       580       712      2675      2945      2946
 -1      1269    8    0    1
 -2       526       664       712      2802      2947      2944
 -1      1270    8    0    1
 -2       582       579       713      2628      2948      2949
 -1      1271    8    0    1
 -2       480       583       714      2553      2950      2951
 -1      1272    8    0    1
 -2       608       470       478      2613      2952      2640
 -1      1273    8    0    1
 -2       602       597       715      2626      2953      2954
 -1      1274    8    0    1
 -2       592       588       716      2575      2955      2956
 -1      1275    8    0    1
 -2       579       607       717      2639      2957      2958
 -1      1276    8    0    1
 -2       579       717       713      2958      2959      2948
 -1      1277    8    0    1
 -2       597       586       718      2638      2960      2961
 -1      1278    8    0    1
 -2       597       718       715      2961      2962      2953
 -1      1279    8    0    1
 -2       528       529       719      2393      2963      2964
 -1      1280    8    0    1
 -2       529       665       719      2804      2965      2963
 -1      1281    8    0    1
 -2       527       528       720      2390      2966      2967
 -1      1282    8    0    1
 -2       528       719       720      2964      2968      2966
 -1      1283    8    0    1
 -2       593       599       721      2642      2969      2970
 -1      1284    8    0    1
 -2       591       594       722      2656      2971      2972
 -1      1285    8    0    1
 -2       482       480       723      2254      2973      2974
 -1      1286    8    0    1
 -2       624       482       723      2682      2974      2975
 -1      1287    8    0    1
 -2       480       714       723      2951      2976      2973
 -1      1288    8    0    1
 -2       587       600       724      2654      2977      2978
 -1      1289    8    0    1
 -2       595       596       725      2643      2979      2980
 -1      1290    8    0    1
 -2       590       592       726      2657      2981      2982
 -1      1291    8    0    1
 -2       599       587       727      2650      2983      2984
 -1      1292    8    0    1
 -2       601       605       728      2627      2985      2986
 -1      1293    8    0    1
 -2       475       476       729      2238      2987      2988
 -1      1294    8    0    1
 -2       615       475       729      2661      2988      2989
 -1      1295    8    0    1
 -2       476       617       729      2667      2990      2987
 -1      1296    8    0    1
 -2       596       598       730      2588      2991      2992
 -1      1297    8    0    1
 -2       583       445       714      2655      2993      2950
 -1      1298    8    0    1
 -2       472       471       731      2227      2994      2995
 -1      1299    8    0    1
 -2       586       603       644      2599      2996      2997
 -1      1300    8    0    1
 -2       604       582       732      2602      2998      2999
 -1      1301    8    0    1
 -2       607       525       733      2658      3000      3001
 -1      1302    8    0    1
 -2       605       606       734      2607      3002      3003
 -1      1303    8    0    1
 -2       584       609       735      2616      3004      3005
 -1      1304    8    0    1
 -2       609       481       736      2623      3006      3007
 -1      1305    8    0    1
 -2       610       472       737      2618      3008      3009
 -1      1306    8    0    1
 -2       472       731       737      2995      3010      3008
 -1      1307    8    0    1
 -2       473       616       738      2664      3011      3012
 -1      1308    8    0    1
 -2       473       738       589      3012      3013      2568
 -1      1309    8    0    1
 -2       481       622       736      2679      3014      3006
 -1      1310    8    0    1
 -2       735       609       736      3004      3007      3015
 -1      1311    8    0    1
 -2       734       606       623      3002      2681      3016
 -1      1312    8    0    1
 -2       733       525       708      3000      2933      3017
 -1      1313    8    0    1
 -2       732       582       713      2998      2949      3018
 -1      1314    8    0    1
 -2       622       590       726      2678      2982      3019
 -1      1315    8    0    1
 -2       504       644       603      2742      2996      2743
 -1      1316    8    0    1
 -2       596       730       725      2992      3020      2979
 -1      1317    8    0    1
 -2       728       605       734      2985      3003      3021
 -1      1318    8    0    1
 -2       727       587       724      2983      2978      3022
 -1      1319    8    0    1
 -2       503       502       739      2317      3023      3024
 -1      1320    8    0    1
 -2       505       603       585      2744      2625      3025
 -1      1321    8    0    1
 -2       568       705       740      2924      3026      3027
 -1      1322    8    0    1
 -2       568       740       571      3027      3028      2519
 -1      1323    8    0    1
 -2       507       506       741      2329      3029      3030
 -1      1324    8    0    1
 -2       598       662       730      2798      3031      2991
 -1      1325    8    0    1
 -2       662       593       721      2797      2970      3032
 -1      1326    8    0    1
 -2       726       592       716      2981      2956      3033
 -1      1327    8    0    1
 -2       600       663       724      2800      3034      2977
 -1      1328    8    0    1
 -2       527       720       664      2967      3035      2801
 -1      1329    8    0    1
 -2       570       571       742      2518      3036      3037
 -1      1330    8    0    1
 -2       702       570       742      2916      3037      3038
 -1      1331    8    0    1
 -2       571       740       742      3028      3039      3036
 -1      1332    8    0    1
 -2       722       594       743      2971      3040      3041
 -1      1333    8    0    1
 -2       594       613       743      2648      3042      3040
 -1      1334    8    0    1
 -2       577       704       744      2943      3043      3044
 -1      1335    8    0    1
 -2       711       577       744      2940      3044      3045
 -1      1336    8    0    1
 -2       704       661       744      2922      3046      3043
 -1      1337    8    0    1
 -2       716       588       745      2955      3047      3048
 -1      1338    8    0    1
 -2       588       614       745      2652      3049      3047
 -1      1339    8    0    1
 -2       717       607       746      2957      3050      3051
 -1      1340    8    0    1
 -2       607       733       746      3001      3052      3050
 -1      1341    8    0    1
 -2       663       602       715      2799      2954      3053
 -1      1342    8    0    1
 -2       645       507       741      2747      3030      3054
 -1      1343    8    0    1
 -2       612       505       585      2745      3025      2645
 -1      1344    8    0    1
 -2       503       739       644      3024      3055      2741
 -1      1345    8    0    1
 -2       478       470       619      2952      2672      3056
 -1      1346    8    0    1
 -2       613       595       725      2649      2980      3057
 -1      1347    8    0    1
 -2       614       591       747      2653      3058      3059
 -1      1348    8    0    1
 -2       591       722       747      2972      3060      3058
 -1      1349    8    0    1
 -2       623       604       732      2680      2999      3061
 -1      1350    8    0    1
 -2       471       589       748      2567      3062      3063
 -1      1351    8    0    1
 -2       731       471       748      2994      3063      3064
 -1      1352    8    0    1
 -2       589       738       748      3013      3065      3062
 -1      1353    8    0    1
 -2       721       599       727      2969      2984      3066
 -1      1354    8    0    1
 -2       620       584       735      2673      3005      3067
 -1      1355    8    0    1
 -2       445       610       714      2620      3068      2993
 -1      1356    8    0    1
 -2       618       478       619      2668      3056      3069
 -1      1357    8    0    1
 -2       739       502       643      3023      2739      3070
 -1      1358    8    0    1
 -2       741       506       612      3029      2746      3071
 -1      1359    8    0    1
 -2       613       725       749      3057      3072      3073
 -1      1360    8    0    1
 -2       617       618       750      2670      3074      3075
 -1      1361    8    0    1
 -2       581       620       708      2674      3076      2932
 -1      1362    8    0    1
 -2       735       736       751      3015      3077      3078
 -1      1363    8    0    1
 -2       733       708       752      3017      3079      3080
 -1      1364    8    0    1
 -2       626       625       753      2689      3081      3082
 -1      1365    8    0    1
 -2       627       626       754      2692      3083      3084
 -1      1366    8    0    1
 -2       626       753       754      3082      3085      3083
 -1      1367    8    0    1
 -2       628       627       755      2695      3086      3087
 -1      1368    8    0    1
 -2       627       754       755      3084      3088      3086
 -1      1369    8    0    1
 -2       629       628       756      2698      3089      3090
 -1      1370    8    0    1
 -2       628       755       756      3087      3091      3089
 -1      1371    8    0    1
 -2       630       629       757      2701      3092      3093
 -1      1372    8    0    1
 -2       629       756       757      3090      3094      3092
 -1      1373    8    0    1
 -2       631       630       758      2704      3095      3096
 -1      1374    8    0    1
 -2       630       757       758      3093      3097      3095
 -1      1375    8    0    1
 -2       632       631       759      2707      3098      3099
 -1      1376    8    0    1
 -2       631       758       759      3096      3100      3098
 -1      1377    8    0    1
 -2       633       632       760      2710      3101      3102
 -1      1378    8    0    1
 -2       632       759       760      3099      3103      3101
 -1      1379    8    0    1
 -2       634       633       761      2713      3104      3105
 -1      1380    8    0    1
 -2       633       760       761      3102      3106      3104
 -1      1381    8    0    1
 -2       635       634       762      2716      3107      3108
 -1      1382    8    0    1
 -2       634       761       762      3105      3109      3107
 -1      1383    8    0    1
 -2       636       635       763      2719      3110      3111
 -1      1384    8    0    1
 -2       635       762       763      3108      3112      3110
 -1      1385    8    0    1
 -2       637       636       764      2722      3113      3114
 -1      1386    8    0    1
 -2       636       763       764      3111      3115      3113
 -1      1387    8    0    1
 -2       638       637       765      2725      3116      3117
 -1      1388    8    0    1
 -2       637       764       765      3114      3118      3116
 -1      1389    8    0    1
 -2       639       638       766      2728      3119      3120
 -1      1390    8    0    1
 -2       638       765       766      3117      3121      3119
 -1      1391    8    0    1
 -2       640       639       767      2731      3122      3123
 -1      1392    8    0    1
 -2       639       766       767      3120      3124      3122
 -1      1393    8    0    1
 -2       641       640       768      2734      3125      3126
 -1      1394    8    0    1
 -2       640       767       768      3123      3127      3125
 -1      1395    8    0    1
 -2       642       641       769      2737      3128      3129
 -1      1396    8    0    1
 -2       641       768       769      3126      3130      3128
 -1      1397    8    0    1
 -2       730       662       770      3031      3131      3132
 -1      1398    8    0    1
 -2       647       646       771      2754      3133      3134
 -1      1399    8    0    1
 -2       648       647       772      2757      3135      3136
 -1      1400    8    0    1
 -2       647       771       772      3134      3137      3135
 -1      1401    8    0    1
 -2       649       648       773      2760      3138      3139
 -1      1402    8    0    1
 -2       648       772       773      3136      3140      3138
 -1      1403    8    0    1
 -2       650       649       774      2763      3141      3142
 -1      1404    8    0    1
 -2       649       773       774      3139      3143      3141
 -1      1405    8    0    1
 -2       651       650       775      2766      3144      3145
 -1      1406    8    0    1
 -2       650       774       775      3142      3146      3144
 -1      1407    8    0    1
 -2       652       651       776      2769      3147      3148
 -1      1408    8    0    1
 -2       651       775       776      3145      3149      3147
 -1      1409    8    0    1
 -2       653       652       777      2772      3150      3151
 -1      1410    8    0    1
 -2       652       776       777      3148      3152      3150
 -1      1411    8    0    1
 -2       654       653       778      2775      3153      3154
 -1      1412    8    0    1
 -2       653       777       778      3151      3155      3153
 -1      1413    8    0    1
 -2       655       654       779      2778      3156      3157
 -1      1414    8    0    1
 -2       654       778       779      3154      3158      3156
 -1      1415    8    0    1
 -2       656       655       780      2781      3159      3160
 -1      1416    8    0    1
 -2       655       779       780      3157      3161      3159
 -1      1417    8    0    1
 -2       657       656       781      2784      3162      3163
 -1      1418    8    0    1
 -2       656       780       781      3160      3164      3162
 -1      1419    8    0    1
 -2       658       657       782      2787      3165      3166
 -1      1420    8    0    1
 -2       657       781       782      3163      3167      3165
 -1      1421    8    0    1
 -2       659       658       783      2790      3168      3169
 -1      1422    8    0    1
 -2       658       782       783      3166      3170      3168
 -1      1423    8    0    1
 -2       660       659       784      2793      3171      3172
 -1      1424    8    0    1
 -2       659       783       784      3169      3173      3171
 -1      1425    8    0    1
 -2       661       660       785      2796      3174      3175
 -1      1426    8    0    1
 -2       744       661       785      3046      3175      3176
 -1      1427    8    0    1
 -2       660       784       785      3172      3177      3174
 -1      1428    8    0    1
 -2       622       726       786      3019      3178      3179
 -1      1429    8    0    1
 -2       665       666       787      2807      3180      3181
 -1      1430    8    0    1
 -2       668       669       788      2816      3182      3183
 -1      1431    8    0    1
 -2       669       670       789      2819      3184      3185
 -1      1432    8    0    1
 -2       669       789       788      3185      3186      3182
 -1      1433    8    0    1
 -2       670       671       790      2822      3187      3188
 -1      1434    8    0    1
 -2       670       790       789      3188      3189      3184
 -1      1435    8    0    1
 -2       671       672       791      2825      3190      3191
 -1      1436    8    0    1
 -2       671       791       790      3191      3192      3187
 -1      1437    8    0    1
 -2       672       673       792      2828      3193      3194
 -1      1438    8    0    1
 -2       672       792       791      3194      3195      3190
 -1      1439    8    0    1
 -2       673       674       793      2831      3196      3197
 -1      1440    8    0    1
 -2       673       793       792      3197      3198      3193
 -1      1441    8    0    1
 -2       674       675       794      2834      3199      3200
 -1      1442    8    0    1
 -2       674       794       793      3200      3201      3196
 -1      1443    8    0    1
 -2       675       676       795      2837      3202      3203
 -1      1444    8    0    1
 -2       675       795       794      3203      3204      3199
 -1      1445    8    0    1
 -2       676       677       796      2840      3205      3206
 -1      1446    8    0    1
 -2       676       796       795      3206      3207      3202
 -1      1447    8    0    1
 -2       677       678       797      2843      3208      3209
 -1      1448    8    0    1
 -2       677       797       796      3209      3210      3205
 -1      1449    8    0    1
 -2       678       679       798      2846      3211      3212
 -1      1450    8    0    1
 -2       678       798       797      3212      3213      3208
 -1      1451    8    0    1
 -2       679       680       799      2849      3214      3215
 -1      1452    8    0    1
 -2       679       799       798      3215      3216      3211
 -1      1453    8    0    1
 -2       680       681       745      2852      3217      3218
 -1      1454    8    0    1
 -2       682       683       800      2858      3219      3220
 -1      1455    8    0    1
 -2       684       685       801      2864      3221      3222
 -1      1456    8    0    1
 -2       685       686       802      2867      3223      3224
 -1      1457    8    0    1
 -2       685       802       801      3224      3225      3221
 -1      1458    8    0    1
 -2       686       687       803      2870      3226      3227
 -1      1459    8    0    1
 -2       686       803       802      3227      3228      3223
 -1      1460    8    0    1
 -2       687       688       804      2873      3229      3230
 -1      1461    8    0    1
 -2       687       804       803      3230      3231      3226
 -1      1462    8    0    1
 -2       688       689       805      2876      3232      3233
 -1      1463    8    0    1
 -2       688       805       804      3233      3234      3229
 -1      1464    8    0    1
 -2       689       690       806      2879      3235      3236
 -1      1465    8    0    1
 -2       689       806       805      3236      3237      3232
 -1      1466    8    0    1
 -2       690       691       807      2882      3238      3239
 -1      1467    8    0    1
 -2       690       807       806      3239      3240      3235
 -1      1468    8    0    1
 -2       691       692       808      2885      3241      3242
 -1      1469    8    0    1
 -2       691       808       807      3242      3243      3238
 -1      1470    8    0    1
 -2       692       693       809      2888      3244      3245
 -1      1471    8    0    1
 -2       692       809       808      3245      3246      3241
 -1      1472    8    0    1
 -2       693       694       810      2891      3247      3248
 -1      1473    8    0    1
 -2       693       810       809      3248      3249      3244
 -1      1474    8    0    1
 -2       694       695       811      2894      3250      3251
 -1      1475    8    0    1
 -2       694       811       810      3251      3252      3247
 -1      1476    8    0    1
 -2       695       696       812      2897      3253      3254
 -1      1477    8    0    1
 -2       695       812       811      3254      3255      3250
 -1      1478    8    0    1
 -2       696       697       813      2900      3256      3257
 -1      1479    8    0    1
 -2       696       813       812      3257      3258      3253
 -1      1480    8    0    1
 -2       697       698       814      2903      3259      3260
 -1      1481    8    0    1
 -2       697       814       813      3260      3261      3256
 -1      1482    8    0    1
 -2       698       699       815      2906      3262      3263
 -1      1483    8    0    1
 -2       698       815       814      3263      3264      3259
 -1      1484    8    0    1
 -2       699       700       816      2909      3265      3266
 -1      1485    8    0    1
 -2       699       816       815      3266      3267      3262
 -1      1486    8    0    1
 -2       700       701       817      2912      3268      3269
 -1      1487    8    0    1
 -2       700       817       816      3269      3270      3265
 -1      1488    8    0    1
 -2       701       702       818      2915      3271      3272
 -1      1489    8    0    1
 -2       817       701       818      3268      3272      3273
 -1      1490    8    0    1
 -2       702       742       818      3038      3274      3271
 -1      1491    8    0    1
 -2       616       615       819      2665      3275      3276
 -1      1492    8    0    1
 -2       709       710       820      2939      3277      3278
 -1      1493    8    0    1
 -2       703       706       821      2927      3279      3280
 -1      1494    8    0    1
 -2       710       711       822      2942      3281      3282
 -1      1495    8    0    1
 -2       710       822       820      3282      3283      3277
 -1      1496    8    0    1
 -2       706       709       823      2936      3284      3285
 -1      1497    8    0    1
 -2       821       706       823      3279      3285      3286
 -1      1498    8    0    1
 -2       709       820       823      3278      3287      3284
 -1      1499    8    0    1
 -2       662       721       824      3032      3288      3289
 -1      1500    8    0    1
 -2       667       668       825      2813      3290      3291
 -1      1501    8    0    1
 -2       668       788       825      3183      3292      3290
 -1      1502    8    0    1
 -2       721       727       826      3066      3293      3294
 -1      1503    8    0    1
 -2       666       667       827      2810      3295      3296
 -1      1504    8    0    1
 -2       787       666       827      3180      3296      3297
 -1      1505    8    0    1
 -2       667       825       827      3291      3298      3295
 -1      1506    8    0    1
 -2       612       601       741      2646      3299      3071
 -1      1507    8    0    1
 -2       726       716       828      3033      3300      3301
 -1      1508    8    0    1
 -2       724       663       829      3034      3302      3303
 -1      1509    8    0    1
 -2       725       730       830      3020      3304      3305
 -1      1510    8    0    1
 -2       713       717       831      2959      3306      3307
 -1      1511    8    0    1
 -2       718       586       644      2960      2997      3308
 -1      1512    8    0    1
 -2       736       622       832      3014      3309      3310
 -1      1513    8    0    1
 -2       625       624       833      2686      3311      3312
 -1      1514    8    0    1
 -2       625       833       753      3312      3313      3081
 -1      1515    8    0    1
 -2       664       720       834      3035      3314      3315
 -1      1516    8    0    1
 -2       719       665       835      2965      3316      3317
 -1      1517    8    0    1
 -2       665       787       835      3181      3318      3316
 -1      1518    8    0    1
 -2       720       719       836      2968      3319      3320
 -1      1519    8    0    1
 -2       719       835       836      3317      3321      3319
 -1      1520    8    0    1
 -2       623       732       837      3061      3322      3323
 -1      1521    8    0    1
 -2       620       735       838      3067      3324      3325
 -1      1522    8    0    1
 -2       601       728       741      2986      3326      3299
 -1      1523    8    0    1
 -2       618       619       839      3069      3327      3328
 -1      1524    8    0    1
 -2       750       618       839      3074      3328      3329
 -1      1525    8    0    1
 -2       619       621       839      2677      3330      3327
 -1      1526    8    0    1
 -2       727       724       840      3022      3331      3332
 -1      1527    8    0    1
 -2       714       610       737      3068      3009      3333
 -1      1528    8    0    1
 -2       734       623       841      3016      3334      3335
 -1      1529    8    0    1
 -2       732       713       842      3018      3336      3337
 -1      1530    8    0    1
 -2       732       842       837      3337      3338      3322
 -1      1531    8    0    1
 -2       708       620       843      3076      3339      3340
 -1      1532    8    0    1
 -2       738       616       844      3011      3341      3342
 -1      1533    8    0    1
 -2       616       819       844      3276      3343      3341
 -1      1534    8    0    1
 -2       737       731       845      3010      3344      3345
 -1      1535    8    0    1
 -2       617       750       846      3075      3346      3347
 -1      1536    8    0    1
 -2       617       846       729      3347      3348      2990
 -1      1537    8    0    1
 -2       751       736       832      3077      3310      3349
 -1      1538    8    0    1
 -2       727       840       826      3332      3350      3293
 -1      1539    8    0    1
 -2       733       752       847      3080      3351      3352
 -1      1540    8    0    1
 -2       733       847       746      3352      3353      3052
 -1      1541    8    0    1
 -2       642       769       829      3129      3354      3355
 -1      1542    8    0    1
 -2       840       724       829      3331      3303      3356
 -1      1543    8    0    1
 -2       726       828       786      3301      3357      3178
 -1      1544    8    0    1
 -2       730       770       830      3132      3358      3304
 -1      1545    8    0    1
 -2       770       662       848      3131      3359      3360
 -1      1546    8    0    1
 -2       662       824       848      3289      3361      3359
 -1      1547    8    0    1
 -2       643       642       663      2740      3362      3363
 -1      1548    8    0    1
 -2       739       643       715      3070      3364      3365
 -1      1549    8    0    1
 -2       740       705       849      3026      3366      3367
 -1      1550    8    0    1
 -2       613       749       743      3073      3368      3042
 -1      1551    8    0    1
 -2       749       725       830      3072      3305      3369
 -1      1552    8    0    1
 -2       622       786       832      3179      3370      3309
 -1      1553    8    0    1
 -2       720       836       834      3320      3371      3314
 -1      1554    8    0    1
 -2       721       826       824      3294      3372      3288
 -1      1555    8    0    1
 -2       680       745       799      3218      3373      3214
 -1      1556    8    0    1
 -2       681       682       850      2855      3374      3375
 -1      1557    8    0    1
 -2       683       684       851      2861      3376      3377
 -1      1558    8    0    1
 -2       819       615       852      3275      3378      3379
 -1      1559    8    0    1
 -2       615       729       852      2989      3380      3378
 -1      1560    8    0    1
 -2       705       707       853      2930      3381      3382
 -1      1561    8    0    1
 -2       705       853       849      3382      3383      3366
 -1      1562    8    0    1
 -2       716       745       850      3048      3384      3385
 -1      1563    8    0    1
 -2       723       714       737      2976      3333      3386
 -1      1564    8    0    1
 -2       643       663       715      3363      3053      3364
 -1      1565    8    0    1
 -2       845       731       854      3344      3387      3388
 -1      1566    8    0    1
 -2       731       748       854      3064      3389      3387
 -1      1567    8    0    1
 -2       716       850       828      3385      3390      3300
 -1      1568    8    0    1
 -2       663       642       829      3362      3355      3302
 -1      1569    8    0    1
 -2       739       715       718      3365      2962      3391
 -1      1570    8    0    1
 -2       851       684       801      3376      3222      3392
 -1      1571    8    0    1
 -2       683       851       800      3377      3393      3219
 -1      1572    8    0    1
 -2       621       712       855      2946      3394      3395
 -1      1573    8    0    1
 -2       621       855       839      3395      3396      3330
 -1      1574    8    0    1
 -2       707       703       856      2931      3397      3398
 -1      1575    8    0    1
 -2       853       707       856      3381      3398      3399
 -1      1576    8    0    1
 -2       703       821       856      3280      3400      3397
 -1      1577    8    0    1
 -2       838       735       751      3324      3078      3401
 -1      1578    8    0    1
 -2       745       614       747      3049      3059      3402
 -1      1579    8    0    1
 -2       712       664       857      2947      3403      3404
 -1      1580    8    0    1
 -2       855       712       857      3394      3404      3405
 -1      1581    8    0    1
 -2       664       834       857      3315      3406      3403
 -1      1582    8    0    1
 -2       833       624       858      3311      3407      3408
 -1      1583    8    0    1
 -2       624       723       858      2975      3409      3407
 -1      1584    8    0    1
 -2       831       717       859      3306      3410      3411
 -1      1585    8    0    1
 -2       717       746       859      3051      3412      3410
 -1      1586    8    0    1
 -2       646       645       841      2751      3413      3414
 -1      1587    8    0    1
 -2       747       722       860      3060      3415      3416
 -1      1588    8    0    1
 -2       713       831       861      3307      3417      3418
 -1      1589    8    0    1
 -2       713       861       842      3418      3419      3336
 -1      1590    8    0    1
 -2       623       837       841      3323      3420      3334
 -1      1591    8    0    1
 -2       722       743       860      3041      3421      3415
 -1      1592    8    0    1
 -2       708       843       862      3340      3422      3423
 -1      1593    8    0    1
 -2       708       862       752      3423      3424      3079
 -1      1594    8    0    1
 -2       771       646       841      3133      3414      3425
 -1      1595    8    0    1
 -2       620       838       843      3325      3426      3339
 -1      1596    8    0    1
 -2       711       744       863      3045      3427      3428
 -1      1597    8    0    1
 -2       822       711       863      3281      3428      3429
 -1      1598    8    0    1
 -2       744       785       863      3176      3430      3427
 -1      1599    8    0    1
 -2       734       841       645      3335      3413      3431
 -1      1600    8    0    1
 -2       829       769       840      3354      3432      3356
 -1      1601    8    0    1
 -2       755       754       864      3088      3433      3434
 -1      1602    8    0    1
 -2       756       755       865      3091      3435      3436
 -1      1603    8    0    1
 -2       755       864       865      3434      3437      3435
 -1      1604    8    0    1
 -2       757       756       866      3094      3438      3439
 -1      1605    8    0    1
 -2       756       865       866      3436      3440      3438
 -1      1606    8    0    1
 -2       758       757       867      3097      3441      3442
 -1      1607    8    0    1
 -2       757       866       867      3439      3443      3441
 -1      1608    8    0    1
 -2       759       758       868      3100      3444      3445
 -1      1609    8    0    1
 -2       758       867       868      3442      3446      3444
 -1      1610    8    0    1
 -2       760       759       869      3103      3447      3448
 -1      1611    8    0    1
 -2       759       868       869      3445      3449      3447
 -1      1612    8    0    1
 -2       761       760       870      3106      3450      3451
 -1      1613    8    0    1
 -2       760       869       870      3448      3452      3450
 -1      1614    8    0    1
 -2       762       761       871      3109      3453      3454
 -1      1615    8    0    1
 -2       761       870       871      3451      3455      3453
 -1      1616    8    0    1
 -2       763       762       872      3112      3456      3457
 -1      1617    8    0    1
 -2       762       871       872      3454      3458      3456
 -1      1618    8    0    1
 -2       764       763       873      3115      3459      3460
 -1      1619    8    0    1
 -2       763       872       873      3457      3461      3459
 -1      1620    8    0    1
 -2       765       764       874      3118      3462      3463
 -1      1621    8    0    1
 -2       764       873       874      3460      3464      3462
 -1      1622    8    0    1
 -2       766       765       875      3121      3465      3466
 -1      1623    8    0    1
 -2       765       874       875      3463      3467      3465
 -1      1624    8    0    1
 -2       767       766       876      3124      3468      3469
 -1      1625    8    0    1
 -2       766       875       876      3466      3470      3468
 -1      1626    8    0    1
 -2       768       767       877      3127      3471      3472
 -1      1627    8    0    1
 -2       767       876       877      3469      3473      3471
 -1      1628    8    0    1
 -2       769       768       878      3130      3474      3475
 -1      1629    8    0    1
 -2       840       769       878      3432      3475      3476
 -1      1630    8    0    1
 -2       768       877       878      3472      3477      3474
 -1      1631    8    0    1
 -2       803       804       879      3231      3478      3479
 -1      1632    8    0    1
 -2       743       749       880      3368      3480      3481
 -1      1633    8    0    1
 -2       734       645       728      3431      3482      3021
 -1      1634    8    0    1
 -2       773       772       881      3140      3483      3484
 -1      1635    8    0    1
 -2       774       773       882      3143      3485      3486
 -1      1636    8    0    1
 -2       773       881       882      3484      3487      3485
 -1      1637    8    0    1
 -2       775       774       883      3146      3488      3489
 -1      1638    8    0    1
 -2       774       882       883      3486      3490      3488
 -1      1639    8    0    1
 -2       776       775       884      3149      3491      3492
 -1      1640    8    0    1
 -2       775       883       884      3489      3493      3491
 -1      1641    8    0    1
 -2       777       776       885      3152      3494      3495
 -1      1642    8    0    1
 -2       776       884       885      3492      3496      3494
 -1      1643    8    0    1
 -2       778       777       886      3155      3497      3498
 -1      1644    8    0    1
 -2       777       885       886      3495      3499      3497
 -1      1645    8    0    1
 -2       779       778       887      3158      3500      3501
 -1      1646    8    0    1
 -2       778       886       887      3498      3502      3500
 -1      1647    8    0    1
 -2       780       779       888      3161      3503      3504
 -1      1648    8    0    1
 -2       779       887       888      3501      3505      3503
 -1      1649    8    0    1
 -2       781       780       889      3164      3506      3507
 -1      1650    8    0    1
 -2       780       888       889      3504      3508      3506
 -1      1651    8    0    1
 -2       782       781       890      3167      3509      3510
 -1      1652    8    0    1
 -2       781       889       890      3507      3511      3509
 -1      1653    8    0    1
 -2       783       782       891      3170      3512      3513
 -1      1654    8    0    1
 -2       782       890       891      3510      3514      3512
 -1      1655    8    0    1
 -2       784       783       892      3173      3515      3516
 -1      1656    8    0    1
 -2       783       891       892      3513      3517      3515
 -1      1657    8    0    1
 -2       739       718       644      3391      3308      3055
 -1      1658    8    0    1
 -2       742       740       893      3039      3518      3519
 -1      1659    8    0    1
 -2       818       742       893      3274      3519      3520
 -1      1660    8    0    1
 -2       740       849       893      3367      3521      3518
 -1      1661    8    0    1
 -2       788       789       894      3186      3522      3523
 -1      1662    8    0    1
 -2       791       792       895      3195      3524      3525
 -1      1663    8    0    1
 -2       792       793       896      3198      3526      3527
 -1      1664    8    0    1
 -2       792       896       895      3527      3528      3524
 -1      1665    8    0    1
 -2       793       794       897      3201      3529      3530
 -1      1666    8    0    1
 -2       793       897       896      3530      3531      3526
 -1      1667    8    0    1
 -2       794       795       898      3204      3532      3533
 -1      1668    8    0    1
 -2       794       898       897      3533      3534      3529
 -1      1669    8    0    1
 -2       795       796       899      3207      3535      3536
 -1      1670    8    0    1
 -2       795       899       898      3536      3537      3532
 -1      1671    8    0    1
 -2       796       797       900      3210      3538      3539
 -1      1672    8    0    1
 -2       796       900       899      3539      3540      3535
 -1      1673    8    0    1
 -2       797       798       880      3213      3541      3542
 -1      1674    8    0    1
 -2       798       799       860      3216      3543      3544
 -1      1675    8    0    1
 -2       850       682       800      3374      3220      3545
 -1      1676    8    0    1
 -2       681       850       745      3375      3384      3217
 -1      1677    8    0    1
 -2       804       805       901      3234      3546      3547
 -1      1678    8    0    1
 -2       804       901       879      3547      3548      3478
 -1      1679    8    0    1
 -2       805       806       902      3237      3549      3550
 -1      1680    8    0    1
 -2       805       902       901      3550      3551      3546
 -1      1681    8    0    1
 -2       806       807       903      3240      3552      3553
 -1      1682    8    0    1
 -2       806       903       902      3553      3554      3549
 -1      1683    8    0    1
 -2       807       808       904      3243      3555      3556
 -1      1684    8    0    1
 -2       807       904       903      3556      3557      3552
 -1      1685    8    0    1
 -2       808       809       905      3246      3558      3559
 -1      1686    8    0    1
 -2       808       905       904      3559      3560      3555
 -1      1687    8    0    1
 -2       809       810       906      3249      3561      3562
 -1      1688    8    0    1
 -2       809       906       905      3562      3563      3558
 -1      1689    8    0    1
 -2       810       811       907      3252      3564      3565
 -1      1690    8    0    1
 -2       810       907       906      3565      3566      3561
 -1      1691    8    0    1
 -2       811       812       908      3255      3567      3568
 -1      1692    8    0    1
 -2       811       908       907      3568      3569      3564
 -1      1693    8    0    1
 -2       812       813       909      3258      3570      3571
 -1      1694    8    0    1
 -2       812       909       908      3571      3572      3567
 -1      1695    8    0    1
 -2       813       814       910      3261      3573      3574
 -1      1696    8    0    1
 -2       813       910       909      3574      3575      3570
 -1      1697    8    0    1
 -2       814       815       911      3264      3576      3577
 -1      1698    8    0    1
 -2       814       911       910      3577      3578      3573
 -1      1699    8    0    1
 -2       815       816       912      3267      3579      3580
 -1      1700    8    0    1
 -2       815       912       911      3580      3581      3576
 -1      1701    8    0    1
 -2       749       830       913      3369      3582      3583
 -1      1702    8    0    1
 -2       723       737       858      3386      3584      3409
 -1      1703    8    0    1
 -2       838       751       914      3401      3585      3586
 -1      1704    8    0    1
 -2       820       822       915      3283      3587      3588
 -1      1705    8    0    1
 -2       825       788       916      3292      3589      3590
 -1      1706    8    0    1
 -2       788       894       916      3523      3591      3589
 -1      1707    8    0    1
 -2       830       770       917      3358      3592      3593
 -1      1708    8    0    1
 -2       750       839       918      3329      3594      3595
 -1      1709    8    0    1
 -2       839       855       918      3396      3596      3594
 -1      1710    8    0    1
 -2       835       787       919      3318      3597      3598
 -1      1711    8    0    1
 -2       737       845       858      3345      3599      3584
 -1      1712    8    0    1
 -2       747       860       799      3416      3543      3600
 -1      1713    8    0    1
 -2       802       803       914      3228      3601      3602
 -1      1714    8    0    1
 -2       834       836       920      3371      3603      3604
 -1      1715    8    0    1
 -2       753       833       921      3313      3605      3606
 -1      1716    8    0    1
 -2       790       791       922      3192      3607      3608
 -1      1717    8    0    1
 -2       791       895       922      3525      3609      3607
 -1      1718    8    0    1
 -2       824       826       923      3372      3610      3611
 -1      1719    8    0    1
 -2       836       835       924      3321      3612      3613
 -1      1720    8    0    1
 -2       835       919       924      3598      3614      3612
 -1      1721    8    0    1
 -2       748       738       925      3065      3615      3616
 -1      1722    8    0    1
 -2       748       925       854      3616      3617      3389
 -1      1723    8    0    1
 -2       789       790       926      3189      3618      3619
 -1      1724    8    0    1
 -2       894       789       926      3522      3619      3620
 -1      1725    8    0    1
 -2       790       922       926      3608      3621      3618
 -1      1726    8    0    1
 -2       851       801       832      3392      3622      3623
 -1      1727    8    0    1
 -2       754       753       927      3085      3624      3625
 -1      1728    8    0    1
 -2       754       927       864      3625      3626      3433
 -1      1729    8    0    1
 -2       843       838       928      3426      3627      3628
 -1      1730    8    0    1
 -2       862       843       928      3422      3628      3629
 -1      1731    8    0    1
 -2       838       914       928      3586      3630      3627
 -1      1732    8    0    1
 -2       826       840       878      3350      3476      3631
 -1      1733    8    0    1
 -2       860       743       880      3421      3481      3632
 -1      1734    8    0    1
 -2       837       842       929      3338      3633      3634
 -1      1735    8    0    1
 -2       842       861       929      3419      3635      3633
 -1      1736    8    0    1
 -2       798       860       880      3544      3632      3541
 -1      1737    8    0    1
 -2       832       801       751      3622      3636      3349
 -1      1738    8    0    1
 -2       747       799       745      3600      3373      3402
 -1      1739    8    0    1
 -2       751       801       802      3636      3225      3637
 -1      1740    8    0    1
 -2       751       802       914      3637      3602      3585
 -1      1741    8    0    1
 -2       729       846       852      3348      3638      3380
 -1      1742    8    0    1
 -2       738       844       925      3342      3639      3615
 -1      1743    8    0    1
 -2       847       752       930      3351      3640      3641
 -1      1744    8    0    1
 -2       752       862       930      3424      3642      3640
 -1      1745    8    0    1
 -2       845       854       931      3388      3643      3644
 -1      1746    8    0    1
 -2       848       824       932      3361      3645      3646
 -1      1747    8    0    1
 -2       824       923       932      3611      3647      3645
 -1      1748    8    0    1
 -2       803       879       914      3479      3648      3601
 -1      1749    8    0    1
 -2       880       749       913      3480      3583      3649
 -1      1750    8    0    1
 -2       830       917       913      3593      3650      3582
 -1      1751    8    0    1
 -2       728       645       741      3482      3054      3326
 -1      1752    8    0    1
 -2       881       772       929      3483      3651      3652
 -1      1753    8    0    1
 -2       921       833       931      3605      3653      3654
 -1      1754    8    0    1
 -2       785       784       933      3177      3655      3656
 -1      1755    8    0    1
 -2       863       785       933      3430      3656      3657
 -1      1756    8    0    1
 -2       784       892       933      3516      3658      3655
 -1      1757    8    0    1
 -2       846       750       918      3346      3595      3659
 -1      1758    8    0    1
 -2       844       819       934      3343      3660      3661
 -1      1759    8    0    1
 -2       797       880       900      3542      3662      3538
 -1      1760    8    0    1
 -2       826       878       935      3631      3663      3664
 -1      1761    8    0    1
 -2       923       826       935      3610      3664      3665
 -1      1762    8    0    1
 -2       878       877       935      3477      3666      3663
 -1      1763    8    0    1
 -2       800       851       786      3393      3667      3668
 -1      1764    8    0    1
 -2       819       852       936      3379      3669      3670
 -1      1765    8    0    1
 -2       819       936       934      3670      3671      3660
 -1      1766    8    0    1
 -2       816       817       937      3270      3672      3673
 -1      1767    8    0    1
 -2       817       818       893      3273      3520      3674
 -1      1768    8    0    1
 -2       821       823       938      3286      3675      3676
 -1      1769    8    0    1
 -2       856       821       939      3400      3677      3678
 -1      1770    8    0    1
 -2       821       938       939      3676      3679      3677
 -1      1771    8    0    1
 -2       820       915       940      3588      3680      3681
 -1      1772    8    0    1
 -2       820       940       823      3681      3682      3287
 -1      1773    8    0    1
 -2       825       916       941      3590      3683      3684
 -1      1774    8    0    1
 -2       825       941       827      3684      3685      3298
 -1      1775    8    0    1
 -2       861       831       942      3417      3686      3687
 -1      1776    8    0    1
 -2       831       859       942      3411      3688      3686
 -1      1777    8    0    1
 -2       917       770       848      3592      3360      3689
 -1      1778    8    0    1
 -2       919       787       943      3597      3690      3691
 -1      1779    8    0    1
 -2       787       827       943      3297      3692      3690
 -1      1780    8    0    1
 -2       857       834       944      3406      3693      3694
 -1      1781    8    0    1
 -2       834       920       944      3604      3695      3693
 -1      1782    8    0    1
 -2       859       746       945      3412      3696      3697
 -1      1783    8    0    1
 -2       746       847       945      3353      3698      3696
 -1      1784    8    0    1
 -2       920       836       924      3603      3613      3699
 -1      1785    8    0    1
 -2       786       828       800      3357      3700      3668
 -1      1786    8    0    1
 -2       832       786       851      3370      3667      3623
 -1      1787    8    0    1
 -2       893       849       937      3521      3701      3702
 -1      1788    8    0    1
 -2       753       921       927      3606      3703      3624
 -1      1789    8    0    1
 -2       937       849       946      3701      3704      3705
 -1      1790    8    0    1
 -2       931       833       858      3653      3408      3706
 -1      1791    8    0    1
 -2       816       937       912      3673      3707      3579
 -1      1792    8    0    1
 -2       937       817       893      3672      3674      3702
 -1      1793    8    0    1
 -2       946       849       853      3704      3383      3708
 -1      1794    8    0    1
 -2       841       837       771      3420      3709      3425
 -1      1795    8    0    1
 -2       772       771       929      3137      3710      3651
 -1      1796    8    0    1
 -2       822       863       933      3429      3657      3711
 -1      1797    8    0    1
 -2       822       933       915      3711      3712      3587
 -1      1798    8    0    1
 -2       931       854       947      3643      3713      3714
 -1      1799    8    0    1
 -2       854       925       947      3617      3715      3713
 -1      1800    8    0    1
 -2       866       865       948      3440      3716      3717
 -1      1801    8    0    1
 -2       867       866       949      3443      3718      3719
 -1      1802    8    0    1
 -2       866       948       949      3717      3720      3718
 -1      1803    8    0    1
 -2       868       867       950      3446      3721      3722
 -1      1804    8    0    1
 -2       867       949       950      3719      3723      3721
 -1      1805    8    0    1
 -2       869       868       951      3449      3724      3725
 -1      1806    8    0    1
 -2       868       950       951      3722      3726      3724
 -1      1807    8    0    1
 -2       870       869       952      3452      3727      3728
 -1      1808    8    0    1
 -2       869       951       952      3725      3729      3727
 -1      1809    8    0    1
 -2       871       870       953      3455      3730      3731
 -1      1810    8    0    1
 -2       870       952       953      3728      3732      3730
 -1      1811    8    0    1
 -2       872       871       954      3458      3733      3734
 -1      1812    8    0    1
 -2       871       953       954      3731      3735      3733
 -1      1813    8    0    1
 -2       873       872       955      3461      3736      3737
 -1      1814    8    0    1
 -2       872       954       955      3734      3738      3736
 -1      1815    8    0    1
 -2       874       873       956      3464      3739      3740
 -1      1816    8    0    1
 -2       873       955       956      3737      3741      3739
 -1      1817    8    0    1
 -2       875       874       957      3467      3742      3743
 -1      1818    8    0    1
 -2       874       956       957      3740      3744      3742
 -1      1819    8    0    1
 -2       876       875       958      3470      3745      3746
 -1      1820    8    0    1
 -2       875       957       958      3743      3747      3745
 -1      1821    8    0    1
 -2       877       876       959      3473      3748      3749
 -1      1822    8    0    1
 -2       935       877       959      3666      3749      3750
 -1      1823    8    0    1
 -2       876       958       959      3746      3751      3748
 -1      1824    8    0    1
 -2       921       931       960      3654      3752      3753
 -1      1825    8    0    1
 -2       846       918       961      3659      3754      3755
 -1      1826    8    0    1
 -2       883       882       962      3490      3756      3757
 -1      1827    8    0    1
 -2       884       883       963      3493      3758      3759
 -1      1828    8    0    1
 -2       883       962       963      3757      3760      3758
 -1      1829    8    0    1
 -2       885       884       964      3496      3761      3762
 -1      1830    8    0    1
 -2       884       963       964      3759      3763      3761
 -1      1831    8    0    1
 -2       886       885       965      3499      3764      3765
 -1      1832    8    0    1
 -2       885       964       965      3762      3766      3764
 -1      1833    8    0    1
 -2       887       886       966      3502      3767      3768
 -1      1834    8    0    1
 -2       886       965       966      3765      3769      3767
 -1      1835    8    0    1
 -2       888       887       967      3505      3770      3771
 -1      1836    8    0    1
 -2       887       966       967      3768      3772      3770
 -1      1837    8    0    1
 -2       889       888       968      3508      3773      3774
 -1      1838    8    0    1
 -2       888       967       968      3771      3775      3773
 -1      1839    8    0    1
 -2       890       889       969      3511      3776      3777
 -1      1840    8    0    1
 -2       889       968       969      3774      3778      3776
 -1      1841    8    0    1
 -2       891       890       970      3514      3779      3780
 -1      1842    8    0    1
 -2       890       969       970      3777      3781      3779
 -1      1843    8    0    1
 -2       892       891       971      3517      3782      3783
 -1      1844    8    0    1
 -2       891       970       971      3780      3784      3782
 -1      1845    8    0    1
 -2       915       933       892      3712      3658      3785
 -1      1846    8    0    1
 -2       897       898       972      3534      3786      3787
 -1      1847    8    0    1
 -2       900       880       973      3662      3788      3789
 -1      1848    8    0    1
 -2       899       900       973      3540      3789      3790
 -1      1849    8    0    1
 -2       880       913       973      3649      3791      3788
 -1      1850    8    0    1
 -2       925       844       974      3639      3792      3793
 -1      1851    8    0    1
 -2       947       925       974      3715      3793      3794
 -1      1852    8    0    1
 -2       844       934       974      3661      3795      3792
 -1      1853    8    0    1
 -2       896       897       975      3531      3796      3797
 -1      1854    8    0    1
 -2       897       972       975      3787      3798      3796
 -1      1855    8    0    1
 -2       914       879       928      3648      3799      3630
 -1      1856    8    0    1
 -2       895       896       976      3528      3800      3801
 -1      1857    8    0    1
 -2       896       975       976      3797      3802      3800
 -1      1858    8    0    1
 -2       898       899       977      3537      3803      3804
 -1      1859    8    0    1
 -2       898       977       972      3804      3805      3786
 -1      1860    8    0    1
 -2       850       800       828      3545      3700      3390
 -1      1861    8    0    1
 -2       918       855       978      3596      3806      3807
 -1      1862    8    0    1
 -2       961       918       978      3754      3807      3808
 -1      1863    8    0    1
 -2       855       857       978      3405      3809      3806
 -1      1864    8    0    1
 -2       916       894       979      3591      3810      3811
 -1      1865    8    0    1
 -2       903       904       980      3557      3812      3813
 -1      1866    8    0    1
 -2       904       905       981      3560      3814      3815
 -1      1867    8    0    1
 -2       904       981       980      3815      3816      3812
 -1      1868    8    0    1
 -2       905       906       982      3563      3817      3818
 -1      1869    8    0    1
 -2       905       982       981      3818      3819      3814
 -1      1870    8    0    1
 -2       906       907       983      3566      3820      3821
 -1      1871    8    0    1
 -2       906       983       982      3821      3822      3817
 -1      1872    8    0    1
 -2       907       908       984      3569      3823      3824
 -1      1873    8    0    1
 -2       907       984       983      3824      3825      3820
 -1      1874    8    0    1
 -2       908       909       985      3572      3826      3827
 -1      1875    8    0    1
 -2       908       985       984      3827      3828      3823
 -1      1876    8    0    1
 -2       909       910       986      3575      3829      3830
 -1      1877    8    0    1
 -2       909       986       985      3830      3831      3826
 -1      1878    8    0    1
 -2       910       911       987      3578      3832      3833
 -1      1879    8    0    1
 -2       910       987       986      3833      3834      3829
 -1      1880    8    0    1
 -2       911       912       988      3581      3835      3836
 -1      1881    8    0    1
 -2       911       988       987      3836      3837      3832
 -1      1882    8    0    1
 -2       913       917       989      3650      3838      3839
 -1      1883    8    0    1
 -2       913       989       973      3839      3840      3791
 -1      1884    8    0    1
 -2       938       823       940      3675      3682      3841
 -1      1885    8    0    1
 -2       902       903       990      3554      3842      3843
 -1      1886    8    0    1
 -2       903       980       990      3813      3844      3842
 -1      1887    8    0    1
 -2       852       846       961      3638      3755      3845
 -1      1888    8    0    1
 -2       858       845       931      3599      3644      3706
 -1      1889    8    0    1
 -2       920       924       991      3699      3846      3847
 -1      1890    8    0    1
 -2       901       902       992      3551      3848      3849
 -1      1891    8    0    1
 -2       902       990       992      3843      3850      3848
 -1      1892    8    0    1
 -2       927       921       960      3703      3753      3851
 -1      1893    8    0    1
 -2       946       853       993      3708      3852      3853
 -1      1894    8    0    1
 -2       853       856       993      3399      3854      3852
 -1      1895    8    0    1
 -2       937       946       912      3705      3855      3707
 -1      1896    8    0    1
 -2       924       919       994      3614      3856      3857
 -1      1897    8    0    1
 -2       924       994       991      3857      3858      3846
 -1      1898    8    0    1
 -2       864       927       995      3626      3859      3860
 -1      1899    8    0    1
 -2       917       848       996      3689      3861      3862
 -1      1900    8    0    1
 -2       881       929       861      3652      3635      3863
 -1      1901    8    0    1
 -2       912       946       988      3855      3864      3835
 -1      1902    8    0    1
 -2       771       837       929      3709      3634      3710
 -1      1903    8    0    1
 -2       922       895       997      3609      3865      3866
 -1      1904    8    0    1
 -2       895       976       997      3801      3867      3865
 -1      1905    8    0    1
 -2       865       864       998      3437      3868      3869
 -1      1906    8    0    1
 -2       864       995       998      3860      3870      3868
 -1      1907    8    0    1
 -2       915       892       971      3785      3783      3871
 -1      1908    8    0    1
 -2       881       861       999      3863      3872      3873
 -1      1909    8    0    1
 -2       882       881       999      3487      3873      3874
 -1      1910    8    0    1
 -2       861       942       999      3687      3875      3872
 -1      1911    8    0    1
 -2       930       862      1000      3642      3876      3877
 -1      1912    8    0    1
 -2       948       865       998      3716      3869      3878
 -1      1913    8    0    1
 -2       862       928      1001      3629      3879      3880
 -1      1914    8    0    1
 -2      1000       862      1001      3876      3880      3881
 -1      1915    8    0    1
 -2       928       879      1001      3799      3882      3879
 -1      1916    8    0    1
 -2       848       932       996      3646      3883      3861
 -1      1917    8    0    1
 -2       979       894      1002      3810      3884      3885
 -1      1918    8    0    1
 -2       894       926      1002      3620      3886      3884
 -1      1919    8    0    1
 -2       882       999       962      3874      3887      3756
 -1      1920    8    0    1
 -2       938       940      1003      3841      3888      3889
 -1      1921    8    0    1
 -2       899       973       977      3790      3890      3803
 -1      1922    8    0    1
 -2       974       934      1004      3795      3891      3892
 -1      1923    8    0    1
 -2       960       931       947      3752      3714      3893
 -1      1924    8    0    1
 -2       923       935      1005      3665      3894      3895
 -1      1925    8    0    1
 -2       932       923      1005      3647      3895      3896
 -1      1926    8    0    1
 -2       935       959      1005      3750      3897      3894
 -1      1927    8    0    1
 -2       879       901      1001      3548      3898      3882
 -1      1928    8    0    1
 -2       852       961       936      3845      3899      3669
 -1      1929    8    0    1
 -2       934       936      1006      3671      3900      3901
 -1      1930    8    0    1
 -2       934      1006      1004      3901      3902      3891
 -1      1931    8    0    1
 -2       989       917      1007      3838      3903      3904
 -1      1932    8    0    1
 -2       917       996      1007      3862      3905      3903
 -1      1933    8    0    1
 -2       856       939       993      3678      3906      3854
 -1      1934    8    0    1
 -2       940       915       971      3680      3871      3907
 -1      1935    8    0    1
 -2       941       916      1008      3683      3908      3909
 -1      1936    8    0    1
 -2       916       979      1008      3811      3910      3908
 -1      1937    8    0    1
 -2       942       859      1009      3688      3911      3912
 -1      1938    8    0    1
 -2       859       945      1009      3697      3913      3911
 -1      1939    8    0    1
 -2       827       941       943      3685      3914      3692
 -1      1940    8    0    1
 -2       944       920      1010      3695      3915      3916
 -1      1941    8    0    1
 -2       920       991      1010      3847      3917      3915
 -1      1942    8    0    1
 -2       945       847      1011      3698      3918      3919
 -1      1943    8    0    1
 -2       847       930      1011      3641      3920      3918
 -1      1944    8    0    1
 -2       901       992      1001      3849      3921      3898
 -1      1945    8    0    1
 -2       857       944       978      3694      3922      3809
 -1      1946    8    0    1
 -2       919       943      1012      3691      3923      3924
 -1      1947    8    0    1
 -2       919      1012       994      3924      3925      3856
 -1      1948    8    0    1
 -2       946       993      1013      3853      3926      3927
 -1      1949    8    0    1
 -2       946      1013       988      3927      3928      3864
 -1      1950    8    0    1
 -2       926       922      1014      3621      3929      3930
 -1      1951    8    0    1
 -2       922       997      1014      3866      3931      3929
 -1      1952    8    0    1
 -2       995       927       960      3859      3851      3932
 -1      1953    8    0    1
 -2       939       938      1015      3679      3933      3934
 -1      1954    8    0    1
 -2       938      1003      1015      3889      3935      3933
 -1      1955    8    0    1
 -2       948       998      1016      3878      3936      3937
 -1      1956    8    0    1
 -2       978       944      1017      3922      3938      3939
 -1      1957    8    0    1
 -2       944      1010      1017      3916      3940      3938
 -1      1958    8    0    1
 -2       950       949      1018      3723      3941      3942
 -1      1959    8    0    1
 -2       951       950      1019      3726      3943      3944
 -1      1960    8    0    1
 -2       950      1018      1019      3942      3945      3943
 -1      1961    8    0    1
 -2       952       951      1020      3729      3946      3947
 -1      1962    8    0    1
 -2       951      1019      1020      3944      3948      3946
 -1      1963    8    0    1
 -2       953       952      1021      3732      3949      3950
 -1      1964    8    0    1
 -2       952      1020      1021      3947      3951      3949
 -1      1965    8    0    1
 -2       954       953      1022      3735      3952      3953
 -1      1966    8    0    1
 -2       953      1021      1022      3950      3954      3952
 -1      1967    8    0    1
 -2       955       954      1023      3738      3955      3956
 -1      1968    8    0    1
 -2       954      1022      1023      3953      3957      3955
 -1      1969    8    0    1
 -2       956       955      1024      3741      3958      3959
 -1      1970    8    0    1
 -2       955      1023      1024      3956      3960      3958
 -1      1971    8    0    1
 -2       957       956      1025      3744      3961      3962
 -1      1972    8    0    1
 -2       956      1024      1025      3959      3963      3961
 -1      1973    8    0    1
 -2       958       957      1026      3747      3964      3965
 -1      1974    8    0    1
 -2       957      1025      1026      3962      3966      3964
 -1      1975    8    0    1
 -2       997       976      1027      3867      3967      3968
 -1      1976    8    0    1
 -2       999       942      1028      3875      3969      3970
 -1      1977    8    0    1
 -2       962       999      1028      3887      3970      3971
 -1      1978    8    0    1
 -2       942      1009      1028      3912      3972      3969
 -1      1979    8    0    1
 -2      1003       940       971      3888      3907      3973
 -1      1980    8    0    1
 -2       964       963      1029      3763      3974      3975
 -1      1981    8    0    1
 -2       965       964      1030      3766      3976      3977
 -1      1982    8    0    1
 -2       964      1029      1030      3975      3978      3976
 -1      1983    8    0    1
 -2       966       965      1031      3769      3979      3980
 -1      1984    8    0    1
 -2       965      1030      1031      3977      3981      3979
 -1      1985    8    0    1
 -2       967       966      1032      3772      3982      3983
 -1      1986    8    0    1
 -2       966      1031      1032      3980      3984      3982
 -1      1987    8    0    1
 -2       968       967      1033      3775      3985      3986
 -1      1988    8    0    1
 -2       967      1032      1033      3983      3987      3985
 -1      1989    8    0    1
 -2       969       968      1034      3778      3988      3989
 -1      1990    8    0    1
 -2       968      1033      1034      3986      3990      3988
 -1      1991    8    0    1
 -2       970       969      1035      3781      3991      3992
 -1      1992    8    0    1
 -2       969      1034      1035      3989      3993      3991
 -1      1993    8    0    1
 -2       971       970      1036      3784      3994      3995
 -1      1994    8    0    1
 -2      1003       971      1036      3973      3995      3996
 -1      1995    8    0    1
 -2       970      1035      1036      3992      3997      3994
 -1      1996    8    0    1
 -2       977       973       989      3890      3840      3998
 -1      1997    8    0    1
 -2       976       975      1037      3802      3999      4000
 -1      1998    8    0    1
 -2       976      1037      1027      4000      4001      3967
 -1      1999    8    0    1
 -2       974      1004      1038      3892      4002      4003
 -1      2000    8    0    1
 -2       974      1038       947      4003      4004      3794
 -1      2001    8    0    1
 -2       960       947      1038      3893      4004      4005
 -1      2002    8    0    1
 -2       982       983      1039      3822      4006      4007
 -1      2003    8    0    1
 -2       981       982      1040      3819      4008      4009
 -1      2004    8    0    1
 -2       982      1039      1040      4007      4010      4008
 -1      2005    8    0    1
 -2       980       981      1041      3816      4011      4012
 -1      2006    8    0    1
 -2       981      1040      1041      4009      4013      4011
 -1      2007    8    0    1
 -2       983       984      1042      3825      4014      4015
 -1      2008    8    0    1
 -2       983      1042      1039      4015      4016      4006
 -1      2009    8    0    1
 -2       984       985      1043      3828      4017      4018
 -1      2010    8    0    1
 -2       984      1043      1042      4018      4019      4014
 -1      2011    8    0    1
 -2       985       986      1044      3831      4020      4021
 -1      2012    8    0    1
 -2       985      1044      1043      4021      4022      4017
 -1      2013    8    0    1
 -2       986       987      1045      3834      4023      4024
 -1      2014    8    0    1
 -2       986      1045      1044      4024      4025      4020
 -1      2015    8    0    1
 -2       987       988      1046      3837      4026      4027
 -1      2016    8    0    1
 -2      1045       987      1046      4023      4027      4028
 -1      2017    8    0    1
 -2       988      1013      1046      3928      4029      4026
 -1      2018    8    0    1
 -2       996       932      1047      3883      4030      4031
 -1      2019    8    0    1
 -2       990       980      1048      3844      4032      4033
 -1      2020    8    0    1
 -2       980      1041      1048      4012      4034      4032
 -1      2021    8    0    1
 -2       972       977      1049      3805      4035      4036
 -1      2022    8    0    1
 -2       930      1000      1050      3877      4037      4038
 -1      2023    8    0    1
 -2       930      1050      1011      4038      4039      3920
 -1      2024    8    0    1
 -2       943       941      1051      3914      4040      4041
 -1      2025    8    0    1
 -2       941      1008      1051      3909      4042      4040
 -1      2026    8    0    1
 -2       977       989      1049      3998      4043      4035
 -1      2027    8    0    1
 -2      1001       992      1000      3921      4044      3881
 -1      2028    8    0    1
 -2       993       939      1052      3906      4045      4046
 -1      2029    8    0    1
 -2      1013       993      1052      3926      4046      4047
 -1      2030    8    0    1
 -2       939      1015      1052      3934      4048      4045
 -1      2031    8    0    1
 -2       991       994      1053      3858      4049      4050
 -1      2032    8    0    1
 -2       963       962      1054      3760      4051      4052
 -1      2033    8    0    1
 -2       963      1054      1029      4052      4053      3974
 -1      2034    8    0    1
 -2       998       995      1055      3870      4054      4055
 -1      2035    8    0    1
 -2       998      1055      1016      4055      4056      3936
 -1      2036    8    0    1
 -2       961       978      1017      3808      3939      4057
 -1      2037    8    0    1
 -2       975       972      1056      3798      4058      4059
 -1      2038    8    0    1
 -2       972      1049      1056      4036      4060      4058
 -1      2039    8    0    1
 -2       995       960      1057      3932      4061      4062
 -1      2040    8    0    1
 -2      1055       995      1057      4054      4062      4063
 -1      2041    8    0    1
 -2       960      1038      1057      4005      4064      4061
 -1      2042    8    0    1
 -2       949       948      1058      3720      4065      4066
 -1      2043    8    0    1
 -2       949      1058      1018      4066      4067      3941
 -1      2044    8    0    1
 -2      1000       992      1059      4044      4068      4069
 -1      2045    8    0    1
 -2      1050      1000      1059      4037      4069      4070
 -1      2046    8    0    1
 -2       992       990      1059      3850      4071      4068
 -1      2047    8    0    1
 -2       975      1056      1037      4059      4072      3999
 -1      2048    8    0    1
 -2       936       961      1060      3899      4073      4074
 -1      2049    8    0    1
 -2      1002       926      1014      3886      3930      4075
 -1      2050    8    0    1
 -2       997      1027      1061      3968      4076      4077
 -1      2051    8    0    1
 -2       997      1061      1014      4077      4078      3931
 -1      2052    8    0    1
 -2       959       958      1062      3751      4079      4080
 -1      2053    8    0    1
 -2       958      1026      1062      3965      4081      4079
 -1      2054    8    0    1
 -2       962      1028      1054      3971      4082      4051
 -1      2055    8    0    1
 -2      1003      1036      1063      3996      4083      4084
 -1      2056    8    0    1
 -2      1003      1063      1015      4084      4085      3935
 -1      2057    8    0    1
 -2       936      1060      1006      4074      4086      3900
 -1      2058    8    0    1
 -2       989      1007      1049      3904      4087      4043
 -1      2059    8    0    1
 -2      1038      1004      1064      4002      4088      4089
 -1      2060    8    0    1
 -2      1038      1064      1057      4089      4090      4064
 -1      2061    8    0    1
 -2       932      1005      1047      3896      4091      4030
 -1      2062    8    0    1
 -2      1004      1006      1065      3902      4092      4093
 -1      2063    8    0    1
 -2      1004      1065      1064      4093      4094      4088
 -1      2064    8    0    1
 -2      1007       996      1066      3905      4095      4096
 -1      2065    8    0    1
 -2       996      1047      1066      4031      4097      4095
 -1      2066    8    0    1
 -2       990      1048      1059      4033      4098      4071
 -1      2067    8    0    1
 -2      1008       979      1067      3910      4099      4100
 -1      2068    8    0    1
 -2      1009       945      1068      3913      4101      4102
 -1      2069    8    0    1
 -2      1010       991      1069      3917      4103      4104
 -1      2070    8    0    1
 -2       991      1053      1069      4050      4105      4103
 -1      2071    8    0    1
 -2       943      1051      1012      4041      4106      3923
 -1      2072    8    0    1
 -2      1053       994      1070      4049      4107      4108
 -1      2073    8    0    1
 -2       994      1012      1070      3925      4109      4107
 -1      2074    8    0    1
 -2       979      1002      1071      3885      4110      4111
 -1      2075    8    0    1
 -2       979      1071      1067      4111      4112      4099
 -1      2076    8    0    1
 -2       945      1011      1068      3919      4113      4101
 -1      2077    8    0    1
 -2       961      1017      1060      4057      4114      4073
 -1      2078    8    0    1
 -2      1058       948      1016      4065      3937      4115
 -1      2079    8    0    1
 -2      1058      1016      1072      4115      4116      4117
 -1      2080    8    0    1
 -2      1002      1014      1073      4075      4118      4119
 -1      2081    8    0    1
 -2      1002      1073      1071      4119      4120      4110
 -1      2082    8    0    1
 -2      1050      1059      1074      4070      4121      4122
 -1      2083    8    0    1
 -2      1059      1048      1074      4098      4123      4121
 -1      2084    8    0    1
 -2      1020      1019      1075      3948      4124      4125
 -1      2085    8    0    1
 -2      1021      1020      1076      3951      4126      4127
 -1      2086    8    0    1
 -2      1020      1075      1076      4125      4128      4126
 -1      2087    8    0    1
 -2      1022      1021      1077      3954      4129      4130
 -1      2088    8    0    1
 -2      1021      1076      1077      4127      4131      4129
 -1      2089    8    0    1
 -2      1023      1022      1078      3957      4132      4133
 -1      2090    8    0    1
 -2      1022      1077      1078      4130      4134      4132
 -1      2091    8    0    1
 -2      1024      1023      1079      3960      4135      4136
 -1      2092    8    0    1
 -2      1023      1078      1079      4133      4137      4135
 -1      2093    8    0    1
 -2      1025      1024      1080      3963      4138      4139
 -1      2094    8    0    1
 -2      1024      1079      1080      4136      4140      4138
 -1      2095    8    0    1
 -2      1026      1025      1081      3966      4141      4142
 -1      2096    8    0    1
 -2      1025      1080      1081      4139      4143      4141
 -1      2097    8    0    1
 -2      1016      1055      1082      4056      4144      4145
 -1      2098    8    0    1
 -2      1016      1082      1072      4145      4146      4116
 -1      2099    8    0    1
 -2      1031      1030      1083      3981      4147      4148
 -1      2100    8    0    1
 -2      1032      1031      1084      3984      4149      4150
 -1      2101    8    0    1
 -2      1031      1083      1084      4148      4151      4149
 -1      2102    8    0    1
 -2      1033      1032      1085      3987      4152      4153
 -1      2103    8    0    1
 -2      1032      1084      1085      4150      4154      4152
 -1      2104    8    0    1
 -2      1034      1033      1086      3990      4155      4156
 -1      2105    8    0    1
 -2      1033      1085      1086      4153      4157      4155
 -1      2106    8    0    1
 -2      1035      1034      1087      3993      4158      4159
 -1      2107    8    0    1
 -2      1034      1086      1087      4156      4160      4158
 -1      2108    8    0    1
 -2      1036      1035      1088      3997      4161      4162
 -1      2109    8    0    1
 -2      1063      1036      1088      4083      4162      4163
 -1      2110    8    0    1
 -2      1035      1087      1088      4159      4164      4161
 -1      2111    8    0    1
 -2      1040      1039      1089      4010      4165      4166
 -1      2112    8    0    1
 -2      1042      1043      1090      4019      4167      4168
 -1      2113    8    0    1
 -2      1005       959      1062      3897      4080      4169
 -1      2114    8    0    1
 -2      1039      1042      1091      4016      4170      4171
 -1      2115    8    0    1
 -2      1042      1090      1091      4168      4172      4170
 -1      2116    8    0    1
 -2      1041      1040      1092      4013      4173      4174
 -1      2117    8    0    1
 -2      1040      1089      1092      4166      4175      4173
 -1      2118    8    0    1
 -2      1049      1007      1093      4087      4176      4177
 -1      2119    8    0    1
 -2      1056      1049      1093      4060      4177      4178
 -1      2120    8    0    1
 -2      1007      1066      1093      4096      4179      4176
 -1      2121    8    0    1
 -2      1060      1017      1094      4114      4180      4181
 -1      2122    8    0    1
 -2      1006      1060      1094      4086      4181      4182
 -1      2123    8    0    1
 -2      1017      1010      1094      3940      4183      4180
 -1      2124    8    0    1
 -2      1043      1044      1095      4022      4184      4185
 -1      2125    8    0    1
 -2      1043      1095      1090      4185      4186      4167
 -1      2126    8    0    1
 -2      1044      1045      1096      4025      4187      4188
 -1      2127    8    0    1
 -2      1044      1096      1095      4188      4189      4184
 -1      2128    8    0    1
 -2      1048      1041      1097      4034      4190      4191
 -1      2129    8    0    1
 -2      1041      1092      1097      4174      4192      4190
 -1      2130    8    0    1
 -2      1027      1037      1098      4001      4193      4194
 -1      2131    8    0    1
 -2      1011      1050      1074      4039      4122      4195
 -1      2132    8    0    1
 -2      1037      1056      1099      4072      4196      4197
 -1      2133    8    0    1
 -2      1037      1099      1098      4197      4198      4193
 -1      2134    8    0    1
 -2      1028      1009      1100      3972      4199      4200
 -1      2135    8    0    1
 -2      1054      1028      1100      4082      4200      4201
 -1      2136    8    0    1
 -2      1009      1068      1100      4102      4202      4199
 -1      2137    8    0    1
 -2      1019      1018      1101      3945      4203      4204
 -1      2138    8    0    1
 -2      1019      1101      1075      4204      4205      4124
 -1      2139    8    0    1
 -2      1018      1058      1102      4067      4206      4207
 -1      2140    8    0    1
 -2      1058      1072      1102      4117      4208      4206
 -1      2141    8    0    1
 -2      1051      1008      1103      4042      4209      4210
 -1      2142    8    0    1
 -2      1008      1067      1103      4100      4211      4209
 -1      2143    8    0    1
 -2      1029      1054      1104      4053      4212      4213
 -1      2144    8    0    1
 -2      1012      1051      1105      4106      4214      4215
 -1      2145    8    0    1
 -2      1051      1103      1105      4210      4216      4214
 -1      2146    8    0    1
 -2      1030      1029      1106      3978      4217      4218
 -1      2147    8    0    1
 -2      1029      1104      1106      4213      4219      4217
 -1      2148    8    0    1
 -2      1047      1005      1062      4091      4169      4220
 -1      2149    8    0    1
 -2      1074      1048      1097      4123      4191      4221
 -1      2150    8    0    1
 -2      1061      1027      1107      4076      4222      4223
 -1      2151    8    0    1
 -2      1027      1098      1107      4194      4224      4222
 -1      2152    8    0    1
 -2      1018      1102      1101      4207      4225      4203
 -1      2153    8    0    1
 -2      1062      1026      1108      4081      4226      4227
 -1      2154    8    0    1
 -2      1047      1062      1108      4220      4227      4228
 -1      2155    8    0    1
 -2      1026      1081      1108      4142      4229      4226
 -1      2156    8    0    1
 -2      1055      1057      1109      4063      4230      4231
 -1      2157    8    0    1
 -2      1082      1055      1109      4144      4231      4232
 -1      2158    8    0    1
 -2      1057      1064      1109      4090      4233      4230
 -1      2159    8    0    1
 -2      1089      1039      1091      4165      4171      4234
 -1      2160    8    0    1
 -2      1083      1030      1106      4147      4218      4235
 -1      2161    8    0    1
 -2      1006      1094      1065      4182      4236      4092
 -1      2162    8    0    1
 -2      1069      1053      1110      4105      4237      4238
 -1      2163    8    0    1
 -2      1066      1047      1108      4097      4228      4239
 -1      2164    8    0    1
 -2      1096      1045      1111      4187      4240      4241
 -1      2165    8    0    1
 -2      1045      1046      1111      4028      4242      4240
 -1      2166    8    0    1
 -2      1046      1013      1112      4029      4243      4244
 -1      2167    8    0    1
 -2      1013      1052      1112      4047      4245      4243
 -1      2168    8    0    1
 -2      1054      1100      1104      4201      4246      4212
 -1      2169    8    0    1
 -2      1011      1074      1068      4195      4247      4113
 -1      2170    8    0    1
 -2      1010      1069      1094      4104      4248      4183
 -1      2171    8    0    1
 -2      1099      1056      1093      4196      4178      4249
 -1      2172    8    0    1
 -2      1070      1012      1105      4109      4215      4250
 -1      2173    8    0    1
 -2      1053      1070      1113      4108      4251      4252
 -1      2174    8    0    1
 -2      1053      1113      1110      4252      4253      4237
 -1      2175    8    0    1
 -2      1103      1067      1114      4211      4254      4255
 -1      2176    8    0    1
 -2      1068      1074      1115      4247      4256      4257
 -1      2177    8    0    1
 -2      1100      1068      1115      4202      4257      4258
 -1      2178    8    0    1
 -2      1074      1097      1115      4221      4259      4256
 -1      2179    8    0    1
 -2      1067      1071      1116      4112      4260      4261
 -1      2180    8    0    1
 -2      1067      1116      1114      4261      4262      4254
 -1      2181    8    0    1
 -2      1052      1015      1063      4048      4085      4263
 -1      2182    8    0    1
 -2      1073      1014      1061      4118      4078      4264
 -1      2183    8    0    1
 -2      1071      1073      1117      4120      4265      4266
 -1      2184    8    0    1
 -2      1071      1117      1116      4266      4267      4260
 -1      2185    8    0    1
 -2      1072      1082      1118      4146      4268      4269
 -1      2186    8    0    1
 -2      1077      1076      1117      4131      4270      4271
 -1      2187    8    0    1
 -2      1079      1078      1119      4137      4272      4273
 -1      2188    8    0    1
 -2      1080      1079      1098      4140      4274      4275
 -1      2189    8    0    1
 -2      1081      1080      1099      4143      4276      4277
 -1      2190    8    0    1
 -2      1085      1084      1090      4154      4278      4279
 -1      2191    8    0    1
 -2      1086      1085      1095      4157      4280      4281
 -1      2192    8    0    1
 -2      1087      1086      1096      4160      4282      4283
 -1      2193    8    0    1
 -2      1095      1096      1086      4189      4282      4281
 -1      2194    8    0    1
 -2      1103      1114      1120      4255      4284      4285
 -1      2195    8    0    1
 -2      1103      1120      1105      4285      4286      4216
 -1      2196    8    0    1
 -2      1101      1102      1121      4225      4287      4288
 -1      2197    8    0    1
 -2      1091      1090      1084      4172      4278      4289
 -1      2198    8    0    1
 -2      1092      1089      1106      4175      4290      4291
 -1      2199    8    0    1
 -2      1069      1110      1065      4238      4292      4293
 -1      2200    8    0    1
 -2      1097      1092      1104      4192      4294      4295
 -1      2201    8    0    1
 -2      1064      1065      1122      4094      4296      4297
 -1      2202    8    0    1
 -2      1095      1085      1090      4280      4279      4186
 -1      2203    8    0    1
 -2      1092      1106      1104      4291      4219      4294
 -1      2204    8    0    1
 -2      1094      1069      1065      4248      4293      4236
 -1      2205    8    0    1
 -2      1075      1101      1114      4205      4298      4299
 -1      2206    8    0    1
 -2      1099      1080      1098      4276      4275      4198
 -1      2207    8    0    1
 -2      1089      1091      1083      4234      4300      4301
 -1      2208    8    0    1
 -2      1102      1072      1123      4208      4302      4303
 -1      2209    8    0    1
 -2      1072      1118      1123      4269      4304      4302
 -1      2210    8    0    1
 -2      1052      1063      1112      4263      4305      4245
 -1      2211    8    0    1
 -2      1089      1083      1106      4301      4235      4290
 -1      2212    8    0    1
 -2      1084      1083      1091      4151      4300      4289
 -1      2213    8    0    1
 -2      1076      1075      1116      4128      4306      4307
 -1      2214    8    0    1
 -2      1073      1061      1124      4264      4308      4309
 -1      2215    8    0    1
 -2      1061      1107      1124      4223      4310      4308
 -1      2216    8    0    1
 -2      1070      1105      1125      4250      4311      4312
 -1      2217    8    0    1
 -2      1113      1070      1125      4251      4312      4313
 -1      2218    8    0    1
 -2      1105      1120      1125      4286      4314      4311
 -1      2219    8    0    1
 -2      1075      1114      1116      4299      4262      4306
 -1      2220    8    0    1
 -2      1109      1064      1122      4233      4297      4315
 -1      2221    8    0    1
 -2      1109      1122      1082      4315      4316      4232
 -1      2222    8    0    1
 -2      1122      1065      1110      4296      4292      4317
 -1      2223    8    0    1
 -2      1082      1122      1118      4316      4318      4268
 -1      2224    8    0    1
 -2      1122      1110      1118      4317      4319      4318
 -1      2225    8    0    1
 -2      1118      1110      1113      4319      4253      4320
 -1      2226    8    0    1
 -2      1108      1081      1126      4229      4321      4322
 -1      2227    8    0    1
 -2      1078      1077      1127      4134      4323      4324
 -1      2228    8    0    1
 -2      1081      1099      1126      4277      4325      4321
 -1      2229    8    0    1
 -2      1063      1088      1111      4163      4326      4327
 -1      2230    8    0    1
 -2      1087      1096      1111      4283      4241      4328
 -1      2231    8    0    1
 -2      1121      1102      1123      4287      4303      4329
 -1      2232    8    0    1
 -2      1066      1108      1126      4239      4322      4330
 -1      2233    8    0    1
 -2      1076      1116      1117      4307      4267      4270
 -1      2234    8    0    1
 -2      1114      1101      1121      4298      4288      4331
 -1      2235    8    0    1
 -2      1093      1066      1126      4179      4330      4332
 -1      2236    8    0    1
 -2      1111      1046      1112      4242      4244      4333
 -1      2237    8    0    1
 -2      1112      1063      1111      4305      4327      4333
 -1      2238    8    0    1
 -2      1093      1126      1099      4332      4325      4249
 -1      2239    8    0    1
 -2      1098      1079      1119      4274      4273      4334
 -1      2240    8    0    1
 -2      1073      1124      1117      4309      4335      4265
 -1      2241    8    0    1
 -2      1119      1078      1127      4272      4324      4336
 -1      2242    8    0    1
 -2      1104      1100      1115      4246      4258      4337
 -1      2243    8    0    1
 -2      1077      1117      1127      4271      4338      4323
 -1      2244    8    0    1
 -2      1117      1124      1127      4335      4339      4338
 -1      2245    8    0    1
 -2      1087      1111      1088      4328      4326      4164
 -1      2246    8    0    1
 -2      1118      1113      1123      4320      4340      4304
 -1      2247    8    0    1
 -2      1097      1104      1115      4295      4337      4259
 -1      2248    8    0    1
 -2      1121      1123      1125      4329      4341      4342
 -1      2249    8    0    1
 -2      1127      1124      1119      4339      4343      4336
 -1      2250    8    0    1
 -2      1123      1113      1125      4340      4313      4341
 -1      2251    8    0    1
 -2      1107      1098      1119      4224      4334      4344
 -1      2252    8    0    1
 -2      1107      1119      1124      4344      4343      4310
 -1      2253    8    0    1
 -2      1120      1114      1121      4284      4331      4345
 -1      2254    8    0    1
 -2      1121      1125      1120      4342      4314      4345
 -3
    1PSTEP                         1           1           1          
  100CL  101 1.000000000        4345                     0    1           1
 -4  DISP        4    1
 -5  D1          1    2    1    0
 -5  D2          1    2    2    0
 -5  D3          1    2    3    0
 -5  ALL         1    2    0    0    1ALL
 -1         1 9.28467E-03-9.67338E-04-3.17836E-14
 -1         2 1.03627E-02-2.35747E-04-3.46564E-14
 -1         3 1.48969E-02-1.12429E-04-9.50601E-14
 -1         4 1.54929E-02-1.52362E-03-9.57321E-14
 -1         5 0.00000E+00 0.00000E+00 0.00000E+00
 -1         6 0.00000E+00 0.00000E+00 0.00000E+00
 -1         7 0.00000E+00 0.00000E+00 0.00000E+00
 -1         8 0.00000E+00 0.00000E+00 0.00000E+00
 -1         9 0.00000E+00 0.00000E+00 0.00000E+00
 -1        10 0.00000E+00 0.00000E+00 0.00000E+00
 -1        11 0.00000E+00 0.00000E+00 0.00000E+00
 -1        12 0.00000E+00 0.00000E+00 0.00000E+00
 -1        13 0.00000E+00 0.00000E+00 0.00000E+00
 -1        14 0.00000E+00 0.00000E+00 0.00000E+00
 -1        15 0.00000E+00 0.00000E+00 0.00000E+00
 -1        16 0.00000E+00 0.00000E+00 0.00000E+00
 -1        17 0.00000E+00 0.00000E+00 0.00000E+00
 -1        18 0.00000E+00 0.00000E+00 0.00000E+00
 -1        19 0.00000E+00 0.00000E+00 0.00000E+00
 -1        20 0.00000E+00 0.00000E+00 0.00000E+00
 -1        21 0.00000E+00 0.00000E+00 0.00000E+00
 -1        22 0.00000E+00 0.00000E+00 0.00000E+00
 -1        23 4.10321E-04-2.59981E-04 3.17197E-17
 -1        24 7.01531E-04-3.99355E-04-3.42235E-17
 -1        25 9.70941E-04-4.95567E-04-1.95919E-16
 -1        26 1.23488E-03-5.62794E-04-4.52417E-16
 -1        27 1.49802E-03-6.10103E-04-8.00290E-16
 -1        28 1.76253E-03-6.42796E-04-1.24086E-15
 -1        29 2.02950E-03-6.64493E-04-1.77083E-15
 -1        30 2.29949E-03-6.77806E-04-2.38748E-15
 -1        31 2.57283E-03-6.84684E-04-3.08968E-15
 -1        32 2.84977E-03-6.86618E-04-3.87471E-15
 -1        33 3.13058E-03-6.84791E-04-4.74039E-15
 -1        34 3.41567E-03-6.80201E-04-5.67879E-15
 -1        35 3.70563E-03-6.73787E-04-6.69444E-15
 -1        36 4.00128E-03-6.66566E-04-7.78383E-15
 -1        37 4.30377E-03-6.59797E-04-8.94488E-15
 -1        38 4.61450E-03-6.55175E-04-1.01720E-14
 -1        39 4.93513E-03-6.55076E-04-1.14656E-14
 -1        40 5.26736E-03-6.62810E-04-1.28304E-14
 -1        41 5.61254E-03-6.82840E-04-1.42631E-14
 -1        42 5.97092E-03-7.20786E-04-1.57703E-14
 -1        43 6.34050E-03-7.82860E-04-1.73538E-14
 -1        44 6.71561E-03-8.74201E-04-1.90115E-14
 -1        45 7.08590E-03-9.95568E-04-2.07509E-14
 -1        46 7.43733E-03-1.13870E-03-2.25852E-14
 -1        47 7.75700E-03-1.28275E-03-2.45128E-14
 -1        48 8.04109E-03-1.39661E-03-2.65406E-14
 -1        49 8.30119E-03-1.45047E-03-2.86719E-14
 -1        50 8.56133E-03-1.43183E-03-3.09028E-14
 -1        51 8.84550E-03-1.35323E-03-3.32306E-14
 -1        52 9.16525E-03-1.24446E-03-3.56526E-14
 -1        53 9.51680E-03-1.13658E-03-3.81535E-14
 -1        54 9.88724E-03-1.05042E-03-4.07274E-14
 -1        55 1.02626E-02-9.94220E-04-4.33681E-14
 -1        56 1.06325E-02-9.67200E-04-4.60669E-14
 -1        57 1.09915E-02-9.64220E-04-4.88250E-14
 -1        58 1.13375E-02-9.79081E-04-5.16351E-14
 -1        59 1.16709E-02-1.00620E-03-5.44933E-14
 -1        60 1.19932E-02-1.04118E-03-5.73946E-14
 -1        61 1.23063E-02-1.08081E-03-6.03473E-14
 -1        62 1.26120E-02-1.12288E-03-6.33647E-14
 -1        63 1.29119E-02-1.16593E-03-6.64486E-14
 -1        64 1.32074E-02-1.20903E-03-6.95760E-14
 -1        65 1.34996E-02-1.25163E-03-7.27512E-14
 -1        66 1.37894E-02-1.29343E-03-7.59689E-14
 -1        67 1.40774E-02-1.33427E-03-7.92250E-14
 -1        68 1.43643E-02-1.37412E-03-8.25099E-14
 -1        69 1.46504E-02-1.41301E-03-8.58326E-14
 -1        70 1.49360E-02-1.45103E-03-8.91625E-14
 -1        71 1.52216E-02-1.48839E-03-9.25153E-14
 -1        72 4.12769E-04 2.60678E-04 3.40914E-17
 -1        73 7.01375E-04 4.02053E-04-2.76573E-17
 -1        74 9.71513E-04 4.97340E-04-1.81983E-16
 -1        75 1.23577E-03 5.64519E-04-4.28616E-16
 -1        76 1.49906E-03 6.11904E-04-7.65880E-16
 -1        77 1.76368E-03 6.44738E-04-1.19314E-15
 -1        78 2.03073E-03 6.66633E-04-1.70729E-15
 -1        79 2.30081E-03 6.80213E-04-2.30657E-15
 -1        80 2.57421E-03 6.87454E-04-2.99045E-15
 -1        81 2.85118E-03 6.89888E-04-3.75840E-15
 -1        82 3.13193E-03 6.88758E-04-4.61075E-15
 -1        83 3.41678E-03 6.85135E-04-5.54119E-15
 -1        84 3.70614E-03 6.80046E-04-6.54416E-15
 -1        85 4.00056E-03 6.74585E-04-7.62729E-15
 -1        86 4.30070E-03 6.70045E-04-8.79375E-15
 -1        87 4.60725E-03 6.68029E-04-1.00425E-14
 -1        88 4.92080E-03 6.70550E-04-1.13662E-14
 -1        89 5.24159E-03 6.80057E-04-1.27680E-14
 -1        90 5.56913E-03 6.99324E-04-1.42491E-14
 -1        91 5.90182E-03 7.31090E-04-1.58093E-14
 -1        92 6.23641E-03 7.77316E-04-1.74465E-14
 -1        93 6.56788E-03 8.37990E-04-1.91598E-14
 -1        94 6.88975E-03 9.09626E-04-2.09655E-14
 -1        95 7.19561E-03 9.84062E-04-2.28495E-14
 -1        96 7.48151E-03 1.04858E-03-2.48133E-14
 -1        97 7.74857E-03 1.08840E-03-2.68668E-14
 -1        98 8.00404E-03 1.09130E-03-2.90093E-14
 -1        99 8.25947E-03 1.05251E-03-3.12214E-14
 -1       100 8.52647E-03 9.76762E-04-3.35110E-14
 -1       101 8.81233E-03 8.76247E-04-3.58883E-14
 -1       102 9.11822E-03 7.65730E-04-3.83469E-14
 -1       103 9.44021E-03 6.57915E-04-4.08723E-14
 -1       104 9.77190E-03 5.60966E-04-4.34575E-14
 -1       105 1.01069E-02 4.78376E-04-4.61209E-14
 -1       106 1.04401E-02 4.10168E-04-4.88629E-14
 -1       107 1.07685E-02 3.54400E-04-5.16761E-14
 -1       108 1.10905E-02 3.08365E-04-5.45408E-14
 -1       109 1.14057E-02 2.69351E-04-5.74531E-14
 -1       110 1.17147E-02 2.35009E-04-6.04242E-14
 -1       111 1.20180E-02 2.03487E-04-6.34424E-14
 -1       112 1.23167E-02 1.73411E-04-6.65128E-14
 -1       113 1.26116E-02 1.43824E-04-6.96096E-14
 -1       114 1.29035E-02 1.14093E-04-7.27516E-14
 -1       115 1.31932E-02 8.38236E-05-7.59398E-14
 -1       116 1.34813E-02 5.27961E-05-7.91286E-14
 -1       117 1.37682E-02 2.09076E-05-8.23214E-14
 -1       118 1.40543E-02-1.18583E-05-8.55263E-14
 -1       119 1.43400E-02-4.54394E-05-8.87600E-14
 -1       120 1.46255E-02-7.96604E-05-9.20029E-14
 -1       121 1.49308E-02-1.96775E-04-9.51377E-14
 -1       122 1.49650E-02-2.81191E-04-9.52388E-14
 -1       123 1.49998E-02-3.65466E-04-9.53139E-14
 -1       124 1.50352E-02-4.49338E-04-9.53781E-14
 -1       125 1.50709E-02-5.32639E-04-9.54275E-14
 -1       126 1.51062E-02-6.13925E-04-9.54801E-14
 -1       127 1.51420E-02-6.96072E-04-9.55241E-14
 -1       128 1.51776E-02-7.77849E-04-9.55643E-14
 -1       129 1.52127E-02-8.59496E-04-9.56185E-14
 -1       130 1.52475E-02-9.41277E-04-9.56734E-14
 -1       131 1.52819E-02-1.02344E-03-9.57259E-14
 -1       132 1.53157E-02-1.10474E-03-9.57686E-14
 -1       133 1.53503E-02-1.18807E-03-9.58014E-14
 -1       134 1.53853E-02-1.27197E-03-9.58078E-14
 -1       135 1.54209E-02-1.35628E-03-9.57952E-14
 -1       136 1.54571E-02-1.44070E-03-9.57683E-14
 -1       137 1.02873E-02-4.73561E-05-3.45227E-14
 -1       138 1.01326E-02 1.10279E-04-3.41712E-14
 -1       139 9.86173E-03 2.74028E-04-3.35245E-14
 -1       140 9.53010E-03 4.07907E-04-3.27227E-14
 -1       141 9.13716E-03 5.15268E-04-3.17759E-14
 -1       142 8.70457E-03 5.89622E-04-3.07454E-14
 -1       143 8.21326E-03 6.29485E-04-2.95855E-14
 -1       144 7.76518E-03 6.26838E-04-2.85489E-14
 -1       145 7.30124E-03 5.82989E-04-2.74834E-14
 -1       146 6.86712E-03 4.96069E-04-2.64942E-14
 -1       147 6.53781E-03 3.89746E-04-2.57537E-14
 -1       148 6.24398E-03 2.40721E-04-2.50903E-14
 -1       149 6.07161E-03 9.20558E-05-2.46994E-14
 -1       150 5.98263E-03-7.30606E-05-2.44914E-14
 -1       151 5.99154E-03-2.52587E-04-2.45000E-14
 -1       152 6.09803E-03-4.24294E-04-2.47163E-14
 -1       153 6.29400E-03-5.88627E-04-2.51161E-14
 -1       154 6.57553E-03-7.40960E-04-2.57010E-14
 -1       155 6.93661E-03-8.75505E-04-2.64640E-14
 -1       156 7.37007E-03-9.82594E-04-2.73951E-14
 -1       157 7.84966E-03-1.05046E-03-2.84497E-14
 -1       158 8.31146E-03-1.07082E-03-2.94808E-14
 -1       159 8.82315E-03-1.04273E-03-3.06729E-14
 -1       160 9.66305E-03-8.61366E-04-3.27262E-14
 -1       161 9.96289E-03-7.31861E-04-3.35007E-14
 -1       162 1.01850E-02-5.83334E-04-3.40971E-14
 -1       163 1.03232E-02-4.16907E-04-3.45004E-14
 -1       164 2.40127E-04-1.25108E-04-1.55041E-17
 -1       165 2.25206E-04-9.42156E-05-3.04830E-17
 -1       166 2.19580E-04-7.23697E-05-3.88348E-17
 -1       167 2.16862E-04-5.47094E-05-4.36798E-17
 -1       168 2.15410E-04-3.96203E-05-4.61802E-17
 -1       169 2.14593E-04-2.56581E-05-4.75253E-17
 -1       170 2.14180E-04-1.25059E-05-4.77354E-17
 -1       171 2.14058E-04 2.74370E-07-4.77659E-17
 -1       172 2.14197E-04 1.30666E-05-4.75558E-17
 -1       173 2.14630E-04 2.62573E-05-4.67765E-17
 -1       174 2.15454E-04 4.00495E-05-4.52892E-17
 -1       175 2.16959E-04 5.55183E-05-4.22974E-17
 -1       176 2.19734E-04 7.34043E-05-3.73474E-17
 -1       177 2.25373E-04 9.56085E-05-2.86704E-17
 -1       178 2.39057E-04 1.27175E-04-1.33696E-17
 -1       179 2.97142E-04 1.84948E-04 2.14808E-18
 -1       180 4.67806E-04-2.62554E-04-4.24533E-17
 -1       181 7.65498E-04-3.80109E-04-1.77060E-16
 -1       182 1.04902E-03-4.61627E-04-4.01910E-16
 -1       183 1.32624E-03-5.18634E-04-7.16756E-16
 -1       184 1.60089E-03-5.58063E-04-1.12127E-15
 -1       185 1.87517E-03-5.84504E-04-1.61436E-15
 -1       186 2.15034E-03-6.01156E-04-2.19393E-15
 -1       187 2.42720E-03-6.10346E-04-2.85781E-15
 -1       188 2.70631E-03-6.13805E-04-3.60436E-15
 -1       189 2.98807E-03-6.12855E-04-4.43108E-15
 -1       190 3.27293E-03-6.08553E-04-5.33476E-15
 -1       191 3.56137E-03-6.01813E-04-6.31181E-15
 -1       192 3.85398E-03-5.93544E-04-7.36541E-15
 -1       193 4.15153E-03-5.84802E-04-8.49121E-15
 -1       194 4.45492E-03-5.76977E-04-9.68783E-15
 -1       195 4.76523E-03-5.72021E-04-1.09502E-14
 -1       196 5.08355E-03-5.72729E-04-1.22815E-14
 -1       197 5.41088E-03-5.83028E-04-1.36822E-14
 -1       198 5.74780E-03-6.08180E-04-1.51536E-14
 -1       199 6.09398E-03-6.54648E-04-1.66982E-14
 -1       200 6.44752E-03-7.29139E-04-1.83213E-14
 -1       201 6.80432E-03-8.36148E-04-2.00227E-14
 -1       202 7.15785E-03-9.73525E-04-2.18125E-14
 -1       203 7.50022E-03-1.12708E-03-2.36963E-14
 -1       204 7.82559E-03-1.26821E-03-2.56728E-14
 -1       205 8.13473E-03-1.36076E-03-2.77498E-14
 -1       206 8.43712E-03-1.37834E-03-2.99282E-14
 -1       207 8.74631E-03-1.32104E-03-3.22067E-14
 -1       208 9.07174E-03-1.21518E-03-3.45791E-14
 -1       209 9.41422E-03-1.09688E-03-3.70411E-14
 -1       210 9.76790E-03-9.94727E-04-3.95730E-14
 -1       211 1.01249E-02-9.22877E-04-4.21748E-14
 -1       212 1.04788E-02-8.83452E-04-4.48383E-14
 -1       213 1.08254E-02-8.71947E-04-4.75593E-14
 -1       214 1.11630E-02-8.81655E-04-5.03367E-14
 -1       215 1.14913E-02-9.06133E-04-5.31697E-14
 -1       216 1.18109E-02-9.40163E-04-5.60479E-14
 -1       217 1.21230E-02-9.79896E-04-5.89744E-14
 -1       218 1.24287E-02-1.02266E-03-6.19545E-14
 -1       219 1.27294E-02-1.06670E-03-6.49952E-14
 -1       220 1.30259E-02-1.11089E-03-6.80959E-14
 -1       221 1.33193E-02-1.15456E-03-7.12435E-14
 -1       222 1.36103E-02-1.19736E-03-7.44275E-14
 -1       223 1.38995E-02-1.23911E-03-7.76565E-14
 -1       224 1.41873E-02-1.27975E-03-8.09216E-14
 -1       225 1.44742E-02-1.31931E-03-8.42177E-14
 -1       226 1.47606E-02-1.35786E-03-8.75342E-14
 -1       227 1.50465E-02-1.39557E-03-9.08729E-14
 -1       228 6.03456E-04 3.29623E-04-7.23569E-17
 -1       229 8.92115E-04 4.30086E-04-2.33940E-16
 -1       230 1.17071E-03 5.00328E-04-4.84554E-16
 -1       231 1.44494E-03 5.49489E-04-8.23286E-16
 -1       232 1.71790E-03 5.83306E-04-1.25014E-15
 -1       233 1.99134E-03 6.05672E-04-1.76374E-15
 -1       234 2.26625E-03 6.19381E-04-2.36286E-15
 -1       235 2.54328E-03 6.26507E-04-3.04427E-15
 -1       236 2.82285E-03 6.28637E-04-3.80768E-15
 -1       237 3.10532E-03 6.27031E-04-4.65336E-15
 -1       238 3.39104E-03 6.22761E-04-5.57720E-15
 -1       239 3.68041E-03 6.16827E-04-6.57686E-15
 -1       240 3.97389E-03 6.10295E-04-7.65666E-15
 -1       241 4.27199E-03 6.04416E-04-8.81735E-15
 -1       242 4.57521E-03 6.00764E-04-1.00572E-14
 -1       243 4.88398E-03 6.01347E-04-1.13744E-14
 -1       244 5.19843E-03 6.08662E-04-1.27688E-14
 -1       245 5.51827E-03 6.25625E-04-1.42390E-14
 -1       246 5.84241E-03 6.55252E-04-1.57864E-14
 -1       247 6.16879E-03 6.99949E-04-1.74154E-14
 -1       248 6.49419E-03 7.60292E-04-1.91229E-14
 -1       249 6.81451E-03 8.33399E-04-2.09168E-14
 -1       250 7.12559E-03 9.11431E-04-2.27874E-14
 -1       251 7.42464E-03 9.81351E-04-2.47390E-14
 -1       252 7.71191E-03 1.02723E-03-2.67791E-14
 -1       253 7.99149E-03 1.03521E-03-2.89089E-14
 -1       254 8.27038E-03 9.99121E-04-3.11160E-14
 -1       255 8.55585E-03 9.23304E-04-3.33982E-14
 -1       256 8.85267E-03 8.20583E-04-3.57660E-14
 -1       257 9.16178E-03 7.06901E-04-3.82131E-14
 -1       258 9.48085E-03 5.96035E-04-4.07331E-14
 -1       259 9.80588E-03 4.96785E-04-4.33171E-14
 -1       260 1.01327E-02 4.12842E-04-4.59737E-14
 -1       261 1.04580E-02 3.44139E-04-4.87104E-14
 -1       262 1.07795E-02 2.88518E-04-5.15135E-14
 -1       263 1.10961E-02 2.43044E-04-5.43665E-14
 -1       264 1.14074E-02 2.04807E-04-5.72648E-14
 -1       265 1.17137E-02 1.71318E-04-6.02215E-14
 -1       266 1.20154E-02 1.40630E-04-6.32333E-14
 -1       267 1.23133E-02 1.11319E-04-6.62943E-14
 -1       268 1.26079E-02 8.23997E-05-6.93943E-14
 -1       269 1.28999E-02 5.32317E-05-7.25291E-14
 -1       270 1.31899E-02 2.34260E-05-7.57004E-14
 -1       271 1.34784E-02-7.22975E-06-7.88858E-14
 -1       272 1.37658E-02-3.88287E-05-8.20842E-14
 -1       273 1.40524E-02-7.13800E-05-8.52948E-14
 -1       274 1.43385E-02-1.04819E-04-8.85230E-14
 -1       275 1.46243E-02-1.38981E-04-9.17593E-14
 -1       276 1.47004E-02-2.08935E-04-9.23905E-14
 -1       277 1.47350E-02-2.93007E-04-9.24667E-14
 -1       278 1.47701E-02-3.76756E-04-9.25342E-14
 -1       279 1.48059E-02-4.60069E-04-9.25922E-14
 -1       280 1.48413E-02-5.41497E-04-9.26413E-14
 -1       281 1.48773E-02-6.23875E-04-9.26863E-14
 -1       282 1.49131E-02-7.05899E-04-9.27310E-14
 -1       283 1.49485E-02-7.87729E-04-9.27721E-14
 -1       284 1.49834E-02-8.69558E-04-9.28135E-14
 -1       285 1.50178E-02-9.51579E-04-9.28492E-14
 -1       286 1.50515E-02-1.03256E-03-9.28770E-14
 -1       287 1.50858E-02-1.11539E-03-9.28928E-14
 -1       288 1.51204E-02-1.19871E-03-9.28925E-14
 -1       289 1.51556E-02-1.28247E-03-9.28804E-14
 -1       290 1.51009E-02-1.33899E-03-9.18807E-14
 -1       291 1.03615E-02-2.03416E-04-3.58747E-14
 -1       292 1.01954E-02-8.46143E-05-3.52982E-14
 -1       293 9.91058E-03 3.56592E-05-3.48726E-14
 -1       294 9.55368E-03 2.21631E-04-3.38756E-14
 -1       295 9.17422E-03 4.06762E-04-3.27823E-14
 -1       296 8.78459E-03 5.66398E-04-3.16051E-14
 -1       297 8.38341E-03 6.81530E-04-3.03286E-14
 -1       298 8.00850E-03 7.04954E-04-2.90175E-14
 -1       299 7.63948E-03 6.52906E-04-2.77632E-14
 -1       300 7.24991E-03 5.15032E-04-2.65061E-14
 -1       301 6.84151E-03 3.56281E-04-2.56239E-14
 -1       302 6.49710E-03 1.72475E-04-2.46647E-14
 -1       303 6.18784E-03 4.97654E-05-2.42377E-14
 -1       304 6.00653E-03-6.09587E-05-2.38521E-14
 -1       305 5.94514E-03-1.52791E-04-2.36840E-14
 -1       306 6.02972E-03-2.50177E-04-2.38518E-14
 -1       307 6.23589E-03-3.75004E-04-2.42432E-14
 -1       308 6.53896E-03-5.28789E-04-2.47973E-14
 -1       309 6.92863E-03-6.99073E-04-2.54542E-14
 -1       310 7.31937E-03-9.00515E-04-2.65031E-14
 -1       311 7.73400E-03-1.06259E-03-2.76417E-14
 -1       312 8.11241E-03-1.13924E-03-2.88896E-14
 -1       313 8.49742E-03-1.13667E-03-3.02300E-14
 -1       314 8.90262E-03-1.01958E-03-3.16548E-14
 -1       315 9.32474E-03-8.55769E-04-3.27884E-14
 -1       316 9.69116E-03-6.85293E-04-3.38196E-14
 -1       317 1.00084E-02-5.30589E-04-3.46480E-14
 -1       318 1.02490E-02-3.97225E-04-3.53190E-14
 -1       319 1.03803E-02-2.92627E-04-3.57272E-14
 -1       320 4.55409E-04-1.63768E-04-1.31280E-16
 -1       321 4.73946E-04-2.11910E-04-1.06103E-16
 -1       322 4.40754E-04-9.31365E-05-1.56359E-16
 -1       323 4.37829E-04-6.42128E-05-1.61760E-16
 -1       324 4.36211E-04-3.74543E-05-1.64473E-16
 -1       325 4.35494E-04-1.18620E-05-1.65415E-16
 -1       326 4.35522E-04 1.33782E-05-1.65209E-16
 -1       327 4.36300E-04 3.90272E-05-1.63454E-16
 -1       328 4.37960E-04 6.54375E-05-1.59666E-16
 -1       329 4.40980E-04 9.45289E-05-1.53140E-16
 -1       330 4.46269E-04 1.27329E-04-1.42800E-16
 -1       331 4.55908E-04 1.66254E-04-1.26537E-16
 -1       332 4.75566E-04 2.15958E-04-1.00878E-16
 -1       333 5.31363E-04 2.68739E-04-9.13373E-17
 -1       334 8.23566E-04 3.71146E-04-2.56258E-16
 -1       335 8.62623E-04-3.54804E-04-3.39203E-16
 -1       336 1.14893E-03-4.21988E-04-6.23169E-16
 -1       337 1.43182E-03-4.69125E-04-9.94501E-16
 -1       338 1.71289E-03-5.01267E-04-1.45222E-15
 -1       339 1.99336E-03-5.22102E-04-1.99649E-15
 -1       340 2.27411E-03-5.34340E-04-2.62400E-15
 -1       341 2.55579E-03-5.39991E-04-3.33342E-15
 -1       342 2.83889E-03-5.40567E-04-4.12251E-15
 -1       343 3.12381E-03-5.37232E-04-4.99011E-15
 -1       344 3.41094E-03-5.30936E-04-5.93200E-15
 -1       345 3.70069E-03-5.22540E-04-6.94898E-15
 -1       346 3.99353E-03-5.12961E-04-8.04046E-15
 -1       347 4.29004E-03-5.03337E-04-9.20290E-15
 -1       348 4.59086E-03-4.95225E-04-1.04336E-14
 -1       349 4.89679E-03-4.90855E-04-1.17314E-14
 -1       350 5.20872E-03-4.93417E-04-1.30984E-14
 -1       351 5.52767E-03-5.07346E-04-1.45370E-14
 -1       352 5.85474E-03-5.38484E-04-1.60477E-14
 -1       353 6.19094E-03-5.93830E-04-1.76344E-14
 -1       354 6.53664E-03-6.80332E-04-1.92968E-14
 -1       355 6.89048E-03-8.01867E-04-2.10428E-14
 -1       356 7.24776E-03-9.53672E-04-2.28796E-14
 -1       357 7.60036E-03-1.11536E-03-2.48078E-14
 -1       358 7.94101E-03-1.24881E-03-2.68318E-14
 -1       359 8.27061E-03-1.31155E-03-2.89567E-14
 -1       360 8.60028E-03-1.28400E-03-3.11856E-14
 -1       361 8.94093E-03-1.18581E-03-3.35135E-14
 -1       362 9.29362E-03-1.05939E-03-3.59297E-14
 -1       363 9.65100E-03-9.42820E-04-3.84228E-14
 -1       364 1.00050E-02-8.56474E-04-4.09876E-14
 -1       365 1.03509E-02-8.05073E-04-4.36176E-14
 -1       366 1.06874E-02-7.84717E-04-4.63045E-14
 -1       367 1.10150E-02-7.88452E-04-4.90505E-14
 -1       368 1.13346E-02-8.09287E-04-5.18490E-14
 -1       369 1.16473E-02-8.41409E-04-5.46991E-14
 -1       370 1.19544E-02-8.80438E-04-5.76019E-14
 -1       371 1.22568E-02-9.23278E-04-6.05505E-14
 -1       372 1.25552E-02-9.67851E-04-6.35555E-14
 -1       373 1.28505E-02-1.01282E-03-6.66216E-14
 -1       374 1.31433E-02-1.05738E-03-6.97431E-14
 -1       375 1.34341E-02-1.10107E-03-7.29067E-14
 -1       376 1.37234E-02-1.14367E-03-7.61044E-14
 -1       377 1.40115E-02-1.18509E-03-7.93422E-14
 -1       378 1.42988E-02-1.22535E-03-8.26140E-14
 -1       379 1.45854E-02-1.26451E-03-8.59096E-14
 -1       380 1.48433E-02-1.30209E-03-8.88837E-14
 -1       381 1.10889E-03 4.43987E-04-5.07390E-16
 -1       382 1.38965E-03 4.95147E-04-8.45081E-16
 -1       383 1.66822E-03 5.30346E-04-1.26927E-15
 -1       384 1.94622E-03 5.53612E-04-1.77948E-15
 -1       385 2.22472E-03 5.67866E-04-2.37440E-15
 -1       386 2.50445E-03 5.75272E-04-3.05137E-15
 -1       387 2.78591E-03 5.77475E-04-3.80923E-15
 -1       388 3.06951E-03 5.75766E-04-4.64759E-15
 -1       389 3.35561E-03 5.71220E-04-5.56385E-15
 -1       390 3.64457E-03 5.64827E-04-6.55693E-15
 -1       391 3.93680E-03 5.57617E-04-7.63004E-15
 -1       392 4.23274E-03 5.50796E-04-8.78242E-15
 -1       393 4.53284E-03 5.45879E-04-1.00133E-14
 -1       394 4.83750E-03 5.44815E-04-1.13224E-14
 -1       395 5.14703E-03 5.50068E-04-1.27075E-14
 -1       396 5.46145E-03 5.64579E-04-1.41675E-14
 -1       397 5.78036E-03 5.91517E-04-1.57050E-14
 -1       398 6.10268E-03 6.33652E-04-1.73222E-14
 -1       399 6.42645E-03 6.92204E-04-1.90187E-14
 -1       400 6.74875E-03 7.65176E-04-2.07987E-14
 -1       401 7.06602E-03 8.45563E-04-2.26579E-14
 -1       402 7.37514E-03 9.20542E-04-2.45960E-14
 -1       403 7.67507E-03 9.73216E-04-2.66215E-14
 -1       404 7.96823E-03 9.87738E-04-2.87372E-14
 -1       405 8.26009E-03 9.55907E-04-3.09343E-14
 -1       406 8.55679E-03 8.81249E-04-3.32088E-14
 -1       407 8.86216E-03 7.77229E-04-3.55669E-14
 -1       408 9.17648E-03 6.61097E-04-3.80055E-14
 -1       409 9.49730E-03 5.47742E-04-4.05180E-14
 -1       410 9.82108E-03 4.46550E-04-4.30964E-14
 -1       411 1.01446E-02 3.61358E-04-4.57452E-14
 -1       412 1.04656E-02 2.92025E-04-4.84735E-14
 -1       413 1.07826E-02 2.36246E-04-5.12661E-14
 -1       414 1.10951E-02 1.90936E-04-5.41101E-14
 -1       415 1.14030E-02 1.53062E-04-5.69990E-14
 -1       416 1.17066E-02 1.20041E-04-5.99412E-14
 -1       417 1.20064E-02 8.98583E-05-6.29441E-14
 -1       418 1.23029E-02 6.10435E-05-6.59993E-14
 -1       419 1.25966E-02 3.25857E-05-6.90958E-14
 -1       420 1.28882E-02 3.82991E-06-7.22269E-14
 -1       421 1.31781E-02-2.56178E-05-7.53892E-14
 -1       422 1.34666E-02-5.59690E-05-7.85682E-14
 -1       423 1.37541E-02-8.73137E-05-8.17659E-14
 -1       424 1.40408E-02-1.19658E-04-8.49791E-14
 -1       425 1.43271E-02-1.52941E-04-8.82042E-14
 -1       426 1.45138E-02-1.80803E-04-9.02981E-14
 -1       427 1.45407E-02-3.88417E-04-8.97550E-14
 -1       428 1.45051E-02-3.05057E-04-8.96953E-14
 -1       429 1.45092E-02-2.43040E-04-8.99994E-14
 -1       430 1.45762E-02-4.69880E-04-8.98039E-14
 -1       431 1.46125E-02-5.52271E-04-8.98444E-14
 -1       432 1.46486E-02-6.34259E-04-8.98848E-14
 -1       433 1.46842E-02-7.15977E-04-8.99279E-14
 -1       434 1.47194E-02-7.97597E-04-8.99646E-14
 -1       435 1.47540E-02-8.79303E-04-8.99919E-14
 -1       436 1.47876E-02-9.59879E-04-9.00086E-14
 -1       437 1.48216E-02-1.04224E-03-9.00136E-14
 -1       438 1.48558E-02-1.12509E-03-9.00064E-14
 -1       439 1.48905E-02-1.20844E-03-8.99898E-14
 -1       440 1.00761E-02-1.15238E-04-3.64366E-14
 -1       441 1.04140E-02-2.60443E-04-3.71629E-14
 -1       442 1.02928E-02-1.98396E-04-3.70247E-14
 -1       443 9.67154E-03 7.42049E-05-3.51493E-14
 -1       444 9.28295E-03 2.75861E-04-3.39513E-14
 -1       445 4.45896E-04-1.25428E-04-1.46967E-16
 -1       446 8.54818E-03 6.39482E-04-3.13274E-14
 -1       447 8.16071E-03 7.38942E-04-2.96300E-14
 -1       448 7.87634E-03 7.23255E-04-2.83613E-14
 -1       449 7.51657E-03 6.08674E-04-2.67957E-14
 -1       450 7.05679E-03 3.83859E-04-2.53217E-14
 -1       451 6.72625E-03 2.15656E-04-2.43746E-14
 -1       452 6.31805E-03 4.06709E-05-2.36656E-14
 -1       453 6.09705E-03-4.61992E-05-2.32874E-14
 -1       454 5.94224E-03-1.17019E-04-2.28644E-14
 -1       455 5.95960E-03-1.74460E-04-2.30065E-14
 -1       456 6.13366E-03-2.49694E-04-2.32227E-14
 -1       457 6.41730E-03-3.68454E-04-2.36942E-14
 -1       458 6.73776E-03-5.21391E-04-2.43189E-14
 -1       459 7.22382E-03-7.82481E-04-2.54610E-14
 -1       460 7.58420E-03-9.82713E-04-2.66347E-14
 -1       461 7.98037E-03-1.14463E-03-2.81645E-14
 -1       462 8.28713E-03-1.18498E-03-2.94795E-14
 -1       463 8.66603E-03-1.10885E-03-3.12431E-14
 -1       464 9.10097E-03-9.04746E-04-3.29596E-14
 -1       465 9.42058E-03-7.38601E-04-3.40013E-14
 -1       466 9.81230E-03-5.41661E-04-3.52312E-14
 -1       467 1.01181E-02-4.09305E-04-3.59897E-14
 -1       468 1.03381E-02-3.15276E-04-3.67009E-14
 -1       469 8.89633E-03 4.74420E-04-3.27517E-14
 -1       470 9.30922E-04 3.43053E-04-4.28185E-16
 -1       471 6.66245E-04-7.41247E-05-3.46436E-16
 -1       472 6.70223E-04-1.14491E-04-3.38562E-16
 -1       473 6.63525E-04 1.09991E-06-3.50848E-16
 -1       474 6.64253E-04 3.82308E-05-3.48805E-16
 -1       475 6.66414E-04 7.58101E-05-3.43472E-16
 -1       476 6.70515E-04 1.16327E-04-3.33843E-16
 -1       477 6.77467E-04 1.60661E-04-3.18881E-16
 -1       478 6.89199E-04 2.10847E-04-2.96241E-16
 -1       479 1.21686E-03 4.01861E-04-7.36082E-16
 -1       480 9.76220E-04-3.25383E-04-5.21535E-16
 -1       481 8.68660E-03 5.71632E-04-3.24405E-14
 -1       482 1.26223E-03-3.78500E-04-8.60904E-16
 -1       483 1.54749E-03-4.15974E-04-1.28508E-15
 -1       484 1.83202E-03-4.41142E-04-1.79473E-15
 -1       485 2.11621E-03-4.56791E-04-2.38802E-15
 -1       486 2.40045E-03-4.65098E-04-3.06116E-15
 -1       487 2.68511E-03-4.67732E-04-3.81416E-15
 -1       488 2.97047E-03-4.65972E-04-4.64479E-15
 -1       489 3.25678E-03-4.60829E-04-5.55169E-15
 -1       490 3.54428E-03-4.53159E-04-6.53459E-15
 -1       491 3.83322E-03-4.43788E-04-7.59088E-15
 -1       492 4.12385E-03-4.33653E-04-8.71894E-15
 -1       493 4.41652E-03-4.23961E-04-9.91565E-15
 -1       494 4.71169E-03-4.16390E-04-1.11808E-14
 -1       495 5.01004E-03-4.13317E-04-1.25142E-14
 -1       496 5.31265E-03-4.18087E-04-1.39192E-14
 -1       497 5.62124E-03-4.35292E-04-1.53969E-14
 -1       498 5.93844E-03-4.70988E-04-1.69484E-14
 -1       499 6.26783E-03-5.32669E-04-1.85763E-14
 -1       500 6.61308E-03-6.28429E-04-2.02789E-14
 -1       501 6.97534E-03-7.63762E-04-2.20680E-14
 -1       502 7.34902E-03-9.33513E-04-2.39471E-14
 -1       503 7.72095E-03-1.10860E-03-2.59201E-14
 -1       504 8.08015E-03-1.23166E-03-2.79904E-14
 -1       505 8.43031E-03-1.24892E-03-3.01648E-14
 -1       506 8.78952E-03-1.16136E-03-3.24466E-14
 -1       507 9.16162E-03-1.02159E-03-3.48234E-14
 -1       508 9.53535E-03-8.87112E-04-3.72784E-14
 -1       509 9.89769E-03-7.87005E-04-3.98058E-14
 -1       510 1.02430E-02-7.26403E-04-4.24015E-14
 -1       511 1.05726E-02-6.99771E-04-4.50557E-14
 -1       512 1.08900E-02-6.99004E-04-4.77694E-14
 -1       513 1.11989E-02-7.16607E-04-5.05359E-14
 -1       514 1.15020E-02-7.46541E-04-5.33556E-14
 -1       515 1.18009E-02-7.84254E-04-5.62281E-14
 -1       516 1.20968E-02-8.26469E-04-5.91501E-14
 -1       517 1.23905E-02-8.70925E-04-6.21239E-14
 -1       518 1.26823E-02-9.16125E-04-6.51556E-14
 -1       519 1.29726E-02-9.61127E-04-6.82464E-14
 -1       520 1.32618E-02-1.00537E-03-7.13869E-14
 -1       521 1.35501E-02-1.04858E-03-7.45621E-14
 -1       522 1.38377E-02-1.09061E-03-7.77732E-14
 -1       523 1.41246E-02-1.13146E-03-8.10208E-14
 -1       524 1.44111E-02-1.17117E-03-8.42942E-14
 -1       525 1.02074E-02-1.80373E-04-3.79237E-14
 -1       526 1.78432E-03 4.71546E-04-1.60562E-15
 -1       527 2.06702E-03 4.89505E-04-2.16630E-15
 -1       528 2.34988E-03 4.99670E-04-2.80896E-15
 -1       529 2.63337E-03 5.03882E-04-3.53259E-15
 -1       530 2.91787E-03 5.03567E-04-4.33509E-15
 -1       531 3.20372E-03 4.99867E-04-5.21576E-15
 -1       532 3.49121E-03 4.93766E-04-6.17301E-15
 -1       533 3.78066E-03 4.86215E-04-7.20846E-15
 -1       534 4.07244E-03 4.78257E-04-8.32267E-15
 -1       535 4.36693E-03 4.71165E-04-9.51571E-15
 -1       536 4.66464E-03 4.66570E-04-1.07867E-14
 -1       537 4.96611E-03 4.66586E-04-1.21326E-14
 -1       538 5.27198E-03 4.73870E-04-1.35553E-14
 -1       539 5.58286E-03 4.91573E-04-1.50529E-14
 -1       540 5.89923E-03 5.23040E-04-1.66274E-14
 -1       541 6.22104E-03 5.71100E-04-1.82805E-14
 -1       542 6.54720E-03 6.36716E-04-2.00127E-14
 -1       543 6.87500E-03 7.16885E-04-2.18256E-14
 -1       544 7.20017E-03 8.02281E-04-2.37180E-14
 -1       545 7.51838E-03 8.76221E-04-2.56938E-14
 -1       546 7.82828E-03 9.17977E-04-2.77576E-14
 -1       547 8.13341E-03 9.10946E-04-2.99102E-14
 -1       548 8.44066E-03 8.51795E-04-3.21457E-14
 -1       549 8.75541E-03 7.52531E-04-3.44660E-14
 -1       550 9.07822E-03 6.33414E-04-3.68675E-14
 -1       551 9.40560E-03 5.13444E-04-3.93435E-14
 -1       552 9.73300E-03 4.04988E-04-4.18904E-14
 -1       553 1.00570E-02 3.13369E-04-4.45056E-14
 -1       554 1.03760E-02 2.38949E-04-4.71924E-14
 -1       555 1.06895E-02 1.79458E-04-4.99536E-14
 -1       556 1.09979E-02 1.31655E-04-5.27708E-14
 -1       557 1.13018E-02 9.22912E-05-5.56335E-14
 -1       558 1.16019E-02 5.85532E-05-5.85453E-14
 -1       559 1.18989E-02 2.82152E-05-6.15129E-14
 -1       560 1.21933E-02-3.72889E-07-6.45395E-14
 -1       561 1.24857E-02-2.83660E-05-6.76147E-14
 -1       562 1.27763E-02-5.65265E-05-7.07259E-14
 -1       563 1.30656E-02-8.53232E-05-7.38724E-14
 -1       564 1.33538E-02-1.15016E-04-7.70390E-14
 -1       565 1.36413E-02-1.45724E-04-8.02249E-14
 -1       566 1.39281E-02-1.77476E-04-8.34282E-14
 -1       567 1.42144E-02-2.10235E-04-8.66545E-14
 -1       568 1.43476E-02-4.81405E-04-8.70136E-14
 -1       569 1.43841E-02-5.63226E-04-8.70525E-14
 -1       570 1.42755E-02-3.17538E-04-8.69186E-14
 -1       571 1.43114E-02-3.99762E-04-8.69705E-14
 -1       572 1.44202E-02-6.44650E-04-8.70896E-14
 -1       573 1.44556E-02-7.25856E-04-8.71221E-14
 -1       574 1.44904E-02-8.07047E-04-8.71446E-14
 -1       575 1.45241E-02-8.87052E-04-8.71543E-14
 -1       576 1.45579E-02-9.68813E-04-8.71554E-14
 -1       577 1.45917E-02-1.05110E-03-8.71437E-14
 -1       578 1.46257E-02-1.13398E-03-8.71251E-14
 -1       579 1.04237E-02-2.90052E-04-3.82611E-14
 -1       580 1.50117E-03 4.43380E-04-1.12849E-15
 -1       581 9.85656E-03-4.50470E-05-3.68761E-14
 -1       582 1.02627E-02-3.49158E-04-3.77800E-14
 -1       583 7.12623E-04-2.49749E-04-2.93819E-16
 -1       584 9.44943E-03 1.51737E-04-3.54324E-14
 -1       585 8.44970E-03-1.19010E-03-3.03180E-14
 -1       586 7.81743E-03-1.09589E-03-2.70713E-14
 -1       587 6.24572E-03-2.69172E-04-2.25479E-14
 -1       588 7.73681E-03 7.05780E-04-2.75025E-14
 -1       589 6.64150E-04-3.59948E-05-3.50221E-16
 -1       590 8.34314E-03 7.16655E-04-3.07169E-14
 -1       591 7.26929E-03 4.98964E-04-2.54451E-14
 -1       592 7.97729E-03 7.56146E-04-2.87421E-14
 -1       593 5.89668E-03-1.36481E-04-2.19315E-14
 -1       594 6.89729E-03 3.06027E-04-2.41267E-14
 -1       595 6.46641E-03 9.41195E-05-2.31754E-14
 -1       596 6.17028E-03-2.44984E-05-2.26118E-14
 -1       597 7.43761E-03-8.92012E-04-2.55416E-14
 -1       598 5.97429E-03-9.13358E-05-2.21972E-14
 -1       599 5.99703E-03-1.80136E-04-2.21108E-14
 -1       600 6.56665E-03-4.07837E-04-2.32088E-14
 -1       601 8.90708E-03-1.01454E-03-3.26785E-14
 -1       602 6.97715E-03-6.22044E-04-2.41816E-14
 -1       603 8.07999E-03-1.18611E-03-2.83525E-14
 -1       604 1.00342E-02-4.35083E-04-3.70040E-14
 -1       605 9.29017E-03-8.03843E-04-3.43549E-14
 -1       606 9.63524E-03-6.17791E-04-3.55967E-14
 -1       607 1.04181E-02-2.49544E-04-3.85354E-14
 -1       608 7.03445E-04 2.88970E-04-2.35580E-16
 -1       609 9.10827E-03 3.38650E-04-3.42011E-14
 -1       610 6.76966E-04-1.58439E-04-3.25379E-16
 -1       611 1.46053E-02-1.19906E-03-8.65223E-14
 -1       612 8.69151E-03-1.13568E-03-3.17216E-14
 -1       613 6.62056E-03 1.92727E-04-2.29255E-14
 -1       614 7.48442E-03 6.25303E-04-2.61212E-14
 -1       615 9.00058E-04 7.29027E-05-5.94397E-16
 -1       616 8.97917E-04 2.47606E-05-6.00424E-16
 -1       617 9.12252E-04 1.75791E-04-5.64453E-16
 -1       618 9.24540E-04 2.33973E-04-5.37209E-16
 -1       619 1.04902E-03 3.10306E-04-6.20834E-16
 -1       620 9.66434E-03 5.43098E-05-3.72304E-14
 -1       621 1.33487E-03 3.56088E-04-9.82291E-16
 -1       622 8.51931E-03 6.63534E-04-3.19358E-14
 -1       623 9.88925E-03-5.30992E-04-3.74895E-14
 -1       624 1.38370E-03-3.31293E-04-1.11524E-15
 -1       625 1.67003E-03-3.59766E-04-1.59075E-15
 -1       626 1.95641E-03-3.78459E-04-2.14942E-15
 -1       627 2.24266E-03-3.89419E-04-2.78817E-15
 -1       628 2.52880E-03-3.94328E-04-3.50555E-15
 -1       629 2.81485E-03-3.94524E-04-4.30073E-15
 -1       630 3.10088E-03-3.91061E-04-5.17158E-15
 -1       631 3.38692E-03-3.84800E-04-6.11883E-15
 -1       632 3.67300E-03-3.76513E-04-7.14107E-15
 -1       633 3.95912E-03-3.66989E-04-8.23493E-15
 -1       634 4.24534E-03-3.57157E-04-9.39828E-15
 -1       635 4.53175E-03-3.48230E-04-1.06304E-14
 -1       636 4.81865E-03-3.41858E-04-1.19306E-14
 -1       637 5.10673E-03-3.40311E-04-1.33025E-14
 -1       638 5.39741E-03-3.46702E-04-1.47468E-14
 -1       639 5.69336E-03-3.65311E-04-1.62648E-14
 -1       640 5.99915E-03-4.02116E-04-1.78579E-14
 -1       641 6.32167E-03-4.65686E-04-1.95229E-14
 -1       642 6.66874E-03-5.67743E-04-2.12638E-14
 -1       643 7.04568E-03-7.19951E-04-2.30929E-14
 -1       644 7.86156E-03-1.13161E-03-2.70131E-14
 -1       645 9.43242E-03-8.28406E-04-3.61357E-14
 -1       646 9.80897E-03-7.10984E-04-3.86271E-14
 -1       647 1.01566E-02-6.43866E-04-4.11872E-14
 -1       648 1.04794E-02-6.15167E-04-4.38106E-14
 -1       649 1.07856E-02-6.13165E-04-4.64928E-14
 -1       650 1.10819E-02-6.29325E-04-4.92273E-14
 -1       651 1.13729E-02-6.57652E-04-5.20168E-14
 -1       652 1.16613E-02-6.93871E-04-5.48608E-14
 -1       653 1.19485E-02-7.34900E-04-5.77559E-14
 -1       654 1.22352E-02-7.78545E-04-6.06975E-14
 -1       655 1.25216E-02-8.23287E-04-6.36968E-14
 -1       656 1.28080E-02-8.68118E-04-6.67581E-14
 -1       657 1.30943E-02-9.12411E-04-6.98707E-14
 -1       658 1.33805E-02-9.55806E-04-7.30295E-14
 -1       659 1.36666E-02-9.98129E-04-7.62127E-14
 -1       660 1.39526E-02-1.03933E-03-7.94359E-14
 -1       661 1.42385E-02-1.07942E-03-8.26879E-14
 -1       662 5.85387E-03-1.05317E-04-2.09836E-14
 -1       663 6.73199E-03-4.99473E-04-2.28703E-14
 -1       664 1.90642E-03 4.09903E-04-1.95481E-15
 -1       665 2.76295E-03 4.31041E-04-4.02179E-15
 -1       666 3.04896E-03 4.28725E-04-4.86734E-15
 -1       667 3.33554E-03 4.23555E-04-5.78927E-15
 -1       668 3.62289E-03 4.16413E-04-6.78767E-15
 -1       669 3.91126E-03 4.08186E-04-7.86544E-15
 -1       670 4.20098E-03 3.99893E-04-9.02067E-15
 -1       671 4.49252E-03 3.92808E-04-1.02533E-14
 -1       672 4.78652E-03 3.88582E-04-1.15609E-14
 -1       673 5.08394E-03 3.89371E-04-1.29458E-14
 -1       674 5.38604E-03 3.97919E-04-1.44060E-14
 -1       675 5.69443E-03 4.17564E-04-1.59404E-14
 -1       676 6.01083E-03 4.52045E-04-1.75502E-14
 -1       677 6.33639E-03 5.04856E-04-1.92365E-14
 -1       678 6.67056E-03 5.77635E-04-2.10007E-14
 -1       679 7.00970E-03 6.67173E-04-2.28454E-14
 -1       680 7.34678E-03 7.61036E-04-2.47729E-14
 -1       681 7.67521E-03 8.35232E-04-2.67847E-14
 -1       682 7.99424E-03 8.62201E-04-2.88879E-14
 -1       683 8.31111E-03 8.24911E-04-3.10817E-14
 -1       684 8.63530E-03 7.30862E-04-3.33647E-14
 -1       685 8.96952E-03 6.05616E-04-3.57285E-14
 -1       686 9.30879E-03 4.76154E-04-3.81731E-14
 -1       687 9.64569E-03 3.59534E-04-4.06867E-14
 -1       688 9.97508E-03 2.62304E-04-4.32702E-14
 -1       689 1.02953E-02 1.84329E-04-4.59208E-14
 -1       690 1.06069E-02 1.22594E-04-4.86414E-14
 -1       691 1.09116E-02 7.33478E-05-5.14300E-14
 -1       692 1.12110E-02 3.30658E-05-5.42678E-14
 -1       693 1.15066E-02-1.19998E-06-5.71545E-14
 -1       694 1.17995E-02-3.17578E-05-6.00928E-14
 -1       695 1.20905E-02-6.03243E-05-6.30886E-14
 -1       696 1.23800E-02-8.81157E-05-6.61373E-14
 -1       697 1.26685E-02-1.15950E-04-6.92273E-14
 -1       698 1.29562E-02-1.44341E-04-7.23559E-14
 -1       699 1.32434E-02-1.73585E-04-7.55098E-14
 -1       700 1.35301E-02-2.03824E-04-7.86850E-14
 -1       701 1.38165E-02-2.35104E-04-8.18820E-14
 -1       702 1.40461E-02-2.76014E-04-8.43942E-14
 -1       703 1.41922E-02-6.54692E-04-8.42976E-14
 -1       704 1.44322E-02-1.10693E-03-8.49007E-14
 -1       705 1.41196E-02-4.92993E-04-8.42379E-14
 -1       706 1.42274E-02-7.35189E-04-8.43178E-14
 -1       707 1.41562E-02-5.74039E-04-8.42707E-14
 -1       708 1.00903E-02-1.26364E-04-3.88986E-14
 -1       709 1.42611E-02-8.14423E-04-8.43249E-14
 -1       710 1.42947E-02-8.95375E-04-8.43220E-14
 -1       711 1.43280E-02-9.76891E-04-8.43089E-14
 -1       712 1.62077E-03 3.88391E-04-1.42705E-15
 -1       713 1.04335E-02-3.25832E-04-3.97098E-14
 -1       714 8.72622E-04-2.44507E-04-4.76056E-16
 -1       715 7.16955E-03-7.48401E-04-2.41340E-14
 -1       716 7.85522E-03 7.60154E-04-2.80097E-14
 -1       717 1.05112E-02-2.82860E-04-3.99938E-14
 -1       718 7.54138E-03-9.63911E-04-2.56086E-14
 -1       719 2.47732E-03 4.29523E-04-3.25335E-15
 -1       720 2.19188E-03 4.22979E-04-2.56410E-15
 -1       721 5.88484E-03-1.46482E-04-2.11265E-14
 -1       722 7.05105E-03 4.32799E-04-2.41039E-14
 -1       723 1.12726E-03-2.93094E-04-7.62394E-16
 -1       724 6.36011E-03-3.22585E-04-2.19785E-14
 -1       725 6.24439E-03 2.95750E-05-2.19579E-14
 -1       726 8.14997E-03 7.70165E-04-2.97543E-14
 -1       727 6.05881E-03-2.06645E-04-2.13645E-14
 -1       728 9.14902E-03-9.23254E-04-3.42679E-14
 -1       729 9.04586E-04 1.22719E-04-5.82884E-16
 -1       730 6.01324E-03-5.55831E-05-2.14965E-14
 -1       731 9.04238E-04-1.20315E-04-5.88627E-16
 -1       732 1.02056E-02-3.98350E-04-3.86590E-14
 -1       733 1.03917E-02-2.29528E-04-3.98976E-14
 -1       734 9.54121E-03-7.10028E-04-3.61386E-14
 -1       735 9.30190E-03 2.41746E-04-3.57704E-14
 -1       736 8.91926E-03 4.58216E-04-3.40578E-14
 -1       737 9.11678E-04-1.73153E-04-5.72984E-16
 -1       738 8.97861E-04-2.27475E-05-6.01624E-16
 -1       739 7.46150E-03-9.36516E-04-2.50017E-14
 -1       740 1.40829E-02-4.12058E-04-8.42010E-14
 -1       741 9.02808E-03-1.00021E-03-3.37066E-14
 -1       742 1.40643E-02-3.44308E-04-8.42992E-14
 -1       743 6.78095E-03 3.23891E-04-2.28966E-14
 -1       744 1.42833E-02-1.02804E-03-8.35008E-14
 -1       745 7.61519E-03 7.13301E-04-2.66038E-14
 -1       746 1.05532E-02-2.68962E-04-4.13758E-14
 -1       747 7.24858E-03 5.62420E-04-2.47475E-14
 -1       748 8.99868E-04-7.06263E-05-5.97758E-16
 -1       749 6.32938E-03 1.27874E-04-2.13373E-14
 -1       750 1.16194E-03 2.39772E-04-8.46958E-16
 -1       751 9.17113E-03 3.64137E-04-3.59733E-14
 -1       752 1.03449E-02-1.84151E-04-4.11401E-14
 -1       753 1.79743E-03-3.00736E-04-1.90997E-15
 -1       754 2.08472E-03-3.13704E-04-2.51467E-15
 -1       755 2.37191E-03-3.20640E-04-3.19734E-15
 -1       756 2.65869E-03-3.22815E-04-3.95735E-15
 -1       757 2.94484E-03-3.21265E-04-4.79361E-15
 -1       758 3.23018E-03-3.16838E-04-5.70448E-15
 -1       759 3.51451E-03-3.10256E-04-6.69137E-15
 -1       760 3.79762E-03-3.02206E-04-7.75133E-15
 -1       761 4.07929E-03-2.93418E-04-8.88179E-15
 -1       762 4.35928E-03-2.84768E-04-1.00813E-14
 -1       763 4.63745E-03-2.77364E-04-1.13489E-14
 -1       764 4.91386E-03-2.72639E-04-1.26857E-14
 -1       765 5.18904E-03-2.72455E-04-1.40984E-14
 -1       766 5.46445E-03-2.79269E-04-1.55832E-14
 -1       767 5.74325E-03-2.96575E-04-1.71412E-14
 -1       768 6.03135E-03-3.29894E-04-1.87710E-14
 -1       769 6.33930E-03-3.89770E-04-2.04722E-14
 -1       770 5.84695E-03-6.62097E-05-2.02153E-14
 -1       771 1.01071E-02-5.50988E-04-3.99802E-14
 -1       772 1.04156E-02-5.25713E-04-4.25705E-14
 -1       773 1.07042E-02-5.27162E-04-4.52222E-14
 -1       774 1.09832E-02-5.44717E-04-4.79249E-14
 -1       775 1.12587E-02-5.72738E-04-5.06823E-14
 -1       776 1.15338E-02-6.07717E-04-5.34962E-14
 -1       777 1.18101E-02-6.47206E-04-5.63666E-14
 -1       778 1.20879E-02-6.89391E-04-5.92833E-14
 -1       779 1.23674E-02-7.32929E-04-6.22500E-14
 -1       780 1.26483E-02-7.76863E-04-6.52795E-14
 -1       781 1.29305E-02-8.20544E-04-6.83646E-14
 -1       782 1.32136E-02-8.63571E-04-7.14967E-14
 -1       783 1.34975E-02-9.05717E-04-7.46606E-14
 -1       784 1.37819E-02-9.46887E-04-7.78579E-14
 -1       785 1.40325E-02-9.87796E-04-8.06715E-14
 -1       786 8.33669E-03 7.52148E-04-3.10327E-14
 -1       787 2.89301E-03 3.57572E-04-4.51974E-15
 -1       788 3.75092E-03 3.40043E-04-7.40946E-15
 -1       789 4.03678E-03 3.31561E-04-8.52814E-15
 -1       790 4.32303E-03 3.23196E-04-9.72282E-15
 -1       791 4.61021E-03 3.16113E-04-1.09927E-14
 -1       792 4.89926E-03 3.11847E-04-1.23384E-14
 -1       793 5.19161E-03 3.12449E-04-1.37605E-14
 -1       794 5.48937E-03 3.20657E-04-1.52574E-14
 -1       795 5.79541E-03 3.40102E-04-1.68265E-14
 -1       796 6.11308E-03 3.75469E-04-1.84688E-14
 -1       797 6.44494E-03 4.32282E-04-2.01864E-14
 -1       798 6.79162E-03 5.14055E-04-2.19820E-14
 -1       799 7.14689E-03 6.18937E-04-2.38583E-14
 -1       800 8.17202E-03 8.03188E-04-3.00201E-14
 -1       801 8.85653E-03 5.82414E-04-3.45910E-14
 -1       802 9.21226E-03 4.36584E-04-3.70026E-14
 -1       803 9.56346E-03 3.07993E-04-3.94875E-14
 -1       804 9.90164E-03 2.05081E-04-4.20374E-14
 -1       805 1.02249E-02 1.25398E-04-4.46560E-14
 -1       806 1.05352E-02 6.36930E-05-4.73398E-14
 -1       807 1.08359E-02 1.49053E-05-5.00910E-14
 -1       808 1.11301E-02-2.50109E-05-5.29056E-14
 -1       809 1.14201E-02-5.91040E-05-5.57671E-14
 -1       810 1.17077E-02-8.96237E-05-5.86779E-14
 -1       811 1.19940E-02-1.18203E-04-6.16454E-14
 -1       812 1.22796E-02-1.45994E-04-6.46640E-14
 -1       813 1.25649E-02-1.73782E-04-6.77315E-14
 -1       814 1.28502E-02-2.02070E-04-7.08395E-14
 -1       815 1.31355E-02-2.31154E-04-7.39776E-14
 -1       816 1.34209E-02-2.61180E-04-7.71426E-14
 -1       817 1.37063E-02-2.92203E-04-8.03325E-14
 -1       818 1.38853E-02-3.18059E-04-8.23136E-14
 -1       819 1.13821E-03 5.78572E-05-9.09903E-16
 -1       820 1.40325E-02-8.22246E-04-8.15172E-14
 -1       821 1.39648E-02-6.64066E-04-8.15084E-14
 -1       822 1.40653E-02-9.02734E-04-8.15038E-14
 -1       823 1.39992E-02-7.43017E-04-8.15161E-14
 -1       824 5.76839E-03-1.17393E-04-1.99816E-14
 -1       825 3.46511E-03 3.47721E-04-6.36876E-15
 -1       826 5.87370E-03-1.64865E-04-2.01749E-14
 -1       827 3.17917E-03 3.53813E-04-5.40646E-15
 -1       828 8.00893E-03 7.99793E-04-2.89334E-14
 -1       829 6.47323E-03-4.06743E-04-2.14874E-14
 -1       830 6.02045E-03-1.58989E-06-2.05981E-14
 -1       831 1.05790E-02-3.16249E-04-4.14606E-14
 -1       832 8.73702E-03 5.87454E-04-3.34849E-14
 -1       833 1.51053E-03-2.80271E-04-1.38619E-15
 -1       834 2.03299E-03 3.45978E-04-2.31785E-15
 -1       835 2.60658E-03 3.58191E-04-3.70817E-15
 -1       836 2.31989E-03 3.54718E-04-2.97352E-15
 -1       837 1.01700E-02-4.82889E-04-3.97900E-14
 -1       838 9.53049E-03 1.57906E-04-3.75247E-14
 -1       839 1.24659E-03 2.96148E-04-9.17150E-16
 -1       840 6.12445E-03-2.56687E-04-2.06560E-14
 -1       841 9.82776E-03-6.28784E-04-3.81312E-14
 -1       842 1.04104E-02-3.90633E-04-4.08635E-14
 -1       843 9.92905E-03-3.03135E-05-3.92593E-14
 -1       844 1.13679E-03 1.18496E-06-9.15124E-16
 -1       845 1.14954E-03-1.72945E-04-8.87680E-16
 -1       846 1.15008E-03 1.75931E-04-8.77194E-16
 -1       847 1.05553E-02-2.38166E-04-4.26400E-14
 -1       848 5.70453E-03-8.47771E-05-1.92344E-14
 -1       849 1.38551E-02-4.24031E-04-8.14383E-14
 -1       850 7.84067E-03 8.07135E-04-2.78681E-14
 -1       851 8.50443E-03 7.24268E-04-3.22582E-14
 -1       852 1.14244E-03 1.15504E-04-8.97594E-16
 -1       853 1.38925E-02-5.04699E-04-8.14692E-14
 -1       854 1.14215E-03-1.12927E-04-9.04231E-16
 -1       855 1.53267E-03 3.28744E-04-1.34794E-15
 -1       856 1.39292E-02-5.84563E-04-8.14922E-14
 -1       857 1.78267E-03 3.40803E-04-1.80080E-15
 -1       858 1.25431E-03-2.51771E-04-9.88199E-16
 -1       859 1.06745E-02-3.01927E-04-4.28622E-14
 -1       860 6.95287E-03 4.67679E-04-2.32065E-14
 -1       861 1.06073E-02-3.69793E-04-4.26349E-14
 -1       862 1.02276E-02-1.08530E-04-4.15057E-14
 -1       863 1.40489E-02-9.45161E-04-8.10909E-14
 -1       864 2.21613E-03-2.47289E-04-2.89049E-15
 -1       865 2.50344E-03-2.51032E-04-3.61567E-15
 -1       866 2.78994E-03-2.51267E-04-4.41665E-15
 -1       867 3.07518E-03-2.48769E-04-5.29252E-15
 -1       868 3.35876E-03-2.44199E-04-6.24345E-15
 -1       869 3.64029E-03-2.38155E-04-7.26757E-15
 -1       870 3.91931E-03-2.31233E-04-8.36489E-15
 -1       871 4.19534E-03-2.24083E-04-9.53084E-15
 -1       872 4.46786E-03-2.17467E-04-1.07665E-14
 -1       873 4.73636E-03-2.12299E-04-1.20714E-14
 -1       874 5.00042E-03-2.09647E-04-1.34488E-14
 -1       875 5.25993E-03-2.10734E-04-1.49007E-14
 -1       876 5.51546E-03-2.17022E-04-1.64254E-14
 -1       877 5.76914E-03-2.30801E-04-1.80214E-14
 -1       878 5.94949E-03-2.39169E-04-1.93189E-14
 -1       879 9.84453E-03 1.39488E-04-4.08106E-14
 -1       880 6.46483E-03 2.67942E-04-2.11431E-14
 -1       881 1.06469E-02-4.44128E-04-4.39514E-14
 -1       882 1.09008E-02-4.65324E-04-4.66247E-14
 -1       883 1.11563E-02-4.94006E-04-4.93494E-14
 -1       884 1.14155E-02-5.27892E-04-5.21348E-14
 -1       885 1.16791E-02-5.65484E-04-5.49791E-14
 -1       886 1.19468E-02-6.05577E-04-5.78711E-14
 -1       887 1.22182E-02-6.47163E-04-6.08110E-14
 -1       888 1.24929E-02-6.89435E-04-6.38078E-14
 -1       889 1.27701E-02-7.31788E-04-6.68668E-14
 -1       890 1.30495E-02-7.73804E-04-6.99711E-14
 -1       891 1.33306E-02-8.15219E-04-7.31128E-14
 -1       892 1.36129E-02-8.55886E-04-7.62896E-14
 -1       893 1.38701E-02-3.71313E-04-8.18804E-14
 -1       894 3.87580E-03 2.65436E-04-8.03793E-15
 -1       895 4.72070E-03 2.41364E-04-1.17358E-14
 -1       896 5.00319E-03 2.36283E-04-1.31184E-14
 -1       897 5.28867E-03 2.35248E-04-1.45758E-14
 -1       898 5.58010E-03 2.40904E-04-1.61071E-14
 -1       899 5.88177E-03 2.57339E-04-1.77087E-14
 -1       900 6.19923E-03 2.90649E-04-1.93832E-14
 -1       901 1.01699E-02 6.00336E-05-4.33957E-14
 -1       902 1.04771E-02 1.24768E-06-4.60448E-14
 -1       903 1.07719E-02-4.45441E-05-4.87628E-14
 -1       904 1.10590E-02-8.22853E-05-5.15460E-14
 -1       905 1.13419E-02-1.15110E-04-5.43818E-14
 -1       906 1.16229E-02-1.45062E-04-5.72684E-14
 -1       907 1.19033E-02-1.73520E-04-6.02078E-14
 -1       908 1.21840E-02-2.01431E-04-6.31995E-14
 -1       909 1.24653E-02-2.29435E-04-6.62427E-14
 -1       910 1.27473E-02-2.57944E-04-6.93275E-14
 -1       911 1.30300E-02-2.87206E-04-7.24466E-14
 -1       912 1.33135E-02-3.17355E-04-7.55987E-14
 -1       913 6.04445E-03 7.79801E-05-1.98825E-14
 -1       914 9.48190E-03 2.55096E-04-3.81927E-14
 -1       915 1.38038E-02-8.28957E-04-7.87214E-14
 -1       916 3.59275E-03 2.73171E-04-6.95593E-15
 -1       917 5.79967E-03-1.54158E-05-1.91934E-14
 -1       918 1.44697E-03 2.71202E-04-1.26352E-15
 -1       919 2.73732E-03 2.86346E-04-4.17245E-15
 -1       920 2.16299E-03 2.80162E-04-2.69381E-15
 -1       921 1.64133E-03-2.25465E-04-1.67278E-15
 -1       922 4.43931E-03 2.48703E-04-1.04278E-14
 -1       923 5.70891E-03-1.34099E-04-1.90286E-14
 -1       924 2.45042E-03 2.85283E-04-3.39441E-15
 -1       925 1.13806E-03-5.53409E-05-9.13057E-16
 -1       926 4.15789E-03 2.57038E-04-9.19592E-15
 -1       927 1.92853E-03-2.39112E-04-2.24277E-15
 -1       928 9.85743E-03 5.10513E-05-3.98418E-14
 -1       929 1.04212E-02-4.28732E-04-4.15550E-14
 -1       930 1.04715E-02-1.82478E-04-4.30163E-14
 -1       931 1.39008E-03-1.60389E-04-1.26729E-15
 -1       932 5.60049E-03-1.00915E-04-1.83033E-14
 -1       933 1.38306E-02-9.00616E-04-7.86809E-14
 -1       934 1.38033E-03 3.32529E-05-1.28768E-15
 -1       935 5.73375E-03-1.75677E-04-1.85292E-14
 -1       936 1.38370E-03 9.73994E-05-1.27634E-15
 -1       937 1.35975E-02-3.48406E-04-7.87759E-14
 -1       938 1.37380E-02-6.72149E-04-7.87287E-14
 -1       939 1.37028E-02-5.93818E-04-7.87221E-14
 -1       940 1.37716E-02-7.50452E-04-7.87297E-14
 -1       941 3.30862E-03 2.79626E-04-5.95241E-15
 -1       942 1.07533E-02-3.47807E-04-4.40604E-14
 -1       943 3.02345E-03 2.84222E-04-5.02543E-15
 -1       944 1.91176E-03 2.79407E-04-2.13766E-15
 -1       945 1.07240E-02-2.78105E-04-4.41487E-14
 -1       946 1.36099E-02-4.27203E-04-7.85128E-14
 -1       947 1.38341E-03-9.46703E-05-1.28318E-15
 -1       948 2.63712E-03-1.81129E-04-4.04200E-15
 -1       949 2.92266E-03-1.80308E-04-4.88207E-15
 -1       950 3.20628E-03-1.77716E-04-5.79725E-15
 -1       951 3.48742E-03-1.73856E-04-6.78615E-15
 -1       952 3.76549E-03-1.69207E-04-7.84814E-15
 -1       953 4.03984E-03-1.64275E-04-8.98127E-15
 -1       954 4.30972E-03-1.59615E-04-1.01845E-14
 -1       955 4.57428E-03-1.55858E-04-1.14571E-14
 -1       956 4.83248E-03-1.53698E-04-1.28008E-14
 -1       957 5.08311E-03-1.53822E-04-1.42185E-14
 -1       958 5.32468E-03-1.56829E-04-1.57098E-14
 -1       959 5.53292E-03-1.64401E-04-1.70927E-14
 -1       960 1.66515E-03-1.51520E-04-1.76578E-15
 -1       961 1.46243E-03 1.93247E-04-1.35658E-15
 -1       962 1.10605E-02-4.23057E-04-4.80243E-14
 -1       963 1.13016E-02-4.55252E-04-5.07748E-14
 -1       964 1.15515E-02-4.90290E-04-5.35902E-14
 -1       965 1.18086E-02-5.27581E-04-5.64569E-14
 -1       966 1.20718E-02-5.66470E-04-5.93760E-14
 -1       967 1.23398E-02-6.06334E-04-6.23446E-14
 -1       968 1.26119E-02-6.46645E-04-6.53725E-14
 -1       969 1.28873E-02-6.86992E-04-6.84528E-14
 -1       970 1.31652E-02-7.27089E-04-7.15701E-14
 -1       971 1.34452E-02-7.66747E-04-7.47210E-14
 -1       972 5.37380E-03 1.57971E-04-1.53901E-14
 -1       973 5.98261E-03 1.70878E-04-1.87945E-14
 -1       974 1.38025E-03-3.04490E-05-1.28986E-15
 -1       975 5.09836E-03 1.62231E-04-1.38988E-14
 -1       976 4.82468E-03 1.69017E-04-1.24804E-14
 -1       977 5.65448E-03 1.58689E-04-1.69542E-14
 -1       978 1.62064E-03 2.65191E-04-1.57694E-15
 -1       979 3.71904E-03 2.00620E-04-7.55049E-15
 -1       980 1.09981E-02-1.38551E-04-5.01884E-14
 -1       981 1.12715E-02-1.68912E-04-5.29983E-14
 -1       982 1.15442E-02-1.97684E-04-5.58621E-14
 -1       983 1.18175E-02-2.25825E-04-5.87760E-14
 -1       984 1.20923E-02-2.53936E-04-6.17375E-14
 -1       985 1.23688E-02-2.82403E-04-6.47555E-14
 -1       986 1.26469E-02-3.11472E-04-6.78181E-14
 -1       987 1.29266E-02-3.41280E-04-7.09207E-14
 -1       988 1.32077E-02-3.71893E-04-7.40547E-14
 -1       989 5.75016E-03 6.45899E-05-1.81432E-14
 -1       990 1.07216E-02-1.04943E-04-4.74414E-14
 -1       991 2.29585E-03 2.12851E-04-3.08234E-15
 -1       992 1.04377E-02-6.49746E-05-4.47589E-14
 -1       993 1.36478E-02-5.06493E-04-7.85360E-14
 -1       994 2.58313E-03 2.15193E-04-3.82585E-15
 -1       995 2.06272E-03-1.75156E-04-2.58704E-15
 -1       996 5.60299E-03-4.37117E-05-1.80867E-14
 -1       997 4.55077E-03 1.76970E-04-1.11368E-14
 -1       998 2.35025E-03-1.79625E-04-3.27671E-15
 -1       999 1.08248E-02-4.02230E-04-4.53387E-14
 -1      1000 1.04105E-02-1.08357E-04-4.37675E-14
 -1      1001 1.01345E-02 1.58478E-06-4.22807E-14
 -1      1002 3.99831E-03 1.93281E-04-8.67183E-15
 -1      1003 1.35117E-02-6.79185E-04-7.59695E-14
 -1      1004 1.62583E-03 1.51137E-06-1.72502E-15
 -1      1005 5.55859E-03-1.28907E-04-1.76986E-14
 -1      1006 1.62774E-03 7.08497E-05-1.71634E-15
 -1      1007 5.52631E-03 2.20009E-05-1.70727E-14
 -1      1008 3.43769E-03 2.06875E-04-6.50632E-15
 -1      1009 1.08527E-02-3.24578E-04-4.53707E-14
 -1      1010 2.04418E-03 2.15701E-04-2.48797E-15
 -1      1011 1.06770E-02-2.35581E-04-4.45368E-14
 -1      1012 2.86945E-03 2.14604E-04-4.64510E-15
 -1      1013 1.32476E-02-4.49594E-04-7.40858E-14
 -1      1014 4.27549E-03 1.85249E-04-9.86761E-15
 -1      1015 1.34775E-02-6.02168E-04-7.59725E-14
 -1      1016 2.48700E-03-1.11145E-04-3.67053E-15
 -1      1017 1.75270E-03 2.07464E-04-1.88162E-15
 -1      1018 3.05724E-03-1.10443E-04-5.35327E-15
 -1      1019 3.33890E-03-1.08601E-04-6.30668E-15
 -1      1020 3.61733E-03-1.06252E-04-7.33277E-15
 -1      1021 3.89183E-03-1.03770E-04-8.43184E-15
 -1      1022 4.16161E-03-1.01572E-04-9.60213E-15
 -1      1023 4.42570E-03-1.00135E-04-1.08421E-14
 -1      1024 4.68288E-03-9.99858E-05-1.21524E-14
 -1      1025 4.93156E-03-1.01678E-04-1.35351E-14
 -1      1026 5.16957E-03-1.05657E-04-1.49932E-14
 -1      1027 4.65877E-03 1.08692E-04-1.18483E-14
 -1      1028 1.09603E-02-3.70588E-04-4.66945E-14
 -1      1029 1.14215E-02-4.21647E-04-5.22026E-14
 -1      1030 1.16690E-02-4.55333E-04-5.50423E-14
 -1      1031 1.19246E-02-4.90829E-04-5.79361E-14
 -1      1032 1.21867E-02-5.27634E-04-6.08858E-14
 -1      1033 1.24540E-02-5.65276E-04-6.38867E-14
 -1      1034 1.27255E-02-6.03359E-04-6.69393E-14
 -1      1035 1.30003E-02-6.41589E-04-7.00333E-14
 -1      1036 1.32553E-02-6.60843E-04-7.29886E-14
 -1      1037 4.92330E-03 9.99326E-05-1.32256E-14
 -1      1038 1.62756E-03-6.79438E-05-1.72322E-15
 -1      1039 1.17352E-02-2.74615E-04-5.73440E-14
 -1      1040 1.14702E-02-2.46859E-04-5.44556E-14
 -1      1041 1.12080E-02-2.19634E-04-5.16179E-14
 -1      1042 1.20033E-02-3.03065E-04-6.02808E-14
 -1      1043 1.22744E-02-3.32271E-04-6.32700E-14
 -1      1044 1.25482E-02-3.62256E-04-6.63127E-14
 -1      1045 1.28246E-02-3.93010E-04-6.93976E-14
 -1      1046 1.30356E-02-4.21034E-04-7.17351E-14
 -1      1047 5.44279E-03-6.79853E-05-1.70146E-14
 -1      1048 1.09477E-02-1.92500E-04-4.88420E-14
 -1      1049 5.44580E-03 8.22007E-05-1.62037E-14
 -1      1050 1.06379E-02-1.76371E-04-4.53044E-14
 -1      1051 3.15442E-03 2.11671E-04-5.53841E-15
 -1      1052 1.33634E-02-5.25679E-04-7.50331E-14
 -1      1053 2.43132E-03 1.44459E-04-3.48202E-15
 -1      1054 1.11845E-02-3.90227E-04-4.94205E-14
 -1      1055 2.19985E-03-1.09249E-04-2.94171E-15
 -1      1056 5.18516E-03 9.08634E-05-1.46777E-14
 -1      1057 1.91310E-03-8.88576E-05-2.29487E-15
 -1      1058 2.77305E-03-1.11413E-04-4.47474E-15
 -1      1059 1.06750E-02-1.40876E-04-4.63685E-14
 -1      1060 1.66407E-03 1.44656E-04-1.75299E-15
 -1      1061 4.39092E-03 1.16820E-04-1.05426E-14
 -1      1062 5.37052E-03-1.13078E-04-1.63480E-14
 -1      1063 1.32219E-02-5.85481E-04-7.30011E-14
 -1      1064 1.91036E-03-1.47371E-05-2.29893E-15
 -1      1065 1.91156E-03 5.90760E-05-2.29035E-15
 -1      1066 5.33189E-03-1.22286E-05-1.60403E-14
 -1      1067 3.56700E-03 1.36175E-04-7.06725E-15
 -1      1068 1.09232E-02-2.95723E-04-4.67550E-14
 -1      1069 2.17955E-03 1.50007E-04-2.85164E-15
 -1      1070 2.71795E-03 1.44952E-04-4.26650E-15
 -1      1071 3.84487E-03 1.30683E-04-8.15166E-15
 -1      1072 2.62652E-03-4.22651E-05-4.07059E-15
 -1      1073 4.11959E-03 1.24189E-04-9.31014E-15
 -1      1074 1.08991E-02-2.22854E-04-4.77512E-14
 -1      1075 3.47400E-03-4.16627E-05-6.81891E-15
 -1      1076 3.74996E-03-4.14725E-05-7.88227E-15
 -1      1077 4.02140E-03-4.17371E-05-9.01748E-15
 -1      1078 4.28758E-03-4.27610E-05-1.02242E-14
 -1      1079 4.54742E-03-4.49770E-05-1.15031E-14
 -1      1080 4.79924E-03-4.89112E-05-1.28518E-14
 -1      1081 5.04130E-03-5.50667E-05-1.42741E-14
 -1      1082 2.33993E-03-4.17764E-05-3.30399E-15
 -1      1083 1.17725E-02-4.19485E-04-5.64993E-14
 -1      1084 1.20302E-02-4.52824E-04-5.94208E-14
 -1      1085 1.22939E-02-4.87383E-04-6.23963E-14
 -1      1086 1.25624E-02-5.22773E-04-6.54254E-14
 -1      1087 1.28347E-02-5.58689E-04-6.84981E-14
 -1      1088 1.30277E-02-5.72306E-04-7.07440E-14
 -1      1089 1.16541E-02-3.19341E-04-5.59100E-14
 -1      1090 1.21804E-02-3.78747E-04-6.17867E-14
 -1      1091 1.19149E-02-3.48447E-04-5.88220E-14
 -1      1092 1.13985E-02-2.91684E-04-5.30486E-14
 -1      1093 5.25970E-03 3.72049E-05-1.53576E-14
 -1      1094 1.83385E-03 1.41102E-04-2.09134E-15
 -1      1095 1.24500E-02-4.10032E-04-6.48030E-14
 -1      1096 1.27229E-02-4.42138E-04-6.78672E-14
 -1      1097 1.11490E-02-2.65737E-04-5.02454E-14
 -1      1098 4.76566E-03 4.46661E-05-1.25576E-14
 -1      1099 5.01893E-03 3.53811E-05-1.39704E-14
 -1      1100 1.10610E-02-3.41775E-04-4.80859E-14
 -1      1101 3.19431E-03-4.19976E-05-5.82924E-15
 -1      1102 2.91156E-03-4.22759E-05-4.91244E-15
 -1      1103 3.28628E-03 1.40518E-04-6.05995E-15
 -1      1104 1.12813E-02-3.58274E-04-5.08200E-14
 -1      1105 3.00312E-03 1.43528E-04-5.12561E-15
 -1      1106 1.15222E-02-3.87833E-04-5.36329E-14
 -1      1107 4.50619E-03 5.23836E-05-1.12190E-14
 -1      1108 5.24850E-03-6.01726E-05-1.56161E-14
 -1      1109 2.12506E-03-2.81016E-05-2.78081E-15
 -1      1110 2.27204E-03 7.89618E-05-3.11458E-15
 -1      1111 1.29318E-02-4.71025E-04-7.01906E-14
 -1      1112 1.31519E-02-4.95926E-04-7.26756E-14
 -1      1113 2.55901E-03 7.98711E-05-3.86036E-15
 -1      1114 3.41968E-03 7.12601E-05-6.58843E-15
 -1      1115 1.11113E-02-3.06926E-04-4.91682E-14
 -1      1116 3.69747E-03 6.80069E-05-7.63488E-15
 -1      1117 3.97148E-03 6.38281E-05-8.75724E-15
 -1      1118 2.48307E-03 2.67854E-05-3.67302E-15
 -1      1119 4.42088E-03 1.31740E-05-1.08509E-14
 -1      1120 3.13867E-03 7.36260E-05-5.61559E-15
 -1      1121 3.05306E-03 2.60037E-05-5.35561E-15
 -1      1122 2.15918E-03 2.28748E-05-2.85771E-15
 -1      1123 2.76903E-03 2.66410E-05-4.47668E-15
 -1      1124 4.24124E-03 5.86825E-05-9.95154E-15
 -1      1125 2.84988E-03 7.72767E-05-4.69860E-15
 -1      1126 5.14856E-03-7.79195E-06-1.48688E-14
 -1      1127 4.15668E-03 1.75500E-05-9.60585E-15
 -1      1128 0.00000E+00 0.00000E+00 0.00000E+00
 -1      1129 0.00000E+00 0.00000E+00 0.00000E+00
 -1      1130 0.00000E+00 0.00000E+00 0.00000E+00
 -1      1131 0.00000E+00 0.00000E+00 0.00000E+00
 -1      1132 0.00000E+00 0.00000E+00 0.00000E+00
 -1      1133 0.00000E+00 0.00000E+00 0.00000E+00
 -1      1134 0.00000E+00 0.00000E+00 0.00000E+00
 -1      1135 0.00000E+00 0.00000E+00 0.00000E+00
 -1      1136 0.00000E+00 0.00000E+00 0.00000E+00
 -1      1137 0.00000E+00 0.00000E+00 0.00000E+00
 -1      1138 0.00000E+00 0.00000E+00 0.00000E+00
 -1      1139 0.00000E+00 0.00000E+00 0.00000E+00
 -1      1140 0.00000E+00 0.00000E+00 0.00000E+00
 -1      1141 0.00000E+00 0.00000E+00 0.00000E+00
 -1      1142 0.00000E+00 0.00000E+00 0.00000E+00
 -1      1143 0.00000E+00 0.00000E+00 0.00000E+00
 -1      1144 0.00000E+00 0.00000E+00 0.00000E+00
 -1      1145 2.11130E-04-1.48003E-04 1.40675E-17
 -1      1146 5.50200E-04-3.36441E-04-1.43386E-17
 -1      1147 8.31306E-04-4.56913E-04-1.26391E-16
 -1      1148 1.10028E-03-5.37261E-04-3.36211E-16
 -1      1149 1.36523E-03-5.92792E-04-6.38771E-16
 -1      1150 1.62979E-03-6.31313E-04-1.03320E-15
 -1      1151 1.89590E-03-6.57385E-04-1.51856E-15
 -1      1152 2.16460E-03-6.74034E-04-2.09152E-15
 -1      1153 2.43640E-03-6.83461E-04-2.75046E-15
 -1      1154 2.71165E-03-6.87327E-04-3.49410E-15
 -1      1155 2.99061E-03-6.86920E-04-4.31899E-15
 -1      1156 3.27365E-03-6.83284E-04-5.22072E-15
 -1      1157 3.56127E-03-6.77338E-04-6.19790E-15
 -1      1158 3.85418E-03-6.70004E-04-7.25070E-15
 -1      1159 4.15336E-03-6.62357E-04-8.37558E-15
 -1      1160 4.46006E-03-6.55801E-04-9.56886E-15
 -1      1161 4.77581E-03-6.52299E-04-1.08280E-14
 -1      1162 5.10224E-03-6.54644E-04-1.21568E-14
 -1      1163 5.44082E-03-6.66744E-04-1.35556E-14
 -1      1164 5.79234E-03-6.93825E-04-1.50278E-14
 -1      1165 6.15596E-03-7.42280E-04-1.65756E-14
 -1      1166 6.52798E-03-8.18660E-04-1.81977E-14
 -1      1167 6.90062E-03-9.27110E-04-1.98955E-14
 -1      1168 7.26186E-03-1.06488E-03-2.16815E-14
 -1      1169 7.59803E-03-1.21719E-03-2.35634E-14
 -1      1170 7.90014E-03-1.35570E-03-2.55400E-14
 -1      1171 8.17166E-03-1.44594E-03-2.76203E-14
 -1      1172 8.43075E-03-1.46354E-03-2.98017E-14
 -1      1173 8.70233E-03-1.40854E-03-3.20807E-14
 -1      1174 9.00452E-03-1.30531E-03-3.44543E-14
 -1      1175 9.34078E-03-1.18827E-03-3.69127E-14
 -1      1176 9.70216E-03-1.08574E-03-3.94507E-14
 -1      1177 1.00750E-02-1.01247E-03-4.20588E-14
 -1      1178 1.04473E-02-9.71187E-04-4.47233E-14
 -1      1179 1.08114E-02-9.57737E-04-4.74525E-14
 -1      1180 1.11636E-02-9.65569E-04-5.02394E-14
 -1      1181 1.15032E-02-9.88316E-04-5.30720E-14
 -1      1182 1.18311E-02-1.02080E-03-5.59539E-14
 -1      1183 1.21489E-02-1.05918E-03-5.88797E-14
 -1      1184 1.24584E-02-1.10081E-03-6.18611E-14
 -1      1185 1.27614E-02-1.14390E-03-6.49126E-14
 -1      1186 1.30592E-02-1.18733E-03-6.80203E-14
 -1      1187 1.33531E-02-1.23040E-03-7.11724E-14
 -1      1188 1.36442E-02-1.27273E-03-7.43686E-14
 -1      1189 1.39332E-02-1.31412E-03-7.76055E-14
 -1      1190 1.42207E-02-1.35449E-03-8.08706E-14
 -1      1191 1.45072E-02-1.39385E-03-8.41743E-14
 -1      1192 1.47931E-02-1.43226E-03-8.75039E-14
 -1      1193 1.50787E-02-1.46987E-03-9.08435E-14
 -1      1194 1.53572E-02-1.50608E-03-9.41293E-14
 -1      1195 2.27852E-04 1.60351E-04 1.76047E-17
 -1      1196 5.52383E-04 3.41057E-04-7.86047E-18
 -1      1197 8.32262E-04 4.59074E-04-1.16145E-16
 -1      1198 1.10123E-03 5.38952E-04-3.17183E-16
 -1      1199 1.36621E-03 5.94494E-04-6.09633E-16
 -1      1200 1.63084E-03 6.33140E-04-9.92330E-16
 -1      1201 1.89706E-03 6.59381E-04-1.46343E-15
 -1      1202 2.16584E-03 6.76257E-04-2.01906E-15
 -1      1203 2.43772E-03 6.85991E-04-2.66033E-15
 -1      1204 2.71300E-03 6.90278E-04-3.38602E-15
 -1      1205 2.99194E-03 6.90455E-04-4.19659E-15
 -1      1206 3.27481E-03 6.87638E-04-5.08891E-15
 -1      1207 3.56197E-03 6.82832E-04-6.05553E-15
 -1      1208 3.85391E-03 6.77057E-04-7.09837E-15
 -1      1209 4.15124E-03 6.71469E-04-8.22129E-15
 -1      1210 4.45460E-03 6.67487E-04-9.42940E-15
 -1      1211 4.76462E-03 6.66913E-04-1.07157E-14
 -1      1212 5.08171E-03 6.72018E-04-1.20778E-14
 -1      1213 5.40572E-03 6.85523E-04-1.35207E-14
 -1      1214 5.73563E-03 7.10404E-04-1.50433E-14
 -1      1215 6.06904E-03 7.49348E-04-1.66423E-14
 -1      1216 6.40189E-03 8.03749E-04-1.83162E-14
 -1      1217 6.72850E-03 8.72222E-04-2.00728E-14
 -1      1218 7.04246E-03 9.49007E-04-2.19178E-14
 -1      1219 7.33850E-03 1.02315E-03-2.38439E-14
 -1      1220 7.61509E-03 1.07973E-03-2.58539E-14
 -1      1221 7.87635E-03 1.10380E-03-2.79504E-14
 -1      1222 8.13173E-03 1.08582E-03-3.01260E-14
 -1      1223 8.39294E-03 1.02576E-03-3.23758E-14
 -1      1224 8.66948E-03 9.33140E-04-3.47109E-14
 -1      1225 8.96551E-03 8.22932E-04-3.71275E-14
 -1      1226 9.27953E-03 7.10044E-04-3.96222E-14
 -1      1227 9.60631E-03 6.05408E-04-4.21768E-14
 -1      1228 9.93947E-03 5.14761E-04-4.47990E-14
 -1      1229 1.02734E-02 4.39472E-04-4.74996E-14
 -1      1230 1.06040E-02 3.78148E-04-5.02740E-14
 -1      1231 1.09290E-02 3.28124E-04-5.31108E-14
 -1      1232 1.12476E-02 2.86476E-04-5.60048E-14
 -1      1233 1.15597E-02 2.50563E-04-5.89482E-14
 -1      1234 1.18658E-02 2.18243E-04-6.19401E-14
 -1      1235 1.21669E-02 1.87905E-04-6.49832E-14
 -1      1236 1.24637E-02 1.58403E-04-6.80679E-14
 -1      1237 1.27572E-02 1.28967E-04-7.11801E-14
 -1      1238 1.30481E-02 9.91086E-05-7.43484E-14
 -1      1239 1.33371E-02 6.85429E-05-7.75372E-14
 -1      1240 1.36246E-02 3.71228E-05-8.07251E-14
 -1      1241 1.39111E-02 4.79636E-06-8.39181E-14
 -1      1242 1.41970E-02-2.84127E-05-8.71382E-14
 -1      1243 1.44827E-02-6.23884E-05-9.03824E-14
 -1      1244 1.47612E-02-9.59733E-05-9.35375E-14
 -1      1245 1.49138E-02-1.54535E-04-9.50940E-14
 -1      1246 1.49478E-02-2.38922E-04-9.51914E-14
 -1      1247 1.49822E-02-3.23279E-04-9.52780E-14
 -1      1248 1.50173E-02-4.07355E-04-9.53438E-14
 -1      1249 1.50529E-02-4.90943E-04-9.54026E-14
 -1      1250 1.50885E-02-5.73238E-04-9.54536E-14
 -1      1251 1.51242E-02-6.54967E-04-9.55025E-14
 -1      1252 1.51599E-02-7.36943E-04-9.55439E-14
 -1      1253 1.51953E-02-8.18672E-04-9.55927E-14
 -1      1254 1.52302E-02-9.00404E-04-9.56504E-14
 -1      1255 1.52647E-02-9.82388E-04-9.56997E-14
 -1      1256 1.52988E-02-1.06413E-03-9.57478E-14
 -1      1257 1.53329E-02-1.14645E-03-9.57848E-14
 -1      1258 1.53676E-02-1.23007E-03-9.58067E-14
 -1      1259 1.54029E-02-1.31418E-03-9.57978E-14
 -1      1260 1.54389E-02-1.39855E-03-9.57837E-14
 -1      1261 1.54749E-02-1.48223E-03-9.57588E-14
 -1      1262 1.03765E-02-1.55751E-04-3.46301E-14
 -1      1263 1.02415E-02-2.86822E-06-3.43813E-14
 -1      1264 1.00042E-02 1.52525E-04-3.38887E-14
 -1      1265 9.67581E-03 3.12542E-04-3.31616E-14
 -1      1266 9.29918E-03 4.56748E-04-3.22898E-14
 -1      1267 8.88774E-03 5.73867E-04-3.13012E-14
 -1      1268 8.44249E-03 6.50394E-04-3.02076E-14
 -1      1269 7.99652E-03 6.72990E-04-2.91071E-14
 -1      1270 7.56068E-03 6.36497E-04-2.80486E-14
 -1      1271 7.11890E-03 5.44837E-04-2.70087E-14
 -1      1272 6.72982E-03 4.22223E-04-2.61348E-14
 -1      1273 6.39322E-03 2.78071E-04-2.54143E-14
 -1      1274 6.13459E-03 1.28223E-04-2.48821E-14
 -1      1275 5.98252E-03-1.37334E-05-2.45739E-14
 -1      1276 5.93355E-03-1.61317E-04-2.44703E-14
 -1      1277 6.00067E-03-3.12656E-04-2.45903E-14
 -1      1278 6.17376E-03-4.66565E-04-2.49047E-14
 -1      1279 6.43951E-03-6.26369E-04-2.54026E-14
 -1      1280 6.78328E-03-7.86746E-04-2.60832E-14
 -1      1281 7.18915E-03-9.35597E-04-2.69419E-14
 -1      1282 7.63743E-03-1.04974E-03-2.79489E-14
 -1      1283 8.08707E-03-1.10767E-03-2.90016E-14
 -1      1284 8.54971E-03-1.09873E-03-3.01193E-14
 -1      1285 9.02086E-03-1.02444E-03-3.12743E-14
 -1      1286 9.44117E-03-9.06027E-04-3.22992E-14
 -1      1287 9.79622E-03-7.65285E-04-3.31564E-14
 -1      1288 1.00829E-02-6.16788E-04-3.38348E-14
 -1      1289 1.02893E-02-4.66305E-04-3.43311E-14
 -1      1290 1.03948E-02-3.13680E-04-3.46140E-14
 -1      1291 1.66341E-04-1.10113E-04-1.35525E-19
 -1      1292 1.12439E-04-5.68486E-05-1.77538E-17
 -1      1293 1.17458E-04-6.74482E-05-1.29156E-17
 -1      1294 1.08412E-04-4.33529E-05-2.58853E-17
 -1      1295 1.10234E-04-4.94729E-05-2.33646E-17
 -1      1296 2.26182E-04-1.07294E-04-5.46573E-17
 -1      1297 1.06893E-04-3.34587E-05-3.04119E-17
 -1      1298 1.07710E-04-3.81840E-05-2.90702E-17
 -1      1299 2.19123E-04-8.21119E-05-6.93347E-17
 -1      1300 1.06153E-04-2.51946E-05-3.33934E-17
 -1      1301 1.06566E-04-2.92233E-05-3.26751E-17
 -1      1302 2.15994E-04-6.29198E-05-7.83472E-17
 -1      1303 1.05771E-04-1.79519E-05-3.48164E-17
 -1      1304 1.05992E-04-2.15052E-05-3.44641E-17
 -1      1305 2.14396E-04-4.68460E-05-8.37140E-17
 -1      1306 1.05561E-04-1.11382E-05-3.57787E-17
 -1      1307 1.05680E-04-1.44992E-05-3.57109E-17
 -1      1308 2.13511E-04-3.24691E-05-8.68581E-17
 -1      1309 1.05466E-04-4.64245E-06-3.60904E-17
 -1      1310 1.05517E-04-7.86509E-06-3.60497E-17
 -1      1311 2.13028E-04-1.90010E-05-8.84167E-17
 -1      1312 1.05455E-04 1.72761E-06-3.61446E-17
 -1      1313 1.05453E-04-1.45266E-06-3.61988E-17
 -1      1314 2.12817E-04-6.09271E-06-8.90130E-17
 -1      1315 1.05524E-04 8.14939E-06-3.59549E-17
 -1      1316 1.05469E-04 4.92048E-06-3.59955E-17
 -1      1317 2.12823E-04 6.64476E-06-8.89046E-17
 -1      1318 1.05694E-04 1.48082E-05-3.52095E-17
 -1      1319 1.05571E-04 1.14326E-05-3.53721E-17
 -1      1320 2.13049E-04 1.95780E-05-8.78610E-17
 -1      1321 1.06011E-04 2.17978E-05-3.39626E-17
 -1      1322 1.05785E-04 1.82212E-05-3.43828E-17
 -1      1323 2.13547E-04 3.29846E-05-8.57604E-17
 -1      1324 1.06606E-04 2.96560E-05-3.16180E-17
 -1      1325 1.06183E-04 2.55839E-05-3.23905E-17
 -1      1326 2.14456E-04 4.74538E-05-8.19928E-17
 -1      1327 1.07747E-04 3.87645E-05-2.82706E-17
 -1      1328 1.06923E-04 3.39679E-05-2.96258E-17
 -1      1329 2.16099E-04 6.38473E-05-7.61788E-17
 -1      1330 1.10212E-04 5.02083E-05-2.21855E-17
 -1      1331 1.08416E-04 4.40198E-05-2.48418E-17
 -1      1332 2.19220E-04 8.33556E-05-6.70444E-17
 -1      1333 1.16776E-04 6.74809E-05-1.22108E-17
 -1      1334 1.12086E-04 5.76434E-05-1.70220E-17
 -1      1335 2.26168E-04 1.09105E-04-5.23263E-17
 -1      1336 1.57225E-04 1.09631E-04 3.46945E-18
 -1      1337 1.35422E-04 8.59148E-05-6.47811E-18
 -1      1338 2.55657E-04 1.51694E-04-3.48029E-17
 -1      1339 3.34333E-04 2.20170E-04-9.16151E-18
 -1      1340 4.20616E-04-2.60968E-04-2.79318E-17
 -1      1341 5.73392E-04-3.35578E-04-6.48082E-17
 -1      1342 7.20291E-04-3.95664E-04-1.27136E-16
 -1      1343 8.63198E-04-4.44370E-04-2.13046E-16
 -1      1344 6.11044E-04-3.29488E-04-1.23328E-16
 -1      1345 1.00299E-03-4.84768E-04-3.21303E-16
 -1      1346 1.14065E-03-5.17992E-04-4.52763E-16
 -1      1347 9.03891E-04-4.28990E-04-3.02777E-16
 -1      1348 1.27699E-03-5.45895E-04-6.06909E-16
 -1      1349 1.41254E-03-5.68949E-04-7.84203E-16
 -1      1350 1.18608E-03-4.96857E-04-5.72608E-16
 -1      1351 1.54775E-03-5.88203E-04-9.84171E-16
 -1      1352 1.68289E-03-6.03983E-04-1.20649E-15
 -1      1353 1.46296E-03-5.43632E-04-9.32522E-16
 -1      1354 1.81821E-03-6.16899E-04-1.45061E-15
 -1      1355 1.95384E-03-6.27240E-04-1.71685E-15
 -1      1356 1.73789E-03-5.75395E-04-1.38122E-15
 -1      1357 2.08995E-03-6.35384E-04-2.00477E-15
 -1      1358 2.22658E-03-6.41581E-04-2.31423E-15
 -1      1359 2.01286E-03-5.96022E-04-1.91707E-15
 -1      1360 2.36383E-03-6.46082E-04-2.64494E-15
 -1      1361 2.50176E-03-6.49096E-04-2.99641E-15
 -1      1362 2.28903E-03-6.08220E-04-2.53844E-15
 -1      1363 2.64042E-03-6.50795E-04-3.36870E-15
 -1      1364 2.77984E-03-6.51356E-04-3.76172E-15
 -1      1365 2.56711E-03-6.13963E-04-3.24336E-15
 -1      1366 2.92010E-03-6.50897E-04-4.17392E-15
 -1      1367 3.06122E-03-6.49575E-04-4.60579E-15
 -1      1368 2.84763E-03-6.14733E-04-4.02898E-15
 -1      1369 3.20328E-03-6.47473E-04-5.05713E-15
 -1      1370 3.34633E-03-6.44741E-04-5.52724E-15
 -1      1371 3.13103E-03-6.11674E-04-4.89393E-15
 -1      1372 3.49045E-03-6.41445E-04-6.01622E-15
 -1      1373 3.63571E-03-6.37741E-04-6.52417E-15
 -1      1374 3.41777E-03-6.05726E-04-5.83438E-15
 -1      1375 3.78223E-03-6.33696E-04-7.05089E-15
 -1      1376 3.93009E-03-6.29491E-04-7.59511E-15
 -1      1377 3.70840E-03-5.97753E-04-6.85084E-15
 -1      1378 4.07944E-03-6.25215E-04-8.15750E-15
 -1      1379 4.23039E-03-6.21096E-04-8.73775E-15
 -1      1380 4.00360E-03-5.88678E-04-7.94028E-15
 -1      1381 4.38310E-03-6.17275E-04-9.33475E-15
 -1      1382 4.53772E-03-6.14046E-04-9.94811E-15
 -1      1383 4.30421E-03-5.79658E-04-9.10039E-15
 -1      1384 4.69442E-03-6.11645E-04-1.05787E-14
 -1      1385 4.85336E-03-6.10461E-04-1.12267E-14
 -1      1386 4.61118E-03-5.72292E-04-1.03287E-14
 -1      1387 5.01471E-03-6.10873E-04-1.18914E-14
 -1      1388 5.17858E-03-6.13386E-04-1.25734E-14
 -1      1389 4.92556E-03-5.68890E-04-1.16251E-14
 -1      1390 5.34512E-03-6.18584E-04-1.32737E-14
 -1      1391 5.51437E-03-6.27096E-04-1.39918E-14
 -1      1392 5.24837E-03-5.72783E-04-1.29916E-14
 -1      1393 5.68635E-03-6.39753E-04-1.47274E-14
 -1      1394 5.86094E-03-6.57279E-04-1.54827E-14
 -1      1395 5.58032E-03-5.88640E-04-1.44279E-14
 -1      1396 6.03795E-03-6.80720E-04-1.62560E-14
 -1      1397 6.21698E-03-7.10780E-04-1.70487E-14
 -1      1398 5.92149E-03-6.22601E-04-1.59375E-14
 -1      1399 6.39756E-03-7.48514E-04-1.78607E-14
 -1      1400 6.57889E-03-7.94322E-04-1.86908E-14
 -1      1401 6.27080E-03-6.81873E-04-1.75234E-14
 -1      1402 6.76012E-03-8.48763E-04-1.95425E-14
 -1      1403 6.94008E-03-9.11422E-04-2.04135E-14
 -1      1404 6.62546E-03-7.73116E-04-1.91876E-14
 -1      1405 7.11762E-03-9.81551E-04-2.13071E-14
 -1      1406 7.29143E-03-1.05727E-03-2.22251E-14
 -1      1407 6.98042E-03-8.98808E-04-2.09330E-14
 -1      1408 7.46043E-03-1.13578E-03-2.31660E-14
 -1      1409 7.62373E-03-1.21343E-03-2.41312E-14
 -1      1410 7.32868E-03-1.05158E-03-2.27691E-14
 -1      1411 7.78098E-03-1.28555E-03-2.51212E-14
 -1      1412 7.93246E-03-1.34753E-03-2.61330E-14
 -1      1413 7.66313E-03-1.20903E-03-2.46993E-14
 -1      1414 8.07900E-03-1.39466E-03-2.71713E-14
 -1      1415 8.22247E-03-1.42364E-03-2.82384E-14
 -1      1416 7.98059E-03-1.33516E-03-2.67269E-14
 -1      1417 8.36467E-03-1.43245E-03-2.93290E-14
 -1      1418 8.50815E-03-1.42106E-03-3.04421E-14
 -1      1419 8.28592E-03-1.39405E-03-2.88539E-14
 -1      1420 8.65473E-03-1.39154E-03-3.15796E-14
 -1      1421 8.80624E-03-1.34719E-03-3.27437E-14
 -1      1422 8.59130E-03-1.37036E-03-3.10820E-14
 -1      1423 8.96351E-03-1.29272E-03-3.39310E-14
 -1      1424 9.12686E-03-1.23271E-03-3.51390E-14
 -1      1425 8.90880E-03-1.27949E-03-3.34065E-14
 -1      1426 9.29592E-03-1.17183E-03-3.63669E-14
 -1      1427 9.46978E-03-1.11374E-03-3.76147E-14
 -1      1428 9.24334E-03-1.15731E-03-3.58221E-14
 -1      1429 9.64741E-03-1.06122E-03-3.88829E-14
 -1      1430 9.82745E-03-1.01617E-03-4.01701E-14
 -1      1431 9.59174E-03-1.03978E-03-3.83177E-14
 -1      1432 1.00088E-02-9.79312E-04-4.14713E-14
 -1      1433 1.01903E-02-9.51070E-04-4.27863E-14
 -1      1434 9.94689E-03-9.49288E-04-4.08841E-14
 -1      1435 1.03710E-02-9.30877E-04-4.41194E-14
 -1      1436 1.05502E-02-9.18334E-04-4.54661E-14
 -1      1437 1.03018E-02-8.93164E-04-4.35164E-14
 -1      1438 1.07275E-02-9.12381E-04-4.68291E-14
 -1      1439 1.09024E-02-9.12320E-04-4.82086E-14
 -1      1440 1.06515E-02-8.68904E-04-4.62096E-14
 -1      1441 1.10747E-02-9.17102E-04-4.95976E-14
 -1      1442 1.12444E-02-9.26008E-04-5.09999E-14
 -1      1443 1.09933E-02-8.69844E-04-4.89585E-14
 -1      1444 1.14114E-02-9.38208E-04-5.24153E-14
 -1      1445 1.15759E-02-9.53082E-04-5.38425E-14
 -1      1446 1.13260E-02-8.88786E-04-5.17603E-14
 -1      1447 1.17380E-02-9.70050E-04-5.52835E-14
 -1      1448 1.18977E-02-9.88620E-04-5.67387E-14
 -1      1449 1.16500E-02-9.19618E-04-5.46152E-14
 -1      1450 1.20554E-02-1.00842E-03-5.82022E-14
 -1      1451 1.22112E-02-1.02908E-03-5.96742E-14
 -1      1452 1.19659E-02-9.57729E-04-5.75190E-14
 -1      1453 1.23652E-02-1.05038E-03-6.11654E-14
 -1      1454 1.25177E-02-1.07206E-03-6.26756E-14
 -1      1455 1.22750E-02-9.99883E-04-6.04722E-14
 -1      1456 1.26687E-02-1.09399E-03-6.41976E-14
 -1      1457 1.28186E-02-1.11598E-03-6.57346E-14
 -1      1458 1.25783E-02-1.04392E-03-6.34827E-14
 -1      1459 1.29673E-02-1.13799E-03-6.72859E-14
 -1      1460 1.31151E-02-1.15988E-03-6.88487E-14
 -1      1461 1.28770E-02-1.08846E-03-6.65535E-14
 -1      1462 1.32621E-02-1.18164E-03-7.04229E-14
 -1      1463 1.34083E-02-1.20318E-03-7.20086E-14
 -1      1464 1.31721E-02-1.13267E-03-6.96764E-14
 -1      1465 1.35540E-02-1.22450E-03-7.36050E-14
 -1      1466 1.36990E-02-1.24557E-03-7.52103E-14
 -1      1467 1.34644E-02-1.17609E-03-7.28443E-14
 -1      1468 1.38437E-02-1.26638E-03-7.68248E-14
 -1      1469 1.39879E-02-1.28691E-03-7.84513E-14
 -1      1470 1.37546E-02-1.21846E-03-7.60502E-14
 -1      1471 1.41318E-02-1.30718E-03-8.00838E-14
 -1      1472 1.42755E-02-1.32717E-03-8.17208E-14
 -1      1473 1.40432E-02-1.25970E-03-7.92947E-14
 -1      1474 1.44189E-02-1.34690E-03-8.33703E-14
 -1      1475 1.45621E-02-1.36637E-03-8.50284E-14
 -1      1476 1.43306E-02-1.29982E-03-8.25728E-14
 -1      1477 1.47052E-02-1.38561E-03-8.66916E-14
 -1      1478 1.48482E-02-1.40462E-03-8.83550E-14
 -1      1479 1.46173E-02-1.33885E-03-8.58790E-14
 -1      1480 1.49911E-02-1.42343E-03-9.00265E-14
 -1      1481 1.51340E-02-1.44207E-03-9.17038E-14
 -1      1482 1.49035E-02-1.37693E-03-8.92076E-14
 -1      1483 1.53392E-02-1.46465E-03-9.41484E-14
 -1      1484 1.52517E-02-1.41828E-03-9.33214E-14
 -1      1485 6.41667E-04 3.70567E-04-7.53792E-17
 -1      1486 4.91857E-04 3.02716E-04-3.03577E-17
 -1      1487 4.44058E-04 2.65021E-04-4.94532E-17
 -1      1488 9.26718E-04 4.69371E-04-2.33917E-16
 -1      1489 7.86107E-04 4.24499E-04-1.43237E-16
 -1      1490 7.43433E-04 3.88834E-04-1.65680E-16
 -1      1491 1.20121E-03 5.37289E-04-4.82538E-16
 -1      1492 1.06473E-03 5.06408E-04-3.46877E-16
 -1      1493 1.02912E-03 4.72953E-04-3.72125E-16
 -1      1494 1.47156E-03 5.84566E-04-8.20524E-16
 -1      1495 1.33658E-03 5.63123E-04-6.40520E-16
 -1      1496 1.30683E-03 5.31075E-04-6.67082E-16
 -1      1497 1.74116E-03 6.17040E-04-1.24779E-15
 -1      1498 1.60627E-03 6.02415E-04-1.02289E-15
 -1      1499 1.58110E-03 5.71197E-04-1.05006E-15
 -1      1500 2.01184E-03 6.38494E-04-1.76065E-15
 -1      1501 1.87627E-03 6.28974E-04-1.49350E-15
 -1      1502 1.85463E-03 5.98205E-04-1.51997E-15
 -1      1503 2.28458E-03 6.51598E-04-2.35883E-15
 -1      1504 2.14790E-03 6.45958E-04-2.04926E-15
 -1      1505 2.12898E-03 6.15394E-04-2.07556E-15
 -1      1506 2.55997E-03 6.58339E-04-3.04107E-15
 -1      1507 2.42192E-03 6.55659E-04-2.68965E-15
 -1      1508 2.40507E-03 6.25137E-04-2.71540E-15
 -1      1509 2.83837E-03 6.60243E-04-3.80715E-15
 -1      1510 2.69877E-03 6.59808E-04-3.41377E-15
 -1      1511 2.68345E-03 6.29211E-04-3.43771E-15
 -1      1512 3.12012E-03 6.58532E-04-4.65550E-15
 -1      1513 2.97881E-03 6.59762E-04-4.22135E-15
 -1      1514 2.96453E-03 6.28998E-04-4.24282E-15
 -1      1515 3.40557E-03 6.54250E-04-5.58253E-15
 -1      1516 3.26236E-03 6.56638E-04-5.10909E-15
 -1      1517 3.24869E-03 6.25620E-04-5.12765E-15
 -1      1518 3.69511E-03 6.48382E-04-6.58487E-15
 -1      1519 3.54980E-03 6.51436E-04-6.07419E-15
 -1      1520 3.53630E-03 6.20075E-04-6.08939E-15
 -1      1521 3.98925E-03 6.41985E-04-7.66645E-15
 -1      1522 3.84158E-03 6.45160E-04-7.11529E-15
 -1      1523 3.82779E-03 6.13356E-04-7.12937E-15
 -1      1524 4.28855E-03 6.36308E-04-8.82734E-15
 -1      1525 4.13822E-03 6.38948E-04-8.23691E-15
 -1      1526 4.12363E-03 6.06583E-04-8.24834E-15
 -1      1527 4.59356E-03 6.32935E-04-1.00721E-14
 -1      1528 4.44031E-03 6.34203E-04-9.43973E-15
 -1      1529 4.42432E-03 6.01142E-04-9.44798E-15
 -1      1530 4.90469E-03 6.33891E-04-1.13927E-14
 -1      1531 4.74833E-03 6.32718E-04-1.07230E-14
 -1      1532 4.73031E-03 5.98815E-04-1.07266E-14
 -1      1533 5.22205E-03 6.41706E-04-1.27903E-14
 -1      1534 5.06259E-03 6.36773E-04-1.20818E-14
 -1      1535 5.04185E-03 6.01884E-04-1.20826E-14
 -1      1536 5.54514E-03 6.59343E-04-1.42684E-14
 -1      1537 5.38293E-03 6.49136E-04-1.35193E-14
 -1      1538 5.35883E-03 6.13151E-04-1.35159E-14
 -1      1539 5.87255E-03 6.89869E-04-1.58235E-14
 -1      1540 5.70842E-03 6.72886E-04-1.50362E-14
 -1      1541 5.68056E-03 6.35774E-04-1.50265E-14
 -1      1542 6.20163E-03 7.35716E-04-1.74558E-14
 -1      1543 6.03708E-03 7.10889E-04-1.66295E-14
 -1      1544 6.00549E-03 6.72774E-04-1.66153E-14
 -1      1545 6.52845E-03 7.97413E-04-1.91671E-14
 -1      1546 6.36562E-03 7.64803E-04-1.83010E-14
 -1      1547 6.33103E-03 7.26051E-04-1.82822E-14
 -1      1548 6.84813E-03 8.71895E-04-2.09608E-14
 -1      1549 6.68952E-03 8.33562E-04-2.00533E-14
 -1      1550 6.65363E-03 7.94844E-04-2.00305E-14
 -1      1551 7.15593E-03 9.50989E-04-2.28413E-14
 -1      1552 7.00380E-03 9.11669E-04-2.18919E-14
 -1      1553 6.96925E-03 8.73943E-04-2.18623E-14
 -1      1554 7.44896E-03 1.02126E-03-2.48038E-14
 -1      1555 7.30439E-03 9.88202E-04-2.38115E-14
 -1      1556 7.27443E-03 9.52521E-04-2.37763E-14
 -1      1557 7.72799E-03 1.06650E-03-2.68503E-14
 -1      1558 7.59002E-03 1.04787E-03-2.58156E-14
 -1      1559 7.56784E-03 1.01501E-03-2.57737E-14
 -1      1560 7.99823E-03 1.07291E-03-2.89810E-14
 -1      1561 7.86372E-03 1.07498E-03-2.79055E-14
 -1      1562 7.85154E-03 1.04502E-03-2.78571E-14
 -1      1563 8.26804E-03 1.03463E-03-3.11890E-14
 -1      1564 8.13257E-03 1.05913E-03-3.00757E-14
 -1      1565 8.13105E-03 1.03133E-03-3.00235E-14
 -1      1566 8.54595E-03 9.56524E-04-3.34793E-14
 -1      1567 8.40549E-03 9.99764E-04-3.23238E-14
 -1      1568 8.41352E-03 9.72851E-04-3.22673E-14
 -1      1569 8.83759E-03 8.51852E-04-3.58486E-14
 -1      1570 8.68984E-03 9.06466E-04-3.46543E-14
 -1      1571 8.70492E-03 8.79173E-04-3.45939E-14
 -1      1572 9.14416E-03 7.36846E-04-3.83022E-14
 -1      1573 8.98908E-03 7.94709E-04-3.70649E-14
 -1      1574 9.00803E-03 7.66210E-04-3.70003E-14
 -1      1575 9.46306E-03 6.25336E-04-4.08225E-14
 -1      1576 9.30233E-03 6.80040E-04-3.95542E-14
 -1      1577 9.32207E-03 6.50073E-04-3.94844E-14
 -1      1578 9.78969E-03 5.26003E-04-4.34098E-14
 -1      1579 9.62574E-03 5.73878E-04-4.21084E-14
 -1      1580 9.64389E-03 5.42612E-04-4.20367E-14
 -1      1581 1.01191E-02 4.42322E-04-4.60711E-14
 -1      1582 9.95436E-03 4.82196E-04-4.47295E-14
 -1      1583 9.96948E-03 4.50011E-04-4.46566E-14
 -1      1584 1.04474E-02 3.74020E-04-4.88032E-14
 -1      1585 1.02836E-02 4.06384E-04-4.74280E-14
 -1      1586 1.02952E-02 3.73703E-04-4.73517E-14
 -1      1587 1.07718E-02 3.18787E-04-5.16056E-14
 -1      1588 1.06102E-02 3.44961E-04-5.01972E-14
 -1      1589 1.06183E-02 3.12144E-04-5.01182E-14
 -1      1590 1.10910E-02 2.73606E-04-5.44645E-14
 -1      1591 1.09321E-02 2.95131E-04-5.30281E-14
 -1      1592 1.09372E-02 2.62440E-04-5.29436E-14
 -1      1593 1.14043E-02 2.35542E-04-5.73775E-14
 -1      1594 1.12484E-02 2.53849E-04-5.59152E-14
 -1      1595 1.12511E-02 2.21447E-04-5.58241E-14
 -1      1596 1.17122E-02 2.02115E-04-6.03393E-14
 -1      1597 1.15589E-02 2.18378E-04-5.88519E-14
 -1      1598 1.15599E-02 1.86350E-04-5.87535E-14
 -1      1599 1.20150E-02 1.71401E-04-6.33526E-14
 -1      1600 1.18641E-02 1.86514E-04-6.18402E-14
 -1      1601 1.18640E-02 1.54883E-04-6.17374E-14
 -1      1602 1.23135E-02 1.42003E-04-6.64150E-14
 -1      1603 1.21647E-02 1.56604E-04-6.48773E-14
 -1      1604 1.21638E-02 1.25357E-04-6.47720E-14
 -1      1605 1.26086E-02 1.12963E-04-6.95123E-14
 -1      1606 1.24614E-02 1.27483E-04-6.79605E-14
 -1      1607 1.24601E-02 9.65837E-05-6.78517E-14
 -1      1608 1.29008E-02 8.36587E-05-7.26501E-14
 -1      1609 1.27550E-02 9.83715E-05-7.10751E-14
 -1      1610 1.27535E-02 6.77756E-05-7.09670E-14
 -1      1611 1.31909E-02 5.37151E-05-7.58232E-14
 -1      1612 1.30461E-02 6.87825E-05-7.42333E-14
 -1      1613 1.30446E-02 3.84420E-05-7.41200E-14
 -1      1614 1.34794E-02 2.29276E-05-7.90132E-14
 -1      1615 1.33353E-02 3.84342E-05-7.74173E-14
 -1      1616 1.33340E-02 8.30325E-06-7.72980E-14
 -1      1617 1.37667E-02-8.79339E-06-8.22030E-14
 -1      1618 1.36231E-02 7.18528E-06-8.06066E-14
 -1      1619 1.36220E-02-2.27778E-05-8.04867E-14
 -1      1620 1.40531E-02-4.14570E-05-8.54096E-14
 -1      1621 1.39100E-02-2.50107E-05-8.38054E-14
 -1      1622 1.39090E-02-5.48432E-05-8.36890E-14
 -1      1623 1.43391E-02-7.49985E-05-8.86426E-14
 -1      1624 1.41962E-02-5.81266E-05-8.70228E-14
 -1      1625 1.41954E-02-8.78624E-05-8.69074E-14
 -1      1626 1.46249E-02-1.09241E-04-9.18754E-14
 -1      1627 1.44820E-02-9.20504E-05-9.02593E-14
 -1      1628 1.44814E-02-1.21725E-04-9.01396E-14
 -1      1629 1.47781E-02-1.38119E-04-9.35685E-14
 -1      1630 1.48326E-02-2.44925E-04-9.38098E-14
 -1      1631 1.48155E-02-2.02798E-04-9.37651E-14
 -1      1632 1.48673E-02-3.29034E-04-9.38863E-14
 -1      1633 1.48499E-02-2.87012E-04-9.38510E-14
 -1      1634 1.47175E-02-2.50921E-04-9.24247E-14
 -1      1635 1.49025E-02-4.12805E-04-9.39531E-14
 -1      1636 1.48848E-02-3.70972E-04-9.39195E-14
 -1      1637 1.47524E-02-3.34832E-04-9.24978E-14
 -1      1638 1.49383E-02-4.96110E-04-9.40081E-14
 -1      1639 1.49204E-02-4.54521E-04-9.39838E-14
 -1      1640 1.47878E-02-4.18361E-04-9.25620E-14
 -1      1641 1.49737E-02-5.77503E-04-9.40596E-14
 -1      1642 1.49560E-02-5.36868E-04-9.40341E-14
 -1      1643 1.48235E-02-5.00729E-04-9.26153E-14
 -1      1644 1.50097E-02-6.59835E-04-9.41037E-14
 -1      1645 1.49917E-02-6.18722E-04-9.40822E-14
 -1      1646 1.48593E-02-5.82642E-04-9.26620E-14
 -1      1647 1.50454E-02-7.41824E-04-9.41456E-14
 -1      1648 1.50276E-02-7.00863E-04-9.41221E-14
 -1      1649 1.48953E-02-6.64857E-04-9.27034E-14
 -1      1650 1.50807E-02-8.23655E-04-9.41917E-14
 -1      1651 1.50631E-02-7.82747E-04-9.41692E-14
 -1      1652 1.49309E-02-7.46803E-04-9.27448E-14
 -1      1653 1.51154E-02-9.05540E-04-9.42404E-14
 -1      1654 1.50981E-02-8.64578E-04-9.42186E-14
 -1      1655 1.49660E-02-8.28654E-04-9.27896E-14
 -1      1656 1.51499E-02-9.87685E-04-9.42832E-14
 -1      1657 1.51327E-02-9.46569E-04-9.42614E-14
 -1      1658 1.50007E-02-9.10599E-04-9.28296E-14
 -1      1659 1.51835E-02-1.06885E-03-9.43157E-14
 -1      1660 1.51667E-02-1.02821E-03-9.43021E-14
 -1      1661 1.50347E-02-9.92114E-04-9.28599E-14
 -1      1662 1.52179E-02-1.15191E-03-9.43416E-14
 -1      1663 1.52007E-02-1.11031E-03-9.43306E-14
 -1      1664 1.50686E-02-1.07402E-03-9.28840E-14
 -1      1665 1.52527E-02-1.23548E-03-9.43488E-14
 -1      1666 1.52352E-02-1.19364E-03-9.43501E-14
 -1      1667 1.51030E-02-1.15710E-03-9.28963E-14
 -1      1668 1.52881E-02-1.31946E-03-9.43366E-14
 -1      1669 1.52703E-02-1.27743E-03-9.43453E-14
 -1      1670 1.51378E-02-1.24064E-03-9.28941E-14
 -1      1671 1.52789E-02-1.38992E-03-9.38261E-14
 -1      1672 1.52608E-02-1.34781E-03-9.38355E-14
 -1      1673 1.51281E-02-1.31081E-03-9.23880E-14
 -1      1674 1.50735E-02-1.36736E-03-9.13857E-14
 -1      1675 1.03623E-02-1.69910E-04-3.52046E-14
 -1      1676 1.04102E-02-2.16245E-04-3.52719E-14
 -1      1677 1.01766E-02-4.50133E-05-3.47436E-14
 -1      1678 1.02733E-02-9.87865E-05-3.49208E-14
 -1      1679 9.86232E-03 9.42854E-05-3.42102E-14
 -1      1680 1.00207E-02 1.82406E-05-3.45369E-14
 -1      1681 9.49662E-03 2.80729E-04-3.33164E-14
 -1      1682 9.67079E-03 1.97903E-04-3.37169E-14
 -1      1683 9.10746E-03 4.61995E-04-3.23019E-14
 -1      1684 9.29139E-03 3.80886E-04-3.27762E-14
 -1      1685 8.71302E-03 6.10707E-04-3.12067E-14
 -1      1686 8.89391E-03 5.47331E-04-3.17202E-14
 -1      1687 8.30257E-03 7.06931E-04-2.99941E-14
 -1      1688 8.48916E-03 6.71914E-04-3.05730E-14
 -1      1689 7.92445E-03 7.11970E-04-2.88249E-14
 -1      1690 8.09431E-03 7.18581E-04-2.93415E-14
 -1      1691 7.53844E-03 6.38273E-04-2.76663E-14
 -1      1692 7.72090E-03 6.84689E-04-2.81960E-14
 -1      1693 7.13363E-03 4.87037E-04-2.65356E-14
 -1      1694 7.32306E-03 5.63711E-04-2.70272E-14
 -1      1695 6.73649E-03 3.31185E-04-2.57179E-14
 -1      1696 6.90217E-03 4.05022E-04-2.60858E-14
 -1      1697 6.38640E-03 1.47795E-04-2.48981E-14
 -1      1698 6.55336E-03 2.25630E-04-2.52263E-14
 -1      1699 6.10752E-03 2.89786E-05-2.44801E-14
 -1      1700 6.21473E-03 8.52660E-05-2.46743E-14
 -1      1701 5.95100E-03-8.07627E-05-2.41769E-14
 -1      1702 6.00978E-03-3.43509E-05-2.42806E-14
 -1      1703 5.92191E-03-1.78711E-04-2.40951E-14
 -1      1704 5.91710E-03-1.34752E-04-2.40926E-14
 -1      1705 6.03577E-03-2.85173E-04-2.42905E-14
 -1      1706 5.96717E-03-2.35152E-04-2.41846E-14
 -1      1707 6.26654E-03-4.20341E-04-2.46898E-14
 -1      1708 6.14637E-03-3.55858E-04-2.44922E-14
 -1      1709 6.58855E-03-5.84462E-04-2.52637E-14
 -1      1710 6.43007E-03-5.04672E-04-2.49752E-14
 -1      1711 6.98674E-03-7.62810E-04-2.59779E-14
 -1      1712 6.80534E-03-6.72422E-04-2.56000E-14
 -1      1713 7.39000E-03-9.57764E-04-2.69772E-14
 -1      1714 7.19788E-03-8.73156E-04-2.65125E-14
 -1      1715 7.81014E-03-1.10271E-03-2.80792E-14
 -1      1716 7.62109E-03-1.04374E-03-2.75535E-14
 -1      1717 8.19307E-03-1.15858E-03-2.92255E-14
 -1      1718 8.01914E-03-1.14290E-03-2.87097E-14
 -1      1719 8.59692E-03-1.12686E-03-3.04896E-14
 -1      1720 8.40731E-03-1.15893E-03-2.98935E-14
 -1      1721 9.01526E-03-9.93962E-04-3.17558E-14
 -1      1722 8.82647E-03-1.06386E-03-3.11978E-14
 -1      1723 9.43490E-03-8.27676E-04-3.27843E-14
 -1      1724 9.25521E-03-9.07823E-04-3.23129E-14
 -1      1725 9.79582E-03-6.57085E-04-3.36827E-14
 -1      1726 9.63446E-03-7.34714E-04-3.32924E-14
 -1      1727 1.01009E-02-5.05291E-04-3.43839E-14
 -1      1728 9.96843E-03-5.72441E-04-3.40880E-14
 -1      1729 1.03205E-02-3.75677E-04-3.49143E-14
 -1      1730 1.02308E-02-4.30140E-04-3.47114E-14
 -1      1731 1.04201E-02-2.69491E-04-3.51940E-14
 -1      1732 1.03920E-02-3.14900E-04-3.51167E-14
 -1      1733 9.33122E-03 2.92684E-04-3.33461E-14
 -1      1734 9.72154E-03 8.72550E-05-3.43886E-14
 -1      1735 1.47775E-02-1.67784E-04-9.34484E-14
 -1      1736 1.46623E-02-1.73886E-04-9.20692E-14
 -1      1737 1.03209E-02-1.76482E-04-3.55956E-14
 -1      1738 1.00707E-02-6.65620E-05-3.50989E-14
 -1      1739 1.04258E-02-2.46673E-04-3.58070E-14
 -1      1740 8.93895E-03 4.92437E-04-3.22164E-14
 -1      1741 8.55090E-03 6.55111E-04-3.09953E-14
 -1      1742 8.19407E-03 7.38416E-04-2.97056E-14
 -1      1743 7.84133E-03 7.19607E-04-2.84260E-14
 -1      1744 7.48014E-03 6.02162E-04-2.71657E-14
 -1      1745 7.08836E-03 4.22336E-04-2.60925E-14
 -1      1746 6.68911E-03 2.27768E-04-2.51630E-14
 -1      1747 6.33531E-03 6.75156E-05-2.44648E-14
 -1      1748 6.06349E-03-4.22121E-05-2.40506E-14
 -1      1749 5.92509E-03-1.21140E-04-2.37705E-14
 -1      1750 5.93667E-03-1.84911E-04-2.37723E-14
 -1      1751 6.09994E-03-2.73529E-04-2.40556E-14
 -1      1752 6.38150E-03-4.05893E-04-2.45330E-14
 -1      1753 6.75693E-03-5.77017E-04-2.51433E-14
 -1      1754 7.16116E-03-7.88117E-04-2.59991E-14
 -1      1755 7.56677E-03-1.00038E-03-2.70995E-14
 -1      1756 7.94037E-03-1.14354E-03-2.82976E-14
 -1      1757 8.30557E-03-1.18642E-03-2.95934E-14
 -1      1758 8.66831E-03-1.11038E-03-3.09739E-14
 -1      1759 9.06717E-03-9.39032E-04-3.22499E-14
 -1      1760 9.47618E-03-7.44560E-04-3.33253E-14
 -1      1761 9.84123E-03-5.64282E-04-3.42489E-14
 -1      1762 1.01491E-02-4.19050E-04-3.49910E-14
 -1      1763 1.03596E-02-3.16281E-04-3.55263E-14
 -1      1764 2.84702E-04-1.75780E-04-2.77962E-17
 -1      1765 3.32249E-04-1.16133E-04-1.11117E-16
 -1      1766 3.36301E-04-1.32382E-04-1.02809E-16
 -1      1767 3.42066E-04-1.51370E-04-9.27942E-17
 -1      1768 3.51461E-04-1.73365E-04-7.91603E-17
 -1      1769 4.58230E-04-1.87090E-04-1.48536E-16
 -1      1770 3.24839E-04-6.48213E-05-1.29305E-16
 -1      1771 3.25957E-04-7.60716E-05-1.26404E-16
 -1      1772 3.23383E-04-4.34515E-05-1.33479E-16
 -1      1773 3.24024E-04-5.38715E-05-1.31676E-16
 -1      1774 4.36867E-04-7.85134E-05-1.92581E-16
 -1      1775 3.22609E-04-2.35084E-05-1.35363E-16
 -1      1776 3.22937E-04-3.33284E-05-1.34631E-16
 -1      1777 4.34896E-04-5.07447E-05-1.97555E-16
 -1      1778 3.22315E-04-4.28182E-06-1.36081E-16
 -1      1779 3.22412E-04-1.38272E-05-1.35851E-16
 -1      1780 4.33875E-04-2.46200E-05-1.99927E-16
 -1      1781 3.22434E-04 1.48208E-05-1.35634E-16
 -1      1782 3.22322E-04 5.26557E-06-1.36027E-16
 -1      1783 4.33573E-04 7.56719E-07-2.00442E-16
 -1      1784 3.22993E-04 3.43738E-05-1.33411E-16
 -1      1785 3.22646E-04 2.45221E-05-1.34685E-16
 -1      1786 4.33927E-04 2.61617E-05-1.99127E-16
 -1      1787 3.24102E-04 5.46595E-05-1.29765E-16
 -1      1788 3.23452E-04 4.43667E-05-1.31934E-16
 -1      1789 4.34999E-04 5.21475E-05-1.95549E-16
 -1      1790 3.26109E-04 7.72120E-05-1.23585E-16
 -1      1791 3.24942E-04 6.56732E-05-1.27190E-16
 -1      1792 4.37032E-04 7.98167E-05-1.89613E-16
 -1      1793 3.29695E-04 1.03007E-04-1.14031E-16
 -1      1794 3.27607E-04 8.96719E-05-1.19316E-16
 -1      1795 4.40612E-04 1.10648E-04-1.80045E-16
 -1      1796 3.36551E-04 1.34459E-04-9.89199E-17
 -1      1797 3.32470E-04 1.17960E-04-1.07539E-16
 -1      1798 4.46933E-04 1.46349E-04-1.65205E-16
 -1      1799 3.51995E-04 1.76942E-04-7.51217E-17
 -1      1800 3.42656E-04 1.54106E-04-8.85522E-17
 -1      1801 4.59204E-04 1.90443E-04-1.42586E-16
 -1      1802 4.07073E-04 2.32895E-04-5.93601E-17
 -1      1803 3.77650E-04 2.01940E-04-7.00124E-17
 -1      1804 4.95409E-04 2.42901E-04-1.22556E-16
 -1      1805 5.57710E-04 3.01250E-04-1.07214E-16
 -1      1806 3.39542E-04-1.90310E-04-5.42372E-17
 -1      1807 8.52387E-04 4.04712E-04-2.70969E-16
 -1      1808 7.06141E-04 3.57586E-04-1.78162E-16
 -1      1809 6.72629E-04 3.27112E-04-1.87892E-16
 -1      1810 4.58435E-04-2.35765E-04-1.01658E-16
 -1      1811 8.06306E-04-3.71871E-04-2.81120E-16
 -1      1812 9.51473E-04-4.12366E-04-3.97279E-16
 -1      1813 1.09425E-03-4.46268E-04-5.35460E-16
 -1      1814 1.23590E-03-4.74271E-04-6.96031E-16
 -1      1815 1.00329E-03-3.94632E-04-4.96131E-16
 -1      1816 1.37633E-03-4.97740E-04-8.78556E-16
 -1      1817 1.51612E-03-5.16969E-04-1.08370E-15
 -1      1818 1.28901E-03-4.50797E-04-8.23194E-16
 -1      1819 1.65545E-03-5.32854E-04-1.31027E-15
 -1      1820 1.79455E-03-5.45630E-04-1.55832E-15
 -1      1821 1.57168E-03-4.89431E-04-1.23724E-15
 -1      1822 1.93363E-03-5.55881E-04-1.82776E-15
 -1      1823 2.07278E-03-5.63806E-04-2.11876E-15
 -1      1824 1.85284E-03-5.15044E-04-1.73769E-15
 -1      1825 2.21217E-03-5.69798E-04-2.43128E-15
 -1      1826 2.35182E-03-5.74026E-04-2.76415E-15
 -1      1827 2.13370E-03-5.30857E-04-2.32301E-15
 -1      1828 2.49188E-03-5.76761E-04-3.11739E-15
 -1      1829 2.63236E-03-5.78147E-04-3.49106E-15
 -1      1830 2.41508E-03-5.39205E-04-2.99122E-15
 -1      1831 2.77335E-03-5.78372E-04-3.88474E-15
 -1      1832 2.91489E-03-5.77562E-04-4.29786E-15
 -1      1833 2.69760E-03-5.41817E-04-3.74008E-15
 -1      1834 3.05705E-03-5.75851E-04-4.73125E-15
 -1      1835 3.19988E-03-5.73352E-04-5.18281E-15
 -1      1836 2.98171E-03-5.39994E-04-4.56822E-15
 -1      1837 3.34342E-03-5.70171E-04-5.65322E-15
 -1      1838 3.48777E-03-5.66418E-04-6.14312E-15
 -1      1839 3.26783E-03-5.34757E-04-5.47271E-15
 -1      1840 3.63294E-03-5.62189E-04-6.65142E-15
 -1      1841 3.77907E-03-5.57607E-04-7.17839E-15
 -1      1842 3.55636E-03-5.26968E-04-6.45267E-15
 -1      1843 3.92616E-03-5.52782E-04-7.72272E-15
 -1      1844 4.07439E-03-5.47863E-04-8.28576E-15
 -1      1845 3.84774E-03-5.17468E-04-7.50601E-15
 -1      1846 4.22375E-03-5.43006E-04-8.86643E-15
 -1      1847 4.37446E-03-5.38405E-04-9.46384E-15
 -1      1848 4.14249E-03-5.07228E-04-8.63236E-15
 -1      1849 4.52648E-03-5.34299E-04-1.00783E-14
 -1      1850 4.68007E-03-5.30951E-04-1.07096E-14
 -1      1851 4.44121E-03-4.97534E-04-9.82831E-15
 -1      1852 4.83521E-03-5.28728E-04-1.13598E-14
 -1      1853 4.99214E-03-5.27995E-04-1.20255E-14
 -1      1854 4.74460E-03-4.90218E-04-1.10929E-14
 -1      1855 5.15084E-03-5.29298E-04-1.27084E-14
 -1      1856 5.31153E-03-5.33136E-04-1.34095E-14
 -1      1857 5.05345E-03-4.87944E-04-1.24257E-14
 -1      1858 5.47423E-03-5.40274E-04-1.41288E-14
 -1      1859 5.63899E-03-5.51376E-04-1.48654E-14
 -1      1860 5.36870E-03-4.94532E-04-1.38284E-14
 -1      1861 5.80599E-03-5.67413E-04-1.56212E-14
 -1      1862 5.97493E-03-5.89213E-04-1.63953E-14
 -1      1863 5.69138E-03-5.15243E-04-1.53045E-14
 -1      1864 6.14624E-03-6.17813E-04-1.71880E-14
 -1      1865 6.31908E-03-6.54105E-04-1.80008E-14
 -1      1866 6.02265E-03-5.56839E-04-1.68536E-14
 -1      1867 6.49418E-03-6.98837E-04-1.88330E-14
 -1      1868 6.66994E-03-7.52607E-04-1.96858E-14
 -1      1869 6.36343E-03-6.27005E-04-1.84798E-14
 -1      1870 6.84732E-03-8.15254E-04-2.05594E-14
 -1      1871 7.02395E-03-8.86305E-04-2.14537E-14
 -1      1872 6.71367E-03-7.32343E-04-2.01853E-14
 -1      1873 7.20066E-03-9.63930E-04-2.23726E-14
 -1      1874 7.37493E-03-1.04554E-03-2.33139E-14
 -1      1875 7.07068E-03-8.73880E-04-2.19768E-14
 -1      1876 7.54692E-03-1.12719E-03-2.42783E-14
 -1      1877 7.71542E-03-1.20391E-03-2.52674E-14
 -1      1878 7.42760E-03-1.03974E-03-2.38589E-14
 -1      1879 7.87960E-03-1.27058E-03-2.62806E-14
 -1      1880 8.04133E-03-1.32134E-03-2.73175E-14
 -1      1881 7.77496E-03-1.19887E-03-2.58347E-14
 -1      1882 8.19893E-03-1.35236E-03-2.83816E-14
 -1      1883 8.35756E-03-1.36114E-03-2.94711E-14
 -1      1884 8.10783E-03-1.30552E-03-2.79103E-14
 -1      1885 8.51529E-03-1.34769E-03-3.05843E-14
 -1      1886 8.67704E-03-1.31456E-03-3.17219E-14
 -1      1887 8.43343E-03-1.32299E-03-3.00860E-14
 -1      1888 8.84119E-03-1.26558E-03-3.28839E-14
 -1      1889 9.00971E-03-1.20650E-03-3.40705E-14
 -1      1890 8.76634E-03-1.25172E-03-3.23627E-14
 -1      1891 9.18175E-03-1.14243E-03-3.52784E-14
 -1      1892 9.35607E-03-1.07844E-03-3.65046E-14
 -1      1893 9.11373E-03-1.12783E-03-3.47338E-14
 -1      1894 9.53286E-03-1.01845E-03-3.77518E-14
 -1      1895 9.70957E-03-9.65008E-04-3.90179E-14
 -1      1896 9.47076E-03-9.97189E-04-3.71886E-14
 -1      1897 9.88704E-03-9.19966E-04-4.03003E-14
 -1      1898 1.00629E-02-8.83775E-04-4.15988E-14
 -1      1899 9.82791E-03-8.90887E-04-3.97166E-14
 -1      1900 1.02381E-02-8.56598E-04-4.29140E-14
 -1      1901 1.04111E-02-8.37833E-04-4.42441E-14
 -1      1902 1.01783E-02-8.20709E-04-4.23130E-14
 -1      1903 1.05826E-02-8.26730E-04-4.55874E-14
 -1      1904 1.07518E-02-8.22399E-04-4.69474E-14
 -1      1905 1.05194E-02-7.85589E-04-4.49702E-14
 -1      1906 1.09191E-02-8.23801E-04-4.83221E-14
 -1      1907 1.10841E-02-8.30111E-04-4.97080E-14
 -1      1908 1.08511E-02-7.78916E-04-4.76854E-14
 -1      1909 1.12472E-02-8.40356E-04-5.11082E-14
 -1      1910 1.14083E-02-8.53880E-04-5.25211E-14
 -1      1911 1.11743E-02-7.93009E-04-5.04585E-14
 -1      1912 1.15675E-02-8.69918E-04-5.39476E-14
 -1      1913 1.17251E-02-8.87982E-04-5.53880E-14
 -1      1914 1.14903E-02-8.21118E-04-5.32829E-14
 -1      1915 1.18809E-02-9.07532E-04-5.68385E-14
 -1      1916 1.20353E-02-9.28217E-04-5.83014E-14
 -1      1917 1.18002E-02-8.58022E-04-5.61587E-14
 -1      1918 1.21882E-02-9.49683E-04-5.97782E-14
 -1      1919 1.23400E-02-9.71685E-04-6.12670E-14
 -1      1920 1.21049E-02-8.99973E-04-5.90843E-14
 -1      1921 1.24905E-02-9.94007E-04-6.27724E-14
 -1      1922 1.26401E-02-1.01648E-03-6.42916E-14
 -1      1923 1.24054E-02-9.44421E-04-6.20624E-14
 -1      1924 1.27887E-02-1.03899E-03-6.58251E-14
 -1      1925 1.29365E-02-1.06141E-03-6.73718E-14
 -1      1926 1.27023E-02-9.89715E-04-6.50990E-14
 -1      1927 1.30836E-02-1.08370E-03-6.89310E-14
 -1      1928 1.32300E-02-1.10578E-03-7.05039E-14
 -1      1929 1.29965E-02-1.03484E-03-6.81889E-14
 -1      1930 1.33759E-02-1.12762E-03-7.20865E-14
 -1      1931 1.35212E-02-1.14918E-03-7.36782E-14
 -1      1932 1.32883E-02-1.07919E-03-7.13320E-14
 -1      1933 1.36662E-02-1.17047E-03-7.52830E-14
 -1      1934 1.38107E-02-1.19146E-03-7.68934E-14
 -1      1935 1.35785E-02-1.12248E-03-7.45134E-14
 -1      1936 1.39550E-02-1.21215E-03-7.85105E-14
 -1      1937 1.40989E-02-1.23255E-03-8.01397E-14
 -1      1938 1.38673E-02-1.16458E-03-7.77325E-14
 -1      1939 1.42427E-02-1.25266E-03-8.17766E-14
 -1      1940 1.43862E-02-1.27248E-03-8.34195E-14
 -1      1941 1.41550E-02-1.20546E-03-8.09821E-14
 -1      1942 1.45295E-02-1.29203E-03-8.50717E-14
 -1      1943 1.46728E-02-1.31132E-03-8.67293E-14
 -1      1944 1.44420E-02-1.24517E-03-8.42673E-14
 -1      1945 1.48017E-02-1.33009E-03-8.82169E-14
 -1      1946 1.49447E-02-1.34894E-03-8.98862E-14
 -1      1947 1.49720E-02-1.32071E-03-9.03868E-14
 -1      1948 1.47142E-02-1.28350E-03-8.74023E-14
 -1      1949 1.13723E-03 4.76177E-04-5.21610E-16
 -1      1950 9.95545E-04 4.43722E-04-3.85203E-16
 -1      1951 9.63487E-04 4.14375E-04-3.95734E-16
 -1      1952 1.41633E-03 5.25737E-04-8.59908E-16
 -1      1953 1.27715E-03 5.03306E-04-6.79822E-16
 -1      1954 1.24790E-03 4.75290E-04-6.90068E-16
 -1      1955 1.69295E-03 5.59597E-04-1.28539E-15
 -1      1956 1.55476E-03 5.44388E-04-1.06180E-15
 -1      1957 1.52832E-03 5.17350E-04-1.07104E-15
 -1      1958 1.96915E-03 5.81843E-04-1.79640E-15
 -1      1959 1.83100E-03 5.72005E-04-1.53022E-15
 -1      1960 1.80701E-03 5.45614E-04-1.53791E-15
 -1      1961 2.24615E-03 5.95340E-04-2.39225E-15
 -1      1962 2.10749E-03 5.89561E-04-2.08373E-15
 -1      1963 2.08550E-03 5.63580E-04-2.08969E-15
 -1      1964 2.52472E-03 6.02193E-04-3.07110E-15
 -1      1965 2.38520E-03 5.99502E-04-2.72160E-15
 -1      1966 2.36477E-03 5.73760E-04-2.72503E-15
 -1      1967 2.80538E-03 6.03996E-04-3.83187E-15
 -1      1968 2.66477E-03 6.03649E-04-3.44084E-15
 -1      1969 2.64547E-03 5.78023E-04-3.44214E-15
 -1      1970 3.08855E-03 6.02003E-04-4.67344E-15
 -1      1971 2.94663E-03 6.03409E-04-4.24273E-15
 -1      1972 2.92808E-03 5.77799E-04-4.24042E-15
 -1      1973 3.37459E-03 5.97264E-04-5.59299E-15
 -1      1974 3.23118E-03 5.99916E-04-5.12365E-15
 -1      1975 3.21300E-03 5.74237E-04-5.11764E-15
 -1      1976 3.66389E-03 5.90752E-04-6.59058E-15
 -1      1977 3.51880E-03 5.94167E-04-6.08185E-15
 -1      1978 3.50059E-03 5.68330E-04-6.07254E-15
 -1      1979 3.95689E-03 5.83494E-04-7.66683E-15
 -1      1980 3.80989E-03 5.87145E-04-7.11867E-15
 -1      1981 3.79124E-03 5.61054E-04-7.10573E-15
 -1      1982 4.25402E-03 5.76704E-04-8.82190E-15
 -1      1983 4.10490E-03 5.79953E-04-8.23457E-15
 -1      1984 4.08536E-03 5.53490E-04-8.21778E-15
 -1      1985 4.55575E-03 5.71922E-04-1.00568E-14
 -1      1986 4.40428E-03 5.73953E-04-9.42988E-15
 -1      1987 4.38339E-03 5.46971E-04-9.40947E-15
 -1      1988 4.86244E-03 5.71145E-04-1.13706E-14
 -1      1989 4.70845E-03 5.70899E-04-1.07037E-14
 -1      1990 4.68574E-03 5.43219E-04-1.06793E-14
 -1      1991 5.17426E-03 5.76909E-04-1.27594E-14
 -1      1992 5.01770E-03 5.73053E-04-1.20554E-14
 -1      1993 4.99275E-03 5.44463E-04-1.20259E-14
 -1      1994 5.49100E-03 5.92247E-04-1.42263E-14
 -1      1995 5.33205E-03 5.83215E-04-1.34834E-14
 -1      1996 5.30456E-03 5.53487E-04-1.34493E-14
 -1      1997 5.81190E-03 6.20417E-04-1.57710E-14
 -1      1998 5.65103E-03 6.04585E-04-1.49888E-14
 -1      1999 5.62101E-03 5.73518E-04-1.49496E-14
 -1      2000 6.13542E-03 6.64221E-04-1.73933E-14
 -1      2001 5.97353E-03 6.40305E-04-1.65725E-14
 -1      2002 5.94139E-03 6.07810E-04-1.65277E-14
 -1      2003 6.45910E-03 7.24769E-04-1.90962E-14
 -1      2004 6.29753E-03 6.92517E-04-1.82344E-14
 -1      2005 6.26427E-03 6.58756E-04-1.81848E-14
 -1      2006 6.77965E-03 7.99716E-04-2.08773E-14
 -1      2007 6.62011E-03 7.60832E-04-1.99765E-14
 -1      2008 6.58733E-03 7.26384E-04-1.99205E-14
 -1      2009 7.09348E-03 8.81496E-04-2.27458E-14
 -1      2010 6.93772E-03 8.40473E-04-2.18020E-14
 -1      2011 6.90736E-03 8.06419E-04-2.17397E-14
 -1      2012 7.39783E-03 9.56681E-04-2.46931E-14
 -1      2013 7.24698E-03 9.20878E-04-2.37078E-14
 -1      2014 7.22091E-03 8.88656E-04-2.36390E-14
 -1      2015 7.69235E-03 1.00814E-03-2.67268E-14
 -1      2016 7.54616E-03 9.86314E-04-2.56991E-14
 -1      2017 7.52563E-03 9.57200E-04-2.56219E-14
 -1      2018 7.98003E-03 1.02034E-03-2.88455E-14
 -1      2019 7.83655E-03 1.01967E-03-2.77756E-14
 -1      2020 7.82198E-03 9.94136E-04-2.76915E-14
 -1      2021 8.26677E-03 9.85758E-04-3.10453E-14
 -1      2022 8.12289E-03 1.00874E-03-2.99364E-14
 -1      2023 8.11403E-03 9.86097E-04-2.98467E-14
 -1      2024 8.55883E-03 9.08581E-04-3.33282E-14
 -1      2025 8.41162E-03 9.51726E-04-3.21759E-14
 -1      2026 8.40797E-03 9.30495E-04-3.20825E-14
 -1      2027 8.86023E-03 8.02561E-04-3.56894E-14
 -1      2028 8.70814E-03 8.58137E-04-3.44990E-14
 -1      2029 8.70904E-03 8.36835E-04-3.44011E-14
 -1      2030 9.17155E-03 6.85032E-04-3.81316E-14
 -1      2031 9.01473E-03 7.44315E-04-3.69001E-14
 -1      2032 9.01920E-03 7.22030E-04-3.67990E-14
 -1      2033 9.49061E-03 5.70856E-04-4.06444E-14
 -1      2034 9.33038E-03 6.26937E-04-3.93788E-14
 -1      2035 9.33709E-03 6.03414E-04-3.92729E-14
 -1      2036 9.81396E-03 4.69355E-04-4.32290E-14
 -1      2037 9.65207E-03 5.18284E-04-4.19291E-14
 -1      2038 9.65951E-03 4.93686E-04-4.18184E-14
 -1      2039 1.01382E-02 3.84238E-04-4.58816E-14
 -1      2040 9.97625E-03 4.24762E-04-4.45449E-14
 -1      2041 9.98308E-03 3.99404E-04-4.44319E-14
 -1      2042 1.04606E-02 3.15213E-04-4.86093E-14
 -1      2043 1.02998E-02 3.47862E-04-4.72368E-14
 -1      2044 1.03051E-02 3.22055E-04-4.71192E-14
 -1      2045 1.07794E-02 2.59833E-04-5.14014E-14
 -1      2046 1.06206E-02 2.86011E-04-4.99985E-14
 -1      2047 1.06239E-02 2.60005E-04-4.98769E-14
 -1      2048 1.10938E-02 2.14907E-04-5.42485E-14
 -1      2049 1.09372E-02 2.36249E-04-5.28182E-14
 -1      2050 1.09385E-02 2.10230E-04-5.26923E-14
 -1      2051 1.14035E-02 1.77344E-04-5.71495E-14
 -1      2052 1.12492E-02 1.95360E-04-5.56933E-14
 -1      2053 1.12485E-02 1.69452E-04-5.55618E-14
 -1      2054 1.17085E-02 1.44539E-04-6.00999E-14
 -1      2055 1.15565E-02 1.60466E-04-5.86179E-14
 -1      2056 1.15543E-02 1.34744E-04-5.84805E-14
 -1      2057 1.20095E-02 1.14480E-04-6.31062E-14
 -1      2058 1.18595E-02 1.29251E-04-6.15971E-14
 -1      2059 1.18560E-02 1.03755E-04-6.14564E-14
 -1      2060 1.23069E-02 8.57126E-05-6.61591E-14
 -1      2061 1.21586E-02 9.99921E-05-6.46264E-14
 -1      2062 1.21541E-02 7.47336E-05-6.44816E-14
 -1      2063 1.26013E-02 5.72449E-05-6.92554E-14
 -1      2064 1.24544E-02 7.14775E-05-6.77024E-14
 -1      2065 1.24494E-02 4.64498E-05-6.75548E-14
 -1      2066 1.28933E-02 2.84405E-05-7.23877E-14
 -1      2067 1.27476E-02 4.29059E-05-7.08163E-14
 -1      2068 1.27421E-02 1.80914E-05-7.06649E-14
 -1      2069 1.31834E-02-1.07932E-06-7.55493E-14
 -1      2070 1.30386E-02 1.37808E-05-7.39672E-14
 -1      2071 1.30329E-02-1.08438E-05-7.38115E-14
 -1      2072 1.34721E-02-3.15159E-05-7.87327E-14
 -1      2073 1.33279E-02-1.61791E-05-7.71387E-14
 -1      2074 1.33221E-02-4.06386E-05-7.69811E-14
 -1      2075 1.37596E-02-6.29526E-05-8.19265E-14
 -1      2076 1.36160E-02-4.71096E-05-8.03277E-14
 -1      2077 1.36102E-02-7.14283E-05-8.01673E-14
 -1      2078 1.40464E-02-9.53926E-05-8.51389E-14
 -1      2079 1.39031E-02-7.90508E-05-8.35325E-14
 -1      2080 1.38973E-02-1.03251E-04-8.33733E-14
 -1      2081 1.43327E-02-1.28770E-04-8.83657E-14
 -1      2082 1.41896E-02-1.11972E-04-8.67497E-14
 -1      2083 1.41839E-02-1.36076E-04-8.65928E-14
 -1      2084 1.45690E-02-1.59799E-04-9.10251E-14
 -1      2085 1.44260E-02-1.42692E-04-8.94088E-14
 -1      2086 1.44204E-02-1.66733E-04-8.92506E-14
 -1      2087 1.46070E-02-1.94754E-04-9.13411E-14
 -1      2088 1.46732E-02-4.24038E-04-9.11721E-14
 -1      2089 1.46553E-02-3.82438E-04-9.11427E-14
 -1      2090 1.46375E-02-3.40716E-04-9.11110E-14
 -1      2091 1.46199E-02-2.98895E-04-9.10772E-14
 -1      2092 1.45227E-02-3.46709E-04-8.97224E-14
 -1      2093 1.46220E-02-2.67874E-04-9.12284E-14
 -1      2094 1.46047E-02-2.25887E-04-9.11919E-14
 -1      2095 1.45113E-02-2.11851E-04-9.01455E-14
 -1      2096 1.45070E-02-2.73990E-04-8.98434E-14
 -1      2097 1.47087E-02-5.05492E-04-9.12221E-14
 -1      2098 1.46909E-02-4.64823E-04-9.11982E-14
 -1      2099 1.45584E-02-4.29123E-04-8.97801E-14
 -1      2100 1.47449E-02-5.87911E-04-9.12658E-14
 -1      2101 1.47268E-02-5.46752E-04-9.12446E-14
 -1      2102 1.45943E-02-5.11056E-04-8.98265E-14
 -1      2103 1.47808E-02-6.69972E-04-9.13064E-14
 -1      2104 1.47629E-02-6.28976E-04-9.12869E-14
 -1      2105 1.46305E-02-5.93250E-04-8.98674E-14
 -1      2106 1.48164E-02-7.51814E-04-9.13472E-14
 -1      2107 1.47987E-02-7.10906E-04-9.13257E-14
 -1      2108 1.46665E-02-6.75110E-04-8.99078E-14
 -1      2109 1.48514E-02-8.33606E-04-9.13859E-14
 -1      2110 1.48339E-02-7.92700E-04-9.13655E-14
 -1      2111 1.47019E-02-7.56787E-04-8.99441E-14
 -1      2112 1.48859E-02-9.15528E-04-9.14172E-14
 -1      2113 1.48687E-02-8.74537E-04-9.14038E-14
 -1      2114 1.47367E-02-8.38457E-04-8.99765E-14
 -1      2115 1.49195E-02-9.96345E-04-9.14397E-14
 -1      2116 1.49027E-02-9.55892E-04-9.14299E-14
 -1      2117 1.47708E-02-9.19605E-04-9.00014E-14
 -1      2118 1.49536E-02-1.07896E-03-9.14533E-14
 -1      2119 1.49365E-02-1.03760E-03-9.14482E-14
 -1      2120 1.48046E-02-1.00108E-03-9.00158E-14
 -1      2121 1.49880E-02-1.16205E-03-9.14518E-14
 -1      2122 1.49707E-02-1.12045E-03-9.14523E-14
 -1      2123 1.48386E-02-1.08369E-03-9.00174E-14
 -1      2124 1.50229E-02-1.24559E-03-9.14384E-14
 -1      2125 1.50054E-02-1.20377E-03-9.14462E-14
 -1      2126 1.48730E-02-1.16679E-03-9.00043E-14
 -1      2127 9.99296E-03-9.39950E-05-3.56654E-14
 -1      2128 1.01428E-02-1.43203E-04-3.58802E-14
 -1      2129 1.04254E-02-2.47538E-04-3.65269E-14
 -1      2130 1.04335E-02-2.61198E-04-3.64512E-14
 -1      2131 1.02647E-02-1.88712E-04-3.61704E-14
 -1      2132 1.03571E-02-2.19808E-04-3.64611E-14
 -1      2133 1.02100E-02-1.91132E-04-3.67422E-14
 -1      2134 9.58320E-03 1.03835E-04-3.45253E-14
 -1      2135 9.77146E-03 9.90093E-06-3.50276E-14
 -1      2136 9.18491E-03 3.21424E-04-3.33850E-14
 -1      2137 9.37199E-03 2.15934E-04-3.39327E-14
 -1      2138 3.27385E-04-8.83401E-05-1.22528E-16
 -1      2139 3.29409E-04-1.01497E-04-1.17243E-16
 -1      2140 4.46451E-04-1.44127E-04-1.70369E-16
 -1      2141 4.40301E-04-1.09023E-04-1.84003E-16
 -1      2142 8.44808E-03 6.92659E-04-3.08571E-14
 -1      2143 8.61317E-03 6.22474E-04-3.14958E-14
 -1      2144 8.09912E-03 7.63589E-04-2.93601E-14
 -1      2145 8.24567E-03 7.47955E-04-3.00127E-14
 -1      2146 7.80005E-03 7.19290E-04-2.81012E-14
 -1      2147 7.94786E-03 7.54045E-04-2.87263E-14
 -1      2148 8.02577E-03 7.70453E-04-2.90261E-14
 -1      2149 7.44319E-03 5.66391E-04-2.66844E-14
 -1      2150 7.61116E-03 6.51715E-04-2.73128E-14
 -1      2151 7.00769E-03 3.42172E-04-2.55040E-14
 -1      2152 7.19379E-03 4.38398E-04-2.59387E-14
 -1      2153 6.64505E-03 1.50649E-04-2.45420E-14
 -1      2154 6.82369E-03 2.45625E-04-2.50191E-14
 -1      2155 6.92027E-03 2.75695E-04-2.48688E-14
 -1      2156 6.25430E-03-1.35032E-06-2.39680E-14
 -1      2157 6.41577E-03 5.60619E-05-2.41794E-14
 -1      2158 6.02662E-03-8.28849E-05-2.35787E-14
 -1      2159 6.12932E-03-4.72612E-05-2.37721E-14
 -1      2160 6.19194E-03-4.16239E-05-2.34892E-14
 -1      2161 5.90625E-03-1.35316E-04-2.32798E-14
 -1      2162 5.94197E-03-1.18023E-04-2.33640E-14
 -1      2163 5.96169E-03-1.82103E-04-2.34357E-14
 -1      2164 5.91405E-03-1.60695E-04-2.33523E-14
 -1      2165 6.17326E-03-2.60521E-04-2.37431E-14
 -1      2166 6.05795E-03-2.18426E-04-2.35502E-14
 -1      2167 6.49334E-03-3.93532E-04-2.42589E-14
 -1      2168 6.33097E-03-3.23449E-04-2.39847E-14
 -1      2169 6.86559E-03-5.71729E-04-2.49026E-14
 -1      2170 6.67268E-03-4.77933E-04-2.45794E-14
 -1      2171 6.58717E-03-4.04259E-04-2.40231E-14
 -1      2172 7.31839E-03-8.32541E-04-2.60056E-14
 -1      2173 7.13150E-03-7.16525E-04-2.54821E-14
 -1      2174 7.69129E-03-1.04379E-03-2.71656E-14
 -1      2175 7.51306E-03-9.45791E-04-2.65989E-14
 -1      2176 8.05151E-03-1.18351E-03-2.85619E-14
 -1      2177 7.89905E-03-1.13527E-03-2.79360E-14
 -1      2178 8.36600E-03-1.19911E-03-2.98905E-14
 -1      2179 8.21456E-03-1.20550E-03-2.92225E-14
 -1      2180 8.14265E-03-1.20710E-03-2.88508E-14
 -1      2181 8.72970E-03-1.08276E-03-3.14848E-14
 -1      2182 8.56235E-03-1.15510E-03-3.07699E-14
 -1      2183 9.14892E-03-8.65750E-04-3.29045E-14
 -1      2184 8.96309E-03-9.66475E-04-3.23363E-14
 -1      2185 9.50756E-03-6.74222E-04-3.39342E-14
 -1      2186 9.32719E-03-7.72135E-04-3.34166E-14
 -1      2187 9.22209E-03-8.08485E-04-3.35053E-14
 -1      2188 9.89032E-03-4.86324E-04-3.49568E-14
 -1      2189 9.72372E-03-5.63969E-04-3.45410E-14
 -1      2190 1.01956E-02-3.62382E-04-3.56626E-14
 -1      2191 1.00621E-02-4.15016E-04-3.53280E-14
 -1      2192 1.03927E-02-2.86905E-04-3.62186E-14
 -1      2193 1.03175E-02-3.13334E-04-3.60130E-14
 -1      2194 8.79972E-03 5.29483E-04-3.22025E-14
 -1      2195 8.97310E-03 4.31844E-04-3.27916E-14
 -1      2196 9.04927E-03 3.67178E-04-3.33694E-14
 -1      2197 6.07209E-04-2.96672E-04-1.68322E-16
 -1      2198 8.68758E-03 5.74254E-04-3.20598E-14
 -1      2199 6.63151E-04-2.90708E-04-2.32331E-16
 -1      2200 1.04047E-02-2.43365E-04-3.71047E-14
 -1      2201 9.88183E-03-6.62180E-05-3.58029E-14
 -1      2202 1.49954E-02-1.27374E-03-9.09408E-14
 -1      2203 1.04233E-02-2.71470E-04-3.69390E-14
 -1      2204 9.45345E-03 1.43293E-04-3.45628E-14
 -1      2205 1.02591E-02-3.24675E-04-3.63517E-14
 -1      2206 9.59609E-03-6.05388E-04-3.46336E-14
 -1      2207 8.46287E-03-1.18884E-03-3.03881E-14
 -1      2208 7.81062E-03-1.09615E-03-2.74229E-14
 -1      2209 7.01051E-03-6.27274E-04-2.49074E-14
 -1      2210 6.25877E-03-2.67608E-04-2.34727E-14
 -1      2211 6.00650E-03-1.85243E-04-2.31251E-14
 -1      2212 5.97829E-03-1.08494E-04-2.30836E-14
 -1      2213 6.52945E-03 8.84144E-05-2.40365E-14
 -1      2214 7.71913E-03 6.96775E-04-2.76044E-14
 -1      2215 8.33506E-03 7.29915E-04-3.05017E-14
 -1      2216 7.32692E-03 5.01084E-04-2.60812E-14
 -1      2217 5.89955E-03-1.42822E-04-2.29426E-14
 -1      2218 7.44149E-03-8.85414E-04-2.60688E-14
 -1      2219 8.84314E-03-1.02541E-03-3.21267E-14
 -1      2220 9.96825E-03-4.32474E-04-3.56229E-14
 -1      2221 1.01598E-03 3.96461E-04-4.94098E-16
 -1      2222 8.71542E-04 3.60820E-04-3.65024E-16
 -1      2223 5.48209E-04-5.46166E-05-2.81337E-16
 -1      2224 5.49251E-04-7.11688E-05-2.78884E-16
 -1      2225 5.50670E-04-8.83479E-05-2.75550E-16
 -1      2226 5.52517E-04-1.06213E-04-2.71105E-16
 -1      2227 6.65748E-04-9.42877E-05-3.75351E-16
 -1      2228 5.46804E-04 8.75107E-06-2.83722E-16
 -1      2229 5.46786E-04-6.87976E-06-2.83980E-16
 -1      2230 5.47565E-04 4.03625E-05-2.81215E-16
 -1      2231 5.47061E-04 2.44839E-05-2.82963E-16
 -1      2232 6.61737E-04 1.96603E-05-3.83198E-16
 -1      2233 5.49398E-04 7.26402E-05-2.75875E-16
 -1      2234 5.48333E-04 5.63117E-05-2.78965E-16
 -1      2235 6.63081E-04 5.70139E-05-3.79295E-16
 -1      2236 5.52773E-04 1.07843E-04-2.66781E-16
 -1      2237 5.50864E-04 8.98915E-05-2.71850E-16
 -1      2238 6.65965E-04 9.60503E-05-3.71163E-16
 -1      2239 5.58570E-04 1.47000E-04-2.52524E-16
 -1      2240 5.55304E-04 1.26853E-04-2.60561E-16
 -1      2241 6.71044E-04 1.38489E-04-3.58153E-16
 -1      2242 5.68700E-04 1.92504E-04-2.31193E-16
 -1      2243 5.62978E-04 1.68825E-04-2.42902E-16
 -1      2244 6.79587E-04 1.85815E-04-3.38258E-16
 -1      2245 1.30149E-03 4.51596E-04-8.16553E-16
 -1      2246 1.15912E-03 4.26613E-04-6.44477E-16
 -1      2247 1.07150E-03 3.77608E-04-5.97124E-16
 -1      2248 9.14873E-04-3.43505E-04-4.54565E-16
 -1      2249 1.05898E-03-3.76040E-04-5.99442E-16
 -1      2250 8.59098E-03 6.21495E-04-3.19078E-14
 -1      2251 8.74615E-03 5.30684E-04-3.26202E-14
 -1      2252 1.20229E-03-4.03533E-04-7.65542E-16
 -1      2253 1.34518E-03-4.26387E-04-9.53678E-16
 -1      2254 1.11698E-03-3.56484E-04-7.06873E-16
 -1      2255 1.48749E-03-4.45445E-04-1.16338E-15
 -1      2256 1.62946E-03-4.60980E-04-1.39442E-15
 -1      2257 1.40349E-03-4.01220E-04-1.08804E-15
 -1      2258 1.77113E-03-4.73641E-04-1.64674E-15
 -1      2259 1.91265E-03-4.83634E-04-1.91995E-15
 -1      2260 1.68896E-03-4.31862E-04-1.55441E-15
 -1      2261 2.05409E-03-4.91432E-04-2.21413E-15
 -1      2262 2.19554E-03-4.97203E-04-2.52948E-15
 -1      2263 1.97370E-03-4.51632E-04-2.10503E-15
 -1      2264 2.33709E-03-5.01283E-04-2.86460E-15
 -1      2265 2.47877E-03-5.03813E-04-3.22001E-15
 -1      2266 2.25817E-03-4.63048E-04-2.73735E-15
 -1      2267 2.62067E-03-5.05032E-04-3.59542E-15
 -1      2268 2.76281E-03-5.05057E-04-3.99016E-15
 -1      2269 2.54281E-03-4.68030E-04-3.45032E-15
 -1      2270 2.90526E-03-5.04063E-04-4.40457E-15
 -1      2271 3.04806E-03-5.02147E-04-4.83879E-15
 -1      2272 2.82796E-03-4.68033E-04-4.24162E-15
 -1      2273 3.19123E-03-4.99443E-04-5.29175E-15
 -1      2274 3.33485E-03-4.96041E-04-5.76335E-15
 -1      2275 3.11391E-03-4.64175E-04-5.11045E-15
 -1      2276 3.47891E-03-4.92052E-04-6.25365E-15
 -1      2277 3.62351E-03-4.87570E-04-6.76300E-15
 -1      2278 3.40091E-03-4.57357E-04-6.05486E-15
 -1      2279 3.76863E-03-4.82708E-04-7.29028E-15
 -1      2280 3.91440E-03-4.77574E-04-7.83529E-15
 -1      2281 3.68919E-03-4.48380E-04-7.07413E-15
 -1      2282 4.06078E-03-4.72308E-04-8.39860E-15
 -1      2283 4.20793E-03-4.67049E-04-8.97985E-15
 -1      2284 3.97902E-03-4.38081E-04-8.16553E-15
 -1      2285 4.35580E-03-4.61998E-04-9.57821E-15
 -1      2286 4.50458E-03-4.57343E-04-1.01929E-14
 -1      2287 4.27068E-03-4.27483E-04-9.32742E-15
 -1      2288 4.65422E-03-4.53378E-04-1.08251E-14
 -1      2289 4.80494E-03-4.50377E-04-1.14757E-14
 -1      2290 4.56455E-03-4.17972E-04-1.05583E-14
 -1      2291 4.95673E-03-4.48761E-04-1.21431E-14
 -1      2292 5.10981E-03-4.48931E-04-1.28262E-14
 -1      2293 4.86117E-03-4.11526E-04-1.18584E-14
 -1      2294 5.26426E-03-4.51466E-04-1.35280E-14
 -1      2295 5.42028E-03-4.56955E-04-1.42488E-14
 -1      2296 5.16139E-03-4.10971E-04-1.32287E-14
 -1      2297 5.57812E-03-4.66129E-04-1.49872E-14
 -1      2298 5.73791E-03-4.79846E-04-1.57442E-14
 -1      2299 5.46659E-03-4.20279E-04-1.46703E-14
 -1      2300 5.90017E-03-4.98919E-04-1.65192E-14
 -1      2301 6.06483E-03-5.24529E-04-1.73134E-14
 -1      2302 5.77904E-03-4.44867E-04-1.61852E-14
 -1      2303 6.23278E-03-5.57390E-04-1.81263E-14
 -1      2304 6.40348E-03-5.98953E-04-1.89591E-14
 -1      2305 6.10211E-03-4.91788E-04-1.77746E-14
 -1      2306 6.57822E-03-6.49496E-04-1.98131E-14
 -1      2307 6.75547E-03-7.10199E-04-2.06865E-14
 -1      2308 6.44000E-03-5.69552E-04-1.94408E-14
 -1      2309 6.93663E-03-7.80419E-04-2.15823E-14
 -1      2310 7.11883E-03-8.59617E-04-2.24997E-14
 -1      2311 6.79597E-03-6.86539E-04-2.11888E-14
 -1      2312 7.30294E-03-9.45361E-04-2.34392E-14
 -1      2313 7.48520E-03-1.03359E-03-2.44025E-14
 -1      2314 7.16817E-03-8.45243E-04-2.30217E-14
 -1      2315 7.66498E-03-1.11986E-03-2.53914E-14
 -1      2316 7.84111E-03-1.19541E-03-2.64030E-14
 -1      2317 7.54480E-03-1.03035E-03-2.49482E-14
 -1      2318 8.01173E-03-1.25543E-03-2.74403E-14
 -1      2319 8.18068E-03-1.29094E-03-2.85034E-14
 -1      2320 7.90885E-03-1.19529E-03-2.69717E-14
 -1      2321 8.34514E-03-1.29920E-03-2.95912E-14
 -1      2322 8.51421E-03-1.28142E-03-3.07036E-14
 -1      2323 8.25554E-03-1.27389E-03-2.90954E-14
 -1      2324 8.68479E-03-1.23956E-03-3.18417E-14
 -1      2325 8.86093E-03-1.18165E-03-3.30058E-14
 -1      2326 8.60150E-03-1.23046E-03-3.13208E-14
 -1      2327 9.04084E-03-1.11289E-03-3.41903E-14
 -1      2328 9.22313E-03-1.04226E-03-3.53976E-14
 -1      2329 8.96585E-03-1.10088E-03-3.36483E-14
 -1      2330 9.40722E-03-9.74042E-04-3.66254E-14
 -1      2331 9.58948E-03-9.12471E-04-3.78702E-14
 -1      2332 9.34256E-03-9.50909E-04-3.60622E-14
 -1      2333 9.77071E-03-8.59936E-04-3.91328E-14
 -1      2334 9.94802E-03-8.16839E-04-4.04144E-14
 -1      2335 9.71477E-03-8.27411E-04-3.85513E-14
 -1      2336 1.01228E-02-7.83885E-04-4.17132E-14
 -1      2337 1.02936E-02-7.59872E-04-4.30259E-14
 -1      2338 1.00708E-02-7.45711E-04-4.11129E-14
 -1      2339 1.04617E-02-7.44529E-04-4.43539E-14
 -1      2340 1.06265E-02-7.36408E-04-4.56956E-14
 -1      2341 1.04089E-02-7.03057E-04-4.37378E-14
 -1      2342 1.07889E-02-7.34795E-04-4.70517E-14
 -1      2343 1.09489E-02-7.38507E-04-4.84238E-14
 -1      2344 1.07321E-02-6.91117E-04-4.64208E-14
 -1      2345 1.11069E-02-7.46729E-04-4.98102E-14
 -1      2346 1.12632E-02-7.58608E-04-5.12066E-14
 -1      2347 1.10449E-02-7.01385E-04-4.91603E-14
 -1      2348 1.14180E-02-7.73414E-04-5.26174E-14
 -1      2349 1.15714E-02-7.90564E-04-5.40422E-14
 -1      2350 1.13505E-02-7.26811E-04-5.19543E-14
 -1      2351 1.17236E-02-8.09484E-04-5.54784E-14
 -1      2352 1.18748E-02-8.29784E-04-5.69282E-14
 -1      2353 1.16512E-02-7.62005E-04-5.48006E-14
 -1      2354 1.20250E-02-8.51052E-04-5.83896E-14
 -1      2355 1.21744E-02-8.73028E-04-5.98644E-14
 -1      2356 1.19485E-02-8.03044E-04-5.76962E-14
 -1      2357 1.23229E-02-8.95438E-04-6.13540E-14
 -1      2358 1.24708E-02-9.18112E-04-6.28578E-14
 -1      2359 1.22432E-02-8.47190E-04-6.06464E-14
 -1      2360 1.26180E-02-9.40880E-04-6.43740E-14
 -1      2361 1.27648E-02-9.63632E-04-6.59044E-14
 -1      2362 1.25359E-02-8.92609E-04-6.36510E-14
 -1      2363 1.29109E-02-9.86273E-04-6.74506E-14
 -1      2364 1.30567E-02-1.00873E-03-6.90077E-14
 -1      2365 1.28270E-02-9.38127E-04-6.67111E-14
 -1      2366 1.32020E-02-1.03097E-03-7.05767E-14
 -1      2367 1.33470E-02-1.05293E-03-7.21577E-14
 -1      2368 1.31169E-02-9.83037E-04-6.98252E-14
 -1      2369 1.34916E-02-1.07462E-03-7.37445E-14
 -1      2370 1.36360E-02-1.09599E-03-7.53459E-14
 -1      2371 1.34057E-02-1.02695E-03-7.29815E-14
 -1      2372 1.37801E-02-1.11707E-03-7.69541E-14
 -1      2373 1.39240E-02-1.13783E-03-7.85662E-14
 -1      2374 1.36937E-02-1.06969E-03-7.61723E-14
 -1      2375 1.40677E-02-1.15829E-03-8.01908E-14
 -1      2376 1.42113E-02-1.17845E-03-8.18228E-14
 -1      2377 1.39810E-02-1.11120E-03-7.94010E-14
 -1      2378 1.43547E-02-1.19832E-03-8.34622E-14
 -1      2379 1.44980E-02-1.21792E-03-8.51099E-14
 -1      2380 1.42677E-02-1.15152E-03-8.26605E-14
 -1      2381 1.01521E-02-1.83551E-04-3.71904E-14
 -1      2382 1.02657E-02-2.14544E-04-3.74871E-14
 -1      2383 1.86546E-03 5.14879E-04-1.71738E-15
 -1      2384 1.72492E-03 5.03668E-04-1.46042E-15
 -1      2385 2.14648E-03 5.30534E-04-2.29393E-15
 -1      2386 2.00596E-03 5.23775E-04-1.99530E-15
 -1      2387 1.92531E-03 4.83460E-04-1.89964E-15
 -1      2388 2.42801E-03 5.38899E-04-2.95331E-15
 -1      2389 2.28715E-03 5.35524E-04-2.61331E-15
 -1      2390 2.20833E-03 4.96891E-04-2.50093E-15
 -1      2391 2.71063E-03 5.41715E-04-3.69351E-15
 -1      2392 2.56916E-03 5.40918E-04-3.31316E-15
 -1      2393 2.49168E-03 5.03542E-04-3.18343E-15
 -1      2394 2.99477E-03 5.40329E-04-4.51334E-15
 -1      2395 2.85249E-03 5.41479E-04-4.09336E-15
 -1      2396 2.77580E-03 5.05023E-04-3.94608E-15
 -1      2397 3.28080E-03 5.35830E-04-5.41144E-15
 -1      2398 3.13753E-03 5.38408E-04-4.95292E-15
 -1      2399 3.06106E-03 5.02590E-04-4.78754E-15
 -1      2400 3.56906E-03 5.29186E-04-6.38720E-15
 -1      2401 3.42462E-03 5.32718E-04-5.88926E-15
 -1      2402 3.34780E-03 4.97275E-04-5.70667E-15
 -1      2403 3.85991E-03 5.21367E-04-7.44176E-15
 -1      2404 3.71413E-03 5.25360E-04-6.90471E-15
 -1      2405 3.63632E-03 4.90013E-04-6.70322E-15
 -1      2406 4.15375E-03 5.13482E-04-8.57344E-15
 -1      2407 4.00642E-03 5.17357E-04-7.99741E-15
 -1      2408 3.92695E-03 4.81772E-04-7.77775E-15
 -1      2409 4.45098E-03 5.06921E-04-9.78579E-15
 -1      2410 4.30190E-03 5.09940E-04-9.17028E-15
 -1      2411 4.22007E-03 4.73679E-04-8.93094E-15
 -1      2412 4.75206E-03 5.03491E-04-1.10749E-14
 -1      2413 4.60101E-03 5.04691E-04-1.04205E-14
 -1      2414 4.51612E-03 4.67169E-04-1.01626E-14
 -1      2415 5.05738E-03 5.05531E-04-1.24402E-14
 -1      2416 4.90417E-03 5.03672E-04-1.17483E-14
 -1      2417 4.81561E-03 4.64115E-04-1.14709E-14
 -1      2418 5.36731E-03 5.15948E-04-1.38830E-14
 -1      2419 5.21179E-03 5.09506E-04-1.31521E-14
 -1      2420 5.11913E-03 4.66938E-04-1.28560E-14
 -1      2421 5.68199E-03 5.38076E-04-1.54009E-14
 -1      2422 5.52412E-03 5.25344E-04-1.46314E-14
 -1      2423 5.42733E-03 4.78641E-04-1.43164E-14
 -1      2424 6.00121E-03 5.75218E-04-1.69972E-14
 -1      2425 5.84118E-03 5.54591E-04-1.61899E-14
 -1      2426 5.74083E-03 5.02659E-04-1.58528E-14
 -1      2427 6.32406E-03 6.29672E-04-1.86722E-14
 -1      2428 6.16242E-03 6.00205E-04-1.78243E-14
 -1      2429 6.05995E-03 5.42385E-04-1.74668E-14
 -1      2430 6.64860E-03 7.01112E-04-2.04251E-14
 -1      2431 6.48646E-03 6.63439E-04-1.95398E-14
 -1      2432 6.38429E-03 6.00158E-04-1.91591E-14
 -1      2433 6.97164E-03 7.84406E-04-2.22626E-14
 -1      2434 6.81069E-03 7.41825E-04-2.13330E-14
 -1      2435 6.71203E-03 6.75428E-04-2.09311E-14
 -1      2436 7.28928E-03 8.67878E-04-2.41795E-14
 -1      2437 7.13141E-03 8.27127E-04-2.32106E-14
 -1      2438 7.03950E-03 7.62278E-04-2.27834E-14
 -1      2439 7.59863E-03 9.33731E-04-2.61805E-14
 -1      2440 7.44494E-03 9.04275E-04-2.51685E-14
 -1      2441 7.36182E-03 8.47250E-04-2.47176E-14
 -1      2442 7.90013E-03 9.62885E-04-2.82701E-14
 -1      2443 7.74986E-03 9.53992E-04-2.72158E-14
 -1      2444 7.67539E-03 9.10126E-04-2.67388E-14
 -1      2445 8.19857E-03 9.42541E-04-3.04429E-14
 -1      2446 8.04897E-03 9.59169E-04-2.93460E-14
 -1      2447 7.98124E-03 9.30127E-04-2.88472E-14
 -1      2448 8.50056E-03 8.73491E-04-3.27008E-14
 -1      2449 8.34848E-03 9.13479E-04-3.15610E-14
 -1      2450 8.28553E-03 8.95859E-04-3.10403E-14
 -1      2451 8.81058E-03 7.69185E-04-3.50393E-14
 -1      2452 8.65435E-03 8.24549E-04-3.38597E-14
 -1      2453 8.59554E-03 8.12384E-04-3.33187E-14
 -1      2454 9.12881E-03 6.48999E-04-3.74579E-14
 -1      2455 8.96885E-03 7.09878E-04-3.62385E-14
 -1      2456 8.91456E-03 6.97776E-04-3.56786E-14
 -1      2457 9.45222E-03 5.30252E-04-3.99493E-14
 -1      2458 9.29025E-03 5.88606E-04-3.86956E-14
 -1      2459 9.24058E-03 5.73536E-04-3.81180E-14
 -1      2460 9.77691E-03 4.24010E-04-4.25143E-14
 -1      2461 9.61478E-03 4.75170E-04-4.12224E-14
 -1      2462 9.56888E-03 4.56247E-04-4.06288E-14
 -1      2463 1.00998E-02 3.34833E-04-4.51480E-14
 -1      2464 9.93886E-03 3.77214E-04-4.38231E-14
 -1      2465 9.89512E-03 3.54742E-04-4.32114E-14
 -1      2466 1.04191E-02 2.62719E-04-4.78521E-14
 -1      2467 1.02601E-02 2.96754E-04-4.64907E-14
 -1      2468 1.02167E-02 2.71418E-04-4.58634E-14
 -1      2469 1.07339E-02 2.05216E-04-5.06230E-14
 -1      2470 1.05771E-02 2.32326E-04-4.92293E-14
 -1      2471 1.05329E-02 2.04848E-04-4.85830E-14
 -1      2472 1.10442E-02 1.59004E-04-5.34496E-14
 -1      2473 1.08896E-02 1.80893E-04-5.20295E-14
 -1      2474 1.08437E-02 1.51910E-04-5.13684E-14
 -1      2475 1.13502E-02 1.20819E-04-5.63305E-14
 -1      2476 1.11977E-02 1.39081E-04-5.48830E-14
 -1      2477 1.11497E-02 1.09123E-04-5.42073E-14
 -1      2478 1.16522E-02 8.78770E-05-5.92599E-14
 -1      2479 1.15016E-02 1.03832E-04-5.77890E-14
 -1      2480 1.14516E-02 7.33236E-05-5.70976E-14
 -1      2481 1.19509E-02 5.80112E-05-6.22458E-14
 -1      2482 1.18019E-02 7.26650E-05-6.07461E-14
 -1      2483 1.17501E-02 4.19284E-05-6.00394E-14
 -1      2484 1.22466E-02 2.96399E-05-6.52830E-14
 -1      2485 1.20990E-02 4.37145E-05-6.37583E-14
 -1      2486 1.20458E-02 1.29805E-05-6.30366E-14
 -1      2487 1.25399E-02 1.67569E-06-6.83648E-14
 -1      2488 1.23935E-02 1.56588E-05-6.68189E-14
 -1      2489 1.23392E-02-1.49177E-05-6.60850E-14
 -1      2490 1.28313E-02-2.65850E-05-7.14842E-14
 -1      2491 1.26858E-02-1.23839E-05-6.99186E-14
 -1      2492 1.26307E-02-4.27087E-05-6.91751E-14
 -1      2493 1.31211E-02-5.55643E-05-7.46347E-14
 -1      2494 1.29763E-02-4.09642E-05-7.30568E-14
 -1      2495 1.29207E-02-7.09880E-05-7.23022E-14
 -1      2496 1.34096E-02-8.54885E-05-7.78079E-14
 -1      2497 1.32655E-02-7.03967E-05-7.62191E-14
 -1      2498 1.32095E-02-1.00100E-04-7.54589E-14
 -1      2499 1.36973E-02-1.16453E-04-8.09984E-14
 -1      2500 1.35535E-02-1.00835E-04-7.94014E-14
 -1      2501 1.34974E-02-1.30219E-04-7.86343E-14
 -1      2502 1.39842E-02-1.48471E-04-8.42089E-14
 -1      2503 1.38408E-02-1.32329E-04-8.26006E-14
 -1      2504 1.37845E-02-1.61404E-04-8.18306E-14
 -1      2505 1.42705E-02-1.81490E-04-8.74320E-14
 -1      2506 1.41274E-02-1.64856E-04-8.58174E-14
 -1      2507 1.40711E-02-1.93647E-04-8.50424E-14
 -1      2508 1.44180E-02-1.97891E-04-8.91009E-14
 -1      2509 1.44800E-02-5.16682E-04-8.84328E-14
 -1      2510 1.44618E-02-4.75554E-04-8.84126E-14
 -1      2511 1.45163E-02-5.98613E-04-8.84689E-14
 -1      2512 1.44982E-02-5.57695E-04-8.84499E-14
 -1      2513 1.43658E-02-5.22334E-04-8.70395E-14
 -1      2514 1.44080E-02-3.52807E-04-8.83361E-14
 -1      2515 1.43901E-02-3.11163E-04-8.83061E-14
 -1      2516 1.44438E-02-4.34652E-04-8.83903E-14
 -1      2517 1.44259E-02-3.93973E-04-8.83635E-14
 -1      2518 1.42933E-02-3.58659E-04-8.69493E-14
 -1      2519 1.43294E-02-4.40601E-04-8.69998E-14
 -1      2520 1.45522E-02-6.80223E-04-8.85072E-14
 -1      2521 1.45343E-02-6.39445E-04-8.84894E-14
 -1      2522 1.44022E-02-6.03951E-04-8.70738E-14
 -1      2523 1.45875E-02-7.61681E-04-8.85426E-14
 -1      2524 1.45699E-02-7.20955E-04-8.85267E-14
 -1      2525 1.44380E-02-6.85258E-04-8.71111E-14
 -1      2526 1.46222E-02-8.43177E-04-8.85670E-14
 -1      2527 1.46049E-02-8.02409E-04-8.85549E-14
 -1      2528 1.44731E-02-7.66446E-04-8.71391E-14
 -1      2529 1.46557E-02-9.23510E-04-8.85824E-14
 -1      2530 1.46390E-02-8.83304E-04-8.85755E-14
 -1      2531 1.45073E-02-8.47036E-04-8.71540E-14
 -1      2532 1.46896E-02-1.00561E-03-8.85881E-14
 -1      2533 1.46727E-02-9.64503E-04-8.85866E-14
 -1      2534 1.45410E-02-9.27912E-04-8.71628E-14
 -1      2535 1.47236E-02-1.08821E-03-8.85797E-14
 -1      2536 1.47066E-02-1.04684E-03-8.85862E-14
 -1      2537 1.45747E-02-1.00993E-03-8.71595E-14
 -1      2538 1.47580E-02-1.17135E-03-8.85613E-14
 -1      2539 1.47407E-02-1.12971E-03-8.85708E-14
 -1      2540 1.46085E-02-1.09253E-03-8.71454E-14
 -1      2541 1.48666E-02-1.25530E-03-8.94455E-14
 -1      2542 1.04497E-02-2.70461E-04-3.77206E-14
 -1      2543 1.04065E-02-2.79731E-04-3.74857E-14
 -1      2544 1.58417E-03 4.89615E-04-1.22435E-15
 -1      2545 1.44307E-03 4.72511E-04-1.00954E-15
 -1      2546 1.64201E-03 4.61131E-04-1.38110E-15
 -1      2547 9.75161E-03-2.79788E-05-3.60212E-14
 -1      2548 9.96169E-03-1.15443E-04-3.66696E-14
 -1      2549 1.03165E-02-3.05683E-04-3.72482E-14
 -1      2550 1.02004E-02-3.37973E-04-3.68920E-14
 -1      2551 5.88318E-04-2.36532E-04-2.17057E-16
 -1      2552 7.81055E-04-3.02566E-04-3.45942E-16
 -1      2553 8.40711E-04-2.91077E-04-4.26945E-16
 -1      2554 5.78994E-04-2.08782E-04-2.33158E-16
 -1      2555 9.33571E-03 1.85002E-04-3.47059E-14
 -1      2556 9.52859E-03 8.08321E-05-3.53078E-14
 -1      2557 8.52892E-03-1.17886E-03-3.08138E-14
 -1      2558 8.36608E-03-1.21890E-03-2.99334E-14
 -1      2559 7.91431E-03-1.14657E-03-2.76458E-14
 -1      2560 7.74438E-03-1.05807E-03-2.68821E-14
 -1      2561 6.32909E-03-2.75856E-04-2.31331E-14
 -1      2562 6.18347E-03-2.25731E-04-2.29017E-14
 -1      2563 7.66334E-03 6.77573E-04-2.71808E-14
 -1      2564 7.82160E-03 7.39796E-04-2.79652E-14
 -1      2565 5.47005E-04-2.25959E-05-2.83709E-16
 -1      2566 5.47471E-04-3.84411E-05-2.82760E-16
 -1      2567 6.62946E-04-5.50466E-05-3.81585E-16
 -1      2568 6.61688E-04-1.74431E-05-3.83957E-16
 -1      2569 8.24970E-03 7.59533E-04-3.02016E-14
 -1      2570 8.41182E-03 7.04703E-04-3.10489E-14
 -1      2571 7.21054E-03 4.34487E-04-2.54138E-14
 -1      2572 7.42088E-03 5.56776E-04-2.61452E-14
 -1      2573 7.94548E-03 7.69435E-04-2.85881E-14
 -1      2574 8.06335E-03 7.80527E-04-2.92181E-14
 -1      2575 7.87073E-03 7.59660E-04-2.81510E-14
 -1      2576 5.89858E-03-1.43509E-04-2.24772E-14
 -1      2577 5.88663E-03-1.35223E-04-2.24067E-14
 -1      2578 6.84791E-03 2.37026E-04-2.42746E-14
 -1      2579 7.00863E-03 3.23442E-04-2.47464E-14
 -1      2580 6.40681E-03 3.00250E-05-2.34394E-14
 -1      2581 6.60828E-03 1.17523E-04-2.37889E-14
 -1      2582 6.12581E-03-6.80476E-05-2.29636E-14
 -1      2583 6.23967E-03-3.25428E-05-2.31524E-14
 -1      2584 7.54376E-03-9.41206E-04-2.61124E-14
 -1      2585 7.37717E-03-8.33159E-04-2.55279E-14
 -1      2586 5.93208E-03-1.18675E-04-2.25410E-14
 -1      2587 6.01354E-03-1.00897E-04-2.27517E-14
 -1      2588 6.04610E-03-8.60604E-05-2.24183E-14
 -1      2589 6.04346E-03-1.81607E-04-2.26776E-14
 -1      2590 5.95390E-03-1.60736E-04-2.25702E-14
 -1      2591 6.66919E-03-4.25852E-04-2.37805E-14
 -1      2592 6.50764E-03-3.50621E-04-2.34708E-14
 -1      2593 8.95637E-03-9.62683E-04-3.28513E-14
 -1      2594 8.76223E-03-1.07629E-03-3.19881E-14
 -1      2595 7.12992E-03-6.81569E-04-2.48404E-14
 -1      2596 6.89437E-03-5.43653E-04-2.42757E-14
 -1      2597 8.17629E-03-1.22098E-03-2.89474E-14
 -1      2598 8.04927E-03-1.19509E-03-2.82914E-14
 -1      2599 7.96357E-03-1.17045E-03-2.77357E-14
 -1      2600 1.00702E-02-3.83959E-04-3.65077E-14
 -1      2601 9.91803E-03-4.43799E-04-3.61278E-14
 -1      2602 1.01623E-02-3.59311E-04-3.74026E-14
 -1      2603 9.31143E-03-7.52143E-04-3.42008E-14
 -1      2604 9.16213E-03-8.42292E-04-3.36790E-14
 -1      2605 9.69579E-03-5.45575E-04-3.54320E-14
 -1      2606 9.50187E-03-6.46271E-04-3.48139E-14
 -1      2607 9.43787E-03-6.90758E-04-3.49920E-14
 -1      2608 1.03840E-02-2.45508E-04-3.77889E-14
 -1      2609 1.04454E-02-2.57494E-04-3.78585E-14
 -1      2610 7.57301E-04 3.32142E-04-2.72961E-16
 -1      2611 6.10972E-04 2.83362E-04-1.82566E-16
 -1      2612 5.84422E-04 2.56671E-04-1.87242E-16
 -1      2613 8.13390E-04 3.20523E-04-3.50631E-16
 -1      2614 8.96941E-03 3.99472E-04-3.34942E-14
 -1      2615 9.14964E-03 2.90582E-04-3.40963E-14
 -1      2616 9.25177E-03 2.28076E-04-3.48313E-14
 -1      2617 8.49051E-03 6.71494E-04-3.15964E-14
 -1      2618 6.70651E-04-1.36445E-04-3.63994E-16
 -1      2619 5.54940E-04-1.25027E-04-2.65413E-16
 -1      2620 5.58077E-04-1.44953E-04-2.58230E-16
 -1      2621 1.35766E-03 4.27093E-04-9.46698E-16
 -1      2622 5.72142E-04 2.26496E-04-2.05890E-16
 -1      2623 8.86300E-03 4.61794E-04-3.33354E-14
 -1      2624 9.83257E-03-4.89630E-04-3.63110E-14
 -1      2625 8.26278E-03-1.23123E-03-2.93568E-14
 -1      2626 7.23966E-03-7.49829E-04-2.48803E-14
 -1      2627 9.06657E-03-9.10221E-04-3.35363E-14
 -1      2628 1.03777E-02-2.96413E-04-3.80305E-14
 -1      2629 1.00485E-02-1.48100E-04-3.74101E-14
 -1      2630 1.43617E-02-2.26427E-04-8.83233E-14
 -1      2631 1.43596E-02-2.57483E-04-8.81720E-14
 -1      2632 6.78741E-03-4.85189E-04-2.37141E-14
 -1      2633 1.47240E-02-1.25069E-03-8.77089E-14
 -1      2634 1.47478E-02-1.20397E-03-8.82606E-14
 -1      2635 1.46153E-02-1.16656E-03-8.68348E-14
 -1      2636 1.45951E-02-1.23185E-03-8.62267E-14
 -1      2637 5.88859E-03-1.25094E-04-2.20771E-14
 -1      2638 7.65711E-03-1.01238E-03-2.63259E-14
 -1      2639 1.04693E-02-2.67756E-04-3.84095E-14
 -1      2640 6.89522E-04 2.49387E-04-2.96245E-16
 -1      2641 9.64503E-03 2.01178E-05-3.61642E-14
 -1      2642 5.90741E-03-1.45401E-04-2.20347E-14
 -1      2643 6.31240E-03-3.94449E-08-2.29087E-14
 -1      2644 8.65031E-03-1.13893E-03-3.15160E-14
 -1      2645 8.55921E-03-1.18666E-03-3.10473E-14
 -1      2646 8.77004E-03-1.09103E-03-3.22295E-14
 -1      2647 6.70220E-03 1.70567E-04-2.36685E-14
 -1      2648 6.77313E-03 2.26949E-04-2.35430E-14
 -1      2649 6.56220E-03 1.18069E-04-2.30717E-14
 -1      2650 6.09359E-03-1.93906E-04-2.23442E-14
 -1      2651 7.53568E-03 6.24166E-04-2.64889E-14
 -1      2652 7.62870E-03 6.80251E-04-2.68353E-14
 -1      2653 7.40841E-03 5.69502E-04-2.58091E-14
 -1      2654 6.40097E-03-3.02364E-04-2.28947E-14
 -1      2655 5.71909E-04-1.83932E-04-2.46073E-16
 -1      2656 7.11025E-03 3.93368E-04-2.48043E-14
 -1      2657 8.15632E-03 7.78123E-04-2.97487E-14
 -1      2658 1.03504E-02-2.37632E-04-3.82412E-14
 -1      2659 1.42447E-02-2.63911E-04-8.67907E-14
 -1      2660 1.45081E-02-1.18526E-03-8.54153E-14
 -1      2661 7.80601E-04 7.62149E-05-4.92268E-16
 -1      2662 7.79318E-04 5.46494E-05-4.96050E-16
 -1      2663 7.78455E-04 3.30570E-05-4.98476E-16
 -1      2664 7.78024E-04 1.17243E-05-4.99953E-16
 -1      2665 8.96796E-04 4.88615E-05-6.29013E-16
 -1      2666 7.91978E-04 1.71097E-04-4.62914E-16
 -1      2667 7.87988E-04 1.45861E-04-4.72807E-16
 -1      2668 8.03702E-04 2.26040E-04-4.36378E-16
 -1      2669 7.97171E-04 1.97761E-04-4.51001E-16
 -1      2670 9.15282E-04 2.05201E-04-5.80766E-16
 -1      2671 1.12982E-03 3.57869E-04-7.04880E-16
 -1      2672 9.86177E-04 3.29635E-04-5.48146E-16
 -1      2673 9.54150E-03 7.55196E-05-3.63438E-14
 -1      2674 9.74399E-03-2.04699E-05-3.70685E-14
 -1      2675 1.41624E-03 4.01747E-04-1.08142E-15
 -1      2676 1.27309E-03 3.81784E-04-8.82690E-16
 -1      2677 1.18990E-03 3.37048E-04-8.17583E-16
 -1      2678 8.41883E-03 7.09965E-04-3.13502E-14
 -1      2679 8.57370E-03 6.33626E-04-3.22128E-14
 -1      2680 9.94956E-03-4.55961E-04-3.72617E-14
 -1      2681 9.75225E-03-5.43889E-04-3.65544E-14
 -1      2682 1.32046E-03-3.57390E-04-1.01202E-15
 -1      2683 1.46379E-03-3.75250E-04-1.22660E-15
 -1      2684 1.60696E-03-3.90062E-04-1.46186E-15
 -1      2685 1.75005E-03-4.02042E-04-1.71818E-15
 -1      2686 1.52552E-03-3.48511E-04-1.36866E-15
 -1      2687 1.89302E-03-4.11641E-04-1.99514E-15
 -1      2688 2.03591E-03-4.19037E-04-2.29240E-15
 -1      2689 1.81237E-03-3.71633E-04-1.88480E-15
 -1      2690 2.17874E-03-4.24584E-04-2.61004E-15
 -1      2691 2.32154E-03-4.28427E-04-2.94769E-15
 -1      2692 2.09905E-03-3.85989E-04-2.48269E-15
 -1      2693 2.46434E-03-4.30835E-04-3.30492E-15
 -1      2694 2.60718E-03-4.31924E-04-3.68191E-15
 -1      2695 2.38550E-03-3.93488E-04-3.15981E-15
 -1      2696 2.75006E-03-4.31896E-04-4.07880E-15
 -1      2697 2.89303E-03-4.30843E-04-4.49437E-15
 -1      2698 2.67179E-03-3.95641E-04-3.91557E-15
 -1      2699 3.03608E-03-4.28923E-04-4.92926E-15
 -1      2700 3.17927E-03-4.26211E-04-5.38336E-15
 -1      2701 2.95797E-03-3.93632E-04-4.74868E-15
 -1      2702 3.32257E-03-4.22837E-04-5.85610E-15
 -1      2703 3.46604E-03-4.18871E-04-6.34787E-15
 -1      2704 3.24412E-03-3.88398E-04-5.65746E-15
 -1      2705 3.60966E-03-4.14434E-04-6.85774E-15
 -1      2706 3.75348E-03-4.09598E-04-7.38617E-15
 -1      2707 3.53025E-03-3.80727E-04-6.64159E-15
 -1      2708 3.89747E-03-4.04498E-04-7.93246E-15
 -1      2709 4.04173E-03-3.99223E-04-8.49577E-15
 -1      2710 3.81639E-03-3.71365E-04-7.69884E-15
 -1      2711 4.18617E-03-3.93943E-04-9.07735E-15
 -1      2712 4.33094E-03-3.88779E-04-9.67554E-15
 -1      2713 4.10255E-03-3.61132E-04-8.82737E-15
 -1      2714 4.47597E-03-3.83963E-04-1.02917E-14
 -1      2715 4.62141E-03-3.79671E-04-1.09245E-14
 -1      2716 4.38878E-03-3.51057E-04-1.00249E-14
 -1      2717 4.76722E-03-3.76218E-04-1.15748E-14
 -1      2718 4.91362E-03-3.73874E-04-1.22429E-14
 -1      2719 4.67525E-03-3.42523E-04-1.12918E-14
 -1      2720 5.06062E-03-3.73051E-04-1.29285E-14
 -1      2721 5.20851E-03-3.74172E-04-1.36317E-14
 -1      2722 4.96243E-03-3.37442E-04-1.26282E-14
 -1      2723 5.35743E-03-3.77743E-04-1.43532E-14
 -1      2724 5.50780E-03-3.84438E-04-1.50933E-14
 -1      2725 5.25134E-03-3.38451E-04-1.40367E-14
 -1      2726 5.65998E-03-3.94812E-04-1.58515E-14
 -1      2727 5.81449E-03-4.09969E-04-1.66283E-14
 -1      2728 5.54405E-03-3.49179E-04-1.55186E-14
 -1      2729 5.97211E-03-4.30422E-04-1.74235E-14
 -1      2730 6.13332E-03-4.57909E-04-1.82372E-14
 -1      2731 5.84437E-03-3.74687E-04-1.70729E-14
 -1      2732 6.29944E-03-4.92749E-04-1.90704E-14
 -1      2733 6.47049E-03-5.37535E-04-1.99237E-14
 -1      2734 6.15852E-03-4.22221E-04-1.87019E-14
 -1      2735 6.64833E-03-5.92229E-04-2.07975E-14
 -1      2736 6.83141E-03-6.59497E-04-2.16908E-14
 -1      2737 6.49501E-03-5.02668E-04-2.04070E-14
 -1      2738 7.02239E-03-7.37957E-04-2.26072E-14
 -1      2739 7.21570E-03-8.28665E-04-2.35441E-14
 -1      2740 6.86245E-03-6.29838E-04-2.21924E-14
 -1      2741 7.80163E-03-1.13221E-03-2.64940E-14
 -1      2742 7.98483E-03-1.20451E-03-2.75296E-14
 -1      2743 8.08678E-03-1.22747E-03-2.82067E-14
 -1      2744 8.26919E-03-1.25029E-03-2.92830E-14
 -1      2745 8.54118E-03-1.21884E-03-3.09704E-14
 -1      2746 8.72686E-03-1.15949E-03-3.21139E-14
 -1      2747 9.27939E-03-9.26771E-04-3.54977E-14
 -1      2748 9.47247E-03-8.53731E-04-3.67256E-14
 -1      2749 9.66290E-03-7.92531E-04-3.79711E-14
 -1      2750 9.84603E-03-7.42976E-04-3.92324E-14
 -1      2751 9.61572E-03-7.55616E-04-3.73896E-14
 -1      2752 1.00241E-02-7.05933E-04-4.05139E-14
 -1      2753 1.01952E-02-6.78680E-04-4.18111E-14
 -1      2754 9.98286E-03-6.63274E-04-3.99163E-14
 -1      2755 1.03615E-02-6.61323E-04-4.31228E-14
 -1      2756 1.05228E-02-6.51307E-04-4.44495E-14
 -1      2757 1.03198E-02-6.17864E-04-4.25086E-14
 -1      2758 1.06805E-02-6.48303E-04-4.57886E-14
 -1      2759 1.08352E-02-6.50573E-04-4.71431E-14
 -1      2760 1.06344E-02-6.05130E-04-4.51595E-14
 -1      2761 1.09875E-02-6.57597E-04-4.85128E-14
 -1      2762 1.11381E-02-6.68280E-04-4.98960E-14
 -1      2763 1.09351E-02-6.14400E-04-4.78666E-14
 -1      2764 1.12872E-02-6.82065E-04-5.12930E-14
 -1      2765 1.14353E-02-6.98278E-04-5.27021E-14
 -1      2766 1.12281E-02-6.38399E-04-5.06311E-14
 -1      2767 1.15825E-02-7.16417E-04-5.41243E-14
 -1      2768 1.17291E-02-7.36064E-04-5.55595E-14
 -1      2769 1.15174E-02-6.72061E-04-5.34490E-14
 -1      2770 1.18751E-02-7.56815E-04-5.70058E-14
 -1      2771 1.20208E-02-7.78408E-04-5.84653E-14
 -1      2772 1.18049E-02-7.11771E-04-5.63172E-14
 -1      2773 1.21661E-02-8.00545E-04-5.99389E-14
 -1      2774 1.23112E-02-8.23061E-04-6.14284E-14
 -1      2775 1.20916E-02-7.54939E-04-5.92357E-14
 -1      2776 1.24560E-02-8.45751E-04-6.29311E-14
 -1      2777 1.26006E-02-8.68513E-04-6.44451E-14
 -1      2778 1.23781E-02-7.99755E-04-6.22092E-14
 -1      2779 1.27450E-02-8.91218E-04-6.59747E-14
 -1      2780 1.28892E-02-9.13803E-04-6.75183E-14
 -1      2781 1.26645E-02-8.44996E-04-6.52404E-14
 -1      2782 1.30332E-02-9.36194E-04-6.90731E-14
 -1      2783 1.31772E-02-9.58356E-04-7.06403E-14
 -1      2784 1.29508E-02-8.89880E-04-6.83246E-14
 -1      2785 1.33209E-02-9.80251E-04-7.22163E-14
 -1      2786 1.34646E-02-1.00186E-03-7.38025E-14
 -1      2787 1.32371E-02-9.33947E-04-7.14547E-14
 -1      2788 1.36081E-02-1.02318E-03-7.53971E-14
 -1      2789 1.37516E-02-1.04419E-03-7.70008E-14
 -1      2790 1.35233E-02-9.76955E-04-7.46239E-14
 -1      2791 1.38949E-02-1.06491E-03-7.86124E-14
 -1      2792 1.40382E-02-1.08532E-03-8.02332E-14
 -1      2793 1.38094E-02-1.01881E-03-7.78269E-14
 -1      2794 1.41814E-02-1.10545E-03-8.18631E-14
 -1      2795 1.43245E-02-1.12529E-03-8.34979E-14
 -1      2796 1.40954E-02-1.05951E-03-8.10660E-14
 -1      2797 5.84942E-03-1.22766E-04-2.14693E-14
 -1      2798 5.89061E-03-1.13292E-04-2.16008E-14
 -1      2799 6.87076E-03-5.36051E-04-2.35451E-14
 -1      2800 6.66959E-03-4.28942E-04-2.30634E-14
 -1      2801 1.98647E-03 4.51355E-04-2.08508E-15
 -1      2802 1.84413E-03 4.42803E-04-1.80308E-15
 -1      2803 2.84095E-03 4.68021E-04-4.20061E-15
 -1      2804 2.69826E-03 4.68411E-04-3.79861E-15
 -1      2805 3.12695E-03 4.64679E-04-5.06335E-15
 -1      2806 2.98383E-03 4.66746E-04-4.62199E-15
 -1      2807 2.90605E-03 4.30850E-04-4.45695E-15
 -1      2808 3.41401E-03 4.58685E-04-6.00308E-15
 -1      2809 3.27033E-03 4.61962E-04-5.52386E-15
 -1      2810 3.19243E-03 4.26725E-04-5.34075E-15
 -1      2811 3.70240E-03 4.50941E-04-7.02136E-15
 -1      2812 3.55802E-03 4.54980E-04-6.50246E-15
 -1      2813 3.47945E-03 4.20179E-04-6.30169E-15
 -1      2814 3.99242E-03 4.42398E-04-8.11548E-15
 -1      2815 3.84718E-03 4.46709E-04-7.55899E-15
 -1      2816 3.76732E-03 4.12071E-04-7.33964E-15
 -1      2817 4.28444E-03 4.34191E-04-9.28972E-15
 -1      2818 4.13814E-03 4.38176E-04-8.69220E-15
 -1      2819 4.05634E-03 4.03328E-04-8.45556E-15
 -1      2820 4.57895E-03 4.27776E-04-1.05408E-14
 -1      2821 4.43134E-03 4.30658E-04-9.90602E-15
 -1      2822 4.34690E-03 3.95072E-04-9.64910E-15
 -1      2823 4.87658E-03 4.25058E-04-1.18683E-14
 -1      2824 4.72733E-03 4.25818E-04-1.11951E-14
 -1      2825 4.63954E-03 3.88750E-04-1.09198E-14
 -1      2826 5.17815E-03 4.28507E-04-1.32718E-14
 -1      2827 5.02683E-03 4.25832E-04-1.25597E-14
 -1      2828 4.93506E-03 3.86270E-04-1.22655E-14
 -1      2829 5.48472E-03 4.41192E-04-1.47496E-14
 -1      2830 5.33078E-03 4.33468E-04-1.40011E-14
 -1      2831 5.23461E-03 3.90110E-04-1.36868E-14
 -1      2832 5.79745E-03 4.66659E-04-1.63045E-14
 -1      2833 5.64032E-03 4.52064E-04-1.55173E-14
 -1      2834 5.53969E-03 4.03394E-04-1.51836E-14
 -1      2835 6.11731E-03 5.08499E-04-1.79359E-14
 -1      2836 5.95658E-03 4.85285E-04-1.71108E-14
 -1      2837 5.85212E-03 4.29843E-04-1.67555E-14
 -1      2838 6.44440E-03 5.69286E-04-1.96456E-14
 -1      2839 6.28017E-03 5.36386E-04-1.87807E-14
 -1      2840 6.17356E-03 4.73401E-04-1.84046E-14
 -1      2841 6.77690E-03 6.48621E-04-2.14331E-14
 -1      2842 6.61040E-03 6.06868E-04-2.05301E-14
 -1      2843 6.50456E-03 5.37270E-04-2.01305E-14
 -1      2844 7.11027E-03 7.39836E-04-2.33040E-14
 -1      2845 6.94402E-03 6.93516E-04-2.23589E-14
 -1      2846 6.84306E-03 6.21350E-04-2.19358E-14
 -1      2847 7.43807E-03 8.27445E-04-2.52556E-14
 -1      2848 7.27527E-03 7.85637E-04-2.42693E-14
 -1      2849 7.18309E-03 7.18391E-04-2.38220E-14
 -1      2850 7.75556E-03 8.87791E-04-2.72957E-14
 -1      2851 7.59778E-03 8.62873E-04-2.62639E-14
 -1      2852 7.51613E-03 8.09666E-04-2.57924E-14
 -1      2853 8.06534E-03 8.97217E-04-2.94227E-14
 -1      2854 7.91065E-03 8.99989E-04-2.83486E-14
 -1      2855 7.83741E-03 8.66253E-04-2.78496E-14
 -1      2856 8.37525E-03 8.46621E-04-3.16389E-14
 -1      2857 8.21917E-03 8.79069E-04-3.05199E-14
 -1      2858 8.15131E-03 8.62125E-04-3.00003E-14
 -1      2859 8.69369E-03 7.46931E-04-3.39388E-14
 -1      2860 8.53291E-03 8.01335E-04-3.27780E-14
 -1      2861 8.46851E-03 7.92099E-04-3.22381E-14
 -1      2862 9.02209E-03 6.22035E-04-3.63195E-14
 -1      2863 8.85688E-03 6.85873E-04-3.51184E-14
 -1      2864 8.79707E-03 6.75456E-04-3.45593E-14
 -1      2865 9.35563E-03 4.95119E-04-3.87792E-14
 -1      2866 9.18883E-03 5.57585E-04-3.75413E-14
 -1      2867 9.13536E-03 5.41799E-04-3.69633E-14
 -1      2868 9.68791E-03 3.81102E-04-4.13089E-14
 -1      2869 9.52247E-03 4.35986E-04-4.00353E-14
 -1      2870 9.47547E-03 4.14766E-04-3.94431E-14
 -1      2871 1.00146E-02 2.85779E-04-4.39102E-14
 -1      2872 9.85227E-03 3.31061E-04-4.26000E-14
 -1      2873 9.81008E-03 3.06121E-04-4.19921E-14
 -1      2874 1.03340E-02 2.09169E-04-4.65771E-14
 -1      2875 1.01753E-02 2.45321E-04-4.52355E-14
 -1      2876 1.01356E-02 2.18230E-04-4.46085E-14
 -1      2877 1.06465E-02 1.48500E-04-4.93137E-14
 -1      2878 1.04911E-02 1.77091E-04-4.79384E-14
 -1      2879 1.04517E-02 1.48822E-04-4.72935E-14
 -1      2880 1.09530E-02 1.00159E-04-5.21122E-14
 -1      2881 1.08004E-02 1.23028E-04-5.07057E-14
 -1      2882 1.07597E-02 9.40765E-05-5.00444E-14
 -1      2883 1.12547E-02 6.06529E-05-5.49637E-14
 -1      2884 1.11044E-02 7.95023E-05-5.35320E-14
 -1      2885 1.10616E-02 5.01226E-05-5.28576E-14
 -1      2886 1.15526E-02 2.70207E-05-5.78650E-14
 -1      2887 1.14041E-02 4.32591E-05-5.64066E-14
 -1      2888 1.13589E-02 1.36070E-05-5.57184E-14
 -1      2889 1.18477E-02-3.06061E-06-6.08189E-14
 -1      2890 1.17005E-02 1.16517E-05-5.93353E-14
 -1      2891 1.16530E-02-1.81508E-05-5.86322E-14
 -1      2892 1.21406E-02-3.13068E-05-6.38285E-14
 -1      2893 1.19944E-02-1.73316E-05-6.23169E-14
 -1      2894 1.19448E-02-4.71799E-05-6.15990E-14
 -1      2895 1.24317E-02-5.89186E-05-6.68864E-14
 -1      2896 1.22863E-02-4.51370E-05-6.53532E-14
 -1      2897 1.22350E-02-7.49432E-05-6.46214E-14
 -1      2898 1.27215E-02-8.66894E-05-6.99858E-14
 -1      2899 1.25767E-02-7.27490E-05-6.84312E-14
 -1      2900 1.25240E-02-1.02444E-04-6.76884E-14
 -1      2901 1.30102E-02-1.15108E-04-7.31194E-14
 -1      2902 1.28659E-02-1.00797E-04-7.15481E-14
 -1      2903 1.28121E-02-1.30332E-04-7.07954E-14
 -1      2904 1.32980E-02-1.44445E-04-7.62782E-14
 -1      2905 1.31542E-02-1.29650E-04-7.46957E-14
 -1      2906 1.30996E-02-1.58994E-04-7.39336E-14
 -1      2907 1.35852E-02-1.74824E-04-7.94608E-14
 -1      2908 1.34417E-02-1.59499E-04-7.78676E-14
 -1      2909 1.33866E-02-1.88631E-04-7.70987E-14
 -1      2910 1.38719E-02-2.06275E-04-8.26602E-14
 -1      2911 1.37286E-02-1.90415E-04-8.10589E-14
 -1      2912 1.36732E-02-2.19325E-04-8.02874E-14
 -1      2913 1.41299E-02-2.43083E-04-8.55294E-14
 -1      2914 1.39868E-02-2.26758E-04-8.39197E-14
 -1      2915 1.39312E-02-2.55437E-04-8.31430E-14
 -1      2916 1.41607E-02-2.96637E-04-8.56601E-14
 -1      2917 1.43239E-02-6.90179E-04-8.57129E-14
 -1      2918 1.43061E-02-6.49724E-04-8.56973E-14
 -1      2919 1.44214E-02-1.13906E-03-8.46064E-14
 -1      2920 1.45185E-02-1.15302E-03-8.57203E-14
 -1      2921 1.45288E-02-1.12058E-03-8.60205E-14
 -1      2922 1.43352E-02-1.09327E-03-8.38013E-14
 -1      2923 1.42518E-02-5.27976E-04-8.56470E-14
 -1      2924 1.42335E-02-4.87179E-04-8.56300E-14
 -1      2925 1.43588E-02-7.71053E-04-8.57306E-14
 -1      2926 1.43415E-02-7.30608E-04-8.57234E-14
 -1      2927 1.42099E-02-6.94940E-04-8.43115E-14
 -1      2928 1.42882E-02-6.09227E-04-8.56809E-14
 -1      2929 1.42700E-02-5.68649E-04-8.56648E-14
 -1      2930 1.41379E-02-5.33568E-04-8.42589E-14
 -1      2931 1.41743E-02-6.14394E-04-8.42897E-14
 -1      2932 9.97582E-03-1.16726E-04-3.78948E-14
 -1      2933 1.01513E-02-1.77530E-04-3.84259E-14
 -1      2934 1.43925E-02-8.50706E-04-8.57400E-14
 -1      2935 1.43757E-02-8.10845E-04-8.57368E-14
 -1      2936 1.42443E-02-7.74778E-04-8.43241E-14
 -1      2937 1.44262E-02-9.32101E-04-8.57426E-14
 -1      2938 1.44094E-02-8.91344E-04-8.57423E-14
 -1      2939 1.42780E-02-8.54845E-04-8.43298E-14
 -1      2940 1.44597E-02-1.01405E-03-8.57339E-14
 -1      2941 1.44429E-02-9.72996E-04-8.57400E-14
 -1      2942 1.43113E-02-9.36065E-04-8.43258E-14
 -1      2943 1.45118E-02-1.07909E-03-8.60314E-14
 -1      2944 1.70169E-03 4.31870E-04-1.54161E-15
 -1      2945 1.55905E-03 4.18355E-04-1.30100E-15
 -1      2946 1.47651E-03 3.75647E-04-1.22023E-15
 -1      2947 1.76279E-03 4.01990E-04-1.70565E-15
 -1      2948 1.04455E-02-2.94217E-04-3.89938E-14
 -1      2949 1.03657E-02-3.13490E-04-3.87510E-14
 -1      2950 7.89021E-04-2.50236E-04-4.08622E-16
 -1      2951 9.20209E-04-2.85389E-04-5.28142E-16
 -1      2952 8.03107E-04 2.75896E-04-3.89920E-16
 -1      2953 7.32596E-03-8.13712E-04-2.48577E-14
 -1      2954 7.10671E-03-6.73853E-04-2.41855E-14
 -1      2955 7.81555E-03 7.54196E-04-2.77881E-14
 -1      2956 7.92235E-03 7.80313E-04-2.84076E-14
 -1      2957 1.04913E-02-2.71156E-04-3.92739E-14
 -1      2958 1.04909E-02-2.78550E-04-3.91354E-14
 -1      2959 1.05062E-02-2.93613E-04-3.98644E-14
 -1      2960 7.69836E-03-1.04370E-03-2.63610E-14
 -1      2961 7.51846E-03-9.32942E-04-2.56020E-14
 -1      2962 7.37787E-03-8.56665E-04-2.48900E-14
 -1      2963 2.55573E-03 4.67742E-04-3.41619E-15
 -1      2964 2.41333E-03 4.65906E-04-3.05330E-15
 -1      2965 2.62010E-03 4.31649E-04-3.65101E-15
 -1      2966 2.27102E-03 4.62677E-04-2.71049E-15
 -1      2967 2.12875E-03 4.57927E-04-2.38778E-15
 -1      2968 2.33439E-03 4.28056E-04-2.92271E-15
 -1      2969 5.91810E-03-1.47154E-04-2.16307E-14
 -1      2970 5.86651E-03-1.36229E-04-2.15415E-14
 -1      2971 7.00561E-03 3.61187E-04-2.41423E-14
 -1      2972 7.18238E-03 4.57830E-04-2.47984E-14
 -1      2973 1.04846E-03-3.12260E-04-6.65375E-16
 -1      2974 1.19178E-03-3.37026E-04-8.39335E-16
 -1      2975 1.25347E-03-3.15117E-04-9.57364E-16
 -1      2976 9.97088E-04-2.71604E-04-6.38785E-16
 -1      2977 6.46646E-03-3.33053E-04-2.26096E-14
 -1      2978 6.30607E-03-2.68080E-04-2.22831E-14
 -1      2979 6.20908E-03-2.44877E-05-2.23018E-14
 -1      2980 6.35568E-03 3.02517E-05-2.25796E-14
 -1      2981 8.07085E-03 7.90512E-04-2.92782E-14
 -1      2982 8.23242E-03 7.69905E-04-3.02615E-14
 -1      2983 6.13973E-03-2.08558E-04-2.19695E-14
 -1      2984 6.01427E-03-1.73080E-04-2.17548E-14
 -1      2985 9.18550E-03-8.59598E-04-3.43335E-14
 -1      2986 9.00634E-03-9.68475E-04-3.34937E-14
 -1      2987 7.84834E-04 1.21818E-04-4.80789E-16
 -1      2988 7.82428E-04 9.86286E-05-4.87200E-16
 -1      2989 8.99977E-04 9.78877E-05-6.19825E-16
 -1      2990 9.05790E-04 1.49416E-04-6.04212E-16
 -1      2991 5.97940E-03-9.27351E-05-2.18610E-14
 -1      2992 6.07904E-03-6.76456E-05-2.20663E-14
 -1      2993 6.53157E-04-1.86735E-04-3.18403E-16
 -1      2994 7.82184E-04-9.65750E-05-4.91943E-16
 -1      2995 7.84518E-04-1.19678E-04-4.86631E-16
 -1      2996 7.97807E-03-1.18348E-03-2.77080E-14
 -1      2997 7.85857E-03-1.13104E-03-2.70708E-14
 -1      2998 1.02390E-02-3.49198E-04-3.82318E-14
 -1      2999 1.01239E-02-3.86466E-04-3.78411E-14
 -1      3000 1.03164E-02-2.27420E-04-3.89195E-14
 -1      3001 1.04229E-02-2.51310E-04-3.92281E-14
 -1      3002 9.55986E-03-6.44674E-04-3.58854E-14
 -1      3003 9.39569E-03-7.38861E-04-3.52610E-14
 -1      3004 9.18108E-03 2.75203E-04-3.50024E-14
 -1      3005 9.34479E-03 1.79964E-04-3.56220E-14
 -1      3006 8.78016E-03 5.18680E-04-3.32684E-14
 -1      3007 8.97599E-03 3.97121E-04-3.41522E-14
 -1      3008 7.87580E-04-1.43602E-04-4.79705E-16
 -1      3009 7.91427E-04-1.68579E-04-4.70828E-16
 -1      3010 9.05345E-04-1.46883E-04-6.12059E-16
 -1      3011 8.95744E-04 1.00689E-06-6.32795E-16
 -1      3012 7.77997E-04-9.55706E-06-5.00576E-16
 -1      3013 7.78374E-04-3.08728E-05-5.00115E-16
 -1      3014 8.69519E-03 5.77288E-04-3.30115E-14
 -1      3015 9.08650E-03 3.46031E-04-3.49308E-14
 -1      3016 9.70383E-03-5.98729E-04-3.68279E-14
 -1      3017 1.02648E-02-2.02526E-04-3.94111E-14
 -1      3018 1.03428E-02-3.37583E-04-3.91961E-14
 -1      3019 8.32223E-03 7.49463E-04-3.08607E-14
 -1      3020 6.11453E-03-3.86264E-05-2.17429E-14
 -1      3021 9.32478E-03-8.08267E-04-3.52164E-14
 -1      3022 6.19379E-03-2.36009E-04-2.16906E-14
 -1      3023 7.41858E-03-9.36759E-04-2.44999E-14
 -1      3024 7.61145E-03-1.03610E-03-2.54873E-14
 -1      3025 8.42883E-03-1.23940E-03-3.02791E-14
 -1      3026 1.41012E-02-4.52589E-04-8.42222E-14
 -1      3027 1.42152E-02-4.46591E-04-8.56087E-14
 -1      3028 1.41970E-02-4.05851E-04-8.55861E-14
 -1      3029 8.88765E-03-1.09461E-03-3.31005E-14
 -1      3030 9.08101E-03-1.01238E-03-3.42881E-14
 -1      3031 5.90147E-03-9.77296E-05-2.12548E-14
 -1      3032 5.82840E-03-1.24173E-04-2.10708E-14
 -1      3033 8.00546E-03 7.95261E-04-2.89028E-14
 -1      3034 6.54834E-03-3.83238E-04-2.24448E-14
 -1      3035 2.04869E-03 4.18736E-04-2.27401E-15
 -1      3036 1.41878E-02-3.71899E-04-8.56400E-14
 -1      3037 1.41697E-02-3.30857E-04-8.56125E-14
 -1      3038 1.40550E-02-3.10183E-04-8.43555E-14
 -1      3039 1.40735E-02-3.78222E-04-8.42559E-14
 -1      3040 6.86246E-03 2.98766E-04-2.35332E-14
 -1      3041 6.92993E-03 3.68378E-04-2.35207E-14
 -1      3042 6.72083E-03 2.44814E-04-2.29351E-14
 -1      3043 1.43575E-02-1.06746E-03-8.42093E-14
 -1      3044 1.44374E-02-1.03977E-03-8.53287E-14
 -1      3045 1.43056E-02-1.00246E-03-8.39167E-14
 -1      3046 1.42608E-02-1.05372E-03-8.31052E-14
 -1      3047 7.69295E-03 7.21435E-04-2.70830E-14
 -1      3048 7.74477E-03 7.54437E-04-2.73290E-14
 -1      3049 7.57132E-03 6.82025E-04-2.63884E-14
 -1      3050 1.04956E-02-2.66681E-04-3.99604E-14
 -1      3051 1.05523E-02-2.77848E-04-4.06964E-14
 -1      3052 1.04933E-02-2.59280E-04-4.06475E-14
 -1      3053 6.96910E-03-6.07437E-04-2.35216E-14
 -1      3054 9.21717E-03-9.09406E-04-3.49321E-14
 -1      3055 7.67815E-03-1.05124E-03-2.60233E-14
 -1      3056 8.65050E-04 2.63941E-04-4.71763E-16
 -1      3057 6.43269E-03 8.26415E-05-2.24577E-14
 -1      3058 7.28999E-03 5.29975E-04-2.51260E-14
 -1      3059 7.38321E-03 5.96608E-04-2.54555E-14
 -1      3060 7.17127E-03 4.98893E-04-2.44510E-14
 -1      3061 1.00533E-02-4.35963E-04-3.80882E-14
 -1      3062 7.79175E-04-5.23384E-05-4.98448E-16
 -1      3063 7.80421E-04-7.42254E-05-4.95724E-16
 -1      3064 8.99720E-04-9.55435E-05-6.24839E-16
 -1      3065 8.96678E-04-4.67165E-05-6.31466E-16
 -1      3066 5.94191E-03-1.57992E-04-2.12631E-14
 -1      3067 9.46878E-03 1.29166E-04-3.65159E-14
 -1      3068 7.70365E-04-2.00298E-04-4.28070E-16
 -1      3069 9.83250E-04 2.72610E-04-6.07058E-16
 -1      3070 7.26761E-03-8.24473E-04-2.40616E-14
 -1      3071 8.84311E-03-1.08021E-03-3.27323E-14
 -1      3072 6.29609E-03 5.95456E-05-2.16672E-14
 -1      3073 6.47857E-03 1.37346E-04-2.21444E-14
 -1      3074 1.04071E-03 2.39962E-04-7.11521E-16
 -1      3075 1.03411E-03 2.08467E-04-7.27893E-16
 -1      3076 9.88286E-03-6.57821E-05-3.80768E-14
 -1      3077 9.02912E-03 4.06123E-04-3.50342E-14
 -1      3078 9.21034E-03 2.98478E-04-3.58966E-14
 -1      3079 1.02270E-02-1.74967E-04-4.00299E-14
 -1      3080 1.03751E-02-2.20667E-04-4.05347E-14
 -1      3081 1.73218E-03-3.31914E-04-1.77436E-15
 -1      3082 1.87584E-03-3.40626E-04-2.05444E-15
 -1      3083 2.01946E-03-3.47445E-04-2.35475E-15
 -1      3084 2.16306E-03-3.52508E-04-2.67507E-15
 -1      3085 1.94022E-03-3.09088E-04-2.22715E-15
 -1      3086 2.30658E-03-3.56081E-04-3.01500E-15
 -1      3087 2.45003E-03-3.58276E-04-3.37401E-15
 -1      3088 2.22779E-03-3.18690E-04-2.86987E-15
 -1      3089 2.59338E-03-3.59305E-04-3.75297E-15
 -1      3090 2.73664E-03-3.59256E-04-4.15145E-15
 -1      3091 2.51503E-03-3.22906E-04-3.59067E-15
 -1      3092 2.87979E-03-3.58300E-04-4.56816E-15
 -1      3093 3.02283E-03-3.56503E-04-5.00416E-15
 -1      3094 2.80169E-03-3.22892E-04-4.38862E-15
 -1      3095 3.16573E-03-3.54007E-04-5.45972E-15
 -1      3096 3.30852E-03-3.50867E-04-5.93361E-15
 -1      3097 3.08757E-03-3.19582E-04-5.26157E-15
 -1      3098 3.45115E-03-3.47208E-04-6.42573E-15
 -1      3099 3.59364E-03-3.43081E-04-6.93655E-15
 -1      3100 3.37250E-03-3.13742E-04-6.21036E-15
 -1      3101 3.73594E-03-3.38615E-04-7.46523E-15
 -1      3102 3.87808E-03-3.33860E-04-8.01235E-15
 -1      3103 3.65626E-03-3.06055E-04-7.23229E-15
 -1      3104 4.01999E-03-3.28970E-04-8.57706E-15
 -1      3105 4.16173E-03-3.24006E-04-9.15897E-15
 -1      3106 3.93864E-03-2.97201E-04-8.32713E-15
 -1      3107 4.30320E-03-3.19160E-04-9.75846E-15
 -1      3108 4.44450E-03-3.14522E-04-1.03753E-14
 -1      3109 4.21939E-03-2.87950E-04-9.49193E-15
 -1      3110 4.58554E-03-3.10334E-04-1.10085E-14
 -1      3111 4.72647E-03-3.06734E-04-1.16591E-14
 -1      3112 4.49829E-03-2.79258E-04-1.07260E-14
 -1      3113 4.86721E-03-3.04025E-04-1.23294E-14
 -1      3114 5.00801E-03-3.02427E-04-1.30164E-14
 -1      3115 4.77526E-03-2.72355E-04-1.20292E-14
 -1      3116 5.14886E-03-3.02294E-04-1.37200E-14
 -1      3117 5.29017E-03-3.04000E-04-1.44436E-14
 -1      3118 5.05056E-03-2.68824E-04-1.34045E-14
 -1      3119 5.43207E-03-3.07912E-04-1.51858E-14
 -1      3120 5.57526E-03-3.14716E-04-1.59453E-14
 -1      3121 5.32516E-03-2.70711E-04-1.48522E-14
 -1      3122 5.72009E-03-3.24718E-04-1.67234E-14
 -1      3123 5.86767E-03-3.39257E-04-1.75193E-14
 -1      3124 5.60142E-03-2.80758E-04-1.63736E-14
 -1      3125 6.01884E-03-3.58462E-04-1.83343E-14
 -1      3126 6.17505E-03-3.84988E-04-1.91672E-14
 -1      3127 5.88419E-03-3.03133E-04-1.79671E-14
 -1      3128 6.33786E-03-4.18550E-04-2.00186E-14
 -1      3129 6.50862E-03-4.64473E-04-2.08901E-14
 -1      3130 6.18246E-03-3.45216E-04-1.96328E-14
 -1      3131 5.83397E-03-9.48526E-05-2.06139E-14
 -1      3132 5.91570E-03-7.68939E-05-2.08669E-14
 -1      3133 9.95380E-03-6.16428E-04-3.93199E-14
 -1      3134 1.01246E-02-5.88244E-04-4.06003E-14
 -1      3135 1.02876E-02-5.71964E-04-4.18962E-14
 -1      3136 1.04440E-02-5.62859E-04-4.32069E-14
 -1      3137 1.02644E-02-5.23540E-04-4.12842E-14
 -1      3138 1.05953E-02-5.61063E-04-4.45317E-14
 -1      3139 1.07431E-02-5.63932E-04-4.58690E-14
 -1      3140 1.05631E-02-5.16270E-04-4.39032E-14
 -1      3141 1.08880E-02-5.71323E-04-4.72221E-14
 -1      3142 1.10314E-02-5.81911E-04-4.85889E-14
 -1      3143 1.08461E-02-5.28759E-04-4.65790E-14
 -1      3144 1.11734E-02-5.95383E-04-4.99708E-14
 -1      3145 1.13148E-02-6.11047E-04-5.13657E-14
 -1      3146 1.11226E-02-5.53544E-04-4.93108E-14
 -1      3147 1.14557E-02-6.28540E-04-5.27735E-14
 -1      3148 1.15966E-02-6.47483E-04-5.41944E-14
 -1      3149 1.13972E-02-5.86456E-04-5.20984E-14
 -1      3150 1.17373E-02-6.67530E-04-5.56274E-14
 -1      3151 1.18783E-02-6.88463E-04-5.70744E-14
 -1      3152 1.16724E-02-6.24741E-04-5.49392E-14
 -1      3153 1.20193E-02-7.09993E-04-5.85331E-14
 -1      3154 1.21605E-02-7.31987E-04-6.00040E-14
 -1      3155 1.19491E-02-6.66379E-04-5.78315E-14
 -1      3156 1.23019E-02-7.54225E-04-6.14910E-14
 -1      3157 1.24436E-02-7.76628E-04-6.29928E-14
 -1      3158 1.22275E-02-7.09850E-04-6.07743E-14
 -1      3159 1.25853E-02-7.99038E-04-6.45079E-14
 -1      3160 1.27273E-02-8.21411E-04-6.60371E-14
 -1      3161 1.25076E-02-7.54042E-04-6.37767E-14
 -1      3162 1.28694E-02-8.43644E-04-6.75778E-14
 -1      3163 1.30117E-02-8.65714E-04-6.91300E-14
 -1      3164 1.27891E-02-7.98185E-04-6.68327E-14
 -1      3165 1.31540E-02-8.87558E-04-7.06955E-14
 -1      3166 1.32964E-02-9.09167E-04-7.22694E-14
 -1      3167 1.30718E-02-8.41779E-04-6.99372E-14
 -1      3168 1.34390E-02-9.30509E-04-7.38517E-14
 -1      3169 1.35816E-02-9.51585E-04-7.54432E-14
 -1      3170 1.33553E-02-8.84532E-04-7.30823E-14
 -1      3171 1.37242E-02-9.72383E-04-7.70450E-14
 -1      3172 1.38669E-02-9.92906E-04-7.86527E-14
 -1      3173 1.36395E-02-9.26304E-04-7.62613E-14
 -1      3174 1.39924E-02-1.01350E-03-8.00593E-14
 -1      3175 1.41352E-02-1.03353E-03-8.16836E-14
 -1      3176 1.41577E-02-1.00800E-03-8.20907E-14
 -1      3177 1.39070E-02-9.67373E-04-7.92676E-14
 -1      3178 8.24070E-03 7.81276E-04-3.04184E-14
 -1      3179 8.41156E-03 7.26919E-04-3.15092E-14
 -1      3180 2.97112E-03 3.93589E-04-4.71511E-15
 -1      3181 2.82794E-03 3.94901E-04-4.29158E-15
 -1      3182 3.83117E-03 3.73521E-04-7.66006E-15
 -1      3183 3.68759E-03 3.77823E-04-7.12104E-15
 -1      3184 4.11883E-03 3.64671E-04-8.79568E-15
 -1      3185 3.97489E-03 3.69104E-04-8.21828E-15
 -1      3186 3.89395E-03 3.35377E-04-7.98190E-15
 -1      3187 4.40757E-03 3.56404E-04-1.00090E-14
 -1      3188 4.26302E-03 3.60391E-04-9.39247E-15
 -1      3189 4.17993E-03 3.26489E-04-9.13732E-15
 -1      3190 4.69800E-03 3.50126E-04-1.12986E-14
 -1      3191 4.55251E-03 3.52913E-04-1.06445E-14
 -1      3192 4.46649E-03 3.18213E-04-1.03699E-14
 -1      3193 4.99113E-03 3.47702E-04-1.26630E-14
 -1      3194 4.84415E-03 3.48287E-04-1.19716E-14
 -1      3195 4.75439E-03 3.11877E-04-1.16781E-14
 -1      3196 5.28842E-03 3.51584E-04-1.41028E-14
 -1      3197 5.13915E-03 3.48651E-04-1.33732E-14
 -1      3198 5.04482E-03 3.09260E-04-1.30606E-14
 -1      3199 5.59191E-03 3.64936E-04-1.56180E-14
 -1      3200 5.43927E-03 3.56799E-04-1.48512E-14
 -1      3201 5.33960E-03 3.12749E-04-1.45194E-14
 -1      3202 5.90414E-03 3.91697E-04-1.72075E-14
 -1      3203 5.74683E-03 3.76275E-04-1.64033E-14
 -1      3204 5.64136E-03 3.25550E-04-1.60523E-14
 -1      3205 6.22759E-03 4.36416E-04-1.88731E-14
 -1      3206 6.06448E-03 4.11432E-04-1.80310E-14
 -1      3207 5.95347E-03 3.51976E-04-1.76590E-14
 -1      3208 6.56333E-03 5.03210E-04-2.06137E-14
 -1      3209 6.39417E-03 4.66751E-04-1.97333E-14
 -1      3210 6.27931E-03 3.97459E-04-1.93391E-14
 -1      3211 6.90959E-03 5.92915E-04-2.24359E-14
 -1      3212 6.73600E-03 5.45418E-04-2.15147E-14
 -1      3213 6.62093E-03 4.67545E-04-2.10964E-14
 -1      3214 7.25807E-03 6.97555E-04-2.43384E-14
 -1      3215 7.08447E-03 6.44450E-04-2.33762E-14
 -1      3216 6.97584E-03 5.64825E-04-2.29327E-14
 -1      3217 7.65923E-03 7.85432E-04-2.67273E-14
 -1      3218 7.48856E-03 7.38984E-04-2.57154E-14
 -1      3219 8.24061E-03 8.25472E-04-3.05774E-14
 -1      3220 8.08077E-03 8.46114E-04-2.94795E-14
 -1      3221 8.90673E-03 5.97035E-04-3.51831E-14
 -1      3222 8.73483E-03 6.66749E-04-3.40009E-14
 -1      3223 9.25529E-03 4.56541E-04-3.76101E-14
 -1      3224 9.08110E-03 5.25483E-04-3.63866E-14
 -1      3225 9.02675E-03 5.10868E-04-3.58109E-14
 -1      3226 9.60062E-03 3.32409E-04-4.01076E-14
 -1      3227 9.42924E-03 3.91737E-04-3.88498E-14
 -1      3228 9.38398E-03 3.67861E-04-3.82581E-14
 -1      3229 9.93552E-03 2.31503E-04-4.26752E-14
 -1      3230 9.76983E-03 2.79141E-04-4.13825E-14
 -1      3231 9.73154E-03 2.50249E-04-4.07750E-14
 -1      3232 1.02580E-02 1.52343E-04-4.53088E-14
 -1      3233 1.00984E-02 1.89574E-04-4.39839E-14
 -1      3234 1.00638E-02 1.59102E-04-4.33594E-14
 -1      3235 1.05694E-02 9.05727E-05-4.80104E-14
 -1      3236 1.04150E-02 1.19654E-04-4.66508E-14
 -1      3237 1.03811E-02 8.93009E-05-4.60098E-14
 -1      3238 1.08723E-02 4.17053E-05-5.07752E-14
 -1      3239 1.07218E-02 6.48340E-05-4.93849E-14
 -1      3240 1.06866E-02 3.50736E-05-4.87266E-14
 -1      3241 1.11692E-02 1.87442E-06-5.36002E-14
 -1      3242 1.10214E-02 2.08921E-05-5.21812E-14
 -1      3243 1.09838E-02-8.33293E-06-5.15079E-14
 -1      3244 1.14622E-02-3.19787E-05-5.64742E-14
 -1      3245 1.13161E-02-1.56310E-05-5.50314E-14
 -1      3246 1.12756E-02-4.45270E-05-5.43438E-14
 -1      3247 1.17525E-02-6.21789E-05-5.94008E-14
 -1      3248 1.16076E-02-4.74163E-05-5.79300E-14
 -1      3249 1.15641E-02-7.61634E-05-5.72305E-14
 -1      3250 1.20412E-02-9.04311E-05-6.23808E-14
 -1      3251 1.18970E-02-7.64664E-05-6.08845E-14
 -1      3252 1.18509E-02-1.05175E-04-6.01694E-14
 -1      3253 1.23289E-02-1.17938E-04-6.54133E-14
 -1      3254 1.21851E-02-1.04223E-04-6.38906E-14
 -1      3255 1.21367E-02-1.32939E-04-6.31626E-14
 -1      3256 1.26159E-02-1.45508E-04-6.84883E-14
 -1      3257 1.24725E-02-1.31681E-04-6.69454E-14
 -1      3258 1.24221E-02-1.60409E-04-6.62042E-14
 -1      3259 1.29026E-02-1.73651E-04-7.16041E-14
 -1      3260 1.27593E-02-1.59487E-04-7.00429E-14
 -1      3261 1.27074E-02-1.88211E-04-6.92898E-14
 -1      3262 1.31889E-02-2.02659E-04-7.47477E-14
 -1      3263 1.30458E-02-1.88036E-04-7.31723E-14
 -1      3264 1.29927E-02-2.16728E-04-7.24122E-14
 -1      3265 1.34751E-02-2.32671E-04-7.79198E-14
 -1      3266 1.33320E-02-2.17535E-04-7.63292E-14
 -1      3267 1.32780E-02-2.46167E-04-7.55625E-14
 -1      3268 1.37611E-02-2.63731E-04-8.11108E-14
 -1      3269 1.36181E-02-2.48071E-04-7.95131E-14
 -1      3270 1.35634E-02-2.76612E-04-7.87372E-14
 -1      3271 1.39655E-02-2.97038E-04-8.33595E-14
 -1      3272 1.38507E-02-2.76648E-04-8.21038E-14
 -1      3273 1.37957E-02-3.05079E-04-8.13251E-14
 -1      3274 1.39747E-02-3.31111E-04-8.33125E-14
 -1      3275 1.01676E-03 6.69705E-05-7.74419E-16
 -1      3276 1.01555E-03 4.04692E-05-7.78227E-16
 -1      3277 1.41634E-02-8.58741E-04-8.29223E-14
 -1      3278 1.41467E-02-8.18452E-04-8.29233E-14
 -1      3279 1.40960E-02-6.99512E-04-8.29145E-14
 -1      3280 1.40785E-02-6.59476E-04-8.29082E-14
 -1      3281 1.41965E-02-9.39787E-04-8.29117E-14
 -1      3282 1.41800E-02-8.99174E-04-8.29169E-14
 -1      3283 1.40489E-02-8.62375E-04-8.15173E-14
 -1      3284 1.41300E-02-7.78624E-04-8.29225E-14
 -1      3285 1.41132E-02-7.39212E-04-8.29175E-14
 -1      3286 1.39821E-02-7.03515E-04-8.15186E-14
 -1      3287 1.40159E-02-7.82557E-04-8.15228E-14
 -1      3288 5.80682E-03-1.26362E-04-2.05663E-14
 -1      3289 5.78930E-03-1.14190E-04-2.04957E-14
 -1      3290 3.54415E-03 3.81869E-04-6.60126E-15
 -1      3291 3.40080E-03 3.85580E-04-6.10074E-15
 -1      3292 3.60814E-03 3.43856E-04-6.90227E-15
 -1      3293 5.94984E-03-1.68013E-04-2.07834E-14
 -1      3294 5.86460E-03-1.44722E-04-2.06650E-14
 -1      3295 3.25753E-03 3.88826E-04-5.61993E-15
 -1      3296 3.11430E-03 3.91541E-04-5.15825E-15
 -1      3297 3.03611E-03 3.56359E-04-4.97588E-15
 -1      3298 3.32224E-03 3.51097E-04-5.90092E-15
 -1      3299 8.94384E-03-1.00975E-03-3.32187E-14
 -1      3300 7.94078E-03 8.00557E-04-2.84992E-14
 -1      3301 8.07694E-03 8.04375E-04-2.93717E-14
 -1      3302 6.60778E-03-4.30315E-04-2.21969E-14
 -1      3303 6.42588E-03-3.44417E-04-2.17571E-14
 -1      3304 6.01295E-03-4.61145E-05-2.10625E-14
 -1      3305 6.12512E-03-8.22275E-06-2.12891E-14
 -1      3306 1.05613E-02-2.95070E-04-4.07373E-14
 -1      3307 1.05241E-02-3.09499E-04-4.05937E-14
 -1      3308 7.72341E-03-1.06630E-03-2.63323E-14
 -1      3309 8.61459E-03 6.35616E-04-3.27319E-14
 -1      3310 8.80297E-03 5.31025E-04-3.37964E-14
 -1      3311 1.44508E-03-3.07700E-04-1.27525E-15
 -1      3312 1.58859E-03-3.21000E-04-1.51456E-15
 -1      3313 1.65269E-03-2.92697E-04-1.66405E-15
 -1      3314 2.11190E-03 3.85611E-04-2.46525E-15
 -1      3315 1.96857E-03 3.79501E-04-2.15911E-15
 -1      3316 2.68478E-03 3.95323E-04-3.88771E-15
 -1      3317 2.54160E-03 3.94772E-04-3.50273E-15
 -1      3318 2.74970E-03 3.58886E-04-4.12668E-15
 -1      3319 2.39841E-03 3.93061E-04-3.13722E-15
 -1      3320 2.25517E-03 3.90086E-04-2.79140E-15
 -1      3321 2.46296E-03 3.57813E-04-3.35443E-15
 -1      3322 1.01825E-02-4.21532E-04-3.92390E-14
 -1      3323 1.00301E-02-4.82849E-04-3.86481E-14
 -1      3324 9.40315E-03 1.84749E-04-3.66641E-14
 -1      3325 9.57971E-03 9.18952E-05-3.73977E-14
 -1      3326 9.06930E-03-9.63748E-04-3.40085E-14
 -1      3327 1.14534E-03 3.06455E-04-7.89313E-16
 -1      3328 1.08276E-03 2.67988E-04-7.42421E-16
 -1      3329 1.20187E-03 2.68784E-04-9.09903E-16
 -1      3330 1.28855E-03 3.27492E-04-9.77097E-16
 -1      3331 6.23616E-03-2.65357E-04-2.13331E-14
 -1      3332 6.08765E-03-2.12672E-04-2.10307E-14
 -1      3333 8.88346E-04-2.09262E-04-5.55112E-16
 -1      3334 9.84369E-03-5.63422E-04-3.78275E-14
 -1      3335 9.67650E-03-6.50838E-04-3.71454E-14
 -1      3336 1.04301E-02-3.42967E-04-4.02965E-14
 -1      3337 1.03151E-02-3.74272E-04-3.97670E-14
 -1      3338 1.02997E-02-4.17194E-04-4.03390E-14
 -1      3339 9.79328E-03-9.82893E-06-3.82567E-14
 -1      3340 1.00049E-02-9.66826E-05-3.90956E-14
 -1      3341 1.01493E-03 1.41907E-05-7.80517E-16
 -1      3342 1.01490E-03-1.19840E-05-7.81249E-16
 -1      3343 1.13543E-03 2.95546E-05-9.42971E-16
 -1      3344 1.02406E-03-1.46639E-04-7.61110E-16
 -1      3345 1.02817E-03-1.75537E-04-7.51393E-16
 -1      3346 1.15349E-03 2.08279E-04-8.91404E-16
 -1      3347 1.02875E-03 1.78360E-04-7.41134E-16
 -1      3348 1.02452E-03 1.49360E-04-7.52396E-16
 -1      3349 8.93695E-03 4.80052E-04-3.47425E-14
 -1      3350 5.97825E-03-1.90005E-04-2.04358E-14
 -1      3351 1.04636E-02-2.22698E-04-4.19045E-14
 -1      3352 1.04787E-02-2.43725E-04-4.12750E-14
 -1      3353 1.05673E-02-2.60563E-04-4.20221E-14
 -1      3354 6.40988E-03-3.82840E-04-2.09994E-14
 -1      3355 6.58637E-03-4.75121E-04-2.14038E-14
 -1      3356 6.29250E-03-3.07010E-04-2.10931E-14
 -1      3357 8.16924E-03 8.03083E-04-2.99987E-14
 -1      3358 5.91639E-03-5.02848E-05-2.04233E-14
 -1      3359 5.76993E-03-9.98265E-05-2.01157E-14
 -1      3360 5.75816E-03-8.28867E-05-1.97377E-14
 -1      3361 5.71912E-03-1.02695E-04-1.96227E-14
 -1      3362 6.72430E-03-5.20396E-04-2.20895E-14
 -1      3363 6.91709E-03-6.00505E-04-2.30094E-14
 -1      3364 7.12500E-03-7.25970E-04-2.36376E-14
 -1      3365 7.34040E-03-8.44317E-04-2.45924E-14
 -1      3366 1.39873E-02-4.58393E-04-8.28392E-14
 -1      3367 1.39688E-02-4.18056E-04-8.28198E-14
 -1      3368 6.55907E-03 2.04683E-04-2.21303E-14
 -1      3369 6.16752E-03 4.10278E-05-2.09844E-14
 -1      3370 8.52161E-03 6.92367E-04-3.22718E-14
 -1      3371 2.17592E-03 3.52084E-04-2.65985E-15
 -1      3372 5.79220E-03-1.32386E-04-2.00967E-14
 -1      3373 7.38839E-03 6.69202E-04-2.52379E-14
 -1      3374 7.92223E-03 8.48856E-04-2.84038E-14
 -1      3375 7.76100E-03 8.31487E-04-2.73533E-14
 -1      3376 8.56498E-03 7.34715E-04-3.28372E-14
 -1      3377 8.40015E-03 7.88073E-04-3.16956E-14
 -1      3378 1.01861E-03 9.37774E-05-7.69038E-16
 -1      3379 1.13819E-03 8.67939E-05-9.34000E-16
 -1      3380 1.02114E-03 1.21125E-04-7.61733E-16
 -1      3381 1.40243E-02-5.39246E-04-8.28720E-14
 -1      3382 1.40059E-02-4.98895E-04-8.28567E-14
 -1      3383 1.38738E-02-4.64476E-04-8.14579E-14
 -1      3384 7.74141E-03 7.79402E-04-2.72591E-14
 -1      3385 7.85625E-03 7.97620E-04-2.79720E-14
 -1      3386 1.01473E-03-2.31223E-04-6.96342E-16
 -1      3387 1.02082E-03-1.18609E-04-7.68659E-16
 -1      3388 1.14355E-03-1.43150E-04-9.26247E-16
 -1      3389 1.01837E-03-9.13168E-05-7.74175E-16
 -1      3390 7.92742E-03 8.19780E-04-2.84265E-14
 -1      3391 7.52010E-03-9.54675E-04-2.53316E-14
 -1      3392 8.67071E-03 6.65257E-04-3.34395E-14
 -1      3393 8.33300E-03 7.84364E-04-3.11552E-14
 -1      3394 1.57528E-03 3.59980E-04-1.41398E-15
 -1      3395 1.43186E-03 3.45238E-04-1.18517E-15
 -1      3396 1.38793E-03 3.15358E-04-1.14877E-15
 -1      3397 1.40607E-02-6.19504E-04-8.28987E-14
 -1      3398 1.40426E-02-5.79378E-04-8.28869E-14
 -1      3399 1.39109E-02-5.44706E-04-8.14873E-14
 -1      3400 1.39472E-02-6.24341E-04-8.15089E-14
 -1      3401 9.33421E-03 2.53831E-04-3.67677E-14
 -1      3402 7.44905E-03 6.50087E-04-2.56907E-14
 -1      3403 1.84360E-03 3.76629E-04-1.90318E-15
 -1      3404 1.70020E-03 3.66708E-04-1.63538E-15
 -1      3405 1.65648E-03 3.37107E-04-1.59195E-15
 -1      3406 1.90699E-03 3.45352E-04-2.07618E-15
 -1      3407 1.31657E-03-2.92198E-04-1.07965E-15
 -1      3408 1.38063E-03-2.68125E-04-1.20628E-15
 -1      3409 1.18831E-03-2.74524E-04-9.00620E-16
 -1      3410 1.06010E-02-2.91141E-04-4.14327E-14
 -1      3411 1.06437E-02-3.05528E-04-4.21729E-14
 -1      3412 1.06298E-02-2.87054E-04-4.21304E-14
 -1      3413 9.61982E-03-7.14237E-04-3.71451E-14
 -1      3414 9.80835E-03-6.60052E-04-3.83962E-14
 -1      3415 7.01911E-03 4.45209E-04-2.36818E-14
 -1      3416 7.11220E-03 5.12289E-04-2.39950E-14
 -1      3417 1.06047E-02-3.34045E-04-4.20593E-14
 -1      3418 1.05231E-02-3.35609E-04-4.11756E-14
 -1      3419 1.05213E-02-3.67327E-04-4.17572E-14
 -1      3420 9.99960E-03-5.34584E-04-3.89737E-14
 -1      3421 6.88486E-03 3.91320E-04-2.30770E-14
 -1      3422 1.00827E-02-8.61602E-05-4.03935E-14
 -1      3423 1.01528E-02-1.33562E-04-4.02115E-14
 -1      3424 1.02891E-02-1.59459E-04-4.13423E-14
 -1      3425 9.96689E-03-5.72703E-04-3.90677E-14
 -1      3426 9.72515E-03 4.47803E-05-3.84075E-14
 -1      3427 1.41659E-02-9.86542E-04-8.23008E-14
 -1      3428 1.41884E-02-9.61141E-04-8.27043E-14
 -1      3429 1.40571E-02-9.23899E-04-8.13026E-14
 -1      3430 1.40406E-02-9.66425E-04-8.08856E-14
 -1      3431 9.46636E-03-7.61381E-04-3.61553E-14
 -1      3432 6.23454E-03-3.05559E-04-2.05880E-14
 -1      3433 2.14939E-03-2.81469E-04-2.72497E-15
 -1      3434 2.29323E-03-2.84568E-04-3.06703E-15
 -1      3435 2.43695E-03-2.86528E-04-3.42874E-15
 -1      3436 2.58052E-03-2.87431E-04-3.80948E-15
 -1      3437 2.35928E-03-2.50220E-04-3.26708E-15
 -1      3438 2.72386E-03-2.87443E-04-4.20838E-15
 -1      3439 2.86697E-03-2.86624E-04-4.62675E-15
 -1      3440 2.64642E-03-2.51947E-04-4.02911E-15
 -1      3441 3.00978E-03-2.85117E-04-5.06402E-15
 -1      3442 3.15229E-03-2.82963E-04-5.52031E-15
 -1      3443 2.93246E-03-2.50555E-04-4.86682E-15
 -1      3444 3.29442E-03-2.80294E-04-5.99541E-15
 -1      3445 3.43618E-03-2.77138E-04-6.48811E-15
 -1      3446 3.21700E-03-2.46753E-04-5.77998E-15
 -1      3447 3.57747E-03-2.73625E-04-7.00002E-15
 -1      3448 3.71831E-03-2.69777E-04-7.52946E-15
 -1      3449 3.49961E-03-2.41157E-04-6.76754E-15
 -1      3450 3.85860E-03-2.65737E-04-8.07698E-15
 -1      3451 3.99835E-03-2.61524E-04-8.64249E-15
 -1      3452 3.77989E-03-2.34345E-04-7.82747E-15
 -1      3453 4.13744E-03-2.57307E-04-9.22549E-15
 -1      3454 4.27590E-03-2.53111E-04-9.82581E-15
 -1      3455 4.05735E-03-2.26919E-04-8.95864E-15
 -1      3456 4.41360E-03-2.49139E-04-1.04426E-14
 -1      3457 4.55059E-03-2.45426E-04-1.10770E-14
 -1      3458 4.33147E-03-2.19563E-04-1.01596E-14
 -1      3459 4.68674E-03-2.42219E-04-1.17297E-14
 -1      3460 4.82217E-03-2.39572E-04-1.24006E-14
 -1      3461 4.60169E-03-2.13083E-04-1.14307E-14
 -1      3462 4.95672E-03-2.37767E-04-1.30888E-14
 -1      3463 5.09065E-03-2.36897E-04-1.37944E-14
 -1      3464 4.86750E-03-2.08430E-04-1.27720E-14
 -1      3465 5.22381E-03-2.37256E-04-1.45188E-14
 -1      3466 5.35675E-03-2.39040E-04-1.52627E-14
 -1      3467 5.12860E-03-2.06663E-04-1.41865E-14
 -1      3468 5.48926E-03-2.42509E-04-1.60236E-14
 -1      3469 5.62248E-03-2.48160E-04-1.68036E-14
 -1      3470 5.38514E-03-2.08939E-04-1.56736E-14
 -1      3471 5.75619E-03-2.56095E-04-1.76004E-14
 -1      3472 5.89252E-03-2.67768E-04-1.84154E-14
 -1      3473 5.63843E-03-2.16663E-04-1.72340E-14
 -1      3474 5.99089E-03-2.73287E-04-1.90661E-14
 -1      3475 6.13298E-03-2.93142E-04-1.99124E-14
 -1      3476 6.03274E-03-2.32932E-04-2.00030E-14
 -1      3477 5.85528E-03-2.25106E-04-1.86839E-14
 -1      3478 9.86775E-03 1.68838E-04-4.14434E-14
 -1      3479 9.69755E-03 2.18642E-04-4.01673E-14
 -1      3480 6.40863E-03 1.86534E-04-2.12625E-14
 -1      3481 6.62882E-03 2.81900E-04-2.20337E-14
 -1      3482 9.27705E-03-8.68528E-04-3.52152E-14
 -1      3483 1.05389E-02-4.72208E-04-4.32781E-14
 -1      3484 1.06754E-02-4.78045E-04-4.46004E-14
 -1      3485 1.08094E-02-4.87532E-04-4.59364E-14
 -1      3486 1.09426E-02-4.99349E-04-4.72870E-14
 -1      3487 1.07777E-02-4.47368E-04-4.52952E-14
 -1      3488 1.10752E-02-5.13330E-04-4.86522E-14
 -1      3489 1.12081E-02-5.28991E-04-5.00318E-14
 -1      3490 1.10311E-02-4.74674E-04-4.79951E-14
 -1      3491 1.13412E-02-5.46070E-04-5.14230E-14
 -1      3492 1.14750E-02-5.64365E-04-5.28317E-14
 -1      3493 1.12875E-02-5.07380E-04-5.07499E-14
 -1      3494 1.16094E-02-5.83587E-04-5.42509E-14
 -1      3495 1.17446E-02-6.03641E-04-5.56830E-14
 -1      3496 1.15482E-02-5.44090E-04-5.35624E-14
 -1      3497 1.18805E-02-6.24254E-04-5.71305E-14
 -1      3498 1.20172E-02-6.45374E-04-5.85885E-14
 -1      3499 1.18134E-02-5.83650E-04-5.64285E-14
 -1      3500 1.21545E-02-6.66773E-04-6.00609E-14
 -1      3501 1.22925E-02-6.88422E-04-6.15479E-14
 -1      3502 1.20826E-02-6.25039E-04-5.93489E-14
 -1      3503 1.24311E-02-7.10143E-04-6.30486E-14
 -1      3504 1.25702E-02-7.31920E-04-6.45638E-14
 -1      3505 1.23555E-02-6.67389E-04-6.23213E-14
 -1      3506 1.27098E-02-7.53626E-04-6.60891E-14
 -1      3507 1.28499E-02-7.75256E-04-6.76289E-14
 -1      3508 1.26313E-02-7.10019E-04-6.53471E-14
 -1      3509 1.29904E-02-7.96722E-04-6.91809E-14
 -1      3510 1.31312E-02-8.18029E-04-7.07423E-14
 -1      3511 1.29096E-02-7.52439E-04-6.84257E-14
 -1      3512 1.32723E-02-8.39121E-04-7.23142E-14
 -1      3513 1.34137E-02-8.60007E-04-7.38929E-14
 -1      3514 1.31898E-02-7.94324E-04-7.15458E-14
 -1      3515 1.35553E-02-8.80654E-04-7.54811E-14
 -1      3516 1.36971E-02-9.01080E-04-7.70808E-14
 -1      3517 1.34715E-02-8.35487E-04-7.47042E-14
 -1      3518 1.39764E-02-3.91606E-04-8.30389E-14
 -1      3519 1.39670E-02-3.57819E-04-8.30929E-14
 -1      3520 1.38776E-02-3.44744E-04-8.20987E-14
 -1      3521 1.38625E-02-3.97751E-04-8.16589E-14
 -1      3522 3.95581E-03 2.97743E-04-8.30507E-15
 -1      3523 3.81371E-03 3.02096E-04-7.74610E-15
 -1      3524 4.80879E-03 2.74065E-04-1.20583E-14
 -1      3525 4.66610E-03 2.77006E-04-1.13853E-14
 -1      3526 5.09606E-03 2.70973E-04-1.34589E-14
 -1      3527 4.95201E-03 2.71945E-04-1.27494E-14
 -1      3528 4.86121E-03 2.36653E-04-1.24382E-14
 -1      3529 5.38781E-03 2.73593E-04-1.49358E-14
 -1      3530 5.24119E-03 2.71345E-04-1.41877E-14
 -1      3531 5.14482E-03 2.32736E-04-1.38576E-14
 -1      3532 5.68724E-03 2.85158E-04-1.64854E-14
 -1      3533 5.53633E-03 2.77910E-04-1.57012E-14
 -1      3534 5.43292E-03 2.33908E-04-1.53514E-14
 -1      3535 5.99864E-03 3.10366E-04-1.81090E-14
 -1      3536 5.84118E-03 2.95502E-04-1.72883E-14
 -1      3537 5.72929E-03 2.43414E-04-1.69184E-14
 -1      3538 6.32699E-03 3.56009E-04-1.98034E-14
 -1      3539 6.16057E-03 3.29918E-04-1.89465E-14
 -1      3540 6.03936E-03 2.66639E-04-1.85564E-14
 -1      3541 6.64630E-03 3.88357E-04-2.15848E-14
 -1      3542 6.46985E-03 3.48076E-04-2.06909E-14
 -1      3543 7.06550E-03 5.45945E-04-2.35567E-14
 -1      3544 6.88222E-03 4.88171E-04-2.26177E-14
 -1      3545 8.00778E-03 8.29249E-04-2.89594E-14
 -1      3546 1.01942E-02 8.94434E-05-4.40455E-14
 -1      3547 1.00334E-02 1.26484E-04-4.27368E-14
 -1      3548 1.00077E-02 9.13492E-05-4.21139E-14
 -1      3549 1.05042E-02 2.94456E-05-4.67123E-14
 -1      3550 1.03510E-02 5.76168E-05-4.53714E-14
 -1      3551 1.03250E-02 2.42361E-05-4.47327E-14
 -1      3552 1.08026E-02-1.75142E-05-4.94435E-14
 -1      3553 1.06546E-02 4.75153E-06-4.80696E-14
 -1      3554 1.06261E-02-2.63907E-05-4.74149E-14
 -1      3555 1.10936E-02-5.59867E-05-5.22390E-14
 -1      3556 1.09488E-02-3.75428E-05-5.08345E-14
 -1      3557 1.09167E-02-6.68953E-05-5.01624E-14
 -1      3558 1.13803E-02-8.90865E-05-5.50889E-14
 -1      3559 1.12373E-02-7.30354E-05-5.36572E-14
 -1      3560 1.12013E-02-1.01237E-04-5.29718E-14
 -1      3561 1.16646E-02-1.18977E-04-5.79881E-14
 -1      3562 1.15226E-02-1.04321E-04-5.65324E-14
 -1      3563 1.14829E-02-1.31917E-04-5.58352E-14
 -1      3564 1.19480E-02-1.47177E-04-6.09406E-14
 -1      3565 1.18064E-02-1.33216E-04-5.94573E-14
 -1      3566 1.17634E-02-1.60584E-04-5.87466E-14
 -1      3567 1.22312E-02-1.74744E-04-6.39459E-14
 -1      3568 1.20896E-02-1.60993E-04-6.24368E-14
 -1      3569 1.20437E-02-1.88358E-04-6.17119E-14
 -1      3570 1.25146E-02-2.02395E-04-6.69969E-14
 -1      3571 1.23728E-02-1.88531E-04-6.54661E-14
 -1      3572 1.23246E-02-2.16006E-04-6.47295E-14
 -1      3573 1.27983E-02-2.30587E-04-7.00917E-14
 -1      3574 1.26563E-02-2.16407E-04-6.85389E-14
 -1      3575 1.26061E-02-2.44031E-04-6.77895E-14
 -1      3576 1.30824E-02-2.59592E-04-7.32191E-14
 -1      3577 1.29402E-02-2.44980E-04-7.16535E-14
 -1      3578 1.28885E-02-2.72749E-04-7.08934E-14
 -1      3579 1.33668E-02-2.89542E-04-7.63763E-14
 -1      3580 1.32245E-02-2.74449E-04-7.47931E-14
 -1      3581 1.31716E-02-3.02333E-04-7.40267E-14
 -1      3582 6.03355E-03 2.47542E-05-2.02582E-14
 -1      3583 6.18313E-03 8.62942E-05-2.06220E-14
 -1      3584 1.07965E-03-2.13452E-04-7.96333E-16
 -1      3585 9.31841E-03 3.01493E-04-3.70984E-14
 -1      3586 9.49035E-03 2.00189E-04-3.78804E-14
 -1      3587 1.39343E-02-8.65729E-04-8.01144E-14
 -1      3588 1.39181E-02-8.25702E-04-8.01221E-14
 -1      3589 3.67151E-03 3.06243E-04-7.20551E-15
 -1      3590 3.52914E-03 3.10127E-04-6.68454E-15
 -1      3591 3.73429E-03 2.69118E-04-7.50994E-15
 -1      3592 5.81667E-03-5.04004E-05-1.97190E-14
 -1      3593 5.90030E-03-2.18350E-05-1.99062E-14
 -1      3594 1.34477E-03 2.86226E-04-1.11110E-15
 -1      3595 1.30238E-03 2.57824E-04-1.07217E-15
 -1      3596 1.48809E-03 3.00974E-04-1.33280E-15
 -1      3597 2.81487E-03 3.22402E-04-4.36780E-15
 -1      3598 2.67152E-03 3.22843E-04-3.96165E-15
 -1      3599 1.19918E-03-2.12132E-04-9.67406E-16
 -1      3600 7.21178E-03 5.92047E-04-2.43290E-14
 -1      3601 9.51440E-03 2.78489E-04-3.88596E-14
 -1      3602 9.33470E-03 3.44735E-04-3.76179E-14
 -1      3603 2.24072E-03 3.18181E-04-2.85794E-15
 -1      3604 2.09693E-03 3.14212E-04-2.52864E-15
 -1      3605 1.57420E-03-2.54348E-04-1.55423E-15
 -1      3606 1.71780E-03-2.63644E-04-1.81711E-15
 -1      3607 4.52382E-03 2.80584E-04-1.07314E-14
 -1      3608 4.38172E-03 2.84598E-04-1.00959E-14
 -1      3609 4.57958E-03 2.43529E-04-1.10930E-14
 -1      3610 5.77657E-03-1.40642E-04-1.96141E-14
 -1      3611 5.72467E-03-1.21872E-04-1.95189E-14
 -1      3612 2.52804E-03 3.22355E-04-3.57463E-15
 -1      3613 2.38443E-03 3.20862E-04-3.20657E-15
 -1      3614 2.59357E-03 2.86785E-04-3.79707E-15
 -1      3615 1.01545E-03-3.81932E-05-7.80449E-16
 -1      3616 1.01659E-03-6.45534E-05-7.78010E-16
 -1      3617 1.13797E-03-8.42414E-05-9.39299E-16
 -1      3618 4.23976E-03 2.88881E-04-9.47942E-15
 -1      3619 4.09780E-03 2.93312E-04-8.88233E-15
 -1      3620 4.01679E-03 2.60691E-04-8.62899E-15
 -1      3621 4.29840E-03 2.51894E-04-9.82329E-15
 -1      3622 8.78531E-03 5.89079E-04-3.40624E-14
 -1      3623 8.60448E-03 6.70318E-04-3.28962E-14
 -1      3624 1.86159E-03-2.71166E-04-2.10011E-15
 -1      3625 2.00549E-03-2.77036E-04-2.40277E-15
 -1      3626 2.07151E-03-2.44522E-04-2.58116E-15
 -1      3627 9.69065E-03 8.88076E-05-3.86946E-14
 -1      3628 9.88506E-03-1.46445E-06-3.95679E-14
 -1      3629 1.00459E-02-4.57673E-05-4.06875E-14
 -1      3630 9.66107E-03 1.42349E-04-3.90332E-14
 -1      3631 5.90425E-03-1.87512E-04-1.97664E-14
 -1      3632 6.71617E-03 3.55018E-04-2.21832E-14
 -1      3633 1.04201E-02-3.97175E-04-4.12184E-14
 -1      3634 1.03034E-02-4.38283E-04-4.06820E-14
 -1      3635 1.05280E-02-3.85316E-04-4.21064E-14
 -1      3636 8.99185E-03 4.81060E-04-3.53045E-14
 -1      3637 9.17739E-03 3.99615E-04-3.65130E-14
 -1      3638 1.14399E-03 1.45942E-04-9.17072E-16
 -1      3639 1.13535E-03-2.71091E-05-9.44584E-16
 -1      3640 1.04114E-02-1.93066E-04-4.20921E-14
 -1      3641 1.05222E-02-2.19431E-04-4.28446E-14
 -1      3642 1.03580E-02-1.57587E-04-4.22755E-14
 -1      3643 1.26382E-03-1.36720E-04-1.10770E-15
 -1      3644 1.26778E-03-1.68685E-04-1.09807E-15
 -1      3645 5.67661E-03-1.07916E-04-1.91509E-14
 -1      3646 5.63842E-03-9.37140E-05-1.87825E-14
 -1      3647 5.64000E-03-1.14620E-04-1.86812E-14
 -1      3648 9.66109E-03 1.86969E-04-3.95122E-14
 -1      3649 6.25353E-03 1.53935E-04-2.05288E-14
 -1      3650 5.91020E-03 1.58639E-05-1.95556E-14
 -1      3651 1.04163E-02-4.66297E-04-4.20768E-14
 -1      3652 1.05384E-02-4.25571E-04-4.27602E-14
 -1      3653 1.44722E-03-2.19525E-04-1.35775E-15
 -1      3654 1.51369E-03-1.93173E-04-1.49163E-15
 -1      3655 1.38062E-02-9.23645E-04-7.82762E-14
 -1      3656 1.39312E-02-9.44034E-04-7.96784E-14
 -1      3657 1.39396E-02-9.22869E-04-7.98878E-14
 -1      3658 1.37215E-02-8.78176E-04-7.74876E-14
 -1      3659 1.29550E-03 2.23326E-04-1.09121E-15
 -1      3660 1.25718E-03 4.67756E-05-1.11986E-15
 -1      3661 1.25640E-03 1.64129E-05-1.12304E-15
 -1      3662 6.33585E-03 2.71621E-04-2.02759E-14
 -1      3663 5.82848E-03-1.95018E-04-1.89417E-14
 -1      3664 5.79959E-03-1.60385E-04-1.93623E-14
 -1      3665 5.70918E-03-1.47067E-04-1.87965E-14
 -1      3666 5.74520E-03-1.94407E-04-1.82942E-14
 -1      3667 8.41452E-03 7.50983E-04-3.16699E-14
 -1      3668 8.24856E-03 7.94923E-04-3.05507E-14
 -1      3669 1.26102E-03 1.08097E-04-1.10778E-15
 -1      3670 1.25871E-03 7.72472E-05-1.11505E-15
 -1      3671 1.38006E-03 6.54270E-05-1.31133E-15
 -1      3672 1.36516E-02-3.20473E-04-7.95572E-14
 -1      3673 1.35092E-02-3.04885E-04-7.79636E-14
 -1      3674 1.37881E-02-3.31771E-04-8.11049E-14
 -1      3675 1.38685E-02-7.07432E-04-8.01280E-14
 -1      3676 1.38513E-02-6.68230E-04-8.01257E-14
 -1      3677 1.38338E-02-6.28793E-04-8.01208E-14
 -1      3678 1.38159E-02-5.89311E-04-8.01154E-14
 -1      3679 1.37206E-02-6.32984E-04-7.87376E-14
 -1      3680 1.37878E-02-7.89554E-04-7.87311E-14
 -1      3681 1.39018E-02-7.86209E-04-8.01275E-14
 -1      3682 1.38853E-02-7.46851E-04-8.01270E-14
 -1      3683 3.45071E-03 2.76526E-04-6.46716E-15
 -1      3684 3.38663E-03 3.13631E-04-6.18312E-15
 -1      3685 3.24393E-03 3.16708E-04-5.70097E-15
 -1      3686 1.06721E-02-3.26438E-04-4.27670E-14
 -1      3687 1.06942E-02-3.51356E-04-4.33591E-14
 -1      3688 1.07277E-02-3.21362E-04-4.34747E-14
 -1      3689 5.73085E-03-6.03111E-05-1.92332E-14
 -1      3690 2.95805E-03 3.21182E-04-4.79331E-15
 -1      3691 2.88025E-03 2.85974E-04-4.61156E-15
 -1      3692 3.10108E-03 3.19241E-04-5.23801E-15
 -1      3693 1.97136E-03 3.13533E-04-2.25252E-15
 -1      3694 1.84582E-03 3.11525E-04-1.99241E-15
 -1      3695 2.03655E-03 2.81225E-04-2.43268E-15
 -1      3696 1.06445E-02-2.76912E-04-4.27701E-14
 -1      3697 1.07129E-02-2.92041E-04-4.35195E-14
 -1      3698 1.06524E-02-2.63413E-04-4.34082E-14
 -1      3699 2.30617E-03 2.83981E-04-3.05876E-15
 -1      3700 8.09157E-03 8.19154E-04-2.95010E-14
 -1      3701 1.37263E-02-3.86140E-04-8.01082E-14
 -1      3702 1.37336E-02-3.59797E-04-8.03260E-14
 -1      3703 1.78372E-03-2.33825E-04-1.97364E-15
 -1      3704 1.37322E-02-4.25678E-04-7.99768E-14
 -1      3705 1.36036E-02-3.88020E-04-7.86496E-14
 -1      3706 1.31930E-03-2.07649E-04-1.15501E-15
 -1      3707 1.34553E-02-3.32846E-04-7.71893E-14
 -1      3708 1.37512E-02-4.65823E-04-7.99935E-14
 -1      3709 1.01362E-02-5.03095E-04-3.99019E-14
 -1      3710 1.02727E-02-4.70021E-04-4.07805E-14
 -1      3711 1.39479E-02-9.01760E-04-8.00963E-14
 -1      3712 1.38172E-02-8.64616E-04-7.87046E-14
 -1      3713 1.26073E-03-1.05404E-04-1.11512E-15
 -1      3714 1.38475E-03-1.27748E-04-1.30504E-15
 -1      3715 1.25851E-03-7.46043E-05-1.12017E-15
 -1      3716 2.56951E-03-2.16474E-04-3.85113E-15
 -1      3717 2.71280E-03-2.16508E-04-4.25091E-15
 -1      3718 2.85573E-03-2.15923E-04-4.67024E-15
 -1      3719 2.99826E-03-2.14749E-04-5.10890E-15
 -1      3720 2.77963E-03-1.81196E-04-4.47496E-15
 -1      3721 3.14031E-03-2.13110E-04-5.56582E-15
 -1      3722 3.28183E-03-2.11023E-04-6.04155E-15
 -1      3723 3.06437E-03-1.79292E-04-5.35195E-15
 -1      3724 3.42274E-03-2.08609E-04-6.53542E-15
 -1      3725 3.56301E-03-2.05875E-04-7.04746E-15
 -1      3726 3.34684E-03-1.75855E-04-6.30363E-15
 -1      3727 3.70254E-03-2.02951E-04-7.57803E-15
 -1      3728 3.84128E-03-1.99834E-04-8.12600E-15
 -1      3729 3.62648E-03-1.71368E-04-7.32842E-15
 -1      3730 3.97913E-03-1.96675E-04-8.69162E-15
 -1      3731 4.11604E-03-1.93461E-04-9.27558E-15
 -1      3732 3.90264E-03-1.66311E-04-8.42566E-15
 -1      3733 4.25187E-03-1.90371E-04-9.87670E-15
 -1      3734 4.38660E-03-1.87383E-04-1.04949E-14
 -1      3735 4.17463E-03-1.61200E-04-9.59341E-15
 -1      3736 4.52005E-03-1.84716E-04-1.11308E-14
 -1      3737 4.65222E-03-1.82327E-04-1.17850E-14
 -1      3738 4.44160E-03-1.56612E-04-1.08314E-14
 -1      3739 4.78288E-03-1.80477E-04-1.24571E-14
 -1      3740 4.91209E-03-1.79088E-04-1.31467E-14
 -1      3741 4.70259E-03-1.53190E-04-1.21409E-14
 -1      3742 5.03953E-03-1.78460E-04-1.38541E-14
 -1      3743 5.16540E-03-1.78459E-04-1.45802E-14
 -1      3744 4.95640E-03-1.51588E-04-1.35219E-14
 -1      3745 5.28923E-03-1.79429E-04-1.53246E-14
 -1      3746 5.41150E-03-1.81159E-04-1.60875E-14
 -1      3747 5.20159E-03-1.52345E-04-1.49754E-14
 -1      3748 5.51969E-03-1.84746E-04-1.67792E-14
 -1      3749 5.63900E-03-1.88484E-04-1.75749E-14
 -1      3750 5.62745E-03-1.63591E-04-1.78227E-14
 -1      3751 5.42478E-03-1.56465E-04-1.64141E-14
 -1      3752 1.52593E-03-1.57557E-04-1.53398E-15
 -1      3753 1.65145E-03-1.89029E-04-1.74716E-15
 -1      3754 1.45246E-03 2.32852E-04-1.33879E-15
 -1      3755 1.30411E-03 1.86684E-04-1.13173E-15
 -1      3756 1.09892E-02-4.38321E-04-4.73383E-14
 -1      3757 1.11114E-02-4.54139E-04-4.87016E-14
 -1      3758 1.12351E-02-4.70724E-04-5.00779E-14
 -1      3759 1.13607E-02-4.88257E-04-5.14694E-14
 -1      3760 1.11834E-02-4.36145E-04-4.94067E-14
 -1      3761 1.14879E-02-5.06407E-04-5.28775E-14
 -1      3762 1.16167E-02-5.25306E-04-5.42972E-14
 -1      3763 1.14279E-02-4.70561E-04-5.21902E-14
 -1      3764 1.17469E-02-5.44660E-04-5.57309E-14
 -1      3765 1.18786E-02-5.64546E-04-5.71774E-14
 -1      3766 1.16808E-02-5.07295E-04-5.50328E-14
 -1      3767 1.20114E-02-5.84718E-04-5.86344E-14
 -1      3768 1.21455E-02-6.05218E-04-6.01091E-14
 -1      3769 1.19406E-02-5.45823E-04-5.79237E-14
 -1      3770 1.22805E-02-6.25850E-04-6.15951E-14
 -1      3771 1.24166E-02-6.46640E-04-6.30956E-14
 -1      3772 1.22059E-02-5.85545E-04-6.08700E-14
 -1      3773 1.25534E-02-6.67436E-04-6.46090E-14
 -1      3774 1.26911E-02-6.88260E-04-6.61337E-14
 -1      3775 1.24758E-02-6.25902E-04-6.38690E-14
 -1      3776 1.28294E-02-7.09001E-04-6.76711E-14
 -1      3777 1.29683E-02-7.29677E-04-6.92208E-14
 -1      3778 1.27495E-02-6.66437E-04-6.69207E-14
 -1      3779 1.31078E-02-7.50212E-04-7.07803E-14
 -1      3780 1.32477E-02-7.70620E-04-7.23488E-14
 -1      3781 1.30260E-02-7.06813E-04-7.00159E-14
 -1      3782 1.33881E-02-7.90858E-04-7.39272E-14
 -1      3783 1.35289E-02-8.10941E-04-7.55135E-14
 -1      3784 1.33050E-02-7.46804E-04-7.31503E-14
 -1      3785 1.37084E-02-8.42469E-04-7.75083E-14
 -1      3786 5.47439E-03 1.94002E-04-1.57670E-14
 -1      3787 5.33188E-03 1.93620E-04-1.50023E-14
 -1      3788 6.21757E-03 2.02136E-04-1.99708E-14
 -1      3789 6.09221E-03 2.22312E-04-1.91077E-14
 -1      3790 5.93595E-03 2.09184E-04-1.82704E-14
 -1      3791 6.01890E-03 1.16062E-04-1.93568E-14
 -1      3792 1.25636E-03-1.38120E-05-1.12411E-15
 -1      3793 1.25706E-03-4.40964E-05-1.12300E-15
 -1      3794 1.37988E-03-6.26562E-05-1.31614E-15
 -1      3795 1.37836E-03 1.40410E-06-1.31812E-15
 -1      3796 5.19097E-03 1.94764E-04-1.42562E-14
 -1      3797 5.05098E-03 1.96860E-04-1.35290E-14
 -1      3798 5.23441E-03 1.56978E-04-1.46549E-14
 -1      3799 9.84184E-03 8.88509E-05-4.03437E-14
 -1      3800 4.91172E-03 1.99798E-04-1.28195E-14
 -1      3801 4.77274E-03 2.03277E-04-1.21284E-14
 -1      3802 4.96035E-03 1.63485E-04-1.32009E-14
 -1      3803 5.76629E-03 2.00715E-04-1.73506E-14
 -1      3804 5.61888E-03 1.96007E-04-1.65497E-14
 -1      3805 5.51194E-03 1.53647E-04-1.61828E-14
 -1      3806 1.57480E-03 2.98370E-04-1.48811E-15
 -1      3807 1.53233E-03 2.69877E-04-1.44246E-15
 -1      3808 1.53960E-03 2.29533E-04-1.49276E-15
 -1      3809 1.70015E-03 3.03829E-04-1.71408E-15
 -1      3810 3.79663E-03 2.32572E-04-7.81634E-15
 -1      3811 3.65581E-03 2.36380E-04-7.27512E-15
 -1      3812 1.10282E-02-1.13086E-04-5.08827E-14
 -1      3813 1.08876E-02-9.61480E-05-4.94932E-14
 -1      3814 1.13065E-02-1.44171E-04-5.37066E-14
 -1      3815 1.11676E-02-1.28959E-04-5.22877E-14
 -1      3816 1.11362E-02-1.56260E-04-5.16049E-14
 -1      3817 1.15834E-02-1.73123E-04-5.65799E-14
 -1      3818 1.14450E-02-1.58825E-04-5.51362E-14
 -1      3819 1.14087E-02-1.85055E-04-5.44398E-14
 -1      3820 1.18603E-02-2.01080E-04-5.95060E-14
 -1      3821 1.17218E-02-1.87174E-04-5.80367E-14
 -1      3822 1.16814E-02-2.12976E-04-5.73266E-14
 -1      3823 1.21380E-02-2.28802E-04-6.24824E-14
 -1      3824 1.19990E-02-2.14941E-04-6.09867E-14
 -1      3825 1.19552E-02-2.40716E-04-6.02636E-14
 -1      3826 1.24168E-02-2.56793E-04-6.55102E-14
 -1      3827 1.22772E-02-2.42747E-04-6.39912E-14
 -1      3828 1.22306E-02-2.68722E-04-6.32525E-14
 -1      3829 1.26969E-02-2.85377E-04-6.85814E-14
 -1      3830 1.25567E-02-2.71003E-04-6.70407E-14
 -1      3831 1.25078E-02-2.97283E-04-6.62929E-14
 -1      3832 1.29781E-02-3.14742E-04-7.16926E-14
 -1      3833 1.28373E-02-2.99958E-04-7.01323E-14
 -1      3834 1.27867E-02-3.26572E-04-6.93742E-14
 -1      3835 1.32604E-02-3.44985E-04-7.48332E-14
 -1      3836 1.31191E-02-3.29752E-04-7.32599E-14
 -1      3837 1.30670E-02-3.56680E-04-7.24926E-14
 -1      3838 5.77425E-03 1.64247E-05-1.86843E-14
 -1      3839 5.89205E-03 6.04236E-05-1.90211E-14
 -1      3840 5.86186E-03 1.06680E-04-1.84871E-14
 -1      3841 1.37549E-02-7.11224E-04-7.87397E-14
 -1      3842 1.07458E-02-7.80382E-05-4.81202E-14
 -1      3843 1.06018E-02-5.80229E-05-4.67632E-14
 -1      3844 1.08618E-02-1.25434E-04-4.88262E-14
 -1      3845 1.29959E-03 1.53788E-04-1.14524E-15
 -1      3846 2.37229E-03 2.49522E-04-3.26208E-15
 -1      3847 2.22840E-03 2.47303E-04-2.91077E-15
 -1      3848 1.04552E-02-3.60113E-05-4.54222E-14
 -1      3849 1.03050E-02-1.05037E-05-4.40970E-14
 -1      3850 1.05821E-02-9.04479E-05-4.61127E-14
 -1      3851 1.79500E-03-1.95329E-04-2.02498E-15
 -1      3852 1.37700E-02-5.05676E-04-8.00053E-14
 -1      3853 1.36289E-02-4.67002E-04-7.85310E-14
 -1      3854 1.37885E-02-5.45366E-04-8.00176E-14
 -1      3855 1.34619E-02-3.72229E-04-7.70595E-14
 -1      3856 2.65957E-03 2.51151E-04-4.02155E-15
 -1      3857 2.51602E-03 2.50783E-04-3.63265E-15
 -1      3858 2.43898E-03 2.14875E-04-3.46823E-15
 -1      3859 1.99433E-03-2.08038E-04-2.43814E-15
 -1      3860 2.13828E-03-2.11576E-04-2.76229E-15
 -1      3861 5.64542E-03-6.86343E-05-1.86731E-14
 -1      3862 5.68797E-03-3.76121E-05-1.86533E-14
 -1      3863 1.06310E-02-3.97767E-04-4.33061E-14
 -1      3864 1.34086E-02-3.99425E-04-7.62827E-14
 -1      3865 4.63395E-03 2.07174E-04-1.14567E-14
 -1      3866 4.49505E-03 2.11334E-04-1.08030E-14
 -1      3867 4.68698E-03 1.71538E-04-1.18203E-14
 -1      3868 2.28218E-03-2.14104E-04-3.10589E-15
 -1      3869 2.42595E-03-2.15689E-04-3.46911E-15
 -1      3870 2.20573E-03-1.78250E-04-2.94616E-15
 -1      3871 1.36241E-02-7.97790E-04-7.67208E-14
 -1      3872 1.07204E-02-3.78992E-04-4.39931E-14
 -1      3873 1.07462E-02-4.14432E-04-4.46610E-14
 -1      3874 1.08662E-02-4.27918E-04-4.59961E-14
 -1      3875 1.07964E-02-3.69337E-04-4.47142E-14
 -1      3876 1.03194E-02-1.16851E-04-4.26486E-14
 -1      3877 1.04427E-02-1.53709E-04-4.34100E-14
 -1      3878 2.49321E-03-1.81047E-04-3.67284E-15
 -1      3879 9.99538E-03 1.55269E-05-4.10720E-14
 -1      3880 1.01755E-02-6.25115E-05-4.19136E-14
 -1      3881 1.02759E-02-6.34911E-05-4.30402E-14
 -1      3882 9.98777E-03 6.13156E-05-4.15625E-14
 -1      3883 5.58217E-03-7.59733E-05-1.82146E-14
 -1      3884 3.93703E-03 2.28544E-04-8.37674E-15
 -1      3885 3.85859E-03 1.96682E-04-8.12418E-15
 -1      3886 4.07706E-03 2.24318E-04-8.95455E-15
 -1      3887 1.09471E-02-4.08091E-04-4.66909E-14
 -1      3888 1.36415E-02-7.14615E-04-7.73548E-14
 -1      3889 1.36248E-02-6.75795E-04-7.73593E-14
 -1      3890 5.81555E-03 1.56800E-04-1.78821E-14
 -1      3891 1.50128E-03 1.81986E-05-1.52675E-15
 -1      3892 1.50123E-03-1.52666E-05-1.52826E-15
 -1      3893 1.52225E-03-1.22920E-04-1.54344E-15
 -1      3894 5.63189E-03-1.45375E-04-1.81303E-14
 -1      3895 5.62688E-03-1.27118E-04-1.83744E-14
 -1      3896 5.56771E-03-1.12029E-04-1.80175E-14
 -1      3897 5.53782E-03-1.41658E-04-1.74140E-14
 -1      3898 1.01486E-02 2.56440E-05-4.28574E-14
 -1      3899 1.42053E-03 1.44818E-04-1.34655E-15
 -1      3900 1.50396E-03 8.53308E-05-1.51634E-15
 -1      3901 1.50219E-03 5.16629E-05-1.52245E-15
 -1      3902 1.62501E-03 3.62364E-05-1.74920E-15
 -1      3903 5.66157E-03-2.56408E-06-1.81373E-14
 -1      3904 5.63022E-03 3.58339E-05-1.76223E-14
 -1      3905 5.55962E-03-1.63567E-05-1.75961E-14
 -1      3906 1.36755E-02-5.50228E-04-7.86395E-14
 -1      3907 1.36084E-02-7.58905E-04-7.67306E-14
 -1      3908 3.51460E-03 2.39866E-04-6.75363E-15
 -1      3909 3.37297E-03 2.43015E-04-6.25128E-15
 -1      3910 3.57833E-03 2.03738E-04-7.04149E-15
 -1      3911 1.07699E-02-3.12243E-04-4.41239E-14
 -1      3912 1.08163E-02-3.33587E-04-4.47306E-14
 -1      3913 1.08017E-02-3.02378E-04-4.47750E-14
 -1      3914 3.16601E-03 2.82338E-04-5.50162E-15
 -1      3915 2.10255E-03 2.48453E-04-2.61598E-15
 -1      3916 1.97669E-03 2.48603E-04-2.33614E-15
 -1      3917 2.16924E-03 2.15276E-04-2.80198E-15
 -1      3918 1.06213E-02-2.42357E-04-4.35998E-14
 -1      3919 1.07111E-02-2.62013E-04-4.43599E-14
 -1      3920 1.05841E-02-2.16956E-04-4.37908E-14
 -1      3921 1.02889E-02-4.02022E-05-4.35331E-14
 -1      3922 1.76502E-03 2.74216E-04-1.87236E-15
 -1      3923 2.94590E-03 2.49666E-04-4.85695E-15
 -1      3924 2.80287E-03 2.50764E-04-4.42955E-15
 -1      3925 2.72599E-03 2.15541E-04-4.24855E-15
 -1      3926 1.34474E-02-4.77890E-04-7.63098E-14
 -1      3927 1.34281E-02-4.38783E-04-7.62969E-14
 -1      3928 1.32279E-02-4.11022E-04-7.40791E-14
 -1      3929 4.35602E-03 2.15635E-04-1.01678E-14
 -1      3930 4.21669E-03 2.20002E-04-9.55164E-15
 -1      3931 4.41270E-03 1.80152E-04-1.05139E-14
 -1      3932 1.86263E-03-1.64621E-04-2.18338E-15
 -1      3933 1.36077E-02-6.36973E-04-7.73576E-14
 -1      3934 1.35901E-02-5.98139E-04-7.73554E-14
 -1      3935 1.34949E-02-6.40631E-04-7.59841E-14
 -1      3936 2.41761E-03-1.45759E-04-3.49578E-15
 -1      3937 2.56110E-03-1.46336E-04-3.87868E-15
 -1      3938 1.83079E-03 2.43906E-04-2.03411E-15
 -1      3939 1.68505E-03 2.37623E-04-1.75294E-15
 -1      3940 1.89734E-03 2.12918E-04-2.19994E-15
 -1      3941 2.98925E-03-1.45317E-04-5.13921E-15
 -1      3942 3.13092E-03-1.44224E-04-5.59672E-15
 -1      3943 3.27194E-03-1.42883E-04-6.07272E-15
 -1      3944 3.41223E-03-1.41286E-04-6.56730E-15
 -1      3945 3.19796E-03-1.09609E-04-5.84264E-15
 -1      3946 3.55169E-03-1.39552E-04-7.07981E-15
 -1      3947 3.69026E-03-1.37660E-04-7.61076E-15
 -1      3948 3.47807E-03-1.07370E-04-6.83183E-15
 -1      3949 3.82784E-03-1.35747E-04-8.15910E-15
 -1      3950 3.96433E-03-1.33782E-04-8.72571E-15
 -1      3951 3.75452E-03-1.04791E-04-7.89317E-15
 -1      3952 4.09962E-03-1.31924E-04-9.31010E-15
 -1      3953 4.23362E-03-1.30126E-04-9.91222E-15
 -1      3954 4.02657E-03-1.02269E-04-9.02674E-15
 -1      3955 4.36615E-03-1.28583E-04-1.05321E-14
 -1      3956 4.49714E-03-1.27221E-04-1.11693E-14
 -1      3957 4.29331E-03-1.00238E-04-1.02321E-14
 -1      3958 4.62635E-03-1.26288E-04-1.18243E-14
 -1      3959 4.75368E-03-1.25650E-04-1.24979E-14
 -1      3960 4.55362E-03-9.91974E-05-1.15081E-14
 -1      3961 4.87882E-03-1.25621E-04-1.31896E-14
 -1      3962 5.00167E-03-1.25962E-04-1.38981E-14
 -1      3963 4.80605E-03-9.96876E-05-1.28554E-14
 -1      3964 5.12175E-03-1.27071E-04-1.46255E-14
 -1      3965 5.23897E-03-1.28516E-04-1.53717E-14
 -1      3966 5.04863E-03-1.02201E-04-1.42753E-14
 -1      3967 4.73894E-03 1.36812E-04-1.21838E-14
 -1      3968 4.60409E-03 1.41235E-04-1.15133E-14
 -1      3969 1.08619E-02-3.55764E-04-4.53849E-14
 -1      3970 1.09037E-02-3.81563E-04-4.60325E-14
 -1      3971 1.10156E-02-3.93289E-04-4.73726E-14
 -1      3972 1.09150E-02-3.45356E-04-4.60467E-14
 -1      3973 1.34789E-02-7.22924E-04-7.53605E-14
 -1      3974 1.13672E-02-4.36583E-04-5.15050E-14
 -1      3975 1.14896E-02-4.53877E-04-5.29117E-14
 -1      3976 1.16142E-02-4.71527E-04-5.43322E-14
 -1      3977 1.17409E-02-4.89778E-04-5.57655E-14
 -1      3978 1.15464E-02-4.37323E-04-5.36327E-14
 -1      3979 1.18694E-02-5.08322E-04-5.72116E-14
 -1      3980 1.19996E-02-5.27292E-04-5.86709E-14
 -1      3981 1.17975E-02-4.72179E-04-5.64995E-14
 -1      3982 1.21312E-02-5.46455E-04-6.01426E-14
 -1      3983 1.22641E-02-5.65889E-04-6.16314E-14
 -1      3984 1.20560E-02-5.08554E-04-5.94180E-14
 -1      3985 1.23983E-02-5.85416E-04-6.31320E-14
 -1      3986 1.25335E-02-6.05085E-04-6.46456E-14
 -1      3987 1.23204E-02-5.45965E-04-6.23925E-14
 -1      3988 1.26696E-02-6.24764E-04-6.61709E-14
 -1      3989 1.28066E-02-6.44486E-04-6.77054E-14
 -1      3990 1.25897E-02-5.83979E-04-6.54199E-14
 -1      3991 1.29444E-02-6.64159E-04-6.92521E-14
 -1      3992 1.30829E-02-6.83800E-04-7.08082E-14
 -1      3993 1.28628E-02-6.22250E-04-6.84902E-14
 -1      3994 1.32108E-02-6.93891E-04-7.22896E-14
 -1      3995 1.33503E-02-7.13273E-04-7.38638E-14
 -1      3996 1.33834E-02-6.70032E-04-7.44873E-14
 -1      3997 1.31278E-02-6.51183E-04-7.15159E-14
 -1      3998 5.70503E-03 1.06172E-04-1.75655E-14
 -1      3999 5.00728E-03 1.28017E-04-1.35819E-14
 -1      4000 4.87323E-03 1.32387E-04-1.28734E-14
 -1      4001 4.78996E-03 1.03041E-04-1.25474E-14
 -1      4002 1.62492E-03-3.32742E-05-1.75301E-15
 -1      4003 1.50205E-03-4.87888E-05-1.52722E-15
 -1      4004 1.50373E-03-8.25073E-05-1.52397E-15
 -1      4005 1.64438E-03-1.09708E-04-1.77335E-15
 -1      4006 1.17768E-02-2.51656E-04-5.80727E-14
 -1      4007 1.16420E-02-2.37850E-04-5.66162E-14
 -1      4008 1.15078E-02-2.24102E-04-5.51738E-14
 -1      4009 1.13739E-02-2.10389E-04-5.37434E-14
 -1      4010 1.16035E-02-2.61769E-04-5.59075E-14
 -1      4011 1.12404E-02-1.96642E-04-5.23259E-14
 -1      4012 1.11069E-02-1.82764E-04-5.09220E-14
 -1      4013 1.13404E-02-2.34803E-04-5.30472E-14
 -1      4014 1.20481E-02-2.79634E-04-6.10220E-14
 -1      4015 1.19122E-02-2.65589E-04-5.95417E-14
 -1      4016 1.18697E-02-2.89528E-04-5.88182E-14
 -1      4017 1.23217E-02-3.08230E-04-6.40252E-14
 -1      4018 1.21846E-02-2.93857E-04-6.25177E-14
 -1      4019 1.21390E-02-3.18120E-04-6.17826E-14
 -1      4020 1.25976E-02-3.37562E-04-6.70750E-14
 -1      4021 1.24594E-02-3.22810E-04-6.55441E-14
 -1      4022 1.24113E-02-3.47549E-04-6.47967E-14
 -1      4023 1.28756E-02-3.67684E-04-7.01657E-14
 -1      4024 1.27364E-02-3.52531E-04-6.86151E-14
 -1      4025 1.26863E-02-3.77803E-04-6.78568E-14
 -1      4026 1.31215E-02-3.96962E-04-7.28982E-14
 -1      4027 1.29815E-02-3.81437E-04-7.13346E-14
 -1      4028 1.29301E-02-4.07134E-04-7.05663E-14
 -1      4029 1.31416E-02-4.35367E-04-7.29120E-14
 -1      4030 5.51393E-03-8.48610E-05-1.76706E-14
 -1      4031 5.51158E-03-5.87530E-05-1.75644E-14
 -1      4032 1.09735E-02-1.68692E-04-4.95322E-14
 -1      4033 1.08394E-02-1.54165E-04-4.81611E-14
 -1      4034 1.10798E-02-2.08477E-04-5.02414E-14
 -1      4035 5.54513E-03 1.13683E-04-1.65976E-14
 -1      4036 5.40948E-03 1.16373E-04-1.58165E-14
 -1      4037 1.05303E-02-1.50144E-04-4.45498E-14
 -1      4038 1.05564E-02-1.85405E-04-4.41714E-14
 -1      4039 1.06627E-02-2.12381E-04-4.49378E-14
 -1      4040 3.23098E-03 2.45724E-04-5.76766E-15
 -1      4041 3.08860E-03 2.47977E-04-5.30302E-15
 -1      4042 3.29599E-03 2.09492E-04-6.03581E-15
 -1      4043 5.59545E-03 6.80459E-05-1.71789E-14
 -1      4044 1.04239E-02-9.23682E-05-4.42815E-14
 -1      4045 1.35330E-02-5.59553E-04-7.68802E-14
 -1      4046 1.35053E-02-5.16371E-04-7.67872E-14
 -1      4047 1.33058E-02-4.87681E-04-7.45667E-14
 -1      4048 1.34207E-02-5.63867E-04-7.55118E-14
 -1      4049 2.50629E-03 1.80084E-04-3.67683E-15
 -1      4050 2.36258E-03 1.79160E-04-3.30474E-15
 -1      4051 1.11306E-02-4.03863E-04-4.87372E-14
 -1      4052 1.12475E-02-4.20051E-04-5.01130E-14
 -1      4053 1.13049E-02-4.04464E-04-5.08210E-14
 -1      4054 2.13006E-03-1.42795E-04-2.78721E-15
 -1      4055 2.27390E-03-1.44593E-04-3.13181E-15
 -1      4056 2.34276E-03-1.10659E-04-3.31973E-15
 -1      4057 1.60603E-03 2.01909E-04-1.63494E-15
 -1      4058 5.27512E-03 1.19887E-04-1.50535E-14
 -1      4059 5.14105E-03 1.23790E-04-1.43090E-14
 -1      4060 5.31307E-03 8.34678E-05-1.54513E-14
 -1      4061 1.78747E-03-1.21606E-04-2.04929E-15
 -1      4062 1.98628E-03-1.31877E-04-2.46577E-15
 -1      4063 2.05545E-03-9.94060E-05-2.63351E-15
 -1      4064 1.76890E-03-7.86284E-05-2.02579E-15
 -1      4065 2.70426E-03-1.46428E-04-4.27981E-15
 -1      4066 2.84700E-03-1.46053E-04-4.69975E-15
 -1      4067 2.91492E-03-1.11149E-04-4.92670E-15
 -1      4068 1.05604E-02-1.09720E-04-4.55808E-14
 -1      4069 1.05459E-02-1.30767E-04-4.50777E-14
 -1      4070 1.06582E-02-1.63363E-04-4.58523E-14
 -1      4071 1.06991E-02-1.26857E-04-4.69231E-14
 -1      4072 5.05258E-03 9.34242E-05-1.39630E-14
 -1      4073 1.56149E-03 1.70576E-04-1.57625E-15
 -1      4074 1.52192E-03 1.21040E-04-1.53350E-15
 -1      4075 4.13669E-03 1.88688E-04-9.28162E-15
 -1      4076 4.52419E-03 1.11942E-04-1.12062E-14
 -1      4077 4.46871E-03 1.45567E-04-1.08598E-14
 -1      4078 4.33264E-03 1.49816E-04-1.02247E-14
 -1      4079 5.34092E-03-1.31512E-04-1.60482E-14
 -1      4080 5.44032E-03-1.34534E-04-1.67395E-14
 -1      4081 5.26661E-03-1.07566E-04-1.56830E-14
 -1      4082 1.10760E-02-3.78403E-04-4.80653E-14
 -1      4083 1.32390E-02-6.23060E-04-7.30027E-14
 -1      4084 1.33668E-02-6.31945E-04-7.44885E-14
 -1      4085 1.33496E-02-5.93897E-04-7.44895E-14
 -1      4086 1.64407E-03 1.07779E-04-1.76274E-15
 -1      4087 5.48402E-03 4.78511E-05-1.66554E-14
 -1      4088 1.76666E-03-6.39441E-06-2.02895E-15
 -1      4089 1.76729E-03-4.24582E-05-2.02896E-15
 -1      4090 1.91014E-03-5.18743E-05-2.32406E-15
 -1      4091 5.48319E-03-9.74239E-05-1.73756E-14
 -1      4092 1.76824E-03 6.56130E-05-2.01969E-15
 -1      4093 1.76697E-03 2.95627E-05-2.02601E-15
 -1      4094 1.90938E-03 2.22098E-05-2.32204E-15
 -1      4095 5.46563E-03-3.06132E-05-1.70681E-14
 -1      4096 5.42071E-03 7.29439E-07-1.65723E-14
 -1      4097 5.38034E-03-4.28205E-05-1.65451E-14
 -1      4098 1.08157E-02-1.71283E-04-4.76178E-14
 -1      4099 3.64205E-03 1.68211E-04-7.33098E-15
 -1      4100 3.50191E-03 1.71135E-04-6.80883E-15
 -1      4101 1.08281E-02-2.88653E-04-4.54603E-14
 -1      4102 1.08978E-02-3.11354E-04-4.60776E-14
 -1      4103 2.23665E-03 1.81721E-04-2.99144E-15
 -1      4104 2.11065E-03 1.83592E-04-2.69308E-15
 -1      4105 2.30472E-03 1.47856E-04-3.18350E-15
 -1      4106 3.01179E-03 2.13569E-04-5.10448E-15
 -1      4107 2.64975E-03 1.80357E-04-4.06829E-15
 -1      4108 2.57418E-03 1.45223E-04-3.88792E-15
 -1      4109 2.79290E-03 1.80002E-04-4.47784E-15
 -1      4110 3.92036E-03 1.61526E-04-8.43334E-15
 -1      4111 3.78153E-03 1.65016E-04-7.87272E-15
 -1      4112 3.70583E-03 1.33359E-04-7.62237E-15
 -1      4113 1.08113E-02-2.69692E-04-4.56577E-14
 -1      4114 1.70680E-03 1.76284E-04-1.84377E-15
 -1      4115 2.62961E-03-1.11625E-04-4.08559E-15
 -1      4116 2.55575E-03-7.68613E-05-3.89262E-15
 -1      4117 2.69880E-03-7.69460E-05-4.29425E-15
 -1      4118 4.19592E-03 1.53897E-04-9.60949E-15
 -1      4119 4.05848E-03 1.57830E-04-9.01221E-15
 -1      4120 3.98203E-03 1.27172E-04-8.74371E-15
 -1      4121 1.07939E-02-1.87922E-04-4.70768E-14
 -1      4122 1.07740E-02-2.04388E-04-4.65378E-14
 -1      4123 1.09257E-02-2.10870E-04-4.83131E-14
 -1      4124 3.40556E-03-7.48116E-05-6.58351E-15
 -1      4125 3.54458E-03-7.40933E-05-7.09639E-15
 -1      4126 3.68261E-03-7.34057E-05-7.62781E-15
 -1      4127 3.81956E-03-7.27149E-05-8.17631E-15
 -1      4128 3.61189E-03-4.14763E-05-7.36172E-15
 -1      4129 3.95531E-03-7.21620E-05-8.74366E-15
 -1      4130 4.08977E-03-7.16894E-05-9.32872E-15
 -1      4131 3.88553E-03-4.14422E-05-8.46053E-15
 -1      4132 4.22281E-03-7.14526E-05-9.93211E-15
 -1      4133 4.35428E-03-7.14026E-05-1.05536E-14
 -1      4134 4.15420E-03-4.19855E-05-9.63186E-15
 -1      4135 4.48402E-03-7.17405E-05-1.11908E-14
 -1      4136 4.61185E-03-7.23383E-05-1.18470E-14
 -1      4137 4.41692E-03-4.35474E-05-1.08741E-14
 -1      4138 4.73752E-03-7.35211E-05-1.25220E-14
 -1      4139 4.86082E-03-7.50376E-05-1.32146E-14
 -1      4140 4.67232E-03-4.66194E-05-1.21876E-14
 -1      4141 4.98140E-03-7.73267E-05-1.39250E-14
 -1      4142 5.09896E-03-7.99669E-05-1.46543E-14
 -1      4143 4.91867E-03-5.16432E-05-1.35735E-14
 -1      4144 2.26870E-03-7.58471E-05-3.14535E-15
 -1      4145 2.41235E-03-7.64946E-05-3.50970E-15
 -1      4146 2.48265E-03-4.21665E-05-3.70098E-15
 -1      4147 1.17240E-02-4.37190E-04-5.57879E-14
 -1      4148 1.18509E-02-4.54312E-04-5.72340E-14
 -1      4149 1.19797E-02-4.71697E-04-5.86934E-14
 -1      4150 1.21101E-02-4.89485E-04-6.01666E-14
 -1      4151 1.19020E-02-4.35812E-04-5.79695E-14
 -1      4152 1.22419E-02-5.07453E-04-6.16545E-14
 -1      4153 1.23750E-02-5.25688E-04-6.31561E-14
 -1      4154 1.21623E-02-4.69830E-04-6.09169E-14
 -1      4155 1.25093E-02-5.44026E-04-6.46684E-14
 -1      4156 1.26446E-02-5.62525E-04-6.61927E-14
 -1      4157 1.24282E-02-5.04872E-04-6.39171E-14
 -1      4158 1.27808E-02-5.81064E-04-6.77305E-14
 -1      4159 1.29180E-02-5.99683E-04-6.92744E-14
 -1      4160 1.26985E-02-5.40580E-04-6.69682E-14
 -1      4161 1.30147E-02-6.06896E-04-7.03963E-14
 -1      4162 1.31416E-02-6.16144E-04-7.18722E-14
 -1      4163 1.31248E-02-5.78902E-04-7.18749E-14
 -1      4164 1.29313E-02-5.65477E-04-6.96266E-14
 -1      4165 1.16959E-02-2.98341E-04-5.66390E-14
 -1      4166 1.15654E-02-2.84565E-04-5.51973E-14
 -1      4167 1.22280E-02-3.56335E-04-6.25429E-14
 -1      4168 1.20936E-02-3.41458E-04-6.10486E-14
 -1      4169 5.45893E-03-1.18357E-04-1.70348E-14
 -1      4170 1.19600E-02-3.26808E-04-5.95653E-14
 -1      4171 1.18274E-02-3.12444E-04-5.80960E-14
 -1      4172 1.20480E-02-3.63845E-04-6.03126E-14
 -1      4173 1.14360E-02-2.71091E-04-5.37680E-14
 -1      4174 1.13076E-02-2.57984E-04-5.23519E-14
 -1      4175 1.15273E-02-3.06195E-04-5.44876E-14
 -1      4176 5.39013E-03 2.65979E-05-1.62235E-14
 -1      4177 5.34683E-03 5.54297E-05-1.57987E-14
 -1      4178 5.22023E-03 6.12585E-05-1.50382E-14
 -1      4179 5.29187E-03 9.67946E-06-1.57192E-14
 -1      4180 1.79172E-03 1.75000E-04-2.01227E-15
 -1      4181 1.74770E-03 1.43583E-04-1.94490E-15
 -1      4182 1.72899E-03 1.05601E-04-1.92718E-15
 -1      4183 1.93753E-03 1.78533E-04-2.31271E-15
 -1      4184 1.24995E-02-3.86797E-04-6.55672E-14
 -1      4185 1.23634E-02-3.71465E-04-6.40487E-14
 -1      4186 1.23153E-02-3.94535E-04-6.33012E-14
 -1      4187 1.27740E-02-4.18092E-04-6.86391E-14
 -1      4188 1.26364E-02-4.02355E-04-6.70992E-14
 -1      4189 1.25864E-02-4.26164E-04-6.63391E-14
 -1      4190 1.11805E-02-2.45195E-04-5.09485E-14
 -1      4191 1.10542E-02-2.32805E-04-4.95603E-14
 -1      4192 1.12754E-02-2.79851E-04-5.16557E-14
 -1      4193 4.84053E-03 7.04756E-05-1.29113E-14
 -1      4194 4.71057E-03 7.51242E-05-1.22233E-14
 -1      4195 1.07880E-02-2.32760E-04-4.61506E-14
 -1      4196 5.09679E-03 6.01418E-05-1.43444E-14
 -1      4197 4.96914E-03 6.55005E-05-1.36187E-14
 -1      4198 4.89090E-03 3.92330E-05-1.32751E-14
 -1      4199 1.09609E-02-3.32493E-04-4.67361E-14
 -1      4200 1.10202E-02-3.54971E-04-4.74043E-14
 -1      4201 1.11286E-02-3.64734E-04-4.87681E-14
 -1      4202 1.09999E-02-3.19255E-04-4.74351E-14
 -1      4203 3.12493E-03-7.60528E-05-5.61270E-15
 -1      4204 3.26565E-03-7.54527E-05-6.08896E-15
 -1      4205 3.33405E-03-4.18056E-05-6.33586E-15
 -1      4206 2.84141E-03-7.68312E-05-4.71492E-15
 -1      4207 2.98349E-03-7.65058E-05-5.15485E-15
 -1      4208 2.76869E-03-4.23616E-05-4.50477E-15
 -1      4209 3.36117E-03 1.73703E-04-6.30518E-15
 -1      4210 3.21985E-03 1.75934E-04-5.82005E-15
 -1      4211 3.42655E-03 1.38439E-04-6.57632E-15
 -1      4212 1.12393E-02-3.73873E-04-5.01358E-14
 -1      4213 1.13564E-02-3.88941E-04-5.15268E-14
 -1      4214 3.07800E-03 1.77740E-04-5.35437E-15
 -1      4215 2.93566E-03 1.79127E-04-4.90658E-15
 -1      4216 3.14455E-03 1.42261E-04-5.60594E-15
 -1      4217 1.14764E-02-4.04402E-04-5.29340E-14
 -1      4218 1.15990E-02-4.20636E-04-5.43542E-14
 -1      4219 1.14034E-02-3.72687E-04-5.22340E-14
 -1      4220 5.39459E-03-8.95289E-05-1.67000E-14
 -1      4221 1.10281E-02-2.46809E-04-4.90069E-14
 -1      4222 4.57953E-03 7.94039E-05-1.15529E-14
 -1      4223 4.44725E-03 8.34121E-05-1.09005E-14
 -1      4224 4.63501E-03 4.80247E-05-1.18997E-14
 -1      4225 3.05274E-03-4.21737E-05-5.38355E-15
 -1      4226 5.20110E-03-8.18922E-05-1.53248E-14
 -1      4227 5.29950E-03-8.61206E-05-1.60017E-14
 -1      4228 5.34159E-03-6.42207E-05-1.63261E-14
 -1      4229 5.14213E-03-5.72700E-05-1.49572E-14
 -1      4230 2.01771E-03-5.91358E-05-2.55824E-15
 -1      4231 2.16099E-03-6.86315E-05-2.88646E-15
 -1      4232 2.23163E-03-3.49977E-05-3.06095E-15
 -1      4233 2.01664E-03-2.13999E-05-2.55954E-15
 -1      4234 1.17851E-02-3.34305E-04-5.73742E-14
 -1      4235 1.16484E-02-4.03260E-04-5.50773E-14
 -1      4236 1.87099E-03 1.00564E-04-2.21745E-15
 -1      4237 2.35060E-03 1.11821E-04-3.32068E-15
 -1      4238 2.22456E-03 1.14856E-04-3.00756E-15
 -1      4239 5.28096E-03-3.79998E-05-1.58491E-14
 -1      4240 1.28788E-02-4.32203E-04-6.98007E-14
 -1      4241 1.28274E-02-4.56624E-04-6.90340E-14
 -1      4242 1.29839E-02-4.46441E-04-7.09673E-14
 -1      4243 1.31999E-02-4.73059E-04-7.33848E-14
 -1      4244 1.30942E-02-4.58572E-04-7.22085E-14
 -1      4245 1.32576E-02-5.10811E-04-7.38564E-14
 -1      4246 1.11738E-02-3.49773E-04-4.94618E-14
 -1      4247 1.09200E-02-2.64569E-04-4.72718E-14
 -1      4248 2.00563E-03 1.46529E-04-2.48262E-15
 -1      4249 5.13636E-03 3.45708E-05-1.46769E-14
 -1      4250 2.86026E-03 1.44618E-04-4.70956E-15
 -1      4251 2.63755E-03 1.12567E-04-4.08568E-15
 -1      4252 2.49421E-03 1.12425E-04-3.69380E-15
 -1      4253 2.41490E-03 7.97505E-05-3.50176E-15
 -1      4254 3.49229E-03 1.03743E-04-6.84970E-15
 -1      4255 3.35228E-03 1.05612E-04-6.34487E-15
 -1      4256 1.10159E-02-2.68929E-04-4.84747E-14
 -1      4257 1.10203E-02-3.02462E-04-4.79698E-14
 -1      4258 1.10932E-02-3.25407E-04-4.86416E-14
 -1      4259 1.11347E-02-2.88533E-04-4.97215E-14
 -1      4260 3.76989E-03 9.92307E-05-7.91472E-15
 -1      4261 3.63151E-03 1.01632E-04-7.37278E-15
 -1      4262 3.55846E-03 6.96832E-05-7.12383E-15
 -1      4263 1.32929E-02-5.55944E-04-7.40211E-14
 -1      4264 4.25488E-03 1.20003E-04-9.93816E-15
 -1      4265 4.04389E-03 9.36766E-05-9.05427E-15
 -1      4266 3.90735E-03 9.65986E-05-8.47529E-15
 -1      4267 3.83432E-03 6.58950E-05-8.20764E-15
 -1      4268 2.41035E-03-7.62548E-06-3.51142E-15
 -1      4269 2.55373E-03-7.70258E-06-3.89403E-15
 -1      4270 3.85793E-03 1.17155E-05-8.33948E-15
 -1      4271 3.99346E-03 1.04845E-05-8.91277E-15
 -1      4272 4.35187E-03-1.45607E-05-1.05570E-14
 -1      4273 4.48170E-03-1.63985E-05-1.11957E-14
 -1      4274 4.64955E-03-4.67135E-07-1.20494E-14
 -1      4275 4.77567E-03-3.77543E-06-1.27313E-14
 -1      4276 4.89976E-03-7.83443E-06-1.34307E-14
 -1      4277 5.02144E-03-1.21828E-05-1.41488E-14
 -1      4278 1.21079E-02-4.17027E-04-6.06200E-14
 -1      4279 1.22402E-02-4.33310E-04-6.21110E-14
 -1      4280 1.23738E-02-4.49767E-04-6.36134E-14
 -1      4281 1.25084E-02-4.66500E-04-6.51295E-14
 -1      4282 1.26440E-02-4.83358E-04-6.66580E-14
 -1      4283 1.27804E-02-5.00413E-04-6.81966E-14
 -1      4284 3.27903E-03 7.25427E-05-6.11418E-15
 -1      4285 3.21155E-03 1.07171E-04-5.85893E-15
 -1      4286 3.07016E-03 1.08470E-04-5.39171E-15
 -1      4287 2.98138E-03-8.01655E-06-5.15538E-15
 -1      4288 3.12276E-03-8.15266E-06-5.61297E-15
 -1      4289 1.19768E-02-4.01119E-04-5.91406E-14
 -1      4290 1.15927E-02-3.55426E-04-5.47858E-14
 -1      4291 1.14682E-02-3.41254E-04-5.33616E-14
 -1      4292 2.09078E-03 6.93169E-05-2.71258E-15
 -1      4293 2.04384E-03 1.04189E-04-2.59131E-15
 -1      4294 1.13459E-02-3.27482E-04-5.19504E-14
 -1      4295 1.12257E-02-3.14639E-04-5.05537E-14
 -1      4296 2.03421E-03 4.14868E-05-2.59195E-15
 -1      4297 2.03359E-03 3.77239E-06-2.59689E-15
 -1      4298 3.30502E-03 1.50787E-05-6.23030E-15
 -1      4299 3.44470E-03 1.44901E-05-6.72995E-15
 -1      4300 1.18472E-02-3.85447E-04-5.76769E-14
 -1      4301 1.17190E-02-3.70282E-04-5.62244E-14
 -1      4302 2.69677E-03-7.80476E-06-4.29577E-15
 -1      4303 2.83934E-03-7.88837E-06-4.71651E-15
 -1      4304 2.62558E-03 2.68250E-05-4.08846E-15
 -1      4305 1.31875E-02-5.40762E-04-7.28428E-14
 -1      4306 3.58346E-03 1.37076E-05-7.24843E-15
 -1      4307 3.72123E-03 1.28334E-05-7.78503E-15
 -1      4308 4.31389E-03 8.70848E-05-1.02666E-14
 -1      4309 4.17940E-03 9.05451E-05-9.65188E-15
 -1      4310 4.37315E-03 5.51799E-05-1.05959E-14
 -1      4311 2.92562E-03 1.10554E-04-4.93426E-15
 -1      4312 2.78309E-03 1.11198E-04-4.50416E-15
 -1      4313 2.70406E-03 7.88325E-05-4.29265E-15
 -1      4314 2.99406E-03 7.56199E-05-5.16927E-15
 -1      4315 2.14096E-03-2.66702E-06-2.84397E-15
 -1      4316 2.24835E-03-9.24250E-06-3.10230E-15
 -1      4317 2.21447E-03 5.08950E-05-3.00991E-15
 -1      4318 2.32040E-03 2.49438E-05-3.27746E-15
 -1      4319 2.37662E-03 5.31804E-05-3.41303E-15
 -1      4320 2.52011E-03 5.33862E-05-3.79082E-15
 -1      4321 5.08850E-03-3.21417E-05-1.45921E-14
 -1      4322 5.19277E-03-3.54213E-05-1.52616E-14
 -1      4323 4.08733E-03-1.18025E-05-9.33116E-15
 -1      4324 4.22034E-03-1.30091E-05-9.93515E-15
 -1      4325 5.08102E-03 1.22200E-05-1.44374E-14
 -1      4326 1.29807E-02-5.21635E-04-7.04751E-14
 -1      4327 1.30774E-02-5.27819E-04-7.15998E-14
 -1      4328 1.28844E-02-5.15402E-04-6.93556E-14
 -1      4329 2.91077E-03 2.64231E-05-4.92874E-15
 -1      4330 5.23672E-03-1.14000E-05-1.54687E-14
 -1      4331 3.23611E-03 4.90802E-05-5.97935E-15
 -1      4332 5.19801E-03 1.21718E-05-1.51340E-14
 -1      4333 1.30418E-02-4.83519E-04-7.14354E-14
 -1      4334 4.59137E-03 2.90052E-05-1.17101E-14
 -1      4335 4.10606E-03 6.10982E-05-9.36539E-15
 -1      4336 4.28839E-03 1.53708E-05-1.02390E-14
 -1      4337 1.12017E-02-3.32960E-04-5.00067E-14
 -1      4338 4.06335E-03 4.02145E-05-9.19830E-15
 -1      4339 4.19744E-03 3.78863E-05-9.79906E-15
 -1      4340 2.66328E-03 5.33768E-05-4.18715E-15
 -1      4341 2.80865E-03 5.20281E-05-4.61026E-15
 -1      4342 2.95090E-03 5.16098E-05-5.04487E-15
 -1      4343 4.33016E-03 3.52983E-05-1.04176E-14
 -1      4344 4.46149E-03 3.23151E-05-1.10545E-14
 -1      4345 3.09514E-03 4.98812E-05-5.50685E-15
 -3
    1PSTEP                         2           1           1          
  100CL  101 1.000000000        4345                     0    1           1
 -4  STRESS      6    1
 -5  SXX         1    4    1    1
 -5  SYY         1    4    2    2
 -5  SZZ         1    4    3    3
 -5  SXY         1    4    1    2
 -5  SYZ         1    4    2    3
 -5  SZX         1    4    3    1
 -1         1 3.49983E+01 9.78607E+00 1.80177E+00-1.78568E+01-8.71303E-13 1.33343E-12
 -1         2-8.99001E-01-2.41919E+01-3.35263E+00-1.01600E-01 3.40606E-13-2.40502E-14
 -1         3 1.99995E+01-3.59428E-04 4.74273E-03-4.08514E-04-5.96246E-13-7.06213E-13
 -1         4 1.99995E+01-3.68884E-04 4.88177E-03 4.24835E-04 2.29417E-13-1.16643E-14
 -1         5 3.26837E+01 6.12668E+00 2.73315E+00 6.21153E+00-2.40086E-14 1.89350E-12
 -1         6 3.56603E+01 1.22311E+01 5.10983E+00-8.62757E+00-1.14797E-13 1.97992E-12
 -1         7 2.07842E+01 6.08958E+00-1.27982E-01-4.71655E+00-1.73195E-14 4.28758E-13
 -1         8 1.96574E+01 5.93043E+00 5.15357E-02-3.26689E+00-2.50355E-14-7.18995E-14
 -1         9 1.91374E+01 5.77174E+00 4.96494E-02-2.51758E+00-2.03414E-14-3.58314E-13
 -1        10 1.89058E+01 5.69501E+00 5.14321E-02-1.94148E+00-1.18855E-14-5.04692E-13
 -1        11 1.87907E+01 5.65605E+00 5.03935E-02-1.44633E+00-1.31726E-14-5.75570E-13
 -1        12 1.87307E+01 5.63548E+00 4.86379E-02-1.00683E+00-5.18487E-15-6.07407E-13
 -1        13 1.86990E+01 5.62462E+00 4.71216E-02-5.89747E-01-4.90135E-15-6.06424E-13
 -1        14 1.86857E+01 5.61999E+00 4.62958E-02-1.89179E-01-2.42113E-15-6.07480E-13
 -1        15 1.86860E+01 5.62012E+00 4.63338E-02 2.06324E-01 3.98634E-15-6.03190E-13
 -1        16 1.87003E+01 5.62502E+00 4.72547E-02 6.07691E-01 3.13519E-15-6.02123E-13
 -1        17 1.87330E+01 5.63612E+00 4.89570E-02 1.02671E+00 1.05250E-14-5.91152E-13
 -1        18 1.87942E+01 5.65704E+00 5.09419E-02 1.46931E+00 9.13679E-15-5.49632E-13
 -1        19 1.89110E+01 5.69650E+00 5.18886E-02 1.97024E+00 1.83742E-14-4.75501E-13
 -1        20 1.91424E+01 5.77422E+00 4.93257E-02 2.55468E+00 2.05461E-14-3.36232E-13
 -1        21 1.96528E+01 5.94494E+00 4.64911E-02 3.30072E+00 2.66454E-14-3.65393E-14
 -1        22 2.11658E+01 6.37069E+00 1.39638E-01 4.51432E+00 6.55032E-15 5.53167E-13
 -1        23 2.29673E+01-1.37638E+00-9.37325E-01-7.09434E-01-7.65533E-14 1.58043E-12
 -1        24 1.93162E+01-9.94763E-02-3.09412E-01 6.30016E-02-3.15217E-14 1.23630E-12
 -1        25 1.86352E+01-5.65062E-02-6.87650E-02 6.03773E-02-4.16334E-15 9.10183E-13
 -1        26 1.84416E+01-2.24682E-02-6.72087E-03 3.25610E-02 1.31760E-14 6.97562E-13
 -1        27 1.84664E+01-1.24029E-02 1.10493E-03 2.21572E-02-1.88247E-14 5.07724E-13
 -1        28 1.86015E+01-7.11320E-03 1.02983E-03 1.58516E-02-1.81146E-14 3.34149E-13
 -1        29 1.87937E+01-4.30388E-03 5.99423E-04 1.17507E-02 1.78982E-14 2.33634E-13
 -1        30 1.90168E+01-2.88281E-03 2.99043E-04 8.92789E-03 3.09499E-15 1.59087E-13
 -1        31 1.92594E+01-2.32720E-03-1.68474E-04 6.96639E-03-2.15796E-14 4.56449E-14
 -1        32 1.95198E+01-2.36050E-03-9.46691E-04 5.69382E-03-1.85549E-14 9.38897E-15
 -1        33 1.98036E+01-2.82043E-03-2.06600E-03 5.06428E-03 2.38905E-14 3.28023E-14
 -1        34 2.01215E+01-3.59215E-03-3.52096E-03 5.11219E-03-9.41052E-15 4.87371E-15
 -1        35 2.04889E+01-4.56464E-03-5.28571E-03 5.93706E-03 2.03304E-14-1.49031E-13
 -1        36 2.09247E+01-5.58803E-03-7.28239E-03 7.69656E-03 3.90584E-16-4.86043E-14
 -1        37 2.14496E+01-6.41950E-03-9.30127E-03 1.05880E-02-5.14964E-15 7.30280E-14
 -1        38 2.20824E+01-6.65080E-03-1.08488E-02 1.47862E-02-5.89786E-14-2.44839E-14
 -1        39 2.28346E+01-5.62492E-03-1.08960E-02 2.02776E-02-2.27161E-14-1.51814E-13
 -1        40 2.36978E+01-2.38838E-03-7.55012E-03 2.64862E-02 2.29558E-15-1.33267E-13
 -1        41 2.46256E+01 4.19211E-03 2.12965E-03 3.15647E-02-1.14296E-14-4.53701E-13
 -1        42 2.55056E+01 1.48789E-02 2.14905E-02 3.13503E-02 2.13117E-14-3.26699E-13
 -1        43 2.61327E+01 2.87787E-02 5.16183E-02 1.85647E-02-4.35684E-14-3.04023E-14
 -1        44 2.62065E+01 4.14300E-02 8.55161E-02-1.56818E-02 4.28971E-14 4.21926E-13
 -1        45 2.54065E+01 4.38569E-02 1.01947E-01-7.45426E-02-4.47403E-14 4.24719E-13
 -1        46 2.35955E+01 2.61557E-02 7.00470E-02-1.41660E-01 7.15988E-14 1.89015E-13
 -1        47 2.11057E+01-1.22812E-02-2.29314E-02-1.73569E-01-6.35635E-14 4.21899E-13
 -1        48 1.88500E+01-5.45214E-02-1.37878E-01-1.24120E-01 1.68164E-14 8.56572E-14
 -1        49 1.79315E+01-7.30727E-02-1.90415E-01 3.73986E-04 5.69189E-14-6.68320E-14
 -1        50 1.88550E+01-5.44340E-02-1.37018E-01 1.23876E-01-3.47096E-14-7.39478E-14
 -1        51 2.11108E+01-1.22917E-02-2.30759E-02 1.73368E-01-2.38399E-14-4.79061E-14
 -1        52 2.36023E+01 2.60881E-02 6.99815E-02 1.41589E-01-4.94396E-15-1.71481E-13
 -1        53 2.54159E+01 4.36983E-02 1.01656E-01 7.44145E-02-6.30698E-14-4.69069E-13
 -1        54 2.62199E+01 4.12226E-02 8.51326E-02 1.55474E-02 1.12140E-13-4.31009E-13
 -1        55 2.61530E+01 2.85072E-02 5.12469E-02-1.86183E-02-2.12384E-14 3.92381E-14
 -1        56 2.55370E+01 1.45309E-02 2.10864E-02-3.13153E-02-2.35845E-14-3.97750E-13
 -1        57 2.46732E+01 3.76181E-03 1.63625E-03-3.14315E-02 2.82817E-14-4.22315E-13
 -1        58 2.37680E+01-2.91100E-03-8.16318E-03-2.62214E-02 8.26295E-15-1.47510E-13
 -1        59 2.29353E+01-6.25100E-03-1.16602E-02-1.98316E-02-2.56542E-14-2.30180E-14
 -1        60 2.22234E+01-7.38621E-03-1.17916E-02-1.40908E-02 3.36115E-14 6.95260E-14
 -1        61 2.16425E+01-7.26212E-03-1.04466E-02-9.55396E-03 1.05378E-14-7.14997E-14
 -1        62 2.11836E+01-6.52259E-03-8.64854E-03-6.20918E-03-2.39187E-14-7.71451E-13
 -1        63 2.08296E+01-5.55598E-03-6.88098E-03-3.85088E-03-3.04491E-14-6.11555E-13
 -1        64 2.05621E+01-4.57567E-03-5.33918E-03-2.24392E-03 1.33479E-13-4.83077E-13
 -1        65 2.03637E+01-3.68826E-03-4.08243E-03-1.18164E-03-2.64043E-14-5.14055E-13
 -1        66 2.02195E+01-2.93988E-03-3.11722E-03-4.95899E-04 3.51258E-14-3.61250E-13
 -1        67 2.01176E+01-2.34328E-03-2.44003E-03-4.67977E-05 8.51743E-14-2.47013E-13
 -1        68 2.00490E+01-1.88747E-03-2.04572E-03 3.00944E-04 3.63468E-15-9.17359E-14
 -1        69 2.00076E+01-1.52316E-03-1.85927E-03 7.08782E-04 9.47595E-15-2.02280E-13
 -1        70 1.99897E+01-1.03875E-03-1.44053E-03 1.44632E-03 4.38320E-14 1.82125E-13
 -1        71 1.99925E+01 1.79347E-04 8.39873E-04 2.24146E-03-8.08705E-14 2.83950E-13
 -1        72 2.09846E+01-4.04015E-01-9.79278E-01-3.10630E-01 3.96488E-14 1.69030E-12
 -1        73 1.92816E+01-6.59121E-02-2.90766E-01-5.35588E-02 1.66464E-14 1.23843E-12
 -1        74 1.86456E+01-2.07001E-02-6.42961E-02-1.99578E-02 2.18752E-14 9.30171E-13
 -1        75 1.84521E+01-1.02078E-02-9.59038E-03-1.48944E-02-5.13023E-15 6.91636E-13
 -1        76 1.84773E+01-5.65161E-03 1.54156E-04-1.16639E-02 2.05072E-14 5.31804E-13
 -1        77 1.86121E+01-3.29209E-03 9.26854E-04-9.23850E-03-1.10382E-14 4.44737E-13
 -1        78 1.88037E+01-2.05371E-03 6.98907E-04-7.35661E-03-6.24945E-15 4.29387E-13
 -1        79 1.90257E+01-1.46323E-03 4.32749E-04-5.81448E-03 8.27290E-15 3.35908E-13
 -1        80 1.92661E+01-1.27582E-03 9.90455E-06-4.54081E-03 5.98734E-15 1.43894E-13
 -1        81 1.95220E+01-1.34250E-03-6.48416E-04-3.54251E-03 2.00409E-14 1.50817E-14
 -1        82 1.97963E+01-1.55210E-03-1.51594E-03-2.87355E-03 1.83472E-14-4.76915E-14
 -1        83 2.00960E+01-1.79901E-03-2.50542E-03-2.62202E-03-3.90939E-14 1.45913E-13
 -1        84 2.04300E+01-1.96025E-03-3.47426E-03-2.90732E-03 3.75454E-15 2.54392E-13
 -1        85 2.08069E+01-1.87700E-03-4.19518E-03-3.87407E-03-1.15036E-14 2.43224E-13
 -1        86 2.12325E+01-1.34212E-03-4.30647E-03-5.66873E-03 3.36574E-14-1.37802E-14
 -1        87 2.17048E+01-1.04493E-04-3.25797E-03-8.37750E-03-4.00596E-14-9.61154E-14
 -1        88 2.22087E+01 2.08824E-03-2.89784E-04-1.18950E-02-2.33390E-14-6.45066E-14
 -1        89 2.27082E+01 5.37377E-03 5.47199E-03-1.56916E-02 7.55897E-14-4.36061E-13
 -1        90 2.31384E+01 9.54941E-03 1.46461E-02-1.84812E-02-5.69503E-14-5.64475E-13
 -1        91 2.34007E+01 1.37546E-02 2.67826E-02-1.79195E-02 1.22638E-14-2.35421E-13
 -1        92 2.33704E+01 1.62242E-02 3.91047E-02-1.07303E-02-2.91204E-14 7.46170E-14
 -1        93 2.29252E+01 1.45522E-02 4.55821E-02 5.99305E-03 1.06437E-14 2.18756E-13
 -1        94 2.20056E+01 6.92585E-03 3.80097E-02 3.18738E-02 2.51251E-14-4.09846E-14
 -1        95 2.06939E+01-5.79699E-03 1.10832E-02 5.97656E-02 1.36396E-14-1.81351E-13
 -1        96 1.92664E+01-1.90905E-02-3.05227E-02 7.57346E-02 2.16321E-14-5.36099E-14
 -1        97 1.81472E+01-2.66182E-02-6.94233E-02 6.65188E-02 2.13523E-14 2.83627E-15
 -1        98 1.77355E+01-2.44696E-02-8.42196E-02 3.05640E-02-6.17150E-14-9.67756E-14
 -1        99 1.81921E+01-1.42521E-02-6.61575E-02-1.68615E-02 1.26271E-14-1.71287E-13
 -1       100 1.93407E+01-1.23949E-03-2.58534E-02-5.38120E-02 1.15756E-14-4.33435E-13
 -1       101 2.07750E+01 9.21125E-03 1.49407E-02-6.73852E-02-3.23167E-14-5.64816E-13
 -1       102 2.20755E+01 1.44570E-02 3.99613E-02-5.93804E-02 6.31998E-14-6.93747E-13
 -1       103 2.29770E+01 1.47340E-02 4.57190E-02-4.01712E-02-1.25195E-14-2.72142E-13
 -1       104 2.34074E+01 1.18762E-02 3.82005E-02-1.99635E-02 2.70959E-14-4.13723E-14
 -1       105 2.34322E+01 7.86103E-03 2.54624E-02-4.39436E-03 6.07656E-14-1.48088E-14
 -1       106 2.31760E+01 4.06478E-03 1.32558E-02 5.20598E-03-8.01987E-14-2.98827E-13
 -1       107 2.27640E+01 1.13224E-03 4.12446E-03 9.82402E-03 8.75859E-16-7.00180E-13
 -1       108 2.22942E+01-8.12413E-04-1.59547E-03 1.10981E-02 7.13000E-14-8.34204E-13
 -1       109 2.18316E+01-1.91147E-03-4.57413E-03 1.04804E-02-5.14130E-14-6.08116E-13
 -1       110 2.14133E+01-2.39125E-03-5.69854E-03 8.99122E-03-2.70492E-14-5.90473E-13
 -1       111 2.10556E+01-2.46761E-03-5.72218E-03 7.25080E-03 3.22227E-14-8.64923E-13
 -1       112 2.07622E+01-2.31093E-03-5.17824E-03 5.59126E-03-1.15180E-13-6.95643E-13
 -1       113 2.05294E+01-2.04230E-03-4.40606E-03 4.16359E-03 7.69483E-14-2.91905E-13
 -1       114 2.03498E+01-1.74209E-03-3.60798E-03 3.01503E-03-8.36421E-16-1.06803E-12
 -1       115 2.02152E+01-1.46001E-03-2.90306E-03 2.13599E-03-6.36482E-14-8.92436E-13
 -1       116 2.01177E+01-1.22080E-03-2.36601E-03 1.48105E-03 4.65115E-14-2.74854E-13
 -1       117 2.00506E+01-1.03004E-03-2.04452E-03 9.73220E-04-6.63826E-14-4.70106E-13
 -1       118 2.00093E+01-8.60418E-04-1.90057E-03 4.84506E-04 1.03684E-13-1.36654E-12
 -1       119 1.99911E+01-5.02676E-04-1.45301E-03-3.56147E-04 4.82485E-14-2.25676E-12
 -1       120 1.99932E+01 6.86819E-04 8.19601E-04-1.84683E-03 2.20543E-13-1.80241E-12
 -1       121 1.99999E+01-6.36527E-03 5.15723E-04-2.42927E-03-1.67502E-12 5.18874E-15
 -1       122 1.99990E+01-7.06466E-03-1.66059E-03-7.57090E-04-8.39949E-13 1.72857E-13
 -1       123 1.99991E+01 1.29415E-02-1.60245E-03 4.88484E-04-1.12183E-13 4.76372E-15
 -1       124 1.99994E+01 4.87197E-02-8.44281E-04 1.19520E-03 2.24321E-15 1.60124E-13
 -1       125 1.99999E+01 9.21739E-02 2.36635E-05 1.41952E-03 1.71706E-13-1.91694E-13
 -1       126 2.00004E+01 1.33827E-01 7.66357E-04 1.29332E-03-1.16482E-13 2.30632E-14
 -1       127 2.00008E+01 1.67139E-01 1.31317E-03 8.86763E-04 7.44273E-14 9.65974E-14
 -1       128 2.00010E+01 1.85361E-01 1.60812E-03 3.06112E-04-3.24432E-13-9.10314E-14
 -1       129 2.00010E+01 1.85213E-01 1.61573E-03-3.37163E-04-9.72803E-13 1.77680E-13
 -1       130 2.00008E+01 1.66610E-01 1.32895E-03-9.25112E-04-7.94960E-13 1.05281E-13
 -1       131 2.00004E+01 1.32744E-01 7.65662E-04-1.34997E-03-9.54155E-13-1.77387E-13
 -1       132 1.99999E+01 9.04478E-02 5.32347E-08-1.46413E-03-7.19858E-13 1.94284E-13
 -1       133 1.99994E+01 4.65118E-02-8.95169E-04-1.20277E-03-1.17074E-12 7.90165E-14
 -1       134 1.99989E+01 1.06007E-02-1.75260E-03-5.56202E-04-5.27956E-13 5.13651E-14
 -1       135 1.99992E+01-8.28823E-03-1.52862E-03 1.16465E-03-5.56533E-13 3.58518E-14
 -1       136 1.99993E+01-6.69305E-03 5.91466E-04 3.88233E-03-3.56460E-13 1.21673E-13
 -1       137-1.39690E+00-1.85967E+01-2.98670E+00-3.58443E+00 1.39094E-12 3.79578E-13
 -1       138-1.36572E+00-7.19006E+00-2.14310E+00-2.52633E+00 1.44296E-12 5.90611E-13
 -1       139 4.49623E+00 4.95583E+00-8.40371E-01 4.98272E+00 1.67116E-12 1.36574E-12
 -1       140 1.78286E+01 1.09505E+01 6.07652E-01 1.38505E+01 1.36879E-12 1.58551E-12
 -1       141 3.70882E+01 9.62427E+00 1.96886E+00 1.83783E+01 7.88369E-13 1.52184E-12
 -1       142 5.55297E+01 4.49276E+00 3.00904E+00 1.43543E+01 3.91659E-13 1.27498E-12
 -1       143 6.53984E+01 9.46249E-01 3.49280E+00 2.69629E+00-1.00336E-14 5.13478E-16
 -1       144 6.14404E+01 2.45603E+00 3.29007E+00-1.00616E+01 2.46407E-13-1.06667E-12
 -1       145 4.53500E+01 7.66701E+00 2.44623E+00-1.75818E+01 9.42552E-13-2.29550E-12
 -1       146 2.44895E+01 1.09389E+01 1.11990E+00-1.60188E+01 1.91464E-12-2.63828E-12
 -1       147 8.71878E+00 8.00182E+00-3.15137E-01-8.44551E+00 2.61235E-12-2.29317E-12
 -1       148-2.39346E-01-2.59642E+00-1.71677E+00 5.09579E-01 2.69385E-12-1.53033E-12
 -1       149-1.65776E+00-1.47745E+01-2.72481E+00 4.02515E+00 1.74794E-12-5.64146E-13
 -1       150-9.22195E-01-2.31551E+01-3.27963E+00 1.98045E+00-8.55704E-14-1.68180E-13
 -1       151-1.02007E+00-2.30438E+01-3.29347E+00-2.45617E+00-1.77475E-12-2.11324E-13
 -1       152-1.86621E+00-1.44345E+01-2.76609E+00-4.27186E+00-2.09549E-12-7.15553E-13
 -1       153-1.70352E-01-2.09007E+00-1.77970E+00-3.97324E-01-2.34512E-12-1.35919E-12
 -1       154 8.57786E+00 7.65545E+00-4.05490E-01 8.15585E+00-2.11481E-12-1.91513E-12
 -1       155 2.52136E+01 1.08131E+01 1.09422E+00 1.62294E+01-1.63464E-12-2.38604E-12
 -1       156 4.65426E+01 7.50573E+00 2.55171E+00 1.77169E+01-9.59538E-13-2.22811E-12
 -1       157 6.31336E+01 2.43052E+00 3.50417E+00 9.99317E+00-2.71207E-13-1.37146E-12
 -1       158 6.68814E+01 1.15371E+00 3.71878E+00-3.25297E+00 4.82461E-14-4.27908E-13
 -1       159 5.54534E+01 5.03319E+00 3.07701E+00-1.47716E+01-2.67855E-13 6.81344E-13
 -1       160 1.52449E+01 1.02376E+01 2.62493E-01-1.24538E+01-1.35880E-12 1.62581E-12
 -1       161 3.00916E+00 3.49449E+00-1.13789E+00-3.52282E+00-2.16377E-12 1.55709E-12
 -1       162-1.57708E+00-8.26312E+00-2.30535E+00 3.01368E+00-1.71629E-12 9.47437E-13
 -1       163-1.49566E+00-1.96878E+01-3.09644E+00 3.89194E+00-5.44315E-13 8.97615E-14
 -1       164 2.09896E+01 3.68861E+00-5.71592E-02-3.59927E+00-2.80088E-13 1.58030E-13
 -1       165 1.99855E+01 4.20491E+00-4.55967E-02-2.79723E+00-2.61333E-13-1.57655E-13
 -1       166 1.95133E+01 4.47957E+00-3.15695E-02-2.18229E+00-2.22432E-13-3.54664E-13
 -1       167 1.92818E+01 4.62043E+00-2.36867E-02-1.66201E+00-1.75406E-13-4.50578E-13
 -1       168 1.91544E+01 4.70700E+00-1.94407E-02-1.20769E+00-1.26443E-13-4.97516E-13
 -1       169 1.90823E+01 4.76089E+00-1.72903E-02-7.83606E-01-9.33146E-14-5.22187E-13
 -1       170 1.90456E+01 4.79073E+00-1.62560E-02-3.82293E-01-4.13300E-14-5.12416E-13
 -1       171 1.90347E+01 4.79995E+00-1.59574E-02 8.33167E-03 1.18734E-14-5.10024E-13
 -1       172 1.90471E+01 4.78945E+00-1.62946E-02 3.99270E-01 5.99428E-14-5.13142E-13
 -1       173 1.90856E+01 4.75788E+00-1.73598E-02 8.01569E-01 1.02709E-13-5.07926E-13
 -1       174 1.91585E+01 4.70236E+00-1.95426E-02 1.22025E+00 1.37176E-13-4.82911E-13
 -1       175 1.92902E+01 4.61126E+00-2.38696E-02 1.68548E+00 1.93355E-13-4.20873E-13
 -1       176 1.95298E+01 4.46117E+00-3.27001E-02 2.21369E+00 2.44923E-13-3.22463E-13
 -1       177 2.00074E+01 4.18144E+00-4.70106E-02 2.83469E+00 2.76962E-13-1.30094E-13
 -1       178 2.11106E+01 3.45885E+00-5.95903E-02 3.52567E+00 2.86797E-13 2.25105E-13
 -1       179 2.23769E+01 1.14191E+00-3.35789E-01 3.00656E+00 2.29225E-13 6.91558E-13
 -1       180 2.19349E+01 8.57085E-01 6.26820E-04-1.95141E+00-2.35822E-13 5.29257E-13
 -1       181 2.04191E+01 1.90266E-01-9.89458E-03-7.57190E-01-1.89269E-13 4.10959E-13
 -1       182 1.96535E+01 1.02633E-01 1.36665E-02-2.77102E-01-1.38380E-13 3.00527E-13
 -1       183 1.93274E+01 4.90465E-02 1.01550E-02-5.53843E-02-1.10799E-13 1.88209E-13
 -1       184 1.92173E+01 2.54455E-02 5.38297E-03 5.84195E-02-1.19115E-13 1.44092E-13
 -1       185 1.92325E+01 1.37333E-02 2.73272E-03 1.20688E-01-8.44129E-14 1.02037E-13
 -1       186 1.93221E+01 8.04848E-03 1.53205E-03 1.56742E-01-5.64134E-14 3.67585E-14
 -1       187 1.94594E+01 5.99416E-03 1.02390E-03 1.80445E-01-3.72024E-14 1.73094E-14
 -1       188 1.96311E+01 6.43785E-03 8.39820E-04 2.00530E-01-1.49437E-14 9.94178E-14
 -1       189 1.98330E+01 8.77120E-03 8.28063E-04 2.23136E-01-1.57555E-14 4.91807E-14
 -1       190 2.00669E+01 1.26197E-02 9.18715E-04 2.52919E-01-8.24568E-14-9.97989E-14
 -1       191 2.03392E+01 1.76794E-02 1.06318E-03 2.93497E-01-4.68585E-14-1.30309E-13
 -1       192 2.06590E+01 2.35627E-02 1.20780E-03 3.47465E-01 3.12796E-14-9.76427E-14
 -1       193 2.10373E+01 2.95853E-02 1.27767E-03 4.15931E-01 4.18126E-14-1.33647E-13
 -1       194 2.14842E+01 3.44282E-02 1.16451E-03 4.97370E-01-4.32832E-14-1.33496E-13
 -1       195 2.20060E+01 3.56180E-02 7.25275E-04 5.85468E-01-5.13506E-14-7.73726E-14
 -1       196 2.25997E+01 2.88401E-02-1.88512E-04 6.65602E-01-4.66373E-14-9.81217E-14
 -1       197 2.32452E+01 7.37182E-03-1.64092E-03 7.09963E-01-9.95400E-14-2.02945E-13
 -1       198 2.38953E+01-3.73579E-02-3.44007E-03 6.72879E-01-2.93387E-14-2.20686E-13
 -1       199 2.44646E+01-1.11802E-01-4.96818E-03 4.91569E-01 2.09184E-13-3.23051E-13
 -1       200 2.48258E+01-2.09426E-01-5.15010E-03 1.03875E-01 2.58779E-13-9.62726E-14
 -1       201 2.48250E+01-2.92731E-01-3.20236E-03-5.01042E-01 6.47407E-14 7.86993E-14
 -1       202 2.43382E+01-2.83602E-01-2.09731E-04-1.19887E+00-7.91893E-14 2.57105E-13
 -1       203 2.33834E+01-1.00803E-01 5.23616E-04-1.67386E+00 5.25790E-14 2.17449E-13
 -1       204 2.22432E+01 2.34234E-01-2.63683E-03-1.52892E+00-1.45738E-13 2.89668E-13
 -1       205 2.14426E+01 5.20553E-01-7.95142E-03-6.25803E-01-1.25632E-13 2.73270E-13
 -1       206 2.14455E+01 5.17313E-01-7.95176E-03 6.29189E-01-7.97470E-14-1.39585E-14
 -1       207 2.22462E+01 2.34750E-01-2.57121E-03 1.52977E+00 2.86225E-14-1.18841E-13
 -1       208 2.33894E+01-1.00439E-01 6.71443E-04 1.67574E+00-2.73223E-14 1.28023E-15
 -1       209 2.43471E+01-2.83447E-01-4.87926E-04 1.20140E+00-1.65623E-13-3.17923E-14
 -1       210 2.48379E+01-2.92155E-01-3.43785E-03 5.04812E-01-6.12496E-14-2.17316E-14
 -1       211 2.48447E+01-2.08349E-01-5.18251E-03-9.77701E-02 1.15259E-13-1.72296E-13
 -1       212 2.44923E+01-1.10412E-01-4.90682E-03-4.82203E-01-1.10922E-13-2.84118E-13
 -1       213 2.39353E+01-3.56314E-02-3.34649E-03-6.59424E-01 6.04375E-14-9.08761E-14
 -1       214 2.33021E+01 9.51291E-03-1.51968E-03-6.91442E-01 1.08036E-13-1.21663E-14
 -1       215 2.26789E+01 3.14706E-02-4.40973E-05-6.40863E-01 4.36614E-14-1.10597E-13
 -1       216 2.21142E+01 3.88095E-02 8.92473E-04-5.53188E-01-9.81006E-14-2.23846E-13
 -1       217 2.16291E+01 3.82334E-02 1.35224E-03-4.56094E-01-1.02714E-13-4.76371E-14
 -1       218 2.12278E+01 3.40245E-02 1.48042E-03-3.64154E-01-3.90348E-13-2.58403E-14
 -1       219 2.09051E+01 2.86030E-02 1.41480E-03-2.83750E-01-7.84705E-14-1.19735E-14
 -1       220 2.06513E+01 2.32069E-02 1.25584E-03-2.16680E-01-2.53804E-14-2.86232E-13
 -1       221 2.04556E+01 1.84020E-02 1.06660E-03-1.62397E-01 2.33227E-13-2.37205E-13
 -1       222 2.03076E+01 1.44059E-02 8.81534E-04-1.19294E-01 1.73074E-13 9.46985E-14
 -1       223 2.01980E+01 1.12728E-02 7.14356E-04-8.53624E-02 2.04357E-13 3.64056E-13
 -1       224 2.01190E+01 8.99126E-03 5.62412E-04-5.85178E-02 2.52937E-14 1.45208E-13
 -1       225 2.00645E+01 7.49957E-03 4.14412E-04-3.67714E-02-1.23121E-13-6.34409E-15
 -1       226 2.00295E+01 6.56456E-03 3.07580E-04-1.85593E-02 1.72778E-13-8.73421E-14
 -1       227 2.00091E+01 5.36575E-03 2.36573E-04-3.51482E-03 3.10872E-14 1.10034E-13
 -1       228 2.09279E+01 2.76801E-01-5.11794E-02 1.15891E+00 2.01977E-13 5.90969E-13
 -1       229 1.98419E+01 1.27162E-01 8.38405E-03 4.36984E-01 1.62890E-13 4.37293E-13
 -1       230 1.93467E+01 5.89398E-02 1.28119E-02 1.41796E-01 1.27909E-13 3.13053E-13
 -1       231 1.91527E+01 2.92438E-02 7.73569E-03-1.51401E-03 9.64881E-14 2.15440E-13
 -1       232 1.91256E+01 1.53764E-02 3.96876E-03-7.69368E-02 3.11475E-14 1.64235E-13
 -1       233 1.91943E+01 8.39333E-03 2.09513E-03-1.18397E-01 2.45601E-14 8.68537E-14
 -1       234 1.93201E+01 5.04310E-03 1.23714E-03-1.42557E-01 5.99964E-14 5.69034E-14
 -1       235 1.94829E+01 3.89183E-03 8.21404E-04-1.58837E-01 6.96408E-14 5.60624E-14
 -1       236 1.96732E+01 4.18928E-03 5.97460E-04-1.73134E-01 2.93535E-14 2.04497E-14
 -1       237 1.98883E+01 5.44669E-03 4.61736E-04-1.89306E-01-2.08407E-14 8.94311E-14
 -1       238 2.01299E+01 7.25268E-03 3.60795E-04-2.09723E-01-7.02391E-14 1.41689E-13
 -1       239 2.04016E+01 9.15877E-03 2.55646E-04-2.35351E-01-1.75032E-14 6.87148E-14
 -1       240 2.07075E+01 1.05755E-02 1.12397E-04-2.65509E-01 2.67234E-14 7.90364E-14
 -1       241 2.10492E+01 1.06637E-02-9.51576E-05-2.97303E-01 1.14083E-13 3.59670E-14
 -1       242 2.14234E+01 8.23384E-03-3.73419E-04-3.24775E-01 2.96988E-14 2.05750E-14
 -1       243 2.18175E+01 1.71561E-03-6.87038E-04-3.37904E-01 3.57028E-14-1.30234E-13
 -1       244 2.22058E+01-1.06628E-02-9.32060E-04-3.21881E-01 1.89420E-13-1.88116E-13
 -1       245 2.25450E+01-3.02224E-02-9.20268E-04-2.57669E-01-3.29025E-14-1.53214E-13
 -1       246 2.27731E+01-5.63881E-02-4.36247E-04-1.25637E-01-1.45017E-13-1.47178E-13
 -1       247 2.28146E+01-8.43037E-02 6.16150E-04 8.53956E-02-2.16813E-13-5.95999E-14
 -1       248 2.25982E+01-1.02517E-01 1.90774E-03 3.62495E-01 2.41708E-14 8.52582E-14
 -1       249 2.20897E+01-9.37970E-02 2.53160E-03 6.50921E-01 1.28787E-13-7.40384E-14
 -1       250 2.13349E+01-4.33145E-02 1.46455E-03 8.49345E-01 2.82244E-14-1.79736E-13
 -1       251 2.04906E+01 4.52263E-02-1.37694E-03 8.40194E-01-4.96443E-14-1.32398E-13
 -1       252 1.98039E+01 1.38670E-01-4.41100E-03 5.61351E-01-5.22607E-14 1.29246E-13
 -1       253 1.95181E+01 1.87905E-01-5.25953E-03 7.34654E-02 1.40355E-13 1.59999E-13
 -1       254 1.97456E+01 1.62452E-01-3.07448E-03-4.43358E-01 1.82738E-13-1.82698E-13
 -1       255 2.03988E+01 7.90182E-02 8.32386E-04-7.91362E-01 1.61193E-14-3.91293E-13
 -1       256 2.12433E+01-1.50223E-02 3.58910E-03-8.72756E-01 6.38334E-14-5.10651E-13
 -1       257 2.20254E+01-7.91032E-02 3.82027E-03-7.21851E-01-4.68586E-14-4.04127E-13
 -1       258 2.25750E+01-1.00748E-01 2.18911E-03-4.48893E-01-2.03990E-13-1.95311E-13
 -1       259 2.28346E+01-9.01732E-02 2.19992E-04-1.64039E-01 7.02368E-14-1.51713E-13
 -1       260 2.28325E+01-6.46219E-02-1.11765E-03 6.47575E-02-2.63158E-15-1.06521E-13
 -1       261 2.26385E+01-3.74693E-02-1.59639E-03 2.14545E-01-2.15984E-15-1.44113E-13
 -1       262 2.23297E+01-1.54922E-02-1.44830E-03 2.91372E-01 2.78579E-13-2.06823E-13
 -1       263 2.19710E+01-4.86501E-04-1.00382E-03 3.13414E-01 8.30624E-14-4.10520E-13
 -1       264 2.16092E+01 8.31520E-03-5.13573E-04 3.00167E-01-2.12857E-13-5.51616E-13
 -1       265 2.12733E+01 1.25274E-02-1.08340E-04 2.67597E-01 3.75063E-14-4.48348E-13
 -1       266 2.09787E+01 1.37372E-02 1.71685E-04 2.26972E-01 1.23085E-13-3.41171E-13
 -1       267 2.07307E+01 1.31914E-02 3.35513E-04 1.85393E-01-1.44444E-13-2.67588E-13
 -1       268 2.05288E+01 1.17610E-02 4.10698E-04 1.46828E-01-6.99712E-14-5.38672E-13
 -1       269 2.03690E+01 1.00118E-02 4.26002E-04 1.13105E-01 3.79376E-14-5.85448E-14
 -1       270 2.02460E+01 8.29637E-03 4.03012E-04 8.46774E-02-3.86537E-14 1.50634E-13
 -1       271 2.01541E+01 6.82945E-03 3.52364E-04 6.11511E-02-1.72749E-13-2.09838E-13
 -1       272 2.00880E+01 5.72338E-03 2.69489E-04 4.16461E-02 1.10503E-13-1.71315E-13
 -1       273 2.00435E+01 5.02987E-03 1.54353E-04 2.51221E-02 4.79302E-13-4.17465E-13
 -1       274 2.00168E+01 4.70149E-03 1.70390E-04 1.06887E-02 1.61090E-13-4.48640E-13
 -1       275 2.00038E+01 2.71089E-03 4.35842E-04-6.57899E-04-3.51326E-13-4.88800E-13
 -1       276 2.00054E+01 9.45427E-03 1.93004E-04 5.23350E-03-1.84507E-13 6.70155E-13
 -1       277 2.00055E+01 2.73882E-02 5.35846E-05 1.84710E-02-1.28378E-13 1.57810E-13
 -1       278 2.00034E+01 5.42721E-02 1.83389E-05 2.95038E-02-1.80423E-13 2.39846E-13
 -1       279 2.00007E+01 8.67206E-02-9.73502E-06 3.47326E-02 8.17612E-14 6.45064E-14
 -1       280 1.99981E+01 1.19299E-01-7.77645E-05 3.34844E-02-1.71379E-14-3.05425E-13
 -1       281 1.99959E+01 1.47879E-01-1.44836E-04 2.62169E-02-1.25000E-13 8.39159E-16
 -1       282 1.99944E+01 1.67178E-01-1.95456E-04 1.43401E-02-7.43526E-14-1.49847E-13
 -1       283 1.99939E+01 1.74047E-01-2.13883E-04-5.19219E-05-4.44389E-14-3.46451E-13
 -1       284 1.99944E+01 1.67313E-01-1.96450E-04-1.45136E-02-3.34115E-13 2.84606E-14
 -1       285 1.99958E+01 1.48005E-01-1.47049E-04-2.65511E-02-1.92021E-13 5.58771E-14
 -1       286 1.99981E+01 1.19794E-01-7.62435E-05-3.38619E-02-1.05348E-13 1.21889E-13
 -1       287 2.00008E+01 8.63350E-02-1.35973E-05-3.51086E-02 1.17192E-13-3.11519E-13
 -1       288 2.00036E+01 5.35553E-02 1.25244E-05-2.94965E-02-2.54071E-14 2.91017E-13
 -1       289 2.00057E+01 2.72342E-02 1.64612E-04-1.82491E-02-8.28153E-14 1.04537E-13
 -1       290 2.00097E+01 1.56393E-02 1.55949E-04-1.14868E-02-6.11394E-14 1.12885E-13
 -1       291-3.16885E-01-8.64188E+00-6.40430E-01 1.89289E+00 2.11844E-13 5.16032E-13
 -1       292 3.11089E+00-8.02074E+00-7.40164E-01 3.72733E+00 4.90025E-13 2.61666E-13
 -1       293 1.11988E+01-4.73547E+00-3.49878E-01 6.28140E+00 5.09759E-13 5.96856E-13
 -1       294 2.00169E+01-5.72523E-01-4.65154E-02 7.24782E+00 6.02185E-13 6.21836E-13
 -1       295 3.00749E+01 3.09554E+00 3.96270E-01 7.69412E+00 6.48995E-13 6.60638E-13
 -1       296 3.93021E+01 5.25565E+00 7.62134E-01 6.16953E+00 4.73529E-13 4.44339E-13
 -1       297 4.39688E+01 6.67556E+00 8.37087E-01 2.35476E+00 5.30131E-13 2.45720E-13
 -1       298 4.64109E+01 6.57097E+00 1.01300E+00-1.21142E+00 5.44884E-13-6.10623E-14
 -1       299 4.12455E+01 5.90498E+00 7.01540E-01-3.98545E+00 7.55548E-13-3.28237E-13
 -1       300 3.35231E+01 3.04136E+00 3.54085E-01-5.48784E+00 8.28955E-13-6.50424E-13
 -1       301 2.35161E+01 9.57521E-01 9.80775E-02-7.60607E+00 1.06296E-12-1.09424E-12
 -1       302 1.49431E+01-3.74035E+00-2.18612E-01-6.76645E+00 8.27255E-13-8.92078E-13
 -1       303 5.22713E+00-6.83495E+00-6.63380E-01-4.43036E+00 8.49598E-13-9.89528E-13
 -1       304 5.12427E-01-9.46059E+00-8.37738E-01-2.46884E+00 2.05141E-13-1.12532E-12
 -1       305-1.16752E+00-9.98472E+00-8.34471E-01-6.46553E-02-2.48477E-13-8.17846E-13
 -1       306 6.95021E-01-9.50470E+00-8.48292E-01 2.30730E+00-6.62581E-13-3.33067E-13
 -1       307 5.63589E+00-6.92148E+00-7.08702E-01 4.30211E+00-8.67278E-13-7.45072E-13
 -1       308 1.37979E+01-3.05541E+00-3.42814E-01 6.34388E+00-9.36085E-13-7.77156E-13
 -1       309 2.49790E+01-4.47022E-01 6.31422E-02 6.71481E+00-7.36355E-13-9.20986E-13
 -1       310 3.46819E+01 3.45803E+00 4.90561E-01 6.44174E+00-7.34759E-13-1.00747E-12
 -1       311 4.22698E+01 5.81449E+00 7.71087E-01 3.76621E+00-7.52967E-13-8.67834E-13
 -1       312 4.73277E+01 6.65259E+00 1.07824E+00 1.03737E+00-5.50587E-13-7.52912E-13
 -1       313 4.30713E+01 6.80820E+00 6.74288E-01-1.74633E+00-5.50782E-13-2.92336E-13
 -1       314 3.79244E+01 4.27090E+00 4.79511E-01-4.16525E+00-4.17402E-13-1.99452E-13
 -1       315 2.91341E+01 2.19203E+00 3.00069E-01-7.47078E+00-6.72684E-13 2.24765E-13
 -1       316 1.85724E+01-1.18576E+00-1.44347E-01-7.02734E+00-7.55868E-13 3.88800E-13
 -1       317 9.37947E+00-5.01503E+00-5.38195E-01-5.36416E+00-5.78593E-13 6.60721E-13
 -1       318 2.92022E+00-8.35136E+00-7.62112E-01-3.45606E+00-3.95906E-13 8.73461E-13
 -1       319-6.99847E-01-9.70586E+00-7.98228E-01-1.17148E+00-3.80113E-14 4.15529E-13
 -1       320 2.01481E+01 3.01780E+00-1.77726E-02-2.09397E+00-2.71987E-13-1.77488E-13
 -1       321 2.07432E+01 2.20903E+00-1.77552E-02-2.35003E+00-2.84051E-13 3.52079E-14
 -1       322 1.95970E+01 3.70640E+00-1.55482E-02-1.30194E+00-1.91206E-13-3.65368E-13
 -1       323 1.94759E+01 3.86821E+00-1.36107E-02-9.10170E-01-1.37923E-13-4.06527E-13
 -1       324 1.94066E+01 3.96350E+00-1.26044E-02-5.34870E-01-8.29351E-14-4.06535E-13
 -1       325 1.93756E+01 4.00713E+00-1.21770E-02-1.70095E-01-1.48509E-14-3.77197E-13
 -1       326 1.93768E+01 4.00550E+00-1.21964E-02 1.91268E-01 5.79397E-14-3.85883E-13
 -1       327 1.94104E+01 3.95831E+00-1.26551E-02 5.56370E-01 1.01463E-13-4.05164E-13
 -1       328 1.94813E+01 3.86086E+00-1.36846E-02 9.25660E-01 1.43639E-13-3.97653E-13
 -1       329 1.96070E+01 3.69300E+00-1.55928E-02 1.31674E+00 2.07815E-13-3.34342E-13
 -1       330 1.98187E+01 3.41824E+00-1.87816E-02 1.72115E+00 2.60415E-13-2.72901E-13
 -1       331 2.01811E+01 2.95806E+00-2.28563E-02 2.11072E+00 2.99851E-13-1.55567E-13
 -1       332 2.07367E+01 2.12892E+00-3.03569E-02 2.30869E+00 3.09080E-13 8.24653E-14
 -1       333 2.10722E+01 1.18694E+00-2.47939E-02 1.91168E+00 2.71970E-13 2.80794E-13
 -1       334 2.03761E+01 4.90676E-01 8.40980E-03 9.15655E-01 2.20412E-13 2.14540E-13
 -1       335 2.04513E+01 6.78366E-01 1.26251E-02-1.00994E+00-2.14020E-13 6.80534E-14
 -1       336 2.00400E+01 3.43711E-01 7.26482E-03-4.36013E-01-1.75392E-13 3.34817E-14
 -1       337 1.98013E+01 1.86960E-01 4.28996E-03-1.16777E-01-1.47380E-13 2.67753E-14
 -1       338 1.96873E+01 1.05845E-01 2.08958E-03 6.93831E-02-1.31094E-13 2.11979E-14
 -1       339 1.96618E+01 6.30076E-02 1.05486E-03 1.81797E-01-1.01759E-13-1.87621E-14
 -1       340 1.96977E+01 4.19904E-02 6.29661E-04 2.54078E-01-3.83697E-14-2.17091E-14
 -1       341 1.97775E+01 3.49683E-02 4.89789E-04 3.07070E-01 8.72254E-15-3.35696E-14
 -1       342 1.98915E+01 3.78069E-02 4.98493E-04 3.54786E-01-4.53045E-14-1.04348E-13
 -1       343 2.00353E+01 4.80719E-02 6.00368E-04 4.07296E-01-1.05342E-13-1.27108E-13
 -1       344 2.02087E+01 6.40536E-02 7.65204E-04 4.72107E-01-6.22138E-14-9.13962E-14
 -1       345 2.04143E+01 8.41012E-02 9.64120E-04 5.54657E-01 1.66539E-14-5.86112E-14
 -1       346 2.06564E+01 1.05920E-01 1.15612E-03 6.58103E-01 4.24358E-14-1.91339E-14
 -1       347 2.09402E+01 1.25595E-01 1.27439E-03 7.82303E-01 5.35216E-15-1.87305E-14
 -1       348 2.12710E+01 1.36159E-01 1.21073E-03 9.21700E-01-3.37034E-14-1.19718E-13
 -1       349 2.16531E+01 1.25633E-01 8.04257E-04 1.06175E+00-5.45107E-14-1.46290E-13
 -1       350 2.20890E+01 7.50182E-02-1.48010E-04 1.17366E+00-1.85282E-13-1.20965E-13
 -1       351 2.25793E+01-4.18762E-02-1.82355E-03 1.20798E+00-5.44546E-14-1.20886E-13
 -1       352 2.31192E+01-2.51830E-01-4.19287E-03 1.09022E+00 1.23829E-13 1.77011E-14
 -1       353 2.36911E+01-5.59757E-01-6.81797E-03 7.26814E-01 2.81160E-13-1.46316E-14
 -1       354 2.42433E+01-9.00893E-01-8.35512E-03 3.93882E-02 2.96613E-13-1.94436E-14
 -1       355 2.46566E+01-1.08158E+00-7.69636E-03-9.46996E-01 9.96733E-14 9.74852E-14
 -1       356 2.47427E+01-7.94949E-01-7.54370E-03-1.96346E+00-4.93299E-14 1.69292E-13
 -1       357 2.43694E+01 1.46473E-01-1.24389E-02-2.42728E+00-4.58427E-14 2.17133E-13
 -1       358 2.37459E+01 1.37405E+00-1.69299E-02-1.74032E+00-1.15372E-13 1.83657E-13
 -1       359 2.34146E+01 1.97662E+00-2.41101E-02 8.22322E-03-2.31801E-13 1.58487E-13
 -1       360 2.37413E+01 1.37842E+00-1.79040E-02 1.73824E+00-2.61659E-13 5.66068E-14
 -1       361 2.43750E+01 1.47569E-01-1.06005E-02 2.43190E+00 7.40484E-14-4.17258E-13
 -1       362 2.47489E+01-7.93739E-01-8.26180E-03 1.96798E+00-1.82801E-14-2.61507E-13
 -1       363 2.46663E+01-1.08007E+00-8.79126E-03 9.53296E-01-2.26575E-13-1.51508E-13
 -1       364 2.42573E+01-8.97132E-01-8.62519E-03-2.97340E-02 3.79731E-14-4.08109E-14
 -1       365 2.37116E+01-5.54670E-01-6.79314E-03-7.12128E-01-1.03674E-13 5.24166E-14
 -1       366 2.31482E+01-2.45466E-01-4.14085E-03-1.06923E+00 5.30364E-14-8.26097E-14
 -1       367 2.26197E+01-3.39977E-02-1.73566E-03-1.17915E+00 2.20182E-13-3.98272E-14
 -1       368 2.21442E+01 8.46616E-02-3.77421E-05-1.13523E+00 7.59065E-14-1.15245E-13
 -1       369 2.17269E+01 1.37287E-01 9.38491E-04-1.01175E+00-1.35482E-13-4.81352E-14
 -1       370 2.13681E+01 1.49997E-01 1.36954E-03-8.57992E-01 1.84297E-14-5.34409E-14
 -1       371 2.10656E+01 1.41657E-01 1.45719E-03-7.02724E-01-1.62676E-13-3.98797E-14
 -1       372 2.08154E+01 1.24033E-01 1.35990E-03-5.60685E-01-7.77071E-14 1.96121E-13
 -1       373 2.06122E+01 1.03763E-01 1.18189E-03-4.37966E-01-1.70755E-13 1.82433E-13
 -1       374 2.04500E+01 8.42751E-02 9.83979E-04-3.35763E-01-6.09484E-16 2.24411E-13
 -1       375 2.03228E+01 6.71544E-02 7.98259E-04-2.52722E-01 2.86446E-13-1.51312E-13
 -1       376 2.02247E+01 5.30125E-02 6.38818E-04-1.86300E-01 4.29384E-13 9.29334E-14
 -1       377 2.01505E+01 4.19634E-02 5.07663E-04-1.33533E-01 9.45227E-14 2.04937E-13
 -1       378 2.00954E+01 3.38408E-02 4.05516E-04-9.15061E-02-2.57384E-13 1.50420E-13
 -1       379 2.00554E+01 2.81535E-02 3.77005E-04-5.75800E-02 2.96978E-15 2.37061E-13
 -1       380 2.00291E+01 2.23070E-02 2.01948E-04-3.17746E-02 8.12068E-14 2.71478E-13
 -1       381 1.98851E+01 2.31793E-01 1.08708E-02 3.82934E-01 2.01055E-13 1.51871E-13
 -1       382 1.96114E+01 1.20912E-01 6.29528E-03 9.71714E-02 1.42527E-13 8.62943E-14
 -1       383 1.94978E+01 6.59383E-02 2.98614E-03-6.24547E-02 8.42957E-14 3.73548E-14
 -1       384 1.94877E+01 3.73815E-02 1.42886E-03-1.54624E-01 5.86776E-14-2.45946E-14
 -1       385 1.95446E+01 2.30108E-02 7.82682E-04-2.10611E-01 5.24304E-14-5.43906E-14
 -1       386 1.96467E+01 1.71708E-02 5.28323E-04-2.48461E-01 6.75219E-14-7.26005E-15
 -1       387 1.97819E+01 1.68601E-02 4.48466E-04-2.79439E-01 2.61163E-14 3.90763E-14
 -1       388 1.99447E+01 2.01461E-02 4.55373E-04-3.10850E-01-4.75428E-14 9.50638E-14
 -1       389 2.01335E+01 2.54592E-02 5.00341E-04-3.47196E-01 1.80357E-15 9.60033E-14
 -1       390 2.03495E+01 3.11690E-02 5.40447E-04-3.90485E-01 2.55203E-14 8.42465E-15
 -1       391 2.05943E+01 3.52331E-02 5.26767E-04-4.39972E-01 9.47042E-14-8.90091E-14
 -1       392 2.08690E+01 3.48601E-02 4.00540E-04-4.91419E-01 8.41324E-14-5.65749E-14
 -1       393 2.11719E+01 2.62264E-02 9.60669E-05-5.35950E-01 6.19827E-14 1.00712E-15
 -1       394 2.14960E+01 4.43937E-03-4.45912E-04-5.58711E-01 1.15898E-13 5.88033E-15
 -1       395 2.18271E+01-3.58366E-02-1.24885E-03-5.37943E-01 2.24530E-13-9.41670E-14
 -1       396 2.21402E+01-9.83578E-02-2.25083E-03-4.45806E-01-3.46294E-15-6.14802E-14
 -1       397 2.23984E+01-1.80944E-01-3.23247E-03-2.53294E-01-1.51434E-13-8.73355E-14
 -1       398 2.25521E+01-2.68632E-01-3.85517E-03 5.75080E-02-1.34979E-13-3.54638E-14
 -1       399 2.25454E+01-3.26646E-01-3.60877E-03 4.71818E-01-1.05038E-13-9.56626E-14
 -1       400 2.23314E+01-3.02519E-01-2.48684E-03 9.15507E-01 2.31941E-13 1.35822E-13
 -1       401 2.19053E+01-1.49126E-01-6.33714E-04 1.24334E+00 9.18097E-14 1.10334E-13
 -1       402 2.13452E+01 1.27228E-01 1.39415E-03 1.27425E+00-3.65000E-14 6.43409E-14
 -1       403 2.08284E+01 4.27486E-01 3.52398E-03 8.95797E-01-1.17123E-13 5.82436E-14
 -1       404 2.05677E+01 5.97294E-01 5.11441E-03 1.77325E-01 2.04202E-13-7.95795E-14
 -1       405 2.06892E+01 5.29922E-01 5.17813E-03-6.14184E-01 3.65791E-13 5.79944E-14
 -1       406 2.11356E+01 2.69308E-01 4.43374E-03-1.16453E+00 1.87021E-13-7.09051E-14
 -1       407 2.17104E+01-3.53604E-02 2.17980E-03-1.30814E+00 9.78253E-14-1.50835E-13
 -1       408 2.22092E+01-2.49586E-01-8.88410E-04-1.08946E+00-1.60902E-13 2.64979E-16
 -1       409 2.25136E+01-3.27541E-01-3.42945E-03-6.76196E-01-1.17057E-13-2.28158E-13
 -1       410 2.26016E+01-2.98620E-01-4.43673E-03-2.38455E-01 1.26676E-14-2.69692E-13
 -1       411 2.25101E+01-2.17689E-01-4.11436E-03 1.17703E-01-1.54784E-13-1.23258E-13
 -1       412 2.22961E+01-1.28831E-01-3.04814E-03 3.54716E-01 1.02619E-13-1.84407E-14
 -1       413 2.20139E+01-5.53149E-02-1.81290E-03 4.79499E-01 3.04192E-13-3.41333E-14
 -1       414 2.17063E+01-4.07819E-03-7.43180E-04 5.18256E-01 2.77452E-13-1.47004E-13
 -1       415 2.14032E+01 2.66964E-02 2.91497E-05 5.00190E-01-1.30638E-13-3.37807E-13
 -1       416 2.11236E+01 4.19748E-02 5.04700E-04 4.49890E-01-6.21510E-14-3.29476E-13
 -1       417 2.08772E+01 4.68911E-02 7.43542E-04 3.85194E-01-1.55420E-13-2.67584E-13
 -1       418 2.06679E+01 4.55977E-02 8.18881E-04 3.17693E-01-1.57069E-13 1.83056E-13
 -1       419 2.04953E+01 4.10636E-02 7.94622E-04 2.54124E-01 4.15032E-14 1.47172E-13
 -1       420 2.03567E+01 3.52532E-02 7.18757E-04 1.97809E-01-1.22591E-13-5.18429E-14
 -1       421 2.02479E+01 2.94023E-02 6.22549E-04 1.49821E-01-5.08778E-14 7.20482E-14
 -1       422 2.01648E+01 2.42558E-02 5.23495E-04 1.09825E-01-1.36277E-13 1.82446E-13
 -1       423 2.01031E+01 2.01937E-02 4.28358E-04 7.66844E-02 9.46271E-14 6.72657E-14
 -1       424 2.00588E+01 1.72330E-02 3.21463E-04 4.90442E-02 4.09883E-13 1.81782E-13
 -1       425 2.00286E+01 1.47851E-02 2.32235E-04 2.59345E-02 1.34556E-14 6.66985E-13
 -1       426 2.00153E+01 1.33495E-02 1.33422E-04 1.47150E-02-2.49765E-14 6.35527E-13
 -1       427 2.00076E+01 8.56733E-02 7.50875E-05 6.12254E-02-5.67154E-14 5.07381E-13
 -1       428 2.00167E+01 5.41991E-02 1.63683E-04 4.94278E-02-1.09678E-13 4.51940E-14
 -1       429 2.00185E+01 3.12387E-02 1.94259E-04 3.21615E-02-1.14614E-13 4.85039E-13
 -1       430 1.99974E+01 1.17333E-01-1.99934E-05 6.29988E-02-1.81568E-13-5.66114E-13
 -1       431 1.99878E+01 1.46365E-01-1.03613E-04 5.43627E-02-8.48344E-14-8.04481E-14
 -1       432 1.99806E+01 1.68411E-01-1.70737E-04 3.67510E-02-2.24094E-13 4.36059E-14
 -1       433 1.99766E+01 1.80497E-01-2.08133E-04 1.30902E-02-4.09948E-13-3.24337E-13
 -1       434 1.99764E+01 1.80915E-01-2.09301E-04-1.28084E-02-1.52813E-13-2.80558E-13
 -1       435 1.99803E+01 1.69523E-01-1.72587E-04-3.67690E-02-4.33141E-14 8.83053E-14
 -1       436 1.99874E+01 1.48268E-01-1.05073E-04-5.45674E-02-8.34843E-14 2.00119E-14
 -1       437 1.99973E+01 1.19228E-01-2.49801E-05-6.36628E-02 3.07314E-14 4.03275E-13
 -1       438 2.00080E+01 8.66131E-02 6.34240E-05-6.18614E-02 5.38063E-13-6.29793E-14
 -1       439 2.00176E+01 5.41511E-02 1.52687E-04-4.94982E-02 4.93387E-14-1.34944E-13
 -1       440 1.10631E+01-5.21798E+00 8.00527E-03 7.08668E+00 9.25648E-15 5.04000E-13
 -1       441 1.89121E+00-3.23455E+00 5.53688E-02 3.84743E-02 1.17158E-14 5.60441E-13
 -1       442 5.39736E+00-3.78100E+00 9.28875E-02 5.22191E+00-7.69940E-14 3.12833E-13
 -1       443 1.99963E+01-4.94749E+00-1.34412E-02 6.50211E+00 1.13021E-13 2.84550E-13
 -1       444 2.74158E+01-2.25413E+00 1.98005E-02 4.35846E+00 2.40377E-13-4.08701E-14
 -1       445 1.98136E+01 3.43935E+00-1.76172E-02-1.72066E+00-2.39027E-13-3.03623E-13
 -1       446 3.49662E+01 5.57605E+00 5.43048E-02 1.41292E-01 3.66138E-13 2.54088E-13
 -1       447 3.54919E+01 8.12044E+00 6.14302E-02-8.26998E-02 6.37268E-13 4.00045E-13
 -1       448 3.53554E+01 7.24938E+00 4.45166E-02 1.82556E-01 7.22394E-13 3.34142E-13
 -1       449 3.26527E+01 3.19435E+00-5.00482E-02 3.25223E-01 8.10754E-13 2.54463E-13
 -1       450 2.88393E+01-2.17636E+00-3.96317E-02-2.86753E+00 4.34382E-13-1.35073E-13
 -1       451 2.36555E+01-4.87522E+00 2.97766E-02-5.42337E+00 2.50328E-13-1.98459E-13
 -1       452 1.33267E+01-5.51185E+00-4.98453E-02-7.21228E+00 1.29591E-13-7.66645E-13
 -1       453 6.66954E+00-5.15629E+00-4.79849E-02-6.03915E+00-3.50692E-14-9.73222E-13
 -1       454 2.17164E+00-3.90849E+00-9.68630E-05-2.52949E+00 1.35864E-14-1.09454E-12
 -1       455 1.85140E+00-4.63871E+00-7.65456E-02 2.38892E+00 9.29742E-14-4.74606E-13
 -1       456 7.18211E+00-5.20029E+00-3.86369E-02 5.96121E+00-6.33521E-14-4.16583E-13
 -1       457 1.50437E+01-5.73660E+00-1.72091E-02 6.94049E+00-8.93452E-14-3.51800E-13
 -1       458 2.25020E+01-5.14565E+00-4.33933E-02 5.65502E+00-1.60982E-13-3.99694E-13
 -1       459 3.05959E+01-1.58470E+00 9.26623E-03 2.06524E+00-2.53485E-13-3.15539E-13
 -1       460 3.41195E+01 2.85437E+00 1.04765E-02 8.52039E-02-5.01675E-13-2.68716E-13
 -1       461 3.63050E+01 7.01517E+00 7.48314E-02-3.37881E-01-6.37074E-13-3.49012E-13
 -1       462 3.59053E+01 7.99948E+00 7.67504E-02 1.55517E-01-6.97525E-13-3.94650E-13
 -1       463 3.39282E+01 4.86092E+00-6.40800E-02 1.07244E+00-2.85147E-13-4.80144E-13
 -1       464 3.18264E+01-2.84071E-01-2.09260E-02-1.19886E+00-3.99931E-13-4.80727E-13
 -1       465 2.74597E+01-3.36805E+00 1.36683E-02-3.97870E+00-4.24008E-13-3.52010E-13
 -1       466 1.92785E+01-5.56274E+00-2.45861E-02-6.46291E+00-9.29395E-14 4.43326E-14
 -1       467 1.07581E+01-5.65257E+00-4.87019E-02-6.73064E+00 1.09329E-13 5.32449E-13
 -1       468 4.15442E+00-4.55060E+00-2.30773E-02-4.41937E+00-5.98271E-14 6.47635E-13
 -1       469 3.22542E+01 1.44625E+00 2.38273E-02 1.38095E+00 2.02886E-13-2.70201E-14
 -1       470 2.03750E+01 8.39050E-01 4.04570E-03 9.49899E-01 2.23376E-13-3.20059E-14
 -1       471 1.97435E+01 3.13866E+00-5.31241E-03-6.17791E-01-9.52335E-14-3.66033E-13
 -1       472 1.98418E+01 2.95799E+00-5.70320E-03-9.28337E-01-1.48416E-13-3.42920E-13
 -1       473 1.96733E+01 3.26751E+00-4.97647E-03 8.78652E-03 8.87318E-15-3.20578E-13
 -1       474 1.96924E+01 3.23278E+00-5.06175E-03 3.21843E-01 8.30153E-14-3.57698E-13
 -1       475 1.97475E+01 3.13143E+00-5.39687E-03 6.29926E-01 1.15208E-13-3.87258E-13
 -1       476 1.98476E+01 2.94657E+00-5.94950E-03 9.40197E-01 1.72886E-13-3.21006E-13
 -1       477 2.00030E+01 2.65325E+00-6.51320E-03 1.23315E+00 2.17461E-13-2.70595E-13
 -1       478 2.02414E+01 2.19922E+00-5.67819E-03 1.47855E+00 2.57713E-13-1.95563E-13
 -1       479 2.01236E+01 4.65853E-01 5.12290E-03 4.33147E-01 2.12178E-13-3.27835E-14
 -1       480 2.03515E+01 9.84310E-01 2.81368E-03-9.13431E-01-2.02231E-13-9.14021E-14
 -1       481 3.03806E+01 2.60804E+00-1.23182E-01-1.50395E+00 1.62502E-13 2.22822E-13
 -1       482 2.01889E+01 5.64232E-01 2.37185E-03-4.29640E-01-1.62411E-13-8.13856E-14
 -1       483 2.00547E+01 3.31775E-01 1.16740E-03-1.11484E-01-1.46863E-13-8.77659E-14
 -1       484 1.99722E+01 2.01505E-01 5.63001E-04 9.40324E-02-1.30454E-13-7.30093E-14
 -1       485 1.99378E+01 1.30034E-01 2.91369E-04 2.29488E-01-9.51720E-14-6.72352E-14
 -1       486 1.99425E+01 9.58574E-02 1.97230E-04 3.24697E-01-6.93398E-14-1.00440E-13
 -1       487 1.99781E+01 8.72288E-02 1.84839E-04 4.00715E-01-5.10610E-14-1.81582E-13
 -1       488 2.00386E+01 9.72361E-02 2.17998E-04 4.72838E-01-9.74064E-14-1.57590E-13
 -1       489 2.01204E+01 1.21323E-01 2.83165E-04 5.52441E-01-3.72494E-14-1.23658E-13
 -1       490 2.02218E+01 1.55805E-01 3.70431E-04 6.47946E-01 2.67075E-14-1.10066E-14
 -1       491 2.03426E+01 1.96614E-01 4.67276E-04 7.65121E-01 6.35744E-14 8.03986E-15
 -1       492 2.04842E+01 2.37816E-01 5.53506E-04 9.06704E-01 1.88930E-14-7.94196E-15
 -1       493 2.06496E+01 2.69551E-01 5.94410E-04 1.07124E+00-1.06476E-13 9.03001E-15
 -1       494 2.08450E+01 2.75169E-01 5.31963E-04 1.25094E+00-1.13036E-13-8.37546E-14
 -1       495 2.10834E+01 2.27684E-01 2.78366E-04 1.42817E+00-9.37815E-14-6.84452E-14
 -1       496 2.13888E+01 8.69452E-02-2.77099E-04 1.57023E+00-6.28043E-14 3.79921E-14
 -1       497 2.18031E+01-1.97989E-01-1.21990E-03 1.62208E+00 8.12317E-15 5.40008E-14
 -1       498 2.23872E+01-6.70614E-01-2.44514E-03 1.49796E+00 1.58214E-13-2.67666E-14
 -1       499 2.32022E+01-1.31391E+00-4.04702E-03 1.07826E+00 3.34985E-13-1.18303E-13
 -1       500 2.42488E+01-1.94368E+00-4.80093E-03 2.37095E-01 3.12402E-13 1.53241E-15
 -1       501 2.53427E+01-2.08413E+00-7.63224E-03-1.03358E+00 9.55273E-14 1.75389E-13
 -1       502 2.60251E+01-1.04948E+00-3.35472E-02-2.34262E+00-7.58057E-14 1.93306E-13
 -1       503 2.59675E+01 1.30076E+00-6.40548E-02-2.68902E+00-9.56596E-14 6.76924E-14
 -1       504 2.55525E+01 3.48215E+00-7.94714E-02-1.24123E+00-2.43163E-13 5.20576E-14
 -1       505 2.53543E+01 3.60596E+00-1.15793E-01 1.26624E+00-4.63796E-13-7.85210E-14
 -1       506 2.59898E+01 1.29384E+00-5.74979E-02 2.70536E+00-3.37128E-13-2.10846E-13
 -1       507 2.60333E+01-1.05457E+00-3.10074E-02 2.34505E+00 4.54528E-14-3.84383E-13
 -1       508 2.53447E+01-2.08395E+00-1.17270E-02 1.04275E+00 1.08543E-14-4.97167E-13
 -1       509 2.42546E+01-1.93579E+00-5.49492E-03-2.26346E-01 4.18371E-14-2.98826E-13
 -1       510 2.32143E+01-1.30433E+00-3.74100E-03-1.06185E+00-1.94432E-14-4.12015E-13
 -1       511 2.24040E+01-6.58362E-01-2.41480E-03-1.47411E+00 3.76174E-14-2.08570E-13
 -1       512 2.18268E+01-1.82948E-01-1.16597E-03-1.58913E+00 1.69736E-13-7.67098E-14
 -1       513 2.14208E+01 1.05212E-01-2.28401E-04-1.52633E+00-4.26018E-14-1.08279E-13
 -1       514 2.11254E+01 2.49672E-01 3.32881E-04-1.37116E+00 5.31785E-14-1.23058E-13
 -1       515 2.08991E+01 3.01235E-01 5.94892E-04-1.17844E+00-1.22119E-13-6.67407E-14
 -1       516 2.07178E+01 2.99786E-01 6.67160E-04-9.80883E-01-1.92948E-13-1.81172E-13
 -1       517 2.05686E+01 2.71900E-01 6.36636E-04-7.96384E-01-6.46152E-14-9.47229E-14
 -1       518 2.04449E+01 2.33590E-01 5.59540E-04-6.33419E-01-6.30946E-14-1.00260E-13
 -1       519 2.03426E+01 1.93759E-01 4.68299E-04-4.94739E-01-2.99915E-14-3.03223E-15
 -1       520 2.02589E+01 1.56953E-01 3.79942E-04-3.79822E-01-4.12270E-14 1.39431E-13
 -1       521 2.01913E+01 1.25231E-01 3.03694E-04-2.86419E-01 3.28847E-13 1.25356E-13
 -1       522 2.01375E+01 9.93158E-02 2.43374E-04-2.11486E-01 1.98388E-13-1.13277E-13
 -1       523 2.00950E+01 7.90827E-02 1.94558E-04-1.51780E-01-1.22766E-13-2.67614E-13
 -1       524 2.00618E+01 6.39850E-02 1.78119E-04-1.04258E-01-5.31157E-14-1.62872E-13
 -1       525 1.10226E+01-3.20583E+00 1.38101E-01 6.35606E+00-2.26368E-13 3.31381E-13
 -1       526 1.98557E+01 1.55531E-01 1.14878E-03-8.37661E-02 1.29416E-13-7.96579E-14
 -1       527 1.98250E+01 9.54766E-02 5.40773E-04-2.08849E-01 6.66027E-14-9.52786E-14
 -1       528 1.98425E+01 6.50708E-02 3.15468E-04-2.92109E-01 4.20826E-14-1.35679E-13
 -1       529 1.98962E+01 5.35492E-02 2.40436E-04-3.53866E-01-2.51176E-14-5.94812E-14
 -1       530 1.99785E+01 5.44257E-02 2.36979E-04-4.07758E-01 2.05517E-16-2.48759E-14
 -1       531 2.00850E+01 6.30376E-02 2.68655E-04-4.62767E-01-7.30066E-15-6.93023E-14
 -1       532 2.02142E+01 7.51979E-02 3.10493E-04-5.24152E-01 6.73934E-14-6.12508E-14
 -1       533 2.03663E+01 8.62762E-02 3.35692E-04-5.93577E-01 6.15709E-14-3.44450E-14
 -1       534 2.05426E+01 9.03976E-02 3.11231E-04-6.68637E-01 6.15473E-14-3.42239E-14
 -1       535 2.07453E+01 7.97244E-02 1.96007E-04-7.41836E-01 3.62487E-14-2.57525E-14
 -1       536 2.09767E+01 4.40576E-02-5.64005E-05-7.99154E-01 5.03728E-14 7.19745E-14
 -1       537 2.12384E+01-2.86194E-02-4.89068E-04-8.18529E-01 1.43931E-13 4.99858E-14
 -1       538 2.15309E+01-1.49469E-01-1.12214E-03-7.69127E-01 1.13615E-13 2.54429E-13
 -1       539 2.18497E+01-3.22143E-01-1.90264E-03-6.13111E-01-5.44360E-14 2.34367E-13
 -1       540 2.21799E+01-5.30191E-01-2.57492E-03-3.13226E-01-1.23819E-13 9.59624E-14
 -1       541 2.24860E+01-7.19992E-01-2.90055E-03 1.48915E-01-1.59853E-13 1.35199E-13
 -1       542 2.27029E+01-7.87743E-01-2.11449E-03 7.39679E-01-1.08452E-13-1.51321E-14
 -1       543 2.27422E+01-6.01653E-01-1.52330E-03 1.33120E+00 1.21137E-13 2.08177E-13
 -1       544 2.25434E+01-8.24048E-02-1.21135E-03 1.68468E+00 9.81271E-14 2.97085E-13
 -1       545 2.21615E+01 6.61256E-01-4.84724E-04 1.52703E+00 3.76977E-14 7.31255E-14
 -1       546 2.18117E+01 1.29042E+00 2.24479E-03 7.72240E-01 1.06844E-13-9.79979E-14
 -1       547 2.17397E+01 1.41576E+00-7.43769E-05-3.36445E-01 3.22853E-13-1.35194E-13
 -1       548 2.20012E+01 9.58396E-01-4.45922E-05-1.28928E+00 2.84757E-13-1.63298E-13
 -1       549 2.24043E+01 2.12695E-01 4.99755E-04-1.69858E+00 6.61092E-14-1.39869E-13
 -1       550 2.26964E+01-4.25158E-01-3.12089E-04-1.52767E+00-4.36118E-14-1.21993E-13
 -1       551 2.27551E+01-7.45953E-01-2.28377E-03-1.00369E+00-3.97489E-14-2.23752E-13
 -1       552 2.26049E+01-7.65231E-01-3.19302E-03-3.94930E-01-7.82318E-14-1.44899E-13
 -1       553 2.23314E+01-6.08040E-01-3.10470E-03 1.22720E-01-1.83999E-13 1.61970E-13
 -1       554 2.20127E+01-3.95588E-01-2.36027E-03 4.81388E-01-2.41602E-14 1.10237E-13
 -1       555 2.16962E+01-2.01732E-01-1.46842E-03 6.82864E-01 3.32097E-13 1.30213E-13
 -1       556 2.14044E+01-5.61091E-02-6.75913E-04 7.59511E-01 2.58808E-13 4.25338E-14
 -1       557 2.11454E+01 3.85157E-02-9.25336E-05 7.50189E-01 2.05505E-13 1.47027E-13
 -1       558 2.09205E+01 9.12363E-02 2.75612E-04 6.88990E-01-5.93232E-14 8.13043E-14
 -1       559 2.07285E+01 1.14000E-01 4.68902E-04 6.01685E-01-1.32042E-13 9.34952E-14
 -1       560 2.05671E+01 1.17508E-01 5.39770E-04 5.05873E-01-4.23965E-13 9.37086E-14
 -1       561 2.04334E+01 1.09943E-01 5.34373E-04 4.12484E-01 2.14551E-14 8.82963E-14
 -1       562 2.03246E+01 9.70074E-02 4.87448E-04 3.27537E-01-5.46900E-14 1.62024E-13
 -1       563 2.02374E+01 8.24293E-02 4.23351E-04 2.53674E-01-6.52816E-14 2.44279E-13
 -1       564 2.01686E+01 6.85380E-02 3.54790E-04 1.91340E-01-1.91115E-13 1.51560E-13
 -1       565 2.01152E+01 5.66365E-02 3.07075E-04 1.39684E-01-1.44687E-13 7.65636E-14
 -1       566 2.00743E+01 4.73136E-02 3.07675E-04 9.72682E-02 1.12149E-13 2.55765E-13
 -1       567 2.00432E+01 3.97889E-02 2.55353E-04 6.22785E-02-2.17386E-15 4.21723E-13
 -1       568 1.99826E+01 1.52519E-01-3.25819E-05 8.64799E-02 6.58789E-14-1.49666E-13
 -1       569 1.99648E+01 1.80518E-01-6.17855E-05 6.65547E-02 3.25647E-14-1.44294E-13
 -1       570 2.00239E+01 8.23415E-02 1.42854E-06 8.63374E-02-1.23643E-14 4.90339E-13
 -1       571 2.00035E+01 1.18621E-01-4.61918E-06 9.33171E-02-1.58018E-13-3.23215E-13
 -1       572 1.99528E+01 1.99192E-01-8.65124E-05 3.64850E-02-4.13663E-13-1.79683E-14
 -1       573 1.99484E+01 2.06321E-01-9.67155E-05 7.43686E-04-1.47539E-13-1.39315E-13
 -1       574 1.99522E+01 2.00943E-01-8.83582E-05-3.53344E-02 4.43689E-14 9.65154E-14
 -1       575 1.99637E+01 1.83942E-01-6.32713E-05-6.57942E-02 6.52404E-14-6.90843E-14
 -1       576 1.99817E+01 1.56530E-01-4.42454E-05-8.68530E-02 1.92392E-13 2.36016E-13
 -1       577 2.00032E+01 1.22127E-01-3.24634E-05-9.45032E-02 1.02151E-13-1.85240E-14
 -1       578 2.00246E+01 8.49576E-02 7.80430E-05-8.74447E-02-4.47221E-14-1.13010E-13
 -1       579 5.88473E+00-1.41200E+00 1.74811E-01-2.80569E+00 2.09669E-13 5.17433E-13
 -1       580 1.99507E+01 2.65113E-01 2.55757E-03 1.14106E-01 1.34662E-13-6.16295E-14
 -1       581 1.86639E+01-5.26145E+00 8.25526E-02 6.54085E+00-2.77445E-13-7.84806E-14
 -1       582 1.11140E+01-3.26401E+00 1.56542E-01-6.09036E+00 1.31936E-13 3.47430E-13
 -1       583 2.04007E+01 1.76253E+00-5.97140E-03-1.51622E+00-2.47876E-13-1.33225E-13
 -1       584 2.53010E+01-4.88575E+00 5.35073E-03 3.89653E+00-9.72694E-14-4.34708E-13
 -1       585 3.01821E+01 5.96451E+00-1.88099E-01 1.36750E+00-4.63823E-13-2.36221E-13
 -1       586 3.04792E+01 4.12380E+00-1.55834E-01-2.19356E+00-3.33344E-13 3.88578E-14
 -1       587 1.38321E+01-4.41742E+00 1.15214E-01 6.65100E+00 1.97752E-13-1.92422E-13
 -1       588 2.97539E+01 5.06049E+00-1.63281E-01 1.63607E+00 8.11393E-13 4.07237E-13
 -1       589 1.96897E+01 3.23733E+00-5.05520E-03-3.04293E-01-4.26467E-14-3.45780E-13
 -1       590 3.00196E+01 6.41483E+00-1.70031E-01-1.27602E+00 3.79335E-13 2.99174E-13
 -1       591 2.92187E+01-8.20194E-01-9.23099E-02 6.22742E-01 4.20830E-13 4.78458E-13
 -1       592 2.98995E+01 7.08040E+00-1.80051E-01 6.67321E-01 7.38631E-13 4.96204E-13
 -1       593 4.71532E+00-1.15648E+00 1.78870E-01 3.65528E-01 1.58940E-13-6.12635E-13
 -1       594 2.66453E+01-4.29646E+00-3.17912E-02-2.24038E+00-7.19546E-14 1.40464E-13
 -1       595 1.96848E+01-5.28653E+00 5.86159E-02-6.19240E+00-1.39395E-13-2.40388E-13
 -1       596 1.25684E+01-4.16274E+00 1.18725E-01-6.86843E+00-2.50293E-13-8.52339E-13
 -1       597 3.04420E+01-5.09704E-01-9.58693E-02-1.31107E+00-2.34444E-13-3.14609E-14
 -1       598 6.92866E+00-2.31370E+00 1.60884E-01-4.76304E+00-1.27884E-13-1.01449E-12
 -1       599 7.35076E+00-2.29115E+00 1.62485E-01 4.55528E+00 2.40336E-13-4.51680E-13
 -1       600 2.08562E+01-5.69828E+00 4.77770E-02 5.74176E+00 2.16827E-13-1.02423E-13
 -1       601 3.04491E+01 8.95185E-01-1.30015E-01 1.89480E+00-4.32633E-13-9.94135E-14
 -1       602 2.72557E+01-4.67197E+00-2.35083E-02 2.43556E+00 9.81472E-14-1.83159E-13
 -1       603 3.01502E+01 6.52448E+00-1.67804E-01-1.02084E+00-5.06650E-13-3.74631E-14
 -1       604 1.69746E+01-5.11129E+00 8.18020E-02-6.50295E+00 2.00152E-13 2.26156E-13
 -1       605 2.88913E+01-3.38230E+00-5.85102E-02-7.03583E-01-3.61657E-13-2.30448E-13
 -1       606 2.47496E+01-5.49631E+00 2.01115E-02-4.06204E+00-1.33477E-13-3.54789E-13
 -1       607 6.13473E+00-1.03697E+00 1.88656E-01 2.69319E+00-1.09635E-15 3.62904E-13
 -1       608 2.05792E+01 1.30810E+00-9.70547E-04 1.53124E+00 2.67047E-13 7.45411E-15
 -1       609 2.88785E+01-2.35661E+00-7.49330E-02 9.47025E-01-4.69503E-14-6.32064E-14
 -1       610 1.99853E+01 2.66870E+00-9.76230E-03-1.21534E+00-1.95045E-13-3.04675E-13
 -1       611 2.00435E+01 5.52973E-02 1.74978E-04-7.68883E-02 1.48157E-14-2.34269E-13
 -1       612 2.85193E+01 3.03806E+00-1.36301E-01 2.59883E+00-4.69506E-13-5.09141E-14
 -1       613 2.37246E+01-5.05639E+00 4.07254E-02-3.90361E+00-2.32488E-13 1.93440E-13
 -1       614 2.80775E+01 1.61356E+00-1.15005E-01 2.07728E+00 5.53196E-13 4.69669E-13
 -1       615 1.99621E+01 2.50318E+00-1.57087E-03 3.77096E-01 7.08808E-14-3.48579E-13
 -1       616 1.99277E+01 2.58270E+00-1.49493E-03 1.29673E-01 2.50619E-14-2.84195E-13
 -1       617 2.01302E+01 2.08153E+00-1.60746E-03 8.18984E-01 1.78749E-13-2.37266E-13
 -1       618 2.02499E+01 1.70045E+00-2.22091E-03 9.60363E-01 2.09179E-13-2.14250E-13
 -1       619 2.03307E+01 1.05537E+00 2.93662E-03 7.98265E-01 2.03756E-13-1.48677E-13
 -1       620 2.31027E+01-5.00977E+00 3.25306E-02 4.14112E+00-1.56666E-13-2.08270E-13
 -1       621 2.02246E+01 6.42562E-01 1.10608E-03 3.72808E-01 1.69702E-13-1.07376E-13
 -1       622 2.76034E+01 3.68577E+00-1.30183E-01-2.16921E+00 2.07084E-13-9.77482E-14
 -1       623 2.20829E+01-4.94894E+00 5.17294E-02-4.46209E+00 7.48707E-15-2.19895E-13
 -1       624 2.02595E+01 7.13445E-01 4.61051E-04-3.39979E-01-1.63745E-13-1.96759E-13
 -1       625 2.01947E+01 4.47829E-01 2.52709E-04-6.21178E-02-1.22424E-13-1.69084E-13
 -1       626 2.01391E+01 2.89481E-01 1.14171E-04 1.31445E-01-1.11712E-13-1.35727E-13
 -1       627 2.01007E+01 2.01824E-01 5.39871E-05 2.68834E-01-9.19127E-14-1.29012E-13
 -1       628 2.00800E+01 1.62933E-01 4.72830E-05 3.73016E-01-1.00235E-13-1.39744E-13
 -1       629 2.00741E+01 1.59418E-01 5.50602E-05 4.62176E-01-2.49373E-14-1.34017E-13
 -1       630 2.00797E+01 1.82433E-01 7.33892E-05 5.50423E-01-3.70343E-14-5.84708E-14
 -1       631 2.00935E+01 2.25407E-01 1.00385E-04 6.48537E-01 9.20202E-15-8.90220E-14
 -1       632 2.01126E+01 2.82325E-01 1.33987E-04 7.64520E-01-4.94501E-15-1.18976E-13
 -1       633 2.01349E+01 3.45946E-01 1.71045E-04 9.03817E-01 1.53997E-14-1.74446E-13
 -1       634 2.01599E+01 4.05569E-01 2.06435E-04 1.06917E+00-4.89573E-14-2.04687E-13
 -1       635 2.01906E+01 4.43984E-01 2.29489E-04 1.26011E+00-5.31618E-14-8.48800E-14
 -1       636 2.02377E+01 4.33363E-01 2.19457E-04 1.47204E+00-1.03229E-13 8.05318E-15
 -1       637 2.03263E+01 3.30356E-01 1.49175E-04 1.69446E+00-5.25838E-14-4.18467E-14
 -1       638 2.05071E+01 7.24766E-02 1.66748E-05 1.90681E+00 1.95685E-14-3.68718E-14
 -1       639 2.08704E+01-4.17817E-01-6.44044E-05 2.06881E+00 1.04728E-13 2.69207E-14
 -1       640 2.15584E+01-1.20624E+00 7.26946E-04 2.09819E+00 1.95685E-13 4.35602E-14
 -1       641 2.27379E+01-2.25107E+00 6.30775E-04 1.82555E+00 3.32923E-13-6.74266E-14
 -1       642 2.45983E+01-3.23694E+00 5.29769E-03 9.70323E-01 3.45202E-13-1.91929E-13
 -1       643 2.65515E+01-3.14901E+00-4.38846E-02-6.08464E-01 1.59410E-13 8.42972E-14
 -1       644 2.79638E+01 3.50761E+00-1.34132E-01-2.42210E+00-2.78604E-13 1.29181E-13
 -1       645 2.65527E+01-3.17883E+00-3.64451E-02 5.92664E-01-5.26590E-14-8.97069E-14
 -1       646 2.45274E+01-3.17750E+00 1.04120E-02-9.70873E-01 8.28785E-14-2.58239E-13
 -1       647 2.27621E+01-2.23154E+00 1.72160E-03-1.79310E+00-6.86203E-14-4.04491E-13
 -1       648 2.15886E+01-1.18682E+00 6.80159E-04-2.06088E+00 1.14089E-13-2.40592E-13
 -1       649 2.09022E+01-3.97913E-01-1.31377E-05-2.02896E+00 1.87392E-13-2.73581E-13
 -1       650 2.05387E+01 9.58377E-02 2.92732E-05-1.85995E+00 9.76644E-14-5.08882E-13
 -1       651 2.03576E+01 3.58739E-01 1.73259E-04-1.63671E+00-6.50171E-14-5.10311E-13
 -1       652 2.02691E+01 4.67765E-01 2.50320E-04-1.40006E+00-1.54111E-13-3.07364E-13
 -1       653 2.02224E+01 4.84798E-01 2.62845E-04-1.17101E+00 6.49452E-15-1.58724E-13
 -1       654 2.01922E+01 4.52490E-01 2.42136E-04-9.60639E-01-1.15961E-13 3.14931E-14
 -1       655 2.01673E+01 3.97707E-01 2.08642E-04-7.74409E-01-1.45309E-13 2.06569E-14
 -1       656 2.01439E+01 3.36231E-01 1.72436E-04-6.14163E-01-3.63691E-14 9.22541E-14
 -1       657 2.01211E+01 2.76707E-01 1.38067E-04-4.79417E-01-4.03520E-14 2.00685E-13
 -1       658 2.00995E+01 2.23461E-01 1.07283E-04-3.68258E-01 1.75265E-13 7.61129E-14
 -1       659 2.00794E+01 1.78346E-01 8.19590E-05-2.77985E-01 1.49058E-13-6.65063E-14
 -1       660 2.00613E+01 1.41794E-01 8.73452E-05-2.05489E-01-1.69173E-15-2.56195E-13
 -1       661 2.00449E+01 1.13241E-01 6.06085E-05-1.47807E-01-1.51143E-13-2.32852E-13
 -1       662 8.33064E+00-1.64901E-01 1.57731E-01-2.30355E+00-2.31412E-15-7.58026E-13
 -1       663 2.46659E+01-5.16746E+00 2.39121E-02 3.16539E+00 3.77740E-13-2.18070E-13
 -1       664 2.00699E+01 2.46828E-01 3.06174E-04-1.15838E-01 8.77490E-14-7.26233E-14
 -1       665 2.00415E+01 1.08086E-01 8.37563E-05-4.26722E-01-3.53583E-14-7.04913E-14
 -1       666 2.00751E+01 1.13452E-01 9.30018E-05-4.98741E-01-1.80725E-14-6.81891E-14
 -1       667 2.01258E+01 1.29779E-01 1.09764E-04-5.73602E-01 4.86502E-14-5.11739E-14
 -1       668 2.01931E+01 1.49528E-01 1.26706E-04-6.56382E-01 6.00475E-14-1.07893E-13
 -1       669 2.02785E+01 1.63963E-01 1.33923E-04-7.48259E-01 5.32942E-14-3.62401E-14
 -1       670 2.03858E+01 1.61919E-01 1.18796E-04-8.45956E-01-2.55076E-14 1.18545E-14
 -1       671 2.05222E+01 1.28782E-01 6.43830E-05-9.40675E-01-3.93002E-14 2.09547E-14
 -1       672 2.06990E+01 4.62158E-02-4.89411E-05-1.01652E+00 8.75503E-14 8.75747E-14
 -1       673 2.09327E+01-1.06136E-01-2.47955E-04-1.04860E+00 2.56826E-14 1.99498E-13
 -1       674 2.12441E+01-3.44885E-01-5.71222E-04-1.00120E+00 1.01186E-15 3.07921E-13
 -1       675 2.16529E+01-6.69568E-01-1.00121E-03-8.27475E-01-5.79071E-14 2.64757E-13
 -1       676 2.21630E+01-1.03759E+00-1.16788E-03-4.74885E-01-1.02032E-13 1.56539E-13
 -1       677 2.27367E+01-1.33363E+00-1.53771E-03 9.35642E-02-7.03956E-14 2.05420E-13
 -1       678 2.32630E+01-1.34284E+00-1.78853E-04 8.44559E-01-2.64793E-14 2.17186E-13
 -1       679 2.35537E+01-8.13503E-01-4.23851E-03 1.60435E+00 1.38782E-13 1.37917E-13
 -1       680 2.34511E+01 3.09186E-01 9.75015E-04 1.97344E+00 1.06740E-13 2.07045E-13
 -1       681 2.30373E+01 1.73093E+00-1.29231E-02 1.56541E+00 2.26054E-13 2.03715E-13
 -1       682 2.28024E+01 2.54761E+00-1.59710E-02 3.03850E-01 3.28560E-13-2.41062E-15
 -1       683 2.29307E+01 2.18434E+00-1.68004E-02-1.11389E+00 2.83097E-13-1.14255E-13
 -1       684 2.33171E+01 9.31766E-01-1.16153E-02-1.91485E+00 1.32291E-13-4.06973E-14
 -1       685 2.35664E+01-4.01726E-01-3.05886E-03-1.83251E+00 8.13589E-14-1.25835E-13
 -1       686 2.34233E+01-1.19288E+00-2.12056E-03-1.18473E+00-8.11587E-14-1.23183E-13
 -1       687 2.29752E+01-1.37644E+00-1.61651E-03-4.00709E-01-1.23179E-13 4.54226E-14
 -1       688 2.24058E+01-1.16491E+00-1.52072E-03 2.47724E-01-9.94997E-14 6.45375E-14
 -1       689 2.18648E+01-8.03445E-01-1.09281E-03 6.78328E-01-1.77606E-13-2.28197E-13
 -1       690 2.14177E+01-4.48225E-01-7.20446E-04 9.09183E-01 1.08219E-13-2.21550E-13
 -1       691 2.10738E+01-1.67894E-01-3.79493E-04 9.90036E-01 4.29741E-13 1.40487E-14
 -1       692 2.08175E+01 2.34747E-02-1.22331E-04 9.71118E-01 1.78120E-13-1.02858E-13
 -1       693 2.06271E+01 1.37507E-01 4.44527E-05 8.92791E-01 7.25813E-14 6.14491E-14
 -1       694 2.04841E+01 1.93688E-01 1.35596E-04 7.84313E-01-7.06841E-14 9.20961E-15
 -1       695 2.03746E+01 2.10867E-01 1.75288E-04 6.65513E-01-3.52246E-13 8.90906E-15
 -1       696 2.02893E+01 2.04197E-01 1.82841E-04 5.48942E-01-2.19040E-13 1.20311E-13
 -1       697 2.02219E+01 1.84685E-01 1.72147E-04 4.41824E-01 4.03243E-14 1.80122E-13
 -1       698 2.01684E+01 1.59779E-01 1.51163E-04 3.47661E-01 1.79491E-13-5.18710E-14
 -1       699 2.01257E+01 1.34254E-01 1.24577E-04 2.67517E-01-1.62482E-14-3.22776E-13
 -1       700 2.00916E+01 1.11107E-01 1.10270E-04 2.00813E-01-1.36036E-13-3.78943E-13
 -1       701 2.00643E+01 9.17720E-02 1.50123E-04 1.46171E-01-1.61422E-13-2.80700E-13
 -1       702 2.00415E+01 8.69637E-02 1.04850E-04 1.14393E-01-1.45807E-13 6.74374E-14
 -1       703 1.99129E+01 2.40978E-01-3.54003E-05 2.60150E-02-2.47332E-14 6.65471E-14
 -1       704 2.00346E+01 9.77749E-02 3.57585E-05-1.15563E-01-1.01253E-13-2.62982E-13
 -1       705 1.99522E+01 1.97276E-01-1.91158E-05 1.04803E-01 2.17558E-13-1.87181E-13
 -1       706 1.99122E+01 2.42620E-01-3.49308E-05-2.24523E-02 8.59377E-14-9.47096E-14
 -1       707 1.99270E+01 2.25240E-01-2.57216E-05 7.04971E-02 4.63714E-14-4.03678E-13
 -1       708 1.68657E+01-3.52318E+00 8.68953E-02 5.84445E+00-3.30562E-13-1.33796E-13
 -1       709 1.99248E+01 2.30092E-01-2.59690E-05-6.73976E-02 1.12704E-13 6.21277E-14
 -1       710 1.99496E+01 2.04013E-01-2.88388E-05-1.03817E-01 1.77671E-13 1.60294E-14
 -1       711 1.99835E+01 1.67070E-01-4.59777E-05-1.25262E-01-1.40746E-13-3.41745E-15
 -1       712 2.01340E+01 3.94629E-01 6.69743E-04 8.14843E-02 1.20567E-13-1.03161E-13
 -1       713 1.10779E+01-9.53991E-01 1.30598E-01-4.11073E+00 1.82548E-13 3.10807E-13
 -1       714 2.02916E+01 1.69723E+00 9.81436E-05-1.11174E+00-1.93824E-13-2.14325E-13
 -1       715 2.81634E+01-3.13905E+00-3.17585E-02-4.42828E-01 8.05741E-14-1.08753E-13
 -1       716 2.67004E+01 5.05180E+00-1.45056E-01 1.46972E+00 6.73635E-13 1.37963E-13
 -1       717 8.37721E+00 2.46074E-01 1.41610E-01-3.76569E-01-1.34059E-13 4.00124E-13
 -1       718 2.90250E+01 3.59796E-01-1.12118E-01-2.35121E+00-2.30704E-13 2.69937E-13
 -1       719 2.00269E+01 1.21354E-01 8.93628E-05-3.48621E-01-8.04609E-15-5.55650E-14
 -1       720 2.00351E+01 1.62677E-01 1.11711E-04-2.51194E-01 7.68407E-14-6.34959E-14
 -1       721 8.17446E+00-4.18382E-01 1.50158E-01 2.45445E+00 2.03540E-13-3.91090E-13
 -1       722 2.69092E+01-2.67959E+00-5.17252E-02 2.58449E-01 2.01176E-13 3.05065E-13
 -1       723 2.03051E+01 1.10422E+00-1.60132E-04-6.83406E-01-1.74831E-13-1.91094E-13
 -1       724 1.88671E+01-4.44860E+00 7.61777E-02 5.58075E+00 3.04621E-13 6.30815E-14
 -1       725 1.74309E+01-4.12341E+00 8.06380E-02-6.06652E+00-3.13451E-13-3.25844E-13
 -1       726 2.68838E+01 6.08964E+00-1.53580E-01-4.19458E-01 4.44554E-13-1.01992E-13
 -1       727 1.26190E+01-2.24792E+00 1.21005E-01 5.37498E+00 2.99684E-13-2.98303E-13
 -1       728 2.82726E+01-1.79577E+00-5.75644E-02 1.58466E+00-2.57164E-13-9.34045E-14
 -1       729 2.00298E+01 2.34073E+00-1.67424E-03 6.11637E-01 1.16669E-13-3.16555E-13
 -1       730 1.18670E+01-2.18374E+00 1.28677E-01-5.55660E+00-2.87978E-13-8.05980E-13
 -1       731 2.00248E+01 2.35171E+00-1.57199E-03-6.03539E-01-1.07541E-13-2.88350E-13
 -1       732 1.59934E+01-3.36645E+00 9.34758E-02-5.71412E+00 1.72702E-13 2.47895E-13
 -1       733 1.11397E+01-9.45407E-01 1.09585E-01 4.33329E+00-1.81889E-13 1.28869E-13
 -1       734 2.63875E+01-4.52107E+00-1.43100E-02-1.37361E+00-1.08819E-13-3.99630E-13
 -1       735 2.66272E+01-3.95084E+00-3.69654E-02 1.24199E+00-1.23380E-13 5.63785E-15
 -1       736 2.80245E+01-7.11620E-01-8.58816E-02-1.45426E+00-4.29327E-14 5.68399E-14
 -1       737 2.01295E+01 2.09928E+00-1.12868E-03-8.22542E-01-1.49674E-13-2.92318E-13
 -1       738 1.99269E+01 2.58444E+00-1.48683E-03-1.20520E-01-1.56037E-14-2.91570E-13
 -1       739 2.78594E+01-5.43537E-01-8.49953E-02-2.43857E+00-2.05913E-13 2.82035E-13
 -1       740 1.99850E+01 1.60240E-01-5.65003E-05 1.24238E-01 2.59397E-14-3.67750E-14
 -1       741 2.79972E+01-6.36699E-01-6.22319E-02 2.36860E+00-3.08158E-13-3.65957E-14
 -1       742 2.00148E+01 1.23878E-01-5.36553E-06 1.25486E-01-5.13267E-13-8.17374E-14
 -1       743 2.54314E+01-3.98669E+00 3.43993E-03-1.34010E+00-1.42916E-13 8.76417E-14
 -1       744 2.00110E+01 1.42712E-01-1.58764E-05-1.41162E-01-2.34831E-13-1.44257E-13
 -1       745 2.60704E+01 2.54530E+00-7.31865E-02 2.26216E+00 5.13957E-13 2.13196E-13
 -1       746 1.10428E+01 4.69012E-01 7.85504E-02 1.88435E+00-3.09634E-13 3.59532E-13
 -1       747 2.65797E+01-8.83077E-01-7.93600E-02 1.78991E+00 4.31021E-13 4.23512E-13
 -1       748 1.99593E+01 2.50934E+00-1.52115E-03-3.67115E-01-6.01594E-14-3.17017E-13
 -1       749 2.11212E+01-4.04434E+00 1.63845E-02-4.20486E+00-2.47264E-13 1.45578E-14
 -1       750 2.02748E+01 1.35199E+00 5.42541E-04 5.87528E-01 1.43766E-13-2.04850E-13
 -1       751 2.60972E+01-2.40590E+00-2.85932E-02-7.83074E-01 4.23637E-14 1.74357E-14
 -1       752 1.54822E+01-1.49225E+00 4.28246E-02 4.45751E+00-2.85187E-13 7.11237E-15
 -1       753 2.02709E+01 5.25970E-01-5.69316E-05 1.35717E-03-9.55766E-14-1.87410E-13
 -1       754 2.02271E+01 3.60692E-01 8.95111E-06 1.67787E-01-1.03851E-13-1.80207E-13
 -1       755 2.01790E+01 2.70910E-01 2.67146E-06 2.93000E-01-8.07673E-14-1.40033E-13
 -1       756 2.01304E+01 2.37315E-01 6.24702E-06 3.94078E-01-3.50311E-14-1.01369E-13
 -1       757 2.00810E+01 2.46143E-01 1.07947E-05 4.85523E-01 1.54298E-14-1.48852E-13
 -1       758 2.00285E+01 2.87261E-01 1.78562E-05 5.79003E-01 3.05653E-15-1.06846E-13
 -1       759 1.99692E+01 3.52339E-01 2.74467E-05 6.83613E-01-1.16862E-14-6.03167E-14
 -1       760 1.98987E+01 4.33031E-01 3.94180E-05 8.06287E-01-3.68373E-14-6.11799E-14
 -1       761 1.98131E+01 5.18885E-01 5.48270E-05 9.52248E-01-4.34116E-14-1.82013E-13
 -1       762 1.97098E+01 5.94681E-01 7.58488E-05 1.12558E+00 5.08551E-15-1.98541E-13
 -1       763 1.95907E+01 6.36947E-01 1.00391E-04 1.33018E+00-2.62642E-14-1.74703E-13
 -1       764 1.94673E+01 6.09206E-01 1.23010E-04 1.57141E+00-1.06747E-13-1.11308E-13
 -1       765 1.93702E+01 4.55729E-01 1.82303E-04 1.85772E+00-3.39399E-14-1.07775E-13
 -1       766 1.93657E+01 9.53516E-02 6.02159E-04 2.19931E+00 5.01757E-14-1.92769E-13
 -1       767 1.95805E+01-5.76420E-01 2.77231E-03 2.59522E+00 2.11530E-13-1.51551E-13
 -1       768 2.02367E+01-1.67804E+00 7.70370E-03 3.00837E+00 2.17406E-13-1.86222E-13
 -1       769 2.17257E+01-3.22293E+00 1.30069E-02 3.23575E+00 2.51231E-13-1.91700E-13
 -1       770 1.21139E+01-5.10479E-01 7.38504E-02-3.72377E+00-1.94016E-13-6.66085E-13
 -1       771 2.17434E+01-3.17546E+00 2.40075E-02-3.16499E+00 1.29753E-13-4.28238E-13
 -1       772 2.02785E+01-1.66303E+00 6.92675E-03-2.96620E+00 2.10789E-13-1.61525E-13
 -1       773 1.96092E+01-5.57442E-01 2.55556E-03-2.56077E+00 2.22180E-15-2.97528E-13
 -1       774 1.93857E+01 1.22643E-01 5.69781E-04-2.16004E+00-2.49175E-14-4.03372E-13
 -1       775 1.93830E+01 4.90735E-01 2.12881E-04-1.80949E+00-1.29437E-13-4.22867E-13
 -1       776 1.94725E+01 6.52811E-01 1.51988E-04-1.51063E+00 1.11784E-13-2.02776E-13
 -1       777 1.95877E+01 6.89295E-01 1.19060E-04-1.25384E+00-1.39411E-14-1.43483E-13
 -1       778 1.96974E+01 6.55197E-01 8.98588E-05-1.03150E+00 1.20284E-13-3.50361E-14
 -1       779 1.97893E+01 5.86031E-01 6.76240E-05-8.39095E-01-7.40015E-14 1.36165E-13
 -1       780 1.98609E+01 5.03619E-01 5.10137E-05-6.73927E-01-1.68768E-13 1.42903E-13
 -1       781 1.99138E+01 4.20669E-01 3.77875E-05-5.33886E-01 2.03875E-13 3.50621E-13
 -1       782 1.99511E+01 3.44054E-01 2.43064E-05-4.16853E-01 2.50465E-15 4.26785E-13
 -1       783 1.99764E+01 2.77127E-01 1.15623E-05-3.20456E-01-4.85148E-14 1.46105E-13
 -1       784 1.99928E+01 2.21051E-01 1.61585E-05-2.42434E-01 2.54082E-14 5.45288E-14
 -1       785 2.00059E+01 1.77103E-01 2.59866E-05-1.87079E-01 1.63183E-14-9.32949E-14
 -1       786 2.52656E+01 4.09695E+00-8.36457E-02-1.51983E+00 2.77164E-13-1.81184E-13
 -1       787 2.00965E+01 1.76522E-01 1.97916E-05-4.68733E-01-4.77595E-14-1.39895E-13
 -1       788 2.00792E+01 2.44263E-01 4.46445E-05-7.41936E-01 1.40753E-14-4.27359E-14
 -1       789 2.00959E+01 2.59614E-01 4.99020E-05-8.54239E-01-1.23068E-14-4.09090E-14
 -1       790 2.01337E+01 2.45858E-01 4.96975E-05-9.76505E-01-6.17177E-14-2.21330E-14
 -1       791 2.02066E+01 1.80955E-01 4.02061E-05-1.10184E+00-3.28649E-14-2.93640E-14
 -1       792 2.03376E+01 3.77619E-02 1.53998E-05-1.21685E+00-4.44331E-14 1.75281E-13
 -1       793 2.05609E+01-2.13204E-01-5.94917E-05-1.29862E+00-1.20601E-14 1.97794E-13
 -1       794 2.09227E+01-5.95318E-01-3.05518E-04-1.30957E+00-3.21122E-14 2.13800E-13
 -1       795 2.14745E+01-1.10539E+00-7.29667E-04-1.18976E+00-9.50942E-14 2.89905E-13
 -1       796 2.22521E+01-1.66961E+00 5.62486E-04-8.49764E-01-9.32125E-14 2.43632E-13
 -1       797 2.32170E+01-2.06663E+00-2.16544E-03-1.71939E-01-1.42825E-13 3.58892E-13
 -1       798 2.41710E+01-1.97563E+00-9.03559E-03 7.88898E-01 7.47718E-14 4.52411E-13
 -1       799 2.46932E+01-8.51482E-01-1.58484E-02 1.80170E+00 2.24129E-13 4.87269E-13
 -1       800 2.42148E+01 3.94335E+00-5.73094E-02-5.71882E-01 3.71741E-13-6.78364E-14
 -1       801 2.48045E+01-3.11597E-02-3.10794E-02-2.10383E+00 5.65724E-14-1.52927E-14
 -1       802 2.44752E+01-1.62367E+00-6.05876E-03-1.23926E+00 2.02091E-14-7.12755E-14
 -1       803 2.36144E+01-2.11843E+00-3.02393E-03-1.78078E-01-2.64724E-13 1.01833E-14
 -1       804 2.26265E+01-1.85905E+00-1.06741E-03 6.08098E-01-1.60079E-13 6.98682E-15
 -1       805 2.17673E+01-1.31571E+00-2.00764E-04 1.05628E+00 8.20146E-14 4.62504E-14
 -1       806 2.11266E+01-7.63690E-01-1.96933E-04 1.24462E+00-1.85732E-14-8.29816E-14
 -1       807 2.06929E+01-3.19855E-01-1.41900E-04 1.26738E+00 2.43942E-13-2.32466E-13
 -1       808 2.04186E+01-1.02352E-02-5.00309E-05 1.19556E+00 2.49214E-13-1.62108E-13
 -1       809 2.02535E+01 1.80832E-01 1.86056E-05 1.07509E+00-9.43947E-14 7.47851E-14
 -1       810 2.01578E+01 2.81485E-01 4.82940E-05 9.34183E-01-9.90502E-14 2.76332E-13
 -1       811 2.01039E+01 3.19499E-01 5.79239E-05 7.90045E-01-2.38195E-13 1.66960E-13
 -1       812 2.00739E+01 3.17691E-01 5.76865E-05 6.52951E-01-3.32577E-13-1.68479E-13
 -1       813 2.00568E+01 2.93080E-01 5.41179E-05 5.28643E-01-2.21720E-13-1.51058E-13
 -1       814 2.00463E+01 2.57534E-01 5.03168E-05 4.19784E-01-2.91308E-14 8.86126E-14
 -1       815 2.00391E+01 2.18796E-01 4.19537E-05 3.26992E-01 2.10466E-13 3.02511E-13
 -1       816 2.00331E+01 1.81971E-01 4.16640E-05 2.49942E-01 4.17966E-14 1.23801E-14
 -1       817 2.00273E+01 1.49568E-01 2.77302E-05 1.86754E-01-8.78920E-15-2.53571E-13
 -1       818 2.00202E+01 1.35967E-01-7.73997E-05 1.53979E-01-5.06994E-13-1.11858E-13
 -1       819 2.01275E+01 1.96788E+00-2.83553E-04 1.82908E-01 2.93982E-14-2.76336E-13
 -1       820 1.98982E+01 2.64124E-01-1.54647E-05-1.12329E-01-8.18054E-14 5.81659E-14
 -1       821 1.98618E+01 2.92914E-01-2.69758E-05 3.79694E-03 8.26665E-15 5.22632E-14
 -1       822 1.99428E+01 2.25676E-01-2.79917E-05-1.52127E-01-2.39324E-13-1.47906E-13
 -1       823 1.98705E+01 2.86954E-01-2.99853E-06-5.77482E-02-5.65252E-14 2.82033E-13
 -1       824 1.01842E+01 6.13322E-01 9.23940E-02 2.79122E-01 1.48389E-13-4.92089E-13
 -1       825 2.00758E+01 2.16807E-01 3.54834E-05-6.41812E-01 4.16691E-14-6.24636E-14
 -1       826 1.21998E+01-4.23039E-01 8.36179E-02 3.54276E+00 1.95404E-13-3.27786E-13
 -1       827 2.00820E+01 1.90519E-01 2.66159E-05-5.52360E-01 4.16602E-15-1.54776E-13
 -1       828 2.48295E+01 4.61165E+00-8.92729E-02 4.00370E-01 3.71512E-13-9.12720E-14
 -1       829 2.21814E+01-4.14753E+00 3.26119E-02 3.64458E+00 3.99993E-13-2.14774E-13
 -1       830 1.59385E+01-2.27309E+00 6.00843E-02-5.06879E+00-3.56682E-13-4.40700E-13
 -1       831 1.14427E+01 4.04925E-01 6.47165E-02-1.97597E+00-2.35662E-14 1.97908E-13
 -1       832 2.62800E+01 9.88276E-01-6.13976E-02-2.31238E+00 6.25680E-14-1.48133E-13
 -1       833 2.03015E+01 7.99632E-01 1.48849E-04-2.24854E-01-1.29065E-13-2.04529E-13
 -1       834 2.01920E+01 3.23031E-01-5.88955E-06-1.53767E-01 7.71254E-14-1.27272E-13
 -1       835 2.01194E+01 1.85390E-01 1.59703E-05-3.82800E-01-2.96635E-14-1.06615E-13
 -1       836 2.01514E+01 2.28879E-01 6.02061E-06-2.82937E-01 5.33436E-14-1.08421E-13
 -1       837 1.99226E+01-3.20975E+00 3.25348E-02-4.19646E+00-8.31019E-15 1.44232E-13
 -1       838 2.46661E+01-4.14982E+00-3.39271E-03 1.90574E+00-1.08538E-13 1.41019E-13
 -1       839 2.02926E+01 9.77324E-01-9.58883E-05 5.04972E-01 1.47320E-13-1.53993E-13
 -1       840 1.70742E+01-2.60498E+00 6.70524E-02 4.92928E+00 3.55362E-13 9.59476E-15
 -1       841 2.40170E+01-4.15314E+00-2.15509E-03-2.31187E+00-8.95334E-14-4.32429E-13
 -1       842 1.57975E+01-1.53062E+00 4.67815E-02-4.35909E+00 1.22790E-13 3.73859E-13
 -1       843 2.07587E+01-3.89206E+00 1.27107E-02 4.24690E+00-9.04459E-14 1.72685E-13
 -1       844 2.01138E+01 2.00900E+00-3.02392E-04 3.18125E-03 2.16792E-14-2.65542E-13
 -1       845 2.02156E+01 1.65151E+00-1.50044E-03-4.87959E-01-1.18992E-13-2.40641E-13
 -1       846 2.02258E+01 1.63771E+00 2.23840E-04 4.97017E-01 1.14317E-13-2.19202E-13
 -1       847 1.40842E+01-5.32029E-02 3.71694E-02 3.09337E+00-3.21978E-13 2.02199E-14
 -1       848 1.20683E+01 6.23528E-01 4.38099E-02-1.65385E+00 1.37296E-13-3.99913E-13
 -1       849 1.99476E+01 2.14051E-01 2.16785E-05 1.52330E-01 9.69478E-14 3.42905E-13
 -1       850 2.41253E+01 3.34965E+00-6.40571E-02 1.21396E+00 3.81827E-13-3.96449E-14
 -1       851 2.44028E+01 2.25974E+00-5.28881E-02-1.96854E+00 2.08080E-13-7.73080E-14
 -1       852 2.01681E+01 1.84496E+00 2.71426E-05 3.53272E-01 7.13702E-14-3.12068E-13
 -1       853 1.99033E+01 2.54342E-01 1.45354E-05 1.16261E-01 2.53184E-13-4.70684E-13
 -1       854 2.01637E+01 1.85352E+00-2.05447E-04-3.45428E-01-6.71180E-14-2.68569E-13
 -1       855 2.02511E+01 6.26770E-01 2.63192E-04 1.92202E-01 1.19847E-13-1.22127E-13
 -1       856 1.98734E+01 2.81549E-01-2.34160E-05 6.45754E-02 1.45057E-13-4.26176E-13
 -1       857 2.02206E+01 4.42634E-01-1.13849E-04-5.89418E-03 6.38489E-14-9.00975E-14
 -1       858 2.02992E+01 1.17768E+00 6.63490E-04-4.88154E-01-1.47208E-13-2.40821E-13
 -1       859 1.22777E+01 9.57031E-01 4.16863E-02 3.02394E-02-3.68079E-14 6.03302E-14
 -1       860 2.55892E+01-2.45955E+00-5.05853E-03 6.71120E-01 8.30959E-14 3.63581E-13
 -1       861 1.47682E+01-9.43996E-02 2.98753E-02-3.09270E+00 4.48253E-14 1.88491E-13
 -1       862 1.87658E+01-2.34541E+00 1.48300E-02 3.99451E+00-3.25668E-14 2.56939E-13
 -1       863 1.99723E+01 2.03917E-01 2.52010E-04-1.72887E-01-1.60088E-13-6.86804E-14
 -1       864 2.02594E+01 4.12747E-01 9.42730E-06 1.88358E-01-5.56875E-14-1.16663E-13
 -1       865 2.01936E+01 3.33113E-01-4.44952E-06 2.91936E-01-1.57180E-14-7.61857E-14
 -1       866 2.01127E+01 3.13632E-01-4.13410E-06 3.79975E-01-6.30395E-14-6.97477E-14
 -1       867 2.00173E+01 3.40458E-01-3.40422E-06 4.62998E-01-1.89783E-14-1.19530E-13
 -1       868 1.99046E+01 4.02636E-01-1.55984E-06 5.49664E-01 4.49678E-14-1.74055E-13
 -1       869 1.97701E+01 4.90434E-01 1.10562E-06 6.46839E-01-7.62792E-14-1.50728E-13
 -1       870 1.96073E+01 5.93625E-01 3.90920E-06 7.60075E-01-7.10812E-14-1.85478E-13
 -1       871 1.94091E+01 6.99393E-01 6.29642E-06 8.94546E-01-1.58928E-14-1.24565E-13
 -1       872 1.91687E+01 7.89884E-01 9.43992E-06 1.05653E+00-2.56007E-14-1.15314E-13
 -1       873 1.88813E+01 8.39294E-01-5.48186E-06 1.25631E+00 6.29695E-15-7.03393E-14
 -1       874 1.85478E+01 8.09335E-01-5.67873E-05 1.51329E+00-5.63621E-14 2.32487E-14
 -1       875 1.81833E+01 6.41673E-01 1.64040E-05 1.86231E+00-3.34643E-14-3.18847E-15
 -1       876 1.78307E+01 2.45406E-01 7.37498E-04 2.36086E+00 1.31114E-13-1.85066E-14
 -1       877 1.76079E+01-5.10837E-01 7.82838E-03 3.08237E+00 1.58276E-13-1.02222E-13
 -1       878 1.72833E+01-1.36984E+00 2.41329E-02 3.89497E+00 3.37558E-13-8.60796E-14
 -1       879 2.28162E+01-2.67046E+00 1.57326E-03 1.33094E+00-1.90948E-13-9.47791E-14
 -1       880 2.33883E+01-3.56857E+00 9.68099E-03-1.95244E+00-1.07528E-13-1.05538E-14
 -1       881 1.76536E+01-4.93485E-01 8.35336E-03-3.05627E+00 1.07527E-14 1.53620E-13
 -1       882 1.78469E+01 2.75952E-01 1.56376E-03-2.33138E+00 3.69908E-14 3.12420E-13
 -1       883 1.81843E+01 6.80073E-01 2.47672E-04-1.82852E+00 2.60021E-15 4.78266E-13
 -1       884 1.85345E+01 8.59393E-01 6.12953E-05-1.46864E+00-1.03621E-13 4.94572E-13
 -1       885 1.88537E+01 9.00380E-01 5.76439E-05-1.19824E+00 6.41193E-14 5.05398E-14
 -1       886 1.91250E+01 8.61061E-01 3.65331E-05-9.83273E-01 1.30730E-13-1.70881E-13
 -1       887 1.93464E+01 7.78997E-01 2.33840E-05-8.05094E-01 1.86473E-13-2.69655E-13
 -1       888 1.95219E+01 6.78414E-01 1.52119E-05-6.54225E-01-2.31396E-16 6.53791E-14
 -1       889 1.96578E+01 5.74372E-01 1.21011E-05-5.25851E-01 4.33399E-14 4.76384E-13
 -1       890 1.97610E+01 4.75806E-01 1.88728E-06-4.17204E-01 8.35001E-14 3.15544E-13
 -1       891 1.98383E+01 3.87278E-01 1.60291E-06-3.26377E-01-6.93112E-14 5.50769E-13
 -1       892 1.98949E+01 3.11099E-01-3.28845E-05-2.51286E-01-1.59701E-14 2.52028E-13
 -1       893 1.99859E+01 1.75004E-01 3.59707E-05 1.58885E-01-2.99999E-13 6.67191E-13
 -1       894 1.98833E+01 3.56767E-01 2.57981E-05-7.77095E-01-1.86818E-15-4.85331E-14
 -1       895 1.97896E+01 2.49072E-01 5.28440E-05-1.23312E+00-1.59155E-13 6.54016E-14
 -1       896 1.98621E+01 4.43176E-02 9.82462E-05-1.41787E+00-1.00168E-13 1.21590E-13
 -1       897 2.00589E+01-3.07860E-01 1.17983E-04-1.60153E+00-2.33430E-14 1.47089E-13
 -1       898 2.04572E+01-8.44132E-01-2.79007E-04-1.74964E+00-9.42319E-14 8.92954E-14
 -1       899 2.11545E+01-1.57081E+00-1.96993E-03-1.78485E+00-7.73200E-14 1.85017E-13
 -1       900 2.22552E+01-2.41192E+00-1.18792E-03-1.58874E+00-2.19324E-13 2.76434E-13
 -1       901 2.15521E+01-1.88077E+00 3.68085E-03 1.72001E+00-6.31073E-14-1.03625E-13
 -1       902 2.06937E+01-1.08869E+00 7.45436E-04 1.75576E+00 8.62582E-15 8.78328E-14
 -1       903 2.01806E+01-4.64144E-01 8.30022E-05 1.63049E+00 1.66696E-13 4.65838E-14
 -1       904 1.99068E+01-3.19151E-02-3.21383E-05 1.44401E+00 1.79527E-13 9.19933E-14
 -1       905 1.97837E+01 2.37101E-01-1.23318E-06 1.24390E+00-5.22970E-14 3.55315E-13
 -1       906 1.97489E+01 3.82852E-01 1.24120E-05 1.05102E+00-2.50366E-13 1.75985E-13
 -1       907 1.97615E+01 4.42629E-01 1.37508E-05 8.73945E-01-2.28766E-13 2.73320E-13
 -1       908 1.97960E+01 4.46568E-01 1.06176E-05 7.15976E-01-1.83025E-13 1.15998E-13
 -1       909 1.98375E+01 4.17272E-01 9.08293E-06 5.78072E-01-1.92698E-13 7.46148E-14
 -1       910 1.98781E+01 3.70869E-01 1.20511E-05 4.59954E-01-2.30194E-13-9.12112E-14
 -1       911 1.99136E+01 3.18071E-01 2.09037E-05 3.60480E-01-1.27614E-13 1.62535E-13
 -1       912 1.99422E+01 2.65725E-01-1.00807E-04 2.77664E-01 1.00224E-13 6.26762E-13
 -1       913 1.89873E+01-2.54581E+00 1.44544E-02-4.06753E+00-2.82954E-13-1.47568E-13
 -1       914 2.44994E+01-2.99963E+00-1.84574E-03 3.43452E-01-1.44452E-13 4.98891E-14
 -1       915 1.98778E+01 2.99403E-01 1.22899E-05-1.71124E-01-9.21622E-14 8.62643E-14
 -1       916 1.99468E+01 3.20746E-01 1.60472E-05-6.63281E-01-5.37725E-15-1.80211E-13
 -1       917 1.53066E+01-7.30711E-01 3.54052E-02-3.74686E+00-2.29206E-13-4.59249E-13
 -1       918 2.03054E+01 8.85948E-01-5.01662E-04 2.83737E-01 1.13046E-13-1.54684E-13
 -1       919 2.01381E+01 2.53227E-01-1.80102E-06-3.89809E-01 1.04486E-14-1.08226E-13
 -1       920 2.02502E+01 3.80540E-01 1.23064E-05-1.83521E-01 3.30225E-14-1.33574E-13
 -1       921 2.03244E+01 8.30177E-01 1.00153E-04-1.16310E-01-9.94537E-14-2.14867E-13
 -1       922 1.97891E+01 3.46616E-01 3.37520E-05-1.06176E+00-1.07172E-13-2.31982E-14
 -1       923 1.26552E+01 6.15121E-01 4.07763E-02 1.71950E+00 2.12585E-13-4.22669E-13
 -1       924 2.01970E+01 2.89495E-01-7.14137E-06-2.96371E-01-7.12835E-15-8.40216E-14
 -1       925 2.01264E+01 1.97117E+00-2.87750E-04-1.76617E-01-1.46330E-14-2.58343E-13
 -1       926 1.98270E+01 3.72830E-01 2.66883E-05-9.09413E-01-6.29056E-14 5.29327E-15
 -1       927 2.03072E+01 5.67160E-01-3.55027E-04 5.61807E-02-8.49149E-14-1.75655E-13
 -1       928 2.23872E+01-3.51316E+00 1.53660E-02 2.73515E+00-4.49042E-14 9.65257E-14
 -1       929 1.75169E+01-1.62952E+00 2.75833E-02-3.98241E+00 1.30626E-13 2.08274E-13
 -1       930 1.66844E+01-9.45729E-01 2.14295E-02 3.55646E+00-6.37329E-14 3.17343E-13
 -1       931 2.02884E+01 1.30329E+00 7.46551E-05-2.55072E-01-8.96829E-14-1.93718E-13
 -1       932 1.30984E+01 1.01239E+00 1.94635E-02 3.30443E-02 1.38509E-13-4.88280E-13
 -1       933 1.99407E+01 2.52318E-01 5.53016E-05-2.10246E-01-7.37862E-14 5.81853E-14
 -1       934 2.02459E+01 1.51525E+00-1.62827E-05 5.82337E-02 3.32065E-14-2.60198E-13
 -1       935 1.51915E+01 2.47315E-02 2.23587E-02 2.88128E+00 2.98860E-13-1.10949E-13
 -1       936 2.02619E+01 1.43940E+00-4.87629E-04 1.65175E-01 2.36192E-14-2.64156E-13
 -1       937 1.99650E+01 2.18903E-01 6.36951E-05 2.10500E-01 4.59100E-14 8.53276E-13
 -1       938 1.98012E+01 3.53057E-01-5.04140E-05-3.29339E-02 5.94174E-15-5.12988E-14
 -1       939 1.98041E+01 3.48545E-01-1.07488E-04 4.63746E-02 4.18250E-13-3.57638E-13
 -1       940 1.98260E+01 3.36536E-01-2.54599E-05-1.08239E-01-2.15251E-13 2.31209E-13
 -1       941 2.00119E+01 2.82124E-01 6.32798E-06-5.64660E-01-3.24267E-14-1.62072E-13
 -1       942 1.40895E+01 8.23589E-01 2.18788E-02-1.60038E+00 2.16616E-13 1.81856E-13
 -1       943 2.00761E+01 2.55262E-01 4.24391E-07-4.75976E-01-1.45551E-14-1.75712E-13
 -1       944 2.02819E+01 5.03750E-01 4.04315E-05-6.11205E-02 6.38033E-14-1.59562E-13
 -1       945 1.39138E+01 7.79951E-01 1.36105E-02 1.58854E+00-5.98884E-14 1.25414E-13
 -1       946 1.98910E+01 2.79912E-01-7.42134E-05 1.82808E-01 4.16460E-14 1.38713E-13
 -1       947 2.02622E+01 1.44393E+00 1.69820E-04-1.62925E-01-2.66452E-14-2.34494E-13
 -1       948 2.01611E+01 3.85868E-01-5.47496E-06 2.56856E-01-1.16303E-14-8.79195E-14
 -1       949 2.00454E+01 3.86444E-01-1.17094E-05 3.23797E-01-2.17578E-14-5.45175E-14
 -1       950 1.99039E+01 4.34007E-01-2.24620E-05 3.88346E-01-4.51808E-14-5.32827E-14
 -1       951 1.97330E+01 5.17145E-01-2.80859E-05 4.55910E-01-1.72298E-14-1.14016E-13
 -1       952 1.95264E+01 6.25007E-01-3.06935E-05 5.30723E-01-6.62250E-14-4.53449E-14
 -1       953 1.92750E+01 7.46375E-01-2.56205E-05 6.16389E-01-6.10746E-15-5.98898E-14
 -1       954 1.89666E+01 8.67341E-01-5.26098E-05 7.17224E-01 3.58520E-16-1.18144E-13
 -1       955 1.85862E+01 9.70322E-01-1.25459E-04 8.40373E-01 4.29685E-14-1.11431E-13
 -1       956 1.81141E+01 1.03285E+00-2.28681E-04 1.00007E+00 1.62541E-14-8.40815E-14
 -1       957 1.75240E+01 1.02427E+00-2.46307E-04 1.22564E+00-1.29480E-13-9.89763E-14
 -1       958 1.67790E+01 8.95902E-01 8.33945E-04 1.56907E+00 6.21838E-14-2.01065E-13
 -1       959 1.60084E+01 5.99404E-01 3.28284E-03 2.08466E+00 1.37197E-13-1.86088E-13
 -1       960 2.03340E+01 9.53873E-01 3.25661E-05-8.05152E-02-5.80339E-14-1.64495E-13
 -1       961 2.03125E+01 1.11236E+00 9.47362E-05 2.32793E-01 7.77374E-14-2.06952E-13
 -1       962 1.67702E+01 9.37164E-01 7.98575E-05-1.55139E+00-7.58113E-14 2.43477E-13
 -1       963 1.74991E+01 1.07793E+00 2.15756E-04-1.19940E+00-3.21580E-15 5.68761E-14
 -1       964 1.80707E+01 1.09964E+00-3.19975E-05-9.63378E-01-1.96977E-13 8.78465E-15
 -1       965 1.85229E+01 1.04879E+00-4.17985E-05-7.91306E-01-1.63971E-13 5.99001E-14
 -1       966 1.88800E+01 9.55653E-01-3.08541E-05-6.55358E-01-1.29933E-14-5.32335E-14
 -1       967 1.91607E+01 8.41789E-01-1.92741E-05-5.41664E-01 3.27841E-13-8.80551E-14
 -1       968 1.93798E+01 7.21902E-01-1.09287E-05-4.43833E-01 4.00230E-13 3.05181E-15
 -1       969 1.95496E+01 6.05609E-01-1.78546E-05-3.59179E-01 7.99024E-14 3.01836E-13
 -1       970 1.96792E+01 4.99055E-01-4.91186E-05-2.86545E-01-1.45795E-14 1.15374E-13
 -1       971 1.97773E+01 4.05225E-01-2.34436E-05-2.24691E-01-1.30985E-13 1.78442E-13
 -1       972 1.93141E+01-3.24646E-01 4.44857E-04-1.95308E+00-7.93224E-14-2.40322E-14
 -1       973 2.05412E+01-2.09899E+00 9.95981E-03-2.70787E+00-1.69117E-13-1.41083E-13
 -1       974 2.02455E+01 1.51710E+00-1.70205E-05-5.46049E-02 1.82808E-14-2.44467E-13
 -1       975 1.92153E+01 1.06466E-01 1.51984E-04-1.61026E+00-1.08874E-13-1.08289E-13
 -1       976 1.92480E+01 3.55602E-01 1.63934E-05-1.32580E+00-1.22000E-13-4.84165E-14
 -1       977 1.96615E+01-1.00321E+00-2.48595E-04-2.33360E+00-1.05809E-13-5.63331E-14
 -1       978 2.03072E+01 7.48267E-01-2.56594E-04 1.31923E-01 8.37814E-14-1.62323E-13
 -1       979 1.97526E+01 4.38413E-01 1.41226E-05-6.33022E-01-9.17856E-14-1.29494E-13
 -1       980 1.92048E+01 7.73115E-03-3.49915E-04 1.70627E+00 9.77708E-14 3.66305E-13
 -1       981 1.91824E+01 3.34896E-01-1.55389E-04 1.38728E+00 3.40694E-14 3.52455E-13
 -1       982 1.92464E+01 5.11543E-01-1.00722E-04 1.12364E+00-9.73456E-14 4.34714E-13
 -1       983 1.93495E+01 5.84523E-01-6.46503E-05 9.06716E-01-1.73826E-13 4.38849E-13
 -1       984 1.94639E+01 5.89633E-01-4.82675E-05 7.28033E-01-6.39280E-14 2.27866E-13
 -1       985 1.95744E+01 5.53427E-01-3.95907E-05 5.80523E-01-1.27675E-13 9.37152E-14
 -1       986 1.96733E+01 4.94887E-01-4.14167E-05 4.58880E-01-2.41796E-13-4.66806E-14
 -1       987 1.97578E+01 4.27150E-01-3.80916E-05 3.59356E-01-3.58869E-13 9.15458E-15
 -1       988 1.98269E+01 3.59757E-01 1.22852E-04 2.78231E-01-2.47800E-13 1.59804E-13
 -1       989 1.80283E+01-1.05717E+00 3.80652E-03-3.15732E+00-1.25181E-13-2.52516E-13
 -1       990 1.93942E+01-5.24946E-01 1.60088E-03 2.07742E+00-5.18194E-16 2.63859E-13
 -1       991 2.02617E+01 4.19877E-01 2.88052E-05-1.92487E-01-1.99265E-14-1.71371E-13
 -1       992 1.98829E+01-1.32586E+00 2.91629E-03 2.45749E+00-1.89151E-13 6.79754E-14
 -1       993 1.98355E+01 3.24135E-01 7.63885E-06 1.27106E-01 1.81408E-13-5.40078E-13
 -1       994 2.01885E+01 3.43054E-01-3.27513E-06-2.82998E-01 1.22065E-14-1.54215E-13
 -1       995 2.03133E+01 5.81717E-01 1.91181E-04 8.69839E-02-1.00458E-14-7.40588E-14
 -1       996 1.45098E+01 4.85151E-01 2.34562E-02-2.19036E+00 6.29314E-14-2.72751E-13
 -1       997 1.93486E+01 4.74564E-01 4.11971E-06-1.09426E+00-2.34889E-13-5.53834E-14
 -1       998 2.02511E+01 4.45859E-01-3.08598E-05 1.80707E-01-2.93765E-14-5.93235E-14
 -1       999 1.61223E+01 5.14592E-01 6.40845E-03-2.23382E+00 1.12645E-13 3.76621E-13
 -1      1000 1.90216E+01-1.42802E+00 6.34027E-03 3.05051E+00-1.27110E-13 9.64537E-14
 -1      1001 2.10785E+01-2.36235E+00 2.45985E-03 2.55570E+00-1.11536E-13-4.04971E-15
 -1      1002 1.96174E+01 4.85589E-01 1.60444E-05-7.56305E-01-5.49810E-14-1.44702E-13
 -1      1003 1.97334E+01 4.19962E-01 1.04384E-04-8.80259E-02-4.46255E-14-1.41001E-13
 -1      1004 2.03160E+01 1.14289E+00 3.63626E-05 1.39241E-03 8.01571E-15-2.28234E-13
 -1      1005 1.43783E+01 9.16320E-01 1.39775E-02 1.35048E+00 2.20186E-13-2.83793E-13
 -1      1006 2.03195E+01 1.11129E+00 4.03357E-04 5.09300E-02 1.30525E-14-2.69270E-13
 -1      1007 1.68474E+01 1.35657E-02 3.83439E-03-2.45662E+00-4.01872E-14-2.09293E-13
 -1      1008 1.98794E+01 3.84645E-01-8.86163E-08-5.30894E-01-3.30833E-14-1.77856E-13
 -1      1009 1.43248E+01 1.16678E+00 1.20323E-02-3.86791E-02-1.45138E-13 3.05452E-15
 -1      1010 2.03051E+01 5.33580E-01-1.36305E-04-9.96515E-02 5.00361E-14-1.58931E-13
 -1      1011 1.55887E+01 1.55856E-01 1.23676E-02 2.57416E+00 4.09797E-14 2.63495E-13
 -1      1012 2.00987E+01 3.22253E-01-1.00476E-05-3.63620E-01 6.17288E-14-1.71782E-13
 -1      1013 1.97342E+01 4.21649E-01-3.55342E-05 2.01582E-01-1.75156E-13-3.17349E-13
 -1      1014 1.94790E+01 5.06344E-01 2.11090E-06-9.07420E-01-1.21153E-13-1.07632E-13
 -1      1015 1.97205E+01 4.24840E-01 1.52789E-04 1.21549E-02 1.73613E-13-4.48333E-13
 -1      1016 2.02138E+01 4.61911E-01-2.09697E-05 1.37586E-01-3.99702E-14-1.21545E-13
 -1      1017 2.03285E+01 7.65005E-01 1.14391E-04 4.37020E-02 4.75017E-14-1.51730E-13
 -1      1018 1.99481E+01 4.49949E-01-2.00613E-05 2.22147E-01-1.61014E-14-1.39358E-13
 -1      1019 1.97653E+01 5.17175E-01-9.35373E-05 2.59096E-01-2.82194E-14-9.86628E-14
 -1      1020 1.95436E+01 6.17711E-01-1.28355E-04 2.96114E-01-7.30148E-15-9.25589E-14
 -1      1021 1.92761E+01 7.38612E-01-7.28414E-05 3.33402E-01-4.89357E-14-6.29201E-14
 -1      1022 1.89494E+01 8.68985E-01-2.62290E-05 3.71878E-01-1.08027E-13-2.11348E-13
 -1      1023 1.85446E+01 9.95736E-01-1.62506E-04 4.12076E-01 1.03602E-14-2.79933E-13
 -1      1024 1.80371E+01 1.10212E+00-4.06806E-04 4.57792E-01-9.46941E-15-3.12372E-13
 -1      1025 1.73878E+01 1.17323E+00-4.20714E-04 5.18479E-01-3.41891E-14-2.73901E-13
 -1      1026 1.65268E+01 1.18938E+00 7.80499E-04 6.16312E-01-3.53680E-14-2.27373E-13
 -1      1027 1.88109E+01 6.40089E-01-5.39699E-05-1.05038E+00-2.21207E-13-2.61915E-13
 -1      1028 1.54888E+01 1.11570E+00 3.12850E-03-1.02178E+00-1.01449E-13-3.55740E-14
 -1      1029 1.73373E+01 1.24134E+00 6.66697E-05-5.02576E-01-1.09428E-13-1.64773E-13
 -1      1030 1.79645E+01 1.18403E+00-3.53126E-04-4.33568E-01-1.34218E-14 8.43242E-14
 -1      1031 1.84472E+01 1.08831E+00-2.29678E-04-3.78562E-01 2.68276E-15 3.81057E-13
 -1      1032 1.88218E+01 9.71055E-01-1.57363E-04-3.29425E-01-6.12340E-15 3.39426E-13
 -1      1033 1.91142E+01 8.44722E-01-1.11374E-04-2.82644E-01 1.64718E-13 2.13725E-15
 -1      1034 1.93427E+01 7.18688E-01-1.03638E-04-2.37990E-01 2.06991E-13-2.47708E-13
 -1      1035 1.95193E+01 5.99977E-01-2.71890E-04-1.96838E-01 1.58298E-13-2.44973E-13
 -1      1036 1.96367E+01 5.05422E-01-8.26315E-05-1.35387E-01 9.43896E-14-9.80607E-14
 -1      1037 1.85568E+01 5.25082E-01-1.75922E-04-1.34195E+00-1.35648E-13-1.58146E-13
 -1      1038 2.03191E+01 1.11225E+00-1.61026E-04-4.73305E-02-3.41144E-14-1.92610E-13
 -1      1039 1.88724E+01 7.49890E-01-2.50184E-04 8.67083E-01 2.94306E-14 6.11823E-13
 -1      1040 1.86396E+01 6.82224E-01-4.29610E-04 1.12033E+00-4.66155E-14 6.93232E-13
 -1      1041 1.84113E+01 5.04163E-01-2.57924E-04 1.45728E+00-1.23935E-13 3.45035E-13
 -1      1042 1.90889E+01 7.45741E-01-1.72150E-04 6.74345E-01-4.26502E-14 4.15575E-13
 -1      1043 1.92807E+01 6.97367E-01-1.39478E-04 5.25140E-01-1.46088E-14 2.49468E-13
 -1      1044 1.94451E+01 6.24411E-01-1.34281E-04 4.08020E-01-6.68713E-14 2.05043E-13
 -1      1045 1.95823E+01 5.40888E-01-7.20581E-05 3.16305E-01-1.82205E-13 3.83741E-14
 -1      1046 1.96623E+01 4.81699E-01-2.67025E-05 2.54238E-01-2.21427E-13-1.06331E-13
 -1      1047 1.47504E+01 1.08311E+00 1.20601E-02-7.28612E-01 4.44957E-15-3.26277E-13
 -1      1048 1.82097E+01 1.69097E-01-1.76433E-04 1.90975E+00-4.24805E-14-3.46023E-14
 -1      1049 1.81899E+01-1.82334E-01 2.07270E-03-2.26757E+00-2.36204E-14-1.86680E-13
 -1      1050 1.76699E+01-4.60096E-01 3.48824E-03 2.73659E+00-1.85569E-13 1.44863E-13
 -1      1051 1.99951E+01 3.40988E-01-1.03977E-05-4.43501E-01-4.02620E-14-2.08971E-13
 -1      1052 1.97092E+01 4.34467E-01 4.34678E-06 1.06970E-01 1.65137E-14-1.21487E-13
 -1      1053 2.02378E+01 4.43030E-01-1.31239E-05-1.70710E-01 2.10686E-14-1.23035E-13
 -1      1054 1.64966E+01 1.24469E+00-6.57422E-06-6.03318E-01-4.46840E-14-1.03614E-14
 -1      1055 2.02952E+01 5.71714E-01 2.57103E-05 8.28485E-02-7.81671E-15-1.76693E-13
 -1      1056 1.83289E+01 2.70351E-01-3.14799E-05-1.73314E+00-9.91309E-14-1.59452E-13
 -1      1057 2.03360E+01 7.84042E-01-1.58833E-05 1.36946E-02 7.45230E-15-1.71610E-13
 -1      1058 2.00974E+01 4.26756E-01-5.33245E-06 1.82622E-01-3.91501E-14-1.27932E-13
 -1      1059 1.86586E+01-5.35542E-01 1.23239E-03 2.41720E+00-2.49854E-13 3.60428E-15
 -1      1060 2.03313E+01 9.70988E-01 5.82385E-05 7.71716E-02 1.90095E-14-2.26803E-13
 -1      1061 1.90625E+01 6.61795E-01-1.50347E-04-8.33131E-01-1.21501E-13-8.55215E-14
 -1      1062 1.55200E+01 1.13316E+00 7.11007E-03 8.01227E-01 2.85875E-14-2.15609E-13
 -1      1063 1.96057E+01 5.17933E-01-3.54467E-04-8.60969E-03-3.40377E-14-3.78599E-13
 -1      1064 2.03346E+01 8.21426E-01-2.04605E-04 2.83496E-03-1.75981E-14-1.93197E-13
 -1      1065 2.03380E+01 8.01413E-01-1.06450E-04-7.43155E-03-1.41318E-14-2.55312E-13
 -1      1066 1.63367E+01 7.47494E-01 1.40759E-04-1.50112E+00-8.16178E-14-2.73338E-13
 -1      1067 1.97012E+01 4.94181E-01-2.38937E-05-4.46156E-01-9.93282E-14-9.50359E-14
 -1      1068 1.54332E+01 1.02154E+00 5.81968E-03 1.12015E+00-1.88762E-13 1.78639E-13
 -1      1069 2.03000E+01 5.38831E-01-5.68593E-05-1.10003E-01 1.02844E-14-1.40103E-13
 -1      1070 2.01394E+01 3.89184E-01-1.56646E-05-2.36126E-01 4.53055E-14-1.58249E-13
 -1      1071 1.95099E+01 5.66331E-01-2.04570E-05-5.44747E-01-6.39238E-14-7.82397E-14
 -1      1072 2.01584E+01 4.61956E-01-4.28697E-06 5.71456E-02-3.09787E-14-1.84898E-13
 -1      1073 1.92965E+01 6.29172E-01 5.03353E-06-6.69916E-01-1.29660E-13 4.61124E-15
 -1      1074 1.73544E+01 3.18923E-01-9.18203E-04 2.01432E+00-1.43722E-13 4.25299E-14
 -1      1075 1.96251E+01 5.83157E-01 1.39260E-04 8.05020E-02-3.57529E-14-2.46422E-13
 -1      1076 1.93664E+01 6.92139E-01-9.81407E-05 7.50513E-02-6.83339E-14-2.68728E-13
 -1      1077 1.90622E+01 8.11464E-01 1.76106E-04 6.00135E-02-1.08189E-13-2.90021E-13
 -1      1078 1.86891E+01 9.32525E-01-2.40223E-04 3.32598E-02-1.16512E-13-2.39888E-13
 -1      1079 1.82183E+01 1.05278E+00 1.74741E-03-1.06980E-02 1.41655E-14-2.33971E-13
 -1      1080 1.76123E+01 1.14008E+00-5.67062E-04-9.35605E-02-3.75368E-14-2.42999E-13
 -1      1081 1.68680E+01 1.16688E+00-7.83087E-04-2.15670E-01-2.33761E-14-2.56075E-13
 -1      1082 2.02616E+01 5.38571E-01-5.36367E-05 3.95641E-02 1.56262E-14-1.87858E-13
 -1      1083 1.81153E+01 1.14205E+00-5.64830E-04 2.94127E-02 2.53388E-13-2.14747E-13
 -1      1084 1.85529E+01 1.04117E+00-3.70558E-04-1.70479E-02 8.91156E-14-7.08226E-14
 -1      1085 1.88964E+01 9.23885E-01-2.41101E-04-4.24836E-02-6.82959E-14 5.75667E-14
 -1      1086 1.91675E+01 8.00197E-01-1.91405E-04-5.38157E-02 1.31800E-13-7.79735E-14
 -1      1087 1.93802E+01 6.78142E-01-3.86131E-04-5.63512E-02 4.06327E-14-1.38029E-14
 -1      1088 1.95084E+01 5.95273E-01 1.21243E-03-3.07356E-02 3.96060E-14-1.76915E-13
 -1      1089 1.83380E+01 9.39285E-01 4.32016E-04 7.30872E-01 6.82383E-14 1.26855E-13
 -1      1090 1.89701E+01 8.44730E-01 3.04291E-04 4.04444E-01 9.85170E-14 1.89076E-13
 -1      1091 1.86831E+01 9.12311E-01 4.09328E-04 5.41765E-01 1.06257E-13 1.14934E-13
 -1      1092 1.79257E+01 9.00944E-01 4.45225E-05 9.95501E-01-1.93784E-13 1.81863E-13
 -1      1093 1.74170E+01 4.74956E-01-2.85290E-04-1.72540E+00-6.72836E-14-2.85293E-13
 -1      1094 2.03376E+01 7.99281E-01-1.39565E-04 7.19422E-03 5.25411E-14-2.06396E-13
 -1      1095 1.92069E+01 7.54413E-01 2.27618E-04 3.03403E-01-1.99907E-14 2.11031E-13
 -1      1096 1.93994E+01 6.55278E-01 3.35335E-04 2.28337E-01 3.04352E-14 3.29388E-15
 -1      1097 1.74391E+01 7.63667E-01 1.43915E-03 1.37072E+00-3.27850E-13 2.08452E-13
 -1      1098 1.81766E+01 8.50588E-01 6.16702E-04-8.82518E-01-1.25613E-13-2.55688E-13
 -1      1099 1.76907E+01 7.80972E-01 1.00053E-03-1.21098E+00-7.17674E-14-2.52642E-13
 -1      1100 1.57973E+01 1.23583E+00-3.97818E-05 1.22309E-01-8.36027E-14-1.77409E-13
 -1      1101 1.98420E+01 4.98438E-01 3.91766E-04 7.82278E-02-5.15884E-14-2.43065E-13
 -1      1102 2.00183E+01 4.53008E-01-5.66785E-06 6.92920E-02-3.28637E-14-2.02589E-13
 -1      1103 1.98699E+01 4.30067E-01-6.05287E-05-3.66842E-01-4.49273E-14-1.00871E-13
 -1      1104 1.67990E+01 1.25282E+00 4.42290E-04 2.19300E-01-5.13889E-14-2.25950E-13
 -1      1105 2.00160E+01 3.90294E-01-5.61461E-05-2.99107E-01-1.94415E-14-8.28674E-14
 -1      1106 1.75489E+01 1.21694E+00-5.16397E-04 1.07007E-01-8.86254E-15-2.92550E-13
 -1      1107 1.86099E+01 8.34347E-01 1.95328E-03-6.57370E-01-6.05024E-14-1.49382E-13
 -1      1108 1.59728E+01 1.14756E+00 6.16655E-04-4.23342E-01-6.64537E-14-3.00021E-13
 -1      1109 2.03114E+01 6.55424E-01 3.46422E-04 1.60481E-02 6.09836E-15-1.88025E-13
 -1      1110 2.02833E+01 5.48449E-01 2.84491E-04-7.50730E-02-2.80570E-14-2.30401E-13
 -1      1111 1.95135E+01 5.81489E-01-3.13790E-04 1.74433E-01-3.99454E-15 8.88791E-14
 -1      1112 1.96298E+01 5.00967E-01 6.85670E-04 1.39391E-01-2.58384E-13-1.24734E-13
 -1      1113 2.01925E+01 4.53168E-01 4.02805E-05-1.18597E-01 1.01267E-14-1.70504E-13
 -1      1114 1.97164E+01 5.19725E-01-6.69004E-05-2.41158E-01-4.81236E-14-1.05334E-13
 -1      1115 1.64962E+01 1.05869E+00-1.73502E-03 9.35146E-01-1.62077E-13 2.00603E-13
 -1      1116 1.94942E+01 6.07307E-01-3.97171E-05-3.05496E-01-1.01498E-13-1.50451E-13
 -1      1117 1.92358E+01 7.02492E-01 1.96388E-04-3.90528E-01-8.09744E-14-1.16449E-13
 -1      1118 2.02173E+01 4.89480E-01-1.80196E-05-4.06466E-02-2.14461E-14-2.48985E-13
 -1      1119 1.85434E+01 9.16179E-01-2.94531E-03-3.75217E-01-3.67108E-14-1.48064E-13
 -1      1120 1.99074E+01 4.55811E-01 5.53070E-04-1.92972E-01-4.37503E-14-1.20837E-13
 -1      1121 1.99384E+01 4.61701E-01-5.59969E-04-7.86451E-02-4.95623E-14-2.32619E-13
 -1      1122 2.03074E+01 6.29176E-01-2.04852E-05-1.95208E-02 4.40595E-15-2.33065E-13
 -1      1123 2.00960E+01 4.46850E-01 3.16021E-06-5.81905E-02-4.04727E-14-2.23315E-13
 -1      1124 1.89487E+01 7.79711E-01 2.18617E-04-5.04788E-01-5.94478E-14-1.49221E-13
 -1      1125 2.00660E+01 4.26839E-01 6.27398E-05-1.55740E-01-2.57370E-14-1.37551E-13
 -1      1126 1.68921E+01 9.16813E-01-1.34671E-03-1.05619E+00-5.63368E-14-3.23650E-13
 -1      1127 1.89339E+01 8.23345E-01-6.69666E-04-2.63365E-01-5.24837E-14-2.17316E-13
 -1      1128 2.79015E+01 9.06614E+00 2.31873E+00-6.68450E+00-3.25850E-14 1.18364E-12
 -1      1129 2.05220E+01 6.21953E+00 2.09679E-01-3.89607E+00-1.77081E-14 2.27124E-13
 -1      1130 1.94273E+01 5.85098E+00 7.58977E-02-2.87970E+00-1.45509E-14-2.02428E-13
 -1      1131 1.90316E+01 5.72777E+00 6.09682E-02-2.22584E+00-8.74995E-15-4.20284E-13
 -1      1132 1.88535E+01 5.67344E+00 5.79092E-02-1.69179E+00-5.58407E-15-5.33426E-13
 -1      1133 1.87650E+01 5.64619E+00 5.56255E-02-1.22512E+00-3.09041E-15-5.79225E-13
 -1      1134 1.87187E+01 5.63170E+00 5.36264E-02-7.97389E-01-2.67017E-15-5.97535E-13
 -1      1135 1.86959E+01 5.62446E+00 5.22402E-02-3.89035E-01-1.55323E-15-5.97680E-13
 -1      1136 1.86894E+01 5.62236E+00 5.17881E-02 8.55394E-03-3.32850E-16-5.93518E-13
 -1      1137 1.86968E+01 5.62475E+00 5.23530E-02 4.06534E-01 1.34593E-15-5.95598E-13
 -1      1138 1.87205E+01 5.63232E+00 5.38978E-02 8.16203E-01 2.53877E-15-5.83407E-13
 -1      1139 1.87683E+01 5.64739E+00 5.63356E-02 1.24652E+00 5.08274E-15-5.60892E-13
 -1      1140 1.88584E+01 5.67517E+00 5.87912E-02 1.71751E+00 6.86257E-15-4.98616E-13
 -1      1141 1.90366E+01 5.72927E+00 6.09510E-02 2.25894E+00 9.37098E-15-3.96564E-13
 -1      1142 1.94238E+01 5.84811E+00 6.98222E-02 2.92010E+00 1.33088E-14-1.75047E-13
 -1      1143 2.04284E+01 6.17454E+00 1.53399E-01 3.87051E+00 1.66811E-14 2.62193E-13
 -1      1144 2.51614E+01 7.97616E+00 1.42567E+00 5.83490E+00 3.74700E-14 1.16637E-12
 -1      1145 2.87365E+01 3.60621E+00 1.26566E+00-4.20754E+00-1.30951E-13 1.79212E-12
 -1      1146 2.01726E+01-1.77679E-01-6.15811E-01-1.09642E-01-4.90510E-14 1.49017E-12
 -1      1147 1.87864E+01-9.65343E-02-2.36214E-01 6.22610E-02-1.81539E-14 1.07304E-12
 -1      1148 1.84600E+01-4.85315E-02-5.99499E-02 4.01514E-02 1.41120E-15 8.01553E-13
 -1      1149 1.84154E+01-2.54277E-02-1.59922E-02 2.63886E-02-1.12378E-14 6.14998E-13
 -1      1150 1.85137E+01-1.42699E-02-6.24602E-03 1.86502E-02-1.78282E-14 4.23696E-13
 -1      1151 1.86864E+01-8.34835E-03-3.35249E-03 1.37397E-02-1.38778E-15 2.91520E-13
 -1      1152 1.88986E+01-5.23685E-03-2.10345E-03 1.04193E-02 2.70091E-15 2.09742E-13
 -1      1153 1.91332E+01-3.83115E-03-1.79612E-03 8.10445E-03-6.24040E-15 1.10564E-13
 -1      1154 1.93847E+01-3.56242E-03-2.33662E-03 6.53805E-03-1.36671E-14 2.09468E-14
 -1      1155 1.96554E+01-4.11263E-03-3.64088E-03 5.62928E-03-3.30492E-15-1.47165E-14
 -1      1156 1.99539E+01-5.27952E-03-5.61650E-03 5.38135E-03 1.00926E-14 5.15759E-14
 -1      1157 2.02934E+01-6.89949E-03-8.16428E-03 5.86457E-03-6.00269E-15-9.47723E-14
 -1      1158 2.06915E+01-8.78339E-03-1.11340E-02 7.20559E-03 7.07008E-15-1.18110E-13
 -1      1159 2.11682E+01-1.06397E-02-1.42255E-02 9.57298E-03 1.05997E-14 3.96905E-15
 -1      1160 2.17443E+01-1.19669E-02-1.68097E-02 1.31338E-02-3.32983E-14 3.94407E-14
 -1      1161 2.24367E+01-1.19042E-02-1.76389E-02 1.79366E-02-1.05590E-14-6.36123E-14
 -1      1162 2.32497E+01-9.06249E-03-1.44501E-02 2.36423E-02 1.81289E-15-1.56188E-13
 -1      1163 2.41598E+01-1.44172E-03-3.64410E-03 2.89976E-02-3.65874E-14-2.57253E-13
 -1      1164 2.50925E+01 1.32696E-02 1.93352E-02 3.09988E-02 1.99931E-14-4.52412E-13
 -1      1165 2.58918E+01 3.63842E-02 5.76026E-02 2.40273E-02-2.69663E-15-1.72681E-13
 -1      1166 2.62988E+01 6.51915E-02 1.06756E-01 2.09905E-04 7.24681E-15 2.10933E-13
 -1      1167 2.59787E+01 8.83302E-02 1.45958E-01-4.63239E-02 1.02435E-14 5.58741E-13
 -1      1168 2.46586E+01 8.37586E-02 1.35739E-01-1.09178E-01-1.02687E-14 2.52423E-13
 -1      1169 2.23971E+01 2.93734E-02 4.08225E-02-1.58904E-01 1.38043E-14 3.44696E-13
 -1      1170 1.98385E+01-6.72134E-02-1.21198E-01-1.50377E-01-3.40596E-14 3.06533E-13
 -1      1171 1.81002E+01-1.49793E-01-2.54316E-01-6.26508E-02 4.91846E-14-6.87783E-14
 -1      1172 1.81034E+01-1.48894E-01-2.53381E-01 6.29208E-02 1.77323E-14-6.64677E-14
 -1      1173 1.98437E+01-6.74792E-02-1.20921E-01 1.50114E-01-9.29985E-15-6.06459E-14
 -1      1174 2.24028E+01 2.93640E-02 4.06572E-02 1.58784E-01-1.90804E-14-1.14603E-13
 -1      1175 2.46664E+01 8.35644E-02 1.35478E-01 1.09088E-01-4.35563E-14-2.93932E-13
 -1      1176 2.59897E+01 8.80358E-02 1.45457E-01 4.61955E-02 1.34771E-14-5.59434E-13
 -1      1177 2.63150E+01 6.47787E-02 1.06149E-01-2.94214E-04 5.93926E-14-1.60740E-13
 -1      1178 2.59168E+01 3.58546E-02 5.69240E-02-2.40223E-02 5.63351E-16-8.05293E-14
 -1      1179 2.51309E+01 1.26068E-02 1.85231E-02-3.08978E-02-1.36766E-14-5.11965E-13
 -1      1180 2.42173E+01-2.25386E-03-4.64411E-03-2.87765E-02 5.23428E-14-2.41838E-13
 -1      1181 2.33334E+01-1.00478E-02-1.56827E-02-2.32579E-02-1.62614E-14-1.25355E-13
 -1      1182 2.25555E+01-1.30800E-02-1.91447E-02-1.73288E-02-8.50698E-15 2.35367E-14
 -1      1183 2.19089E+01-1.33410E-02-1.86208E-02-1.22229E-02 5.91280E-14 5.88817E-14
 -1      1184 2.13912E+01-1.22032E-02-1.63608E-02-8.25564E-03-3.62945E-14-5.21623E-13
 -1      1185 2.09880E+01-1.05011E-02-1.35912E-02-5.35094E-03 1.09104E-14-7.57215E-13
 -1      1186 2.06806E+01-8.69704E-03-1.09086E-02-3.30796E-03 8.02624E-14-3.56746E-13
 -1      1187 2.04507E+01-7.02475E-03-8.56691E-03-1.91585E-03-3.99192E-15-6.03602E-13
 -1      1188 2.02820E+01-5.58891E-03-6.65383E-03-9.91320E-04 3.61966E-15-4.04420E-13
 -1      1189 2.01610E+01-4.42543E-03-5.18836E-03-3.81371E-04 2.57404E-14-3.76547E-13
 -1      1190 2.00772E+01-3.53272E-03-4.16520E-03 5.10885E-05 5.98810E-15 2.96795E-14
 -1      1191 2.00233E+01-2.87807E-03-3.52707E-03 4.51810E-04 2.13284E-15-3.48638E-13
 -1      1192 1.99944E+01-2.32500E-03-2.98398E-03 9.97004E-04 1.93636E-14 1.10372E-13
 -1      1193 1.99883E+01-1.95341E-03-1.37551E-03 1.99754E-03 3.19787E-14 2.40377E-13
 -1      1194 1.99964E+01 1.30190E-03 3.09346E-03 1.17654E-03 4.91014E-14 1.43271E-13
 -1      1195 2.77198E+01 5.24455E-01 3.74225E-01 1.96289E+00-1.65562E-14 1.90936E-12
 -1      1196 2.00315E+01-6.63123E-02-5.73119E-01 1.29385E-01 1.60809E-14 1.47740E-12
 -1      1197 1.88620E+01-4.08416E-02-1.93152E-01 1.96565E-02 1.87151E-14 1.09410E-12
 -1      1198 1.84904E+01-2.18637E-02-5.08920E-02 1.92027E-03 1.32997E-14 8.19893E-13
 -1      1199 1.84303E+01-1.31149E-02-1.41253E-02-3.40065E-03 3.11014E-15 6.27876E-13
 -1      1200 1.85230E+01-8.44254E-03-5.82491E-03-4.63094E-03 7.79325E-15 4.77614E-13
 -1      1201 1.86933E+01-5.78674E-03-3.65141E-03-4.57973E-03-1.01373E-14 4.57202E-13
 -1      1202 1.89041E+01-4.34082E-03-2.77147E-03-4.05007E-03 4.56888E-15 4.17919E-13
 -1      1203 1.91374E+01-3.70427E-03-2.53470E-03-3.31213E-03 1.91351E-15 2.45500E-13
 -1      1204 1.93863E+01-3.64126E-03-2.89135E-03-2.51355E-03 1.23399E-14 9.19421E-14
 -1      1205 1.96511E+01-3.97813E-03-3.76621E-03-1.77549E-03 2.42344E-14-2.24308E-14
 -1      1206 1.99371E+01-4.55224E-03-5.01652E-03-1.22402E-03-8.14019E-15-3.05068E-14
 -1      1207 2.02524E+01-5.17109E-03-6.43109E-03-1.00709E-03-5.22179E-15 2.58678E-13
 -1      1208 2.06062E+01-5.57146E-03-7.69217E-03-1.30714E-03-8.16692E-15 2.60861E-13
 -1      1209 2.10063E+01-5.37746E-03-8.30693E-03-2.34420E-03 1.80975E-14 1.68515E-13
 -1      1210 2.14555E+01-4.06897E-03-7.52639E-03-4.35490E-03-1.44182E-14-1.26942E-13
 -1      1211 2.19465E+01-9.92875E-04-4.29210E-03-7.52085E-03-1.24917E-14-3.36606E-14
 -1      1212 2.24555E+01 4.51752E-03 2.69675E-03-1.18062E-02 1.72754E-14-2.32668E-13
 -1      1213 2.29335E+01 1.28158E-02 1.46178E-02-1.66651E-02 2.64970E-14-5.77472E-13
 -1      1214 2.32999E+01 2.33111E-02 3.16226E-02-2.06375E-02-1.19106E-14-3.68731E-13
 -1      1215 2.34412E+01 3.36257E-02 5.12863E-02-2.10307E-02 1.08871E-14-1.20031E-13
 -1      1216 2.32274E+01 3.90736E-02 6.69767E-02-1.42270E-02-2.48915E-14 2.23606E-13
 -1      1217 2.25561E+01 3.37074E-02 6.79479E-02 2.60994E-03 2.58183E-14 1.02314E-13
 -1      1218 2.14252E+01 1.39854E-02 4.38718E-02 2.83109E-02 1.19893E-14-1.54023E-13
 -1      1219 2.00083E+01-1.61735E-02-6.12215E-03 5.47785E-02-5.01942E-15-2.07195E-13
 -1      1220 1.86676E+01-4.42922E-02-6.60939E-02 6.86314E-02 1.57552E-14 7.84095E-15
 -1      1221 1.78431E+01-5.60080E-02-1.07734E-01 5.91110E-02-3.97772E-15-1.05957E-13
 -1      1222 1.78433E+01-4.60426E-02-1.08911E-01 2.71551E-02-2.25323E-14-9.86329E-14
 -1      1223 1.86679E+01-2.22107E-02-7.06704E-02-1.29740E-02 1.14596E-14-2.95888E-13
 -1      1224 2.00077E+01 2.13628E-03-1.56756E-02-4.38136E-02-1.77079E-14-4.54664E-13
 -1      1225 2.14236E+01 1.78989E-02 2.98842E-02-5.58411E-02 5.02877E-14-7.71452E-13
 -1      1226 2.25563E+01 2.33149E-02 5.25084E-02-5.06578E-02 3.88912E-14-5.18502E-13
 -1      1227 2.32341E+01 2.13543E-02 5.36073E-02-3.60521E-02-4.58006E-14-5.68295E-14
 -1      1228 2.34592E+01 1.59334E-02 4.21390E-02-1.98219E-02 1.47837E-14-9.46890E-14
 -1      1229 2.33343E+01 9.93819E-03 2.69556E-02-6.57436E-03-9.45641E-15-5.76162E-14
 -1      1230 2.29897E+01 4.85796E-03 1.34703E-02 2.24030E-03 1.90895E-15-4.87502E-13
 -1      1231 2.25398E+01 1.17204E-03 3.71582E-03 7.04619E-03 4.72135E-14-8.41473E-13
 -1      1232 2.20670E+01-1.18531E-03-2.31436E-03 8.94445E-03-9.04685E-15-6.71834E-13
 -1      1233 2.16222E+01-2.49151E-03-5.45230E-03 9.03669E-03 1.82496E-14-6.33008E-13
 -1      1234 2.12316E+01-3.05616E-03-6.64758E-03 8.16846E-03 6.94703E-16-7.00047E-13
 -1      1235 2.09049E+01-3.14525E-03-6.67977E-03 6.90073E-03-1.46128E-14-8.61815E-13
 -1      1236 2.06414E+01-2.96164E-03-6.10106E-03 5.56715E-03-7.13109E-14-4.22555E-13
 -1      1237 2.04353E+01-2.65067E-03-5.27218E-03 4.34543E-03 5.99069E-14-5.70448E-13
 -1      1238 2.02785E+01-2.31374E-03-4.42114E-03 3.31525E-03-1.05759E-15-1.11024E-12
 -1      1239 2.01628E+01-2.01912E-03-3.69488E-03 2.49513E-03-4.82181E-14-5.87685E-13
 -1      1240 2.00808E+01-1.80298E-03-3.18855E-03 1.85947E-03-3.55282E-15-3.23046E-13
 -1      1241 2.00267E+01-1.67179E-03-2.92926E-03 1.33453E-03-2.10713E-14-7.50271E-13
 -1      1242 1.99969E+01-1.48539E-03-2.65219E-03 7.09819E-04 1.06321E-13-1.83484E-12
 -1      1243 1.99893E+01-5.54797E-04-1.11694E-03-4.52196E-04 6.89352E-14-2.17295E-12
 -1      1244 1.99969E+01 1.05192E-03 2.99892E-03-1.06108E-03-4.55536E-15-1.32966E-12
 -1      1245 2.00007E+01-3.18284E-03 2.73707E-03-1.12015E-03-1.27203E-12-1.10412E-13
 -1      1246 1.99985E+01-1.00712E-02-1.56699E-03-1.56701E-03-1.51098E-12 1.56478E-14
 -1      1247 1.99982E+01-2.94134E-04-2.62801E-03-1.16351E-04-3.31773E-13 1.02990E-13
 -1      1248 1.99987E+01 2.86789E-02-1.87340E-03 8.30322E-04-1.32189E-13 5.34429E-14
 -1      1249 1.99996E+01 6.99203E-02-5.48961E-04 1.28428E-03 2.89209E-13-1.07731E-13
 -1      1250 2.00005E+01 1.14090E-01 7.65680E-04 1.32579E-03-9.79698E-14-2.63998E-14
 -1      1251 2.00012E+01 1.52932E-01 1.83533E-03 1.07481E-03-1.57597E-14 5.06977E-14
 -1      1252 2.00018E+01 1.79623E-01 2.54968E-03 5.87060E-04-7.23301E-14-1.59651E-13
 -1      1253 2.00020E+01 1.88993E-01 2.80697E-03-1.66555E-05-6.31732E-13 3.35002E-14
 -1      1254 2.00018E+01 1.79315E-01 2.57172E-03-6.24593E-04-9.10470E-13 1.64477E-13
 -1      1255 2.00013E+01 1.52162E-01 1.85667E-03-1.11817E-03-9.44684E-13-1.35740E-13
 -1      1256 2.00005E+01 1.12671E-01 7.58182E-04-1.38652E-03-8.32644E-13 7.30974E-14
 -1      1257 1.99996E+01 6.78934E-02-6.01743E-04-1.31348E-03-1.02667E-12-1.37580E-13
 -1      1258 1.99986E+01 2.63682E-02-1.97618E-03-8.32436E-04-8.22757E-13 1.17186E-13
 -1      1259 1.99983E+01-2.66974E-03-2.78068E-03 1.82995E-04-5.39122E-13 5.33957E-14
 -1      1260 1.99982E+01-9.87349E-03-1.17234E-03 2.69353E-03-3.88802E-13-1.27196E-14
 -1      1261 2.00008E+01-3.81792E-03 2.76432E-03 1.42073E-03-1.02274E-13 7.55159E-14
 -1      1262-1.31518E+00-2.31856E+01-3.68461E+00-2.18690E+00 9.48852E-13 2.05044E-13
 -1      1263-1.70875E+00-1.41648E+01-3.01358E+00-3.84614E+00 1.49458E-12 4.74898E-13
 -1      1264 9.45992E-01-1.19841E+00-1.66526E+00 7.02229E-01 1.62115E-12 1.01463E-12
 -1      1265 1.07113E+01 8.52125E+00-8.79432E-02 9.44845E+00 1.56275E-12 1.61404E-12
 -1      1266 2.77577E+01 1.10482E+01 1.58240E+00 1.67454E+01 1.02551E-12 1.56808E-12
 -1      1267 4.77158E+01 7.57975E+00 3.03257E+00 1.72557E+01 6.07348E-13 1.48792E-12
 -1      1268 6.26533E+01 2.96435E+00 3.91109E+00 8.98764E+00 2.14113E-13 6.75016E-13
 -1      1269 6.60132E+01 1.74814E+00 4.13371E+00-3.91900E+00 5.10356E-14-5.21000E-13
 -1      1270 5.53686E+01 5.46368E+00 3.51570E+00-1.46689E+01 6.18977E-13-1.80878E-12
 -1      1271 3.56815E+01 1.02285E+01 2.25641E+00-1.75751E+01 1.44396E-12-2.60503E-12
 -1      1272 1.64523E+01 1.03001E+01 5.99065E-01-1.26226E+01 2.37388E-12-2.58393E-12
 -1      1273 3.63650E+00 2.96044E+00-1.09563E+00-3.62048E+00 2.76690E-12-1.99796E-12
 -1      1274-1.35049E+00-9.43852E+00-2.52684E+00 3.00149E+00 2.28417E-12-1.11672E-12
 -1      1275-1.47620E+00-2.04957E+01-3.47132E+00 3.51931E+00 9.29479E-13-3.42809E-13
 -1      1276-1.00436E+00-2.49961E+01-3.80104E+00-2.58279E-01-1.05996E-12-1.82743E-13
 -1      1277-1.63239E+00-2.02732E+01-3.49911E+00-3.91590E+00-2.08356E-12-5.19196E-13
 -1      1278-1.47992E+00-8.94428E+00-2.58059E+00-3.02611E+00-2.13363E-12-1.01408E-12
 -1      1279 3.64594E+00 3.06864E+00-1.14927E+00 3.55962E+00-2.37588E-12-1.73750E-12
 -1      1280 1.67053E+01 1.00247E+01 5.22988E-01 1.24227E+01-1.89715E-12-2.21867E-12
 -1      1281 3.66692E+01 9.94065E+00 2.26015E+00 1.79099E+01-1.35270E-12-2.48690E-12
 -1      1282 5.67299E+01 5.41841E+00 3.66690E+00 1.46266E+01-5.70072E-13-1.84908E-12
 -1      1283 6.79830E+01 1.80179E+00 4.45320E+00 3.61315E+00-1.10544E-13-9.17433E-13
 -1      1284 6.37615E+01 3.45602E+00 4.19960E+00-9.62744E+00-1.20959E-13 1.73084E-13
 -1      1285 4.67686E+01 8.24949E+00 3.11211E+00-1.72554E+01-5.82367E-13 1.10179E-12
 -1      1286 2.54065E+01 1.09054E+01 1.37906E+00-1.58602E+01-1.08802E-12 1.53211E-12
 -1      1287 8.66193E+00 7.34666E+00-4.24891E-01-7.91320E+00-1.74483E-12 1.61737E-12
 -1      1288 1.47834E-01-2.61367E+00-1.93604E+00 3.17387E-01-2.21911E-12 1.42530E-12
 -1      1289-1.89108E+00-1.51435E+01-3.11441E+00 4.15232E+00-1.01541E-12 4.12448E-13
 -1      1290-1.23198E+00-2.39997E+01-3.79072E+00 2.23515E+00-1.76970E-13 1.13853E-13
 -1      1291 2.22179E+01 1.83588E+00-7.24528E-01-2.78505E+00-4.96547E-14 9.87155E-13
 -1      1292 2.03402E+01 4.68538E+00-4.81954E-02-3.29813E+00-1.46161E-13 2.70686E-14
 -1      1293 2.08373E+01 4.80279E+00-1.13140E-01-4.15135E+00-1.82687E-13 2.52777E-13
 -1      1294 1.95288E+01 4.99161E+00-1.93938E-02-2.64433E+00-1.47660E-13-3.01318E-13
 -1      1295 1.98197E+01 5.08634E+00 5.44171E-04-3.03575E+00-1.63848E-13-1.56541E-13
 -1      1296 2.05114E+01 3.94900E+00-2.57402E-02-3.06392E+00-2.49269E-13 2.68674E-14
 -1      1297 1.91923E+01 5.08634E+00-3.40429E-03-2.05976E+00-1.19989E-13-4.69264E-13
 -1      1298 1.93361E+01 5.14008E+00 1.08661E-02-2.35283E+00-1.39520E-13-3.90823E-13
 -1      1299 1.97538E+01 4.36564E+00-2.42996E-02-2.47703E+00-2.34640E-13-2.52048E-13
 -1      1300 1.90243E+01 5.13592E+00 3.29511E-03-1.55365E+00-9.72313E-14-5.55384E-13
 -1      1301 1.90991E+01 5.16463E+00 1.28132E-02-1.80346E+00-1.07277E-13-5.17308E-13
 -1      1302 1.94018E+01 4.55889E+00-1.98371E-02-1.91928E+00-1.88049E-13-3.98331E-13
 -1      1303 1.89343E+01 5.16839E+00 6.44402E-03-1.10740E+00-6.43821E-14-5.95086E-13
 -1      1304 1.89752E+01 5.18427E+00 1.28628E-02-1.32796E+00-8.18191E-14-5.72190E-13
 -1      1305 1.92215E+01 4.66972E+00-1.59021E-02-1.43247E+00-1.46545E-13-4.64250E-13
 -1      1306 1.88847E+01 5.19003E+00 8.06197E-03-6.86928E-01-5.07988E-14-6.08446E-13
 -1      1307 1.89070E+01 5.19868E+00 1.20510E-02-8.95653E-01-5.41121E-14-6.09962E-13
 -1      1308 1.91211E+01 4.73859E+00-1.37995E-02-9.94363E-01-9.80398E-14-5.12125E-13
 -1      1309 1.88615E+01 5.20309E+00 9.16062E-03-2.85954E-01-1.92345E-14-6.01998E-13
 -1      1310 1.88711E+01 5.20687E+00 1.10545E-02-4.86152E-01-2.75613E-14-6.00891E-13
 -1      1311 1.90665E+01 4.78001E+00-1.26834E-02-5.82231E-01-6.92479E-14-5.10564E-13
 -1      1312 1.88578E+01 5.20841E+00 1.01343E-02 1.07246E-01 1.10860E-14-5.97073E-13
 -1      1313 1.88575E+01 5.20829E+00 1.00655E-02-9.03464E-02-3.09757E-16-5.98004E-13
 -1      1314 1.90426E+01 4.79935E+00-1.22197E-02-1.86762E-01-1.51364E-14-5.07330E-13
 -1      1315 1.88726E+01 5.20646E+00 1.11475E-02 5.03611E-01 3.70251E-14-5.97786E-13
 -1      1316 1.88623E+01 5.20244E+00 9.09915E-03 3.03007E-01 3.19318E-14-5.98013E-13
 -1      1317 1.90433E+01 4.79871E+00-1.22374E-02 2.03549E-01 3.48958E-14-5.09117E-13
 -1      1318 1.89099E+01 5.19745E+00 1.21764E-02 9.14542E-01 6.50226E-14-5.91001E-13
 -1      1319 1.88868E+01 5.18864E+00 8.00779E-03 7.04877E-01 5.29271E-14-5.96001E-13
 -1      1320 1.90688E+01 4.77793E+00-1.27322E-02 5.99660E-01 7.67412E-14-5.04798E-13
 -1      1321 1.89790E+01 5.18232E+00 1.30781E-02 1.34563E+00 8.20576E-14-5.57897E-13
 -1      1322 1.89373E+01 5.16602E+00 6.36720E-03 1.12364E+00 7.75907E-14-5.80619E-13
 -1      1323 1.91251E+01 4.73495E+00-1.37658E-02 1.00958E+00 1.16923E-13-4.92592E-13
 -1      1324 1.91065E+01 5.16087E+00 1.30871E-02 1.82947E+00 1.20341E-13-4.87027E-13
 -1      1325 1.90299E+01 5.13138E+00 3.15133E-03 1.57694E+00 1.02925E-13-5.26100E-13
 -1      1326 1.92278E+01 4.66306E+00-1.59311E-02 1.45056E+00 1.54798E-13-4.45290E-13
 -1      1327 1.93465E+01 5.13389E+00 1.04783E-02 2.38691E+00 1.51795E-13-3.64854E-13
 -1      1328 1.92012E+01 5.07822E+00-4.24232E-03 2.08942E+00 1.37935E-13-4.39329E-13
 -1      1329 1.94149E+01 4.54648E+00-1.97808E-02 1.94546E+00 2.10673E-13-3.69631E-13
 -1      1330 1.98447E+01 5.09556E+00 6.33598E-03 3.07393E+00 1.71890E-13-1.19314E-13
 -1      1331 1.95401E+01 4.98278E+00-2.02498E-02 2.68625E+00 1.54307E-13-2.69326E-13
 -1      1332 1.97746E+01 4.34624E+00-2.43642E-02 2.51567E+00 2.51578E-13-2.19137E-13
 -1      1333 2.10728E+01 4.89910E+00 8.35491E-03 4.04415E+00 1.62370E-13 3.44183E-13
 -1      1334 2.03146E+01 4.72884E+00-4.75594E-02 3.40704E+00 1.55362E-13 6.22072E-14
 -1      1335 2.05492E+01 3.91229E+00-2.22383E-02 3.16699E+00 2.65513E-13 5.47618E-14
 -1      1336 2.71400E+01 3.19795E+00 9.25533E-01 4.57194E+00 8.96921E-14 1.22818E-12
 -1      1337 2.19801E+01 3.51682E+00-1.81404E-01 3.87636E+00 9.03444E-14 6.08347E-13
 -1      1338 2.20778E+01 2.55799E+00-3.25810E-02 3.44661E+00 2.70554E-13 4.76591E-13
 -1      1339 2.13772E+01 3.59241E-01-7.62408E-01 1.18058E+00 1.54654E-13 1.17040E-12
 -1      1340 2.19527E+01 1.31303E-01-4.00412E-01-1.28134E+00-1.46577E-13 1.03759E-12
 -1      1341 2.06346E+01 3.06328E-01-1.64514E-01-8.02277E-01-1.42261E-13 8.74564E-13
 -1      1342 2.00408E+01 1.53493E-01-7.33312E-02-3.98817E-01-1.02533E-13 7.97331E-13
 -1      1343 1.95749E+01 9.14065E-02-1.47696E-02-3.26643E-01-9.18779E-14 6.55261E-13
 -1      1344 2.09396E+01 3.68668E-01-1.04214E-01-1.26685E+00-2.27166E-13 4.80432E-13
 -1      1345 1.92224E+01 6.48872E-02 3.15625E-03-1.31335E-01-7.18245E-14 5.91659E-13
 -1      1346 1.90729E+01 4.18902E-02 1.33585E-02-1.13292E-01-5.84203E-14 4.89622E-13
 -1      1347 1.98974E+01 1.34218E-01-3.52715E-02-4.96384E-01-1.66190E-13 3.70811E-13
 -1      1348 1.89191E+01 3.23270E-02 1.33611E-02-2.21378E-02-4.97146E-14 4.30517E-13
 -1      1349 1.89068E+01 2.04516E-02 1.12299E-02-1.23037E-02-6.96674E-14 3.33563E-13
 -1      1350 1.94315E+01 5.64729E-02-8.75831E-03-1.59605E-01-1.22544E-13 2.52943E-13
 -1      1351 1.88603E+01 1.72860E-02 8.92757E-03 3.40225E-02-6.15705E-14 3.15824E-13
 -1      1352 1.89137E+01 1.06711E-02 6.66604E-03 3.93551E-02-6.19591E-14 2.32672E-13
 -1      1353 1.92386E+01 2.61830E-02-3.87336E-03 4.46526E-03-1.21987E-13 1.64875E-13
 -1      1354 1.89277E+01 9.74139E-03 4.85710E-03 6.44958E-02-5.34926E-14 2.12816E-13
 -1      1355 1.90149E+01 5.78272E-03 3.93593E-03 6.74172E-02-3.18482E-14 1.54466E-13
 -1      1356 1.92051E+01 1.28786E-02-2.75730E-03 9.11821E-02-9.99851E-14 1.33528E-13
 -1      1357 1.90647E+01 5.86442E-03 2.65850E-03 8.18596E-02-1.65939E-14 1.27226E-13
 -1      1358 1.91703E+01 3.48032E-03 2.58240E-03 8.35820E-02-3.19578E-14 9.49900E-14
 -1      1359 1.92650E+01 6.65106E-03-2.07787E-03 1.39619E-01-6.35637E-14 6.34115E-14
 -1      1360 1.92428E+01 4.13107E-03 1.57418E-03 9.30344E-02-1.28257E-14 8.53128E-14
 -1      1361 1.93602E+01 2.78117E-03 1.89791E-03 9.43471E-02-3.10519E-14 3.64665E-14
 -1      1362 1.93825E+01 4.09882E-03-1.58360E-03 1.69048E-01-4.95578E-14 3.41093E-14
 -1      1363 1.94491E+01 3.82710E-03 1.00196E-03 1.02403E-01-2.13853E-14 5.84888E-14
 -1      1364 1.95769E+01 3.20070E-03 1.52179E-03 1.03882E-01-1.33570E-14 4.99162E-14
 -1      1365 1.95387E+01 3.84399E-03-1.36128E-03 1.90630E-01-3.78516E-14 5.44007E-14
 -1      1366 1.96804E+01 4.57645E-03 6.52964E-04 1.13072E-01-2.94825E-14 3.04002E-14
 -1      1367 1.98208E+01 4.46411E-03 1.29829E-03 1.15169E-01 4.19088E-15 2.17508E-14
 -1      1368 1.97257E+01 5.23594E-03-1.42283E-03 2.11743E-01-1.86288E-14 7.51906E-14
 -1      1369 1.99401E+01 6.15769E-03 3.91995E-04 1.27414E-01-1.19738E-14-3.28401E-14
 -1      1370 2.00981E+01 6.38689E-03 1.14774E-03 1.30503E-01-3.35385E-14-5.87343E-14
 -1      1371 1.99427E+01 7.92195E-03-1.73270E-03 2.37761E-01-3.41580E-14-3.40720E-14
 -1      1372 2.02366E+01 8.40973E-03 1.37854E-04 1.47304E-01-4.70665E-14-6.50278E-14
 -1      1373 2.04194E+01 8.79929E-03 1.00820E-03 1.51694E-01-3.92741E-14-1.46742E-13
 -1      1374 2.01942E+01 1.16644E-02-2.24596E-03 2.72814E-01-6.57922E-14-1.26711E-13
 -1      1375 2.05821E+01 1.11561E-02-1.77603E-04 1.74130E-01 2.61651E-14-1.03951E-13
 -1      1376 2.07987E+01 1.14680E-02 8.12936E-04 1.80048E-01 1.44945E-14-6.88286E-14
 -1      1377 2.04882E+01 1.62133E-02-2.91527E-03 3.20021E-01-1.06408E-14-1.17609E-13
 -1      1378 2.09914E+01 1.41101E-02-6.20852E-04 2.08582E-01 3.10834E-14-5.17607E-14
 -1      1379 2.12513E+01 1.39852E-02 4.85233E-04 2.16104E-01 1.01592E-14-4.54584E-14
 -1      1380 2.08350E+01 2.11551E-02-3.67869E-03 3.81266E-01 4.26603E-14-9.19152E-14
 -1      1381 2.14794E+01 1.67300E-02-1.24664E-03 2.50093E-01-2.05821E-14-5.33358E-14
 -1      1382 2.17911E+01 1.55988E-02-4.70700E-05 2.58996E-01-6.37945E-14-8.72956E-14
 -1      1383 2.12458E+01 2.56782E-02-4.43288E-03 4.56411E-01-8.17358E-15-1.91463E-13
 -1      1384 2.20583E+01 1.79938E-02-2.05523E-03 2.95777E-01-4.92122E-14-9.16853E-14
 -1      1385 2.24259E+01 1.49681E-02-7.98908E-04 3.05249E-01-4.51111E-14-1.31475E-13
 -1      1386 2.17298E+01 2.82037E-02-4.98634E-03 5.41662E-01-5.30355E-14-9.04138E-14
 -1      1387 2.27309E+01 1.60866E-02-2.89272E-03 3.38638E-01-2.33249E-14-1.34484E-13
 -1      1388 2.31485E+01 9.88358E-03-1.61166E-03 3.46802E-01-3.27689E-15-1.48583E-13
 -1      1389 2.22898E+01 2.58573E-02-4.98370E-03 6.26749E-01-4.65645E-14-5.87386E-14
 -1      1390 2.34812E+01 8.09206E-03-3.27839E-03 3.65016E-01-5.70952E-14-1.73193E-13
 -1      1391 2.39239E+01-2.84458E-03-1.97197E-03 3.68242E-01-8.94007E-14-2.80560E-13
 -1      1392 2.29162E+01 1.39190E-02-3.80279E-03 6.90706E-01-6.18791E-14-1.90343E-13
 -1      1393 2.42596E+01-9.94502E-03-2.21522E-03 3.51917E-01-3.70797E-16-3.41165E-13
 -1      1394 2.46709E+01-2.67523E-02-8.79847E-04 3.44164E-01 5.38588E-15-3.16046E-13
 -1      1395 2.35777E+01-1.41767E-02-4.77571E-04 6.96983E-01-9.04454E-14-1.54862E-13
 -1      1396 2.49647E+01-4.16831E-02 1.74380E-03 2.66733E-01 9.07720E-14-3.07131E-13
 -1      1397 2.52464E+01-6.32123E-02 2.92064E-03 2.39744E-01 5.24832E-14-2.26617E-13
 -1      1398 2.42095E+01-6.48008E-02 6.16881E-03 5.91104E-01 8.66876E-14-2.69421E-13
 -1      1399 2.54299E+01-8.62782E-02 9.65802E-03 7.51573E-02 1.16334E-13-3.62019E-14
 -1      1400 2.54449E+01-1.05778E-01 9.75236E-03 2.14913E-02 1.44343E-13 1.38636E-13
 -1      1401 2.47038E+01-1.37569E-01 1.67901E-02 3.09133E-01 2.48815E-13-2.35552E-13
 -1      1402 2.54345E+01-1.30497E-01 1.99015E-02-2.33998E-01 6.88338E-14 2.36108E-13
 -1      1403 2.50463E+01-1.32786E-01 1.66699E-02-3.12543E-01-1.56229E-14 2.35485E-13
 -1      1404 2.49122E+01-2.12632E-01 2.97039E-02-1.89054E-01 1.84495E-13 2.99435E-15
 -1      1405 2.47738E+01-1.42025E-01 2.55110E-02-6.05011E-01-8.38010E-14 2.68043E-13
 -1      1406 2.39385E+01-1.07621E-01 1.60780E-02-6.84822E-01-3.64691E-14 2.02449E-13
 -1      1407 2.46786E+01-2.39542E-01 3.80209E-02-8.51823E-01-4.62512E-14 1.72208E-13
 -1      1408 2.34124E+01-8.00762E-02 1.61230E-02-8.80542E-01 1.03029E-13 1.77969E-13
 -1      1409 2.22958E+01-3.50350E-03 2.40396E-04-9.12617E-01 2.43308E-14 2.90309E-13
 -1      1410 2.39266E+01-1.52345E-01 2.92390E-02-1.46020E+00-9.67629E-15 2.59529E-13
 -1      1411 2.16694E+01 6.13037E-02-1.09303E-02-8.47270E-01-1.16063E-13 3.41088E-13
 -1      1412 2.06762E+01 1.48848E-01-2.80593E-02-7.85446E-01-1.04264E-13 2.22225E-13
 -1      1413 2.27974E+01 6.57444E-02-5.73724E-03-1.64522E+00-1.34563E-14 2.47712E-13
 -1      1414 2.02368E+01 2.08516E-01-4.11209E-02-4.05438E-01-4.02109E-14 1.71044E-13
 -1      1415 1.98364E+01 2.48057E-01-4.84099E-02-2.61048E-01-3.12562E-14 4.91239E-14
 -1      1416 2.17282E+01 3.19790E-01-5.29255E-02-1.11543E+00-1.67429E-13 3.36396E-13
 -1      1417 1.98378E+01 2.47287E-01-4.82931E-02 2.63345E-01 4.23966E-15-3.59400E-14
 -1      1418 2.02405E+01 2.07527E-01-4.06714E-02 4.06835E-01-4.94743E-14-2.78458E-14
 -1      1419 2.12824E+01 4.29726E-01-7.75444E-02 2.19485E-03-7.77642E-14 6.70479E-14
 -1      1420 2.06799E+01 1.48707E-01-2.78114E-02 7.85656E-01-1.38778E-14-9.22804E-14
 -1      1421 2.16735E+01 6.15696E-02-1.09385E-02 8.47627E-01 4.96131E-16-1.05027E-13
 -1      1422 2.17308E+01 3.17383E-01-5.33058E-02 1.11679E+00-2.90046E-14-8.67726E-14
 -1      1423 2.23013E+01-3.33039E-03 2.61422E-04 9.13451E-01-7.57528E-14-4.31322E-14
 -1      1424 2.34189E+01-7.99260E-02 1.61770E-02 8.81469E-01-3.00584E-14-1.07359E-13
 -1      1425 2.28020E+01 6.68219E-02-5.39304E-03 1.64669E+00-1.20147E-14-5.81202E-14
 -1      1426 2.39465E+01-1.07511E-01 1.59795E-02 6.86029E-01-7.55455E-14-1.19030E-13
 -1      1427 2.47832E+01-1.41862E-01 2.53349E-02 6.06267E-01-9.62234E-14-1.95524E-13
 -1      1428 2.39339E+01-1.52422E-01 2.90039E-02 1.46239E+00-8.59347E-14-7.94746E-14
 -1      1429 2.50575E+01-1.32537E-01 1.64802E-02 3.14323E-01-5.43038E-14-2.35430E-13
 -1      1430 2.54480E+01-1.30139E-01 1.97390E-02 2.35927E-01 5.50809E-14-2.19064E-13
 -1      1431 2.46892E+01-2.39308E-01 3.76311E-02 8.54924E-01-1.36207E-13 3.11921E-14
 -1      1432 2.54613E+01-1.05307E-01 9.64505E-03-1.86022E-02 1.28359E-13-2.37286E-13
 -1      1433 2.54499E+01-8.57120E-02 9.62421E-03-7.19889E-02 7.50979E-14-1.03782E-13
 -1      1434 2.49276E+01-2.11989E-01 2.93920E-02 1.93942E-01 4.26239E-14-6.50818E-14
 -1      1435 2.52708E+01-6.25741E-02 2.90387E-03-2.35222E-01-7.40736E-14-1.30250E-13
 -1      1436 2.49948E+01-4.09744E-02 1.78129E-03-2.61862E-01-8.65523E-14-3.60826E-13
 -1      1437 2.47264E+01-1.36592E-01 1.65646E-02-3.01425E-01 3.20629E-14-2.40732E-13
 -1      1438 2.47072E+01-2.59512E-02-8.64859E-04-3.37593E-01-2.13978E-14-2.90958E-13
 -1      1439 2.43041E+01-9.07388E-03-2.15189E-03-3.44916E-01 3.35730E-14-2.98712E-13
 -1      1440 2.42425E+01-6.35798E-02 5.93630E-03-5.79728E-01-7.90566E-14-2.17540E-13
 -1      1441 2.39768E+01-1.84575E-03-1.95297E-03-3.59135E-01 6.06060E-14-1.56366E-13
 -1      1442 2.35455E+01 9.16097E-03-3.19834E-03-3.55375E-01 4.25010E-14-1.09291E-13
 -1      1443 2.36252E+01-1.26527E-02-7.49554E-04-6.81035E-01 1.13552E-13 1.71746E-14
 -1      1444 2.32241E+01 1.11172E-02-1.60003E-03-3.34574E-01 4.90768E-14-1.43829E-13
 -1      1445 2.28217E+01 1.73836E-02-2.80383E-03-3.25754E-01 4.42469E-14-2.77868E-14
 -1      1446 2.29831E+01 1.58055E-02-4.13031E-03-6.69120E-01 5.52447E-14-1.39797E-13
 -1      1447 2.25314E+01 1.64731E-02-8.06086E-04-2.89222E-01-1.84958E-14-1.11265E-13
 -1      1448 2.21838E+01 1.95446E-02-1.96376E-03-2.78952E-01-2.69643E-14-2.80869E-14
 -1      1449 2.23820E+01 2.81720E-02-5.37630E-03-5.98286E-01-3.17541E-15-2.10184E-13
 -1      1450 2.19354E+01 1.74050E-02-8.57124E-05-2.38417E-01-1.75053E-14-3.58394E-15
 -1      1451 2.16494E+01 1.85472E-02-1.16154E-03-2.28559E-01-3.57034E-14-3.67597E-14
 -1      1452 2.18546E+01 3.10044E-02-5.44868E-03-5.04930E-01-1.17783E-13-8.69979E-14
 -1      1453 2.14446E+01 1.61083E-02 3.98051E-04-1.90181E-01-2.22811E-13-9.86823E-14
 -1      1454 2.12172E+01 1.61853E-02-5.55851E-04-1.81540E-01-2.44371E-13-3.93694E-13
 -1      1455 2.14116E+01 2.90058E-02-4.96397E-03-4.09922E-01-2.47500E-13-7.32628E-14
 -1      1456 2.10530E+01 1.39010E-02 6.53763E-04-1.48005E-01-3.91338E-14-3.71840E-13
 -1      1457 2.08767E+01 1.34486E-02-1.53789E-04-1.40812E-01-4.89821E-14-4.18848E-13
 -1      1458 2.10512E+01 2.50210E-02-4.26921E-03-3.23541E-01-2.21190E-13 2.66647E-14
 -1      1459 2.07479E+01 1.14992E-02 7.44585E-04-1.12868E-01-4.54248E-14-4.13943E-13
 -1      1460 2.06141E+01 1.08305E-02 8.81900E-05-1.07073E-01 6.77769E-14-3.99062E-13
 -1      1461 2.07650E+01 2.05824E-02-3.54328E-03-2.49748E-01-5.64028E-14-9.93445E-14
 -1      1462 2.05151E+01 9.25739E-03 7.33978E-04-8.44838E-02 1.15146E-13-4.58698E-13
 -1      1463 2.04154E+01 8.54760E-03 2.18414E-04-7.99122E-02 8.52353E-14-3.48426E-13
 -1      1464 2.05425E+01 1.64312E-02-2.87122E-03-1.89093E-01 6.90903E-14-4.14648E-13
 -1      1465 2.03407E+01 7.33174E-03 6.67341E-04-6.19962E-02 6.62242E-14-1.88273E-13
 -1      1466 2.02679E+01 6.67554E-03 2.72809E-04-5.84329E-02 7.96813E-14-1.15890E-13
 -1      1467 2.03727E+01 1.28800E-02-2.28939E-03-1.40458E-01 2.45538E-13 3.41505E-15
 -1      1468 2.02128E+01 5.77890E-03 5.68196E-04-4.43421E-02 6.41674E-14-8.10581E-14
 -1      1469 2.01612E+01 5.22404E-03 2.69148E-04-4.15640E-02 6.99682E-14-3.53986E-14
 -1      1470 2.02457E+01 1.00311E-02-1.81135E-03-1.02013E-01 1.92016E-13 1.82336E-13
 -1      1471 2.01216E+01 4.61030E-03 4.37990E-04-3.04198E-02 8.75022E-14-5.29744E-14
 -1      1472 2.00867E+01 4.17446E-03 2.08608E-04-2.82076E-02-1.26109E-15 3.00390E-14
 -1      1473 2.01528E+01 7.89760E-03-1.44108E-03-7.17016E-02 1.29822E-13 2.51339E-13
 -1      1474 2.00595E+01 3.81091E-03 2.63243E-04-1.91709E-02-5.60169E-14-1.01086E-13
 -1      1475 2.00382E+01 3.46803E-03 9.93816E-05-1.73142E-02-3.26073E-14-1.36992E-13
 -1      1476 2.00872E+01 6.46006E-03-1.17325E-03-4.74829E-02-1.19259E-13 1.22668E-14
 -1      1477 2.00210E+01 3.27400E-03 6.02554E-05-9.74390E-03 9.64840E-14-7.75757E-14
 -1      1478 2.00111E+01 2.89855E-03 4.40276E-05-8.07145E-03 1.07324E-13 8.22587E-14
 -1      1479 2.00434E+01 5.60157E-03-9.58004E-04-2.75624E-02 3.48493E-14-5.89383E-14
 -1      1480 2.00014E+01 3.07350E-03 9.77736E-05-1.80408E-03 5.34316E-14 1.32720E-13
 -1      1481 2.00011E+01 1.88929E-03 5.35581E-04-2.51518E-04-4.98640E-14 2.17505E-13
 -1      1482 2.00168E+01 4.85794E-03-6.84371E-04-1.10719E-02 1.86006E-13 1.32918E-15
 -1      1483 1.99976E+01-1.15378E-03 1.33098E-03 2.32649E-03-2.31552E-13 2.36935E-13
 -1      1484 2.00027E+01 2.08983E-04 1.26767E-04 9.98405E-04-2.12479E-13 1.65129E-13
 -1      1485 2.02163E+01 7.54685E-02-1.51837E-01 4.81086E-01 1.15241E-13 9.02150E-13
 -1      1486 2.14819E+01 2.15924E-01-2.29129E-01 7.17757E-01 1.06776E-13 1.09848E-12
 -1      1487 2.16889E+01 8.80343E-01-8.54111E-02 2.05788E+00 2.21129E-13 6.97609E-13
 -1      1488 1.92961E+01 3.25607E-02-2.12709E-02 1.83052E-01 9.54826E-14 6.75626E-13
 -1      1489 1.97129E+01 1.13712E-01-6.25409E-02 2.35098E-01 8.88144E-14 8.12267E-13
 -1      1490 2.02715E+01 1.87609E-01-5.51568E-02 7.80324E-01 1.77677E-13 5.28735E-13
 -1      1491 1.89246E+01 1.54863E-02 5.63734E-03 4.94501E-02 5.80256E-14 4.95794E-13
 -1      1492 1.90583E+01 5.20461E-02 1.07328E-03 7.59865E-02 7.35636E-14 6.08527E-13
 -1      1493 1.95360E+01 7.22736E-02-1.22244E-02 2.91938E-01 1.52340E-13 3.90432E-13
 -1      1494 1.88289E+01 7.74399E-03 6.88445E-03-1.51235E-02 6.15831E-14 3.74260E-13
 -1      1495 1.88364E+01 2.66450E-02 1.11744E-02-2.72160E-04 4.13506E-14 4.42955E-13
 -1      1496 1.92136E+01 3.19607E-02-2.61994E-03 7.34030E-02 1.03379E-13 2.67451E-13
 -1      1497 1.88772E+01 4.12474E-03 4.62788E-03-4.86240E-02 6.90789E-15 2.88021E-13
 -1      1498 1.88224E+01 1.50442E-02 8.62284E-03-3.97624E-02 2.32329E-14 3.31572E-13
 -1      1499 1.91157E+01 1.47604E-02-1.87793E-03-3.66700E-02 6.70462E-14 1.97614E-13
 -1      1500 1.90043E+01 2.32945E-03 3.06437E-03-6.67257E-02 1.82376E-14 2.52100E-13
 -1      1501 1.89171E+01 9.08020E-03 5.49868E-03-6.11394E-02 1.08020E-14 2.66643E-13
 -1      1502 1.91440E+01 6.71930E-03-2.02942E-03-9.57173E-02 2.35944E-14 1.33550E-13
 -1      1503 1.91766E+01 1.52613E-03 2.18521E-03-7.71027E-02 3.34514E-14 1.96095E-13
 -1      1504 1.90719E+01 5.95712E-03 3.59638E-03-7.32970E-02 1.98498E-14 2.16439E-13
 -1      1505 1.92457E+01 2.90200E-03-1.95752E-03-1.28931E-01 3.83374E-14 7.41568E-14
 -1      1506 1.93775E+01 1.34958E-03 1.59986E-03-8.41634E-02 4.05166E-14 1.04972E-13
 -1      1507 1.92619E+01 4.50215E-03 2.53031E-03-8.11759E-02 4.09163E-14 1.78855E-13
 -1      1508 1.93926E+01 1.40009E-03-1.82092E-03-1.49379E-01 6.20925E-14 7.17354E-14
 -1      1509 1.96004E+01 1.59714E-03 1.10921E-03-9.07143E-02 1.79623E-14 2.01657E-14
 -1      1510 1.94760E+01 4.14334E-03 1.88837E-03-8.78693E-02 2.24593E-14 6.52828E-14
 -1      1511 1.95703E+01 1.32577E-03-1.77993E-03-1.64761E-01 5.39962E-14 4.44103E-14
 -1      1512 1.98453E+01 2.12199E-03 6.47091E-04-9.86106E-02-1.07912E-14 5.59669E-14
 -1      1513 1.97110E+01 4.53957E-03 1.45911E-03-9.54155E-02-4.16697E-15 3.89259E-14
 -1      1514 1.97734E+01 2.17657E-03-1.88339E-03-1.79990E-01 3.20317E-15 2.92776E-14
 -1      1515 2.01164E+01 2.78513E-03 2.02929E-04-1.08990E-01-6.99007E-14 1.21393E-13
 -1      1516 1.99691E+01 5.42850E-03 1.14502E-03-1.05100E-01-2.71004E-14 4.15375E-14
 -1      1517 2.00015E+01 3.58798E-03-2.12248E-03-1.98211E-01-3.20961E-14 1.42769E-13
 -1      1518 2.04198E+01 3.42126E-03-2.07286E-04-1.22288E-01-4.91057E-15 1.61565E-13
 -1      1519 2.02556E+01 6.54439E-03 8.93975E-04-1.17515E-01-2.27572E-14 1.16843E-13
 -1      1520 2.02574E+01 5.21680E-03-2.45949E-03-2.21133E-01-4.00660E-14 8.70451E-14
 -1      1521 2.07615E+01 3.80424E-03-5.40376E-04-1.38091E-01 7.98179E-15 1.56587E-13
 -1      1522 2.05765E+01 7.55056E-03 6.71902E-04-1.32456E-01 8.22465E-15 1.57875E-13
 -1      1523 2.05454E+01 6.65429E-03-2.82738E-03-2.48952E-01-3.36742E-15 1.07617E-13
 -1      1524 2.11451E+01 3.61083E-03-7.09997E-04-1.54812E-01 7.79316E-14 3.57882E-14
 -1      1525 2.09369E+01 7.97002E-03 4.58471E-04-1.48651E-01 5.12479E-14 1.18653E-13
 -1      1526 2.08687E+01 7.34143E-03-3.11283E-03-2.79960E-01 6.28178E-14 3.85744E-14
 -1      1527 2.15673E+01 2.39169E-03-5.61775E-04-1.69220E-01-1.71788E-14-7.51621E-14
 -1      1528 2.13375E+01 7.11711E-03 2.56328E-04-1.63347E-01 4.06094E-14-1.05567E-14
 -1      1529 2.12271E+01 6.48385E-03-3.13045E-03-3.09846E-01 9.24432E-14 7.46326E-14
 -1      1530 2.20140E+01-4.22564E-04 1.49848E-04-1.75877E-01 1.38400E-14-9.27964E-14
 -1      1531 2.17704E+01 4.05921E-03 1.10809E-04-1.71787E-01 1.33519E-15-1.00546E-13
 -1      1532 2.16133E+01 2.99389E-03-2.59723E-03-3.30768E-01 1.16958E-14-9.08483E-14
 -1      1533 2.24536E+01-5.42262E-03 1.75465E-03-1.66729E-01 1.22311E-13-2.83409E-13
 -1      1534 2.22143E+01-2.31892E-03 1.34240E-04-1.66790E-01 8.04589E-14-1.46955E-13
 -1      1535 2.20092E+01-4.46226E-03-1.12814E-03-3.30472E-01 1.13957E-13-1.82056E-13
 -1      1536 2.28317E+01-1.29306E-02 4.56643E-03-1.31403E-01-6.89498E-14-3.84540E-13
 -1      1537 2.26282E+01-1.30084E-02 5.14972E-04-1.38864E-01 2.88699E-14-3.30731E-13
 -1      1538 2.23812E+01-1.71558E-02 1.70096E-03-2.92139E-01 9.79715E-14-1.66183E-13
 -1      1539 2.30686E+01-2.24176E-02 8.59477E-03-5.92204E-02-4.70934E-14-1.94947E-13
 -1      1540 2.29477E+01-2.81400E-02 1.45762E-03-7.77158E-02-8.42893E-14-3.13395E-13
 -1      1541 2.26770E+01-3.54695E-02 6.15086E-03-1.96335E-01-1.08549E-13-1.28438E-13
 -1      1542 2.30658E+01-3.16481E-02 1.30158E-02 5.57463E-02-1.00960E-13 8.25208E-15
 -1      1543 2.30854E+01-4.57067E-02 2.99185E-03 2.36602E-02-8.61568E-14-1.30114E-13
 -1      1544 2.28269E+01-5.73878E-02 1.18912E-02-2.71489E-02-1.62969E-13-1.02479E-13
 -1      1545 2.27303E+01-3.60429E-02 1.56248E-02 2.05955E-01 2.06866E-14 1.53526E-13
 -1      1546 2.29452E+01-6.01419E-02 4.61698E-03 1.61522E-01-3.29580E-14 8.50448E-14
 -1      1547 2.27539E+01-7.64138E-02 1.74929E-02 2.15636E-01-1.32975E-13 2.65885E-14
 -1      1548 2.20198E+01-2.95171E-02 1.29708E-02 3.60715E-01 6.86001E-14 1.17371E-14
 -1      1549 2.24538E+01-6.22023E-02 5.00801E-03 3.12142E-01 6.29392E-14 7.90548E-14
 -1      1550 2.23990E+01-8.07788E-02 2.01092E-02 4.99569E-01 1.04392E-13 3.57813E-14
 -1      1551 2.10013E+01-8.06738E-03 2.32880E-03 4.64045E-01 4.65621E-14-1.44919E-13
 -1      1552 2.16123E+01-4.24316E-02 2.38827E-03 4.27511E-01 4.05366E-14-1.03986E-13
 -1      1553 2.17608E+01-5.64458E-02 1.65647E-02 7.47476E-01 7.91962E-14-1.12188E-13
 -1      1554 1.98890E+01 2.44778E-02-1.50000E-02 4.52299E-01-1.48024E-14-9.09828E-14
 -1      1555 2.05476E+01 9.58084E-04-4.01426E-03 4.46808E-01-2.19390E-14-1.62183E-13
 -1      1556 2.09374E+01 2.77682E-03 5.72574E-03 8.48678E-01-4.14274E-15-1.61485E-13
 -1      1557 1.90094E+01 5.44585E-02-3.16290E-02 2.93853E-01 6.93022E-16 7.86524E-14
 -1      1558 1.95222E+01 5.48119E-02-1.22182E-02 3.29590E-01-1.47929E-14 4.73649E-14
 -1      1559 2.01366E+01 8.28785E-02-8.90479E-03 7.09887E-01-6.59490E-14-5.32907E-15
 -1      1560 1.86728E+01 6.53724E-02-3.74480E-02 2.49740E-02 3.73087E-14 4.33305E-14
 -1      1561 1.88596E+01 9.42305E-02-1.75521E-02 9.31976E-02 7.18939E-14 1.16081E-13
 -1      1562 1.96173E+01 1.47869E-01-2.05023E-02 3.27088E-01 4.17149E-14 1.98205E-13
 -1      1563 1.90100E+01 5.02837E-02-2.77935E-02-2.54282E-01 1.05576E-13-1.45356E-13
 -1      1564 1.87990E+01 9.80477E-02-1.57538E-02-1.80043E-01 3.32755E-14-1.05645E-13
 -1      1565 1.95718E+01 1.59917E-01-2.34412E-02-1.79538E-01 1.61518E-13-2.38759E-14
 -1      1566 1.98931E+01 1.87375E-02-7.59791E-03-4.37049E-01 3.30807E-14-3.82180E-13
 -1      1567 1.93637E+01 6.59309E-02-7.05267E-03-3.84809E-01 2.87756E-14-3.07657E-13
 -1      1568 2.00168E+01 1.09424E-01-1.77030E-02-6.17177E-01 1.03988E-13-3.10047E-13
 -1      1569 2.10113E+01-1.22612E-02 1.19834E-02-4.73388E-01 4.99958E-15-4.87332E-13
 -1      1570 2.03476E+01 1.77025E-02 3.84494E-03-4.56503E-01 3.20114E-14-4.54012E-13
 -1      1571 2.07846E+01 2.52815E-02-8.02983E-03-8.34741E-01 3.52435E-14-4.25764E-13
 -1      1572 2.20369E+01-3.07234E-02 2.27643E-02-3.85530E-01 3.06660E-14-5.49824E-13
 -1      1573 2.14306E+01-2.33463E-02 1.13711E-02-3.99306E-01 3.19276E-15-5.38854E-13
 -1      1574 2.16206E+01-4.97670E-02 3.62302E-04-8.00036E-01 2.63921E-14-5.15544E-13
 -1      1575 2.27553E+01-3.47574E-02 2.35283E-02-2.35276E-01-9.45919E-14-2.52631E-13
 -1      1576 2.23307E+01-4.48896E-02 1.32361E-02-2.65419E-01-6.90567E-14-4.25125E-13
 -1      1577 2.23047E+01-8.93751E-02 5.06190E-03-5.86916E-01-1.10139E-13-3.39888E-13
 -1      1578 2.31004E+01-2.90815E-02 1.80307E-02-8.21911E-02 5.60637E-14-1.39266E-13
 -1      1579 2.28942E+01-4.75906E-02 1.06645E-02-1.14824E-01-2.28186E-14-1.52895E-13
 -1      1580 2.27198E+01-9.25813E-02 6.36989E-03-3.06967E-01-1.06577E-13-1.04889E-13
 -1      1581 2.31160E+01-1.96511E-02 1.07088E-02 3.83766E-02 6.15272E-14-1.31950E-13
 -1      1582 2.31008E+01-3.87852E-02 6.33817E-03 1.16143E-02 2.69168E-14-1.00019E-13
 -1      1583 2.28520E+01-7.33734E-02 5.65802E-03-4.96873E-02 5.03902E-14-1.54411E-13
 -1      1584 2.28965E+01-1.05476E-02 4.42035E-03 1.15635E-01-4.42886E-14-2.33922E-13
 -1      1585 2.30158E+01-2.59938E-02 2.36369E-03 9.75816E-02 3.79926E-14-5.23592E-14
 -1      1586 2.27525E+01-4.69872E-02 4.17142E-03 1.39660E-01 5.76449E-15-1.37453E-13
 -1      1587 2.25412E+01-3.58420E-03 1.74900E-04 1.53977E-01 1.24961E-13-4.21319E-13
 -1      1588 2.27367E+01-1.40132E-02-3.14870E-04 1.44048E-01 9.53584E-14-2.67632E-13
 -1      1589 2.24972E+01-2.31314E-02 2.66644E-03 2.52897E-01 1.46782E-13-2.08257E-13
 -1      1590 2.21308E+01 9.50119E-04-2.14737E-03 1.63722E-01 7.30451E-14-6.26140E-13
 -1      1591 2.23561E+01-4.87639E-03-1.66414E-03 1.59946E-01 2.95726E-14-6.07014E-13
 -1      1592 2.21590E+01-5.65677E-03 1.45982E-03 3.02287E-01 1.50862E-13-3.41446E-13
 -1      1593 2.17212E+01 3.46613E-03-3.08712E-03 1.55444E-01-1.62225E-13-5.41672E-13
 -1      1594 2.19446E+01 1.14132E-03-2.05243E-03 1.55703E-01-9.14290E-14-6.09258E-13
 -1      1595 2.17948E+01 5.24276E-03 6.09195E-04 3.06702E-01-5.24413E-14-4.18254E-13
 -1      1596 2.13455E+01 4.55409E-03-3.19377E-03 1.37577E-01-8.57116E-15-5.00130E-13
 -1      1597 2.15489E+01 4.56415E-03-1.89770E-03 1.40136E-01 2.03850E-14-5.05727E-13
 -1      1598 2.14429E+01 1.09266E-02 6.13358E-05 2.83853E-01-4.01012E-14-5.09076E-13
 -1      1599 2.10200E+01 4.74295E-03-2.87641E-03 1.15947E-01 4.73913E-14-5.85499E-13
 -1      1600 2.11948E+01 6.12317E-03-1.51329E-03 1.19575E-01 3.26282E-14-4.95766E-13
 -1      1601 2.11256E+01 1.30464E-02-2.62370E-04 2.47328E-01 6.22896E-14-4.27051E-13
 -1      1602 2.07495E+01 4.42881E-03-2.39307E-03 9.41517E-02-1.13899E-13-5.30903E-13
 -1      1603 2.08936E+01 6.48079E-03-1.08597E-03 9.80600E-02-4.72736E-14-5.88328E-13
 -1      1604 2.08530E+01 1.30024E-02-4.32140E-04 2.06289E-01-6.57547E-15-2.75937E-13
 -1      1605 2.05320E+01 3.87974E-03-1.88803E-03 7.41490E-02-1.41098E-14-5.34621E-13
 -1      1606 2.06468E+01 6.14474E-03-7.06138E-04 7.78844E-02-1.44871E-13-6.33754E-13
 -1      1607 2.06274E+01 1.18087E-02-5.02049E-04 1.66264E-01-1.26129E-13-3.86295E-13
 -1      1608 2.03620E+01 3.26585E-03-1.43387E-03 5.67987E-02 4.19344E-14-6.11605E-13
 -1      1609 2.04510E+01 5.47056E-03-4.05820E-04 6.01387E-02 1.08668E-13-2.29854E-13
 -1      1610 2.04463E+01 1.01325E-02-5.12245E-04 1.30149E-01-8.78833E-15-3.01885E-13
 -1      1611 2.02329E+01 2.69107E-03-1.06498E-03 4.22647E-02-4.54430E-14-3.88400E-13
 -1      1612 2.02998E+01 4.69551E-03-1.88534E-04 4.51412E-02-3.15577E-14-4.05032E-13
 -1      1613 2.03049E+01 8.38568E-03-4.94289E-04 9.90924E-02-3.00489E-14 9.23521E-14
 -1      1614 2.01378E+01 2.21714E-03-8.00538E-04 3.02863E-02-4.95376E-14-2.60831E-13
 -1      1615 2.01865E+01 3.97525E-03-4.91808E-05 3.27351E-02-1.41671E-13-5.17326E-13
 -1      1616 2.01976E+01 6.81217E-03-4.75905E-04 7.31309E-02-9.83817E-14-1.08917E-13
 -1      1617 2.00710E+01 1.87107E-03-6.54531E-04 2.03613E-02 3.09876E-14-2.98506E-13
 -1      1618 2.01047E+01 3.40588E-03 1.32688E-05 2.24871E-02 4.41938E-14-1.83610E-13
 -1      1619 2.01187E+01 5.54970E-03-4.83453E-04 5.16356E-02-5.25096E-14-1.42612E-13
 -1      1620 2.00280E+01 1.65381E-03-6.03551E-04 1.19047E-02 3.12731E-13-8.91508E-13
 -1      1621 2.00489E+01 3.03211E-03-5.00470E-07 1.38541E-02 2.08975E-13-4.60563E-13
 -1      1622 2.00636E+01 4.65451E-03-5.33946E-04 3.36468E-02 3.00279E-13-2.28550E-13
 -1      1623 2.00052E+01 1.50726E-03-4.24620E-04 4.39044E-03 8.32942E-14-1.33432E-12
 -1      1624 2.00150E+01 2.81859E-03-2.58682E-05 6.36703E-03 1.41266E-13-1.01521E-12
 -1      1625 2.00280E+01 4.15844E-03-5.55497E-04 1.82361E-02 3.27252E-13-5.45508E-13
 -1      1626 1.99991E+01 9.30189E-04 6.24078E-04-1.36173E-03-2.20200E-13-1.11750E-12
 -1      1627 1.99994E+01 2.10320E-03 1.93991E-04 2.56817E-04-1.46332E-13-1.36234E-12
 -1      1628 2.00083E+01 3.17946E-03-3.66102E-04 5.06677E-03-2.45076E-14-4.46358E-13
 -1      1629 1.99982E+01-1.12808E-03 1.22561E-03-1.90178E-03-6.78779E-13-7.54794E-13
 -1      1630 2.00024E+01 2.76221E-03-3.27201E-04 2.75410E-03-5.47020E-13 4.47488E-13
 -1      1631 2.00021E+01 1.35173E-03 3.96141E-04 1.30295E-03-9.43647E-13 2.39124E-13
 -1      1632 2.00022E+01 2.15066E-02-3.81016E-04 9.91098E-03-1.84882E-13 4.30670E-14
 -1      1633 2.00025E+01 1.16132E-02-2.41484E-04 8.45752E-03-4.44715E-13 1.70192E-13
 -1      1634 2.00049E+01 1.67406E-02-4.92850E-04 1.17474E-02-9.13926E-14 4.63491E-13
 -1      1635 2.00011E+01 5.19908E-02-2.40490E-04 1.54852E-02-1.64989E-13 1.53370E-13
 -1      1636 2.00018E+01 3.50415E-02-2.53987E-04 1.45452E-02-1.42473E-13 1.05232E-13
 -1      1637 2.00037E+01 3.93054E-02-6.02094E-04 2.42238E-02-1.31003E-13 1.89534E-13
 -1      1638 1.99998E+01 8.90771E-02-1.01926E-04 1.79443E-02 1.86189E-13-9.76939E-14
 -1      1639 2.00006E+01 6.85964E-02-1.42378E-04 1.77166E-02 7.25817E-14 1.98408E-13
 -1      1640 2.00017E+01 6.97915E-02-2.76734E-04 3.24415E-02-8.85540E-14 1.71902E-13
 -1      1641 1.99986E+01 1.25446E-01-2.48927E-05 1.70154E-02 1.01928E-14-4.99653E-14
 -1      1642 1.99993E+01 1.05827E-01-5.12955E-05 1.74525E-02 4.46834E-14-1.67973E-13
 -1      1643 1.99996E+01 1.03430E-01 1.13403E-04 3.44203E-02-6.76591E-15-2.88638E-13
 -1      1644 1.99977E+01 1.55891E-01 1.90205E-05 1.30045E-02-1.07645E-14 9.98894E-14
 -1      1645 1.99982E+01 1.40192E-01 4.92112E-06 1.40148E-02-1.27901E-13 4.54804E-14
 -1      1646 1.99977E+01 1.35091E-01 4.67213E-04 3.01274E-02-4.07925E-14-8.78212E-14
 -1      1647 1.99971E+01 1.74437E-01 3.80005E-05 6.69703E-03-1.73478E-13-2.02956E-13
 -1      1648 1.99974E+01 1.65850E-01 3.30991E-05 8.08062E-03-6.62477E-14-3.67697E-14
 -1      1649 1.99962E+01 1.59873E-01 7.36086E-04 2.04611E-02-1.40471E-13-5.45478E-15
 -1      1650 1.99970E+01 1.77904E-01 4.13039E-05-7.94900E-04-4.39660E-13-1.08472E-13
 -1      1651 1.99970E+01 1.77979E-01 4.53104E-05 7.25258E-04-1.89443E-13-1.47637E-13
 -1      1652 1.99954E+01 1.73426E-01 8.83081E-04 7.21012E-03-1.43739E-14-2.50300E-13
 -1      1653 1.99974E+01 1.65644E-01 2.89697E-05-8.19306E-03-5.37706E-13 1.82480E-13
 -1      1654 1.99971E+01 1.74418E-01 4.31184E-05-6.79483E-03-6.48662E-13 1.43913E-13
 -1      1655 1.99954E+01 1.73510E-01 8.89215E-04-7.34403E-03-2.25431E-13-2.00161E-13
 -1      1656 1.99982E+01 1.39709E-01-3.88007E-06-1.42066E-02-5.69167E-13-1.50062E-13
 -1      1657 1.99977E+01 1.55672E-01 2.53604E-05-1.31822E-02-5.34066E-13 3.70469E-14
 -1      1658 1.99962E+01 1.60047E-01 7.49278E-04-2.07154E-02-2.97529E-13 1.13990E-13
 -1      1659 1.99993E+01 1.05254E-01-5.75265E-05-1.76690E-02-3.67921E-13 2.40711E-13
 -1      1660 1.99986E+01 1.25150E-01-2.57451E-05-1.72252E-02-4.47538E-13-1.01817E-13
 -1      1661 1.99977E+01 1.35423E-01 4.89024E-04-3.04795E-02-1.63203E-13-2.93473E-14
 -1      1662 2.00006E+01 6.73428E-02-1.51986E-04-1.78959E-02-4.77264E-13-2.29558E-13
 -1      1663 1.99999E+01 8.80276E-02-1.16166E-04-1.81500E-02-2.92930E-13-8.89840E-14
 -1      1664 1.99996E+01 1.03506E-01 1.19791E-04-3.48246E-02-7.44752E-14 1.22285E-13
 -1      1665 2.00018E+01 3.35867E-02-3.08592E-04-1.45282E-02-3.55162E-13 1.18642E-13
 -1      1666 2.00012E+01 5.05922E-02-2.57491E-04-1.55100E-02-5.66030E-13 2.39041E-13
 -1      1667 2.00019E+01 6.92320E-02-2.86999E-04-3.26573E-02 5.57454E-14-7.71395E-14
 -1      1668 2.00030E+01 1.07356E-02-1.08911E-04-8.36726E-03-3.39550E-13 1.17639E-13
 -1      1669 2.00021E+01 2.02375E-02-4.30772E-04-9.93796E-03-3.03337E-13 7.66069E-14
 -1      1670 2.00036E+01 3.87711E-02-6.21855E-04-2.40114E-02-8.67704E-14 1.30240E-13
 -1      1671 2.00037E+01 4.04283E-03 4.29954E-04-3.10263E-03-1.99010E-13 7.81629E-14
 -1      1672 2.00039E+01 5.70295E-03-3.80375E-04-5.12230E-03-2.68485E-13 1.38586E-13
 -1      1673 2.00078E+01 2.10236E-02-3.52025E-05-1.49314E-02-7.18583E-14 2.14241E-13
 -1      1674 2.00100E+01 1.10723E-02 4.53277E-04-7.71567E-03-7.95642E-15 1.70198E-15
 -1      1675-2.91360E-01-1.30479E+01-1.44121E+00-4.37020E-01 7.31193E-13 4.25160E-13
 -1      1676-4.14783E-01-1.53718E+01-1.62925E+00 6.16234E-01 3.06422E-13 2.19935E-13
 -1      1677 1.43058E+00-7.32634E+00-1.15825E+00 6.02715E-01 9.61120E-13 3.14859E-13
 -1      1678 7.06908E-01-1.23813E+01-1.65435E+00-2.01421E-02 9.34142E-13 2.90875E-13
 -1      1679 8.39225E+00-3.73384E-02-4.14059E-01 5.37965E+00 1.06160E-12 8.89955E-13
 -1      1680 4.84208E+00-5.46482E+00-1.17449E+00 2.31546E+00 9.46021E-13 6.60860E-13
 -1      1681 1.88823E+01 5.27214E+00 3.43512E-01 1.01096E+01 1.00409E-12 1.07436E-12
 -1      1682 1.21978E+01 2.18238E+00-5.19364E-01 6.53824E+00 1.07447E-12 9.97646E-13
 -1      1683 3.28871E+01 6.58884E+00 1.08631E+00 1.27500E+01 7.29417E-13 1.03717E-12
 -1      1684 2.38373E+01 6.48537E+00 2.59366E-01 1.10063E+01 1.00242E-12 1.08180E-12
 -1      1685 4.62604E+01 4.94337E+00 1.58922E+00 1.02906E+01 4.49252E-13 8.84626E-13
 -1      1686 3.79081E+01 6.61735E+00 9.95093E-01 1.21262E+01 6.09290E-13 1.05793E-12
 -1      1687 5.34867E+01 3.64623E+00 1.76616E+00 2.87709E+00 3.22020E-13 1.79634E-13
 -1      1688 4.91544E+01 4.84050E+00 1.49240E+00 7.84056E+00 4.54359E-13 7.30638E-13
 -1      1689 5.30743E+01 3.93742E+00 1.71122E+00-5.20645E+00 3.58741E-13-5.35461E-13
 -1      1690 5.48580E+01 3.41439E+00 1.83506E+00 3.06721E-01 2.43611E-13-7.65013E-14
 -1      1691 4.28381E+01 5.85824E+00 1.11489E+00-1.04210E+01 8.02004E-13-1.25433E-12
 -1      1692 5.01577E+01 4.24322E+00 1.67744E+00-7.12413E+00 5.38403E-13-7.23310E-13
 -1      1693 2.90602E+01 6.05471E+00 4.09031E-01-1.07710E+01 1.27187E-12-1.60494E-12
 -1      1694 3.83259E+01 5.39105E+00 1.13597E+00-1.11541E+01 9.22318E-13-1.42453E-12
 -1      1695 1.58015E+01 4.39166E+00-2.78922E-01-8.36426E+00 1.74705E-12-1.69675E-12
 -1      1696 2.34338E+01 6.18198E+00 5.47056E-01-1.14382E+01 1.50480E-12-1.81899E-12
 -1      1697 7.42416E+00-2.88930E+00-9.25239E-01-3.72925E+00 1.68743E-12-1.18550E-12
 -1      1698 1.22570E+01 1.90788E+00-1.31768E-01-7.24155E+00 1.69165E-12-1.48914E-12
 -1      1699 1.53236E+00-1.00904E+01-1.58007E+00-2.70209E-01 1.30274E-12-8.36053E-13
 -1      1700 2.97265E+00-4.59269E+00-9.68539E-01-1.87484E+00 1.75127E-12-1.17961E-12
 -1      1701-1.54178E-01-1.53609E+01-1.77561E+00-6.40820E-02 8.62088E-14-6.42653E-13
 -1      1702 2.75880E-02-1.17408E+01-1.46086E+00 5.24512E-01 9.59011E-13-8.07861E-13
 -1      1703-7.32531E-01-1.57541E+01-1.71780E+00-9.11918E-01-9.52127E-13-4.57051E-13
 -1      1704-7.09161E-01-1.57907E+01-1.71305E+00 5.89341E-01-1.95371E-13-5.08954E-13
 -1      1705 4.57559E-02-1.15886E+01-1.47574E+00-7.00318E-01-1.37923E-12-4.87832E-13
 -1      1706-1.26938E-01-1.53240E+01-1.79146E+00-2.06214E-01-1.16046E-12-3.31291E-13
 -1      1707 3.33195E+00-4.36849E+00-9.80816E-01 1.90042E+00-1.57785E-12-1.01380E-12
 -1      1708 1.69227E+00-9.94231E+00-1.60474E+00 1.35961E-01-1.43929E-12-7.54674E-13
 -1      1709 1.12725E+01 2.36667E+00-2.80013E-01 6.89488E+00-1.55764E-12-1.29774E-12
 -1      1710 6.49849E+00-2.28834E+00-1.11194E+00 3.29154E+00-1.65512E-12-1.09235E-12
 -1      1711 2.47986E+01 5.10094E+00 5.33099E-01 1.09069E+01-1.18605E-12-1.58518E-12
 -1      1712 1.69354E+01 3.15253E+00-3.24980E-01 7.85650E+00-1.36025E-12-1.37379E-12
 -1      1713 3.95804E+01 5.69394E+00 1.31549E+00 1.18772E+01-8.87290E-13-1.58540E-12
 -1      1714 2.97521E+01 6.44525E+00 4.75017E-01 1.14325E+01-1.13554E-12-1.63403E-12
 -1      1715 5.14043E+01 4.12783E+00 1.77474E+00 6.97419E+00-5.10383E-13-1.15907E-12
 -1      1716 4.40431E+01 5.72306E+00 1.22761E+00 1.03403E+01-7.98861E-13-1.47793E-12
 -1      1717 5.59136E+01 3.46525E+00 1.91021E+00-6.61810E-01-2.30704E-13-6.28695E-13
 -1      1718 5.43302E+01 3.97597E+00 1.83858E+00 5.05886E+00-3.95461E-13-1.05255E-12
 -1      1719 4.84824E+01 5.03013E+00 1.33378E+00-7.61838E+00-4.08173E-13 1.32783E-13
 -1      1720 5.35372E+01 3.88260E+00 1.74283E+00-2.76578E+00-2.98594E-13-3.00149E-13
 -1      1721 3.62818E+01 6.01207E+00 7.25649E-01-1.07841E+01-6.28164E-13 5.86420E-13
 -1      1722 4.51355E+01 4.62425E+00 1.35498E+00-9.31074E+00-3.43475E-13 2.59237E-13
 -1      1723 2.19326E+01 5.76455E+00 2.51539E-02-1.02002E+01-9.92761E-13 9.59011E-13
 -1      1724 3.11713E+01 6.13334E+00 8.74409E-01-1.23175E+01-8.00027E-13 7.35856E-13
 -1      1725 1.06119E+01 1.17236E+00-7.36064E-01-5.66062E+00-1.39044E-12 9.26037E-13
 -1      1726 1.69091E+01 4.62861E+00 1.43986E-01-9.33482E+00-1.06393E-12 9.38361E-13
 -1      1727 3.68342E+00-6.07628E+00-1.35649E+00-1.44469E+00-1.15219E-12 8.43048E-13
 -1      1728 6.66416E+00-6.56790E-01-6.19385E-01-4.25452E+00-1.37557E-12 1.05682E-12
 -1      1729 6.27337E-01-1.30759E+01-1.69915E+00 2.15563E-01-4.73621E-13 4.29424E-13
 -1      1730 1.35472E+00-8.08302E+00-1.22491E+00-3.54694E-01-9.64895E-13 8.22981E-13
 -1      1731-5.78356E-01-1.59807E+01-1.72065E+00-3.18442E-01 1.10162E-13 1.82188E-13
 -1      1732-5.78046E-01-1.41015E+01-1.59119E+00 1.00030E+00-2.95985E-13 2.72338E-13
 -1      1733 2.52699E+01 1.47514E+00 3.04498E-01 7.53362E+00 6.85119E-13 6.84341E-13
 -1      1734 1.54947E+01-2.88230E+00-2.69988E-01 6.64073E+00 5.48894E-13 5.82423E-13
 -1      1735 2.00013E+01-1.07938E-03 3.95374E-04-1.86671E-03-9.00777E-13-3.47732E-13
 -1      1736 2.00043E+01 6.11743E-03 1.74616E-04 2.07318E-03-3.25132E-13 1.06573E-13
 -1      1737 9.09239E-01-9.39296E+00-1.09324E+00 2.71252E+00 3.86080E-13 4.44311E-13
 -1      1738 6.82326E+00-6.69656E+00-7.40659E-01 5.06252E+00 5.40901E-13 5.31832E-13
 -1      1739-1.08996E+00-1.01294E+01-1.12770E+00 3.55742E-01 1.27939E-13 4.89331E-13
 -1      1740 3.54585E+01 4.70115E+00 9.42219E-01 7.09806E+00 5.28050E-13 5.85976E-13
 -1      1741 4.29529E+01 6.54817E+00 1.31311E+00 4.40921E+00 5.02209E-13 2.90046E-13
 -1      1742 4.65089E+01 7.33894E+00 1.48840E+00 6.46394E-01 5.64104E-13 1.57707E-13
 -1      1743 4.50979E+01 6.92422E+00 1.39929E+00-2.75397E+00 6.67411E-13-2.28428E-13
 -1      1744 3.82095E+01 5.10080E+00 9.43439E-01-4.80554E+00 8.32265E-13-5.44564E-13
 -1      1745 2.93965E+01 2.44941E+00 5.63178E-01-6.93864E+00 9.97036E-13-9.24372E-13
 -1      1746 1.91464E+01-1.54628E+00-7.89925E-02-6.95043E+00 9.91540E-13-1.03562E-12
 -1      1747 9.88716E+00-5.32876E+00-5.24588E-01-5.77867E+00 8.90288E-13-9.37694E-13
 -1      1748 2.43208E+00-8.91195E+00-1.06605E+00-3.30302E+00 5.95635E-13-1.11519E-12
 -1      1749-8.39050E-01-1.06279E+01-1.21567E+00-1.24383E+00-7.02771E-14-1.02318E-12
 -1      1750-7.25352E-01-1.06746E+01-1.21841E+00 1.07792E+00-4.76008E-13-6.01630E-13
 -1      1751 2.71992E+00-8.96229E+00-1.09452E+00 3.17664E+00-8.23785E-13-5.43746E-13
 -1      1752 9.43509E+00-5.29780E+00-6.76003E-01 5.24390E+00-9.24816E-13-8.13766E-13
 -1      1753 1.96581E+01-1.53682E+00-1.99964E-02 6.80558E+00-8.64198E-13-8.70082E-13
 -1      1754 3.01800E+01 1.81152E+00 4.81915E-01 6.55640E+00-7.64333E-13-1.02773E-12
 -1      1755 3.96032E+01 5.21136E+00 1.08974E+00 5.30945E+00-7.48346E-13-9.84435E-13
 -1      1756 4.60722E+01 6.95607E+00 1.48237E+00 2.53564E+00-6.39877E-13-8.86735E-13
 -1      1757 4.65814E+01 7.52017E+00 1.47704E+00-5.00906E-01-5.82812E-13-4.36179E-13
 -1      1758 4.17558E+01 6.27704E+00 1.13087E+00-3.01686E+00-4.65211E-13-2.18270E-13
 -1      1759 3.47053E+01 3.75929E+00 8.43454E-01-6.15794E+00-5.71321E-13 1.69864E-14
 -1      1760 2.40979E+01 7.55273E-01 2.26954E-01-7.34896E+00-6.87450E-13 3.97571E-13
 -1      1761 1.38366E+01-3.23526E+00-4.07809E-01-6.17337E+00-7.51843E-13 5.31519E-13
 -1      1762 5.76531E+00-7.28283E+00-9.07284E-01-4.26719E+00-4.74398E-13 8.70720E-13
 -1      1763 5.97828E-01-9.94343E+00-1.16041E+00-2.24172E+00-2.48801E-13 6.40987E-13
 -1      1764 2.28154E+01 1.98165E+00-2.38728E-02-2.71492E+00-1.80470E-13 8.09297E-13
 -1      1765 1.98276E+01 3.71651E+00-3.55062E-02-2.13770E+00-2.43170E-13-2.36561E-13
 -1      1766 2.00570E+01 3.56241E+00-4.00595E-02-2.43092E+00-2.73810E-13-1.34417E-13
 -1      1767 2.03551E+01 3.18014E+00-4.55778E-02-2.57243E+00-2.60671E-13-1.15047E-14
 -1      1768 2.05665E+01 2.80717E+00-1.42190E-01-2.84139E+00-2.83891E-13 1.35281E-13
 -1      1769 2.04194E+01 2.69441E+00-4.32364E-03-2.21119E+00-2.75449E-13-6.72101E-14
 -1      1770 1.93699E+01 4.20130E+00-2.02638E-02-1.25695E+00-1.61056E-13-3.89411E-13
 -1      1771 1.94418E+01 4.15923E+00-1.73575E-02-1.48034E+00-1.84016E-13-3.65839E-13
 -1      1772 1.92752E+01 4.31082E+00-1.68389E-02-8.48772E-01-1.15212E-13-4.20993E-13
 -1      1773 1.93174E+01 4.28569E+00-1.41913E-02-1.05792E+00-1.34209E-13-4.12042E-13
 -1      1774 1.95417E+01 3.80031E+00-9.02687E-03-1.10501E+00-1.62840E-13-3.86580E-13
 -1      1775 1.92238E+01 4.37438E+00-1.48088E-02-4.60085E-01-6.12288E-14-4.17494E-13
 -1      1776 1.92458E+01 4.36070E+00-1.31902E-02-6.58229E-01-9.08702E-14-4.21054E-13
 -1      1777 1.94451E+01 3.92561E+00-8.95977E-03-7.21840E-01-1.07363E-13-4.11159E-13
 -1      1778 1.92042E+01 4.40152E+00-1.36241E-02-8.21203E-02 1.33777E-15-4.02622E-13
 -1      1779 1.92108E+01 4.39730E+00-1.31289E-02-2.75086E-01-2.95500E-14-4.06735E-13
 -1      1780 1.93944E+01 3.99346E+00-8.88193E-03-3.52158E-01-4.87281E-14-3.93780E-13
 -1      1781 1.92122E+01 4.39592E+00-1.30808E-02 2.94210E-01 6.01033E-14-4.10869E-13
 -1      1782 1.92046E+01 4.40068E+00-1.37074E-02 1.01090E-01 3.59018E-14-4.07457E-13
 -1      1783 1.93793E+01 4.01401E+00-8.85807E-03 1.05734E-02 2.15982E-14-3.83317E-13
 -1      1784 1.92494E+01 4.35663E+00-1.32056E-02 6.78025E-01 1.02659E-13-4.14871E-13
 -1      1785 1.92262E+01 4.37120E+00-1.49159E-02 4.79404E-01 7.91957E-14-4.19701E-13
 -1      1786 1.93968E+01 3.99013E+00-8.91726E-03 3.73490E-01 7.81862E-14-3.96749E-13
 -1      1787 1.93223E+01 4.27965E+00-1.42637E-02 1.07195E+00 1.42345E-13-3.99685E-13
 -1      1788 1.92793E+01 4.30546E+00-1.70111E-02 8.65582E-01 1.24144E-13-4.13385E-13
 -1      1789 1.94498E+01 3.91937E+00-8.95514E-03 7.40343E-01 1.23606E-13-4.01765E-13
 -1      1790 1.94515E+01 4.14771E+00-1.72461E-02 1.49973E+00 2.02101E-13-3.38909E-13
 -1      1791 1.93765E+01 4.19204E+00-2.05559E-02 1.27111E+00 1.69540E-13-3.69366E-13
 -1      1792 1.95490E+01 3.79052E+00-9.06380E-03 1.12025E+00 1.70730E-13-3.67806E-13
 -1      1793 1.96753E+01 3.92604E+00-2.50339E-02 1.96427E+00 2.56491E-13-2.60059E-13
 -1      1794 1.95456E+01 4.00474E+00-2.69340E-02 1.70716E+00 2.25668E-13-3.10287E-13
 -1      1795 1.97199E+01 3.57752E+00-8.58613E-03 1.51803E+00 2.28070E-13-3.07684E-13
 -1      1796 2.00740E+01 3.52302E+00-4.49953E-02 2.45764E+00 2.94346E-13-1.12271E-13
 -1      1797 1.98396E+01 3.68536E+00-3.96630E-02 2.16821E+00 2.67884E-13-1.99975E-13
 -1      1798 2.00103E+01 3.22855E+00-5.22536E-03 1.91743E+00 2.77471E-13-2.07990E-13
 -1      1799 2.09032E+01 2.67936E+00-5.74301E-02 2.84551E+00 2.96744E-13 1.76782E-13
 -1      1800 2.04047E+01 3.09555E+00-5.02564E-02 2.60301E+00 2.84234E-13 8.48627E-15
 -1      1801 2.05125E+01 2.61099E+00 3.18900E-03 2.22948E+00 2.99695E-13-3.82402E-14
 -1      1802 2.16991E+01 1.21166E+00-1.21811E-01 2.32086E+00 2.59175E-13 5.20528E-13
 -1      1803 2.12508E+01 2.26033E+00 1.25047E-04 2.72966E+00 2.74159E-13 2.95264E-13
 -1      1804 2.09204E+01 1.68445E+00-2.27795E-02 2.12811E+00 2.87978E-13 1.83398E-13
 -1      1805 2.09241E+01 7.78177E-01-6.22341E-02 1.51586E+00 2.50529E-13 4.37005E-13
 -1      1806 2.17667E+01 2.45461E+00 9.07379E-02-3.03821E+00-2.44846E-13 3.82222E-13
 -1      1807 2.00814E+01 2.98975E-01-8.73497E-03 6.47856E-01 1.96152E-13 3.31483E-13
 -1      1808 2.06290E+01 4.40917E-01-1.23221E-02 1.02527E+00 2.03032E-13 4.04319E-13
 -1      1809 2.07256E+01 8.45271E-01 2.17283E-03 1.40417E+00 2.43264E-13 2.50366E-13
 -1      1810 2.14836E+01 1.74132E+00 7.93333E-02-2.32629E+00-2.55990E-13 2.82302E-13
 -1      1811 2.05046E+01 5.01961E-01 3.26265E-02-9.10250E-01-1.93200E-13 2.45247E-13
 -1      1812 2.00779E+01 3.54439E-01 7.90324E-03-6.17302E-01-1.70022E-13 1.85447E-13
 -1      1813 1.98885E+01 2.60913E-01 2.75432E-02-3.76221E-01-1.60129E-13 1.65864E-13
 -1      1814 1.97047E+01 1.82901E-01 1.08416E-02-2.35856E-01-1.33850E-13 1.14421E-13
 -1      1815 2.01972E+01 4.88361E-01-5.96226E-03-7.04192E-01-1.99091E-13 5.52397E-14
 -1      1816 1.95902E+01 1.38656E-01 1.68838E-02-9.78647E-02-1.23467E-13 1.08035E-13
 -1      1817 1.95224E+01 1.00481E-01 7.59634E-03-2.30893E-02-1.34262E-13 8.59686E-14
 -1      1818 1.98837E+01 2.52114E-01-6.01250E-03-2.68856E-01-1.65870E-13 2.10192E-14
 -1      1819 1.94680E+01 7.72162E-02 8.99585E-03 5.69696E-02-1.31881E-13 9.28068E-14
 -1      1820 1.94683E+01 5.74633E-02 4.97258E-03 9.89994E-02-1.00864E-13 6.90745E-14
 -1      1821 1.97190E+01 1.37404E-01-5.02088E-03-1.96323E-02-1.42671E-13 3.76279E-14
 -1      1822 1.94568E+01 4.49260E-02 4.65292E-03 1.46999E-01-9.91474E-14 4.94744E-14
 -1      1823 1.94978E+01 3.49681E-02 3.60131E-03 1.72006E-01-6.98702E-14 3.61527E-15
 -1      1824 1.96575E+01 7.84252E-02-3.98746E-03 1.27841E-01-1.22586E-13 3.35344E-15
 -1      1825 1.95161E+01 2.86007E-02 2.39878E-03 2.02688E-01-5.38389E-14 2.31228E-15
 -1      1826 1.95830E+01 2.45715E-02 3.00737E-03 2.19361E-01-2.94228E-14 4.68169E-15
 -1      1827 1.96680E+01 4.83305E-02-3.02749E-03 2.19115E-01-7.21327E-14-3.70584E-14
 -1      1828 1.96227E+01 2.22114E-02 1.24383E-03 2.41858E-01-1.61465E-14-1.77229E-15
 -1      1829 1.97083E+01 2.21814E-02 2.87828E-03 2.55668E-01 6.05391E-15 4.72999E-14
 -1      1830 1.97289E+01 3.53704E-02-2.31832E-03 2.81054E-01-1.88839E-14-1.33816E-14
 -1      1831 1.97646E+01 2.26714E-02 6.84527E-04 2.76127E-01-2.24992E-14 2.04354E-14
 -1      1832 1.98663E+01 2.55809E-02 3.06785E-03 2.90890E-01-2.64516E-14-1.11112E-14
 -1      1833 1.98274E+01 3.37913E-02-1.89154E-03 3.30917E-01-6.49958E-15-6.35151E-14
 -1      1834 1.99371E+01 2.82216E-02 4.69534E-04 3.13741E-01-5.93673E-14-3.41172E-14
 -1      1835 2.00557E+01 3.34146E-02 3.49922E-03 3.32309E-01-9.39018E-14-6.93321E-14
 -1      1836 1.99568E+01 4.04593E-02-1.70460E-03 3.80664E-01-9.53158E-14-1.52460E-13
 -1      1837 2.01410E+01 3.76988E-02 4.57245E-04 3.60875E-01-8.58942E-14-7.71473E-14
 -1      1838 2.02793E+01 4.46567E-02 4.10634E-03 3.85421E-01-2.12957E-14-1.09464E-13
 -1      1839 2.01152E+01 5.34136E-02-1.69774E-03 4.39048E-01-7.35697E-14-9.18474E-14
 -1      1840 2.03804E+01 5.00843E-02 5.50920E-04 4.22128E-01-8.82747E-15-8.20983E-14
 -1      1841 2.05428E+01 5.81970E-02 4.79820E-03 4.54165E-01 9.88229E-15-7.91179E-14
 -1      1842 2.03040E+01 7.10669E-02-1.81586E-03 5.12539E-01-1.39708E-14-9.98019E-14
 -1      1843 2.06620E+01 6.40728E-02 6.71706E-04 5.00443E-01 3.60894E-14-7.36776E-14
 -1      1844 2.08537E+01 7.23507E-02 5.42390E-03 5.40568E-01 4.84161E-14-6.02169E-14
 -1      1845 2.05269E+01 9.15376E-02-2.01319E-03 6.05459E-01 2.95594E-14-4.16825E-14
 -1      1846 2.09936E+01 7.74997E-02 7.48728E-04 5.96378E-01 2.26353E-14-1.04414E-13
 -1      1847 2.12194E+01 8.41481E-02 5.72888E-03 6.43635E-01-1.24746E-14-5.11799E-14
 -1      1848 2.07890E+01 1.11825E-01-2.25585E-03 7.19383E-01 2.34472E-14-3.42111E-14
 -1      1849 2.13829E+01 8.64898E-02 7.22441E-04 7.06488E-01-3.65328E-14-1.03062E-13
 -1      1850 2.16450E+01 8.82920E-02 5.30541E-03 7.57189E-01-3.20009E-14-7.35794E-14
 -1      1851 2.10959E+01 1.26617E-01-2.52943E-03 8.51586E-01-2.31306E-14-7.03025E-14
 -1      1852 2.18348E+01 8.42530E-02 5.66173E-04 8.20470E-01-2.95289E-14-6.61094E-14
 -1      1853 2.21305E+01 7.57993E-02 3.56062E-03 8.66307E-01-6.36526E-14-5.75553E-14
 -1      1854 2.14525E+01 1.26593E-01-2.85122E-03 9.92222E-01-2.37846E-14-1.57615E-13
 -1      1855 2.23488E+01 5.96948E-02 3.29428E-04 9.16767E-01-1.40044E-13-1.05709E-13
 -1      1856 2.26666E+01 3.28253E-02-2.36276E-04 9.42269E-01-1.18870E-13-1.81100E-13
 -1      1857 2.18627E+01 9.64357E-02-3.27499E-03 1.11991E+00-1.44812E-13-1.25131E-13
 -1      1858 2.29149E+01-3.22581E-03 1.81788E-04 9.56941E-01-6.58063E-14-1.96127E-13
 -1      1859 2.32290E+01-5.86097E-02-6.70151E-03 9.37135E-01-4.92557E-14-1.69410E-13
 -1      1860 2.23283E+01 1.36983E-02-3.85018E-03 1.19586E+00-1.13661E-13-1.27432E-13
 -1      1861 2.35068E+01-1.22726E-01 3.72799E-04 8.81154E-01 4.00522E-14-9.62134E-14
 -1      1862 2.37730E+01-2.13934E-01-1.57148E-02 7.82176E-01 1.70213E-13-8.92736E-14
 -1      1863 2.28473E+01-1.48028E-01-4.45280E-03 1.15826E+00 2.68886E-14-6.27118E-14
 -1      1864 2.40724E+01-3.07658E-01 8.55811E-04 6.11711E-01 2.79016E-13-1.31860E-13
 -1      1865 2.42280E+01-4.26760E-01-2.52364E-02 4.00163E-01 2.85393E-13-7.49116E-14
 -1      1866 2.34090E+01-4.04447E-01-4.40979E-03 9.22535E-01 1.80860E-13 3.41957E-14
 -1      1867 2.45212E+01-5.30232E-01 6.83957E-04 7.92655E-02 2.76695E-13-3.57357E-14
 -1      1868 2.44964E+01-6.33399E-01-3.00016E-02-2.51551E-01 1.90410E-13 5.03981E-14
 -1      1869 2.39805E+01-7.25266E-01-2.01187E-03 4.00292E-01 3.04982E-13-3.06320E-15
 -1      1870 2.47164E+01-6.86866E-01-2.87467E-03-7.08164E-01 9.47558E-14 1.39420E-13
 -1      1871 2.44663E+01-6.82107E-01-2.28153E-02-1.09411E+00 4.04694E-14 2.06109E-13
 -1      1872 2.44783E+01-9.79781E-01 4.97141E-03-4.41231E-01 1.88733E-13 1.70522E-14
 -1      1873 2.45052E+01-5.89791E-01-1.32145E-02-1.55601E+00-1.33799E-14 2.28437E-13
 -1      1874 2.40602E+01-3.78344E-01-1.90471E-03-1.82825E+00-1.58987E-14 2.20350E-13
 -1      1875 2.47446E+01-9.15900E-01 1.42551E-02-1.46382E+00 1.40148E-14 1.26908E-13
 -1      1876 2.38441E+01-8.21986E-02-2.67047E-02-2.02585E+00-3.35253E-14 2.43885E-13
 -1      1877 2.33439E+01 3.14118E-01 1.93134E-02-1.96107E+00-6.01533E-14 2.48596E-13
 -1      1878 2.46011E+01-2.98941E-01 1.12988E-02-2.24273E+00-4.74325E-14 2.08641E-13
 -1      1879 2.29902E+01 6.99598E-01-2.62109E-02-1.63404E+00-1.25119E-13 2.41765E-13
 -1      1880 2.26528E+01 1.04310E+00 1.97033E-02-1.14348E+00-1.63834E-13 2.86108E-13
 -1      1881 2.40657E+01 7.62387E-01-1.46120E-02-2.15451E+00-5.12489E-14 1.88362E-13
 -1      1882 2.24648E+01 1.23060E+00-7.49337E-03-3.44034E-01-1.86896E-13 1.90324E-13
 -1      1883 2.24702E+01 1.22740E+00-6.69002E-03 3.52677E-01-1.85994E-13 7.37535E-14
 -1      1884 2.35403E+01 1.65845E+00-4.30721E-02-9.07063E-01-1.85775E-13 1.85505E-13
 -1      1885 2.26531E+01 1.03868E+00 1.83013E-02 1.14317E+00-1.97044E-13 2.77495E-14
 -1      1886 2.29903E+01 7.00902E-01-2.65543E-02 1.63484E+00-9.07885E-14-1.21951E-14
 -1      1887 2.35422E+01 1.64627E+00-4.62130E-02 9.09580E-01-2.44242E-13 7.70876E-14
 -1      1888 2.33481E+01 3.15361E-01 2.02262E-02 1.96434E+00 5.29715E-14-1.98222E-13
 -1      1889 2.38500E+01-8.15883E-02-2.58777E-02 2.02916E+00 6.66689E-14-1.43757E-13
 -1      1890 2.40680E+01 7.69233E-01-1.24326E-02 2.15845E+00-9.80604E-14-2.27514E-13
 -1      1891 2.40663E+01-3.77895E-01-2.15294E-03 1.83142E+00-3.16093E-14-9.59614E-14
 -1      1892 2.45132E+01-5.89085E-01-1.35655E-02 1.55965E+00-1.02664E-13-1.19104E-13
 -1      1893 2.46073E+01-2.98523E-01 1.18026E-02 2.24671E+00 3.41294E-14-3.58918E-13
 -1      1894 2.44759E+01-6.81222E-01-2.33962E-02 1.09849E+00-2.30097E-13-9.11198E-14
 -1      1895 2.47279E+01-6.85486E-01-3.33285E-03 7.13310E-01-1.71373E-13-1.14668E-13
 -1      1896 2.47524E+01-9.15234E-01 1.30329E-02 1.46929E+00-1.15425E-13-1.60966E-13
 -1      1897 2.45101E+01-6.31384E-01-3.02637E-02 2.58152E-01-4.20913E-14-8.13024E-14
 -1      1898 2.45380E+01-5.27603E-01 6.79669E-04-7.12195E-02 5.31727E-14-7.83176E-14
 -1      1899 2.44898E+01-9.77148E-01 4.24388E-03 4.49090E-01-9.34218E-14-1.10731E-13
 -1      1900 2.42479E+01-4.23717E-01-2.52092E-02-3.89887E-01-2.12226E-14-3.07246E-14
 -1      1901 2.40968E+01-3.04171E-01 1.06142E-03-5.99497E-01-4.34913E-14-5.16098E-14
 -1      1902 2.39974E+01-7.20920E-01-2.22625E-03-3.88122E-01-3.97208E-14-1.19082E-14
 -1      1903 2.38016E+01-2.10085E-01-1.56176E-02-7.67153E-01-4.87006E-14-1.52405E-13
 -1      1904 2.35418E+01-1.18377E-01 6.59192E-04-8.63701E-01 4.84742E-14-8.00280E-14
 -1      1905 2.34333E+01-3.98940E-01-4.56267E-03-9.04750E-01-2.48365E-14-1.31787E-14
 -1      1906 2.32696E+01-5.38340E-02-6.57506E-03-9.16182E-01 1.67814E-13-4.33707E-14
 -1      1907 2.29642E+01 2.15004E-03 5.56216E-04-9.32981E-01 2.03810E-13-4.38928E-15
 -1      1908 2.28813E+01-1.41161E-01-4.61888E-03-1.13342E+00 1.44070E-13-1.10482E-13
 -1      1909 2.27230E+01 3.86888E-02-8.94191E-05-9.14025E-01 1.17231E-13-1.07686E-13
 -1      1910 2.24167E+01 6.62612E-02 7.89902E-04-8.84848E-01 4.26235E-14-5.44877E-14
 -1      1911 2.23752E+01 2.21349E-02-4.04036E-03-1.16231E+00 1.56063E-13-6.46980E-14
 -1      1912 2.22075E+01 8.29140E-02 3.72115E-03-8.29213E-01-6.21968E-14-1.17782E-13
 -1      1913 2.19265E+01 9.21634E-02 1.11794E-03-7.78941E-01-1.36830E-13-1.70799E-13
 -1      1914 2.19262E+01 1.06701E-01-3.49165E-03-1.07579E+00-2.17413E-14-9.41468E-14
 -1      1915 2.17482E+01 9.67871E-02 5.47407E-03-7.09513E-01 1.16946E-14-2.03140E-13
 -1      1916 2.15047E+01 9.58425E-02 1.36630E-03-6.53556E-01-6.30659E-15 3.36753E-15
 -1      1917 2.15369E+01 1.38900E-01-3.08937E-03-9.35466E-01-4.65520E-14-6.31508E-14
 -1      1918 2.13551E+01 9.40801E-02 5.89492E-03-5.83564E-01-1.28066E-13-4.10738E-14
 -1      1919 2.11525E+01 8.82979E-02 1.47792E-03-5.30220E-01-2.11802E-13 3.31539E-14
 -1      1920 2.12059E+01 1.41084E-01-2.77809E-03-7.80037E-01-1.43234E-13-1.90247E-14
 -1      1921 2.10292E+01 8.36567E-02 5.56912E-03-4.66353E-01-1.73068E-13 1.64765E-13
 -1      1922 2.08654E+01 7.61680E-02 1.46667E-03-4.19381E-01-5.78196E-14 2.52333E-13
 -1      1923 2.09300E+01 1.28410E-01-2.49572E-03-6.30963E-01-8.23170E-14 8.60336E-14
 -1      1924 2.07654E+01 7.06280E-02 4.89382E-03-3.64349E-01-1.43151E-13 1.65951E-13
 -1      1925 2.06362E+01 6.30953E-02 1.37214E-03-3.24905E-01-7.76230E-14 1.13619E-13
 -1      1926 2.07043E+01 1.09941E-01-2.21261E-03-4.98449E-01-1.62488E-13 1.54053E-13
 -1      1927 2.05565E+01 5.76843E-02 4.10846E-03-2.79192E-01-3.53383E-14 1.79547E-15
 -1      1928 2.04566E+01 5.09023E-02 1.23508E-03-2.47068E-01 1.67722E-13 4.44903E-14
 -1      1929 2.05228E+01 9.06089E-02-1.92500E-03-3.86005E-01-6.90110E-14 2.29093E-13
 -1      1930 2.03941E+01 4.61055E-02 3.34248E-03-2.10016E-01 3.59936E-13-1.13173E-13
 -1      1931 2.03183E+01 4.03975E-02 1.08788E-03-1.84360E-01 3.04929E-13-1.49220E-14
 -1      1932 2.03793E+01 7.28500E-02-1.64098E-03-2.93474E-01 1.23819E-13 1.79454E-14
 -1      1933 2.02702E+01 3.64125E-02 2.65555E-03-1.54786E-01 3.19136E-13 1.12913E-13
 -1      1934 2.02139E+01 3.18645E-02 9.50663E-04-1.34493E-01 3.88759E-13 4.15028E-13
 -1      1935 2.02679E+01 5.77239E-02-1.37068E-03-2.18866E-01 3.98658E-13-8.09253E-14
 -1      1936 2.01774E+01 2.87419E-02 2.06444E-03-1.11034E-01 1.67043E-13 3.96114E-13
 -1      1937 2.01368E+01 2.53230E-02 8.28051E-04-9.49433E-02 2.15479E-14 2.80397E-13
 -1      1938 2.01828E+01 4.55719E-02-1.12295E-03-1.59402E-01 2.82122E-13 1.76076E-13
 -1      1939 2.01097E+01 2.30337E-02 1.55872E-03-7.62554E-02-9.82718E-14 1.80655E-13
 -1      1940 2.00816E+01 2.06542E-02 7.22869E-04-6.32811E-02-1.61571E-13 5.01390E-14
 -1      1941 2.01191E+01 3.63746E-02-8.96084E-04-1.12119E-01-7.25855E-14 1.51706E-13
 -1      1942 2.00617E+01 1.89674E-02 1.09298E-03-4.81222E-02-7.51179E-14 1.04825E-13
 -1      1943 2.00435E+01 1.72890E-02 6.06948E-04-3.74394E-02 1.90995E-14 1.00642E-13
 -1      1944 2.00723E+01 2.99004E-02-6.59716E-04-7.42600E-02-1.13878E-13 1.20513E-13
 -1      1945 2.00305E+01 1.56256E-02 7.88503E-04-2.57281E-02 1.79304E-13 6.40297E-14
 -1      1946 2.00197E+01 1.37293E-02 5.37430E-04-1.73838E-02 1.65405E-13 1.40238E-13
 -1      1947 2.00185E+01 1.76152E-02-4.68818E-04-2.13519E-02 3.54710E-16 1.18872E-13
 -1      1948 2.00397E+01 2.40460E-02-7.36180E-04-4.43047E-02 4.47858E-14 2.68327E-13
 -1      1949 1.96097E+01 1.44378E-01 8.08093E-03 2.47052E-01 1.74293E-13 2.30198E-13
 -1      1950 1.98760E+01 2.05923E-01 1.65833E-02 4.21470E-01 1.77570E-13 2.93855E-13
 -1      1951 2.00924E+01 3.52713E-01-1.64834E-03 6.41223E-01 2.12382E-13 1.90926E-13
 -1      1952 1.93828E+01 7.57865E-02 7.22041E-03 3.83924E-02 1.17916E-13 1.40386E-13
 -1      1953 1.94897E+01 1.05079E-01 1.44113E-02 1.29468E-01 1.29218E-13 1.93257E-13
 -1      1954 1.97122E+01 1.69350E-01-2.12146E-03 2.36922E-01 1.69845E-13 1.27486E-13
 -1      1955 1.93145E+01 4.18696E-02 4.81020E-03-7.57777E-02 6.18255E-14 1.04223E-13
 -1      1956 1.93330E+01 5.70011E-02 8.65198E-03-2.46238E-02 8.81916E-14 1.28979E-13
 -1      1957 1.95297E+01 8.72095E-02-3.06629E-03 1.60116E-02 1.18271E-13 6.53457E-14
 -1      1958 1.93444E+01 2.41994E-02 3.38356E-03-1.40650E-01 4.12600E-14 2.72935E-14
 -1      1959 1.93123E+01 3.22534E-02 4.78931E-03-1.10370E-01 4.78901E-14 8.25520E-14
 -1      1960 1.94756E+01 4.68764E-02-3.16544E-03-1.08924E-01 6.94245E-14 3.36905E-15
 -1      1961 1.94359E+01 1.53436E-02 2.68237E-03-1.79602E-01 6.73023E-14 7.82176E-15
 -1      1962 1.93737E+01 1.94243E-02 2.72658E-03-1.60396E-01 2.61123E-14 2.70712E-14
 -1      1963 1.95040E+01 2.65675E-02-2.73659E-03-1.82499E-01 4.84252E-14-3.28225E-14
 -1      1964 1.95684E+01 1.18599E-02 2.34601E-03-2.06060E-01 6.48043E-14 2.06144E-14
 -1      1965 1.94868E+01 1.35245E-02 1.69068E-03-1.92208E-01 6.67472E-14 2.79056E-14
 -1      1966 1.95866E+01 1.72230E-02-2.24790E-03-2.29109E-01 6.41623E-14-3.82070E-14
 -1      1967 1.97313E+01 1.18874E-02 2.19846E-03-2.28440E-01 2.95469E-14 3.00252E-14
 -1      1968 1.96354E+01 1.20391E-02 1.19705E-03-2.16275E-01 4.07907E-14 3.78880E-14
 -1      1969 1.97071E+01 1.45741E-02-1.88419E-03-2.63303E-01 3.95339E-14 3.15423E-14
 -1      1970 1.99204E+01 1.41991E-02 2.15974E-03-2.52217E-01-5.07227E-14 7.62729E-14
 -1      1971 1.98117E+01 1.34608E-02 1.00033E-03-2.39287E-01-1.85879E-14 5.64799E-14
 -1      1972 1.98569E+01 1.62261E-02-1.67643E-03-2.94328E-01 3.75752E-15 7.07346E-14
 -1      1973 2.01359E+01 1.77675E-02 2.17262E-03-2.80743E-01-3.54035E-14 1.32692E-13
 -1      1974 2.00138E+01 1.66608E-02 9.65934E-04-2.65497E-01-5.85133E-15 1.00947E-13
 -1      1975 2.00329E+01 2.04971E-02-1.60305E-03-3.28081E-01-2.20079E-14 1.17624E-13
 -1      1976 2.03799E+01 2.14948E-02 2.16938E-03-3.15423E-01 8.42360E-15 4.97254E-14
 -1      1977 2.02429E+01 2.05574E-02 9.98755E-04-2.97160E-01-2.01408E-14 6.90927E-14
 -1      1978 2.02352E+01 2.58593E-02-1.63034E-03-3.67831E-01 2.68091E-15 4.67919E-14
 -1      1979 2.06553E+01 2.39818E-02 2.05687E-03-3.55438E-01 6.99682E-14-9.99147E-15
 -1      1980 2.05015E+01 2.38660E-02 1.01143E-03-3.34476E-01 2.82799E-14-1.13739E-14
 -1      1981 2.04654E+01 3.05589E-02-1.72142E-03-4.14251E-01 6.32779E-14-3.93626E-14
 -1      1982 2.09632E+01 2.33046E-02 1.71030E-03-3.97081E-01 9.65495E-14-8.38002E-15
 -1      1983 2.07921E+01 2.48640E-02 9.11170E-04-3.75103E-01 5.97898E-14-1.45685E-14
 -1      1984 2.07252E+01 3.22832E-02-1.83292E-03-4.64915E-01 8.62125E-14-8.80879E-14
 -1      1985 2.13006E+01 1.68351E-02 9.79996E-04-4.32739E-01 4.81320E-14 4.43057E-14
 -1      1986 2.11145E+01 2.11769E-02 5.97268E-04-4.13326E-01 9.07206E-14 4.29025E-14
 -1      1987 2.10146E+01 2.78631E-02-1.90603E-03-5.13364E-01 8.30628E-14-9.50553E-15
 -1      1988 2.16577E+01 1.24879E-03-2.76153E-04-4.49718E-01 7.15830E-14-3.78705E-14
 -1      1989 2.14632E+01 9.67584E-03-2.94221E-05-4.38980E-01 3.74611E-14 2.53443E-15
 -1      1990 2.13298E+01 1.31237E-02-1.85273E-03-5.47850E-01 6.69662E-14-2.17991E-14
 -1      1991 2.20139E+01-2.69798E-02-2.11632E-03-4.29448E-01 1.81864E-13-1.42191E-13
 -1      1992 2.18244E+01-1.32827E-02-1.04016E-03-4.36483E-01 1.15236E-13-1.02660E-13
 -1      1993 2.16605E+01-1.68210E-02-1.53871E-03-5.50172E-01 1.93849E-13-2.74722E-14
 -1      1994 2.23351E+01-7.00792E-02-4.37853E-03-3.48254E-01-9.42909E-15-8.76387E-14
 -1      1995 2.21724E+01-5.08487E-02-2.43189E-03-3.84852E-01 1.05185E-13-1.08376E-13
 -1      1996 2.19876E+01-6.62668E-02-7.68170E-04-4.95540E-01 1.22817E-13-6.58755E-14
 -1      1997 2.25726E+01-1.25880E-01-6.52019E-03-1.81835E-01-1.80726E-13-1.16697E-13
 -1      1998 2.24665E+01-1.03275E-01-4.05861E-03-2.60311E-01-1.00617E-13-1.03807E-13
 -1      1999 2.22803E+01-1.35811E-01 7.11391E-04-3.55275E-01-8.67717E-14-1.08951E-13
 -1      2000 2.26657E+01-1.83142E-01-7.57013E-03 8.37702E-02-1.97935E-13-5.85116E-14
 -1      2001 2.26514E+01-1.63758E-01-5.61458E-03-4.39740E-02-1.56030E-13-6.85636E-14
 -1      2002 2.24948E+01-2.16882E-01 3.10662E-03-1.05175E-01-1.34745E-13-4.09562E-14
 -1      2003 2.25535E+01-2.17316E-01-6.41368E-03 4.33176E-01-2.07863E-14-1.71495E-14
 -1      2004 2.26623E+01-2.13328E-01-6.57109E-03 2.63298E-01-1.91758E-13-1.19570E-13
 -1      2005 2.25767E+01-2.85232E-01 6.30400E-03 2.57731E-01-1.57574E-13-1.04865E-13
 -1      2006 2.21980E+01-1.93384E-01-2.84160E-03 7.99537E-01 1.91581E-13-6.20164E-14
 -1      2007 2.24424E+01-2.19589E-01-6.44942E-03 6.20127E-01 1.49854E-13 8.52938E-14
 -1      2008 2.24711E+01-2.98598E-01 9.40192E-03 6.90672E-01 8.91518E-14 8.15494E-14
 -1      2009 2.16186E+01-8.30182E-02 1.66513E-03 1.05726E+00 3.00220E-14-6.19747E-14
 -1      2010 2.19754E+01-1.47011E-01-4.71229E-03 9.29634E-01 1.03210E-13-8.20559E-14
 -1      2011 2.21479E+01-2.10204E-01 1.02034E-02 1.08450E+00 1.55664E-13 5.18908E-14
 -1      2012 2.09272E+01 1.02944E-01 3.98337E-03 1.05727E+00-3.32360E-14-4.02924E-14
 -1      2013 2.13255E+01 1.50690E-02-9.87458E-04 1.05277E+00-3.11582E-14-9.45875E-14
 -1      2014 2.16402E+01-2.73676E-03 6.50329E-03 1.27323E+00 1.68495E-14 1.09175E-13
 -1      2015 2.03283E+01 2.94146E-01 2.17611E-03 7.16693E-01-9.52016E-14 7.89048E-14
 -1      2016 2.06589E+01 2.20984E-01 4.64679E-03 8.72188E-01-9.23029E-14-8.02951E-14
 -1      2017 2.10786E+01 2.71234E-01-1.38489E-03 1.10315E+00-7.62394E-14 7.23727E-14
 -1      2018 2.00489E+01 3.90612E-01-2.32152E-03 1.06633E-01 1.49538E-13-4.40056E-15
 -1      2019 2.02003E+01 3.74670E-01 1.02724E-02 3.85281E-01 6.21170E-14 1.30009E-14
 -1      2020 2.06686E+01 4.92971E-01-8.64044E-03 5.48222E-01 4.79686E-14 2.63773E-14
 -1      2021 2.02150E+01 3.32530E-01-5.14263E-03-5.46514E-01 2.87962E-13-4.64975E-14
 -1      2022 2.01281E+01 3.87034E-01 1.28479E-02-2.51533E-01 2.90247E-13 4.72808E-14
 -1      2023 2.05924E+01 5.41342E-01-1.02563E-02-2.21273E-01 2.98718E-13-4.37467E-14
 -1      2024 2.07623E+01 1.57390E-01-2.88282E-03-9.89325E-01 7.06427E-14-2.34193E-13
 -1      2025 2.04654E+01 2.51201E-01 1.05964E-02-7.90194E-01 1.91730E-13-1.68079E-13
 -1      2026 2.08859E+01 3.87214E-01-5.00677E-03-9.03459E-01 2.50437E-13-2.05825E-14
 -1      2027 2.14768E+01-3.68360E-02 2.13003E-03-1.09439E+00 7.78646E-14-3.66802E-13
 -1      2028 2.10723E+01 4.82915E-02 4.55533E-03-1.04346E+00 2.92984E-14-3.08312E-13
 -1      2029 2.14132E+01 1.17734E-01 1.72100E-03-1.25179E+00 1.24629E-13-1.28780E-13
 -1      2030 2.21244E+01-1.67944E-01 5.98364E-03-9.03829E-01-1.33387E-13-1.98768E-13
 -1      2031 2.17344E+01-1.22253E-01-2.38426E-03-9.80038E-01-3.73469E-14-2.88406E-13
 -1      2032 2.19637E+01-1.34053E-01 4.60990E-03-1.20792E+00-3.41554E-14-8.45053E-14
 -1      2033 2.25556E+01-2.11641E-01 6.76577E-03-5.57413E-01-1.97032E-13-2.37863E-13
 -1      2034 2.22697E+01-2.07473E-01-7.36091E-03-7.00383E-01-1.32576E-13-3.34122E-13
 -1      2035 2.23723E+01-2.79202E-01 3.50928E-03-8.84304E-01-9.81446E-14-1.15910E-13
 -1      2036 2.27293E+01-1.89261E-01 5.21795E-03-1.95025E-01 2.47181E-14-2.12446E-13
 -1      2037 2.25839E+01-2.11367E-01-9.23041E-03-3.45881E-01-1.11655E-13-2.63729E-13
 -1      2038 2.25703E+01-3.06069E-01 1.19086E-03-4.53914E-01-6.59863E-14-2.42467E-13
 -1      2039 2.26796E+01-1.36013E-01 2.83923E-03 9.69862E-02-1.09383E-13-7.80652E-14
 -1      2040 2.26662E+01-1.67038E-01-8.50940E-03-2.56419E-02 2.35272E-14-1.45362E-13
 -1      2041 2.25675E+01-2.53994E-01-4.28147E-04-5.53771E-02-4.47394E-14-1.56393E-13
 -1      2042 2.24719E+01-7.92013E-02 7.85000E-04 2.89082E-01 1.45053E-14-5.84407E-14
 -1      2043 2.25583E+01-1.07722E-01-6.39228E-03 2.07300E-01 7.74554E-15-2.92778E-14
 -1      2044 2.24123E+01-1.71259E-01-1.00800E-03 2.40733E-01-4.14482E-14-5.42483E-14
 -1      2045 2.21731E+01-3.28408E-02-5.14614E-04 3.88341E-01 3.19203E-13-1.10556E-13
 -1      2046 2.23213E+01-5.40349E-02-3.91517E-03 3.44883E-01 1.32886E-13-6.01420E-14
 -1      2047 2.21613E+01-9.14892E-02-9.61409E-04 4.20369E-01 1.75692E-13-3.09345E-14
 -1      2048 2.18378E+01-8.39133E-04-1.10370E-03 4.17330E-01 1.62990E-13-2.99443E-13
 -1      2049 2.20144E+01-1.41966E-02-1.71431E-03 4.03165E-01 2.46175E-13-1.59835E-13
 -1      2050 2.18634E+01-2.99948E-02-7.19857E-04 5.00853E-01 2.90525E-13-8.74233E-14
 -1      2051 2.15042E+01 1.81972E-02-1.21109E-03 4.00577E-01-1.85007E-13-5.27217E-13
 -1      2052 2.16848E+01 1.12348E-02-5.94056E-05 4.05721E-01 2.44868E-14-4.07044E-13
 -1      2053 2.15555E+01 1.04688E-02-5.12572E-04 5.10196E-01 1.44422E-13-2.36269E-13
 -1      2054 2.11961E+01 2.75023E-02-1.06286E-03 3.58389E-01 3.21288E-14-4.04793E-13
 -1      2055 2.13651E+01 2.50231E-02 1.01760E-03 3.74486E-01-1.01108E-13-4.55573E-13
 -1      2056 2.12622E+01 3.31772E-02-4.03177E-04 4.75343E-01-1.52355E-13-3.29820E-13
 -1      2057 2.09256E+01 3.03415E-02-8.17231E-04 3.05277E-01-1.90134E-14-2.73709E-13
 -1      2058 2.10748E+01 3.06512E-02 1.60647E-03 3.26294E-01-7.80324E-14-4.07292E-13
 -1      2059 2.09979E+01 4.31161E-02-3.72865E-04 4.17450E-01-7.15773E-14-3.72448E-13
 -1      2060 2.06972E+01 2.93311E-02-5.63410E-04 2.50516E-01-1.78099E-13-1.80321E-14
 -1      2061 2.08233E+01 3.11596E-02 1.83652E-03 2.72553E-01-8.35096E-15-4.33720E-14
 -1      2062 2.07694E+01 4.48865E-02-3.82378E-04 3.51153E-01-1.92473E-13-1.36871E-14
 -1      2063 2.05104E+01 2.63327E-02-3.41461E-04 1.99386E-01 3.14386E-14-1.17494E-13
 -1      2064 2.06134E+01 2.88193E-02 1.83155E-03 2.20185E-01-7.42612E-14-6.13029E-14
 -1      2065 2.05781E+01 4.20152E-02-4.00119E-04 2.85546E-01-5.84283E-14 1.16963E-13
 -1      2066 2.03615E+01 2.25766E-02-1.62217E-04 1.54402E-01-7.52526E-14-5.29811E-14
 -1      2067 2.04433E+01 2.51786E-02 1.69114E-03 1.72858E-01-8.87463E-14-2.58201E-13
 -1      2068 2.04225E+01 3.69388E-02-4.08525E-04 2.25608E-01-2.46520E-14 4.35959E-14
 -1      2069 2.02461E+01 1.88375E-02-2.30991E-05 1.16276E-01-8.43445E-14 1.00958E-13
 -1      2070 2.03091E+01 2.12326E-02 1.48618E-03 1.32049E-01-5.23385E-14 6.25121E-14
 -1      2071 2.02991E+01 3.12325E-02-4.01841E-04 1.73502E-01-5.84535E-14-1.33770E-14
 -1      2072 2.01589E+01 1.55826E-02 8.09337E-05 8.46112E-02-1.35608E-13-1.05910E-13
 -1      2073 2.02061E+01 1.75951E-02 1.26168E-03 9.78448E-02-2.61922E-14 6.36892E-14
 -1      2074 2.02035E+01 2.58629E-02-3.83525E-04 1.29581E-01-4.70078E-14 1.28550E-13
 -1      2075 2.00953E+01 1.30456E-02 1.45038E-04 5.83714E-02 1.02606E-13-1.02003E-13
 -1      2076 2.01292E+01 1.46154E-02 1.03959E-03 6.95054E-02-8.90347E-14-4.85019E-14
 -1      2077 2.01314E+01 2.13862E-02-3.59458E-04 9.30956E-02-9.91592E-14 1.21646E-13
 -1      2078 2.00511E+01 1.12242E-02 1.52444E-04 3.63693E-02 3.81538E-13-5.51993E-14
 -1      2079 2.00741E+01 1.23841E-02 8.15920E-04 4.59207E-02 2.80635E-13-1.31599E-13
 -1      2080 2.00788E+01 1.79569E-02-3.49434E-04 6.27804E-02 3.04591E-13 3.34830E-14
 -1      2081 2.00230E+01 9.82872E-03 2.75306E-04 1.78852E-02 1.11252E-13 1.02887E-13
 -1      2082 2.00367E+01 1.06593E-02 5.68550E-04 2.60517E-02 2.87821E-13 9.03333E-14
 -1      2083 2.00419E+01 1.54563E-02-3.08077E-04 3.73952E-02 2.01449E-13 4.97444E-13
 -1      2084 2.00095E+01 7.86408E-03 4.02387E-04 6.69532E-03-1.59597E-13 1.46250E-13
 -1      2085 2.00167E+01 9.68468E-03 3.74549E-04 1.29316E-02 5.44032E-14 2.44605E-13
 -1      2086 2.00210E+01 1.39659E-02-2.02763E-04 2.02642E-02-2.45687E-14 6.25871E-13
 -1      2087 2.00103E+01 1.11291E-02 6.18830E-05 9.80027E-03-1.12039E-13 5.68991E-13
 -1      2088 2.00032E+01 8.59253E-02-2.37287E-04 4.78916E-02 3.14287E-14 2.57123E-13
 -1      2089 2.00066E+01 7.05479E-02 4.15935E-04 4.50531E-02-1.46657E-13 4.47470E-13
 -1      2090 2.00095E+01 5.43206E-02-4.03079E-05 3.96523E-02-1.16759E-13 1.05300E-13
 -1      2091 2.00119E+01 4.12856E-02 4.41213E-04 3.33846E-02-1.16159E-13 1.45144E-13
 -1      2092 2.00119E+01 6.95038E-02-9.09380E-05 5.58538E-02-6.06121E-14 3.14246E-13
 -1      2093 2.00119E+01 2.95767E-02 1.08810E-04 2.54320E-02-7.72918E-14 2.82203E-13
 -1      2094 2.00122E+01 2.00731E-02 3.38932E-04 1.80945E-02-7.38525E-14 6.03629E-13
 -1      2095 2.00174E+01 2.19638E-02 1.98726E-04 2.33161E-02-4.89336E-14 5.40742E-13
 -1      2096 2.00168E+01 4.21048E-02-2.64219E-04 4.05915E-02-1.66039E-13 2.68799E-13
 -1      2097 1.99966E+01 1.17626E-01-4.35064E-04 4.78931E-02-1.47965E-13-5.59509E-13
 -1      2098 2.00000E+01 1.02206E-01 2.07415E-04 4.87775E-02-8.28111E-14-2.82976E-13
 -1      2099 2.00026E+01 1.01768E-01 1.06056E-04 6.26144E-02-1.75222E-13-7.90217E-14
 -1      2100 1.99907E+01 1.46067E-01-5.97924E-04 3.97304E-02-1.39792E-13-1.35929E-13
 -1      2101 1.99937E+01 1.32553E-01-5.71161E-05 4.41169E-02-8.07755E-14-9.68059E-14
 -1      2102 1.99931E+01 1.32879E-01 3.27823E-04 5.91560E-02-7.03034E-14-2.63113E-13
 -1      2103 1.99866E+01 1.66530E-01-6.82677E-04 2.48561E-02-1.79247E-13-3.79104E-14
 -1      2104 1.99885E+01 1.57403E-01-3.19686E-04 3.19230E-02-1.33966E-13-1.63818E-15
 -1      2105 1.99850E+01 1.59109E-01 5.29710E-04 4.59180E-02-8.84115E-14-1.31996E-13
 -1      2106 1.99846E+01 1.75983E-01-6.69386E-04 5.80137E-03-2.22166E-13-3.69191E-13
 -1      2107 1.99853E+01 1.72746E-01-5.28365E-04 1.43387E-02-1.70094E-13-1.75482E-13
 -1      2108 1.99795E+01 1.76660E-01 6.69363E-04 2.51194E-02-3.33396E-13-1.53892E-13
 -1      2109 1.99852E+01 1.72997E-01-5.52551E-04-1.42983E-02-2.42927E-13-2.56059E-13
 -1      2110 1.99846E+01 1.76205E-01-6.51881E-04-5.71601E-03-1.22945E-13-2.88737E-13
 -1      2111 1.99776E+01 1.83101E-01 7.24933E-04 1.48017E-04-3.24439E-13-2.76835E-13
 -1      2112 1.99883E+01 1.57987E-01-3.47634E-04-3.21117E-02-1.06065E-13 2.05297E-13
 -1      2113 1.99864E+01 1.67154E-01-6.72582E-04-2.49456E-02-2.26502E-13 7.59767E-14
 -1      2114 1.99793E+01 1.77479E-01 6.85351E-04-2.49785E-02-1.10456E-13-1.22012E-13
 -1      2115 1.99934E+01 1.33711E-01-7.43785E-05-4.44151E-02-1.17457E-13 6.33924E-14
 -1      2116 1.99905E+01 1.47057E-01-6.03702E-04-3.99878E-02-1.43626E-13 1.41001E-13
 -1      2117 1.99847E+01 1.60682E-01 5.69155E-04-4.60202E-02-8.25341E-14 4.87526E-14
 -1      2118 2.00001E+01 1.02959E-01 2.09568E-04-4.93038E-02 1.02514E-13 7.70829E-14
 -1      2119 1.99965E+01 1.18779E-01-4.56486E-04-4.83870E-02-3.99292E-14 3.58923E-13
 -1      2120 1.99928E+01 1.34874E-01 3.59583E-04-5.96021E-02-2.66896E-14 2.38554E-13
 -1      2121 2.00069E+01 7.06373E-02 4.22890E-04-4.53849E-02 3.17925E-13 1.37365E-13
 -1      2122 2.00034E+01 8.61774E-02-2.62676E-04-4.83778E-02 3.35840E-13-2.41060E-13
 -1      2123 2.00027E+01 1.03233E-01 1.09541E-04-6.32773E-02 2.86300E-13 9.63009E-14
 -1      2124 2.00119E+01 4.00615E-02 6.37943E-05-3.31643E-02 9.37247E-15-4.80038E-14
 -1      2125 2.00099E+01 5.40780E-02-3.31108E-05-3.96940E-02 3.70502E-14 1.12559E-13
 -1      2126 2.00125E+01 7.03065E-02-2.95037E-05-5.61295E-02 2.95619E-13-2.97844E-16
 -1      2127 1.12054E+01-4.87763E+00-6.92965E-02 6.80589E+00 2.94265E-13 5.73243E-13
 -1      2128 7.22036E+00-6.36586E+00-3.27037E-01 5.48550E+00 1.98286E-13 4.70152E-13
 -1      2129 8.41844E-01-5.61485E+00-1.99093E-01 1.13059E+00 1.12493E-13 5.61495E-13
 -1      2130 7.59582E-01-6.20432E+00-2.77143E-01-8.16374E-01-3.81639E-14 4.73732E-13
 -1      2131 4.55157E+00-5.84137E+00-2.14362E-01 4.79311E+00 2.02061E-13 2.54213E-13
 -1      2132 2.63864E+00-5.76981E+00-1.65575E-01 3.49178E+00 7.42739E-14 4.28046E-13
 -1      2133 8.16123E+00-4.74828E+00-4.04680E-02 6.14651E+00-5.05151E-14 3.54050E-13
 -1      2134 2.00992E+01-2.71508E+00 4.75789E-02 6.92334E+00 3.84248E-13 4.72511E-13
 -1      2135 1.54732E+01-4.71783E+00-2.29702E-01 6.32212E+00 3.31901E-13 4.04426E-13
 -1      2136 2.85561E+01 4.36567E-01 2.05946E-01 5.98126E+00 4.45532E-13 3.66596E-13
 -1      2137 2.36178E+01-1.56102E+00-1.39878E-01 5.76239E+00 4.19220E-13 2.75724E-13
 -1      2138 1.95359E+01 4.02446E+00-2.50144E-02-1.68484E+00-2.06666E-13-3.42783E-13
 -1      2139 1.96567E+01 3.94864E+00-2.45284E-02-1.94097E+00-2.37720E-13-2.93082E-13
 -1      2140 1.99707E+01 3.24300E+00-1.86588E-02-1.90879E+00-2.46505E-13-2.44799E-13
 -1      2141 1.97078E+01 3.60108E+00-6.53850E-03-1.50308E+00-2.09781E-13-3.36432E-13
 -1      2142 3.88967E+01 6.05534E+00 2.91000E-01 1.47681E+00 4.00457E-13 2.11220E-13
 -1      2143 3.69336E+01 5.07637E+00 2.41969E-01 2.79661E+00 3.72036E-13 2.26708E-13
 -1      2144 4.04794E+01 7.16118E+00 3.75687E-01-2.87014E-01 5.90084E-13 1.75235E-13
 -1      2145 3.92858E+01 7.18151E+00 2.58484E-01 7.96347E-01 5.37237E-13 2.51021E-13
 -1      2146 3.79110E+01 6.29895E+00 1.54758E-01-1.66345E+00 7.12097E-13 3.15858E-14
 -1      2147 4.04216E+01 6.89245E+00 4.20912E-01-7.71692E-01 6.40266E-13 1.45023E-13
 -1      2148 3.60127E+01 8.10244E+00 3.35475E-01 3.64457E-02 6.75515E-13 4.00069E-13
 -1      2149 3.29724E+01 2.88579E+00 9.67707E-04-2.30049E+00 7.71772E-13-1.96620E-13
 -1      2150 3.65344E+01 4.56451E+00 2.68518E-01-1.95698E+00 7.94670E-13-5.02376E-14
 -1      2151 2.63550E+01-9.91207E-01-7.05294E-02-5.09246E+00 7.13096E-13-5.98854E-13
 -1      2152 3.06631E+01 3.96829E-01 5.68825E-02-4.20640E+00 6.64316E-13-3.37286E-13
 -1      2153 1.93220E+01-4.27160E+00-1.42882E-01-6.02692E+00 5.19140E-13-5.71709E-13
 -1      2154 2.36107E+01-2.24248E+00 7.09026E-02-6.40311E+00 6.51368E-13-6.18616E-13
 -1      2155 2.63849E+01-3.49307E+00 6.60484E-02-4.08956E+00 3.24601E-13-2.48801E-13
 -1      2156 9.33781E+00-6.12089E+00-3.75493E-01-5.80020E+00 4.44866E-13-8.25853E-13
 -1      2157 1.39384E+01-4.50825E+00-1.17344E-01-6.99150E+00 5.23581E-13-8.03357E-13
 -1      2158 3.55525E+00-6.97872E+00-3.98095E-01-4.19016E+00 1.12632E-13-1.02304E-12
 -1      2159 6.21252E+00-5.93572E+00-2.47973E-01-5.41394E+00 3.84914E-13-9.64520E-13
 -1      2160 9.96155E+00-5.48783E+00-9.57394E-02-6.62324E+00 3.24185E-14-8.81947E-13
 -1      2161 5.98938E-01-6.61098E+00-3.25331E-01-1.11842E+00-1.12618E-13-9.28368E-13
 -1      2162 1.52841E+00-6.46102E+00-3.10846E-01-2.76262E+00 9.85323E-14-1.11555E-12
 -1      2163 1.44734E+00-6.90710E+00-3.68191E-01 2.56757E+00-2.91323E-13-3.45057E-13
 -1      2164 3.85271E-01-7.05487E+00-3.88267E-01 9.86514E-01-7.74103E-14-6.67355E-13
 -1      2165 6.69550E+00-5.96981E+00-2.45747E-01 5.33440E+00-4.57856E-13-5.02973E-13
 -1      2166 3.91937E+00-7.03890E+00-4.04293E-01 4.06093E+00-3.76310E-13-3.85691E-13
 -1      2167 1.46205E+01-4.47785E+00-9.48186E-02 6.69127E+00-4.93050E-13-5.13201E-13
 -1      2168 1.03455E+01-6.18728E+00-3.83528E-01 5.69452E+00-4.25548E-13-5.23030E-13
 -1      2169 2.34334E+01-2.79914E+00-1.82817E-02 6.19441E+00-4.49918E-13-6.71740E-13
 -1      2170 1.82610E+01-4.28856E+00-2.63115E-01 5.97136E+00-4.85167E-13-5.67768E-13
 -1      2171 1.88917E+01-5.46481E+00 1.16259E-02 6.31675E+00-1.46050E-13-3.38340E-13
 -1      2172 3.23858E+01 8.62675E-01 2.26453E-01 4.21496E+00-4.89386E-13-6.67022E-13
 -1      2173 2.77600E+01-1.16627E+00-7.21156E-02 4.24430E+00-4.82225E-13-6.28886E-13
 -1      2174 3.77017E+01 4.34356E+00 3.00827E-01 2.11590E+00-6.52506E-13-4.93883E-13
 -1      2175 3.43286E+01 2.77219E+00 8.51093E-02 2.99624E+00-5.78357E-13-5.68212E-13
 -1      2176 4.13713E+01 6.73214E+00 4.49531E-01 6.59963E-01-6.17173E-13-5.52586E-13
 -1      2177 3.89226E+01 6.17428E+00 2.25560E-01 1.41937E+00-6.77958E-13-5.93414E-13
 -1      2178 3.90073E+01 7.10588E+00 1.51280E-01-6.17517E-01-5.98910E-13-3.35232E-13
 -1      2179 4.12927E+01 7.21052E+00 4.75991E-01 2.05165E-01-6.57252E-13-4.97546E-13
 -1      2180 3.67308E+01 7.98044E+00 3.74906E-01-5.59776E-02-7.41684E-13-3.41907E-13
 -1      2181 3.58066E+01 4.35811E+00 8.35581E-02-1.18582E+00-3.45612E-13-3.90687E-13
 -1      2182 3.80603E+01 5.76337E+00 2.07031E-01-6.31932E-01-4.10783E-13-4.05842E-13
 -1      2183 3.05961E+01 5.30701E-01 2.01155E-02-4.06890E+00-5.20139E-13-1.90847E-13
 -1      2184 3.42602E+01 1.87266E+00 7.49887E-02-2.75513E+00-4.41910E-13-4.17888E-13
 -1      2185 2.30555E+01-2.48613E+00-1.87687E-01-5.49219E+00-5.06095E-13 6.89448E-14
 -1      2186 2.81172E+01-6.84591E-01 1.34302E-01-5.63711E+00-5.42788E-13-6.49480E-14
 -1      2187 3.00597E+01-1.60545E+00 1.80647E-01-2.61364E+00-4.23536E-13-3.98348E-13
 -1      2188 1.43771E+01-5.27423E+00-3.33279E-01-5.98277E+00-2.96985E-13 2.75641E-13
 -1      2189 1.90641E+01-3.43918E+00-1.10210E-02-6.74407E+00-4.50751E-13 1.92846E-13
 -1      2190 6.76097E+00-6.74058E+00-4.00245E-01-5.04047E+00-1.48548E-13 7.55312E-13
 -1      2191 1.03120E+01-5.28145E+00-1.78644E-01-6.16930E+00-2.92877E-13 5.95059E-13
 -1      2192 1.75081E+00-6.78531E+00-3.41886E-01-2.67277E+00-5.22637E-14 5.33185E-13
 -1      2193 3.76879E+00-6.29595E+00-2.70749E-01-4.18137E+00-2.74059E-13 7.10543E-13
 -1      2194 3.52591E+01 3.31271E+00 2.97057E-01 3.75141E+00 3.59560E-13 1.71307E-13
 -1      2195 3.11639E+01 1.82541E+00 3.22551E-02 4.29358E+00 3.54314E-13 2.95985E-13
 -1      2196 3.03226E+01-2.57748E-01 1.73269E-01 2.97693E+00 2.07181E-13 2.10942E-14
 -1      2197 2.07157E+01 1.10853E+00-2.06931E-02-1.60497E+00-2.38996E-13 2.20034E-13
 -1      2198 3.41159E+01 3.81887E+00 2.71025E-01 7.30792E-01 3.06949E-13 4.54081E-14
 -1      2199 2.06167E+01 1.33334E+00-1.79925E-02-1.66280E+00-2.52907E-13 6.27137E-14
 -1      2200 3.37991E+00-3.82630E+00-3.37193E-02 2.69807E+00 1.50019E-14 5.35572E-13
 -1      2201 1.54443E+01-5.37786E+00-4.26811E-02 6.82359E+00 1.05582E-13 3.86417E-13
 -1      2202 2.00148E+01 3.37824E-02 2.12092E-04-3.04865E-02-4.94153E-14 6.61307E-14
 -1      2203 2.77882E+00-4.20654E+00-1.05189E-01-2.17736E+00-1.24206E-14 6.43874E-13
 -1      2204 2.38554E+01-3.63178E+00 3.77312E-02 5.43990E+00 1.86129E-13 1.34559E-13
 -1      2205 7.23253E+00-5.44061E+00-1.55340E-01-5.58681E+00-2.08722E-14 5.51392E-13
 -1      2206 2.35688E+01-4.53585E+00 3.85374E-02-5.26391E+00-3.16969E-13-7.71883E-14
 -1      2207 3.54313E+01 6.72701E+00 1.87797E-01 6.16487E-01-4.71290E-13-4.29129E-13
 -1      2208 3.58722E+01 5.29294E+00 2.81902E-01-1.35979E-01-5.14699E-13-3.72757E-13
 -1      2209 2.69333E+01-3.39768E+00 6.67273E-02 4.00982E+00-2.24404E-13-3.84137E-13
 -1      2210 1.10302E+01-5.70435E+00-1.01947E-01 6.49785E+00-7.32192E-14-4.25909E-13
 -1      2211 4.28510E+00-5.22152E+00-1.76430E-01 4.22619E+00 4.77396E-15-4.33931E-13
 -1      2212 4.19592E+00-4.88970E+00-1.43775E-01-4.29991E+00-1.94289E-14-1.09524E-12
 -1      2213 1.86641E+01-5.17391E+00 3.58546E-02-6.56376E+00 2.41862E-13-5.42580E-13
 -1      2214 3.43730E+01 5.53030E+00 1.58118E-01 2.78256E-01 7.97917E-13 2.23044E-13
 -1      2215 3.59632E+01 7.18708E+00 2.97599E-01 4.41480E-02 5.06040E-13 3.38812E-13
 -1      2216 3.14114E+01 6.75917E-01 1.27883E-01-1.36880E+00 6.31405E-13 5.79536E-14
 -1      2217 1.72639E+00-4.57583E+00-1.56718E-01-1.06417E-01 3.46112E-14-8.31890E-13
 -1      2218 3.27252E+01 8.24003E-01 1.72940E-01 1.00556E+00-3.99160E-13-3.11640E-13
 -1      2219 3.35899E+01 2.54759E+00 1.65118E-01-9.17077E-02-3.79100E-13-4.80171E-13
 -1      2220 1.50015E+01-5.75765E+00-7.85418E-02-6.70750E+00 1.31006E-14 2.61520E-13
 -1      2221 2.01469E+01 5.12197E-01 4.06049E-03 6.58722E-01 2.11935E-13 5.95518E-14
 -1      2222 2.04092E+01 7.04038E-01 2.08345E-02 9.52754E-01 2.20025E-13 9.02819E-14
 -1      2223 1.95725E+01 3.54507E+00-1.12305E-02-5.79133E-01-9.17625E-14-3.86932E-13
 -1      2224 1.96087E+01 3.49714E+00-1.04258E-02-7.61015E-01-1.16183E-13-3.91393E-13
 -1      2225 1.96559E+01 3.40491E+00-1.29361E-02-9.22866E-01-1.38352E-13-3.78840E-13
 -1      2226 1.97169E+01 3.32177E+00-1.26595E-02-1.11112E+00-1.70216E-13-3.57256E-13
 -1      2227 1.97985E+01 3.06494E+00 4.95089E-04-7.73141E-01-1.19256E-13-3.56527E-13
 -1      2228 1.95239E+01 3.63196E+00-9.62953E-03 9.77434E-02 3.94229E-14-3.52793E-13
 -1      2229 1.95232E+01 3.63279E+00-9.63997E-03-7.83569E-02-5.95414E-15-3.46119E-13
 -1      2230 1.95505E+01 3.59062E+00-9.68441E-03 4.36693E-01 9.51628E-14-3.83167E-13
 -1      2231 1.95327E+01 3.61421E+00-1.02064E-02 2.59013E-01 6.60139E-14-3.73344E-13
 -1      2232 1.96873E+01 3.26197E+00-6.20148E-04 1.65269E-01 4.93668E-14-3.38521E-13
 -1      2233 1.96132E+01 3.48982E+00-1.05275E-02 7.74778E-01 1.32803E-13-3.94837E-13
 -1      2234 1.95764E+01 3.53868E+00-1.13260E-02 5.95871E-01 1.08522E-13-4.00176E-13
 -1      2235 1.97251E+01 3.19524E+00-2.65183E-04 4.75824E-01 9.94033E-14-3.72891E-13
 -1      2236 1.97243E+01 3.30987E+00-1.28273E-02 1.12409E+00 1.96228E-13-3.29021E-13
 -1      2237 1.96615E+01 3.39569E+00-1.30257E-02 9.36454E-01 1.52845E-13-3.65300E-13
 -1      2238 1.98036E+01 3.05570E+00 4.25006E-04 7.85175E-01 1.39267E-13-3.57662E-13
 -1      2239 1.99016E+01 3.01725E+00-1.80192E-02 1.46962E+00 2.43588E-13-2.75259E-13
 -1      2240 1.98034E+01 3.16123E+00-1.53164E-02 1.27975E+00 2.10018E-13-3.01060E-13
 -1      2241 1.99336E+01 2.82282E+00 2.04708E-03 1.08764E+00 1.93970E-13-2.95609E-13
 -1      2242 2.01742E+01 2.55096E+00-2.82743E-02 1.77485E+00 2.88232E-13-1.74711E-13
 -1      2243 2.00264E+01 2.79288E+00-1.71697E-02 1.59998E+00 2.56953E-13-2.33431E-13
 -1      2244 2.01265E+01 2.46403E+00 5.91987E-03 1.35274E+00 2.34471E-13-2.34123E-13
 -1      2245 1.98828E+01 2.77864E-01 5.20261E-03 2.58048E-01 1.77829E-13 2.91362E-14
 -1      2246 2.00356E+01 3.75499E-01 2.02338E-02 4.19264E-01 2.05405E-13 5.96953E-14
 -1      2247 2.02167E+01 6.43980E-01-2.49421E-03 6.78457E-01 2.21468E-13-2.80032E-14
 -1      2248 2.04024E+01 8.62773E-01 1.36128E-02-9.78404E-01-2.09636E-13-2.06133E-14
 -1      2249 2.01955E+01 6.36583E-01-4.26956E-03-6.67150E-01-1.87993E-13-2.64207E-14
 -1      2250 3.23166E+01 3.92580E+00-1.30726E-01-5.71133E-01 2.99372E-13 2.91045E-13
 -1      2251 3.13249E+01 2.07810E+00-5.08716E-02-2.27515E-01 1.83381E-13 1.28619E-13
 -1      2252 2.01348E+01 4.82071E-01 1.61994E-02-4.44978E-01-1.71390E-13-1.86371E-14
 -1      2253 2.00022E+01 3.59936E-01 6.21638E-04-2.67991E-01-1.57473E-13-3.02966E-14
 -1      2254 2.02564E+01 7.64036E-01-9.81939E-04-6.61782E-01-1.88589E-13-7.98967E-14
 -1      2255 1.99449E+01 2.78192E-01 1.08852E-02-1.22855E-01-1.53451E-13-1.74735E-14
 -1      2256 1.98776E+01 2.10831E-01 1.45147E-03-1.74393E-02-1.42721E-13-3.27730E-14
 -1      2257 2.01032E+01 4.39124E-01-3.93409E-03-2.64270E-01-1.50660E-13-8.39581E-14
 -1      2258 1.98417E+01 1.65443E-01 6.43179E-03 7.57752E-02-1.38134E-13-1.96179E-14
 -1      2259 1.98225E+01 1.28301E-01 1.69609E-03 1.40616E-01-1.18799E-13-3.62866E-14
 -1      2260 1.99977E+01 2.60571E-01-3.98839E-03-4.91543E-03-1.41320E-13-7.65744E-14
 -1      2261 1.98080E+01 1.03559E-01 3.61781E-03 2.01618E-01-9.06815E-14-4.83844E-14
 -1      2262 1.98223E+01 8.45821E-02 1.89608E-03 2.43898E-01-5.39586E-14-4.76637E-14
 -1      2263 1.99428E+01 1.61248E-01-3.37938E-03 1.64009E-01-1.23448E-13-8.91039E-14
 -1      2264 1.98256E+01 7.27864E-02 1.89436E-03 2.86617E-01-5.40328E-14-5.71568E-14
 -1      2265 1.98640E+01 6.57274E-02 2.14811E-03 3.17672E-01-3.30288E-14-7.21104E-14
 -1      2266 1.99309E+01 1.09543E-01-2.68195E-03 2.78287E-01-8.28526E-14-7.11149E-14
 -1      2267 1.98816E+01 6.27794E-02 8.25258E-04 3.51917E-01-2.50320E-14-1.08617E-13
 -1      2268 1.99386E+01 6.41576E-02 2.48035E-03 3.79414E-01-4.16271E-14-1.40654E-13
 -1      2269 1.99531E+01 8.88968E-02-2.10419E-03 3.63153E-01-6.09486E-14-1.40478E-13
 -1      2270 1.99677E+01 6.76731E-02 1.54759E-04 4.12307E-01-7.77151E-14-1.47220E-13
 -1      2271 2.00408E+01 7.53709E-02 2.90458E-03 4.41750E-01-1.08003E-13-1.46893E-13
 -1      2272 2.00025E+01 9.00473E-02-1.69396E-03 4.36673E-01-6.55911E-14-1.79772E-13
 -1      2273 2.00798E+01 8.37774E-02-2.64577E-04 4.78606E-01-7.40085E-14-1.34308E-13
 -1      2274 2.01687E+01 9.62924E-02 3.41329E-03 5.14065E-01-5.14383E-14-1.04377E-13
 -1      2275 2.00744E+01 1.07340E-01-1.42641E-03 5.12124E-01-8.24441E-14-1.49881E-13
 -1      2276 2.02169E+01 1.08303E-01-5.21897E-04 5.58849E-01-2.66338E-14-5.74096E-14
 -1      2277 2.03225E+01 1.24228E-01 3.97199E-03 6.03235E-01 3.57003E-14-3.47055E-14
 -1      2278 2.01664E+01 1.36724E-01-1.26195E-03 5.99377E-01 8.77445E-16-8.34045E-14
 -1      2279 2.03800E+01 1.38392E-01-6.65678E-04 6.58687E-01 6.10313E-14 7.84350E-15
 -1      2280 2.05043E+01 1.55879E-01 4.50831E-03 7.13659E-01 5.52800E-14 3.33527E-14
 -1      2281 2.02777E+01 1.74384E-01-1.16965E-03 7.05532E-01 4.72052E-14 4.20252E-15
 -1      2282 2.05720E+01 1.70038E-01-7.03093E-04 7.81097E-01 3.49829E-14-1.99841E-14
 -1      2283 2.07171E+01 1.86092E-01 4.89393E-03 8.46561E-01 2.35546E-14-6.01835E-15
 -1      2284 2.04089E+01 2.15366E-01-1.14345E-03 8.34873E-01 2.90917E-14-8.54092E-15
 -1      2285 2.07968E+01 1.96612E-01-5.85871E-04 9.25279E-01-7.01312E-14-4.89764E-15
 -1      2286 2.09651E+01 2.06072E-01 4.91966E-03 9.98368E-01-8.07704E-14-3.59983E-14
 -1      2287 2.05623E+01 2.51790E-01-1.22658E-03 9.88114E-01-4.53851E-14 1.48198E-14
 -1      2288 2.10607E+01 2.06759E-01-1.82206E-04 1.08450E+00-7.40700E-14-9.80851E-14
 -1      2289 2.12533E+01 2.00937E-01 4.26638E-03 1.15787E+00-8.80036E-14-1.36876E-13
 -1      2290 2.07423E+01 2.70354E-01-1.55345E-03 1.16075E+00-9.51700E-14-4.32622E-14
 -1      2291 2.13724E+01 1.81699E-01 7.60846E-04 1.24251E+00-8.73403E-14-1.45011E-13
 -1      2292 2.15895E+01 1.46932E-01 2.48279E-03 1.30186E+00-1.34314E-13-8.73047E-14
 -1      2293 2.09579E+01 2.49067E-01-2.40630E-03 1.34026E+00-1.16123E-13-1.07045E-13
 -1      2294 2.17461E+01 9.27701E-02 2.63556E-03 1.36824E+00-1.10133E-13-5.73560E-14
 -1      2295 2.19859E+01 1.00494E-02-1.00407E-03 1.38945E+00-3.74832E-14-4.60648E-14
 -1      2296 2.12264E+01 1.53968E-01-4.25244E-03 1.50174E+00-8.69558E-14 8.79695E-15
 -1      2297 2.22034E+01-9.77998E-02 5.88239E-03 1.40904E+00-2.26702E-14-2.69619E-15
 -1      2298 2.24610E+01-2.49016E-01-6.76546E-03 1.35616E+00 8.05593E-14-1.17337E-14
 -1      2299 2.15793E+01-6.11561E-02-7.66030E-03 1.60173E+00-2.51869E-14 3.72987E-14
 -1      2300 2.27722E+01-4.25554E-01 1.05992E-02 1.28452E+00 1.37543E-13-4.10240E-14
 -1      2301 2.30357E+01-6.53045E-01-1.49818E-02 1.11250E+00 1.81739E-13-6.03877E-14
 -1      2302 2.20669E+01-4.44469E-01-1.28639E-02 1.57031E+00 7.83034E-14 1.08054E-14
 -1      2303 2.34712E+01-8.88791E-01 1.51769E-02 8.89359E-01 3.14519E-13-6.68584E-14
 -1      2304 2.37139E+01-1.15426E+00-2.40768E-02 5.58772E-01 3.21913E-13-7.00353E-14
 -1      2305 2.27523E+01-1.00917E+00-1.87074E-02 1.30498E+00 2.41041E-13-8.04268E-14
 -1      2306 2.42657E+01-1.37525E+00 1.51689E-02 1.26153E-01 2.72220E-13-3.70463E-14
 -1      2307 2.44367E+01-1.54498E+00-2.80655E-02-3.57443E-01 1.69231E-13 1.85477E-14
 -1      2308 2.36752E+01-1.65210E+00-2.11342E-02 6.81551E-01 3.31594E-13-6.14931E-14
 -1      2309 2.49935E+01-1.57459E+00 6.80621E-04-9.88407E-01 1.14070E-13 1.19467E-13
 -1      2310 2.50299E+01-1.40714E+00-1.83586E-02-1.50741E+00 2.15531E-14 2.13525E-13
 -1      2311 2.47630E+01-2.03378E+00-1.30586E-02-3.77911E-01 1.98569E-13 1.01820E-13
 -1      2312 2.53408E+01-1.00971E+00-4.04347E-02-2.12110E+00-6.36166E-14 1.92889E-13
 -1      2313 2.52111E+01-3.17911E-01-2.09588E-03-2.39187E+00-4.54810E-14 2.25430E-13
 -1      2314 2.57134E+01-1.55660E+00-1.32593E-04-1.70568E+00 1.65770E-14 2.22832E-13
 -1      2315 2.50980E+01 5.50468E-01-8.16201E-02-2.51344E+00-6.85632E-14 1.12510E-13
 -1      2316 2.48779E+01 1.51023E+00 2.04027E-04-2.19973E+00-8.42937E-14 1.14133E-13
 -1      2317 2.60788E+01 1.51089E-01-1.39357E-02-2.59668E+00-9.90492E-14 1.17573E-13
 -1      2318 2.45984E+01 2.31198E+00-7.94644E-02-1.48251E+00-1.75721E-13 1.15513E-13
 -1      2319 2.44879E+01 2.82693E+00-2.85578E-02-6.25737E-01-2.34562E-13 1.28780E-13
 -1      2320 2.58238E+01 2.43418E+00-6.19008E-02-2.04691E+00-1.41026E-13 8.98934E-14
 -1      2321 2.44163E+01 2.78319E+00-6.46414E-02 6.37024E-01-3.19890E-13 1.40742E-14
 -1      2322 2.45867E+01 2.30588E+00-8.79081E-02 1.47501E+00-3.57984E-13-9.58088E-15
 -1      2323 2.55372E+01 3.68835E+00-6.24674E-02-4.20878E-02-3.79294E-13-9.44106E-14
 -1      2324 2.48806E+01 1.51714E+00 2.64515E-03 2.21420E+00-3.10134E-13-1.18497E-13
 -1      2325 2.51103E+01 5.47604E-01-7.77825E-02 2.52234E+00-1.08804E-13-3.68177E-13
 -1      2326 2.58514E+01 2.50168E+00-4.18206E-02 2.07665E+00-4.26936E-13-1.90355E-13
 -1      2327 2.52134E+01-3.18771E-01-1.45663E-03 2.39481E+00 5.24771E-14-4.18537E-13
 -1      2328 2.53471E+01-1.00684E+00-3.93428E-02 2.12470E+00 5.63928E-14-3.94982E-13
 -1      2329 2.60871E+01 1.35145E-01-1.45457E-02 2.60121E+00-1.17604E-13-2.56038E-13
 -1      2330 2.50338E+01-1.40574E+00-2.06158E-02 1.51404E+00-4.15310E-14-4.19895E-13
 -1      2331 2.50007E+01-1.57283E+00-1.24804E-03 9.95408E-01-1.12126E-13-2.96722E-13
 -1      2332 2.57133E+01-1.56175E+00-3.56174E-03 1.70986E+00-2.34882E-15-5.03922E-13
 -1      2333 2.44457E+01-1.54152E+00-2.91335E-02 3.66147E-01-9.16402E-14-2.68082E-13
 -1      2334 2.42768E+01-1.37018E+00 1.47439E-02-1.15645E-01 3.98206E-14-1.33528E-13
 -1      2335 2.47689E+01-2.02979E+00-1.49838E-02 3.85863E-01 5.52155E-14-4.03996E-13
 -1      2336 2.37275E+01-1.14779E+00-2.40603E-02-5.45571E-01 5.75920E-14-2.49136E-13
 -1      2337 2.34877E+01-8.81450E-01 1.53240E-02-8.73615E-01-2.16910E-14-1.67697E-13
 -1      2338 2.36861E+01-1.64338E+00-2.06436E-02-6.67342E-01-1.91284E-14-3.75545E-13
 -1      2339 2.30549E+01-6.44619E-01-1.49426E-02-1.09325E+00-9.02316E-14-4.82637E-14
 -1      2340 2.27956E+01-4.16162E-01 1.07809E-02-1.26197E+00 2.55559E-14-7.59191E-14
 -1      2341 2.27671E+01-9.97920E-01-1.83406E-02-1.28488E+00 2.28528E-15-2.89068E-13
 -1      2342 2.24876E+01-2.38537E-01-6.75778E-03-1.32932E+00 1.36779E-13-3.84593E-14
 -1      2343 2.22359E+01-8.60881E-02 6.18306E-03-1.37802E+00 1.78722E-13-9.77428E-14
 -1      2344 2.20873E+01-4.30631E-01-1.27200E-02-1.54193E+00 9.34268E-14-1.38942E-13
 -1      2345 2.20222E+01 2.28967E-02-1.01571E-03-1.35328E+00 5.41742E-14-1.38678E-13
 -1      2346 2.17901E+01 1.07106E-01 3.01733E-03-1.32696E+00-4.50507E-15-1.68268E-13
 -1      2347 2.16069E+01-4.45420E-02-7.64989E-03-1.56338E+00 6.73938E-14-1.46338E-13
 -1      2348 2.16382E+01 1.62523E-01 2.45385E-03-1.25437E+00 4.30874E-14-1.46438E-13
 -1      2349 2.14309E+01 1.98983E-01 1.21530E-03-1.18886E+00-4.95133E-14-1.18252E-13
 -1      2350 2.12630E+01 1.73959E-01-4.31878E-03-1.45139E+00 3.67133E-14-5.39391E-14
 -1      2351 2.13173E+01 2.19576E-01 4.22469E-03-1.09686E+00-1.31015E-13 9.17783E-15
 -1      2352 2.11368E+01 2.27211E-01 3.33716E-04-1.01624E+00-1.25131E-13-1.89865E-14
 -1      2353 2.10054E+01 2.72900E-01-2.50663E-03-1.27561E+00-1.24577E-14-1.36685E-13
 -1      2354 2.10478E+01 2.27904E-01 4.86393E-03-9.21578E-01-1.53835E-13-1.50069E-13
 -1      2355 2.08942E+01 2.20248E-01-2.29464E-05-8.40155E-01-1.98464E-13-1.50780E-13
 -1      2356 2.08030E+01 2.98296E-01-1.65417E-03-1.07943E+00-2.04769E-13-1.34879E-13
 -1      2357 2.08222E+01 2.10998E-01 4.81859E-03-7.51843E-01-1.07319E-13-1.65479E-13
 -1      2358 2.06942E+01 1.96545E-01-1.17231E-04-6.77098E-01-5.23991E-14-6.83308E-14
 -1      2359 2.06383E+01 2.83761E-01-1.29744E-03-8.87870E-01-1.51361E-13-1.20075E-13
 -1      2360 2.06350E+01 1.83329E-01 4.40392E-03-5.99300E-01-1.06220E-13-8.35199E-14
 -1      2361 2.05304E+01 1.66946E-01-9.86394E-05-5.34430E-01-1.08958E-13-1.03443E-14
 -1      2362 2.05021E+01 2.50766E-01-1.15091E-03-7.13919E-01-6.15001E-14-8.75986E-14
 -1      2363 2.04818E+01 1.53067E-01 3.82485E-03-4.68434E-01-6.90339E-14 2.17898E-14
 -1      2364 2.03980E+01 1.37313E-01-4.23745E-05-4.14151E-01 2.95928E-14 7.72249E-14
 -1      2365 2.03894E+01 2.11832E-01-1.06888E-03-5.63061E-01-5.55342E-14-8.81282E-15
 -1      2366 2.03584E+01 1.24450E-01 3.20444E-03-3.59638E-01-6.13221E-14 9.83451E-14
 -1      2367 2.02924E+01 1.10541E-01 1.91824E-05-3.15328E-01 2.25419E-14 3.67080E-14
 -1      2368 2.02967E+01 1.73690E-01-9.89426E-04-4.36329E-01-4.32785E-14 3.01674E-15
 -1      2369 2.02604E+01 9.94555E-02 2.61037E-03-2.71150E-01 3.20984E-13-3.13340E-14
 -1      2370 2.02093E+01 8.78694E-02 7.58782E-05-2.35564E-01 4.08554E-13-3.30861E-14
 -1      2371 2.02216E+01 1.39628E-01-8.92726E-04-3.32285E-01 1.14828E-13 3.05615E-13
 -1      2372 2.01839E+01 7.88351E-02 2.07506E-03-2.00205E-01 2.67862E-13-8.22479E-14
 -1      2373 2.01451E+01 6.96573E-02 1.21562E-04-1.71848E-01 1.91372E-13-2.77367E-14
 -1      2374 2.01614E+01 1.11024E-01-7.75584E-04-2.48253E-01 2.62461E-13-9.95258E-15
 -1      2375 2.01249E+01 6.26511E-02 1.60564E-03-1.43703E-01 3.08815E-14-8.49678E-14
 -1      2376 2.00961E+01 5.57623E-02 1.69459E-04-1.21120E-01-1.94303E-13-7.56434E-14
 -1      2377 2.01137E+01 8.81677E-02-6.48278E-04-1.81049E-01 4.41619E-14-2.43335E-13
 -1      2378 2.00801E+01 5.04324E-02 1.15750E-03-9.86356E-02-2.51374E-13 1.18632E-14
 -1      2379 2.00595E+01 4.57307E-02 3.46370E-04-8.06133E-02-4.86761E-14 9.03711E-14
 -1      2380 2.00762E+01 7.08327E-02-4.94666E-04-1.27520E-01-1.05794E-13-1.89288E-13
 -1      2381 1.09685E+01-4.22845E+00 3.58025E-02 6.79717E+00-1.03362E-13 3.72397E-13
 -1      2382 8.31301E+00-3.40835E+00 1.29011E-01 5.65394E+00-1.46244E-13 2.96957E-13
 -1      2383 1.96785E+01 9.27251E-02 2.92765E-03-1.23489E-01 8.10912E-14-6.05524E-14
 -1      2384 1.96903E+01 1.21272E-01 7.08550E-03-6.86731E-02 1.05634E-13-3.13308E-14
 -1      2385 1.96894E+01 5.78672E-02 2.44298E-03-2.13104E-01 5.63799E-14-9.48298E-14
 -1      2386 1.96650E+01 7.29158E-02 3.93356E-03-1.78917E-01 6.51712E-14-6.01299E-14
 -1      2387 1.98264E+01 1.20354E-01-3.63918E-03-1.48600E-01 9.57499E-14-8.59817E-14
 -1      2388 1.97481E+01 4.12023E-02 2.27324E-03-2.73107E-01 5.69170E-14-8.79040E-14
 -1      2389 1.96991E+01 4.78778E-02 2.14806E-03-2.49550E-01 5.67948E-14-1.06447E-13
 -1      2390 1.98235E+01 7.65716E-02-2.88085E-03-2.51746E-01 5.57349E-14-1.11127E-13
 -1      2391 1.98420E+01 3.62471E-02 2.28269E-03-3.19207E-01 1.88201E-15-1.86656E-14
 -1      2392 1.97752E+01 3.74349E-02 1.13343E-03-2.99985E-01 2.06668E-14-2.92888E-14
 -1      2393 1.98616E+01 5.65076E-02-2.24782E-03-3.23566E-01 3.13050E-15-1.01929E-13
 -1      2394 1.99644E+01 3.89643E-02 2.40088E-03-3.61793E-01-1.60017E-14 1.50294E-14
 -1      2395 1.98830E+01 3.65734E-02 5.72805E-04-3.42798E-01 2.29694E-14 6.64565E-15
 -1      2396 1.99311E+01 5.17044E-02-1.81845E-03-3.80937E-01 3.29077E-15-3.42212E-14
 -1      2397 2.01121E+01 4.62718E-02 2.56377E-03-4.07529E-01 5.36165E-15 1.07559E-14
 -1      2398 2.00172E+01 4.18407E-02 2.94714E-04-3.86219E-01-1.62213E-14 1.12342E-14
 -1      2399 2.00264E+01 5.67024E-02-1.57094E-03-4.35097E-01-1.14485E-14-4.29331E-14
 -1      2400 2.02846E+01 5.52141E-02 2.68912E-03-4.59963E-01 4.46667E-14-3.57325E-14
 -1      2401 2.01761E+01 5.02997E-02 1.98744E-04-4.35184E-01 3.99480E-14 1.05403E-14
 -1      2402 2.01446E+01 6.71655E-02-1.46195E-03-4.93151E-01 3.22479E-14-5.67992E-14
 -1      2403 2.04829E+01 6.23395E-02 2.66279E-03-5.19454E-01 8.77358E-14-5.00599E-14
 -1      2404 2.03601E+01 5.88311E-02 2.20346E-04-4.91569E-01 6.03595E-14-5.59858E-14
 -1      2405 2.02854E+01 7.87627E-02-1.45262E-03-5.58570E-01 6.41313E-14-6.80260E-14
 -1      2406 2.07078E+01 6.31369E-02 2.32987E-03-5.82549E-01 6.80055E-14-5.03926E-14
 -1      2407 2.05707E+01 6.35472E-02 3.18143E-04-5.53819E-01 9.29844E-14-2.73772E-14
 -1      2408 2.04497E+01 8.63109E-02-1.51595E-03-6.31019E-01 6.74096E-14 8.35599E-15
 -1      2409 2.09594E+01 5.15543E-02 1.49349E-03-6.40903E-01 7.17277E-14-3.67601E-14
 -1      2410 2.08093E+01 5.92527E-02 4.69047E-04-6.16072E-01 8.17176E-14-3.70359E-14
 -1      2411 2.06393E+01 8.30159E-02-1.63870E-03-7.05603E-01 5.00159E-14-4.86473E-14
 -1      2412 2.12351E+01 1.98428E-02-6.66671E-05-6.79890E-01 7.46846E-14 1.43304E-14
 -1      2413 2.10760E+01 3.90716E-02 6.64517E-04-6.66866E-01 3.64435E-14 2.77710E-14
 -1      2414 2.08567E+01 5.99125E-02-1.81799E-03-7.71637E-01 3.81664E-14 3.33057E-14
 -1      2415 2.15285E+01-4.07171E-02-2.53812E-03-6.77423E-01 2.07972E-13 5.04696E-16
 -1      2416 2.13682E+01-5.38375E-03 8.99242E-04-6.87715E-01 1.61026E-13 4.68100E-14
 -1      2417 2.11038E+01 5.93921E-03-2.04620E-03-8.11146E-01 9.12237E-14 4.97131E-14
 -1      2418 2.18276E+01-1.37190E-01-5.95186E-03-6.04052E-01 5.12220E-14 7.31705E-14
 -1      2419 2.16786E+01-8.25394E-02 1.13974E-03-6.52302E-01 1.82286E-13 7.29840E-14
 -1      2420 2.13819E+01-9.04475E-02-2.27288E-03-7.97691E-01 1.28608E-13 1.43733E-13
 -1      2421 2.21118E+01-2.69023E-01-9.93455E-03-4.26430E-01-9.08011E-14 2.31846E-14
 -1      2422 2.19927E+01-1.96836E-01 1.26131E-03-5.27853E-01-3.69529E-14 5.38441E-14
 -1      2423 2.16893E+01-2.36563E-01-2.31497E-03-6.96793E-01 3.76713E-14 2.75675E-13
 -1      2424 2.23502E+01-4.17846E-01-1.34270E-02-1.17456E-01-1.29632E-13-6.31651E-15
 -1      2425 2.22840E+01-3.40677E-01 9.83293E-04-2.81515E-01-1.34722E-13 1.29252E-14
 -1      2426 2.20167E+01-4.25789E-01-1.69755E-03-4.70407E-01-8.56663E-14 1.27032E-13
 -1      2427 2.24989E+01-5.35318E-01-1.44071E-02 3.23632E-01-1.64282E-13-4.00066E-14
 -1      2428 2.25099E+01-4.82719E-01-3.30063E-04 1.04209E-01-1.34837E-13 2.67763E-14
 -1      2429 2.23400E+01-6.22490E-01 3.39452E-04-8.96420E-02-1.44770E-13 1.35133E-13
 -1      2430 2.25046E+01-5.39697E-01-1.04760E-02 8.40940E-01 7.16037E-14 1.21664E-13
 -1      2431 2.26101E+01-5.57254E-01-3.14099E-03 6.04293E-01-7.88683E-14-3.01316E-15
 -1      2432 2.26096E+01-7.47776E-01 4.43636E-03 4.39936E-01-1.26170E-13 4.72335E-14
 -1      2433 2.23238E+01-3.42673E-01-8.29910E-04 1.29550E+00 1.53448E-13 2.02038E-13
 -1      2434 2.25189E+01-4.73145E-01-8.06785E-03 1.11739E+00 1.91245E-13 2.12257E-13
 -1      2435 2.27468E+01-6.82790E-01 9.88211E-03 1.03957E+00 2.38581E-14 5.77236E-14
 -1      2436 2.19626E+01 7.97838E-02 1.14468E-02 1.47615E+00 1.81172E-14 1.79808E-13
 -1      2437 2.22075E+01-1.60458E-01-1.27394E-02 1.45382E+00 7.65099E-14 2.61732E-13
 -1      2438 2.26692E+01-3.27022E-01 1.14033E-02 1.52587E+00 8.02486E-14 2.75489E-13
 -1      2439 2.15291E+01 6.00109E-01 1.90292E-02 1.19554E+00-4.10063E-14 8.89267E-14
 -1      2440 2.17478E+01 3.38230E-01-1.20673E-02 1.39205E+00-1.46614E-14 1.31664E-13
 -1      2441 2.23656E+01 2.98795E-01 5.11262E-03 1.63679E+00 5.00364E-14 2.02146E-13
 -1      2442 2.12231E+01 9.64643E-01 1.57455E-02 4.53327E-01 1.48596E-13-3.47946E-14
 -1      2443 2.13342E+01 8.19100E-01-1.81921E-03 8.33472E-01-2.14065E-15 1.45916E-14
 -1      2444 2.19765E+01 9.68562E-01-6.04388E-03 1.17827E+00 8.57790E-14-3.03924E-14
 -1      2445 2.12302E+01 9.43787E-01 1.72287E-03-4.87171E-01 3.44889E-13-2.01636E-14
 -1      2446 2.11857E+01 1.00988E+00 1.16254E-02-7.13274E-02 2.73972E-13-7.74839E-14
 -1      2447 2.17470E+01 1.33424E+00-1.58953E-02 2.22959E-01 2.03854E-13-1.11560E-13
 -1      2448 2.15608E+01 5.54242E-01-9.36833E-03-1.22372E+00 2.30638E-13-1.26684E-13
 -1      2449 2.13787E+01 7.86349E-01 1.93919E-02-9.41240E-01 3.24664E-13-4.79469E-14
 -1      2450 2.18496E+01 1.17387E+00-1.26498E-02-8.33711E-01 3.36087E-13-1.45497E-13
 -1      2451 2.20340E+01 3.27785E-02-1.18974E-02-1.49141E+00 8.00291E-14-7.77971E-14
 -1      2452 2.17876E+01 2.94498E-01 1.61109E-02-1.42605E+00 1.34428E-13-5.92477E-14
 -1      2453 2.22070E+01 5.88035E-01 1.04322E-03-1.52554E+00 1.64073E-13-1.82959E-13
 -1      2454 2.24262E+01-3.68019E-01-8.24963E-03-1.29744E+00-1.36541E-13-2.81533E-14
 -1      2455 2.21991E+01-1.92078E-01 4.45761E-03-1.41869E+00 2.32028E-14-6.22874E-14
 -1      2456 2.25733E+01-9.25319E-02 1.11834E-02-1.63673E+00 8.27057E-15-1.32148E-13
 -1      2457 2.26127E+01-5.40948E-01-3.54680E-03-8.33847E-01-3.49898E-14-2.54947E-13
 -1      2458 2.24626E+01-4.83666E-01-7.27304E-03-1.05093E+00-8.93938E-14-1.04494E-13
 -1      2459 2.27509E+01-5.72874E-01 1.07891E-02-1.27482E+00-2.73633E-14-1.61675E-13
 -1      2460 2.25892E+01-5.19755E-01-1.25602E-04-3.15099E-01 6.19817E-15-2.50372E-13
 -1      2461 2.25347E+01-5.50888E-01-1.34551E-02-5.40793E-01-6.73567E-14-1.90719E-13
 -1      2462 2.26975E+01-7.47683E-01 5.61777E-03-6.97479E-01-6.23536E-14-1.94221E-13
 -1      2463 2.24136E+01-3.95052E-01 1.40280E-03 1.19488E-01-2.05085E-13 8.47553E-15
 -1      2464 2.24448E+01-4.66784E-01-1.39027E-02-6.25276E-02-7.26858E-14 1.25452E-14
 -1      2465 2.24767E+01-6.83300E-01 7.98959E-04-1.29312E-01-1.07779E-13-3.75046E-14
 -1      2466 2.21522E+01-2.45496E-01 1.73069E-03 4.16616E-01 7.64952E-14-2.23121E-14
 -1      2467 2.22459E+01-3.21624E-01-1.10354E-02 2.96042E-01-9.14919E-14-1.60055E-14
 -1      2468 2.21745E+01-5.01124E-01-1.78729E-03 3.09607E-01-1.02512E-13 1.89360E-13
 -1      2469 2.18562E+01-1.15705E-01 1.53747E-03 5.79746E-01 2.43951E-13 1.54232E-14
 -1      2470 2.19872E+01-1.77915E-01-7.14345E-03 5.16588E-01 2.01327E-13 4.08004E-14
 -1      2471 2.18535E+01-2.99377E-01-2.62087E-03 5.88471E-01 1.60548E-13 1.33346E-13
 -1      2472 2.15584E+01-2.15309E-02 1.24948E-03 6.37614E-01 2.62508E-13-1.06762E-14
 -1      2473 2.17056E+01-6.47075E-02-3.56220E-03 6.18504E-01 2.76538E-13 2.44741E-14
 -1      2474 2.15475E+01-1.30375E-01-2.57675E-03 7.25764E-01 2.94238E-13 2.60735E-14
 -1      2475 2.12784E+01 3.76313E-02 1.01795E-03 6.24051E-01 3.27329E-14 2.99396E-14
 -1      2476 2.14262E+01 1.17302E-02-8.26376E-04 6.34183E-01 2.52218E-13 6.11308E-14
 -1      2477 2.12710E+01-1.06752E-02-2.25325E-03 7.57771E-01 2.27336E-13 8.74868E-14
 -1      2478 2.10265E+01 6.90830E-02 8.61970E-04 5.68371E-01-1.53338E-13-1.03985E-13
 -1      2479 2.11647E+01 5.62755E-02 9.90553E-04 5.95229E-01-1.50074E-13-6.33136E-14
 -1      2480 2.10283E+01 6.27534E-02-1.92729E-03 7.21212E-01 1.03517E-13 9.59019E-14
 -1      2481 2.08073E+01 8.12681E-02 7.58052E-04 4.92410E-01-1.15607E-13-5.49008E-14
 -1      2482 2.09303E+01 7.72747E-02 2.02886E-03 5.26839E-01-7.69818E-14-1.34936E-13
 -1      2483 2.08195E+01 1.00392E-01-1.67238E-03 6.46042E-01-7.47564E-14 7.72437E-14
 -1      2484 2.06217E+01 8.14029E-02 6.81793E-04 4.10793E-01-2.93691E-13 1.73739E-13
 -1      2485 2.07269E+01 8.27437E-02 2.49095E-03 4.46781E-01-3.37076E-13-5.86181E-15
 -1      2486 2.06427E+01 1.13544E-01-1.47856E-03 5.53891E-01-3.55719E-13 1.40596E-13
 -1      2487 2.04681E+01 7.48551E-02 6.18366E-04 3.32368E-01-3.96276E-15 1.52565E-13
 -1      2488 2.05555E+01 7.90146E-02 2.56827E-03 3.66376E-01-4.84347E-14 1.14629E-13
 -1      2489 2.04953E+01 1.11627E-01-1.31867E-03 4.58943E-01-1.53598E-13 5.52591E-14
 -1      2490 2.03438E+01 6.52926E-02 5.62382E-04 2.61805E-01-3.02685E-14 8.08697E-14
 -1      2491 2.04144E+01 7.05852E-02 2.41371E-03 2.92054E-01 3.75149E-14 1.41599E-13
 -1      2492 2.03744E+01 1.01556E-01-1.17256E-03 3.69601E-01-4.52601E-14 1.63237E-13
 -1      2493 2.02454E+01 5.50813E-02 5.14507E-04 2.00956E-01-8.49832E-14 1.90428E-13
 -1      2494 2.03010E+01 6.04347E-02 2.13723E-03 2.26842E-01-7.41998E-14 1.36333E-13
 -1      2495 2.02769E+01 8.80162E-02-1.02944E-03 2.90135E-01-3.60522E-14 1.57729E-13
 -1      2496 2.01689E+01 4.56713E-02 4.72562E-04 1.49869E-01-1.56661E-13 2.68264E-13
 -1      2497 2.02116E+01 5.04437E-02 1.80983E-03 1.71527E-01-1.61102E-13 1.78261E-13
 -1      2498 2.01994E+01 7.40188E-02-8.85052E-04 2.22051E-01-1.67117E-13 2.45908E-13
 -1      2499 2.01109E+01 3.78793E-02 4.54347E-04 1.07547E-01-3.67783E-14 8.99274E-14
 -1      2500 2.01428E+01 4.17243E-02 1.47867E-03 1.25527E-01-2.14441E-13 2.71378E-13
 -1      2501 2.01388E+01 6.13519E-02-7.41717E-04 1.65095E-01-1.47983E-13 1.06684E-13
 -1      2502 2.00678E+01 3.17937E-02 3.88018E-04 7.24222E-02 3.53964E-13 2.59993E-13
 -1      2503 2.00907E+01 3.47838E-02 1.15376E-03 8.74456E-02 2.20954E-13 2.60870E-13
 -1      2504 2.00920E+01 5.09740E-02-6.20662E-04 1.18149E-01 1.30298E-14 1.71386E-13
 -1      2505 2.00365E+01 2.69914E-02 3.21764E-04 4.35154E-02-4.11393E-14 5.44473E-13
 -1      2506 2.00525E+01 2.93834E-02 8.89426E-04 5.60154E-02 2.02415E-13 4.13613E-13
 -1      2507 2.00565E+01 4.22879E-02-6.57545E-04 7.92739E-02 4.99473E-14 3.81691E-13
 -1      2508 2.00246E+01 2.36090E-02 5.44977E-04 2.93528E-02-1.15653E-13 5.72214E-13
 -1      2509 1.99836E+01 1.48351E-01-7.35666E-04 6.98770E-02 2.62767E-14-1.21830E-13
 -1      2510 1.99913E+01 1.35001E-01 2.87030E-04 7.47288E-02-4.74751E-15-3.66574E-13
 -1      2511 1.99713E+01 1.73245E-01-7.64064E-04 5.10249E-02-1.13520E-13-4.39443E-14
 -1      2512 1.99772E+01 1.63145E-01 3.09015E-05 6.06535E-02-2.30520E-14-1.38288E-13
 -1      2513 1.99743E+01 1.67919E-01 5.01872E-04 7.70651E-02 7.11764E-14-6.39127E-14
 -1      2514 2.00141E+01 8.36011E-02-4.39917E-04 7.34299E-02-6.67320E-16 5.09065E-13
 -1      2515 2.00214E+01 6.89684E-02 5.84645E-04 6.78833E-02-1.73634E-14 2.56643E-13
 -1      2516 1.99988E+01 1.17176E-01-6.14512E-04 7.77463E-02-2.06656E-13-4.02009E-13
 -1      2517 2.00070E+01 1.02529E-01 4.94658E-04 7.71388E-02-1.27809E-13 7.18271E-14
 -1      2518 2.00141E+01 1.01037E-01 2.49960E-04 9.03460E-02-9.66981E-14 1.40292E-13
 -1      2519 1.99933E+01 1.36463E-01 2.94870E-04 9.04976E-02-3.08473E-14-3.17088E-13
 -1      2520 1.99638E+01 1.88646E-01-6.93990E-04 2.41508E-02-4.09968E-13-2.20282E-13
 -1      2521 1.99670E+01 1.83125E-01-2.45571E-04 3.70116E-02-4.10570E-13 2.46504E-14
 -1      2522 1.99596E+01 1.91711E-01 6.69260E-04 5.18914E-02-2.23450E-13-1.72799E-13
 -1      2523 1.99620E+01 1.92587E-01-5.30959E-04-6.59785E-03-1.83793E-13-1.47598E-13
 -1      2524 1.99622E+01 1.92418E-01-4.91192E-04 7.46623E-03-3.39207E-13-1.96262E-13
 -1      2525 1.99515E+01 2.04888E-01 7.66372E-04 1.87542E-02-2.45231E-13-1.59343E-13
 -1      2526 1.99665E+01 1.84490E-01-2.96238E-04-3.64684E-02 2.37906E-14 4.18815E-14
 -1      2527 1.99634E+01 1.89747E-01-6.67395E-04-2.34325E-02-1.06681E-14-8.02691E-14
 -1      2528 1.99512E+01 2.05813E-01 7.80324E-04-1.74084E-02-4.58955E-14-2.26637E-15
 -1      2529 1.99764E+01 1.65742E-01-7.10197E-06-6.04058E-02 1.52809E-14-2.19310E-14
 -1      2530 1.99706E+01 1.75478E-01-7.62645E-04-5.06360E-02 2.16934E-14-8.00192E-14
 -1      2531 1.99588E+01 1.94395E-01 7.23707E-04-5.09078E-02 1.83136E-14-4.83842E-14
 -1      2532 1.99908E+01 1.37924E-01 2.64999E-04-7.52661E-02 1.18286E-13 3.94488E-13
 -1      2533 1.99829E+01 1.51271E-01-7.59848E-04-7.01312E-02 6.60659E-14 1.54166E-13
 -1      2534 1.99733E+01 1.71810E-01 5.60810E-04-7.68898E-02 8.64351E-14 8.59687E-14
 -1      2535 2.00072E+01 1.04519E-01 4.28832E-04-7.79573E-02 3.10592E-13 2.80513E-14
 -1      2536 1.99988E+01 1.19832E-01-6.10100E-04-7.86863E-02 7.87824E-14 2.05004E-13
 -1      2537 1.99928E+01 1.40393E-01 3.27616E-04-9.13205E-02 2.11040E-13 1.23443E-13
 -1      2538 2.00222E+01 6.98372E-02 5.05846E-04-6.81278E-02 3.11098E-14-2.09705E-13
 -1      2539 2.00150E+01 8.52569E-02-3.65809E-04-7.44980E-02 2.61415E-13-4.39299E-14
 -1      2540 2.00135E+01 1.03626E-01-1.05312E-04-9.15317E-02 4.73753E-14-1.96034E-15
 -1      2541 2.00243E+01 3.88307E-02 5.43571E-04-4.14070E-02-2.61974E-14 1.00365E-13
 -1      2542 3.81776E+00-2.27394E+00 8.90479E-02-1.35069E+00 6.66966E-14 4.66682E-13
 -1      2543 5.08376E+00-2.96208E+00 8.11221E-02-3.69647E+00 1.09746E-13 5.64937E-13
 -1      2544 1.97344E+01 1.57726E-01 3.91845E-03 2.02447E-02 1.09292E-13-1.18766E-14
 -1      2545 1.98018E+01 2.09947E-01 1.24919E-02 1.12611E-01 1.40028E-13 1.70744E-14
 -1      2546 1.98842E+01 2.03146E-01-4.17713E-03 1.13371E-02 1.37418E-13-7.80075E-14
 -1      2547 1.92160E+01-5.27487E+00-9.82715E-03 6.61119E+00-1.12355E-13 7.45931E-14
 -1      2548 1.49748E+01-5.08459E+00 7.40727E-02 6.79010E+00-1.27398E-13 1.29438E-13
 -1      2549 7.72232E+00-3.75854E+00 8.52304E-02-5.25834E+00 3.68039E-14 4.67765E-13
 -1      2550 1.09198E+01-4.46906E+00 5.62201E-02-6.48974E+00 1.36557E-13 3.96627E-13
 -1      2551 2.05436E+01 1.95809E+00-1.35606E-02-1.87897E+00-2.58992E-13-5.81115E-14
 -1      2552 2.04079E+01 1.21444E+00-8.58979E-03-1.27073E+00-2.37016E-13-3.78882E-14
 -1      2553 2.03868E+01 1.39366E+00 8.84525E-03-1.21468E+00-2.25494E-13-1.07602E-13
 -1      2554 2.02974E+01 2.40234E+00 5.95851E-04-1.81741E+00-2.60361E-13-1.48739E-13
 -1      2555 2.61399E+01-3.71858E+00-4.64033E-02 4.17560E+00 4.99600E-14-3.42781E-13
 -1      2556 2.27846E+01-4.82283E+00 2.25266E-03 5.11539E+00-4.39093E-14-1.23901E-13
 -1      2557 3.19302E+01 5.48671E+00-1.60314E-01 1.25256E+00-3.39229E-13-3.48499E-13
 -1      2558 3.29850E+01 6.94151E+00-6.60101E-02 5.95442E-01-5.62772E-13-3.83707E-13
 -1      2559 3.30260E+01 5.45556E+00-1.26401E-01-1.18294E+00-4.44977E-13-1.79079E-13
 -1      2560 3.21867E+01 3.55122E+00-1.20314E-01-1.23697E+00-3.83304E-13-1.49214E-13
 -1      2561 1.42798E+01-5.12890E+00 1.01054E-02 6.84972E+00 5.71765E-14-3.13805E-13
 -1      2562 1.06472E+01-4.69627E+00 6.32752E-02 6.23945E+00 1.03278E-13-3.56881E-13
 -1      2563 3.11411E+01 4.25141E+00-1.27622E-01 1.01215E+00 8.59285E-13 3.59185E-13
 -1      2564 3.24701E+01 6.07936E+00-7.79458E-02 8.00921E-01 8.07077E-13 3.98098E-13
 -1      2565 1.95308E+01 3.61731E+00-1.01602E-02-2.39602E-01-2.82963E-14-3.60321E-13
 -1      2566 1.95474E+01 3.59559E+00-9.62893E-03-4.17166E-01-6.80461E-14-3.75044E-13
 -1      2567 1.97216E+01 3.20111E+00-3.12753E-04-4.60980E-01-7.25456E-14-3.55785E-13
 -1      2568 1.96860E+01 3.26415E+00-6.34610E-04-1.47721E-01-2.12925E-14-3.35912E-13
 -1      2569 3.24858E+01 7.18056E+00-1.37043E-01-5.51115E-01 5.41012E-13 3.68643E-13
 -1      2570 3.23917E+01 5.98495E+00-9.08595E-02-7.51488E-01 4.37761E-13 3.29042E-13
 -1      2571 2.92152E+01-1.38832E+00-4.06034E-02-1.02225E+00 3.98830E-13 1.13881E-13
 -1      2572 3.06344E+01 1.04425E+00-1.52881E-01 4.08108E-01 6.19838E-13 4.10005E-13
 -1      2573 3.24078E+01 7.02136E+00-1.41573E-01 5.69752E-01 7.40408E-13 4.30128E-13
 -1      2574 3.24315E+01 7.57075E+00-1.22802E-01 1.59088E-01 7.36577E-13 5.44053E-13
 -1      2575 3.00955E+01 6.17181E+00-7.53877E-02 1.17490E+00 7.66387E-13 3.88897E-13
 -1      2576 3.35393E+00-2.79022E+00 7.15805E-02 1.45261E+00 1.28092E-13-5.34794E-13
 -1      2577 3.36519E+00-2.45553E+00 7.87373E-02-1.10100E+00 1.10571E-13-8.17235E-13
 -1      2578 2.51880E+01-4.44997E+00-1.15213E-03-3.74961E+00 1.00780E-13-2.54380E-14
 -1      2579 2.75601E+01-3.32713E+00-6.27592E-02-2.71207E+00 2.03906E-13 8.46545E-15
 -1      2580 1.68127E+01-5.36251E+00 5.16163E-02-6.66506E+00-1.37668E-14-5.38675E-13
 -1      2581 2.13820E+01-5.18535E+00-2.46543E-02-5.77986E+00 5.08205E-14-2.10373E-13
 -1      2582 9.76137E+00-4.55547E+00 6.16415E-02-6.36795E+00-1.31589E-13-8.67473E-13
 -1      2583 1.27581E+01-4.88423E+00-1.64764E-02-7.10502E+00-7.57172E-14-7.93879E-13
 -1      2584 3.19631E+01 9.88445E-01-1.32064E-01-5.10603E-01-4.03302E-13-1.78413E-13
 -1      2585 3.05754E+01-8.99741E-01-1.45567E-02 1.49297E-01-2.54477E-13-1.84297E-13
 -1      2586 4.61814E+00-3.02657E+00 9.65730E-02-3.58827E+00-4.59771E-14-1.03856E-12
 -1      2587 6.75134E+00-3.77433E+00 3.84024E-02-5.47350E+00-8.87346E-14-9.70640E-13
 -1      2588 9.75241E+00-3.30724E+00 1.44195E-01-5.86607E+00-2.06168E-13-8.90482E-13
 -1      2589 7.16093E+00-3.72895E+00 4.43046E-02 5.32209E+00 1.00142E-13-4.37567E-13
 -1      2590 4.68382E+00-3.29951E+00 6.83726E-02 3.42966E+00 1.88849E-13-4.38982E-13
 -1      2591 2.14194E+01-5.52403E+00-7.19853E-02 5.80397E+00-1.63480E-14-2.46692E-13
 -1      2592 1.80624E+01-5.61177E+00 3.60610E-02 6.22885E+00 3.86913E-14-1.99264E-13
 -1      2593 3.13182E+01 4.15920E-01-4.13058E-02 5.16152E-01-4.28754E-13-3.13416E-13
 -1      2594 3.19019E+01 2.77479E+00-1.71770E-01 1.43315E+00-3.91798E-13-2.84273E-13
 -1      2595 2.85467E+01-3.34851E+00-1.32492E-01 2.36156E+00-7.97001E-14-2.42500E-13
 -1      2596 2.51156E+01-4.74560E+00 3.18067E-02 3.94622E+00-2.87548E-14-2.84911E-13
 -1      2597 3.27144E+01 7.19464E+00-1.57428E-01-2.42096E-01-6.29941E-13-2.50459E-13
 -1      2598 3.29910E+01 6.53276E+00-1.58059E-01-8.27425E-01-6.03573E-13-1.62370E-13
 -1      2599 3.06900E+01 5.39836E+00-4.03419E-02-1.55633E+00-4.21690E-13-2.96985E-15
 -1      2600 1.40262E+01-5.26369E+00 4.27286E-02-6.53561E+00 2.17271E-13 3.38549E-13
 -1      2601 1.78577E+01-5.42977E+00-2.65230E-02-6.57226E+00 5.70100E-14 1.02161E-13
 -1      2602 1.41157E+01-4.24131E+00 1.35553E-01-6.29741E+00 1.46327E-13 2.90601E-13
 -1      2603 2.82503E+01-3.34948E+00-1.66131E-02-2.17211E+00-4.02844E-13-3.86441E-13
 -1      2604 2.99679E+01-2.02152E+00-1.51069E-01-1.05777E+00-3.56978E-13-3.49276E-13
 -1      2605 2.21570E+01-5.43289E+00 2.24850E-02-5.14515E+00-6.04516E-14-6.73628E-14
 -1      2606 2.57921E+01-4.57795E+00-6.42042E-02-4.08084E+00-2.98123E-13-3.99542E-13
 -1      2607 2.70511E+01-4.43054E+00 4.09931E-02-2.41381E+00-3.52121E-13-3.14762E-13
 -1      2608 5.58389E+00-2.45485E+00 9.32950E-02 3.96815E+00-6.54754E-14 3.28404E-13
 -1      2609 4.08516E+00-2.05624E+00 1.51659E-01 1.32513E+00 3.13569E-14 4.55913E-13
 -1      2610 2.04800E+01 8.77401E-01-7.03619E-03 1.21248E+00 2.41203E-13 1.05119E-13
 -1      2611 2.08264E+01 1.25790E+00-5.94901E-03 1.71418E+00 2.61700E-13 1.38035E-13
 -1      2612 2.06374E+01 1.71677E+00-1.57911E-02 1.90663E+00 2.91719E-13 4.56822E-14
 -1      2613 2.04465E+01 1.06287E+00-9.50160E-03 1.22228E+00 2.47419E-13-9.01818E-15
 -1      2614 3.02246E+01-6.24256E-01-1.29345E-01 1.25811E+00 4.97484E-14-3.79696E-14
 -1      2615 2.82413E+01-2.31121E+00-2.63779E-02 2.50515E+00 7.26919E-14-8.61533E-14
 -1      2616 2.72989E+01-3.59401E+00 3.55081E-02 2.44082E+00-6.91391E-14-2.28734E-13
 -1      2617 3.04577E+01 4.63358E+00-6.15816E-02-1.44665E+00 3.07476E-13 2.51577E-13
 -1      2618 1.99256E+01 2.83446E+00 1.24716E-03-1.07475E+00-1.69761E-13-3.17213E-13
 -1      2619 1.97933E+01 3.17281E+00-1.63193E-02-1.26707E+00-1.91470E-13-3.38942E-13
 -1      2620 1.98946E+01 3.02639E+00-1.85057E-02-1.45673E+00-2.17427E-13-3.06500E-13
 -1      2621 2.00130E+01 3.55434E-01-3.80759E-03 2.67081E-01 1.76353E-13-4.43009E-14
 -1      2622 2.04204E+01 2.11873E+00-1.26938E-02 1.85784E+00 2.80220E-13-7.82360E-14
 -1      2623 2.99697E+01 1.55499E-01-2.96834E-02-2.98209E-01 3.79488E-14 5.69544E-14
 -1      2624 2.09980E+01-5.41341E+00 8.89522E-02-5.40957E+00 7.74103E-14-2.87964E-16
 -1      2625 3.04956E+01 6.57591E+00-5.49550E-02 1.58213E-01-4.88831E-13-2.01669E-13
 -1      2626 2.91546E+01-2.60167E+00-6.26576E-03 5.31388E-01-9.05456E-14-1.49131E-13
 -1      2627 3.00425E+01-1.16043E+00-1.99908E-03 6.80257E-01-3.92075E-13-1.57319E-13
 -1      2628 8.48707E+00-2.42160E+00 1.65425E-01-4.52994E+00 2.36075E-13 4.63296E-13
 -1      2629 1.49022E+01-4.30819E+00 1.32144E-01 6.53345E+00-2.46858E-13 8.23092E-14
 -1      2630 2.00297E+01 3.57455E-02 5.40702E-05 4.68927E-02-6.62307E-14 4.27810E-13
 -1      2631 2.00290E+01 4.72214E-02 4.56989E-05 5.61106E-02-9.27250E-14 1.98142E-13
 -1      2632 2.42787E+01-5.23327E+00 6.95306E-02 4.14727E+00 1.74555E-13-1.65465E-13
 -1      2633 2.00374E+01 3.88094E-02 5.43789E-04-5.40933E-02 3.96049E-14 1.71656E-13
 -1      2634 2.00288E+01 5.43734E-02-4.15886E-04-6.28306E-02 5.13855E-14-1.99674E-13
 -1      2635 2.00346E+01 7.06379E-02 3.83736E-04-8.26086E-02-9.10824E-14-2.43280E-13
 -1      2636 2.00511E+01 4.28006E-02 9.97420E-04-6.76961E-02 5.08689E-14 1.05446E-13
 -1      2637 5.65874E+00-1.76610E+00 1.73301E-01-2.23441E+00 2.80054E-14-8.63476E-13
 -1      2638 3.06897E+01 1.94913E+00-5.89098E-02-1.81761E+00-2.95708E-13 1.54321E-14
 -1      2639 5.75517E+00-1.21348E+00 1.85247E-01-4.37982E-02 7.38975E-14 5.30798E-13
 -1      2640 2.04379E+01 1.81496E+00 1.25162E-02 1.54230E+00 2.61154E-13-9.45554E-14
 -1      2641 2.21318E+01-5.19197E+00 7.36908E-02 5.23402E+00-2.09166E-13-1.62551E-13
 -1      2642 6.03186E+00-1.77694E+00 1.77703E-01 2.47229E+00 1.89210E-13-4.69125E-13
 -1      2643 1.63118E+01-4.82751E+00 1.22248E-01-6.63760E+00-1.96176E-13-5.94795E-13
 -1      2644 3.10178E+01 3.77437E+00-1.31546E-01 1.90375E+00-3.84998E-13-2.35312E-13
 -1      2645 2.92678E+01 4.53411E+00-1.59373E-01 2.09820E+00-4.72400E-13-1.26968E-13
 -1      2646 2.95627E+01 2.12739E+00-8.30699E-02 2.21781E+00-4.68681E-13-5.59136E-14
 -1      2647 2.37195E+01-5.09544E+00 1.36565E-02-4.55048E+00-2.63678E-14 7.36633E-14
 -1      2648 2.50482E+01-4.71021E+00-2.13098E-02-2.98092E+00-1.71238E-13 1.24331E-13
 -1      2649 2.19533E+01-5.04758E+00 1.30070E-01-5.04387E+00-2.10623E-13 2.48308E-14
 -1      2650 1.05690E+01-3.42503E+00 1.46928E-01 5.69817E+00 2.26985E-13-3.85220E-13
 -1      2651 3.02725E+01 2.29692E+00-7.38642E-02 1.29856E+00 6.58099E-13 4.30073E-13
 -1      2652 2.88758E+01 3.26623E+00-1.55959E-01 1.95667E+00 6.53061E-13 4.48266E-13
 -1      2653 2.87886E+01 4.88252E-01-5.61873E-02 1.29207E+00 5.11979E-13 5.35266E-13
 -1      2654 1.74250E+01-5.10778E+00 1.10522E-01 6.25063E+00 2.00312E-13-1.18260E-13
 -1      2655 2.01260E+01 2.62090E+00-9.83634E-03-1.65678E+00-2.41959E-13-2.20051E-13
 -1      2656 2.82211E+01-2.60735E+00-4.88194E-03-7.94325E-01 1.84910E-13 2.53270E-13
 -1      2657 3.02479E+01 7.00431E+00-8.29323E-02-2.97338E-01 5.70044E-13 4.51451E-13
 -1      2658 8.42241E+00-2.18077E+00 1.60473E-01 4.62304E+00-1.12549E-13 2.76085E-13
 -1      2659 2.00346E+01 6.13608E-02 3.70501E-04 7.51898E-02-3.11552E-14 3.58110E-13
 -1      2660 2.00510E+01 5.84100E-02-6.73663E-04-9.01957E-02-4.86659E-15-2.76250E-13
 -1      2661 1.98510E+01 2.80914E+00-6.28807E-03 4.99663E-01 9.20040E-14-3.63027E-13
 -1      2662 1.98251E+01 2.86090E+00-5.88769E-03 3.52709E-01 7.58046E-14-3.52393E-13
 -1      2663 1.98074E+01 2.90079E+00-5.65119E-03 2.22377E-01 5.76407E-14-3.24366E-13
 -1      2664 1.97983E+01 2.91845E+00-5.55463E-03 7.23757E-02 1.73058E-14-3.00627E-13
 -1      2665 1.99507E+01 2.55803E+00 3.97682E-03 2.53492E-01 5.15765E-14-3.26443E-13
 -1      2666 2.00549E+01 2.35144E+00-1.05749E-02 1.01865E+00 2.00502E-13-2.58898E-13
 -1      2667 1.99896E+01 2.50412E+00-6.57490E-03 8.84351E-01 1.74767E-13-2.76168E-13
 -1      2668 2.02266E+01 1.92646E+00-1.18210E-02 1.20023E+00 2.31344E-13-2.10067E-13
 -1      2669 2.01353E+01 2.16795E+00-5.01043E-03 1.10649E+00 2.12637E-13-2.43308E-13
 -1      2670 2.02002E+01 1.91706E+00 6.57754E-03 8.94957E-01 1.95891E-13-2.26586E-13
 -1      2671 2.02252E+01 7.43095E-01-3.03405E-03 6.10476E-01 2.02441E-13-8.70312E-14
 -1      2672 2.03616E+01 9.64297E-01 9.18601E-03 8.79086E-01 2.10477E-13-9.02711E-14
 -1      2673 2.39639E+01-5.09886E+00-6.55152E-02 4.08965E+00-1.08288E-13-2.96901E-13
 -1      2674 2.10369E+01-5.01181E+00 9.52604E-02 5.23758E+00-2.24432E-13-8.58029E-14
 -1      2675 2.00941E+01 4.40359E-01-8.45390E-04 2.41798E-01 1.57817E-13-7.65151E-14
 -1      2676 2.01869E+01 5.73491E-01 1.02245E-02 4.11607E-01 1.90187E-13-6.39391E-14
 -1      2677 2.02685E+01 8.45744E-01 7.65775E-04 5.77374E-01 1.84743E-13-1.22815E-13
 -1      2678 2.86415E+01 4.88714E+00-2.12417E-01-1.63419E+00 2.37976E-13 1.26441E-13
 -1      2679 2.90303E+01 3.31117E+00-6.67122E-02-1.93932E+00 1.92096E-13 5.52614E-14
 -1      2680 1.97209E+01-4.90395E+00 1.17648E-01-5.41941E+00 8.40022E-14 3.26961E-14
 -1      2681 2.31268E+01-5.38843E+00-6.11959E-02-4.34126E+00-4.38677E-14-3.09469E-13
 -1      2682 2.02341E+01 6.55411E-01 7.67237E-03-3.91176E-01-1.58093E-13-1.42682E-13
 -1      2683 2.01583E+01 5.10490E-01-2.60331E-03-2.23284E-01-1.42445E-13-1.55792E-13
 -1      2684 2.01352E+01 4.03769E-01 6.39710E-03-9.24719E-02-1.31629E-13-1.26281E-13
 -1      2685 2.00861E+01 3.17088E-01-1.00284E-03 1.78315E-02-1.13420E-13-1.20968E-13
 -1      2686 2.02185E+01 5.75928E-01-1.77280E-03-1.96373E-01-1.45666E-13-1.82985E-13
 -1      2687 2.00640E+01 2.55093E-01 4.24496E-03 1.08461E-01-1.18623E-13-1.17014E-13
 -1      2688 2.00414E+01 2.05634E-01 1.12216E-04 1.82161E-01-1.04287E-13-1.03335E-13
 -1      2689 2.01580E+01 3.65068E-01-2.22979E-03 3.77347E-02-1.24808E-13-1.52034E-13
 -1      2690 2.00253E+01 1.71882E-01 2.49446E-03 2.46056E-01-8.90416E-14-8.22765E-14
 -1      2691 2.00246E+01 1.47197E-01 8.92198E-04 2.98272E-01-7.46312E-14-1.12425E-13
 -1      2692 2.01122E+01 2.42700E-01-2.11646E-03 2.02008E-01-9.30119E-14-1.27353E-13
 -1      2693 2.00154E+01 1.32567E-01 1.19864E-03 3.46675E-01-8.64501E-14-1.18565E-13
 -1      2694 2.00320E+01 1.25277E-01 1.48297E-03 3.88238E-01-7.64686E-14-1.65323E-13
 -1      2695 2.00841E+01 1.80052E-01-1.75281E-03 3.21916E-01-1.01094E-13-1.28903E-13
 -1      2696 2.00287E+01 1.24387E-01 2.28076E-04 4.29950E-01-3.75597E-14-1.64202E-13
 -1      2697 2.00593E+01 1.29924E-01 1.97531E-03 4.68796E-01-5.24543E-14-1.41245E-13
 -1      2698 2.00722E+01 1.59377E-01-1.36090E-03 4.17906E-01-6.28722E-14-1.56587E-13
 -1      2699 2.00606E+01 1.39303E-01-5.12127E-04 5.10637E-01-7.33614E-14-1.09391E-13
 -1      2700 2.01030E+01 1.54549E-01 2.42331E-03 5.52667E-01-4.23261E-14-8.01495E-14
 -1      2701 2.00732E+01 1.69566E-01-9.99543E-04 5.06090E-01-2.57129E-14-9.01501E-14
 -1      2702 2.01076E+01 1.71640E-01-1.09268E-03 5.99867E-01-1.39435E-14-1.01088E-13
 -1      2703 2.01606E+01 1.94071E-01 2.84914E-03 6.49423E-01 1.75059E-14-7.30580E-14
 -1      2704 2.00840E+01 2.02938E-01-6.71333E-04 5.98879E-01-1.42115E-14-6.17235E-14
 -1      2705 2.01671E+01 2.16499E-01-1.55476E-03 7.05889E-01 1.05142E-14-6.29430E-14
 -1      2706 2.02306E+01 2.43434E-01 3.25193E-03 7.65918E-01 2.11173E-14-9.01525E-14
 -1      2707 2.01014E+01 2.53231E-01-3.69141E-04 7.05647E-01 6.55448E-15-1.04130E-13
 -1      2708 2.02383E+01 2.68253E-01-1.90059E-03 8.34328E-01 2.65605E-14-9.76361E-14
 -1      2709 2.03125E+01 2.95977E-01 3.61388E-03 9.06224E-01 8.85137E-15-7.78109E-14
 -1      2710 2.01230E+01 3.13836E-01-1.01369E-04 8.33118E-01-4.50341E-15-1.54788E-13
 -1      2711 2.03213E+01 3.18714E-01-2.07669E-03 9.87897E-01-1.56138E-14-9.59119E-14
 -1      2712 2.04076E+01 3.41295E-01 3.90696E-03 1.07099E+00-6.97668E-14-1.14189E-13
 -1      2713 2.01473E+01 3.75766E-01 7.96366E-05 9.85398E-01-7.45287E-15-1.68063E-13
 -1      2714 2.04198E+01 3.54611E-01-1.94527E-03 1.16554E+00-8.13904E-14-5.30442E-14
 -1      2715 2.05210E+01 3.62271E-01 4.09796E-03 1.25617E+00-9.14117E-14-6.22825E-14
 -1      2716 2.01754E+01 4.24976E-01 3.39340E-05 1.16365E+00-4.68668E-14-1.69964E-13
 -1      2717 2.05425E+01 3.54183E-01-1.23578E-03 1.36083E+00-1.09606E-13-3.42069E-14
 -1      2718 2.06646E+01 3.31213E-01 4.13929E-03 1.45086E+00-8.71048E-14-3.97598E-14
 -1      2719 2.02133E+01 4.38712E-01-5.38621E-04 1.36540E+00-9.41092E-14-1.57494E-14
 -1      2720 2.07096E+01 2.83084E-01 5.29351E-04 1.55923E+00-6.86553E-14-4.15462E-14
 -1      2721 2.08638E+01 2.05863E-01 3.91620E-03 1.63387E+00-6.05225E-14-5.28383E-15
 -1      2722 2.02774E+01 3.80887E-01-2.19256E-03 1.58316E+00-6.71154E-14-2.53594E-14
 -1      2723 2.09599E+01 9.13556E-02 4.11753E-03 1.73329E+00-4.48868E-14 1.65673E-14
 -1      2724 2.11657E+01-7.14781E-02 3.10361E-03 1.76808E+00-4.31816E-15-1.44589E-15
 -1      2725 2.04030E+01 1.97661E-01-5.79822E-03 1.80166E+00-1.40665E-14-4.32002E-14
 -1      2726 2.13612E+01-2.83212E-01 1.05881E-02 1.83415E+00 4.89714E-14 4.76250E-14
 -1      2727 2.16458E+01-5.63321E-01 8.43578E-04 1.79121E+00 1.32877E-13 2.62034E-14
 -1      2728 2.06571E+01-1.82355E-01-1.24217E-02 1.99104E+00 6.11749E-14 1.98658E-15
 -1      2729 2.20146E+01-8.92819E-01 2.08931E-02 1.77634E+00 2.01764E-13 3.74805E-14
 -1      2730 2.24027E+01-1.29609E+00-4.85231E-03 1.60203E+00 2.40981E-13-3.35793E-14
 -1      2731 2.11518E+01-8.32771E-01-2.26758E-02 2.09162E+00 1.48472E-13-7.42462E-16
 -1      2732 2.30289E+01-1.71236E+00 3.20882E-02 1.41760E+00 3.24693E-13-7.37002E-14
 -1      2733 2.35169E+01-2.15126E+00-1.44134E-02 1.05047E+00 3.60960E-13-8.80164E-14
 -1      2734 2.20461E+01-1.76703E+00-3.47312E-02 1.97981E+00 2.46397E-13 1.39207E-14
 -1      2735 2.44256E+01-2.49561E+00 3.43400E-02 5.78997E-01 3.39978E-13-7.48047E-14
 -1      2736 2.49466E+01-2.68707E+00-1.87658E-02 8.26786E-04 1.45026E-13-6.73168E-14
 -1      2737 2.34716E+01-2.78433E+00-4.65510E-02 1.44004E+00 3.59364E-13-1.70392E-13
 -1      2738 2.59745E+01-2.61947E+00-5.99566E-03-8.27399E-01 1.11708E-13 7.57328E-14
 -1      2739 2.63366E+01-2.03543E+00-3.12355E-02-1.50020E+00 2.20726E-14 1.48918E-13
 -1      2740 2.54637E+01-3.21334E+00-3.21336E-02 1.93262E-01 2.30978E-13-7.34520E-14
 -1      2741 2.68565E+01 2.19625E+00-1.62333E-01-2.49507E+00-1.62897E-13 1.15741E-13
 -1      2742 2.66611E+01 3.65784E+00-8.33683E-02-1.75243E+00-2.57502E-13 9.13124E-14
 -1      2743 2.75843E+01 4.81738E+00-1.72374E-01-1.08830E+00-3.67845E-13-8.56780E-15
 -1      2744 2.75045E+01 5.19532E+00-1.50817E-01 1.19303E-01-4.56940E-13-5.78374E-14
 -1      2745 2.69766E+01 3.55723E+00-7.70817E-02 1.86265E+00-4.40620E-13-5.81549E-14
 -1      2746 2.71440E+01 1.99792E+00-1.53346E-01 2.58580E+00-3.78281E-13-9.33559E-14
 -1      2747 2.63280E+01-2.02093E+00-2.82848E-02 1.49082E+00-2.45689E-14-2.38809E-13
 -1      2748 2.59708E+01-2.57952E+00-1.13359E-03 8.48040E-01 3.31584E-14-3.01795E-13
 -1      2749 2.49362E+01-2.68377E+00-2.92739E-02 2.74092E-02 7.01470E-14-3.12817E-13
 -1      2750 2.44461E+01-2.47867E+00 3.72909E-02-5.50299E-01 9.37388E-14-2.65222E-13
 -1      2751 2.54133E+01-3.25100E+00-4.65319E-02-2.40994E-01 1.36202E-14-1.42050E-13
 -1      2752 2.35279E+01-2.14017E+00-1.59186E-02-1.02864E+00-6.81746E-15-3.33584E-13
 -1      2753 2.30475E+01-1.69735E+00 3.29673E-02-1.39319E+00-8.63407E-14-3.90074E-13
 -1      2754 2.35174E+01-2.76744E+00-3.81626E-02-1.41586E+00 4.53403E-14-3.92936E-13
 -1      2755 2.24220E+01-1.28132E+00-5.03108E-03-1.57546E+00 1.72518E-15-3.77890E-13
 -1      2756 2.20373E+01-8.76610E-01 2.09545E-02-1.74622E+00 1.19905E-13-3.21138E-13
 -1      2757 2.20749E+01-1.74713E+00-3.40807E-02-1.94418E+00 2.02032E-14-3.27997E-13
 -1      2758 2.16689E+01-5.47507E-01 3.67746E-04-1.75927E+00 1.66053E-13-3.05475E-13
 -1      2759 2.13885E+01-2.65139E-01 1.07648E-02-1.79762E+00 1.69464E-13-2.39173E-13
 -1      2760 2.11839E+01-8.13011E-01-2.23252E-02-2.05318E+00 1.82158E-13-1.91275E-13
 -1      2761 2.11928E+01-5.26537E-02 2.75359E-03-1.72800E+00 1.55040E-13-2.81769E-13
 -1      2762 2.09916E+01 1.12766E-01 4.35870E-03-1.68764E+00 3.18930E-14-2.87465E-13
 -1      2763 2.06892E+01-1.60753E-01-1.22807E-02-1.94782E+00 1.19799E-13-3.90591E-13
 -1      2764 2.08953E+01 2.28802E-01 3.65229E-03-1.58284E+00-1.96794E-14-2.15668E-13
 -1      2765 2.07463E+01 3.08842E-01 8.33067E-04-1.50152E+00 4.27892E-14-2.43676E-13
 -1      2766 2.04345E+01 2.23530E-01-5.74032E-03-1.74950E+00-8.39769E-16-5.02566E-13
 -1      2767 2.07012E+01 3.59019E-01 3.91759E-03-1.38616E+00-3.09683E-14-2.52353E-13
 -1      2768 2.05854E+01 3.84945E-01-8.95734E-04-1.28826E+00-9.40460E-14-2.20324E-13
 -1      2769 2.03087E+01 4.12237E-01-2.17039E-03-1.51845E+00-6.66577E-14-4.56648E-13
 -1      2770 2.05638E+01 3.95346E-01 3.88693E-03-1.17518E+00-5.16836E-14-1.87363E-13
 -1      2771 2.04699E+01 3.90587E-01-1.59317E-03-1.07553E+00-8.58215E-14-1.13869E-13
 -1      2772 2.02448E+01 4.76294E-01-5.12001E-04-1.28499E+00-6.44175E-14-2.31742E-13
 -1      2773 2.04578E+01 3.79556E-01 3.68615E-03-9.71369E-01-1.34099E-13-3.70371E-14
 -1      2774 2.03797E+01 3.59539E-01-1.73834E-03-8.78275E-01-1.18261E-13-1.97410E-15
 -1      2775 2.02076E+01 4.68867E-01 9.73511E-05-1.06494E+00-2.96119E-14 2.88605E-14
 -1      2776 2.03707E+01 3.38670E-01 3.37438E-03-7.86182E-01-1.46176E-13-5.21593E-15
 -1      2777 2.03054E+01 3.12728E-01-1.61493E-03-7.03701E-01-1.16087E-13-5.89918E-14
 -1      2778 2.01800E+01 4.25209E-01 2.07882E-04-8.66489E-01-1.73433E-13 2.81641E-14
 -1      2779 2.02971E+01 2.88800E-01 2.99496E-03-6.24692E-01-3.91035E-14-2.72636E-14
 -1      2780 2.02427E+01 2.62182E-01-1.38255E-03-5.54217E-01 2.03282E-14 6.32824E-14
 -1      2781 2.01555E+01 3.66887E-01 1.23783E-04-6.93220E-01-8.13538E-14 3.55002E-14
 -1      2782 2.02344E+01 2.38878E-01 2.58506E-03-4.88018E-01-7.14454E-14 1.41520E-13
 -1      2783 2.01897E+01 2.14310E-01-1.12522E-03-4.29367E-01-3.82872E-15 7.54965E-14
 -1      2784 2.01320E+01 3.06220E-01-5.08798E-06-5.45772E-01-3.63422E-14 2.24914E-13
 -1      2785 2.01815E+01 1.93457E-01 2.17357E-03-3.74951E-01 1.26882E-13 1.23721E-13
 -1      2786 2.01453E+01 1.72196E-01-8.82165E-04-3.27082E-01 2.27642E-13 1.61098E-13
 -1      2787 2.01095E+01 2.49728E-01-1.13458E-04-4.22916E-01 9.73038E-14 1.11675E-13
 -1      2788 2.01374E+01 1.54572E-01 1.78255E-03-2.83032E-01 1.94311E-13 4.52469E-14
 -1      2789 2.01084E+01 1.37065E-01-6.67378E-04-2.44497E-01 1.62342E-13-5.49469E-14
 -1      2790 2.00885E+01 2.00502E-01-1.79097E-04-3.22319E-01 1.56563E-13 1.38596E-13
 -1      2791 2.01010E+01 1.22931E-01 1.44593E-03-2.09214E-01 1.10822E-13-1.40535E-13
 -1      2792 2.00781E+01 1.09075E-01-4.61189E-04-1.78372E-01-4.44609E-14-2.59016E-13
 -1      2793 2.00693E+01 1.59711E-01-1.94182E-04-2.41076E-01 7.79244E-14-2.11034E-13
 -1      2794 2.00711E+01 9.80008E-02 1.06922E-03-1.50431E-01-1.00004E-13-2.63305E-13
 -1      2795 2.00536E+01 8.80309E-02-1.09248E-04-1.25944E-01-4.30003E-14-1.95426E-13
 -1      2796 2.00519E+01 1.26892E-01-3.49234E-04-1.75964E-01-5.31480E-14-2.59364E-13
 -1      2797 6.48313E+00-6.24262E-01 1.59302E-01-9.99542E-01 6.35846E-14-7.15622E-13
 -1      2798 7.52215E+00-1.23165E+00 1.28697E-01-3.53904E+00-3.93019E-14-9.10327E-13
 -1      2799 2.55193E+01-5.12927E+00-1.38698E-01 2.95752E+00 2.25583E-13-1.56541E-13
 -1      2800 2.29083E+01-5.26825E+00 1.01685E-01 4.38090E+00 3.04257E-13-1.39402E-13
 -1      2801 1.99518E+01 1.66299E-01 6.44872E-04-1.64584E-01 7.16322E-14-7.45185E-14
 -1      2802 1.99722E+01 2.10946E-01 4.83002E-03-9.52046E-02 1.13625E-13-5.85686E-14
 -1      2803 2.00130E+01 8.23080E-02 1.88408E-03-4.18561E-01-1.74164E-14-5.07724E-14
 -1      2804 1.99721E+01 8.26448E-02 6.44821E-04-3.88558E-01-2.73415E-14-5.57365E-14
 -1      2805 2.00830E+01 9.00537E-02 2.15076E-03-4.82003E-01-4.49158E-15-6.02219E-14
 -1      2806 2.00290E+01 8.44585E-02 3.74455E-05-4.51976E-01-1.04374E-14-4.16797E-14
 -1      2807 2.00535E+01 1.08992E-01-1.43390E-03-4.62769E-01-3.29568E-14-8.52034E-14
 -1      2808 2.01729E+01 1.04670E-01 2.35225E-03-5.50078E-01 4.83353E-14-6.05205E-14
 -1      2809 2.01070E+01 9.61719E-02-3.19091E-04-5.17178E-01 1.79425E-14-6.85731E-14
 -1      2810 2.00965E+01 1.20095E-01-1.23199E-03-5.35917E-01 2.68702E-14-4.53612E-14
 -1      2811 2.02825E+01 1.20019E-01 2.44577E-03-6.26121E-01 4.79725E-14-5.13022E-14
 -1      2812 2.02050E+01 1.11897E-01-4.63121E-04-5.89373E-01 5.71618E-14-6.30466E-14
 -1      2813 2.01559E+01 1.38264E-01-1.14711E-03-6.14606E-01 4.93347E-14-7.98586E-14
 -1      2814 2.04132E+01 1.28682E-01 2.35809E-03-7.09484E-01 4.15161E-14-4.66763E-14
 -1      2815 2.03237E+01 1.25000E-01-3.94701E-04-6.69997E-01 6.09648E-14-4.46452E-14
 -1      2816 2.02324E+01 1.55374E-01-1.18892E-03-7.01977E-01 6.18424E-14-9.94303E-14
 -1      2817 2.05679E+01 1.20985E-01 1.98323E-03-7.94763E-01-7.32156E-15-2.17973E-14
 -1      2818 2.04660E+01 1.27089E-01-7.38405E-05-7.56201E-01 9.74256E-15-4.65933E-14
 -1      2819 2.03284E+01 1.61462E-01-1.39359E-03-7.97015E-01 1.06098E-14 5.76922E-15
 -1      2820 2.07512E+01 8.43079E-02 1.18159E-03-8.70544E-01 9.62135E-15 5.11638E-14
 -1      2821 2.06364E+01 1.07130E-01 5.78724E-04-8.39797E-01-3.51281E-14 2.70321E-14
 -1      2822 2.04495E+01 1.43585E-01-1.83148E-03-8.93742E-01-3.66417E-14 5.95545E-15
 -1      2823 2.09698E+01 3.27423E-03-2.14406E-04-9.17873E-01 1.02110E-13 4.87531E-14
 -1      2824 2.08419E+01 5.10799E-02 1.66920E-03-9.05759E-01 8.45496E-14 7.68613E-14
 -1      2825 2.06046E+01 8.51667E-02-2.60096E-03-9.79892E-01 2.27109E-14 6.06209E-14
 -1      2826 2.12317E+01-1.37960E-01-2.38659E-03-9.08922E-01 5.78335E-14 2.03374E-13
 -1      2827 2.10917E+01-5.71001E-02 3.28412E-03-9.30532E-01 7.71661E-14 1.03715E-13
 -1      2828 2.08073E+01-3.32701E-02-3.79808E-03-1.03516E+00 7.58182E-14 1.46709E-13
 -1      2829 2.15452E+01-3.49233E-01-5.46573E-03-8.06935E-01-1.77023E-14 3.28541E-13
 -1      2830 2.13963E+01-2.31450E-01 5.37866E-03-8.80847E-01 6.05809E-14 2.99381E-13
 -1      2831 2.10761E+01-2.30329E-01-5.43370E-03-1.02932E+00-7.89421E-15 2.35181E-13
 -1      2832 2.19122E+01-6.20795E-01-9.20802E-03-5.69688E-01-8.85585E-14 2.05644E-13
 -1      2833 2.17625E+01-4.74536E-01 7.57448E-03-7.14643E-01-5.37209E-14 2.54682E-13
 -1      2834 2.14320E+01-5.14005E-01-7.20146E-03-9.21123E-01-6.13116E-16 2.75385E-13
 -1      2835 2.23169E+01-9.01343E-01-1.26434E-02-1.61503E-01-1.37395E-13 1.91677E-13
 -1      2836 2.21833E+01-7.59571E-01 8.98074E-03-3.87946E-01-1.12429E-13 1.50776E-13
 -1      2837 2.18891E+01-8.62281E-01-7.99892E-03-6.60445E-01-9.51817E-14 2.22343E-13
 -1      2838 2.27087E+01-1.07427E+00-1.32774E-02 4.19410E-01-1.03239E-13 1.04581E-13
 -1      2839 2.26181E+01-1.00661E+00 7.28762E-03 1.24652E-01-9.80612E-14 1.92631E-13
 -1      2840 2.24338E+01-1.19307E+00-5.98682E-03-2.01734E-01-9.66453E-14 1.77031E-13
 -1      2841 2.29926E+01-9.60762E-01-7.78865E-03 1.09334E+00 5.03196E-14 1.62264E-13
 -1      2842 2.29776E+01-1.06476E+00 1.01233E-03 7.89122E-01-6.24561E-14 9.57008E-14
 -1      2843 2.29963E+01-1.34434E+00-3.41490E-04 4.61776E-01-3.45715E-14 2.34797E-13
 -1      2844 2.30501E+01-3.93322E-01 4.25815E-03 1.64707E+00 1.49593E-13 1.86700E-13
 -1      2845 2.31227E+01-7.45069E-01-1.44769E-02 1.45175E+00 8.88830E-14 1.62660E-13
 -1      2846 2.34311E+01-1.06641E+00 1.12160E-02 1.22999E+00 5.59275E-14 1.56345E-13
 -1      2847 2.28332E+01 5.94114E-01 1.94525E-02 1.74209E+00 7.72533E-14 1.12997E-13
 -1      2848 2.29578E+01 5.21794E-02-3.16989E-02 1.80431E+00 1.20664E-13 2.17302E-13
 -1      2849 2.35384E+01-2.13120E-01 9.50249E-03 1.82626E+00 1.17174E-13 1.25222E-13
 -1      2850 2.24712E+01 1.57882E+00 1.89552E-02 1.14262E+00 1.88975E-13 3.12432E-14
 -1      2851 2.25780E+01 1.10200E+00-3.59380E-02 1.51503E+00 1.73215E-13 1.34412E-13
 -1      2852 2.32796E+01 9.95989E-01 1.62654E-03 1.82033E+00 1.63120E-13 2.84666E-13
 -1      2853 2.22749E+01 1.97828E+00-4.45944E-03-2.63745E-02 2.99177E-13-1.13140E-13
 -1      2854 2.23020E+01 1.88473E+00-1.16012E-02 5.38624E-01 2.45992E-13-9.00547E-14
 -1      2855 2.29586E+01 2.15530E+00-1.18195E-02 9.61323E-01 2.81743E-13 1.38455E-13
 -1      2856 2.24429E+01 1.49892E+00-2.71877E-02-1.19187E+00 3.12861E-13-1.07985E-13
 -1      2857 2.23530E+01 1.84483E+00 8.65139E-03-7.10350E-01 3.31535E-13-1.48680E-13
 -1      2858 2.28586E+01 2.36077E+00-2.89910E-02-4.19022E-01 2.93345E-13-4.64734E-14
 -1      2859 2.28235E+01 4.81061E-01-3.22214E-02-1.78199E+00 6.99915E-14-6.23202E-14
 -1      2860 2.26831E+01 1.02871E+00 1.87080E-02-1.59005E+00 1.90791E-13-6.03653E-14
 -1      2861 2.31470E+01 1.56622E+00-1.07533E-02-1.55780E+00 2.25315E-13-1.09119E-13
 -1      2862 2.30997E+01-4.68226E-01-1.92585E-02-1.66008E+00 5.87382E-14-1.65519E-13
 -1      2863 2.29931E+01-2.37286E-02 1.17922E-02-1.76617E+00 1.08163E-13-1.39569E-13
 -1      2864 2.34854E+01 2.88949E-01 1.21743E-02-1.91542E+00 8.74856E-14-4.49215E-14
 -1      2865 2.30769E+01-9.82709E-01-4.81966E-03-1.08591E+00-8.76056E-14-1.84614E-13
 -1      2866 2.30537E+01-7.81388E-01-3.20830E-03-1.36080E+00-3.74319E-14-1.86207E-13
 -1      2867 2.35260E+01-7.82719E-01 1.32888E-02-1.52279E+00 2.36507E-14-1.61027E-13
 -1      2868 2.27930E+01-1.05621E+00 5.16175E-03-3.99425E-01-1.30051E-13 1.07549E-14
 -1      2869 2.28538E+01-1.06683E+00-1.23674E-02-7.06315E-01-8.67338E-14-8.33535E-14
 -1      2870 2.32075E+01-1.28316E+00 4.46177E-03-7.89404E-01-1.26892E-13-3.86785E-14
 -1      2871 2.23793E+01-8.61914E-01 8.79246E-03 1.79466E-01-1.50854E-13 2.14349E-14
 -1      2872 2.24959E+01-9.85513E-01-1.37762E-02-7.57953E-02-1.21831E-13 2.33028E-15
 -1      2873 2.26791E+01-1.27776E+00-4.19772E-03-6.62074E-02-9.22852E-14 7.87277E-14
 -1      2874 2.19507E+01-5.75793E-01 8.50585E-03 5.73678E-01-1.33027E-13-5.33909E-14
 -1      2875 2.20924E+01-7.27789E-01-1.09084E-02 3.99507E-01-1.68205E-13-2.37306E-14
 -1      2876 2.21165E+01-9.92968E-01-7.74965E-03 4.73227E-01-1.40248E-13-1.00731E-13
 -1      2877 2.15671E+01-3.06399E-01 6.53062E-03 7.90947E-01 2.93396E-13-4.54080E-15
 -1      2878 2.17125E+01-4.39845E-01-7.03685E-03 6.94849E-01 3.41903E-14-1.43202E-14
 -1      2879 2.16232E+01-6.33523E-01-7.77223E-03 8.01674E-01-6.22522E-14-2.05215E-13
 -1      2880 2.12466E+01-9.92149E-02 4.36244E-03 8.71044E-01 3.39527E-13-3.47305E-15
 -1      2881 2.13844E+01-1.97280E-01-3.63676E-03 8.36383E-01 4.39717E-13 8.92156E-14
 -1      2882 2.12315E+01-3.13755E-01-6.26309E-03 9.55042E-01 2.98641E-13-8.19062E-14
 -1      2883 2.09866E+01 3.88811E-02 2.59504E-03 8.58022E-01 2.13144E-13-3.45465E-14
 -1      2884 2.11117E+01-2.38383E-02-1.10539E-03 8.65579E-01 2.45510E-13-3.25337E-14
 -1      2885 2.09354E+01-7.61799E-02-4.52044E-03 9.83956E-01 3.14318E-13-5.16029E-14
 -1      2886 2.07773E+01 1.18633E-01 1.35285E-03 7.89024E-01 3.64722E-14 4.90085E-14
 -1      2887 2.08879E+01 8.43205E-02 5.82025E-04 8.22077E-01 1.58837E-13 8.88807E-14
 -1      2888 2.07151E+01 7.77155E-02-3.10914E-03 9.33824E-01 1.13441E-13-4.65190E-16
 -1      2889 2.06086E+01 1.55653E-01 5.64132E-04 6.91631E-01-8.88366E-14 5.75118E-14
 -1      2890 2.07045E+01 1.41467E-01 1.59051E-03 7.37514E-01-5.31557E-15 7.03743E-14
 -1      2891 2.05504E+01 1.63561E-01-2.13530E-03 8.39376E-01 2.38982E-14-2.77847E-16
 -1      2892 2.04725E+01 1.64464E-01 1.09798E-04 5.84646E-01-3.88865E-13 4.33285E-15
 -1      2893 2.05541E+01 1.63175E-01 2.09861E-03 6.34656E-01-2.61732E-13 3.00304E-14
 -1      2894 2.04254E+01 2.00678E-01-1.51802E-03 7.25054E-01-2.35871E-13 4.60841E-14
 -1      2895 2.03626E+01 1.56478E-01-1.20874E-04 4.79879E-01-8.19484E-14 1.26647E-13
 -1      2896 2.04309E+01 1.62593E-01 2.26083E-03 5.28564E-01-3.00618E-13 6.36169E-14
 -1      2897 2.03287E+01 2.06197E-01-1.14023E-03 6.06956E-01-3.22371E-13 9.65438E-15
 -1      2898 2.02743E+01 1.39834E-01-2.13328E-04 3.83996E-01-5.24741E-14 1.39258E-13
 -1      2899 2.03303E+01 1.49524E-01 2.19934E-03 4.28324E-01 4.75891E-14 1.13924E-13
 -1      2900 2.02528E+01 1.93284E-01-9.05529E-04 4.94892E-01-8.58446E-14 1.97131E-13
 -1      2901 2.02037E+01 1.19958E-01-2.26680E-04 3.00099E-01 3.81425E-14 3.02309E-14
 -1      2902 2.02490E+01 1.30713E-01 2.00461E-03 3.38715E-01-1.24232E-14 6.49612E-14
 -1      2903 2.01927E+01 1.71214E-01-7.49647E-04 3.94161E-01 1.00793E-13 7.68760E-14
 -1      2904 2.01478E+01 1.00303E-01-1.97065E-04 2.28959E-01-7.96002E-14-1.89204E-13
 -1      2905 2.01838E+01 1.10544E-01 1.73923E-03 2.61605E-01-6.10007E-15-4.88708E-14
 -1      2906 2.01449E+01 1.46128E-01-6.31172E-04 3.06997E-01 9.71123E-14-2.21736E-13
 -1      2907 2.01040E+01 8.29541E-02-1.09099E-04 1.69861E-01-1.39435E-13-2.42468E-13
 -1      2908 2.01320E+01 9.17638E-02 1.44706E-03 1.96945E-01-1.30782E-13-2.15526E-13
 -1      2909 2.01068E+01 1.21907E-01-5.29166E-04 2.33616E-01-4.50862E-14-3.24463E-13
 -1      2910 2.00704E+01 6.90138E-02 2.58124E-04 1.21451E-01-7.56458E-14 6.45062E-15
 -1      2911 2.00912E+01 7.56682E-02 1.15834E-03 1.43428E-01-1.05676E-13-1.29696E-13
 -1      2912 2.00761E+01 1.00846E-01-4.45654E-04 1.72938E-01-1.88087E-13-3.54388E-13
 -1      2913 2.00439E+01 6.29348E-02 3.66759E-04 8.81141E-02-2.71446E-14 2.42964E-13
 -1      2914 2.00594E+01 6.83348E-02 9.21120E-04 1.06702E-01-9.68870E-14 6.57612E-14
 -1      2915 2.00504E+01 8.81309E-02-8.83088E-04 1.29811E-01-1.65522E-13-1.14016E-13
 -1      2916 2.00310E+01 8.32714E-02-8.08342E-04 1.00014E-01-8.72297E-14 3.45575E-13
 -1      2917 1.99299E+01 2.22499E-01-5.88455E-04 1.27784E-02-7.00068E-14-9.97801E-14
 -1      2918 1.99331E+01 2.19323E-01-2.41969E-04 3.16777E-02-2.03435E-13 6.06172E-14
 -1      2919 2.00496E+01 8.21732E-02 8.34743E-04-1.10477E-01 8.73242E-15-3.11550E-13
 -1      2920 2.00397E+01 7.62896E-02 1.00315E-04-9.64271E-02-2.19009E-14-3.90876E-13
 -1      2921 2.00292E+01 9.14411E-02 9.54354E-06-1.01372E-01-9.22426E-14-1.16950E-13
 -1      2922 2.00387E+01 1.04737E-01-4.75968E-04-1.31240E-01-1.33817E-13-1.77120E-13
 -1      2923 1.99567E+01 1.87532E-01-8.85326E-04 8.50119E-02 1.08524E-13-1.17918E-13
 -1      2924 1.99689E+01 1.74905E-01 3.30055E-04 9.56613E-02 1.33704E-13-9.21005E-14
 -1      2925 1.99322E+01 2.20919E-01-3.23908E-04-2.93574E-02 7.83452E-14 3.04858E-14
 -1      2926 1.99297E+01 2.23374E-01-5.27759E-04-1.02669E-02-2.86529E-14-7.85507E-14
 -1      2927 1.99135E+01 2.44028E-01 8.99808E-04 1.80867E-03-1.62984E-14-3.82841E-14
 -1      2928 1.99385E+01 2.10886E-01-7.86094E-04 5.28172E-02-1.23970E-13-1.65322E-13
 -1      2929 1.99468E+01 2.02513E-01 6.85024E-05 6.87571E-02 7.15324E-14-3.17729E-13
 -1      2930 1.99403E+01 2.12927E-01 6.71943E-04 8.82353E-02 7.27133E-14-2.88385E-13
 -1      2931 1.99209E+01 2.35156E-01 8.32065E-04 4.85769E-02 1.48714E-14-1.65392E-13
 -1      2932 1.74917E+01-4.50533E+00-5.63385E-03 6.27388E+00-2.50203E-13-1.33234E-13
 -1      2933 1.40780E+01-3.27968E+00 1.36772E-01 6.06002E+00-3.01648E-13 1.08538E-13
 -1      2934 1.99450E+01 2.06542E-01-4.05589E-06-6.68897E-02 8.35591E-14-6.59778E-14
 -1      2935 1.99372E+01 2.14167E-01-7.59382E-04-5.06956E-02 5.84105E-14 8.09464E-14
 -1      2936 1.99195E+01 2.38506E-01 8.87397E-04-4.51913E-02 9.62330E-14 2.19784E-14
 -1      2937 1.99670E+01 1.80180E-01 2.64316E-04-9.54254E-02 1.38520E-13 4.10896E-14
 -1      2938 1.99548E+01 1.92572E-01-9.04931E-04-8.41067E-02 1.18269E-13-8.54490E-16
 -1      2939 1.99380E+01 2.18998E-01 7.75801E-04-8.61944E-02 1.28023E-13-1.83251E-14
 -1      2940 1.99945E+01 1.44272E-01 1.29838E-04-1.09558E-01-7.48163E-14 1.60996E-14
 -1      2941 1.99806E+01 1.60624E-01-8.49055E-04-1.05674E-01 9.93180E-14 1.40553E-13
 -1      2942 1.99668E+01 1.87322E-01 5.48562E-04-1.15484E-01 8.05687E-14 8.72198E-14
 -1      2943 2.00182E+01 1.10730E-01 2.05382E-04-1.05412E-01-4.26428E-14-1.54596E-13
 -1      2944 2.00006E+01 2.66248E-01 7.24870E-05-3.39509E-03 1.28313E-13-8.28398E-14
 -1      2945 2.00544E+01 3.43944E-01 7.41328E-03 1.04250E-01 1.33429E-13-7.19145E-14
 -1      2946 2.01701E+01 5.13244E-01-1.60113E-03 2.23330E-01 1.54977E-13-1.02090E-13
 -1      2947 2.00924E+01 3.15538E-01-2.45062E-03-1.98450E-02 9.73265E-14-9.10570E-14
 -1      2948 8.54199E+00-1.13920E+00 1.49354E-01-3.45226E+00 2.51701E-13 4.19387E-13
 -1      2949 1.09002E+01-2.14129E+00 9.09025E-02-5.11063E+00 2.33050E-13 3.64764E-13
 -1      2950 2.03274E+01 1.72205E+00-9.77416E-03-1.30715E+00-2.16195E-13-1.76462E-13
 -1      2951 2.02973E+01 1.34361E+00-6.66727E-03-1.00667E+00-1.99797E-13-1.59334E-13
 -1      2952 2.03431E+01 1.50999E+00-1.69959E-03 1.24407E+00 2.38468E-13-1.16901E-13
 -1      2953 2.90104E+01-2.05263E+00-1.68311E-01-7.60253E-01-8.26700E-14-6.51285E-14
 -1      2954 2.79186E+01-3.73453E+00 5.05488E-02 8.27994E-01 8.49910E-14-1.40471E-13
 -1      2955 2.81631E+01 5.08176E+00-1.64006E-01 1.59423E+00 7.49123E-13 2.53138E-13
 -1      2956 2.82161E+01 5.98287E+00-1.81062E-01 1.01421E+00 7.08489E-13 2.64892E-13
 -1      2957 7.13394E+00-3.99144E-01 1.29234E-01 1.07107E+00-2.78545E-14 5.00933E-13
 -1      2958 7.06479E+00-5.53745E-01 1.47967E-01-1.56494E+00 2.73948E-14 5.19917E-13
 -1      2959 9.59460E+00-3.08887E-01 1.64915E-01-2.29065E+00-1.83117E-14 3.26905E-13
 -1      2960 2.96607E+01 2.21140E+00-1.54178E-01-2.20622E+00-2.74891E-13 1.61440E-13
 -1      2961 2.97699E+01 3.51531E-02-5.53064E-02-1.91853E+00-2.13246E-13 1.39888E-13
 -1      2962 2.86787E+01-1.42738E+00-5.20499E-02-1.43721E+00-1.14415E-13 7.63833E-14
 -1      2963 1.99648E+01 8.73430E-02 1.56390E-03-3.52699E-01-3.12078E-14-5.92664E-14
 -1      2964 1.99395E+01 9.70065E-02 1.58646E-03-3.17907E-01 9.51019E-15-8.13055E-14
 -1      2965 2.00283E+01 1.12531E-01-1.75638E-03-3.88169E-01-2.05826E-14-6.25136E-14
 -1      2966 1.99423E+01 1.12083E-01 1.16685E-03-2.73344E-01 5.62504E-14-8.29777E-14
 -1      2967 1.99369E+01 1.35656E-01 2.97296E-03-2.26521E-01 7.01558E-14-7.23058E-14
 -1      2968 2.00235E+01 1.39234E-01-2.19497E-03-3.01075E-01 4.10318E-14-4.49935E-14
 -1      2969 7.68336E+00-1.41712E+00 1.04874E-01 3.51569E+00 1.79232E-13-3.83304E-13
 -1      2970 6.45711E+00-8.13732E-01 1.39253E-01 1.38561E+00 1.85525E-13-4.65905E-13
 -1      2971 2.68616E+01-3.40174E+00-2.91403E-02-9.13255E-01 5.38545E-14 2.52590E-13
 -1      2972 2.78934E+01-1.87650E+00-1.17349E-01 3.79806E-01 3.31214E-13 4.14099E-13
 -1      2973 2.03300E+01 1.05511E+00 5.00280E-03-8.00534E-01-1.79515E-13-1.44539E-13
 -1      2974 2.02414E+01 8.22841E-01-4.77445E-03-5.53995E-01-1.63667E-13-1.37147E-13
 -1      2975 2.02778E+01 9.11221E-01 1.67585E-03-5.06975E-01-1.70667E-13-1.80594E-13
 -1      2976 2.02917E+01 1.40895E+00 1.75834E-03-8.85670E-01-1.90399E-13-2.03491E-13
 -1      2977 1.95789E+01-5.19599E+00-3.79744E-02 5.72732E+00 2.77861E-13-3.67206E-14
 -1      2978 1.65261E+01-4.32929E+00 1.40973E-01 6.03047E+00 2.55337E-13-1.76664E-14
 -1      2979 1.52103E+01-4.01624E+00 1.62149E-01-6.39314E+00-2.73503E-13-6.27387E-13
 -1      2980 1.82867E+01-4.85410E+00-2.80888E-02-6.20975E+00-2.02671E-13-2.39447E-13
 -1      2981 2.83231E+01 6.59046E+00-1.81619E-01 1.88350E-01 5.73291E-13 2.22527E-13
 -1      2982 2.84193E+01 6.31902E+00-1.49741E-01-9.06768E-01 3.69677E-13 1.31825E-13
 -1      2983 1.29989E+01-3.41317E+00 3.78132E-02 6.03954E+00 2.44416E-13-2.27096E-13
 -1      2984 1.01263E+01-2.21622E+00 1.66999E-01 4.93546E+00 2.73670E-13-3.96627E-13
 -1      2985 2.87153E+01-2.40890E+00-2.47797E-03 5.81306E-01-3.05846E-13-1.81175E-13
 -1      2986 2.91605E+01-6.03309E-01-1.53853E-01 1.69554E+00-3.53800E-13-6.46150E-14
 -1      2987 1.99325E+01 2.63261E+00-7.82502E-03 7.70811E-01 1.48571E-13-3.19770E-13
 -1      2988 1.98871E+01 2.72793E+00-6.38934E-03 6.24645E-01 1.19194E-13-3.55807E-13
 -1      2989 2.00026E+01 2.43924E+00 4.68398E-03 4.95065E-01 9.37051E-14-3.41217E-13
 -1      2990 2.00879E+01 2.23191E+00 5.78145E-03 7.16840E-01 1.42411E-13-2.68496E-13
 -1      2991 9.48517E+00-2.19979E+00 1.51336E-01-5.10813E+00-2.29344E-13-8.73551E-13
 -1      2992 1.20280E+01-3.24761E+00 5.34173E-02-6.24196E+00-2.56559E-13-8.34388E-13
 -1      2993 2.00953E+01 2.53977E+00-2.22152E-03-1.43470E+00-2.16068E-13-2.49186E-13
 -1      2994 1.98828E+01 2.73710E+00-6.23585E-03-6.14455E-01-9.74116E-14-3.35280E-13
 -1      2995 1.99272E+01 2.64443E+00-7.47926E-03-7.60643E-01-1.35726E-13-3.24247E-13
 -1      2996 2.90354E+01 5.00853E+00-1.33136E-01-1.75962E+00-4.16694E-13 9.70057E-15
 -1      2997 2.92030E+01 3.68463E+00-1.73255E-01-2.33356E+00-3.13527E-13 1.08205E-13
 -1      2998 1.36267E+01-3.26346E+00 1.35309E-01-5.80085E+00 1.44884E-13 2.96332E-13
 -1      2999 1.62872E+01-4.31213E+00 1.03952E-02-6.14796E+00 1.66825E-13 2.56475E-13
 -1      3000 1.08882E+01-2.08568E+00 7.91591E-02 5.37784E+00-1.72806E-13 2.44971E-13
 -1      3001 8.69567E+00-9.55583E-01 1.41911E-01 3.55523E+00-5.15976E-14 1.18933E-13
 -1      3002 2.57392E+01-4.83175E+00 6.70014E-02-2.56680E+00-1.68990E-13-3.70204E-13
 -1      3003 2.73413E+01-4.14002E+00-1.37984E-01-1.13479E+00-2.42237E-13-2.72726E-13
 -1      3004 2.74783E+01-3.32385E+00-1.46186E-01 1.20568E+00-5.13756E-14-2.72421E-14
 -1      3005 2.60525E+01-4.26085E+00 2.46877E-02 2.45826E+00-8.60007E-14-1.85116E-13
 -1      3006 2.89547E+01 7.18166E-01-2.04321E-01-1.40102E+00 3.68733E-14 1.54016E-13
 -1      3007 2.85867E+01-1.34834E+00-1.69878E-02-3.69406E-01-4.59771E-14-6.43929E-15
 -1      3008 1.99830E+01 2.52112E+00-5.66950E-03-8.75578E-01-1.50337E-13-3.10674E-13
 -1      3009 2.00450E+01 2.38776E+00-6.63210E-03-1.00841E+00-1.71906E-13-2.97746E-13
 -1      3010 2.00816E+01 2.24697E+00 6.18402E-03-7.10667E-01-1.32688E-13-2.83023E-13
 -1      3011 1.99328E+01 2.59784E+00 3.75929E-03 4.59137E-03 3.73532E-15-2.85898E-13
 -1      3012 1.97977E+01 2.91933E+00-5.60443E-03-5.90800E-02-7.82726E-15-3.12555E-13
 -1      3013 1.98058E+01 2.90399E+00-5.58233E-03-2.09153E-01-3.05018E-14-3.22533E-13
 -1      3014 2.79691E+01 1.47407E+00-8.95332E-02-1.88000E+00 9.64367E-14-2.57711E-14
 -1      3015 2.75372E+01-2.36379E+00-1.92878E-02-1.22336E-01-7.57649E-14 2.63678E-14
 -1      3016 2.44018E+01-4.79219E+00 4.64644E-02-2.96523E+00-1.89640E-14-3.09679E-13
 -1      3017 1.39219E+01-2.21959E+00 1.28078E-01 5.22477E+00-2.70867E-13 8.41549E-14
 -1      3018 1.34728E+01-2.16513E+00 1.36773E-01-4.98631E+00 2.61159E-13 3.35051E-13
 -1      3019 2.73267E+01 5.00307E+00-1.26878E-01-1.34804E+00 2.87437E-13-7.17273E-14
 -1      3020 1.47387E+01-3.14448E+00 1.44920E-01-5.88901E+00-2.88852E-13-6.63081E-13
 -1      3021 2.75363E+01-3.22945E+00-1.33028E-02 1.52996E-01-1.71661E-13-2.84356E-13
 -1      3022 1.58174E+01-3.35291E+00 1.41520E-01 5.55356E+00 3.00149E-13-1.20293E-13
 -1      3023 2.68690E+01-9.73896E-01-1.04635E-01-2.34158E+00-1.42483E-13 1.93966E-13
 -1      3024 2.69302E+01 5.80812E-01-3.88039E-02-2.58837E+00-1.44891E-13 1.92409E-13
 -1      3025 2.75015E+01 4.59918E+00-2.31769E-01 1.43926E+00-4.39149E-13-7.72993E-14
 -1      3026 1.99688E+01 1.80059E-01 4.03738E-04 1.15321E-01 1.81252E-13-5.02753E-14
 -1      3027 1.99817E+01 1.55280E-01-8.47540E-04 1.04804E-01 2.02945E-14-1.46193E-13
 -1      3028 1.99958E+01 1.39606E-01 4.10741E-04 1.08539E-01-7.39831E-14-2.74144E-13
 -1      3029 2.69894E+01 5.20990E-01-4.57475E-02 2.53407E+00-3.53620E-13-9.70300E-14
 -1      3030 2.69411E+01-9.74175E-01-8.99921E-02 2.33493E+00-1.23606E-13-1.77316E-13
 -1      3031 1.00132E+01-1.16155E+00 1.66191E-01-3.99039E+00-1.55709E-13-8.22578E-13
 -1      3032 8.08917E+00-2.09181E-01 1.84506E-01 6.49988E-02 1.23578E-13-5.51059E-13
 -1      3033 2.68998E+01 5.63572E+00-1.26804E-01 5.84034E-01 5.88529E-13 6.30745E-15
 -1      3034 2.18820E+01-4.82199E+00 1.00013E-01 4.46409E+00 3.39992E-13-7.98372E-14
 -1      3035 2.00436E+01 2.00565E-01-2.60391E-03-1.85546E-01 8.40020E-14-7.48353E-14
 -1      3036 2.00073E+01 1.20217E-01-7.55987E-04 1.08908E-01-3.11155E-13-2.11316E-13
 -1      3037 2.00209E+01 1.03185E-01 4.18101E-04 1.05601E-01-2.69575E-13 1.84180E-13
 -1      3038 2.00295E+01 1.06676E-01 7.76688E-04 1.20489E-01-3.37025E-13 7.24079E-14
 -1      3039 2.00006E+01 1.43139E-01 4.69767E-04 1.25439E-01-2.59298E-13-2.22862E-14
 -1      3040 2.59949E+01-4.22340E+00-4.20773E-02-1.78517E+00-1.40339E-13 1.28099E-13
 -1      3041 2.61324E+01-3.27697E+00-1.55833E-02-4.65660E-01 1.59083E-14 1.79794E-13
 -1      3042 2.46818E+01-4.35697E+00 7.48607E-02-2.54095E+00-1.70863E-13 1.40617E-13
 -1      3043 2.00224E+01 1.19799E-01-2.65353E-04-1.28146E-01-2.47917E-13-1.78340E-13
 -1      3044 2.00059E+01 1.32124E-01-2.81873E-04-1.17154E-01-1.09933E-13-1.57694E-13
 -1      3045 1.99982E+01 1.56120E-01 6.67515E-04-1.33468E-01-2.05557E-13-9.24818E-14
 -1      3046 2.00292E+01 1.29735E-01 8.95471E-04-1.44931E-01-2.46513E-13-1.86176E-13
 -1      3047 2.78086E+01 3.64354E+00-1.46663E-01 1.94940E+00 6.42750E-13 3.13236E-13
 -1      3048 2.63970E+01 3.85380E+00-9.78752E-02 1.90396E+00 5.82687E-13 2.11449E-13
 -1      3049 2.71305E+01 2.23891E+00-5.98529E-02 2.16719E+00 5.61065E-13 3.17690E-13
 -1      3050 8.91891E+00-2.14386E-01 1.63715E-01 2.26247E+00-1.54408E-13 3.85067E-13
 -1      3051 9.68441E+00 3.65306E-01 9.46642E-02 8.93346E-01-2.08028E-13 3.97626E-13
 -1      3052 1.09982E+01-2.25182E-01 7.54896E-02 2.97287E+00-2.40491E-13 1.83728E-13
 -1      3053 2.66603E+01-4.22939E+00 3.76866E-02 1.32277E+00 2.46768E-13-1.80217E-13
 -1      3054 2.72974E+01-1.99817E+00-4.50013E-02 1.48815E+00-1.67245E-13-7.55646E-14
 -1      3055 2.80182E+01 1.48591E+00-9.54685E-02-2.52951E+00-2.15966E-13 2.34548E-13
 -1      3056 2.02991E+01 1.60261E+00-1.39280E-03 1.13805E+00 2.33894E-13-1.72367E-13
 -1      3057 2.06985E+01-4.72913E+00 6.84675E-02-5.09170E+00-2.74267E-13-3.80477E-14
 -1      3058 2.78875E+01-8.15448E-01-6.26952E-02 1.24626E+00 4.34520E-13 4.83502E-13
 -1      3059 2.71903E+01 2.81047E-01-1.53584E-01 1.89635E+00 5.12618E-13 4.17874E-13
 -1      3060 2.68386E+01-1.73798E+00-4.00013E-02 9.97757E-01 3.43510E-13 3.65340E-13
 -1      3061 1.91607E+01-4.18425E+00 1.12292E-01-5.16902E+00 7.64666E-14 4.90441E-14
 -1      3062 1.98223E+01 2.86629E+00-5.86336E-03-3.39065E-01-4.71772E-14-3.27382E-13
 -1      3063 1.98479E+01 2.81595E+00-6.12934E-03-4.88628E-01-7.68143E-14-3.40314E-13
 -1      3064 1.99987E+01 2.44725E+00 4.60291E-03-4.85941E-01-8.20540E-14-3.08817E-13
 -1      3065 1.99489E+01 2.56175E+00 3.96353E-03-2.44024E-01-3.85810E-14-3.03207E-13
 -1      3066 1.04468E+01-1.29793E+00 1.83022E-01 3.99065E+00 2.28678E-13-3.76324E-13
 -1      3067 2.50109E+01-4.50555E+00 3.44443E-02 2.69762E+00-1.52781E-13-9.69155E-14
 -1      3068 2.01560E+01 2.19222E+00 5.83577E-04-1.18041E+00-1.89370E-13-2.60222E-13
 -1      3069 2.02908E+01 1.38867E+00 2.29755E-03 8.86888E-01 2.10009E-13-1.84278E-13
 -1      3070 2.73002E+01-1.90554E+00-2.49406E-02-1.55430E+00-5.68642E-15 2.04961E-13
 -1      3071 2.83270E+01 1.20097E+00-8.94037E-02 2.57392E+00-3.88592E-13-2.20796E-14
 -1      3072 1.95075E+01-3.94059E+00 1.22771E-01-5.05598E+00-3.07365E-13-1.41928E-13
 -1      3073 2.20871E+01-4.68358E+00-8.43056E-02-4.11744E+00-2.20601E-13 8.11122E-14
 -1      3074 2.02510E+01 1.51535E+00-6.01626E-03 7.65735E-01 1.72870E-13-2.14618E-13
 -1      3075 2.02105E+01 1.70863E+00-6.41253E-04 7.09741E-01 1.61105E-13-2.20984E-13
 -1      3076 2.00366E+01-4.38904E+00 7.60107E-02 5.11861E+00-2.50466E-13-8.29094E-14
 -1      3077 2.68297E+01-1.79168E+00-1.48855E-01-9.92101E-01-6.92675E-15-8.36137E-15
 -1      3078 2.64746E+01-2.99312E+00 3.20419E-02 1.39886E-01-4.43968E-14 3.15858E-14
 -1      3079 1.59950E+01-2.48306E+00 3.33904E-02 5.12664E+00-3.07879E-13-8.17124E-14
 -1      3080 1.34061E+01-1.24606E+00 7.96944E-02 4.44707E+00-2.93449E-13 1.29410E-13
 -1      3081 2.02390E+01 4.96457E-01 3.65213E-03-3.36679E-02-1.12858E-13-1.84786E-13
 -1      3082 2.02055E+01 4.01665E-01-1.65439E-03 6.71601E-02-1.11467E-13-1.63910E-13
 -1      3083 2.01883E+01 3.32059E-01 2.60755E-03 1.46820E-01-1.10181E-13-1.53751E-13
 -1      3084 2.01651E+01 2.77712E-01-5.00016E-04 2.19178E-01-1.04935E-13-1.63918E-13
 -1      3085 2.02446E+01 4.41803E-01-7.78666E-04 8.68166E-02-1.04065E-13-1.85008E-13
 -1      3086 2.01437E+01 2.40677E-01 1.45772E-03 2.78851E-01-9.89165E-14-1.26273E-13
 -1      3087 2.01311E+01 2.15454E-01 3.50283E-04 3.33893E-01-9.33002E-14-1.24221E-13
 -1      3088 2.01990E+01 3.14284E-01-8.55796E-04 2.31773E-01-9.24242E-14-1.59055E-13
 -1      3089 2.01076E+01 2.02180E-01 4.54494E-04 3.82148E-01-6.93557E-14-1.10648E-13
 -1      3090 2.01040E+01 1.98531E-01 9.76282E-04 4.28953E-01-2.95471E-14-1.14291E-13
 -1      3091 2.01515E+01 2.52903E-01-7.03208E-04 3.44242E-01-5.97721E-14-1.20877E-13
 -1      3092 2.00787E+01 2.02994E-01-4.07183E-04 4.73041E-01-2.51516E-15-1.18247E-13
 -1      3093 2.00821E+01 2.15683E-01 1.44772E-03 5.18690E-01-9.84981E-15-1.02068E-13
 -1      3094 2.01036E+01 2.40941E-01-4.17858E-04 4.39946E-01-5.14745E-15-1.30039E-13
 -1      3095 2.00541E+01 2.33576E-01-1.15267E-03 5.64429E-01-2.72810E-14-7.88440E-14
 -1      3096 2.00626E+01 2.58629E-01 1.81704E-03 6.14325E-01 8.99278E-16-8.10229E-14
 -1      3097 2.00539E+01 2.66389E-01-5.27760E-05 5.31975E-01 3.42184E-15-1.31000E-13
 -1      3098 2.00303E+01 2.86416E-01-1.81309E-03 6.66270E-01-2.18303E-15-6.59212E-14
 -1      3099 2.00422E+01 3.20244E-01 2.12312E-03 7.24399E-01-5.45961E-15-8.54432E-14
 -1      3100 1.99993E+01 3.20016E-01 3.71252E-04 6.30690E-01-7.83406E-15-7.31595E-14
 -1      3101 2.00037E+01 3.54295E-01-2.40586E-03 7.86048E-01-3.65210E-14-8.46850E-14
 -1      3102 2.00178E+01 3.92773E-01 2.40522E-03 8.55102E-01-8.37102E-15-1.33078E-13
 -1      3103 1.99360E+01 3.93491E-01 8.38415E-04 7.44087E-01-2.91576E-14-4.47226E-14
 -1      3104 1.99712E+01 4.28361E-01-2.92110E-03 9.29086E-01-5.85758E-15-1.78725E-13
 -1      3105 1.99872E+01 4.65690E-01 2.72453E-03 1.01045E+00-5.78081E-14-1.83702E-13
 -1      3106 1.98595E+01 4.77404E-01 1.31231E-03 8.78226E-01-2.25729E-14-1.24424E-13
 -1      3107 1.99315E+01 4.95688E-01-3.30546E-03 1.09874E+00-5.76511E-15-1.96250E-13
 -1      3108 1.99509E+01 5.22885E-01 3.19681E-03 1.19234E+00 9.01248E-15-1.59016E-13
 -1      3109 1.97665E+01 5.58864E-01 1.70450E-03 1.03773E+00-1.75475E-14-2.05069E-13
 -1      3110 1.98876E+01 5.36028E-01-3.43565E-03 1.29659E+00-2.61627E-14-1.43045E-13
 -1      3111 1.99159E+01 5.38894E-01 4.02785E-03 1.40065E+00-6.28870E-14-8.79498E-14
 -1      3112 1.96561E+01 6.18380E-01 1.82401E-03 1.22653E+00-2.20008E-14-1.96255E-13
 -1      3113 1.98511E+01 5.17490E-01-3.04669E-03 1.52267E+00-1.16243E-13-7.60733E-14
 -1      3114 1.99013E+01 4.73979E-01 5.52730E-03 1.63327E+00-9.45514E-14-7.49830E-14
 -1      3115 1.95340E+01 6.25659E-01 1.28198E-03 1.44917E+00-6.15370E-14-1.61490E-13
 -1      3116 1.98516E+01 3.91281E-01-1.55371E-03 1.77525E+00-4.29661E-14-7.66424E-14
 -1      3117 1.99495E+01 2.68810E-01 8.04909E-03 1.88489E+00 1.66056E-14-6.97069E-14
 -1      3118 1.94192E+01 5.33953E-01-6.29287E-04 1.71243E+00-7.73371E-14-1.11701E-13
 -1      3119 1.99500E+01 8.75012E-02 2.31748E-03 2.04774E+00 5.12746E-14-1.12168E-13
 -1      3120 2.01405E+01-1.57429E-01 1.18108E-02 2.14155E+00 8.36574E-14-5.82047E-14
 -1      3121 1.93562E+01 2.73639E-01-5.00418E-03 2.02574E+00 1.95920E-14-1.65974E-13
 -1      3122 2.02588E+01-4.81292E-01 1.11561E-02 2.31752E+00 1.62900E-13-7.20147E-14
 -1      3123 2.06117E+01-8.93429E-01 1.74864E-02 2.36309E+00 1.97422E-13-4.85818E-14
 -1      3124 1.94355E+01-2.50289E-01-1.28633E-02 2.39470E+00 1.29232E-13-1.87769E-13
 -1      3125 2.09660E+01-1.40363E+00 2.69235E-02 2.51857E+00 1.97288E-13-3.10672E-14
 -1      3126 2.15628E+01-1.99191E+00 1.97431E-02 2.43890E+00 2.64486E-13-4.36641E-14
 -1      3127 1.98215E+01-1.14353E+00-2.38705E-02 2.80141E+00 2.16132E-13-1.82895E-13
 -1      3128 2.23353E+01-2.65956E+00 4.61282E-02 2.44988E+00 2.93195E-13-1.04334E-13
 -1      3129 2.32735E+01-3.28155E+00 1.58929E-02 2.10297E+00 3.32030E-13-1.76536E-13
 -1      3130 2.08289E+01-2.46570E+00-2.44668E-02 3.14588E+00 2.15654E-13-1.72463E-13
 -1      3131 1.02437E+01-3.42966E-01 1.00452E-01-3.07387E+00-1.02068E-13-7.36092E-13
 -1      3132 1.18705E+01-1.36301E+00 6.44282E-02-4.62538E+00-2.48378E-13-7.19647E-13
 -1      3133 2.32016E+01-3.25681E+00 2.52776E-03-2.08521E+00 7.59271E-14-4.28960E-13
 -1      3134 2.23588E+01-2.61647E+00 5.28712E-02-2.39967E+00 2.69099E-14-4.52100E-13
 -1      3135 2.15845E+01-1.97724E+00 1.64521E-02-2.40726E+00 6.73610E-14-2.29087E-13
 -1      3136 2.10006E+01-1.38085E+00 2.84543E-02-2.47990E+00 1.39698E-13-1.71557E-13
 -1      3137 2.08627E+01-2.46987E+00-3.50499E-02-3.08680E+00 2.40561E-13-2.83799E-13
 -1      3138 2.06400E+01-8.75844E-01 1.63405E-02-2.32759E+00 8.51142E-14-1.27424E-13
 -1      3139 2.02897E+01-4.60551E-01 1.16498E-02-2.28032E+00 1.15484E-13-2.18065E-13
 -1      3140 1.98526E+01-1.13134E+00-2.63439E-02-2.76389E+00 9.33214E-14-2.80141E-13
 -1      3141 2.01662E+01-1.34690E-01 1.14667E-02-2.10220E+00 7.43787E-14-3.60237E-13
 -1      3142 1.99763E+01 1.13362E-01 2.64398E-03-2.00477E+00 4.20102E-14-4.40990E-13
 -1      3143 1.94589E+01-2.28178E-01-1.34868E-02-2.35825E+00-2.29592E-14-4.04275E-13
 -1      3144 1.99715E+01 2.97415E-01 7.79376E-03-1.83742E+00 9.95645E-15-5.35781E-13
 -1      3145 1.98740E+01 4.23442E-01-1.24536E-03-1.72230E+00-1.23759E-13-5.12170E-13
 -1      3146 1.93724E+01 3.04698E-01-5.04132E-03-1.98213E+00-6.26473E-14-4.04534E-13
 -1      3147 1.99193E+01 5.09459E-01 5.27751E-03-1.57408E+00-2.24756E-14-4.04467E-13
 -1      3148 1.98696E+01 5.56892E-01-2.75495E-03-1.45634E+00-5.18548E-14-2.83619E-13
 -1      3149 1.94282E+01 5.73245E-01-5.90539E-04-1.65808E+00-3.75453E-14-2.90308E-13
 -1      3150 1.99298E+01 5.81837E-01 3.77169E-03-1.32654E+00-1.08769E-13-1.57373E-13
 -1      3151 1.99021E+01 5.82913E-01-3.17576E-03-1.21396E+00 6.80238E-15-1.70361E-13
 -1      3152 1.95353E+01 6.73700E-01 1.36769E-03-1.38072E+00 4.23068E-14-2.12018E-13
 -1      3153 1.99603E+01 5.73188E-01 2.92060E-03-1.10074E+00 8.58608E-14-3.46682E-14
 -1      3154 1.99415E+01 5.49580E-01-3.08785E-03-9.97587E-01 9.98339E-15 1.32043E-14
 -1      3155 1.96488E+01 6.74955E-01 1.96624E-03-1.14140E+00 1.14036E-13-1.25896E-13
 -1      3156 1.99910E+01 5.22447E-01 2.42862E-03-8.99545E-01-1.17127E-13 4.82887E-14
 -1      3157 1.99754E+01 4.87785E-01-2.77166E-03-8.08039E-01-7.63656E-14 8.35441E-14
 -1      3158 1.97491E+01 6.22928E-01 1.91743E-03-9.34155E-01-1.67088E-14 4.17873E-14
 -1      3159 2.00146E+01 4.53817E-01 2.10339E-03-7.24092E-01-9.50918E-14 3.20140E-14
 -1      3160 1.99999E+01 4.16191E-01-2.37248E-03-6.45050E-01-1.06402E-13 6.77088E-14
 -1      3161 1.98297E+01 5.46612E-01 1.60923E-03-7.55445E-01-1.23145E-13 1.65923E-13
 -1      3162 2.00295E+01 3.81482E-01 1.84274E-03-5.74161E-01 8.90238E-16 1.91995E-13
 -1      3163 2.00155E+01 3.45386E-01-1.96774E-03-5.07397E-01 7.68110E-14 2.46555E-13
 -1      3164 1.98907E+01 4.63431E-01 1.23995E-03-6.02915E-01-1.09752E-14 2.29227E-13
 -1      3165 2.00370E+01 3.13194E-01 1.60142E-03-4.48416E-01 3.33970E-15 4.10284E-13
 -1      3166 2.00239E+01 2.80921E-01-1.59520E-03-3.93091E-01 6.12564E-14 2.11332E-13
 -1      3167 1.99347E+01 3.83228E-01 8.96768E-04-4.74461E-01 1.40323E-13 4.91402E-13
 -1      3168 2.00389E+01 2.52810E-01 1.36122E-03-3.44729E-01 3.19154E-15 1.61172E-13
 -1      3169 2.00268E+01 2.25345E-01-1.27214E-03-2.99609E-01 3.49686E-14 4.26908E-15
 -1      3170 1.99652E+01 3.11169E-01 6.24646E-04-3.67853E-01-5.27143E-14 4.02779E-13
 -1      3171 2.00368E+01 2.01973E-01 1.13198E-03-2.60544E-01 5.10662E-14-1.28260E-13
 -1      3172 2.00264E+01 1.79665E-01-8.59907E-04-2.24176E-01-4.61171E-14-1.78140E-13
 -1      3173 1.99854E+01 2.49606E-01 4.59461E-04-2.80721E-01-2.45105E-14-1.16296E-14
 -1      3174 2.00345E+01 1.61396E-01 9.90145E-04-1.96727E-01 1.04689E-14-2.78070E-13
 -1      3175 2.00253E+01 1.43936E-01-4.91547E-04-1.67283E-01-8.74463E-14-2.74470E-13
 -1      3176 2.00078E+01 1.58848E-01-4.56420E-04-1.63609E-01-9.28651E-14-5.75054E-14
 -1      3177 1.99994E+01 1.98746E-01-1.92506E-05-2.14298E-01 6.28291E-14 7.62962E-15
 -1      3178 2.59959E+01 5.01882E+00-1.44259E-01-9.44823E-01 3.30708E-13-1.51351E-13
 -1      3179 2.64628E+01 4.05745E+00-5.00890E-02-1.88680E+00 2.31010E-13-1.13048E-13
 -1      3180 2.00881E+01 1.46000E-01 1.51111E-03-4.84721E-01-4.29565E-14-1.11788E-13
 -1      3181 2.00711E+01 1.43426E-01 1.49547E-04-4.46486E-01-5.07841E-14-8.88892E-14
 -1      3182 2.01812E+01 2.06183E-01 2.22074E-03-7.45910E-01 1.68353E-14-3.13905E-14
 -1      3183 2.01367E+01 1.95890E-01-8.97145E-04-6.98692E-01 3.52426E-14-9.88472E-14
 -1      3184 2.02434E+01 2.12323E-01 2.27182E-03-8.50905E-01-2.34020E-14 6.93011E-15
 -1      3185 2.01880E+01 2.11188E-01-7.58243E-04-8.00700E-01 1.73467E-14 1.06485E-14
 -1      3186 2.00854E+01 2.51177E-01-8.51094E-04-7.97604E-01-5.15743E-15-2.99521E-14
 -1      3187 2.03308E+01 1.87772E-01 2.18823E-03-9.59496E-01-4.38760E-14-2.60711E-14
 -1      3188 2.02614E+01 2.04465E-01-2.50102E-04-9.10331E-01-3.79812E-14 2.19648E-14
 -1      3189 2.01118E+01 2.51679E-01-1.30491E-03-9.15072E-01-3.23334E-14-3.69681E-14
 -1      3190 2.04563E+01 1.12155E-01 1.89809E-03-1.06038E+00 1.44299E-14 3.56664E-14
 -1      3191 2.03678E+01 1.57668E-01 7.84658E-04-1.01960E+00-2.79020E-14 1.02458E-14
 -1      3192 2.01651E+01 2.11618E-01-2.21678E-03-1.03928E+00-4.99629E-14-1.44519E-14
 -1      3193 2.06396E+01-3.85587E-02 1.25363E-03-1.13453E+00 1.05503E-14 2.18648E-13
 -1      3194 2.05247E+01 4.84398E-02 2.55482E-03-1.11368E+00 2.80925E-14 1.47695E-13
 -1      3195 2.02631E+01 1.06153E-01-3.80208E-03-1.16019E+00-4.23144E-14 4.73422E-14
 -1      3196 2.09082E+01-2.87853E-01-7.11045E-05-1.15275E+00-2.25051E-14 2.22804E-13
 -1      3197 2.07577E+01-1.47679E-01 5.27031E-03-1.16841E+00 1.42156E-14 2.18686E-13
 -1      3198 2.04338E+01-9.33459E-02-6.29764E-03-1.25979E+00-1.67221E-14 2.07937E-13
 -1      3199 2.12942E+01-6.47645E-01-2.65576E-03-1.07274E+00-3.22785E-14 2.34579E-13
 -1      3200 2.11003E+01-4.50280E-01 8.99163E-03-1.14702E+00-1.27537E-14 2.61060E-13
 -1      3201 2.07169E+01-4.13662E-01-9.88255E-03-1.30815E+00-3.98660E-14 1.69772E-13
 -1      3202 2.18237E+01-1.09483E+00-6.93862E-03-8.37542E-01-1.13138E-13 2.15557E-13
 -1      3203 2.15871E+01-8.57908E-01 1.33404E-02-9.96363E-01-1.01851E-13 3.02735E-13
 -1      3204 2.11617E+01-8.64909E-01-1.42492E-02-1.25699E+00-6.10681E-14 2.66156E-13
 -1      3205 2.24944E+01-1.52978E+00-1.15716E-02-3.83302E-01-9.40749E-14 2.12694E-13
 -1      3206 2.22330E+01-1.31533E+00 1.73867E-02-6.47013E-01-9.33262E-14 1.74475E-13
 -1      3207 2.18158E+01-1.40945E+00-1.74146E-02-1.03218E+00-8.96507E-14 2.48423E-13
 -1      3208 2.32214E+01-1.72704E+00-1.43302E-02 3.10452E-01-9.65530E-14 2.63647E-13
 -1      3209 2.29832E+01-1.66405E+00 1.54704E-02-4.17449E-02-8.69426E-14 2.60146E-13
 -1      3210 2.26651E+01-1.89793E+00-2.08772E-02-5.28158E-01-1.14646E-13 3.16348E-13
 -1      3211 2.38496E+01-1.36876E+00-9.93939E-03 1.19958E+00 1.20211E-13 3.43013E-13
 -1      3212 2.37213E+01-1.64879E+00 7.16146E-03 8.10960E-01 1.34792E-14 3.41165E-13
 -1      3213 2.36707E+01-2.04238E+00-1.55100E-02 2.87799E-01-5.49491E-14 3.85546E-13
 -1      3214 2.40651E+01-2.09440E-01 3.35502E-03 1.87577E+00 1.57756E-13 3.31400E-13
 -1      3215 2.41115E+01-8.91613E-01-3.23436E-02 1.67337E+00 1.59187E-13 3.44770E-13
 -1      3216 2.44711E+01-1.38959E+00 8.13682E-03 1.30200E+00 1.77122E-13 5.07884E-13
 -1      3217 2.44547E+01 2.23592E+00-2.80090E-02 1.88216E+00 3.48180E-13 1.34691E-13
 -1      3218 2.46273E+01 1.21724E+00-5.26106E-02 2.09578E+00 2.96849E-13 2.00741E-13
 -1      3219 2.35183E+01 2.99119E+00-5.33921E-02-8.44209E-01 2.89362E-13-7.78266E-14
 -1      3220 2.34743E+01 3.25221E+00-3.22340E-02-1.21059E-01 3.68060E-13-3.31766E-14
 -1      3221 2.41348E+01-3.14296E-01-4.31865E-02-1.92530E+00 4.06665E-14-6.83988E-14
 -1      3222 2.40778E+01 5.63785E-01 6.26285E-03-2.01232E+00 1.40898E-13-5.04236E-14
 -1      3223 2.39272E+01-1.42121E+00-7.86401E-03-1.19794E+00-3.00823E-14-5.96029E-14
 -1      3224 2.40051E+01-9.63681E-01-5.92814E-03-1.53714E+00 1.30451E-14-5.88910E-14
 -1      3225 2.46771E+01-8.00913E-01 5.20875E-03-1.69710E+00 3.83582E-14-1.67383E-14
 -1      3226 2.33084E+01-1.71772E+00 1.13835E-02-2.98105E-01-2.23993E-13-8.52183E-16
 -1      3227 2.35084E+01-1.66364E+00-1.63571E-02-6.83650E-01-1.69959E-13-5.18639E-15
 -1      3228 2.40347E+01-1.88567E+00-3.46528E-03-6.98422E-01-8.69478E-14-8.78976E-14
 -1      3229 2.25417E+01-1.47250E+00 1.71792E-02 4.13026E-01-6.78793E-14 7.28573E-14
 -1      3230 2.27977E+01-1.64560E+00-1.45140E-02 1.07711E-01-1.05660E-13 4.66454E-14
 -1      3231 2.30790E+01-2.01099E+00-1.45193E-02 2.33361E-01-2.50346E-13 3.15701E-14
 -1      3232 2.18417E+01-1.02605E+00 1.54429E-02 8.53597E-01-3.47762E-14-7.07456E-14
 -1      3233 2.20902E+01-1.26658E+00-8.94844E-03 6.57357E-01 1.77061E-14 1.02263E-13
 -1      3234 2.21479E+01-1.60859E+00-1.72292E-02 8.46770E-01-1.70083E-14-1.11590E-14
 -1      3235 2.12920E+01-5.82018E-01 1.10248E-02 1.06693E+00 7.69193E-15-2.06957E-13
 -1      3236 2.15019E+01-8.02143E-01-4.12705E-03 9.66189E-01-8.11408E-14-1.53546E-13
 -1      3237 2.14056E+01-1.05686E+00-1.54057E-02 1.15965E+00 8.70831E-15 2.82526E-14
 -1      3238 2.08968E+01-2.28638E-01 6.86143E-03 1.12226E+00 3.44036E-13-1.49915E-13
 -1      3239 2.10613E+01-3.95500E-01-1.07818E-03 1.09164E+00 1.83485E-13-2.73354E-13
 -1      3240 2.08802E+01-5.53175E-01-1.15030E-02 1.26134E+00 9.86120E-14-1.57288E-13
 -1      3241 2.06262E+01 1.54142E-02 3.73192E-03 1.07949E+00 2.21932E-13-9.39907E-14
 -1      3242 2.07510E+01-9.53325E-02 6.11244E-04 1.09495E+00 3.47077E-13-8.01173E-14
 -1      3243 2.05369E+01-1.72020E-01-7.63763E-03 1.23431E+00 2.64570E-13-2.29407E-13
 -1      3244 2.04448E+01 1.63581E-01 1.63143E-03 9.81789E-01-1.01554E-14 8.27375E-14
 -1      3245 2.05391E+01 9.93633E-02 1.46340E-03 1.02447E+00 2.32683E-14-9.12119E-15
 -1      3246 2.03249E+01 8.13062E-02-4.67006E-03 1.13668E+00 9.15008E-14-7.27788E-14
 -1      3247 2.03232E+01 2.39171E-01 3.29653E-04 8.58116E-01-4.42271E-14 7.60642E-14
 -1      3248 2.03953E+01 2.08982E-01 1.85477E-03 9.14420E-01 3.40018E-14 1.27779E-13
 -1      3249 2.01995E+01 2.28990E-01-2.68240E-03 1.00509E+00-1.07528E-13 2.19417E-13
 -1      3250 2.02402E+01 2.65044E-01-4.04417E-04 7.27220E-01-3.24053E-13 6.54006E-14
 -1      3251 2.02963E+01 2.57523E-01 1.99069E-03 7.87920E-01-2.08284E-13 9.77901E-14
 -1      3252 2.01277E+01 2.99360E-01-1.46305E-03 8.62010E-01-1.53085E-13 2.77886E-13
 -1      3253 2.01818E+01 2.59839E-01-7.61600E-04 6.00691E-01-2.55373E-13-1.17323E-13
 -1      3254 2.02262E+01 2.66061E-01 1.97551E-03 6.59905E-01-2.97482E-13-5.94559E-14
 -1      3255 2.00873E+01 3.18006E-01-7.65871E-04 7.21067E-01-2.90445E-13-6.99007E-15
 -1      3256 2.01392E+01 2.37318E-01-8.82064E-04 4.85124E-01-6.74957E-14 4.20027E-15
 -1      3257 2.01749E+01 2.50847E-01 1.86465E-03 5.39445E-01-1.76994E-13-1.51112E-14
 -1      3258 2.00644E+01 3.05055E-01-3.92315E-04 5.90194E-01-3.10862E-13-1.88454E-13
 -1      3259 2.01071E+01 2.06947E-01-8.67812E-04 3.83674E-01 8.51577E-14 6.02507E-14
 -1      3260 2.01358E+01 2.23444E-01 1.69400E-03 4.31442E-01 2.86745E-14 8.57396E-14
 -1      3261 2.00510E+01 2.75084E-01-2.05751E-04 4.73547E-01-9.55462E-14-9.04907E-14
 -1      3262 2.00822E+01 1.74843E-01-7.88585E-04 2.97248E-01 5.70122E-14-5.11679E-16
 -1      3263 2.01053E+01 1.91542E-01 1.48346E-03 3.37956E-01 2.30522E-13 1.34073E-13
 -1      3264 2.00422E+01 2.37988E-01-1.16594E-04 3.72731E-01 9.01363E-14 2.70426E-13
 -1      3265 2.00621E+01 1.45068E-01-6.50888E-04 2.25329E-01-2.78325E-14-1.73334E-13
 -1      3266 2.00808E+01 1.60121E-01 1.24962E-03 2.59273E-01-3.39933E-14-1.05289E-13
 -1      3267 2.00357E+01 2.00246E-01-4.05954E-05 2.87848E-01 9.16452E-14 1.78595E-13
 -1      3268 2.00463E+01 1.19971E-01-1.43114E-04 1.66626E-01-8.14320E-14-3.31650E-13
 -1      3269 2.00606E+01 1.31926E-01 9.85168E-04 1.94106E-01-5.68489E-14-2.64292E-13
 -1      3270 2.00298E+01 1.65717E-01-4.14640E-05 2.17658E-01 3.77406E-14-9.40154E-14
 -1      3271 2.00321E+01 1.11316E-01 2.28304E-04 1.34150E-01-3.63028E-13-7.65669E-14
 -1      3272 2.00435E+01 1.15111E-01 7.36059E-04 1.50882E-01-3.30979E-13-2.00313E-13
 -1      3273 2.00229E+01 1.42665E-01-2.38469E-04 1.70124E-01-2.38964E-13-2.10805E-13
 -1      3274 2.00160E+01 1.28678E-01-8.03937E-04 1.39362E-01-5.31331E-13-8.86171E-14
 -1      3275 2.00406E+01 2.22673E+00-4.28583E-03 2.75667E-01 5.55390E-14-3.16010E-13
 -1      3276 2.00254E+01 2.26769E+00-3.53830E-03 1.60002E-01 2.00832E-14-2.83886E-13
 -1      3277 1.99254E+01 2.33826E-01 2.48141E-04-1.08274E-01 6.36804E-14 5.70167E-14
 -1      3278 1.99096E+01 2.45480E-01-9.72856E-04-8.90456E-02 6.90374E-14 2.38391E-14
 -1      3279 1.98866E+01 2.66690E-01-4.79268E-04-9.90476E-03 4.35848E-14-9.75938E-14
 -1      3280 1.98873E+01 2.65985E-01-3.64769E-04 1.54371E-02-2.44206E-15 3.62350E-14
 -1      3281 1.99643E+01 1.95886E-01 5.02724E-05-1.38597E-01-2.14699E-13-1.97146E-13
 -1      3282 1.99440E+01 2.13220E-01-1.04371E-03-1.27397E-01 2.84031E-14-6.90455E-14
 -1      3283 1.99211E+01 2.46948E-01 7.51553E-04-1.33367E-01-1.15631E-13 6.28608E-14
 -1      3284 1.98982E+01 2.57829E-01-1.12410E-04-6.29454E-02 1.45881E-14 2.09320E-13
 -1      3285 1.98903E+01 2.63425E-01-7.01104E-04-3.94262E-02 3.95364E-14 1.22821E-13
 -1      3286 1.98672E+01 2.92351E-01 1.05146E-03-2.71234E-02 1.29025E-14 1.46876E-13
 -1      3287 1.98854E+01 2.77805E-01 1.00009E-03-8.55124E-02-4.35937E-14 9.29733E-14
 -1      3288 9.11246E+00 1.15033E-01 1.05599E-01 1.32610E+00 1.56822E-13-4.66599E-13
 -1      3289 9.17275E+00 2.04958E-01 9.31185E-02-9.37291E-01 8.68316E-14-5.50407E-13
 -1      3290 2.01368E+01 1.85283E-01 2.07031E-03-6.49956E-01 6.26446E-14-1.10318E-13
 -1      3291 2.01016E+01 1.72483E-01-7.66360E-04-6.07132E-01 5.81319E-14-6.93061E-14
 -1      3292 2.00755E+01 2.29808E-01-6.89707E-04-6.91376E-01 2.46647E-14-6.22174E-14
 -1      3293 1.21964E+01-1.38138E+00 3.41798E-02 4.45591E+00 2.35825E-13-3.20410E-13
 -1      3294 1.02603E+01-4.04867E-01 1.21466E-01 2.98015E+00 1.84765E-13-3.87856E-13
 -1      3295 2.01062E+01 1.61905E-01 1.83425E-03-5.63899E-01 2.94558E-14-8.99116E-14
 -1      3296 2.00799E+01 1.51891E-01-4.13692E-04-5.24716E-01-7.83749E-15-1.04714E-13
 -1      3297 2.00863E+01 1.82438E-01-8.41725E-04-5.10450E-01-1.47286E-14-1.57837E-13
 -1      3298 2.00766E+01 2.02813E-01-7.08722E-04-5.96719E-01 3.02020E-14-1.22748E-13
 -1      3299 2.91210E+01-3.79963E-02-1.33478E-01 2.07574E+00-3.37036E-13-2.33702E-14
 -1      3300 2.57683E+01 4.83897E+00-1.13387E-01 9.23180E-01 5.05873E-13 3.45054E-14
 -1      3301 2.58257E+01 5.31345E+00-1.17027E-01-1.38429E-02 4.36734E-13-1.36288E-13
 -1      3302 2.31613E+01-4.69027E+00-2.66221E-02 3.43802E+00 4.13638E-13-2.18612E-13
 -1      3303 2.06961E+01-4.25094E+00 9.79178E-02 4.52587E+00 3.62030E-13-5.67029E-14
 -1      3304 1.40706E+01-2.16502E+00 1.28171E-01-5.25371E+00-3.33331E-13-6.38531E-13
 -1      3305 1.64145E+01-3.30045E+00-2.97851E-02-5.59489E+00-3.56770E-13-4.03830E-13
 -1      3306 9.91086E+00 3.07021E-01 9.77824E-02-1.23493E+00-9.24018E-14 2.35090E-13
 -1      3307 1.11496E+01-2.69501E-01 7.59797E-02-2.97916E+00 3.80633E-14 2.19227E-13
 -1      3308 2.86168E+01 2.12519E+00-6.71461E-02-2.39656E+00-2.21601E-13 2.25639E-13
 -1      3309 2.67957E+01 2.11129E+00-1.75089E-01-2.17131E+00 1.63244E-13-1.46189E-13
 -1      3310 2.72274E+01 3.37551E-01-2.85578E-03-1.95273E+00 2.36339E-14-7.09224E-14
 -1      3311 2.02845E+01 7.65485E-01 3.66387E-03-2.85122E-01-1.45147E-13-1.98698E-13
 -1      3312 2.02464E+01 6.14593E-01-2.72395E-03-1.41780E-01-1.17400E-13-1.97375E-13
 -1      3313 2.02830E+01 6.59756E-01 6.91925E-05-1.08082E-01-1.08644E-13-1.86652E-13
 -1      3314 2.01155E+01 2.38683E-01-2.84522E-04-2.03939E-01 7.66478E-14-9.82875E-14
 -1      3315 2.01365E+01 2.92225E-01 2.76047E-03-1.31482E-01 8.16724E-14-9.57981E-14
 -1      3316 2.00827E+01 1.46605E-01 1.08093E-03-4.05816E-01-3.74447E-14-1.00699E-13
 -1      3317 2.00765E+01 1.56243E-01 9.38802E-04-3.63903E-01-1.38296E-14-1.01729E-13
 -1      3318 2.01042E+01 1.79556E-01-1.04521E-03-4.26084E-01-4.75772E-14-1.18282E-13
 -1      3319 2.00914E+01 1.73372E-01 4.97436E-04-3.16925E-01 2.00755E-14-9.52596E-14
 -1      3320 2.00980E+01 2.00928E-01 1.93704E-03-2.64519E-01 6.19671E-14-8.96442E-14
 -1      3321 2.01307E+01 2.05360E-01-1.27828E-03-3.33778E-01 1.40244E-14-1.05866E-13
 -1      3322 1.81134E+01-3.21347E+00 8.84822E-02-4.88544E+00 8.85160E-14 1.35350E-13
 -1      3323 2.07524E+01-4.16945E+00-4.12505E-02-4.37134E+00-1.45994E-14-9.57845E-14
 -1      3324 2.54252E+01-4.17288E+00-1.01623E-01 1.64369E+00-1.36035E-13 8.41653E-14
 -1      3325 2.40212E+01-4.40247E+00 7.99063E-02 2.91094E+00-7.98875E-14-4.41834E-14
 -1      3326 2.81561E+01-1.09852E+00-3.05070E-03 1.93999E+00-2.71734E-13-3.43545E-14
 -1      3327 2.03041E+01 1.01552E+00-7.85260E-04 6.50069E-01 1.69207E-13-1.60750E-13
 -1      3328 2.02793E+01 1.33754E+00 2.84612E-03 7.31908E-01 1.72508E-13-1.81188E-13
 -1      3329 2.02825E+01 1.16776E+00 2.50510E-04 5.46877E-01 1.48430E-13-1.86454E-13
 -1      3330 2.02495E+01 8.08775E-01-3.25439E-03 4.37083E-01 1.52564E-13-1.36232E-13
 -1      3331 1.76981E+01-3.59012E+00-1.24662E-02 5.29145E+00 3.11980E-13 2.39253E-14
 -1      3332 1.49705E+01-2.39751E+00 1.15494E-01 5.08198E+00 3.47215E-13-1.46980E-13
 -1      3333 2.02080E+01 1.91818E+00 1.06350E-03-9.76320E-01-1.65213E-13-2.59055E-13
 -1      3334 2.32087E+01-4.39415E+00 8.96127E-02-3.26384E+00-6.39419E-14-3.36368E-13
 -1      3335 2.49552E+01-4.48368E+00-1.03055E-01-1.92769E+00-7.75144E-14-4.11267E-13
 -1      3336 1.35339E+01-1.25747E+00 8.27400E-02-4.27673E+00 1.39132E-13 3.43302E-13
 -1      3337 1.57931E+01-2.46944E+00 3.24407E-02-5.04574E+00 1.68213E-13 3.12139E-13
 -1      3338 1.79053E+01-2.38291E+00 5.75894E-02-4.31908E+00 9.58851E-14 2.73337E-13
 -1      3339 2.17336E+01-4.55899E+00-4.31229E-02 4.27208E+00-1.21625E-13-8.82731E-14
 -1      3340 1.89651E+01-3.65595E+00 8.04213E-02 5.02644E+00-2.20719E-13 3.30118E-14
 -1      3341 2.00176E+01 2.28805E+00-3.78966E-03 6.26997E-02 2.12971E-14-2.67536E-13
 -1      3342 2.00173E+01 2.28895E+00-3.75664E-03-5.49087E-02 5.55548E-15-2.71853E-13
 -1      3343 2.01268E+01 2.00387E+00 5.38717E-03 9.33296E-02 1.43033E-14-2.69380E-13
 -1      3344 2.01231E+01 1.99191E+00-3.21828E-03-5.51733E-01-1.10176E-13-2.46936E-13
 -1      3345 2.01633E+01 1.85819E+00-6.77954E-03-6.46730E-01-1.33228E-13-2.76053E-13
 -1      3346 2.02610E+01 1.51380E+00 7.54812E-03 5.46447E-01 1.31287E-13-2.00039E-13
 -1      3347 2.01651E+01 1.84770E+00-7.05073E-03 6.49962E-01 1.49954E-13-2.28583E-13
 -1      3348 2.01270E+01 1.98160E+00-3.10915E-03 5.58214E-01 1.12856E-13-2.62860E-13
 -1      3349 2.63381E+01-7.52566E-01-1.30523E-02-1.61578E+00 6.65440E-15-8.47655E-14
 -1      3350 1.46386E+01-1.47966E+00 1.13790E-01 4.30561E+00 3.14269E-13-1.64008E-13
 -1      3351 1.47319E+01-7.70846E-01 3.49609E-02 3.72007E+00-3.29682E-13 7.30214E-14
 -1      3352 1.28144E+01-4.59785E-01 1.02155E-01 3.67880E+00-2.92918E-13 8.96505E-14
 -1      3353 1.25103E+01 1.69582E-01 3.39857E-02 2.56513E+00-3.30673E-13 1.06963E-13
 -1      3354 2.18933E+01-3.75627E+00-2.06302E-02 3.42736E+00 3.26565E-13-2.34771E-13
 -1      3355 2.35428E+01-3.66505E+00 3.32198E-02 2.29817E+00 4.02794E-13-1.96744E-13
 -1      3356 1.97453E+01-3.38312E+00 1.00531E-01 4.35866E+00 3.55785E-13-6.73871E-14
 -1      3357 2.50545E+01 4.39394E+00-9.46459E-02-5.31696E-01 3.39617E-13-1.60818E-13
 -1      3358 1.41213E+01-1.36756E+00 1.16520E-01-4.44096E+00-2.83454E-13-6.05703E-13
 -1      3359 1.04941E+01 2.32983E-01 1.23656E-01-1.92322E+00 5.76657E-14-5.63133E-13
 -1      3360 1.19414E+01 2.37513E-02 7.86909E-03-2.63786E+00-1.26730E-14-5.31977E-13
 -1      3361 1.11429E+01 6.29415E-01 6.47519E-02-7.65947E-01 1.63921E-13-4.33917E-13
 -1      3362 2.47256E+01-4.16942E+00 2.28587E-02 1.90965E+00 3.92058E-13-2.06092E-13
 -1      3363 2.58551E+01-4.09269E+00 1.10209E-02 1.21980E+00 2.64531E-13-1.12983E-13
 -1      3364 2.72590E+01-3.27058E+00-9.26819E-02-4.67488E-01 1.43970E-13-9.21485E-15
 -1      3365 2.80288E+01-1.67103E+00-2.58685E-02-1.42488E+00-7.37327E-14 8.51333E-14
 -1      3366 1.99477E+01 2.04148E-01-9.95769E-04 1.28021E-01 1.94577E-13-4.21266E-14
 -1      3367 1.99679E+01 1.87192E-01 3.72657E-04 1.38047E-01 1.22205E-13 2.70562E-13
 -1      3368 2.34238E+01-4.14859E+00 3.16325E-02-2.80546E+00-2.00034E-13 6.96457E-14
 -1      3369 1.86307E+01-3.16293E+00 7.59427E-02-4.73743E+00-3.09669E-13-2.07851E-13
 -1      3370 2.58282E+01 2.57420E+00-7.41070E-02-1.98491E+00 1.72945E-13-1.27322E-13
 -1      3371 2.01663E+01 2.73169E-01-1.45738E-03-2.20153E-01 6.64200E-14-1.29982E-13
 -1      3372 1.11074E+01 1.70113E-01 1.25363E-01 1.91799E+00 1.26196E-13-4.51889E-13
 -1      3373 2.53712E+01 6.66563E-01-4.69002E-02 2.10502E+00 3.47465E-13 3.24282E-13
 -1      3374 2.34653E+01 3.01596E+00-2.15305E-02 7.67739E-01 3.47986E-13 1.73566E-14
 -1      3375 2.35248E+01 2.51861E+00-4.81867E-02 1.37334E+00 3.16823E-13 4.03583E-14
 -1      3376 2.37962E+01 1.46787E+00-6.94555E-02-1.90436E+00 2.09667E-13-1.07583E-13
 -1      3377 2.36809E+01 2.32804E+00-1.01588E-03-1.52467E+00 2.33057E-13-1.34561E-13
 -1      3378 2.00619E+01 2.16727E+00-3.55659E-03 3.67847E-01 6.94364E-14-3.27365E-13
 -1      3379 2.01540E+01 1.92535E+00 6.52536E-03 2.68908E-01 5.52883E-14-2.97866E-13
 -1      3380 2.00900E+01 2.08218E+00-5.90068E-03 4.74887E-01 9.32641E-14-3.13742E-13
 -1      3381 1.99133E+01 2.38119E-01-9.85502E-04 9.27386E-02 7.05506E-14-3.73207E-13
 -1      3382 1.99294E+01 2.25811E-01 4.00042E-04 1.10633E-01 2.04104E-13-3.24259E-13
 -1      3383 1.99257E+01 2.35511E-01 4.90813E-04 1.35451E-01 1.54421E-13-3.15933E-13
 -1      3384 2.51286E+01 3.06619E+00-6.13708E-02 1.71055E+00 4.37150E-13 6.18776E-14
 -1      3385 2.54273E+01 4.08452E+00-9.91046E-02 1.34093E+00 4.75314E-13 1.59872E-14
 -1      3386 2.02297E+01 1.60072E+00-1.90126E-03-7.71422E-01-1.65629E-13-2.46500E-13
 -1      3387 2.00881E+01 2.09214E+00-5.11363E-03-4.69674E-01-8.77496E-14-2.75277E-13
 -1      3388 2.01990E+01 1.76875E+00 5.81379E-03-4.18858E-01-9.66267E-14-2.41157E-13
 -1      3389 2.00604E+01 2.17344E+00-3.36279E-03-3.60125E-01-6.46062E-14-2.95743E-13
 -1      3390 2.44835E+01 3.95853E+00-7.33692E-02 8.38925E-01 3.69697E-13-3.87175E-14
 -1      3391 2.83689E+01-2.60448E-01-1.67409E-01-2.37946E+00-2.38351E-13 2.83218E-13
 -1      3392 2.46901E+01 1.15093E+00-7.47086E-03-2.10522E+00 1.29542E-13-2.59064E-14
 -1      3393 2.43160E+01 3.09967E+00-6.23134E-02-1.31893E+00 2.90143E-13-7.27682E-14
 -1      3394 2.01887E+01 5.06506E-01-2.13223E-03 1.34218E-01 1.21285E-13-1.24911E-13
 -1      3395 2.02392E+01 6.39995E-01 2.69849E-03 2.83633E-01 1.49172E-13-1.28299E-13
 -1      3396 2.02708E+01 8.02085E-01 1.26555E-03 3.46558E-01 1.40966E-13-1.31551E-13
 -1      3397 1.98919E+01 2.59851E-01-7.84486E-04 4.46284E-02 5.27422E-14-1.03367E-13
 -1      3398 1.99010E+01 2.52907E-01 1.37436E-05 6.78788E-02 1.07062E-13-4.01696E-13
 -1      3399 1.98891E+01 2.69731E-01 7.79279E-04 9.10384E-02 2.06852E-13-4.42661E-13
 -1      3400 1.98687E+01 2.89553E-01 1.01434E-03 3.44236E-02 2.78988E-14-1.22476E-13
 -1      3401 2.55240E+01-3.30391E+00 4.70857E-04 5.57981E-01-5.85348E-14 1.34486E-13
 -1      3402 2.64924E+01 8.29318E-01-6.38994E-02 2.04254E+00 4.62148E-13 3.48527E-13
 -1      3403 2.01454E+01 3.40626E-01-1.07200E-03-6.20700E-02 7.24438E-14-9.94596E-14
 -1      3404 2.01819E+01 4.26635E-01 3.18630E-03 4.12978E-02 8.96799E-14-9.80956E-14
 -1      3405 2.02307E+01 5.33698E-01-1.04509E-03 9.07313E-02 9.05847E-14-9.37497E-14
 -1      3406 2.02003E+01 3.82644E-01-1.25177E-03-8.17845E-02 6.53768E-14-1.07271E-13
 -1      3407 2.02698E+01 9.37244E-01-5.08243E-03-4.10667E-01-1.64064E-13-2.12617E-13
 -1      3408 2.02968E+01 9.91727E-01 1.14199E-03-3.51590E-01-1.43475E-13-2.24118E-13
 -1      3409 2.02994E+01 1.14295E+00-9.00012E-05-5.87502E-01-1.63932E-13-2.10648E-13
 -1      3410 1.05771E+01 6.36185E-01 1.22721E-01-1.52062E-01-9.61922E-14 1.69163E-13
 -1      3411 1.18230E+01 6.80033E-01 4.64856E-02-8.88959E-01-4.85376E-14 1.29764E-13
 -1      3412 1.15460E+01 6.65223E-01 2.10428E-02 8.91598E-01-1.54330E-13 2.51327E-13
 -1      3413 2.54192E+01-3.71052E+00 7.51966E-04-8.79685E-01-3.96263E-14-2.43555E-13
 -1      3414 2.44503E+01-3.52425E+00 8.89079E-02-1.58394E+00 1.11462E-14-3.33901E-13
 -1      3415 2.62563E+01-2.63276E+00-3.90558E-02 4.57822E-01 1.31941E-13 3.38451E-13
 -1      3416 2.60102E+01-1.62655E+00-4.04515E-02 1.22178E+00 2.58085E-13 4.29531E-13
 -1      3417 1.31327E+01 1.24543E-01 3.52126E-02-2.63113E+00 2.39045E-14 1.97051E-13
 -1      3418 1.31868E+01-5.18755E-01 9.40280E-02-3.53129E+00 3.41879E-14 2.18485E-13
 -1      3419 1.51454E+01-8.01634E-01 4.43568E-03-3.68441E+00 7.43069E-15 2.82156E-13
 -1      3420 2.20723E+01-3.69590E+00 5.24831E-02-3.30798E+00-1.18294E-13-1.81769E-13
 -1      3421 2.55236E+01-3.08625E+00 2.54272E-02-2.56863E-01-2.18913E-14 1.72445E-13
 -1      3422 1.95915E+01-3.12528E+00-3.15419E-02 4.12138E+00-5.02194E-14 3.24636E-13
 -1      3423 1.79572E+01-2.87529E+00 5.98223E-02 4.78549E+00-1.86302E-13 5.46976E-14
 -1      3424 1.71639E+01-1.95216E+00 2.09091E-02 4.27982E+00-1.39083E-13 1.24411E-13
 -1      3425 2.26369E+01-3.78015E+00-8.29932E-02-2.80286E+00-5.29368E-14-4.75577E-13
 -1      3426 2.28290E+01-4.11000E+00 2.62400E-02 3.14085E+00-6.23356E-14 1.04088E-13
 -1      3427 1.99917E+01 1.71858E-01-4.31375E-04-1.56958E-01-1.49278E-13-1.38008E-13
 -1      3428 1.99769E+01 1.84080E-01-5.46710E-04-1.48453E-01-1.70409E-13-1.09281E-13
 -1      3429 1.99580E+01 2.15898E-01 6.33239E-04-1.62750E-01-2.46067E-13-5.22426E-14
 -1      3430 1.99898E+01 1.91874E-01 7.55652E-04-1.80267E-01-1.14504E-13-6.47379E-14
 -1      3431 2.66279E+01-3.61996E+00 6.41691E-02-2.90313E-01-1.12695E-13-2.65690E-13
 -1      3432 1.94689E+01-2.95090E+00 2.89809E-02 4.11639E+00 3.03934E-13-7.51343E-14
 -1      3433 2.02461E+01 3.91334E-01 1.38710E-03 1.76532E-01-8.65055E-14-1.51613E-13
 -1      3434 2.02193E+01 3.38991E-01-7.17428E-04 2.40926E-01-7.08524E-14-1.50325E-13
 -1      3435 2.01882E+01 3.04650E-01 5.40831E-04 2.91351E-01-4.19271E-14-1.27932E-13
 -1      3436 2.01625E+01 2.84029E-01 3.66018E-06 3.43315E-01-1.84518E-14-9.48681E-14
 -1      3437 2.02254E+01 3.72462E-01 1.74906E-04 2.41059E-01-3.62323E-14-1.04966E-13
 -1      3438 2.01224E+01 2.76384E-01-2.32654E-04 3.86421E-01-5.39724E-14-7.68910E-14
 -1      3439 2.00974E+01 2.79954E-01 5.13536E-04 4.32977E-01-3.34032E-14-1.18394E-13
 -1      3440 2.01526E+01 3.23198E-01 2.55788E-04 3.36388E-01-3.08448E-14-4.55000E-14
 -1      3441 2.00488E+01 2.92705E-01-9.73984E-04 4.74193E-01-8.53725E-15-1.47045E-13
 -1      3442 2.00232E+01 3.14836E-01 8.59438E-04 5.21034E-01 2.11528E-15-1.44636E-13
 -1      3443 2.00655E+01 3.27282E-01 5.30696E-04 4.21510E-01-5.13002E-14-1.05159E-13
 -1      3444 1.99650E+01 3.43061E-01-1.68245E-03 5.64824E-01 2.93920E-14-1.54942E-13
 -1      3445 1.99368E+01 3.79085E-01 1.08623E-03 6.16371E-01 2.37824E-14-1.19632E-13
 -1      3446 1.99629E+01 3.72348E-01 9.59858E-04 5.06032E-01 8.49216E-15-1.54503E-13
 -1      3447 1.98669E+01 4.18367E-01-2.37800E-03 6.66304E-01-4.52608E-14-1.03223E-13
 -1      3448 1.98337E+01 4.63733E-01 1.24504E-03 7.25890E-01-5.13327E-14-1.04496E-13
 -1      3449 1.98412E+01 4.48036E-01 1.51930E-03 5.97704E-01-8.29488E-15-1.53293E-13
 -1      3450 1.97490E+01 5.09258E-01-3.08765E-03 7.84890E-01-5.70700E-14-1.54674E-13
 -1      3451 1.97087E+01 5.58559E-01 1.41274E-03 8.55003E-01-6.45065E-14-1.91334E-13
 -1      3452 1.96947E+01 5.44387E-01 2.20156E-03 7.02703E-01-7.90298E-14-1.76987E-13
 -1      3453 1.96058E+01 6.03995E-01-3.83968E-03 9.25776E-01-4.72391E-14-1.61536E-13
 -1      3454 1.95574E+01 6.49753E-01 1.72239E-03 1.00839E+00-2.42893E-14-1.58751E-13
 -1      3455 1.95168E+01 6.49866E-01 2.97326E-03 8.26348E-01-4.64968E-14-1.58443E-13
 -1      3456 1.94327E+01 6.85861E-01-4.66690E-03 1.09411E+00-4.41944E-14-1.27050E-13
 -1      3457 1.93775E+01 7.17062E-01 2.42033E-03 1.19129E+00-4.91417E-14-1.37269E-13
 -1      3458 1.93003E+01 7.49105E-01 3.77746E-03 9.74285E-01 7.69228E-16-1.09448E-13
 -1      3459 1.92285E+01 7.29934E-01-5.60718E-03 1.29692E+00-1.77288E-14-1.03850E-13
 -1      3460 1.91731E+01 7.30005E-01 3.93013E-03 1.41179E+00-2.95864E-14-8.08605E-14
 -1      3461 1.90390E+01 8.20189E-01 4.48352E-03 1.15462E+00-2.85214E-14-1.26754E-13
 -1      3462 1.90003E+01 6.98565E-01-6.60979E-03 1.54630E+00-7.79203E-14-4.63362E-14
 -1      3463 1.89614E+01 6.42348E-01 6.93274E-03 1.68434E+00-6.59644E-14-2.12060E-14
 -1      3464 1.87305E+01 8.30912E-01 4.82012E-03 1.38188E+00-5.23086E-15-5.34536E-14
 -1      3465 1.87724E+01 5.34973E-01-7.19367E-03 1.86338E+00-4.84133E-14-5.23063E-14
 -1      3466 1.87852E+01 3.85077E-01 1.26523E-02 2.03249E+00-7.08794E-15-1.16314E-13
 -1      3467 1.83810E+01 7.32477E-01 4.25825E-03 1.68296E+00-6.47893E-14 2.87444E-14
 -1      3468 1.86045E+01 1.54374E-01-5.93985E-03 2.28045E+00 7.74842E-14-8.13975E-14
 -1      3469 1.87345E+01-1.41037E-01 2.26627E-02 2.48543E+00 1.77595E-13-1.29581E-13
 -1      3470 1.80162E+01 4.50503E-01 1.98047E-03 2.10380E+00 6.06323E-14 1.32950E-14
 -1      3471 1.86257E+01-5.60290E-01 1.69869E-03 2.82781E+00 1.73128E-13-1.06367E-13
 -1      3472 1.89753E+01-1.06747E+00 3.70790E-02 3.06137E+00 1.94011E-13-2.10869E-13
 -1      3473 1.77155E+01-1.21915E-01 2.70726E-03 2.70715E+00 1.45097E-13-7.73869E-14
 -1      3474 1.88116E+01-1.55499E+00 1.47558E-02 3.44307E+00 2.78676E-13-1.73285E-13
 -1      3475 1.95196E+01-2.29113E+00 5.13347E-02 3.65544E+00 3.04475E-13-1.43449E-13
 -1      3476 1.71522E+01-1.99804E+00 2.86769E-02 4.38789E+00 3.46004E-13-4.97519E-14
 -1      3477 1.74682E+01-9.40021E-01 1.87411E-02 3.46553E+00 2.36368E-13-1.12237E-13
 -1      3478 2.27710E+01-2.20120E+00 2.92533E-02 9.41828E-01-2.08936E-13-4.54419E-14
 -1      3479 2.32281E+01-2.44436E+00-1.66232E-02 5.96168E-01-2.34980E-13 7.12044E-15
 -1      3480 2.24656E+01-3.64436E+00 1.02194E-01-3.00181E+00-1.45598E-13 6.05167E-14
 -1      3481 2.41771E+01-3.93701E+00-8.00083E-02-1.74886E+00-1.38615E-13 5.43619E-14
 -1      3482 2.72600E+01-2.70913E+00-1.29478E-01 1.00093E+00-1.49707E-13-7.72021E-14
 -1      3483 1.90199E+01-1.05185E+00 3.88857E-02-3.03242E+00 1.15779E-13-4.01168E-14
 -1      3484 1.86623E+01-5.33481E-01 6.45388E-03-2.79815E+00 1.43849E-15-8.20056E-14
 -1      3485 1.87535E+01-1.18651E-01 2.17930E-02-2.45720E+00-1.32300E-14-2.25446E-14
 -1      3486 1.86226E+01 1.85430E-01-4.52977E-03-2.24696E+00 2.64581E-14-6.24724E-14
 -1      3487 1.77329E+01-1.09254E-01-2.37293E-03-2.68263E+00-6.64312E-15 2.17230E-13
 -1      3488 1.87954E+01 4.17318E-01 1.24348E-02-1.99604E+00-4.92275E-14 7.99070E-14
 -1      3489 1.87793E+01 5.72419E-01-6.81759E-03-1.82223E+00-8.90059E-14 7.94535E-14
 -1      3490 1.80229E+01 4.81750E-01 1.32633E-03-2.07195E+00 2.51904E-14 4.12148E-13
 -1      3491 1.89609E+01 6.84417E-01 6.78352E-03-1.63784E+00-1.20959E-13 1.00954E-13
 -1      3492 1.89963E+01 7.45733E-01-6.36423E-03-1.49357E+00 1.16613E-14 1.63585E-13
 -1      3493 1.83745E+01 7.76840E-01 4.38188E-03-1.64387E+00-8.09848E-15 4.92397E-13
 -1      3494 1.91616E+01 7.81973E-01 3.73935E-03-1.35225E+00 1.11838E-13-1.09763E-13
 -1      3495 1.92131E+01 7.86850E-01-5.44835E-03-1.22978E+00 1.13524E-14-2.95505E-14
 -1      3496 1.87104E+01 8.86612E-01 5.01779E-03-1.33061E+00-6.17911E-14 2.32925E-13
 -1      3497 1.93537E+01 7.78502E-01 2.17880E-03-1.11633E+00 4.75261E-14-1.37811E-13
 -1      3498 1.94044E+01 7.51776E-01-4.57685E-03-1.01060E+00 1.43446E-13-8.24865E-14
 -1      3499 1.90039E+01 8.86549E-01 4.72224E-03-1.08901E+00 1.01251E-13-1.81741E-14
 -1      3500 1.95193E+01 7.19542E-01 1.44604E-03-9.16416E-01 1.27328E-13-6.49839E-14
 -1      3501 1.95621E+01 6.77272E-01-3.81623E-03-8.24714E-01 6.49748E-14 1.72643E-14
 -1      3502 1.92479E+01 8.24823E-01 4.07658E-03-8.92960E-01 1.64681E-13-2.70808E-13
 -1      3503 1.96536E+01 6.34358E-01 1.12471E-03-7.45240E-01-6.51532E-14 5.93549E-14
 -1      3504 1.96867E+01 5.86583E-01-3.16222E-03-6.66144E-01-1.41356E-13 1.78048E-13
 -1      3505 1.94438E+01 7.32491E-01 3.34170E-03-7.28686E-01 7.80596E-14-1.33164E-13
 -1      3506 1.97580E+01 5.41036E-01 9.83025E-04-5.98907E-01-7.88746E-14 2.94377E-13
 -1      3507 1.97821E+01 4.93741E-01-2.59791E-03-5.31465E-01 1.90342E-13 4.10922E-13
 -1      3508 1.95973E+01 6.29292E-01 2.64444E-03-5.89188E-01-1.96043E-14 3.44647E-13
 -1      3509 1.98366E+01 4.50201E-01 9.01203E-04-4.74926E-01 1.48423E-13 2.95272E-13
 -1      3510 1.98532E+01 4.06678E-01-2.12904E-03-4.18231E-01 1.49407E-14 2.63353E-13
 -1      3511 1.97150E+01 5.27244E-01 2.03883E-03-4.70774E-01 7.14983E-14 3.84312E-13
 -1      3512 1.98943E+01 3.67569E-01 8.20760E-04-3.71250E-01-6.77183E-14 3.63103E-13
 -1      3513 1.99051E+01 3.29588E-01-1.69111E-03-3.24353E-01-8.71512E-14 3.96486E-13
 -1      3514 1.98037E+01 4.33093E-01 1.52036E-03-3.71010E-01 8.35202E-14 4.74319E-13
 -1      3515 1.99353E+01 2.95632E-01 5.88021E-04-2.85639E-01 4.88939E-14 1.09683E-13
 -1      3516 1.99430E+01 2.64198E-01-1.01855E-03-2.47820E-01 8.57705E-14 2.02518E-13
 -1      3517 1.98694E+01 3.50845E-01 1.24272E-03-2.88144E-01-1.45145E-13 4.69073E-13
 -1      3518 1.99840E+01 1.66255E-01-8.20542E-04 1.41181E-01-1.50131E-13 2.93403E-13
 -1      3519 2.00015E+01 1.48971E-01 8.56861E-05 1.41993E-01-4.55222E-13 2.55172E-13
 -1      3520 2.00033E+01 1.55883E-01 1.62468E-04 1.56592E-01-3.99555E-13 3.10295E-13
 -1      3521 1.99664E+01 1.95243E-01 1.32218E-04 1.56094E-01-4.72139E-14 6.39425E-13
 -1      3522 1.99915E+01 3.10658E-01 2.21484E-03-8.16162E-01-6.99488E-15-4.29647E-14
 -1      3523 1.99808E+01 2.98628E-01-1.38567E-03-7.59591E-01 2.19212E-14-3.41478E-14
 -1      3524 2.00696E+01 1.44827E-01 3.67025E-03-1.22711E+00-1.25571E-13 1.02595E-13
 -1      3525 2.00017E+01 2.16091E-01 3.60091E-04-1.16586E+00-9.99833E-14 2.58601E-15
 -1      3526 2.02209E+01-8.47350E-02 4.23977E-03-1.36205E+00-5.21609E-14 1.70568E-13
 -1      3527 2.01079E+01 4.56950E-02 2.45809E-03-1.31371E+00-7.95359E-14 1.31860E-13
 -1      3528 1.98147E+01 1.43005E-01-4.66067E-03-1.32510E+00-1.44627E-13 8.44069E-14
 -1      3529 2.05048E+01-4.55779E-01 4.18263E-03-1.46204E+00-4.25217E-14 1.46253E-13
 -1      3530 2.03252E+01-2.49518E-01 6.00496E-03-1.44294E+00-1.84574E-14 1.73532E-13
 -1      3531 1.99389E+01-1.39193E-01-8.50094E-03-1.51008E+00-4.55082E-14 1.48218E-13
 -1      3532 2.09844E+01-9.86948E-01 2.14235E-03-1.48003E+00-8.27766E-14 1.53005E-13
 -1      3533 2.07159E+01-6.97661E-01 1.15053E-02-1.51706E+00-6.34597E-14 1.63740E-13
 -1      3534 2.02197E+01-5.89796E-01-1.46279E-02-1.67802E+00-5.32913E-14 1.06004E-13
 -1      3535 2.17277E+01-1.64363E+00-6.86417E-04-1.33121E+00-7.39055E-14 2.26720E-13
 -1      3536 2.13558E+01-1.29855E+00 1.95479E-02-1.46873E+00-5.69501E-14 2.31191E-13
 -1      3537 2.07444E+01-1.23248E+00-2.38710E-02-1.77582E+00-9.55679E-14 1.33447E-13
 -1      3538 2.28226E+01-2.25548E+00 9.47086E-03-8.52336E-01-1.95909E-13 3.40933E-13
 -1      3539 2.23225E+01-1.98964E+00 2.97238E-02-1.19004E+00-1.59676E-13 3.00958E-13
 -1      3540 2.16201E+01-2.01985E+00-3.02741E-02-1.70568E+00-1.44728E-13 2.53885E-13
 -1      3541 2.39417E+01-2.78504E+00-1.21352E-03-4.82850E-01-4.34368E-14 1.68006E-13
 -1      3542 2.33770E+01-2.72995E+00 1.47829E-02-9.32607E-01-9.98351E-14 1.84118E-13
 -1      3543 2.51122E+01-1.57489E+00-2.02083E-02 1.20433E+00 1.95292E-13 4.47880E-13
 -1      3544 2.48474E+01-2.25214E+00-2.03816E-02 7.08846E-01 7.83581E-14 3.58848E-13
 -1      3545 2.41769E+01 3.71713E+00-6.60925E-02 3.60563E-01 3.68164E-13-3.55688E-14
 -1      3546 2.17048E+01-1.55224E+00 2.42464E-02 1.36102E+00 1.55421E-14-4.69109E-14
 -1      3547 2.21099E+01-1.90371E+00-4.93845E-03 1.17422E+00-1.20462E-13-3.58324E-14
 -1      3548 2.20909E+01-2.30649E+00-2.61640E-02 1.54427E+00-1.03053E-13-8.36328E-14
 -1      3549 2.09416E+01-8.98039E-01 1.50871E-02 1.48423E+00 4.60569E-16 4.97405E-14
 -1      3550 2.12503E+01-1.22026E+00 1.16401E-03 1.41722E+00 7.28840E-14 8.35303E-14
 -1      3551 2.10542E+01-1.51175E+00-2.29578E-02 1.74807E+00-1.07718E-14-2.27769E-15
 -1      3552 2.04561E+01-3.77059E-01 8.14669E-03 1.43977E+00 1.69435E-13-7.14377E-14
 -1      3553 2.06696E+01-6.21198E-01 3.72835E-03 1.44529E+00 8.81398E-14-3.75498E-14
 -1      3554 2.03905E+01-7.93470E-01-1.70377E-02 1.69715E+00 4.89063E-14 7.59742E-14
 -1      3555 2.01733E+01-1.39999E-02 3.74572E-03 1.31493E+00 2.06035E-13 6.25938E-15
 -1      3556 2.03108E+01-1.77706E-01 4.07504E-03 1.36037E+00 1.90813E-13-9.64189E-14
 -1      3557 2.00166E+01-2.57755E-01-1.06564E-02 1.53827E+00 1.61762E-13 1.39534E-14
 -1      3558 2.00237E+01 2.11465E-01 1.16455E-03 1.15724E+00-1.04682E-13 1.62144E-13
 -1      3559 2.01081E+01 1.13986E-01 3.62915E-03 1.22231E+00 7.41470E-14 9.24195E-14
 -1      3560 1.98309E+01 9.78031E-02-5.96765E-03 1.34386E+00 7.24514E-14 2.89404E-13
 -1      3561 1.99552E+01 3.32115E-01-2.97774E-04 9.91819E-01-2.13706E-13 1.75679E-13
 -1      3562 2.00054E+01 2.83430E-01 3.01114E-03 1.06439E+00-1.85611E-13 1.38557E-13
 -1      3563 1.97598E+01 3.07925E-01-2.97906E-03 1.14690E+00-1.55706E-13 3.16631E-13
 -1      3564 1.99327E+01 3.79630E-01-1.06084E-03 8.31986E-01-1.82771E-13 2.88727E-13
 -1      3565 1.99622E+01 3.64117E-01 2.46396E-03 9.04709E-01-1.88672E-13 2.93499E-13
 -1      3566 1.97531E+01 4.12216E-01-1.20962E-03 9.61738E-01-2.39547E-13 1.52490E-13
 -1      3567 1.99340E+01 3.80010E-01-1.39554E-03 6.84819E-01-3.00896E-13 5.22134E-14
 -1      3568 1.99516E+01 3.85310E-01 2.04073E-03 7.53331E-01-2.06004E-13 1.53883E-13
 -1      3569 1.97789E+01 4.44835E-01-2.37182E-04 7.94145E-01-2.07193E-13 2.19968E-13
 -1      3570 1.99459E+01 3.52803E-01-1.47080E-03 5.53846E-01-2.65494E-13-2.61260E-14
 -1      3571 1.99569E+01 3.69826E-01 1.71928E-03 6.15707E-01-3.22587E-13-2.55455E-14
 -1      3572 1.98179E+01 4.32470E-01 2.45138E-04 6.46196E-01-1.88925E-13 7.91217E-14
 -1      3573 1.99609E+01 3.11843E-01-1.39635E-03 4.40354E-01-1.84867E-13 8.14382E-15
 -1      3574 1.99683E+01 3.34273E-01 1.46724E-03 4.94455E-01-2.40917E-13-1.19686E-13
 -1      3575 1.98593E+01 3.94685E-01 4.46228E-04 5.18211E-01-1.80589E-13-5.09007E-14
 -1      3576 1.99751E+01 2.66329E-01-1.23644E-03 3.44172E-01 7.31763E-14 2.68489E-13
 -1      3577 1.99807E+01 2.90019E-01 1.26065E-03 3.90256E-01-6.18252E-14 1.65637E-13
 -1      3578 1.98972E+01 3.45019E-01 4.70248E-04 4.09410E-01-2.03992E-13 2.88069E-14
 -1      3579 1.99868E+01 2.21734E-01-1.17245E-03 2.64638E-01 6.53110E-14 3.15027E-13
 -1      3580 1.99915E+01 2.43962E-01 9.43384E-04 3.02558E-01 1.59199E-13 4.07895E-13
 -1      3581 1.99293E+01 2.92376E-01 4.32451E-04 3.18307E-01-1.65027E-14 4.13284E-13
 -1      3582 1.76521E+01-2.30256E+00 1.07522E-01-4.49718E+00-3.09350E-13-2.53063E-13
 -1      3583 1.97844E+01-3.45786E+00-1.00727E-01-4.19789E+00-2.57679E-13-7.40866E-14
 -1      3584 2.02287E+01 1.62421E+00 1.54411E-03-6.59535E-01-1.46878E-13-2.55327E-13
 -1      3585 2.51505E+01-2.75728E+00-5.02201E-02-1.63204E-01-3.28175E-14 4.87384E-14
 -1      3586 2.47315E+01-3.44141E+00 6.37546E-02 1.03616E+00-1.46542E-13 1.03792E-13
 -1      3587 1.99123E+01 2.62613E-01 4.35267E-04-1.61813E-01-1.52541E-13 3.44629E-14
 -1      3588 1.98855E+01 2.79528E-01-1.29489E-03-1.41248E-01-1.46198E-13 3.98521E-14
 -1      3589 2.00146E+01 2.84763E-01 1.89434E-03-7.03081E-01 9.70675E-15-8.06175E-14
 -1      3590 2.00110E+01 2.67186E-01-1.23773E-03-6.52522E-01 4.31415E-15-7.70179E-14
 -1      3591 1.99150E+01 3.38817E-01-6.89973E-05-7.19484E-01 1.06057E-15-1.34385E-13
 -1      3592 1.38722E+01-5.51786E-01 1.11345E-01-3.73901E+00-2.12880E-13-5.69406E-13
 -1      3593 1.53875E+01-1.56235E+00-3.37023E-02-4.40688E+00-2.84779E-13-4.78347E-13
 -1      3594 2.02990E+01 9.33976E-01 4.64866E-04 3.92067E-01 1.39554E-13-1.62122E-13
 -1      3595 2.02879E+01 1.10951E+00-1.97020E-03 4.31116E-01 1.31505E-13-1.81441E-13
 -1      3596 2.02754E+01 7.59019E-01-6.82769E-04 2.37776E-01 1.16239E-13-1.34720E-13
 -1      3597 2.01187E+01 2.14933E-01 7.70329E-04-4.29887E-01-2.57980E-14-1.28344E-13
 -1      3598 2.01306E+01 2.20988E-01 2.65090E-04-3.85222E-01-1.45793E-14-9.29862E-14
 -1      3599 2.02613E+01 1.42040E+00 1.15010E-03-4.92871E-01-1.26628E-13-2.55559E-13
 -1      3600 2.56182E+01-8.75712E-01-4.14813E-02 1.79526E+00 3.07445E-13 4.42354E-13
 -1      3601 2.40873E+01-2.49809E+00 2.51889E-02 6.02290E-02-1.87594E-13 8.50708E-15
 -1      3602 2.44807E+01-2.32959E+00-2.30453E-02-4.37960E-01-4.63689E-14-2.48647E-14
 -1      3603 2.02016E+01 3.01447E-01-5.20544E-04-2.33852E-01 3.88156E-14-1.10922E-13
 -1      3604 2.02245E+01 3.56577E-01 1.58483E-03-1.66827E-01 5.47455E-14-1.32124E-13
 -1      3605 2.03120E+01 8.16502E-01-5.09927E-04-1.72930E-01-1.22695E-13-2.18870E-13
 -1      3606 2.02932E+01 6.71598E-01-3.16870E-03-5.53114E-02-9.27636E-14-2.04820E-13
 -1      3607 2.00017E+01 2.65956E-01 3.07844E-03-1.08296E+00-4.32192E-14-1.61212E-14
 -1      3608 1.99625E+01 2.95404E-01-7.68945E-04-1.01860E+00-7.90187E-14-2.28252E-14
 -1      3609 1.97843E+01 2.96297E-01-2.31794E-03-1.14671E+00-1.12454E-13 3.10154E-14
 -1      3610 1.23397E+01 1.06904E-01 4.31098E-02 2.55934E+00 1.72936E-13-4.04614E-13
 -1      3611 1.14204E+01 5.93050E-01 5.88475E-02 1.05509E+00 1.66143E-13-4.84349E-13
 -1      3612 2.01594E+01 2.36102E-01 1.83230E-04-3.40210E-01-1.63680E-14-7.02183E-14
 -1      3613 2.01771E+01 2.62661E-01 1.02179E-03-2.88075E-01 3.12878E-14-8.09022E-14
 -1      3614 2.01653E+01 2.70541E-01-3.90630E-04-3.43660E-01 2.10114E-15-8.36570E-14
 -1      3615 2.00244E+01 2.27021E+00-3.55705E-03-1.52166E-01-1.16230E-14-2.70953E-13
 -1      3616 2.00384E+01 2.23161E+00-4.26264E-03-2.67717E-01-4.50133E-14-2.92458E-13
 -1      3617 2.01515E+01 1.92870E+00 5.69131E-03-2.61769E-01-4.56900E-14-2.69328E-13
 -1      3618 1.99829E+01 3.11804E-01 2.59420E-03-9.43636E-01-8.64434E-14-2.05679E-14
 -1      3619 1.99614E+01 3.14523E-01-1.27571E-03-8.81781E-01-2.77412E-14-1.52550E-14
 -1      3620 1.98548E+01 3.64789E-01-3.22375E-04-8.42450E-01-3.20014E-14 3.70800E-15
 -1      3621 1.98063E+01 3.59271E-01-9.87575E-04-9.84754E-01-1.04866E-13-3.74622E-14
 -1      3622 2.54349E+01 3.02701E-01-1.09078E-01-2.15558E+00 3.07723E-14-8.37073E-14
 -1      3623 2.53642E+01 1.82948E+00-8.73169E-03-2.14500E+00 1.40304E-13-8.61047E-14
 -1      3624 2.02928E+01 5.54247E-01 2.26200E-03 2.66389E-02-8.67721E-14-1.88112E-13
 -1      3625 2.02655E+01 4.60776E-01-1.72442E-03 1.12074E-01-8.82523E-14-1.76253E-13
 -1      3626 2.02811E+01 4.91643E-01 3.97595E-04 1.24085E-01-7.17288E-14-1.35432E-13
 -1      3627 2.33070E+01-3.95448E+00-7.05621E-02 2.39368E+00-5.88349E-14 1.08474E-13
 -1      3628 2.17415E+01-3.60966E+00 8.17201E-02 3.44084E+00-5.61244E-14 1.75648E-13
 -1      3629 2.06239E+01-2.93873E+00 4.46989E-02 3.44225E+00-3.23491E-14 1.86680E-13
 -1      3630 2.35329E+01-3.34066E+00-8.22519E-04 1.55264E+00-8.58411E-14 1.00675E-13
 -1      3631 1.48105E+01-9.44640E-01 3.63097E-02 3.81949E+00 2.86937E-13-1.61288E-13
 -1      3632 2.45769E+01-3.13793E+00 3.64663E-03-6.32514E-01-7.12295E-14 1.33157E-13
 -1      3633 1.67703E+01-1.52872E+00 8.83991E-02-4.13309E+00 1.20187E-13 2.63699E-13
 -1      3634 1.84577E+01-2.51364E+00-5.93191E-02-4.13572E+00 5.87932E-14 2.51996E-13
 -1      3635 1.61118E+01-8.15971E-01 5.67909E-02-3.55563E+00 6.52985E-14 2.04330E-13
 -1      3636 2.55126E+01-1.08532E+00-1.13466E-02-1.50627E+00 3.75706E-14-1.98262E-14
 -1      3637 2.52536E+01-1.99949E+00-1.77777E-02-1.02519E+00 4.57863E-14-4.96461E-14
 -1      3638 2.02081E+01 1.76127E+00 8.46802E-03 4.27803E-01 9.24498E-14-2.67170E-13
 -1      3639 2.01262E+01 2.00557E+00 5.37841E-03-8.68568E-02 1.11652E-14-2.56722E-13
 -1      3640 1.61938E+01-1.16157E+00 7.57155E-02 3.99750E+00-1.75063E-13 1.63008E-13
 -1      3641 1.53199E+01-5.57031E-01 2.72254E-03 3.36839E+00-1.83695E-13 1.97248E-13
 -1      3642 1.76607E+01-1.62820E+00 1.75254E-02 3.76249E+00-6.78121E-14 2.53113E-13
 -1      3643 2.02256E+01 1.56982E+00-1.57384E-03-3.03162E-01-6.80754E-14-2.20537E-13
 -1      3644 2.02457E+01 1.47939E+00-1.46021E-03-3.65627E-01-1.08672E-13-2.12776E-13
 -1      3645 1.18498E+01 8.22144E-01 8.22011E-02 1.60951E-01 1.55601E-13-5.01304E-13
 -1      3646 1.24399E+01 7.49345E-01-2.91076E-02-7.57264E-01 1.33440E-13-4.17825E-13
 -1      3647 1.28762E+01 8.31203E-01 3.51504E-02 8.22817E-01 1.74582E-13-4.76619E-13
 -1      3648 2.35620E+01-2.91282E+00-3.52170E-02 8.75362E-01-1.95430E-13-3.45470E-14
 -1      3649 2.12793E+01-3.13408E+00 2.64799E-02-3.13511E+00-1.89713E-13-8.20897E-14
 -1      3650 1.71728E+01-1.59594E+00 6.04055E-02-3.94842E+00-2.71708E-13-2.95236E-13
 -1      3651 1.89792E+01-1.62938E+00 2.84085E-02-3.45328E+00 2.04119E-13 2.27353E-14
 -1      3652 1.75460E+01-1.08298E+00-8.66248E-03-3.50426E+00 7.76774E-14 7.64475E-14
 -1      3653 2.02989E+01 1.05615E+00-8.65983E-04-2.47071E-01-1.18365E-13-2.13372E-13
 -1      3654 2.03099E+01 1.06175E+00-3.78317E-05-1.90021E-01-9.88556E-14-1.96939E-13
 -1      3655 1.99668E+01 2.37931E-01 4.42238E-04-2.26503E-01 1.94672E-14 1.96673E-13
 -1      3656 1.99734E+01 2.13463E-01-4.93505E-04-1.99066E-01-5.34139E-14 6.90279E-14
 -1      3657 1.99569E+01 2.27048E-01-6.90775E-05-1.90948E-01-9.80874E-14 3.23010E-14
 -1      3658 1.99198E+01 2.82738E-01 8.38554E-04-2.30882E-01-3.60062E-14 1.59866E-13
 -1      3659 2.02713E+01 1.24921E+00-2.34577E-03 3.97942E-01 1.07536E-13-1.83954E-13
 -1      3660 2.01825E+01 1.73310E+00-3.47101E-03 1.16699E-01 2.90897E-14-2.62029E-13
 -1      3661 2.01772E+01 1.75440E+00-2.89835E-03 3.44640E-02 1.38883E-14-2.73967E-13
 -1      3662 2.27281E+01-2.92059E+00 7.10493E-03-1.74955E+00-1.39883E-13 8.64413E-14
 -1      3663 1.61768E+01-6.30859E-01 2.56117E-02 3.37434E+00 3.10045E-13-9.19282E-14
 -1      3664 1.39059E+01-1.93441E-01 7.38651E-02 3.17510E+00 2.43108E-13-1.93626E-13
 -1      3665 1.39104E+01 2.80701E-01 1.44019E-02 2.38223E+00 2.66689E-13-2.41404E-13
 -1      3666 1.63117E+01-2.94264E-01-2.31449E-02 2.99487E+00 2.34338E-13-1.21313E-13
 -1      3667 2.47635E+01 3.02427E+00-1.22201E-01-1.73468E+00 2.42015E-13-1.17654E-13
 -1      3668 2.47793E+01 4.10118E+00-3.55700E-02-1.03836E+00 3.67095E-13-1.59431E-13
 -1      3669 2.02095E+01 1.62976E+00-5.03438E-03 2.55903E-01 5.19555E-14-2.99868E-13
 -1      3670 2.01940E+01 1.69514E+00-2.59188E-03 1.77168E-01 3.42890E-14-2.73958E-13
 -1      3671 2.02603E+01 1.49223E+00 5.43609E-03 1.11541E-01 3.53112E-14-2.49702E-13
 -1      3672 1.99960E+01 1.82842E-01-5.98967E-04 1.98998E-01 2.41800E-14 3.20155E-13
 -1      3673 1.99995E+01 2.02130E-01 8.11180E-04 2.30262E-01 8.83309E-14 3.95738E-13
 -1      3674 2.00063E+01 1.63136E-01 2.99199E-04 1.72924E-01-1.55213E-13 2.32983E-13
 -1      3675 1.98361E+01 3.19054E-01-3.20118E-04-4.58910E-02-3.66797E-14 1.62983E-13
 -1      3676 1.98309E+01 3.21697E-01-6.30704E-04-1.39114E-02-1.37944E-15 4.55103E-14
 -1      3677 1.98320E+01 3.19543E-01-7.11889E-04 2.46288E-02 2.00411E-13-1.22893E-13
 -1      3678 1.98391E+01 3.14191E-01-2.38286E-04 5.60710E-02 2.58147E-13-4.40237E-13
 -1      3679 1.98035E+01 3.53735E-01 1.15238E-03 6.85164E-03 1.89734E-13-2.56623E-13
 -1      3680 1.98520E+01 3.19761E-01 6.11178E-04-1.41029E-01-1.46777E-13 3.73488E-14
 -1      3681 1.98636E+01 3.00098E-01 2.11984E-04-1.10813E-01-1.69879E-13 8.35144E-14
 -1      3682 1.98468E+01 3.09941E-01-9.68005E-04-8.23524E-02-1.54860E-13 2.87680E-13
 -1      3683 1.99790E+01 3.01377E-01-4.49940E-05-6.13438E-01-1.55919E-14-1.56332E-13
 -1      3684 2.00454E+01 2.51281E-01 1.57849E-03-6.03749E-01 5.54391E-15-9.37135E-14
 -1      3685 2.00471E+01 2.35440E-01-8.94784E-04-5.58236E-01-3.59795E-15-1.70047E-13
 -1      3686 1.29448E+01 6.79442E-01 9.33782E-02-1.78941E+00 7.75300E-14 2.05412E-13
 -1      3687 1.43641E+01 3.67078E-01 1.90228E-02-2.30200E+00 1.62610E-13 1.81473E-13
 -1      3688 1.30988E+01 8.47285E-01 4.97795E-03-8.64242E-01 5.21493E-14 1.67096E-13
 -1      3689 1.36239E+01-2.33828E-02 6.08928E-02-2.78153E+00-4.40134E-14-4.79582E-13
 -1      3690 2.00872E+01 2.16102E-01-3.88649E-04-4.71720E-01-2.19297E-14-1.62839E-13
 -1      3691 2.01055E+01 2.53686E-01-2.77762E-04-4.32982E-01-4.49612E-15-1.60450E-13
 -1      3692 2.00805E+01 2.23987E-01 1.21899E-03-5.14740E-01-8.29404E-15-1.49606E-13
 -1      3693 2.02371E+01 4.10196E-01-1.09600E-03-1.07163E-01 7.32868E-14-1.52225E-13
 -1      3694 2.02556E+01 4.79528E-01 2.23190E-03-3.17328E-02 6.35695E-14-1.22041E-13
 -1      3695 2.02633E+01 4.42916E-01-6.83544E-05-1.23403E-01 5.18009E-14-1.51039E-13
 -1      3696 1.26541E+01 6.58010E-01 8.82845E-02 1.72712E+00-1.77689E-13 2.39482E-13
 -1      3697 1.30257E+01 8.44619E-01 6.39289E-03 8.74778E-01-2.79325E-14 1.14197E-13
 -1      3698 1.38900E+01 3.41308E-01-5.74512E-03 2.31135E+00-2.07499E-13 2.53964E-15
 -1      3699 2.02211E+01 3.33495E-01-4.16781E-04-2.41140E-01 1.27370E-14-1.15853E-13
 -1      3700 2.45486E+01 4.27178E+00-7.87407E-02-6.43619E-02 3.44280E-13-9.73275E-14
 -1      3701 1.99540E+01 2.15593E-01-7.01951E-04 1.80842E-01 2.66381E-14 6.86530E-13
 -1      3702 1.99766E+01 1.96912E-01 3.61708E-04 1.84194E-01-7.70749E-14 7.72926E-13
 -1      3703 2.03136E+01 6.94632E-01-9.25600E-04-2.51879E-02-9.23489E-14-1.96657E-13
 -1      3704 1.99214E+01 2.47928E-01 8.11578E-04 1.67337E-01 8.54914E-15 2.22347E-13
 -1      3705 1.99256E+01 2.50050E-01-4.22302E-04 1.97845E-01-7.36700E-14 5.13655E-13
 -1      3706 2.02932E+01 1.25354E+00 1.09671E-03-3.73399E-01-1.19080E-13-2.38542E-13
 -1      3707 1.99548E+01 2.43950E-01 8.17835E-04 2.43703E-01 7.50987E-14 7.66535E-13
 -1      3708 1.98940E+01 2.65562E-01-1.24665E-03 1.48338E-01 2.56856E-13-2.30390E-13
 -1      3709 2.10190E+01-3.08030E+00 1.15509E-01-3.64755E+00 4.26881E-14-5.30583E-14
 -1      3710 1.96588E+01-2.40511E+00 4.98134E-02-3.66171E+00 1.75290E-13 1.08507E-14
 -1      3711 1.99396E+01 2.37764E-01-7.99630E-04-1.80307E-01-1.68875E-13-9.46312E-14
 -1      3712 1.99081E+01 2.77397E-01 2.29984E-04-1.91610E-01-7.55624E-14 2.66036E-14
 -1      3713 2.02064E+01 1.63965E+00-4.14235E-03-2.48839E-01-4.78287E-14-2.59685E-13
 -1      3714 2.02823E+01 1.38640E+00 6.05335E-03-2.09232E-01-5.24016E-14-2.10762E-13
 -1      3715 2.01922E+01 1.70056E+00-2.46320E-03-1.73121E-01-1.61665E-14-2.45375E-13
 -1      3716 2.01776E+01 3.60747E-01-1.71621E-04 2.74067E-01-1.05556E-14-7.25436E-14
 -1      3717 2.01363E+01 3.48742E-01-2.96437E-04 3.18202E-01-2.44469E-14-6.73122E-14
 -1      3718 2.00784E+01 3.50029E-01-7.68272E-04 3.51993E-01-4.49573E-14-6.04085E-14
 -1      3719 2.00306E+01 3.63234E-01 1.65302E-05 3.93024E-01-2.62295E-14-7.18602E-14
 -1      3720 2.01050E+01 3.86861E-01 1.04908E-03 2.90565E-01-2.64742E-14-6.09045E-14
 -1      3721 1.99588E+01 3.86078E-01-1.38990E-03 4.26298E-01-2.33977E-14-5.75840E-14
 -1      3722 1.99030E+01 4.18620E-01 1.67899E-04 4.68307E-01-2.57619E-15-9.56623E-14
 -1      3723 1.99776E+01 4.11394E-01 1.36695E-03 3.56063E-01-3.07273E-14-5.46192E-14
 -1      3724 1.98158E+01 4.57670E-01-2.04197E-03 5.04018E-01 1.15776E-14-1.37285E-13
 -1      3725 1.97495E+01 5.04346E-01 1.88719E-04 5.50219E-01-3.74294E-14-1.33638E-13
 -1      3726 1.98232E+01 4.77440E-01 1.89393E-03 4.21912E-01-3.40307E-14-8.57665E-14
 -1      3727 1.96438E+01 5.54462E-01-2.75074E-03 5.90720E-01-7.24833E-14-1.16533E-13
 -1      3728 1.95638E+01 6.10003E-01 1.36157E-04 6.43615E-01-5.93168E-14-1.00512E-13
 -1      3729 1.96368E+01 5.73805E-01 2.60950E-03 4.92966E-01-4.82022E-14-9.41112E-14
 -1      3730 1.94350E+01 6.65541E-01-3.58632E-03 6.91015E-01-3.59902E-14-1.18417E-13
 -1      3731 1.93376E+01 7.23709E-01 9.42548E-05 7.52925E-01-1.17262E-14-9.55297E-14
 -1      3732 1.94109E+01 6.89590E-01 3.57719E-03 5.73043E-01-3.57378E-14-4.23650E-14
 -1      3733 1.91796E+01 7.77341E-01-4.66764E-03 8.09713E-01 6.14878E-16-1.09774E-13
 -1      3734 1.90618E+01 8.29936E-01 2.01620E-04 8.83482E-01-5.35596E-15-1.04480E-13
 -1      3735 1.91349E+01 8.12259E-01 4.80735E-03 6.66098E-01-1.64327E-15-8.93411E-14
 -1      3736 1.88665E+01 8.71714E-01-6.19349E-03 9.53576E-01-5.28489E-15-1.18035E-13
 -1      3737 1.87265E+01 9.07656E-01 7.19498E-04 1.04405E+00 8.13667E-15-6.98579E-14
 -1      3738 1.87953E+01 9.26011E-01 6.27061E-03 7.77748E-01 5.57925E-15-1.36927E-13
 -1      3739 1.84834E+01 9.23690E-01-8.48355E-03 1.13500E+00 1.90065E-14-4.19736E-14
 -1      3740 1.83228E+01 9.27523E-01 2.15221E-03 1.25154E+00-3.80777E-15-2.05655E-14
 -1      3741 1.83754E+01 1.01102E+00 8.12856E-03 9.18379E-01 4.33635E-14-9.33771E-14
 -1      3742 1.80175E+01 8.97656E-01-1.18836E-02 1.37842E+00-8.21476E-14-5.27561E-14
 -1      3743 1.78459E+01 8.46045E-01 5.42808E-03 1.53848E+00-6.64050E-14-6.02643E-14
 -1      3744 1.78531E+01 1.04100E+00 1.06984E-02 1.10916E+00-5.60696E-14-1.07219E-13
 -1      3745 1.74597E+01 7.40553E-01-1.60607E-02 1.72843E+00 4.34674E-14-9.76260E-14
 -1      3746 1.72977E+01 5.97126E-01 1.25147E-02 1.96328E+00 1.00357E-13-1.21953E-13
 -1      3747 1.71979E+01 9.76033E-01 1.40226E-02 1.39084E+00-2.36975E-14-1.14279E-13
 -1      3748 1.68797E+01 3.79791E-01-2.37323E-02 2.24015E+00 1.30709E-13-1.12682E-13
 -1      3749 1.67772E+01 8.48160E-02 1.93123E-02 2.59169E+00 1.69676E-13-1.08421E-13
 -1      3750 1.56647E+01 3.47941E-01 3.97867E-02 2.45492E+00 2.20997E-13-1.36607E-13
 -1      3751 1.64480E+01 7.74841E-01 2.12048E-02 1.81345E+00 7.84239E-14-2.48732E-13
 -1      3752 2.03038E+01 1.11797E+00-3.67338E-03-1.61667E-01-7.31440E-14-1.85400E-13
 -1      3753 2.03351E+01 9.04954E-01 4.66248E-03-1.01812E-01-6.99383E-14-1.69355E-13
 -1      3754 2.03169E+01 1.01577E+00 5.22765E-03 2.63680E-01 9.05148E-14-1.74557E-13
 -1      3755 2.02625E+01 1.35867E+00-4.89301E-03 3.59193E-01 9.41635E-14-2.19596E-13
 -1      3756 1.73070E+01 6.33078E-01 1.45505E-02-1.94191E+00 3.76737E-14 3.12279E-13
 -1      3757 1.74562E+01 7.81618E-01-1.52405E-02-1.70628E+00 4.44727E-14 3.49006E-13
 -1      3758 1.78343E+01 8.92628E-01 6.03220E-03-1.50854E+00-5.67293E-15 2.59464E-13
 -1      3759 1.79980E+01 9.49968E-01-1.15550E-02-1.34326E+00-6.03202E-14 2.63915E-13
 -1      3760 1.71758E+01 1.02328E+00 1.27831E-02-1.36874E+00-4.02005E-14 1.80146E-13
 -1      3761 1.82941E+01 9.85541E-01 2.09945E-03-1.21072E+00-1.55907E-13 2.35942E-13
 -1      3762 1.84477E+01 9.87678E-01-8.32471E-03-1.08771E+00-4.75545E-14 1.13627E-13
 -1      3763 1.78191E+01 1.10144E+00 1.11072E-02-1.07810E+00-7.76474E-14-6.40633E-14
 -1      3764 1.86806E+01 9.77143E-01 5.60341E-04-9.90282E-01-6.85767E-14 3.72483E-14
 -1      3765 1.88127E+01 9.46487E-01-6.15886E-03-8.92606E-01-2.16176E-14-5.09235E-14
 -1      3766 1.83229E+01 1.08395E+00 8.52444E-03-8.75498E-01-1.71921E-13 1.07533E-13
 -1      3767 1.89961E+01 9.09438E-01-4.25666E-05-8.15661E-01 5.45236E-14-1.60617E-13
 -1      3768 1.91044E+01 8.61169E-01-4.71383E-03-7.34331E-01 1.17082E-13-2.89357E-13
 -1      3769 1.87213E+01 1.00979E+00 6.64379E-03-7.22271E-01-6.77549E-14-1.96346E-14
 -1      3770 1.92485E+01 8.11002E-01-1.81747E-04-6.70533E-01 2.11922E-13-3.20552E-13
 -1      3771 1.93344E+01 7.55320E-01-3.71091E-03-6.01112E-01 1.71908E-13-1.51641E-13
 -1      3772 1.90356E+01 9.04555E-01 5.19131E-03-5.97813E-01 1.43760E-13-1.00031E-13
 -1      3773 1.94470E+01 7.00756E-01-1.18667E-04-5.46892E-01 2.08793E-13 3.13940E-14
 -1      3774 1.95135E+01 6.44244E-01-2.97302E-03-4.87281E-01 1.94077E-13 2.05451E-13
 -1      3775 1.92819E+01 7.86328E-01 4.05044E-03-4.92195E-01 3.41348E-13-1.23677E-14
 -1      3776 1.96009E+01 5.90737E-01 9.45314E-06-4.40963E-01 3.28717E-14 4.15925E-13
 -1      3777 1.96511E+01 5.37405E-01-2.44338E-03-3.90060E-01 6.93119E-14 3.92910E-13
 -1      3778 1.94735E+01 6.67172E-01 3.13858E-03-4.01014E-01 2.69507E-13 1.55662E-13
 -1      3779 1.97186E+01 4.88373E-01 2.08106E-04-3.50903E-01 9.92065E-14 2.87429E-13
 -1      3780 1.97553E+01 4.40298E-01-2.10056E-03-3.07922E-01 6.18013E-14 2.52009E-13
 -1      3781 1.96216E+01 5.54576E-01 2.43140E-03-3.22289E-01-8.27454E-15 2.89130E-13
 -1      3782 1.98072E+01 3.96802E-01 1.86728E-04-2.74901E-01-1.29029E-13 3.83146E-13
 -1      3783 1.98352E+01 3.56342E-01-1.06793E-03-2.39268E-01-1.47982E-13 2.66421E-13
 -1      3784 1.97335E+01 4.54240E-01 1.89049E-03-2.55516E-01-4.07795E-14 6.96118E-14
 -1      3785 1.98837E+01 3.04778E-01-7.20940E-04-2.10069E-01-4.92149E-14 1.95720E-13
 -1      3786 1.99100E+01-5.80937E-01 1.04815E-02-1.86157E+00-7.20339E-14 1.84716E-14
 -1      3787 1.97044E+01-3.11153E-01 4.54149E-03-1.76924E+00-3.05616E-14 8.42666E-14
 -1      3788 2.17598E+01-2.90469E+00-3.13075E-02-2.43333E+00-1.55778E-13-1.09761E-13
 -1      3789 2.13498E+01-2.28811E+00-1.26066E-02-2.18758E+00-1.99379E-13 5.64236E-14
 -1      3790 2.09009E+01-1.76943E+00 2.85166E-02-2.19639E+00-1.35465E-13 3.86672E-14
 -1      3791 1.99127E+01-2.25620E+00 5.84032E-02-3.34931E+00-2.06564E-13-1.62357E-13
 -1      3792 2.01769E+01 1.75532E+00-2.91072E-03-2.95205E-02 2.27740E-14-2.62617E-13
 -1      3793 2.01820E+01 1.73582E+00-3.38432E-03-1.11495E-01 4.38576E-15-2.41768E-13
 -1      3794 2.02598E+01 1.49661E+00 5.79872E-03-1.09288E-01-1.79927E-15-2.30834E-13
 -1      3795 2.02517E+01 1.53123E+00 5.48119E-03 1.74401E-03 2.18555E-14-2.67646E-13
 -1      3796 1.96518E+01-9.37307E-02 8.56342E-03-1.61131E+00-8.39565E-14 2.14987E-14
 -1      3797 1.95461E+01 7.47416E-02 5.26590E-04-1.51094E+00-1.07629E-13 2.68355E-14
 -1      3798 1.92426E+01-1.16435E-01-8.77708E-03-1.77841E+00-1.11093E-13-7.86932E-14
 -1      3799 2.26901E+01-2.99723E+00 4.63329E-02 1.96757E+00-1.47182E-13-3.59673E-14
 -1      3800 1.95634E+01 2.06264E-01 6.14653E-03-1.37462E+00-1.24898E-13 1.59031E-14
 -1      3801 1.95209E+01 2.99333E-01-1.31531E-03-1.27868E+00-1.45236E-13 3.65638E-14
 -1      3802 1.92225E+01 2.28312E-01-4.15079E-03-1.46556E+00-9.44120E-14-1.00617E-13
 -1      3803 2.04362E+01-1.29672E+00 7.43852E-03-2.08403E+00-9.32965E-14 1.53271E-14
 -1      3804 2.00933E+01-8.99945E-01 1.35350E-02-2.02562E+00-9.75303E-14 2.59884E-14
 -1      3805 1.94384E+01-6.81636E-01-1.80424E-02-2.14126E+00-9.53305E-14-3.49768E-14
 -1      3806 2.02831E+01 6.96431E-01 2.22329E-03 1.66116E-01 9.31638E-14-1.31046E-13
 -1      3807 2.02979E+01 8.21446E-01-1.94127E-03 2.03283E-01 1.00173E-13-1.46989E-13
 -1      3808 2.03114E+01 9.27730E-01-9.18459E-04 1.84896E-01 8.93388E-14-1.66856E-13
 -1      3809 2.02648E+01 5.89523E-01-1.59573E-03 6.39381E-02 6.71394E-14-1.28621E-13
 -1      3810 1.98188E+01 4.00190E-01 1.77098E-03-7.05083E-01-6.20858E-14-1.14019E-13
 -1      3811 1.98481E+01 3.76926E-01-1.80516E-03-6.48795E-01-5.36160E-14-1.88866E-13
 -1      3812 1.95667E+01-1.07079E-02 1.61771E-03 1.57056E+00 1.29473E-13 1.92530E-13
 -1      3813 1.97101E+01-2.22576E-01 8.75803E-03 1.67549E+00 1.48028E-13 1.56011E-13
 -1      3814 1.94867E+01 2.83766E-01-8.22346E-04 1.31418E+00-2.30648E-14 3.34917E-13
 -1      3815 1.95549E+01 1.57950E-01 6.68066E-03 1.41919E+00 8.62709E-14 2.31853E-13
 -1      3816 1.91806E+01 1.67750E-01-5.79703E-03 1.54396E+00 6.39297E-14 3.76188E-13
 -1      3817 1.94977E+01 4.43692E-01-1.87077E-03 1.08748E+00-1.42414E-13 3.61646E-13
 -1      3818 1.95205E+01 3.79630E-01 4.65970E-03 1.18531E+00-1.64833E-14 3.87226E-13
 -1      3819 1.92107E+01 4.22435E-01-2.24683E-03 1.25326E+00-3.60138E-14 3.49565E-13
 -1      3820 1.95537E+01 5.09751E-01-2.24324E-03 8.91221E-01-2.70170E-13 3.22607E-13
 -1      3821 1.95518E+01 4.87882E-01 3.23012E-03 9.79314E-01-2.61244E-13 2.95410E-13
 -1      3822 1.92990E+01 5.48835E-01-2.95829E-04 1.01339E+00-1.56825E-13 4.53864E-13
 -1      3823 1.96275E+01 5.14366E-01-2.28110E-03 7.23169E-01-8.33869E-14 1.12822E-13
 -1      3824 1.96138E+01 5.19473E-01 2.26777E-03 8.00895E-01-1.39499E-13 2.63196E-13
 -1      3825 1.94099E+01 5.88549E-01 6.90815E-04 8.15948E-01-1.14662E-13 4.35864E-13
 -1      3826 1.97033E+01 4.81870E-01-2.15032E-03 5.80485E-01-1.51010E-13 5.76629E-14
 -1      3827 1.96855E+01 5.02753E-01 1.64536E-03 6.47946E-01-1.39271E-13 9.79837E-15
 -1      3828 1.95230E+01 5.73195E-01 1.11647E-03 6.53115E-01-1.21454E-13 8.64975E-14
 -1      3829 1.97732E+01 4.29704E-01-1.94973E-03 4.60499E-01-2.16924E-13-7.88505E-14
 -1      3830 1.97554E+01 4.58444E-01 1.25015E-03 5.18140E-01-1.53962E-13-2.09801E-14
 -1      3831 1.96277E+01 5.25745E-01 1.22093E-03 5.18731E-01-1.28727E-13 1.18129E-14
 -1      3832 1.98334E+01 3.70009E-01-1.66722E-03 3.60475E-01-2.61358E-13 5.93135E-14
 -1      3833 1.98178E+01 4.01439E-01 1.09078E-03 4.09281E-01-2.40370E-13 2.10974E-14
 -1      3834 1.97189E+01 4.62348E-01 1.10483E-03 4.08247E-01-3.33642E-13-6.88786E-15
 -1      3835 1.98817E+01 3.10775E-01-1.47854E-03 2.77543E-01-5.10325E-14 4.56891E-13
 -1      3836 1.98701E+01 3.41299E-01 1.07075E-03 3.19042E-01-2.02236E-13 1.73076E-13
 -1      3837 1.97943E+01 3.93671E-01 5.07899E-04 3.18293E-01-3.37383E-13 6.97712E-14
 -1      3838 1.67574E+01-9.09000E-01 2.37959E-02-3.43434E+00-1.67222E-13-2.84347E-13
 -1      3839 1.83203E+01-1.82451E+00-4.60733E-02-3.62095E+00-2.15852E-13-1.69160E-13
 -1      3840 1.93734E+01-1.60419E+00 2.71960E-02-2.98129E+00-1.50749E-13-2.06670E-13
 -1      3841 1.98154E+01 3.47368E-01 1.29241E-03-7.10339E-02-7.59547E-14 1.77436E-13
 -1      3842 1.98136E+01-4.85416E-01 7.69997E-03 1.84221E+00 9.13075E-14 1.50336E-13
 -1      3843 2.00694E+01-8.07328E-01 1.01626E-02 1.92778E+00-4.43742E-14 1.30758E-13
 -1      3844 1.92731E+01-2.72485E-01-1.18673E-02 1.89011E+00 9.70395E-14 3.18145E-13
 -1      3845 2.02425E+01 1.46674E+00-2.31560E-03 2.99755E-01 6.82594E-14-2.62961E-13
 -1      3846 2.02292E+01 3.52352E-01-5.61933E-04-2.44435E-01-1.53993E-14-1.33884E-13
 -1      3847 2.02576E+01 4.03282E-01 7.58747E-04-1.87069E-01 1.33883E-14-1.47394E-13
 -1      3848 2.03371E+01-1.18106E+00 1.80084E-02 2.08825E+00-1.11321E-13 5.62615E-14
 -1      3849 2.07504E+01-1.62332E+00 8.57128E-03 2.11277E+00-1.42354E-13-9.38396E-14
 -1      3850 1.95900E+01-9.35975E-01-1.50602E-02 2.26798E+00-1.19431E-13 2.40891E-13
 -1      3851 2.03222E+01 7.52581E-01-1.81267E-03-1.63966E-02-6.86823E-14-1.45546E-13
 -1      3852 1.98710E+01 2.89126E-01 4.30558E-04 1.21677E-01 2.72365E-13-4.43625E-13
 -1      3853 1.98655E+01 3.03852E-01 1.14361E-03 1.56025E-01 1.90868E-13-2.46372E-13
 -1      3854 1.98520E+01 3.01735E-01-9.23746E-04 9.49119E-02 1.61862E-13-5.20376E-13
 -1      3855 1.99146E+01 2.74535E-01 3.41131E-04 2.29866E-01 4.27043E-14 4.48262E-13
 -1      3856 2.01636E+01 2.97302E-01 2.11623E-05-3.36595E-01 1.88636E-14-1.10104E-13
 -1      3857 2.01939E+01 3.18101E-01 2.09726E-04-2.88927E-01 7.02109E-15-1.12411E-13
 -1      3858 2.02248E+01 3.80906E-01 3.95513E-04-2.38354E-01-4.59063E-15-1.60023E-13
 -1      3859 2.03119E+01 5.78668E-01 1.15769E-03 7.11006E-02-5.18155E-14-1.32881E-13
 -1      3860 2.02846E+01 4.93894E-01-1.60323E-03 1.37842E-01-2.72209E-14-9.30850E-14
 -1      3861 1.33970E+01 6.21333E-01 8.66226E-02-1.96133E+00 1.12018E-13-3.02019E-13
 -1      3862 1.47523E+01-1.37636E-01-9.37683E-03-2.93589E+00-8.04233E-14-3.89347E-13
 -1      3863 1.62001E+01-3.27364E-01 3.22225E-03-3.09575E+00 5.20868E-14 1.82273E-13
 -1      3864 1.98596E+01 3.18284E-01-3.10066E-04 2.28794E-01-1.00707E-13 2.15723E-13
 -1      3865 1.95737E+01 3.66982E-01 4.36619E-03-1.16493E+00-1.84456E-13 1.22957E-14
 -1      3866 1.95683E+01 4.06798E-01-2.05185E-03-1.07836E+00-1.81751E-13-2.85047E-14
 -1      3867 1.92962E+01 4.14846E-01-1.44904E-03-1.20796E+00-1.95009E-13-1.50333E-14
 -1      3868 2.02561E+01 4.31785E-01 3.16749E-04 1.83855E-01-2.54725E-14-9.22689E-14
 -1      3869 2.02216E+01 3.87394E-01-8.00532E-04 2.36101E-01-1.95694E-14-7.44883E-14
 -1      3870 2.02830E+01 5.14488E-01 1.06435E-03 1.34833E-01-2.38067E-14-6.35867E-14
 -1      3871 1.98322E+01 3.51357E-01 7.77280E-04-1.96693E-01-1.27250E-13 1.64192E-13
 -1      3872 1.55103E+01 2.19936E-01 3.23801E-02-2.64013E+00 1.10149E-13 2.30542E-13
 -1      3873 1.68906E+01 4.93265E-02 2.71802E-02-2.63681E+00 3.07753E-14 2.49760E-13
 -1      3874 1.69556E+01 3.60451E-01-1.63620E-02-2.28318E+00 4.81843E-14 3.37138E-13
 -1      3875 1.50442E+01 6.16806E-01-2.03437E-02-1.94282E+00 1.91221E-13 3.37957E-13
 -1      3876 1.88896E+01-1.88355E+00 5.50005E-03 3.50199E+00-7.36546E-14 1.24818E-13
 -1      3877 1.78441E+01-1.22866E+00-8.63577E-03 3.31808E+00-3.70806E-14 2.00465E-13
 -1      3878 2.02072E+01 4.16314E-01 9.30350E-04 2.19348E-01-1.59200E-14-7.56108E-14
 -1      3879 2.16082E+01-2.98462E+00-3.57564E-02 2.66067E+00-9.26099E-14 1.50574E-14
 -1      3880 2.00020E+01-2.34010E+00 2.17735E-02 3.26566E+00-8.75602E-14 1.17722E-13
 -1      3881 2.00834E+01-1.88457E+00 2.06464E-02 2.81021E+00-1.61078E-13 4.37413E-14
 -1      3882 2.20118E+01-2.54776E+00 1.27211E-02 1.95642E+00-1.19424E-13-5.63009E-14
 -1      3883 1.37675E+01 7.87418E-01 4.52020E-02-1.13885E+00 1.21627E-13-3.33403E-13
 -1      3884 1.97485E+01 4.17905E-01-2.08470E-03-7.67510E-01-3.84174E-14-7.83821E-14
 -1      3885 1.96874E+01 4.63037E-01 7.63117E-04-6.93676E-01-7.85095E-14-1.36748E-13
 -1      3886 1.97235E+01 4.32503E-01 2.31758E-03-8.32951E-01-5.10424E-14-6.41232E-14
 -1      3887 1.64732E+01 7.41087E-01 1.32363E-02-1.88064E+00 1.62194E-14 3.15010E-13
 -1      3888 1.97803E+01 3.76342E-01-4.23642E-04-9.78484E-02-1.53738E-13 1.30302E-13
 -1      3889 1.97665E+01 3.84651E-01-7.91049E-04-5.98442E-02 2.54965E-14-7.80623E-14
 -1      3890 2.00069E+01-1.58901E+00-3.32702E-02-2.52012E+00-1.22507E-13-9.58005E-14
 -1      3891 2.02776E+01 1.32213E+00-2.72888E-03 2.53469E-02 2.79534E-14-2.48983E-13
 -1      3892 2.02771E+01 1.32261E+00-2.93013E-03-2.36074E-02 7.07893E-15-2.41097E-13
 -1      3893 2.02967E+01 1.19308E+00-1.65984E-03-1.26353E-01-4.21536E-14-2.03603E-13
 -1      3894 1.47468E+01 4.79973E-01 2.07448E-02 2.10616E+00 2.78460E-13-2.03572E-13
 -1      3895 1.36730E+01 8.21063E-01 7.80378E-02 1.52385E+00 2.34490E-13-3.44454E-13
 -1      3896 1.36158E+01 8.98259E-01-3.44534E-02 7.25417E-01 1.75538E-13-4.12783E-13
 -1      3897 1.51105E+01 6.93143E-01-3.71737E-02 1.74950E+00 1.78239E-13-2.38350E-13
 -1      3898 2.13785E+01-2.06822E+00 3.42762E-02 2.11231E+00-9.41365E-14-7.90839E-14
 -1      3899 2.02924E+01 1.29324E+00 4.46202E-03 2.02636E-01 4.44252E-14-2.46696E-13
 -1      3900 2.02847E+01 1.26641E+00-3.79993E-03 1.03343E-01 1.89753E-14-2.55120E-13
 -1      3901 2.02810E+01 1.30512E+00-2.27626E-03 5.75916E-02 2.75992E-14-2.57488E-13
 -1      3902 2.03238E+01 1.14014E+00 5.21566E-03 2.61709E-02 1.18807E-14-2.52715E-13
 -1      3903 1.61811E+01-3.58099E-01 2.58879E-02-3.05442E+00-1.05960E-13-2.72661E-13
 -1      3904 1.74463E+01-4.82094E-01 2.39418E-02-2.77972E+00-6.47841E-14-2.37147E-13
 -1      3905 1.56689E+01 2.05068E-01-1.30909E-02-2.35859E+00-2.67581E-16-2.58515E-13
 -1      3906 1.98203E+01 3.39595E-01 1.19735E-03 8.71791E-02 2.88548E-13-4.79051E-13
 -1      3907 1.97990E+01 3.70443E-01-6.18756E-04-1.63499E-01-1.82445E-13 1.50084E-13
 -1      3908 1.99137E+01 3.54659E-01 1.35142E-03-5.97144E-01-1.85830E-14-2.05628E-13
 -1      3909 1.99445E+01 3.31550E-01-1.41552E-03-5.48143E-01-4.32627E-14-1.72115E-13
 -1      3910 1.98180E+01 4.12390E-01 7.46036E-04-5.81218E-01-5.51899E-14-1.46933E-13
 -1      3911 1.34222E+01 1.12329E+00 7.42792E-02-8.86697E-03-1.34586E-13 3.23214E-14
 -1      3912 1.41367E+01 9.88989E-01 3.90467E-03-7.87315E-01 2.80982E-15 1.74669E-14
 -1      3913 1.40366E+01 9.60946E-01-5.08313E-03 7.24589E-01-9.68691E-14 1.56363E-13
 -1      3914 2.00431E+01 2.68406E-01-1.41057E-04-5.20048E-01-1.96802E-14-1.69305E-13
 -1      3915 2.02764E+01 4.55061E-01-1.28373E-03-1.41200E-01 4.32914E-14-1.49530E-13
 -1      3916 2.02959E+01 5.23586E-01 1.35623E-03-7.92512E-02 5.48999E-14-1.50309E-13
 -1      3917 2.02825E+01 4.79239E-01 7.75912E-04-1.47027E-01 1.83210E-14-1.71950E-13
 -1      3918 1.49454E+01 1.10873E-01 7.39780E-02 2.80837E+00-1.19840E-13 1.32956E-13
 -1      3919 1.46561E+01 4.33914E-01-1.45197E-02 2.12280E+00-7.01609E-15 1.15578E-13
 -1      3920 1.60584E+01-4.08886E-01-1.08715E-03 3.05855E+00-3.24146E-14 3.02780E-13
 -1      3921 2.03853E+01-1.86248E+00-2.29714E-02 2.52326E+00-1.47265E-13-1.94194E-14
 -1      3922 2.02918E+01 6.23109E-01-2.78830E-04 3.22798E-02 7.16459E-14-1.61344E-13
 -1      3923 2.00879E+01 2.89071E-01 5.36347E-04-4.19983E-01 1.90377E-14-1.69211E-13
 -1      3924 2.01188E+01 2.88181E-01-3.76039E-04-3.76337E-01 3.94413E-14-1.30054E-13
 -1      3925 2.01435E+01 3.32699E-01 3.89889E-04-3.23566E-01 3.19261E-14-1.64267E-13
 -1      3926 1.97852E+01 3.70502E-01-8.47917E-04 1.63502E-01-3.26166E-14-4.04917E-13
 -1      3927 1.98156E+01 3.48645E-01-4.66205E-04 1.93361E-01-6.03622E-14-1.81550E-13
 -1      3928 1.97829E+01 3.92686E-01 1.40357E-03 2.40873E-01-2.22910E-13-1.71181E-13
 -1      3929 1.96365E+01 4.30617E-01 3.13475E-03-9.84999E-01-1.40456E-13-8.34616E-14
 -1      3930 1.96514E+01 4.35860E-01-2.21960E-03-9.09177E-01-7.71731E-14-5.35122E-14
 -1      3931 1.94151E+01 4.91293E-01-2.27106E-05-9.99153E-01-1.80058E-13-9.39431E-14
 -1      3932 2.03265E+01 7.59706E-01 5.76726E-04 4.90143E-03-4.26920E-14-1.17757E-13
 -1      3933 1.97603E+01 3.87037E-01-7.37378E-04-1.07410E-02 1.04752E-13-3.35583E-13
 -1      3934 1.97612E+01 3.84443E-01-1.03572E-03 2.90576E-02 3.15018E-13-3.64825E-13
 -1      3935 1.97273E+01 4.24787E-01 1.02945E-03-3.77592E-02 8.06096E-14-3.66361E-13
 -1      3936 2.02320E+01 4.54855E-01-3.70539E-04 1.59128E-01-3.75010E-14-9.01296E-14
 -1      3937 2.01861E+01 4.22288E-01-8.77447E-04 1.96710E-01-2.42163E-14-1.07177E-13
 -1      3938 2.03039E+01 6.28037E-01-2.11350E-03-8.87637E-03 4.88353E-14-1.50823E-13
 -1      3939 2.03213E+01 7.61394E-01 1.99848E-03 8.82487E-02 6.83134E-14-1.57978E-13
 -1      3940 2.03169E+01 6.46023E-01 4.29629E-05-3.04541E-02 5.10930E-14-1.42797E-13
 -1      3941 1.99950E+01 4.17574E-01-1.08418E-03 2.73618E-01-1.64218E-14-1.27370E-13
 -1      3942 1.99240E+01 4.41143E-01-5.64989E-04 3.04294E-01-3.56821E-14-1.26088E-13
 -1      3943 1.98318E+01 4.74276E-01-1.60598E-03 3.24935E-01-3.42330E-14-9.53583E-14
 -1      3944 1.97463E+01 5.16527E-01-6.63067E-04 3.56105E-01-1.51265E-14-1.04682E-13
 -1      3945 1.98617E+01 4.85580E-01 2.05797E-03 2.40785E-01-2.62749E-14-1.14948E-13
 -1      3946 1.96342E+01 5.65234E-01-2.18795E-03 3.77812E-01-1.43147E-14-9.97713E-14
 -1      3947 1.95311E+01 6.20369E-01-9.33382E-04 4.11370E-01-3.67309E-14-4.68142E-14
 -1      3948 1.96615E+01 5.70241E-01 2.60617E-03 2.77491E-01-2.28483E-14-1.15586E-13
 -1      3949 1.93954E+01 6.78873E-01-2.84162E-03 4.34745E-01-5.72392E-14-4.54024E-14
 -1      3950 1.92698E+01 7.41354E-01-1.27574E-03 4.71988E-01-2.10277E-14-4.38467E-14
 -1      3951 1.94198E+01 6.82010E-01 3.52829E-03 3.14855E-01-1.98334E-14-6.34606E-14
 -1      3952 1.91041E+01 8.03519E-01-3.73063E-03 4.97897E-01-4.24071E-14-1.12183E-13
 -1      3953 1.89501E+01 8.66580E-01-1.71198E-03 5.40409E-01-4.22988E-14-1.51869E-13
 -1      3954 1.91266E+01 8.09215E-01 4.84646E-03 3.52510E-01-7.45098E-14-1.17739E-13
 -1      3955 1.87447E+01 9.25247E-01-5.14101E-03 5.69747E-01 7.92590E-15-2.04260E-13
 -1      3956 1.85547E+01 9.80999E-01-2.34808E-03 6.20627E-01 3.61681E-14-1.88137E-13
 -1      3957 1.87670E+01 9.39304E-01 6.60796E-03 3.91609E-01-5.34575E-14-2.66911E-13
 -1      3958 1.82961E+01 1.02710E+00-7.37753E-03 6.56231E-01 3.42696E-14-2.05637E-13
 -1      3959 1.80607E+01 1.06639E+00-2.94118E-03 7.21593E-01-1.15212E-14-2.11720E-13
 -1      3960 1.83186E+01 1.05897E+00 9.04775E-03 4.34902E-01 1.78475E-14-2.84345E-13
 -1      3961 1.77283E+01 1.08862E+00-1.08689E-02 7.69682E-01-2.31629E-14-2.11917E-13
 -1      3962 1.74352E+01 1.10036E+00-3.01832E-03 8.61852E-01-9.38066E-14-1.68040E-13
 -1      3963 1.77509E+01 1.15173E+00 1.24536E-02 4.87558E-01-4.36676E-14-3.13096E-13
 -1      3964 1.69953E+01 1.08388E+00-1.54739E-02 9.36380E-01-9.21689E-14-1.37161E-13
 -1      3965 1.66266E+01 1.04836E+00-1.08255E-03 1.07765E+00 1.00847E-14-1.47265E-13
 -1      3966 1.70176E+01 1.20122E+00 1.90341E-02 5.65198E-01-1.36756E-14-2.56039E-13
 -1      3967 1.90333E+01 5.06435E-01 5.41293E-03-1.18836E+00-1.73458E-13-1.52247E-13
 -1      3968 1.90756E+01 5.48943E-01-4.39314E-03-1.07424E+00-2.47079E-13-1.71758E-13
 -1      3969 1.48714E+01 9.98803E-01 3.87855E-02-1.29679E+00 8.47811E-14 4.17132E-14
 -1      3970 1.57850E+01 8.39276E-01 1.43431E-02-1.61778E+00 2.93063E-14 2.69803E-13
 -1      3971 1.60842E+01 9.88304E-01-2.31883E-02-1.29825E+00-1.92806E-13 1.71225E-13
 -1      3972 1.48386E+01 1.09872E+00-2.35431E-02-5.58066E-01-9.01369E-14-1.59823E-13
 -1      3973 1.97524E+01 4.15629E-01 5.73611E-04-1.56368E-01-8.73509E-14 6.28349E-14
 -1      3974 1.73979E+01 1.16207E+00-2.14964E-03-8.40638E-01-2.52363E-14-6.50716E-14
 -1      3975 1.76805E+01 1.15652E+00-1.06283E-02-7.43790E-01-1.43908E-13-1.54250E-13
 -1      3976 1.80022E+01 1.14051E+00-3.00405E-03-6.90857E-01-1.73652E-13 5.18447E-14
 -1      3977 1.82278E+01 1.10721E+00-7.34394E-03-6.19936E-01-1.06358E-13 1.53391E-13
 -1      3978 1.76898E+01 1.22646E+00 1.26657E-02-4.68034E-01-2.78421E-14-7.20246E-14
 -1      3979 1.84736E+01 1.06663E+00-2.55733E-03-5.79132E-01-7.35032E-14 2.32925E-13
 -1      3980 1.86520E+01 1.01579E+00-5.25403E-03-5.22457E-01-3.31287E-14 2.54896E-13
 -1      3981 1.82343E+01 1.14651E+00 9.22576E-03-4.05798E-01-1.06330E-14 2.14646E-13
 -1      3982 1.88422E+01 9.61454E-01-2.07359E-03-4.87992E-01-1.07645E-14 2.43992E-13
 -1      3983 1.89825E+01 9.01928E-01-3.93805E-03-4.39657E-01 1.85274E-13 2.38242E-13
 -1      3984 1.86553E+01 1.03740E+00 6.89624E-03-3.53971E-01 1.70534E-15 3.35823E-13
 -1      3985 1.91310E+01 8.41776E-01-1.57658E-03-4.08829E-01 3.32554E-13 1.55656E-14
 -1      3986 1.92404E+01 7.79800E-01-3.07009E-03-3.66368E-01 3.56746E-13-1.43140E-14
 -1      3987 1.89836E+01 9.13780E-01 5.26734E-03-3.06021E-01 4.68623E-14 1.47774E-13
 -1      3988 1.93565E+01 7.19363E-01-1.13362E-03-3.38438E-01 3.16762E-13-1.26857E-13
 -1      3989 1.94410E+01 6.59167E-01-2.51736E-03-3.00948E-01 1.86924E-13-6.98110E-14
 -1      3990 1.92403E+01 7.86214E-01 4.04961E-03-2.60282E-01 1.59070E-13-1.10664E-13
 -1      3991 1.95315E+01 6.02873E-01-5.87723E-04-2.76150E-01 7.30650E-14-3.83607E-14
 -1      3992 1.95944E+01 5.46636E-01-2.52495E-03-2.42745E-01-4.71948E-15 6.70734E-14
 -1      3993 1.94404E+01 6.62155E-01 2.92963E-03-2.17395E-01 1.97717E-13-2.85857E-13
 -1      3994 1.96552E+01 5.03694E-01 2.55112E-05-2.09886E-01-5.68632E-15 4.10987E-14
 -1      3995 1.97028E+01 4.53735E-01-1.80625E-03-1.82597E-01-7.43451E-15 1.06609E-13
 -1      3996 1.96879E+01 4.63274E-01 8.82054E-04-1.11106E-01 3.24208E-14-1.03789E-13
 -1      3997 1.95833E+01 5.54861E-01 1.84565E-03-1.65269E-01 8.21913E-14-1.80839E-13
 -1      3998 1.89158E+01-1.01552E+00 1.59747E-02-2.73250E+00-1.25976E-13-1.66553E-13
 -1      3999 1.88943E+01 3.27598E-01 8.24416E-03-1.47863E+00-9.49535E-14-1.01288E-13
 -1      4000 1.88997E+01 4.30240E-01-4.89418E-03-1.33527E+00-1.13154E-13-1.03455E-13
 -1      4001 1.86904E+01 5.86546E-01 1.68769E-03-1.19206E+00-1.80008E-13-1.96878E-13
 -1      4002 2.03235E+01 1.14226E+00 5.30716E-03-2.26236E-02-1.82742E-14-2.07039E-13
 -1      4003 2.02807E+01 1.30763E+00-2.23585E-03-5.52760E-02-3.09757E-15-2.13876E-13
 -1      4004 2.02861E+01 1.26891E+00-3.71524E-03-1.02582E-01-2.84796E-14-2.13194E-13
 -1      4005 2.03297E+01 1.04874E+00 4.04672E-03-6.43222E-02-5.04871E-14-1.89316E-13
 -1      4006 1.91059E+01 6.59738E-01-4.24919E-03 8.89296E-01-5.24718E-14 4.55437E-13
 -1      4007 1.90610E+01 6.37406E-01 3.76571E-03 9.95035E-01-7.56179E-14 5.58269E-13
 -1      4008 1.89388E+01 5.87827E-01-4.87567E-03 1.12413E+00-1.06545E-13 5.68055E-13
 -1      4009 1.89160E+01 5.18285E-01 6.00799E-03 1.25467E+00-2.94132E-14 5.26150E-13
 -1      4010 1.87642E+01 7.19836E-01 2.00128E-03 9.90491E-01 3.10632E-14 7.21102E-13
 -1      4011 1.87945E+01 4.09642E-01-5.01816E-03 1.42356E+00 1.36344E-14 4.00975E-13
 -1      4012 1.88183E+01 2.70290E-01 9.52779E-03 1.58505E+00 1.90360E-14 3.55409E-13
 -1      4013 1.85304E+01 5.96212E-01 6.13725E-04 1.28453E+00-1.48738E-13 5.34284E-13
 -1      4014 1.92715E+01 6.61634E-01-3.61542E-03 7.03488E-01-9.25202E-14 3.96078E-13
 -1      4015 1.92191E+01 6.69683E-01 2.31867E-03 7.89694E-01-7.68242E-14 4.94546E-13
 -1      4016 1.89892E+01 7.51464E-01 2.44977E-03 7.68452E-01-1.52496E-14 4.71643E-13
 -1      4017 1.94231E+01 6.20466E-01-3.05153E-03 5.54892E-01-1.16643E-13 2.14343E-13
 -1      4018 1.93714E+01 6.46685E-01 1.43429E-03 6.25591E-01-9.26842E-14 2.18016E-13
 -1      4019 1.91929E+01 7.24876E-01 2.46376E-03 5.98103E-01-1.99415E-14 3.12087E-13
 -1      4020 1.95554E+01 5.55539E-01-2.59389E-03 4.35217E-01-1.76854E-13 1.07768E-13
 -1      4021 1.95086E+01 5.91290E-01 9.10213E-04 4.93323E-01-6.23910E-14 1.30778E-13
 -1      4022 1.93700E+01 6.63804E-01 2.26388E-03 4.65365E-01-4.46917E-14 1.19907E-13
 -1      4023 1.96670E+01 4.81029E-01-1.97275E-03 3.39000E-01-3.01457E-13 2.56219E-14
 -1      4024 1.96269E+01 5.20023E-01 7.08004E-04 3.86451E-01-2.78820E-13 5.59553E-14
 -1      4025 1.95197E+01 5.84815E-01 1.86975E-03 3.60984E-01-1.40349E-13 1.69327E-13
 -1      4026 1.97445E+01 4.18553E-01-9.94180E-04 2.68130E-01-2.92507E-13 8.48222E-15
 -1      4027 1.97104E+01 4.55955E-01 7.82098E-04 3.06654E-01-3.02282E-13-4.35524E-14
 -1      4028 1.96253E+01 5.12691E-01 1.15396E-03 2.84614E-01-2.24076E-13-7.13585E-14
 -1      4029 1.96992E+01 4.51444E-01 1.64397E-04 2.27467E-01-1.81524E-13-1.43759E-13
 -1      4030 1.40227E+01 1.11899E+00 6.47588E-02-3.82389E-01 8.27658E-14-3.74762E-13
 -1      4031 1.45380E+01 7.48640E-01-1.70065E-02-1.42152E+00 2.98797E-14-3.03209E-13
 -1      4032 1.87162E+01 8.15151E-02-2.75346E-03 1.80766E+00 1.61714E-14 2.29137E-13
 -1      4033 1.88073E+01-1.69648E-01 8.64151E-03 2.00943E+00-2.44713E-14 1.10842E-13
 -1      4034 1.83117E+01 3.33084E-01-3.42794E-03 1.67461E+00-5.67009E-14 1.61270E-13
 -1      4035 1.89628E+01-5.79648E-01 1.92266E-02-2.30979E+00-8.41740E-14-7.70699E-14
 -1      4036 1.87674E+01-2.61813E-01 9.81395E-04-2.10791E+00-6.64401E-14-9.95015E-14
 -1      4037 1.83233E+01-9.26579E-01 9.31478E-03 2.88964E+00-1.14125E-13 1.13558E-13
 -1      4038 1.72545E+01-6.77428E-01 3.40383E-02 3.12551E+00-7.42670E-14 2.93703E-13
 -1      4039 1.66495E+01-1.94790E-01-2.43278E-03 2.70346E+00-7.10508E-14 2.78873E-13
 -1      4040 2.00041E+01 3.12782E-01 9.60348E-04-5.04207E-01-4.19128E-14-2.03443E-13
 -1      4041 2.00352E+01 2.97324E-01-9.33336E-04-4.59745E-01-1.41466E-14-2.02283E-13
 -1      4042 1.99385E+01 3.63403E-01 6.20534E-04-4.86741E-01-4.52312E-14-2.05753E-13
 -1      4043 1.80805E+01-6.17408E-01-7.87716E-03-2.69800E+00-5.84725E-14-2.37987E-13
 -1      4044 1.94750E+01-1.36303E+00 1.42432E-02 2.72915E+00-1.97817E-13 9.76412E-14
 -1      4045 1.97573E+01 3.89782E-01-5.17019E-04 7.57714E-02 2.28019E-13-1.79877E-13
 -1      4046 1.97727E+01 3.76413E-01-1.04267E-03 1.17160E-01 1.04391E-13-3.08320E-13
 -1      4047 1.97221E+01 4.30493E-01 1.05671E-03 1.53407E-01-6.78105E-14-2.25500E-13
 -1      4048 1.97132E+01 4.31311E-01 2.38180E-04 5.93813E-02 8.40606E-14-2.32697E-13
 -1      4049 2.02124E+01 3.91672E-01-5.83570E-04-2.26551E-01 9.99582E-15-1.50768E-13
 -1      4050 2.02502E+01 4.33003E-01 6.28827E-05-1.81468E-01-6.47294E-15-1.51990E-13
 -1      4051 1.66207E+01 1.10527E+00 5.01375E-03-1.06363E+00-1.40033E-13 1.02343E-13
 -1      4052 1.69651E+01 1.13798E+00-1.55929E-02-9.22224E-01-1.23636E-14 5.12636E-14
 -1      4053 1.69683E+01 1.26404E+00 1.75025E-02-5.51285E-01-7.61515E-14-3.99173E-14
 -1      4054 2.03023E+01 5.77006E-01-1.02039E-03 8.38391E-02 1.55678E-15-1.18427E-13
 -1      4055 2.02715E+01 5.06535E-01-1.14731E-03 1.31545E-01-2.96649E-14-1.13878E-13
 -1      4056 2.02570E+01 5.16834E-01 1.38035E-03 1.11214E-01-3.33237E-14-1.50219E-13
 -1      4057 2.03200E+01 9.36565E-01 7.07183E-04 1.35351E-01 7.36730E-14-1.74993E-13
 -1      4058 1.88362E+01-1.10428E-02 1.22069E-02-1.84934E+00-1.02055E-13-6.63568E-14
 -1      4059 1.87749E+01 1.77616E-01-4.12516E-03-1.67263E+00-9.04868E-14-1.10262E-13
 -1      4060 1.82523E+01 4.03568E-02-3.25623E-03-1.99367E+00-6.56307E-14-1.81901E-13
 -1      4061 2.03324E+01 8.64954E-01-2.16369E-03-2.93756E-02-3.28151E-14-1.80136E-13
 -1      4062 2.03244E+01 6.83922E-01-2.98216E-05 4.91856E-02 4.72661E-15-1.20529E-13
 -1      4063 2.03170E+01 6.78524E-01 1.29273E-03 4.72921E-02 4.64761E-15-1.78297E-13
 -1      4064 2.03282E+01 9.44513E-01-2.93570E-04-2.01574E-02-1.56679E-14-1.78943E-13
 -1      4065 2.01283E+01 4.06601E-01-6.45698E-04 2.20019E-01-2.33498E-14-1.12701E-13
 -1      4066 2.00699E+01 4.05580E-01-6.19419E-04 2.52543E-01-1.75112E-14-9.86522E-14
 -1      4067 2.00262E+01 4.39705E-01 1.64930E-03 2.02472E-01-2.95249E-14-1.23685E-13
 -1      4068 1.92857E+01-9.18385E-01 1.24734E-02 2.43751E+00-1.46931E-13 1.34495E-13
 -1      4069 1.88058E+01-9.77422E-01-4.17755E-03 2.72954E+00-1.91199E-13 1.05455E-13
 -1      4070 1.81679E+01-5.00324E-01 2.17908E-03 2.56242E+00-3.14327E-13 1.71178E-14
 -1      4071 1.90436E+01-5.21836E-01 7.03813E-03 2.23244E+00-6.84130E-14 1.31239E-13
 -1      4072 1.84450E+01 3.96947E-01-1.17157E-03-1.53293E+00-1.01216E-13-1.49954E-13
 -1      4073 2.03171E+01 1.03843E+00-2.41761E-03 1.50513E-01 4.80607E-14-2.27160E-13
 -1      4074 2.02998E+01 1.20330E+00 5.97550E-04 1.26705E-01 1.32350E-14-2.41979E-13
 -1      4075 1.95506E+01 4.97039E-01 5.71232E-04-8.30557E-01-7.30183E-14-1.30357E-13
 -1      4076 1.89441E+01 6.54423E-01 2.03087E-03-9.38889E-01-1.80816E-13-2.12292E-13
 -1      4077 1.92067E+01 5.74479E-01 3.42684E-03-9.63213E-01-1.89705E-13-1.05106E-13
 -1      4078 1.92664E+01 5.77651E-01-3.70436E-03-8.72464E-01-1.37565E-13-8.47576E-14
 -1      4079 1.61014E+01 9.71644E-01-2.31197E-02 1.20743E+00 5.03265E-14-2.16447E-13
 -1      4080 1.57497E+01 8.87195E-01 1.20061E-02 1.42118E+00 9.61900E-14-2.06665E-13
 -1      4081 1.61111E+01 1.19129E+00 3.27262E-02 7.05752E-01-2.29506E-14-2.17015E-13
 -1      4082 1.60532E+01 1.20184E+00 2.09086E-02-8.03993E-01-1.17698E-13-5.37959E-15
 -1      4083 1.96236E+01 5.11723E-01 5.52460E-04-7.16102E-02 9.75933E-14-2.35185E-13
 -1      4084 1.96699E+01 4.66692E-01-1.09123E-03-5.04392E-02-1.73529E-14-3.79335E-13
 -1      4085 1.96678E+01 4.71172E-01 8.77128E-04 2.44093E-03 7.59395E-14-4.75109E-13
 -1      4086 2.03298E+01 1.05222E+00 4.03981E-03 6.67476E-02 1.76964E-14-2.46102E-13
 -1      4087 1.74877E+01-1.13928E-01-1.43189E-02-2.35562E+00-2.97592E-14-2.29277E-13
 -1      4088 2.03250E+01 9.74067E-01-1.83077E-03-8.74818E-04-1.71137E-15-1.96925E-13
 -1      4089 2.03236E+01 9.58962E-01-3.10958E-03-1.80805E-02-2.67963E-14-1.89030E-13
 -1      4090 2.03385E+01 8.13443E-01 3.24530E-03 9.17706E-03-5.01774E-15-1.83616E-13
 -1      4091 1.44959E+01 1.02179E+00 1.50854E-02 2.78037E-01 1.22962E-13-3.04392E-13
 -1      4092 2.03272E+01 9.52287E-01-9.86041E-04 1.80821E-02 3.27720E-15-2.61344E-13
 -1      4093 2.03231E+01 9.65390E-01-2.88557E-03 1.53958E-03 2.04237E-16-2.43073E-13
 -1      4094 2.03402E+01 8.24974E-01 4.19288E-03-2.02328E-03-1.77468E-14-2.17992E-13
 -1      4095 1.55512E+01 6.19307E-01 2.87748E-02-1.81940E+00-3.76511E-14-2.67226E-13
 -1      4096 1.65682E+01 3.99699E-01 6.46850E-03-1.96265E+00-7.91203E-14-2.33077E-13
 -1      4097 1.55250E+01 8.80361E-01-1.59043E-02-1.15401E+00-5.91810E-14-2.85529E-13
 -1      4098 1.83940E+01-1.95575E-01-1.28156E-02 2.16921E+00-1.43189E-13-9.09817E-14
 -1      4099 1.97265E+01 4.68373E-01 1.05812E-03-5.39068E-01-8.05494E-14-9.29283E-14
 -1      4100 1.97878E+01 4.36518E-01-1.98785E-03-4.89556E-01-6.06972E-14-1.11613E-13
 -1      4101 1.48011E+01 9.65212E-01 6.13266E-02 1.33168E+00-1.16218E-13 1.71812E-13
 -1      4102 1.48397E+01 1.06133E+00-9.76518E-03 5.68815E-01-1.93099E-13 1.41373E-13
 -1      4103 2.02784E+01 4.78152E-01-1.37835E-03-1.51439E-01-5.01618E-15-1.61532E-13
 -1      4104 2.03044E+01 5.40400E-01 1.14429E-03-1.04867E-01 3.13503E-14-1.69868E-13
 -1      4105 2.02691E+01 4.94076E-01 1.18212E-03-1.41493E-01 1.26421E-14-1.15315E-13
 -1      4106 2.00474E+01 3.31893E-01 4.67356E-04-4.03423E-01 1.81776E-14-1.90407E-13
 -1      4107 2.01638E+01 3.66663E-01-4.20766E-04-2.59575E-01 2.74114E-14-1.81959E-13
 -1      4108 2.01900E+01 4.16486E-01 9.77013E-04-2.03684E-01 3.65585E-14-1.53263E-13
 -1      4109 2.01185E+01 3.55384E-01-1.39400E-04-2.99691E-01 4.98209E-14-1.82537E-13
 -1      4110 1.95634E+01 5.28804E-01 1.50975E-03-6.49977E-01-6.34686E-14-1.20708E-13
 -1      4111 1.96280E+01 4.98382E-01-2.52757E-03-5.90299E-01-8.03056E-14-9.63186E-14
 -1      4112 1.96104E+01 5.32379E-01 1.74920E-03-4.94433E-01-9.11111E-14-1.07683E-13
 -1      4113 1.54069E+01 5.88521E-01-1.49195E-02 1.82436E+00-1.21283E-14 1.88404E-13
 -1      4114 2.03260E+01 8.67431E-01-1.57973E-03 5.96588E-02 3.51049E-14-1.89263E-13
 -1      4115 2.01581E+01 4.45410E-01 1.45622E-03 1.60489E-01-3.45018E-14-1.28935E-13
 -1      4116 2.01850E+01 4.62188E-01-6.29221E-04 9.79112E-02-3.61643E-14-1.45733E-13
 -1      4117 2.01260E+01 4.43013E-01-9.87786E-04 1.19110E-01-3.75773E-14-1.67725E-13
 -1      4118 1.93877E+01 5.71865E-01 2.20241E-03-7.88196E-01-1.22150E-13-4.93847E-14
 -1      4119 1.94531E+01 5.52168E-01-3.05975E-03-7.14980E-01-8.83422E-14-7.98916E-14
 -1      4120 1.94093E+01 5.99890E-01 1.93972E-03-6.06041E-01-8.36367E-14-1.75480E-14
 -1      4121 1.79974E+01-1.02212E-01 5.48267E-03 2.22421E+00-2.62087E-13-5.00000E-14
 -1      4122 1.74598E+01-8.16372E-02-1.89205E-02 2.35945E+00-1.84797E-13 3.31597E-14
 -1      4123 1.77947E+01 2.39921E-01 1.38966E-03 1.94493E+00-7.41950E-14-3.06966E-14
 -1      4124 1.96932E+01 5.47508E-01-1.71843E-03 1.70779E-01-4.42463E-14-1.64837E-13
 -1      4125 1.95818E+01 5.97009E-01-1.69894E-03 1.85322E-01-3.13312E-14-1.76140E-13
 -1      4126 1.94526E+01 6.51548E-01-2.28095E-03 1.88151E-01-3.12791E-14-1.76369E-13
 -1      4127 1.93177E+01 7.10874E-01-2.40670E-03 2.01072E-01-5.78917E-14-1.88953E-13
 -1      4128 1.95117E+01 6.43921E-01 6.01110E-03 7.89901E-02-4.13734E-14-2.43733E-13
 -1      4129 1.91624E+01 7.73307E-01-2.64514E-03 2.01963E-01-9.02265E-14-1.83026E-13
 -1      4130 1.90001E+01 8.36843E-01-2.21584E-03 2.14029E-01-1.19595E-13-2.68334E-13
 -1      4131 1.92288E+01 7.59908E-01 6.03423E-03 6.84369E-02-9.25606E-14-2.81729E-13
 -1      4132 1.88098E+01 8.97967E-01-3.44980E-03 2.06991E-01-1.28139E-13-2.44280E-13
 -1      4133 1.86048E+01 9.59179E-01-4.34682E-03 2.16794E-01-6.48944E-14-2.70187E-13
 -1      4134 1.88956E+01 8.77676E-01 6.30909E-03 4.73420E-02-1.14059E-13-2.52555E-13
 -1      4135 1.83737E+01 1.01523E+00-4.42592E-03 2.02978E-01 1.92829E-14-2.74323E-13
 -1      4136 1.81090E+01 1.06461E+00-8.27706E-03 2.09057E-01 2.00329E-14-2.96098E-13
 -1      4137 1.84871E+01 9.98321E-01 9.92340E-03 1.25949E-02-5.60272E-14-2.59499E-13
 -1      4138 1.78168E+01 1.10983E+00-7.38559E-03 1.94096E-01-2.49849E-14-2.87674E-13
 -1      4139 1.74827E+01 1.14075E+00-1.07056E-02 2.00859E-01-3.47051E-14-2.47863E-13
 -1      4140 1.79640E+01 1.12030E+00 1.90711E-02-4.56240E-02-5.00988E-15-2.46002E-13
 -1      4141 1.71004E+01 1.16482E+00-1.03701E-02 1.76287E-01-4.16754E-14-2.34109E-13
 -1      4142 1.66668E+01 1.16689E+00-1.11551E-02 1.95912E-01-3.25315E-14-2.47261E-13
 -1      4143 1.72999E+01 1.18702E+00 2.29452E-02-1.50158E-01-3.85215E-14-2.46231E-13
 -1      4144 2.02773E+01 5.54738E-01-9.41181E-04 6.23662E-02 6.65955E-15-1.83407E-13
 -1      4145 2.02359E+01 4.98859E-01-1.06706E-03 8.78481E-02-1.81998E-14-1.57991E-13
 -1      4146 2.02130E+01 5.01758E-01 1.76951E-03 4.88890E-02-1.73863E-14-1.71475E-13
 -1      4147 1.80255E+01 1.15302E+00-7.55734E-03-1.97039E-01 1.19094E-13-4.40978E-15
 -1      4148 1.82740E+01 1.10965E+00-4.69596E-03-1.85051E-01 1.28124E-13 1.39482E-13
 -1      4149 1.84903E+01 1.05696E+00-5.42555E-03-1.93857E-01 7.30983E-14 2.52978E-13
 -1      4150 1.86824E+01 1.00181E+00-3.49167E-03-1.80770E-01 3.62443E-14 1.41102E-13
 -1      4151 1.83712E+01 1.10415E+00 1.17364E-02 5.21854E-03 1.92537E-13-9.62349E-14
 -1      4152 1.88522E+01 9.41558E-01-3.95330E-03-1.82861E-01-1.14656E-13 2.11287E-13
 -1      4153 1.90018E+01 8.80783E-01-2.71927E-03-1.68133E-01-3.70729E-14 1.12862E-13
 -1      4154 1.87529E+01 9.92419E-01 9.17432E-03-3.03878E-02-3.01196E-14 8.66896E-15
 -1      4155 1.91358E+01 8.18123E-01-2.89927E-03-1.65759E-01 1.01535E-13 1.24750E-14
 -1      4156 1.92523E+01 7.56493E-01-2.19686E-03-1.49999E-01 1.61224E-13-1.00176E-13
 -1      4157 1.90536E+01 8.69783E-01 7.17114E-03-4.85950E-02 6.13331E-14-6.93412E-15
 -1      4158 1.93583E+01 6.96029E-01-1.93090E-03-1.44847E-01 1.26389E-13-1.38321E-13
 -1      4159 1.94468E+01 6.35874E-01-2.48072E-03-1.28999E-01 1.59341E-13-1.87131E-13
 -1      4160 1.92903E+01 7.44488E-01 5.15069E-03-5.55657E-02 8.24772E-14-1.65632E-14
 -1      4161 1.95113E+01 5.98621E-01 2.99890E-04-1.11960E-01 1.84011E-13-2.89902E-13
 -1      4162 1.95686E+01 5.47385E-01-1.76357E-03-8.37688E-02 1.39358E-13-1.77264E-13
 -1      4163 1.95606E+01 5.56138E-01 1.18705E-03-2.08648E-02 3.68992E-15-1.82544E-13
 -1      4164 1.94528E+01 6.39880E-01 3.58642E-03-4.30583E-02 2.38093E-14-1.21006E-13
 -1      4165 1.85982E+01 8.29003E-01-8.13196E-03 7.98985E-01 8.10526E-14 4.77390E-13
 -1      4166 1.84954E+01 8.17389E-01 4.21859E-03 9.17331E-01 6.01132E-14 4.49259E-13
 -1      4167 1.91209E+01 7.61994E-01-4.77584E-03 4.65524E-01 7.09462E-14 3.45415E-13
 -1      4168 1.90316E+01 7.97115E-01 1.30455E-03 5.34103E-01 4.49433E-14 2.84978E-13
 -1      4169 1.50389E+01 1.08322E+00 4.85311E-02 1.05531E+00 1.14990E-13-2.30607E-13
 -1      4170 1.88804E+01 8.17205E-01-6.16010E-03 6.08549E-01 2.67374E-14 2.71803E-13
 -1      4171 1.87815E+01 8.34661E-01 2.38545E-03 6.97742E-01 5.36552E-14 4.46290E-13
 -1      4172 1.88522E+01 8.88413E-01 9.22999E-03 4.71567E-01 9.66352E-14 4.81535E-14
 -1      4173 1.82734E+01 7.72011E-01-1.07758E-02 1.05788E+00-9.43754E-14 3.72316E-13
 -1      4174 1.81808E+01 7.15614E-01 8.23676E-03 1.21798E+00-1.95960E-13 3.09024E-13
 -1      4175 1.81691E+01 9.34615E-01 1.28790E-02 8.58983E-01-5.86108E-14 7.83144E-14
 -1      4176 1.71451E+01 2.53594E-01 7.58543E-03-2.07615E+00-6.27920E-14-2.71170E-13
 -1      4177 1.78108E+01 1.73461E-01 1.47088E-02-1.99009E+00-3.31321E-14-2.53913E-13
 -1      4178 1.78572E+01 3.55391E-01-1.04372E-02-1.72877E+00-9.01070E-14-2.55334E-13
 -1      4179 1.68459E+01 5.81334E-01-1.68077E-02-1.61638E+00-7.18100E-14-2.95790E-13
 -1      4180 2.03341E+01 7.88812E-01 1.48685E-03 2.71304E-02 4.53757E-14-1.75197E-13
 -1      4181 2.03326E+01 8.85586E-01-4.45411E-04 3.97131E-02 3.72024E-14-2.14263E-13
 -1      4182 2.03265E+01 9.51227E-01-2.02718E-03 3.25246E-02 3.05903E-14-2.52491E-13
 -1      4183 2.03191E+01 6.60124E-01-2.25052E-03-4.55381E-02 5.32355E-14-1.74156E-13
 -1      4184 1.93223E+01 6.82447E-01-3.74034E-03 3.56441E-01-6.22471E-14 2.26237E-13
 -1      4185 1.92449E+01 7.26840E-01 6.71866E-04 4.10033E-01 1.20520E-14 2.96879E-13
 -1      4186 1.91090E+01 8.07451E-01 7.44302E-03 3.52857E-01 7.62722E-14 2.82561E-13
 -1      4187 1.94882E+01 5.92513E-01-2.75182E-03 2.72579E-01-4.45454E-14-1.95761E-14
 -1      4188 1.94230E+01 6.39907E-01 3.03943E-04 3.14326E-01-4.81426E-15 1.48774E-13
 -1      4189 1.93193E+01 7.10614E-01 5.82107E-03 2.64884E-01-3.31911E-14 3.54976E-14
 -1      4190 1.79162E+01 6.12508E-01-1.18583E-02 1.42025E+00-2.15687E-13 2.19992E-13
 -1      4191 1.78438E+01 4.84036E-01 1.30906E-02 1.63895E+00-1.47054E-13 6.50020E-14
 -1      4192 1.77120E+01 8.39849E-01 7.75021E-03 1.17507E+00-2.80357E-13 3.08468E-13
 -1      4193 1.83763E+01 6.94400E-01 5.47483E-03-1.10636E+00-1.45895E-13-2.40987E-13
 -1      4194 1.84913E+01 7.23499E-01-8.68821E-03-9.72180E-01-1.81182E-13-2.30070E-13
 -1      4195 1.66073E+01 2.64502E-01 3.42936E-02 2.26937E+00-5.64830E-14 2.27396E-13
 -1      4196 1.80212E+01 5.29718E-01 6.45154E-03-1.47051E+00-1.11765E-13-2.25628E-13
 -1      4197 1.81196E+01 6.23642E-01-1.27349E-02-1.28444E+00-1.14532E-13-2.41277E-13
 -1      4198 1.79800E+01 8.36766E-01 1.73427E-02-1.03787E+00-9.80947E-14-2.92332E-13
 -1      4199 1.51602E+01 1.22884E+00 3.53158E-02 4.94907E-02-1.07489E-13-5.91261E-14
 -1      4200 1.56201E+01 1.18400E+00 1.85320E-03-4.25487E-01-1.13594E-13-1.92138E-13
 -1      4201 1.60987E+01 1.21566E+00-2.02683E-02-2.52337E-01-5.90853E-14-1.68845E-13
 -1      4202 1.55558E+01 1.09534E+00-2.24277E-02 5.88491E-01-1.80957E-13-1.26912E-14
 -1      4203 1.98934E+01 4.72586E-01-1.07083E-03 1.50252E-01-2.24105E-14-1.66843E-13
 -1      4204 1.98004E+01 5.05124E-01-1.51936E-03 1.65755E-01-4.14139E-14-1.60778E-13
 -1      4205 1.97423E+01 5.45713E-01 4.10297E-03 7.97943E-02-4.46541E-14-2.42169E-13
 -1      4206 2.00562E+01 4.39706E-01-8.42041E-04 1.26623E-01-5.17689E-14-1.43330E-13
 -1      4207 1.99809E+01 4.50261E-01-1.00736E-03 1.44581E-01-2.83554E-14-1.52227E-13
 -1      4208 2.00917E+01 4.59002E-01 1.72506E-03 6.34475E-02-1.54506E-14-1.85080E-13
 -1      4209 1.98742E+01 4.08725E-01 6.54148E-04-4.48442E-01-3.81854E-14-1.53982E-13
 -1      4210 1.99308E+01 3.83828E-01-1.44960E-03-4.05821E-01-5.48350E-14-1.49665E-13
 -1      4211 1.97892E+01 4.63714E-01 1.42616E-03-4.05806E-01-7.62652E-14-9.86816E-14
 -1      4212 1.66413E+01 1.23763E+00-4.47012E-03-1.83672E-01-1.16119E-14-8.66092E-14
 -1      4213 1.70508E+01 1.22815E+00-1.05798E-02-1.69644E-01-1.24562E-13-1.87510E-13
 -1      4214 2.00051E+01 3.66183E-01 2.65365E-04-3.71056E-01-1.81122E-14-1.50743E-13
 -1      4215 2.00565E+01 3.55651E-01-9.28004E-04-3.31675E-01 4.60646E-14-1.38719E-13
 -1      4216 1.99454E+01 4.11193E-01 1.07233E-03-3.32693E-01-3.25455E-14-1.03076E-13
 -1      4217 1.74220E+01 1.21747E+00-9.44831E-03-1.93002E-01-4.52628E-14-1.46233E-13
 -1      4218 1.77450E+01 1.19289E+00-6.51090E-03-1.79375E-01 8.58766E-14-1.11128E-14
 -1      4219 1.72309E+01 1.25058E+00 1.65441E-02 1.61187E-01-3.45179E-14-3.25925E-13
 -1      4220 1.50344E+01 1.07134E+00-2.20711E-02 7.78562E-02 2.01870E-14-3.00092E-13
 -1      4221 1.74017E+01 5.53132E-01 6.09352E-03 1.68295E+00-2.21253E-13 1.19576E-13
 -1      4222 1.87029E+01 7.46584E-01 3.14151E-03-8.52499E-01-1.39345E-13-1.95541E-13
 -1      4223 1.88253E+01 7.39630E-01-4.74279E-03-7.49638E-01-7.79568E-14-1.26578E-13
 -1      4224 1.84133E+01 8.42693E-01 3.51312E-03-7.58625E-01-1.10476E-13-2.00264E-13
 -1      4225 1.99366E+01 4.77364E-01 2.61202E-03 7.38902E-02-4.99179E-14-2.36115E-13
 -1      4226 1.61936E+01 1.15394E+00-1.61879E-02 1.16283E-01-4.22588E-14-2.93056E-13
 -1      4227 1.56750E+01 1.12807E+00-1.57741E-02 1.72528E-01-1.81851E-14-2.45368E-13
 -1      4228 1.54655E+01 1.14355E+00 3.67436E-02-5.68336E-01-3.31829E-14-3.00439E-13
 -1      4229 1.65110E+01 1.18096E+00 2.79257E-02-3.18610E-01-3.64716E-14-3.09249E-13
 -1      4230 2.03214E+01 7.15812E-01-1.88128E-03 1.79434E-02-3.27287E-16-1.79911E-13
 -1      4231 2.03032E+01 6.16932E-01 5.53119E-04 4.92339E-02-3.67239E-15-1.90375E-13
 -1      4232 2.02871E+01 5.99245E-01 1.17722E-03 2.72470E-02 1.39041E-14-1.81276E-13
 -1      4233 2.03220E+01 7.34535E-01-1.03255E-03 7.89228E-03-5.10071E-15-1.97294E-13
 -1      4234 1.85422E+01 9.38012E-01 1.13005E-02 6.33903E-01 1.23586E-13 1.89353E-13
 -1      4235 1.78816E+01 1.19448E+00 1.50922E-02 6.63725E-02 1.40495E-13-2.23892E-13
 -1      4236 2.03410E+01 8.09489E-01 2.46446E-03 4.91637E-04 2.18636E-14-2.47669E-13
 -1      4237 2.02589E+01 4.93858E-01-1.14405E-03-1.22320E-01-2.81395E-15-1.80683E-13
 -1      4238 2.02904E+01 5.47025E-01 6.20101E-05-9.15033E-02-1.12810E-14-1.81974E-13
 -1      4239 1.61198E+01 9.48501E-01-2.01383E-03-9.56893E-01-7.79047E-14-2.84440E-13
 -1      4240 1.95495E+01 5.60585E-01 1.54393E-04 2.43891E-01-3.15116E-14-1.36827E-14
 -1      4241 1.94673E+01 6.23286E-01 4.25923E-03 2.00750E-01 6.73456E-14 9.93560E-14
 -1      4242 1.95883E+01 5.27687E-01-1.53874E-03 2.14972E-01-1.03491E-13-1.75703E-13
 -1      4243 1.96777E+01 4.59948E-01-1.28051E-03 1.70720E-01-1.62270E-13-2.37543E-13
 -1      4244 1.96437E+01 4.92624E-01 2.38762E-04 1.96243E-01-1.62269E-13-1.06667E-13
 -1      4245 1.96712E+01 4.68225E-01 9.41280E-04 1.23204E-01-1.16327E-13-2.25281E-13
 -1      4246 1.63795E+01 1.26018E+00 2.20109E-02 1.62341E-01-4.69863E-14-1.43006E-13
 -1      4247 1.63666E+01 6.38806E-01-1.11010E-02 1.63294E+00-1.20490E-13 1.62028E-13
 -1      4248 2.03206E+01 6.65008E-01 5.46566E-04-5.44097E-02 4.07016E-14-1.71700E-13
 -1      4249 1.75672E+01 6.25344E-01 3.68855E-04-1.46149E+00-8.56297E-14-2.27098E-13
 -1      4250 2.00794E+01 3.90533E-01 9.89814E-04-2.67599E-01 1.05222E-14-1.09530E-13
 -1      4251 2.01649E+01 4.20312E-01-5.29696E-04-1.76648E-01 3.19455E-14-1.45453E-13
 -1      4252 2.02137E+01 4.48705E-01-5.61429E-04-1.44409E-01 2.83995E-14-1.56642E-13
 -1      4253 2.02396E+01 5.00786E-01 1.05823E-03-9.70540E-02-1.44022E-14-2.06568E-13
 -1      4254 1.97083E+01 5.07807E-01 2.07069E-04-3.42980E-01-8.96654E-14-1.08585E-13
 -1      4255 1.97919E+01 4.71638E-01-1.80238E-03-3.05572E-01-5.82877E-14-1.09270E-13
 -1      4256 1.68575E+01 6.90496E-01-9.34464E-03 1.48187E+00-1.64141E-13 1.27530E-13
 -1      4257 1.60433E+01 1.07646E+00 3.05668E-02 1.02486E+00-1.60966E-13 2.06486E-13
 -1      4258 1.61344E+01 1.13624E+00-7.64337E-03 5.54060E-01-1.05044E-13 3.52626E-14
 -1      4259 1.69444E+01 8.93534E-01-9.02423E-03 1.14875E+00-2.71903E-13 1.78112E-13
 -1      4260 1.95026E+01 5.87744E-01 5.72530E-04-4.23300E-01-8.04214E-14-1.17255E-13
 -1      4261 1.95954E+01 5.45243E-01-2.85775E-03-3.77877E-01-1.01893E-13-1.24863E-13
 -1      4262 1.96163E+01 5.68957E-01 4.33340E-03-2.73408E-01-7.77397E-14-1.04728E-13
 -1      4263 1.96554E+01 4.76843E-01-4.22856E-04 5.26284E-02-1.87041E-14-2.60351E-13
 -1      4264 1.91864E+01 6.47985E-01 1.93998E-03-7.50027E-01-1.21771E-13-2.22613E-14
 -1      4265 1.92665E+01 6.65341E-01 4.61897E-04-5.29063E-01-1.10838E-13-4.28883E-14
 -1      4266 1.93692E+01 6.26261E-01-3.95711E-03-4.70924E-01-7.40294E-14-8.24455E-14
 -1      4267 1.93796E+01 6.61507E-01 5.57339E-03-3.45411E-01-1.01084E-13-1.69411E-13
 -1      4268 2.02393E+01 5.14929E-01-6.77304E-05 6.88301E-04 2.63106E-15-2.21305E-13
 -1      4269 2.01855E+01 4.74806E-01-1.27775E-03 7.67999E-03-2.78256E-14-2.19968E-13
 -1      4270 1.92833E+01 6.98619E-01-3.07688E-03-1.53467E-01-7.97805E-14-2.03812E-13
 -1      4271 1.91303E+01 7.56348E-01-3.32714E-03-1.70490E-01-7.48598E-14-1.84460E-13
 -1      4272 1.86067E+01 9.26121E-01-2.84591E-03-1.64354E-01-6.52460E-14-1.88680E-13
 -1      4273 1.83595E+01 9.77455E-01-7.27432E-03-1.92124E-01-1.44891E-14-1.52664E-13
 -1      4274 1.81410E+01 9.60295E-01-6.32151E-03-4.47135E-01-4.11357E-14-1.89239E-13
 -1      4275 1.78337E+01 9.77424E-01-1.62070E-02-5.12640E-01-7.11739E-14-2.25200E-13
 -1      4276 1.75814E+01 9.68320E-01-9.16317E-03-6.46698E-01-4.28437E-14-2.56606E-13
 -1      4277 1.72134E+01 9.62900E-01-1.40327E-02-7.41078E-01-1.37017E-14-2.58788E-13
 -1      4278 1.87339E+01 9.34531E-01-8.34372E-03 2.04629E-01 6.10194E-14-9.91266E-14
 -1      4279 1.89086E+01 8.86449E-01-3.61318E-03 1.81174E-01 6.88602E-14 5.64910E-14
 -1      4280 1.90302E+01 8.32839E-01-6.43098E-03 1.38718E-01 4.33831E-14 4.97996E-14
 -1      4281 1.91684E+01 7.79039E-01-2.86454E-03 1.24660E-01 5.30127E-14 1.93168E-14
 -1      4282 1.92678E+01 7.23310E-01-4.60034E-03 9.39141E-02 5.77772E-14-1.07599E-13
 -1      4283 1.93763E+01 6.67883E-01-2.18426E-03 8.58197E-02 4.47501E-14 2.75318E-14
 -1      4284 1.98156E+01 4.84608E-01 1.98247E-04-2.15659E-01-4.62213E-14-1.19677E-13
 -1      4285 1.98863E+01 4.43368E-01-1.28083E-04-2.79838E-01-4.00026E-14-9.78400E-14
 -1      4286 1.99592E+01 4.21775E-01-1.17033E-03-2.46873E-01-5.09717E-14-1.01879E-13
 -1      4287 1.99760E+01 4.58038E-01-9.18772E-04-3.67819E-03-3.66910E-14-2.37822E-13
 -1      4288 1.98855E+01 4.78604E-01-1.81583E-03 3.54820E-04-5.54630E-14-2.46615E-13
 -1      4289 1.85862E+01 9.79722E-01-4.36848E-03 2.63233E-01 1.08936E-13-1.68686E-13
 -1      4290 1.79011E+01 1.06204E+00-1.37950E-02 4.40712E-01-3.11160E-14-1.91016E-13
 -1      4291 1.76900E+01 1.06707E+00-4.40671E-03 5.56335E-01-1.37222E-13-1.85371E-13
 -1      4292 2.03124E+01 6.70177E-01 4.60194E-04-4.17753E-02-1.99713E-14-2.42039E-13
 -1      4293 2.03191E+01 6.65094E-01-1.57143E-03-5.46548E-02-6.69914E-15-2.06134E-13
 -1      4294 1.73181E+01 1.06332E+00-1.31642E-02 6.49474E-01-1.20594E-13-5.41505E-14
 -1      4295 1.70479E+01 1.02534E+00-3.78588E-03 8.05364E-01-2.20267E-13-6.77496E-15
 -1      4296 2.03211E+01 7.09956E-01-1.80166E-03-1.69367E-02-1.14154E-14-2.35042E-13
 -1      4297 2.03191E+01 7.21464E-01-1.61107E-03-6.10127E-03-1.72848E-14-2.20201E-13
 -1      4298 1.97699E+01 5.11167E-01-1.46966E-03-7.94998E-02-4.19064E-14-1.85441E-13
 -1      4299 1.96589E+01 5.50991E-01-2.96009E-03-8.37086E-02-3.17557E-14-1.80669E-13
 -1      4300 1.83641E+01 1.01576E+00-1.08429E-02 3.00590E-01 2.11049E-13-1.42483E-13
 -1      4301 1.81862E+01 1.04530E+00-5.06213E-03 3.82295E-01 1.67576E-13-2.03404E-13
 -1      4302 2.01257E+01 4.54668E-01-5.93297E-04 1.35644E-04-3.02985E-14-2.16755E-13
 -1      4303 2.00547E+01 4.49076E-01-1.12307E-03 4.97901E-03-1.92526E-14-2.20812E-13
 -1      4304 2.01588E+01 4.69256E-01 1.22949E-03-4.92820E-02-2.66433E-14-2.36513E-13
 -1      4305 1.96117E+01 5.10498E-01-8.68770E-04 6.65401E-02-1.91168E-13-1.38068E-13
 -1      4306 1.95456E+01 5.94373E-01-3.32202E-03-1.10473E-01-6.08954E-14-2.05249E-13
 -1      4307 1.94140E+01 6.47104E-01-4.32358E-03-1.19113E-01-8.22268E-14-2.07237E-13
 -1      4308 1.89998E+01 7.25014E-01 9.76033E-04-6.68658E-01-7.40896E-14-1.02968E-13
 -1      4309 1.91151E+01 6.99394E-01-3.45568E-03-5.90530E-01-9.70162E-14-7.86097E-14
 -1      4310 1.87862E+01 8.06544E-01 2.02943E-03-5.81118E-01-5.53053E-14-1.66517E-13
 -1      4311 2.00397E+01 4.08501E-01-3.02029E-04-2.26876E-01-3.13141E-14-9.59335E-14
 -1      4312 2.01010E+01 4.07954E-01-8.39200E-04-1.96070E-01 1.78537E-14-1.21043E-13
 -1      4313 2.01314E+01 4.40050E-01 1.02096E-03-1.37099E-01-1.06774E-14-1.34216E-13
 -1      4314 1.99893E+01 4.41230E-01 1.20384E-03-1.74120E-01-3.03258E-14-1.46870E-13
 -1      4315 2.03106E+01 6.47016E-01 1.70246E-03-1.90495E-03 9.66928E-15-2.18118E-13
 -1      4316 2.02829E+01 5.82837E-01-1.05003E-03 7.71895E-03 1.15653E-14-2.16159E-13
 -1      4317 2.02962E+01 5.92277E-01 1.41760E-03-4.61813E-02-2.98052E-15-2.24931E-13
 -1      4318 2.02644E+01 5.59108E-01 1.14642E-03-2.97314E-02-4.54137E-15-2.26774E-13
 -1      4319 2.02489E+01 5.14941E-01-1.53316E-03-5.95623E-02-2.87452E-14-2.32627E-13
 -1      4320 2.02044E+01 4.73361E-01 2.96851E-04-7.97262E-02-1.53836E-14-2.15804E-13
 -1      4321 1.68221E+01 1.03002E+00-1.78216E-02-6.43610E-01-2.27884E-14-2.95755E-13
 -1      4322 1.63895E+01 1.00919E+00-1.97333E-02-7.55395E-01-7.37273E-14-3.13483E-13
 -1      4323 1.89841E+01 8.14609E-01-4.31017E-03-1.03246E-01-7.31036E-14-2.57798E-13
 -1      4324 1.88006E+01 8.73949E-01-4.19198E-03-1.19943E-01-7.24811E-14-2.19965E-13
 -1      4325 1.73354E+01 8.61640E-01 1.45992E-02-1.13681E+00-5.74033E-14-2.61528E-13
 -1      4326 1.94995E+01 5.88621E-01-1.98817E-03 7.18948E-02-6.35791E-14 2.29883E-14
 -1      4327 1.95550E+01 5.52262E-01-7.25859E-04 7.91286E-02-7.20629E-14-2.05972E-14
 -1      4328 1.94365E+01 6.28868E-01-2.60947E-03 6.36850E-02 2.86314E-14 5.20448E-14
 -1      4329 2.00199E+01 4.55936E-01 1.14206E-03-6.82823E-02-4.68978E-14-2.38415E-13
 -1      4330 1.66454E+01 8.43138E-01 1.24632E-02-1.27057E+00-5.19710E-14-3.23144E-13
 -1      4331 1.98315E+01 4.92399E-01 1.59723E-03-1.56060E-01-3.89075E-14-1.69583E-13
 -1      4332 1.71791E+01 7.01756E-01 1.03572E-02-1.38891E+00-6.30108E-14-2.86247E-13
 -1      4333 1.95797E+01 5.41569E-01 2.16911E-03 1.55555E-01-1.89732E-13 4.60341E-14
 -1      4334 1.83734E+01 9.01259E-01 6.75061E-03-6.16823E-01-6.23167E-14-2.02546E-13
 -1      4335 1.91042E+01 7.41031E-01 2.52352E-03-4.46817E-01-6.75680E-14-1.30935E-13
 -1      4336 1.87542E+01 8.74931E-01 2.90982E-03-3.17001E-01-5.30759E-14-1.86628E-13
 -1      4337 1.66322E+01 1.15243E+00-6.00423E-03 5.67477E-01-1.33093E-13 1.31488E-14
 -1      4338 1.90931E+01 7.65166E-01 2.47028E-03-3.29030E-01-6.34896E-14-1.43088E-13
 -1      4339 1.89490E+01 8.01147E-01 1.88951E-03-3.79874E-01-5.79741E-14-1.90707E-13
 -1      4340 2.01434E+01 4.46879E-01-1.22128E-03-8.98535E-02-2.00648E-14-1.93899E-13
 -1      4341 2.00811E+01 4.38220E-01 4.29686E-04-1.06648E-01-5.20138E-14-1.72518E-13
 -1      4342 2.00020E+01 4.41117E-01-1.38955E-03-1.19187E-01-4.68784E-14-2.01883E-13
 -1      4343 1.87495E+01 8.42734E-01-2.84988E-03-4.43865E-01-5.47957E-14-1.54128E-13
 -1      4344 1.85816E+01 8.72027E-01-3.63692E-05-5.17839E-01-4.61369E-14-1.73196E-13
 -1      4345 1.99248E+01 4.59474E-01 7.69392E-04-1.35410E-01-4.96980E-14-1.73833E-13
 -3
    1PSTEP                         3           1           1          
  100CL  101 1.000000000        4345                     0    1           1
 -4  TOSTRAIN    6    1
 -5  EXX         1    4    1    1
 -5  EYY         1    4    2    2
 -5  EZZ         1    4    3    3
 -5  EXY         1    4    1    2
 -5  EYZ         1    4    2    3
 -5  EZX         1    4    3    1
 -1         1 1.50105E-04-5.97126E-06-5.53979E-05-1.10542E-04-5.39433E-18 8.25349E-18
 -1         2 3.50683E-05-1.09126E-04 1.98792E-05-6.28951E-07 2.10865E-18-1.48919E-19
 -1         3 9.52294E-05-2.85792E-05-2.85476E-05-2.52889E-09-3.69104E-18-4.37179E-18
 -1         4 9.52291E-05-2.85794E-05-2.85469E-05 2.62993E-09 1.42020E-18-7.22077E-20
 -1         5 1.42980E-04-2.14209E-05-4.24285E-05 3.84523E-05-1.48654E-19 1.17219E-17
 -1         6 1.45038E-04 2.56880E-10-4.40837E-05-5.34088E-05-7.11084E-19 1.22566E-17
 -1         7 9.04560E-05-5.10939E-07-3.90006E-05-2.91977E-05-1.07256E-19 2.65428E-18
 -1         8 8.50612E-05 8.44555E-08-3.63087E-05-2.02236E-05-1.54981E-19-4.45081E-19
 -1         9 8.28141E-05 7.44479E-08-3.53480E-05-1.55850E-05-1.25930E-19-2.21812E-18
 -1        10 8.18185E-05 3.73066E-08-3.48991E-05-1.20187E-05-7.35661E-20-3.12429E-18
 -1        11 8.13277E-05 1.76433E-08-3.46840E-05-8.95349E-06-8.15534E-20-3.56305E-18
 -1        12 8.10738E-05 7.97477E-09-3.45773E-05-6.23275E-06-3.21029E-20-3.76013E-18
 -1        13 8.09406E-05 3.67947E-09-3.45237E-05-3.65082E-06-3.03443E-20-3.75405E-18
 -1        14 8.08846E-05 1.94717E-09-3.45019E-05-1.17111E-06-1.49881E-20-3.76058E-18
 -1        15 8.08862E-05 1.94251E-09-3.45025E-05 1.27724E-06 2.46771E-20-3.73402E-18
 -1        16 8.09457E-05 3.60356E-09-3.45254E-05 3.76190E-06 1.94073E-20-3.72743E-18
 -1        17 8.10835E-05 7.22599E-09-3.45800E-05 6.35583E-06 6.51537E-20-3.65951E-18
 -1        18 8.13419E-05 1.66919E-08-3.46877E-05 9.09571E-06 5.65626E-20-3.40248E-18
 -1        19 8.18403E-05 3.63993E-08-3.49065E-05 1.21968E-05 1.13734E-19-2.94360E-18
 -1        20 8.28351E-05 7.94838E-08-3.53604E-05 1.58147E-05 1.27201E-19-2.08146E-18
 -1        21 8.50255E-05 1.67409E-07-3.63468E-05 2.04331E-05 1.64880E-19-2.26156E-19
 -1        22 9.14889E-05-9.96770E-08-3.86729E-05 2.79458E-05 4.06576E-20 3.42450E-18
 -1        23 1.12674E-04-3.80256E-05-3.53077E-05-4.39173E-06-4.73915E-19 9.78355E-18
 -1        24 9.25661E-05-2.76263E-05-2.89259E-05 3.90010E-07-1.95148E-19 7.65326E-18
 -1        25 8.89180E-05-2.67925E-05-2.68684E-05 3.73764E-07-2.57501E-20 5.63445E-18
 -1        26 8.78590E-05-2.64426E-05-2.63451E-05 2.01568E-07 8.15633E-20 4.31825E-18
 -1        27 8.79513E-05-2.64412E-05-2.63576E-05 1.37163E-07-1.16535E-19 3.14308E-18
 -1        28 8.85872E-05-2.66089E-05-2.65585E-05 9.81289E-08-1.12138E-19 2.06853E-18
 -1        29 8.94992E-05-2.68695E-05-2.68392E-05 7.27423E-08 1.10798E-19 1.44632E-18
 -1        30 9.05598E-05-2.71810E-05-2.71613E-05 5.52679E-08 1.91597E-20 9.84821E-19
 -1        31 9.17148E-05-2.75242E-05-2.75109E-05 4.31253E-08-1.33587E-19 2.82563E-19
 -1        32 9.29563E-05-2.78954E-05-2.78866E-05 3.52474E-08-1.14864E-19 5.81260E-20
 -1        33 9.43097E-05-2.83013E-05-2.82966E-05 3.13503E-08 1.47893E-19 2.03061E-19
 -1        34 9.58266E-05-2.87570E-05-2.87566E-05 3.16469E-08-5.82548E-20 3.01673E-20
 -1        35 9.75803E-05-2.92841E-05-2.92885E-05 3.67532E-08 1.25856E-19-9.22579E-19
 -1        36 9.96601E-05-2.99087E-05-2.99192E-05 4.76454E-08 2.41723E-21-3.00879E-19
 -1        37 1.02163E-04-3.06595E-05-3.06774E-05 6.55447E-08-3.18777E-20 4.52081E-19
 -1        38 1.05179E-04-3.15625E-05-3.15885E-05 9.15336E-08-3.65106E-19-1.51569E-19
 -1        39 1.08760E-04-3.26320E-05-3.26647E-05 1.25528E-07-1.40624E-19-9.39816E-19
 -1        40 1.12861E-04-3.38546E-05-3.38866E-05 1.63962E-07 1.42097E-20-8.25017E-19
 -1        41 1.17256E-04-3.51625E-05-3.51752E-05 1.95400E-07-7.07545E-20-2.80862E-18
 -1        42 1.21403E-04-3.63964E-05-3.63555E-05 1.94073E-07 1.31933E-19-2.02242E-18
 -1        43 1.24327E-04-3.72691E-05-3.71277E-05 1.14924E-07-2.69707E-19-1.88200E-19
 -1        44 1.24612E-04-3.73628E-05-3.70899E-05-9.70781E-08 2.65568E-19 2.61194E-18
 -1        45 1.20775E-04-3.62319E-05-3.58723E-05-4.61454E-07-2.76962E-19 2.62922E-18
 -1        46 1.12222E-04-3.36834E-05-3.34117E-05-8.76941E-07 4.43238E-19 1.17002E-18
 -1        47 1.00554E-04-3.01768E-05-3.02427E-05-1.07447E-06-3.93489E-19 2.61161E-18
 -1        48 9.00368E-05-2.69912E-05-2.75073E-05-7.68361E-07 1.04096E-19 5.30137E-19
 -1        49 8.57645E-05-2.56924E-05-2.64188E-05 2.31515E-09 3.52336E-19-4.13699E-19
 -1        50 9.00590E-05-2.69991E-05-2.75104E-05 7.66853E-07-2.14872E-19-4.57742E-19
 -1        51 1.00578E-04-3.01839E-05-3.02507E-05 1.07323E-06-1.47580E-19-2.96673E-19
 -1        52 1.12255E-04-3.36933E-05-3.34216E-05 8.76501E-07-3.06040E-20-1.06133E-18
 -1        53 1.20820E-04-3.62455E-05-3.58868E-05 4.60661E-07-3.90428E-19-2.90371E-18
 -1        54 1.24676E-04-3.73824E-05-3.71106E-05 9.62456E-08 6.94203E-19-2.66817E-18
 -1        55 1.24424E-04-3.72989E-05-3.71582E-05-1.15256E-07-1.31474E-19 2.42913E-19
 -1        56 1.21554E-04-3.64423E-05-3.64017E-05-1.93857E-07-1.45997E-19-2.46226E-18
 -1        57 1.17483E-04-3.52318E-05-3.52449E-05-1.94576E-07 1.75078E-19-2.61433E-18
 -1        58 1.13197E-04-3.39565E-05-3.39891E-05-1.62323E-07 5.11513E-20-9.13161E-19
 -1        59 1.09241E-04-3.27778E-05-3.28113E-05-1.22767E-07-1.58812E-19-1.42480E-19
 -1        60 1.05853E-04-3.17661E-05-3.17934E-05-8.72289E-08 2.08069E-19 4.30395E-19
 -1        61 1.03085E-04-3.09376E-05-3.09573E-05-5.91436E-08 6.52335E-20-4.42618E-19
 -1        62 1.00896E-04-3.02809E-05-3.02941E-05-3.84378E-08-1.48068E-19-4.77565E-18
 -1        63 9.92064E-05-2.97732E-05-2.97814E-05-2.38388E-08-1.88494E-19-3.78582E-18
 -1        64 9.79289E-05-2.93886E-05-2.93933E-05-1.38909E-08 8.26296E-19-2.99048E-18
 -1        65 9.69809E-05-2.91027E-05-2.91051E-05-7.31488E-09-1.63455E-19-3.18224E-18
 -1        66 9.62918E-05-2.88945E-05-2.88956E-05-3.06985E-09 2.17445E-19-2.23631E-18
 -1        67 9.58047E-05-2.87470E-05-2.87476E-05-2.89700E-10 5.27270E-19-1.52913E-18
 -1        68 9.54770E-05-2.86475E-05-2.86485E-05 1.86299E-09 2.25006E-20-5.67889E-19
 -1        69 9.52791E-05-2.85869E-05-2.85889E-05 4.38770E-09 5.86605E-20-1.25221E-18
 -1        70 9.51926E-05-2.85596E-05-2.85621E-05 8.95340E-09 2.71341E-19 1.12744E-18
 -1        71 9.52011E-05-2.85611E-05-2.85570E-05 1.38757E-08-5.00627E-19 1.75778E-18
 -1        72 1.01903E-04-3.05030E-05-3.40641E-05-1.92295E-06 2.45401E-19 1.04632E-17
 -1        73 9.23267E-05-2.74436E-05-2.88356E-05-3.31554E-07 1.03040E-19 7.66657E-18
 -1        74 8.89101E-05-2.66433E-05-2.69132E-05-1.23548E-07 1.35419E-19 5.75820E-18
 -1        75 8.78956E-05-2.63951E-05-2.63913E-05-9.22034E-08-3.17584E-20 4.28159E-18
 -1        76 8.79949E-05-2.64232E-05-2.63873E-05-7.22048E-08 1.26949E-19 3.29210E-18
 -1        77 8.86323E-05-2.66057E-05-2.65796E-05-5.71907E-08-6.83315E-20 2.75316E-18
 -1        78 8.95435E-05-2.68733E-05-2.68562E-05-4.55409E-08-3.86868E-20 2.65811E-18
 -1        79 9.06003E-05-2.71872E-05-2.71755E-05-3.59944E-08 5.12135E-20 2.07944E-18
 -1        80 9.17454E-05-2.75292E-05-2.75212E-05-2.81098E-08 3.70642E-20 8.90778E-19
 -1        81 9.29647E-05-2.78940E-05-2.78897E-05-2.19298E-08 1.24063E-19 9.33672E-20
 -1        82 9.42725E-05-2.82857E-05-2.82854E-05-1.77886E-08 1.13578E-19-2.95232E-19
 -1        83 9.57014E-05-2.87136E-05-2.87179E-05-1.62315E-08-2.42010E-19 9.03275E-19
 -1        84 9.72933E-05-2.91900E-05-2.91994E-05-1.79977E-08 2.32427E-20 1.57479E-18
 -1        85 9.90892E-05-2.97271E-05-2.97415E-05-2.39824E-08-7.12121E-20 1.50569E-18
 -1        86 1.01115E-04-3.03323E-05-3.03507E-05-3.50921E-08 2.08355E-19-8.53055E-20
 -1        87 1.03361E-04-3.10026E-05-3.10222E-05-5.18607E-08-2.47988E-19-5.95004E-19
 -1        88 1.05753E-04-3.17164E-05-3.17311E-05-7.36360E-08-1.44479E-19-3.99320E-19
 -1        89 1.08119E-04-3.24226E-05-3.24220E-05-9.71387E-08 4.67937E-19-2.69942E-18
 -1        90 1.10148E-04-3.30303E-05-3.29987E-05-1.14408E-07-3.52555E-19-3.49436E-18
 -1        91 1.11374E-04-3.34024E-05-3.33217E-05-1.10930E-07 7.59244E-20-1.45737E-18
 -1        92 1.11209E-04-3.33649E-05-3.32233E-05-6.64255E-08-1.80273E-19 4.61911E-19
 -1        93 1.09082E-04-3.27462E-05-3.25541E-05 3.70999E-08 6.58825E-20 1.35418E-18
 -1        94 1.04724E-04-3.14579E-05-3.12654E-05 1.97314E-07 1.55533E-19-2.53713E-19
 -1        95 9.85346E-05-2.96061E-05-2.95016E-05 3.69977E-07 8.44338E-20-1.12256E-18
 -1        96 9.18158E-05-2.75708E-05-2.76416E-05 4.68833E-07 1.33908E-19-3.31878E-19
 -1        97 8.65523E-05-2.59521E-05-2.62171E-05 4.11783E-07 1.32183E-19 1.75759E-20
 -1        98 8.46101E-05-2.53327E-05-2.57025E-05 1.89206E-07-3.82047E-19-5.99079E-19
 -1        99 8.67439E-05-2.59621E-05-2.62834E-05-1.04381E-07 7.81628E-20-1.06034E-18
 -1       100 9.21375E-05-2.75986E-05-2.77510E-05-3.33122E-07 7.16587E-20-2.68319E-18
 -1       101 9.88940E-05-2.96560E-05-2.96206E-05-4.17146E-07-2.00055E-19-3.49645E-18
 -1       102 1.05044E-04-3.15247E-05-3.13668E-05-3.67593E-07 3.91237E-19-4.29464E-18
 -1       103 1.09328E-04-3.28195E-05-3.26277E-05-2.48679E-07-7.74994E-20-1.68468E-18
 -1       104 1.11392E-04-3.34371E-05-3.32741E-05-1.23583E-07 1.67736E-19-2.56118E-19
 -1       105 1.11534E-04-3.34735E-05-3.33645E-05-2.72032E-08 3.76171E-19-9.16706E-20
 -1       106 1.10337E-04-3.31081E-05-3.30512E-05 3.22275E-08-4.96467E-19-1.84989E-18
 -1       107 1.08392E-04-3.25205E-05-3.25019E-05 6.08154E-08 5.42186E-21-4.33446E-18
 -1       108 1.06166E-04-3.18504E-05-3.18553E-05 6.87025E-08 4.41381E-19-5.16411E-18
 -1       109 1.03969E-04-3.11906E-05-3.12071E-05 6.48786E-08-3.18271E-19-3.76453E-18
 -1       110 1.01980E-04-3.05936E-05-3.06141E-05 5.56600E-08-1.67447E-19-3.65530E-18
 -1       111 1.00276E-04-3.00830E-05-3.01032E-05 4.48859E-08 1.99473E-19-5.35428E-18
 -1       112 9.88785E-05-2.96639E-05-2.96817E-05 3.46125E-08-7.13020E-19-4.30636E-18
 -1       113 9.77683E-05-2.93311E-05-2.93458E-05 2.57746E-08 4.76346E-19-1.80703E-18
 -1       114 9.69117E-05-2.90743E-05-2.90859E-05 1.86645E-08-5.17805E-21-6.61161E-18
 -1       115 9.62692E-05-2.88817E-05-2.88906E-05 1.32228E-08-3.94013E-19-5.52460E-18
 -1       116 9.58035E-05-2.87419E-05-2.87490E-05 9.16840E-09 2.87928E-19-1.70148E-18
 -1       117 9.54835E-05-2.86457E-05-2.86520E-05 6.02470E-09-4.10940E-19-2.91018E-18
 -1       118 9.52865E-05-2.85862E-05-2.85926E-05 2.99932E-09 6.41853E-19-8.45950E-18
 -1       119 9.51986E-05-2.85591E-05-2.85649E-05-2.20472E-09 2.98681E-19-1.39704E-17
 -1       120 9.52036E-05-2.85596E-05-2.85588E-05-1.14327E-08 1.36527E-18-1.11578E-17
 -1       121 9.52462E-05-2.86024E-05-2.85598E-05-1.50383E-08-1.03691E-17 3.21207E-20
 -1       122 9.52459E-05-2.86013E-05-2.85678E-05-4.68675E-09-5.19969E-18 1.07007E-18
 -1       123 9.52175E-05-2.85062E-05-2.85962E-05 3.02395E-09-6.94464E-19 2.94899E-20
 -1       124 9.51670E-05-2.83374E-05-2.86442E-05 7.39885E-09 1.38867E-20 9.91247E-19
 -1       125 9.51060E-05-2.81324E-05-2.87029E-05 8.78751E-09 1.06294E-18-1.18668E-18
 -1       126 9.50477E-05-2.79358E-05-2.87595E-05 8.00629E-09-7.21076E-19 1.42772E-19
 -1       127 9.50011E-05-2.77785E-05-2.88050E-05 5.48948E-09 4.60741E-19 5.97984E-19
 -1       128 9.49755E-05-2.76924E-05-2.88299E-05 1.89498E-09-2.00839E-18-5.63527E-19
 -1       129 9.49758E-05-2.76931E-05-2.88297E-05-2.08720E-09-6.02211E-18 1.09993E-18
 -1       130 9.50019E-05-2.77810E-05-2.88042E-05-5.72689E-09-4.92118E-18 6.51739E-19
 -1       131 9.50493E-05-2.79410E-05-2.87580E-05-8.35698E-09-5.90667E-18-1.09811E-18
 -1       132 9.51086E-05-2.81406E-05-2.87005E-05-9.06368E-09-4.45627E-18 1.20271E-18
 -1       133 9.51702E-05-2.83479E-05-2.86413E-05-7.44570E-09-7.24742E-18 4.89149E-19
 -1       134 9.52204E-05-2.85169E-05-2.85934E-05-3.44315E-09-3.26830E-18 3.17975E-19
 -1       135 9.52485E-05-2.86076E-05-2.85658E-05 7.20971E-09-3.44520E-18 2.21940E-19
 -1       136 9.52434E-05-2.86031E-05-2.85580E-05 2.40335E-08-2.20666E-18 7.53214E-19
 -1       137 2.41816E-05-8.22935E-05 1.43399E-05-2.21893E-05 8.60903E-18 2.34975E-18
 -1       138 6.82965E-06-2.92258E-05 2.01731E-06-1.56392E-05 8.93239E-18 3.65622E-18
 -1       139 1.55314E-05 1.83765E-05-1.75047E-05 3.08454E-05 1.03452E-17 8.45424E-18
 -1       140 6.83862E-05 2.58079E-05-3.82194E-05 8.57415E-05 8.47245E-18 9.81796E-18
 -1       141 1.60049E-04-9.96590E-06-5.73565E-05 1.13770E-04 4.87976E-18 9.41901E-18
 -1       142 2.53710E-04-6.22327E-05-7.14176E-05 8.88600E-05 2.42447E-18 7.89265E-18
 -1       143 3.05079E-04-9.39100E-05-7.81457E-05 1.66913E-05-6.20716E-20 3.54695E-21
 -1       144 2.84365E-04-8.07768E-05-7.56137E-05-6.22863E-05 1.52545E-18-6.60368E-18
 -1       145 2.01505E-04-3.17707E-05-6.40899E-05-1.08840E-04 5.83479E-18-1.42094E-17
 -1       146 9.93896E-05 1.55051E-05-4.52791E-05-9.91642E-05 1.18517E-17-1.63316E-17
 -1       147 3.05370E-05 2.60987E-05-2.53872E-05-5.22817E-05 1.61724E-17-1.41971E-17
 -1       148 5.02196E-06-9.56947E-06-4.12400E-06 3.15453E-06 1.66751E-17-9.47385E-18
 -1       149 1.71049E-05-6.40939E-05 1.04994E-05 2.49176E-05 1.08213E-17-3.49232E-18
 -1       150 3.33725E-05-1.04260E-04 1.87788E-05 1.22599E-05-5.30772E-19-1.04100E-18
 -1       151 3.27671E-05-1.03570E-04 1.86937E-05-1.52049E-05-1.09873E-17-1.30815E-18
 -1       152 1.56856E-05-6.21182E-05 1.01149E-05-2.64448E-05-1.29706E-17-4.42945E-18
 -1       153 4.71705E-06-7.16694E-06-5.24558E-06-2.45963E-06-1.45190E-17-8.41506E-18
 -1       154 3.04898E-05 2.47797E-05-2.51213E-05 5.04886E-05-1.30943E-17-1.18538E-17
 -1       155 1.03054E-04 1.39084E-05-4.62562E-05 1.00468E-04-1.01187E-17-1.47697E-17
 -1       156 2.07263E-04-3.43931E-05-6.50609E-05 1.09676E-04-5.94024E-18-1.37939E-17
 -1       157 2.92158E-04-8.36228E-05-7.69764E-05 6.18625E-05-1.67880E-18-8.49023E-18
 -1       158 3.11522E-04-9.53636E-05-7.94846E-05-2.01374E-05 2.98711E-19-2.64894E-18
 -1       159 2.52478E-04-5.96473E-05-7.17570E-05-9.14433E-05-1.65828E-18 4.21822E-18
 -1       160 5.75949E-05 2.65968E-05-3.51536E-05-7.70948E-05-8.41188E-18 1.00644E-17
 -1       161 1.09627E-05 1.39672E-05-1.47094E-05-2.18079E-05-1.33967E-17 9.63881E-18
 -1       162 7.58790E-06-3.38019E-05 3.07959E-06 1.86561E-05-1.06239E-17 5.86549E-18
 -1       163 2.54268E-05-8.71915E-05 1.55172E-05 2.40930E-05-3.36929E-18 5.55733E-19
 -1       164 9.47627E-05-1.23387E-05-3.55268E-05-2.22812E-05-1.73390E-18 9.78164E-19
 -1       165 8.92270E-05-8.46216E-06-3.47748E-05-1.73162E-05-1.61777E-18-9.75954E-19
 -1       166 8.65663E-05-6.49979E-06-3.44259E-05-1.35094E-05-1.37697E-18-2.19554E-18
 -1       167 8.52515E-05-5.50960E-06-3.42589E-05-1.02886E-05-1.08584E-18-2.78927E-18
 -1       168 8.45151E-05-4.92144E-06-3.41803E-05-7.47618E-06-7.82740E-19-3.07986E-18
 -1       169 8.40917E-05-4.56486E-06-3.41441E-05-4.85090E-06-5.77663E-19-3.23259E-18
 -1       170 8.38728E-05-4.37183E-06-3.41293E-05-2.36657E-06-2.55852E-19-3.17209E-18
 -1       171 8.38073E-05-4.31277E-06-3.41256E-05 5.15770E-08 7.35020E-20-3.15728E-18
 -1       172 8.38816E-05-4.37994E-06-3.41298E-05 2.47167E-06 3.71075E-19-3.17661E-18
 -1       173 8.41116E-05-4.58375E-06-3.41448E-05 4.96209E-06 6.35816E-19-3.14431E-18
 -1       174 8.45411E-05-4.94914E-06-3.41800E-05 7.55396E-06 8.49184E-19-2.98944E-18
 -1       175 8.53046E-05-5.56492E-06-3.42586E-05 1.04339E-05 1.19696E-18-2.60542E-18
 -1       176 8.66728E-05-6.60937E-06-3.44286E-05 1.37038E-05 1.51620E-18-1.99622E-18
 -1       177 8.93670E-05-8.60323E-06-3.47793E-05 1.75481E-05 1.71453E-18-8.05317E-19
 -1       178 9.56706E-05-1.36022E-05-3.53830E-05 2.18256E-05 1.77539E-18 1.39348E-18
 -1       179 1.05405E-04-2.60496E-05-3.51973E-05 1.86121E-05 1.41894E-18 4.28128E-18
 -1       180 1.03227E-04-2.72551E-05-3.25570E-05-1.20801E-05-1.45983E-18 3.27632E-18
 -1       181 9.69763E-05-2.82500E-05-2.94891E-05-4.68737E-06-1.17166E-18 2.54403E-18
 -1       182 9.34219E-05-2.76072E-05-2.81580E-05-1.71539E-06-8.56632E-19 1.86040E-18
 -1       183 9.19505E-05-2.73915E-05-2.76322E-05-3.42855E-07-6.85898E-19 1.16512E-18
 -1       184 9.14671E-05-2.73399E-05-2.74641E-05 3.61645E-07-7.37378E-19 8.92002E-19
 -1       185 9.15596E-05-2.74135E-05-2.74816E-05 7.47119E-07-5.22554E-19 6.31658E-19
 -1       186 9.19965E-05-2.75669E-05-2.76073E-05 9.70307E-07-3.49226E-19 2.27552E-19
 -1       187 9.26538E-05-2.77721E-05-2.78028E-05 1.11704E-06-2.30300E-19 1.07153E-19
 -1       188 9.34711E-05-2.80150E-05-2.80496E-05 1.24137E-06-9.25077E-20 6.15444E-19
 -1       189 9.44291E-05-2.82923E-05-2.83414E-05 1.38132E-06-9.75343E-20 3.04452E-19
 -1       190 9.55375E-05-2.86083E-05-2.86807E-05 1.56569E-06-5.10447E-19-6.17803E-19
 -1       191 9.68265E-05-2.89733E-05-2.90762E-05 1.81688E-06-2.90077E-19-8.06676E-19
 -1       192 9.83410E-05-2.94024E-05-2.95408E-05 2.15098E-06 1.93636E-19-6.04455E-19
 -1       193 1.00134E-04-2.99142E-05-3.00895E-05 2.57481E-06 2.58841E-19-8.27339E-19
 -1       194 1.02255E-04-3.05294E-05-3.07354E-05 3.07895E-06-2.67944E-19-8.26403E-19
 -1       195 1.04739E-04-3.12686E-05-3.14846E-05 3.62433E-06-3.17886E-19-4.78973E-19
 -1       196 1.07577E-04-3.21477E-05-3.23274E-05 4.12040E-06-2.88708E-19-6.07414E-19
 -1       197 1.10683E-04-3.31700E-05-3.32258E-05 4.39501E-06-6.16200E-19-1.25633E-18
 -1       198 1.13845E-04-3.43091E-05-3.40991E-05 4.16544E-06-1.81620E-19-1.36615E-18
 -1       199 1.16665E-04-3.54747E-05-3.48134E-05 3.04305E-06 1.29494E-18-1.99983E-18
 -1       200 1.18525E-04-3.64554E-05-3.51908E-05 6.43039E-07 1.60197E-18-5.95977E-19
 -1       201 1.18637E-04-3.68536E-05-3.50613E-05-3.10169E-06 4.00792E-19 4.87185E-19
 -1       202 1.16301E-04-3.61190E-05-3.43646E-05-7.42158E-06-4.90214E-19 1.59162E-18
 -1       203 1.11493E-04-3.38856E-05-3.32583E-05-1.03620E-05 3.25491E-19 1.34610E-18
 -1       204 1.05589E-04-3.06569E-05-3.21232E-05-9.46474E-06-9.02173E-19 1.79320E-18
 -1       205 1.01375E-04-2.81421E-05-3.14138E-05-3.87402E-06-7.77748E-19 1.69166E-18
 -1       206 1.01394E-04-2.81617E-05-3.14134E-05 3.89498E-06-4.93675E-19-8.64139E-20
 -1       207 1.05602E-04-3.06587E-05-3.21278E-05 9.47000E-06 1.77199E-19-7.35655E-19
 -1       208 1.11521E-04-3.38927E-05-3.32668E-05 1.03736E-05-1.69142E-19 7.94755E-21
 -1       209 1.16344E-04-3.61307E-05-3.43790E-05 7.43724E-06-1.02529E-18-1.96800E-19
 -1       210 1.18698E-04-3.68690E-05-3.50817E-05 3.12503E-06-3.79153E-19-1.34535E-19
 -1       211 1.18613E-04-3.64771E-05-3.52195E-05-6.05243E-07 7.13513E-19-1.06659E-18
 -1       212 1.16795E-04-3.55077E-05-3.48546E-05-2.98507E-06-6.86656E-19-1.75883E-18
 -1       213 1.14033E-04-3.43582E-05-3.41583E-05-4.08215E-06 3.74134E-19-5.62569E-19
 -1       214 1.10951E-04-3.32413E-05-3.33096E-05-4.28035E-06 6.68792E-19-7.53164E-20
 -1       215 1.07950E-04-3.22486E-05-3.24437E-05-3.96725E-06 2.70285E-19-6.84643E-19
 -1       216 1.05249E-04-3.14082E-05-3.16429E-05-3.42450E-06-6.07290E-19-1.38571E-18
 -1       217 1.02939E-04-3.07186E-05-3.09469E-05-2.82344E-06-6.35848E-19-2.94896E-19
 -1       218 1.01034E-04-3.01655E-05-3.03670E-05-2.25428E-06-2.41644E-18-1.59963E-19
 -1       219 9.95050E-05-2.97302E-05-2.98985E-05-1.75655E-06-4.85771E-19-7.41207E-20
 -1       220 9.83044E-05-2.93931E-05-2.95290E-05-1.34135E-06-1.57117E-19-1.77191E-18
 -1       221 9.73798E-05-2.91362E-05-2.92435E-05-1.00532E-06 1.44378E-18-1.46841E-18
 -1       222 9.66809E-05-2.89435E-05-2.90272E-05-7.38490E-07 1.07141E-18 5.86229E-19
 -1       223 9.61637E-05-2.88016E-05-2.88669E-05-5.28434E-07 1.26507E-18 2.25368E-18
 -1       224 9.57912E-05-2.86994E-05-2.87516E-05-3.62253E-07 1.56581E-19 8.98907E-19
 -1       225 9.55340E-05-2.86285E-05-2.86723E-05-2.27632E-07-7.62180E-19-3.92729E-20
 -1       226 9.53688E-05-2.85828E-05-2.86215E-05-1.14891E-07 1.06958E-18-5.40689E-19
 -1       227 9.52732E-05-2.85591E-05-2.85909E-05-2.17584E-08 1.92444E-19 6.81161E-19
 -1       228 9.93344E-05-2.85058E-05-3.05362E-05 7.17423E-06 1.25027E-18 3.65836E-18
 -1       229 9.42917E-05-2.77521E-05-2.84873E-05 2.70514E-06 1.00838E-18 2.70706E-18
 -1       230 9.20246E-05-2.73758E-05-2.76613E-05 8.77785E-07 7.91814E-19 1.93796E-18
 -1       231 9.11503E-05-2.72327E-05-2.73659E-05-9.37242E-09 5.97307E-19 1.33368E-18
 -1       232 9.10466E-05-2.72547E-05-2.73253E-05-4.76276E-07 1.92820E-19 1.01670E-18
 -1       233 9.13863E-05-2.73834E-05-2.74224E-05-7.32936E-07 1.52039E-19 5.37665E-19
 -1       234 9.19916E-05-2.75779E-05-2.76015E-05-8.82498E-07 3.71406E-19 3.52259E-19
 -1       235 9.27690E-05-2.78153E-05-2.78344E-05-9.83274E-07 4.31110E-19 3.47053E-19
 -1       236 9.36749E-05-2.80854E-05-2.81077E-05-1.07178E-06 1.81712E-19 1.26594E-19
 -1       237 9.46978E-05-2.83866E-05-2.84175E-05-1.17190E-06-1.29013E-19 5.53622E-19
 -1       238 9.58456E-05-2.87229E-05-2.87656E-05-1.29828E-06-4.34814E-19 8.77126E-19
 -1       239 9.71370E-05-2.91019E-05-2.91570E-05-1.45693E-06-1.08353E-19 4.25379E-19
 -1       240 9.85916E-05-2.95319E-05-2.95966E-05-1.64362E-06 1.65431E-19 4.89273E-19
 -1       241 1.00219E-04-3.00193E-05-3.00859E-05-1.84044E-06 7.06230E-19 2.22654E-19
 -1       242 1.02005E-04-3.05651E-05-3.06183E-05-2.01051E-06 1.83850E-19 1.27368E-19
 -1       243 1.03892E-04-3.11587E-05-3.11736E-05-2.09179E-06 2.21017E-19-8.06202E-19
 -1       244 1.05759E-04-3.17721E-05-3.17118E-05-1.99260E-06 1.17260E-18-1.16452E-18
 -1       245 1.07402E-04-3.23498E-05-3.21684E-05-1.59509E-06-2.03681E-19-9.48469E-19
 -1       246 1.08524E-04-3.28009E-05-3.24545E-05-7.77754E-07-8.97724E-19-9.11101E-19
 -1       247 1.08760E-04-3.29946E-05-3.24689E-05 5.28640E-07-1.34218E-18-3.68951E-19
 -1       248 1.07754E-04-3.27741E-05-3.21276E-05 2.24402E-06 1.49634E-19 5.27793E-19
 -1       249 1.05319E-04-3.20069E-05-3.14106E-05 4.02951E-06 7.97252E-19-4.58341E-19
 -1       250 1.01654E-04-3.06867E-05-3.04095E-05 5.25785E-06 1.74723E-19-1.11268E-18
 -1       251 9.75118E-05-2.90550E-05-2.93435E-05 5.20120E-06-3.07314E-19-8.19610E-19
 -1       252 9.41127E-05-2.76247E-05-2.85104E-05 3.47503E-06-3.23524E-19 8.00099E-19
 -1       253 9.26823E-05-2.69807E-05-2.81764E-05 4.54786E-07 8.68871E-19 9.90474E-19
 -1       254 9.37990E-05-2.74300E-05-2.84547E-05-2.74460E-06 1.13124E-18-1.13098E-18
 -1       255 9.70231E-05-2.87661E-05-2.92501E-05-4.89891E-06 9.97828E-20-2.42233E-18
 -1       256 1.01175E-04-3.04242E-05-3.03090E-05-5.40278E-06 3.95160E-19-3.16119E-18
 -1       257 1.04990E-04-3.18470E-05-3.13337E-05-4.46860E-06-2.90069E-19-2.50174E-18
 -1       258 1.07641E-04-3.27329E-05-3.20956E-05-2.77886E-06-1.26279E-18-1.20907E-18
 -1       259 1.08865E-04-3.30506E-05-3.24910E-05-1.01548E-06 4.34804E-19-9.39174E-19
 -1       260 1.08820E-04-3.29240E-05-3.25309E-05 4.00880E-07-1.62938E-20-6.59416E-19
 -1       261 1.07858E-04-3.25169E-05-3.22948E-05 1.32814E-06-1.33697E-20-8.92124E-19
 -1       262 1.06356E-04-3.19712E-05-3.18843E-05 1.80373E-06 1.72454E-18-1.28034E-18
 -1       263 1.04626E-04-3.13880E-05-3.13912E-05 1.94018E-06 5.14196E-19-2.54132E-18
 -1       264 1.02890E-04-3.08299E-05-3.08846E-05 1.85818E-06-1.31769E-18-3.41476E-18
 -1       265 1.01284E-04-3.03307E-05-3.04089E-05 1.65655E-06 2.32183E-19-2.77549E-18
 -1       266 9.98786E-05-2.99044E-05-2.99883E-05 1.40507E-06 7.61956E-19-2.11201E-18
 -1       267 9.86982E-05-2.95529E-05-2.96325E-05 1.14767E-06-8.94177E-19-1.65649E-18
 -1       268 9.77387E-05-2.92714E-05-2.93417E-05 9.08936E-07-4.33156E-19-3.33464E-18
 -1       269 9.69804E-05-2.90515E-05-2.91109E-05 7.00175E-07 2.34853E-19-3.62420E-19
 -1       270 9.63971E-05-2.88839E-05-2.89328E-05 5.24193E-07-2.39284E-19 9.32497E-19
 -1       271 9.59615E-05-2.87595E-05-2.87996E-05 3.78554E-07-1.06940E-18-1.29900E-18
 -1       272 9.56487E-05-2.86703E-05-2.87041E-05 2.57809E-07 6.84063E-19-1.06052E-18
 -1       273 9.54379E-05-2.86099E-05-2.86400E-05 1.55518E-07 2.96711E-18-2.58431E-18
 -1       274 9.53111E-05-2.85733E-05-2.86013E-05 6.61684E-08 9.97223E-19-2.77729E-18
 -1       275 9.52516E-05-2.85645E-05-2.85786E-05-4.07271E-09-2.17487E-18-3.02591E-18
 -1       276 9.52499E-05-2.85344E-05-2.85917E-05 3.23979E-08-1.14219E-18 4.14858E-18
 -1       277 9.52252E-05-2.84490E-05-2.86182E-05 1.14344E-07-7.94724E-19 9.76918E-19
 -1       278 9.51767E-05-2.83179E-05-2.86537E-05 1.82643E-07-1.11691E-18 1.48476E-18
 -1       279 9.51176E-05-2.81595E-05-2.86964E-05 2.15011E-07 5.06141E-19 3.99326E-19
 -1       280 9.50587E-05-2.80005E-05-2.87395E-05 2.07284E-07-1.06091E-19-1.89073E-18
 -1       281 9.50075E-05-2.78612E-05-2.87775E-05 1.62295E-07-7.73808E-19 5.19469E-21
 -1       282 9.49730E-05-2.77671E-05-2.88032E-05 8.87718E-08-4.60278E-19-9.27626E-19
 -1       283 9.49606E-05-2.77336E-05-2.88123E-05-3.21421E-10-2.75098E-19-2.14470E-18
 -1       284 9.49725E-05-2.77664E-05-2.88033E-05-8.98460E-08-2.06833E-18 1.76185E-19
 -1       285 9.50070E-05-2.78605E-05-2.87776E-05-1.64364E-07-1.18870E-18 3.45906E-19
 -1       286 9.50578E-05-2.79981E-05-2.87401E-05-2.09622E-07-6.52157E-19 7.54550E-19
 -1       287 9.51187E-05-2.81615E-05-2.86960E-05-2.17339E-07 7.25477E-19-1.92845E-18
 -1       288 9.51787E-05-2.83216E-05-2.86530E-05-1.82598E-07-1.57282E-19 1.80153E-18
 -1       289 9.52260E-05-2.84501E-05-2.86177E-05-1.12970E-07-5.12666E-19 6.47137E-19
 -1       290 9.52618E-05-2.85110E-05-2.86069E-05-7.11085E-08-3.78482E-19 6.98815E-19
 -1       291 1.17515E-05-3.97842E-05 9.74856E-06 1.17179E-05 1.31163E-18 3.19437E-18
 -1       292 2.73293E-05-4.15807E-05 3.48948E-06 2.30739E-05 3.03301E-18 1.61984E-18
 -1       293 6.05926E-05-3.80484E-05-1.08995E-05 3.88848E-05 3.15583E-18 3.69508E-18
 -1       294 9.62029E-05-3.12554E-05-2.79992E-05 4.48675E-05 3.72800E-18 3.84934E-18
 -1       295 1.38226E-04-2.87897E-05-4.54994E-05 4.76302E-05 4.01727E-18 4.09096E-18
 -1       296 1.78556E-04-3.22077E-05-6.00247E-05 3.81923E-05 2.93136E-18 2.74989E-18
 -1       297 1.98643E-04-3.22200E-05-6.83629E-05 1.45771E-05 3.28151E-18 1.52074E-18
 -1       298 2.10170E-04-3.64581E-05-7.08646E-05-7.49927E-06 3.37278E-18-3.78200E-19
 -1       299 1.86969E-04-3.18053E-05-6.40171E-05-2.46718E-05 4.67726E-18-2.03161E-18
 -1       300 1.54783E-04-3.39133E-05-5.05488E-05-3.39723E-05 5.13167E-18-4.02552E-18
 -1       301 1.10474E-04-2.91750E-05-3.44953E-05-4.70852E-05 6.58039E-18-6.77330E-18
 -1       302 7.68132E-05-3.88461E-05-1.70449E-05-4.18875E-05 5.12095E-18-5.52255E-18
 -1       303 3.56030E-05-3.90670E-05-8.62059E-07-2.74260E-05 5.25880E-18-6.12562E-18
 -1       304 1.71520E-05-4.45857E-05 8.79385E-06-1.52833E-05 1.26970E-18-6.96589E-18
 -1       305 9.89639E-06-4.46863E-05 1.19581E-05-4.00247E-07-1.53816E-18-5.06335E-18
 -1       306 1.80996E-05-4.50415E-05 8.54577E-06 1.42833E-05-4.10155E-18-2.06157E-18
 -1       307 3.77378E-05-3.99983E-05-1.53821E-06 2.66321E-05-5.36934E-18-4.61237E-18
 -1       308 7.05588E-05-3.37711E-05-1.69788E-05 3.92716E-05-5.79498E-18-4.81094E-18
 -1       309 1.19496E-04-3.79032E-05-3.47451E-05 4.15679E-05-4.55905E-18-5.70032E-18
 -1       310 1.59511E-04-3.37795E-05-5.21496E-05 3.98774E-05-4.54867E-18-6.23692E-18
 -1       311 1.91877E-04-3.37989E-05-6.50200E-05 2.33146E-05-4.66112E-18-5.37209E-18
 -1       312 2.14326E-04-3.74724E-05-7.19802E-05 6.42181E-06-3.40804E-18-4.66085E-18
 -1       313 1.94412E-04-3.00737E-05-6.80455E-05-1.08106E-05-3.40952E-18-1.80958E-18
 -1       314 1.73806E-04-3.45252E-05-5.79956E-05-2.57849E-05-2.58387E-18-1.23413E-18
 -1       315 1.35174E-04-3.16106E-05-4.33228E-05-4.62477E-05-4.16423E-18 1.39168E-18
 -1       316 9.03402E-05-3.19723E-05-2.55254E-05-4.35026E-05-4.68007E-18 2.40642E-18
 -1       317 5.25973E-05-3.65115E-05-8.79774E-06-3.32067E-05-3.58147E-18 4.09027E-18
 -1       318 2.69251E-05-4.28514E-05 4.12967E-06-2.13947E-05-2.45089E-18 5.40725E-18
 -1       319 1.16732E-05-4.40783E-05 1.10642E-05-7.25203E-06-2.35263E-19 2.57212E-18
 -1       320 9.16575E-05-1.43871E-05-3.31788E-05-1.29627E-05-1.68373E-18-1.09875E-18
 -1       321 9.56467E-05-1.90886E-05-3.28734E-05-1.45478E-05-1.75841E-18 2.17979E-19
 -1       322 8.80466E-05-1.03240E-05-3.33647E-05-8.05964E-06-1.18366E-18-2.26180E-18
 -1       323 8.72359E-05-9.38324E-06-3.34136E-05-5.63439E-06-8.53811E-19-2.51658E-18
 -1       324 8.67684E-05-8.83197E-06-3.34459E-05-3.31110E-06-5.13408E-19-2.51664E-18
 -1       325 8.65576E-05-8.58046E-06-3.34619E-05-1.05297E-06-9.19345E-20-2.33503E-18
 -1       326 8.65656E-05-8.58988E-06-3.34613E-05 1.18404E-06 3.58674E-19-2.38880E-18
 -1       327 8.67938E-05-8.86195E-06-3.34441E-05 3.44419E-06 6.28103E-19-2.50815E-18
 -1       328 8.72720E-05-9.42579E-06-3.34110E-05 5.73028E-06 8.89193E-19-2.46165E-18
 -1       329 8.81135E-05-1.04021E-05-3.33600E-05 8.15122E-06 1.28647E-18-2.06974E-18
 -1       330 8.95183E-05-1.20082E-05-3.32850E-05 1.06547E-05 1.61209E-18-1.68938E-18
 -1       331 9.19072E-05-1.47115E-05-3.31648E-05 1.30663E-05 1.85622E-18-9.63037E-19
 -1       332 9.57480E-05-1.94427E-05-3.28097E-05 1.42919E-05 1.91335E-18 5.10509E-19
 -1       333 9.86834E-05-2.44155E-05-3.19168E-05 1.18342E-05 1.68364E-18 1.73822E-18
 -1       334 9.63159E-05-2.67841E-05-2.97696E-05 5.66834E-06 1.36448E-18 1.32810E-18
 -1       335 9.63999E-05-2.60038E-05-3.01251E-05-6.25203E-06-1.32488E-18 4.21281E-19
 -1       336 9.49271E-05-2.70022E-05-2.90850E-05-2.69913E-06-1.08576E-18 2.07261E-19
 -1       337 9.40187E-05-2.74034E-05-2.85342E-05-7.22908E-07-9.12350E-19 1.65752E-19
 -1       338 9.35950E-05-2.76237E-05-2.82660E-05 4.29514E-07-8.11536E-19 1.31225E-19
 -1       339 9.35363E-05-2.77898E-05-2.81733E-05 1.12541E-06-6.29938E-19-1.16147E-19
 -1       340 9.37377E-05-2.79405E-05-2.81966E-05 1.57286E-06-2.37526E-19-1.34390E-19
 -1       341 9.41280E-05-2.80878E-05-2.83012E-05 1.90091E-06 5.39967E-20-2.07812E-19
 -1       342 9.46666E-05-2.82371E-05-2.84680E-05 2.19630E-06-2.80457E-19-6.45961E-19
 -1       343 9.53366E-05-2.83938E-05-2.86877E-05 2.52136E-06-6.52115E-19-7.86857E-19
 -1       344 9.61394E-05-2.85657E-05-2.89575E-05 2.92257E-06-3.85133E-19-5.65786E-19
 -1       345 9.70894E-05-2.87642E-05-2.92788E-05 3.43359E-06 1.03095E-19-3.62831E-19
 -1       346 9.82108E-05-2.90064E-05-2.96549E-05 4.07397E-06 2.62698E-19-1.18448E-19
 -1       347 9.95342E-05-2.93184E-05-3.00880E-05 4.84283E-06 3.31319E-20-1.15951E-19
 -1       348 1.01094E-04-2.97405E-05-3.05759E-05 5.70576E-06-2.08640E-19-7.41111E-19
 -1       349 1.02929E-04-3.03358E-05-3.11086E-05 6.57276E-06-3.37446E-19-9.05603E-19
 -1       350 1.05079E-04-3.11983E-05-3.16637E-05 7.26552E-06-1.14698E-18-7.48830E-19
 -1       351 1.07583E-04-3.24529E-05-3.22050E-05 7.47800E-06-3.37099E-19-7.48342E-19
 -1       352 1.10457E-04-3.42206E-05-3.26876E-05 6.74895E-06 7.66562E-19 1.09578E-19
 -1       353 1.13624E-04-3.65002E-05-3.30772E-05 4.49933E-06 1.74051E-18-9.05771E-20
 -1       354 1.16743E-04-3.89113E-05-3.33861E-05 2.43832E-07 1.83619E-18-1.20366E-19
 -1       355 1.18969E-04-4.03631E-05-3.37153E-05-5.86236E-06 6.17029E-19 6.03481E-19
 -1       356 1.18969E-04-3.91214E-05-3.42470E-05-1.21547E-05-3.05374E-19 1.04800E-18
 -1       357 1.15853E-04-3.40981E-05-3.50819E-05-1.50260E-05-2.83796E-19 1.34414E-18
 -1       358 1.11137E-04-2.73555E-05-3.59663E-05-1.07734E-05-7.14214E-19 1.13693E-18
 -1       359 1.08709E-04-2.40025E-05-3.63880E-05 5.09057E-08-1.43493E-18 9.81113E-19
 -1       360 1.11110E-04-2.73266E-05-3.59705E-05 1.07605E-05-1.61980E-18 3.50425E-19
 -1       361 1.15876E-04-3.41035E-05-3.50827E-05 1.50546E-05 4.58410E-19-2.58302E-18
 -1       362 1.18998E-04-3.91235E-05-3.42610E-05 1.21827E-05-1.13163E-19-1.61885E-18
 -1       363 1.19014E-04-4.03682E-05-3.37365E-05 5.90136E-06-1.40260E-18-9.37905E-19
 -1       364 1.16805E-04-3.89131E-05-3.34128E-05-1.84068E-07 2.35073E-19-2.52636E-19
 -1       365 1.13714E-04-3.65053E-05-3.31137E-05-4.40841E-06-6.41791E-19 3.24482E-19
 -1       366 1.10586E-04-3.42319E-05-3.27379E-05-6.61903E-06 3.28320E-19-5.11393E-19
 -1       367 1.07764E-04-3.24732E-05-3.22735E-05-7.29948E-06 1.36303E-18-2.46551E-19
 -1       368 1.05328E-04-3.12313E-05-3.17557E-05-7.02761E-06 4.69897E-19-7.13424E-19
 -1       369 1.03264E-04-3.03860E-05-3.12300E-05-6.26323E-06-8.38698E-19-2.97980E-19
 -1       370 1.01537E-04-2.98135E-05-3.07336E-05-5.31138E-06 1.14089E-19-3.30825E-19
 -1       371 1.00108E-04-2.94212E-05-3.02891E-05-4.35020E-06-1.00704E-18-2.46875E-19
 -1       372 9.89417E-05-2.91476E-05-2.99070E-05-3.47091E-06-4.81045E-19 1.21408E-18
 -1       373 9.80032E-05-2.89535E-05-2.95885E-05-2.71122E-06-1.05706E-18 1.12935E-18
 -1       374 9.72591E-05-2.88144E-05-2.93300E-05-2.07853E-06-3.77256E-21 1.38921E-18
 -1       375 9.66781E-05-2.87139E-05-2.91247E-05-1.56447E-06 1.77324E-18-9.36694E-19
 -1       376 9.62315E-05-2.86409E-05-2.89651E-05-1.15329E-06 2.65809E-18 5.75302E-19
 -1       377 9.58939E-05-2.85873E-05-2.88439E-05-8.26630E-07 5.85141E-19 1.26866E-18
 -1       378 9.56433E-05-2.85471E-05-2.87541E-05-5.66467E-07-1.59333E-18 9.31174E-19
 -1       379 9.54611E-05-2.85170E-05-2.86890E-05-3.56447E-07 1.83843E-20 1.46752E-18
 -1       380 9.53444E-05-2.85070E-05-2.86439E-05-1.96700E-07 5.02709E-19 1.68058E-18
 -1       381 9.43442E-05-2.73190E-05-2.86866E-05 2.37054E-06 1.24464E-18 9.40147E-19
 -1       382 9.32058E-05-2.74495E-05-2.81590E-05 6.01537E-07 8.82313E-19 5.34201E-19
 -1       383 9.27484E-05-2.75443E-05-2.79340E-05-3.86624E-07 5.21830E-19 2.31245E-19
 -1       384 9.27431E-05-2.76636E-05-2.78861E-05-9.57196E-07 3.63241E-19-1.52251E-19
 -1       385 9.30354E-05-2.78124E-05-2.79500E-05-1.30378E-06 3.24569E-19-3.36704E-19
 -1       386 9.35303E-05-2.79857E-05-2.80887E-05-1.53809E-06 4.17993E-19-4.49429E-20
 -1       387 9.41748E-05-2.81802E-05-2.82818E-05-1.72986E-06 1.61672E-19 2.41901E-19
 -1       388 9.49452E-05-2.83971E-05-2.85190E-05-1.92431E-06-2.94313E-19 5.88490E-19
 -1       389 9.58369E-05-2.86417E-05-2.87962E-05-2.14931E-06 1.11647E-20 5.94307E-19
 -1       390 9.68569E-05-2.89230E-05-2.91126E-05-2.41729E-06 1.57983E-19 5.21527E-20
 -1       391 9.80170E-05-2.92534E-05-2.94682E-05-2.72364E-06 5.86264E-19-5.51009E-19
 -1       392 9.93259E-05-2.96475E-05-2.98608E-05-3.04212E-06 5.20819E-19-3.50226E-19
 -1       393 1.00781E-04-3.01208E-05-3.02825E-05-3.31779E-06 3.83702E-19 6.23425E-21
 -1       394 1.02356E-04-3.06868E-05-3.07171E-05-3.45868E-06 7.17466E-19 3.64026E-20
 -1       395 1.03991E-04-3.13504E-05-3.11363E-05-3.33013E-06 1.38995E-18-5.82939E-19
 -1       396 1.05573E-04-3.20940E-05-3.14991E-05-2.75975E-06-2.14364E-20-3.80592E-19
 -1       397 1.06922E-04-3.28547E-05-3.17546E-05-1.56801E-06-9.37445E-19-5.40648E-19
 -1       398 1.07780E-04-3.34910E-05-3.18519E-05 3.56002E-07-8.35581E-19-2.19537E-19
 -1       399 1.07831E-04-3.37580E-05-3.17582E-05 2.92078E-06-6.50233E-19-5.92198E-19
 -1       400 1.06775E-04-3.33389E-05-3.14816E-05 5.66743E-06 1.43583E-18 8.40804E-19
 -1       401 1.04525E-04-3.20025E-05-3.10832E-05 7.69686E-06 5.68343E-19 6.83031E-19
 -1       402 1.01460E-04-2.98893E-05-3.06683E-05 7.88821E-06-2.25950E-19 3.98297E-19
 -1       403 9.85670E-05-2.77242E-05-3.03487E-05 5.54541E-06-7.25040E-19 3.60556E-19
 -1       404 9.70808E-05-2.65455E-05-3.02113E-05 1.09773E-06 1.26410E-18-4.92636E-19
 -1       405 9.77558E-05-2.70400E-05-3.02884E-05-3.80209E-06 2.26442E-18 3.59010E-19
 -1       406 1.00254E-04-2.89176E-05-3.05573E-05-7.20900E-06 1.15775E-18-4.38938E-19
 -1       407 1.03430E-04-3.11863E-05-3.09539E-05-8.09799E-06 6.05586E-19-9.33733E-19
 -1       408 1.06116E-04-3.29147E-05-3.13751E-05-6.74429E-06-9.96061E-19 1.63616E-21
 -1       409 1.07680E-04-3.37171E-05-3.17107E-05-4.18598E-06-7.24635E-19-1.41241E-18
 -1       410 1.08059E-04-3.37036E-05-3.18825E-05-1.47615E-06 7.84184E-20-1.66952E-18
 -1       411 1.07508E-04-3.31880E-05-3.18659E-05 7.28636E-07-9.58185E-19-7.63022E-19
 -1       412 1.06360E-04-3.24607E-05-3.16821E-05 2.19586E-06 6.35261E-19-1.14158E-19
 -1       413 1.04910E-04-3.17092E-05-3.13780E-05 2.96833E-06 1.88309E-18-2.11301E-19
 -1       414 1.03370E-04-3.10273E-05-3.10066E-05 3.20825E-06 1.71756E-18-9.10025E-19
 -1       415 1.01882E-04-3.04490E-05-3.06141E-05 3.09642E-06-8.08711E-19-2.09119E-18
 -1       416 1.00528E-04-2.99774E-05-3.02341E-05 2.78504E-06-3.84745E-19-2.03961E-18
 -1       417 9.93472E-05-2.96024E-05-2.98880E-05 2.38453E-06-9.62125E-19-1.65647E-18
 -1       418 9.83523E-05-2.93096E-05-2.95868E-05 1.96667E-06-9.72334E-19 1.13321E-18
 -1       419 9.75370E-05-2.90846E-05-2.93339E-05 1.57315E-06 2.56924E-19 9.11062E-19
 -1       420 9.68851E-05-2.89141E-05-2.91279E-05 1.22453E-06-7.58899E-19-3.20932E-19
 -1       421 9.63759E-05-2.87865E-05-2.89647E-05 9.27460E-07-3.14958E-19 4.46012E-19
 -1       422 9.59876E-05-2.86921E-05-2.88391E-05 6.79869E-07-8.43620E-19 1.12942E-18
 -1       423 9.56995E-05-2.86231E-05-2.87455E-05 4.74713E-07 5.85787E-19 4.16407E-19
 -1       424 9.54932E-05-2.85739E-05-2.86786E-05 3.03607E-07 2.53737E-18 1.12532E-18
 -1       425 9.53529E-05-2.85422E-05-2.86323E-05 1.60547E-07 8.32966E-20 4.12895E-18
 -1       426 9.52919E-05-2.85300E-05-2.86118E-05 9.10926E-08-1.54616E-19 3.93421E-18
 -1       427 9.51518E-05-2.81744E-05-2.87043E-05 3.79014E-07-3.51096E-19 3.14093E-18
 -1       428 9.52401E-05-2.83375E-05-2.86720E-05 3.05982E-07-6.78960E-19 2.79772E-19
 -1       429 9.52813E-05-2.84494E-05-2.86416E-05 1.99095E-07-7.09517E-19 3.00262E-18
 -1       430 9.50581E-05-2.80090E-05-2.87354E-05 3.89992E-07-1.12399E-18-3.50451E-18
 -1       431 9.49712E-05-2.78569E-05-2.87636E-05 3.36531E-07-5.25165E-19-4.98012E-19
 -1       432 9.49051E-05-2.77414E-05-2.87850E-05 2.27506E-07-1.38725E-18 2.69942E-19
 -1       433 9.48689E-05-2.76781E-05-2.87968E-05 8.10346E-08-2.53777E-18-2.00780E-18
 -1       434 9.48677E-05-2.76760E-05-2.87972E-05-7.92899E-08-9.45985E-19-1.73679E-18
 -1       435 9.49022E-05-2.77357E-05-2.87862E-05-2.27617E-07-2.68135E-19 5.46651E-19
 -1       436 9.49667E-05-2.78473E-05-2.87658E-05-3.37798E-07-5.16808E-19 1.23883E-19
 -1       437 9.50549E-05-2.79998E-05-2.87380E-05-3.94103E-07 1.90242E-19 2.49646E-18
 -1       438 9.51524E-05-2.81705E-05-2.87063E-05-3.82951E-07 3.33087E-18-3.89872E-19
 -1       439 9.52445E-05-2.83390E-05-2.86733E-05-3.06418E-07 3.05430E-19-8.35366E-19
 -1       440 6.01242E-05-4.06634E-05-8.31203E-06 4.38699E-05 5.74924E-20 3.11999E-18
 -1       441 1.35475E-05-1.81835E-05 2.18272E-06 2.38175E-07 7.25393E-20 3.46945E-18
 -1       442 3.09705E-05-2.58480E-05-1.86676E-06 3.23261E-05-4.76509E-19 1.93653E-18
 -1       443 1.02307E-04-5.21064E-05-2.15623E-05 4.02511E-05 6.99332E-19 1.76151E-18
 -1       444 1.33743E-04-4.99277E-05-3.58510E-05 2.69810E-05 1.48771E-18-2.53051E-19
 -1       445 8.94624E-05-1.19021E-05-3.33024E-05-1.06517E-05-1.47969E-18-1.87957E-18
 -1       446 1.58462E-04-2.34766E-05-5.76589E-05 8.74663E-07 2.26645E-18 1.57294E-18
 -1       447 1.57320E-04-1.21216E-05-6.20108E-05-5.11951E-07 3.94474E-18 2.47650E-18
 -1       448 1.57939E-04-1.60505E-05-6.06521E-05 1.13011E-06 4.47191E-18 2.06861E-18
 -1       449 1.50997E-04-3.13640E-05-5.14484E-05 2.01328E-06 5.01893E-18 1.57516E-18
 -1       450 1.40496E-04-5.15060E-05-3.82786E-05-1.77514E-05 2.68912E-18-8.36551E-19
 -1       451 1.19567E-04-5.70514E-05-2.66871E-05-3.35733E-05 1.54965E-18-1.22841E-18
 -1       452 7.14056E-05-4.52138E-05-1.14014E-05-4.46475E-05 8.02246E-19-4.74579E-18
 -1       453 3.91944E-05-3.40131E-05-2.39029E-06-3.73852E-05-2.16735E-19-6.02484E-18
 -1       454 1.59248E-05-2.17140E-05 2.48075E-06-1.56587E-05 8.42268E-20-6.77573E-18
 -1       455 1.55523E-05-2.46246E-05 3.61736E-06 1.47885E-05 5.75506E-19-2.93825E-18
 -1       456 4.16847E-05-3.49682E-05-3.01516E-06 3.69027E-05-3.92070E-19-2.57890E-18
 -1       457 7.98563E-05-4.87835E-05-1.33778E-05 4.29649E-05-5.52901E-19-2.17789E-18
 -1       458 1.14565E-04-5.65868E-05-2.50014E-05 3.50073E-05-9.96534E-19-2.47408E-18
 -1       459 1.47945E-04-5.12678E-05-4.14004E-05 1.27848E-05-1.56923E-18-1.95326E-18
 -1       460 1.58381E-04-3.51649E-05-5.27699E-05 5.27453E-07-3.10570E-18-1.66378E-18
 -1       461 1.62752E-04-1.85656E-05-6.15296E-05-2.09165E-06-3.94410E-18-2.16041E-18
 -1       462 1.59440E-04-1.33101E-05-6.23556E-05 9.62726E-07-4.31796E-18-2.44305E-18
 -1       463 1.54710E-04-2.52301E-05-5.57182E-05 6.63894E-06-1.76522E-18-2.97298E-18
 -1       464 1.51990E-04-4.67890E-05-4.51601E-05-7.42154E-06-2.47576E-18-2.97594E-18
 -1       465 1.35552E-04-5.52860E-05-3.43515E-05-2.46300E-05-2.62485E-18-2.17836E-18
 -1       466 9.97841E-05-5.39948E-05-1.97110E-05-4.00085E-05-5.75241E-19 2.74439E-19
 -1       467 5.93739E-05-4.22162E-05-7.52558E-06-4.16659E-05 6.76568E-19 3.29620E-18
 -1       468 2.63168E-05-2.75714E-05 4.56080E-07-2.73580E-05-3.70206E-19 4.00954E-18
 -1       469 1.51491E-04-3.92246E-05-4.80301E-05 8.54875E-06 1.25602E-18-1.67183E-19
 -1       470 9.58193E-05-2.51174E-05-3.02865E-05 5.88033E-06 1.38281E-18-1.98130E-19
 -1       471 8.95405E-05-1.32515E-05-3.27141E-05-3.82442E-06-5.89541E-19-2.26592E-18
 -1       472 9.02673E-05-1.42516E-05-3.25983E-05-5.74685E-06-9.18764E-19-2.12283E-18
 -1       473 8.90216E-05-1.25380E-05-3.27963E-05 5.43927E-08 5.49292E-20-1.98453E-18
 -1       474 8.91621E-05-1.27305E-05-3.27743E-05 1.99236E-06 5.13904E-19-2.21432E-18
 -1       475 8.95698E-05-1.32914E-05-3.27098E-05 3.89954E-06 7.13190E-19-2.39731E-18
 -1       476 9.03116E-05-1.43139E-05-3.25915E-05 5.82027E-06 1.07025E-18-1.98718E-18
 -1       477 9.14715E-05-1.59319E-05-3.23971E-05 7.63381E-06 1.34619E-18-1.67511E-18
 -1       478 9.32540E-05-1.84357E-05-3.20851E-05 9.15293E-06 1.59537E-18-1.21063E-18
 -1       479 9.51540E-05-2.65370E-05-2.93892E-05 2.68139E-06 1.31348E-18-2.02944E-19
 -1       480 9.55015E-05-2.43903E-05-3.04663E-05-5.65457E-06-1.25191E-18-5.65824E-19
 -1       481 1.41120E-04-3.08056E-05-4.77132E-05-9.31015E-06 1.00596E-18 1.37923E-18
 -1       482 9.53282E-05-2.61579E-05-2.96361E-05-2.65968E-06-1.00540E-18-5.03816E-19
 -1       483 9.50231E-05-2.70714E-05-2.91180E-05-6.90142E-07-9.09152E-19-5.43312E-19
 -1       484 9.48172E-05-2.75730E-05-2.88169E-05 5.82106E-07-8.07573E-19-4.51962E-19
 -1       485 9.47558E-05-2.78638E-05-2.86670E-05 1.42064E-06-5.89160E-19-4.16218E-19
 -1       486 9.48273E-05-2.80332E-05-2.86253E-05 2.01003E-06-4.29246E-19-6.21769E-19
 -1       487 9.50090E-05-2.81250E-05-2.86639E-05 2.48062E-06-3.16092E-19-1.12408E-18
 -1       488 9.52826E-05-2.81638E-05-2.87644E-05 2.92709E-06-6.02992E-19-9.75559E-19
 -1       489 9.56375E-05-2.81660E-05-2.89153E-05 3.41987E-06-2.30591E-19-7.65502E-19
 -1       490 9.60710E-05-2.81468E-05-2.91090E-05 4.01109E-06 1.65332E-19-6.81360E-20
 -1       491 9.65881E-05-2.81253E-05-2.93395E-05 4.73647E-06 3.93556E-19 4.97707E-20
 -1       492 9.72033E-05-2.81315E-05-2.96002E-05 5.61293E-06 1.16956E-19-4.91645E-20
 -1       493 9.79453E-05-2.82166E-05-2.98816E-05 6.63151E-06-6.59135E-19 5.59001E-20
 -1       494 9.88683E-05-2.84691E-05-3.01692E-05 7.74393E-06-6.99747E-19-5.18481E-19
 -1       495 1.00071E-04-2.90353E-05-3.04431E-05 8.84107E-06-5.80553E-19-4.23708E-19
 -1       496 1.01728E-04-3.01411E-05-3.06810E-05 9.72044E-06-3.88789E-19 2.35189E-19
 -1       497 1.04109E-04-3.20884E-05-3.08703E-05 1.00415E-05 5.02860E-20 3.34291E-19
 -1       498 1.07567E-04-3.51716E-05-3.10353E-05 9.27307E-06 9.79419E-19-1.65696E-19
 -1       499 1.12370E-04-3.93970E-05-3.12883E-05 6.67494E-06 2.07372E-18-7.32351E-19
 -1       500 1.18254E-04-4.38899E-05-3.18873E-05 1.46773E-06 1.93391E-18 9.48363E-21
 -1       501 1.23668E-04-4.61173E-05-3.32628E-05-6.39834E-06 5.91368E-19 1.08574E-18
 -1       502 1.25476E-04-4.21283E-05-3.58392E-05-1.45019E-05-4.69279E-19 1.19666E-18
 -1       503 1.21888E-04-3.08108E-05-3.92597E-05-1.66463E-05-5.92142E-19 4.19010E-19
 -1       504 1.16818E-04-1.98084E-05-4.18566E-05-7.68384E-06-1.50528E-18 3.22265E-19
 -1       505 1.15749E-04-1.88837E-05-4.19231E-05 7.83862E-06-2.87115E-18-4.86118E-19
 -1       506 1.21995E-04-3.08850E-05-3.92504E-05 1.67474E-05-2.08696E-18-1.30522E-18
 -1       507 1.25519E-04-4.21679E-05-3.58316E-05 1.45170E-05 2.81387E-19-2.37951E-18
 -1       508 1.23683E-04-4.61136E-05-3.32855E-05 6.45513E-06 6.71964E-20-3.07770E-18
 -1       509 1.18271E-04-4.38596E-05-3.19101E-05-1.40119E-06 2.58991E-19-1.84988E-18
 -1       510 1.12413E-04-3.93690E-05-3.13178E-05-6.57336E-06-1.20362E-19-2.55057E-18
 -1       511 1.07630E-04-3.51374E-05-3.10767E-05-9.12543E-06 2.32869E-19-1.29115E-18
 -1       512 1.04200E-04-3.20506E-05-3.09253E-05-9.83748E-06 1.05074E-18-4.74871E-19
 -1       513 1.01854E-04-3.00998E-05-3.07525E-05-9.44873E-06-2.63726E-19-6.70296E-19
 -1       514 1.00240E-04-2.89907E-05-3.05342E-05-8.48812E-06 3.29199E-19-7.61785E-19
 -1       515 9.90883E-05-2.84222E-05-3.02833E-05-7.29511E-06-7.55976E-19-4.13157E-19
 -1       516 9.82269E-05-2.81702E-05-3.00219E-05-6.07213E-06-1.19444E-18-1.12154E-18
 -1       517 9.75566E-05-2.80899E-05-2.97692E-05-4.93000E-06-3.99999E-19-5.86380E-19
 -1       518 9.70222E-05-2.80955E-05-2.95380E-05-3.92116E-06-3.90585E-19-6.20655E-19
 -1       519 9.65920E-05-2.81389E-05-2.93354E-05-3.06267E-06-1.85662E-19-1.87710E-20
 -1       520 9.62462E-05-2.81944E-05-2.91637E-05-2.35128E-06-2.55215E-19 8.63146E-19
 -1       521 9.59699E-05-2.82489E-05-2.90222E-05-1.77307E-06 2.03572E-18 7.76015E-19
 -1       522 9.57506E-05-2.82952E-05-2.89086E-05-1.30920E-06 1.22812E-18-7.01241E-19
 -1       523 9.55774E-05-2.83309E-05-2.88192E-05-9.39588E-07-7.59979E-19-1.65666E-18
 -1       524 9.54410E-05-2.83553E-05-2.87503E-05-6.45405E-07-3.28811E-19-1.00825E-18
 -1       525 5.68712E-05-3.12098E-05-1.05092E-05 3.93470E-05-1.40147E-18 2.05125E-18
 -1       526 9.43273E-05-2.76264E-05-2.85821E-05-5.18552E-07 8.01150E-19-4.93120E-19
 -1       527 9.42675E-05-2.78675E-05-2.84552E-05-1.29288E-06 4.12302E-19-5.89820E-19
 -1       528 9.43945E-05-2.80370E-05-2.84378E-05-1.80829E-06 2.60511E-19-8.39918E-19
 -1       529 9.46669E-05-2.81685E-05-2.84985E-05-2.19060E-06-1.55490E-19-3.68217E-19
 -1       530 9.50574E-05-2.82818E-05-2.86173E-05-2.52421E-06 1.27215E-21-1.53994E-19
 -1       531 9.55524E-05-2.83930E-05-2.87816E-05-2.86475E-06-4.51944E-20-4.29014E-19
 -1       532 9.61502E-05-2.85198E-05-2.89834E-05-3.24475E-06 4.17197E-19-3.79171E-19
 -1       533 9.68585E-05-2.86843E-05-2.92163E-05-3.67452E-06 3.81153E-19-2.13231E-19
 -1       534 9.76924E-05-2.89166E-05-2.94743E-05-4.13918E-06 3.81007E-19-2.11862E-19
 -1       535 9.86732E-05-2.92568E-05-2.97492E-05-4.59232E-06 2.24397E-19-1.59420E-19
 -1       536 9.98260E-05-2.97568E-05-3.00299E-05-4.94714E-06 3.11831E-19 4.45556E-19
 -1       537 1.01177E-04-3.04762E-05-3.03021E-05-5.06708E-06 8.91002E-19 3.09436E-19
 -1       538 1.02743E-04-3.14686E-05-3.05502E-05-4.76126E-06 7.03329E-19 1.57504E-18
 -1       539 1.04509E-04-3.27451E-05-3.07627E-05-3.79545E-06-3.36984E-19 1.45085E-18
 -1       540 1.06380E-04-3.42066E-05-3.09404E-05-1.93902E-06-7.66500E-19 5.94055E-19
 -1       541 1.08109E-04-3.55473E-05-3.11081E-05 9.21856E-07-9.89567E-19 8.36944E-19
 -1       542 1.09237E-04-3.61808E-05-3.13174E-05 4.57897E-06-6.71370E-19-9.36751E-20
 -1       543 1.09158E-04-3.53517E-05-3.16367E-05 8.24075E-06 7.49896E-19 1.28872E-18
 -1       544 1.07469E-04-3.25955E-05-3.20928E-05 1.04290E-05 6.07452E-19 1.83909E-18
 -1       545 1.04587E-04-2.85098E-05-3.26063E-05 9.45306E-06 2.33368E-19 4.52685E-19
 -1       546 1.02019E-04-2.50179E-05-3.29923E-05 4.78053E-06 6.61410E-19-6.06651E-19
 -1       547 1.01500E-04-2.43149E-05-3.30796E-05-2.08276E-06 1.99862E-18-8.36915E-19
 -1       548 1.03398E-04-2.68664E-05-3.27996E-05-7.98124E-06 1.76278E-18-1.01089E-18
 -1       549 1.06382E-04-3.09940E-05-3.23076E-05-1.05150E-05 4.09247E-19-8.65854E-19
 -1       550 1.08686E-04-3.44475E-05-3.18175E-05-9.45699E-06-2.69979E-19-7.55196E-19
 -1       551 1.09426E-04-3.60562E-05-3.14525E-05-6.21329E-06-2.46067E-19-1.38513E-18
 -1       552 1.08740E-04-3.59320E-05-3.12147E-05-2.44480E-06-4.84292E-19-8.96996E-19
 -1       553 1.07213E-04-3.47930E-05-3.10481E-05 7.59697E-07-1.13904E-18 1.00267E-18
 -1       554 1.05391E-04-3.33271E-05-3.08928E-05 2.98002E-06-1.49563E-19 6.82420E-19
 -1       555 1.03606E-04-3.19531E-05-3.07134E-05 4.22725E-06 2.05584E-18 8.06084E-19
 -1       556 1.02007E-04-3.08440E-05-3.05008E-05 4.70174E-06 1.60214E-18 2.63304E-19
 -1       557 1.00637E-04-3.00241E-05-3.02631E-05 4.64403E-06 1.27217E-18 9.10170E-19
 -1       558 9.94906E-05-2.94523E-05-3.00154E-05 4.26518E-06-3.67239E-19 5.03312E-19
 -1       559 9.85435E-05-2.90699E-05-2.97727E-05 3.72472E-06-8.17403E-19 5.78780E-19
 -1       560 9.77697E-05-2.88227E-05-2.95468E-05 3.13159E-06-2.62454E-18 5.80101E-19
 -1       561 9.71443E-05-2.86679E-05-2.93452E-05 2.55348E-06 1.32817E-19 5.46596E-19
 -1       562 9.66445E-05-2.85739E-05-2.91714E-05 2.02761E-06-3.38557E-19 1.00300E-18
 -1       563 9.62500E-05-2.85186E-05-2.90263E-05 1.57036E-06-4.04124E-19 1.51220E-18
 -1       564 9.59424E-05-2.84864E-05-2.89085E-05 1.18449E-06-1.18309E-18 9.38226E-19
 -1       565 9.57052E-05-2.84667E-05-2.88154E-05 8.64708E-07-8.95682E-19 4.73965E-19
 -1       566 9.55241E-05-2.84528E-05-2.87438E-05 6.02137E-07 6.94258E-19 1.58331E-18
 -1       567 9.53866E-05-2.84440E-05-2.86888E-05 3.85533E-07-1.34573E-20 2.61066E-18
 -1       568 9.49375E-05-2.78203E-05-2.87646E-05 5.35351E-07 4.07822E-19-9.26503E-19
 -1       569 9.48127E-05-2.76615E-05-2.87793E-05 4.12005E-07 2.01591E-19-8.93247E-19
 -1       570 9.52344E-05-2.82135E-05-2.87232E-05 5.34470E-07-7.65408E-20 3.03544E-18
 -1       571 9.50854E-05-2.80116E-05-2.87459E-05 5.77677E-07-9.78205E-19-2.00085E-18
 -1       572 9.47290E-05-2.75554E-05-2.87890E-05 2.25860E-07-2.56077E-18-1.11232E-19
 -1       573 9.46976E-05-2.75150E-05-2.87929E-05 4.60377E-09-9.13337E-19-8.62426E-19
 -1       574 9.47235E-05-2.75461E-05-2.87906E-05-2.18737E-07 2.74665E-19 5.97476E-19
 -1       575 9.48023E-05-2.76435E-05-2.87826E-05-4.07297E-07 4.03869E-19-4.27665E-19
 -1       576 9.49273E-05-2.77998E-05-2.87691E-05-5.37662E-07 1.19100E-18 1.46105E-18
 -1       577 9.50788E-05-2.79944E-05-2.87506E-05-5.85020E-07 6.32365E-19-1.14673E-19
 -1       578 9.52337E-05-2.82021E-05-2.87275E-05-5.41325E-07-2.76851E-19-6.99586E-19
 -1       579 2.97899E-05-1.53803E-05-5.55719E-06-1.73686E-05 1.29787E-18 3.20306E-18
 -1       580 9.46208E-05-2.72422E-05-2.88675E-05 7.06368E-07 8.33622E-19-3.81518E-19
 -1       581 9.62742E-05-5.18352E-05-1.87532E-05 4.04910E-05-1.71757E-18-4.85826E-19
 -1       582 5.73631E-05-3.16437E-05-1.04689E-05-3.77023E-05 8.16804E-19 2.15051E-18
 -1       583 9.46366E-05-2.07423E-05-3.16901E-05-9.38614E-06-1.53447E-18-8.24728E-19
 -1       584 1.27453E-04-5.94174E-05-2.91392E-05 2.41214E-05-6.02187E-19-2.69116E-18
 -1       585 1.35472E-04-1.44462E-05-5.25338E-05 8.46546E-06-2.87134E-18-1.46227E-18
 -1       586 1.39471E-04-2.36820E-05-5.01749E-05-1.35792E-05-2.06337E-18 2.40451E-19
 -1       587 7.20132E-05-4.09601E-05-1.29009E-05 4.11729E-05 1.22433E-18-1.19119E-18
 -1       588 1.34689E-04-1.81748E-05-5.05124E-05 1.01280E-05 5.02301E-18 2.52093E-18
 -1       589 8.91430E-05-1.27051E-05-3.27770E-05-1.88372E-06-2.64004E-19-2.14054E-18
 -1       590 1.34029E-04-1.20955E-05-5.28589E-05-7.89917E-06 2.34808E-18 1.85209E-18
 -1       591 1.40440E-04-4.55148E-05-4.10088E-05 3.85507E-06 2.60518E-18 2.96202E-18
 -1       592 1.32521E-04-8.74016E-06-5.36858E-05 4.13103E-06 4.57228E-18 3.07167E-18
 -1       593 2.38505E-05-1.24988E-05-4.23230E-06 2.26279E-06 9.83915E-19-3.79248E-18
 -1       594 1.33066E-04-5.84786E-05-3.20783E-05-1.38690E-05-4.45420E-19 8.69479E-19
 -1       595 1.01206E-04-5.33788E-05-2.02898E-05-3.83339E-05-8.63074E-19-1.48806E-18
 -1       596 6.56265E-05-3.79470E-05-1.14427E-05-4.25188E-05-1.54944E-18-5.27643E-18
 -1       597 1.45827E-04-4.57787E-05-4.32169E-05-8.11615E-06-1.45126E-18-1.94712E-19
 -1       598 3.60691E-05-2.11456E-05-5.82668E-06-2.94855E-05-7.91764E-19-6.28054E-18
 -1       599 3.80446E-05-2.16435E-05-6.45428E-06 2.81994E-05 1.48787E-18-2.79606E-18
 -1       600 1.07388E-04-5.69975E-05-2.14267E-05 3.55442E-05 1.34244E-18-6.34014E-19
 -1       601 1.43903E-04-3.90502E-05-4.53967E-05 1.17297E-05-2.67848E-18-6.15422E-19
 -1       602 1.36497E-04-6.11506E-05-3.23744E-05 1.50773E-05 6.07534E-19-1.13381E-18
 -1       603 1.34491E-04-1.17630E-05-5.31914E-05-6.31947E-06-3.13667E-18-2.31902E-19
 -1       604 8.80163E-05-4.87057E-05-1.65580E-05-4.02563E-05 1.23894E-18 1.40001E-18
 -1       605 1.42493E-04-5.72959E-05-3.67200E-05-4.35551E-06-2.23884E-18-1.42656E-18
 -1       606 1.25678E-04-6.15582E-05-2.74089E-05-2.51460E-05-8.26175E-19-2.19638E-18
 -1       607 3.04249E-05-1.39714E-05-6.38415E-06 1.66721E-05-6.78950E-21 2.24649E-18
 -1       608 9.61286E-05-2.31683E-05-3.12721E-05 9.47913E-06 1.65315E-18 4.61434E-20
 -1       609 1.40990E-04-5.23699E-05-3.82452E-05 5.86254E-06-2.90651E-19-3.91276E-19
 -1       610 9.13695E-05-1.58283E-05-3.24093E-05-7.52354E-06-1.20742E-18-1.88609E-18
 -1       611 9.53661E-05-2.83705E-05-2.87118E-05-4.75975E-07 9.17165E-20-1.45023E-18
 -1       612 1.31661E-04-2.60802E-05-4.57310E-05 1.60880E-05-2.90649E-18-3.15149E-19
 -1       613 1.20140E-04-5.80286E-05-2.64750E-05-2.41652E-05-1.43919E-18 1.19749E-18
 -1       614 1.31562E-04-3.22628E-05-4.29635E-05 1.28594E-05 3.42458E-18 2.90739E-18
 -1       615 9.14840E-05-1.65952E-05-3.21008E-05 2.33440E-06 4.38786E-19-2.15787E-18
 -1       616 9.12065E-05-1.61675E-05-3.21649E-05 8.02735E-07 1.55145E-19-1.75930E-18
 -1       617 9.28868E-05-1.88431E-05-3.17387E-05 5.06990E-06 1.10654E-18-1.46879E-18
 -1       618 9.40019E-05-2.08278E-05-3.13681E-05 5.94510E-06 1.29492E-18-1.32631E-18
 -1       619 9.53008E-05-2.40225E-05-3.05375E-05 4.94164E-06 1.26135E-18-9.20379E-19
 -1       620 1.17123E-04-5.69063E-05-2.56921E-05 2.56355E-05-9.69853E-19-1.28926E-18
 -1       621 9.53881E-05-2.58341E-05-2.98050E-05 2.30786E-06 1.05054E-18-6.64712E-19
 -1       622 1.26365E-04-2.16962E-05-4.53187E-05-1.34284E-05 1.28183E-18-6.05020E-19
 -1       623 1.12153E-04-5.51873E-05-2.42308E-05-2.76225E-05 4.63221E-20-1.36126E-18
 -1       624 9.54538E-05-2.55454E-05-2.99591E-05-2.10463E-06-1.01366E-18-1.21803E-18
 -1       625 9.55250E-05-2.67174E-05-2.94881E-05-3.84539E-07-7.57860E-19-1.04671E-18
 -1       626 9.54869E-05-2.73919E-05-2.91832E-05 8.13710E-07-6.91549E-19-8.40215E-19
 -1       627 9.54293E-05-2.77543E-05-2.90034E-05 1.66421E-06-5.68984E-19-7.98646E-19
 -1       628 9.53860E-05-2.79098E-05-2.89182E-05 2.30915E-06-6.20504E-19-8.65083E-19
 -1       629 9.53630E-05-2.79182E-05-2.89047E-05 2.86109E-06-1.54374E-19-8.29626E-19
 -1       630 9.53568E-05-2.78166E-05-2.89455E-05 3.40738E-06-2.29260E-19-3.61962E-19
 -1       631 9.53611E-05-2.76317E-05-2.90265E-05 4.01475E-06 5.69646E-20-5.51089E-19
 -1       632 9.53707E-05-2.73881E-05-2.91350E-05 4.73274E-06-3.06120E-20-7.36519E-19
 -1       633 9.53859E-05-2.71170E-05-2.92575E-05 5.59506E-06 9.53316E-20-1.07991E-18
 -1       634 9.54196E-05-2.68688E-05-2.93782E-05 6.61867E-06-3.03069E-19-1.26711E-18
 -1       635 9.55112E-05-2.67298E-05-2.94769E-05 7.80068E-06-3.29097E-19-5.25448E-19
 -1       636 9.57507E-05-2.68477E-05-2.95291E-05 9.11262E-06-6.39037E-19 4.98528E-20
 -1       637 9.63199E-05-2.74647E-05-2.95088E-05 1.04895E-05-3.25519E-19-2.59051E-19
 -1       638 9.75494E-05-2.89508E-05-2.93993E-05 1.18041E-05 1.21138E-19-2.28254E-19
 -1       639 9.99796E-05-3.18043E-05-2.92182E-05 1.28069E-05 6.48318E-19 1.66650E-19
 -1       640 1.04381E-04-3.65428E-05-2.90711E-05 1.29888E-05 1.21138E-18 2.69661E-19
 -1       641 1.11491E-04-4.32030E-05-2.92639E-05 1.13010E-05 2.06094E-18-4.17404E-19
 -1       642 1.21751E-04-5.05620E-05-3.04910E-05 6.00676E-06 2.13697E-18-1.18815E-18
 -1       643 1.30997E-04-5.28634E-05-3.36412E-05-3.76668E-06 9.86830E-19 5.21834E-19
 -1       644 1.28342E-04-2.30537E-05-4.55978E-05-1.49939E-05-1.72472E-18 7.99705E-19
 -1       645 1.31035E-04-5.30177E-05-3.35648E-05 3.66887E-06-3.25982E-19-5.55316E-19
 -1       646 1.21322E-04-5.01850E-05-3.04503E-05-6.01017E-06 5.13059E-19-1.59863E-18
 -1       647 1.11576E-04-4.31461E-05-2.93212E-05-1.11002E-05-4.24780E-19-2.50400E-18
 -1       648 1.04497E-04-3.64933E-05-2.91421E-05-1.27578E-05 7.06265E-19-1.48938E-18
 -1       649 1.00103E-04-3.17552E-05-2.92920E-05-1.25602E-05 1.16005E-18-1.69360E-18
 -1       650 9.76664E-05-2.88847E-05-2.94778E-05-1.15140E-05 6.04589E-19-3.15022E-18
 -1       651 9.64284E-05-2.73743E-05-2.95940E-05-1.01320E-05-4.02487E-19-3.15907E-18
 -1       652 9.58508E-05-2.67287E-05-2.96228E-05-8.66707E-06-9.54021E-19-1.90273E-18
 -1       653 9.56040E-05-2.65809E-05-2.95804E-05-7.24909E-06 4.02041E-20-9.82577E-19
 -1       654 9.55064E-05-2.66916E-05-2.94912E-05-5.94681E-06-7.17855E-19 1.94957E-19
 -1       655 9.54663E-05-2.69169E-05-2.93776E-05-4.79396E-06-8.99531E-19 1.27876E-19
 -1       656 9.54426E-05-2.71761E-05-2.92565E-05-3.80196E-06-2.25142E-19 5.71097E-19
 -1       657 9.54194E-05-2.74270E-05-2.91391E-05-2.96782E-06-2.49798E-19 1.24234E-18
 -1       658 9.53925E-05-2.76496E-05-2.90323E-05-2.27969E-06 1.08497E-18 4.71175E-19
 -1       659 9.53614E-05-2.78357E-05-2.89393E-05-1.72086E-06 9.22743E-19-4.11706E-19
 -1       660 9.53273E-05-2.79839E-05-2.88611E-05-1.27207E-06-1.04727E-20-1.58597E-18
 -1       661 9.52902E-05-2.80965E-05-2.87971E-05-9.14999E-07-9.35646E-19-1.44147E-18
 -1       662 3.96799E-05-1.29115E-05-1.09142E-05-1.42601E-05-1.43466E-20-4.69240E-18
 -1       663 1.24805E-04-5.98781E-05-2.77411E-05 1.95953E-05 2.33842E-18-1.34996E-18
 -1       664 9.52177E-05-2.74963E-05-2.90224E-05-7.17091E-07 5.43208E-19-4.49573E-19
 -1       665 9.52810E-05-2.81161E-05-2.87847E-05-2.64162E-06-2.18885E-19-4.36374E-19
 -1       666 9.54337E-05-2.81387E-05-2.88404E-05-3.08745E-06-1.11877E-19-4.22123E-19
 -1       667 9.56518E-05-2.81334E-05-2.89361E-05-3.55087E-06 3.01168E-19-3.16791E-19
 -1       668 9.59440E-05-2.81355E-05-2.90603E-05-4.06332E-06 3.71723E-19-6.67907E-19
 -1       669 9.63299E-05-2.81887E-05-2.92029E-05-4.63208E-06 3.29916E-19-2.24343E-19
 -1       670 9.68440E-05-2.83518E-05-2.93534E-05-5.23687E-06-1.57904E-19 7.33852E-20
 -1       671 9.75408E-05-2.87043E-05-2.95011E-05-5.82323E-06-2.43287E-19 1.29720E-19
 -1       672 9.85008E-05-2.93499E-05-2.96363E-05-6.29276E-06 5.41978E-19 5.42129E-19
 -1       673 9.98315E-05-3.04089E-05-2.97534E-05-6.49131E-06 1.58988E-19 1.23498E-18
 -1       674 1.01656E-04-3.19902E-05-2.98587E-05-6.19791E-06 6.26399E-21 1.90618E-18
 -1       675 1.04067E-04-3.41197E-05-2.99809E-05-5.12246E-06-3.58472E-19 1.63897E-18
 -1       676 1.07022E-04-3.66007E-05-3.01847E-05-2.93977E-06-6.31628E-19 9.69051E-19
 -1       677 1.10177E-04-3.88295E-05-3.05832E-05 5.79207E-07-4.35783E-19 1.27165E-18
 -1       678 1.12695E-04-3.96270E-05-3.13153E-05 5.22822E-06-1.63916E-19 1.34449E-18
 -1       679 1.13328E-04-3.75158E-05-3.25061E-05 9.93170E-06 8.59123E-19 8.53774E-19
 -1       680 1.11229E-04-3.20307E-05-3.39387E-05 1.22165E-05 6.60758E-19 1.28171E-18
 -1       681 1.07247E-04-2.46494E-05-3.54447E-05 9.69060E-06 1.39939E-18 1.26109E-18
 -1       682 1.04966E-04-2.04206E-05-3.62904E-05 1.88097E-06 2.03395E-18-1.49248E-20
 -1       683 1.06097E-04-2.23325E-05-3.59586E-05-6.89550E-06 1.75250E-18-7.07289E-19
 -1       684 1.09720E-04-2.88566E-05-3.46966E-05-1.18539E-05 8.18957E-19-2.51930E-19
 -1       685 1.12799E-04-3.55749E-05-3.31069E-05-1.13441E-05 5.03655E-19-7.78978E-19
 -1       686 1.13247E-04-3.91393E-05-3.17679E-05-7.33407E-06-5.02409E-19-7.62560E-19
 -1       687 1.11374E-04-3.93739E-05-3.08631E-05-2.48058E-06-7.62536E-19 2.81188E-19
 -1       688 1.08360E-04-3.75533E-05-3.03513E-05 1.53353E-06-6.15951E-19 3.99517E-19
 -1       689 1.05267E-04-3.50598E-05-3.00928E-05 4.19917E-06-1.09947E-18-1.41265E-18
 -1       690 1.02630E-04-3.27300E-05-2.99598E-05 5.62827E-06 6.69930E-19-1.37150E-18
 -1       691 1.00592E-04-3.09044E-05-2.98674E-05 6.12880E-06 2.66030E-18 8.69677E-20
 -1       692 9.90974E-05-2.96273E-05-2.97733E-05 6.01169E-06 1.10265E-18-6.36738E-19
 -1       693 9.80278E-05-2.88126E-05-2.96635E-05 5.52680E-06 4.49313E-19 3.80399E-19
 -1       694 9.72662E-05-2.83408E-05-2.95390E-05 4.85527E-06-4.37568E-19 5.70120E-20
 -1       695 9.67202E-05-2.81026E-05-2.94069E-05 4.11984E-06-2.18057E-18 5.51514E-20
 -1       696 9.63236E-05-2.80126E-05-2.92755E-05 3.39821E-06-1.35596E-18 7.44783E-19
 -1       697 9.60309E-05-2.80093E-05-2.91515E-05 2.73510E-06 2.49626E-19 1.11504E-18
 -1       698 9.58116E-05-2.80514E-05-2.90396E-05 2.15219E-06 1.11113E-18-3.21106E-19
 -1       699 9.56449E-05-2.81119E-05-2.89423E-05 1.65606E-06-1.00584E-19-1.99813E-18
 -1       700 9.55154E-05-2.81734E-05-2.88605E-05 1.24313E-06-8.42130E-19-2.34583E-18
 -1       701 9.54128E-05-2.82264E-05-2.87936E-05 9.04869E-07-9.99278E-19-1.73767E-18
 -1       702 9.53114E-05-2.82168E-05-2.87545E-05 7.08149E-07-9.02613E-19 4.17470E-19
 -1       703 9.44793E-05-2.72995E-05-2.87915E-05 1.61045E-07-1.53110E-19 4.11958E-19
 -1       704 9.52630E-05-2.81553E-05-2.87603E-05-7.15391E-07-6.26804E-19-1.62798E-18
 -1       705 9.47288E-05-2.75637E-05-2.87851E-05 6.48779E-07 1.34679E-18-1.15874E-18
 -1       706 9.44734E-05-2.72906E-05-2.87927E-05-1.38990E-07 5.31995E-19-5.86297E-19
 -1       707 9.45686E-05-2.73945E-05-2.87890E-05 4.36410E-07 2.87061E-19-2.49896E-18
 -1       708 8.52217E-05-4.09950E-05-1.86469E-05 3.61799E-05-2.04634E-18-8.28213E-19
 -1       709 9.45511E-05-2.73682E-05-2.87928E-05-4.17223E-07 6.97694E-19 3.84600E-19
 -1       710 9.47069E-05-2.75280E-05-2.87911E-05-6.42679E-07 1.09987E-18 9.92295E-20
 -1       711 9.49207E-05-2.77522E-05-2.87867E-05-7.75430E-07-8.71282E-19-2.11556E-20
 -1       712 9.53113E-05-2.68846E-05-2.93234E-05 5.04427E-07 7.46365E-19-6.38617E-19
 -1       713 5.39283E-05-2.05550E-05-1.38409E-05-2.54474E-05 1.13003E-18 1.92401E-18
 -1       714 9.42018E-05-2.09061E-05-3.14121E-05-6.88219E-06-1.19986E-18-1.32677E-18
 -1       715 1.38641E-04-5.51359E-05-3.59003E-05-2.74132E-06 4.98820E-19-6.73126E-19
 -1       716 1.20135E-04-1.38800E-05-4.60510E-05 9.09828E-06 4.17010E-18 8.54087E-19
 -1       717 3.93377E-05-1.09980E-05-1.16446E-05-2.33114E-06-8.29881E-19 2.47709E-18
 -1       718 1.37861E-04-3.95909E-05-4.25122E-05-1.45551E-05-1.42807E-18 1.67104E-18
 -1       719 9.51928E-05-2.80321E-05-2.87828E-05-2.15813E-06-4.98091E-20-3.43974E-19
 -1       720 9.51727E-05-2.78471E-05-2.88534E-05-1.55501E-06 4.75681E-19-3.93070E-19
 -1       721 3.93092E-05-1.38846E-05-1.03651E-05 1.51942E-05 1.26000E-18-2.42103E-18
 -1       722 1.32041E-04-5.11278E-05-3.48600E-05 1.59992E-06 1.24540E-18 1.88854E-18
 -1       723 9.51139E-05-2.37489E-05-3.05855E-05-4.23061E-06-1.08229E-18-1.18296E-18
 -1       724 9.60897E-05-4.82457E-05-2.02351E-05 3.45475E-05 1.88571E-18 3.90442E-19
 -1       725 8.87799E-05-4.46518E-05-1.86268E-05-3.75546E-05-1.94042E-18-2.01712E-18
 -1       726 1.19538E-04-9.18775E-06-4.78362E-05-2.59664E-06 2.75185E-18-6.31393E-19
 -1       727 6.31288E-05-2.89043E-05-1.42396E-05 3.32737E-05 1.85524E-18-1.84664E-18
 -1       728 1.37279E-04-4.88585E-05-3.80981E-05 9.80980E-06-1.59199E-18-5.78179E-19
 -1       729 9.20383E-05-1.74652E-05-3.19658E-05 3.78632E-06 7.22234E-19-1.95963E-18
 -1       730 5.94453E-05-2.75354E-05-1.32205E-05-3.43980E-05-1.78274E-18-4.98918E-18
 -1       731 9.19990E-05-1.74061E-05-3.19740E-05-3.73619E-06-6.65733E-19-1.78502E-18
 -1       732 8.08348E-05-3.90120E-05-1.75934E-05-3.53731E-05 1.06911E-18 1.53459E-18
 -1       733 5.42403E-05-2.05724E-05-1.40415E-05 2.68251E-05-1.12600E-18 7.97852E-19
 -1       734 1.32134E-04-5.92049E-05-3.13059E-05-8.50333E-06-6.73629E-19-2.47396E-18
 -1       735 1.32493E-04-5.67995E-05-3.25708E-05 7.68851E-06-7.63739E-19 3.48872E-20
 -1       736 1.34589E-04-4.33010E-05-3.94274E-05-9.00259E-06-2.65717E-19 3.51863E-19
 -1       737 9.28573E-05-1.87582E-05-3.17607E-05-5.09193E-06-9.26551E-19-1.80959E-18
 -1       738 9.12001E-05-1.61580E-05-3.21661E-05-7.46077E-07-9.65944E-20-1.80496E-18
 -1       739 1.33562E-04-4.22660E-05-3.94274E-05-1.50959E-05-1.27469E-18 1.74589E-18
 -1       740 9.49378E-05-2.77869E-05-2.87792E-05 7.69095E-07 1.60579E-19-2.27655E-19
 -1       741 1.34319E-04-4.29390E-05-3.93828E-05 1.46628E-05-1.90762E-18-2.26449E-19
 -1       742 9.51316E-05-2.80027E-05-2.87696E-05 7.76821E-07-3.17737E-18-5.05993E-19
 -1       743 1.26792E-04-5.53197E-05-3.06189E-05-8.29588E-06-8.84723E-19 5.42538E-19
 -1       744 9.50866E-05-2.79075E-05-2.87911E-05-8.73863E-07-1.45372E-18-8.93022E-19
 -1       745 1.20613E-04-2.50183E-05-4.12280E-05 1.40038E-05 3.18161E-18 1.31978E-18
 -1       746 5.18027E-05-1.36543E-05-1.60714E-05 1.16651E-05-1.91679E-18 2.22572E-18
 -1       747 1.27945E-04-4.20627E-05-3.70873E-05 1.10804E-05 2.66821E-18 2.62178E-18
 -1       748 9.14616E-05-1.65619E-05-3.21053E-05-2.27262E-06-3.72416E-19-1.96249E-18
 -1       749 1.06331E-04-4.94553E-05-2.43175E-05-2.60301E-05-1.53071E-18 9.01164E-20
 -1       750 9.46145E-05-2.25267E-05-3.08928E-05 3.63708E-06 8.89979E-19-1.26812E-18
 -1       751 1.27750E-04-4.86975E-05-3.39809E-05-4.84760E-06 2.62266E-19 1.07917E-19
 -1       752 7.57955E-05-2.92846E-05-1.97818E-05 2.75941E-05-1.76544E-18 4.40589E-20
 -1       753 9.57768E-05-2.64537E-05-2.97101E-05 8.40156E-09-5.91665E-19-1.16016E-18
 -1       754 9.58042E-05-2.71783E-05-2.94111E-05 1.03868E-06-6.42885E-19-1.11557E-18
 -1       755 9.57036E-05-2.75372E-05-2.92142E-05 1.81381E-06-4.99988E-19-8.66869E-19
 -1       756 9.55202E-05-2.76277E-05-2.90968E-05 2.43953E-06-2.16859E-19-6.27521E-19
 -1       757 9.52724E-05-2.75151E-05-2.90388E-05 3.00562E-06 9.55181E-20-9.21463E-19
 -1       758 9.49634E-05-2.72443E-05-2.90224E-05 3.58430E-06 1.89214E-20-6.61430E-19
 -1       759 9.45879E-05-2.68496E-05-2.90306E-05 4.23189E-06-7.23434E-20-3.73389E-19
 -1       760 9.41372E-05-2.63648E-05-2.90452E-05 4.99130E-06-2.28041E-19-3.78733E-19
 -1       761 9.36067E-05-2.58336E-05-2.90454E-05 5.89487E-06-2.68738E-19-1.12674E-18
 -1       762 9.30063E-05-2.53251E-05-2.90060E-05 6.96785E-06 3.14816E-20-1.22907E-18
 -1       763 9.23789E-05-2.49537E-05-2.88961E-05 8.23443E-06-1.62588E-19-1.08149E-18
 -1       764 9.18310E-05-2.49096E-05-2.86802E-05 9.72780E-06-6.60812E-19-6.89049E-19
 -1       765 9.15879E-05-2.55019E-05-2.83219E-05 1.15002E-05-2.10104E-19-6.67178E-19
 -1       766 9.20807E-05-2.72121E-05-2.77987E-05 1.36148E-05 3.10611E-19-1.19333E-18
 -1       767 9.40599E-05-3.07210E-05-2.71355E-05 1.60657E-05 1.30947E-18-9.38174E-19
 -1       768 9.87516E-05-3.69113E-05-2.64758E-05 1.86233E-05 1.34584E-18-1.15281E-18
 -1       769 1.08041E-04-4.64026E-05-2.63706E-05 2.00309E-05 1.55524E-18-1.18673E-18
 -1       770 5.83089E-05-1.98419E-05-1.62246E-05-2.30519E-05-1.20107E-18-4.12344E-18
 -1       771 1.08042E-04-4.62176E-05-2.64114E-05-1.95928E-05 8.03242E-19-2.65101E-18
 -1       772 9.89300E-05-3.68983E-05-2.65605E-05-1.83622E-05 1.30489E-18-9.99924E-19
 -1       773 9.41696E-05-3.06712E-05-2.72046E-05-1.58524E-05 1.37539E-20-1.84184E-18
 -1       774 9.21367E-05-2.71106E-05-2.78663E-05-1.33717E-05-1.54252E-19-2.49706E-18
 -1       775 9.15988E-05-2.53535E-05-2.83901E-05-1.12016E-05-8.01275E-19-2.61775E-18
 -1       776 9.17933E-05-2.47094E-05-2.87497E-05-9.35153E-06 6.91994E-19-1.25528E-18
 -1       777 9.22897E-05-2.47002E-05-2.89665E-05-7.76186E-06-8.63023E-20-8.88229E-19
 -1       778 9.28608E-05-2.50192E-05-2.90747E-05-6.38546E-06 7.44617E-19-2.16890E-19
 -1       779 9.33977E-05-2.54800E-05-2.91074E-05-5.19440E-06-4.58104E-19 8.42926E-19
 -1       780 9.38563E-05-2.59746E-05-2.90920E-05-4.17193E-06-1.04475E-18 8.84638E-19
 -1       781 9.42264E-05-2.64451E-05-2.90490E-05-3.30501E-06 1.26208E-18 2.17051E-18
 -1       782 9.45138E-05-2.68633E-05-2.89930E-05-2.58052E-06 1.55050E-20 2.64200E-18
 -1       783 9.47297E-05-2.72180E-05-2.89335E-05-1.98378E-06-3.00330E-19 9.04458E-19
 -1       784 9.48881E-05-2.75086E-05-2.88769E-05-1.50078E-06 1.57289E-19 3.37559E-19
 -1       785 9.50131E-05-2.77365E-05-2.88327E-05-1.15811E-06 1.01018E-19-5.77540E-19
 -1       786 1.14579E-04-1.64650E-05-4.23449E-05-9.40849E-06 1.71574E-18-1.12162E-18
 -1       787 9.54454E-05-2.78687E-05-2.89614E-05-2.90168E-06-2.95654E-19-8.66016E-19
 -1       788 9.52662E-05-2.75215E-05-2.90333E-05-4.59294E-06 8.71327E-20-2.64556E-19
 -1       789 9.53238E-05-2.74722E-05-2.90791E-05-5.28815E-06-7.61850E-20-2.53246E-19
 -1       790 9.55235E-05-2.75917E-05-2.91134E-05-6.04503E-06-3.82062E-19-1.37014E-19
 -1       791 9.59635E-05-2.80050E-05-2.91249E-05-6.82092E-06-2.03450E-19-1.81777E-19
 -1       792 9.67918E-05-2.88739E-05-2.91076E-05-7.53290E-06-2.75062E-19 1.08507E-18
 -1       793 9.82137E-05-3.03879E-05-2.90684E-05-8.03910E-06-7.46577E-20 1.22444E-18
 -1       794 1.00483E-04-3.27239E-05-2.90405E-05-8.10688E-06-1.98789E-19 1.32353E-18
 -1       795 1.03840E-04-3.59406E-05-2.91023E-05-7.36517E-06-5.88679E-19 1.79465E-18
 -1       796 1.08347E-04-3.97401E-05-2.94009E-05-5.26045E-06-5.77031E-19 1.50820E-18
 -1       797 1.13512E-04-4.30051E-05-3.02251E-05-1.06438E-06-8.84158E-19 2.22171E-18
 -1       798 1.17935E-04-4.39249E-05-3.17507E-05 4.88365E-06 4.62872E-19 2.80064E-18
 -1       799 1.18826E-04-3.93080E-05-3.41350E-05 1.11534E-05 1.38746E-18 3.01642E-18
 -1       800 1.09757E-04-1.57328E-05-4.04988E-05-3.54022E-06 2.30124E-18-4.19943E-19
 -1       801 1.18205E-04-3.55389E-05-3.55384E-05-1.30237E-05 3.50208E-19-9.46659E-20
 -1       802 1.18877E-04-4.26877E-05-3.26740E-05-7.67160E-06 1.25109E-19-4.41228E-19
 -1       803 1.15480E-04-4.38183E-05-3.07229E-05-1.10239E-06-1.63877E-18 6.30452E-20
 -1       804 1.10402E-04-4.11746E-05-2.96728E-05 3.76442E-06-9.90966E-19 4.32537E-20
 -1       805 1.05534E-04-3.73612E-05-2.92175E-05 6.53886E-06 5.07710E-19 2.86313E-19
 -1       806 1.01694E-04-3.38172E-05-2.90908E-05 7.70482E-06-1.14978E-19-5.13695E-19
 -1       807 9.89947E-05-3.10842E-05-2.91050E-05 7.84567E-06 1.51012E-18-1.43907E-18
 -1       808 9.72460E-05-2.92181E-05-2.91550E-05 7.40107E-06 1.54275E-18-1.00352E-18
 -1       809 9.61868E-05-2.80725E-05-2.91918E-05 6.65531E-06-5.84348E-19 4.62955E-19
 -1       810 9.55875E-05-2.74566E-05-2.91988E-05 5.78304E-06-6.13168E-19 1.71063E-18
 -1       811 9.52765E-05-2.71986E-05-2.91761E-05 4.89075E-06-1.47454E-18 1.03356E-18
 -1       812 9.51360E-05-2.71642E-05-2.91305E-05 4.04208E-06-2.05881E-18-1.04296E-18
 -1       813 9.50897E-05-2.72570E-05-2.90710E-05 3.27255E-06-1.37255E-18-9.35118E-19
 -1       814 9.50907E-05-2.74113E-05-2.90053E-05 2.59866E-06-1.80333E-19 5.48554E-19
 -1       815 9.51115E-05-2.75854E-05-2.89396E-05 2.02424E-06 1.30289E-18 1.87269E-18
 -1       816 9.51355E-05-2.77522E-05-2.88784E-05 1.54726E-06 2.58741E-19 7.66390E-20
 -1       817 9.51546E-05-2.78983E-05-2.88240E-05 1.15610E-06-5.44093E-20-1.56973E-18
 -1       818 9.51400E-05-2.79527E-05-2.87948E-05 9.53206E-07-3.13854E-18-6.92457E-19
 -1       819 9.30343E-05-1.93823E-05-3.15661E-05 1.13229E-06 1.81989E-19-1.71065E-18
 -1       820 9.43762E-05-2.71683E-05-2.88034E-05-6.95372E-07-5.06414E-19 3.60074E-19
 -1       821 9.41618E-05-2.69792E-05-2.87926E-05 2.35049E-08 5.11745E-20 3.23534E-19
 -1       822 9.46434E-05-2.74150E-05-2.88122E-05-9.41742E-07-1.48153E-18-9.15610E-19
 -1       823 9.42114E-05-2.70200E-05-2.87964E-05-3.57489E-07-3.49918E-19 1.74592E-18
 -1       824 4.74880E-05-1.17603E-05-1.49851E-05 1.72790E-06 9.18601E-19-3.04627E-18
 -1       825 9.52893E-05-2.76474E-05-2.89893E-05-3.97312E-06 2.57952E-19-3.86679E-19
 -1       826 5.85792E-05-1.95622E-05-1.64258E-05 2.19313E-05 1.20963E-18-2.02919E-18
 -1       827 9.53563E-05-2.77814E-05-2.89606E-05-3.41937E-06 2.57896E-20-9.58134E-19
 -1       828 1.11775E-04-1.33830E-05-4.24839E-05 2.47848E-06 2.29991E-18-5.65024E-19
 -1       829 1.11504E-04-5.14845E-05-2.56074E-05 2.25617E-05 2.47615E-18-1.32955E-18
 -1       830 7.90592E-05-3.36794E-05-1.92360E-05-3.13782E-05-2.20804E-18-2.72811E-18
 -1       831 5.38182E-05-1.45110E-05-1.66170E-05-1.22322E-05-1.45893E-19 1.22513E-18
 -1       832 1.23819E-04-3.27491E-05-3.92471E-05-1.43148E-05 3.87306E-19-9.16979E-19
 -1       833 9.55314E-05-2.51946E-05-3.01438E-05-1.39196E-06-7.98973E-19-1.26613E-18
 -1       834 9.56911E-05-2.73075E-05-2.93073E-05-9.51888E-07 4.77443E-19-7.87873E-19
 -1       835 9.55420E-05-2.78593E-05-2.90068E-05-2.36971E-06-1.83631E-19-6.59996E-19
 -1       836 9.56321E-05-2.76978E-05-2.91147E-05-1.75151E-06 3.30223E-19-6.71178E-19
 -1       837 9.94085E-05-4.37919E-05-2.37206E-05-2.59781E-05-5.14440E-20 8.92839E-19
 -1       838 1.23391E-04-5.49935E-05-2.93251E-05 1.17975E-05-6.71889E-19 8.73010E-19
 -1       839 9.52356E-05-2.43354E-05-3.03861E-05 3.12602E-06 9.11979E-19-9.53292E-19
 -1       840 8.49311E-05-3.68921E-05-2.03509E-05 3.05146E-05 2.19989E-18 5.93982E-20
 -1       841 1.20303E-04-5.40838E-05-2.83872E-05-1.43116E-05-5.54237E-19-2.67694E-18
 -1       842 7.73461E-05-2.99234E-05-2.01585E-05-2.69848E-05 7.60113E-19 2.31437E-18
 -1       843 1.04393E-04-4.82071E-05-2.40347E-05 2.62903E-05-5.59928E-19 1.06902E-18
 -1       844 9.29105E-05-1.91669E-05-3.16055E-05 1.96934E-08 1.34205E-19-1.64383E-18
 -1       845 9.39078E-05-2.10130E-05-3.12459E-05-3.02070E-06-7.36617E-19-1.48969E-18
 -1       846 9.39734E-05-2.10957E-05-3.12325E-05 3.07677E-06 7.07677E-19-1.35696E-18
 -1       847 6.70905E-05-2.04267E-05-1.98673E-05 1.91494E-05-1.99318E-18 1.25176E-19
 -1       848 5.65149E-05-1.43339E-05-1.79226E-05-1.02381E-05 8.49931E-19-2.47556E-18
 -1       849 9.46827E-05-2.74773E-05-2.88022E-05 9.42994E-07 6.00153E-19 2.12274E-18
 -1       850 1.10188E-04-1.84225E-05-3.95549E-05 7.51501E-06 2.36368E-18-2.45415E-19
 -1       851 1.13051E-04-2.40249E-05-3.83411E-05-1.21862E-05 1.28810E-18-4.78577E-19
 -1       852 9.34028E-05-2.00261E-05-3.14471E-05 2.18692E-06 4.41816E-19-1.93185E-18
 -1       853 9.44142E-05-2.72221E-05-2.87965E-05 7.19708E-07 1.56733E-18-2.91376E-18
 -1       854 9.33702E-05-1.99788E-05-3.14542E-05-2.13836E-06-4.15492E-19-1.66257E-18
 -1       855 9.55382E-05-2.59460E-05-2.98243E-05 1.18982E-06 7.41908E-19-7.56024E-19
 -1       856 9.42328E-05-2.70498E-05-2.87928E-05 3.99753E-07 8.97971E-19-2.63824E-18
 -1       857 9.56564E-05-2.67786E-05-2.95195E-05-3.64878E-08 3.95255E-19-5.57747E-19
 -1       858 9.49797E-05-2.33919E-05-3.06782E-05-3.02191E-06-9.11286E-19-1.49079E-18
 -1       859 5.70384E-05-1.30418E-05-1.87082E-05 1.87196E-07-2.27863E-19 3.73508E-19
 -1       860 1.25374E-04-4.82610E-05-3.30665E-05 4.15455E-06 5.14404E-19 2.25074E-18
 -1       861 7.04168E-05-2.15896E-05-2.08203E-05-1.91453E-05 2.77493E-19 1.16685E-18
 -1       862 9.26904E-05-3.79981E-05-2.33871E-05 2.47279E-05-2.01609E-19 1.59057E-18
 -1       863 9.48143E-05-2.75611E-05-2.88219E-05-1.07025E-06-9.91018E-19-4.25164E-19
 -1       864 9.58837E-05-2.69766E-05-2.95316E-05 1.16602E-06-3.44732E-19-7.22201E-19
 -1       865 9.56841E-05-2.72617E-05-2.93239E-05 1.80722E-06-9.73017E-20-4.71626E-19
 -1       866 9.53269E-05-2.72390E-05-2.91805E-05 2.35223E-06-3.90245E-19-4.31771E-19
 -1       867 9.48339E-05-2.69749E-05-2.90825E-05 2.86618E-06-1.17485E-19-7.39946E-19
 -1       868 9.42087E-05-2.65179E-05-2.90104E-05 3.40268E-06 2.78372E-19-1.07748E-18
 -1       869 9.34426E-05-2.59076E-05-2.89436E-05 4.00424E-06-4.72205E-19-9.33080E-19
 -1       870 9.25201E-05-2.51837E-05-2.88584E-05 4.70522E-06-4.40027E-19-1.14820E-18
 -1       871 9.14254E-05-2.43969E-05-2.87265E-05 5.53766E-06-9.83840E-20-7.71117E-19
 -1       872 9.01512E-05-2.36226E-05-2.85123E-05 6.54040E-06-1.58481E-19-7.13847E-19
 -1       873 8.87119E-05-2.29766E-05-2.81723E-05 7.77715E-06 3.89810E-20-4.35434E-19
 -1       874 8.71670E-05-2.26429E-05-2.76534E-05 9.36801E-06-3.48907E-19 1.43921E-19
 -1       875 8.56703E-05-2.29205E-05-2.68927E-05 1.15286E-05-2.07158E-19-1.97370E-20
 -1       876 8.45563E-05-2.43048E-05-2.58194E-05 1.46149E-05 8.11657E-19-1.14565E-19
 -1       877 8.45657E-05-2.75979E-05-2.43871E-05 1.90813E-05 9.79800E-19-6.32806E-19
 -1       878 8.42237E-05-3.12479E-05-2.26186E-05 2.41117E-05 2.08964E-18-5.32870E-19
 -1       879 1.12461E-04-4.53132E-05-2.87721E-05 8.23917E-06-1.18207E-18-5.86735E-19
 -1       880 1.16457E-04-5.04189E-05-2.82678E-05-1.20865E-05-6.65636E-19-6.53312E-20
 -1       881 8.47576E-05-2.75812E-05-2.44746E-05-1.89198E-05 6.65632E-20 9.50975E-19
 -1       882 8.45887E-05-2.41837E-05-2.58823E-05-1.44323E-05 2.28991E-19 1.93403E-18
 -1       883 8.56200E-05-2.27395E-05-2.69479E-05-1.13194E-05 1.60971E-20 2.96069E-18
 -1       884 8.70317E-05-2.23856E-05-2.77053E-05-9.09159E-06-6.41462E-19 3.06164E-18
 -1       885 8.84930E-05-2.26463E-05-2.82198E-05-7.41769E-06 3.96929E-19 3.12865E-19
 -1       886 8.98412E-05-2.32211E-05-2.85513E-05-6.08693E-06 8.09278E-19-1.05784E-18
 -1       887 9.10128E-05-2.39282E-05-2.87504E-05-4.98392E-06 1.15435E-18-1.66930E-18
 -1       888 9.19921E-05-2.46579E-05-2.88575E-05-4.04996E-06-1.43228E-21 4.04728E-19
 -1       889 9.27881E-05-2.53475E-05-2.89031E-05-3.25527E-06 2.68295E-19 2.94905E-18
 -1       890 9.34205E-05-2.59643E-05-2.89098E-05-2.58269E-06 5.16906E-19 1.95337E-18
 -1       891 9.39148E-05-2.64962E-05-2.88937E-05-2.02043E-06-4.29069E-19 3.40952E-18
 -1       892 9.42933E-05-2.69398E-05-2.88659E-05-1.55558E-06-9.88625E-20 1.56017E-18
 -1       893 9.49209E-05-2.77180E-05-2.88011E-05 9.83575E-07-1.85714E-18 4.13023E-18
 -1       894 9.41726E-05-2.67058E-05-2.89142E-05-4.81059E-06-1.15649E-20-3.00443E-19
 -1       895 9.38801E-05-2.70848E-05-2.86264E-05-7.63361E-06-9.85247E-19 4.04867E-19
 -1       896 9.45178E-05-2.81635E-05-2.84372E-05-8.77732E-06-6.20087E-19 7.52700E-19
 -1       897 9.59582E-05-3.01217E-05-2.82152E-05-9.91424E-06-1.44503E-19 9.10551E-19
 -1       898 9.86214E-05-3.32438E-05-2.80199E-05-1.08311E-05-5.83340E-19 5.52784E-19
 -1       899 1.02983E-04-3.76980E-05-2.79861E-05-1.10490E-05-4.78649E-19 1.14534E-18
 -1       900 1.09424E-04-4.32767E-05-2.83532E-05-9.83506E-06-1.35772E-18 1.71126E-18
 -1       901 1.05310E-04-3.97500E-05-2.80843E-05 1.06477E-05-3.90662E-19-6.41491E-19
 -1       902 1.00096E-04-3.47477E-05-2.80036E-05 1.08690E-05 5.33969E-20 5.43726E-19
 -1       903 9.67608E-05-3.10397E-05-2.81659E-05 1.00935E-05 1.03193E-18 2.88377E-19
 -1       904 9.48401E-05-2.85903E-05-2.83929E-05 8.93909E-06 1.11136E-18 5.69483E-19
 -1       905 9.38693E-05-2.71334E-05-2.86011E-05 7.70031E-06-3.23743E-19 2.19957E-18
 -1       906 9.34955E-05-2.63896E-05-2.87596E-05 6.50634E-06-1.54989E-18 1.08943E-18
 -1       907 9.34699E-05-2.61229E-05-2.88629E-05 5.41013E-06-1.41617E-18 1.69198E-18
 -1       908 9.36285E-05-2.61535E-05-2.89179E-05 4.43223E-06-1.13301E-18 7.18080E-19
 -1       909 9.38684E-05-2.63524E-05-2.89354E-05 3.57854E-06-1.19289E-18 4.61901E-19
 -1       910 9.41276E-05-2.66312E-05-2.89270E-05 2.84734E-06-1.42501E-18-5.64641E-19
 -1       911 9.43724E-05-2.69334E-05-2.89023E-05 2.23155E-06-7.89993E-19 1.00617E-18
 -1       912 9.45833E-05-2.72233E-05-2.88689E-05 1.71887E-06 6.20433E-19 3.87995E-18
 -1       913 9.40318E-05-3.92682E-05-2.34190E-05-2.51800E-05-1.75161E-18-9.13497E-19
 -1       914 1.20952E-04-4.92805E-05-3.07228E-05 2.12613E-06-8.94233E-19 3.08834E-19
 -1       915 9.42286E-05-2.69712E-05-2.88245E-05-1.05934E-06-5.70528E-19 5.34017E-19
 -1       916 9.45264E-05-2.69681E-05-2.89535E-05-4.10603E-06-3.32878E-20-1.11559E-18
 -1       917 7.38821E-05-2.53968E-05-2.06542E-05-2.31948E-05-1.41889E-18-2.84298E-18
 -1       918 9.54275E-05-2.47882E-05-3.02757E-05 1.75647E-06 6.99810E-19-9.57567E-19
 -1       919 9.55341E-05-2.75629E-05-2.91305E-05-2.41310E-06 6.46821E-20-6.69968E-19
 -1       920 9.58861E-05-2.71168E-05-2.94725E-05-1.13608E-06 2.04425E-19-8.26886E-19
 -1       921 9.55966E-05-2.50817E-05-3.02203E-05-7.20011E-07-6.15666E-19-1.33013E-18
 -1       922 9.37385E-05-2.66196E-05-2.87651E-05-6.57280E-06-6.63445E-19-1.43608E-19
 -1       923 5.93257E-05-1.52079E-05-1.87634E-05 1.06445E-05 1.31600E-18-2.61658E-18
 -1       924 9.57627E-05-2.74743E-05-2.92665E-05-1.83467E-06-4.41280E-20-5.20134E-19
 -1       925 9.30246E-05-1.93651E-05-3.15694E-05-1.09334E-06-9.05855E-20-1.59926E-18
 -1       926 9.38817E-05-2.65490E-05-2.88568E-05-5.62970E-06-3.89415E-19 3.27679E-20
 -1       927 9.58913E-05-2.63090E-05-2.98222E-05 3.47785E-07-5.25663E-19-1.08739E-18
 -1       928 1.11603E-04-4.87330E-05-2.68897E-05 1.69319E-05-2.77972E-19 5.97535E-19
 -1       929 8.57023E-05-3.28232E-05-2.25649E-05-2.46530E-05 8.08655E-19 1.28932E-18
 -1       930 8.07701E-05-2.83690E-05-2.23818E-05 2.20162E-05-3.94532E-19 1.96448E-18
 -1       931 9.47496E-05-2.27774E-05-3.08449E-05-1.57901E-06-5.55180E-19-1.19921E-18
 -1       932 6.08994E-05-1.39190E-05-2.00656E-05 2.04560E-07 8.57435E-19-3.02268E-18
 -1       933 9.45951E-05-2.72852E-05-2.88469E-05-1.30152E-06-4.56772E-19 3.60195E-19
 -1       934 9.42445E-05-2.17073E-05-3.10875E-05 3.60495E-07 2.05564E-19-1.61075E-18
 -1       935 7.22731E-05-2.16163E-05-2.16310E-05 1.78365E-05 1.85009E-18-6.86828E-19
 -1       936 9.44296E-05-2.20906E-05-3.10042E-05 1.02251E-06 1.46214E-19-1.63525E-18
 -1       937 9.47586E-05-2.74791E-05-2.88338E-05 1.30310E-06 2.84205E-19 5.28218E-18
 -1       938 9.37871E-05-2.66061E-05-2.87920E-05-2.03876E-07 3.67822E-20-3.17564E-19
 -1       939 9.38072E-05-2.66316E-05-2.87899E-05 2.87081E-07 2.58917E-18-2.21395E-18
 -1       940 9.39287E-05-2.67202E-05-2.88037E-05-6.70053E-07-1.33251E-18 1.43130E-18
 -1       941 9.48917E-05-2.72450E-05-2.89914E-05-3.49551E-06-2.00737E-19-1.00330E-18
 -1       942 6.58849E-05-1.62372E-05-2.12002E-05-9.90713E-06 1.34096E-18 1.12578E-18
 -1       943 9.52356E-05-2.74645E-05-2.90447E-05-2.94652E-06-9.01032E-20-1.08774E-18
 -1       944 9.58608E-05-2.65754E-05-2.96936E-05-3.78365E-07 3.94973E-19-9.87764E-19
 -1       945 6.51225E-05-1.61822E-05-2.09262E-05 9.83380E-06-3.70743E-19 7.76372E-19
 -1       946 9.43193E-05-2.70827E-05-2.88160E-05 1.13167E-06 2.57809E-19 8.58702E-19
 -1       947 9.44236E-05-2.20704E-05-3.10079E-05-1.00858E-06-1.64946E-19-1.45163E-18
 -1       948 9.54541E-05-2.69641E-05-2.93529E-05 1.59006E-06-7.19974E-20-5.44264E-19
 -1       949 9.49022E-05-2.67961E-05-2.91884E-05 2.00446E-06-1.34691E-19-3.37490E-19
 -1       950 9.41604E-05-2.63674E-05-2.90542E-05 2.40405E-06-2.79690E-19-3.29846E-19
 -1       951 9.32279E-05-2.57274E-05-2.89289E-05 2.82230E-06-1.06661E-19-7.05814E-19
 -1       952 9.20903E-05-2.49187E-05-2.87879E-05 3.28543E-06-4.09964E-19-2.80707E-19
 -1       953 9.07194E-05-2.39815E-05-2.86021E-05 3.81574E-06-3.78083E-20-3.70746E-19
 -1       954 8.90782E-05-2.29649E-05-2.83345E-05 4.43996E-06 2.21918E-21-7.31368E-19
 -1       955 8.71195E-05-2.19309E-05-2.79384E-05 5.20231E-06 2.65996E-19-6.89811E-19
 -1       956 8.47824E-05-2.09586E-05-2.73539E-05 6.19089E-06 1.00622E-19-5.20505E-19
 -1       957 8.19847E-05-2.01565E-05-2.64987E-05 7.58728E-06-8.01542E-19-6.12711E-19
 -1       958 7.86192E-05-1.97051E-05-2.52460E-05 9.71330E-06 3.84947E-19-1.24469E-18
 -1       959 7.53693E-05-2.00195E-05-2.37097E-05 1.29051E-05 8.49318E-19-1.15197E-18
 -1       960 9.54658E-05-2.45064E-05-3.04111E-05-4.98427E-07-3.59257E-19-1.01830E-18
 -1       961 9.51371E-05-2.37211E-05-3.06065E-05 1.44110E-06 4.81231E-19-1.28113E-18
 -1       962 7.85190E-05-1.94948E-05-2.52958E-05-9.60385E-06-4.69308E-19 1.50724E-18
 -1       963 8.17887E-05-1.98660E-05-2.65376E-05-7.42486E-06-1.99073E-20 3.52091E-19
 -1       964 8.44799E-05-2.05788E-05-2.73863E-05-5.96377E-06-1.21938E-18 5.43815E-20
 -1       965 8.67059E-05-2.14670E-05-2.79597E-05-4.89856E-06-1.01506E-18 3.70810E-19
 -1       966 8.85394E-05-2.24206E-05-2.83367E-05-4.05698E-06-8.04347E-20-3.29541E-19
 -1       967 9.00387E-05-2.33638E-05-2.85750E-05-3.35316E-06 2.02949E-18-5.45103E-19
 -1       968 9.12537E-05-2.42478E-05-2.87168E-05-2.74754E-06 2.47762E-18 1.88922E-20
 -1       969 9.22280E-05-2.50441E-05-2.87932E-05-2.22349E-06 4.94634E-19 1.86851E-18
 -1       970 9.29976E-05-2.57366E-05-2.88263E-05-1.77385E-06-9.02540E-20 7.14221E-19
 -1       971 9.35988E-05-2.63236E-05-2.88323E-05-1.39094E-06-8.10858E-19 1.10464E-18
 -1       972 9.24349E-05-2.91381E-05-2.71256E-05-1.20905E-05-4.91042E-19-1.48770E-19
 -1       973 1.00799E-04-3.93539E-05-2.62985E-05-1.67630E-05-1.04691E-18-8.73371E-19
 -1       974 9.42397E-05-2.16978E-05-3.10894E-05-3.38030E-07 1.13167E-19-1.51337E-18
 -1       975 9.13489E-05-2.69436E-05-2.76017E-05-9.96825E-06-6.73983E-19-6.70358E-19
 -1       976 9.11491E-05-2.58038E-05-2.80051E-05-8.20734E-06-7.55240E-19-2.99721E-19
 -1       977 9.50597E-05-3.28647E-05-2.66559E-05-1.44461E-05-6.55009E-19-3.48730E-19
 -1       978 9.56322E-05-2.54467E-05-3.00804E-05 8.16669E-07 5.18647E-19-1.00486E-18
 -1       979 9.34336E-05-2.61303E-05-2.88442E-05-3.91871E-06-5.68197E-19-8.01628E-19
 -1       980 9.14408E-05-2.73981E-05-2.74481E-05 1.05626E-05 6.05248E-19 2.26761E-18
 -1       981 9.08665E-05-2.58084E-05-2.78826E-05 8.58792E-06 2.10906E-19 2.18186E-18
 -1       982 9.09191E-05-2.50589E-05-2.82262E-05 6.95588E-06-6.02615E-19 2.69109E-18
 -1       983 9.13055E-05-2.48586E-05-2.84775E-05 5.61300E-06-1.07606E-18 2.71669E-18
 -1       984 9.18428E-05-2.49977E-05-2.86481E-05 4.50687E-06-3.95745E-19 1.41060E-18
 -1       985 9.24207E-05-2.53279E-05-2.87542E-05 3.59371E-06-7.90367E-19 5.80142E-19
 -1       986 9.29756E-05-2.57481E-05-2.88119E-05 2.84069E-06-1.49683E-18-2.88975E-19
 -1       987 9.34746E-05-2.61913E-05-2.88358E-05 2.22459E-06-2.22157E-18 5.66712E-20
 -1       988 9.38999E-05-2.66113E-05-2.88376E-05 1.72238E-06-1.53400E-18 9.89266E-19
 -1       989 8.73538E-05-3.07943E-05-2.42263E-05-1.95453E-05-7.74933E-19-1.56319E-18
 -1       990 9.31010E-05-3.02080E-05-2.69485E-05 1.28602E-05-3.20987E-21 1.63341E-18
 -1       991 9.58843E-05-2.69459E-05-2.95449E-05-1.19159E-06-1.23354E-19-1.06087E-18
 -1       992 9.65706E-05-3.47220E-05-2.64962E-05 1.52131E-05-1.17093E-18 4.20798E-19
 -1       993 9.39917E-05-2.67929E-05-2.87994E-05 7.86848E-07 1.12300E-18-3.34334E-18
 -1       994 9.56456E-05-2.72071E-05-2.93308E-05-1.75189E-06 7.55640E-20-9.54662E-19
 -1       995 9.58985E-05-2.62491E-05-2.98490E-05 5.38472E-07-6.21882E-20-4.58459E-19
 -1       996 6.83675E-05-1.84515E-05-2.13096E-05-1.35594E-05 3.89571E-19-1.68844E-18
 -1       997 9.14584E-05-2.53811E-05-2.83188E-05-6.77397E-06-1.45407E-18-3.42850E-19
 -1       998 9.57970E-05-2.68070E-05-2.95673E-05 1.11866E-06-1.81855E-19-3.67241E-19
 -1       999 7.60286E-05-2.05906E-05-2.37365E-05-1.38284E-05 6.97323E-19 2.33147E-18
 -1      1000 9.26100E-05-3.39829E-05-2.51035E-05 1.88841E-05-7.86870E-19 5.97095E-19
 -1      1001 1.03745E-04-4.13649E-05-2.67256E-05 1.58210E-05-6.90458E-19-2.50702E-20
 -1      1002 9.27224E-05-2.57125E-05-2.87185E-05-4.68189E-06-3.40359E-19-8.95774E-19
 -1      1003 9.33687E-05-2.61910E-05-2.87901E-05-5.44922E-07-2.76253E-19-8.72861E-19
 -1      1004 9.51099E-05-2.35805E-05-3.06553E-05 8.61970E-09 4.96213E-20-1.41287E-18
 -1      1005 6.71389E-05-1.61969E-05-2.17828E-05 8.36013E-06 1.36306E-18-1.75682E-18
 -1      1006 9.51716E-05-2.37367E-05-3.06136E-05 3.15281E-07 8.08014E-20-1.66691E-18
 -1      1007 8.02010E-05-2.40086E-05-2.40689E-05-1.52077E-05-2.48778E-19-1.29563E-18
 -1      1008 9.41141E-05-2.65674E-05-2.89486E-05-3.28649E-06-2.04802E-19-1.10102E-18
 -1      1009 6.65293E-05-1.49251E-05-2.20735E-05-2.39442E-07-8.98473E-19 1.89052E-20
 -1      1010 9.59291E-05-2.64663E-05-2.97703E-05-6.16890E-07 3.09747E-19-9.83861E-19
 -1      1011 7.39914E-05-2.15450E-05-2.24333E-05 1.59353E-05 2.53683E-19 1.63115E-18
 -1      1012 9.52476E-05-2.71778E-05-2.91728E-05-2.25098E-06 3.82131E-19-1.06341E-18
 -1      1013 9.33701E-05-2.61838E-05-2.87942E-05 1.24789E-06-1.08430E-18-1.96454E-18
 -1      1014 9.20339E-05-2.54160E-05-2.85505E-05-5.61736E-06-7.49995E-19-6.66292E-19
 -1      1015 9.33002E-05-2.61494E-05-2.87784E-05 7.52445E-08 1.07475E-18-2.77539E-18
 -1      1016 9.55965E-05-2.66773E-05-2.95369E-05 8.51724E-07-2.47435E-19-7.52423E-19
 -1      1017 9.57091E-05-2.53979E-05-3.01330E-05 2.70536E-07 2.94058E-19-9.39282E-19
 -1      1018 9.43480E-05-2.63546E-05-2.91401E-05 1.37520E-06-9.96749E-20-8.62695E-19
 -1      1019 9.33818E-05-2.57733E-05-2.89754E-05 1.60393E-06-1.74691E-19-6.10770E-19
 -1      1020 9.21823E-05-2.49777E-05-2.88024E-05 1.83309E-06-4.51996E-20-5.72984E-19
 -1      1021 9.07360E-05-2.40200E-05-2.85928E-05 2.06391E-06-3.02936E-19-3.89505E-19
 -1      1022 8.89940E-05-2.29326E-05-2.83122E-05 2.30210E-06-6.68741E-19-1.30834E-18
 -1      1023 8.68853E-05-2.17504E-05-2.79155E-05 2.55094E-06 6.41342E-20-1.73292E-18
 -1      1024 8.43169E-05-2.05184E-05-2.73436E-05 2.83395E-06-5.86217E-20-1.93373E-18
 -1      1025 8.11234E-05-1.92523E-05-2.65177E-05 3.20963E-06-2.11646E-19-1.69558E-18
 -1      1026 7.69990E-05-1.79472E-05-2.53052E-05 3.81526E-06-2.18945E-19-1.40755E-18
 -1      1027 8.86615E-05-2.38246E-05-2.77874E-05-6.50234E-06-1.36938E-18-1.62138E-18
 -1      1028 7.21579E-05-1.68185E-05-2.37058E-05-6.32529E-06-6.28019E-19-2.20217E-19
 -1      1029 8.07852E-05-1.88566E-05-2.65406E-05-3.11118E-06-6.77413E-19-1.02003E-18
 -1      1030 8.38541E-05-2.00248E-05-2.73567E-05-2.68399E-06-8.30882E-20 5.22008E-19
 -1      1031 8.62894E-05-2.11704E-05-2.79090E-05-2.34348E-06 1.66077E-20 2.35892E-18
 -1      1032 8.82404E-05-2.22639E-05-2.82762E-05-2.03930E-06-3.79071E-20 2.10121E-18
 -1      1033 8.98136E-05-2.32834E-05-2.85133E-05-1.74970E-06 1.01968E-18 1.32307E-20
 -1      1034 9.10816E-05-2.42100E-05-2.86596E-05-1.47327E-06 1.28138E-18-1.53343E-18
 -1      1035 9.20925E-05-2.50273E-05-2.87432E-05-1.21852E-06 9.79940E-19-1.51650E-18
 -1      1036 9.27860E-05-2.56455E-05-2.87748E-05-8.38110E-07 5.84317E-19-6.07043E-19
 -1      1037 8.76160E-05-2.40091E-05-2.72607E-05-8.30730E-06-8.39724E-19-9.78995E-19
 -1      1038 9.51691E-05-2.37307E-05-3.06170E-05-2.92998E-07-2.11184E-19-1.19235E-18
 -1      1039 8.87975E-05-2.33893E-05-2.80330E-05 5.36765E-06 1.82189E-19 3.78748E-18
 -1      1040 8.77860E-05-2.33787E-05-2.76046E-05 6.93537E-06-2.88572E-19 4.29144E-18
 -1      1041 8.69531E-05-2.39007E-05-2.70233E-05 9.02124E-06-7.67217E-19 2.13593E-18
 -1      1042 8.98343E-05-2.37184E-05-2.83360E-05 4.17452E-06-2.64025E-19 2.57261E-18
 -1      1043 9.08170E-05-2.42229E-05-2.85408E-05 3.25086E-06-9.04352E-20 1.54432E-18
 -1      1044 9.17041E-05-2.48052E-05-2.86714E-05 2.52584E-06-4.13965E-19 1.26931E-18
 -1      1045 9.24766E-05-2.53990E-05-2.87478E-05 1.95808E-06-1.12794E-18 2.37554E-19
 -1      1046 9.29420E-05-2.57952E-05-2.87773E-05 1.57386E-06-1.37074E-18-6.58237E-19
 -1      1047 6.86753E-05-1.59315E-05-2.25618E-05-4.51046E-06 2.75402E-20-2.01980E-18
 -1      1048 8.64717E-05-2.52084E-05-2.62563E-05 1.18223E-05-2.62974E-19-2.14204E-19
 -1      1049 8.68762E-05-2.68568E-05-2.57152E-05-1.40373E-05-1.46220E-19-1.15564E-18
 -1      1050 8.47949E-05-2.74387E-05-2.45689E-05 1.69408E-05-1.14877E-18 8.96775E-19
 -1      1051 9.47278E-05-2.69407E-05-2.90517E-05-2.74548E-06-2.49241E-19-1.29363E-18
 -1      1052 9.32327E-05-2.60871E-05-2.87767E-05 6.62196E-07 1.02227E-19-7.52065E-19
 -1      1053 9.57376E-05-2.68014E-05-2.95441E-05-1.05678E-06 1.30425E-19-7.61647E-19
 -1      1054 7.67772E-05-1.76395E-05-2.53448E-05-3.73482E-06-2.76615E-19-6.41411E-20
 -1      1055 9.58268E-05-2.62707E-05-2.98097E-05 5.12872E-07-4.83892E-20-1.09381E-18
 -1      1056 8.68943E-05-2.48967E-05-2.65705E-05-1.07289E-05-6.13667E-19-9.87084E-19
 -1      1057 9.57181E-05-2.53179E-05-3.01716E-05 8.47760E-08 4.61333E-20-1.06235E-18
 -1      1058 9.50921E-05-2.66783E-05-2.93202E-05 1.13052E-06-2.42358E-19-7.91959E-19
 -1      1059 8.96138E-05-2.92071E-05-2.58842E-05 1.49636E-05-1.54672E-18 2.23113E-20
 -1      1060 9.54285E-05-2.44210E-05-3.04316E-05 4.77729E-07 1.17678E-19-1.40402E-18
 -1      1061 8.98287E-05-2.40806E-05-2.81783E-05-5.15748E-06-7.52150E-19-5.29419E-19
 -1      1062 7.22756E-05-1.67855E-05-2.37563E-05 4.95998E-06 1.76973E-19-1.33472E-18
 -1      1063 9.26213E-05-2.55413E-05-2.87498E-05-5.32981E-08-2.10710E-19-2.34371E-18
 -1      1064 9.56583E-05-2.51376E-05-3.02239E-05 1.75498E-08-1.08941E-19-1.19598E-18
 -1      1065 9.57029E-05-2.52379E-05-3.01997E-05-4.60048E-08-8.74823E-20-1.58050E-18
 -1      1066 7.67256E-05-1.97788E-05-2.44053E-05-9.29267E-06-5.05249E-19-1.69209E-18
 -1      1067 9.31092E-05-2.57913E-05-2.88506E-05-2.76192E-06-6.14889E-19-5.88318E-19
 -1      1068 7.20239E-05-1.71913E-05-2.34791E-05 6.93423E-06-1.16853E-18 1.10586E-18
 -1      1069 9.58972E-05-2.64341E-05-2.97701E-05-6.80974E-07 6.36651E-20-8.67307E-19
 -1      1070 9.53458E-05-2.69173E-05-2.93266E-05-1.46173E-06 2.80463E-19-9.79639E-19
 -1      1071 9.20955E-05-2.51745E-05-2.86805E-05-3.37224E-06-3.95719E-19-4.84341E-19
 -1      1072 9.53325E-05-2.65979E-05-2.94577E-05 3.53759E-07-1.91773E-19-1.14461E-18
 -1      1073 9.09895E-05-2.45704E-05-2.84653E-05-4.14710E-06-8.02659E-19 2.85457E-20
 -1      1074 8.21858E-05-2.32720E-05-2.52520E-05 1.24696E-05-8.89712E-19 2.63279E-19
 -1      1075 9.26195E-05-2.52591E-05-2.88683E-05 4.98346E-07-2.21328E-19-1.52547E-18
 -1      1076 9.12322E-05-2.43702E-05-2.86555E-05 4.64603E-07-4.23020E-19-1.66355E-18
 -1      1077 8.96128E-05-2.33678E-05-2.83901E-05 3.71512E-07-6.69744E-19-1.79537E-18
 -1      1078 8.76638E-05-2.22577E-05-2.80320E-05 2.05894E-07-7.21263E-19-1.48502E-18
 -1      1079 8.52475E-05-2.10154E-05-2.75218E-05-6.62254E-08 8.76907E-20-1.44839E-18
 -1      1080 8.22400E-05-1.97306E-05-2.67917E-05-5.79184E-07-2.32373E-19-1.50428E-18
 -1      1081 7.86581E-05-1.85395E-05-2.57679E-05-1.33510E-06-1.44708E-19-1.58523E-18
 -1      1082 9.57147E-05-2.63805E-05-2.97148E-05 2.44921E-07 9.67335E-20-1.16293E-18
 -1      1083 8.46324E-05-2.04398E-05-2.75131E-05 1.82079E-07 1.56859E-18-1.32938E-18
 -1      1084 8.68602E-05-2.15456E-05-2.79933E-05-1.05535E-07 5.51667E-19-4.38425E-19
 -1      1085 8.86635E-05-2.25951E-05-2.83159E-05-2.62994E-07-4.22784E-19 3.56365E-19
 -1      1086 9.01310E-05-2.35714E-05-2.85262E-05-3.33145E-07 8.15906E-19-4.82693E-19
 -1      1087 9.13185E-05-2.44562E-05-2.86566E-05-3.48841E-07 2.51536E-19-8.54465E-20
 -1      1088 9.20452E-05-2.50363E-05-2.87138E-05-1.90268E-07 2.45180E-19-1.09519E-18
 -1      1089 8.59812E-05-2.17249E-05-2.75369E-05 4.52444E-06 4.22427E-19 7.85290E-19
 -1      1090 8.91268E-05-2.30781E-05-2.83055E-05 2.50370E-06 6.09868E-19 1.17047E-18
 -1      1091 8.76632E-05-2.23464E-05-2.79915E-05 3.35378E-06 6.57778E-19 7.11494E-19
 -1      1092 8.40735E-05-2.13181E-05-2.68951E-05 6.16262E-06-1.19961E-18 1.12582E-18
 -1      1093 8.22602E-05-2.26194E-05-2.55614E-05-1.06810E-05-4.16517E-19-1.76610E-18
 -1      1094 9.57040E-05-2.52474E-05-3.01962E-05 4.45356E-08 3.25255E-19-1.27769E-18
 -1      1095 9.03834E-05-2.38463E-05-2.85151E-05 1.87821E-06-1.23752E-19 1.30638E-18
 -1      1096 9.14415E-05-2.45935E-05-2.86479E-05 1.41352E-06 1.88408E-19 2.03910E-20
 -1      1097 8.19505E-05-2.12786E-05-2.59971E-05 8.48541E-06-2.02955E-18 1.29042E-18
 -1      1098 8.53392E-05-2.19170E-05-2.71787E-05-5.46320E-06-7.77607E-19-1.58283E-18
 -1      1099 8.31245E-05-2.15550E-05-2.63834E-05-7.49653E-06-4.44274E-19-1.56398E-18
 -1      1100 7.34600E-05-1.66827E-05-2.43333E-05 7.57154E-07-5.17542E-19-1.09825E-18
 -1      1101 9.37732E-05-2.59728E-05-2.90559E-05 4.84268E-07-3.19357E-19-1.50469E-18
 -1      1102 9.46783E-05-2.64404E-05-2.92448E-05 4.28951E-07-2.03442E-19-1.25412E-18
 -1      1103 9.40043E-05-2.63376E-05-2.90003E-05-2.27093E-06-2.78121E-19-6.24441E-19
 -1      1104 7.82050E-05-1.80334E-05-2.57863E-05 1.35757E-06-3.18122E-19-1.39873E-18
 -1      1105 9.47567E-05-2.67356E-05-2.91521E-05-1.85161E-06-1.20352E-19-5.12989E-19
 -1      1106 8.18287E-05-1.92742E-05-2.68109E-05 6.62426E-07-5.48639E-20-1.81102E-18
 -1      1107 8.74237E-05-2.26152E-05-2.77681E-05-4.06943E-06-3.74538E-19-9.24750E-19
 -1      1108 7.44208E-05-1.73546E-05-2.44548E-05-2.62069E-06-4.11379E-19-1.85727E-18
 -1      1109 9.57841E-05-2.58957E-05-2.99509E-05 9.93456E-08 3.77518E-20-1.16397E-18
 -1      1110 9.58031E-05-2.63648E-05-2.97582E-05-4.64738E-07-1.73686E-19-1.42629E-18
 -1      1111 9.20912E-05-2.51070E-05-2.87086E-05 1.07983E-06-2.47280E-20 5.50204E-19
 -1      1112 9.27585E-05-2.56580E-05-2.87549E-05 8.62900E-07-1.59952E-18-7.72163E-19
 -1      1113 9.55073E-05-2.66886E-05-2.94936E-05-7.34174E-07 6.26889E-20-1.05550E-18
 -1      1114 9.31452E-05-2.56913E-05-2.89090E-05-1.49288E-06-2.97908E-19-6.52069E-19
 -1      1115 7.70436E-05-1.85222E-05-2.50867E-05 5.78900E-06-1.00333E-18 1.24183E-18
 -1      1116 9.19619E-05-2.49568E-05-2.87166E-05-1.89117E-06-6.28319E-19-9.31363E-19
 -1      1117 9.05953E-05-2.41348E-05-2.84824E-05-2.41755E-06-5.01270E-19-7.20872E-19
 -1      1118 9.55736E-05-2.65510E-05-2.95812E-05-2.51622E-07-1.32762E-19-1.54134E-18
 -1      1119 8.69975E-05-2.21237E-05-2.78135E-05-2.32277E-06-2.27257E-19-9.16591E-19
 -1      1120 9.41453E-05-2.62694E-05-2.90877E-05-1.19459E-06-2.70835E-19-7.48039E-19
 -1      1121 9.42860E-05-2.62841E-05-2.91457E-05-4.86850E-07-3.06814E-19-1.44002E-18
 -1      1122 9.58030E-05-2.60144E-05-2.99095E-05-1.20843E-07 2.72750E-20-1.44278E-18
 -1      1123 9.50569E-05-2.65807E-05-2.93469E-05-3.60227E-07-2.50546E-19-1.38243E-18
 -1      1124 8.91177E-05-2.33570E-05-2.81824E-05-3.12488E-06-3.68010E-19-9.23749E-19
 -1      1125 9.49427E-05-2.66333E-05-2.92752E-05-9.64104E-07-1.59324E-19-8.51504E-19
 -1      1126 7.91310E-05-1.97639E-05-2.54478E-05-6.53834E-06-3.48754E-19-2.00355E-18
 -1      1127 8.89860E-05-2.31267E-05-2.82278E-05-1.63036E-06-3.24899E-19-1.34529E-18
 -1      1128 1.16600E-04 2.56880E-10-4.17694E-05-4.13802E-05-2.02017E-19 7.32726E-18
 -1      1129 8.85394E-05 7.18614E-11-3.72038E-05-2.41185E-05-1.09585E-19 1.40597E-18
 -1      1130 8.40441E-05 4.14918E-11-3.57504E-05-1.78267E-05-9.00502E-20-1.25312E-18
 -1      1131 8.23569E-05 3.20357E-11-3.50802E-05-1.37790E-05-5.41572E-20-2.60174E-18
 -1      1132 8.15911E-05 2.73133E-11-3.47628E-05-1.04730E-05-3.45828E-20-3.30216E-18
 -1      1133 8.12116E-05 2.45057E-11-3.46082E-05-7.58410E-06-1.91310E-20-3.58569E-18
 -1      1134 8.10147E-05 2.27869E-11-3.45309E-05-4.93622E-06-1.65403E-20-3.69904E-18
 -1      1135 8.09188E-05 2.18484E-11-3.44947E-05-2.40831E-06-9.61680E-21-3.69992E-18
 -1      1136 8.08912E-05 2.15612E-11-3.44845E-05 5.29530E-08-2.06051E-21-3.67415E-18
 -1      1137 8.09222E-05 2.18909E-11-3.44958E-05 2.51664E-06 8.33136E-21-3.68704E-18
 -1      1138 8.10219E-05 2.28856E-11-3.45330E-05 5.05269E-06 1.57131E-20-3.61156E-18
 -1      1139 8.12246E-05 2.46656E-11-3.46113E-05 7.71658E-06 3.14792E-20-3.47218E-18
 -1      1140 8.16106E-05 2.76073E-11-3.47680E-05 1.06322E-05 4.24708E-20-3.08667E-18
 -1      1141 8.23787E-05 3.25192E-11-3.50896E-05 1.39839E-05 5.80218E-20-2.45495E-18
 -1      1142 8.40403E-05 4.19555E-11-3.57703E-05 1.80768E-05 8.23740E-20-1.08358E-18
 -1      1143 8.82380E-05 6.66949E-11-3.72737E-05 2.39603E-05 1.03232E-19 1.62313E-18
 -1      1144 1.06385E-04 1.63557E-10-4.05505E-05 3.61208E-05 2.32299E-19 7.22064E-18
 -1      1145 1.29881E-04-2.56878E-05-4.01769E-05-2.60467E-05-8.11034E-19 1.10940E-17
 -1      1146 9.71938E-05-2.87844E-05-3.14967E-05-6.78739E-07-3.03582E-19 9.22504E-18
 -1      1147 8.99345E-05-2.69600E-05-2.78247E-05 3.85425E-07-1.12351E-19 6.64263E-18
 -1      1148 8.80597E-05-2.65169E-05-2.65876E-05 2.48556E-07 8.73834E-21 4.96192E-18
 -1      1149 8.77518E-05-2.64060E-05-2.63476E-05 1.63358E-07-6.95725E-20 3.80717E-18
 -1      1150 8.81898E-05-2.65072E-05-2.64575E-05 1.15454E-07-1.10367E-19 2.62289E-18
 -1      1151 8.89998E-05-2.67299E-05-2.66990E-05 8.50551E-08-8.59275E-21 1.80464E-18
 -1      1152 9.00036E-05-2.70199E-05-2.70005E-05 6.45005E-08 1.67202E-20 1.29842E-18
 -1      1153 9.11183E-05-2.73488E-05-2.73362E-05 5.01704E-08-3.86310E-20 6.84429E-19
 -1      1154 9.23163E-05-2.77060E-05-2.76984E-05 4.04737E-08-8.46057E-20 1.29669E-19
 -1      1155 9.36084E-05-2.80936E-05-2.80906E-05 3.48479E-08-2.04591E-20-9.10957E-20
 -1      1156 9.50341E-05-2.85227E-05-2.85248E-05 3.33131E-08 6.24765E-20 3.19272E-19
 -1      1157 9.66569E-05-2.90118E-05-2.90196E-05 3.63045E-08-3.71586E-20-5.86683E-19
 -1      1158 9.85592E-05-2.95851E-05-2.95997E-05 4.46060E-08 4.37661E-20-7.31161E-19
 -1      1159 1.00836E-04-3.02706E-05-3.02928E-05 5.92613E-08 6.56186E-20 2.45640E-20
 -1      1160 1.03586E-04-3.10963E-05-3.11263E-05 8.13046E-08-2.06133E-19 2.44157E-19
 -1      1161 1.06884E-04-3.20840E-05-3.21195E-05 1.11036E-07-6.53679E-20-3.93791E-19
 -1      1162 1.10746E-04-3.32363E-05-3.32697E-05 1.46357E-07 1.12224E-20-9.66888E-19
 -1      1163 1.15054E-04-3.45157E-05-3.45293E-05 1.79509E-07-2.26493E-19-1.59247E-18
 -1      1164 1.19442E-04-3.58109E-05-3.57734E-05 1.91897E-07 1.23768E-19-2.80066E-18
 -1      1165 1.23160E-04-3.68974E-05-3.67660E-05 1.48740E-07-1.66859E-20-1.06897E-18
 -1      1166 1.24987E-04-3.74118E-05-3.71545E-05 1.29941E-09 4.48663E-20 1.30575E-18
 -1      1167 1.23374E-04-3.69004E-05-3.65436E-05-2.86767E-07 6.34017E-20 3.45891E-18
 -1      1168 1.17108E-04-3.50216E-05-3.46998E-05-6.75861E-07-6.35539E-20 1.56267E-18
 -1      1169 1.06552E-04-3.19143E-05-3.18434E-05-9.83690E-07 8.54527E-20 2.13399E-18
 -1      1170 9.47384E-05-2.84877E-05-2.88219E-05-9.30907E-07-2.10852E-19 1.89746E-18
 -1      1171 8.67686E-05-2.62074E-05-2.68544E-05-3.87838E-07 3.04455E-19-4.25899E-19
 -1      1172 8.67812E-05-2.62090E-05-2.68558E-05 3.89510E-07 1.09783E-19-4.11340E-19
 -1      1173 9.47630E-05-2.84967E-05-2.88276E-05 9.29277E-07-5.75784E-20-3.75447E-19
 -1      1174 1.06580E-04-3.19222E-05-3.18523E-05 9.82949E-07-1.18113E-19-7.09178E-19
 -1      1175 1.17146E-04-3.50333E-05-3.47119E-05 6.75304E-07-2.69634E-19-1.81964E-18
 -1      1176 1.23427E-04-3.69167E-05-3.65612E-05 2.85972E-07 8.34327E-20-3.46315E-18
 -1      1177 1.25065E-04-3.74360E-05-3.71799E-05-1.82133E-09 3.67672E-19-9.95072E-19
 -1      1178 1.23281E-04-3.69346E-05-3.68041E-05-1.48710E-07 3.48739E-21-4.98505E-19
 -1      1179 1.19626E-04-3.58677E-05-3.58311E-05-1.91272E-07-8.46619E-20-3.16931E-18
 -1      1180 1.15330E-04-3.46002E-05-3.46150E-05-1.78140E-07 3.24027E-19-1.49710E-18
 -1      1181 1.11148E-04-3.33589E-05-3.33938E-05-1.43977E-07-1.00666E-19-7.75988E-19
 -1      1182 1.07453E-04-3.22571E-05-3.22947E-05-1.07274E-07-5.26633E-20 1.45690E-19
 -1      1183 1.04374E-04-3.13353E-05-3.13680E-05-7.56653E-08 3.66029E-19 3.64502E-19
 -1      1184 1.01904E-04-3.05936E-05-3.06194E-05-5.11064E-08-2.24680E-19-3.22908E-18
 -1      1185 9.99774E-05-3.00135E-05-3.00326E-05-3.31249E-08 6.75393E-20-4.68753E-18
 -1      1186 9.85073E-05-2.95696E-05-2.95833E-05-2.04778E-08 4.96863E-19-2.20843E-18
 -1      1187 9.74066E-05-2.92365E-05-2.92461E-05-1.18600E-08-2.47116E-20-3.73658E-18
 -1      1188 9.65983E-05-2.89914E-05-2.89979E-05-6.13674E-09 2.24071E-20-2.50355E-18
 -1      1189 9.60184E-05-2.88150E-05-2.88198E-05-2.36087E-09 1.59346E-19-2.33100E-18
 -1      1190 9.56169E-05-2.86927E-05-2.86966E-05 3.16262E-10 3.70691E-20 1.83730E-19
 -1      1191 9.53583E-05-2.86134E-05-2.86174E-05 2.79692E-09 1.32030E-20-2.15823E-18
 -1      1192 9.52191E-05-2.85703E-05-2.85743E-05 6.17193E-09 1.19870E-19 6.83256E-19
 -1      1193 9.51872E-05-2.85621E-05-2.85585E-05 1.23657E-08 1.97963E-19 1.48805E-18
 -1      1194 9.52145E-05-2.85645E-05-2.85534E-05 7.28333E-09 3.03961E-19 8.86917E-19
 -1      1195 1.30715E-04-3.76369E-05-3.85669E-05 1.21512E-05-1.02412E-19 1.18191E-17
 -1      1196 9.63016E-05-2.81135E-05-3.12508E-05 8.00957E-07 9.95528E-20 9.14605E-18
 -1      1197 9.01534E-05-2.68643E-05-2.78072E-05 1.21683E-07 1.15832E-19 6.77298E-18
 -1      1198 8.81535E-05-2.64463E-05-2.66260E-05 1.18874E-08 8.23342E-20 5.07555E-18
 -1      1199 8.78024E-05-2.63713E-05-2.63776E-05-2.10516E-08 1.92568E-20 3.88690E-18
 -1      1200 8.82249E-05-2.64932E-05-2.64770E-05-2.86677E-08 4.82412E-20 2.95667E-18
 -1      1201 8.90290E-05-2.67270E-05-2.67138E-05-2.83507E-08-6.27545E-20 2.83028E-18
 -1      1202 9.00298E-05-2.70226E-05-2.70129E-05-2.50719E-08 2.82838E-20 2.58713E-18
 -1      1203 9.11396E-05-2.73532E-05-2.73460E-05-2.05036E-08 1.18452E-20 1.51974E-18
 -1      1204 9.23250E-05-2.77079E-05-2.77033E-05-1.55601E-08 7.63895E-20 5.69166E-19
 -1      1205 9.35877E-05-2.80866E-05-2.80853E-05-1.09911E-08 1.50023E-19-1.38847E-19
 -1      1206 9.49521E-05-2.84960E-05-2.84989E-05-7.57727E-09-5.03914E-20-1.88855E-19
 -1      1207 9.64564E-05-2.89474E-05-2.89552E-05-6.23436E-09-3.23254E-20 1.60134E-18
 -1      1208 9.81437E-05-2.94530E-05-2.94661E-05-8.09185E-09-5.05573E-20 1.61485E-18
 -1      1209 1.00050E-04-3.00228E-05-3.00409E-05-1.45117E-08 1.12033E-19 1.04321E-18
 -1      1210 1.02185E-04-3.06593E-05-3.06807E-05-2.69589E-08-8.92557E-20-7.85835E-19
 -1      1211 1.04515E-04-3.13507E-05-3.13712E-05-4.65576E-08-7.73294E-20-2.08370E-19
 -1      1212 1.06920E-04-3.20616E-05-3.20729E-05-7.30860E-08 1.06943E-19-1.44034E-18
 -1      1213 1.09168E-04-3.27221E-05-3.27109E-05-1.03165E-07 1.64029E-19-3.57482E-18
 -1      1214 1.10873E-04-3.32197E-05-3.31683E-05-1.27756E-07-7.37365E-20-2.28261E-18
 -1      1215 1.11503E-04-3.34005E-05-3.32912E-05-1.30190E-07 6.74020E-20-7.43050E-19
 -1      1216 1.10455E-04-3.30916E-05-3.29189E-05-8.80718E-08-1.54100E-19 1.38421E-18
 -1      1217 1.07265E-04-3.21595E-05-3.19476E-05 1.61568E-08 1.59818E-19 6.33369E-19
 -1      1218 1.01942E-04-3.06035E-05-3.04184E-05 1.75258E-07 7.42146E-20-9.53389E-19
 -1      1219 9.53096E-05-2.86516E-05-2.85894E-05 3.39105E-07-3.10726E-20-1.28257E-18
 -1      1220 8.90510E-05-2.67845E-05-2.69195E-05 4.24861E-07 9.75213E-20 4.84926E-20
 -1      1221 8.52010E-05-2.56029E-05-2.59231E-05 3.65925E-07-2.46202E-20-6.55921E-19
 -1      1222 8.51896E-05-2.55541E-05-2.59433E-05 1.68103E-07-1.39492E-19-6.10578E-19
 -1      1223 8.90273E-05-2.66732E-05-2.69732E-05-8.03153E-08 7.09324E-20-1.83166E-18
 -1      1224 9.52939E-05-2.85498E-05-2.86601E-05-2.71227E-07-1.09620E-19-2.81458E-18
 -1      1225 1.01949E-04-3.05626E-05-3.04884E-05-3.45683E-07 3.11304E-19-4.77568E-18
 -1      1226 1.07303E-04-3.21873E-05-3.20066E-05-3.13596E-07 2.40754E-19-3.20978E-18
 -1      1227 1.10531E-04-3.31664E-05-3.29667E-05-2.23180E-07-2.83524E-19-3.51783E-19
 -1      1228 1.11628E-04-3.34975E-05-3.33353E-05-1.22707E-07 9.15209E-20-5.86173E-19
 -1      1229 1.11063E-04-3.33260E-05-3.32206E-05-4.06984E-08-5.85363E-20-3.56667E-19
 -1      1230 1.09449E-04-3.28386E-05-3.27853E-05 1.38685E-08 1.18163E-20-3.01787E-18
 -1      1231 1.07325E-04-3.21994E-05-3.21837E-05 4.36193E-08 2.92275E-19-5.20913E-18
 -1      1232 1.05086E-04-3.15266E-05-3.15336E-05 5.53704E-08-5.60045E-20-4.15897E-18
 -1      1233 1.02974E-04-3.08929E-05-3.09112E-05 5.59414E-08 1.12974E-19-3.91861E-18
 -1      1234 1.01117E-04-3.03359E-05-3.03581E-05 5.05666E-08 4.30051E-21-4.33362E-18
 -1      1235 9.95609E-05-2.98695E-05-2.98914E-05 4.27188E-08-9.04601E-20-5.33504E-18
 -1      1236 9.83052E-05-2.94931E-05-2.95125E-05 3.44633E-08-4.41449E-19-2.61582E-18
 -1      1237 9.73222E-05-2.91983E-05-2.92146E-05 2.69003E-08 3.70852E-19-3.53134E-18
 -1      1238 9.65741E-05-2.89740E-05-2.89871E-05 2.05230E-08-6.54713E-21-6.87293E-18
 -1      1239 9.60216E-05-2.88084E-05-2.88187E-05 1.54461E-08-2.98493E-19-3.63805E-18
 -1      1240 9.56300E-05-2.86909E-05-2.86995E-05 1.15110E-08-2.19939E-20-1.99981E-18
 -1      1241 9.53719E-05-2.86134E-05-2.86212E-05 8.26135E-09-1.30441E-19-4.64454E-18
 -1      1242 9.52290E-05-2.85702E-05-2.85774E-05 4.39412E-09 6.58175E-19-1.13585E-17
 -1      1243 9.51893E-05-2.85571E-05-2.85606E-05-2.79931E-09 4.26742E-19-1.34516E-17
 -1      1244 9.52176E-05-2.85663E-05-2.85542E-05-6.56859E-09-2.82000E-20-8.23122E-18
 -1      1245 9.52423E-05-2.85916E-05-2.85549E-05-6.93426E-09-7.87447E-18-6.83503E-19
 -1      1246 9.52475E-05-2.86150E-05-2.85623E-05-9.70052E-09-9.35369E-18 9.68671E-20
 -1      1247 9.52335E-05-2.85664E-05-2.85809E-05-7.20267E-10-2.05383E-18 6.37557E-19
 -1      1248 9.51936E-05-2.84303E-05-2.86195E-05 5.14009E-09-8.18314E-19 3.30837E-19
 -1      1249 9.51370E-05-2.82371E-05-2.86733E-05 7.95034E-09 1.79034E-18-6.66904E-19
 -1      1250 9.50763E-05-2.80299E-05-2.87314E-05 8.20726E-09-6.06478E-19-1.63428E-19
 -1      1251 9.50229E-05-2.78476E-05-2.87829E-05 6.65360E-09-9.75593E-20 3.13843E-19
 -1      1252 9.49863E-05-2.77222E-05-2.88184E-05 3.63418E-09-4.47757E-19-9.88313E-19
 -1      1253 9.49734E-05-2.76783E-05-2.88308E-05-1.03106E-10-3.91072E-18 2.07383E-19
 -1      1254 9.49868E-05-2.77238E-05-2.88179E-05-3.86653E-09-5.63624E-18 1.01819E-18
 -1      1255 9.50241E-05-2.78513E-05-2.87818E-05-6.92202E-09-5.84804E-18-8.40294E-19
 -1      1256 9.50785E-05-2.80367E-05-2.87295E-05-8.58320E-09-5.15446E-18 4.52507E-19
 -1      1257 9.51399E-05-2.82466E-05-2.86707E-05-8.13106E-09-6.35556E-18-8.51685E-19
 -1      1258 9.51968E-05-2.84411E-05-2.86166E-05-5.15318E-09-5.09326E-18 7.25436E-19
 -1      1259 9.52377E-05-2.85777E-05-2.85784E-05 1.13282E-09-3.33742E-18 3.30544E-19
 -1      1260 9.52455E-05-2.86142E-05-2.85604E-05 1.66742E-08-2.40687E-18-7.87404E-20
 -1      1261 9.52436E-05-2.85947E-05-2.85540E-05 8.79498E-09-6.33124E-19 4.67479E-19
 -1      1262 3.21233E-05-1.03265E-04 1.74554E-05-1.35380E-05 5.87290E-18 1.26928E-18
 -1      1263 1.64037E-05-6.07054E-05 8.32617E-06-2.38094E-05 9.25129E-18 2.94005E-18
 -1      1264 8.59568E-06-4.67921E-06-7.56919E-06 4.34713E-06 1.00323E-17 6.28075E-18
 -1      1265 3.89586E-05 2.54012E-05-2.78938E-05 5.84904E-05 9.67312E-18 9.99329E-18
 -1      1266 1.14136E-04 1.06959E-05-4.79018E-05 1.03662E-04 6.34766E-18 9.70700E-18
 -1      1267 2.12057E-04-3.64036E-05-6.45528E-05 1.06821E-04 3.75998E-18 9.20810E-18
 -1      1268 2.88527E-04-8.09760E-05-7.51153E-05 5.56378E-05 1.32555E-18 4.18053E-18
 -1      1269 3.05946E-04-9.18854E-05-7.71176E-05-2.42605E-05 3.15917E-19-3.22550E-18
 -1      1270 2.50832E-04-5.81029E-05-7.01618E-05-9.08077E-05 3.83198E-18-1.11969E-17
 -1      1271 1.52076E-04-5.48989E-06-5.48409E-05-1.08798E-04 8.93874E-18-1.61275E-17
 -1      1272 6.27743E-05 2.46889E-05-3.53651E-05-7.81396E-05 1.46960E-17-1.59954E-17
 -1      1273 1.46526E-05 1.04675E-05-1.46415E-05-2.24125E-05 1.71270E-17-1.23701E-17
 -1      1274 1.06625E-05-3.94063E-05 3.38029E-06 1.85807E-05 1.41429E-17-6.91348E-18
 -1      1275 2.72090E-05-9.05305E-05 1.48583E-05 2.17862E-05 5.75389E-18-2.12224E-18
 -1      1276 3.63561E-05-1.12164E-04 1.90434E-05-1.59887E-06-6.56218E-18-1.13121E-18
 -1      1277 2.61871E-05-8.92082E-05 1.46312E-05-2.42413E-05-1.28978E-17-3.21385E-18
 -1      1278 9.41686E-06-3.67911E-05 2.60321E-06-1.87331E-05-1.32078E-17-6.27778E-18
 -1      1279 1.46197E-05 1.10459E-05-1.50650E-05 2.20357E-05-1.47130E-17-1.07548E-17
 -1      1280 6.44808E-05 2.31248E-05-3.56952E-05 7.69022E-05-1.17433E-17-1.37372E-17
 -1      1281 1.57186E-04-8.27693E-06-5.58229E-05 1.10871E-04-8.37461E-18-1.53957E-17
 -1      1282 2.57163E-04-6.04791E-05-7.13219E-05 9.05454E-05-3.52895E-18-1.14485E-17
 -1      1283 3.14793E-04-9.49004E-05-7.84868E-05 2.23671E-05-6.84085E-19-5.67872E-18
 -1      1284 2.92689E-04-8.06300E-05-7.60268E-05-5.95984E-05-7.48962E-19 1.07150E-18
 -1      1285 2.06477E-04-3.19749E-05-6.37778E-05-1.06819E-04-3.60497E-18 6.82031E-18
 -1      1286 1.03434E-04 1.36651E-05-4.53072E-05-9.81820E-05-6.73815E-18 9.48507E-18
 -1      1287 3.13590E-05 2.32169E-05-2.48927E-05-4.89865E-05-1.08014E-17 1.00085E-17
 -1      1288 7.20355E-06-9.89148E-06-5.69659E-06 1.96477E-06-1.37406E-17 8.82354E-18
 -1      1289 1.70775E-05-6.49610E-05 9.50455E-06 2.57049E-05-6.28498E-18 2.55380E-18
 -1      1290 3.38340E-05-1.07109E-04 1.79942E-05 1.38367E-05-1.09521E-18 7.04890E-19
 -1      1291 1.04212E-04-2.19625E-05-3.78127E-05-1.72408E-05-3.07473E-19 6.11113E-18
 -1      1292 9.02338E-05-6.67730E-06-3.59804E-05-2.04170E-05-9.04843E-19 1.67554E-19
 -1      1293 9.25258E-05-6.73552E-06-3.71675E-05-2.56988E-05-1.13100E-18 1.56479E-18
 -1      1294 8.58909E-05-4.10097E-06-3.51214E-05-1.63697E-05-9.14081E-19-1.86533E-18
 -1      1295 8.71125E-05-4.09395E-06-3.55774E-05-1.87927E-05-1.01422E-18-9.69032E-19
 -1      1296 9.20686E-05-1.04604E-05-3.50660E-05-1.89672E-05-1.54308E-18 1.66230E-19
 -1      1297 8.41306E-05-3.19203E-06-3.47000E-05-1.27509E-05-7.42795E-19-2.90495E-18
 -1      1298 8.47179E-05-3.16187E-06-3.49142E-05-1.45651E-05-8.63735E-19-2.41936E-18
 -1      1299 8.78637E-05-7.39619E-06-3.45720E-05-1.53340E-05-1.45256E-18-1.56026E-18
 -1      1300 8.32504E-05-2.72558E-06-3.44990E-05-9.61781E-06-6.01916E-19-3.43808E-18
 -1      1301 8.35517E-05-2.70926E-06-3.46014E-05-1.11643E-05-6.64100E-19-3.20239E-18
 -1      1302 8.59052E-05-5.97955E-06-3.43240E-05-1.18813E-05-1.16411E-18-2.46585E-18
 -1      1303 8.27708E-05-2.44686E-06-3.44017E-05-6.85535E-06-3.98562E-19-3.68387E-18
 -1      1304 8.29338E-05-2.43885E-06-3.44524E-05-8.22073E-06-5.06506E-19-3.54215E-18
 -1      1305 8.48828E-05-5.19984E-06-3.42061E-05-8.86766E-06-9.07182E-19-2.87388E-18
 -1      1306 8.25014E-05-2.27525E-06-3.43541E-05-4.25241E-06-3.14469E-19-3.76657E-18
 -1      1307 8.25893E-05-2.27156E-06-3.43792E-05-5.54452E-06-3.34982E-19-3.77595E-18
 -1      1308 8.43032E-05-4.73145E-06-3.41510E-05-6.15558E-06-6.06916E-19-3.17029E-18
 -1      1309 8.23704E-05-2.18140E-06-3.43343E-05-1.77019E-06-1.19071E-19-3.72664E-18
 -1      1310 8.24084E-05-2.17994E-06-3.43445E-05-3.00951E-06-1.70616E-19-3.71980E-18
 -1      1311 8.39825E-05-4.45783E-06-3.41269E-05-3.60429E-06-4.28676E-19-3.16064E-18
 -1      1312 8.23439E-05-2.15222E-06-3.43320E-05 6.63905E-07 6.86270E-20-3.69615E-18
 -1      1313 8.23428E-05-2.15228E-06-3.43317E-05-5.59287E-07-1.91740E-21-3.70193E-18
 -1      1314 8.38402E-05-4.33219E-06-3.41181E-05-1.15614E-06-9.37018E-20-3.14063E-18
 -1      1315 8.24157E-05-2.18409E-06-3.43456E-05 3.11759E-06 2.29207E-19-3.70059E-18
 -1      1316 8.23753E-05-2.18560E-06-3.43348E-05 1.87576E-06 1.97673E-19-3.70198E-18
 -1      1317 8.38446E-05-4.33623E-06-3.41183E-05 1.26006E-06 2.16021E-19-3.15168E-18
 -1      1318 8.26046E-05-2.28170E-06-3.43810E-05 5.66145E-06 4.02516E-19-3.65859E-18
 -1      1319 8.25135E-05-2.28483E-06-3.43554E-05 4.36353E-06 3.27643E-19-3.68953E-18
 -1      1320 8.39964E-05-4.47094E-06-3.41274E-05 3.71218E-06 4.75065E-19-3.12496E-18
 -1      1321 8.29543E-05-2.45388E-06-3.44539E-05 8.33007E-06 5.07975E-19-3.45364E-18
 -1      1322 8.27885E-05-2.46228E-06-3.44030E-05 6.95585E-06 4.80327E-19-3.59430E-18
 -1      1323 8.43271E-05-4.75448E-06-3.41513E-05 6.24980E-06 7.23811E-19-3.04937E-18
 -1      1324 8.35921E-05-2.73817E-06-3.46054E-05 1.13253E-05 7.44952E-19-3.01496E-18
 -1      1325 8.32837E-05-2.75497E-06-3.45012E-05 9.76201E-06 6.37147E-19-3.25682E-18
 -1      1326 8.49220E-05-5.24043E-06-3.42056E-05 8.97968E-06 9.58272E-19-2.75656E-18
 -1      1327 8.47772E-05-3.20575E-06-3.49221E-05 1.47761E-05 9.39677E-19-2.25864E-18
 -1      1328 8.41859E-05-3.24225E-06-3.47051E-05 1.29345E-05 8.53875E-19-2.71966E-18
 -1      1329 8.59850E-05-6.05735E-06-3.43247E-05 1.20433E-05 1.30417E-18-2.28815E-18
 -1      1330 8.72101E-05-4.09403E-06-3.55988E-05 1.90291E-05 1.06403E-18-7.38586E-19
 -1      1331 8.59586E-05-4.15791E-06-3.51291E-05 1.66292E-05 9.55215E-19-1.66725E-18
 -1      1332 8.79906E-05-7.51824E-06-3.45743E-05 1.55732E-05 1.55740E-18-1.35652E-18
 -1      1333 9.33362E-05-6.78693E-06-3.70630E-05 2.50352E-05 1.00511E-18 2.13076E-18
 -1      1334 9.00485E-05-6.43459E-06-3.60028E-05 2.10912E-05 9.61700E-19 3.85082E-19
 -1      1335 9.22963E-05-1.06943E-05-3.50509E-05 1.96052E-05 1.64369E-18 3.39184E-19
 -1      1336 1.23347E-04-2.48653E-05-3.89326E-05 2.83025E-05 5.55124E-19 7.60297E-18
 -1      1337 9.99024E-05-1.43943E-05-3.72880E-05 2.39965E-05 5.59254E-19 3.76612E-18
 -1      1338 1.01524E-04-1.93122E-05-3.53491E-05 2.13362E-05 1.67478E-18 2.95064E-18
 -1      1339 1.02372E-04-2.77390E-05-3.46826E-05 7.30837E-06 9.57385E-19 7.24531E-18
 -1      1340 1.04921E-04-3.01637E-05-3.34552E-05-7.93208E-06-9.07490E-19 6.42305E-18
 -1      1341 9.80574E-05-2.77843E-05-3.06990E-05-4.96648E-06-8.80703E-19 5.41397E-18
 -1      1342 9.53180E-05-2.77941E-05-2.91982E-05-2.46887E-06-6.34719E-19 4.93584E-18
 -1      1343 9.31044E-05-2.75078E-05-2.81651E-05-2.02208E-06-5.68703E-19 4.05641E-18
 -1      1344 9.93344E-05-2.80092E-05-3.09366E-05-7.84238E-06-1.40629E-18 2.97409E-18
 -1      1345 9.14379E-05-2.71561E-05-2.75382E-05-8.13025E-07-4.44620E-19 3.66268E-18
 -1      1346 9.07442E-05-2.70665E-05-2.72432E-05-7.01333E-07-3.61643E-19 3.03100E-18
 -1      1347 9.46084E-05-2.77354E-05-2.87846E-05-3.07285E-06-1.02877E-18 2.29551E-18
 -1      1348 9.00258E-05-2.68925E-05-2.70099E-05-1.37044E-07-3.07761E-19 2.66514E-18
 -1      1349 8.99870E-05-2.69283E-05-2.69854E-05-7.61660E-08-4.31272E-19 2.06493E-18
 -1      1350 9.24626E-05-2.74778E-05-2.78816E-05-9.88034E-07-7.58611E-19 1.56585E-18
 -1      1351 8.97736E-05-2.68738E-05-2.69255E-05 2.10615E-07-3.81152E-19 1.95511E-18
 -1      1352 9.00403E-05-2.69782E-05-2.70030E-05 2.43627E-07-3.83557E-19 1.44034E-18
 -1      1353 9.15804E-05-2.73535E-05-2.75395E-05 2.76421E-08-7.55160E-19 1.02066E-18
 -1      1354 9.01112E-05-2.70002E-05-2.70304E-05 3.99260E-07-3.31142E-19 1.31742E-18
 -1      1355 9.05331E-05-2.71422E-05-2.71536E-05 4.17345E-07-1.97154E-19 9.56227E-19
 -1      1356 9.14383E-05-2.73706E-05-2.74674E-05 5.64461E-07-6.18956E-19 8.26612E-19
 -1      1357 9.07720E-05-2.72111E-05-2.72310E-05 5.06750E-07-1.02726E-19 7.87595E-19
 -1      1358 9.12785E-05-2.73733E-05-2.73788E-05 5.17412E-07-1.97833E-19 5.88043E-19
 -1      1359 9.17318E-05-2.74869E-05-2.75409E-05 8.64306E-07-3.93488E-19 3.92545E-19
 -1      1360 9.16242E-05-2.74723E-05-2.74881E-05 5.75927E-07-7.93969E-20 5.28125E-19
 -1      1361 9.21849E-05-2.76469E-05-2.76524E-05 5.84054E-07-1.92226E-19 2.25738E-19
 -1      1362 9.22939E-05-2.76675E-05-2.77026E-05 1.04649E-06-3.06785E-19 2.11154E-19
 -1      1363 9.26081E-05-2.77677E-05-2.77852E-05 6.33924E-07-1.32385E-19 3.62070E-19
 -1      1364 9.32167E-05-2.79540E-05-2.79644E-05 6.43078E-07-8.26858E-20 3.09008E-19
 -1      1365 9.30377E-05-2.78921E-05-2.79244E-05 1.18009E-06-2.34319E-19 3.36767E-19
 -1      1366 9.37089E-05-2.80940E-05-2.81183E-05 6.99967E-07-1.82511E-19 1.88190E-19
 -1      1367 9.43764E-05-2.82960E-05-2.83156E-05 7.12948E-07 2.59437E-20 1.34652E-19
 -1      1368 9.39264E-05-2.81526E-05-2.81938E-05 1.31079E-06-1.15321E-19 4.65465E-19
 -1      1369 9.49435E-05-2.84571E-05-2.84928E-05 7.88753E-07-7.41237E-20-2.03295E-19
 -1      1370 9.56942E-05-2.86827E-05-2.87152E-05 8.07874E-07-2.07621E-19-3.63602E-19
 -1      1371 9.49566E-05-2.84494E-05-2.85092E-05 1.47186E-06-2.11453E-19-2.10922E-19
 -1      1372 9.63524E-05-2.88695E-05-2.89208E-05 9.11881E-07-2.91364E-19-4.02552E-19
 -1      1373 9.72213E-05-2.91301E-05-2.91784E-05 9.39056E-07-2.43125E-19-9.08406E-19
 -1      1374 9.61494E-05-2.87901E-05-2.88762E-05 1.68885E-06-4.07286E-19-7.84403E-19
 -1      1375 9.79944E-05-2.93497E-05-2.94198E-05 1.07795E-06 1.61975E-19-6.43507E-19
 -1      1376 9.90239E-05-2.96590E-05-2.97250E-05 1.11458E-06 8.97268E-20-4.26084E-19
 -1      1377 9.75436E-05-2.91874E-05-2.93058E-05 1.98108E-06-6.58700E-20-7.28055E-19
 -1      1378 9.99397E-05-2.99196E-05-3.00108E-05 1.29122E-06 1.92422E-19-3.20427E-19
 -1      1379 1.01176E-04-3.02931E-05-3.03766E-05 1.33779E-06 6.28905E-20-2.81407E-19
 -1      1380 9.91894E-05-2.96583E-05-2.98120E-05 2.36022E-06 2.64087E-19-5.69000E-19
 -1      1381 1.02261E-04-3.06034E-05-3.07147E-05 1.54819E-06-1.27416E-19-3.30171E-19
 -1      1382 1.03745E-04-3.10558E-05-3.11527E-05 1.60331E-06-3.94919E-19-5.40407E-19
 -1      1383 1.01140E-04-3.02226E-05-3.04090E-05 2.82540E-06-5.05986E-20-1.18525E-18
 -1      1384 1.05017E-04-3.14232E-05-3.15473E-05 1.83100E-06-3.04651E-19-5.67565E-19
 -1      1385 1.06770E-04-3.19646E-05-3.20622E-05 1.88964E-06-2.79259E-19-8.13893E-19
 -1      1386 1.03442E-04-3.09011E-05-3.11065E-05 3.35315E-06-3.28315E-19-5.59703E-19
 -1      1387 1.08223E-04-3.23919E-05-3.25094E-05 2.09633E-06-1.44392E-19-8.32541E-19
 -1      1388 1.10219E-04-3.30200E-05-3.30911E-05 2.14687E-06-2.02858E-20-9.19812E-19
 -1      1389 1.06112E-04-3.17123E-05-3.19032E-05 3.87987E-06-2.88256E-19-3.63620E-19
 -1      1390 1.11808E-04-3.35014E-05-3.35718E-05 2.25962E-06-3.53447E-19-1.07216E-18
 -1      1391 1.13930E-04-3.41877E-05-3.41823E-05 2.27960E-06-5.53433E-19-1.73679E-18
 -1      1392 1.09111E-04-3.26658E-05-3.27755E-05 4.27580E-06-3.83060E-19-1.17830E-18
 -1      1393 1.15540E-04-3.47008E-05-3.46530E-05 2.17853E-06-2.29460E-21-2.11198E-18
 -1      1394 1.17520E-04-3.53703E-05-3.52102E-05 2.13054E-06 3.33387E-20-1.95649E-18
 -1      1395 1.12296E-04-3.37493E-05-3.36645E-05 4.31466E-06-5.59899E-19-9.58682E-19
 -1      1396 1.18937E-04-3.58649E-05-3.55961E-05 1.65121E-06 5.61924E-19-1.90128E-18
 -1      1397 1.20307E-04-3.63715E-05-3.59621E-05 1.48413E-06 3.24903E-19-1.40287E-18
 -1      1398 1.15367E-04-3.49023E-05-3.44630E-05 3.65922E-06 5.36635E-19-1.66783E-18
 -1      1399 1.21204E-04-3.67531E-05-3.61592E-05 4.65259E-07 7.20163E-19-2.24113E-19
 -1      1400 1.21303E-04-3.68675E-05-3.61523E-05 1.33042E-07 8.93567E-19 8.58223E-19
 -1      1401 1.17810E-04-3.59702E-05-3.50146E-05 1.91368E-06 1.54028E-18-1.45818E-18
 -1      1402 1.21275E-04-3.69849E-05-3.60539E-05-1.44856E-06 4.26111E-19 1.46162E-18
 -1      1403 1.19434E-04-3.64365E-05-3.55113E-05-1.93479E-06-9.67073E-20 1.45777E-18
 -1      1404 1.18891E-04-3.66439E-05-3.51437E-05-1.17034E-06 1.14212E-18 1.85355E-20
 -1      1405 1.18137E-04-3.61039E-05-3.50668E-05-3.74531E-06-5.18768E-19 1.65939E-18
 -1      1406 1.14124E-04-3.47333E-05-3.39676E-05-4.23938E-06-2.25748E-19 1.25319E-18
 -1      1407 1.17805E-04-3.64501E-05-3.47318E-05-5.27319E-06-2.86310E-19 1.06607E-18
 -1      1408 1.11579E-04-3.38506E-05-3.32551E-05-5.45097E-06 6.37799E-19 1.10178E-18
 -1      1409 1.06175E-04-3.18681E-05-3.18449E-05-5.64953E-06 1.50621E-19 1.79719E-18
 -1      1410 1.14112E-04-3.49481E-05-3.38240E-05-9.03934E-06-5.98945E-20 1.60661E-18
 -1      1411 1.03116E-04-3.06487E-05-3.10959E-05-5.24501E-06-7.18469E-19 2.11134E-18
 -1      1412 9.82856E-05-2.87886E-05-2.98837E-05-4.86229E-06-6.45439E-19 1.37563E-18
 -1      1413 1.08473E-04-3.22465E-05-3.26890E-05-1.01847E-05-8.32905E-20 1.53345E-18
 -1      1414 9.61266E-05-2.78580E-05-2.94034E-05-2.50985E-06-2.48935E-19 1.05869E-18
 -1      1415 9.41740E-05-2.70874E-05-2.89227E-05-1.61601E-06-1.93547E-19 3.04078E-19
 -1      1416 1.03086E-04-2.94419E-05-3.17492E-05-6.90501E-06-1.03649E-18 2.08243E-18
 -1      1417 9.41812E-05-2.70931E-05-2.89229E-05 1.63023E-06 2.62580E-20-2.22439E-19
 -1      1418 9.61450E-05-2.78687E-05-2.94052E-05 2.51850E-06-3.06255E-19-1.72371E-19
 -1      1419 1.00841E-04-2.82463E-05-3.13865E-05 1.35872E-08-4.81379E-19 4.15063E-19
 -1      1420 9.83032E-05-2.87949E-05-2.98876E-05 4.86358E-06-8.59209E-20-5.71271E-19
 -1      1421 1.03135E-04-3.06533E-05-3.11021E-05 5.24721E-06 3.06388E-21-6.50204E-19
 -1      1422 1.03103E-04-2.94565E-05-3.17512E-05 6.91344E-06-1.79571E-19-5.37151E-19
 -1      1423 1.06201E-04-3.18753E-05-3.18530E-05 5.65470E-06-4.68947E-19-2.66815E-19
 -1      1424 1.11610E-04-3.38593E-05-3.32644E-05 5.45671E-06-1.86073E-19-6.64444E-19
 -1      1425 1.08493E-04-3.22483E-05-3.26954E-05 1.01938E-05-7.43768E-20-3.59751E-19
 -1      1426 1.14162E-04-3.47440E-05-3.39796E-05 4.24685E-06-4.67668E-19-7.36813E-19
 -1      1427 1.18182E-04-3.61163E-05-3.50812E-05 3.75308E-06-5.95656E-19-1.21046E-18
 -1      1428 1.14147E-04-3.49586E-05-3.38355E-05 9.05290E-06-5.31976E-19-4.91967E-19
 -1      1429 1.19487E-04-3.64512E-05-3.55287E-05 1.94581E-06-3.36166E-19-1.45740E-18
 -1      1430 1.21339E-04-3.70022E-05-3.60744E-05 1.46050E-06 3.40970E-19-1.35611E-18
 -1      1431 1.17856E-04-3.64636E-05-3.47492E-05 5.29239E-06-8.43182E-19 1.93110E-19
 -1      1432 1.21381E-04-3.68885E-05-3.61769E-05-1.15157E-07 7.94610E-19-1.46893E-18
 -1      1433 1.21299E-04-3.67789E-05-3.61888E-05-4.45646E-07 4.64895E-19-6.42441E-19
 -1      1434 1.18964E-04-3.66624E-05-3.51681E-05 1.20060E-06 2.63864E-19-4.02885E-19
 -1      1435 1.20422E-04-3.64033E-05-3.59979E-05-1.45613E-06-4.58553E-19-8.06309E-19
 -1      1436 1.19079E-04-3.59045E-05-3.56398E-05-1.62105E-06-5.35801E-19-2.23369E-18
 -1      1437 1.17916E-04-3.59975E-05-3.50494E-05-1.86597E-06 1.98490E-19-1.49025E-18
 -1      1438 1.17692E-04-3.54183E-05-3.52630E-05-2.08986E-06-1.32461E-19-1.80118E-18
 -1      1439 1.15750E-04-3.47602E-05-3.47174E-05-2.13519E-06 2.07834E-19-1.84917E-18
 -1      1440 1.15523E-04-3.49433E-05-3.45130E-05-3.58879E-06-4.89393E-19-1.34667E-18
 -1      1441 1.14181E-04-3.42586E-05-3.42592E-05-2.22322E-06 3.75180E-19-9.67973E-19
 -1      1442 1.12113E-04-3.35882E-05-3.36647E-05-2.19994E-06 2.63101E-19-6.76581E-19
 -1      1443 1.12520E-04-3.38094E-05-3.37357E-05-4.21593E-06 7.02941E-19 1.06322E-19
 -1      1444 1.10577E-04-3.31221E-05-3.32008E-05-2.07117E-06 3.03808E-19-8.90377E-19
 -1      1445 1.08654E-04-3.25157E-05-3.26406E-05-2.01657E-06 2.73909E-19-1.71974E-19
 -1      1446 1.09427E-04-3.27518E-05-3.28752E-05-4.14217E-06 3.41991E-19-8.65410E-19
 -1      1447 1.07270E-04-3.21082E-05-3.22151E-05-1.79042E-06-1.14498E-19-6.88770E-19
 -1      1448 1.05612E-04-3.15953E-05-3.17285E-05-1.72684E-06-1.66922E-19-1.73860E-19
 -1      1449 1.06548E-04-3.18325E-05-3.20402E-05-3.70367E-06-1.96571E-20-1.30115E-18
 -1      1450 1.04429E-04-3.12532E-05-3.13615E-05-1.47592E-06-1.08366E-19-2.21817E-20
 -1      1451 1.03068E-04-3.08378E-05-3.09598E-05-1.41489E-06-2.21023E-19-2.27561E-19
 -1      1452 1.04033E-04-3.10654E-05-3.12911E-05-3.12576E-06-7.29135E-19-5.38554E-19
 -1      1453 1.02093E-04-3.05590E-05-3.06562E-05-1.17731E-06-1.37931E-18-6.10886E-19
 -1      1454 1.01012E-04-3.02324E-05-3.03361E-05-1.12382E-06-1.51277E-18-2.43715E-18
 -1      1455 1.01926E-04-3.04428E-05-3.06531E-05-2.53761E-06-1.53215E-18-4.53532E-19
 -1      1456 1.00231E-04-3.00104E-05-3.00924E-05-9.16220E-07-2.42258E-19-2.30186E-18
 -1      1457 9.93938E-05-2.97596E-05-2.98438E-05-8.71693E-07-3.03223E-19-2.59287E-18
 -1      1458 1.00214E-04-2.99478E-05-3.01292E-05-2.00288E-06-1.36927E-18 1.65068E-19
 -1      1459 9.87822E-05-2.95862E-05-2.96528E-05-6.98709E-07-2.81200E-19-2.56250E-18
 -1      1460 9.81466E-05-2.93972E-05-2.94637E-05-6.62831E-07 4.19572E-19-2.47039E-18
 -1      1461 9.88568E-05-2.95613E-05-2.97106E-05-1.54606E-06-3.49158E-19-6.14989E-19
 -1      1462 9.76766E-05-2.92642E-05-2.93170E-05-5.22995E-07 7.12806E-19-2.83956E-18
 -1      1463 9.72035E-05-2.91244E-05-2.91760E-05-4.94694E-07 5.27647E-19-2.15692E-18
 -1      1464 9.78022E-05-2.92641E-05-2.93836E-05-1.17058E-06 4.27702E-19-2.56687E-18
 -1      1465 9.68491E-05-2.90242E-05-2.90654E-05-3.83786E-07 4.09959E-19-1.16550E-18
 -1      1466 9.65041E-05-2.89228E-05-2.89624E-05-3.61727E-07 4.93264E-19-7.17416E-19
 -1      1467 9.69978E-05-2.90393E-05-2.91332E-05-8.69499E-07 1.52000E-18 2.11411E-20
 -1      1468 9.62424E-05-2.88487E-05-2.88810E-05-2.74499E-07 3.97227E-19-5.01788E-19
 -1      1469 9.59978E-05-2.87772E-05-2.88079E-05-2.57301E-07 4.33137E-19-2.19134E-19
 -1      1470 9.63962E-05-2.88720E-05-2.89453E-05-6.31507E-07 1.18867E-18 1.12875E-18
 -1      1471 9.58100E-05-2.87238E-05-2.87497E-05-1.88313E-07 5.41680E-19-3.27937E-19
 -1      1472 9.56446E-05-2.86757E-05-2.87002E-05-1.74619E-07-7.80610E-21 1.85956E-19
 -1      1473 9.59566E-05-2.87501E-05-2.88079E-05-4.43867E-07 8.03664E-19 1.55591E-18
 -1      1474 9.55157E-05-2.86387E-05-2.86607E-05-1.18677E-07-3.46771E-19-6.25768E-19
 -1      1475 9.54149E-05-2.86096E-05-2.86305E-05-1.07183E-07-2.01855E-19-8.48048E-19
 -1      1476 9.56459E-05-2.86636E-05-2.87108E-05-2.93941E-07-7.38271E-19 7.59372E-20
 -1      1477 9.53331E-05-2.85859E-05-2.86058E-05-6.03194E-08 5.97281E-19-4.80232E-19
 -1      1478 9.52867E-05-2.85735E-05-2.85912E-05-4.99661E-08 6.64389E-19 5.09221E-19
 -1      1479 9.54383E-05-2.86054E-05-2.86460E-05-1.70624E-07 2.15734E-19-3.64856E-19
 -1      1480 9.52402E-05-2.85589E-05-2.85774E-05-1.11681E-08 3.30767E-19 8.21598E-19
 -1      1481 9.52398E-05-2.85648E-05-2.85731E-05-1.55702E-09-3.08682E-19 1.34646E-18
 -1      1482 9.53120E-05-2.85713E-05-2.86056E-05-6.85403E-08 1.15146E-18 8.22838E-21
 -1      1483 9.52264E-05-2.85754E-05-2.85600E-05 1.44021E-08-1.43341E-18 1.46674E-18
 -1      1484 9.52503E-05-2.85744E-05-2.85749E-05 6.18060E-09-1.31535E-18 1.02222E-18
 -1      1485 9.63773E-05-2.83042E-05-2.97113E-05 2.97815E-06 7.13361E-19 5.58475E-18
 -1      1486 1.02314E-04-2.93329E-05-3.20880E-05 4.44326E-06 6.61003E-19 6.79998E-18
 -1      1487 1.02145E-04-2.66700E-05-3.26484E-05 1.27393E-05 1.36891E-18 4.31860E-18
 -1      1488 9.18703E-05-2.73805E-05-2.77137E-05 1.13318E-06 5.91123E-19 4.18246E-18
 -1      1489 9.37979E-05-2.75305E-05-2.86216E-05 1.45537E-06 5.49791E-19 5.02833E-18
 -1      1490 9.63419E-05-2.79872E-05-2.94900E-05 4.83058E-06 1.09987E-18 3.27312E-18
 -1      1491 9.00870E-05-2.69695E-05-2.70304E-05 3.06119E-07 3.59208E-19 3.06920E-18
 -1      1492 9.06781E-05-2.69799E-05-2.72954E-05 4.70392E-07 4.55386E-19 3.76710E-18
 -1      1493 9.29429E-05-2.75470E-05-2.80701E-05 1.80723E-06 9.43092E-19 2.41696E-18
 -1      1494 8.96407E-05-2.68714E-05-2.68768E-05-9.36218E-08 3.81231E-19 2.31686E-18
 -1      1495 8.96430E-05-2.67982E-05-2.68940E-05-1.68480E-09 2.55981E-19 2.74212E-18
 -1      1496 9.14515E-05-2.72921E-05-2.75062E-05 4.54400E-07 6.39960E-19 1.65567E-18
 -1      1497 8.98788E-05-2.69544E-05-2.69512E-05-3.01006E-07 4.27619E-20 1.78300E-18
 -1      1498 8.95966E-05-2.68298E-05-2.68696E-05-2.46148E-07 1.43824E-19 2.05257E-18
 -1      1499 9.10087E-05-2.72352E-05-2.73382E-05-2.27005E-07 4.15046E-19 1.22332E-18
 -1      1500 9.04890E-05-2.71423E-05-2.71377E-05-4.13064E-07 1.12900E-19 1.56061E-18
 -1      1501 9.00608E-05-2.69891E-05-2.70113E-05-3.78482E-07 6.68709E-20 1.65064E-18
 -1      1502 9.11553E-05-2.73137E-05-2.73679E-05-5.92535E-07 1.46062E-19 8.26741E-19
 -1      1503 9.13120E-05-2.73910E-05-2.73870E-05-4.77302E-07 2.07080E-19 1.21394E-18
 -1      1504 9.08047E-05-2.72223E-05-2.72369E-05-4.53744E-07 1.22880E-19 1.33986E-18
 -1      1505 9.16449E-05-2.74773E-05-2.75074E-05-7.98144E-07 2.37326E-19 4.59065E-19
 -1      1506 9.22695E-05-2.76780E-05-2.76764E-05-5.21012E-07 2.50817E-19 6.49830E-19
 -1      1507 9.17132E-05-2.74991E-05-2.75113E-05-5.02517E-07 2.53291E-19 1.10720E-18
 -1      1508 9.23461E-05-2.76944E-05-2.77143E-05-9.24726E-07 3.84383E-19 4.44074E-19
 -1      1509 9.33312E-05-2.79945E-05-2.79975E-05-5.61565E-07 1.11195E-19 1.24841E-19
 -1      1510 9.27340E-05-2.78058E-05-2.78197E-05-5.43953E-07 1.39034E-19 4.04127E-19
 -1      1511 9.31928E-05-2.79488E-05-2.79680E-05-1.01995E-06 3.34262E-19 2.74921E-19
 -1      1512 9.44975E-05-2.83413E-05-2.83504E-05-6.10446E-07-6.68027E-20 3.46466E-19
 -1      1513 9.38533E-05-2.81390E-05-2.81581E-05-5.90668E-07-2.57956E-20 2.40971E-19
 -1      1514 9.41586E-05-2.82347E-05-2.82598E-05-1.11422E-06 1.98288E-20 1.81243E-19
 -1      1515 9.57880E-05-2.87247E-05-2.87407E-05-6.74698E-07-4.32718E-19 7.51480E-19
 -1      1516 9.50818E-05-2.85031E-05-2.85297E-05-6.50616E-07-1.67764E-19 2.57137E-19
 -1      1517 9.52429E-05-2.85534E-05-2.85887E-05-1.22702E-06-1.98690E-19 8.83805E-19
 -1      1518 9.72323E-05-2.91545E-05-2.91769E-05-7.57023E-07-3.03989E-20 1.00016E-18
 -1      1519 9.64444E-05-2.89066E-05-2.89416E-05-7.27473E-07-1.40878E-19 7.23310E-19
 -1      1520 9.64600E-05-2.89108E-05-2.89583E-05-1.36892E-06-2.48028E-19 5.38850E-19
 -1      1521 9.88597E-05-2.96404E-05-2.96673E-05-8.54848E-07 4.94116E-20 9.69346E-19
 -1      1522 9.79715E-05-2.93600E-05-2.94026E-05-8.19964E-07 5.09146E-20 9.77317E-19
 -1      1523 9.78298E-05-2.93149E-05-2.93736E-05-1.54113E-06-2.08466E-20 6.66200E-19
 -1      1524 1.00687E-04-3.01890E-05-3.02158E-05-9.58358E-07 4.82434E-19 2.21552E-19
 -1      1525 9.96875E-05-2.98726E-05-2.99191E-05-9.20223E-07 3.17249E-19 7.34523E-19
 -1      1526 9.93688E-05-2.97730E-05-2.98378E-05-1.73309E-06 3.88872E-19 2.38794E-19
 -1      1527 1.02699E-04-3.07983E-05-3.08166E-05-1.04755E-06-1.06345E-19-4.65299E-19
 -1      1528 1.01596E-04-3.04486E-05-3.04910E-05-1.01119E-06 2.51391E-19-6.53539E-20
 -1      1529 1.01076E-04-3.02890E-05-3.03485E-05-1.91809E-06 5.72268E-19 4.62012E-19
 -1      1530 1.04829E-04-3.14508E-05-3.14473E-05-1.08876E-06 8.56762E-20-5.74447E-19
 -1      1531 1.03663E-04-3.10814E-05-3.11059E-05-1.06344E-06 8.26545E-21-6.22437E-19
 -1      1532 1.02920E-04-3.08582E-05-3.08928E-05-2.04761E-06 7.24024E-20-5.62397E-19
 -1      1533 1.06927E-04-3.21050E-05-3.20605E-05-1.03213E-06 7.57161E-19-1.75443E-18
 -1      1534 1.05785E-04-3.17459E-05-3.17307E-05-1.03251E-06 4.98079E-19-9.09733E-19
 -1      1535 1.04814E-04-3.14614E-05-3.14408E-05-2.04578E-06 7.05447E-19-1.12701E-18
 -1      1536 1.08735E-04-3.26849E-05-3.25766E-05-8.13445E-07-4.26835E-19-2.38049E-18
 -1      1537 1.07771E-04-3.23887E-05-3.23050E-05-8.59632E-07 1.78719E-19-2.04736E-18
 -1      1538 1.06599E-04-3.20573E-05-3.19406E-05-1.80848E-06 6.06495E-19-1.02875E-18
 -1      1539 1.09870E-04-3.30741E-05-3.28822E-05-3.66602E-07-2.91532E-19-1.20682E-18
 -1      1540 1.09313E-04-3.29185E-05-3.27352E-05-4.81098E-07-5.21795E-19-1.94006E-18
 -1      1541 1.08028E-04-3.25735E-05-3.23158E-05-1.21541E-06-6.71972E-19-7.95096E-19
 -1      1542 1.09864E-04-3.31205E-05-3.28440E-05 3.45096E-07-6.24988E-19 5.10867E-20
 -1      1543 1.09992E-04-3.32011E-05-3.28997E-05 1.46468E-07-5.33350E-19-8.05465E-19
 -1      1544 1.08765E-04-3.29001E-05-3.24713E-05-1.68065E-07-1.00887E-18-6.34394E-19
 -1      1545 1.08269E-04-3.26659E-05-3.23460E-05 1.27496E-06 1.28061E-19 9.50411E-19
 -1      1546 1.09342E-04-3.30719E-05-3.26710E-05 9.99900E-07-2.04029E-19 5.26457E-19
 -1      1547 1.08436E-04-3.28945E-05-3.23131E-05 1.33489E-06-8.23170E-19 1.64596E-19
 -1      1548 1.04880E-04-3.16159E-05-3.13529E-05 2.23300E-06 4.24668E-19 7.26595E-20
 -1      1549 1.07005E-04-3.23802E-05-3.19641E-05 1.93231E-06 3.89629E-19 4.89400E-19
 -1      1550 1.06749E-04-3.24120E-05-3.17874E-05 3.09257E-06 6.46233E-19 2.21512E-19
 -1      1551 1.00014E-04-3.00436E-05-2.99792E-05 2.87266E-06 2.88239E-19-8.97220E-19
 -1      1552 1.02973E-04-3.10802E-05-3.08027E-05 2.64650E-06 2.50937E-19-6.43745E-19
 -1      1553 1.03680E-04-3.13793E-05-3.09273E-05 4.62723E-06 4.90263E-19-6.94527E-19
 -1      1554 9.46959E-05-2.82748E-05-2.85192E-05 2.79994E-06-9.16351E-20-5.63198E-19
 -1      1555 9.78502E-05-2.93435E-05-2.93742E-05 2.76595E-06-1.35815E-19-1.00395E-18
 -1      1556 9.96898E-05-2.99055E-05-2.98873E-05 5.25372E-06-2.56459E-20-9.99671E-19
 -1      1557 9.04884E-05-2.68518E-05-2.73847E-05 1.81909E-06 4.28810E-21 4.86912E-19
 -1      1558 9.29021E-05-2.76104E-05-2.80254E-05 2.04032E-06-9.15788E-20 2.93179E-19
 -1      1559 9.57829E-05-2.83592E-05-2.89274E-05 4.39454E-06-4.08263E-19-3.29946E-20
 -1      1560 8.88782E-05-2.63106E-05-2.69471E-05 1.54601E-07 2.30962E-19 2.68241E-19
 -1      1561 8.96978E-05-2.64684E-05-2.71604E-05 5.76938E-07 4.45056E-19 7.18628E-19
 -1      1562 9.32338E-05-2.72913E-05-2.83336E-05 2.02483E-06 2.58239E-19 1.22699E-18
 -1      1563 9.04918E-05-2.68780E-05-2.73614E-05-1.57413E-06 6.53565E-19-8.99814E-19
 -1      1564 8.94013E-05-2.63663E-05-2.70707E-05-1.11455E-06 2.05994E-19-6.53995E-19
 -1      1565 9.30042E-05-2.71648E-05-2.82998E-05-1.11142E-06 9.99896E-19-1.47797E-19
 -1      1566 9.47130E-05-2.83186E-05-2.84816E-05-2.70554E-06 2.04787E-19-2.36587E-18
 -1      1567 9.21238E-05-2.73383E-05-2.77901E-05-2.38215E-06 1.78128E-19-1.90455E-18
 -1      1568 9.51870E-05-2.80491E-05-2.88360E-05-3.82062E-06 6.43738E-19-1.91934E-18
 -1      1569 1.00054E-04-3.00917E-05-2.99416E-05-2.93050E-06 3.09490E-20-3.01681E-18
 -1      1570 9.68623E-05-2.89891E-05-2.90749E-05-2.82597E-06 1.98168E-19-2.81056E-18
 -1      1571 9.89497E-05-2.95604E-05-2.97667E-05-5.16744E-06 2.18176E-19-2.63568E-18
 -1      1572 1.04949E-04-3.16601E-05-3.13289E-05-2.38662E-06 1.89838E-19-3.40367E-18
 -1      1573 1.02068E-04-3.07426E-05-3.05277E-05-2.47190E-06 1.97663E-20-3.33572E-18
 -1      1574 1.03026E-04-3.11241E-05-3.08137E-05-4.95261E-06 1.63381E-19-3.19147E-18
 -1      1575 1.08374E-04-3.27067E-05-3.23458E-05-1.45647E-06-5.85578E-19-1.56391E-18
 -1      1576 1.06382E-04-3.21336E-05-3.17738E-05-1.64307E-06-4.27500E-19-2.63173E-18
 -1      1577 1.06333E-04-3.22967E-05-3.17120E-05-3.63329E-06-6.81815E-19-2.10408E-18
 -1      1578 1.10018E-04-3.31648E-05-3.28732E-05-5.08802E-07 3.47062E-19-8.62134E-19
 -1      1579 1.09073E-04-3.29479E-05-3.25872E-05-7.10813E-07-1.41249E-19-9.46480E-19
 -1      1580 1.08313E-04-3.29069E-05-3.22943E-05-1.90027E-06-6.59759E-19-6.49314E-19
 -1      1581 1.10089E-04-3.31318E-05-3.29438E-05 2.37569E-07 3.80887E-19-8.16834E-19
 -1      1582 1.10050E-04-3.31948E-05-3.29155E-05 7.18983E-08 1.66627E-19-6.19161E-19
 -1      1583 1.08916E-04-3.30032E-05-3.25139E-05-3.07588E-07 3.11940E-19-9.55873E-19
 -1      1584 1.09040E-04-3.27659E-05-3.26732E-05 7.15835E-07-2.74167E-19-1.44808E-18
 -1      1585 1.09633E-04-3.30069E-05-3.28313E-05 6.04076E-07 2.35197E-19-3.24126E-19
 -1      1586 1.08406E-04-3.27332E-05-3.24165E-05 8.64562E-07 3.56846E-20-8.50904E-19
 -1      1587 1.07344E-04-3.22190E-05-3.21957E-05 9.53191E-07 7.73569E-19-2.60816E-18
 -1      1588 1.08291E-04-3.25473E-05-3.24625E-05 8.91723E-07 5.90314E-19-1.65678E-18
 -1      1589 1.07159E-04-3.22528E-05-3.20931E-05 1.56555E-06 9.08648E-19-1.28922E-18
 -1      1590 1.05387E-04-3.16078E-05-3.16270E-05 1.01351E-06 4.52183E-19-3.87609E-18
 -1      1591 1.06467E-04-3.19581E-05-3.19382E-05 9.90142E-07 1.83069E-19-3.75771E-18
 -1      1592 1.05525E-04-3.16847E-05-3.16407E-05 1.87130E-06 9.33905E-19-2.11372E-18
 -1      1593 1.03434E-04-3.10094E-05-3.10499E-05 9.62271E-07-1.00425E-18-3.35320E-18
 -1      1594 1.04499E-04-3.13411E-05-3.13609E-05 9.63876E-07-5.65989E-19-3.77159E-18
 -1      1595 1.03776E-04-3.11113E-05-3.11400E-05 1.89863E-06-3.24637E-19-2.58919E-18
 -1      1596 1.01644E-04-3.04674E-05-3.05154E-05 8.51664E-07-5.30595E-20-3.09604E-18
 -1      1597 1.02610E-04-3.07597E-05-3.07997E-05 8.67507E-07 1.26192E-19-3.13069E-18
 -1      1598 1.02093E-04-3.05808E-05-3.06481E-05 1.75719E-06-2.48247E-19-3.15142E-18
 -1      1599 1.00093E-04-3.00019E-05-3.00491E-05 7.17768E-07 2.93374E-19-3.62451E-18
 -1      1600 1.00921E-04-3.02470E-05-3.02943E-05 7.40224E-07 2.01984E-19-3.06902E-18
 -1      1601 1.00580E-04-3.01169E-05-3.01993E-05 1.53108E-06 3.85601E-19-2.64365E-18
 -1      1602 9.88043E-05-2.96177E-05-2.96599E-05 5.82844E-07-7.05092E-19-3.28654E-18
 -1      1603 9.94854E-05-2.98155E-05-2.98624E-05 6.07038E-07-2.92648E-19-3.64202E-18
 -1      1604 9.92819E-05-2.97274E-05-2.98106E-05 1.27703E-06-4.07064E-20-1.70818E-18
 -1      1605 9.77686E-05-2.93103E-05-2.93460E-05 4.59017E-07-8.73478E-20-3.30956E-18
 -1      1606 9.83104E-05-2.94652E-05-2.95076E-05 4.82142E-07-8.96820E-19-3.92324E-18
 -1      1607 9.82094E-05-2.94107E-05-2.94869E-05 1.02925E-06-7.80801E-19-2.39135E-18
 -1      1608 9.69595E-05-2.90710E-05-2.91001E-05 3.51611E-07 2.59594E-19-3.78612E-18
 -1      1609 9.73783E-05-2.91890E-05-2.92254E-05 3.72287E-07 6.72708E-19-1.42291E-18
 -1      1610 9.73496E-05-2.91600E-05-2.92259E-05 8.05686E-07-5.44053E-20-1.86881E-18
 -1      1611 9.63448E-05-2.88898E-05-2.89130E-05 2.61639E-07-2.81314E-19-2.40438E-18
 -1      1612 9.66593E-05-2.89771E-05-2.90073E-05 2.79446E-07-1.95357E-19-2.50734E-18
 -1      1613 9.66789E-05-2.89664E-05-2.90214E-05 6.13429E-07-1.86018E-19 5.71704E-19
 -1      1614 9.58924E-05-2.87566E-05-2.87753E-05 1.87487E-07-3.06661E-19-1.61467E-18
 -1      1615 9.61207E-05-2.88189E-05-2.88438E-05 2.02646E-07-8.77010E-19-3.20249E-18
 -1      1616 9.61698E-05-2.88206E-05-2.88657E-05 4.52715E-07-6.09030E-19-6.74250E-19
 -1      1617 9.55747E-05-2.86631E-05-2.86787E-05 1.26046E-07 1.91828E-19-1.84790E-18
 -1      1618 9.57316E-05-2.87048E-05-2.87258E-05 1.39206E-07 2.73581E-19-1.13663E-18
 -1      1619 9.57962E-05-2.87139E-05-2.87513E-05 3.19649E-07-3.25059E-19-8.82835E-19
 -1      1620 9.53699E-05-2.86027E-05-2.86167E-05 7.36955E-08 1.93595E-18-5.51886E-18
 -1      1621 9.54666E-05-2.86268E-05-2.86456E-05 8.57638E-08 1.29366E-18-2.85111E-18
 -1      1622 9.55349E-05-2.86393E-05-2.86714E-05 2.08290E-07 1.85887E-18-1.41483E-18
 -1      1623 9.52613E-05-2.85711E-05-2.85830E-05 2.71789E-08 5.15630E-19-8.26007E-18
 -1      1624 9.53055E-05-2.85794E-05-2.85970E-05 3.94149E-08 8.74504E-19-6.28462E-18
 -1      1625 9.53663E-05-2.85909E-05-2.86200E-05 1.12890E-07 2.02585E-18-3.37695E-18
 -1      1626 9.52316E-05-2.85666E-05-2.85685E-05-8.42973E-09-1.36314E-18-6.91783E-18
 -1      1627 9.52318E-05-2.85608E-05-2.85726E-05 1.58982E-09-9.05864E-19-8.43353E-18
 -1      1628 9.52736E-05-2.85676E-05-2.85896E-05 3.13657E-08-1.51714E-19-2.76317E-18
 -1      1629 9.52292E-05-2.85759E-05-2.85613E-05-1.17729E-08-4.20197E-18-4.67254E-18
 -1      1630 9.52460E-05-2.85612E-05-2.85803E-05 1.70492E-08-3.38631E-18 2.77016E-18
 -1      1631 9.52454E-05-2.85685E-05-2.85744E-05 8.06585E-09-5.84163E-18 1.48029E-18
 -1      1632 9.52183E-05-2.84716E-05-2.86071E-05 6.13537E-08-1.14451E-18 2.66606E-19
 -1      1633 9.52336E-05-2.85193E-05-2.85927E-05 5.23561E-08-2.75300E-18 1.05357E-18
 -1      1634 9.52383E-05-2.84980E-05-2.86047E-05 7.27219E-08-5.65764E-19 2.86923E-18
 -1      1635 9.51696E-05-2.83251E-05-2.86485E-05 9.58610E-08-1.02136E-18 9.49436E-19
 -1      1636 9.51968E-05-2.84067E-05-2.86252E-05 9.00420E-08-8.81973E-19 6.51434E-19
 -1      1637 9.52002E-05-2.83886E-05-2.86357E-05 1.49957E-07-8.10969E-19 1.17331E-18
 -1      1638 9.51102E-05-2.81469E-05-2.86989E-05 1.11084E-07 1.15260E-18-6.04772E-19
 -1      1639 9.51430E-05-2.82454E-05-2.86709E-05 1.09674E-07 4.49315E-19 1.22824E-18
 -1      1640 9.51471E-05-2.82412E-05-2.86749E-05 2.00828E-07-5.48191E-19 1.06416E-18
 -1      1641 9.50525E-05-2.79721E-05-2.87488E-05 1.05333E-07 6.30998E-20-3.09309E-19
 -1      1642 9.50837E-05-2.80664E-05-2.87219E-05 1.08039E-07 2.76612E-19-1.03983E-18
 -1      1643 9.50882E-05-2.80785E-05-2.87180E-05 2.13078E-07-4.18841E-20-1.78681E-18
 -1      1644 9.50043E-05-2.78258E-05-2.87907E-05 8.05042E-08-6.66377E-20 6.18363E-19
 -1      1645 9.50293E-05-2.79013E-05-2.87691E-05 8.67580E-08-7.91765E-19 2.81545E-19
 -1      1646 9.50333E-05-2.79255E-05-2.87589E-05 1.86503E-07-2.52525E-19-5.43655E-19
 -1      1647 9.49750E-05-2.77367E-05-2.88163E-05 4.14578E-08-1.07391E-18-1.25640E-18
 -1      1648 9.49887E-05-2.77780E-05-2.88045E-05 5.00229E-08-4.10105E-19-2.27622E-19
 -1      1649 9.49906E-05-2.78058E-05-2.87909E-05 1.26664E-07-8.69580E-19-3.37678E-20
 -1      1650 9.49696E-05-2.77200E-05-2.88211E-05-4.92081E-09-2.72171E-18-6.71496E-19
 -1      1651 9.49695E-05-2.77197E-05-2.88212E-05 4.48969E-09-1.17274E-18-9.13940E-19
 -1      1652 9.49672E-05-2.77403E-05-2.88084E-05 4.46340E-08-8.89809E-20-1.54948E-18
 -1      1653 9.49888E-05-2.77789E-05-2.88042E-05-5.07190E-08-3.32866E-18 1.12964E-18
 -1      1654 9.49749E-05-2.77368E-05-2.88162E-05-4.20632E-08-4.01552E-18 8.90892E-19
 -1      1655 9.49670E-05-2.77399E-05-2.88085E-05-4.54631E-08-1.39552E-18-1.23909E-18
 -1      1656 9.50298E-05-2.79035E-05-2.87684E-05-8.79457E-08-3.52342E-18-9.28953E-19
 -1      1657 9.50045E-05-2.78268E-05-2.87903E-05-8.16041E-08-3.30612E-18 2.29337E-19
 -1      1658 9.49901E-05-2.78049E-05-2.87910E-05-1.28238E-07-1.84184E-18 7.05654E-19
 -1      1659 9.50845E-05-2.80691E-05-2.87211E-05-1.09379E-07-2.27761E-18 1.49012E-18
 -1      1660 9.50527E-05-2.79735E-05-2.87484E-05-1.06632E-07-2.77047E-18-6.30293E-19
 -1      1661 9.50328E-05-2.79239E-05-2.87592E-05-1.88683E-07-1.01030E-18-1.81674E-19
 -1      1662 9.51451E-05-2.82514E-05-2.86693E-05-1.10784E-07-2.95449E-18-1.42108E-18
 -1      1663 9.51119E-05-2.81519E-05-2.86976E-05-1.12357E-07-1.81338E-18-5.50853E-19
 -1      1664 9.50883E-05-2.80782E-05-2.87182E-05-2.15581E-07-4.61037E-19 7.57004E-19
 -1      1665 9.51991E-05-2.84136E-05-2.86234E-05-8.99367E-08-2.19862E-18 7.34448E-19
 -1      1666 9.51720E-05-2.83319E-05-2.86467E-05-9.60145E-08-3.50399E-18 1.47978E-18
 -1      1667 9.51485E-05-2.82440E-05-2.86744E-05-2.02164E-07 3.45091E-19-4.77530E-19
 -1      1668 9.52370E-05-2.85244E-05-2.85915E-05-5.17974E-08-2.10198E-18 7.28242E-19
 -1      1669 9.52199E-05-2.84775E-05-2.86054E-05-6.15207E-08-1.87780E-18 4.74233E-19
 -1      1670 9.52009E-05-2.83911E-05-2.86350E-05-1.48642E-07-5.37150E-19 8.06251E-19
 -1      1671 9.52494E-05-2.85581E-05-2.85805E-05-1.92067E-08-1.23196E-18 4.83865E-19
 -1      1672 9.52489E-05-2.85492E-05-2.85869E-05-3.17095E-08-1.66205E-18 8.57914E-19
 -1      1673 9.52453E-05-2.84824E-05-2.86128E-05-9.24327E-08-4.44837E-19 1.32625E-18
 -1      1674 9.52694E-05-2.85337E-05-2.85994E-05-4.77637E-08-4.92542E-20 1.05358E-20
 -1      1675 1.93113E-05-5.96579E-05 1.21932E-05-2.70536E-06 4.52570E-18 2.63215E-18
 -1      1676 2.23121E-05-7.02792E-05 1.47940E-05 3.81479E-06 1.89714E-18 1.36161E-18
 -1      1677 1.89331E-05-3.52764E-05 2.90703E-06 3.73109E-06 5.95041E-18 1.94881E-18
 -1      1678 2.34172E-05-5.76051E-05 8.79984E-06-1.24689E-07 5.78185E-18 1.80063E-18
 -1      1679 4.06080E-05-1.15752E-05-1.39073E-05 3.33026E-05 6.57043E-18 5.50910E-18
 -1      1680 3.25423E-05-3.12624E-05-4.70320E-06 1.43338E-05 5.85723E-18 4.09032E-18
 -1      1681 8.18934E-05-2.36003E-06-3.28706E-05 6.25831E-05 6.21553E-18 6.65260E-18
 -1      1682 5.57090E-05-6.29118E-06-2.30163E-05 4.04748E-05 6.65090E-18 6.17487E-18
 -1      1683 1.45641E-04-1.71580E-05-5.12213E-05 7.89286E-05 4.51511E-18 6.42051E-18
 -1      1684 1.03876E-04-3.54112E-06-4.20830E-05 6.81344E-05 6.20452E-18 6.70003E-18
 -1      1685 2.10956E-04-4.48168E-05-6.55806E-05 6.37036E-05 2.78107E-18 5.47776E-18
 -1      1686 1.69640E-04-2.40649E-05-5.88693E-05 7.50671E-05 3.77205E-18 6.54756E-18
 -1      1687 2.46966E-04-6.15696E-05-7.32081E-05 1.78106E-05 1.99307E-18 1.11237E-18
 -1      1688 2.25022E-04-4.93026E-05-7.00289E-05 4.85368E-05 2.81247E-18 4.52400E-18
 -1      1689 2.44665E-04-5.95154E-05-7.32966E-05-3.22304E-05 2.22071E-18-3.31529E-18
 -1      1690 2.53729E-04-6.47311E-05-7.45079E-05 1.89875E-06 1.50814E-18-4.73571E-19
 -1      1691 1.94029E-04-3.48937E-05-6.42572E-05-6.45108E-05 4.96472E-18-7.76306E-18
 -1      1692 2.30388E-04-5.38445E-05-6.97278E-05-4.41018E-05 3.33297E-18-4.47657E-18
 -1      1693 1.29148E-04-1.32669E-05-4.82164E-05-6.66777E-05 7.87402E-18-9.93570E-18
 -1      1694 1.73180E-04-3.07025E-05-5.70434E-05-6.90495E-05 5.70943E-18-8.81761E-18
 -1      1695 6.93699E-05-1.26242E-06-3.01756E-05-5.17787E-05 1.08166E-17-1.05041E-17
 -1      1696 1.01977E-04-4.82044E-06-3.97033E-05-7.08080E-05 9.31652E-18-1.12605E-17
 -1      1697 4.08025E-05-2.30428E-05-1.08843E-05-2.30858E-05 1.04456E-17-7.33912E-18
 -1      1698 5.58294E-05-8.23665E-06-2.08630E-05-4.48286E-05 1.04710E-17-9.21911E-18
 -1      1699 2.39690E-05-4.79812E-05 4.70159E-06-1.67272E-06 8.06375E-18-5.17579E-18
 -1      1700 2.21001E-05-2.47330E-05-2.29775E-06-1.16061E-05 1.08412E-17-7.30312E-18
 -1      1701 2.37466E-05-7.03903E-05 1.37091E-05-3.96698E-07 5.33207E-19-3.97830E-18
 -1      1702 1.89908E-05-5.38609E-05 9.77665E-06 3.24698E-06 5.93601E-18-5.00088E-18
 -1      1703 2.14716E-05-7.15192E-05 1.53724E-05-5.64520E-06-5.89450E-18-2.82909E-18
 -1      1704 2.16284E-05-7.17335E-05 1.54139E-05 3.64830E-06-1.20977E-18-3.15075E-18
 -1      1705 1.88812E-05-5.31410E-05 9.46247E-06-4.33530E-06-8.53725E-18-3.01951E-18
 -1      1706 2.38462E-05-7.02309E-05 1.35420E-05-1.27657E-06-7.18326E-18-2.05067E-18
 -1      1707 2.35083E-05-2.41611E-05-3.18977E-06 1.17645E-05-9.76798E-18-6.27609E-18
 -1      1708 2.45542E-05-4.74694E-05 4.14417E-06 8.41661E-07-8.90909E-18-4.67181E-18
 -1      1709 5.06977E-05-4.43375E-06-2.08179E-05 4.26826E-05-9.64686E-18-8.03241E-18
 -1      1710 3.58028E-05-1.85920E-05-1.13095E-05 2.03762E-05-1.02491E-17-6.76229E-18
 -1      1711 1.10040E-04-1.18980E-05-4.01751E-05 6.75187E-05-7.34208E-18-9.81288E-18
 -1      1712 7.66054E-05-8.71711E-06-3.02446E-05 4.86355E-05-8.42120E-18-8.50336E-18
 -1      1713 1.78465E-04-3.13087E-05-5.84134E-05 7.35256E-05-5.49259E-18-9.81542E-18
 -1      1714 1.31791E-04-1.24900E-05-4.94485E-05 7.07728E-05-7.02953E-18-1.01144E-17
 -1      1715 2.36350E-04-5.63137E-05-7.08804E-05 4.31735E-05-3.15954E-18-7.17437E-18
 -1      1716 1.99799E-04-3.74198E-05-6.52487E-05 6.40111E-05-4.94508E-18-9.14880E-18
 -1      1717 2.58576E-04-6.61043E-05-7.57307E-05-4.09692E-06-1.42789E-18-3.89201E-18
 -1      1718 2.50409E-04-6.13079E-05-7.45394E-05 3.13167E-05-2.44835E-18-6.51538E-18
 -1      1719 2.21777E-04-4.72129E-05-7.00951E-05-4.71614E-05-2.52691E-18 8.21622E-19
 -1      1720 2.46903E-04-6.04829E-05-7.37292E-05-1.71215E-05-1.84865E-18-1.85797E-18
 -1      1721 1.63145E-04-2.42388E-05-5.69643E-05-6.67590E-05-3.88852E-18 3.63038E-18
 -1      1722 2.06389E-04-4.43948E-05-6.46331E-05-5.76379E-05-2.12637E-18 1.60597E-18
 -1      1723 9.61700E-05-3.91800E-06-3.94476E-05-6.31442E-05-6.14777E-18 5.93770E-18
 -1      1724 1.38424E-04-1.65732E-05-4.91286E-05-7.62514E-05-4.95260E-18 4.55619E-18
 -1      1725 4.99093E-05-8.52560E-06-2.03397E-05-3.50419E-05-8.60924E-18 5.73272E-18
 -1      1726 7.37015E-05-2.32056E-06-3.00825E-05-5.77870E-05-6.58653E-18 5.80810E-18
 -1      1727 2.81583E-05-3.22588E-05-3.04113E-06-8.94329E-06-7.13371E-18 5.21899E-18
 -1      1728 3.35572E-05-1.17630E-05-1.15314E-05-2.63375E-05-8.51776E-18 6.54333E-18
 -1      1729 2.40946E-05-6.07352E-05 9.69252E-06 1.33444E-06-2.93243E-18 2.65823E-18
 -1      1730 1.97481E-05-3.86760E-05 3.77892E-06-2.19573E-06-5.97328E-18 5.09490E-18
 -1      1731 2.25335E-05-7.28142E-05 1.54622E-05-1.97131E-06 6.81967E-19 1.12782E-18
 -1      1732 1.96656E-05-6.40513E-05 1.33937E-05 6.19232E-06-1.83213E-18 1.68560E-18
 -1      1733 1.17790E-04-2.95103E-05-3.67571E-05 4.66367E-05 4.24194E-18 4.23601E-18
 -1      1734 7.82877E-05-3.54749E-05-1.93034E-05 4.11093E-05 3.39745E-18 3.60540E-18
 -1      1735 9.52452E-05-2.85790E-05-2.85698E-05-1.15558E-08-5.57624E-18-2.15263E-18
 -1      1736 9.52495E-05-2.85487E-05-2.85855E-05 1.28340E-08-2.01272E-18 6.59738E-19
 -1      1737 1.93100E-05-4.44655E-05 6.91371E-06 1.67918E-05 2.38990E-18 2.75053E-18
 -1      1738 4.31163E-05-4.05778E-05-3.70795E-06 3.13394E-05 3.35002E-18 3.29242E-18
 -1      1739 1.08913E-05-4.50674E-05 1.06577E-05 2.20221E-06 7.92082E-19 3.02984E-18
 -1      1740 1.60788E-04-2.96145E-05-5.28841E-05 4.39404E-05 3.26881E-18 3.62700E-18
 -1      1741 1.93307E-04-3.20553E-05-6.44629E-05 2.72951E-05 3.10903E-18 1.79529E-18
 -1      1742 2.08860E-04-3.36202E-05-6.98378E-05 4.00148E-06 3.49105E-18 9.75994E-19
 -1      1743 2.02861E-04-3.34520E-05-6.76540E-05-1.70484E-05 4.13119E-18-1.41370E-18
 -1      1744 1.73315E-04-3.16432E-05-5.73793E-05-2.97486E-05 5.15208E-18-3.36992E-18
 -1      1745 1.35679E-04-3.11356E-05-4.28123E-05-4.29535E-05 6.17191E-18-5.72086E-18
 -1      1746 9.34952E-05-3.46024E-05-2.55192E-05-4.30264E-05 6.13718E-18-6.41162E-18
 -1      1747 5.54436E-05-3.87502E-05-9.01003E-06-3.57727E-05 5.51249E-18-5.80472E-18
 -1      1748 2.58356E-05-4.43893E-05 4.18050E-06-2.04473E-05 3.68756E-18-6.90342E-18
 -1      1749 1.29239E-05-4.76739E-05 1.05925E-05-7.69989E-06-4.35375E-19-6.33411E-18
 -1      1750 1.35359E-05-4.80545E-05 1.04837E-05 6.67282E-06-2.94640E-18-3.72440E-18
 -1      1751 2.73189E-05-4.49996E-05 3.70566E-06 1.96649E-05-5.09999E-18-3.36579E-18
 -1      1752 5.34630E-05-3.77406E-05-9.12948E-06 3.24622E-05-5.72679E-18-5.03752E-18
 -1      1753 9.58341E-05-3.53726E-05-2.59828E-05 4.21298E-05-5.35071E-18-5.38671E-18
 -1      1754 1.40438E-04-3.51764E-05-4.34073E-05 4.05872E-05-4.73195E-18-6.36291E-18
 -1      1755 1.79585E-04-3.33168E-05-5.88316E-05 3.28680E-05-4.63271E-18-6.09356E-18
 -1      1756 2.07337E-04-3.48110E-05-6.86958E-05 1.56968E-05-3.96115E-18-5.48962E-18
 -1      1757 2.08963E-04-3.28446E-05-7.02545E-05-3.10085E-06-3.60709E-18-2.69992E-18
 -1      1758 1.88254E-04-3.13760E-05-6.32332E-05-1.86758E-05-2.87970E-18-1.35186E-18
 -1      1759 1.58688E-04-3.28825E-05-5.09330E-05-3.81206E-05-3.53636E-18 1.05879E-19
 -1      1760 1.13349E-04-3.11532E-05-3.44238E-05-4.54936E-05-4.25549E-18 2.45978E-18
 -1      1761 7.10932E-05-3.45900E-05-1.70868E-05-3.82161E-05-4.65445E-18 3.29072E-18
 -1      1762 3.91540E-05-4.16202E-05-2.15251E-06-2.64159E-05-2.93666E-18 5.39020E-18
 -1      1763 1.87094E-05-4.65460E-05 7.82510E-06-1.38773E-05-1.54033E-18 3.96793E-18
 -1      1764 1.05848E-04-2.31229E-05-3.55380E-05-1.68066E-05-1.11725E-18 5.00978E-18
 -1      1765 8.91584E-05-1.05767E-05-3.38034E-05-1.32334E-05-1.50534E-18-1.46439E-18
 -1      1766 9.04774E-05-1.16317E-05-3.39327E-05-1.50486E-05-1.69505E-18-8.32051E-19
 -1      1767 9.24511E-05-1.38701E-05-3.38388E-05-1.59245E-05-1.61367E-18-7.12037E-20
 -1      1768 9.41288E-05-1.58101E-05-3.40681E-05-1.75895E-05-1.75742E-18 8.37398E-19
 -1      1769 9.33920E-05-1.63338E-05-3.30403E-05-1.36883E-05-1.70517E-18-4.16026E-19
 -1      1770 8.62649E-05-7.63619E-06-3.37697E-05-7.78110E-06-9.97011E-19-2.41063E-18
 -1      1771 8.66631E-05-7.94336E-06-3.37984E-05-9.16398E-06-1.13915E-18-2.26470E-18
 -1      1772 8.56522E-05-6.98418E-06-3.37744E-05-5.25430E-06-7.13217E-19-2.60616E-18
 -1      1773 8.58856E-05-7.16799E-06-3.37863E-05-6.54903E-06-8.30819E-19-2.55073E-18
 -1      1774 8.76398E-05-9.80717E-06-3.33888E-05-6.84056E-06-1.00806E-18-2.39311E-18
 -1      1775 8.53140E-05-6.61105E-06-3.37822E-05-2.84814E-06-3.79035E-19-2.58450E-18
 -1      1776 8.54359E-05-6.70991E-06-3.37864E-05-4.07475E-06-5.62530E-19-2.60652E-18
 -1      1777 8.70007E-05-9.07260E-06-3.34294E-05-4.46853E-06-6.64632E-19-2.54526E-18
 -1      1778 8.51803E-05-6.45551E-06-3.37874E-05-5.08364E-07 8.28173E-21-2.49241E-18
 -1      1779 8.52167E-05-6.48565E-06-3.37883E-05-1.70291E-06-1.82929E-19-2.51788E-18
 -1      1780 8.66621E-05-8.67716E-06-3.34535E-05-2.18003E-06-3.01651E-19-2.43767E-18
 -1      1781 8.52256E-05-6.49438E-06-3.37882E-05 1.82130E-06 3.72068E-19-2.54348E-18
 -1      1782 8.51836E-05-6.45999E-06-3.37872E-05 6.25797E-07 2.22249E-19-2.52235E-18
 -1      1783 8.65609E-05-8.55776E-06-3.34612E-05 6.54546E-08 1.33703E-19-2.37292E-18
 -1      1784 8.54590E-05-6.73443E-06-3.37858E-05 4.19730E-06 6.35507E-19-2.56824E-18
 -1      1785 8.53302E-05-6.62948E-06-3.37817E-05 2.96774E-06 4.90258E-19-2.59814E-18
 -1      1786 8.66784E-05-8.69639E-06-3.34524E-05 2.31208E-06 4.84010E-19-2.45605E-18
 -1      1787 8.59173E-05-7.20358E-06-3.37849E-05 6.63586E-06 8.81184E-19-2.47425E-18
 -1      1788 8.56798E-05-7.01536E-06-3.37735E-05 5.35836E-06 7.68509E-19-2.55905E-18
 -1      1789 8.70319E-05-9.10898E-06-3.34272E-05 4.58307E-06 7.65181E-19-2.48710E-18
 -1      1790 8.67257E-05-8.01225E-06-3.37953E-05 9.28404E-06 1.25110E-18-2.09805E-18
 -1      1791 8.63096E-05-7.68920E-06-3.37672E-05 7.86878E-06 1.04954E-18-2.28655E-18
 -1      1792 8.76883E-05-9.86408E-06-3.33853E-05 6.93488E-06 1.05690E-18-2.27690E-18
 -1      1793 8.81189E-05-9.37635E-06-3.38354E-05 1.21598E-05 1.58781E-18-1.60989E-18
 -1      1794 8.73917E-05-8.81362E-06-3.37716E-05 1.05682E-05 1.39699E-18-1.92081E-18
 -1      1795 8.88058E-05-1.11232E-05-3.33229E-05 9.39731E-06 1.41186E-18-1.90471E-18
 -1      1796 9.06219E-05-1.18366E-05-3.39243E-05 1.52140E-05 1.82214E-18-6.94991E-19
 -1      1797 8.92660E-05-1.07362E-05-3.37959E-05 1.34223E-05 1.65834E-18-1.23794E-18
 -1      1798 9.06825E-05-1.32047E-05-3.32233E-05 1.18698E-05 1.71767E-18-1.28754E-18
 -1      1799 9.57934E-05-1.70208E-05-3.39629E-05 1.76151E-05 1.83700E-18 1.09437E-18
 -1      1800 9.28150E-05-1.43371E-05-3.38112E-05 1.61139E-05 1.75954E-18 5.25690E-20
 -1      1801 9.39439E-05-1.68748E-05-3.30183E-05 1.38015E-05 1.85525E-18-2.36746E-19
 -1      1802 1.01772E-04-2.50550E-05-3.33098E-05 1.43672E-05 1.60433E-18 3.22233E-18
 -1      1803 9.79650E-05-1.95950E-05-3.35867E-05 1.68979E-05 1.69721E-18 1.82779E-18
 -1      1804 9.72472E-05-2.18326E-05-3.24011E-05 1.31740E-05 1.78273E-18 1.13532E-18
 -1      1805 9.86156E-05-2.60970E-05-3.12995E-05 9.38390E-06 1.55094E-18 2.70524E-18
 -1      1806 1.00015E-04-1.95364E-05-3.41698E-05-1.88080E-05-1.51574E-18 2.36608E-18
 -1      1807 9.52113E-05-2.72516E-05-2.91565E-05 4.01054E-06 1.21430E-18 2.05203E-18
 -1      1808 9.76211E-05-2.73528E-05-3.01586E-05 6.34689E-06 1.25689E-18 2.50292E-18
 -1      1809 9.74828E-05-2.55860E-05-3.08052E-05 8.69245E-06 1.50589E-18 1.54987E-18
 -1      1810 9.97019E-05-2.25122E-05-3.28007E-05-1.44008E-05-1.58472E-18 1.74759E-18
 -1      1811 9.68772E-05-2.69486E-05-2.98540E-05-5.63488E-06-1.19604E-18 1.51819E-18
 -1      1812 9.50912E-05-2.70062E-05-2.91514E-05-3.82139E-06-1.05252E-18 1.14800E-18
 -1      1813 9.42952E-05-2.72091E-05-2.86537E-05-2.32899E-06-9.91273E-19 1.02677E-18
 -1      1814 9.35551E-05-2.72941E-05-2.83592E-05-1.46006E-06-8.28590E-19 7.08311E-19
 -1      1815 9.54879E-05-2.65191E-05-2.95792E-05-4.35928E-06-1.23247E-18 3.41952E-19
 -1      1816 9.30645E-05-2.73499E-05-2.81037E-05-6.05829E-07-7.64328E-19 6.68792E-19
 -1      1817 9.28094E-05-2.74215E-05-2.79965E-05-1.42934E-07-8.31144E-19 5.32188E-19
 -1      1818 9.43329E-05-2.71962E-05-2.87941E-05-1.66435E-06-1.02681E-18 1.30116E-19
 -1      1819 9.25815E-05-2.74565E-05-2.78789E-05 3.52669E-07-8.16409E-19 5.74520E-19
 -1      1820 9.26170E-05-2.75453E-05-2.78703E-05 6.12854E-07-6.24394E-19 4.27608E-19
 -1      1821 9.37110E-05-2.75086E-05-2.83902E-05-1.21533E-07-8.83202E-19 2.32936E-19
 -1      1822 9.25806E-05-2.75881E-05-2.78374E-05 9.09995E-07-6.13770E-19 3.06269E-19
 -1      1823 9.27915E-05-2.76926E-05-2.78868E-05 1.06480E-06-4.32529E-19 2.23802E-20
 -1      1824 9.35009E-05-2.77030E-05-2.82132E-05 7.91394E-07-7.58868E-19 2.07589E-20
 -1      1825 9.28894E-05-2.77474E-05-2.79096E-05 1.25473E-06-3.33288E-19 1.43139E-20
 -1      1826 9.32130E-05-2.78630E-05-2.79965E-05 1.35795E-06-1.82140E-19 2.89811E-20
 -1      1827 9.35922E-05-2.78626E-05-2.81805E-05 1.35642E-06-4.46535E-19-2.29410E-19
 -1      1828 9.34078E-05-2.79284E-05-2.80582E-05 1.49721E-06-9.99536E-20-1.09717E-20
 -1      1829 9.38131E-05-2.80532E-05-2.81727E-05 1.58271E-06 3.74771E-20 2.92809E-19
 -1      1830 9.38999E-05-2.80124E-05-2.82457E-05 1.73986E-06-1.16900E-19-8.28386E-20
 -1      1831 9.40836E-05-2.81281E-05-2.82642E-05 1.70936E-06-1.39281E-19 1.26505E-19
 -1      1832 9.45604E-05-2.82630E-05-2.84023E-05 1.80075E-06-1.63748E-19-6.87837E-20
 -1      1833 9.43705E-05-2.81612E-05-2.83821E-05 2.04853E-06-4.02361E-20-3.93189E-19
 -1      1834 9.48978E-05-2.83479E-05-2.85197E-05 1.94221E-06-3.67512E-19-2.11202E-19
 -1      1835 9.54504E-05-2.84968E-05-2.86820E-05 2.05715E-06-5.81297E-19-4.29199E-19
 -1      1836 9.49769E-05-2.83146E-05-2.85756E-05 2.35649E-06-5.90050E-19-9.43800E-19
 -1      1837 9.58550E-05-2.85940E-05-2.88245E-05 2.23399E-06-5.31726E-19-4.77578E-19
 -1      1838 9.64982E-05-2.87636E-05-2.90146E-05 2.38594E-06-1.31829E-19-6.77634E-19
 -1      1839 9.57127E-05-2.84792E-05-2.88204E-05 2.71792E-06-4.55432E-19-5.68579E-19
 -1      1840 9.69771E-05-2.88771E-05-2.91838E-05 2.61317E-06-5.46469E-20-5.08228E-19
 -1      1841 9.77330E-05-2.90766E-05-2.94072E-05 2.81150E-06 6.11758E-20-4.89778E-19
 -1      1842 9.65867E-05-2.86647E-05-2.91159E-05 3.17286E-06-8.64850E-20-6.17822E-19
 -1      1843 9.82979E-05-2.92130E-05-2.96054E-05 3.09798E-06 2.23410E-19-4.56099E-19
 -1      1844 9.91924E-05-2.94543E-05-2.98686E-05 3.34637E-06 2.99717E-19-3.72771E-19
 -1      1845 9.76193E-05-2.88854E-05-2.94645E-05 3.74808E-06 1.82986E-19-2.58034E-19
 -1      1846 9.98580E-05-2.96230E-05-3.00981E-05 3.69186E-06 1.40123E-19-6.46373E-19
 -1      1847 1.00916E-04-2.99209E-05-3.04063E-05 3.98440E-06-7.72223E-20-3.16829E-19
 -1      1848 9.88388E-05-2.91629E-05-2.98691E-05 4.45333E-06 1.45150E-19-2.11783E-19
 -1      1849 1.01699E-04-3.01362E-05-3.06671E-05 4.37349E-06-2.26154E-19-6.38002E-19
 -1      1850 1.02938E-04-3.05085E-05-3.10222E-05 4.68736E-06-1.98101E-19-4.55494E-19
 -1      1851 1.00279E-04-2.95304E-05-3.03299E-05 5.27172E-06-1.43190E-19-4.35206E-19
 -1      1852 1.03854E-04-3.07921E-05-3.13102E-05 5.07910E-06-1.82799E-19-4.09249E-19
 -1      1853 1.05270E-04-3.12591E-05-3.17063E-05 5.36286E-06-3.94040E-19-3.56295E-19
 -1      1854 1.01978E-04-3.00395E-05-3.08408E-05 6.14233E-06-1.47236E-19-9.75713E-19
 -1      1855 1.06337E-04-3.16431E-05-3.20106E-05 5.67522E-06-8.66938E-19-6.54391E-19
 -1      1856 1.07889E-04-3.22241E-05-3.24288E-05 5.83309E-06-7.35862E-19-1.12109E-18
 -1      1857 1.03975E-04-3.07685E-05-3.13858E-05 6.93278E-06-8.96452E-19-7.74620E-19
 -1      1858 1.09123E-04-3.27512E-05-3.27301E-05 5.92392E-06-4.07372E-19-1.21412E-18
 -1      1859 1.10707E-04-3.34538E-05-3.31324E-05 5.80131E-06-3.04915E-19-1.04873E-18
 -1      1860 1.06311E-04-3.18268E-05-3.19355E-05 7.40294E-06-7.03613E-19-7.88862E-19
 -1      1861 1.12112E-04-3.41661E-05-3.34040E-05 5.45476E-06 2.47942E-19-5.95603E-19
 -1      1862 1.13533E-04-3.49577E-05-3.37306E-05 4.84204E-06 1.05370E-18-5.52646E-19
 -1      1863 1.09014E-04-3.33375E-05-3.24487E-05 7.17019E-06 1.66454E-19-3.88217E-19
 -1      1864 1.15069E-04-3.58554E-05-3.39455E-05 3.78678E-06 1.72724E-18-8.16272E-19
 -1      1865 1.16017E-04-3.66075E-05-3.41219E-05 2.47720E-06 1.76673E-18-4.63741E-19
 -1      1866 1.12056E-04-3.53611E-05-3.28847E-05 5.71093E-06 1.11961E-18 2.11689E-19
 -1      1867 1.17524E-04-3.75562E-05-3.42696E-05 4.90691E-07 1.71287E-18-2.21224E-19
 -1      1868 1.17597E-04-3.79682E-05-3.42329E-05-1.55722E-06 1.17874E-18 3.11986E-19
 -1      1869 1.15232E-04-3.77086E-05-3.32313E-05 2.47800E-06 1.88798E-18-1.89623E-20
 -1      1870 1.18683E-04-3.85759E-05-3.43416E-05-4.38387E-06 5.86590E-19 8.63079E-19
 -1      1871 1.17513E-04-3.81674E-05-3.40861E-05-6.77309E-06 2.50510E-19 1.27592E-18
 -1      1872 1.17956E-04-3.96417E-05-3.35456E-05-2.73143E-06 1.16836E-18 1.05562E-19
 -1      1873 1.17553E-04-3.77971E-05-3.42278E-05-9.63244E-06-8.28372E-20 1.41411E-18
 -1      1874 1.15116E-04-3.61707E-05-3.38403E-05-1.13177E-05-9.84213E-20 1.36407E-18
 -1      1875 1.19120E-04-3.97313E-05-3.39732E-05-9.06172E-06 8.67547E-20 7.85616E-19
 -1      1876 1.13699E-04-3.44163E-05-3.40727E-05-1.25410E-05-2.07550E-19 1.50974E-18
 -1      1877 1.10685E-04-3.18802E-05-3.37052E-05-1.21400E-05-3.72364E-19 1.53893E-18
 -1      1878 1.17559E-04-3.65842E-05-3.46636E-05-1.38835E-05-2.93633E-19 1.29159E-18
 -1      1879 1.08515E-04-2.94742E-05-3.39673E-05-1.01155E-05-7.74559E-19 1.49665E-18
 -1      1880 1.06352E-04-2.74221E-05-3.37574E-05-7.07867E-06-1.01424E-18 1.77114E-18
 -1      1881 1.13530E-04-3.07282E-05-3.55382E-05-1.33374E-05-3.17280E-19 1.16605E-18
 -1      1882 1.05228E-04-2.62219E-05-3.38863E-05-2.12974E-06-1.15699E-18 1.17820E-18
 -1      1883 1.05257E-04-2.62460E-05-3.38856E-05 2.18324E-06-1.15138E-18 4.56557E-19
 -1      1884 1.09789E-04-2.56701E-05-3.62033E-05-5.61515E-06-1.15003E-18 1.14837E-18
 -1      1885 1.06362E-04-2.74416E-05-3.37582E-05 7.07679E-06-1.21978E-18 1.71776E-19
 -1      1886 1.08514E-04-2.94678E-05-3.39711E-05 1.01204E-05-5.62006E-19-7.54786E-20
 -1      1887 1.09820E-04-2.57264E-05-3.62037E-05 5.63073E-06-1.51203E-18 4.77207E-19
 -1      1888 1.10702E-04-3.18816E-05-3.37087E-05 1.21602E-05 3.27921E-19-1.22709E-18
 -1      1889 1.13725E-04-3.44229E-05-3.40781E-05 1.25615E-05 4.12718E-19-8.89914E-19
 -1      1890 1.13528E-04-3.07020E-05-3.55409E-05 1.33618E-05-6.07058E-19-1.40842E-18
 -1      1891 1.15144E-04-3.61768E-05-3.38508E-05 1.13373E-05-1.95681E-19-5.94048E-19
 -1      1892 1.17590E-04-3.78046E-05-3.42419E-05 9.65495E-06-6.35546E-19-7.37309E-19
 -1      1893 1.17587E-04-3.65917E-05-3.46707E-05 1.39082E-05 2.11282E-19-2.22187E-18
 -1      1894 1.17558E-04-3.81760E-05-3.41037E-05 6.80020E-06-1.42442E-18-5.64084E-19
 -1      1895 1.18736E-04-3.85851E-05-3.43622E-05 4.41573E-06-1.06088E-18-7.09849E-19
 -1      1896 1.19157E-04-3.97375E-05-3.39910E-05 9.09560E-06-7.14532E-19-9.96457E-19
 -1      1897 1.17660E-04-3.79778E-05-3.42565E-05 1.59809E-06-2.60569E-19-5.03306E-19
 -1      1898 1.17600E-04-3.75676E-05-3.42973E-05-4.40882E-07 3.29145E-19-4.84820E-19
 -1      1899 1.18008E-04-3.96445E-05-3.35693E-05 2.78008E-06-5.78312E-19-6.85478E-19
 -1      1900 1.16107E-04-3.66215E-05-3.41545E-05-2.41358E-06-1.31383E-19-1.90200E-19
 -1      1901 1.15180E-04-3.58740E-05-3.39844E-05-3.71117E-06-2.69237E-19-3.19490E-19
 -1      1902 1.15306E-04-3.77117E-05-3.32627E-05-2.40266E-06-2.45891E-19-7.37167E-20
 -1      1903 1.13663E-04-3.49804E-05-3.37766E-05-4.74904E-06-3.01478E-19-9.43462E-19
 -1      1904 1.12272E-04-3.41958E-05-3.34589E-05-5.34672E-06 3.00078E-19-4.95415E-19
 -1      1905 1.12163E-04-3.53693E-05-3.29279E-05-5.60084E-06-1.53746E-19-8.15832E-20
 -1      1906 1.10894E-04-3.34892E-05-3.31966E-05-5.67160E-06 1.03885E-18-2.68476E-19
 -1      1907 1.09349E-04-3.27965E-05-3.28064E-05-5.77560E-06 1.26168E-18-2.71712E-20
 -1      1908 1.09167E-04-3.33532E-05-3.25079E-05-7.01639E-06 8.91860E-19-6.83934E-19
 -1      1909 1.08150E-04-3.22771E-05-3.25171E-05-5.65825E-06 7.25719E-19-6.66633E-19
 -1      1910 1.06650E-04-3.17094E-05-3.21147E-05-5.47763E-06 2.63861E-19-3.37299E-19
 -1      1911 1.06523E-04-3.18535E-05-3.20155E-05-7.19524E-06 9.66102E-19-4.00514E-19
 -1      1912 1.05626E-04-3.13355E-05-3.18258E-05-5.13322E-06-3.85028E-19-7.29127E-19
 -1      1913 1.04279E-04-3.08863E-05-3.14500E-05-4.82202E-06-8.47040E-19-1.05733E-18
 -1      1914 1.04263E-04-3.08101E-05-3.14923E-05-6.65963E-06-1.34588E-19-5.82813E-19
 -1      1915 1.03417E-04-3.06157E-05-3.11810E-05-4.39222E-06 7.23948E-20-1.25754E-18
 -1      1916 1.02265E-04-3.02666E-05-3.08515E-05-4.04582E-06-3.90429E-20 2.08470E-20
 -1      1917 1.02362E-04-3.01011E-05-3.09801E-05-5.79098E-06-2.88177E-19-3.90933E-19
 -1      1918 1.01548E-04-3.00678E-05-3.06137E-05-3.61254E-06-7.92791E-19-2.54266E-19
 -1      1919 1.00598E-04-2.97995E-05-3.03370E-05-3.28231E-06-1.31116E-18 2.05238E-19
 -1      1920 1.00783E-04-2.96184E-05-3.05090E-05-4.82880E-06-8.86685E-19-1.17772E-19
 -1      1921 1.00011E-04-2.96513E-05-3.01347E-05-2.88695E-06-1.07138E-18 1.01997E-18
 -1      1922 9.92482E-05-2.94471E-05-2.99095E-05-2.59617E-06-3.57931E-19 1.56206E-18
 -1      1923 9.94870E-05-2.92850E-05-3.00954E-05-3.90596E-06-5.09582E-19 5.32589E-19
 -1      1924 9.87752E-05-2.93356E-05-2.97425E-05-2.25549E-06-8.86170E-19 1.02732E-18
 -1      1925 9.81755E-05-2.91818E-05-2.95639E-05-2.01132E-06-4.80522E-19 7.03355E-19
 -1      1926 9.84379E-05-2.90508E-05-2.97451E-05-3.08563E-06-1.00588E-18 9.53663E-19
 -1      1927 9.77999E-05-2.90976E-05-2.94293E-05-1.72833E-06-2.18759E-19 1.11147E-20
 -1      1928 9.73377E-05-2.89830E-05-2.92905E-05-1.52947E-06 1.03828E-18 2.75416E-19
 -1      1929 9.76008E-05-2.88840E-05-2.94569E-05-2.38955E-06-4.27211E-19 1.41819E-18
 -1      1930 9.70442E-05-2.89197E-05-2.91844E-05-1.30010E-06 2.22817E-18-7.00596E-19
 -1      1931 9.66945E-05-2.88353E-05-2.90787E-05-1.14128E-06 1.88766E-18-9.23742E-20
 -1      1932 9.69427E-05-2.87641E-05-2.92252E-05-1.81674E-06 7.66502E-19 1.11091E-19
 -1      1933 9.64688E-05-2.87878E-05-2.89968E-05-9.58200E-07 1.97560E-18 6.98984E-19
 -1      1934 9.62097E-05-2.87266E-05-2.89180E-05-8.32578E-07 2.40660E-18 2.56922E-18
 -1      1935 9.64332E-05-2.86773E-05-2.90431E-05-1.35488E-06 2.46788E-18-5.00967E-19
 -1      1936 9.60390E-05-2.86910E-05-2.88561E-05-6.87354E-07 1.03408E-18 2.45214E-18
 -1      1937 9.58521E-05-2.86474E-05-2.87991E-05-5.87744E-07 1.33392E-19 1.73579E-18
 -1      1938 9.60451E-05-2.86140E-05-2.89030E-05-9.86773E-07 1.74647E-18 1.09000E-18
 -1      1939 9.57254E-05-2.86207E-05-2.87536E-05-4.72057E-07-6.08349E-19 1.11834E-18
 -1      1940 9.55959E-05-2.85906E-05-2.87140E-05-3.91740E-07-1.00020E-18 3.10384E-19
 -1      1941 9.57545E-05-2.85671E-05-2.87978E-05-6.94068E-07-4.49339E-19 9.39132E-19
 -1      1942 9.55032E-05-2.85708E-05-2.86814E-05-2.97899E-07-4.65015E-19 6.48919E-19
 -1      1943 9.54199E-05-2.85522E-05-2.86554E-05-2.31768E-07 1.18236E-19 6.23022E-19
 -1      1944 9.55407E-05-2.85314E-05-2.87206E-05-4.59705E-07-7.04957E-19 7.46034E-19
 -1      1945 9.53598E-05-2.85417E-05-2.86335E-05-1.59269E-07 1.10998E-18 3.96374E-19
 -1      1946 9.53117E-05-2.85350E-05-2.86167E-05-1.07614E-07 1.02394E-18 8.68138E-19
 -1      1947 9.53017E-05-2.85133E-05-2.86252E-05-1.32178E-07 2.19583E-21 7.35874E-19
 -1      1948 9.53938E-05-2.85126E-05-2.86660E-05-2.74267E-07 2.77245E-19 1.66107E-18
 -1      1949 9.31618E-05-2.73379E-05-2.81817E-05 1.52937E-06 1.07897E-18 1.42503E-18
 -1      1950 9.43298E-05-2.74374E-05-2.86095E-05 2.60910E-06 1.09926E-18 1.81912E-18
 -1      1951 9.51765E-05-2.70215E-05-2.92151E-05 3.96948E-06 1.31474E-18 1.18194E-18
 -1      1952 9.21806E-05-2.73392E-05-2.77636E-05 2.37667E-07 7.29950E-19 8.69049E-19
 -1      1953 9.26375E-05-2.73627E-05-2.79240E-05 8.01466E-07 7.99917E-19 1.19635E-18
 -1      1954 9.36288E-05-2.73509E-05-2.84123E-05 1.46666E-06 1.05142E-18 7.89183E-19
 -1      1955 9.19071E-05-2.73996E-05-2.76291E-05-4.69100E-07 3.82730E-19 6.45188E-19
 -1      1956 9.19679E-05-2.73594E-05-2.76587E-05-1.52433E-07 5.45941E-19 7.98441E-19
 -1      1957 9.28782E-05-2.74799E-05-2.80387E-05 9.91192E-08 7.32157E-19 4.04521E-19
 -1      1958 9.20766E-05-2.75244E-05-2.76533E-05-8.70690E-07 2.55420E-19 1.68963E-19
 -1      1959 9.19104E-05-2.74423E-05-2.76123E-05-6.83240E-07 2.96462E-19 5.11042E-19
 -1      1960 9.26786E-05-2.75946E-05-2.79044E-05-6.74290E-07 4.29769E-19 2.08549E-20
 -1      1961 9.25262E-05-2.76963E-05-2.77747E-05-1.11182E-06 4.16632E-19 4.84198E-20
 -1      1962 9.22241E-05-2.75881E-05-2.76915E-05-9.92929E-07 1.61648E-19 1.67583E-19
 -1      1963 9.28423E-05-2.77325E-05-2.79139E-05-1.12976E-06 2.99774E-19-2.03187E-19
 -1      1964 9.31627E-05-2.79018E-05-2.79607E-05-1.27561E-06 4.01169E-19 1.27612E-19
 -1      1965 9.27726E-05-2.77763E-05-2.78496E-05-1.18986E-06 4.13197E-19 1.72749E-19
 -1      1966 9.32483E-05-2.78957E-05-2.80162E-05-1.41830E-06 3.97195E-19-2.36519E-19
 -1      1967 9.39384E-05-2.81341E-05-2.81941E-05-1.41415E-06 1.82909E-19 1.85872E-19
 -1      1968 9.34828E-05-2.79949E-05-2.80620E-05-1.33884E-06 2.52513E-19 2.34545E-19
 -1      1969 9.38250E-05-2.80808E-05-2.81827E-05-1.62997E-06 2.44733E-19 1.95262E-19
 -1      1970 9.48358E-05-2.83932E-05-2.84678E-05-1.56134E-06-3.13998E-19 4.72166E-19
 -1      1971 9.43209E-05-2.82398E-05-2.83169E-05-1.48130E-06-1.15068E-19 3.49638E-19
 -1      1972 9.45358E-05-2.82873E-05-2.83982E-05-1.82203E-06 2.32603E-20 4.37881E-19
 -1      1973 9.58566E-05-2.86840E-05-2.87805E-05-1.73794E-06-2.19165E-19 8.21426E-19
 -1      1974 9.52788E-05-2.85132E-05-2.86104E-05-1.64355E-06-3.62222E-20 6.24913E-19
 -1      1975 9.53679E-05-2.85186E-05-2.86554E-05-2.03098E-06-1.36240E-19 7.28150E-19
 -1      1976 9.70133E-05-2.90149E-05-2.91345E-05-1.95262E-06 5.21463E-20 3.07825E-19
 -1      1977 9.63638E-05-2.88219E-05-2.89430E-05-1.83956E-06-1.24681E-19 4.27717E-19
 -1      1978 9.63236E-05-2.87820E-05-2.89522E-05-2.27705E-06 1.65961E-20 2.89664E-19
 -1      1979 9.83213E-05-2.93963E-05-2.95320E-05-2.20033E-06 4.33136E-19-6.18524E-20
 -1      1980 9.75908E-05-2.91757E-05-2.93172E-05-2.07057E-06 1.75066E-19-7.04096E-20
 -1      1981 9.74131E-05-2.90883E-05-2.92881E-05-2.56441E-06 3.91720E-19-2.43673E-19
 -1      1982 9.97888E-05-2.98388E-05-2.99725E-05-2.45812E-06 5.97688E-19-5.18775E-20
 -1      1983 9.89734E-05-2.95860E-05-2.97343E-05-2.32207E-06 3.70129E-19-9.01850E-20
 -1      1984 9.86480E-05-2.94511E-05-2.96623E-05-2.87805E-06 5.33696E-19-5.45306E-19
 -1      1985 1.01406E-04-3.03507E-05-3.04489E-05-2.67886E-06 2.97960E-19 2.74273E-19
 -1      1986 1.00514E-04-3.00636E-05-3.01910E-05-2.55869E-06 5.61604E-19 2.65586E-19
 -1      1987 1.00033E-04-2.98855E-05-3.00698E-05-3.17797E-06 5.14199E-19-5.88440E-20
 -1      1988 1.03130E-04-3.09332E-05-3.09427E-05-2.78397E-06 4.43132E-19-2.34433E-19
 -1      1989 1.02192E-04-3.06156E-05-3.06757E-05-2.71749E-06 2.31902E-19 1.56867E-20
 -1      1990 1.01554E-04-3.04059E-05-3.04987E-05-3.39145E-06 4.14553E-19-1.34947E-19
 -1      1991 1.04869E-04-3.15738E-05-3.14199E-05-2.65849E-06 1.12583E-18-8.80229E-19
 -1      1992 1.03946E-04-3.12395E-05-3.11637E-05-2.70204E-06 7.13363E-19-6.35510E-19
 -1      1993 1.03171E-04-3.10215E-05-3.09269E-05-3.40583E-06 1.20002E-18-1.70065E-19
 -1      1994 1.06464E-04-3.22348E-05-3.18281E-05-2.15586E-06-5.83692E-20-5.42523E-19
 -1      1995 1.05659E-04-3.19135E-05-3.16137E-05-2.38242E-06 6.51150E-19-6.70900E-19
 -1      1996 1.04799E-04-3.17253E-05-3.13199E-05-3.06763E-06 7.60295E-19-4.07802E-19
 -1      1997 1.07678E-04-3.28367E-05-3.20978E-05-1.12564E-06-1.11878E-18-7.22408E-19
 -1      1998 1.07137E-04-3.25810E-05-3.19668E-05-1.61145E-06-6.22874E-19-6.42610E-19
 -1      1999 1.06290E-04-3.24768E-05-3.16316E-05-2.19932E-06-5.37158E-19-6.74463E-19
 -1      2000 1.08204E-04-3.32409E-05-3.21540E-05 5.18578E-07-1.22531E-18-3.62214E-19
 -1      2001 1.08106E-04-3.31309E-05-3.21519E-05-2.72220E-07-9.65909E-19-4.24443E-19
 -1      2002 1.07424E-04-3.31727E-05-3.18108E-05-6.51083E-07-8.34136E-19-2.53537E-19
 -1      2003 1.07717E-04-3.32450E-05-3.19394E-05 2.68157E-06-1.28670E-19-1.06174E-19
 -1      2004 1.08230E-04-3.33811E-05-3.21012E-05 1.62994E-06-1.18708E-18-7.40194E-19
 -1      2005 1.07906E-04-3.36196E-05-3.18149E-05 1.59548E-06-9.75464E-19-6.49165E-19
 -1      2006 1.05985E-04-3.26282E-05-3.14487E-05 4.94952E-06 1.18599E-18-3.83911E-19
 -1      2007 1.07192E-04-3.30970E-05-3.17776E-05 3.83888E-06 9.27673E-19 5.28013E-19
 -1      2008 1.07418E-04-3.35369E-05-3.16303E-05 4.27559E-06 5.51902E-19 5.04828E-19
 -1      2009 1.03062E-04-3.12815E-05-3.07572E-05 6.54492E-06 1.85849E-19-3.83653E-19
 -1      2010 1.04862E-04-3.20868E-05-3.12059E-05 5.75487E-06 6.38914E-19-5.07962E-19
 -1      2011 1.05752E-04-3.26554E-05-3.12909E-05 6.71358E-06 9.63629E-19 3.21234E-19
 -1      2012 9.95004E-05-2.94114E-05-3.00240E-05 6.54498E-06-2.05741E-19-2.49425E-19
 -1      2013 1.01530E-04-3.03919E-05-3.04913E-05 6.51713E-06-1.92884E-19-5.85538E-19
 -1      2014 1.03043E-04-3.09369E-05-3.08797E-05 7.88188E-06 1.04308E-19 6.75853E-19
 -1      2015 9.63783E-05-2.76429E-05-2.94503E-05 4.43667E-06-5.89356E-19 4.88460E-19
 -1      2016 9.80536E-05-2.84671E-05-2.98063E-05 5.39926E-06-5.71383E-19-4.97069E-19
 -1      2017 9.99889E-05-2.88188E-05-3.05064E-05 6.82900E-06-4.71950E-19 4.48014E-19
 -1      2018 9.49163E-05-2.67779E-05-2.92104E-05 6.60111E-07 9.25734E-19-2.72440E-20
 -1      2019 9.56421E-05-2.70881E-05-2.93439E-05 2.38507E-06 3.84526E-19 8.04814E-20
 -1      2020 9.77302E-05-2.71668E-05-3.02720E-05 3.39376E-06 2.96945E-19 1.63289E-19
 -1      2021 9.57941E-05-2.72877E-05-2.93781E-05-3.38318E-06 1.78262E-18-2.87839E-19
 -1      2022 9.52767E-05-2.69297E-05-2.92461E-05-1.55711E-06 1.79677E-18 2.92686E-19
 -1      2023 9.73002E-05-2.68252E-05-3.02399E-05-1.36979E-06 1.84921E-18-2.70812E-19
 -1      2024 9.86475E-05-2.89069E-05-2.98990E-05-6.12439E-06 4.37311E-19-1.44976E-18
 -1      2025 9.70803E-05-2.80552E-05-2.95447E-05-4.89168E-06 1.18690E-18-1.04048E-18
 -1      2026 9.89105E-05-2.79859E-05-3.04140E-05-5.59284E-06 1.55033E-18-1.27419E-19
 -1      2027 1.02320E-04-3.08596E-05-3.06184E-05-6.77480E-06 4.82020E-19-2.27070E-18
 -1      2028 1.00269E-04-2.98799E-05-3.01507E-05-6.45950E-06 1.81371E-19-1.90862E-18
 -1      2029 1.01797E-04-3.00321E-05-3.07503E-05-7.74918E-06 7.71508E-19-7.97217E-19
 -1      2030 1.05586E-04-3.24145E-05-3.13378E-05-5.59513E-06-8.25725E-19-1.23048E-18
 -1      2031 1.03675E-04-3.16279E-05-3.08858E-05-6.06690E-06-2.31197E-19-1.78537E-18
 -1      2032 1.04774E-04-3.20217E-05-3.11633E-05-7.47761E-06-2.11437E-19-5.23129E-19
 -1      2033 1.07700E-04-3.32397E-05-3.18877E-05-3.45065E-06-1.21972E-18-1.47249E-18
 -1      2034 1.06353E-04-3.27914E-05-3.15526E-05-4.33571E-06-8.20696E-19-2.06838E-18
 -1      2035 1.06929E-04-3.32950E-05-3.15449E-05-5.47426E-06-6.07561E-19-7.17543E-19
 -1      2036 1.08498E-04-3.33792E-05-3.21753E-05-1.20730E-06 1.53005E-19-1.31514E-18
 -1      2037 1.07857E-04-3.32560E-05-3.20047E-05-2.14117E-06-6.91186E-19-1.63261E-18
 -1      2038 1.07913E-04-3.37025E-05-3.18004E-05-2.80995E-06-4.08482E-19-1.50099E-18
 -1      2039 1.08188E-04-3.30512E-05-3.21916E-05 6.00391E-07-6.77140E-19-4.83259E-19
 -1      2040 1.08185E-04-3.31636E-05-3.21822E-05-1.58736E-07 1.45643E-19-8.99855E-19
 -1      2041 1.07828E-04-3.34482E-05-3.18785E-05-3.42810E-07-2.76960E-19-9.68150E-19
 -1      2042 1.07121E-04-3.24810E-05-3.19858E-05 1.78956E-06 8.97921E-20-3.61772E-19
 -1      2043 1.07584E-04-3.27300E-05-3.21027E-05 1.28329E-06 4.79467E-20-1.81249E-19
 -1      2044 1.06972E-04-3.28317E-05-3.17778E-05 1.49025E-06-2.56578E-19-3.35822E-19
 -1      2045 1.05634E-04-3.18315E-05-3.16314E-05 2.40402E-06 1.97602E-18-6.84393E-19
 -1      2046 1.06375E-04-3.21393E-05-3.18290E-05 2.13499E-06 8.22631E-19-3.72304E-19
 -1      2047 1.05662E-04-3.20933E-05-3.15328E-05 2.60228E-06 1.08762E-18-1.91497E-19
 -1      2048 1.03992E-04-3.11993E-05-3.12009E-05 2.58347E-06 1.00898E-18-1.85370E-18
 -1      2049 1.04853E-04-3.15143E-05-3.14370E-05 2.49579E-06 1.52394E-18-9.89455E-19
 -1      2050 1.04155E-04-3.13752E-05-3.11940E-05 3.10052E-06 1.79849E-18-5.41191E-19
 -1      2051 1.02377E-04-3.06320E-05-3.07521E-05 2.47976E-06-1.14528E-18-3.26373E-18
 -1      2052 1.03245E-04-3.09248E-05-3.09947E-05 2.51161E-06 1.51585E-19-2.51980E-18
 -1      2053 1.02631E-04-3.07430E-05-3.08110E-05 3.15836E-06 8.94041E-19-1.46262E-18
 -1      2054 1.00896E-04-3.01476E-05-3.03244E-05 2.21860E-06 1.98893E-19-2.50586E-18
 -1      2055 1.01702E-04-3.04039E-05-3.05525E-05 2.31825E-06-6.25907E-19-2.82021E-18
 -1      2056 1.01202E-04-3.02161E-05-3.04240E-05 2.94260E-06-9.43152E-19-2.04174E-18
 -1      2057 9.96035E-05-2.97480E-05-2.99409E-05 1.88981E-06-1.17702E-19-1.69439E-18
 -1      2058 1.00310E-04-2.99632E-05-3.01430E-05 2.01992E-06-4.83059E-19-2.52133E-18
 -1      2059 9.99291E-05-2.97912E-05-3.00604E-05 2.58422E-06-4.43097E-19-2.30563E-18
 -1      2060 9.85171E-05-2.94270E-05-2.96120E-05 1.55081E-06-1.10252E-18-1.11628E-19
 -1      2061 9.91116E-05-2.96019E-05-2.97834E-05 1.68723E-06-5.16963E-20-2.68493E-19
 -1      2062 9.88382E-05-2.94562E-05-2.97365E-05 2.17381E-06-1.19150E-18-8.47298E-20
 -1      2063 9.76312E-05-2.91746E-05-2.93398E-05 1.23430E-06 1.94619E-19-7.27344E-19
 -1      2064 9.81151E-05-2.93131E-05-2.94801E-05 1.36305E-06-4.59713E-19-3.79494E-19
 -1      2065 9.79317E-05-2.91967E-05-2.94593E-05 1.76767E-06-3.61700E-19 7.24056E-19
 -1      2066 9.69277E-05-2.89802E-05-2.91209E-05 9.55819E-07-4.65851E-19-3.27978E-19
 -1      2067 9.73105E-05-2.90872E-05-2.92326E-05 1.07007E-06-5.49382E-19-1.59839E-18
 -1      2068 9.71980E-05-2.89986E-05-2.92298E-05 1.39662E-06-1.52609E-19 2.69879E-19
 -1      2069 9.63829E-05-2.88332E-05-2.89500E-05 7.19804E-07-5.22133E-19 6.24977E-19
 -1      2070 9.66776E-05-2.89140E-05-2.90363E-05 8.17444E-07-3.24002E-19 3.86980E-19
 -1      2071 9.66182E-05-2.88494E-05-2.90452E-05 1.07406E-06-3.61855E-19-8.28098E-20
 -1      2072 9.59723E-05-2.87243E-05-2.88203E-05 5.23784E-07-8.39476E-19-6.55630E-19
 -1      2073 9.61925E-05-2.87838E-05-2.88849E-05 6.05706E-07-1.62141E-19 3.94266E-19
 -1      2074 9.61707E-05-2.87384E-05-2.89009E-05 8.02169E-07-2.91001E-19 7.95787E-19
 -1      2075 9.56730E-05-2.86456E-05-2.87255E-05 3.61347E-07 6.35178E-19-6.31445E-19
 -1      2076 9.58312E-05-2.86879E-05-2.87720E-05 4.30272E-07-5.51167E-19-3.00250E-19
 -1      2077 9.58338E-05-2.86568E-05-2.87914E-05 5.76306E-07-6.13842E-19 7.53049E-19
 -1      2078 9.54654E-05-2.85913E-05-2.86598E-05 2.25143E-07 2.36190E-18-3.41710E-19
 -1      2079 9.55722E-05-2.86195E-05-2.86911E-05 2.84271E-07 1.73726E-18-8.14658E-19
 -1      2080 9.55881E-05-2.85980E-05-2.87113E-05 3.88641E-07 1.88556E-18 2.07276E-19
 -1      2081 9.53334E-05-2.85579E-05-2.86171E-05 1.10718E-07 6.88705E-19 6.36921E-19
 -1      2082 9.53969E-05-2.85739E-05-2.86364E-05 1.61273E-07 1.78175E-18 5.59206E-19
 -1      2083 9.54160E-05-2.85573E-05-2.86548E-05 2.31494E-07 1.24706E-18 3.07942E-18
 -1      2084 9.52717E-05-2.85482E-05-2.85944E-05 4.14472E-08-9.87982E-19 9.05358E-19
 -1      2085 9.53031E-05-2.85497E-05-2.86073E-05 8.00529E-08 3.36782E-19 1.51422E-18
 -1      2086 9.53183E-05-2.85346E-05-2.86223E-05 1.25445E-07-1.52092E-19 3.87444E-18
 -1      2087 9.52713E-05-2.85333E-05-2.86018E-05 6.06684E-08-6.93573E-19 3.52232E-18
 -1      2088 9.51307E-05-2.81664E-05-2.86998E-05 2.96472E-07 1.94559E-19 1.59171E-18
 -1      2089 9.51680E-05-2.82455E-05-2.86796E-05 2.78900E-07-9.07878E-19 2.77005E-18
 -1      2090 9.52056E-05-2.83262E-05-2.86627E-05 2.45466E-07-7.22791E-19 6.51857E-19
 -1      2091 9.52351E-05-2.83925E-05-2.86453E-05 2.06666E-07-7.19081E-19 8.98511E-19
 -1      2092 9.51957E-05-2.82574E-05-2.86882E-05 3.45762E-07-3.75218E-19 1.94533E-18
 -1      2093 9.52522E-05-2.84477E-05-2.86301E-05 1.57436E-07-4.78473E-19 1.74697E-18
 -1      2094 9.52672E-05-2.84938E-05-2.86160E-05 1.12013E-07-4.57182E-19 3.73675E-18
 -1      2095 9.52892E-05-2.84919E-05-2.86267E-05 1.44338E-07-3.02922E-19 3.34745E-18
 -1      2096 9.52581E-05-2.83945E-05-2.86568E-05 2.51281E-07-1.02786E-18 1.66400E-18
 -1      2097 9.50545E-05-2.80058E-05-2.87367E-05 2.96481E-07-9.15973E-19-3.46362E-18
 -1      2098 9.50919E-05-2.80851E-05-2.87165E-05 3.01956E-07-5.12640E-19-1.75175E-18
 -1      2099 9.51048E-05-2.80906E-05-2.87200E-05 3.87613E-07-1.08470E-18-4.89182E-19
 -1      2100 9.49862E-05-2.78618E-05-2.87697E-05 2.45950E-07-8.65378E-19-8.41466E-19
 -1      2101 9.50186E-05-2.79311E-05-2.87520E-05 2.73105E-07-5.00039E-19-5.99275E-19
 -1      2102 9.50148E-05-2.79292E-05-2.87498E-05 3.66204E-07-4.35212E-19-1.62880E-18
 -1      2103 9.49371E-05-2.77582E-05-2.87934E-05 1.53871E-07-1.10963E-18-2.34683E-19
 -1      2104 9.49590E-05-2.78050E-05-2.87814E-05 1.97619E-07-8.29313E-19-1.01406E-20
 -1      2105 9.49384E-05-2.77930E-05-2.87747E-05 2.84254E-07-5.47309E-19-8.17121E-19
 -1      2106 9.49144E-05-2.77105E-05-2.88040E-05 3.59133E-08-1.37532E-18-2.28547E-18
 -1      2107 9.49222E-05-2.77271E-05-2.87998E-05 8.87633E-08-1.05296E-18-1.08632E-18
 -1      2108 9.48873E-05-2.77019E-05-2.87914E-05 1.55501E-07-2.06388E-18-9.52665E-19
 -1      2109 9.49213E-05-2.77257E-05-2.88001E-05-8.85136E-08-1.50383E-18-1.58513E-18
 -1      2110 9.49138E-05-2.77094E-05-2.88042E-05-3.53848E-08-7.61086E-19-1.78742E-18
 -1      2111 9.48687E-05-2.76685E-05-2.87975E-05 9.16293E-10-2.00843E-18-1.71374E-18
 -1      2112 9.49572E-05-2.78019E-05-2.87821E-05-1.98787E-07-6.56590E-19 1.27089E-18
 -1      2113 9.49355E-05-2.77551E-05-2.87940E-05-1.54425E-07-1.40215E-18 4.70332E-19
 -1      2114 9.48852E-05-2.76978E-05-2.87922E-05-1.54629E-07-6.83773E-19-7.55310E-19
 -1      2115 9.50159E-05-2.79252E-05-2.87534E-05-2.74951E-07-7.27114E-19 3.92429E-19
 -1      2116 9.49837E-05-2.78567E-05-2.87708E-05-2.47544E-07-8.89113E-19 8.72862E-19
 -1      2117 9.49348E-05-2.77852E-05-2.87764E-05-2.84887E-07-5.10926E-19 3.01802E-19
 -1      2118 9.50910E-05-2.80815E-05-2.87176E-05-3.05214E-07 6.34610E-19 4.77180E-19
 -1      2119 9.50523E-05-2.80001E-05-2.87383E-05-2.99538E-07-2.47181E-19 2.22190E-18
 -1      2120 9.50108E-05-2.79194E-05-2.87522E-05-3.68965E-07-1.65221E-19 1.47676E-18
 -1      2121 9.51696E-05-2.82456E-05-2.86802E-05-2.80954E-07 1.96811E-18 8.50353E-19
 -1      2122 9.51314E-05-2.81655E-05-2.87006E-05-2.99482E-07 2.07901E-18-1.49228E-18
 -1      2123 9.51034E-05-2.80839E-05-2.87223E-05-3.91717E-07 1.77233E-18 5.96148E-19
 -1      2124 9.52376E-05-2.83978E-05-2.86454E-05-2.05303E-07 5.80201E-20-2.97167E-19
 -1      2125 9.52082E-05-2.83281E-05-2.86630E-05-2.45725E-07 2.29359E-19 6.96795E-19
 -1      2126 9.51973E-05-2.82545E-05-2.86899E-05-3.47468E-07 1.83002E-18-1.84384E-21
 -1      2127 6.04261E-05-3.91355E-05-9.36966E-06 4.21317E-05 1.82197E-18 3.54875E-18
 -1      2128 4.39440E-05-4.01612E-05-2.77803E-06 3.39578E-05 1.22650E-18 2.91051E-18
 -1      2129 1.23144E-05-2.76556E-05 5.87052E-06 6.99892E-06 6.96261E-19 3.47538E-18
 -1      2130 1.28763E-05-3.02336E-05 6.45847E-06-5.05374E-06-2.36110E-19 2.93285E-18
 -1      2131 3.03252E-05-3.40121E-05 8.21796E-07 2.96717E-05 1.25022E-18 1.57379E-18
 -1      2132 2.10441E-05-3.10082E-05 3.68465E-06 2.16158E-05 4.59515E-19 2.64910E-18
 -1      2133 4.57041E-05-3.42120E-05-5.06835E-06 3.80498E-05-3.12343E-19 2.19191E-18
 -1      2134 9.95212E-05-4.17101E-05-2.46079E-05 4.28587E-05 2.37889E-18 2.92565E-18
 -1      2135 8.07500E-05-4.42424E-05-1.64587E-05 3.91369E-05 2.05533E-18 2.50341E-18
 -1      2136 1.35064E-04-3.90098E-05-4.04374E-05 3.70269E-05 2.75794E-18 2.26962E-18
 -1      2137 1.14895E-04-4.09733E-05-3.21758E-05 3.56720E-05 2.59531E-18 1.70677E-18
 -1      2138 8.73146E-05-8.70859E-06-3.37768E-05-1.04299E-05-1.27936E-18-2.12198E-18
 -1      2139 8.79976E-05-9.24296E-06-3.38388E-05-1.20155E-05-1.47161E-18-1.81434E-18
 -1      2140 9.04925E-05-1.30601E-05-3.32513E-05-1.18163E-05-1.52598E-18-1.51542E-18
 -1      2141 8.87116E-05-1.09966E-05-3.33295E-05-9.30481E-06-1.29864E-18-2.08264E-18
 -1      2142 1.76156E-04-2.71475E-05-6.28315E-05 9.14214E-06 2.47884E-18 1.30782E-18
 -1      2143 1.68277E-04-2.89348E-05-5.88621E-05 1.73123E-05 2.30308E-18 1.40353E-18
 -1      2144 1.81992E-04-2.42635E-05-6.62689E-05-1.77675E-06 3.65198E-18 1.08463E-18
 -1      2145 1.76447E-04-2.22942E-05-6.51510E-05 4.92977E-06 3.32545E-18 1.55346E-18
 -1      2146 1.71309E-04-2.43846E-05-6.24201E-05-1.02976E-05 4.40796E-18 1.95665E-19
 -1      2147 1.82036E-04-2.55253E-05-6.55871E-05-4.77714E-06 3.96327E-18 8.97431E-19
 -1      2148 1.59435E-04-1.33429E-05-6.14241E-05 2.25617E-07 4.18180E-18 2.47651E-18
 -1      2149 1.52887E-04-3.33630E-05-5.12214E-05-1.42411E-05 4.77769E-18-1.21719E-18
 -1      2150 1.67069E-04-3.08399E-05-5.74341E-05-1.21147E-05 4.91957E-18-3.10438E-19
 -1      2151 1.27017E-04-4.22693E-05-3.65699E-05-3.15247E-05 4.41516E-18-3.70704E-18
 -1      2152 1.45367E-04-4.19961E-05-4.41005E-05-2.60396E-05 4.11256E-18-2.08794E-18
 -1      2153 9.83161E-05-4.77398E-05-2.21810E-05-3.73095E-05 3.21364E-18-3.53890E-18
 -1      2154 1.15534E-04-4.45094E-05-3.01885E-05-3.96383E-05 4.03188E-18-3.83028E-18
 -1      2155 1.30538E-04-5.44208E-05-3.23881E-05-2.53163E-05 2.00980E-18-1.54033E-18
 -1      2156 5.37463E-05-4.19504E-05-6.38366E-06-3.59060E-05 2.75370E-18-5.11233E-18
 -1      2157 7.29812E-05-4.12122E-05-1.40304E-05-4.32807E-05 3.24075E-18-4.97304E-18
 -1      2158 2.74681E-05-3.77422E-05 2.99498E-06-2.59391E-05 6.97108E-19-6.33305E-18
 -1      2159 3.84172E-05-3.67861E-05-1.57626E-06-3.35149E-05 2.38186E-18-5.97095E-18
 -1      2160 5.54125E-05-4.02266E-05-6.84693E-06-4.10010E-05 2.01594E-19-5.45976E-18
 -1      2161 1.27611E-05-3.18717E-05 7.03944E-06-6.92354E-06-6.97214E-19-5.74712E-18
 -1      2162 1.69522E-05-3.25061E-05 5.56637E-06-1.71019E-05 6.09864E-19-6.90628E-18
 -1      2163 1.72854E-05-3.44326E-05 6.04637E-06 1.58945E-05-1.80333E-18-2.13622E-18
 -1      2164 1.24677E-05-3.35903E-05 7.67911E-06 6.10699E-06-4.79315E-19-4.13183E-18
 -1      2165 4.07627E-05-3.76416E-05-2.20693E-06 3.30225E-05-2.83417E-18-3.11369E-18
 -1      2166 2.92968E-05-3.85401E-05 2.53126E-06 2.51391E-05-2.32934E-18-2.38757E-18
 -1      2167 7.61539E-05-4.20741E-05-1.49411E-05 4.14221E-05-3.05271E-18-3.17722E-18
 -1      2168 5.86509E-05-4.36946E-05-7.76657E-06 3.52518E-05-2.63427E-18-3.23794E-18
 -1      2169 1.15613E-04-4.67795E-05-2.95646E-05 3.83464E-05-2.78504E-18-4.15808E-18
 -1      2170 9.34597E-05-4.61330E-05-2.12136E-05 3.69656E-05-3.00358E-18-3.51434E-18
 -1      2171 9.77510E-05-5.30277E-05-1.91260E-05 3.91037E-05-9.04208E-19-2.09450E-18
 -1      2172 1.52662E-04-4.24809E-05-4.64194E-05 2.60926E-05-3.02973E-18-4.12929E-18
 -1      2173 1.33960E-04-4.51078E-05-3.83345E-05 2.62742E-05-2.98516E-18-3.89254E-18
 -1      2174 1.72897E-04-3.36057E-05-5.86321E-05 1.30984E-05-4.03950E-18-3.05779E-18
 -1      2175 1.59387E-04-3.59615E-05-5.25958E-05 1.85481E-05-3.58028E-18-3.51773E-18
 -1      2176 1.86747E-04-2.76863E-05-6.65786E-05 4.08548E-06-3.82054E-18-3.42106E-18
 -1      2177 1.76203E-04-2.65245E-05-6.33500E-05 8.78657E-06-4.19662E-18-3.67358E-18
 -1      2178 1.75382E-04-2.21032E-05-6.51556E-05-3.82273E-06-3.70704E-18-2.07523E-18
 -1      2179 1.85651E-04-2.53338E-05-6.70237E-05 1.27007E-06-4.06830E-18-3.08008E-18
 -1      2180 1.62973E-04-1.50061E-05-6.20880E-05-3.46528E-07-4.59134E-18-2.11652E-18
 -1      2181 1.64162E-04-3.05187E-05-5.69802E-05-7.34078E-06-2.13918E-18-2.41828E-18
 -1      2182 1.72711E-04-2.72230E-05-6.16194E-05-3.91196E-06-2.54364E-18-2.51315E-18
 -1      2183 1.44909E-04-4.12103E-05-4.43711E-05-2.51884E-05-3.22000E-18-1.18119E-18
 -1      2184 1.60361E-04-4.01327E-05-5.12612E-05-1.70556E-05-2.73560E-18-2.58557E-18
 -1      2185 1.13608E-04-4.45070E-05-3.02785E-05-3.39992E-05-3.13402E-18 4.27328E-19
 -1      2186 1.34678E-04-4.36193E-05-3.85499E-05-3.48964E-05-3.36060E-18-4.02341E-19
 -1      2187 1.45177E-04-5.08455E-05-3.97887E-05-1.61797E-05-2.62210E-18-2.46571E-18
 -1      2188 7.64730E-05-4.51780E-05-1.45911E-05-3.70362E-05-1.83891E-18 1.70614E-18
 -1      2189 9.57102E-05-4.35957E-05-2.23738E-05-4.17490E-05-2.79140E-18 1.19389E-18
 -1      2190 4.23963E-05-4.11848E-05-1.93505E-06-3.12029E-05-9.19878E-19 4.67583E-18
 -1      2191 5.69047E-05-3.96259E-05-8.03712E-06-3.81909E-05-1.81307E-18 3.68364E-18
 -1      2192 1.85189E-05-3.43237E-05 5.56410E-06-1.65457E-05-3.23355E-19 3.30046E-18
 -1      2193 2.73276E-05-3.49779E-05 2.32095E-06-2.58847E-05-1.69661E-18 4.39843E-18
 -1      2194 1.62744E-04-3.50197E-05-5.36881E-05 2.32230E-05 2.22595E-18 1.06049E-18
 -1      2195 1.45746E-04-3.58735E-05-4.69740E-05 2.65793E-05 2.19307E-18 1.83256E-18
 -1      2196 1.44514E-04-4.47929E-05-4.21247E-05 1.84286E-05 1.28241E-18 1.31290E-19
 -1      2197 9.70924E-05-2.42856E-05-3.12761E-05-9.93554E-06-1.47950E-18 1.36212E-18
 -1      2198 1.56614E-04-3.09391E-05-5.29020E-05 4.52395E-06 1.90032E-18 2.80791E-19
 -1      2199 9.62959E-05-2.30775E-05-3.14429E-05-1.02935E-05-1.56561E-18 3.88259E-19
 -1      2200 2.16091E-05-2.30007E-05 4.77137E-07 1.67023E-05 9.27501E-20 3.31529E-18
 -1      2201 8.12880E-05-4.76112E-05-1.45839E-05 4.22413E-05 6.53062E-19 2.39199E-18
 -1      2202 9.52600E-05-2.84320E-05-2.86398E-05-1.88726E-07-3.05904E-19 4.09381E-19
 -1      2203 1.93921E-05-2.38506E-05 1.53870E-06-1.34789E-05-7.69741E-20 3.98614E-18
 -1      2204 1.18732E-04-5.14273E-05-2.87113E-05 3.36755E-05 1.15133E-18 8.33480E-19
 -1      2205 4.24348E-05-3.60179E-05-3.29959E-06-3.45850E-05-1.29173E-19 3.41354E-18
 -1      2206 1.18657E-04-5.53240E-05-2.70064E-05-3.25861E-05-1.96258E-18-4.77515E-19
 -1      2207 1.58842E-04-1.88511E-05-5.93319E-05 3.81635E-06-2.91760E-18-2.65672E-18
 -1      2208 1.62856E-04-2.64442E-05-5.74650E-05-8.41775E-07-3.18654E-18-2.30753E-18
 -1      2209 1.33012E-04-5.47509E-05-3.33046E-05 2.48227E-05-1.38913E-18-2.37762E-18
 -1      2210 6.08196E-05-4.27754E-05-8.09386E-06 4.02248E-05-4.52316E-19-2.63681E-18
 -1      2211 2.81166E-05-3.07339E-05 4.97605E-07 2.61621E-05 2.92226E-20-2.68636E-18
 -1      2212 2.71713E-05-2.90730E-05 3.06464E-07-2.66185E-05-1.20067E-19-6.77986E-18
 -1      2213 9.62169E-05-5.13519E-05-1.91010E-05-4.06328E-05 1.49713E-18-3.35859E-18
 -1      2214 1.55555E-04-2.29954E-05-5.62518E-05 1.72254E-06 4.93990E-18 1.38088E-18
 -1      2215 1.60561E-04-1.75769E-05-6.02261E-05 2.73297E-07 3.13233E-18 2.09768E-18
 -1      2216 1.48430E-04-4.18375E-05-4.52301E-05-8.47355E-06 3.90879E-18 3.58295E-19
 -1      2217 1.49817E-05-2.40320E-05 3.32435E-06-6.58772E-07 2.14299E-19-5.15038E-18
 -1      2218 1.54410E-04-4.30735E-05-4.71039E-05 6.22487E-06-2.47101E-18-1.92954E-18
 -1      2219 1.56077E-04-3.60901E-05-5.08387E-05-5.67714E-07-2.34692E-18-2.97351E-18
 -1      2220 7.97733E-05-4.87359E-05-1.35796E-05-4.15226E-05 8.08916E-20 1.61885E-18
 -1      2221 9.52002E-05-2.63481E-05-2.94937E-05 4.07780E-06 1.31199E-18 3.68651E-19
 -1      2222 9.61511E-05-2.58332E-05-3.00625E-05 5.89800E-06 1.36208E-18 5.58890E-19
 -1      2223 8.81543E-05-1.10635E-05-3.30786E-05-3.58511E-06-5.68054E-19-2.39529E-18
 -1      2224 8.83937E-05-1.13445E-05-3.30580E-05-4.71104E-06-7.19227E-19-2.42290E-18
 -1      2225 8.87537E-05-1.18475E-05-3.30056E-05-5.71298E-06-8.56461E-19-2.34520E-18
 -1      2226 8.91625E-05-1.23309E-05-3.29726E-05-6.87837E-06-1.05372E-18-2.21158E-18
 -1      2227 8.98993E-05-1.36893E-05-3.26597E-05-4.78611E-06-7.38254E-19-2.20707E-18
 -1      2228 8.77960E-05-1.05824E-05-3.31256E-05 6.05078E-07 2.44046E-19-2.18396E-18
 -1      2229 8.77919E-05-1.05776E-05-3.31259E-05-4.85066E-07-3.68591E-20-2.14264E-18
 -1      2230 8.79819E-05-1.08172E-05-3.31048E-05 2.70333E-06 5.89103E-19-2.37198E-18
 -1      2231 8.78642E-05-1.06787E-05-3.31156E-05 1.60341E-06 4.08657E-19-2.31117E-18
 -1      2232 8.90902E-05-1.25907E-05-3.27877E-05 1.02309E-06 3.05604E-19-2.09561E-18
 -1      2233 8.84260E-05-1.13857E-05-3.30545E-05 4.79625E-06 8.22115E-19-2.44423E-18
 -1      2234 8.81820E-05-1.10993E-05-3.30755E-05 3.68872E-06 6.71801E-19-2.47728E-18
 -1      2235 8.93649E-05-1.29629E-05-3.27446E-05 2.94558E-06 6.15354E-19-2.30838E-18
 -1      2236 8.92152E-05-1.23980E-05-3.29670E-05 6.95864E-06 1.21474E-18-2.03681E-18
 -1      2237 8.87940E-05-1.18994E-05-3.30009E-05 5.79710E-06 9.46184E-19-2.26138E-18
 -1      2238 8.99369E-05-1.37405E-05-3.26541E-05 4.86061E-06 8.62129E-19-2.21410E-18
 -1      2239 9.04851E-05-1.40373E-05-3.28271E-05 9.09764E-06 1.50793E-18-1.70398E-18
 -1      2240 8.98076E-05-1.32152E-05-3.28795E-05 7.92229E-06 1.30011E-18-1.86370E-18
 -1      2241 9.08865E-05-1.50375E-05-3.24994E-05 6.73298E-06 1.20077E-18-1.82997E-18
 -1      2242 9.24637E-05-1.66324E-05-3.25991E-05 1.09872E-05 1.78429E-18-1.08153E-18
 -1      2243 9.13987E-05-1.52852E-05-3.26808E-05 9.90465E-06 1.59066E-18-1.44503E-18
 -1      2244 9.23121E-05-1.70271E-05-3.22440E-05 8.37409E-06 1.45149E-18-1.44934E-18
 -1      2245 9.42754E-05-2.70882E-05-2.87761E-05 1.59744E-06 1.10085E-18 1.80362E-19
 -1      2246 9.48421E-05-2.68631E-05-2.90623E-05 2.59544E-06 1.27156E-18 3.69545E-19
 -1      2247 9.53535E-05-2.58109E-05-2.98128E-05 4.19997E-06 1.37100E-18-1.73344E-19
 -1      2248 9.59023E-05-2.50573E-05-3.03140E-05-6.05679E-06-1.29775E-18-1.27607E-19
 -1      2249 9.52658E-05-2.58133E-05-2.97805E-05-4.12998E-06-1.16377E-18-1.63559E-19
 -1      2250 1.48467E-04-2.72854E-05-5.23973E-05-3.53558E-06 1.85331E-18 1.80164E-18
 -1      2251 1.46270E-04-3.47814E-05-4.79608E-05-1.40842E-06 1.13545E-18 7.95999E-19
 -1      2252 9.51683E-05-2.64916E-05-2.93756E-05-2.75463E-06-1.06099E-18-1.15372E-19
 -1      2253 9.47337E-05-2.68615E-05-2.90859E-05-1.65899E-06-9.74836E-19-1.87552E-19
 -1      2254 9.53691E-05-2.52981E-05-3.00339E-05-4.09675E-06-1.16745E-18-4.94598E-19
 -1      2255 9.45629E-05-2.71836E-05-2.88383E-05-7.60528E-07-9.49936E-19-1.08169E-19
 -1      2256 9.43522E-05-2.73947E-05-2.86909E-05-1.07957E-07-8.83513E-19-2.02880E-19
 -1      2257 9.51079E-05-2.66222E-05-2.93649E-05-1.63595E-06-9.32656E-19-5.19742E-19
 -1      2258 9.42390E-05-2.75667E-05-2.85511E-05 4.69084E-07-8.55117E-19-1.21444E-19
 -1      2259 9.42071E-05-2.77093E-05-2.84931E-05 8.70481E-07-7.35421E-19-2.24631E-19
 -1      2260 9.48605E-05-2.73216E-05-2.89593E-05-3.04288E-08-8.74837E-19-4.74032E-19
 -1      2261 9.41706E-05-2.78092E-05-2.84278E-05 1.24811E-06-5.61362E-19-2.99523E-19
 -1      2262 9.42684E-05-2.79175E-05-2.84294E-05 1.50984E-06-3.34030E-19-2.95061E-19
 -1      2263 9.47403E-05-2.77171E-05-2.87362E-05 1.01529E-06-7.64200E-19-5.51595E-19
 -1      2264 9.43011E-05-2.79784E-05-2.84173E-05 1.77429E-06-3.34489E-19-3.53828E-19
 -1      2265 9.44937E-05-2.80673E-05-2.84609E-05 1.96654E-06-2.04464E-19-4.46398E-19
 -1      2266 9.47564E-05-2.79473E-05-2.86420E-05 1.72273E-06-5.12897E-19-4.40235E-19
 -1      2267 9.45833E-05-2.81045E-05-2.84880E-05 2.17853E-06-1.54960E-19-6.72389E-19
 -1      2268 9.48505E-05-2.81817E-05-2.85635E-05 2.34875E-06-2.57692E-19-8.70718E-19
 -1      2269 9.48909E-05-2.80781E-05-2.86415E-05 2.24809E-06-3.77301E-19-8.69628E-19
 -1      2270 9.49873E-05-2.82032E-05-2.86212E-05 2.55238E-06-4.81093E-19-9.11364E-19
 -1      2271 9.53206E-05-2.82750E-05-2.87236E-05 2.73464E-06-6.68592E-19-9.09335E-19
 -1      2272 9.51236E-05-2.81437E-05-2.87117E-05 2.70322E-06-4.06040E-19-1.11287E-18
 -1      2273 9.54990E-05-2.82862E-05-2.88064E-05 2.96280E-06-4.58148E-19-8.31428E-19
 -1      2274 9.58989E-05-2.83587E-05-2.89337E-05 3.18231E-06-3.18428E-19-6.46143E-19
 -1      2275 9.54409E-05-2.81645E-05-2.88378E-05 3.17029E-06-5.10368E-19-9.27834E-19
 -1      2276 9.61171E-05-2.83649E-05-2.90385E-05 3.45954E-06-1.64876E-19-3.55393E-19
 -1      2277 9.65907E-05-2.84463E-05-2.91907E-05 3.73431E-06 2.21002E-19-2.14844E-19
 -1      2278 9.58368E-05-2.81562E-05-2.90104E-05 3.71043E-06 5.43168E-21-5.16314E-19
 -1      2279 9.68511E-05-2.84544E-05-2.93152E-05 4.07759E-06 3.77812E-19 4.85548E-20
 -1      2280 9.74103E-05-2.85560E-05-2.94931E-05 4.41789E-06 3.42208E-19 2.06469E-19
 -1      2281 9.63129E-05-2.81360E-05-2.92228E-05 4.36758E-06 2.92222E-19 2.60156E-20
 -1      2282 9.77198E-05-2.85778E-05-2.96348E-05 4.83536E-06 2.16560E-19-1.23711E-19
 -1      2283 9.83802E-05-2.87168E-05-2.98385E-05 5.24062E-06 1.45814E-19-3.72569E-20
 -1      2284 9.68794E-05-2.81284E-05-2.94687E-05 5.16826E-06 1.80091E-19-5.28725E-20
 -1      2285 9.87526E-05-2.87727E-05-2.99934E-05 5.72792E-06-4.34145E-19-3.03189E-20
 -1      2286 9.95322E-05-2.89758E-05-3.02210E-05 6.18037E-06-5.00009E-19-2.22847E-19
 -1      2287 9.75578E-05-2.81740E-05-2.97403E-05 6.11689E-06-2.80955E-19 9.17419E-20
 -1      2288 9.99939E-05-2.91019E-05-3.03829E-05 6.71356E-06-4.58529E-19-6.07194E-19
 -1      2289 1.00913E-04-2.94111E-05-3.06286E-05 7.16774E-06-5.44784E-19-8.47327E-19
 -1      2290 9.83888E-05-2.83422E-05-3.00255E-05 7.18559E-06-5.89147E-19-2.67814E-19
 -1      2291 1.01513E-04-2.96678E-05-3.07879E-05 7.69172E-06-5.40679E-19-8.97689E-19
 -1      2292 1.02594E-04-3.01460E-05-3.10402E-05 8.05915E-06-8.31464E-19-5.40458E-19
 -1      2293 9.94470E-05-2.87503E-05-3.03071E-05 8.29682E-06-7.18859E-19-6.62662E-19
 -1      2294 1.03416E-04-3.06278E-05-3.11858E-05 8.47007E-06-6.81776E-19-3.55061E-19
 -1      2295 1.04682E-04-3.13591E-05-3.14276E-05 8.60137E-06-2.32038E-19-2.85165E-19
 -1      2296 1.00864E-04-2.95841E-05-3.05636E-05 9.29650E-06-5.38298E-19 5.44574E-20
 -1      2297 1.05862E-04-3.21932E-05-3.15514E-05 8.72260E-06-1.40340E-19-1.66900E-20
 -1      2298 1.07323E-04-3.32633E-05-3.17637E-05 8.39526E-06 4.98701E-19-7.26372E-20
 -1      2299 1.02857E-04-3.11078E-05-3.07767E-05 9.91548E-06-1.55919E-19 2.30897E-19
 -1      2300 1.09032E-04-3.45733E-05-3.18733E-05 7.95182E-06 8.51455E-19-2.53956E-19
 -1      2301 1.10648E-04-3.59965E-05-3.20466E-05 6.88691E-06 1.12505E-18-3.73826E-19
 -1      2302 1.05734E-04-3.36223E-05-3.09504E-05 9.72096E-06 4.84735E-19 6.68908E-20
 -1      2303 1.13016E-04-3.77843E-05-3.21883E-05 5.50555E-06 1.94702E-18-4.13886E-19
 -1      2304 1.14607E-04-3.93391E-05-3.23428E-05 3.45906E-06 1.99280E-18-4.33553E-19
 -1      2305 1.09813E-04-3.72822E-05-3.11507E-05 8.07847E-06 1.49216E-18-4.97878E-19
 -1      2306 1.17494E-04-4.12358E-05-3.26284E-05 7.80946E-07 1.68517E-18-2.29334E-19
 -1      2307 1.18613E-04-4.22266E-05-3.28361E-05-2.21274E-06 1.04762E-18 1.14821E-19
 -1      2308 1.15129E-04-4.16587E-05-3.15622E-05 4.21912E-06 2.05273E-18-3.80672E-19
 -1      2309 1.21265E-04-4.32041E-05-3.34524E-05-6.11871E-06 7.06141E-19 7.39559E-19
 -1      2310 1.21227E-04-4.24315E-05-3.38343E-05-9.33160E-06 1.33428E-19 1.32181E-18
 -1      2311 1.20843E-04-4.50418E-05-3.25326E-05-2.33945E-06 1.22924E-18 6.30315E-19
 -1      2312 1.22171E-04-4.09515E-05-3.49513E-05-1.31306E-05-3.93821E-19 1.19408E-18
 -1      2313 1.20510E-04-3.75268E-05-3.55717E-05-1.48068E-05-2.81559E-19 1.39550E-18
 -1      2314 1.24669E-04-4.41456E-05-3.45104E-05-1.05590E-05 1.02610E-19 1.37945E-18
 -1      2315 1.18845E-04-3.31165E-05-3.70294E-05-1.55594E-05-4.24416E-19 6.96460E-19
 -1      2316 1.16308E-04-2.83485E-05-3.76963E-05-1.36174E-05-5.21878E-19 7.06538E-19
 -1      2317 1.23989E-04-3.65160E-05-3.75376E-05-1.60747E-05-6.13146E-19 7.27813E-19
 -1      2318 1.13946E-04-2.40176E-05-3.88219E-05-9.17743E-06-1.08778E-18 7.15084E-19
 -1      2319 1.12611E-04-2.14803E-05-3.91572E-05-3.87361E-06-1.45203E-18 7.97190E-19
 -1      2320 1.19582E-04-2.52115E-05-4.06634E-05-1.26713E-05-8.73026E-19 5.56448E-19
 -1      2321 1.12385E-04-2.15348E-05-3.91643E-05 3.94348E-06-1.98015E-18 8.71319E-20
 -1      2322 1.13911E-04-2.40179E-05-3.88366E-05 9.13103E-06-2.21610E-18-5.93055E-20
 -1      2323 1.16426E-04-1.88289E-05-4.20483E-05-2.60544E-07-2.34798E-18-5.84456E-19
 -1      2324 1.16308E-04-2.83230E-05-3.76985E-05 1.37070E-05-1.91991E-18-7.33550E-19
 -1      2325 1.18902E-04-3.31532E-05-3.70246E-05 1.56145E-05-6.73497E-19-2.27917E-18
 -1      2326 1.19588E-04-2.49581E-05-4.07036E-05 1.28555E-05-2.64295E-18-1.17838E-18
 -1      2327 1.20521E-04-3.75350E-05-3.55707E-05 1.48250E-05 3.24864E-19-2.59094E-18
 -1      2328 1.22195E-04-4.09484E-05-3.49591E-05 1.31529E-05 3.49103E-19-2.44512E-18
 -1      2329 1.24052E-04-3.66030E-05-3.75296E-05 1.61028E-05-7.28025E-19-1.58496E-18
 -1      2330 1.21246E-04-4.24272E-05-3.38526E-05 9.37263E-06-2.57099E-19-2.59935E-18
 -1      2331 1.21299E-04-4.32031E-05-3.34743E-05 6.16205E-06-6.94114E-19-1.83685E-18
 -1      2332 1.24680E-04-4.41650E-05-3.45191E-05 1.05849E-05-1.45319E-20-3.11951E-18
 -1      2333 1.18652E-04-4.22213E-05-3.28589E-05 2.26662E-06-5.67300E-19-1.65956E-18
 -1      2334 1.17540E-04-4.12268E-05-3.26535E-05-7.15896E-07 2.46511E-19-8.26605E-19
 -1      2335 1.20868E-04-4.50284E-05-3.25558E-05 2.38867E-06 3.41813E-19-2.50093E-18
 -1      2336 1.14662E-04-3.93277E-05-3.23713E-05-3.37734E-06 3.56528E-19-1.54227E-18
 -1      2337 1.13084E-04-3.77732E-05-3.22217E-05-5.40809E-06-1.34278E-19-1.03813E-18
 -1      2338 1.15168E-04-4.16334E-05-3.15879E-05-4.13116E-06-1.18411E-19-2.32480E-18
 -1      2339 1.10727E-04-3.59838E-05-3.20858E-05-6.76773E-06-5.58572E-19-2.98776E-19
 -1      2340 1.09130E-04-3.45623E-05-3.19193E-05-7.81222E-06 1.58202E-19-4.69976E-19
 -1      2341 1.09867E-04-3.72503E-05-3.11862E-05-7.95402E-06 1.41464E-20-1.78947E-18
 -1      2342 1.07434E-04-3.32514E-05-3.18166E-05-8.22913E-06 8.46725E-19-2.38082E-19
 -1      2343 1.05999E-04-3.21844E-05-3.16132E-05-8.53061E-06 1.10638E-18-6.05074E-19
 -1      2344 1.05811E-04-3.35857E-05-3.09986E-05-9.54529E-06 5.78355E-19-8.60120E-19
 -1      2345 1.04837E-04-3.13498E-05-3.14979E-05-8.37747E-06 3.35363E-19-8.58483E-19
 -1      2346 1.03605E-04-3.06231E-05-3.12674E-05-8.21449E-06-2.78889E-20-1.04166E-18
 -1      2347 1.02965E-04-3.10682E-05-3.08398E-05-9.67806E-06 4.17200E-19-9.05905E-19
 -1      2348 1.02803E-04-3.01412E-05-3.11321E-05-7.76515E-06 2.66732E-19-9.06520E-19
 -1      2349 1.01766E-04-2.96697E-05-3.08940E-05-7.35962E-06-3.06511E-19-7.32034E-19
 -1      2350 1.01010E-04-2.95411E-05-3.06448E-05-8.98477E-06 2.27273E-19-3.33908E-19
 -1      2351 1.01191E-04-2.94138E-05-3.07469E-05-6.79007E-06-8.11044E-19 5.68151E-20
 -1      2352 1.00327E-04-2.91140E-05-3.05185E-05-6.29101E-06-7.74622E-19-1.17535E-19
 -1      2353 9.96396E-05-2.87047E-05-3.04096E-05-7.89663E-06-7.71199E-20-8.46146E-19
 -1      2354 9.98952E-05-2.89900E-05-3.03707E-05-5.70501E-06-9.52312E-19-9.28997E-19
 -1      2355 9.91816E-05-2.88000E-05-3.01636E-05-5.20096E-06-1.22858E-18-9.33400E-19
 -1      2356 9.86381E-05-2.82957E-05-3.01526E-05-6.68219E-06-1.26761E-18-8.34964E-19
 -1      2357 9.88448E-05-2.87481E-05-3.00244E-05-4.65427E-06-6.64353E-19-1.02439E-18
 -1      2358 9.82630E-05-2.86270E-05-2.98444E-05-4.19156E-06-3.24374E-19-4.23000E-19
 -1      2359 9.78740E-05-2.81302E-05-2.98948E-05-5.49634E-06-9.36995E-19-7.43322E-19
 -1      2360 9.79937E-05-2.86118E-05-2.97195E-05-3.70995E-06-6.57555E-19-5.17028E-19
 -1      2361 9.75257E-05-2.85341E-05-2.95682E-05-3.30837E-06-6.74505E-19-6.40364E-20
 -1      2362 9.72725E-05-2.80930E-05-2.96524E-05-4.41950E-06-3.80714E-19-5.42277E-19
 -1      2363 9.73084E-05-2.85363E-05-2.94602E-05-2.89983E-06-4.27353E-19 1.34890E-19
 -1      2364 9.69373E-05-2.84861E-05-2.93364E-05-2.56379E-06 1.83193E-19 4.78059E-19
 -1      2365 9.67912E-05-2.81174E-05-2.94354E-05-3.48562E-06-3.43783E-19-5.45555E-20
 -1      2366 9.67622E-05-2.84953E-05-2.92459E-05-2.22633E-06-3.79613E-19 6.08803E-19
 -1      2367 9.64723E-05-2.84627E-05-2.91469E-05-1.95203E-06 1.39545E-19 2.27240E-19
 -1      2368 9.64045E-05-2.81668E-05-2.92482E-05-2.70109E-06-2.67914E-19 1.86752E-20
 -1      2369 9.63323E-05-2.84736E-05-2.90731E-05-1.67855E-06 1.98704E-18-1.93973E-19
 -1      2370 9.61093E-05-2.84522E-05-2.89956E-05-1.45825E-06 2.52915E-18-2.04819E-19
 -1      2371 9.60950E-05-2.82218E-05-2.90917E-05-2.05700E-06 7.10837E-19 1.89190E-18
 -1      2372 9.59980E-05-2.84616E-05-2.89368E-05-1.23936E-06 1.65819E-18-5.09154E-19
 -1      2373 9.58293E-05-2.84472E-05-2.88776E-05-1.06382E-06 1.18469E-18-1.71703E-19
 -1      2374 9.58489E-05-2.82721E-05-2.89642E-05-1.53681E-06 1.62476E-18-6.16112E-20
 -1      2375 9.57413E-05-2.84539E-05-2.88318E-05-8.89590E-07 1.91171E-19-5.25991E-19
 -1      2376 9.56158E-05-2.84434E-05-2.87876E-05-7.49789E-07-1.20283E-18-4.68269E-19
 -1      2377 9.56545E-05-2.83131E-05-2.88629E-05-1.12078E-06 2.73383E-19-1.50636E-18
 -1      2378 9.55459E-05-2.84474E-05-2.87524E-05-6.10601E-07-1.55613E-18 7.34391E-20
 -1      2379 9.54556E-05-2.84391E-05-2.87201E-05-4.99035E-07-3.01328E-19 5.59440E-19
 -1      2380 9.55007E-05-2.83423E-05-2.87839E-05-7.89412E-07-6.54914E-19-1.17179E-18
 -1      2381 5.82203E-05-3.58559E-05-9.45812E-06 4.20777E-05-6.39722E-19 2.30499E-18
 -1      2382 4.42705E-05-2.82903E-05-6.39232E-06 3.50006E-05-9.05266E-19 1.83827E-18
 -1      2383 9.35703E-05-2.76747E-05-2.82306E-05-7.64453E-07 5.01991E-19-3.74848E-19
 -1      2384 9.35802E-05-2.75617E-05-2.82686E-05-4.25119E-07 6.53926E-19-1.93952E-19
 -1      2385 9.36731E-05-2.78557E-05-2.81988E-05-1.31921E-06 3.49019E-19-5.87042E-19
 -1      2386 9.35333E-05-2.77513E-05-2.81784E-05-1.10758E-06 4.03440E-19-3.72231E-19
 -1      2387 9.42446E-05-2.77451E-05-2.85127E-05-9.19902E-07 5.92737E-19-5.32268E-19
 -1      2388 9.39763E-05-2.80186E-05-2.82596E-05-1.69066E-06 3.52344E-19-5.44168E-19
 -1      2389 9.37340E-05-2.79167E-05-2.81998E-05-1.54484E-06 3.51587E-19-6.58957E-19
 -1      2390 9.42922E-05-2.79505E-05-2.84424E-05-1.55843E-06 3.45025E-19-6.87928E-19
 -1      2391 9.44307E-05-2.81764E-05-2.83866E-05-1.97605E-06 1.16502E-20-1.15549E-19
 -1      2392 9.41127E-05-2.80737E-05-2.82984E-05-1.85705E-06 1.27938E-19-1.81312E-19
 -1      2393 9.45015E-05-2.81014E-05-2.84651E-05-2.00303E-06 1.93792E-20-6.30990E-19
 -1      2394 9.50093E-05-2.83384E-05-2.85647E-05-2.23967E-06-9.90584E-20 9.30389E-20
 -1      2395 9.46278E-05-2.82309E-05-2.84538E-05-2.12208E-06 1.42191E-19 4.11398E-20
 -1      2396 9.48389E-05-2.82242E-05-2.85556E-05-2.35818E-06 2.03713E-20-2.11845E-19
 -1      2397 9.57019E-05-2.85148E-05-2.87854E-05-2.52280E-06 3.31910E-20 6.65845E-20
 -1      2398 9.52597E-05-2.83971E-05-2.86543E-05-2.39088E-06-1.00418E-19 6.95451E-20
 -1      2399 9.52849E-05-2.83369E-05-2.86976E-05-2.69346E-06-7.08718E-20-2.65776E-19
 -1      2400 9.65107E-05-2.87189E-05-2.90441E-05-2.84739E-06 2.76508E-19-2.21201E-19
 -1      2401 9.60043E-05-2.85837E-05-2.88938E-05-2.69400E-06 2.47297E-19 6.52495E-20
 -1      2402 9.58329E-05-2.84561E-05-2.88809E-05-3.05284E-06 1.99631E-19-3.51614E-19
 -1      2403 9.74446E-05-2.89682E-05-2.93376E-05-3.21567E-06 5.43126E-19-3.09894E-19
 -1      2404 9.68684E-05-2.88060E-05-2.91688E-05-3.04305E-06 3.73654E-19-3.46579E-19
 -1      2405 9.64866E-05-2.86020E-05-2.90986E-05-3.45781E-06 3.97004E-19-4.21113E-19
 -1      2406 9.85151E-05-2.92853E-05-2.96617E-05-3.60626E-06 4.20987E-19-3.11954E-19
 -1      2407 9.78644E-05-2.90846E-05-2.94760E-05-3.42840E-06 5.75618E-19-1.69478E-19
 -1      2408 9.72582E-05-2.88006E-05-2.93443E-05-3.90631E-06 4.17297E-19 5.17275E-20
 -1      2409 9.97307E-05-2.96986E-05-3.00085E-05-3.96749E-06 4.44029E-19-2.27563E-19
 -1      2410 9.90066E-05-2.94461E-05-2.98100E-05-3.81378E-06 5.05871E-19-2.29270E-19
 -1      2411 9.81662E-05-2.90871E-05-2.96111E-05-4.36802E-06 3.09623E-19-3.01149E-19
 -1      2412 1.01091E-04-3.02412E-05-3.03645E-05-4.20884E-06 4.62333E-19 8.87126E-20
 -1      2413 1.00305E-04-2.99235E-05-3.01612E-05-4.12822E-06 2.25603E-19 1.71915E-19
 -1      2414 9.92344E-05-2.95073E-05-2.98895E-05-4.77680E-06 2.36268E-19 2.06178E-19
 -1      2415 1.02579E-04-3.09453E-05-3.07090E-05-4.19357E-06 1.28745E-18 3.12426E-21
 -1      2416 1.01760E-04-3.05529E-05-3.05140E-05-4.25728E-06 9.96829E-19 2.89777E-19
 -1      2417 1.00489E-04-3.01171E-05-3.01665E-05-5.02138E-06 5.64718E-19 3.07748E-19
 -1      2418 1.04145E-04-3.18270E-05-3.10146E-05-3.73937E-06 3.17091E-19 4.52962E-19
 -1      2419 1.03348E-04-3.13642E-05-3.08462E-05-4.03806E-06 1.12844E-18 4.51805E-19
 -1      2420 1.01951E-04-3.09731E-05-3.04272E-05-4.93809E-06 7.96144E-19 8.89775E-19
 -1      2421 1.05693E-04-3.28552E-05-3.12513E-05-2.63981E-06-5.62102E-19 1.43522E-19
 -1      2422 1.05006E-04-3.23572E-05-3.11309E-05-3.26766E-06-2.28755E-19 3.33321E-19
 -1      2423 1.03623E-04-3.21078E-05-3.06577E-05-4.31348E-06 2.33203E-19 1.70656E-18
 -1      2424 1.07046E-04-3.38994E-05-3.13959E-05-7.27108E-07-8.02481E-19-3.91008E-20
 -1      2425 1.06599E-04-3.34579E-05-3.13429E-05-1.74271E-06-8.33988E-19 8.00124E-20
 -1      2426 1.05452E-04-3.34776E-05-3.08523E-05-2.91205E-06-5.30312E-19 7.86386E-19
 -1      2427 1.07923E-04-3.46698E-05-3.14451E-05 2.00343E-06-1.01699E-18-2.47660E-19
 -1      2428 1.07880E-04-3.44552E-05-3.14690E-05 6.45106E-07-8.34705E-19 1.65759E-19
 -1      2429 1.07270E-04-3.48791E-05-3.10234E-05-5.54927E-07-8.96197E-19 8.36537E-19
 -1      2430 1.07951E-04-3.47044E-05-3.14283E-05 5.20582E-06 4.43270E-19 7.53161E-19
 -1      2431 1.08468E-04-3.49493E-05-3.15191E-05 3.74086E-06-4.88228E-19-1.86550E-20
 -1      2432 1.08727E-04-3.58666E-05-3.12100E-05 2.72342E-06-7.81055E-19 2.92398E-19
 -1      2433 1.06795E-04-3.35217E-05-3.14056E-05 8.01975E-06 9.49911E-19 1.25071E-18
 -1      2434 1.07920E-04-3.44114E-05-3.15323E-05 6.91717E-06 1.18390E-18 1.31397E-18
 -1      2435 1.09279E-04-3.57609E-05-3.14729E-05 6.43541E-06 1.47690E-19 3.57337E-19
 -1      2436 1.04454E-04-3.10116E-05-3.14347E-05 9.13809E-06 1.12156E-19 1.11310E-18
 -1      2437 1.05997E-04-3.24708E-05-3.15564E-05 8.99981E-06 4.73633E-19 1.62025E-18
 -1      2438 1.08399E-04-3.39581E-05-3.18631E-05 9.44589E-06 4.96777E-19 1.70541E-18
 -1      2439 1.01635E-04-2.79254E-05-3.15225E-05 7.40099E-06-2.53845E-19 5.50495E-19
 -1      2440 1.03095E-04-2.94405E-05-3.16090E-05 8.61743E-06-9.07616E-20 8.15057E-19
 -1      2441 1.06069E-04-3.05353E-05-3.23533E-05 1.01325E-05 3.09748E-19 1.25138E-18
 -1      2442 9.96617E-05-2.57476E-05-3.16218E-05 2.80631E-06 9.19871E-19-2.15396E-19
 -1      2443 1.00424E-04-2.65744E-05-3.16563E-05 5.15959E-06-1.32581E-20 9.03281E-20
 -1      2444 1.03275E-04-2.67742E-05-3.28075E-05 7.29404E-06 5.31012E-19-1.88139E-19
 -1      2445 9.97453E-05-2.58370E-05-3.16689E-05-3.01582E-06 2.13503E-18-1.24818E-19
 -1      2446 9.94250E-05-2.54729E-05-3.16526E-05-4.41551E-07 1.69602E-18-4.79663E-19
 -1      2447 1.01674E-04-2.46909E-05-3.30489E-05 1.38023E-06 1.26195E-18-6.90611E-19
 -1      2448 1.01892E-04-2.81485E-05-3.16375E-05-7.57544E-06 1.42776E-18-7.84237E-19
 -1      2449 1.00652E-04-2.68242E-05-3.15721E-05-5.82673E-06 2.00982E-18-2.96814E-19
 -1      2450 1.02387E-04-2.56058E-05-3.29509E-05-5.16107E-06 2.08054E-18-9.00697E-19
 -1      2451 1.04894E-04-3.13041E-05-3.15807E-05-9.23253E-06 4.95419E-19-4.81611E-19
 -1      2452 1.03307E-04-2.97458E-05-3.14691E-05-8.82791E-06 8.32177E-19-3.66779E-19
 -1      2453 1.04906E-04-2.89256E-05-3.25593E-05-9.44379E-06 1.01568E-18-1.13260E-18
 -1      2454 1.07329E-04-3.37781E-05-3.15509E-05-8.03180E-06-8.45255E-19-1.74284E-19
 -1      2455 1.05978E-04-3.26340E-05-3.14173E-05-8.78236E-06 1.43635E-19-3.85592E-19
 -1      2456 1.07608E-04-3.27042E-05-3.20622E-05-1.01321E-05 5.11979E-20-8.18060E-19
 -1      2457 1.08457E-04-3.48747E-05-3.15480E-05-5.16191E-06-2.16606E-19-1.57824E-18
 -1      2458 1.07666E-04-3.43821E-05-3.14331E-05-6.50574E-06-5.53387E-19-6.46868E-19
 -1      2459 1.09141E-04-3.52447E-05-3.16316E-05-7.89174E-06-1.69390E-19-1.00084E-18
 -1      2460 1.08310E-04-3.47451E-05-3.15284E-05-1.95061E-06 3.83646E-20-1.54992E-18
 -1      2461 1.08114E-04-3.47965E-05-3.14695E-05-3.34776E-06-4.16972E-19-1.18064E-18
 -1      2462 1.09143E-04-3.59934E-05-3.13301E-05-4.31773E-06-3.86002E-19-1.20232E-18
 -1      2463 1.07294E-04-3.39026E-05-3.14483E-05 7.39687E-07-1.26957E-18 5.24664E-20
 -1      2464 1.07567E-04-3.42669E-05-3.14633E-05-3.87075E-07-4.49966E-19 7.76605E-20
 -1      2465 1.08007E-04-3.53646E-05-3.11297E-05-8.00500E-07-6.67204E-19-2.32171E-19
 -1      2466 1.05835E-04-3.28175E-05-3.12871E-05 2.57905E-06 4.73548E-19-1.38123E-19
 -1      2467 1.06408E-04-3.32956E-05-3.13729E-05 1.83264E-06-5.66377E-19-9.90830E-20
 -1      2468 1.06311E-04-3.40616E-05-3.09705E-05 1.91662E-06-6.34596E-19 1.17223E-18
 -1      2469 1.04240E-04-3.17763E-05-3.10505E-05 3.58890E-06 1.51017E-18 9.54773E-20
 -1      2470 1.04965E-04-3.22472E-05-3.11901E-05 3.19792E-06 1.24631E-18 2.52573E-19
 -1      2471 1.04496E-04-3.26411E-05-3.08040E-05 3.64292E-06 9.93867E-19 8.25476E-19
 -1      2472 1.02688E-04-3.09021E-05-3.07611E-05 3.94713E-06 1.62505E-18-6.60913E-20
 -1      2473 1.03457E-04-3.13110E-05-3.09325E-05 3.82883E-06 1.71190E-18 1.51506E-19
 -1      2474 1.02797E-04-3.13992E-05-3.06081E-05 4.49282E-06 1.82147E-18 1.61408E-19
 -1      2475 1.01271E-04-3.02200E-05-3.04467E-05 3.86317E-06 2.02633E-19 1.85341E-19
 -1      2476 1.02014E-04-3.05518E-05-3.06295E-05 3.92590E-06 1.56135E-18 3.78428E-19
 -1      2477 1.01309E-04-3.04347E-05-3.03826E-05 4.69096E-06 1.40732E-18 5.41584E-19
 -1      2478 1.00026E-04-2.97102E-05-3.01325E-05 3.51849E-06-9.49233E-19-6.43716E-19
 -1      2479 1.00703E-04-2.99688E-05-3.03110E-05 3.68475E-06-9.29031E-19-3.91941E-19
 -1      2480 1.00048E-04-2.97389E-05-3.01393E-05 4.46464E-06 6.40817E-19 5.93678E-19
 -1      2481 9.89653E-05-2.93388E-05-2.98372E-05 3.04825E-06-7.15663E-19-3.39862E-19
 -1      2482 9.95546E-05-2.95353E-05-3.00011E-05 3.26139E-06-4.76554E-19-8.35315E-19
 -1      2483 9.89994E-05-2.92617E-05-2.98935E-05 3.99931E-06-4.62777E-19 4.78175E-19
 -1      2484 9.80811E-05-2.90729E-05-2.95726E-05 2.54300E-06-1.81809E-18 1.07553E-18
 -1      2485 9.85779E-05-2.92194E-05-2.97162E-05 2.76579E-06-2.08666E-18-3.62874E-20
 -1      2486 9.81384E-05-2.89468E-05-2.96588E-05 3.42885E-06-2.20207E-18 8.70359E-19
 -1      2487 9.73593E-05-2.88846E-05-2.93441E-05 2.05751E-06-2.45305E-20 9.44452E-19
 -1      2488 9.77667E-05-2.89924E-05-2.94656E-05 2.26804E-06-2.99834E-19 7.09611E-19
 -1      2489 9.74392E-05-2.87456E-05-2.94448E-05 2.84108E-06-9.50842E-19 3.42080E-19
 -1      2490 9.67813E-05-2.87525E-05-2.91532E-05 1.62070E-06-1.87377E-19 5.00622E-19
 -1      2491 9.71072E-05-2.88308E-05-2.92528E-05 1.80795E-06 2.32235E-19 8.76567E-19
 -1      2492 9.68777E-05-2.86211E-05-2.92570E-05 2.28801E-06-2.80182E-19 1.01051E-18
 -1      2493 9.63270E-05-2.86604E-05-2.89982E-05 1.24402E-06-5.26086E-19 1.17884E-18
 -1      2494 9.65818E-05-2.87166E-05-2.90775E-05 1.40426E-06-4.59332E-19 8.43965E-19
 -1      2495 9.64322E-05-2.85463E-05-2.90976E-05 1.79607E-06-2.23181E-19 9.76416E-19
 -1      2496 9.59766E-05-2.85959E-05-2.88757E-05 9.27762E-07-9.69804E-19 1.66068E-18
 -1      2497 9.61712E-05-2.86361E-05-2.89372E-05 1.06183E-06-9.97301E-19 1.10352E-18
 -1      2498 9.60830E-05-2.85025E-05-2.89662E-05 1.37460E-06-1.03453E-18 1.52229E-18
 -1      2499 9.57115E-05-2.85501E-05-2.87818E-05 6.65768E-07-2.27675E-19 5.56693E-19
 -1      2500 9.58562E-05-2.85788E-05-2.88279E-05 7.77072E-07-1.32749E-18 1.67996E-18
 -1      2501 9.58125E-05-2.84765E-05-2.88609E-05 1.02202E-06-9.16086E-19 6.60423E-19
 -1      2502 9.55150E-05-2.85174E-05-2.87119E-05 4.48328E-07 2.19120E-18 1.60948E-18
 -1      2503 9.56188E-05-2.85371E-05-2.87452E-05 5.41330E-07 1.36781E-18 1.61491E-18
 -1      2504 9.56044E-05-2.84593E-05-2.87787E-05 7.31396E-07 8.06602E-20 1.06096E-18
 -1      2505 9.53727E-05-2.84954E-05-2.86605E-05 2.69381E-07-2.54672E-19 3.37055E-18
 -1      2506 9.54450E-05-2.85078E-05-2.86842E-05 3.46762E-07 1.25304E-18 2.56046E-18
 -1      2507 9.54476E-05-2.84498E-05-2.87157E-05 4.90743E-07 3.09197E-19 2.36285E-18
 -1      2508 9.53206E-05-2.84949E-05-2.86377E-05 1.81708E-07-7.15948E-19 3.54228E-18
 -1      2509 9.49493E-05-2.78406E-05-2.87635E-05 4.32572E-07 1.62666E-19-7.54188E-19
 -1      2510 9.50033E-05-2.79165E-05-2.87505E-05 4.62607E-07-2.93894E-20-2.26927E-18
 -1      2511 9.48552E-05-2.77044E-05-2.87816E-05 3.15869E-07-7.02744E-19-2.72036E-19
 -1      2512 9.48964E-05-2.77620E-05-2.87718E-05 3.75474E-07-1.42703E-19-8.56068E-19
 -1      2513 9.48752E-05-2.77358E-05-2.87722E-05 4.77069E-07 4.40616E-19-3.95650E-19
 -1      2514 9.51867E-05-2.81929E-05-2.87132E-05 4.54566E-07-4.13104E-21 3.15136E-18
 -1      2515 9.52408E-05-2.82745E-05-2.86978E-05 4.20230E-07-1.07487E-19 1.58874E-18
 -1      2516 9.50658E-05-2.80108E-05-2.87400E-05 4.81286E-07-1.27930E-18-2.48863E-18
 -1      2517 9.51242E-05-2.80939E-05-2.87255E-05 4.77526E-07-7.91197E-19 4.44644E-19
 -1      2518 9.51606E-05-2.81108E-05-2.87347E-05 5.59285E-07-5.98607E-19 8.68471E-19
 -1      2519 9.50110E-05-2.79125E-05-2.87554E-05 5.60223E-07-1.90959E-19-1.96292E-18
 -1      2520 9.47971E-05-2.76204E-05-2.87925E-05 1.49505E-07-2.53790E-18-1.36365E-18
 -1      2521 9.48198E-05-2.76519E-05-2.87871E-05 2.29120E-07-2.54163E-18 1.52598E-19
 -1      2522 9.47710E-05-2.76018E-05-2.87844E-05 3.21232E-07-1.38326E-18-1.06971E-18
 -1      2523 9.47830E-05-2.75994E-05-2.87949E-05-4.08438E-08-1.13777E-18-9.13704E-19
 -1      2524 9.47838E-05-2.76004E-05-2.87946E-05 4.62195E-08-2.09986E-18-1.21496E-18
 -1      2525 9.47135E-05-2.75276E-05-2.87912E-05 1.16098E-07-1.51810E-18-9.86408E-19
 -1      2526 9.48153E-05-2.76446E-05-2.87885E-05-2.25757E-07 1.47275E-19 2.59266E-19
 -1      2527 9.47939E-05-2.76147E-05-2.87935E-05-1.45058E-07-6.60409E-20-4.96904E-19
 -1      2528 9.47107E-05-2.75228E-05-2.87921E-05-1.07766E-07-2.84115E-19-1.40298E-20
 -1      2529 9.48889E-05-2.77484E-05-2.87745E-05-3.73941E-07 9.45960E-20-1.35763E-19
 -1      2530 9.48486E-05-2.76928E-05-2.87838E-05-3.13461E-07 1.34292E-19-4.95357E-19
 -1      2531 9.47633E-05-2.75880E-05-2.87869E-05-3.15144E-07 1.13370E-19-2.99521E-19
 -1      2532 9.49966E-05-2.79018E-05-2.87540E-05-4.65933E-07 7.32247E-19 2.44207E-18
 -1      2533 9.49417E-05-2.78256E-05-2.87667E-05-4.34145E-07 4.08979E-19 9.54363E-19
 -1      2534 9.48648E-05-2.77160E-05-2.87761E-05-4.75985E-07 5.35074E-19 5.32187E-19
 -1      2535 9.51224E-05-2.80846E-05-2.87290E-05-4.82593E-07 1.92271E-18 1.73651E-19
 -1      2536 9.50619E-05-2.79982E-05-2.87438E-05-4.87106E-07 4.87701E-19 1.26907E-18
 -1      2537 9.50028E-05-2.78931E-05-2.87602E-05-5.65317E-07 1.30644E-18 7.64169E-19
 -1      2538 9.52435E-05-2.82714E-05-2.87006E-05-4.21744E-07 1.92584E-19-1.29817E-18
 -1      2539 9.51884E-05-2.81864E-05-2.87165E-05-4.61178E-07 1.61828E-18-2.71947E-19
 -1      2540 9.51547E-05-2.80972E-05-2.87393E-05-5.66625E-07 2.93276E-19-1.21354E-20
 -1      2541 9.52976E-05-2.84220E-05-2.86590E-05-2.56329E-07-1.62174E-19 6.21308E-19
 -1      2542 2.13011E-05-1.64094E-05-1.78142E-06-8.36142E-06 4.12849E-19 2.88881E-18
 -1      2543 2.83240E-05-2.14835E-05-2.64468E-06-2.28829E-05 6.78897E-19 3.49719E-18
 -1      2544 9.37423E-05-2.74465E-05-2.83986E-05 1.25324E-07 6.76571E-19-7.35206E-20
 -1      2545 9.39765E-05-2.73064E-05-2.85287E-05 6.97115E-07 8.66844E-19 1.05697E-19
 -1      2546 9.44024E-05-2.74327E-05-2.87161E-05 7.01818E-08 8.50681E-19-4.82903E-19
 -1      2547 9.90542E-05-5.25558E-05-1.99627E-05 4.09264E-05-6.96049E-19 4.61712E-19
 -1      2548 7.84666E-05-4.57107E-05-1.37762E-05 4.20339E-05-7.88588E-19 8.01293E-19
 -1      2549 4.20205E-05-2.90515E-05-5.25667E-06-3.25516E-05 2.27852E-19 2.89558E-18
 -1      2550 5.83033E-05-3.69613E-05-8.94769E-06-4.01746E-05 8.44915E-19 2.45512E-18
 -1      2551 9.50490E-05-2.00045E-05-3.22099E-05-1.16317E-05-1.60327E-18-3.59738E-19
 -1      2552 9.54576E-05-2.33588E-05-3.09299E-05-7.86645E-06-1.46723E-18-2.34545E-19
 -1      2553 9.50764E-05-2.25001E-05-3.10728E-05-7.51946E-06-1.39591E-18-6.66105E-19
 -1      2554 9.32215E-05-1.75574E-05-3.24254E-05-1.12506E-05-1.61176E-18-9.20778E-19
 -1      2555 1.29854E-04-5.49840E-05-3.22515E-05 2.58490E-05 3.09167E-19-2.12224E-18
 -1      2556 1.15385E-04-5.55185E-05-2.56489E-05 3.16667E-05-2.72321E-19-7.66988E-19
 -1      2557 1.44439E-04-1.92583E-05-5.42161E-05 7.75397E-06-2.09937E-18-2.15782E-18
 -1      2558 1.47249E-04-1.39724E-05-5.73523E-05 3.68607E-06-3.48385E-18-2.37524E-18
 -1      2559 1.49654E-04-2.10206E-05-5.55756E-05-7.32295E-06-2.75455E-18-1.10877E-18
 -1      2560 1.48369E-04-2.88985E-05-5.16271E-05-7.65743E-06-2.37254E-18-9.24113E-19
 -1      2561 7.53117E-05-4.48375E-05-1.30246E-05 4.24030E-05 3.54483E-19-1.94246E-18
 -1      2562 5.73196E-05-3.76639E-05-8.20004E-06 3.86252E-05 6.39510E-19-2.20949E-18
 -1      2563 1.42400E-04-2.40601E-05-5.11684E-05 6.26572E-06 5.31958E-18 2.22346E-18
 -1      2564 1.46046E-04-1.73252E-05-5.54419E-05 4.95808E-06 4.99601E-18 2.46465E-18
 -1      2565 8.78509E-05-1.06614E-05-3.31172E-05-1.48325E-06-1.75168E-19-2.23056E-18
 -1      2566 8.79599E-05-1.07892E-05-3.31072E-05-2.58246E-06-4.21238E-19-2.32169E-18
 -1      2567 8.93397E-05-1.29299E-05-3.27482E-05-2.85369E-06-4.49092E-19-2.20248E-18
 -1      2568 8.90808E-05-1.25784E-05-3.27890E-05-9.14462E-07-1.31811E-19-2.07946E-18
 -1      2569 1.44632E-04-1.20194E-05-5.73188E-05-3.41166E-06 3.34874E-18 2.28207E-18
 -1      2570 1.45826E-04-1.76442E-05-5.52564E-05-4.65207E-06 2.71008E-18 2.03669E-18
 -1      2571 1.41162E-04-4.82891E-05-3.99461E-05-6.32823E-06 2.46903E-18 7.05155E-19
 -1      2572 1.44605E-04-3.85724E-05-4.59832E-05 2.52639E-06 3.83717E-18 2.53813E-18
 -1      2573 1.44494E-04-1.26595E-05-5.70015E-05 3.52703E-06 4.58330E-18 2.66286E-18
 -1      2574 1.43796E-04-1.01041E-05-5.77308E-05 9.84833E-07 4.56000E-18 3.36788E-18
 -1      2575 1.34603E-04-1.34963E-05-5.21695E-05 7.27321E-06 4.74423E-18 2.40748E-18
 -1      2576 1.98548E-05-1.81803E-05-4.64435E-07 8.99232E-06 7.92929E-19-3.31063E-18
 -1      2577 1.94201E-05-1.66129E-05-9.24573E-07-6.81574E-06 6.84614E-19-5.05933E-18
 -1      2578 1.26301E-04-5.71715E-05-2.96312E-05-2.32118E-05 6.23946E-19-1.57336E-19
 -1      2579 1.36081E-04-5.51253E-05-3.49174E-05-1.67890E-05 1.26250E-18 5.18808E-20
 -1      2580 8.76475E-05-4.96276E-05-1.61116E-05-4.12599E-05-8.47033E-20-3.33458E-18
 -1      2581 1.09262E-04-5.52027E-05-2.32555E-05-3.57801E-05 3.14461E-19-1.30231E-18
 -1      2582 5.29024E-05-3.57256E-05-7.14347E-06-3.94206E-05-8.14422E-19-5.37019E-18
 -1      2583 6.77540E-05-4.14606E-05-1.13269E-05-4.39834E-05-4.67986E-19-4.91470E-18
 -1      2584 1.50982E-04-4.07660E-05-4.77025E-05-3.16087E-06-2.49642E-18-1.10453E-18
 -1      2585 1.46903E-04-4.79429E-05-4.24632E-05 9.24222E-07-1.57532E-18-1.14138E-18
 -1      2586 2.61768E-05-2.11475E-05-1.81379E-06-2.22131E-05-2.84497E-19-6.42877E-18
 -1      2587 3.74863E-05-2.76726E-05-4.07000E-06-3.38835E-05-5.49301E-19-6.00906E-18
 -1      2588 5.09587E-05-2.98868E-05-8.52075E-06-3.63138E-05-1.27648E-18-5.51270E-18
 -1      2589 3.93634E-05-2.80501E-05-4.69184E-06 3.29463E-05 6.19816E-19-2.70860E-18
 -1      2590 2.69198E-05-2.25008E-05-1.65200E-06 2.12312E-05 1.16901E-18-2.71771E-18
 -1      2591 1.09992E-04-5.68012E-05-2.30505E-05 3.59293E-05-1.01432E-19-1.52704E-18
 -1      2592 9.39768E-05-5.25777E-05-1.76149E-05 3.85596E-05 2.39710E-19-1.23352E-18
 -1      2593 1.48599E-04-4.27007E-05-4.55311E-05 3.19523E-06-2.65428E-18-1.94055E-18
 -1      2594 1.48195E-04-3.21154E-05-5.03560E-05 8.87187E-06-2.42569E-18-1.76035E-18
 -1      2595 1.40910E-04-5.65370E-05-3.66284E-05 1.46192E-05-4.93397E-19-1.50094E-18
 -1      2596 1.26332E-04-5.85229E-05-2.89485E-05 2.44290E-05-1.78089E-19-1.76352E-18
 -1      2597 1.45730E-04-1.22498E-05-5.77626E-05-1.49869E-06-3.89974E-18-1.55047E-18
 -1      2598 1.47993E-04-1.57958E-05-5.72152E-05-5.12216E-06-3.73690E-18-1.00511E-18
 -1      2599 1.38489E-04-1.80788E-05-5.17469E-05-9.63439E-06-2.61013E-18-1.84230E-20
 -1      2600 7.42498E-05-4.51636E-05-1.23144E-05-4.04586E-05 1.34466E-18 2.09588E-18
 -1      2601 9.28314E-05-5.13292E-05-1.78805E-05-4.06854E-05 3.53636E-19 6.32469E-19
 -1      2602 7.30831E-05-4.05557E-05-1.34608E-05-3.89840E-05 9.05902E-19 1.79899E-18
 -1      2603 1.39334E-04-5.62837E-05-3.56517E-05-1.34464E-05-2.49398E-18-2.39244E-18
 -1      2604 1.45808E-04-5.22218E-05-4.06428E-05-6.54812E-06-2.20987E-18-2.16205E-18
 -1      2605 1.13239E-04-5.75559E-05-2.37845E-05-3.18509E-05-3.73965E-19-4.16952E-19
 -1      2606 1.29451E-04-5.85540E-05-3.06117E-05-2.52623E-05-1.84568E-18-2.47312E-18
 -1      2607 1.35085E-04-5.98008E-05-3.21199E-05-1.49426E-05-2.17984E-18-1.94849E-18
 -1      2608 2.99636E-05-1.98000E-05-4.02581E-06 2.45647E-05-4.05305E-19 2.03246E-18
 -1      2609 2.21740E-05-1.58442E-05-2.17626E-06 8.20319E-06 1.94103E-19 2.82231E-18
 -1      2610 9.62806E-05-2.50690E-05-3.05441E-05 7.50584E-06 1.49317E-18 6.50733E-19
 -1      2611 9.73850E-05-2.37536E-05-3.15774E-05 1.06116E-05 1.62006E-18 8.54524E-19
 -1      2612 9.58432E-05-2.12843E-05-3.20097E-05 1.18029E-05 1.80589E-18 2.82777E-19
 -1      2613 9.58597E-05-2.41345E-05-3.07730E-05 7.56649E-06 1.53165E-18-5.58248E-20
 -1      2614 1.45003E-04-4.59659E-05-4.29022E-05 7.78827E-06 3.07963E-19-2.34628E-19
 -1      2615 1.37822E-04-5.13128E-05-3.71685E-05 1.55081E-05 4.49933E-19-5.33207E-19
 -1      2616 1.35078E-04-5.61635E-05-3.36950E-05 1.51098E-05-4.27963E-19-1.41582E-18
 -1      2617 1.38505E-04-2.13584E-05-5.04237E-05-8.95547E-06 1.90328E-18 1.55727E-18
 -1      2618 9.08326E-05-1.49694E-05-3.25084E-05-6.65324E-06-1.05090E-18-1.96370E-18
 -1      2619 8.97443E-05-1.31442E-05-3.28864E-05-7.84378E-06-1.18529E-18-2.09821E-18
 -1      2620 9.04394E-05-1.39831E-05-3.28324E-05-9.01786E-06-1.34598E-18-1.89739E-18
 -1      2621 9.47975E-05-2.68920E-05-2.91158E-05 1.65336E-06 1.09171E-18-2.74243E-19
 -1      2622 9.42313E-05-1.90647E-05-3.22592E-05 1.15009E-05 1.73470E-18-4.84318E-19
 -1      2623 1.42533E-04-4.20310E-05-4.31773E-05-1.84606E-06 2.34946E-19 3.52366E-19
 -1      2624 1.07597E-04-5.59024E-05-2.18402E-05-3.34878E-05 4.78997E-19-1.87935E-21
 -1      2625 1.35901E-04-1.21727E-05-5.32209E-05 9.79415E-07-3.02624E-18-1.24837E-18
 -1      2626 1.42557E-04-5.40294E-05-3.79626E-05 3.28954E-06-5.60471E-19-9.23266E-19
 -1      2627 1.44720E-04-4.84408E-05-4.12696E-05 4.21111E-06-2.42707E-18-9.73876E-19
 -1      2628 4.36377E-05-2.38921E-05-7.87723E-06-2.80425E-05 1.46145E-18 2.86763E-18
 -1      2629 7.69288E-05-4.19929E-05-1.45051E-05 4.04452E-05-1.52826E-18 5.09331E-19
 -1      2630 9.53285E-05-2.84438E-05-2.86647E-05 2.90288E-07-4.10000E-19 2.64835E-18
 -1      2631 9.53088E-05-2.83881E-05-2.86801E-05 3.47351E-07-5.74012E-19 1.22659E-18
 -1      2632 1.22989E-04-5.97035E-05-2.68766E-05 2.56736E-05 1.08060E-18-1.02438E-18
 -1      2633 9.53601E-05-2.84409E-05-2.86778E-05-3.34863E-07 2.45173E-19 1.06263E-18
 -1      2634 9.52979E-05-2.83530E-05-2.86922E-05-3.88952E-07 3.18101E-19-1.23608E-18
 -1      2635 9.53014E-05-2.82850E-05-2.87199E-05-5.11387E-07-5.63844E-19-1.50602E-18
 -1      2636 9.54190E-05-2.84421E-05-2.87009E-05-4.19071E-07 3.14903E-19 6.52760E-19
 -1      2637 2.92218E-05-1.67415E-05-4.73567E-06-1.38321E-05 1.73271E-19-5.34562E-18
 -1      2638 1.43441E-04-3.44766E-05-4.69074E-05-1.12519E-05-1.83044E-18 9.55030E-20
 -1      2639 2.88745E-05-1.42648E-05-5.60600E-06-2.71132E-07 4.57411E-19 3.28606E-18
 -1      2640 9.47126E-05-2.05722E-05-3.17302E-05 9.54756E-06 1.61667E-18-5.85353E-19
 -1      2641 1.12701E-04-5.64458E-05-2.38489E-05 3.24011E-05-1.29511E-18-1.00633E-18
 -1      2642 3.10078E-05-1.73324E-05-5.23225E-06 1.53046E-05 1.17145E-18-2.90426E-18
 -1      2643 8.43968E-05-4.64653E-05-1.58239E-05-4.10899E-05-1.21465E-18-3.68205E-18
 -1      2644 1.42500E-04-2.61501E-05-5.03296E-05 1.17851E-05-2.38313E-18-1.45690E-18
 -1      2645 1.33121E-04-1.99924E-05-4.90473E-05 1.29888E-05-2.92417E-18-7.86152E-19
 -1      2646 1.37854E-04-3.19833E-05-4.56671E-05 1.37293E-05-2.90141E-18-3.46013E-19
 -1      2647 1.20210E-04-5.81686E-05-2.65408E-05-2.81696E-05-1.63477E-19 4.56127E-19
 -1      2648 1.26036E-04-5.81823E-05-2.91557E-05-1.84533E-05-1.06006E-18 7.69688E-19
 -1      2649 1.11564E-04-5.55837E-05-2.35316E-05-3.12240E-05-1.30390E-18 1.53717E-19
 -1      2650 5.50116E-05-3.16181E-05-9.50602E-06 3.52744E-05 1.40544E-18-2.38482E-18
 -1      2651 1.40979E-04-3.22032E-05-4.68794E-05 8.03873E-06 4.07380E-18 2.66222E-18
 -1      2652 1.33061E-04-2.54749E-05-4.66599E-05 1.21127E-05 4.04289E-18 2.77477E-18
 -1      2653 1.36472E-04-3.87213E-05-4.20917E-05 7.99854E-06 3.16939E-18 3.31359E-18
 -1      2654 9.01153E-05-4.93736E-05-1.70698E-05 3.86944E-05 1.24027E-18-7.31995E-19
 -1      2655 9.21081E-05-1.62569E-05-3.25425E-05-1.02563E-05-1.49783E-18-1.36222E-18
 -1      2656 1.38118E-04-5.27248E-05-3.66143E-05-4.91725E-06 1.14475E-18 1.56786E-18
 -1      2657 1.34150E-04-9.73892E-06-5.36123E-05-1.84066E-06 3.52853E-18 2.79471E-18
 -1      2658 4.29928E-05-2.26459E-05-8.15247E-06 2.86188E-05-6.96790E-19 1.70889E-18
 -1      2659 9.53146E-05-2.83292E-05-2.87067E-05 4.65461E-07-1.92866E-19 2.21687E-18
 -1      2660 9.53983E-05-2.83651E-05-2.87309E-05-5.58354E-07-3.01265E-20-1.71012E-18
 -1      2661 9.05246E-05-1.49728E-05-3.24016E-05 3.09315E-06 5.69548E-19-2.24732E-18
 -1      2662 9.03266E-05-1.46898E-05-3.24366E-05 2.18344E-06 4.69266E-19-2.18148E-18
 -1      2663 9.01848E-05-1.44749E-05-3.24671E-05 1.37662E-06 3.56824E-19-2.00798E-18
 -1      2664 9.01164E-05-1.43780E-05-3.24790E-05 4.48040E-07 1.07131E-19-1.86103E-18
 -1      2665 9.13432E-05-1.63255E-05-3.21364E-05 1.56924E-06 3.19283E-19-2.02083E-18
 -1      2666 9.21553E-05-1.74374E-05-3.20594E-05 6.30595E-06 1.24120E-18-1.60271E-18
 -1      2667 9.16209E-05-1.66229E-05-3.21653E-05 5.47455E-06 1.08189E-18-1.70961E-18
 -1      2668 9.35820E-05-1.97046E-05-3.17035E-05 7.42999E-06 1.43212E-18-1.30042E-18
 -1      2669 9.27927E-05-1.84341E-05-3.18857E-05 6.84970E-06 1.31632E-18-1.50619E-18
 -1      2670 9.34433E-05-1.97379E-05-3.15648E-05 5.54021E-06 1.21266E-18-1.40267E-18
 -1      2671 9.52533E-05-2.53503E-05-2.99692E-05 3.77914E-06 1.25321E-18-5.38761E-19
 -1      2672 9.55695E-05-2.45093E-05-3.04219E-05 5.44196E-06 1.30296E-18-5.58818E-19
 -1      2673 1.21492E-04-5.84208E-05-2.72621E-05 2.53169E-05-6.70427E-19-1.83793E-18
 -1      2674 1.07200E-04-5.40546E-05-2.24394E-05 3.24231E-05-1.38935E-18-5.31143E-19
 -1      2675 9.50581E-05-2.66076E-05-2.93389E-05 1.49685E-06 9.76961E-19-4.73666E-19
 -1      2676 9.52941E-05-2.61221E-05-2.96090E-05 2.54805E-06 1.17735E-18-3.95814E-19
 -1      2677 9.53076E-05-2.49288E-05-3.01596E-05 3.57422E-06 1.14365E-18-7.60283E-19
 -1      2678 1.29710E-04-1.73409E-05-4.89096E-05-1.01164E-05 1.47299E-18 7.82764E-19
 -1      2679 1.33605E-04-2.56091E-05-4.65198E-05-1.20053E-05 1.18923E-18 3.42201E-19
 -1      2680 1.00747E-04-5.16929E-05-2.06068E-05-3.35487E-05 5.19866E-19 2.02414E-19
 -1      2681 1.17913E-04-5.86101E-05-2.56320E-05-2.68745E-05-2.71474E-19-1.91575E-18
 -1      2682 9.54056E-05-2.57958E-05-2.98056E-05-2.42157E-06-9.78669E-19-8.83271E-19
 -1      2683 9.52662E-05-2.63629E-05-2.95392E-05-1.38224E-06-8.81803E-19-9.64427E-19
 -1      2684 9.52959E-05-2.68510E-05-2.93109E-05-5.72445E-07-8.14844E-19-7.81737E-19
 -1      2685 9.51965E-05-2.71830E-05-2.91522E-05 1.10386E-07-7.02122E-19-7.48849E-19
 -1      2686 9.54582E-05-2.61385E-05-2.97147E-05-1.21564E-06-9.01741E-19-1.13276E-18
 -1      2687 9.51722E-05-2.74541E-05-2.90070E-05 6.71427E-07-7.34333E-19-7.24373E-19
 -1      2688 9.51415E-05-2.76516E-05-2.89239E-05 1.12767E-06-6.45588E-19-6.39692E-19
 -1      2689 9.54722E-05-2.70556E-05-2.93293E-05 2.33596E-07-7.72622E-19-9.41161E-19
 -1      2690 9.51094E-05-2.77926E-05-2.88412E-05 1.52321E-06-5.51210E-19-5.09331E-19
 -1      2691 9.51439E-05-2.79070E-05-2.88127E-05 1.84645E-06-4.62002E-19-6.95967E-19
 -1      2692 9.54286E-05-2.75729E-05-2.90885E-05 1.25052E-06-5.75788E-19-7.88378E-19
 -1      2693 9.51202E-05-2.79638E-05-2.87771E-05 2.14608E-06-5.35167E-19-7.33971E-19
 -1      2694 9.52094E-05-2.80227E-05-2.87891E-05 2.40338E-06-4.73378E-19-1.02343E-18
 -1      2695 9.53839E-05-2.78317E-05-2.89572E-05 1.99281E-06-6.25820E-19-7.97972E-19
 -1      2696 9.51969E-05-2.80205E-05-2.87891E-05 2.66159E-06-2.32513E-19-1.01649E-18
 -1      2697 9.53320E-05-2.80403E-05-2.88323E-05 2.90207E-06-3.24717E-19-8.74371E-19
 -1      2698 9.53561E-05-2.79137E-05-2.89087E-05 2.58704E-06-3.89209E-19-9.69349E-19
 -1      2699 9.53285E-05-2.79940E-05-2.88595E-05 3.16109E-06-4.54142E-19-6.77181E-19
 -1      2700 9.55042E-05-2.79861E-05-2.89278E-05 3.42127E-06-2.62019E-19-4.96164E-19
 -1      2701 9.53461E-05-2.78672E-05-2.89231E-05 3.13294E-06-1.59175E-19-5.58072E-19
 -1      2702 9.55066E-05-2.79062E-05-2.89755E-05 3.71346E-06-8.63169E-20-6.25783E-19
 -1      2703 9.57215E-05-2.78808E-05-2.90645E-05 4.02024E-06 1.08370E-19-4.52264E-19
 -1      2704 9.53491E-05-2.77241E-05-2.89845E-05 3.70735E-06-8.79759E-20-3.82098E-19
 -1      2705 9.57270E-05-2.77770E-05-2.91269E-05 4.36979E-06 6.50879E-20-3.89647E-19
 -1      2706 9.59836E-05-2.77463E-05-2.92331E-05 4.74140E-06 1.30726E-19-5.58087E-19
 -1      2707 9.53597E-05-2.75099E-05-2.90798E-05 4.36829E-06 4.05752E-20-6.44617E-19
 -1      2708 9.59921E-05-2.76317E-05-2.93041E-05 5.16488E-06 1.64422E-19-6.04414E-19
 -1      2709 9.62980E-05-2.76135E-05-2.94234E-05 5.60996E-06 5.47943E-20-4.81686E-19
 -1      2710 9.53756E-05-2.72525E-05-2.91960E-05 5.15740E-06-2.78785E-20-9.58209E-19
 -1      2711 9.63160E-05-2.75098E-05-2.94957E-05 6.11555E-06-9.66573E-20-5.93740E-19
 -1      2712 9.66860E-05-2.75341E-05-2.96227E-05 6.62995E-06-4.31890E-19-7.06882E-19
 -1      2713 9.54028E-05-2.69927E-05-2.93183E-05 6.10008E-06-4.61367E-20-1.04039E-18
 -1      2714 9.67332E-05-2.74797E-05-2.96869E-05 7.21526E-06-5.03845E-19-3.28369E-19
 -1      2715 9.71954E-05-2.75964E-05-2.98137E-05 7.77630E-06-5.65882E-19-3.85558E-19
 -1      2716 9.54663E-05-2.67984E-05-2.94290E-05 7.20357E-06-2.90128E-19-1.05216E-18
 -1      2717 9.73174E-05-2.76581E-05-2.98584E-05 8.42420E-06-6.78512E-19-2.11757E-19
 -1      2718 9.79237E-05-2.79495E-05-2.99743E-05 8.98150E-06-5.39221E-19-2.46132E-19
 -1      2719 9.56279E-05-2.67863E-05-2.95055E-05 8.45245E-06-5.82580E-19-9.74967E-20
 -1      2720 9.82121E-05-2.82379E-05-2.99871E-05 9.65238E-06-4.25009E-19-2.57191E-19
 -1      2721 9.90519E-05-2.88308E-05-3.00809E-05 1.01144E-05-3.74663E-19-3.27091E-20
 -1      2722 9.60180E-05-2.71508E-05-2.95223E-05 9.80054E-06-4.15476E-19-1.56986E-19
 -1      2723 9.96728E-05-2.95136E-05-3.00537E-05 1.07299E-05-2.77871E-19 1.02559E-19
 -1      2724 1.00887E-04-3.05816E-05-3.01199E-05 1.09453E-05-2.67320E-20-8.95030E-21
 -1      2725 9.68831E-05-2.81976E-05-2.94572E-05 1.11532E-05-8.70788E-20-2.67429E-19
 -1      2726 1.02109E-04-3.18798E-05-3.00610E-05 1.13543E-05 3.03157E-19 2.94822E-19
 -1      2727 1.03879E-04-3.36063E-05-3.01138E-05 1.10885E-05 8.22577E-19 1.62213E-19
 -1      2728 9.86453E-05-3.03607E-05-2.93087E-05 1.23255E-05 3.78702E-19 1.22985E-20
 -1      2729 1.06077E-04-3.57308E-05-3.00745E-05 1.09964E-05 1.24902E-18 2.32024E-19
 -1      2730 1.08538E-04-3.81687E-05-3.01754E-05 9.91733E-06 1.49178E-18-2.07874E-19
 -1      2731 1.01945E-04-3.41500E-05-2.91351E-05 1.29481E-05 9.19111E-19-4.60243E-21
 -1      2732 1.12062E-04-4.10984E-05-3.02995E-05 8.77559E-06 2.01001E-18-4.56240E-19
 -1      2733 1.15079E-04-4.38191E-05-3.05910E-05 6.50292E-06 2.23451E-18-5.44864E-19
 -1      2734 1.07555E-04-3.98592E-05-2.91355E-05 1.22560E-05 1.52531E-18 8.61790E-20
 -1      2735 1.19829E-04-4.68267E-05-3.11651E-05 3.58426E-06 2.10462E-18-4.63089E-19
 -1      2736 1.22659E-04-4.84068E-05-3.18887E-05 5.11820E-09 8.97776E-19-4.16740E-19
 -1      2737 1.15813E-04-4.67230E-05-2.97749E-05 8.91455E-06 2.22463E-18-1.05481E-18
 -1      2738 1.27439E-04-4.95715E-05-3.33928E-05-5.12200E-06 6.91533E-19 4.68820E-19
 -1      2739 1.28365E-04-4.72715E-05-3.48646E-05-9.28693E-06 1.36637E-19 9.21870E-19
 -1      2740 1.25892E-04-5.16324E-05-3.19392E-05 1.19639E-06 1.42987E-18-4.54704E-19
 -1      2741 1.24982E-04-2.76761E-05-4.22769E-05-1.54457E-05-1.00839E-18 7.16431E-19
 -1      2742 1.21851E-04-2.05498E-05-4.37097E-05-1.08484E-05-1.59422E-18 5.65315E-19
 -1      2743 1.24718E-04-1.62200E-05-4.71090E-05-6.73710E-06-2.27714E-18-5.30190E-20
 -1      2744 1.23767E-04-1.43371E-05-4.74322E-05 7.38543E-07-2.82909E-18-3.58123E-19
 -1      2745 1.23488E-04-2.14887E-05-4.39869E-05 1.15307E-05-2.72766E-18-3.60042E-19
 -1      2746 1.26622E-04-2.90442E-05-4.23616E-05 1.60073E-05-2.34168E-18-5.77941E-19
 -1      2747 1.28299E-04-4.71945E-05-3.48591E-05 9.22887E-06-1.52095E-19-1.47834E-18
 -1      2748 1.27357E-04-4.93830E-05-3.34215E-05 5.24977E-06 2.05267E-19-1.86825E-18
 -1      2749 1.22620E-04-4.83612E-05-3.19286E-05 1.69676E-07 4.34253E-19-1.93649E-18
 -1      2750 1.19898E-04-4.67794E-05-3.12044E-05-3.40661E-06 5.80290E-19-1.64185E-18
 -1      2751 1.25727E-04-5.17192E-05-3.18820E-05-1.49187E-06 8.43195E-20-8.79369E-19
 -1      2752 1.15118E-04-4.37799E-05-3.06297E-05-6.36777E-06-4.22061E-20-2.06506E-18
 -1      2753 1.12128E-04-4.10547E-05-3.03432E-05-8.62450E-06-5.34488E-19-2.41474E-18
 -1      2754 1.15995E-04-4.67200E-05-2.98245E-05-8.76483E-06 2.80692E-19-2.43247E-18
 -1      2755 1.08609E-04-3.81258E-05-3.02250E-05-9.75287E-06 1.06806E-20-2.33931E-18
 -1      2756 1.06162E-04-3.56861E-05-3.01297E-05-1.08099E-05 7.42268E-19-1.98799E-18
 -1      2757 1.07663E-04-3.98065E-05-2.92019E-05-1.20354E-05 1.25070E-19-2.03045E-18
 -1      2758 1.03967E-04-3.35632E-05-3.01716E-05-1.08907E-05 1.02795E-18-1.89104E-18
 -1      2759 1.02213E-04-3.18329E-05-3.01249E-05-1.11281E-05 1.04906E-18-1.48059E-18
 -1      2760 1.02069E-04-3.41023E-05-2.92076E-05-1.27102E-05 1.12765E-18-1.18408E-18
 -1      2761 1.00989E-04-3.05300E-05-3.01870E-05-1.06971E-05 9.59771E-19-1.74428E-18
 -1      2762 9.97925E-05-2.94572E-05-3.01283E-05-1.04473E-05 1.97433E-19-1.77955E-18
 -1      2763 9.87670E-05-3.03039E-05-2.93848E-05-1.20580E-05 7.41615E-19-2.41794E-18
 -1      2764 9.91691E-05-2.87660E-05-3.01598E-05-9.79854E-06-1.21825E-19-1.33509E-18
 -1      2765 9.83496E-05-2.81681E-05-3.00748E-05-9.29511E-06 2.64886E-19-1.50847E-18
 -1      2766 9.69962E-05-2.81196E-05-2.95388E-05-1.08303E-05-5.19904E-21-3.11112E-18
 -1      2767 9.80586E-05-2.78691E-05-3.00674E-05-8.58100E-06-1.91709E-19-1.56218E-18
 -1      2768 9.74769E-05-2.75733E-05-2.99618E-05-7.97497E-06-5.82190E-19-1.36391E-18
 -1      2769 9.61222E-05-2.70463E-05-2.96116E-05-9.39994E-06-4.12643E-19-2.82687E-18
 -1      2770 9.73527E-05-2.74999E-05-2.99232E-05-7.27492E-06-3.19946E-19-1.15987E-18
 -1      2771 9.69198E-05-2.73804E-05-2.98082E-05-6.65804E-06-5.31275E-19-7.04904E-19
 -1      2772 9.57243E-05-2.66524E-05-2.96041E-05-7.95470E-06-3.98775E-19-1.43459E-18
 -1      2773 9.68707E-05-2.74233E-05-2.97501E-05-6.01324E-06-8.30138E-19-2.29277E-19
 -1      2774 9.65351E-05-2.73993E-05-2.96358E-05-5.43694E-06-7.32090E-19-1.22206E-20
 -1      2775 9.55565E-05-2.66354E-05-2.95373E-05-6.59250E-06-1.83312E-19 1.78660E-19
 -1      2776 9.65149E-05-2.74932E-05-2.95688E-05-4.86684E-06-9.04899E-19-3.22890E-20
 -1      2777 9.62480E-05-2.75162E-05-2.94622E-05-4.35624E-06-7.18632E-19-3.65187E-19
 -1      2778 9.54876E-05-2.68041E-05-2.94350E-05-5.36398E-06-1.07363E-18 1.74349E-19
 -1      2779 9.62359E-05-2.76249E-05-2.93941E-05-3.86714E-06-2.42069E-19-1.68775E-19
 -1      2780 9.60213E-05-2.76677E-05-2.92993E-05-3.43087E-06 1.25841E-19 3.91748E-19
 -1      2781 9.54542E-05-2.70466E-05-2.93171E-05-4.29136E-06-5.03619E-19 2.19763E-19
 -1      2782 9.60093E-05-2.77725E-05-2.92352E-05-3.02107E-06-4.42281E-19 8.76073E-19
 -1      2783 9.58369E-05-2.78203E-05-2.91539E-05-2.65798E-06-2.37017E-20 4.67360E-19
 -1      2784 9.54292E-05-2.73018E-05-2.91975E-05-3.37859E-06-2.24975E-19 1.39232E-18
 -1      2785 9.58229E-05-2.79126E-05-2.90967E-05-2.32113E-06 7.85461E-19 7.65895E-19
 -1      2786 9.56850E-05-2.79577E-05-2.90291E-05-2.02480E-06 1.40922E-18 9.97273E-19
 -1      2787 9.54030E-05-2.75385E-05-2.90852E-05-2.61805E-06 6.02357E-19 6.91321E-19
 -1      2788 9.56690E-05-2.80342E-05-2.89800E-05-1.75210E-06 1.20288E-18 2.80100E-19
 -1      2789 9.55595E-05-2.80726E-05-2.89253E-05-1.51355E-06 1.00497E-18-3.40148E-19
 -1      2790 9.53734E-05-2.77428E-05-2.89851E-05-1.99531E-06 9.69200E-19 8.57972E-19
 -1      2791 9.55414E-05-2.81324E-05-2.88844E-05-1.29513E-06 6.86040E-19-8.69980E-19
 -1      2792 9.54551E-05-2.81630E-05-2.88411E-05-1.10421E-06-2.75234E-19-1.60343E-18
 -1      2793 9.53403E-05-2.79096E-05-2.88995E-05-1.49238E-06 4.82389E-19-1.30640E-18
 -1      2794 9.54352E-05-2.82079E-05-2.88079E-05-9.31238E-07-6.19073E-19-1.62998E-18
 -1      2795 9.53677E-05-2.82286E-05-2.87743E-05-7.79652E-07-2.66192E-19-1.20978E-18
 -1      2796 9.53042E-05-2.80408E-05-2.88284E-05-1.08930E-06-3.29012E-19-1.60559E-18
 -1      2797 3.15363E-05-1.24619E-05-7.61123E-06-6.18764E-06 3.93619E-19-4.43041E-18
 -1      2798 3.73954E-05-1.67948E-05-8.37359E-06-2.19083E-05-2.43310E-19-5.63510E-18
 -1      2799 1.29046E-04-6.06831E-05-2.97891E-05 1.83085E-05 1.39676E-18-9.69006E-19
 -1      2800 1.16468E-04-5.79584E-05-2.47159E-05 2.71199E-05 1.88359E-18-8.62941E-19
 -1      2801 9.47699E-05-2.77115E-05-2.87370E-05-1.01885E-06 4.43437E-19-4.61306E-19
 -1      2802 9.47973E-05-2.75341E-05-2.88100E-05-5.89362E-07 7.03393E-19-3.62568E-19
 -1      2803 9.51796E-05-2.82007E-05-2.86986E-05-2.59109E-06-1.07816E-19-3.14305E-19
 -1      2804 9.49861E-05-2.81389E-05-2.86465E-05-2.40536E-06-1.69257E-19-3.45035E-19
 -1      2805 9.55016E-05-2.82642E-05-2.88084E-05-2.98383E-06-2.78051E-20-3.72802E-19
 -1      2806 9.52555E-05-2.82107E-05-2.87334E-05-2.79795E-06-6.46124E-20-2.58018E-19
 -1      2807 9.53394E-05-2.81269E-05-2.88105E-05-2.86476E-06-2.04018E-19-5.27450E-19
 -1      2808 9.59085E-05-2.83234E-05-2.89567E-05-3.40525E-06 2.99218E-19-3.74650E-19
 -1      2809 9.56108E-05-2.82659E-05-2.88632E-05-3.20158E-06 1.11072E-19-4.24500E-19
 -1      2810 9.55278E-05-2.81356E-05-2.88867E-05-3.31758E-06 1.66340E-19-2.80808E-19
 -1      2811 9.64084E-05-2.84070E-05-2.91348E-05-3.87599E-06 2.96973E-19-3.17585E-19
 -1      2812 9.60550E-05-2.83308E-05-2.90263E-05-3.64850E-06 3.53859E-19-3.90288E-19
 -1      2813 9.57846E-05-2.81341E-05-2.89971E-05-3.80470E-06 3.05406E-19-4.94363E-19
 -1      2814 9.70186E-05-2.85523E-05-2.93343E-05-4.39205E-06 2.57004E-19-2.88949E-19
 -1      2815 9.66017E-05-2.84381E-05-2.92144E-05-4.14760E-06 3.77401E-19-2.76375E-19
 -1      2816 9.61243E-05-2.81618E-05-2.91310E-05-4.34557E-06 3.82834E-19-6.15521E-19
 -1      2817 9.77668E-05-2.88095E-05-2.95461E-05-4.91996E-06-4.53237E-20-1.34935E-19
 -1      2818 9.72756E-05-2.86318E-05-2.94190E-05-4.68125E-06 6.03110E-20-2.88435E-19
 -1      2819 9.65735E-05-2.82698E-05-2.92779E-05-4.93390E-06 6.56795E-20 3.57142E-20
 -1      2820 9.86933E-05-2.92449E-05-2.97595E-05-5.38908E-06 5.95606E-20 3.16728E-19
 -1      2821 9.81145E-05-2.89712E-05-2.96308E-05-5.19875E-06-2.17460E-19 1.67341E-19
 -1      2822 9.71762E-05-2.85273E-05-2.94275E-05-5.53269E-06-2.26829E-19 3.68672E-20
 -1      2823 9.98517E-05-2.99409E-05-2.99625E-05-5.68207E-06 6.32110E-19 3.01805E-19
 -1      2824 9.91716E-05-2.95332E-05-2.98391E-05-5.60708E-06 5.23402E-19 4.75808E-19
 -1      2825 9.79992E-05-2.90259E-05-2.95692E-05-6.06600E-06 1.40591E-19 3.75272E-19
 -1      2826 1.01304E-04-3.09846E-05-3.01453E-05-5.62666E-06 3.58017E-19 1.25898E-18
 -1      2827 1.00514E-04-3.04076E-05-3.00338E-05-5.76043E-06 4.77695E-19 6.42044E-19
 -1      2828 9.91353E-05-2.98777E-05-2.96952E-05-6.40811E-06 4.69351E-19 9.08198E-19
 -1      2829 1.03103E-04-3.24340E-05-3.03059E-05-4.99531E-06-1.09587E-19 2.03383E-18
 -1      2830 1.02210E-04-3.16759E-05-3.02098E-05-5.45286E-06 3.75024E-19 1.85331E-18
 -1      2831 1.00699E-04-3.11978E-05-2.98056E-05-6.37198E-06-4.88694E-20 1.45588E-18
 -1      2832 1.05244E-04-3.42461E-05-3.04601E-05-3.52664E-06-5.48217E-19 1.27303E-18
 -1      2833 1.04298E-04-3.33599E-05-3.03754E-05-4.42398E-06-3.32557E-19 1.57660E-18
 -1      2834 1.02802E-04-3.30545E-05-2.99172E-05-5.70219E-06-3.79469E-21 1.70477E-18
 -1      2835 1.07576E-04-3.61553E-05-3.06538E-05-9.99782E-07-8.50539E-19 1.18657E-18
 -1      2836 1.06707E-04-3.53202E-05-3.05625E-05-2.40157E-06-6.95991E-19 9.33380E-19
 -1      2837 1.05477E-04-3.53649E-05-3.00765E-05-4.08847E-06-5.89219E-19 1.37641E-18
 -1      2838 1.09690E-04-3.75377E-05-3.09696E-05 2.59635E-06-6.39106E-19 6.47404E-19
 -1      2839 1.09133E-04-3.71154E-05-3.08389E-05 7.71653E-07-6.07044E-19 1.19248E-18
 -1      2840 1.08540E-04-3.77209E-05-3.03724E-05-1.24883E-06-5.98280E-19 1.09590E-18
 -1      2841 1.10872E-04-3.74105E-05-3.15112E-05 6.76831E-06 3.11500E-19 1.00449E-18
 -1      2842 1.10937E-04-3.78968E-05-3.12992E-05 4.88504E-06-3.86636E-19 5.92434E-19
 -1      2843 1.11427E-04-3.92530E-05-3.09330E-05 2.85861E-06-2.14020E-19 1.45351E-18
 -1      2844 1.10318E-04-3.48077E-05-3.23465E-05 1.01961E-05 9.26045E-19 1.15576E-18
 -1      2845 1.11193E-04-3.65598E-05-3.20370E-05 8.98701E-06 5.50230E-19 1.00695E-18
 -1      2846 1.13084E-04-3.85672E-05-3.18962E-05 7.61424E-06 3.46223E-19 9.67851E-19
 -1      2847 1.07853E-04-2.98176E-05-3.33750E-05 1.07844E-05 4.78243E-19 6.99505E-19
 -1      2848 1.09294E-04-3.25031E-05-3.30224E-05 1.11696E-05 7.46962E-19 1.34520E-18
 -1      2849 1.12378E-04-3.46547E-05-3.32766E-05 1.13054E-05 7.25355E-19 7.75194E-19
 -1      2850 1.04723E-04-2.46106E-05-3.42670E-05 7.07333E-06 1.16984E-18 1.93415E-19
 -1      2851 1.05991E-04-2.69553E-05-3.39996E-05 9.37877E-06 1.07228E-18 8.32074E-19
 -1      2852 1.09430E-04-2.85160E-05-3.46716E-05 1.12687E-05 1.00978E-18 1.76222E-18
 -1      2853 1.03251E-04-2.23946E-05-3.46687E-05-1.63271E-07 1.85204E-18-7.00390E-19
 -1      2854 1.03524E-04-2.28686E-05-3.46078E-05 3.33434E-06 1.52281E-18-5.57483E-19
 -1      2855 1.06265E-04-2.25178E-05-3.59333E-05 5.95104E-06 1.74412E-18 8.57105E-19
 -1      2856 1.04768E-04-2.48847E-05-3.43320E-05-7.37827E-06 1.93676E-18-6.68481E-19
 -1      2857 1.03795E-04-2.31603E-05-3.45271E-05-4.39740E-06 2.05236E-18-9.20398E-19
 -1      2858 1.05520E-04-2.13720E-05-3.61658E-05-2.59394E-06 1.81593E-18-2.87691E-19
 -1      2859 1.08042E-04-3.02683E-05-3.34457E-05-1.10314E-05 4.33281E-19-3.85787E-19
 -1      2860 1.06518E-04-2.75325E-05-3.37849E-05-9.84318E-06 1.18108E-18-3.73690E-19
 -1      2861 1.08002E-04-2.55936E-05-3.53558E-05-9.64355E-06 1.39481E-18-6.75499E-19
 -1      2862 1.10695E-04-3.52018E-05-3.24224E-05-1.02767E-05 3.63615E-19-1.02464E-18
 -1      2863 1.09508E-04-3.29771E-05-3.27573E-05-1.09334E-05 6.69583E-19-8.63997E-19
 -1      2864 1.11405E-04-3.21920E-05-3.39054E-05-1.18574E-05 5.41598E-19-2.78085E-19
 -1      2865 1.11301E-04-3.76396E-05-3.15860E-05-6.72231E-06-5.42319E-19-1.14285E-18
 -1      2866 1.10900E-04-3.66501E-05-3.18328E-05-8.42398E-06-2.31719E-19-1.15271E-18
 -1      2867 1.13128E-04-3.73547E-05-3.24271E-05-9.42678E-06 1.46411E-19-9.96829E-19
 -1      2868 1.10040E-04-3.75983E-05-3.10280E-05-2.47263E-06-8.05079E-19 6.65756E-20
 -1      2869 1.10369E-04-3.77108E-05-3.11831E-05-4.37242E-06-5.36926E-19-5.15998E-19
 -1      2870 1.12339E-04-3.92702E-05-3.12992E-05-4.88679E-06-7.85523E-19-2.39438E-19
 -1      2871 1.07787E-04-3.60873E-05-3.06972E-05 1.11098E-06-9.33859E-19 1.32693E-19
 -1      2872 1.08551E-04-3.68103E-05-3.07948E-05-4.69209E-07-7.54190E-19 1.44235E-20
 -1      2873 1.09827E-04-3.84773E-05-3.05933E-05-4.09855E-07-5.71290E-19 4.87362E-19
 -1      2874 1.05338E-04-3.41122E-05-3.04951E-05 3.55134E-06-8.23501E-19-3.30516E-19
 -1      2875 1.06257E-04-3.50107E-05-3.05728E-05 2.47314E-06-1.04127E-18-1.46904E-19
 -1      2876 1.06746E-04-3.63124E-05-3.02134E-05 2.92950E-06-8.68201E-19-6.23573E-19
 -1      2877 1.03129E-04-3.22785E-05-3.03413E-05 4.89634E-06 1.81626E-18-2.81101E-20
 -1      2878 1.04031E-04-3.31024E-05-3.04231E-05 4.30145E-06 2.11653E-19-8.86498E-20
 -1      2879 1.03884E-04-3.38959E-05-3.00222E-05 4.96275E-06-3.85371E-19-1.27038E-18
 -1      2880 1.01310E-04-3.08310E-05-3.01898E-05 5.39218E-06 2.10183E-18-2.14999E-20
 -1      2881 1.02118E-04-3.14834E-05-3.02847E-05 5.17761E-06 2.72205E-18 5.52287E-19
 -1      2882 1.01560E-04-3.18158E-05-2.99123E-05 5.91216E-06 1.84873E-18-5.07039E-19
 -1      2883 9.98769E-05-2.97994E-05-3.00240E-05 5.31157E-06 1.31946E-18-2.13859E-19
 -1      2884 1.00567E-04-3.02715E-05-3.01308E-05 5.35834E-06 1.51982E-18-2.01399E-19
 -1      2885 9.98078E-05-3.02641E-05-2.98205E-05 6.09116E-06 1.94578E-18-3.19446E-19
 -1      2886 9.87680E-05-2.91188E-05-2.98448E-05 4.88443E-06 2.25781E-19 3.03386E-19
 -1      2887 9.93448E-05-2.94391E-05-2.99575E-05 5.08905E-06 9.83274E-19 5.50214E-19
 -1      2888 9.85369E-05-2.92185E-05-2.97189E-05 5.78081E-06 7.02253E-19-2.87983E-21
 -1      2889 9.79132E-05-2.87005E-05-2.96606E-05 4.28152E-06-5.49941E-19 3.56025E-19
 -1      2890 9.83885E-05-2.89065E-05-2.97724E-05 4.56557E-06-3.29059E-20 4.35650E-19
 -1      2891 9.76285E-05-2.85758E-05-2.96016E-05 5.19614E-06 1.47942E-19-1.72002E-21
 -1      2892 9.72529E-05-2.84634E-05-2.94808E-05 3.61923E-06-2.40726E-18 2.68224E-20
 -1      2893 9.76405E-05-2.85890E-05-2.95861E-05 3.92882E-06-1.62025E-18 1.85903E-19
 -1      2894 9.69791E-05-2.82213E-05-2.94730E-05 4.48843E-06-1.46015E-18 2.85283E-19
 -1      2895 9.67414E-05-2.83441E-05-2.93136E-05 2.97068E-06-5.07300E-19 7.84005E-19
 -1      2896 9.70543E-05-2.84159E-05-2.94084E-05 3.27206E-06-1.86097E-18 3.93819E-19
 -1      2897 9.65103E-05-2.80574E-05-2.93410E-05 3.75735E-06-1.99563E-18 5.97652E-20
 -1      2898 9.63446E-05-2.82970E-05-2.91640E-05 2.37712E-06-3.24840E-19 8.62076E-19
 -1      2899 9.65944E-05-2.83345E-05-2.92465E-05 2.65153E-06 2.94599E-19 7.05243E-19
 -1      2900 9.61671E-05-2.80109E-05-2.92130E-05 3.06362E-06-5.31419E-19 1.22033E-18
 -1      2901 9.60371E-05-2.82909E-05-2.90349E-05 1.85776E-06 2.36120E-19 1.87144E-19
 -1      2902 9.62341E-05-2.83075E-05-2.91043E-05 2.09681E-06-7.69063E-20 4.02141E-19
 -1      2903 9.59123E-05-2.80304E-05-2.90949E-05 2.44005E-06 6.23956E-19 4.75899E-19
 -1      2904 9.57990E-05-2.83047E-05-2.89268E-05 1.41736E-06-4.92763E-19-1.17126E-18
 -1      2905 9.59528E-05-2.83100E-05-2.89836E-05 1.61946E-06-3.77627E-20-3.02533E-19
 -1      2906 9.57204E-05-2.80817E-05-2.89902E-05 1.90046E-06 6.01172E-19-1.37265E-18
 -1      2907 9.56150E-05-2.83248E-05-2.88390E-05 1.05152E-06-8.63169E-19-1.50099E-18
 -1      2908 9.57333E-05-2.83250E-05-2.88842E-05 1.21918E-06-8.09604E-19-1.33421E-18
 -1      2909 9.55733E-05-2.81427E-05-2.89007E-05 1.44620E-06-2.79105E-19-2.00858E-18
 -1      2910 9.54742E-05-2.83437E-05-2.87693E-05 7.51837E-07-4.68284E-19 3.99324E-20
 -1      2911 9.55627E-05-2.83431E-05-2.88043E-05 8.87891E-07-6.54185E-19-8.02879E-19
 -1      2912 9.54570E-05-2.81993E-05-2.88263E-05 1.07057E-06-1.16435E-18-2.19383E-18
 -1      2913 9.53567E-05-2.83350E-05-2.87223E-05 5.45468E-07-1.68038E-19 1.50406E-18
 -1      2914 9.54219E-05-2.83322E-05-2.87495E-05 6.60537E-07-5.99777E-19 4.07093E-19
 -1      2915 9.53533E-05-2.82224E-05-2.87735E-05 8.03592E-07-1.02466E-18-7.05810E-19
 -1      2916 9.52677E-05-2.82180E-05-2.87385E-05 6.19134E-07-5.39993E-19 2.13927E-18
 -1      2917 9.45875E-05-2.74110E-05-2.87920E-05 7.91042E-08-4.33375E-19-6.17687E-19
 -1      2918 9.46064E-05-2.74311E-05-2.87903E-05 1.96100E-07-1.25936E-18 3.75250E-19
 -1      2919 9.53559E-05-2.82522E-05-2.87558E-05-6.83903E-07 5.40578E-20-1.92864E-18
 -1      2920 9.53181E-05-2.82650E-05-2.87367E-05-5.96930E-07-1.35577E-19-2.41971E-18
 -1      2921 9.52466E-05-2.81777E-05-2.87437E-05-6.27540E-07-5.71025E-19-7.23975E-19
 -1      2922 9.52733E-05-2.81273E-05-2.87786E-05-8.12439E-07-8.28391E-19-1.09645E-18
 -1      2923 9.47652E-05-2.76153E-05-2.87817E-05 5.26264E-07 6.71813E-19-7.29970E-19
 -1      2924 9.48396E-05-2.76946E-05-2.87753E-05 5.92189E-07 8.27689E-19-5.70146E-19
 -1      2925 9.46002E-05-2.74221E-05-2.87918E-05-1.81737E-07 4.84994E-19 1.88722E-19
 -1      2926 9.45850E-05-2.74066E-05-2.87926E-05-6.35568E-08-1.77375E-19-4.86266E-19
 -1      2927 9.44764E-05-2.72871E-05-2.87922E-05 1.11965E-08-1.00895E-19-2.36997E-19
 -1      2928 9.46453E-05-2.74783E-05-2.87886E-05 3.26964E-07-7.67436E-19-1.02342E-18
 -1      2929 9.46954E-05-2.75312E-05-2.87844E-05 4.25639E-07 4.42820E-19-1.96689E-18
 -1      2930 9.46489E-05-2.74732E-05-2.87872E-05 5.46219E-07 4.50130E-19-1.78524E-18
 -1      2931 9.45241E-05-2.73398E-05-2.87904E-05 3.00714E-07 9.20613E-20-1.02385E-18
 -1      2932 8.97380E-05-4.64341E-05-1.85788E-05 3.88383E-05-1.54901E-18-8.24692E-19
 -1      2933 7.15279E-05-3.59243E-05-1.47749E-05 3.75144E-05-1.86750E-18 6.72015E-19
 -1      2934 9.46812E-05-2.75093E-05-2.87880E-05-4.14079E-07 5.17271E-19-4.08434E-19
 -1      2935 9.46342E-05-2.74608E-05-2.87913E-05-3.13830E-07 3.61589E-19 5.01097E-19
 -1      2936 9.45126E-05-2.73219E-05-2.87929E-05-2.79756E-07 5.95728E-19 1.36057E-19
 -1      2937 9.48234E-05-2.76667E-05-2.87805E-05-5.90729E-07 8.57506E-19 2.54364E-19
 -1      2938 9.47490E-05-2.75885E-05-2.87862E-05-5.20660E-07 7.32143E-19-5.28977E-21
 -1      2939 9.46291E-05-2.74412E-05-2.87921E-05-5.33584E-07 7.92524E-19-1.13441E-19
 -1      2940 9.50055E-05-2.78767E-05-2.87690E-05-6.78217E-07-4.63149E-19 9.96640E-20
 -1      2941 9.49174E-05-2.77776E-05-2.87772E-05-6.54175E-07 6.14826E-19 8.70089E-19
 -1      2942 9.48118E-05-2.76328E-05-2.87890E-05-7.14903E-07 4.98759E-19 5.39932E-19
 -1      2943 9.51662E-05-2.80704E-05-2.87546E-05-6.52553E-07-2.63979E-19-9.57024E-19
 -1      2944 9.48606E-05-2.73046E-05-2.89523E-05-2.10172E-08 7.94316E-19-5.12818E-19
 -1      2945 9.49951E-05-2.70219E-05-2.91052E-05 6.45358E-07 8.25991E-19-4.45186E-19
 -1      2946 9.53172E-05-2.63681E-05-2.95553E-05 1.38252E-06 9.59380E-19-6.31989E-19
 -1      2947 9.52307E-05-2.71973E-05-2.91658E-05-1.22850E-07 6.02498E-19-5.63686E-19
 -1      2948 4.20902E-05-1.78410E-05-9.86421E-06-2.13711E-05 1.55806E-18 2.59637E-18
 -1      2949 5.48349E-05-2.58982E-05-1.20799E-05-3.16372E-05 1.44271E-18 2.25798E-18
 -1      2950 9.43513E-05-2.08250E-05-3.15458E-05-8.09186E-06-1.33835E-18-1.09239E-18
 -1      2951 9.47437E-05-2.25884E-05-3.09473E-05-6.23177E-06-1.23684E-18-9.86350E-19
 -1      2952 9.47172E-05-2.18687E-05-3.12268E-05 7.70141E-06 1.47623E-18-7.23674E-19
 -1      2953 1.41318E-04-5.09774E-05-3.93126E-05-4.70633E-06-5.11740E-19-4.02976E-19
 -1      2954 1.38208E-04-5.77393E-05-3.43079E-05 5.12567E-06 5.26153E-19-8.69479E-19
 -1      2955 1.27085E-04-1.57998E-05-4.82737E-05 9.86905E-06 4.63729E-18 1.56701E-18
 -1      2956 1.26074E-04-1.15602E-05-4.97178E-05 6.27846E-06 4.38594E-18 1.63975E-18
 -1      2957 3.43567E-05-1.22766E-05-9.00574E-06 6.63043E-06-1.72470E-19 3.10078E-18
 -1      2958 3.42215E-05-1.29408E-05-8.59689E-06-9.68773E-06 1.69565E-19 3.21873E-18
 -1      2959 4.58942E-05-1.54130E-05-1.24800E-05-1.41802E-05-1.13397E-19 2.02388E-18
 -1      2960 1.38302E-04-3.16216E-05-4.62657E-05-1.36576E-05-1.70158E-18 9.99393E-19
 -1      2961 1.41790E-04-4.22820E-05-4.28420E-05-1.18766E-05-1.32010E-18 8.65985E-19
 -1      2962 1.38679E-04-4.76922E-05-3.91783E-05-8.89702E-06-7.08252E-19 4.72962E-19
 -1      2963 9.49433E-05-2.81074E-05-2.86384E-05-2.18338E-06-1.93191E-19-3.66887E-19
 -1      2964 9.48090E-05-2.80253E-05-2.86160E-05-1.96800E-06 5.88727E-20-5.03320E-19
 -1      2965 9.52146E-05-2.80735E-05-2.87810E-05-2.40295E-06-1.27416E-19-3.86989E-19
 -1      2966 9.48016E-05-2.79570E-05-2.86436E-05-1.69213E-06 3.48217E-19-5.13672E-19
 -1      2967 9.47398E-05-2.78396E-05-2.86610E-05-1.40227E-06 4.34298E-19-4.47607E-19
 -1      2968 9.51543E-05-2.79389E-05-2.88144E-05-1.86380E-06 2.54006E-19-2.78531E-19
 -1      2969 3.84621E-05-1.78742E-05-8.45237E-06 2.17638E-05 1.10951E-18-2.37254E-18
 -1      2970 3.17117E-05-1.32983E-05-7.39885E-06 8.57756E-06 1.14844E-18-2.88436E-18
 -1      2971 1.32813E-04-5.45308E-05-3.36528E-05-5.65348E-06 3.33400E-19 1.56362E-18
 -1      2972 1.35674E-04-4.86158E-05-3.77258E-05 2.35118E-06 2.05040E-18 2.56349E-18
 -1      2973 9.52950E-05-2.40257E-05-3.05263E-05-4.95569E-06-1.11128E-18-8.94764E-19
 -1      2974 9.52190E-05-2.49912E-05-3.01145E-05-3.42950E-06-1.01318E-18-8.49003E-19
 -1      2975 9.52568E-05-2.46315E-05-3.02621E-05-3.13842E-06-1.05651E-18-1.11796E-18
 -1      2976 9.46119E-05-2.22814E-05-3.09926E-05-5.48272E-06-1.17866E-18-1.25970E-18
 -1      2977 1.00710E-04-5.26584E-05-2.07278E-05 3.54548E-05 1.72011E-18-2.27402E-19
 -1      2978 8.46789E-05-4.44257E-05-1.67527E-05 3.73315E-05 1.58067E-18-1.09373E-19
 -1      2979 7.79357E-05-4.10856E-05-1.52193E-05-3.95766E-05-1.69322E-18-3.88380E-18
 -1      2980 9.40540E-05-4.91985E-05-1.93232E-05-3.84413E-05-1.25467E-18-1.48241E-18
 -1      2981 1.25717E-04-8.81904E-06-5.07414E-05 1.16597E-06 3.54864E-18 1.37749E-18
 -1      2982 1.26517E-04-1.02946E-05-5.03393E-05-5.61333E-06 2.28868E-18 8.16116E-19
 -1      2983 6.67213E-05-3.48770E-05-1.35138E-05 3.73876E-05 1.51301E-18-1.40597E-18
 -1      2984 5.11481E-05-2.52582E-05-1.05049E-05 3.05528E-05 1.69428E-18-2.45534E-18
 -1      2985 1.40184E-04-5.24892E-05-3.75924E-05 3.59856E-06-1.89333E-18-1.12158E-18
 -1      2986 1.39941E-04-4.43109E-05-4.15286E-05 1.04962E-05-2.19016E-18-4.00011E-19
 -1      2987 9.11670E-05-1.59276E-05-3.22731E-05 4.77169E-06 9.19727E-19-1.97952E-18
 -1      2988 9.08125E-05-1.54108E-05-3.23376E-05 3.86685E-06 7.37865E-19-2.20261E-18
 -1      2989 9.17591E-05-1.69664E-05-3.20374E-05 3.06469E-06 5.80079E-19-2.11230E-18
 -1      2990 9.24600E-05-1.80771E-05-3.18579E-05 4.43758E-06 8.81592E-19-1.66212E-18
 -1      2991 4.80939E-05-2.42416E-05-9.68704E-06-3.16217E-05-1.41963E-18-5.40746E-18
 -1      2992 6.18393E-05-3.27239E-05-1.22890E-05-3.86407E-05-1.58829E-18-5.16521E-18
 -1      2993 9.20667E-05-1.66102E-05-3.23463E-05-8.88148E-06-1.33756E-18-1.54258E-18
 -1      2994 9.07786E-05-1.53612E-05-3.23438E-05-3.80377E-06-6.03024E-19-2.07554E-18
 -1      2995 9.11245E-05-1.58643E-05-3.22808E-05-4.70874E-06-8.40211E-19-2.00724E-18
 -1      2996 1.31299E-04-1.74388E-05-4.92682E-05-1.08929E-05-2.57922E-18 6.00335E-20
 -1      2997 1.34046E-04-2.39252E-05-4.78074E-05-1.44459E-05-1.94098E-18 6.69791E-19
 -1      2998 6.93579E-05-3.52003E-05-1.41603E-05-3.59100E-05 8.97008E-19 1.83446E-18
 -1      2999 8.37034E-05-4.38162E-05-1.70577E-05-3.80588E-05 1.03285E-18 1.58776E-18
 -1      3000 5.47152E-05-2.55995E-05-1.21981E-05 3.32914E-05-1.06980E-18 1.51640E-18
 -1      3001 4.25703E-05-1.71755E-05-1.03815E-05 2.20086E-05-3.19437E-19 7.35966E-19
 -1      3002 1.29375E-04-5.98744E-05-2.95488E-05-1.58897E-05-1.04609E-18-2.29175E-18
 -1      3003 1.36308E-04-5.85762E-05-3.38017E-05-7.02486E-06-1.49957E-18-1.68830E-18
 -1      3004 1.35806E-04-5.48738E-05-3.52025E-05 7.46373E-06-3.17955E-19-1.68665E-19
 -1      3005 1.30111E-04-5.75429E-05-3.10134E-05 1.52178E-05-5.32387E-19-1.14593E-18
 -1      3006 1.37145E-04-3.76521E-05-4.33628E-05-8.67300E-06 2.28275E-19 9.53336E-19
 -1      3007 1.38078E-04-4.72345E-05-3.89928E-05-2.28680E-06-2.84656E-19-4.00223E-20
 -1      3008 9.15637E-05-1.65337E-05-3.21757E-05-5.42024E-06-9.30656E-19-1.92322E-18
 -1      3009 9.20507E-05-1.72559E-05-3.20784E-05-6.24251E-06-1.06418E-18-1.84319E-18
 -1      3010 9.24078E-05-1.79969E-05-3.18685E-05-4.39937E-06-8.21400E-19-1.75205E-18
 -1      3011 9.12017E-05-1.61102E-05-3.21688E-05 2.84228E-08 2.31232E-20-1.76985E-18
 -1      3012 9.01124E-05-1.43729E-05-3.24796E-05-3.65733E-07-4.84545E-20-1.93487E-18
 -1      3013 9.01727E-05-1.44575E-05-3.24691E-05-1.29476E-06-1.88821E-19-1.99664E-18
 -1      3014 1.31208E-04-3.28086E-05-4.24880E-05-1.16381E-05 5.97105E-19-1.59560E-19
 -1      3015 1.34534E-04-5.05675E-05-3.60539E-05-7.57321E-07-4.68965E-19 1.63266E-19
 -1      3016 1.22979E-04-5.77461E-05-2.77925E-05-1.83562E-05-1.17314E-19-1.91710E-18
 -1      3017 6.92826E-05-3.06409E-05-1.61077E-05 3.23438E-05-1.67681E-18 5.21031E-19
 -1      3018 6.70538E-05-2.97524E-05-1.55025E-05-3.08676E-05 1.61672E-18 2.07407E-18
 -1      3019 1.23161E-04-1.50327E-05-4.67895E-05-8.34499E-06 1.77898E-18-4.44004E-19
 -1      3020 7.44696E-05-3.62361E-05-1.58731E-05-3.64558E-05-1.78830E-18-4.10477E-18
 -1      3021 1.35758E-04-5.46969E-05-3.47874E-05 9.47115E-07-1.06267E-18-1.76051E-18
 -1      3022 7.99087E-05-3.87647E-05-1.71325E-05 3.43792E-05 1.85818E-18-7.44595E-19
 -1      3023 1.29489E-04-4.28725E-05-3.74913E-05-1.44955E-05-8.82052E-19 1.20078E-18
 -1      3024 1.27465E-04-3.56505E-05-3.94863E-05-1.60232E-05-8.96955E-19 1.19106E-18
 -1      3025 1.24720E-04-1.70559E-05-4.69618E-05 8.90969E-06-2.71887E-18-4.78468E-19
 -1      3026 9.48318E-05-2.76700E-05-2.87822E-05 7.13894E-07 1.12203E-18-3.11228E-19
 -1      3027 9.49305E-05-2.78047E-05-2.87712E-05 6.48788E-07 1.25633E-19-9.05007E-19
 -1      3028 9.50180E-05-2.79012E-05-2.87629E-05 6.71908E-07-4.57991E-19-1.69708E-18
 -1      3029 1.27842E-04-3.60100E-05-3.95184E-05 1.56871E-05-2.18910E-18-6.00599E-19
 -1      3030 1.29811E-04-4.29977E-05-3.75242E-05 1.44543E-05-7.65188E-19-1.09765E-18
 -1      3031 4.91038E-05-2.00731E-05-1.18538E-05-2.47024E-05-9.63923E-19-5.09194E-18
 -1      3032 3.85551E-05-1.28156E-05-1.03785E-05 4.02374E-07 7.65010E-19-3.41111E-18
 -1      3033 1.20224E-04-1.14103E-05-4.70831E-05 3.61545E-06 3.64330E-18 3.90165E-20
 -1      3034 1.10946E-04-5.43647E-05-2.38951E-05 2.76349E-05 2.10467E-18-4.94230E-19
 -1      3035 9.51629E-05-2.76749E-05-2.89326E-05-1.14862E-06 5.20013E-19-4.63266E-19
 -1      3036 9.51021E-05-2.80083E-05-2.87572E-05 6.74193E-07-1.92620E-18-1.30815E-18
 -1      3037 9.51896E-05-2.81105E-05-2.87467E-05 6.53720E-07-1.66880E-18 1.14016E-18
 -1      3038 9.52248E-05-2.81066E-05-2.87622E-05 7.45884E-07-2.08635E-18 4.48240E-19
 -1      3039 9.50356E-05-2.78913E-05-2.87745E-05 7.76530E-07-1.60518E-18-1.37962E-19
 -1      3040 1.29879E-04-5.71869E-05-3.13025E-05-1.10511E-05-8.68791E-19 7.93035E-19
 -1      3041 1.29143E-04-5.29143E-05-3.27248E-05-2.88266E-06 9.84874E-20 1.11300E-18
 -1      3042 1.23650E-04-5.61141E-05-2.86790E-05-1.57297E-05-1.05768E-18 8.70472E-19
 -1      3043 9.51741E-05-2.80326E-05-2.87759E-05-7.93282E-07-1.53473E-18-1.10401E-18
 -1      3044 9.50779E-05-2.79503E-05-2.87700E-05-7.25238E-07-6.80535E-19-9.76202E-19
 -1      3045 9.50057E-05-2.78264E-05-2.87887E-05-8.26228E-07-1.27249E-18-5.72506E-19
 -1      3046 9.51904E-05-2.79966E-05-2.87942E-05-8.97190E-07-1.52603E-18-1.15252E-18
 -1      3047 1.27427E-04-2.21669E-05-4.56301E-05 1.20677E-05 3.97904E-18 1.93896E-18
 -1      3048 1.20334E-04-1.92188E-05-4.36815E-05 1.17864E-05 3.60709E-18 1.30904E-18
 -1      3049 1.26080E-04-2.80109E-05-4.22413E-05 1.34160E-05 3.47336E-18 1.96660E-18
 -1      3050 4.25434E-05-1.39961E-05-1.16554E-05 1.40057E-05-9.55903E-19 2.38376E-18
 -1      3051 4.54591E-05-1.22306E-05-1.39060E-05 5.53024E-06-1.28781E-18 2.46158E-18
 -1      3052 5.25860E-05-1.68918E-05-1.50305E-05 1.84035E-05-1.48874E-18 1.13746E-18
 -1      3053 1.32942E-04-5.82800E-05-3.18648E-05 8.18859E-06 1.52768E-18-1.11565E-18
 -1      3054 1.32907E-04-4.84471E-05-3.63561E-05 9.21234E-06-1.03527E-18-4.67774E-19
 -1      3055 1.31434E-04-3.28139E-05-4.26034E-05-1.56589E-05-1.33704E-18 1.45187E-18
 -1      3056 9.43751E-05-2.13653E-05-3.12948E-05 7.04507E-06 1.44791E-18-1.06704E-18
 -1      3057 1.05223E-04-5.21868E-05-2.24874E-05-3.15201E-05-1.69788E-18-2.35568E-19
 -1      3058 1.34052E-04-4.36328E-05-3.89729E-05 7.71494E-06 2.68986E-18 2.99310E-18
 -1      3059 1.29295E-04-3.72855E-05-3.99761E-05 1.17393E-05 3.17341E-18 2.58679E-18
 -1      3060 1.30343E-04-4.65598E-05-3.60485E-05 6.17659E-06 2.12652E-18 2.26168E-18
 -1      3061 9.70584E-05-4.74578E-05-2.08602E-05-3.19987E-05 4.73280E-19 3.03661E-19
 -1      3062 9.03058E-05-1.46603E-05-3.24402E-05-2.09898E-06-2.92049E-19-2.02665E-18
 -1      3063 9.04997E-05-1.49361E-05-3.24061E-05-3.02484E-06-4.75517E-19-2.10670E-18
 -1      3064 9.17294E-05-1.69226E-05-3.20438E-05-3.00821E-06-5.07954E-19-1.91172E-18
 -1      3065 9.13293E-05-1.63053E-05-3.21392E-05-1.51063E-06-2.38835E-19-1.87700E-18
 -1      3066 5.13392E-05-2.13660E-05-1.21982E-05 2.47040E-05 1.41566E-18-2.32966E-18
 -1      3067 1.25487E-04-5.72340E-05-2.91293E-05 1.66995E-05-9.45818E-19-5.99911E-19
 -1      3068 9.28482E-05-1.83559E-05-3.19232E-05-7.30730E-06-1.17229E-18-1.61090E-18
 -1      3069 9.46359E-05-2.23775E-05-3.09598E-05 5.49026E-06 1.30005E-18-1.14077E-18
 -1      3070 1.32759E-04-4.80387E-05-3.63969E-05-9.62185E-06-3.52048E-20 1.26886E-18
 -1      3071 1.33303E-04-3.46205E-05-4.26086E-05 1.59338E-05-2.40557E-18-1.36584E-19
 -1      3072 9.83469E-05-4.68079E-05-2.16538E-05-3.12990E-05-1.90270E-18-8.78585E-19
 -1      3073 1.11988E-04-5.37354E-05-2.52637E-05-2.54889E-05-1.36563E-18 5.02092E-19
 -1      3074 9.42770E-05-2.17054E-05-3.11234E-05 4.74026E-06 1.07014E-18-1.32859E-18
 -1      3075 9.38003E-05-2.07348E-05-3.13160E-05 4.39364E-06 9.97316E-19-1.36800E-18
 -1      3076 1.01574E-04-4.96326E-05-2.19918E-05 3.16866E-05-1.55049E-18-5.13249E-19
 -1      3077 1.30533E-04-4.66473E-05-3.64774E-05-6.14158E-06-4.28810E-20-5.17749E-20
 -1      3078 1.30300E-04-5.21195E-05-3.33924E-05 8.65959E-07-2.74836E-19 1.95559E-19
 -1      3079 7.96662E-05-3.47218E-05-1.91438E-05 3.17364E-05-1.90593E-18-5.05837E-19
 -1      3080 6.55048E-05-2.51991E-05-1.69920E-05 2.75295E-05-1.81659E-18 8.01187E-19
 -1      3081 9.56616E-05-2.65539E-05-2.96046E-05-2.08421E-07-6.98643E-19-1.14391E-18
 -1      3082 9.56452E-05-2.69499E-05-2.94467E-05 4.15753E-07-6.90031E-19-1.01468E-18
 -1      3083 9.56567E-05-2.72629E-05-2.93024E-05 9.08887E-07-6.82072E-19-9.51793E-19
 -1      3084 9.56284E-05-2.74842E-05-2.92064E-05 1.35682E-06-6.49601E-19-1.01473E-18
 -1      3085 9.57729E-05-2.68160E-05-2.95557E-05 5.37436E-07-6.44213E-19-1.14529E-18
 -1      3086 9.55765E-05-2.76327E-05-2.91136E-05 1.72622E-06-6.12340E-19-7.81688E-19
 -1      3087 9.55543E-05-2.77333E-05-2.90649E-05 2.06696E-06-5.77572E-19-7.68987E-19
 -1      3088 9.57379E-05-2.73579E-05-2.93088E-05 1.43478E-06-5.72150E-19-9.84625E-19
 -1      3089 9.54611E-05-2.77631E-05-2.90119E-05 2.36568E-06-4.29345E-19-6.84966E-19
 -1      3090 9.54484E-05-2.77760E-05-2.89990E-05 2.65543E-06-1.82911E-19-7.07516E-19
 -1      3091 9.55993E-05-2.75826E-05-2.91525E-05 2.13102E-06-3.70018E-19-7.48286E-19
 -1      3092 9.53236E-05-2.77167E-05-2.89758E-05 2.92835E-06-1.55699E-20-7.32005E-19
 -1      3093 9.53188E-05-2.76637E-05-2.89899E-05 3.21094E-06-6.09752E-20-6.31848E-19
 -1      3094 9.53879E-05-2.75715E-05-2.90656E-05 2.72347E-06-3.18650E-20-8.05002E-19
 -1      3095 9.51637E-05-2.75348E-05-2.89879E-05 3.49408E-06-1.68882E-19-4.88082E-19
 -1      3096 9.51639E-05-2.74318E-05-2.90216E-05 3.80296E-06 5.56672E-21-5.01570E-19
 -1      3097 9.51143E-05-2.73798E-05-2.90292E-05 3.29318E-06 2.11828E-20-8.10952E-19
 -1      3098 9.49758E-05-2.72482E-05-2.90325E-05 4.12453E-06-1.35142E-20-4.08084E-19
 -1      3099 9.49784E-05-2.71097E-05-2.90791E-05 4.48437E-06-3.37975E-20-5.28934E-19
 -1      3100 9.47773E-05-2.70471E-05-2.90259E-05 3.90427E-06-4.84966E-20-4.52892E-19
 -1      3101 9.47530E-05-2.68861E-05-2.90943E-05 4.86601E-06-2.26082E-19-5.24241E-19
 -1      3102 9.47582E-05-2.67299E-05-2.91465E-05 5.29349E-06-5.18206E-20-8.23819E-19
 -1      3103 9.43699E-05-2.66074E-05-2.90381E-05 4.60625E-06-1.80499E-19-2.76854E-19
 -1      3104 9.44932E-05-2.64863E-05-2.91562E-05 5.75149E-06-3.62612E-20-1.10639E-18
 -1      3105 9.45079E-05-2.63394E-05-2.92054E-05 6.25516E-06-3.57860E-19-1.13720E-18
 -1      3106 9.38853E-05-2.60993E-05-2.90465E-05 5.43663E-06-1.39737E-19-7.70245E-19
 -1      3107 9.42087E-05-2.61085E-05-2.91975E-05 6.80174E-06-3.56891E-20-1.21488E-18
 -1      3108 9.42529E-05-2.60160E-05-2.92331E-05 7.38115E-06 5.57915E-20-9.84384E-19
 -1      3109 9.33254E-05-2.55790E-05-2.90281E-05 6.42404E-06-1.08628E-19-1.26947E-18
 -1      3110 9.39419E-05-2.58534E-05-2.91929E-05 8.02651E-06-1.61960E-19-8.85517E-19
 -1      3111 9.40620E-05-2.58909E-05-2.92019E-05 8.67072E-06-3.89300E-19-5.44451E-19
 -1      3112 9.27146E-05-2.51381E-05-2.89549E-05 7.59283E-06-1.36195E-19-1.21491E-18
 -1      3113 9.37943E-05-2.58902E-05-2.91125E-05 9.42608E-06-7.19597E-19-4.70930E-19
 -1      3114 9.40833E-05-2.61813E-05-2.90813E-05 1.01107E-05-5.85318E-19-4.64180E-19
 -1      3115 9.21237E-05-2.49283E-05-2.87935E-05 8.97103E-06-3.80943E-19-9.99698E-19
 -1      3116 9.39747E-05-2.64940E-05-2.89258E-05 1.09897E-05-2.65981E-19-4.74453E-19
 -1      3117 9.46019E-05-2.72307E-05-2.88449E-05 1.16684E-05 1.02796E-19-4.31519E-19
 -1      3118 9.17106E-05-2.51982E-05-2.85075E-05 1.06007E-05-4.78754E-19-6.91483E-19
 -1      3119 9.48718E-05-2.80867E-05-2.86140E-05 1.26765E-05 3.17414E-19-6.94374E-19
 -1      3120 9.61151E-05-2.95386E-05-2.84910E-05 1.32572E-05 5.17880E-19-3.60312E-19
 -1      3121 9.17885E-05-2.63415E-05-2.80664E-05 1.25403E-05 1.21284E-19-1.02746E-18
 -1      3122 9.71420E-05-3.12489E-05-2.82004E-05 1.43465E-05 1.00843E-18-4.45809E-19
 -1      3123 9.94024E-05-3.37247E-05-2.80857E-05 1.46286E-05 1.22214E-18-3.00748E-19
 -1      3124 9.29258E-05-2.89384E-05-2.74687E-05 1.48243E-05 8.00009E-19-1.16238E-18
 -1      3125 1.01805E-04-3.66739E-05-2.78181E-05 1.55912E-05 1.22130E-18-1.92318E-19
 -1      3126 1.05497E-04-4.03175E-05-2.78644E-05 1.50980E-05 1.63730E-18-2.70304E-19
 -1      3127 9.60557E-05-3.37277E-05-2.67965E-05 1.73420E-05 1.33797E-18-1.13221E-18
 -1      3128 1.10092E-04-4.46381E-05-2.78886E-05 1.51659E-05 1.81500E-18-6.45881E-19
 -1      3129 1.15491E-04-4.88970E-05-2.84842E-05 1.30184E-05 2.05543E-18-1.09284E-18
 -1      3130 1.02743E-04-4.14621E-05-2.63497E-05 1.94745E-05 1.33502E-18-1.06763E-18
 -1      3131 4.91261E-05-1.64106E-05-1.36656E-05-1.90287E-05-6.31834E-19-4.55683E-18
 -1      3132 5.83815E-05-2.35405E-05-1.47040E-05-2.86333E-05-1.53768E-18-4.45486E-18
 -1      3133 1.15133E-04-4.86573E-05-2.84805E-05-1.29085E-05 4.70037E-19-2.65547E-18
 -1      3134 1.10133E-04-4.44761E-05-2.79516E-05-1.48551E-05 1.66597E-19-2.79873E-18
 -1      3135 1.05585E-04-4.02740E-05-2.79320E-05-1.49021E-05 4.17012E-19-1.41817E-18
 -1      3136 1.01935E-04-3.66169E-05-2.78926E-05-1.53517E-05 8.64795E-19-1.06202E-18
 -1      3137 1.02925E-04-4.15151E-05-2.64424E-05-1.91088E-05 1.48920E-18-1.75687E-18
 -1      3138 9.95135E-05-3.36797E-05-2.81567E-05-1.44089E-05 5.26896E-19-7.88811E-19
 -1      3139 9.72590E-05-3.11950E-05-2.82719E-05-1.41163E-05 7.14903E-19-1.34993E-18
 -1      3140 9.61899E-05-3.37105E-05-2.68701E-05-1.71098E-05 5.77705E-19-1.73421E-18
 -1      3141 9.62056E-05-2.94666E-05-2.85619E-05-1.30136E-05 4.60438E-19-2.23004E-18
 -1      3142 9.49593E-05-2.80015E-05-2.86869E-05-1.24105E-05 2.60064E-19-2.72994E-18
 -1      3143 9.30065E-05-2.88657E-05-2.75366E-05-1.45987E-05-1.42129E-19-2.50265E-18
 -1      3144 9.46662E-05-2.71255E-05-2.89184E-05-1.13745E-05 6.16357E-20-3.31674E-18
 -1      3145 9.40348E-05-2.63732E-05-2.90022E-05-1.06618E-05-7.66129E-19-3.17058E-18
 -1      3146 9.18217E-05-2.62168E-05-2.81342E-05-1.22703E-05-3.87816E-19-2.50426E-18
 -1      3147 9.41187E-05-2.60377E-05-2.91589E-05-9.74430E-06-1.39134E-19-2.50384E-18
 -1      3148 9.38257E-05-2.57294E-05-2.91939E-05-9.01546E-06-3.21006E-19-1.75574E-18
 -1      3149 9.16972E-05-2.50240E-05-2.85763E-05-1.02643E-05-2.32423E-19-1.79714E-18
 -1      3150 9.40671E-05-2.57058E-05-2.92843E-05-8.21193E-06-6.73332E-19-9.74213E-19
 -1      3151 9.39437E-05-2.56512E-05-2.92794E-05-7.51498E-06 4.21099E-20-1.05461E-18
 -1      3152 9.20609E-05-2.47014E-05-2.88635E-05-8.54731E-06 2.61900E-19-1.31249E-18
 -1      3153 9.42259E-05-2.57894E-05-2.93196E-05-6.81413E-06 5.31519E-19-2.14613E-19
 -1      3154 9.41788E-05-2.58664E-05-2.92877E-05-6.17554E-06 6.18017E-20 8.17406E-20
 -1      3155 9.25987E-05-2.48585E-05-2.90246E-05-7.06583E-06 7.05938E-19-7.79355E-19
 -1      3156 9.44456E-05-2.60743E-05-2.92934E-05-5.56861E-06-7.25074E-19 2.98930E-19
 -1      3157 9.44279E-05-2.62095E-05-2.92463E-05-5.00214E-06-4.72739E-19 5.17178E-19
 -1      3158 9.31506E-05-2.52494E-05-2.90937E-05-5.78286E-06-1.03435E-19 2.58683E-19
 -1      3159 9.46562E-05-2.64342E-05-2.92306E-05-4.48248E-06-5.88663E-19 1.98182E-19
 -1      3160 9.46467E-05-2.65861E-05-2.91772E-05-3.99317E-06-6.58682E-19 4.19150E-19
 -1      3161 9.36439E-05-2.57275E-05-2.91013E-05-4.67657E-06-7.62329E-19 1.02714E-18
 -1      3162 9.48311E-05-2.67997E-05-2.91498E-05-3.55433E-06 5.51099E-21 1.18854E-18
 -1      3163 9.48215E-05-2.69461E-05-2.90964E-05-3.14103E-06 4.75497E-19 1.52629E-18
 -1      3164 9.40538E-05-2.62102E-05-2.90714E-05-3.73233E-06-6.79418E-20 1.41903E-18
 -1      3165 9.49646E-05-2.71352E-05-2.90641E-05-2.77591E-06 2.06743E-20 2.53986E-18
 -1      3166 9.49527E-05-2.72655E-05-2.90144E-05-2.43342E-06 3.79206E-19 1.30824E-18
 -1      3167 9.43786E-05-2.66546E-05-2.90214E-05-2.93714E-06 8.68668E-19 3.04201E-18
 -1      3168 9.50601E-05-2.74250E-05-2.89816E-05-2.13403E-06 1.97573E-20 9.97731E-19
 -1      3169 9.50458E-05-2.75349E-05-2.89378E-05-1.85473E-06 2.16473E-19 2.64276E-20
 -1      3170 9.46271E-05-2.70409E-05-2.89633E-05-2.27718E-06-3.26327E-19 2.49339E-18
 -1      3171 9.51232E-05-2.76638E-05-2.89071E-05-1.61289E-06 3.16124E-19-7.93992E-19
 -1      3172 9.51085E-05-2.77524E-05-2.88700E-05-1.38776E-06-2.85487E-19-1.10277E-18
 -1      3173 9.48111E-05-2.73626E-05-2.89049E-05-1.73780E-06-1.51732E-19-7.19929E-20
 -1      3174 9.51705E-05-2.78536E-05-2.88466E-05-1.21783E-06 6.48073E-20-1.72138E-18
 -1      3175 9.51535E-05-2.79214E-05-2.88155E-05-1.03556E-06-5.41334E-19-1.69910E-18
 -1      3176 9.50491E-05-2.78255E-05-2.88117E-05-1.01281E-06-5.74879E-19-3.55986E-19
 -1      3177 9.49515E-05-2.76242E-05-2.88546E-05-1.32661E-06 3.88942E-19 4.72309E-20
 -1      3178 1.16826E-04-1.30317E-05-4.49936E-05-5.84890E-06 2.04707E-18-9.36951E-19
 -1      3179 1.20289E-04-1.84112E-05-4.38389E-05-1.16802E-05 1.43000E-18-6.99861E-19
 -1      3180 9.54470E-05-2.80042E-05-2.88987E-05-3.00066E-06-2.65921E-19-6.92019E-19
 -1      3181 9.53717E-05-2.79903E-05-2.88772E-05-2.76396E-06-3.14378E-19-5.50266E-19
 -1      3182 9.58033E-05-2.78517E-05-2.91143E-05-4.61754E-06 1.04218E-19-1.94322E-19
 -1      3183 9.56105E-05-2.78326E-05-2.90508E-05-4.32523E-06 2.18168E-19-6.11911E-19
 -1      3184 9.60904E-05-2.79113E-05-2.92116E-05-5.26751E-06-1.44870E-19 4.29006E-20
 -1      3185 9.58326E-05-2.78332E-05-2.91453E-05-4.95672E-06 1.07384E-19 6.59195E-20
 -1      3186 9.52872E-05-2.74962E-05-2.90563E-05-4.93755E-06-3.19267E-20-1.85418E-19
 -1      3187 9.65419E-05-2.81529E-05-2.93018E-05-5.93974E-06-2.71613E-19-1.61393E-19
 -1      3188 9.61911E-05-2.79709E-05-2.92381E-05-5.63538E-06-2.35122E-19 1.35973E-19
 -1      3189 9.54127E-05-2.75308E-05-2.90969E-05-5.66473E-06-2.00159E-19-2.28850E-19
 -1      3190 9.72479E-05-2.86919E-05-2.93744E-05-6.56427E-06 8.93279E-20 2.20792E-19
 -1      3191 9.67632E-05-2.83472E-05-2.93184E-05-6.31183E-06-1.72727E-19 6.34263E-20
 -1      3192 9.57250E-05-2.77964E-05-2.91201E-05-6.43366E-06-3.09294E-19-8.94646E-20
 -1      3193 9.83372E-05-2.96706E-05-2.94241E-05-7.02330E-06 6.53116E-20 1.35354E-18
 -1      3194 9.76637E-05-2.90939E-05-2.93780E-05-6.89419E-06 1.73906E-19 9.14300E-19
 -1      3195 9.63449E-05-2.84364E-05-2.91171E-05-7.18212E-06-2.61946E-19 2.93071E-19
 -1      3196 9.99741E-05-3.12395E-05-2.94579E-05-7.13607E-06-1.39317E-19 1.37926E-18
 -1      3197 9.90497E-05-3.03646E-05-2.94178E-05-7.23303E-06 8.80012E-20 1.35377E-18
 -1      3198 9.74463E-05-2.96267E-05-2.90878E-05-7.79870E-06-1.03518E-19 1.28723E-18
 -1      3199 1.02330E-04-3.35005E-05-2.95077E-05-6.64077E-06-1.99819E-19 1.45216E-18
 -1      3200 1.01108E-04-3.23004E-05-2.94573E-05-7.10057E-06-7.89507E-20 1.61609E-18
 -1      3201 9.92568E-05-3.15512E-05-2.90516E-05-8.09805E-06-2.46789E-19 1.05097E-18
 -1      3202 1.05496E-04-3.63803E-05-2.96458E-05-5.18478E-06-7.00378E-19 1.33440E-18
 -1      3203 1.04002E-04-3.49430E-05-2.95496E-05-6.16796E-06-6.30508E-19 1.87407E-18
 -1      3204 1.02026E-04-3.43293E-05-2.90633E-05-7.78135E-06-3.78042E-19 1.64763E-18
 -1      3205 1.09318E-04-3.94030E-05-3.00045E-05-2.37282E-06-5.82367E-19 1.31668E-18
 -1      3206 1.07726E-04-3.80497E-05-2.97996E-05-4.00532E-06-5.77735E-19 1.08008E-18
 -1      3207 1.05923E-04-3.78522E-05-2.92349E-05-6.38970E-06-5.54981E-19 1.53785E-18
 -1      3208 1.13066E-04-4.13770E-05-3.07745E-05 1.92185E-06-5.97704E-19 1.63210E-18
 -1      3209 1.11799E-04-4.07793E-05-3.03822E-05-2.58421E-07-5.38217E-19 1.61043E-18
 -1      3210 1.10670E-04-4.13866E-05-2.97668E-05-3.26955E-06-7.09718E-19 1.95835E-18
 -1      3211 1.15539E-04-4.05745E-05-3.21628E-05 7.42600E-06 7.44163E-19 2.12342E-18
 -1      3212 1.15304E-04-4.17492E-05-3.14981E-05 5.02023E-06 8.34493E-20 2.11197E-18
 -1      3213 1.15657E-04-4.35187E-05-3.09714E-05 1.78161E-06-3.40163E-19 2.38671E-18
 -1      3214 1.14890E-04-3.53809E-05-3.40636E-05 1.16119E-05 9.76589E-19 2.05153E-18
 -1      3215 1.16137E-04-3.86446E-05-3.33253E-05 1.03589E-05 9.85443E-19 2.13429E-18
 -1      3216 1.18503E-04-4.15875E-05-3.29349E-05 8.05998E-06 1.09647E-18 3.14405E-18
 -1      3217 1.13297E-04-2.42481E-05-3.82629E-05 1.16515E-05 2.15538E-18 8.33798E-19
 -1      3218 1.15609E-04-2.93103E-05-3.71712E-05 1.29738E-05 1.83762E-18 1.24270E-18
 -1      3219 1.07795E-04-1.92775E-05-3.81249E-05-5.22606E-06 1.79129E-18-4.81773E-19
 -1      3220 1.07183E-04-1.80020E-05-3.83343E-05-7.49415E-07 2.27847E-18-2.05379E-19
 -1      3221 1.15438E-04-3.59132E-05-3.42349E-05-1.19185E-05 2.51749E-19-4.23412E-19
 -1      3222 1.13842E-04-3.17212E-05-3.51725E-05-1.24572E-05 8.72232E-19-3.12150E-19
 -1      3223 1.15981E-04-4.09382E-05-3.21888E-05-7.41580E-06-1.86220E-19-3.68969E-19
 -1      3224 1.15695E-04-3.88735E-05-3.29445E-05-9.51563E-06 8.07593E-20-3.64565E-19
 -1      3225 1.18647E-04-3.90743E-05-3.40840E-05-1.05059E-05 2.37460E-19-1.03623E-19
 -1      3226 1.13430E-04-4.14935E-05-3.07896E-05-1.84541E-06-1.38662E-18-5.27576E-21
 -1      3227 1.14345E-04-4.14821E-05-3.12846E-05-4.23212E-06-1.05212E-18-3.21045E-20
 -1      3228 1.17150E-04-4.33097E-05-3.16579E-05-4.32357E-06-5.38253E-19-5.44126E-19
 -1      3229 1.09421E-04-3.92389E-05-3.00171E-05 2.55683E-06-4.20206E-19 4.51019E-19
 -1      3230 1.10932E-04-4.03836E-05-3.02864E-05 6.66785E-07-6.54089E-19 2.88757E-19
 -1      3231 1.12794E-04-4.25254E-05-3.01663E-05 1.44461E-06-1.54976E-18 1.95433E-19
 -1      3232 1.05452E-04-3.61104E-05-2.96631E-05 5.28417E-06-2.15280E-19-4.37949E-19
 -1      3233 1.07014E-04-3.75760E-05-2.97907E-05 4.06935E-06 1.09611E-19 6.33058E-19
 -1      3234 1.07789E-04-3.92752E-05-2.94240E-05 5.24191E-06-1.05290E-19-6.90812E-20
 -1      3235 1.02206E-04-3.32044E-05-2.95331E-05 6.60482E-06 4.76171E-20-1.28116E-18
 -1      3236 1.03542E-04-3.45309E-05-2.95908E-05 5.98117E-06-5.02302E-19-9.50526E-19
 -1      3237 1.03463E-04-3.55901E-05-2.91430E-05 7.17877E-06 5.39078E-20 1.74898E-19
 -1      3238 9.98252E-05-3.09511E-05-2.94932E-05 6.94733E-06 2.12975E-18-9.28048E-19
 -1      3239 1.00859E-04-3.19694E-05-2.95278E-05 6.75778E-06 1.13586E-18-1.69219E-18
 -1      3240 1.00236E-04-3.24465E-05-2.90933E-05 7.80831E-06 6.10456E-19-9.73691E-19
 -1      3241 9.81926E-05-2.93979E-05-2.94702E-05 6.68258E-06 1.37387E-18-5.81847E-19
 -1      3242 9.89498E-05-3.00992E-05-2.95053E-05 6.77828E-06 2.14857E-18-4.95964E-19
 -1      3243 9.80513E-05-3.01466E-05-2.91290E-05 7.64096E-06 1.63781E-18-1.42014E-18
 -1      3244 9.71203E-05-2.84303E-05-2.94328E-05 6.07774E-06-6.28668E-20 5.12184E-19
 -1      3245 9.76613E-05-2.88705E-05-2.94766E-05 6.34194E-06 1.44041E-19-5.64644E-20
 -1      3246 9.66759E-05-2.86418E-05-2.91740E-05 7.03658E-06 5.66433E-19-4.50536E-19
 -1      3247 9.64349E-05-2.78947E-05-2.93732E-05 5.31214E-06-2.73787E-19 4.70874E-19
 -1      3248 9.68192E-05-2.81436E-05-2.94258E-05 5.66070E-06 2.10487E-19 7.91011E-19
 -1      3249 9.58649E-05-2.77622E-05-2.91964E-05 6.22196E-06-6.65647E-19 1.35830E-18
 -1      3250 9.60037E-05-2.76518E-05-2.92951E-05 4.50184E-06-2.00604E-18 4.04861E-19
 -1      3251 9.62784E-05-2.77713E-05-2.93531E-05 4.87760E-06-1.28938E-18 6.05367E-19
 -1      3252 9.54205E-05-2.73262E-05-2.91884E-05 5.33625E-06-9.47669E-19 1.72025E-18
 -1      3253 9.57336E-05-2.75927E-05-2.92059E-05 3.71856E-06-1.58088E-18-7.26288E-19
 -1      3254 9.59326E-05-2.76305E-05-2.92653E-05 4.08513E-06-1.84155E-18-3.68060E-19
 -1      3255 9.52004E-05-2.71807E-05-2.91540E-05 4.46375E-06-1.79799E-18-4.32719E-20
 -1      3256 9.55634E-05-2.76390E-05-2.91136E-05 3.00315E-06-4.17831E-19 2.60017E-20
 -1      3257 9.57098E-05-2.76294E-05-2.91707E-05 3.33942E-06-1.09568E-18-9.35454E-20
 -1      3258 9.51097E-05-2.72103E-05-2.91011E-05 3.65358E-06-1.92438E-18-1.16662E-18
 -1      3259 9.54538E-05-2.77378E-05-2.90242E-05 2.37513E-06 5.27167E-19 3.72980E-19
 -1      3260 9.55632E-05-2.77039E-05-2.90766E-05 2.67083E-06 1.77508E-19 5.30769E-19
 -1      3261 9.50882E-05-2.73340E-05-2.90382E-05 2.93148E-06-5.91477E-19-5.60180E-19
 -1      3262 9.53807E-05-2.78551E-05-2.89423E-05 1.84011E-06 3.52933E-19-3.16746E-21
 -1      3263 9.54637E-05-2.78118E-05-2.89884E-05 2.09211E-06 1.42704E-18 8.29978E-19
 -1      3264 9.50995E-05-2.74983E-05-2.89723E-05 2.30738E-06 5.57987E-19 1.67407E-18
 -1      3265 9.53276E-05-2.79684E-05-2.88705E-05 1.39490E-06-1.72297E-19-1.07302E-18
 -1      3266 9.53921E-05-2.79261E-05-2.89096E-05 1.60502E-06-2.10435E-19-6.51788E-19
 -1      3267 9.51223E-05-2.76689E-05-2.89087E-05 1.78192E-06 5.67328E-19 1.10559E-18
 -1      3268 9.52874E-05-2.80661E-05-2.88096E-05 1.03149E-06-5.04103E-19-2.05307E-18
 -1      3269 9.53368E-05-2.80312E-05-2.88418E-05 1.20161E-06-3.51922E-19-1.63610E-18
 -1      3270 9.51431E-05-2.78248E-05-2.88509E-05 1.34741E-06 2.33632E-19-5.82000E-19
 -1      3271 9.52314E-05-2.80875E-05-2.87752E-05 8.30454E-07-2.24731E-18-4.73986E-19
 -1      3272 9.52799E-05-2.80865E-05-2.87945E-05 9.34033E-07-2.04892E-18-1.24003E-18
 -1      3273 9.51438E-05-2.79245E-05-2.88091E-05 1.05315E-06-1.47930E-18-1.30499E-18
 -1      3274 9.51318E-05-2.79805E-05-2.87820E-05 8.62716E-07-3.28919E-18-5.48582E-19
 -1      3275 9.22563E-05-1.80198E-05-3.18308E-05 1.70651E-06 3.43813E-19-1.95625E-18
 -1      3276 9.21247E-05-1.78042E-05-3.18641E-05 9.90486E-07 1.24325E-19-1.75739E-18
 -1      3277 9.45485E-05-2.73518E-05-2.87977E-05-6.70266E-07 3.94212E-19 3.52961E-19
 -1      3278 9.44585E-05-2.72720E-05-2.87976E-05-5.51235E-07 4.27374E-19 1.47575E-19
 -1      3279 9.43180E-05-2.71389E-05-2.87928E-05-6.13152E-08 2.69811E-19-6.04152E-19
 -1      3280 9.43218E-05-2.71433E-05-2.87921E-05 9.55631E-08-1.51175E-20 2.24312E-19
 -1      3281 9.47881E-05-2.75877E-05-2.88000E-05-8.57981E-07-1.32909E-18-1.22043E-18
 -1      3282 9.46683E-05-2.74746E-05-2.88010E-05-7.88648E-07 1.75829E-19-4.27424E-19
 -1      3283 9.45086E-05-2.72839E-05-2.88079E-05-8.25606E-07-7.15809E-19 3.89138E-19
 -1      3284 9.43851E-05-2.71981E-05-2.87948E-05-3.89662E-07 9.03074E-20 1.29579E-18
 -1      3285 9.43402E-05-2.71593E-05-2.87943E-05-2.44067E-07 2.44749E-19 7.60322E-19
 -1      3286 9.41868E-05-2.69911E-05-2.87944E-05-1.67907E-07 7.98724E-20 9.09233E-19
 -1      3287 9.42942E-05-2.70863E-05-2.87999E-05-5.29362E-07-2.69866E-19 5.75549E-19
 -1      3288 4.30775E-05-1.26209E-05-1.26793E-05 8.20919E-06 9.70832E-19-2.88849E-18
 -1      3289 4.32539E-05-1.22610E-05-1.29533E-05-5.80228E-06 5.37532E-19-3.40719E-18
 -1      3290 9.56218E-05-2.78875E-05-2.90217E-05-4.02354E-06 3.87800E-19-6.82920E-19
 -1      3291 9.54764E-05-2.78941E-05-2.89666E-05-3.75844E-06 3.59864E-19-4.29038E-19
 -1      3292 9.52704E-05-2.75840E-05-2.90109E-05-4.27994E-06 1.52686E-19-3.85155E-19
 -1      3293 6.00027E-05-2.40503E-05-1.52873E-05 2.75842E-05 1.45986E-18-1.98354E-18
 -1      3294 4.92635E-05-1.67590E-05-1.35008E-05 1.84485E-05 1.14377E-18-2.40123E-18
 -1      3295 9.55100E-05-2.79548E-05-2.89457E-05-3.49081E-06 1.82346E-19-5.56596E-19
 -1      3296 9.54020E-05-2.79616E-05-2.89045E-05-3.24824E-06-4.85178E-20-6.48229E-19
 -1      3297 9.53897E-05-2.78248E-05-2.89594E-05-3.15993E-06-9.11768E-20-9.77089E-19
 -1      3298 9.53141E-05-2.77141E-05-2.89740E-05-3.69397E-06 1.86965E-19-7.59870E-19
 -1      3299 1.38917E-04-4.15917E-05-4.21828E-05 1.28498E-05-2.08656E-18-1.44737E-19
 -1      3300 1.15955E-04-1.36072E-05-4.42646E-05 5.71493E-06 3.13159E-18 2.13591E-19
 -1      3301 1.15556E-04-1.14245E-05-4.50417E-05-8.56944E-08 2.70362E-18-8.43698E-19
 -1      3302 1.17030E-04-5.53841E-05-2.65139E-05 2.12830E-05 2.56055E-18-1.35333E-18
 -1      3303 1.04486E-04-4.99484E-05-2.30269E-05 2.80173E-05 2.24114E-18-3.51016E-19
 -1      3304 6.99125E-05-3.05936E-05-1.63976E-05-3.25230E-05-2.06340E-18-3.95279E-18
 -1      3305 8.29217E-05-3.91231E-05-1.88762E-05-3.46350E-05-2.20864E-18-2.49981E-18
 -1      3306 4.66163E-05-1.28361E-05-1.41313E-05-7.64482E-06-5.72012E-19 1.45520E-18
 -1      3307 5.33699E-05-1.73199E-05-1.51812E-05-1.84424E-05 2.35608E-19 1.35716E-18
 -1      3308 1.33331E-04-3.06653E-05-4.42369E-05-1.48358E-05-1.37177E-18 1.39676E-18
 -1      3309 1.24833E-04-2.79757E-05-4.21294E-05-1.34414E-05 1.01056E-18-9.04949E-19
 -1      3310 1.29176E-04-3.72849E-05-3.93921E-05-1.20883E-05 1.46325E-19-4.38975E-19
 -1      3311 9.54942E-05-2.53380E-05-3.00540E-05-1.76504E-06-8.98527E-19-1.23004E-18
 -1      3312 9.55373E-05-2.59929E-05-2.98144E-05-8.77683E-07-7.26761E-19-1.22185E-18
 -1      3313 9.56430E-05-2.58341E-05-2.99179E-05-6.69078E-07-6.72557E-19-1.15546E-18
 -1      3314 9.54477E-05-2.75995E-05-2.90788E-05-1.26248E-06 4.74487E-19-6.08446E-19
 -1      3315 9.54667E-05-2.73788E-05-2.91707E-05-8.13935E-07 5.05592E-19-5.93036E-19
 -1      3316 9.54210E-05-2.79930E-05-2.88939E-05-2.51219E-06-2.31800E-19-6.23373E-19
 -1      3317 9.53780E-05-2.79381E-05-2.88995E-05-2.25273E-06-8.56118E-20-6.29751E-19
 -1      3318 9.54793E-05-2.78638E-05-2.89818E-05-2.63766E-06-2.94525E-19-7.32224E-19
 -1      3319 9.54248E-05-2.78771E-05-2.89473E-05-1.96192E-06 1.24277E-19-5.89702E-19
 -1      3320 9.54152E-05-2.77575E-05-2.89893E-05-1.63750E-06 3.83606E-19-5.54940E-19
 -1      3321 9.55689E-05-2.77784E-05-2.90576E-05-2.06624E-06 8.68176E-20-6.55363E-19
 -1      3322 9.07183E-05-4.13049E-05-2.08642E-05-3.02432E-05 5.47924E-19 8.37821E-19
 -1      3323 1.04836E-04-4.94418E-05-2.38863E-05-2.70607E-05-9.03678E-20-5.92923E-19
 -1      3324 1.27179E-04-5.60474E-05-3.08444E-05 1.01752E-05-8.42096E-19 5.21005E-19
 -1      3325 1.20562E-04-5.53943E-05-2.76462E-05 1.80201E-05-4.94535E-19-2.73446E-19
 -1      3326 1.35650E-04-4.54497E-05-3.86682E-05 1.20095E-05-1.68210E-18-2.12605E-19
 -1      3327 9.52364E-05-2.41689E-05-3.04603E-05 4.02424E-06 1.04747E-18-9.95117E-19
 -1      3328 9.46533E-05-2.26053E-05-3.08676E-05 4.53086E-06 1.06791E-18-1.12164E-18
 -1      3329 9.49150E-05-2.34146E-05-3.06421E-05 3.38543E-06 9.18854E-19-1.15424E-18
 -1      3330 9.52755E-05-2.50719E-05-3.00988E-05 2.70575E-06 9.44447E-19-8.43340E-19
 -1      3331 8.94231E-05-4.23610E-05-2.02136E-05 3.27566E-05 1.93134E-18 1.48125E-19
 -1      3332 7.45482E-05-3.29681E-05-1.74115E-05 3.14599E-05 2.14940E-18-9.09713E-19
 -1      3333 9.34868E-05-1.97359E-05-3.16038E-05-6.04389E-06-1.02275E-18-1.60368E-18
 -1      3334 1.16667E-04-5.42079E-05-2.64513E-05-2.02047E-05-3.95829E-19-2.08227E-18
 -1      3335 1.25387E-04-5.68539E-05-2.97357E-05-1.19333E-05-4.79791E-19-2.54594E-18
 -1      3336 6.61253E-05-2.54403E-05-1.71437E-05-2.64750E-05 8.61274E-19 2.12521E-18
 -1      3337 7.86866E-05-3.43671E-05-1.88793E-05-3.12355E-05 1.04132E-18 1.93229E-18
 -1      3338 8.85851E-05-3.70084E-05-2.19006E-05-2.67372E-05 5.93558E-19 1.69211E-18
 -1      3339 1.10068E-04-5.26959E-05-2.47405E-05 2.64462E-05-7.52959E-19-5.46442E-19
 -1      3340 9.54177E-05-4.46171E-05-2.14872E-05 3.11160E-05-1.36642E-18 2.04347E-19
 -1      3341 9.20587E-05-1.76957E-05-3.18832E-05 3.88141E-07 1.31839E-19-1.65617E-18
 -1      3342 9.20557E-05-1.76910E-05-3.18839E-05-3.39911E-07 3.43911E-20-1.68290E-18
 -1      3343 9.29716E-05-1.92180E-05-3.15896E-05 5.77754E-07 8.85445E-20-1.66759E-18
 -1      3344 9.29833E-05-1.92574E-05-3.16082E-05-3.41549E-06-6.82042E-19-1.52865E-18
 -1      3345 9.33706E-05-1.99465E-05-3.14915E-05-4.00357E-06-8.24747E-19-1.70890E-18
 -1      3346 9.43078E-05-2.17466E-05-3.10710E-05 3.38277E-06 8.12727E-19-1.23834E-18
 -1      3347 9.33947E-05-1.99986E-05-3.14804E-05 4.02358E-06 9.28285E-19-1.41504E-18
 -1      3348 9.30164E-05-1.93122E-05-3.15985E-05 3.45561E-06 6.98633E-19-1.62723E-18
 -1      3349 1.26513E-04-4.11908E-05-3.66129E-05-1.00025E-05 4.11870E-20-5.24737E-19
 -1      3350 7.16588E-05-2.81208E-05-1.82566E-05 2.66538E-05 1.94545E-18-1.01533E-18
 -1      3351 7.12032E-05-2.47662E-05-1.97779E-05 2.30290E-05-2.04089E-18 4.52077E-19
 -1      3352 6.15317E-05-2.06416E-05-1.71629E-05 2.27735E-05-1.81327E-18 5.55018E-19
 -1      3353 5.92821E-05-1.71129E-05-1.79523E-05 1.58794E-05-2.04699E-18 6.62142E-19
 -1      3354 1.09649E-04-4.91337E-05-2.60083E-05 2.12170E-05 2.02160E-18-1.45338E-18
 -1      3355 1.17297E-04-5.11327E-05-2.82386E-05 1.42267E-05 2.49349E-18-1.21795E-18
 -1      3356 9.87146E-05-4.44613E-05-2.28958E-05 2.69822E-05 2.20250E-18-4.17137E-19
 -1      3357 1.13165E-04-1.47333E-05-4.25198E-05-3.29145E-06 2.10228E-18-9.95542E-19
 -1      3358 6.90313E-05-2.68519E-05-1.76647E-05-2.74916E-05-1.75473E-18-3.74971E-18
 -1      3359 4.94623E-05-1.40587E-05-1.47355E-05-1.19056E-05 3.56998E-19-3.48602E-18
 -1      3360 5.68188E-05-1.69573E-05-1.70557E-05-1.63296E-05-7.84597E-20-3.29316E-18
 -1      3361 5.20699E-05-1.30138E-05-1.65093E-05-4.74157E-06 1.01476E-18-2.68615E-18
 -1      3362 1.23665E-04-5.52093E-05-2.92571E-05 1.18216E-05 2.42701E-18-1.27582E-18
 -1      3363 1.28950E-04-5.64406E-05-3.10366E-05 7.55112E-06 1.63758E-18-6.99437E-19
 -1      3364 1.34610E-04-5.43833E-05-3.47105E-05-2.89397E-06 8.91257E-19-5.70688E-20
 -1      3365 1.35895E-04-4.79614E-05-3.77771E-05-8.82069E-06-4.56392E-19 5.27013E-19
 -1      3366 9.46988E-05-2.75231E-05-2.87931E-05 7.92512E-07 1.20453E-18-2.60784E-19
 -1      3367 9.48175E-05-2.76348E-05-2.87913E-05 8.54576E-07 7.56510E-19 1.67491E-18
 -1      3368 1.17423E-04-5.32629E-05-2.73854E-05-1.73672E-05-1.23836E-18 4.31113E-19
 -1      3369 9.31275E-05-4.17853E-05-2.17352E-05-2.93270E-05-1.91707E-18-1.28664E-18
 -1      3370 1.19420E-04-2.45334E-05-4.09277E-05-1.22875E-05 1.07054E-18-7.88217E-19
 -1      3371 9.56420E-05-2.75062E-05-2.92062E-05-1.36285E-06 4.11172E-19-8.04648E-19
 -1      3372 5.24701E-05-1.52367E-05-1.55137E-05 1.18732E-05 7.81203E-19-2.79738E-18
 -1      3373 1.19930E-04-3.30035E-05-3.74202E-05 1.30311E-05 2.15093E-18 2.00747E-18
 -1      3374 1.07462E-04-1.91294E-05-3.79329E-05 4.75267E-06 2.15422E-18 1.07449E-19
 -1      3375 1.08493E-04-2.15446E-05-3.74343E-05 8.50161E-06 1.96130E-18 2.49837E-19
 -1      3376 1.11317E-04-2.69055E-05-3.64223E-05-1.17889E-05 1.29795E-18-6.65980E-19
 -1      3377 1.09442E-04-2.27425E-05-3.71605E-05-9.43841E-06 1.44274E-18-8.32991E-19
 -1      3378 9.24416E-05-1.83344E-05-3.17728E-05 2.27715E-06 4.29845E-19-2.02655E-18
 -1      3379 9.32114E-05-1.96324E-05-3.15108E-05 1.66467E-06 3.42261E-19-1.84393E-18
 -1      3380 9.27006E-05-1.87764E-05-3.17027E-05 2.93978E-06 5.77349E-19-1.94221E-18
 -1      3381 9.44864E-05-2.73122E-05-2.87924E-05 5.74096E-07 4.36742E-19-2.31033E-18
 -1      3382 9.45789E-05-2.73959E-05-2.87913E-05 6.84870E-07 1.26350E-18-2.00732E-18
 -1      3383 9.45471E-05-2.73445E-05-2.87994E-05 8.38506E-07 9.55938E-19-1.95578E-18
 -1      3384 1.15367E-04-2.12094E-05-4.05705E-05 1.05891E-05 2.70616E-18 3.83062E-19
 -1      3385 1.15389E-04-1.67331E-05-4.26317E-05 8.30102E-06 2.94238E-18 9.90234E-20
 -1      3386 9.40479E-05-2.12744E-05-3.11954E-05-4.77547E-06-1.02532E-18-1.52595E-18
 -1      3387 9.26760E-05-1.87274E-05-3.17103E-05-2.90750E-06-5.43212E-19-1.70410E-18
 -1      3388 9.36507E-05-2.04414E-05-3.13548E-05-2.59293E-06-5.98165E-19-1.49288E-18
 -1      3389 9.24256E-05-1.83032E-05-3.17786E-05-2.22935E-06-3.99943E-19-1.83079E-18
 -1      3390 1.11038E-04-1.60214E-05-4.09808E-05 5.19334E-06 2.28858E-18-2.39677E-19
 -1      3391 1.35701E-04-4.15281E-05-4.09522E-05-1.47300E-05-1.47548E-18 1.75325E-18
 -1      3392 1.15938E-04-2.97802E-05-3.69513E-05-1.30323E-05 8.01942E-19-1.60367E-19
 -1      3393 1.11451E-04-1.98878E-05-3.94620E-05-8.16483E-06 1.79611E-18-4.50463E-19
 -1      3394 9.54160E-05-2.64260E-05-2.95747E-05 8.30873E-07 7.50813E-19-7.73257E-19
 -1      3395 9.54591E-05-2.58694E-05-2.98146E-05 1.75582E-06 9.23448E-19-7.94229E-19
 -1      3396 9.53801E-05-2.51407E-05-3.00981E-05 2.14536E-06 8.72646E-19-8.14361E-19
 -1      3397 9.43534E-05-2.71785E-05-2.87920E-05 2.76271E-07 3.26499E-19-6.39893E-19
 -1      3398 9.44052E-05-2.72257E-05-2.87912E-05 4.20202E-07 6.62767E-19-2.48669E-18
 -1      3399 9.43237E-05-2.71297E-05-2.87947E-05 5.63571E-07 1.28051E-18-2.74028E-18
 -1      3400 9.41978E-05-2.70065E-05-2.87927E-05 2.13098E-07 1.72707E-19-7.58185E-19
 -1      3401 1.26262E-04-5.21964E-05-3.17407E-05 3.45417E-06-3.62332E-19 8.32580E-19
 -1      3402 1.25061E-04-3.38059E-05-3.93353E-05 1.26443E-05 2.86091E-18 2.15755E-18
 -1      3403 9.54456E-05-2.71556E-05-2.92709E-05-3.84243E-07 4.48462E-19-6.15702E-19
 -1      3404 9.54904E-05-2.68043E-05-2.94256E-05 2.55653E-07 5.55161E-19-6.07258E-19
 -1      3405 9.55755E-05-2.63580E-05-2.96683E-05 5.61670E-07 5.60762E-19-5.80355E-19
 -1      3406 9.56472E-05-2.70337E-05-2.94102E-05-5.06285E-07 4.04714E-19-6.64060E-19
 -1      3407 9.51911E-05-2.44865E-05-3.03200E-05-2.54222E-06-1.01564E-18-1.31620E-18
 -1      3408 9.52330E-05-2.42745E-05-3.04067E-05-2.17651E-06-8.88180E-19-1.38740E-18
 -1      3409 9.50313E-05-2.35565E-05-3.06324E-05-3.63692E-06-1.01482E-18-1.30401E-18
 -1      3410 4.92828E-05-1.22559E-05-1.54345E-05-9.41338E-07-5.95491E-19 1.04720E-18
 -1      3411 5.52621E-05-1.37182E-05-1.76401E-05-5.50308E-06-3.00478E-19 8.03252E-19
 -1      3412 5.40008E-05-1.33567E-05-1.73445E-05 5.51941E-06-9.55370E-19 1.55595E-18
 -1      3413 1.26344E-04-5.39834E-05-3.10088E-05-5.44567E-06-2.45269E-19-1.50772E-18
 -1      3414 1.21338E-04-5.18382E-05-2.94710E-05-9.80536E-06 6.90018E-20-2.06699E-18
 -1      3415 1.28847E-04-4.99901E-05-3.39339E-05 2.83414E-06 8.16785E-19 2.09516E-18
 -1      3416 1.26240E-04-4.48451E-05-3.50264E-05 7.56340E-06 1.59765E-18 2.65897E-18
 -1      3417 6.23084E-05-1.82182E-05-1.87712E-05-1.62880E-05 1.47993E-19 1.21997E-18
 -1      3418 6.34011E-05-2.14429E-05-1.76495E-05-2.18604E-05 2.11626E-19 1.35255E-18
 -1      3419 7.32599E-05-2.54600E-05-2.04700E-05-2.28083E-05 4.60045E-20 1.74666E-18
 -1      3420 1.10311E-04-4.92064E-05-2.60021E-05-2.04780E-05-7.32260E-19-1.12522E-18
 -1      3421 1.25914E-04-5.11951E-05-3.19323E-05-1.59011E-06-1.35505E-19 1.06750E-18
 -1      3422 9.78025E-05-4.28250E-05-2.36734E-05 2.55133E-05-3.10868E-19 2.00964E-18
 -1      3423 8.95324E-05-3.94304E-05-2.12607E-05 2.96245E-05-1.15328E-18 3.38628E-19
 -1      3424 8.44920E-05-3.38458E-05-2.16315E-05 2.64941E-05-8.61009E-19 7.70112E-19
 -1      3425 1.13313E-04-5.02205E-05-2.73334E-05-1.73510E-05-3.27683E-19-2.94405E-18
 -1      3426 1.14544E-04-5.22218E-05-2.66165E-05 1.94433E-05-3.85929E-19 6.44364E-19
 -1      3427 9.49536E-05-2.77406E-05-2.88071E-05-9.71648E-07-9.24105E-19-8.54335E-19
 -1      3428 9.48657E-05-2.76610E-05-2.88040E-05-9.18992E-07-1.05491E-18-6.76502E-19
 -1      3429 9.47287E-05-2.74842E-05-2.88168E-05-1.00750E-06-1.52327E-18-3.23406E-19
 -1      3430 9.49144E-05-2.76443E-05-2.88274E-05-1.11594E-06-7.08831E-19-4.00758E-19
 -1      3431 1.31879E-04-5.53694E-05-3.25629E-05-1.79718E-06-6.97631E-19-1.64475E-18
 -1      3432 9.68832E-05-4.19060E-05-2.34591E-05 2.54824E-05 1.88147E-18-4.65180E-19
 -1      3433 9.58490E-05-2.70615E-05-2.94754E-05 1.09281E-06-5.35510E-19-9.38556E-19
 -1      3434 9.57990E-05-2.72694E-05-2.93724E-05 1.49145E-06-4.38610E-19-9.30585E-19
 -1      3435 9.56981E-05-2.73903E-05-2.92729E-05 1.80360E-06-2.59549E-19-7.91959E-19
 -1      3436 9.56059E-05-2.74510E-05-2.92092E-05 2.12529E-06-1.14225E-19-5.87279E-19
 -1      3437 9.57790E-05-2.71200E-05-2.94247E-05 1.49227E-06-2.24295E-19-6.49788E-19
 -1      3438 9.54263E-05-2.74298E-05-2.91422E-05 2.39213E-06-3.34115E-19-4.75992E-19
 -1      3439 9.53012E-05-2.73782E-05-2.91081E-05 2.68033E-06-2.06782E-19-7.32917E-19
 -1      3440 9.55027E-05-2.72508E-05-2.92499E-05 2.08240E-06-1.90944E-19-2.81666E-19
 -1      3441 9.50537E-05-2.72459E-05-2.90639E-05 2.93548E-06-5.28496E-20-9.10278E-19
 -1      3442 9.48975E-05-2.71065E-05-2.90502E-05 3.22545E-06 1.30946E-20-8.95363E-19
 -1      3443 9.50818E-05-2.71073E-05-2.91301E-05 2.60934E-06-3.17573E-19-6.50987E-19
 -1      3444 9.45839E-05-2.68854E-05-2.90196E-05 3.49653E-06 1.81951E-19-9.59163E-19
 -1      3445 9.43938E-05-2.66775E-05-2.90175E-05 3.81563E-06 1.47224E-19-7.40578E-19
 -1      3446 9.45283E-05-2.67468E-05-2.90458E-05 3.13258E-06 5.25705E-20-9.56449E-19
 -1      3447 9.40098E-05-2.63856E-05-2.89902E-05 4.12474E-06-2.80186E-19-6.39001E-19
 -1      3448 9.37817E-05-2.61273E-05-2.89903E-05 4.49361E-06-3.17774E-19-6.46880E-19
 -1      3449 9.38396E-05-2.62132E-05-2.89774E-05 3.70007E-06-5.13493E-20-9.48959E-19
 -1      3450 9.33196E-05-2.57834E-05-2.89550E-05 4.85884E-06-3.53290E-19-9.57507E-19
 -1      3451 9.30512E-05-2.54976E-05-2.89466E-05 5.29288E-06-3.99326E-19-1.18445E-18
 -1      3452 9.30035E-05-2.55461E-05-2.89025E-05 4.35007E-06-4.89232E-19-1.09564E-18
 -1      3453 9.25034E-05-2.51266E-05-2.88894E-05 5.73099E-06-2.92433E-19-9.99982E-19
 -1      3454 9.21997E-05-2.48475E-05-2.88591E-05 6.24244E-06-1.50363E-19-9.82747E-19
 -1      3455 9.20045E-05-2.47908E-05-2.87954E-05 5.11549E-06-2.87837E-19-9.80839E-19
 -1      3456 9.15633E-05-2.44883E-05-2.87630E-05 6.77308E-06-2.73584E-19-7.86501E-19
 -1      3457 9.12458E-05-2.42710E-05-2.86949E-05 7.37465E-06-3.04210E-19-8.49762E-19
 -1      3458 9.08305E-05-2.40100E-05-2.86240E-05 6.03129E-06 4.76177E-21-6.77535E-19
 -1      3459 9.05296E-05-2.39854E-05-2.85388E-05 8.02853E-06-1.09749E-19-6.42882E-19
 -1      3460 9.02519E-05-2.39195E-05-2.84143E-05 8.73964E-06-1.83154E-19-5.00565E-19
 -1      3461 8.94840E-05-2.32994E-05-2.83490E-05 7.14764E-06-1.76561E-19-7.84669E-19
 -1      3462 8.94890E-05-2.38073E-05-2.81727E-05 9.57234E-06-4.82364E-19-2.86843E-19
 -1      3463 8.93646E-05-2.40387E-05-2.79723E-05 1.04269E-05-4.08352E-19-1.31276E-19
 -1      3464 8.79991E-05-2.28081E-05-2.79220E-05 8.55452E-06-3.23810E-20-3.30904E-19
 -1      3465 8.86383E-05-2.42599E-05-2.76162E-05 1.15352E-05-2.99701E-19-3.23801E-19
 -1      3466 8.88852E-05-2.50204E-05-2.73259E-05 1.25821E-05-4.38776E-20-7.20040E-19
 -1      3467 8.64762E-05-2.27767E-05-2.72847E-05 1.04183E-05-4.01076E-19 1.77941E-19
 -1      3468 8.83809E-05-2.58343E-05-2.68267E-05 1.41171E-05 4.79663E-19-5.03887E-19
 -1      3469 8.93811E-05-2.74676E-05-2.64542E-05 1.53860E-05 1.09940E-18-8.02166E-19
 -1      3470 8.51448E-05-2.35949E-05-2.63715E-05 1.30236E-05 3.75344E-19 8.23024E-20
 -1      3471 8.94918E-05-2.92786E-05-2.57996E-05 1.75055E-05 1.07175E-18-6.58461E-19
 -1      3472 9.18304E-05-3.22437E-05-2.54060E-05 1.89513E-05 1.20102E-18-1.30538E-18
 -1      3473 8.45297E-05-2.58922E-05-2.51208E-05 1.67585E-05 8.98217E-19-4.79067E-19
 -1      3474 9.17795E-05-3.42996E-05-2.45821E-05 2.13142E-05 1.72514E-18-1.07273E-18
 -1      3475 9.61501E-05-3.88686E-05-2.43676E-05 2.26289E-05 1.88486E-18-8.88008E-19
 -1      3476 8.44903E-05-3.40586E-05-2.15122E-05 2.71631E-05 2.14188E-18-3.08002E-19
 -1      3477 8.44981E-05-2.94576E-05-2.35225E-05 2.14533E-05 1.46322E-18-6.94792E-19
 -1      3478 1.11536E-04-4.30537E-05-2.92461E-05 5.83036E-06-1.29341E-18-2.81306E-19
 -1      3479 1.14126E-04-4.47991E-05-2.97703E-05 3.69057E-06-1.45464E-18 4.40829E-20
 -1      3480 1.12039E-04-4.95938E-05-2.64008E-05-1.85826E-05-9.01322E-19 3.74637E-19
 -1      3481 1.20868E-04-5.31721E-05-2.92954E-05-1.08263E-05-8.58044E-19 3.36514E-19
 -1      3482 1.33865E-04-5.16585E-05-3.56892E-05 6.19624E-06-9.26767E-19-4.77938E-19
 -1      3483 9.20178E-05-3.22356E-05-2.54834E-05-1.87721E-05 7.16729E-19-2.48346E-19
 -1      3484 8.96208E-05-2.92100E-05-2.58675E-05-1.73219E-05 8.90667E-21-5.07652E-19
 -1      3485 8.94406E-05-2.73868E-05-2.65174E-05-1.52112E-05-8.19008E-20-1.39562E-19
 -1      3486 8.84205E-05-2.57142E-05-2.68901E-05-1.39098E-05 1.63788E-19-3.86732E-19
 -1      3487 8.46019E-05-2.58496E-05-2.51880E-05-1.66067E-05-4.11241E-20 1.34476E-18
 -1      3488 8.88879E-05-2.48811E-05-2.73875E-05-1.23564E-05-3.04742E-19 4.94662E-19
 -1      3489 8.86172E-05-2.40920E-05-2.76778E-05-1.12805E-05-5.50989E-19 4.91855E-19
 -1      3490 8.51331E-05-2.34548E-05-2.64289E-05-1.28263E-05 1.55941E-19 2.55139E-18
 -1      3491 8.93027E-05-2.38376E-05-2.80325E-05-1.01390E-05-7.48793E-19 6.24955E-19
 -1      3492 8.94023E-05-2.35774E-05-2.82332E-05-9.24591E-06 7.21893E-20 1.01267E-18
 -1      3493 8.63817E-05-2.25564E-05-2.73382E-05-1.01763E-05-5.01329E-20 3.04817E-18
 -1      3494 9.01231E-05-2.36553E-05-2.84730E-05-8.37107E-06 6.92331E-19-6.79488E-19
 -1      3495 9.03747E-05-2.36926E-05-2.85973E-05-7.61290E-06 7.02771E-20-1.82931E-19
 -1      3496 8.78232E-05-2.25143E-05-2.79718E-05-8.23712E-06-3.82516E-19 1.44192E-18
 -1      3497 9.10452E-05-2.39441E-05-2.87499E-05-6.91062E-06 2.94209E-19-8.53114E-19
 -1      3498 9.13343E-05-2.41341E-05-2.88163E-05-6.25607E-06 8.88002E-19-5.10631E-19
 -1      3499 8.92216E-05-2.29335E-05-2.83925E-05-6.74150E-06 6.26793E-19-1.12506E-19
 -1      3500 9.19192E-05-2.44604E-05-2.89058E-05-5.67305E-06 7.88221E-19-4.02281E-19
 -1      3501 9.21909E-05-2.47153E-05-2.89316E-05-5.10537E-06 4.02225E-19 1.06874E-19
 -1      3502 9.04723E-05-2.35750E-05-2.86559E-05-5.52785E-06 1.01945E-18-1.67643E-18
 -1      3503 9.26807E-05-2.50574E-05-2.89774E-05-4.61339E-06-4.03329E-19 3.67435E-19
 -1      3504 9.29128E-05-2.53261E-05-2.89769E-05-4.12375E-06-8.75062E-19 1.10220E-18
 -1      3505 9.15385E-05-2.42936E-05-2.88074E-05-4.51091E-06 4.83226E-19-8.24347E-19
 -1      3506 9.33113E-05-2.56507E-05-2.89939E-05-3.70752E-06-4.88271E-19 1.82233E-18
 -1      3507 9.34987E-05-2.59053E-05-2.89778E-05-3.29002E-06 1.17831E-18 2.54381E-18
 -1      3508 9.24177E-05-2.50033E-05-2.88825E-05-3.64735E-06-1.21360E-19 2.13353E-18
 -1      3509 9.38155E-05-2.61955E-05-2.89768E-05-2.94002E-06 9.18810E-19 1.82787E-18
 -1      3510 9.39611E-05-2.64221E-05-2.89528E-05-2.58905E-06 9.24897E-20 1.63028E-18
 -1      3511 9.31251E-05-2.56566E-05-2.89079E-05-2.91432E-06 4.42609E-19 2.37907E-18
 -1      3512 9.42084E-05-2.66712E-05-2.89416E-05-2.29822E-06-4.19208E-19 2.24778E-18
 -1      3513 9.43177E-05-2.68639E-05-2.89147E-05-2.00790E-06-5.39507E-19 2.45444E-18
 -1      3514 9.36827E-05-2.62309E-05-2.89025E-05-2.29673E-06 5.17030E-19 2.93626E-18
 -1      3515 9.45067E-05-2.70720E-05-2.88985E-05-1.76824E-06 3.02677E-19 6.78987E-19
 -1      3516 9.45909E-05-2.72305E-05-2.88723E-05-1.53413E-06 5.30960E-19 1.25368E-18
 -1      3517 9.41132E-05-2.67160E-05-2.88802E-05-1.78375E-06-8.98517E-19 2.90379E-18
 -1      3518 9.49255E-05-2.77557E-05-2.87900E-05 8.73975E-07-9.29384E-19 1.81631E-18
 -1      3519 9.50321E-05-2.78643E-05-2.87859E-05 8.79006E-07-2.81804E-18 1.57964E-18
 -1      3520 9.50307E-05-2.78340E-05-2.87980E-05 9.69377E-07-2.47343E-18 1.92087E-18
 -1      3521 9.47990E-05-2.75939E-05-2.88017E-05 9.66297E-07-2.92277E-19 3.95834E-18
 -1      3522 9.47508E-05-2.70832E-05-2.89926E-05-5.05243E-06-4.33016E-20-2.65972E-19
 -1      3523 9.47220E-05-2.71200E-05-2.89772E-05-4.70223E-06 1.35703E-19-2.11392E-19
 -1      3524 9.53575E-05-2.79865E-05-2.88603E-05-7.59639E-06-7.77342E-19 6.35112E-19
 -1      3525 9.49370E-05-2.75454E-05-2.88809E-05-7.21721E-06-6.18944E-19 1.60088E-20
 -1      3526 9.64052E-05-2.92966E-05-2.87458E-05-8.43173E-06-3.22900E-19 1.05590E-18
 -1      3527 9.56830E-05-2.85115E-05-2.87791E-05-8.13248E-06-4.92365E-19 8.16278E-19
 -1      3528 9.41582E-05-2.76191E-05-2.85332E-05-8.20300E-06-8.95312E-19 5.22519E-19
 -1      3529 9.82871E-05-3.14689E-05-2.86216E-05-9.05073E-06-2.63228E-19 9.05374E-19
 -1      3530 9.71343E-05-3.02327E-05-2.86509E-05-8.93246E-06-1.14260E-19 1.07424E-18
 -1      3531 9.51582E-05-2.91348E-05-2.83258E-05-9.34814E-06-2.81717E-19 9.17538E-19
 -1      3532 1.01332E-04-3.46805E-05-2.85575E-05-9.16208E-06-5.12425E-19 9.47175E-19
 -1      3533 9.96273E-05-3.29328E-05-2.85427E-05-9.39133E-06-3.92845E-19 1.01363E-18
 -1      3534 9.71478E-05-3.16730E-05-2.81124E-05-1.03878E-05-3.29898E-19 6.56213E-19
 -1      3535 1.05814E-04-3.88654E-05-2.86948E-05-8.24085E-06-4.57509E-19 1.40351E-18
 -1      3536 1.03521E-04-3.67197E-05-2.85601E-05-9.09213E-06-3.52548E-19 1.43118E-18
 -1      3537 1.00578E-04-3.54697E-05-2.79878E-05-1.09932E-05-5.91609E-19 8.26103E-19
 -1      3538 1.11888E-04-4.33576E-05-2.93365E-05-5.27636E-06-1.21278E-18 2.11053E-18
 -1      3539 1.09097E-04-4.14062E-05-2.89054E-05-7.36693E-06-9.88474E-19 1.86307E-18
 -1      3540 1.05881E-04-4.04609E-05-2.81445E-05-1.05590E-05-8.95939E-19 1.57168E-18
 -1      3541 1.17988E-04-4.74628E-05-3.02296E-05-2.98907E-06-2.68897E-19 1.04005E-18
 -1      3542 1.15198E-04-4.64166E-05-2.94254E-05-5.77328E-06-6.18036E-19 1.13977E-18
 -1      3543 1.21861E-04-4.33452E-05-3.37210E-05 7.45540E-06 1.20898E-18 2.77259E-18
 -1      3544 1.21567E-04-4.61916E-05-3.23760E-05 4.38810E-06 4.85067E-19 2.22143E-18
 -1      3545 1.09913E-04-1.67435E-05-4.01634E-05 2.23206E-06 2.27910E-18-2.20186E-19
 -1      3546 1.05539E-04-3.84331E-05-2.86739E-05 8.42534E-06 9.62135E-20-2.90400E-19
 -1      3547 1.08012E-04-4.06437E-05-2.88894E-05 7.26895E-06-7.45718E-19-2.21818E-19
 -1      3548 1.08527E-04-4.25044E-05-2.83880E-05 9.55977E-06-6.37947E-19-5.17729E-19
 -1      3549 1.00983E-04-3.42145E-05-2.85618E-05 9.18808E-06 2.85129E-21 3.07919E-19
 -1      3550 1.02934E-04-3.61700E-05-2.86088E-05 8.77324E-06 4.51187E-19 5.17095E-19
 -1      3551 1.02451E-04-3.72435E-05-2.80271E-05 1.08214E-05-6.66840E-20-1.41018E-20
 -1      3552 9.79371E-05-3.10302E-05-2.86456E-05 8.91285E-06 1.04888E-18-4.42233E-19
 -1      3553 9.93086E-05-3.24914E-05-2.86228E-05 8.94706E-06 5.45627E-19-2.32452E-19
 -1      3554 9.82554E-05-3.28834E-05-2.80769E-05 1.05061E-05 3.02751E-19 4.70315E-19
 -1      3555 9.60780E-05-2.88910E-05-2.87812E-05 8.14006E-06 1.27545E-18 3.87489E-20
 -1      3556 9.69664E-05-2.98675E-05-2.87422E-05 8.42131E-06 1.18123E-18-5.96879E-19
 -1      3557 9.57007E-05-2.98074E-05-2.82777E-05 9.52263E-06 1.00138E-18 8.63792E-20
 -1      3558 9.50470E-05-2.75999E-05-2.89018E-05 7.16385E-06-6.48033E-19 1.00375E-18
 -1      3559 9.55850E-05-2.81883E-05-2.88714E-05 7.56671E-06 4.59005E-19 5.72121E-19
 -1      3560 9.43018E-05-2.78557E-05-2.84980E-05 8.31912E-06 4.48508E-19 1.79155E-18
 -1      3561 9.45506E-05-2.69255E-05-2.89833E-05 6.13983E-06-1.32294E-18 1.08753E-18
 -1      3562 9.48548E-05-2.72338E-05-2.89698E-05 6.58905E-06-1.14902E-18 8.57734E-19
 -1      3563 9.36588E-05-2.67578E-05-2.86824E-05 7.09986E-06-9.63893E-19 1.96010E-18
 -1      3564 9.43768E-05-2.66660E-05-2.90227E-05 5.15039E-06-1.13144E-18 1.78736E-18
 -1      3565 9.45345E-05-2.67871E-05-2.90259E-05 5.60058E-06-1.16797E-18 1.81690E-18
 -1      3566 9.34753E-05-2.62541E-05-2.88134E-05 5.95361E-06-1.48291E-18 9.43985E-19
 -1      3567 9.43831E-05-2.66656E-05-2.90267E-05 4.23936E-06-1.86269E-18 3.23226E-19
 -1      3568 9.44542E-05-2.66704E-05-2.90430E-05 4.66348E-06-1.27526E-18 9.52607E-19
 -1      3569 9.35501E-05-2.61370E-05-2.88922E-05 4.91614E-06-1.28262E-18 1.36171E-18
 -1      3570 9.44787E-05-2.68121E-05-2.90052E-05 3.42857E-06-1.64354E-18-1.61732E-19
 -1      3571 9.45018E-05-2.67512E-05-2.90299E-05 3.81152E-06-1.99697E-18-1.58139E-19
 -1      3572 9.37530E-05-2.62523E-05-2.89280E-05 4.00026E-06-1.16953E-18 4.89801E-19
 -1      3573 9.46083E-05-2.70286E-05-2.89677E-05 2.72600E-06-1.14441E-18 5.04141E-20
 -1      3574 9.46076E-05-2.69365E-05-2.89967E-05 3.06091E-06-1.49139E-18-7.40916E-19
 -1      3575 9.40035E-05-2.64916E-05-2.89321E-05 3.20797E-06-1.11793E-18-3.15100E-19
 -1      3576 9.47407E-05-2.72658E-05-2.89222E-05 2.13059E-06 4.52996E-19 1.66208E-18
 -1      3577 9.47301E-05-2.71646E-05-2.89522E-05 2.41587E-06-3.82727E-19 1.02537E-18
 -1      3578 9.42550E-05-2.67823E-05-2.89152E-05 2.53444E-06-1.26281E-18 1.78328E-19
 -1      3579 9.48600E-05-2.74950E-05-2.88749E-05 1.63823E-06 4.04306E-19 1.95017E-18
 -1      3580 9.48479E-05-2.73989E-05-2.89033E-05 1.87298E-06 9.85518E-19 2.52507E-18
 -1      3581 9.44831E-05-2.70788E-05-2.88860E-05 1.97047E-06-1.02159E-19 2.55842E-18
 -1      3582 8.71932E-05-3.63354E-05-2.14159E-05-2.78397E-05-1.91502E-18-1.56653E-18
 -1      3583 9.92950E-05-4.45855E-05-2.38033E-05-2.59869E-05-1.59512E-18-4.58615E-19
 -1      3584 9.40048E-05-2.11661E-05-3.12111E-05-4.08283E-06-9.09241E-19-1.58059E-18
 -1      3585 1.23775E-04-4.89874E-05-3.22294E-05-1.01031E-06-2.03169E-19 3.01722E-19
 -1      3586 1.22594E-04-5.18094E-05-3.01108E-05 6.41432E-06-9.07179E-19 6.42541E-19
 -1      3587 9.44445E-05-2.71962E-05-2.88192E-05-1.00170E-06-9.44299E-19 2.13342E-19
 -1      3588 9.42955E-05-2.70750E-05-2.88134E-05-8.74395E-07-9.05035E-19 2.46703E-19
 -1      3589 9.48983E-05-2.72390E-05-2.89901E-05-4.35241E-06 6.00893E-20-4.99061E-19
 -1      3590 9.49104E-05-2.73130E-05-2.89747E-05-4.03942E-06 2.67067E-20-4.76777E-19
 -1      3591 9.43492E-05-2.68364E-05-2.89343E-05-4.45395E-06 6.56544E-21-8.31909E-19
 -1      3592 6.66875E-05-2.26041E-05-1.84990E-05-2.31462E-05-1.31784E-18-3.52495E-18
 -1      3593 7.55540E-05-2.93738E-05-1.99108E-05-2.72807E-05-1.76291E-18-2.96117E-18
 -1      3594 9.53269E-05-2.45517E-05-3.03306E-05 2.42708E-06 8.63907E-19-1.00361E-18
 -1      3595 9.50267E-05-2.36965E-05-3.05771E-05 2.66881E-06 8.14079E-19-1.12321E-18
 -1      3596 9.54663E-05-2.53495E-05-3.00524E-05 1.47194E-06 7.19573E-19-8.33978E-19
 -1      3597 9.54950E-05-2.77186E-05-2.90443E-05-2.66120E-06-1.59702E-19-7.94508E-19
 -1      3598 9.55440E-05-2.77061E-05-2.90725E-05-2.38471E-06-9.02527E-20-5.75629E-19
 -1      3599 9.44517E-05-2.21826E-05-3.09684E-05-3.05110E-06-7.83885E-19-1.58203E-18
 -1      3600 1.23302E-04-4.07082E-05-3.55439E-05 1.11135E-05 1.90323E-18 2.73840E-18
 -1      3601 1.18234E-04-4.63421E-05-3.07218E-05 3.72846E-07-1.16130E-18 5.26682E-20
 -1      3602 1.19936E-04-4.60328E-05-3.17542E-05-2.71118E-06-2.87044E-19-1.53922E-19
 -1      3603 9.57681E-05-2.74232E-05-2.92925E-05-1.44765E-06 2.40287E-19-6.86662E-19
 -1      3604 9.57954E-05-2.71964E-05-2.93940E-05-1.03274E-06 3.38901E-19-8.17913E-19
 -1      3605 9.55582E-05-2.51283E-05-3.01860E-05-1.07052E-06-7.59539E-19-1.35491E-18
 -1      3606 9.56794E-05-2.57877E-05-2.99648E-05-3.42404E-07-5.74251E-19-1.26794E-18
 -1      3607 9.48618E-05-2.73118E-05-2.89391E-05-6.70404E-06-2.67547E-19-9.97978E-20
 -1      3608 9.46387E-05-2.71101E-05-2.89436E-05-6.30560E-06-4.89163E-19-1.41299E-19
 -1      3609 9.37911E-05-2.68491E-05-2.86977E-05-7.09868E-06-6.96142E-19 1.92000E-19
 -1      3610 5.85463E-05-1.71807E-05-1.75756E-05 1.58435E-05 1.07056E-18-2.50478E-18
 -1      3611 5.34516E-05-1.35749E-05-1.68819E-05 6.53151E-06 1.02850E-18-2.99834E-18
 -1      3612 9.56594E-05-2.76750E-05-2.91355E-05-2.10606E-06-1.01326E-19-4.34685E-19
 -1      3613 9.57046E-05-2.75751E-05-2.91947E-05-1.78332E-06 1.93686E-19-5.00823E-19
 -1      3614 9.56395E-05-2.75188E-05-2.91960E-05-2.12742E-06 1.30071E-20-5.17876E-19
 -1      3615 9.21162E-05-1.77907E-05-3.18664E-05-9.41977E-07-7.19518E-20-1.67733E-18
 -1      3616 9.22391E-05-1.79935E-05-3.18346E-05-1.65730E-06-2.78654E-19-1.81046E-18
 -1      3617 9.31959E-05-1.96117E-05-3.15160E-05-1.62048E-06-2.82843E-19-1.66727E-18
 -1      3618 9.47077E-05-2.70660E-05-2.89801E-05-5.84156E-06-5.35126E-19-1.27325E-19
 -1      3619 9.46067E-05-2.70167E-05-2.89717E-05-5.45864E-06-1.71731E-19-9.44353E-20
 -1      3620 9.40258E-05-2.66264E-05-2.88866E-05-5.21517E-06-1.98104E-19 2.29543E-20
 -1      3621 9.38037E-05-2.65824E-05-2.88126E-05-6.09610E-06-6.49173E-19-2.31909E-19
 -1      3622 1.20842E-04-3.47383E-05-3.72874E-05-1.33441E-05 1.90503E-19-5.18159E-19
 -1      3623 1.18181E-04-2.75102E-05-3.88896E-05-1.32786E-05 8.68526E-19-5.33075E-19
 -1      3624 9.58374E-05-2.63537E-05-2.97707E-05 1.64908E-07-5.37160E-19-1.16451E-18
 -1      3625 9.58466E-05-2.67541E-05-2.96172E-05 6.93791E-07-5.46324E-19-1.09109E-18
 -1      3626 9.58737E-05-2.66324E-05-2.96734E-05 7.68144E-07-4.44035E-19-8.38387E-19
 -1      3627 1.16736E-04-5.20258E-05-2.79825E-05 1.48180E-05-3.64198E-19 6.71492E-19
 -1      3628 1.08571E-04-4.83648E-05-2.55134E-05 2.13005E-05-3.47416E-19 1.08736E-18
 -1      3629 1.02343E-04-4.35205E-05-2.50517E-05 2.13092E-05-2.00270E-19 1.15564E-18
 -1      3630 1.16835E-04-4.95252E-05-2.88500E-05 9.61157E-06-5.31381E-19 6.23224E-19
 -1      3631 7.18239E-05-2.57080E-05-1.96355E-05 2.36445E-05 1.77628E-18-9.98467E-19
 -1      3632 1.21510E-04-5.00576E-05-3.06097E-05-3.91556E-06-4.40944E-19 8.24309E-19
 -1      3633 8.19164E-05-3.13636E-05-2.13528E-05-2.55858E-05 7.44013E-19 1.63244E-18
 -1      3634 9.15696E-05-3.82532E-05-2.30597E-05-2.56021E-05 3.63973E-19 1.55997E-18
 -1      3635 7.78075E-05-2.69836E-05-2.15808E-05-2.20110E-05 4.04233E-19 1.26490E-18
 -1      3636 1.23055E-04-4.15985E-05-3.49501E-05-9.32453E-06 2.32577E-19-1.22740E-19
 -1      3637 1.23137E-04-4.55725E-05-3.33048E-05-6.34641E-06 2.83425E-19-3.07354E-19
 -1      3638 9.37009E-05-2.04938E-05-3.13445E-05 2.64830E-06 5.72308E-19-1.65391E-18
 -1      3639 9.29664E-05-1.92091E-05-3.15912E-05-5.37685E-07 6.91181E-20-1.58923E-18
 -1      3640 7.86648E-05-2.87735E-05-2.11141E-05 2.47464E-05-1.08371E-18 1.00911E-18
 -1      3641 7.37438E-05-2.45420E-05-2.10768E-05 2.08519E-05-1.13717E-18 1.22105E-18
 -1      3642 8.63993E-05-3.30079E-05-2.28200E-05 2.32916E-05-4.19791E-19 1.56688E-18
 -1      3643 9.40722E-05-2.14162E-05-3.11439E-05-1.87671E-06-4.21419E-19-1.36523E-18
 -1      3644 9.42967E-05-2.18756E-05-3.10428E-05-2.26340E-06-6.72733E-19-1.31718E-18
 -1      3645 5.51355E-05-1.31307E-05-1.77113E-05 9.96361E-07 9.63239E-19-3.10332E-18
 -1      3646 5.82086E-05-1.41614E-05-1.89803E-05-4.68782E-06 8.26062E-19-2.58647E-18
 -1      3647 6.00778E-05-1.44867E-05-1.94147E-05 5.09363E-06 1.08074E-18-2.95051E-18
 -1      3648 1.16411E-04-4.74802E-05-2.96665E-05 5.41890E-06-1.20981E-18-2.13863E-19
 -1      3649 1.05769E-04-4.53610E-05-2.57956E-05-1.94078E-05-1.17438E-18-5.08147E-19
 -1      3650 8.39687E-05-3.22185E-05-2.19650E-05-2.44426E-05-1.68201E-18-1.82766E-18
 -1      3651 9.26642E-05-3.49127E-05-2.46502E-05-2.13774E-05 1.26359E-18 1.40740E-19
 -1      3652 8.51121E-05-3.02105E-05-2.35599E-05-2.16931E-05 4.80863E-19 4.73253E-19
 -1      3653 9.51537E-05-2.39678E-05-3.05113E-05-1.52949E-06-7.32735E-19-1.32088E-18
 -1      3654 9.51973E-05-2.39582E-05-3.05312E-05-1.17632E-06-6.11964E-19-1.21915E-18
 -1      3655 9.47395E-05-2.73916E-05-2.88618E-05-1.40216E-06 1.20511E-19 1.21750E-18
 -1      3656 9.48073E-05-2.75163E-05-2.88408E-05-1.23231E-06-3.30657E-19 4.27315E-19
 -1      3657 9.47085E-05-2.74285E-05-2.88345E-05-1.18206E-06-6.07208E-19 1.99959E-19
 -1      3658 9.44509E-05-2.71116E-05-2.88567E-05-1.42927E-06-2.22895E-19 9.89649E-19
 -1      3659 9.47489E-05-2.30071E-05-3.07548E-05 2.46345E-06 6.65700E-19-1.13876E-18
 -1      3660 9.36363E-05-2.05743E-05-3.13246E-05 7.22423E-07 1.80079E-19-1.62208E-18
 -1      3661 9.35798E-05-2.04661E-05-3.13447E-05 2.13348E-07 8.59751E-20-1.69599E-18
 -1      3662 1.12391E-04-4.63864E-05-2.82626E-05-1.08305E-05-8.65946E-19 5.35110E-19
 -1      3663 7.78969E-05-2.61504E-05-2.20865E-05 2.08888E-05 1.91933E-18-5.69087E-19
 -1      3664 6.63895E-05-2.08923E-05-1.92375E-05 1.96554E-05 1.50496E-18-1.19863E-18
 -1      3665 6.58182E-05-1.85559E-05-2.02044E-05 1.47471E-05 1.65093E-18-1.49440E-18
 -1      3666 7.81282E-05-2.46706E-05-2.29923E-05 1.85397E-05 1.45066E-18-7.50987E-19
 -1      3667 1.13775E-04-2.08005E-05-4.02787E-05-1.07385E-05 1.49814E-18-7.28316E-19
 -1      3668 1.12189E-04-1.58188E-05-4.14272E-05-6.42793E-06 2.27243E-18-9.86965E-19
 -1      3669 9.39147E-05-2.11028E-05-3.12229E-05 1.58416E-06 3.21629E-19-1.85633E-18
 -1      3670 9.37441E-05-2.07728E-05-3.12826E-05 1.09675E-06 2.12265E-19-1.69593E-18
 -1      3671 9.43379E-05-2.18451E-05-3.10491E-05 6.90490E-07 2.18593E-19-1.54577E-18
 -1      3672 9.49589E-05-2.76943E-05-2.88298E-05 1.23189E-06 1.49686E-19 1.98191E-18
 -1      3673 9.49458E-05-2.76093E-05-2.88556E-05 1.42543E-06 5.46810E-19 2.44981E-18
 -1      3674 9.50345E-05-2.78040E-05-2.88120E-05 1.07048E-06-9.60840E-19 1.44228E-18
 -1      3675 9.40021E-05-2.68175E-05-2.87946E-05-2.84087E-07-2.27065E-19 1.00894E-18
 -1      3676 9.39739E-05-2.67970E-05-2.87924E-05-8.61180E-08-8.53937E-21 2.81730E-19
 -1      3677 9.39825E-05-2.68087E-05-2.87913E-05 1.52464E-07 1.24064E-18-7.60763E-19
 -1      3678 9.40235E-05-2.68451E-05-2.87916E-05 3.47106E-07 1.59806E-18-2.72527E-18
 -1      3679 9.37953E-05-2.66079E-05-2.87905E-05 4.24149E-08 1.17455E-18-1.58862E-18
 -1      3680 9.40758E-05-2.68382E-05-2.88139E-05-8.73037E-07-9.08617E-19 2.31207E-19
 -1      3681 9.41596E-05-2.69479E-05-2.88043E-05-6.85984E-07-1.05163E-18 5.16994E-19
 -1      3682 9.40672E-05-2.68753E-05-2.88000E-05-5.09801E-07-9.58658E-19 1.78088E-18
 -1      3683 9.47076E-05-2.71062E-05-2.89722E-05-3.79747E-06-9.65217E-20-9.67769E-19
 -1      3684 9.50930E-05-2.74420E-05-2.89877E-05-3.73750E-06 3.43194E-20-5.80131E-19
 -1      3685 9.51274E-05-2.75163E-05-2.89793E-05-3.45575E-06-2.22731E-20-1.05267E-18
 -1      3686 6.05377E-05-1.53905E-05-1.90185E-05-1.10773E-05 4.79943E-19 1.27161E-18
 -1      3687 6.78491E-05-1.87994E-05-2.09540E-05-1.42505E-05 1.00664E-18 1.12339E-18
 -1      3688 6.11579E-05-1.46850E-05-1.98993E-05-5.35007E-06 3.22832E-19 1.03439E-18
 -1      3689 6.48221E-05-1.96610E-05-1.91393E-05-1.72190E-05-2.72453E-19-2.96877E-18
 -1      3690 9.53451E-05-2.76664E-05-2.90065E-05-2.92017E-06-1.35756E-19-1.00805E-18
 -1      3691 9.53785E-05-2.75137E-05-2.90859E-05-2.68037E-06-2.78332E-20-9.93264E-19
 -1      3692 9.52997E-05-2.76216E-05-2.90006E-05-3.18649E-06-5.13441E-20-9.26134E-19
 -1      3693 9.57829E-05-2.69553E-05-2.95014E-05-6.63393E-07 4.53680E-19-9.42347E-19
 -1      3694 9.57669E-05-2.66563E-05-2.96110E-05-1.96441E-07 3.93525E-19-7.55489E-19
 -1      3695 9.58595E-05-2.68384E-05-2.95807E-05-7.63925E-07 3.20672E-19-9.35005E-19
 -1      3696 5.91915E-05-1.50700E-05-1.85969E-05 1.06917E-05-1.09998E-18 1.48247E-18
 -1      3697 6.08113E-05-1.45952E-05-1.97843E-05 5.41529E-06-1.72920E-19 7.06981E-19
 -1      3698 6.56636E-05-1.82094E-05-2.03578E-05 1.43083E-05-1.28452E-18 1.57363E-20
 -1      3699 9.58151E-05-2.72986E-05-2.93657E-05-1.49277E-06 7.88477E-20-7.17184E-19
 -1      3700 1.10908E-04-1.46151E-05-4.15469E-05-3.98431E-07 2.13124E-18-6.02505E-19
 -1      3701 9.47123E-05-2.74781E-05-2.88171E-05 1.11950E-06 1.64903E-19 4.24995E-18
 -1      3702 9.48446E-05-2.76008E-05-2.88175E-05 1.14025E-06-4.77130E-19 4.78478E-18
 -1      3703 9.57402E-05-2.57103E-05-3.00161E-05-1.55925E-07-5.71684E-19-1.21740E-18
 -1      3704 9.45086E-05-2.72797E-05-2.88095E-05 1.03589E-06 5.29232E-20 1.37644E-18
 -1      3705 9.45271E-05-2.72738E-05-2.88243E-05 1.22475E-06-4.56053E-19 3.17977E-18
 -1      3706 9.48419E-05-2.30226E-05-3.07758E-05-2.31152E-06-7.37160E-19-1.47669E-18
 -1      3707 9.46733E-05-2.73464E-05-2.88515E-05 1.50864E-06 4.64897E-19 4.74522E-18
 -1      3708 9.43559E-05-2.71537E-05-2.88054E-05 9.18282E-07 1.59006E-18-1.42623E-18
 -1      3709 1.04326E-04-4.48603E-05-2.50767E-05-2.25800E-05 2.64248E-19-3.28470E-19
 -1      3710 9.69782E-05-3.96081E-05-2.44110E-05-2.26677E-05 1.08512E-18 6.71538E-20
 -1      3711 9.46121E-05-2.73518E-05-2.88287E-05-1.11618E-06-1.04542E-18-5.85812E-19
 -1      3712 9.44039E-05-2.71196E-05-2.88353E-05-1.18616E-06-4.67767E-19 1.64689E-19
 -1      3713 9.38844E-05-2.10525E-05-3.12283E-05-1.54043E-06-2.96082E-19-1.60758E-18
 -1      3714 9.45930E-05-2.23814E-05-3.09264E-05-1.29525E-06-3.24391E-19-1.30472E-18
 -1      3715 9.37274E-05-2.07446E-05-3.12871E-05-1.07170E-06-1.00078E-19-1.51899E-18
 -1      3716 9.55687E-05-2.71071E-05-2.93413E-05 1.69661E-06-6.53445E-20-4.49080E-19
 -1      3717 9.53895E-05-2.71051E-05-2.92658E-05 1.96982E-06-1.51338E-19-4.16694E-19
 -1      3718 9.51126E-05-2.70156E-05-2.91872E-05 2.17900E-06-2.78307E-19-3.73957E-19
 -1      3719 9.48648E-05-2.68854E-05-2.91339E-05 2.43300E-06-1.62373E-19-4.44849E-19
 -1      3720 9.51837E-05-2.68807E-05-2.92690E-05 1.79874E-06-1.63888E-19-3.77028E-19
 -1      3721 9.44926E-05-2.66722E-05-2.90708E-05 2.63899E-06-1.44843E-19-3.56472E-19
 -1      3722 9.41780E-05-2.64397E-05-2.90301E-05 2.89904E-06-1.59477E-20-5.92195E-19
 -1      3723 9.45417E-05-2.65823E-05-2.91206E-05 2.20420E-06-1.90216E-19-3.38119E-19
 -1      3724 9.37102E-05-2.61260E-05-2.89719E-05 3.12011E-06 7.16708E-20-8.49860E-19
 -1      3725 9.33245E-05-2.58122E-05-2.89332E-05 3.40612E-06-2.31706E-19-8.27283E-19
 -1      3726 9.37113E-05-2.60480E-05-2.89918E-05 2.61183E-06-2.10666E-19-5.30936E-19
 -1      3727 9.27539E-05-2.54184E-05-2.88678E-05 3.65684E-06-4.48706E-19-7.21393E-19
 -1      3728 9.22891E-05-2.50436E-05-2.88190E-05 3.98428E-06-3.67199E-19-6.22216E-19
 -1      3729 9.26851E-05-2.53239E-05-2.88599E-05 3.05169E-06-2.98394E-19-5.82593E-19
 -1      3730 9.16019E-05-2.45899E-05-2.87321E-05 4.27771E-06-2.22796E-19-7.33057E-19
 -1      3731 9.10500E-05-2.41791E-05-2.86586E-05 4.66097E-06-7.25909E-20-5.91374E-19
 -1      3732 9.14424E-05-2.44511E-05-2.86979E-05 3.54741E-06-2.21234E-19-2.62260E-19
 -1      3733 9.02277E-05-2.36912E-05-2.85322E-05 5.01251E-06 3.80627E-21-6.79556E-19
 -1      3734 8.95846E-05-2.32794E-05-2.84158E-05 5.46917E-06-3.31559E-20-6.46781E-19
 -1      3735 8.99511E-05-2.34745E-05-2.84730E-05 4.12346E-06-1.01729E-20-5.53064E-19
 -1      3736 8.86042E-05-2.27923E-05-2.82270E-05 5.90309E-06-3.27162E-20-7.30692E-19
 -1      3737 8.78760E-05-2.24310E-05-2.80453E-05 6.46317E-06 5.03703E-20-4.32454E-19
 -1      3738 8.81698E-05-2.24499E-05-2.81435E-05 4.81463E-06 3.45379E-20-8.47646E-19
 -1      3739 8.67085E-05-2.19941E-05-2.77647E-05 7.02617E-06 1.17660E-19-2.59836E-19
 -1      3740 8.59233E-05-2.17617E-05-2.74902E-05 7.74761E-06-2.35709E-20-1.27310E-19
 -1      3741 8.60462E-05-2.14479E-05-2.76562E-05 5.68520E-06 2.68441E-19-5.78049E-19
 -1      3742 8.45320E-05-2.14477E-05-2.70782E-05 8.53305E-06-5.08532E-19-3.26585E-19
 -1      3743 8.37639E-05-2.14730E-05-2.66769E-05 9.52395E-06-4.11077E-19-3.73064E-19
 -1      3744 8.35124E-05-2.05626E-05-2.69406E-05 6.86620E-06-3.47095E-19-6.63738E-19
 -1      3745 8.21065E-05-2.13931E-05-2.60769E-05 1.06998E-05 2.69085E-19-6.04349E-19
 -1      3746 8.14992E-05-2.18855E-05-2.55045E-05 1.21536E-05 6.21257E-19-7.54948E-19
 -1      3747 8.04802E-05-1.99406E-05-2.58959E-05 8.60998E-06-1.46699E-19-7.07443E-19
 -1      3748 7.98711E-05-2.22715E-05-2.47695E-05 1.38676E-05 8.09151E-19-6.97556E-19
 -1      3749 7.97426E-05-2.35911E-05-2.39966E-05 1.60438E-05 1.05037E-18-6.71174E-19
 -1      3750 7.40398E-05-2.07781E-05-2.26857E-05 1.51971E-05 1.36808E-18-8.45665E-19
 -1      3751 7.71864E-05-1.98377E-05-2.45030E-05 1.12261E-05 4.85482E-19-1.53977E-18
 -1      3752 9.50929E-05-2.36765E-05-3.06200E-05-1.00079E-06-4.52796E-19-1.14772E-18
 -1      3753 9.55341E-05-2.47474E-05-3.03207E-05-6.30265E-07-4.32951E-19-1.04839E-18
 -1      3754 9.52887E-05-2.41946E-05-3.04504E-05 1.63230E-06 5.60330E-19-1.08059E-18
 -1      3755 9.45543E-05-2.24696E-05-3.09107E-05 2.22357E-06 5.82916E-19-1.35941E-18
 -1      3756 8.14891E-05-2.17304E-05-2.55594E-05-1.20214E-05 2.33218E-19 1.93315E-18
 -1      3757 8.20299E-05-2.11936E-05-2.61266E-05-1.05627E-05 2.75308E-19 2.16051E-18
 -1      3758 8.36416E-05-2.12356E-05-2.67241E-05-9.33855E-06-3.51180E-20 1.60621E-18
 -1      3759 8.43640E-05-2.11712E-05-2.71235E-05-8.31539E-06-3.73412E-19 1.63376E-18
 -1      3760 8.03093E-05-1.96823E-05-2.59378E-05-8.47314E-06-2.48861E-19 1.11519E-18
 -1      3761 8.57041E-05-2.14444E-05-2.75324E-05-7.49492E-06-9.65138E-19 1.46059E-18
 -1      3762 8.64472E-05-2.16387E-05-2.78045E-05-6.73344E-06-2.94384E-19 7.03402E-19
 -1      3763 8.32635E-05-2.02267E-05-2.69764E-05-6.67394E-06-4.80674E-19-3.96583E-19
 -1      3764 8.75586E-05-2.20343E-05-2.80798E-05-6.13031E-06-4.24522E-19 2.30584E-19
 -1      3765 8.82409E-05-2.23594E-05-2.82567E-05-5.52565E-06-1.33824E-19-3.15240E-19
 -1      3766 8.56912E-05-2.10261E-05-2.76835E-05-5.41975E-06-1.06428E-18 6.65679E-19
 -1      3767 8.91584E-05-2.28065E-05-2.84366E-05-5.04933E-06 3.37527E-19-9.94293E-19
 -1      3768 8.97499E-05-2.31845E-05-2.85447E-05-4.54586E-06 7.24791E-19-1.79126E-18
 -1      3769 8.76972E-05-2.19458E-05-2.81557E-05-4.47120E-06-4.19435E-19-1.21548E-19
 -1      3770 9.05010E-05-2.36356E-05-2.86572E-05-4.15092E-06 1.31190E-18-1.98437E-18
 -1      3771 9.09950E-05-2.40185E-05-2.87173E-05-3.72117E-06 1.06419E-18-9.38730E-19
 -1      3772 8.93459E-05-2.28937E-05-2.84612E-05-3.70075E-06 8.89944E-19-6.19243E-19
 -1      3773 9.16040E-05-2.44444E-05-2.87831E-05-3.38552E-06 1.29253E-18 1.94344E-19
 -1      3774 9.20053E-05-2.48043E-05-2.88109E-05-3.01650E-06 1.20143E-18 1.27184E-18
 -1      3775 9.06894E-05-2.38069E-05-2.86496E-05-3.04692E-06 2.11310E-18-7.65618E-20
 -1      3776 9.24939E-05-2.51883E-05-2.88452E-05-2.72977E-06 2.03491E-19 2.57478E-18
 -1      3777 9.28124E-05-2.55104E-05-2.88523E-05-2.41466E-06 4.29074E-19 2.43230E-18
 -1      3778 9.17735E-05-2.46468E-05-2.87575E-05-2.48247E-06 1.66838E-18 9.63623E-19
 -1      3779 9.32002E-05-2.58442E-05-2.88661E-05-2.17225E-06 6.14136E-19 1.77932E-18
 -1      3780 9.34469E-05-2.61222E-05-2.88609E-05-1.90618E-06 3.82580E-19 1.56005E-18
 -1      3781 9.26404E-05-2.53935E-05-2.88115E-05-1.99512E-06-5.12235E-20 1.78985E-18
 -1      3782 9.37527E-05-2.64067E-05-2.88619E-05-1.70177E-06-7.98752E-19 2.37186E-18
 -1      3783 9.39459E-05-2.66376E-05-2.88502E-05-1.48119E-06-9.16080E-19 1.64928E-18
 -1      3784 9.33174E-05-2.60304E-05-2.88306E-05-1.58177E-06-2.52445E-19 4.30930E-19
 -1      3785 9.42501E-05-2.69530E-05-2.88442E-05-1.30043E-06-3.04664E-19 1.21160E-18
 -1      3786 9.56244E-05-3.12242E-05-2.75630E-05-1.15240E-05-4.45922E-19 1.14349E-19
 -1      3787 9.42684E-05-2.96373E-05-2.76830E-05-1.09524E-05-1.89191E-19 5.21650E-19
 -1      3788 1.07812E-04-4.48726E-05-2.70850E-05-1.50635E-05-9.64317E-19-6.79479E-19
 -1      3789 1.04953E-04-4.13776E-05-2.72911E-05-1.35421E-05-1.23425E-18 3.49282E-19
 -1      3790 1.02015E-04-3.83250E-05-2.71949E-05-1.35967E-05-8.38602E-19 2.39369E-19
 -1      3791 9.79621E-05-3.92740E-05-2.49454E-05-2.07338E-05-1.27872E-18-1.00506E-18
 -1      3792 9.35770E-05-2.04613E-05-3.13456E-05-1.82746E-07 1.40982E-19-1.62572E-18
 -1      3793 9.36297E-05-2.05607E-05-3.13272E-05-6.90209E-07 2.71499E-20-1.49666E-18
 -1      3794 9.43288E-05-2.18241E-05-3.10529E-05-6.76544E-07-1.11385E-20-1.42897E-18
 -1      3795 9.42416E-05-2.16473E-05-3.10924E-05 1.07962E-08 1.35296E-19-1.65686E-18
 -1      3796 9.37018E-05-2.85326E-05-2.78994E-05-9.97479E-06-5.19731E-19 1.33088E-19
 -1      3797 9.29692E-05-2.75678E-05-2.80273E-05-9.35346E-06-6.66275E-19 1.66124E-19
 -1      3798 9.18101E-05-2.80313E-05-2.73648E-05-1.10092E-05-6.87718E-19-4.87148E-19
 -1      3799 1.12264E-04-4.67532E-05-2.79120E-05 1.21802E-05-9.11130E-19-2.22667E-19
 -1      3800 9.28558E-05-2.69743E-05-2.82132E-05-8.50955E-06-7.73175E-19 9.84476E-20
 -1      3801 9.25309E-05-2.64597E-05-2.83209E-05-7.91565E-06-8.99080E-19 2.26348E-19
 -1      3802 9.12154E-05-2.63676E-05-2.78066E-05-9.07252E-06-5.84456E-19-6.22864E-19
 -1      3803 9.91571E-05-3.53801E-05-2.73067E-05-1.29012E-05-5.77552E-19 9.48793E-20
 -1      3804 9.69488E-05-3.30095E-05-2.73547E-05-1.25395E-05-6.03758E-19 1.60886E-19
 -1      3805 9.35635E-05-3.09893E-05-2.68813E-05-1.32554E-05-5.90141E-19-2.16523E-19
 -1      3806 9.55880E-05-2.56626E-05-2.99601E-05 1.02834E-06 5.76728E-19-8.11240E-19
 -1      3807 9.54861E-05-2.50826E-05-3.01798E-05 1.25842E-06 6.20120E-19-9.09930E-19
 -1      3808 9.53967E-05-2.45971E-05-3.03459E-05 1.14459E-06 5.53050E-19-1.03292E-18
 -1      3809 9.56593E-05-2.61402E-05-2.97995E-05 3.95807E-07 4.15625E-19-7.96225E-19
 -1      3810 9.38009E-05-2.64094E-05-2.88758E-05-4.36480E-06-3.84341E-19-7.05835E-19
 -1      3811 9.39787E-05-2.65569E-05-2.89014E-05-4.01635E-06-3.31908E-19-1.16917E-18
 -1      3812 9.31879E-05-2.80058E-05-2.79295E-05 9.72253E-06 8.01499E-19 1.19185E-18
 -1      3813 9.41629E-05-2.92296E-05-2.77976E-05 1.03721E-05 9.16366E-19 9.65784E-19
 -1      3814 9.23898E-05-2.64857E-05-2.82475E-05 8.13539E-06-1.42782E-19 2.07329E-18
 -1      3815 9.28835E-05-2.71930E-05-2.81294E-05 8.78546E-06 5.34058E-19 1.43528E-18
 -1      3816 9.11048E-05-2.65937E-05-2.76681E-05 9.55787E-06 3.95754E-19 2.32878E-18
 -1      3817 9.22151E-05-2.57384E-05-2.84966E-05 6.73204E-06-8.81611E-19 2.23876E-18
 -1      3818 9.24059E-05-2.60854E-05-2.84066E-05 7.33763E-06-1.02039E-19 2.39711E-18
 -1      3819 9.08794E-05-2.54291E-05-2.80581E-05 7.75826E-06-2.22943E-19 2.16398E-18
 -1      3820 9.23881E-05-2.55033E-05-2.86728E-05 5.51708E-06-1.67248E-18 1.99709E-18
 -1      3821 9.24024E-05-2.56126E-05-2.86128E-05 6.06242E-06-1.61723E-18 1.82873E-18
 -1      3822 9.11164E-05-2.49561E-05-2.83555E-05 6.27340E-06-9.70823E-19 2.80963E-18
 -1      3823 9.27326E-05-2.55866E-05-2.87849E-05 4.47676E-06-5.16205E-19 6.98420E-19
 -1      3824 9.26535E-05-2.55492E-05-2.87510E-05 4.95792E-06-8.63568E-19 1.62931E-18
 -1      3825 9.15862E-05-2.49268E-05-2.85659E-05 5.05111E-06-7.09813E-19 2.69820E-18
 -1      3826 9.31401E-05-2.58499E-05-2.88463E-05 3.59348E-06-9.34821E-19 3.56961E-19
 -1      3827 9.30198E-05-2.57304E-05-2.88325E-05 4.01110E-06-8.62151E-19 6.06567E-20
 -1      3828 9.21464E-05-2.51622E-05-2.87036E-05 4.04310E-06-7.51858E-19 5.35461E-19
 -1      3829 9.35471E-05-2.61985E-05-2.88706E-05 2.85071E-06-1.34286E-18-4.88122E-19
 -1      3830 9.34168E-05-2.60408E-05-2.88710E-05 3.20754E-06-9.53100E-19-1.29877E-19
 -1      3831 9.27126E-05-2.55378E-05-2.87849E-05 3.21119E-06-7.96882E-19 7.31274E-20
 -1      3832 9.39185E-05-2.65691E-05-2.88699E-05 2.23151E-06-1.61793E-18 3.67178E-19
 -1      3833 9.37954E-05-2.64011E-05-2.88794E-05 2.53364E-06-1.48800E-18 1.30603E-19
 -1      3834 9.32375E-05-2.59698E-05-2.88251E-05 2.52724E-06-2.06540E-18-4.26391E-20
 -1      3835 9.42328E-05-2.69204E-05-2.88534E-05 1.71812E-06-3.15916E-19 2.82837E-18
 -1      3836 9.41302E-05-2.67621E-05-2.88683E-05 1.97502E-06-1.25194E-18 1.07142E-18
 -1      3837 9.36953E-05-2.64036E-05-2.88375E-05 1.97038E-06-2.08856E-18 4.31917E-19
 -1      3838 8.10616E-05-2.83017E-05-2.25272E-05-2.12602E-05-1.03518E-18-1.76025E-18
 -1      3839 8.99120E-05-3.47942E-05-2.37849E-05-2.24154E-05-1.33623E-18-1.04720E-18
 -1      3840 9.45072E-05-3.53541E-05-2.52551E-05-1.84556E-05-9.33215E-19-1.27938E-18
 -1      3841 9.38610E-05-2.66554E-05-2.87978E-05-4.39733E-07-4.70196E-19 1.09841E-18
 -1      3842 9.50331E-05-3.06277E-05-2.75751E-05 1.14041E-05 5.65236E-19 9.30653E-19
 -1      3843 9.67073E-05-3.25295E-05-2.74688E-05 1.19339E-05-2.74698E-19 8.09453E-19
 -1      3844 9.21830E-05-2.88136E-05-2.72003E-05 1.17007E-05 6.00720E-19 1.96947E-18
 -1      3845 9.43006E-05-2.19300E-05-3.10242E-05 1.85562E-06 4.22558E-19-1.62786E-18
 -1      3846 9.58272E-05-2.72202E-05-2.94049E-05-1.51317E-06-9.53287E-20-8.28803E-19
 -1      3847 9.58876E-05-2.70201E-05-2.95119E-05-1.15805E-06 8.28799E-20-9.12441E-19
 -1      3848 9.85050E-05-3.47029E-05-2.72801E-05 1.29273E-05-6.89134E-19 3.48286E-19
 -1      3849 1.01118E-04-3.73858E-05-2.72836E-05 1.30791E-05-8.81232E-19-5.80919E-19
 -1      3850 9.46442E-05-3.24212E-05-2.67203E-05 1.40399E-05-7.39339E-19 1.49123E-18
 -1      3851 9.56997E-05-2.54454E-05-3.01154E-05-1.01503E-07-4.25177E-19-9.00997E-19
 -1      3852 9.42103E-05-2.70110E-05-2.87982E-05 7.53240E-07 1.68607E-18-2.74625E-18
 -1      3853 9.41619E-05-2.69340E-05-2.88079E-05 9.65871E-07 1.18156E-18-1.52516E-18
 -1      3854 9.41035E-05-2.69218E-05-2.87954E-05 5.87550E-07 1.00200E-18-3.22138E-18
 -1      3855 9.44388E-05-2.71426E-05-2.88400E-05 1.42298E-06 2.64360E-19 2.77495E-18
 -1      3856 9.55923E-05-2.73894E-05-2.92297E-05-2.08369E-06 1.16774E-19-6.81593E-19
 -1      3857 9.57068E-05-2.73340E-05-2.93019E-05-1.78859E-06 4.34640E-20-6.95881E-19
 -1      3858 9.57639E-05-2.70793E-05-2.94349E-05-1.47553E-06-2.84180E-20-9.90617E-19
 -1      3859 9.58948E-05-2.62630E-05-2.98381E-05 4.40147E-07-3.20763E-19-8.22593E-19
 -1      3860 9.58899E-05-2.66238E-05-2.96911E-05 8.53305E-07-1.68510E-19-5.76240E-19
 -1      3861 6.27838E-05-1.63036E-05-1.96137E-05-1.21416E-05 6.93449E-19-1.86960E-18
 -1      3862 7.04592E-05-2.17168E-05-2.09228E-05-1.81746E-05-4.97867E-19-2.41023E-18
 -1      3863 7.76064E-05-2.47065E-05-2.26600E-05-1.91642E-05 3.22442E-19 1.12835E-18
 -1      3864 9.41152E-05-2.68547E-05-2.88270E-05 1.41634E-06-6.23421E-19 1.33543E-18
 -1      3865 9.26776E-05-2.62211E-05-2.84659E-05-7.21147E-06-1.14187E-18 7.61161E-20
 -1      3866 9.26044E-05-2.60147E-05-2.85457E-05-6.67554E-06-1.12512E-18-1.76458E-19
 -1      3867 9.12960E-05-2.55884E-05-2.81655E-05-7.47787E-06-1.20720E-18-9.30635E-20
 -1      3868 9.58402E-05-2.68816E-05-2.95526E-05 1.13815E-06-1.57687E-19-5.71188E-19
 -1      3869 9.57410E-05-2.70421E-05-2.94452E-05 1.46158E-06-1.21144E-19-4.61118E-19
 -1      3870 9.58492E-05-2.65273E-05-2.97056E-05 8.34681E-07-1.47375E-19-3.93632E-19
 -1      3871 9.39361E-05-2.66597E-05-2.88300E-05-1.21762E-06-7.87736E-19 1.01643E-18
 -1      3872 7.34983E-05-2.11566E-05-2.23176E-05-1.63437E-05 6.81868E-19 1.42715E-18
 -1      3873 8.03222E-05-2.39334E-05-2.40705E-05-1.63231E-05 1.90515E-19 1.54613E-18
 -1      3874 8.02496E-05-2.24825E-05-2.48152E-05-1.41340E-05 2.98286E-19 2.08704E-18
 -1      3875 7.07869E-05-1.85255E-05-2.24697E-05-1.20270E-05 1.18375E-18 2.09213E-18
 -1      3876 9.26335E-05-3.59623E-05-2.42682E-05 2.16790E-05-4.55955E-19 7.72678E-19
 -1      3877 8.67395E-05-3.13300E-05-2.37775E-05 2.05405E-05-2.29539E-19 1.24098E-18
 -1      3878 9.56285E-05-2.68862E-05-2.94577E-05 1.35787E-06-9.85525E-20-4.68067E-19
 -1      3879 1.07211E-04-4.50303E-05-2.67754E-05 1.64708E-05-5.73309E-19 9.32133E-20
 -1      3880 9.85596E-05-3.97487E-05-2.51277E-05 2.02160E-05-5.42048E-19 7.28763E-19
 -1      3881 9.82979E-05-3.76942E-05-2.59000E-05 1.73965E-05-9.97153E-19 2.70783E-19
 -1      3882 1.08440E-04-4.35958E-05-2.77452E-05 1.21112E-05-7.39298E-19-3.48540E-19
 -1      3883 6.43702E-05-1.59829E-05-2.05775E-05-7.05000E-06 7.52933E-19-2.06393E-18
 -1      3884 9.34463E-05-2.62191E-05-2.88190E-05-4.75125E-06-2.37822E-19-4.85222E-19
 -1      3885 9.30871E-05-2.59210E-05-2.87827E-05-4.29418E-06-4.86011E-19-8.46536E-19
 -1      3886 9.33004E-05-2.61202E-05-2.87833E-05-5.15636E-06-3.15976E-19-3.96953E-19
 -1      3887 7.73663E-05-2.00231E-05-2.45289E-05-1.16420E-05 1.00406E-19 1.95007E-18
 -1      3888 9.36547E-05-2.64648E-05-2.87972E-05-6.05728E-07-9.51714E-19 8.06634E-19
 -1      3889 9.35777E-05-2.64050E-05-2.87911E-05-3.70464E-07 1.57835E-19-4.83243E-19
 -1      3890 9.75886E-05-3.61005E-05-2.64697E-05-1.56008E-05-7.58382E-19-5.93055E-19
 -1      3891 9.46750E-05-2.26682E-05-3.08697E-05 1.56909E-07 1.73045E-19-1.54132E-18
 -1      3892 9.46725E-05-2.26650E-05-3.08707E-05-1.46141E-07 4.38222E-20-1.49250E-18
 -1      3893 9.49488E-05-2.33116E-05-3.07076E-05-7.82183E-07-2.60951E-19-1.26040E-18
 -1      3894 6.95077E-05-1.88110E-05-2.16538E-05 1.30381E-05 1.72381E-18-1.26019E-18
 -1      3895 6.38253E-05-1.57346E-05-2.03343E-05 9.43338E-06 1.45161E-18-2.13235E-18
 -1      3896 6.36033E-05-1.51245E-05-2.08985E-05 4.49068E-06 1.08666E-18-2.55531E-18
 -1      3897 7.10179E-05-1.82327E-05-2.27537E-05 1.08303E-05 1.10338E-18-1.47549E-18
 -1      3898 1.04708E-04-4.04383E-05-2.74228E-05 1.30762E-05-5.82746E-19-4.89573E-19
 -1      3899 9.47766E-05-2.28372E-05-3.08154E-05 1.25441E-06 2.75013E-19-1.52717E-18
 -1      3900 9.47902E-05-2.29422E-05-3.08054E-05 6.39742E-07 1.17466E-19-1.57932E-18
 -1      3901 9.47151E-05-2.27548E-05-3.08482E-05 3.56519E-07 1.70852E-19-1.59397E-18
 -1      3902 9.51438E-05-2.36122E-05-3.06379E-05 1.62010E-07 7.35475E-20-1.56443E-18
 -1      3903 7.75274E-05-2.48581E-05-2.24810E-05-1.89083E-05-6.55948E-19-1.68790E-18
 -1      3904 8.37322E-05-2.72532E-05-2.41206E-05-1.72078E-05-4.01037E-19-1.46806E-18
 -1      3905 7.43396E-05-2.13890E-05-2.27395E-05-1.46008E-05-1.65767E-21-1.60032E-18
 -1      3906 9.38954E-05-2.66993E-05-2.87941E-05 5.39680E-07 1.78625E-18-2.96555E-18
 -1      3907 9.37528E-05-2.65194E-05-2.88165E-05-1.01213E-06-1.12942E-18 9.29094E-19
 -1      3908 9.43187E-05-2.67613E-05-2.89484E-05-3.69661E-06-1.15038E-19-1.27293E-18
 -1      3909 9.45024E-05-2.69114E-05-2.89726E-05-3.39327E-06-2.67817E-19-1.06547E-18
 -1      3910 9.37810E-05-2.63487E-05-2.88969E-05-3.59801E-06-3.41652E-19-9.09584E-19
 -1      3911 6.22042E-05-1.39316E-05-2.04255E-05-5.48907E-08-8.33150E-19 2.00098E-19
 -1      3912 6.58992E-05-1.54914E-05-2.15895E-05-4.87385E-06 1.73940E-20 1.08122E-19
 -1      3913 6.54754E-05-1.54691E-05-2.14492E-05 4.48555E-06-5.99666E-19 9.67960E-19
 -1      3914 9.50600E-05-2.73546E-05-2.90171E-05-3.21934E-06-1.21830E-19-1.04808E-18
 -1      3915 9.59059E-05-2.67974E-05-2.96224E-05-8.74093E-07 2.67994E-19-9.25662E-19
 -1      3916 9.58971E-05-2.65028E-05-2.97356E-05-4.90603E-07 3.39856E-19-9.30485E-19
 -1      3917 9.58976E-05-2.66940E-05-2.96559E-05-9.10170E-07 1.13415E-19-1.06445E-18
 -1      3918 7.09047E-05-2.09283E-05-2.11567E-05 1.73852E-05-7.41875E-19 8.23051E-19
 -1      3919 6.91919E-05-1.88503E-05-2.16263E-05 1.31411E-05-4.34501E-20 7.15452E-19
 -1      3920 7.70540E-05-2.48860E-05-2.23616E-05 1.89339E-05-2.00661E-19 1.87434E-18
 -1      3921 9.97662E-05-3.79580E-05-2.65705E-05 1.56202E-05-9.11637E-19-1.20213E-19
 -1      3922 9.57379E-05-2.60207E-05-2.98798E-05 1.99827E-07 4.43522E-19-9.98796E-19
 -1      3923 9.52427E-05-2.73212E-05-2.91073E-05-2.59989E-06 1.17853E-19-1.04750E-18
 -1      3924 9.53927E-05-2.73683E-05-2.91546E-05-2.32971E-06 2.44160E-19-8.05097E-19
 -1      3925 9.54457E-05-2.71927E-05-2.92499E-05-2.00302E-06 1.97638E-19-1.01689E-18
 -1      3926 9.36871E-05-2.64990E-05-2.87979E-05 1.01215E-06-2.01912E-19-2.50663E-18
 -1      3927 9.38627E-05-2.66471E-05-2.88083E-05 1.19700E-06-3.73671E-19-1.12388E-18
 -1      3928 9.36415E-05-2.63934E-05-2.88156E-05 1.49112E-06-1.37992E-18-1.05969E-18
 -1      3929 9.28875E-05-2.60061E-05-2.86524E-05-6.09761E-06-8.69492E-19-5.16667E-19
 -1      3930 9.29585E-05-2.59947E-05-2.87066E-05-5.62824E-06-4.77738E-19-3.31266E-19
 -1      3931 9.17509E-05-2.53963E-05-2.84378E-05-6.18524E-06-1.11465E-18-5.81552E-19
 -1      3932 9.57068E-05-2.54210E-05-3.01204E-05 3.03422E-08-2.64283E-19-7.28973E-19
 -1      3933 9.35448E-05-2.63849E-05-2.87854E-05-6.64917E-08 6.48468E-19-2.07742E-18
 -1      3934 9.35531E-05-2.63981E-05-2.87844E-05 1.79880E-07 1.95011E-18-2.25844E-18
 -1      3935 9.33313E-05-2.61606E-05-2.87838E-05-2.33748E-07 4.99012E-19-2.26795E-18
 -1      3936 9.56937E-05-2.67364E-05-2.95544E-05 9.85079E-07-2.32149E-19-5.57945E-19
 -1      3937 9.55221E-05-2.68251E-05-2.94447E-05 1.21773E-06-1.49911E-19-6.63475E-19
 -1      3938 9.57913E-05-2.60120E-05-2.99129E-05-5.49490E-08 3.02314E-19-9.33665E-19
 -1      3939 9.56775E-05-2.54076E-05-3.01086E-05 5.46301E-07 4.22893E-19-9.77961E-19
 -1      3940 9.58242E-05-2.59479E-05-2.99468E-05-1.88526E-07 3.16290E-19-8.83981E-19
 -1      3941 9.46195E-05-2.65744E-05-2.91660E-05 1.69382E-06-1.01659E-19-7.88479E-19
 -1      3942 9.42470E-05-2.63614E-05-2.90958E-05 1.88373E-06-2.20889E-19-7.80545E-19
 -1      3943 9.37618E-05-2.60704E-05-2.90163E-05 2.01150E-06-2.11918E-19-5.90314E-19
 -1      3944 9.32932E-05-2.57485E-05-2.89501E-05 2.20446E-06-9.36399E-20-6.48030E-19
 -1      3945 9.38829E-05-2.60645E-05-2.90577E-05 1.49057E-06-1.62654E-19-7.11580E-19
 -1      3946 9.26919E-05-2.53542E-05-2.88668E-05 2.33883E-06-8.86145E-20-6.17631E-19
 -1      3947 9.21201E-05-2.49460E-05-2.87922E-05 2.54658E-06-2.27381E-19-2.89802E-19
 -1      3948 9.28078E-05-2.53761E-05-2.88901E-05 1.71780E-06-1.41442E-19-7.15531E-19
 -1      3949 9.13933E-05-2.44709E-05-2.86911E-05 2.69128E-06-3.54338E-19-2.81062E-19
 -1      3950 9.07035E-05-2.39961E-05-2.85934E-05 2.92183E-06-1.30171E-19-2.71432E-19
 -1      3951 9.14959E-05-2.44999E-05-2.87001E-05 1.94910E-06-1.22777E-19-3.92851E-19
 -1      3952 8.98293E-05-2.34600E-05-2.84572E-05 3.08222E-06-2.62520E-19-6.94464E-19
 -1      3953 8.90031E-05-2.29426E-05-2.83177E-05 3.34539E-06-2.61850E-19-9.40144E-19
 -1      3954 8.99163E-05-2.34773E-05-2.84567E-05 2.18220E-06-4.61252E-19-7.28860E-19
 -1      3955 8.79460E-05-2.23648E-05-2.81244E-05 3.52701E-06 4.90644E-20-1.26446E-18
 -1      3956 8.69576E-05-2.18319E-05-2.79193E-05 3.84198E-06 2.23898E-19-1.16466E-18
 -1      3957 8.80155E-05-2.23466E-05-2.81204E-05 2.42425E-06-3.30927E-19-1.65230E-18
 -1      3958 8.56674E-05-2.12357E-05-2.76397E-05 4.06238E-06 2.12145E-19-1.27299E-18
 -1      3959 8.44841E-05-2.07187E-05-2.73384E-05 4.46701E-06-7.13228E-20-1.31065E-18
 -1      3960 8.57056E-05-2.11396E-05-2.76391E-05 2.69225E-06 1.10484E-19-1.76023E-18
 -1      3961 8.28806E-05-2.01267E-05-2.69330E-05 4.76470E-06-1.43388E-19-1.31187E-18
 -1      3962 8.14569E-05-1.96632E-05-2.64937E-05 5.33527E-06-5.80707E-19-1.04025E-18
 -1      3963 8.28649E-05-1.98918E-05-2.69444E-05 3.01822E-06-2.70325E-19-1.93822E-18
 -1      3964 7.94039E-05-1.90956E-05-2.59011E-05 5.79664E-06-5.70570E-19-8.49092E-19
 -1      3965 7.76783E-05-1.87586E-05-2.52551E-05 6.67114E-06 6.24290E-20-9.11641E-19
 -1      3966 7.92928E-05-1.86179E-05-2.59362E-05 3.49884E-06-8.46578E-20-1.58500E-18
 -1      3967 8.99036E-05-2.47866E-05-2.78881E-05-7.35650E-06-1.07379E-18-9.42483E-19
 -1      3968 9.00580E-05-2.46305E-05-2.80559E-05-6.65006E-06-1.52954E-18-1.06326E-18
 -1      3969 6.93339E-05-1.65441E-05-2.24870E-05-8.02772E-06 5.24833E-19 2.58219E-19
 -1      3970 7.39473E-05-1.85740E-05-2.36807E-05-1.00148E-05 1.81418E-19 1.67021E-18
 -1      3971 7.52127E-05-1.82381E-05-2.44997E-05-8.03679E-06-1.19356E-18 1.05996E-18
 -1      3972 6.91242E-05-1.59324E-05-2.28798E-05-3.45470E-06-5.57991E-19-9.89381E-19
 -1      3973 9.34643E-05-2.62393E-05-2.88087E-05-9.67991E-07-5.40744E-19 3.88978E-19
 -1      3974 8.11900E-05-1.93174E-05-2.65244E-05-5.20395E-06-1.56225E-19-4.02826E-19
 -1      3975 8.25559E-05-1.97354E-05-2.69607E-05-4.60442E-06-8.90860E-19-9.54881E-19
 -1      3976 8.40997E-05-2.02821E-05-2.73610E-05-4.27673E-06-1.07499E-18 3.20943E-19
 -1      3977 8.52277E-05-2.07568E-05-2.76564E-05-3.83770E-06-6.58410E-19 9.49564E-19
 -1      3978 8.24670E-05-1.94490E-05-2.69629E-05-2.89735E-06-1.72357E-19-4.45867E-19
 -1      3979 8.64493E-05-2.13080E-05-2.79267E-05-3.58510E-06-4.55020E-19 1.44192E-18
 -1      3980 8.73753E-05-2.18011E-05-2.81218E-05-3.23426E-06-2.05083E-19 1.57793E-18
 -1      3981 8.51788E-05-2.06026E-05-2.76429E-05-2.51208E-06-6.58229E-20 1.32876E-18
 -1      3982 8.83543E-05-2.23361E-05-2.83008E-05-3.02091E-06-6.66375E-20 1.51043E-18
 -1      3983 8.91101E-05-2.28174E-05-2.84251E-05-2.72169E-06 1.14694E-18 1.47483E-18
 -1      3984 8.73431E-05-2.17203E-05-2.80997E-05-2.19125E-06 1.05567E-20 2.07890E-18
 -1      3985 8.98996E-05-2.33193E-05-2.85400E-05-2.53085E-06 2.05867E-18 9.63585E-20
 -1      3986 9.05114E-05-2.37686E-05-2.86149E-05-2.26799E-06 2.20843E-18-8.86102E-20
 -1      3987 8.90852E-05-2.27756E-05-2.83998E-05-1.89442E-06 2.90099E-19 9.14794E-19
 -1      3988 9.11477E-05-2.42250E-05-2.86852E-05-2.09509E-06 1.96091E-18-7.85308E-19
 -1      3989 9.16379E-05-2.46303E-05-2.87265E-05-1.86301E-06 1.15715E-18-4.32164E-19
 -1      3990 9.04914E-05-2.37480E-05-2.85900E-05-1.61127E-06 9.84717E-19-6.85062E-19
 -1      3991 9.21469E-05-2.50305E-05-2.87662E-05-1.70950E-06 4.52308E-19-2.37471E-19
 -1      3992 9.25292E-05-2.53853E-05-2.87849E-05-1.50270E-06-2.92158E-20 4.15216E-19
 -1      3993 9.16234E-05-2.46231E-05-2.87041E-05-1.34578E-06 1.22396E-18-1.76959E-18
 -1      3994 9.28765E-05-2.56803E-05-2.87983E-05-1.29930E-06-3.52009E-20 2.54420E-19
 -1      3995 9.31773E-05-2.59836E-05-2.88037E-05-1.13036E-06-4.60233E-20 6.59963E-19
 -1      3996 9.30888E-05-2.59207E-05-2.87832E-05-6.87800E-07 2.00700E-19-6.42504E-19
 -1      3997 9.24585E-05-2.53366E-05-2.87600E-05-1.02309E-06 5.08803E-19-1.11948E-18
 -1      3998 9.15033E-05-3.18812E-05-2.54958E-05-1.69155E-05-7.79856E-19-1.03104E-18
 -1      3999 8.94932E-05-2.54437E-05-2.74206E-05-9.15341E-06-5.87807E-19-6.27018E-19
 -1      4000 8.93908E-05-2.49438E-05-2.76375E-05-8.26598E-06-7.00479E-19-6.40439E-19
 -1      4001 8.81617E-05-2.39099E-05-2.75305E-05-7.37939E-06-1.11434E-18-1.21877E-18
 -1      4002 9.51391E-05-2.36018E-05-3.06401E-05-1.40051E-07-1.13126E-19-1.28167E-18
 -1      4003 9.47100E-05-2.27424E-05-3.08512E-05-3.42185E-07-1.91754E-20-1.32399E-18
 -1      4004 9.47929E-05-2.29324E-05-3.08105E-05-6.35032E-07-1.76302E-19-1.31977E-18
 -1      4005 9.53041E-05-2.40542E-05-3.05214E-05-3.98185E-07-3.12539E-19-1.17195E-18
 -1      4006 9.00442E-05-2.41465E-05-2.82569E-05 5.50516E-06-3.24826E-19 2.81937E-18
 -1      4007 8.98509E-05-2.42002E-05-2.81227E-05 6.15974E-06-4.68111E-19 3.45595E-18
 -1      4008 8.93518E-05-2.42492E-05-2.79184E-05 6.95892E-06-6.59565E-19 3.51653E-18
 -1      4009 8.93270E-05-2.45634E-05-2.77346E-05 7.76699E-06-1.82082E-19 3.25712E-18
 -1      4010 8.83221E-05-2.33811E-05-2.78248E-05 6.13161E-06 1.92295E-19 4.46396E-18
 -1      4011 8.89197E-05-2.48915E-05-2.74584E-05 8.81253E-06 8.44033E-20 2.48223E-18
 -1      4012 8.92113E-05-2.56098E-05-2.72241E-05 9.81222E-06 1.17842E-19 2.20015E-18
 -1      4013 8.73874E-05-2.36338E-05-2.73208E-05 7.95187E-06-9.20757E-19 3.30748E-18
 -1      4014 9.08289E-05-2.43749E-05-2.84931E-05 4.35492E-06-5.72744E-19 2.45191E-18
 -1      4015 9.05595E-05-2.42702E-05-2.84015E-05 4.88858E-06-4.75578E-19 3.06147E-18
 -1      4016 8.93480E-05-2.35526E-05-2.81893E-05 4.75708E-06-9.44023E-20 2.91969E-18
 -1      4017 9.16089E-05-2.47883E-05-2.86482E-05 3.43505E-06-7.22077E-19 1.32689E-18
 -1      4018 9.13190E-05-2.45961E-05-2.85905E-05 3.87271E-06-5.73759E-19 1.34962E-18
 -1      4019 9.03555E-05-2.39701E-05-2.84422E-05 3.70254E-06-1.23447E-19 1.93197E-18
 -1      4020 9.23308E-05-2.52871E-05-2.87422E-05 2.69420E-06-1.09481E-18 6.67137E-19
 -1      4021 9.20523E-05-2.50551E-05-2.87098E-05 3.05390E-06-3.86230E-19 8.09576E-19
 -1      4022 9.12867E-05-2.45137E-05-2.86090E-05 2.88083E-06-2.76663E-19 7.42280E-19
 -1      4023 9.29681E-05-2.58023E-05-2.87923E-05 2.09857E-06-1.86616E-18 1.58612E-19
 -1      4024 9.27175E-05-2.55631E-05-2.87779E-05 2.39231E-06-1.72603E-18 3.46390E-19
 -1      4025 9.21130E-05-2.51032E-05-2.87119E-05 2.23466E-06-8.68826E-19 1.04821E-18
 -1      4026 9.34250E-05-2.62119E-05-2.88091E-05 1.65985E-06-1.81076E-18 5.25089E-20
 -1      4027 9.32065E-05-2.59876E-05-2.88053E-05 1.89833E-06-1.87127E-18-2.69610E-19
 -1      4028 9.27198E-05-2.55964E-05-2.87631E-05 1.76190E-06-1.38713E-18-4.41743E-19
 -1      4029 9.31607E-05-2.59923E-05-2.87859E-05 1.40813E-06-1.12372E-18-8.89935E-19
 -1      4030 6.50837E-05-1.47964E-05-2.13226E-05-2.36717E-06 5.12359E-19-2.31994E-18
 -1      4031 6.81834E-05-1.71793E-05-2.19191E-05-8.79987E-06 1.84971E-19-1.87703E-18
 -1      4032 8.90124E-05-2.63454E-05-2.68671E-05 1.11903E-05 1.00109E-19 1.41847E-18
 -1      4033 8.97887E-05-2.76878E-05-2.65841E-05 1.24393E-05-1.51489E-19 6.86165E-19
 -1      4034 8.67275E-05-2.45685E-05-2.66517E-05 1.03666E-05-3.51006E-19 9.98339E-19
 -1      4035 9.10994E-05-2.98773E-05-2.61700E-05-1.42987E-05-5.21074E-19-4.77098E-19
 -1      4036 8.97414E-05-2.80588E-05-2.64319E-05-1.30490E-05-4.11295E-19-6.15961E-19
 -1      4037 8.85640E-05-3.06017E-05-2.48081E-05 1.78882E-05-7.06487E-19 7.02977E-19
 -1      4038 8.30834E-05-2.79238E-05-2.35194E-05 1.93484E-05-4.59744E-19 1.81816E-18
 -1      4039 7.95652E-05-2.47091E-05-2.35184E-05 1.67357E-05-4.39845E-19 1.72636E-18
 -1      4040 9.48095E-05-2.70892E-05-2.90196E-05-3.12128E-06-2.59460E-19-1.25941E-18
 -1      4041 9.49824E-05-2.72046E-05-2.90509E-05-2.84604E-06-8.75742E-20-1.25223E-18
 -1      4042 9.44254E-05-2.67540E-05-2.89998E-05-3.01316E-06-2.80003E-19-1.27371E-18
 -1      4043 8.69910E-05-2.87581E-05-2.49848E-05-1.67019E-05-3.61967E-19-1.47325E-18
 -1      4044 9.46648E-05-3.43324E-05-2.58064E-05 1.68948E-05-1.22458E-18 6.04445E-19
 -1      4045 9.35264E-05-2.63679E-05-2.87840E-05 4.69061E-07 1.41154E-18-1.11352E-18
 -1      4046 9.36193E-05-2.64527E-05-2.87894E-05 7.25277E-07 6.46232E-19-1.90865E-18
 -1      4047 9.32983E-05-2.61260E-05-2.87844E-05 9.49665E-07-4.19779E-19-1.39595E-18
 -1      4048 9.32557E-05-2.61081E-05-2.87767E-05 3.67598E-07 5.20375E-19-1.44051E-18
 -1      4049 9.56907E-05-2.70089E-05-2.94371E-05-1.40246E-06 6.18788E-20-9.33326E-19
 -1      4050 9.58108E-05-2.68670E-05-2.95471E-05-1.12338E-06-4.00705E-20-9.40893E-19
 -1      4051 7.75601E-05-1.84878E-05-2.52990E-05-6.58441E-06-8.66870E-19 6.33552E-19
 -1      4052 7.91826E-05-1.87946E-05-2.59357E-05-5.70901E-06-7.65357E-20 3.17345E-19
 -1      4053 7.89706E-05-1.82462E-05-2.59629E-05-3.41271E-06-4.71414E-19-2.47109E-19
 -1      4054 9.58548E-05-2.62542E-05-2.98325E-05 5.19004E-07 9.63717E-21-7.33122E-19
 -1      4055 9.58089E-05-2.65455E-05-2.96883E-05 8.14328E-07-1.83640E-19-7.04960E-19
 -1      4056 9.57215E-05-2.64794E-05-2.96703E-05 6.88465E-07-2.06289E-19-9.29926E-19
 -1      4057 9.54229E-05-2.45697E-05-3.03631E-05 8.37887E-07 4.56071E-19-1.08329E-18
 -1      4058 8.96944E-05-2.69788E-05-2.68349E-05-1.14483E-05-6.31769E-19-4.10780E-19
 -1      4059 8.91566E-05-2.59697E-05-2.70947E-05-1.03544E-05-5.60156E-19-6.82575E-19
 -1      4060 8.68628E-05-2.58779E-05-2.61479E-05-1.23418E-05-4.06284E-19-1.12606E-18
 -1      4061 9.55884E-05-2.49244E-05-3.02922E-05-1.81849E-07-2.03141E-19-1.11513E-18
 -1      4062 9.58060E-05-2.57781E-05-3.00121E-05 3.04482E-07 2.92599E-20-7.46131E-19
 -1      4063 9.57764E-05-2.57950E-05-2.99874E-05 2.92760E-07 2.87707E-20-1.10374E-18
 -1      4064 9.54523E-05-2.45422E-05-3.03910E-05-1.24784E-07-9.69918E-20-1.10774E-18
 -1      4065 9.52691E-05-2.68176E-05-2.93386E-05 1.36202E-06-1.44547E-19-6.97670E-19
 -1      4066 9.49923E-05-2.67390E-05-2.92536E-05 1.56336E-06-1.08402E-19-6.10704E-19
 -1      4067 9.47325E-05-2.65174E-05-2.92292E-05 1.25340E-06-1.82773E-19-7.65671E-19
 -1      4068 9.31306E-05-3.19420E-05-2.61796E-05 1.50893E-05-9.09571E-19 8.32584E-19
 -1      4069 9.09535E-05-3.15138E-05-2.54889E-05 1.68972E-05-1.18361E-18 6.52818E-19
 -1      4070 8.72257E-05-2.83398E-05-2.52291E-05 1.58626E-05-1.94583E-18 1.05968E-19
 -1      4071 9.14194E-05-2.97002E-05-2.64262E-05 1.38199E-05-4.23508E-19 8.12431E-19
 -1      4072 8.72681E-05-2.44582E-05-2.69227E-05-9.48957E-06-6.26574E-19-9.28284E-19
 -1      4073 9.52680E-05-2.40760E-05-3.05194E-05 9.31749E-07 2.97518E-19-1.40623E-18
 -1      4074 9.49458E-05-2.32706E-05-3.07159E-05 7.84362E-07 8.19310E-20-1.49796E-18
 -1      4075 9.23872E-05-2.55634E-05-2.86367E-05-5.14154E-06-4.52018E-19-8.06975E-19
 -1      4076 8.92721E-05-2.39496E-05-2.79882E-05-5.81217E-06-1.11934E-18-1.31419E-18
 -1      4077 9.06348E-05-2.47074E-05-2.82425E-05-5.96275E-06-1.17436E-18-6.50658E-19
 -1      4078 9.09250E-05-2.47675E-05-2.83663E-05-5.40097E-06-8.51593E-19-5.24690E-19
 -1      4079 7.53182E-05-1.83421E-05-2.45001E-05 7.47459E-06 3.11543E-19-1.33991E-18
 -1      4080 7.37141E-05-1.82920E-05-2.37099E-05 8.79775E-06 5.95464E-19-1.27936E-18
 -1      4081 7.49710E-05-1.73898E-05-2.45619E-05 4.36894E-06-1.42078E-19-1.34342E-18
 -1      4082 7.46969E-05-1.72399E-05-2.45505E-05-4.97710E-06-7.28607E-19-3.32990E-20
 -1      4083 9.27138E-05-2.55977E-05-2.87621E-05-4.43301E-07 6.04149E-19-1.45591E-18
 -1      4084 9.30010E-05-2.58759E-05-2.87717E-05-3.12242E-07-1.07423E-19-2.34827E-18
 -1      4085 9.29817E-05-2.58544E-05-2.87657E-05 1.51105E-08 4.70102E-19-2.94115E-18
 -1      4086 9.52998E-05-2.40378E-05-3.05265E-05 4.13200E-07 1.09549E-19-1.52349E-18
 -1      4087 8.34581E-05-2.55045E-05-2.48879E-05-1.45824E-05-1.84221E-19-1.41933E-18
 -1      4088 9.53968E-05-2.43947E-05-3.04360E-05-5.41554E-09-1.05942E-20-1.21906E-18
 -1      4089 9.54137E-05-2.44628E-05-3.04185E-05-1.11927E-07-1.65882E-19-1.17019E-18
 -1      4090 9.56833E-05-2.51861E-05-3.02016E-05 5.68104E-08-3.10624E-20-1.13667E-18
 -1      4091 6.75467E-05-1.58643E-05-2.20963E-05 1.72118E-06 7.61188E-19-1.88434E-18
 -1      4092 9.54373E-05-2.45028E-05-3.04040E-05 1.11937E-07 2.02877E-20-1.61785E-18
 -1      4093 9.54017E-05-2.44318E-05-3.04259E-05 9.53076E-09 1.26450E-21-1.50474E-18
 -1      4094 9.56734E-05-2.51349E-05-3.02160E-05-1.25251E-08-1.09861E-19-1.34947E-18
 -1      4095 7.31275E-05-1.93080E-05-2.29637E-05-1.12629E-05-2.33078E-19-1.65425E-18
 -1      4096 7.83158E-05-2.17747E-05-2.42090E-05-1.21498E-05-4.89793E-19-1.44286E-18
 -1      4097 7.26934E-05-1.79636E-05-2.35119E-05-7.14387E-06-3.66357E-19-1.76757E-18
 -1      4098 8.78883E-05-2.71902E-05-2.60588E-05 1.34285E-05-8.86409E-19-5.63219E-19
 -1      4099 9.32651E-05-2.59519E-05-2.88448E-05-3.33709E-06-4.98639E-19-5.75271E-19
 -1      4100 9.36067E-05-2.61867E-05-2.89013E-05-3.03059E-06-3.75745E-19-6.90937E-19
 -1      4101 6.90149E-05-1.66358E-05-2.22313E-05 8.24373E-06-7.19447E-19 1.06360E-18
 -1      4102 6.91632E-05-1.61317E-05-2.27623E-05 3.52124E-06-1.19538E-18 8.75170E-19
 -1      4103 9.58825E-05-2.66902E-05-2.96587E-05-9.37478E-07-3.10525E-20-9.99957E-19
 -1      4104 9.59140E-05-2.64346E-05-2.97729E-05-6.49177E-07 1.94073E-19-1.05157E-18
 -1      4105 9.58122E-05-2.66048E-05-2.96561E-05-8.75909E-07 7.82605E-20-7.13853E-19
 -1      4106 9.49892E-05-2.70594E-05-2.91111E-05-2.49738E-06 1.12528E-19-1.17871E-18
 -1      4107 9.54948E-05-2.70588E-05-2.93312E-05-1.60689E-06 1.69690E-19-1.12641E-18
 -1      4108 9.55463E-05-2.68609E-05-2.94331E-05-1.26090E-06 2.26314E-19-9.48769E-19
 -1      4109 9.52949E-05-2.70482E-05-2.92491E-05-1.85523E-06 3.08415E-19-1.12999E-18
 -1      4110 9.24013E-05-2.54317E-05-2.86959E-05-4.02367E-06-3.92901E-19-7.47242E-19
 -1      4111 9.27582E-05-2.56631E-05-2.87640E-05-3.65423E-06-4.97130E-19-5.96258E-19
 -1      4112 9.26199E-05-2.54822E-05-2.87671E-05-3.06078E-06-5.64021E-19-6.66611E-19
 -1      4113 7.25469E-05-1.91861E-05-2.29217E-05 1.12936E-05-7.50782E-20 1.16631E-18
 -1      4114 9.55536E-05-2.49043E-05-3.02839E-05 3.69316E-07 2.17316E-19-1.17163E-18
 -1      4115 9.53528E-05-2.66784E-05-2.94267E-05 9.93503E-07-2.13583E-19-7.98171E-19
 -1      4116 9.54595E-05-2.66339E-05-2.94989E-05 6.06117E-07-2.23874E-19-9.02156E-19
 -1      4117 9.52066E-05-2.66404E-05-2.93890E-05 7.37345E-07-2.32621E-19-1.03830E-18
 -1      4118 9.15025E-05-2.49767E-05-2.85032E-05-4.87931E-06-7.56168E-19-3.05715E-19
 -1      4119 9.18494E-05-2.51564E-05-2.85935E-05-4.42607E-06-5.46880E-19-4.94567E-19
 -1      4120 9.15657E-05-2.48738E-05-2.85754E-05-3.75168E-06-5.17751E-19-1.08630E-19
 -1      4121 8.58401E-05-2.62051E-05-2.55385E-05 1.37689E-05-1.62244E-18-3.09524E-19
 -1      4122 8.32855E-05-2.53043E-05-2.49160E-05 1.46061E-05-1.14399E-18 2.05276E-19
 -1      4123 8.43922E-05-2.42806E-05-2.57572E-05 1.20400E-05-4.59302E-19-1.90027E-19
 -1      4124 9.29974E-05-2.55235E-05-2.89235E-05 1.05720E-06-2.73905E-19-1.02042E-18
 -1      4125 9.23961E-05-2.51287E-05-2.88349E-05 1.14723E-06-1.93955E-19-1.09039E-18
 -1      4126 9.17038E-05-2.46835E-05-2.87310E-05 1.16474E-06-1.93632E-19-1.09181E-18
 -1      4127 9.09770E-05-2.42082E-05-2.86237E-05 1.24473E-06-3.58377E-19-1.16971E-18
 -1      4128 9.19842E-05-2.48161E-05-2.87651E-05 4.88987E-07-2.56121E-19-1.50882E-18
 -1      4129 9.01488E-05-2.36887E-05-2.84922E-05 1.25025E-06-5.58545E-19-1.13302E-18
 -1      4130 8.92845E-05-2.31549E-05-2.83491E-05 1.32494E-06-7.40352E-19-1.66111E-18
 -1      4131 9.04714E-05-2.38597E-05-2.85265E-05 4.23657E-07-5.72994E-19-1.74403E-18
 -1      4132 8.82926E-05-2.25902E-05-2.81704E-05 1.28137E-06-7.93239E-19-1.51221E-18
 -1      4133 8.72301E-05-2.20045E-05-2.79692E-05 1.34206E-06-4.01727E-19-1.67259E-18
 -1      4134 8.87161E-05-2.28233E-05-2.82175E-05 2.93070E-07-7.06081E-19-1.56343E-18
 -1      4135 8.60499E-05-2.14074E-05-2.77196E-05 1.25653E-06 1.19369E-19-1.69819E-18
 -1      4136 8.47242E-05-2.07886E-05-2.74303E-05 1.29416E-06 1.24013E-19-1.83299E-18
 -1      4137 8.65933E-05-2.16704E-05-2.77890E-05 7.79682E-08-3.46834E-19-1.60642E-18
 -1      4138 8.32672E-05-2.01572E-05-2.70733E-05 1.20155E-06-1.54670E-19-1.78084E-18
 -1      4139 8.16366E-05-1.95279E-05-2.66559E-05 1.24341E-06-2.14842E-19-1.53439E-18
 -1      4140 8.39152E-05-2.03553E-05-2.71725E-05-2.82435E-07-3.10143E-20-1.52287E-18
 -1      4141 7.97811E-05-1.88675E-05-2.61425E-05 1.09130E-06-2.57991E-19-1.44925E-18
 -1      4142 7.77145E-05-1.82371E-05-2.55298E-05 1.21279E-06-2.01384E-19-1.53066E-18
 -1      4143 8.06519E-05-1.90944E-05-2.63006E-05-9.29550E-07-2.38469E-19-1.52429E-18
 -1      4144 9.57674E-05-2.63246E-05-2.97645E-05 3.86076E-07 4.12258E-20-1.13537E-18
 -1      4145 9.56504E-05-2.65314E-05-2.96262E-05 5.43821E-07-1.12665E-19-9.78038E-19
 -1      4146 9.55330E-05-2.64889E-05-2.95841E-05 3.02646E-07-1.07630E-19-1.06151E-18
 -1      4147 8.41992E-05-2.02493E-05-2.74338E-05-1.21977E-06 7.37248E-19-2.72994E-20
 -1      4148 8.54404E-05-2.08149E-05-2.77133E-05-1.14556E-06 7.93151E-19 8.63463E-19
 -1      4149 8.65470E-05-2.13739E-05-2.79505E-05-1.20007E-06 4.52512E-19 1.56605E-18
 -1      4150 8.75377E-05-2.19136E-05-2.81369E-05-1.11905E-06 2.24369E-19 8.73490E-19
 -1      4151 8.58876E-05-2.10034E-05-2.77660E-05 3.23053E-08 1.19189E-18-5.95740E-19
 -1      4152 8.84330E-05-2.24425E-05-2.82956E-05-1.13199E-06-7.09777E-19 1.30796E-18
 -1      4153 8.92302E-05-2.29473E-05-2.84166E-05-1.04083E-06-2.29499E-19 6.98667E-19
 -1      4154 8.78686E-05-2.20771E-05-2.81639E-05-1.88115E-07-1.86454E-19 5.36650E-20
 -1      4155 8.99584E-05-2.34369E-05-2.85195E-05-1.02613E-06 6.28552E-19 7.72257E-20
 -1      4156 9.06002E-05-2.38978E-05-2.85945E-05-9.28565E-07 9.98053E-19-6.20140E-19
 -1      4157 8.94786E-05-2.30879E-05-2.84278E-05-3.00826E-07 3.79681E-19-4.29253E-20
 -1      4158 9.11910E-05-2.43376E-05-2.86583E-05-8.96670E-07 7.82406E-19-8.56275E-19
 -1      4159 9.16988E-05-2.47496E-05-2.87013E-05-7.98566E-07 9.86394E-19-1.15843E-18
 -1      4160 9.07878E-05-2.40198E-05-2.85966E-05-3.43978E-07 5.10573E-19-1.02534E-19
 -1      4161 9.20555E-05-2.50232E-05-2.87271E-05-6.93088E-07 1.13911E-18-1.79463E-18
 -1      4162 9.24044E-05-2.53460E-05-2.87455E-05-5.18569E-07 8.62693E-19-1.09735E-18
 -1      4163 9.23497E-05-2.52972E-05-2.87326E-05-1.29163E-07 2.28420E-20-1.13004E-18
 -1      4164 9.17132E-05-2.47478E-05-2.86868E-05-2.66551E-07 1.47390E-19-7.49082E-19
 -1      4165 8.73902E-05-2.26096E-05-2.77919E-05 4.94610E-06 5.01754E-19 2.95527E-18
 -1      4166 8.68994E-05-2.25356E-05-2.75696E-05 5.67872E-06 3.72129E-19 2.78113E-18
 -1      4167 8.99702E-05-2.36802E-05-2.84269E-05 2.88182E-06 4.39191E-19 2.13828E-18
 -1      4168 8.94863E-05-2.33941E-05-2.83206E-05 3.30635E-06 2.78221E-19 1.76415E-18
 -1      4169 6.99970E-05-1.63953E-05-2.28005E-05 6.53284E-06 7.11844E-19-1.42757E-18
 -1      4170 8.87483E-05-2.30718E-05-2.81688E-05 3.76721E-06 1.65517E-19 1.68259E-18
 -1      4171 8.82401E-05-2.28596E-05-2.80118E-05 4.31936E-06 3.32151E-19 2.76275E-18
 -1      4172 8.84900E-05-2.27143E-05-2.81569E-05 2.91922E-06 5.98219E-19 2.98092E-19
 -1      4173 8.59289E-05-2.24133E-05-2.72591E-05 6.54876E-06-5.84228E-19 2.30481E-18
 -1      4174 8.55413E-05-2.25767E-05-2.69557E-05 7.53985E-06-1.21309E-18 1.91301E-18
 -1      4175 8.51661E-05-2.15238E-05-2.72297E-05 5.31752E-06-3.62828E-19 4.84804E-19
 -1      4176 8.12702E-05-2.32962E-05-2.48191E-05-1.28523E-05-3.88709E-19-1.67867E-18
 -1      4177 8.45446E-05-2.46390E-05-2.56218E-05-1.23196E-05-2.05104E-19-1.57184E-18
 -1      4178 8.45417E-05-2.38031E-05-2.60678E-05-1.07019E-05-5.57805E-19-1.58064E-18
 -1      4179 7.94122E-05-2.12733E-05-2.49761E-05-1.00061E-05-4.44533E-19-1.83108E-18
 -1      4180 9.57002E-05-2.52946E-05-3.01686E-05 1.67950E-07 2.80897E-19-1.08455E-18
 -1      4181 9.55573E-05-2.48288E-05-3.03138E-05 2.45843E-07 2.30301E-19-1.32639E-18
 -1      4182 9.54368E-05-2.45053E-05-3.04064E-05 2.01343E-07 1.89369E-19-1.56304E-18
 -1      4183 9.58180E-05-2.58807E-05-2.99811E-05-2.81903E-07 3.29553E-19-1.07811E-18
 -1      4184 9.10412E-05-2.43482E-05-2.85960E-05 2.20654E-06-3.85339E-19 1.40052E-18
 -1      4185 9.06032E-05-2.40326E-05-2.85279E-05 2.53830E-06 7.46076E-20 1.83782E-18
 -1      4186 8.98311E-05-2.34642E-05-2.84166E-05 2.18436E-06 4.72161E-19 1.74919E-18
 -1      4187 9.19585E-05-2.50149E-05-2.86998E-05 1.68740E-06-2.75757E-19-1.21186E-19
 -1      4188 9.15759E-05-2.47004E-05-2.86598E-05 1.94583E-06-2.98021E-20 9.20984E-19
 -1      4189 9.09731E-05-2.42234E-05-2.85864E-05 1.63976E-06-2.05469E-19 2.19747E-19
 -1      4190 8.44574E-05-2.26610E-05-2.65261E-05 8.79203E-06-1.33520E-18 1.36186E-18
 -1      4191 8.42604E-05-2.32049E-05-2.61203E-05 1.01459E-05-9.10337E-19 4.02394E-19
 -1      4192 8.31320E-05-2.13147E-05-2.64657E-05 7.27426E-06-1.73554E-18 1.90956E-18
 -1      4193 8.65064E-05-2.29530E-05-2.72178E-05-6.84889E-06-9.03157E-19-1.49182E-18
 -1      4194 8.70325E-05-2.29585E-05-2.74911E-05-6.01826E-06-1.12160E-18-1.42424E-18
 -1      4195 7.86555E-05-2.25142E-05-2.39393E-05 1.40485E-05-3.49659E-19 1.40769E-18
 -1      4196 8.50491E-05-2.32313E-05-2.64705E-05-9.10317E-06-6.91876E-19-1.39675E-18
 -1      4197 8.54112E-05-2.28973E-05-2.68367E-05-7.95130E-06-7.09007E-19-1.49362E-18
 -1      4198 8.43990E-05-2.17259E-05-2.67985E-05-6.42492E-06-6.07251E-19-1.80967E-18
 -1      4199 7.03853E-05-1.58562E-05-2.32447E-05 3.06371E-07-6.65411E-19-3.66022E-19
 -1      4200 7.26873E-05-1.66790E-05-2.39970E-05-2.63397E-06-7.03201E-19-1.18943E-18
 -1      4201 7.49529E-05-1.71804E-05-2.48314E-05-1.56209E-06-3.65764E-19-1.04523E-18
 -1      4202 7.25424E-05-1.69746E-05-2.38941E-05 3.64304E-06-1.12021E-18-7.85656E-20
 -1      4203 9.40569E-05-2.61672E-05-2.90994E-05 9.30128E-07-1.38732E-19-1.03284E-18
 -1      4204 9.35682E-05-2.58788E-05-2.90151E-05 1.02610E-06-2.56372E-19-9.95290E-19
 -1      4205 9.32256E-05-2.56106E-05-2.89634E-05 4.93965E-07-2.76431E-19-1.49914E-18
 -1      4206 9.48786E-05-2.65566E-05-2.92838E-05 7.83856E-07-3.20474E-19-8.87279E-19
 -1      4207 9.45051E-05-2.63985E-05-2.91921E-05 8.95024E-07-1.75534E-19-9.42360E-19
 -1      4208 9.50165E-05-2.65191E-05-2.93499E-05 3.92770E-07-9.56463E-20-1.14574E-18
 -1      4209 9.40544E-05-2.64464E-05-2.89725E-05-2.77607E-06-2.36385E-19-9.53222E-19
 -1      4210 9.43625E-05-2.66428E-05-2.90279E-05-2.51223E-06-3.39455E-19-9.26500E-19
 -1      4211 9.35698E-05-2.60642E-05-2.89259E-05-2.51213E-06-4.72118E-19-6.10886E-19
 -1      4212 7.74825E-05-1.78734E-05-2.55626E-05-1.13702E-06-7.18828E-20-5.36149E-19
 -1      4213 7.94547E-05-1.84948E-05-2.61631E-05-1.05017E-06-7.71096E-19-1.16078E-18
 -1      4214 9.47391E-05-2.68354E-05-2.91006E-05-2.29701E-06-1.12123E-19-9.33170E-19
 -1      4215 9.50002E-05-2.69572E-05-2.91646E-05-2.05323E-06 2.85162E-19-8.58734E-19
 -1      4216 9.43892E-05-2.65369E-05-2.90758E-05-2.05953E-06-2.01472E-19-6.38091E-19
 -1      4217 8.12363E-05-1.90776E-05-2.66728E-05-1.19478E-06-2.80200E-19-9.05248E-19
 -1      4218 8.28054E-05-1.96604E-05-2.70852E-05-1.11042E-06 5.31616E-19-6.87933E-20
 -1      4219 8.02415E-05-1.86840E-05-2.63233E-05 9.97826E-07-2.13681E-19-2.01763E-18
 -1      4220 7.00932E-05-1.63445E-05-2.31132E-05 4.81967E-07 1.24967E-19-1.85770E-18
 -1      4221 8.20664E-05-2.22343E-05-2.56208E-05 1.04183E-05-1.36966E-18 7.40232E-19
 -1      4222 8.79904E-05-2.31677E-05-2.77700E-05-5.27738E-06-8.62612E-19-1.21049E-18
 -1      4223 8.85944E-05-2.33645E-05-2.79725E-05-4.64062E-06-4.82590E-19-7.83580E-19
 -1      4224 8.64737E-05-2.22970E-05-2.74919E-05-4.69625E-06-6.83898E-19-1.23973E-18
 -1      4225 9.42504E-05-2.62114E-05-2.91503E-05 4.57416E-07-3.09015E-19-1.46166E-18
 -1      4226 7.54870E-05-1.76156E-05-2.48593E-05 7.19846E-07-2.61600E-19-1.81416E-18
 -1      4227 7.30541E-05-1.69986E-05-2.40796E-05 1.06803E-06-1.12573E-19-1.51894E-18
 -1      4228 7.19591E-05-1.67006E-05-2.35523E-05-3.51827E-06-2.05419E-19-1.85985E-18
 -1      4229 7.68967E-05-1.80034E-05-2.51412E-05-1.97235E-06-2.25775E-19-1.91440E-18
 -1      4230 9.57489E-05-2.56193E-05-3.00622E-05 1.11078E-07-2.02615E-21-1.11373E-18
 -1      4231 9.57999E-05-2.60676E-05-2.98833E-05 3.04782E-07-2.27338E-20-1.17851E-18
 -1      4232 9.57474E-05-2.61297E-05-2.98320E-05 1.68672E-07 8.60732E-20-1.12219E-18
 -1      4233 9.57234E-05-2.55321E-05-3.00856E-05 4.88570E-08-3.15759E-20-1.22134E-18
 -1      4234 8.69402E-05-2.20383E-05-2.77751E-05 3.92416E-06 7.65056E-19 1.17218E-18
 -1      4235 8.34227E-05-1.98788E-05-2.71797E-05 4.10877E-07 8.69730E-19-1.38600E-18
 -1      4236 9.57018E-05-2.52073E-05-3.02032E-05 3.04347E-09 1.35346E-19-1.53319E-18
 -1      4237 9.57670E-05-2.65879E-05-2.96522E-05-7.57219E-07-1.74198E-20-1.11852E-18
 -1      4238 9.58392E-05-2.63814E-05-2.97674E-05-5.66449E-07-6.98348E-20-1.12650E-18
 -1      4239 7.54089E-05-1.85088E-05-2.43929E-05-5.92362E-06-4.82267E-19-1.76082E-18
 -1      4240 9.22919E-05-2.52587E-05-2.87280E-05 1.50980E-06-1.95072E-19-8.47026E-20
 -1      4241 9.18048E-05-2.48484E-05-2.86805E-05 1.24274E-06 4.16901E-19 6.15061E-19
 -1      4242 9.25258E-05-2.54682E-05-2.87444E-05 1.33078E-06-6.40657E-19-1.08769E-18
 -1      4243 9.30479E-05-2.59189E-05-2.87741E-05 1.05684E-06-1.00453E-18-1.47051E-18
 -1      4244 9.28376E-05-2.57170E-05-2.87651E-05 1.21483E-06-1.00452E-18-6.60322E-19
 -1      4245 9.30019E-05-2.58733E-05-2.87661E-05 7.62693E-07-7.20118E-19-1.39460E-18
 -1      4246 7.61660E-05-1.74299E-05-2.50947E-05 1.00497E-06-2.90868E-19-8.85272E-19
 -1      4247 7.70392E-05-2.03230E-05-2.43462E-05 1.01087E-05-7.45892E-19 1.00304E-18
 -1      4248 9.58141E-05-2.58635E-05-2.99769E-05-3.36822E-07 2.51962E-19-1.06290E-18
 -1      4249 8.27594E-05-2.21187E-05-2.59876E-05-9.04730E-06-5.30089E-19-1.40584E-18
 -1      4250 9.50570E-05-2.68266E-05-2.92381E-05-1.65657E-06 6.51373E-20-6.78046E-19
 -1      4251 9.54239E-05-2.68048E-05-2.94100E-05-1.09354E-06 1.97758E-19-9.00424E-19
 -1      4252 9.56157E-05-2.67393E-05-2.95205E-05-8.93962E-07 1.75806E-19-9.69690E-19
 -1      4253 9.56622E-05-2.65305E-05-2.96241E-05-6.00811E-07-8.91564E-20-1.27875E-18
 -1      4254 9.31232E-05-2.57369E-05-2.88791E-05-2.12321E-06-5.55071E-19-6.72193E-19
 -1      4255 9.35757E-05-2.60256E-05-2.89564E-05-1.89164E-06-3.60829E-19-6.76434E-19
 -1      4256 7.93006E-05-2.07807E-05-2.51130E-05 9.17349E-06-1.01611E-18 7.89474E-19
 -1      4257 7.48152E-05-1.78367E-05-2.43112E-05 6.34440E-06-9.96455E-19 1.27824E-18
 -1      4258 7.52182E-05-1.76275E-05-2.47087E-05 3.42989E-06-6.50268E-19 2.18292E-19
 -1      4259 7.94242E-05-1.99385E-05-2.55258E-05 7.11131E-06-1.68321E-18 1.10260E-18
 -1      4260 9.20291E-05-2.50629E-05-2.86978E-05-2.62043E-06-4.97847E-19-7.25864E-19
 -1      4261 9.25366E-05-2.53930E-05-2.87860E-05-2.33924E-06-6.30769E-19-7.72961E-19
 -1      4262 9.25921E-05-2.53202E-05-2.88155E-05-1.69252E-06-4.81246E-19-6.48314E-19
 -1      4263 9.29166E-05-2.58079E-05-2.87624E-05 3.25795E-07-1.15787E-19-1.61170E-18
 -1      4264 9.04353E-05-2.43263E-05-2.83256E-05-4.64303E-06-7.53822E-19-1.37808E-19
 -1      4265 9.07939E-05-2.43559E-05-2.84718E-05-3.27515E-06-6.86142E-19-2.65499E-19
 -1      4266 9.13455E-05-2.46825E-05-2.85839E-05-2.91525E-06-4.58277E-19-5.10376E-19
 -1      4267 9.13306E-05-2.45430E-05-2.86036E-05-2.13826E-06-6.25761E-19-1.04873E-18
 -1      4268 9.56420E-05-2.64611E-05-2.96492E-05 4.26091E-09 1.62874E-20-1.36998E-18
 -1      4269 9.54449E-05-2.65736E-05-2.95208E-05 4.75428E-08-1.72254E-19-1.36171E-18
 -1      4270 9.08315E-05-2.42164E-05-2.85602E-05-9.50035E-07-4.93879E-19-1.26169E-18
 -1      4271 9.00211E-05-2.37227E-05-2.84254E-05-1.05541E-06-4.63417E-19-1.14189E-18
 -1      4272 8.72843E-05-2.21668E-05-2.79176E-05-1.01743E-06-4.03904E-19-1.16802E-18
 -1      4273 8.60403E-05-2.15630E-05-2.76589E-05-1.18934E-06-8.96949E-20-9.45065E-19
 -1      4274 8.50228E-05-2.13338E-05-2.73176E-05-2.76798E-06-2.54653E-19-1.17148E-18
 -1      4275 8.35494E-05-2.07992E-05-2.69503E-05-3.17348E-06-4.40601E-19-1.39410E-18
 -1      4276 8.23508E-05-2.04922E-05-2.65432E-05-4.00337E-06-2.65224E-19-1.58852E-18
 -1      4277 8.06129E-05-1.99852E-05-2.60329E-05-4.58763E-06-8.48208E-20-1.60202E-18
 -1      4278 8.78857E-05-2.23006E-05-2.81374E-05 1.26675E-06 3.77740E-19-6.13642E-19
 -1      4279 8.87797E-05-2.27859E-05-2.82958E-05 1.12155E-06 4.26278E-19 3.49705E-19
 -1      4280 8.94392E-05-2.32109E-05-2.84063E-05 8.58733E-07 2.68562E-19 3.08284E-19
 -1      4281 9.01692E-05-2.36696E-05-2.85100E-05 7.71705E-07 3.28173E-19 1.19581E-19
 -1      4282 9.07245E-05-2.40745E-05-2.85806E-05 5.81373E-07 3.57668E-19-6.66090E-19
 -1      4283 9.13169E-05-2.44969E-05-2.86449E-05 5.31265E-07 2.77024E-19 1.70435E-19
 -1      4284 9.36675E-05-2.60006E-05-2.89994E-05-1.33503E-06-2.86132E-19-7.40857E-19
 -1      4285 9.40637E-05-2.62976E-05-2.90430E-05-1.73233E-06-2.47635E-19-6.05676E-19
 -1      4286 9.44429E-05-2.65030E-05-2.91212E-05-1.52826E-06-3.15539E-19-6.30680E-19
 -1      4287 9.44707E-05-2.63547E-05-2.91958E-05-2.27698E-08-2.27135E-19-1.47223E-18
 -1      4288 9.40115E-05-2.61261E-05-2.91002E-05 2.19650E-09-3.43343E-19-1.52667E-18
 -1      4289 8.71123E-05-2.18801E-05-2.79721E-05 1.62954E-06 6.74366E-19-1.04425E-18
 -1      4290 8.37458E-05-2.04959E-05-2.71559E-05 2.72822E-06-1.92623E-19-1.18248E-18
 -1      4291 8.27202E-05-2.01839E-05-2.68168E-05 3.44398E-06-8.49469E-19-1.14753E-18
 -1      4292 9.57679E-05-2.58271E-05-2.99730E-05-2.58609E-07-1.23631E-19-1.49834E-18
 -1      4293 9.58099E-05-2.58580E-05-2.99850E-05-3.38339E-07-4.14708E-20-1.27607E-18
 -1      4294 8.09669E-05-1.96579E-05-2.63218E-05 4.02055E-06-7.46532E-19-3.35217E-19
 -1      4295 7.97213E-05-1.94662E-05-2.58370E-05 4.98558E-06-1.36356E-18-4.19422E-20
 -1      4296 9.57555E-05-2.56468E-05-3.00530E-05-1.04846E-07-7.06667E-20-1.45502E-18
 -1      4297 9.57294E-05-2.55895E-05-3.00657E-05-3.77698E-08-1.07001E-19-1.36315E-18
 -1      4298 9.34141E-05-2.58064E-05-2.89799E-05-4.92141E-07-2.59421E-19-1.14797E-18
 -1      4299 9.28311E-05-2.54562E-05-2.88854E-05-5.18196E-07-1.96583E-19-1.11843E-18
 -1      4300 8.60127E-05-2.13821E-05-2.77372E-05 1.86080E-06 1.30649E-18-8.82038E-19
 -1      4301 8.51148E-05-2.09954E-05-2.74976E-05 2.36659E-06 1.03737E-18-1.25917E-18
 -1      4302 9.51879E-05-2.65850E-05-2.94033E-05 8.39704E-10-1.87562E-19-1.34182E-18
 -1      4303 9.48584E-05-2.65094E-05-2.92964E-05 3.08224E-08-1.19183E-19-1.36693E-18
 -1      4304 9.53222E-05-2.65655E-05-2.94628E-05-3.05079E-07-1.64935E-19-1.46413E-18
 -1      4305 9.26608E-05-2.55845E-05-2.87501E-05 4.11915E-07-1.18342E-18-8.54706E-19
 -1      4306 9.22300E-05-2.50872E-05-2.87872E-05-6.83880E-07-3.76971E-19-1.27059E-18
 -1      4307 9.15295E-05-2.46467E-05-2.86793E-05-7.37365E-07-5.09023E-19-1.28290E-18
 -1      4308 8.94382E-05-2.36916E-05-2.81737E-05-4.13931E-06-4.58650E-19-6.37419E-19
 -1      4309 9.00301E-05-2.39719E-05-2.83229E-05-3.65566E-06-6.00576E-19-4.86632E-19
 -1      4310 8.83029E-05-2.29996E-05-2.79799E-05-3.59740E-06-3.42366E-19-1.03082E-18
 -1      4311 9.48442E-05-2.66825E-05-2.92132E-05-1.40447E-06-1.93849E-19-5.93874E-19
 -1      4312 9.51375E-05-2.67719E-05-2.93025E-05-1.21377E-06 1.10523E-19-7.49315E-19
 -1      4313 9.52335E-05-2.66651E-05-2.93829E-05-8.48706E-07-6.60979E-20-8.30863E-19
 -1      4314 9.45552E-05-2.64568E-05-2.91808E-05-1.07789E-06-1.87731E-19-9.09194E-19
 -1      4315 9.57903E-05-2.59365E-05-2.99313E-05-1.17926E-08 5.98575E-20-1.35026E-18
 -1      4316 9.57541E-05-2.61987E-05-2.98132E-05 4.77840E-08 7.15945E-20-1.33813E-18
 -1      4317 9.58005E-05-2.61763E-05-2.98340E-05-2.85884E-07-1.84507E-20-1.39243E-18
 -1      4318 9.56970E-05-2.62884E-05-2.97425E-05-1.84051E-07-2.81133E-20-1.40384E-18
 -1      4319 9.56898E-05-2.64727E-05-2.96699E-05-3.68719E-07-1.77946E-19-1.44007E-18
 -1      4320 9.55346E-05-2.66097E-05-2.95382E-05-4.93543E-07-9.52320E-20-1.33593E-18
 -1      4321 7.86591E-05-1.91012E-05-2.55878E-05-3.98426E-06-1.41071E-19-1.83087E-18
 -1      4322 7.66316E-05-1.85797E-05-2.49492E-05-4.67626E-06-4.56407E-19-1.94061E-18
 -1      4323 8.92427E-05-2.32348E-05-2.83043E-05-6.39141E-07-4.52546E-19-1.59589E-18
 -1      4324 8.82842E-05-2.26904E-05-2.81265E-05-7.42506E-07-4.48693E-19-1.36169E-18
 -1      4325 8.12976E-05-2.06826E-05-2.59262E-05-7.03741E-06-3.55353E-19-1.61899E-18
 -1      4326 9.20169E-05-2.50507E-05-2.87068E-05 4.45063E-07-3.93585E-19 1.42309E-19
 -1      4327 9.23311E-05-2.53049E-05-2.87281E-05 4.89844E-07-4.46103E-19-1.27506E-19
 -1      4328 9.16602E-05-2.47681E-05-2.86773E-05 3.94240E-07 1.77242E-19 3.22182E-19
 -1      4329 9.46800E-05-2.64304E-05-2.92458E-05-4.22700E-07-2.90320E-19-1.47590E-18
 -1      4330 7.80416E-05-1.97820E-05-2.49243E-05-7.86546E-06-3.21725E-19-2.00041E-18
 -1      4331 9.37301E-05-2.59883E-05-2.90266E-05-9.66083E-07-2.40856E-19-1.04980E-18
 -1      4332 8.07881E-05-2.12147E-05-2.54948E-05-8.59800E-06-3.90067E-19-1.77201E-18
 -1      4333 9.24600E-05-2.53952E-05-2.87344E-05 9.62963E-07-1.17453E-18 2.84973E-19
 -1      4334 8.61950E-05-2.19656E-05-2.75030E-05-3.81843E-06-3.85770E-19-1.25386E-18
 -1      4335 8.99102E-05-2.37666E-05-2.83383E-05-2.76601E-06-4.18278E-19-8.10552E-19
 -1      4336 8.80514E-05-2.26295E-05-2.80277E-05-1.96239E-06-3.28565E-19-1.15532E-18
 -1      4337 7.75630E-05-1.82639E-05-2.54352E-05 3.51295E-06-8.23912E-19 8.13980E-20
 -1      4338 8.98229E-05-2.36357E-05-2.83572E-05-2.03685E-06-3.93030E-19-8.85785E-19
 -1      4339 8.90860E-05-2.32577E-05-2.82054E-05-2.35160E-06-3.58887E-19-1.18057E-18
 -1      4340 9.52844E-05-2.66466E-05-2.94205E-05-5.56236E-07-1.24211E-19-1.20032E-18
 -1      4341 9.49978E-05-2.66012E-05-2.93113E-05-6.60201E-07-3.21990E-19-1.06797E-18
 -1      4342 9.46196E-05-2.64718E-05-2.92111E-05-7.37822E-07-2.90200E-19-1.24975E-18
 -1      4343 8.80835E-05-2.27679E-05-2.80025E-05-2.74774E-06-3.39212E-19-9.54126E-19
 -1      4344 8.72380E-05-2.23926E-05-2.77910E-05-3.20567E-06-2.85609E-19-1.07217E-18
 -1      4345 9.42225E-05-2.62771E-05-2.91167E-05-8.38252E-07-3.07654E-19-1.07611E-18
 -3
    1PSTEP                         4           1           1          
  100CL  101 1.000000000        4345                     0    1           1
 -4  ERROR       1    1
 -5  STR(%)      1    1    0    0
 -1         1 1.33533E+01
 -1         2 2.69512E+01
 -1         3 8.97348E-03
 -1         4 1.08084E-02
 -1         5 1.40414E+01
 -1         6 1.31458E+01
 -1         7 1.31458E+01
 -1         8 3.64027E+00
 -1         9 1.80456E+00
 -1        10 1.27936E+00
 -1        11 1.03743E+00
 -1        12 8.91056E-01
 -1        13 7.99554E-01
 -1        14 7.45268E-01
 -1        15 7.47063E-01
 -1        16 8.03700E-01
 -1        17 8.91912E-01
 -1        18 1.04366E+00
 -1        19 1.29796E+00
 -1        20 1.81555E+00
 -1        21 3.48236E+00
 -1        22 8.62709E+00
 -1        23 1.31458E+01
 -1        24 4.34065E+00
 -1        25 3.36541E+00
 -1        26 2.13849E+00
 -1        27 1.39865E+00
 -1        28 1.07161E+00
 -1        29 8.46535E-01
 -1        30 6.83039E-01
 -1        31 5.61198E-01
 -1        32 4.70486E-01
 -1        33 4.03561E-01
 -1        34 4.31925E-01
 -1        35 5.03756E-01
 -1        36 5.90852E-01
 -1        37 6.86695E-01
 -1        38 7.96677E-01
 -1        39 1.02914E+00
 -1        40 1.29304E+00
 -1        41 1.59425E+00
 -1        42 1.80209E+00
 -1        43 1.80209E+00
 -1        44 1.81801E+00
 -1        45 1.81801E+00
 -1        46 2.32480E+00
 -1        47 4.27956E+00
 -1        48 5.19118E+00
 -1        49 5.19118E+00
 -1        50 5.19117E+00
 -1        51 4.27721E+00
 -1        52 2.32605E+00
 -1        53 1.81549E+00
 -1        54 1.81549E+00
 -1        55 1.79017E+00
 -1        56 1.79017E+00
 -1        57 1.57952E+00
 -1        58 1.27584E+00
 -1        59 1.01742E+00
 -1        60 7.85977E-01
 -1        61 6.35109E-01
 -1        62 5.23775E-01
 -1        63 4.18542E-01
 -1        64 3.25984E-01
 -1        65 2.48269E-01
 -1        66 1.85009E-01
 -1        67 1.36357E-01
 -1        68 1.16330E-01
 -1        69 9.49458E-02
 -1        70 6.93666E-02
 -1        71 3.49250E-02
 -1        72 1.40414E+01
 -1        73 3.41601E+00
 -1        74 2.43680E+00
 -1        75 1.69279E+00
 -1        76 1.17580E+00
 -1        77 9.67742E-01
 -1        78 8.10383E-01
 -1        79 6.87936E-01
 -1        80 5.92901E-01
 -1        81 5.20737E-01
 -1        82 4.67495E-01
 -1        83 4.28412E-01
 -1        84 4.25011E-01
 -1        85 4.66104E-01
 -1        86 4.98066E-01
 -1        87 5.06798E-01
 -1        88 5.12728E-01
 -1        89 6.64865E-01
 -1        90 7.88987E-01
 -1        91 8.40284E-01
 -1        92 1.09243E+00
 -1        93 1.16759E+00
 -1        94 1.34324E+00
 -1        95 1.54619E+00
 -1        96 2.22257E+00
 -1        97 2.70462E+00
 -1        98 3.02199E+00
 -1        99 3.02199E+00
 -1       100 3.00275E+00
 -1       101 2.28005E+00
 -1       102 1.35797E+00
 -1       103 9.55523E-01
 -1       104 8.07229E-01
 -1       105 9.46793E-01
 -1       106 9.46793E-01
 -1       107 9.44347E-01
 -1       108 8.50353E-01
 -1       109 7.18172E-01
 -1       110 5.99930E-01
 -1       111 4.78001E-01
 -1       112 3.65046E-01
 -1       113 2.77947E-01
 -1       114 2.20797E-01
 -1       115 1.70298E-01
 -1       116 1.27295E-01
 -1       117 9.11470E-02
 -1       118 6.29570E-02
 -1       119 5.05982E-02
 -1       120 2.73135E-02
 -1       121 1.06121E-02
 -1       122 1.20004E-02
 -1       123 1.20004E-02
 -1       124 8.23197E-03
 -1       125 4.20578E-03
 -1       126 8.57291E-03
 -1       127 1.16286E-02
 -1       128 1.26264E-02
 -1       129 1.26264E-02
 -1       130 1.17364E-02
 -1       131 8.63395E-03
 -1       132 4.43473E-03
 -1       133 8.77377E-03
 -1       134 1.22148E-02
 -1       135 1.42374E-02
 -1       136 1.55965E-02
 -1       137 2.69512E+01
 -1       138 4.54587E+01
 -1       139 4.54587E+01
 -1       140 1.79743E+01
 -1       141 1.19618E+01
 -1       142 1.25735E+01
 -1       143 1.25735E+01
 -1       144 1.27369E+01
 -1       145 1.27369E+01
 -1       146 1.33765E+01
 -1       147 3.56973E+01
 -1       148 3.56973E+01
 -1       149 2.55901E+01
 -1       150 2.52883E+01
 -1       151 2.53288E+01
 -1       152 2.63840E+01
 -1       153 3.56161E+01
 -1       154 3.56161E+01
 -1       155 1.36500E+01
 -1       156 1.28309E+01
 -1       157 1.28309E+01
 -1       158 1.36352E+01
 -1       159 1.36352E+01
 -1       160 2.09576E+01
 -1       161 4.80568E+01
 -1       162 4.80568E+01
 -1       163 2.58268E+01
 -1       164 6.04796E+00
 -1       165 2.27854E+00
 -1       166 1.49848E+00
 -1       167 1.15009E+00
 -1       168 9.65976E-01
 -1       169 8.56602E-01
 -1       170 7.87539E-01
 -1       171 7.47063E-01
 -1       172 7.90795E-01
 -1       173 8.59196E-01
 -1       174 9.73319E-01
 -1       175 1.16460E+00
 -1       176 1.51845E+00
 -1       177 2.24960E+00
 -1       178 3.91346E+00
 -1       179 1.40414E+01
 -1       180 4.34065E+00
 -1       181 3.36541E+00
 -1       182 2.13849E+00
 -1       183 1.46869E+00
 -1       184 1.07161E+00
 -1       185 8.46535E-01
 -1       186 6.83039E-01
 -1       187 5.61198E-01
 -1       188 4.70486E-01
 -1       189 4.03561E-01
 -1       190 3.77222E-01
 -1       191 4.31925E-01
 -1       192 5.03756E-01
 -1       193 5.90852E-01
 -1       194 7.55490E-01
 -1       195 9.45817E-01
 -1       196 1.11747E+00
 -1       197 1.31288E+00
 -1       198 1.59425E+00
 -1       199 1.80209E+00
 -1       200 1.75583E+00
 -1       201 1.81801E+00
 -1       202 1.69608E+00
 -1       203 2.54262E+00
 -1       204 4.27956E+00
 -1       205 5.19118E+00
 -1       206 5.19117E+00
 -1       207 4.27721E+00
 -1       208 2.53990E+00
 -1       209 1.69746E+00
 -1       210 1.81549E+00
 -1       211 1.74697E+00
 -1       212 1.79017E+00
 -1       213 1.57952E+00
 -1       214 1.30378E+00
 -1       215 1.11848E+00
 -1       216 9.50476E-01
 -1       217 7.66232E-01
 -1       218 5.92208E-01
 -1       219 4.41256E-01
 -1       220 3.25984E-01
 -1       221 2.53258E-01
 -1       222 1.94383E-01
 -1       223 1.46061E-01
 -1       224 1.16330E-01
 -1       225 9.49458E-02
 -1       226 6.93666E-02
 -1       227 3.94896E-02
 -1       228 3.41601E+00
 -1       229 2.43680E+00
 -1       230 1.69279E+00
 -1       231 1.17580E+00
 -1       232 9.67742E-01
 -1       233 8.10383E-01
 -1       234 6.87936E-01
 -1       235 5.92901E-01
 -1       236 5.20737E-01
 -1       237 4.67495E-01
 -1       238 4.28412E-01
 -1       239 3.97158E-01
 -1       240 4.25011E-01
 -1       241 4.66104E-01
 -1       242 4.98066E-01
 -1       243 5.06798E-01
 -1       244 5.53858E-01
 -1       245 6.64865E-01
 -1       246 7.88987E-01
 -1       247 8.40284E-01
 -1       248 1.09243E+00
 -1       249 1.16759E+00
 -1       250 1.34324E+00
 -1       251 1.60466E+00
 -1       252 2.22257E+00
 -1       253 2.70462E+00
 -1       254 3.02199E+00
 -1       255 3.00275E+00
 -1       256 2.28005E+00
 -1       257 1.35797E+00
 -1       258 9.55523E-01
 -1       259 7.85448E-01
 -1       260 8.07229E-01
 -1       261 9.46793E-01
 -1       262 9.44347E-01
 -1       263 8.50353E-01
 -1       264 7.18172E-01
 -1       265 6.00304E-01
 -1       266 4.93261E-01
 -1       267 3.88357E-01
 -1       268 2.93867E-01
 -1       269 2.20797E-01
 -1       270 1.70298E-01
 -1       271 1.27295E-01
 -1       272 9.23318E-02
 -1       273 6.45897E-02
 -1       274 5.05982E-02
 -1       275 2.73135E-02
 -1       276 1.77820E-02
 -1       277 2.05027E-02
 -1       278 2.05027E-02
 -1       279 1.19808E-02
 -1       280 1.64707E-02
 -1       281 2.26949E-02
 -1       282 2.54291E-02
 -1       283 2.55169E-02
 -1       284 2.55169E-02
 -1       285 2.30221E-02
 -1       286 1.71790E-02
 -1       287 1.25239E-02
 -1       288 2.16938E-02
 -1       289 2.16938E-02
 -1       290 2.38801E-02
 -1       291 3.31252E+01
 -1       292 3.94312E+01
 -1       293 4.54587E+01
 -1       294 1.87262E+01
 -1       295 1.06800E+01
 -1       296 1.19618E+01
 -1       297 1.25735E+01
 -1       298 1.17618E+01
 -1       299 1.27369E+01
 -1       300 1.22819E+01
 -1       301 1.33765E+01
 -1       302 3.56973E+01
 -1       303 3.49359E+01
 -1       304 2.73695E+01
 -1       305 2.73695E+01
 -1       306 2.57754E+01
 -1       307 3.42264E+01
 -1       308 3.56161E+01
 -1       309 1.39786E+01
 -1       310 1.18056E+01
 -1       311 1.28309E+01
 -1       312 1.20860E+01
 -1       313 1.36352E+01
 -1       314 1.33533E+01
 -1       315 1.18390E+01
 -1       316 2.26066E+01
 -1       317 4.80568E+01
 -1       318 2.96359E+01
 -1       319 3.31252E+01
 -1       320 1.03137E+00
 -1       321 2.45609E+00
 -1       322 7.88361E-01
 -1       323 6.87944E-01
 -1       324 6.24414E-01
 -1       325 5.79862E-01
 -1       326 5.82875E-01
 -1       327 6.26952E-01
 -1       328 6.94084E-01
 -1       329 7.89510E-01
 -1       330 9.24787E-01
 -1       331 1.14345E+00
 -1       332 1.30990E+00
 -1       333 2.19779E+00
 -1       334 1.90789E+00
 -1       335 1.74504E+00
 -1       336 1.28246E+00
 -1       337 9.20463E-01
 -1       338 6.89389E-01
 -1       339 5.88974E-01
 -1       340 4.98868E-01
 -1       341 4.19167E-01
 -1       342 3.49041E-01
 -1       343 2.92649E-01
 -1       344 3.38872E-01
 -1       345 3.95429E-01
 -1       346 4.99578E-01
 -1       347 6.67481E-01
 -1       348 8.44669E-01
 -1       349 1.01386E+00
 -1       350 1.14488E+00
 -1       351 1.28870E+00
 -1       352 1.39986E+00
 -1       353 1.37871E+00
 -1       354 1.24888E+00
 -1       355 1.44534E+00
 -1       356 1.68495E+00
 -1       357 2.28704E+00
 -1       358 2.95838E+00
 -1       359 3.30242E+00
 -1       360 2.95699E+00
 -1       361 2.29047E+00
 -1       362 1.66803E+00
 -1       363 1.44197E+00
 -1       364 1.24836E+00
 -1       365 1.38437E+00
 -1       366 1.39426E+00
 -1       367 1.28320E+00
 -1       368 1.15362E+00
 -1       369 1.02795E+00
 -1       370 8.65888E-01
 -1       371 6.98780E-01
 -1       372 5.44714E-01
 -1       373 4.12029E-01
 -1       374 3.02943E-01
 -1       375 2.16329E-01
 -1       376 1.49553E-01
 -1       377 1.07037E-01
 -1       378 7.59645E-02
 -1       379 5.52870E-02
 -1       380 3.67868E-02
 -1       381 1.14629E+00
 -1       382 8.98814E-01
 -1       383 7.06503E-01
 -1       384 5.39958E-01
 -1       385 4.82790E-01
 -1       386 4.36856E-01
 -1       387 3.95094E-01
 -1       388 3.59199E-01
 -1       389 3.28750E-01
 -1       390 3.28445E-01
 -1       391 3.63854E-01
 -1       392 4.47483E-01
 -1       393 5.34669E-01
 -1       394 6.15637E-01
 -1       395 6.62951E-01
 -1       396 6.62951E-01
 -1       397 6.40546E-01
 -1       398 5.11657E-01
 -1       399 5.16848E-01
 -1       400 7.61777E-01
 -1       401 1.25956E+00
 -1       402 1.60609E+00
 -1       403 1.64126E+00
 -1       404 1.64126E+00
 -1       405 1.70476E+00
 -1       406 1.87909E+00
 -1       407 1.61042E+00
 -1       408 1.09670E+00
 -1       409 6.88239E-01
 -1       410 4.21539E-01
 -1       411 5.97243E-01
 -1       412 6.63579E-01
 -1       413 7.04284E-01
 -1       414 6.79589E-01
 -1       415 6.09419E-01
 -1       416 5.42142E-01
 -1       417 4.57158E-01
 -1       418 3.68961E-01
 -1       419 2.86460E-01
 -1       420 2.14289E-01
 -1       421 1.63736E-01
 -1       422 1.25090E-01
 -1       423 9.23318E-02
 -1       424 6.45897E-02
 -1       425 4.18242E-02
 -1       426 2.26523E-02
 -1       427 2.35234E-02
 -1       428 3.49458E-02
 -1       429 3.49458E-02
 -1       430 2.26888E-02
 -1       431 3.22823E-02
 -1       432 3.72566E-02
 -1       433 3.72566E-02
 -1       434 3.76286E-02
 -1       435 3.76286E-02
 -1       436 3.35207E-02
 -1       437 2.41200E-02
 -1       438 2.51572E-02
 -1       439 3.42088E-02
 -1       440 2.68109E+01
 -1       441 3.31252E+01
 -1       442 2.60189E+01
 -1       443 1.51584E+01
 -1       444 8.90161E+00
 -1       445 9.04029E-01
 -1       446 9.38071E+00
 -1       447 1.08060E+01
 -1       448 1.05739E+01
 -1       449 8.78753E+00
 -1       450 5.96738E+00
 -1       451 1.36056E+01
 -1       452 2.20882E+01
 -1       453 2.48269E+01
 -1       454 3.83789E+01
 -1       455 3.83789E+01
 -1       456 2.58466E+01
 -1       457 2.30586E+01
 -1       458 1.26172E+01
 -1       459 8.21869E+00
 -1       460 8.46915E+00
 -1       461 1.05135E+01
 -1       462 1.10260E+01
 -1       463 9.46440E+00
 -1       464 6.73099E+00
 -1       465 9.94472E+00
 -1       466 1.71229E+01
 -1       467 2.96359E+01
 -1       468 3.03108E+01
 -1       469 7.84052E+00
 -1       470 1.05828E+00
 -1       471 4.79906E-01
 -1       472 5.09118E-01
 -1       473 4.23250E-01
 -1       474 4.49838E-01
 -1       475 4.80475E-01
 -1       476 5.05723E-01
 -1       477 5.05723E-01
 -1       478 5.92449E-01
 -1       479 8.98814E-01
 -1       480 7.91838E-01
 -1       481 5.50674E+00
 -1       482 7.05166E-01
 -1       483 5.85204E-01
 -1       484 4.62643E-01
 -1       485 3.92647E-01
 -1       486 3.39834E-01
 -1       487 2.80495E-01
 -1       488 2.17042E-01
 -1       489 2.26540E-01
 -1       490 2.70328E-01
 -1       491 4.04525E-01
 -1       492 5.57535E-01
 -1       493 7.28324E-01
 -1       494 9.11263E-01
 -1       495 1.09331E+00
 -1       496 1.25089E+00
 -1       497 1.41254E+00
 -1       498 1.69255E+00
 -1       499 1.93607E+00
 -1       500 2.05318E+00
 -1       501 2.67992E+00
 -1       502 2.17204E+00
 -1       503 2.84656E+00
 -1       504 5.04612E+00
 -1       505 6.82571E+00
 -1       506 2.89611E+00
 -1       507 2.26156E+00
 -1       508 2.59014E+00
 -1       509 2.10530E+00
 -1       510 1.92743E+00
 -1       511 1.67680E+00
 -1       512 1.40559E+00
 -1       513 1.24629E+00
 -1       514 1.09608E+00
 -1       515 9.23918E-01
 -1       516 7.53389E-01
 -1       517 5.97790E-01
 -1       518 4.63157E-01
 -1       519 3.50973E-01
 -1       520 2.60161E-01
 -1       521 1.88418E-01
 -1       522 1.33024E-01
 -1       523 9.12774E-02
 -1       524 6.05244E-02
 -1       525 1.69390E+01
 -1       526 5.39958E-01
 -1       527 4.69449E-01
 -1       528 4.02322E-01
 -1       529 3.34694E-01
 -1       530 2.68372E-01
 -1       531 2.33413E-01
 -1       532 2.63247E-01
 -1       533 2.93798E-01
 -1       534 3.86420E-01
 -1       535 4.76504E-01
 -1       536 5.54418E-01
 -1       537 6.15930E-01
 -1       538 6.62951E-01
 -1       539 6.78379E-01
 -1       540 6.28470E-01
 -1       541 7.19472E-01
 -1       542 7.53490E-01
 -1       543 1.05797E+00
 -1       544 1.37606E+00
 -1       545 1.66555E+00
 -1       546 1.70720E+00
 -1       547 1.67779E+00
 -1       548 1.70451E+00
 -1       549 1.44852E+00
 -1       550 1.20694E+00
 -1       551 8.90411E-01
 -1       552 7.49718E-01
 -1       553 6.53947E-01
 -1       554 6.80424E-01
 -1       555 6.90024E-01
 -1       556 6.46758E-01
 -1       557 6.02080E-01
 -1       558 5.39455E-01
 -1       559 4.67239E-01
 -1       560 3.87257E-01
 -1       561 3.09099E-01
 -1       562 2.38376E-01
 -1       563 1.77779E-01
 -1       564 1.28090E-01
 -1       565 8.89629E-02
 -1       566 6.05438E-02
 -1       567 4.22011E-02
 -1       568 4.12711E-02
 -1       569 4.92806E-02
 -1       570 3.36911E-02
 -1       571 3.33564E-02
 -1       572 5.07052E-02
 -1       573 5.07052E-02
 -1       574 5.07709E-02
 -1       575 5.07709E-02
 -1       576 4.38298E-02
 -1       577 4.20057E-02
 -1       578 4.20057E-02
 -1       579 3.03108E+01
 -1       580 7.06503E-01
 -1       581 1.30632E+01
 -1       582 2.06866E+01
 -1       583 8.67966E-01
 -1       584 7.78533E+00
 -1       585 7.33632E+00
 -1       586 6.94722E+00
 -1       587 1.60313E+01
 -1       588 6.46952E+00
 -1       589 4.49908E-01
 -1       590 7.56525E+00
 -1       591 3.54073E+00
 -1       592 7.92447E+00
 -1       593 3.83789E+01
 -1       594 5.22510E+00
 -1       595 1.12885E+01
 -1       596 1.56754E+01
 -1       597 4.49735E+00
 -1       598 2.48269E+01
 -1       599 2.58466E+01
 -1       600 1.01999E+01
 -1       601 4.26487E+00
 -1       602 7.62344E+00
 -1       603 8.29908E+00
 -1       604 1.27751E+01
 -1       605 5.44485E+00
 -1       606 9.58298E+00
 -1       607 2.60189E+01
 -1       608 1.32140E+00
 -1       609 4.54321E+00
 -1       610 5.32876E-01
 -1       611 3.67868E-02
 -1       612 5.47269E+00
 -1       613 7.82581E+00
 -1       614 4.61748E+00
 -1       615 3.53152E-01
 -1       616 3.35610E-01
 -1       617 3.59278E-01
 -1       618 3.37918E-01
 -1       619 5.32613E-01
 -1       620 7.52513E+00
 -1       621 5.11103E-01
 -1       622 4.29181E+00
 -1       623 7.79891E+00
 -1       624 3.89090E-01
 -1       625 3.65684E-01
 -1       626 3.09728E-01
 -1       627 2.45879E-01
 -1       628 2.06040E-01
 -1       629 1.52348E-01
 -1       630 1.21323E-01
 -1       631 1.84339E-01
 -1       632 2.94925E-01
 -1       633 4.25381E-01
 -1       634 5.79766E-01
 -1       635 7.63058E-01
 -1       636 9.81820E-01
 -1       637 1.23751E+00
 -1       638 1.53019E+00
 -1       639 1.83688E+00
 -1       640 2.33811E+00
 -1       641 2.98907E+00
 -1       642 3.51967E+00
 -1       643 3.22342E+00
 -1       644 5.04612E+00
 -1       645 3.58269E+00
 -1       646 3.73616E+00
 -1       647 2.98000E+00
 -1       648 2.33432E+00
 -1       649 1.83998E+00
 -1       650 1.54185E+00
 -1       651 1.25709E+00
 -1       652 1.01006E+00
 -1       653 8.00899E-01
 -1       654 6.28383E-01
 -1       655 4.87669E-01
 -1       656 3.73546E-01
 -1       657 2.81903E-01
 -1       658 2.09152E-01
 -1       659 1.52138E-01
 -1       660 1.08188E-01
 -1       661 6.83099E-02
 -1       662 1.55380E+01
 -1       663 6.96393E+00
 -1       664 3.70568E-01
 -1       665 2.09197E-01
 -1       666 1.49486E-01
 -1       667 1.68688E-01
 -1       668 2.27343E-01
 -1       669 3.23177E-01
 -1       670 4.21380E-01
 -1       671 5.15793E-01
 -1       672 5.96325E-01
 -1       673 6.82775E-01
 -1       674 7.97510E-01
 -1       675 8.84194E-01
 -1       676 9.35876E-01
 -1       677 1.15501E+00
 -1       678 1.43700E+00
 -1       679 1.49222E+00
 -1       680 2.63119E+00
 -1       681 3.70537E+00
 -1       682 2.22578E+00
 -1       683 2.26233E+00
 -1       684 1.82664E+00
 -1       685 1.57835E+00
 -1       686 1.34435E+00
 -1       687 1.27928E+00
 -1       688 1.04222E+00
 -1       689 9.18859E-01
 -1       690 8.57158E-01
 -1       691 7.56267E-01
 -1       692 6.51662E-01
 -1       693 5.84500E-01
 -1       694 5.05107E-01
 -1       695 4.21058E-01
 -1       696 3.40327E-01
 -1       697 2.67489E-01
 -1       698 2.04683E-01
 -1       699 1.52413E-01
 -1       700 1.10315E-01
 -1       701 7.66879E-02
 -1       702 5.08603E-02
 -1       703 6.93159E-02
 -1       704 4.20057E-02
 -1       705 6.34185E-02
 -1       706 6.99697E-02
 -1       707 6.93159E-02
 -1       708 1.05232E+01
 -1       709 6.99697E-02
 -1       710 6.71219E-02
 -1       711 5.21927E-02
 -1       712 4.50914E-01
 -1       713 1.43909E+01
 -1       714 5.32876E-01
 -1       715 4.99095E+00
 -1       716 5.02627E+00
 -1       717 1.28669E+01
 -1       718 2.62572E+00
 -1       719 2.62343E-01
 -1       720 3.05605E-01
 -1       721 1.48524E+01
 -1       722 2.67798E+00
 -1       723 3.91931E-01
 -1       724 9.50609E+00
 -1       725 9.30558E+00
 -1       726 5.49296E+00
 -1       727 1.32609E+01
 -1       728 3.31780E+00
 -1       729 3.59278E-01
 -1       730 1.30457E+01
 -1       731 3.56309E-01
 -1       732 9.70884E+00
 -1       733 1.45102E+01
 -1       734 5.52243E+00
 -1       735 4.50401E+00
 -1       736 2.72950E+00
 -1       737 3.77999E-01
 -1       738 3.35346E-01
 -1       739 2.17204E+00
 -1       740 4.76311E-02
 -1       741 2.35748E+00
 -1       742 4.13873E-02
 -1       743 5.08725E+00
 -1       744 5.13246E-02
 -1       745 3.72768E+00
 -1       746 1.06448E+01
 -1       747 2.90082E+00
 -1       748 3.52469E-01
 -1       749 6.89819E+00
 -1       750 2.42253E-01
 -1       751 2.65954E+00
 -1       752 8.42789E+00
 -1       753 2.26259E-01
 -1       754 2.01324E-01
 -1       755 1.55497E-01
 -1       756 1.15201E-01
 -1       757 1.15536E-01
 -1       758 1.54190E-01
 -1       759 2.42791E-01
 -1       760 3.66304E-01
 -1       761 5.15337E-01
 -1       762 6.90932E-01
 -1       763 8.92757E-01
 -1       764 1.13237E+00
 -1       765 1.48300E+00
 -1       766 2.04228E+00
 -1       767 2.84669E+00
 -1       768 4.60970E+00
 -1       769 5.67665E+00
 -1       770 9.95760E+00
 -1       771 5.54351E+00
 -1       772 4.17525E+00
 -1       773 2.81616E+00
 -1       774 2.04770E+00
 -1       775 1.49580E+00
 -1       776 1.15279E+00
 -1       777 9.22707E-01
 -1       778 7.31264E-01
 -1       779 5.67657E-01
 -1       780 4.32540E-01
 -1       781 3.23569E-01
 -1       782 2.37290E-01
 -1       783 1.70006E-01
 -1       784 1.18506E-01
 -1       785 8.13392E-02
 -1       786 3.76536E+00
 -1       787 9.72627E-02
 -1       788 2.51187E-01
 -1       789 3.51682E-01
 -1       790 4.64205E-01
 -1       791 5.84774E-01
 -1       792 7.09466E-01
 -1       793 8.30464E-01
 -1       794 1.04436E+00
 -1       795 1.26467E+00
 -1       796 1.48204E+00
 -1       797 1.45219E+00
 -1       798 2.31039E+00
 -1       799 2.63119E+00
 -1       800 2.26233E+00
 -1       801 1.82664E+00
 -1       802 2.06470E+00
 -1       803 2.11038E+00
 -1       804 1.52903E+00
 -1       805 1.37152E+00
 -1       806 1.15692E+00
 -1       807 9.39138E-01
 -1       808 7.83341E-01
 -1       809 6.68176E-01
 -1       810 5.56577E-01
 -1       811 4.52444E-01
 -1       812 3.58541E-01
 -1       813 2.79560E-01
 -1       814 2.14565E-01
 -1       815 1.61534E-01
 -1       816 1.19015E-01
 -1       817 8.49455E-02
 -1       818 5.89846E-02
 -1       819 2.80239E-01
 -1       820 9.36709E-02
 -1       821 9.04837E-02
 -1       822 8.27695E-02
 -1       823 9.36709E-02
 -1       824 9.76468E+00
 -1       825 1.62260E-01
 -1       826 9.97534E+00
 -1       827 9.38150E-02
 -1       828 3.55848E+00
 -1       829 6.36722E+00
 -1       830 7.54151E+00
 -1       831 8.57513E+00
 -1       832 2.52686E+00
 -1       833 2.16240E-01
 -1       834 2.43981E-01
 -1       835 1.46350E-01
 -1       836 1.90927E-01
 -1       837 6.25252E+00
 -1       838 4.58976E+00
 -1       839 2.72888E-01
 -1       840 8.12890E+00
 -1       841 4.87309E+00
 -1       842 8.50170E+00
 -1       843 6.30800E+00
 -1       844 2.70820E-01
 -1       845 2.77593E-01
 -1       846 2.78102E-01
 -1       847 6.99301E+00
 -1       848 7.83261E+00
 -1       849 7.30947E-02
 -1       850 3.70537E+00
 -1       851 2.52686E+00
 -1       852 2.80239E-01
 -1       853 8.87383E-02
 -1       854 2.81451E-01
 -1       855 2.31617E-01
 -1       856 9.04837E-02
 -1       857 2.53189E-01
 -1       858 2.64782E-01
 -1       859 8.57513E+00
 -1       860 2.80626E+00
 -1       861 6.64852E+00
 -1       862 4.74910E+00
 -1       863 7.33829E-02
 -1       864 1.30016E-01
 -1       865 1.14839E-01
 -1       866 1.40066E-01
 -1       867 1.64813E-01
 -1       868 2.25383E-01
 -1       869 3.36142E-01
 -1       870 4.73167E-01
 -1       871 6.43748E-01
 -1       872 8.58470E-01
 -1       873 1.13237E+00
 -1       874 1.48300E+00
 -1       875 1.94312E+00
 -1       876 2.55193E+00
 -1       877 3.77885E+00
 -1       878 7.55901E+00
 -1       879 2.15515E+00
 -1       880 5.34065E+00
 -1       881 4.13314E+00
 -1       882 2.43271E+00
 -1       883 1.93521E+00
 -1       884 1.49580E+00
 -1       885 1.15279E+00
 -1       886 8.86498E-01
 -1       887 6.80001E-01
 -1       888 5.18864E-01
 -1       889 3.92680E-01
 -1       890 2.93802E-01
 -1       891 2.16614E-01
 -1       892 1.56169E-01
 -1       893 6.94526E-02
 -1       894 3.18439E-01
 -1       895 6.89324E-01
 -1       896 9.02952E-01
 -1       897 1.14514E+00
 -1       898 1.40810E+00
 -1       899 1.86284E+00
 -1       900 3.36734E+00
 -1       901 2.13268E+00
 -1       902 1.62813E+00
 -1       903 1.26835E+00
 -1       904 1.02164E+00
 -1       905 8.00804E-01
 -1       906 6.28287E-01
 -1       907 5.01652E-01
 -1       908 4.05686E-01
 -1       909 3.27681E-01
 -1       910 2.57241E-01
 -1       911 1.96529E-01
 -1       912 1.45592E-01
 -1       913 5.38997E+00
 -1       914 3.09934E+00
 -1       915 1.22592E-01
 -1       916 2.29819E-01
 -1       917 7.27212E+00
 -1       918 1.70034E-01
 -1       919 1.12048E-01
 -1       920 1.58598E-01
 -1       921 1.17864E-01
 -1       922 5.40495E-01
 -1       923 6.17082E+00
 -1       924 1.22711E-01
 -1       925 2.81451E-01
 -1       926 4.22584E-01
 -1       927 1.40725E-01
 -1       928 4.62413E+00
 -1       929 5.54351E+00
 -1       930 4.71601E+00
 -1       931 1.98745E-01
 -1       932 6.17082E+00
 -1       933 1.07105E-01
 -1       934 2.07014E-01
 -1       935 5.92488E+00
 -1       936 2.27959E-01
 -1       937 1.04465E-01
 -1       938 1.22124E-01
 -1       939 1.55967E-01
 -1       940 1.22124E-01
 -1       941 1.58321E-01
 -1       942 5.13973E+00
 -1       943 1.23938E-01
 -1       944 1.57400E-01
 -1       945 5.74396E+00
 -1       946 1.99093E-01
 -1       947 2.04988E-01
 -1       948 1.43274E-01
 -1       949 1.75926E-01
 -1       950 2.09153E-01
 -1       951 2.79353E-01
 -1       952 3.90249E-01
 -1       953 5.31905E-01
 -1       954 7.18033E-01
 -1       955 9.73053E-01
 -1       956 1.34008E+00
 -1       957 1.89369E+00
 -1       958 2.53816E+00
 -1       959 3.20902E+00
 -1       960 1.33639E-01
 -1       961 2.27959E-01
 -1       962 2.43271E+00
 -1       963 1.91868E+00
 -1       964 1.35204E+00
 -1       965 9.90179E-01
 -1       966 7.40287E-01
 -1       967 5.59598E-01
 -1       968 4.24598E-01
 -1       969 3.21241E-01
 -1       970 2.40718E-01
 -1       971 1.92101E-01
 -1       972 1.64002E+00
 -1       973 3.41189E+00
 -1       974 2.04988E-01
 -1       975 1.17188E+00
 -1       976 8.86228E-01
 -1       977 2.39964E+00
 -1       978 1.70808E-01
 -1       979 3.18439E-01
 -1       980 1.37288E+00
 -1       981 9.89266E-01
 -1       982 7.71452E-01
 -1       983 6.17651E-01
 -1       984 5.01652E-01
 -1       985 3.99768E-01
 -1       986 3.13023E-01
 -1       987 2.40732E-01
 -1       988 2.02505E-01
 -1       989 4.15907E+00
 -1       990 1.62813E+00
 -1       991 1.04002E-01
 -1       992 2.13268E+00
 -1       993 1.99093E-01
 -1       994 1.23754E-01
 -1       995 9.72942E-02
 -1       996 5.63146E+00
 -1       997 6.79430E-01
 -1       998 1.21429E-01
 -1       999 3.78165E+00
 -1      1000 3.08331E+00
 -1      1001 3.49128E+00
 -1      1002 4.22584E-01
 -1      1003 1.59200E-01
 -1      1004 1.34347E-01
 -1      1005 3.98563E+00
 -1      1006 1.43327E-01
 -1      1007 3.67481E+00
 -1      1008 2.28477E-01
 -1      1009 3.98410E+00
 -1      1010 9.98460E-02
 -1      1011 3.65673E+00
 -1      1012 1.48103E-01
 -1      1013 2.02505E-01
 -1      1014 5.40495E-01
 -1      1015 1.50534E-01
 -1      1016 1.47241E-01
 -1      1017 1.04586E-01
 -1      1018 2.10618E-01
 -1      1019 2.62467E-01
 -1      1020 3.28530E-01
 -1      1021 4.14835E-01
 -1      1022 5.31500E-01
 -1      1023 6.92438E-01
 -1      1024 9.45805E-01
 -1      1025 1.34935E+00
 -1      1026 1.81370E+00
 -1      1027 8.86228E-01
 -1      1028 3.22048E+00
 -1      1029 1.38604E+00
 -1      1030 9.50882E-01
 -1      1031 6.97328E-01
 -1      1032 5.24084E-01
 -1      1033 4.00030E-01
 -1      1034 3.06747E-01
 -1      1035 2.34824E-01
 -1      1036 1.92101E-01
 -1      1037 1.14484E+00
 -1      1038 1.34347E-01
 -1      1039 7.71452E-01
 -1      1040 9.89266E-01
 -1      1041 1.34469E+00
 -1      1042 5.97505E-01
 -1      1043 4.61355E-01
 -1      1044 3.54624E-01
 -1      1045 2.70825E-01
 -1      1046 2.11387E-01
 -1      1047 3.88104E+00
 -1      1048 1.57779E+00
 -1      1049 1.90693E+00
 -1      1050 3.20739E+00
 -1      1051 1.70122E-01
 -1      1052 1.55967E-01
 -1      1053 1.27363E-01
 -1      1054 1.99733E+00
 -1      1055 1.13225E-01
 -1      1056 1.39212E+00
 -1      1057 7.41400E-02
 -1      1058 1.77839E-01
 -1      1059 1.94125E+00
 -1      1060 1.43327E-01
 -1      1061 6.79430E-01
 -1      1062 2.76732E+00
 -1      1063 1.58314E-01
 -1      1064 7.25589E-02
 -1      1065 8.85080E-02
 -1      1066 3.10069E+00
 -1      1067 2.89480E-01
 -1      1068 3.65673E+00
 -1      1069 9.18253E-02
 -1      1070 1.57853E-01
 -1      1071 3.91135E-01
 -1      1072 1.70975E-01
 -1      1073 5.17254E-01
 -1      1074 3.65673E+00
 -1      1075 3.12058E-01
 -1      1076 3.94061E-01
 -1      1077 4.98414E-01
 -1      1078 6.12791E-01
 -1      1079 8.00083E-01
 -1      1080 1.19330E+00
 -1      1081 1.70624E+00
 -1      1082 1.34250E-01
 -1      1083 9.60051E-01
 -1      1084 7.00797E-01
 -1      1085 5.18004E-01
 -1      1086 3.83337E-01
 -1      1087 2.71060E-01
 -1      1088 1.76035E-01
 -1      1089 1.33577E+00
 -1      1090 7.00797E-01
 -1      1091 9.60051E-01
 -1      1092 1.86341E+00
 -1      1093 1.76576E+00
 -1      1094 7.47012E-02
 -1      1095 5.18004E-01
 -1      1096 3.83337E-01
 -1      1097 1.86341E+00
 -1      1098 1.19330E+00
 -1      1099 1.70624E+00
 -1      1100 2.62518E+00
 -1      1101 2.52239E-01
 -1      1102 2.01188E-01
 -1      1103 2.14789E-01
 -1      1104 1.86341E+00
 -1      1105 1.86775E-01
 -1      1106 1.40542E+00
 -1      1107 7.97631E-01
 -1      1108 2.38741E+00
 -1      1109 7.45543E-02
 -1      1110 1.22942E-01
 -1      1111 2.32664E-01
 -1      1112 1.62285E-01
 -1      1113 1.57853E-01
 -1      1114 2.67644E-01
 -1      1115 2.57526E+00
 -1      1116 3.30736E-01
 -1      1117 4.27182E-01
 -1      1118 1.52290E-01
 -1      1119 6.12791E-01
 -1      1120 2.56061E-01
 -1      1121 2.56061E-01
 -1      1122 1.22942E-01
 -1      1123 1.90780E-01
 -1      1124 5.77021E-01
 -1      1125 1.90780E-01
 -1      1126 1.71990E+00
 -1      1127 5.29910E-01
 -1      1128 1.31458E+01
 -1      1129 8.39304E+00
 -1      1130 2.72242E+00
 -1      1131 1.54196E+00
 -1      1132 1.15840E+00
 -1      1133 9.64243E-01
 -1      1134 8.45305E-01
 -1      1135 7.72411E-01
 -1      1136 7.46165E-01
 -1      1137 7.75382E-01
 -1      1138 8.47806E-01
 -1      1139 9.67785E-01
 -1      1140 1.17081E+00
 -1      1141 1.55676E+00
 -1      1142 2.64895E+00
 -1      1143 6.05473E+00
 -1      1144 1.13343E+01
 -1      1145 1.31458E+01
 -1      1146 8.74323E+00
 -1      1147 3.85303E+00
 -1      1148 2.75195E+00
 -1      1149 1.76857E+00
 -1      1150 1.23513E+00
 -1      1151 9.59073E-01
 -1      1152 7.64787E-01
 -1      1153 6.22119E-01
 -1      1154 5.15842E-01
 -1      1155 4.37023E-01
 -1      1156 4.17743E-01
 -1      1157 4.67841E-01
 -1      1158 5.47304E-01
 -1      1159 6.38774E-01
 -1      1160 7.41686E-01
 -1      1161 9.12908E-01
 -1      1162 1.16109E+00
 -1      1163 1.44364E+00
 -1      1164 1.69817E+00
 -1      1165 1.80209E+00
 -1      1166 1.81005E+00
 -1      1167 1.81801E+00
 -1      1168 2.07141E+00
 -1      1169 3.30218E+00
 -1      1170 4.73537E+00
 -1      1171 5.19118E+00
 -1      1172 5.19118E+00
 -1      1173 4.73419E+00
 -1      1174 3.30163E+00
 -1      1175 2.07077E+00
 -1      1176 1.81549E+00
 -1      1177 1.80283E+00
 -1      1178 1.79017E+00
 -1      1179 1.68485E+00
 -1      1180 1.42768E+00
 -1      1181 1.14663E+00
 -1      1182 9.01699E-01
 -1      1183 7.10543E-01
 -1      1184 5.79442E-01
 -1      1185 4.71159E-01
 -1      1186 3.72263E-01
 -1      1187 2.87126E-01
 -1      1188 2.16639E-01
 -1      1189 1.60683E-01
 -1      1190 1.26344E-01
 -1      1191 1.05638E-01
 -1      1192 8.21562E-02
 -1      1193 5.21458E-02
 -1      1194 2.28667E-02
 -1      1195 1.40414E+01
 -1      1196 8.72872E+00
 -1      1197 2.92640E+00
 -1      1198 2.06479E+00
 -1      1199 1.43430E+00
 -1      1200 1.07177E+00
 -1      1201 8.89063E-01
 -1      1202 7.49160E-01
 -1      1203 6.40418E-01
 -1      1204 5.56819E-01
 -1      1205 4.94116E-01
 -1      1206 4.47954E-01
 -1      1207 4.26711E-01
 -1      1208 4.45557E-01
 -1      1209 4.82085E-01
 -1      1210 5.02432E-01
 -1      1211 5.09763E-01
 -1      1212 5.88797E-01
 -1      1213 7.26926E-01
 -1      1214 8.14635E-01
 -1      1215 9.66359E-01
 -1      1216 1.13001E+00
 -1      1217 1.25541E+00
 -1      1218 1.44472E+00
 -1      1219 1.88438E+00
 -1      1220 2.46360E+00
 -1      1221 2.86330E+00
 -1      1222 3.02199E+00
 -1      1223 3.01237E+00
 -1      1224 2.64140E+00
 -1      1225 1.81901E+00
 -1      1226 1.15675E+00
 -1      1227 8.81376E-01
 -1      1228 8.77011E-01
 -1      1229 9.46793E-01
 -1      1230 9.45570E-01
 -1      1231 8.97350E-01
 -1      1232 7.84263E-01
 -1      1233 6.59051E-01
 -1      1234 5.38966E-01
 -1      1235 4.21524E-01
 -1      1236 3.21496E-01
 -1      1237 2.49372E-01
 -1      1238 1.95548E-01
 -1      1239 1.48797E-01
 -1      1240 1.09221E-01
 -1      1241 7.70520E-02
 -1      1242 5.67776E-02
 -1      1243 3.89558E-02
 -1      1244 1.81435E-02
 -1      1245 9.79281E-03
 -1      1246 1.13063E-02
 -1      1247 1.20004E-02
 -1      1248 1.01162E-02
 -1      1249 6.21888E-03
 -1      1250 6.38934E-03
 -1      1251 1.01007E-02
 -1      1252 1.21275E-02
 -1      1253 1.26264E-02
 -1      1254 1.21814E-02
 -1      1255 1.01852E-02
 -1      1256 6.53434E-03
 -1      1257 6.60425E-03
 -1      1258 1.04943E-02
 -1      1259 1.32261E-02
 -1      1260 1.49170E-02
 -1      1261 1.32024E-02
 -1      1262 2.69512E+01
 -1      1263 3.62049E+01
 -1      1264 4.54587E+01
 -1      1265 3.17165E+01
 -1      1266 1.49681E+01
 -1      1267 1.22677E+01
 -1      1268 1.25735E+01
 -1      1269 1.26552E+01
 -1      1270 1.27369E+01
 -1      1271 1.30567E+01
 -1      1272 2.45369E+01
 -1      1273 3.56973E+01
 -1      1274 3.06437E+01
 -1      1275 2.54392E+01
 -1      1276 2.53086E+01
 -1      1277 2.58564E+01
 -1      1278 3.10000E+01
 -1      1279 3.56161E+01
 -1      1280 2.46331E+01
 -1      1281 1.32405E+01
 -1      1282 1.28309E+01
 -1      1283 1.32331E+01
 -1      1284 1.36352E+01
 -1      1285 1.34943E+01
 -1      1286 1.71554E+01
 -1      1287 3.45072E+01
 -1      1288 4.80568E+01
 -1      1289 3.69418E+01
 -1      1290 2.63890E+01
 -1      1291 1.31458E+01
 -1      1292 4.84412E+00
 -1      1293 9.59688E+00
 -1      1294 2.04155E+00
 -1      1295 2.95941E+00
 -1      1296 4.16325E+00
 -1      1297 1.38892E+00
 -1      1298 1.65152E+00
 -1      1299 1.88851E+00
 -1      1300 1.09376E+00
 -1      1301 1.21472E+00
 -1      1302 1.32428E+00
 -1      1303 9.28516E-01
 -1      1304 1.00170E+00
 -1      1305 1.05803E+00
 -1      1306 8.28078E-01
 -1      1307 8.73829E-01
 -1      1308 9.11289E-01
 -1      1309 7.66403E-01
 -1      1310 7.93546E-01
 -1      1311 8.22070E-01
 -1      1312 7.47063E-01
 -1      1313 7.46165E-01
 -1      1314 7.67301E-01
 -1      1315 7.97247E-01
 -1      1316 7.68929E-01
 -1      1317 7.68929E-01
 -1      1318 8.75554E-01
 -1      1319 8.31448E-01
 -1      1320 8.24995E-01
 -1      1321 1.00849E+00
 -1      1322 9.32615E-01
 -1      1323 9.16258E-01
 -1      1324 1.23128E+00
 -1      1325 1.10413E+00
 -1      1326 1.06896E+00
 -1      1327 1.66700E+00
 -1      1328 1.40820E+00
 -1      1329 1.34152E+00
 -1      1330 2.86598E+00
 -1      1331 2.03258E+00
 -1      1332 1.88402E+00
 -1      1333 6.27027E+00
 -1      1334 3.69791E+00
 -1      1335 3.08153E+00
 -1      1336 1.40414E+01
 -1      1337 1.13343E+01
 -1      1338 8.97745E+00
 -1      1339 1.40414E+01
 -1      1340 8.74323E+00
 -1      1341 4.34065E+00
 -1      1342 3.85303E+00
 -1      1343 3.36541E+00
 -1      1344 3.85303E+00
 -1      1345 2.75195E+00
 -1      1346 2.13849E+00
 -1      1347 2.75195E+00
 -1      1348 1.80359E+00
 -1      1349 1.43367E+00
 -1      1350 1.80359E+00
 -1      1351 1.23513E+00
 -1      1352 1.07161E+00
 -1      1353 1.27015E+00
 -1      1354 9.59073E-01
 -1      1355 8.46535E-01
 -1      1356 9.59073E-01
 -1      1357 7.64787E-01
 -1      1358 6.83039E-01
 -1      1359 7.64787E-01
 -1      1360 6.22119E-01
 -1      1361 5.61198E-01
 -1      1362 6.22119E-01
 -1      1363 5.15842E-01
 -1      1364 4.70486E-01
 -1      1365 5.15842E-01
 -1      1366 4.37023E-01
 -1      1367 4.03561E-01
 -1      1368 4.37023E-01
 -1      1369 3.90391E-01
 -1      1370 4.04574E-01
 -1      1371 3.90391E-01
 -1      1372 4.31925E-01
 -1      1373 4.67841E-01
 -1      1374 4.04574E-01
 -1      1375 5.03756E-01
 -1      1376 5.47304E-01
 -1      1377 4.67841E-01
 -1      1378 5.90852E-01
 -1      1379 6.38774E-01
 -1      1380 5.47304E-01
 -1      1381 7.21093E-01
 -1      1382 7.76084E-01
 -1      1383 6.73171E-01
 -1      1384 8.71247E-01
 -1      1385 9.87478E-01
 -1      1386 8.50654E-01
 -1      1387 1.07330E+00
 -1      1388 1.20525E+00
 -1      1389 1.03164E+00
 -1      1390 1.30296E+00
 -1      1391 1.45357E+00
 -1      1392 1.21517E+00
 -1      1393 1.59425E+00
 -1      1394 1.69817E+00
 -1      1395 1.45357E+00
 -1      1396 1.80209E+00
 -1      1397 1.80209E+00
 -1      1398 1.69817E+00
 -1      1399 1.77896E+00
 -1      1400 1.78692E+00
 -1      1401 1.77896E+00
 -1      1402 1.81801E+00
 -1      1403 1.81801E+00
 -1      1404 1.78692E+00
 -1      1405 1.75705E+00
 -1      1406 2.01044E+00
 -1      1407 1.75705E+00
 -1      1408 2.43371E+00
 -1      1409 3.41109E+00
 -1      1410 2.11935E+00
 -1      1411 4.27956E+00
 -1      1412 4.73537E+00
 -1      1413 3.41109E+00
 -1      1414 5.19118E+00
 -1      1415 5.19118E+00
 -1      1416 4.73537E+00
 -1      1417 5.19118E+00
 -1      1418 5.19117E+00
 -1      1419 5.19118E+00
 -1      1420 4.73419E+00
 -1      1421 4.27721E+00
 -1      1422 4.73419E+00
 -1      1423 3.40856E+00
 -1      1424 2.43297E+00
 -1      1425 3.40856E+00
 -1      1426 2.01175E+00
 -1      1427 1.75647E+00
 -1      1428 2.11868E+00
 -1      1429 1.81549E+00
 -1      1430 1.81549E+00
 -1      1431 1.75647E+00
 -1      1432 1.78123E+00
 -1      1433 1.76857E+00
 -1      1434 1.78123E+00
 -1      1435 1.79017E+00
 -1      1436 1.79017E+00
 -1      1437 1.76857E+00
 -1      1438 1.68485E+00
 -1      1439 1.57952E+00
 -1      1440 1.68485E+00
 -1      1441 1.44165E+00
 -1      1442 1.28981E+00
 -1      1443 1.44165E+00
 -1      1444 1.19716E+00
 -1      1445 1.06795E+00
 -1      1446 1.21113E+00
 -1      1447 9.83948E-01
 -1      1448 8.68227E-01
 -1      1449 1.03448E+00
 -1      1450 7.76105E-01
 -1      1451 7.00671E-01
 -1      1452 8.58354E-01
 -1      1453 6.13658E-01
 -1      1454 5.57992E-01
 -1      1455 6.79220E-01
 -1      1456 4.82516E-01
 -1      1457 4.29899E-01
 -1      1458 5.16732E-01
 -1      1459 3.72263E-01
 -1      1460 3.25984E-01
 -1      1461 3.83620E-01
 -1      1462 2.89621E-01
 -1      1463 2.50764E-01
 -1      1464 2.89621E-01
 -1      1465 2.21326E-01
 -1      1466 1.89696E-01
 -1      1467 2.23821E-01
 -1      1468 1.65535E-01
 -1      1469 1.41209E-01
 -1      1470 1.70222E-01
 -1      1471 1.26344E-01
 -1      1472 1.16330E-01
 -1      1473 1.31196E-01
 -1      1474 1.05638E-01
 -1      1475 9.49458E-02
 -1      1476 1.05638E-01
 -1      1477 8.21562E-02
 -1      1478 6.93666E-02
 -1      1479 8.21562E-02
 -1      1480 5.44281E-02
 -1      1481 3.72073E-02
 -1      1482 5.44281E-02
 -1      1483 2.52607E-02
 -1      1484 2.75431E-02
 -1      1485 3.41601E+00
 -1      1486 8.72872E+00
 -1      1487 8.72872E+00
 -1      1488 2.43680E+00
 -1      1489 2.92640E+00
 -1      1490 2.92640E+00
 -1      1491 1.69279E+00
 -1      1492 2.06479E+00
 -1      1493 2.06479E+00
 -1      1494 1.17580E+00
 -1      1495 1.43430E+00
 -1      1496 1.43430E+00
 -1      1497 9.67742E-01
 -1      1498 1.07177E+00
 -1      1499 1.07177E+00
 -1      1500 8.10383E-01
 -1      1501 8.89063E-01
 -1      1502 8.89063E-01
 -1      1503 6.87936E-01
 -1      1504 7.49160E-01
 -1      1505 7.49160E-01
 -1      1506 5.92901E-01
 -1      1507 6.40418E-01
 -1      1508 6.40418E-01
 -1      1509 5.20737E-01
 -1      1510 5.56819E-01
 -1      1511 5.56819E-01
 -1      1512 4.67495E-01
 -1      1513 4.94116E-01
 -1      1514 4.94116E-01
 -1      1515 4.28412E-01
 -1      1516 4.47954E-01
 -1      1517 4.47954E-01
 -1      1518 4.11084E-01
 -1      1519 4.12785E-01
 -1      1520 4.12785E-01
 -1      1521 4.45557E-01
 -1      1522 4.25011E-01
 -1      1523 4.11084E-01
 -1      1524 4.82085E-01
 -1      1525 4.66104E-01
 -1      1526 4.45557E-01
 -1      1527 5.02432E-01
 -1      1528 4.98066E-01
 -1      1529 4.82085E-01
 -1      1530 5.09763E-01
 -1      1531 5.06798E-01
 -1      1532 5.02432E-01
 -1      1533 6.09362E-01
 -1      1534 5.33293E-01
 -1      1535 5.30328E-01
 -1      1536 7.26926E-01
 -1      1537 6.64865E-01
 -1      1538 6.09362E-01
 -1      1539 8.14635E-01
 -1      1540 7.88987E-01
 -1      1541 7.26926E-01
 -1      1542 9.66359E-01
 -1      1543 8.40284E-01
 -1      1544 8.14635E-01
 -1      1545 1.13001E+00
 -1      1546 1.09243E+00
 -1      1547 9.66359E-01
 -1      1548 1.25541E+00
 -1      1549 1.16759E+00
 -1      1550 1.13001E+00
 -1      1551 1.44472E+00
 -1      1552 1.34324E+00
 -1      1553 1.25541E+00
 -1      1554 1.91361E+00
 -1      1555 1.57543E+00
 -1      1556 1.47395E+00
 -1      1557 2.46360E+00
 -1      1558 2.22257E+00
 -1      1559 1.91361E+00
 -1      1560 2.86330E+00
 -1      1561 2.70462E+00
 -1      1562 2.46360E+00
 -1      1563 3.02199E+00
 -1      1564 3.02199E+00
 -1      1565 2.86330E+00
 -1      1566 3.00275E+00
 -1      1567 3.01237E+00
 -1      1568 3.01237E+00
 -1      1569 2.28005E+00
 -1      1570 2.64140E+00
 -1      1571 2.64140E+00
 -1      1572 1.35797E+00
 -1      1573 1.81901E+00
 -1      1574 1.81901E+00
 -1      1575 9.55523E-01
 -1      1576 1.15675E+00
 -1      1577 1.15675E+00
 -1      1578 7.96338E-01
 -1      1579 8.70486E-01
 -1      1580 8.70486E-01
 -1      1581 8.77011E-01
 -1      1582 8.07229E-01
 -1      1583 7.96338E-01
 -1      1584 9.46793E-01
 -1      1585 9.46793E-01
 -1      1586 8.77011E-01
 -1      1587 9.44347E-01
 -1      1588 9.45570E-01
 -1      1589 9.45570E-01
 -1      1590 8.50353E-01
 -1      1591 8.97350E-01
 -1      1592 8.97350E-01
 -1      1593 7.18172E-01
 -1      1594 7.84263E-01
 -1      1595 7.84263E-01
 -1      1596 6.00117E-01
 -1      1597 6.59238E-01
 -1      1598 6.59238E-01
 -1      1599 4.85631E-01
 -1      1600 5.46596E-01
 -1      1601 5.46783E-01
 -1      1602 3.76702E-01
 -1      1603 4.33179E-01
 -1      1604 4.40809E-01
 -1      1605 2.85907E-01
 -1      1606 3.29457E-01
 -1      1607 3.41112E-01
 -1      1608 2.20797E-01
 -1      1609 2.49372E-01
 -1      1610 2.57332E-01
 -1      1611 1.70298E-01
 -1      1612 1.95548E-01
 -1      1613 1.95548E-01
 -1      1614 1.27295E-01
 -1      1615 1.48797E-01
 -1      1616 1.48797E-01
 -1      1617 9.17394E-02
 -1      1618 1.09813E-01
 -1      1619 1.09813E-01
 -1      1620 6.37733E-02
 -1      1621 7.78683E-02
 -1      1622 7.84607E-02
 -1      1623 5.05982E-02
 -1      1624 5.67776E-02
 -1      1625 5.75939E-02
 -1      1626 2.73135E-02
 -1      1627 3.89558E-02
 -1      1628 3.89558E-02
 -1      1629 1.89628E-02
 -1      1630 1.48912E-02
 -1      1631 1.41971E-02
 -1      1632 1.62516E-02
 -1      1633 1.62516E-02
 -1      1634 1.91423E-02
 -1      1635 1.43673E-02
 -1      1636 1.62516E-02
 -1      1637 2.05027E-02
 -1      1638 8.09327E-03
 -1      1639 1.01064E-02
 -1      1640 1.62417E-02
 -1      1641 1.25218E-02
 -1      1642 1.03382E-02
 -1      1643 1.42257E-02
 -1      1644 1.71618E-02
 -1      1645 1.56339E-02
 -1      1646 1.95828E-02
 -1      1647 1.90278E-02
 -1      1648 1.85288E-02
 -1      1649 2.40620E-02
 -1      1650 1.90717E-02
 -1      1651 1.90717E-02
 -1      1652 2.54730E-02
 -1      1653 1.86267E-02
 -1      1654 1.90717E-02
 -1      1655 2.55169E-02
 -1      1656 1.58280E-02
 -1      1657 1.73792E-02
 -1      1658 2.42695E-02
 -1      1659 1.08069E-02
 -1      1660 1.29065E-02
 -1      1661 2.01005E-02
 -1      1662 1.06488E-02
 -1      1663 8.47932E-03
 -1      1664 1.48514E-02
 -1      1665 1.69543E-02
 -1      1666 1.52338E-02
 -1      1667 1.71089E-02
 -1      1668 1.79656E-02
 -1      1669 1.69543E-02
 -1      1670 2.16938E-02
 -1      1671 1.97383E-02
 -1      1672 1.90587E-02
 -1      1673 2.27870E-02
 -1      1674 3.16848E-02
 -1      1675 3.00382E+01
 -1      1676 3.00382E+01
 -1      1677 4.24449E+01
 -1      1678 3.31912E+01
 -1      1679 4.54587E+01
 -1      1680 4.54587E+01
 -1      1681 1.83502E+01
 -1      1682 3.20924E+01
 -1      1683 1.13209E+01
 -1      1684 1.43272E+01
 -1      1685 1.22677E+01
 -1      1686 1.19618E+01
 -1      1687 1.25735E+01
 -1      1688 1.25735E+01
 -1      1689 1.22494E+01
 -1      1690 1.21677E+01
 -1      1691 1.27369E+01
 -1      1692 1.27369E+01
 -1      1693 1.28292E+01
 -1      1694 1.25094E+01
 -1      1695 2.45369E+01
 -1      1696 1.33765E+01
 -1      1697 3.56973E+01
 -1      1698 3.56973E+01
 -1      1699 3.02630E+01
 -1      1700 3.53166E+01
 -1      1701 2.63289E+01
 -1      1702 2.64798E+01
 -1      1703 2.63491E+01
 -1      1704 2.63289E+01
 -1      1705 2.60797E+01
 -1      1706 2.55521E+01
 -1      1707 3.49212E+01
 -1      1708 3.03052E+01
 -1      1709 3.56161E+01
 -1      1710 3.56161E+01
 -1      1711 1.38143E+01
 -1      1712 2.47973E+01
 -1      1713 1.23183E+01
 -1      1714 1.27278E+01
 -1      1715 1.28309E+01
 -1      1716 1.28309E+01
 -1      1717 1.28606E+01
 -1      1718 1.24584E+01
 -1      1719 1.36352E+01
 -1      1720 1.36352E+01
 -1      1721 1.33533E+01
 -1      1722 1.34943E+01
 -1      1723 1.63983E+01
 -1      1724 1.25961E+01
 -1      1725 3.53317E+01
 -1      1726 2.17821E+01
 -1      1727 4.80568E+01
 -1      1728 4.80568E+01
 -1      1729 2.77314E+01
 -1      1730 3.88463E+01
 -1      1731 3.00382E+01
 -1      1732 2.94760E+01
 -1      1733 1.47031E+01
 -1      1734 3.20924E+01
 -1      1735 1.89628E-02
 -1      1736 2.25477E-02
 -1      1737 3.62782E+01
 -1      1738 4.24449E+01
 -1      1739 3.31252E+01
 -1      1740 1.13209E+01
 -1      1741 1.22677E+01
 -1      1742 1.21677E+01
 -1      1743 1.22494E+01
 -1      1744 1.25094E+01
 -1      1745 1.28292E+01
 -1      1746 2.45369E+01
 -1      1747 3.53166E+01
 -1      1748 3.11527E+01
 -1      1749 2.73695E+01
 -1      1750 2.65724E+01
 -1      1751 3.00009E+01
 -1      1752 3.49212E+01
 -1      1753 2.47973E+01
 -1      1754 1.28921E+01
 -1      1755 1.23183E+01
 -1      1756 1.24584E+01
 -1      1757 1.28606E+01
 -1      1758 1.34943E+01
 -1      1759 1.25961E+01
 -1      1760 1.72228E+01
 -1      1761 3.53317E+01
 -1      1762 3.88463E+01
 -1      1763 3.13805E+01
 -1      1764 9.59688E+00
 -1      1765 1.26492E+00
 -1      1766 1.65496E+00
 -1      1767 2.36732E+00
 -1      1768 4.25202E+00
 -1      1769 1.74373E+00
 -1      1770 8.77168E-01
 -1      1771 9.69223E-01
 -1      1772 7.72273E-01
 -1      1773 8.26960E-01
 -1      1774 7.38153E-01
 -1      1775 7.05976E-01
 -1      1776 7.40508E-01
 -1      1777 6.56179E-01
 -1      1778 6.63463E-01
 -1      1779 6.83701E-01
 -1      1780 6.02138E-01
 -1      1781 6.86835E-01
 -1      1782 6.64969E-01
 -1      1783 5.81369E-01
 -1      1784 7.43074E-01
 -1      1785 7.08873E-01
 -1      1786 6.04914E-01
 -1      1787 8.33701E-01
 -1      1788 7.76640E-01
 -1      1789 6.60518E-01
 -1      1790 9.77056E-01
 -1      1791 8.81415E-01
 -1      1792 7.41797E-01
 -1      1793 1.22162E+00
 -1      1794 1.04469E+00
 -1      1795 8.57149E-01
 -1      1796 1.69653E+00
 -1      1797 1.33095E+00
 -1      1798 1.03412E+00
 -1      1799 2.61168E+00
 -1      1800 1.77975E+00
 -1      1801 1.22668E+00
 -1      1802 8.11961E+00
 -1      1803 3.05562E+00
 -1      1804 1.75385E+00
 -1      1805 2.80690E+00
 -1      1806 5.19430E+00
 -1      1807 2.17234E+00
 -1      1808 2.66195E+00
 -1      1809 2.05284E+00
 -1      1810 3.39837E+00
 -1      1811 2.55522E+00
 -1      1812 1.94176E+00
 -1      1813 1.71047E+00
 -1      1814 1.37557E+00
 -1      1815 1.51375E+00
 -1      1816 1.19458E+00
 -1      1817 9.96036E-01
 -1      1818 1.10146E+00
 -1      1819 8.80499E-01
 -1      1820 7.67962E-01
 -1      1821 8.04926E-01
 -1      1822 7.17755E-01
 -1      1823 6.36007E-01
 -1      1824 6.39182E-01
 -1      1825 5.90954E-01
 -1      1826 5.30033E-01
 -1      1827 5.43921E-01
 -1      1828 4.90183E-01
 -1      1829 4.44827E-01
 -1      1830 4.59018E-01
 -1      1831 4.09764E-01
 -1      1832 3.76301E-01
 -1      1833 3.84104E-01
 -1      1834 3.48105E-01
 -1      1835 3.34935E-01
 -1      1836 3.20845E-01
 -1      1837 3.58047E-01
 -1      1838 3.85399E-01
 -1      1839 3.15761E-01
 -1      1840 4.13677E-01
 -1      1841 4.49593E-01
 -1      1842 3.67151E-01
 -1      1843 5.01667E-01
 -1      1844 5.45215E-01
 -1      1845 4.47503E-01
 -1      1846 6.29166E-01
 -1      1847 7.11486E-01
 -1      1848 5.83529E-01
 -1      1849 8.00080E-01
 -1      1850 8.95243E-01
 -1      1851 7.56075E-01
 -1      1852 9.79838E-01
 -1      1853 1.06566E+00
 -1      1854 9.29264E-01
 -1      1855 1.13117E+00
 -1      1856 1.22888E+00
 -1      1857 1.07937E+00
 -1      1858 1.30079E+00
 -1      1859 1.44147E+00
 -1      1860 1.21679E+00
 -1      1861 1.49705E+00
 -1      1862 1.60098E+00
 -1      1863 1.34428E+00
 -1      1864 1.59040E+00
 -1      1865 1.56727E+00
 -1      1866 1.38928E+00
 -1      1867 1.50236E+00
 -1      1868 1.53345E+00
 -1      1869 1.31380E+00
 -1      1870 1.63168E+00
 -1      1871 1.57071E+00
 -1      1872 1.34711E+00
 -1      1873 1.69052E+00
 -1      1874 2.11379E+00
 -1      1875 1.56514E+00
 -1      1876 2.41483E+00
 -1      1877 3.28330E+00
 -1      1878 1.98599E+00
 -1      1879 3.61897E+00
 -1      1880 4.07478E+00
 -1      1881 2.62271E+00
 -1      1882 4.24680E+00
 -1      1883 4.24679E+00
 -1      1884 3.13040E+00
 -1      1885 4.07408E+00
 -1      1886 3.61710E+00
 -1      1887 3.12970E+00
 -1      1888 3.28384E+00
 -1      1889 2.41519E+00
 -1      1890 2.62373E+00
 -1      1891 2.10397E+00
 -1      1892 1.68274E+00
 -1      1893 1.97925E+00
 -1      1894 1.56971E+00
 -1      1895 1.62873E+00
 -1      1896 1.55500E+00
 -1      1897 1.53193E+00
 -1      1898 1.49766E+00
 -1      1899 1.34517E+00
 -1      1900 1.56567E+00
 -1      1901 1.58727E+00
 -1      1902 1.31637E+00
 -1      1903 1.59222E+00
 -1      1904 1.48689E+00
 -1      1905 1.38932E+00
 -1      1906 1.43136E+00
 -1      1907 1.29349E+00
 -1      1908 1.33873E+00
 -1      1909 1.22870E+00
 -1      1910 1.13605E+00
 -1      1911 1.21841E+00
 -1      1912 1.07322E+00
 -1      1913 9.89215E-01
 -1      1914 1.09078E+00
 -1      1915 9.08182E-01
 -1      1916 8.16060E-01
 -1      1917 9.46920E-01
 -1      1918 7.32506E-01
 -1      1919 6.45494E-01
 -1      1920 7.82334E-01
 -1      1921 5.68461E-01
 -1      1922 4.92985E-01
 -1      1923 6.21747E-01
 -1      1924 4.26642E-01
 -1      1925 3.69007E-01
 -1      1926 4.78372E-01
 -1      1927 3.14464E-01
 -1      1928 2.78101E-01
 -1      1929 3.57486E-01
 -1      1930 2.34794E-01
 -1      1931 2.05356E-01
 -1      1932 2.59636E-01
 -1      1933 1.71968E-01
 -1      1934 1.47807E-01
 -1      1935 1.82941E-01
 -1      1936 1.26549E-01
 -1      1937 1.11683E-01
 -1      1938 1.28295E-01
 -1      1939 9.61473E-02
 -1      1940 8.54552E-02
 -1      1941 9.15007E-02
 -1      1942 7.51164E-02
 -1      1943 6.23268E-02
 -1      1944 6.56258E-02
 -1      1945 5.30767E-02
 -1      1946 3.81382E-02
 -1      1947 3.03334E-02
 -1      1948 4.60369E-02
 -1      1949 1.41954E+00
 -1      1950 1.79154E+00
 -1      1951 1.52709E+00
 -1      1952 1.03731E+00
 -1      1953 1.29580E+00
 -1      1954 1.02255E+00
 -1      1955 8.37123E-01
 -1      1956 9.41153E-01
 -1      1957 8.02659E-01
 -1      1958 6.75171E-01
 -1      1959 7.53850E-01
 -1      1960 6.23231E-01
 -1      1961 5.85363E-01
 -1      1962 6.46587E-01
 -1      1963 5.11374E-01
 -1      1964 5.14879E-01
 -1      1965 5.62396E-01
 -1      1966 4.59823E-01
 -1      1967 4.57916E-01
 -1      1968 4.93997E-01
 -1      1969 4.15975E-01
 -1      1970 4.13347E-01
 -1      1971 4.39968E-01
 -1      1972 3.77146E-01
 -1      1973 3.78581E-01
 -1      1974 3.98122E-01
 -1      1975 3.43974E-01
 -1      1976 3.62801E-01
 -1      1977 3.78428E-01
 -1      1978 3.28597E-01
 -1      1979 3.94432E-01
 -1      1980 3.80506E-01
 -1      1981 3.46149E-01
 -1      1982 4.56794E-01
 -1      1983 4.36247E-01
 -1      1984 4.05668E-01
 -1      1985 5.16367E-01
 -1      1986 5.00387E-01
 -1      1987 4.91076E-01
 -1      1988 5.61218E-01
 -1      1989 5.56852E-01
 -1      1990 5.75153E-01
 -1      1991 6.08404E-01
 -1      1992 5.84874E-01
 -1      1993 6.39294E-01
 -1      1994 6.63908E-01
 -1      1995 6.08404E-01
 -1      1996 6.62951E-01
 -1      1997 7.14766E-01
 -1      1998 6.52706E-01
 -1      1999 6.51748E-01
 -1      2000 6.75971E-01
 -1      2001 6.50322E-01
 -1      2002 5.76102E-01
 -1      2003 8.04641E-01
 -1      2004 6.78566E-01
 -1      2005 5.14253E-01
 -1      2006 9.64683E-01
 -1      2007 9.27105E-01
 -1      2008 6.39313E-01
 -1      2009 1.30140E+00
 -1      2010 1.21358E+00
 -1      2011 1.01067E+00
 -1      2012 1.60538E+00
 -1      2013 1.47467E+00
 -1      2014 1.43283E+00
 -1      2015 1.93191E+00
 -1      2016 1.62296E+00
 -1      2017 1.62368E+00
 -1      2018 2.17294E+00
 -1      2019 1.93191E+00
 -1      2020 1.64126E+00
 -1      2021 2.36337E+00
 -1      2022 2.20469E+00
 -1      2023 1.67301E+00
 -1      2024 2.44092E+00
 -1      2025 2.45054E+00
 -1      2026 1.79193E+00
 -1      2027 1.94524E+00
 -1      2028 2.30658E+00
 -1      2029 1.74476E+00
 -1      2030 1.22733E+00
 -1      2031 1.68837E+00
 -1      2032 1.35356E+00
 -1      2033 8.21881E-01
 -1      2034 1.02311E+00
 -1      2035 8.92468E-01
 -1      2036 6.03494E-01
 -1      2037 6.88531E-01
 -1      2038 5.54889E-01
 -1      2039 7.02236E-01
 -1      2040 6.91346E-01
 -1      2041 5.09391E-01
 -1      2042 8.05186E-01
 -1      2043 7.35404E-01
 -1      2044 6.30411E-01
 -1      2045 8.24315E-01
 -1      2046 8.25538E-01
 -1      2047 6.83932E-01
 -1      2048 7.64971E-01
 -1      2049 8.11968E-01
 -1      2050 6.91936E-01
 -1      2051 6.63795E-01
 -1      2052 7.29886E-01
 -1      2053 6.44504E-01
 -1      2054 5.71223E-01
 -1      2055 6.30157E-01
 -1      2056 5.75780E-01
 -1      2057 4.75210E-01
 -1      2058 5.28731E-01
 -1      2059 4.99650E-01
 -1      2060 3.78659E-01
 -1      2061 4.31111E-01
 -1      2062 4.13060E-01
 -1      2063 2.90163E-01
 -1      2064 3.37409E-01
 -1      2065 3.27710E-01
 -1      2066 2.17543E-01
 -1      2067 2.54078E-01
 -1      2068 2.50374E-01
 -1      2069 1.67017E-01
 -1      2070 1.92267E-01
 -1      2071 1.89012E-01
 -1      2072 1.26192E-01
 -1      2073 1.47694E-01
 -1      2074 1.44413E-01
 -1      2075 9.23318E-02
 -1      2076 1.09813E-01
 -1      2077 1.08711E-01
 -1      2078 6.45897E-02
 -1      2079 7.84607E-02
 -1      2080 7.84607E-02
 -1      2081 4.62112E-02
 -1      2082 5.32069E-02
 -1      2083 5.32069E-02
 -1      2084 2.49829E-02
 -1      2085 3.66253E-02
 -1      2086 3.22382E-02
 -1      2087 2.02171E-02
 -1      2088 1.77521E-02
 -1      2089 2.20131E-02
 -1      2090 2.77243E-02
 -1      2091 2.77243E-02
 -1      2092 2.92346E-02
 -1      2093 2.77243E-02
 -1      2094 2.63639E-02
 -1      2095 2.87991E-02
 -1      2096 3.49458E-02
 -1      2097 1.95798E-02
 -1      2098 1.73348E-02
 -1      2099 2.31061E-02
 -1      2100 2.74886E-02
 -1      2101 2.43765E-02
 -1      2102 2.74856E-02
 -1      2103 3.13428E-02
 -1      2104 2.99758E-02
 -1      2105 3.47694E-02
 -1      2106 3.13867E-02
 -1      2107 3.13428E-02
 -1      2108 3.72566E-02
 -1      2109 3.15728E-02
 -1      2110 3.15728E-02
 -1      2111 3.74426E-02
 -1      2112 3.03254E-02
 -1      2113 3.15728E-02
 -1      2114 3.76286E-02
 -1      2115 2.53499E-02
 -1      2116 2.82714E-02
 -1      2117 3.55747E-02
 -1      2118 1.83220E-02
 -1      2119 2.06495E-02
 -1      2120 2.88204E-02
 -1      2121 2.34255E-02
 -1      2122 1.88406E-02
 -1      2123 2.46386E-02
 -1      2124 2.79513E-02
 -1      2125 2.79513E-02
 -1      2126 2.96830E-02
 -1      2127 3.61348E+01
 -1      2128 3.31210E+01
 -1      2129 3.31252E+01
 -1      2130 3.31252E+01
 -1      2131 3.27251E+01
 -1      2132 2.95721E+01
 -1      2133 2.64149E+01
 -1      2134 1.69423E+01
 -1      2135 3.03085E+01
 -1      2136 9.79082E+00
 -1      2137 1.38139E+01
 -1      2138 1.02706E+00
 -1      2139 1.20125E+00
 -1      2140 9.67700E-01
 -1      2141 8.46195E-01
 -1      2142 1.09771E+01
 -1      2143 1.06713E+01
 -1      2144 1.12839E+01
 -1      2145 1.16897E+01
 -1      2146 1.16554E+01
 -1      2147 1.11679E+01
 -1      2148 1.06899E+01
 -1      2149 1.05347E+01
 -1      2150 1.07622E+01
 -1      2151 9.67194E+00
 -1      2152 9.12465E+00
 -1      2153 2.46514E+01
 -1      2154 1.34910E+01
 -1      2155 9.78650E+00
 -1      2156 2.85120E+01
 -1      2157 2.88927E+01
 -1      2158 2.60982E+01
 -1      2159 2.98814E+01
 -1      2160 2.34575E+01
 -1      2161 3.28742E+01
 -1      2162 3.28742E+01
 -1      2163 3.20772E+01
 -1      2164 3.28742E+01
 -1      2165 3.00365E+01
 -1      2166 2.58110E+01
 -1      2167 2.93373E+01
 -1      2168 2.86425E+01
 -1      2169 1.32979E+01
 -1      2170 2.41166E+01
 -1      2171 1.78379E+01
 -1      2172 1.00122E+01
 -1      2173 1.10986E+01
 -1      2174 1.06500E+01
 -1      2175 1.01374E+01
 -1      2176 1.12997E+01
 -1      2177 1.16722E+01
 -1      2178 1.23306E+01
 -1      2179 1.15560E+01
 -1      2180 1.07697E+01
 -1      2181 1.14088E+01
 -1      2182 1.15498E+01
 -1      2183 9.28498E+00
 -1      2184 1.00421E+01
 -1      2185 1.62757E+01
 -1      2186 1.08918E+01
 -1      2187 8.33785E+00
 -1      2188 3.25898E+01
 -1      2189 1.98647E+01
 -1      2190 2.96359E+01
 -1      2191 3.88463E+01
 -1      2192 3.17180E+01
 -1      2193 2.99733E+01
 -1      2194 9.90117E+00
 -1      2195 9.26028E+00
 -1      2196 8.37106E+00
 -1      2197 2.91075E+00
 -1      2198 8.61061E+00
 -1      2199 2.10056E+00
 -1      2200 2.95721E+01
 -1      2201 2.09846E+01
 -1      2202 2.90444E-02
 -1      2203 3.17180E+01
 -1      2204 1.20300E+01
 -1      2205 2.99733E+01
 -1      2206 1.35338E+01
 -1      2207 1.02452E+01
 -1      2208 9.49131E+00
 -1      2209 1.04179E+01
 -1      2210 2.44526E+01
 -1      2211 3.21128E+01
 -1      2212 3.16029E+01
 -1      2213 1.78469E+01
 -1      2214 9.68073E+00
 -1      2215 1.00933E+01
 -1      2216 7.37746E+00
 -1      2217 3.83789E+01
 -1      2218 8.34392E+00
 -1      2219 8.09769E+00
 -1      2220 2.33794E+01
 -1      2221 1.10229E+00
 -1      2222 1.48308E+00
 -1      2223 5.52160E-01
 -1      2224 5.83925E-01
 -1      2225 5.98531E-01
 -1      2226 6.48740E-01
 -1      2227 4.94512E-01
 -1      2228 5.03063E-01
 -1      2229 5.01556E-01
 -1      2230 5.38395E-01
 -1      2231 5.16357E-01
 -1      2232 4.36544E-01
 -1      2233 5.87279E-01
 -1      2234 5.53714E-01
 -1      2235 4.65157E-01
 -1      2236 6.47616E-01
 -1      2237 5.99903E-01
 -1      2238 4.93099E-01
 -1      2239 7.15255E-01
 -1      2240 6.47616E-01
 -1      2241 5.05723E-01
 -1      2242 8.67950E-01
 -1      2243 7.58618E-01
 -1      2244 5.49086E-01
 -1      2245 8.98814E-01
 -1      2246 1.02255E+00
 -1      2247 9.78549E-01
 -1      2248 1.26844E+00
 -1      2249 1.03715E+00
 -1      2250 7.44373E+00
 -1      2251 6.67363E+00
 -1      2252 9.93811E-01
 -1      2253 8.12814E-01
 -1      2254 7.48502E-01
 -1      2255 7.52833E-01
 -1      2256 6.37296E-01
 -1      2257 6.45185E-01
 -1      2258 5.76016E-01
 -1      2259 5.25809E-01
 -1      2260 5.23923E-01
 -1      2261 4.90811E-01
 -1      2262 4.45758E-01
 -1      2263 4.27645E-01
 -1      2264 4.19351E-01
 -1      2265 3.79501E-01
 -1      2266 3.66241E-01
 -1      2267 3.49831E-01
 -1      2268 3.14768E-01
 -1      2269 3.10165E-01
 -1      2270 2.83041E-01
 -1      2271 2.54845E-01
 -1      2272 2.48768E-01
 -1      2273 2.59594E-01
 -1      2274 2.82706E-01
 -1      2275 2.21791E-01
 -1      2276 3.04600E-01
 -1      2277 3.32879E-01
 -1      2278 2.48434E-01
 -1      2279 3.99977E-01
 -1      2280 4.52051E-01
 -1      2281 3.37426E-01
 -1      2282 5.28556E-01
 -1      2283 6.12508E-01
 -1      2284 4.81030E-01
 -1      2285 6.97902E-01
 -1      2286 7.86496E-01
 -1      2287 6.42929E-01
 -1      2288 8.77966E-01
 -1      2289 9.62561E-01
 -1      2290 8.19794E-01
 -1      2291 1.05358E+00
 -1      2292 1.11910E+00
 -1      2293 1.00229E+00
 -1      2294 1.19788E+00
 -1      2295 1.26979E+00
 -1      2296 1.17210E+00
 -1      2297 1.35062E+00
 -1      2298 1.40620E+00
 -1      2299 1.33171E+00
 -1      2300 1.54620E+00
 -1      2301 1.53563E+00
 -1      2302 1.55254E+00
 -1      2303 1.65739E+00
 -1      2304 1.59248E+00
 -1      2305 1.81431E+00
 -1      2306 1.65103E+00
 -1      2307 1.74926E+00
 -1      2308 1.99463E+00
 -1      2309 2.06263E+00
 -1      2310 2.18243E+00
 -1      2311 2.36655E+00
 -1      2312 1.92850E+00
 -1      2313 2.22954E+00
 -1      2314 2.42598E+00
 -1      2315 2.56680E+00
 -1      2316 2.90247E+00
 -1      2317 2.50930E+00
 -1      2318 4.00225E+00
 -1      2319 4.17427E+00
 -1      2320 3.94634E+00
 -1      2321 5.06407E+00
 -1      2322 4.89135E+00
 -1      2323 5.93592E+00
 -1      2324 2.92655E+00
 -1      2325 2.59329E+00
 -1      2326 4.86091E+00
 -1      2327 2.27602E+00
 -1      2328 1.96479E+00
 -1      2329 2.57884E+00
 -1      2330 2.12909E+00
 -1      2331 2.01606E+00
 -1      2332 2.42585E+00
 -1      2333 1.77364E+00
 -1      2334 1.67683E+00
 -1      2335 2.34772E+00
 -1      2336 1.58790E+00
 -1      2337 1.65590E+00
 -1      2338 2.01637E+00
 -1      2339 1.53059E+00
 -1      2340 1.53553E+00
 -1      2341 1.80212E+00
 -1      2342 1.39992E+00
 -1      2343 1.34440E+00
 -1      2344 1.54120E+00
 -1      2345 1.26475E+00
 -1      2346 1.19995E+00
 -1      2347 1.32594E+00
 -1      2348 1.12485E+00
 -1      2349 1.06202E+00
 -1      2350 1.17119E+00
 -1      2351 9.75936E-01
 -1      2352 8.94903E-01
 -1      2353 1.01000E+00
 -1      2354 8.09639E-01
 -1      2355 7.26085E-01
 -1      2356 8.38654E-01
 -1      2357 6.48285E-01
 -1      2358 5.71252E-01
 -1      2359 6.75590E-01
 -1      2360 5.03936E-01
 -1      2361 4.37593E-01
 -1      2362 5.30474E-01
 -1      2363 3.81501E-01
 -1      2364 3.26958E-01
 -1      2365 4.07065E-01
 -1      2366 2.81552E-01
 -1      2367 2.38245E-01
 -1      2368 3.05567E-01
 -1      2369 2.02374E-01
 -1      2370 1.68985E-01
 -1      2371 2.24289E-01
 -1      2372 1.41288E-01
 -1      2373 1.20030E-01
 -1      2374 1.60721E-01
 -1      2375 9.91571E-02
 -1      2376 8.36209E-02
 -1      2377 1.12151E-01
 -1      2378 6.82444E-02
 -1      2379 5.79057E-02
 -1      2380 7.59009E-02
 -1      2381 2.18749E+01
 -1      2382 2.14789E+01
 -1      2383 5.39958E-01
 -1      2384 6.23231E-01
 -1      2385 4.76120E-01
 -1      2386 5.04704E-01
 -1      2387 5.04704E-01
 -1      2388 4.19589E-01
 -1      2389 4.42556E-01
 -1      2390 4.35885E-01
 -1      2391 3.64894E-01
 -1      2392 3.85775E-01
 -1      2393 3.68508E-01
 -1      2394 3.13785E-01
 -1      2395 3.31733E-01
 -1      2396 3.01533E-01
 -1      2397 2.81081E-01
 -1      2398 2.96306E-01
 -1      2399 2.50893E-01
 -1      2400 2.95846E-01
 -1      2401 2.95998E-01
 -1      2402 2.48330E-01
 -1      2403 3.28826E-01
 -1      2404 3.11121E-01
 -1      2405 2.78523E-01
 -1      2406 4.16951E-01
 -1      2407 3.75137E-01
 -1      2408 3.40109E-01
 -1      2409 5.05586E-01
 -1      2410 4.61993E-01
 -1      2411 4.31462E-01
 -1      2412 5.85027E-01
 -1      2413 5.44543E-01
 -1      2414 5.15461E-01
 -1      2415 6.39440E-01
 -1      2416 6.15784E-01
 -1      2417 5.85174E-01
 -1      2418 6.62951E-01
 -1      2419 6.62951E-01
 -1      2420 6.39440E-01
 -1      2421 6.59462E-01
 -1      2422 6.70665E-01
 -1      2423 6.70665E-01
 -1      2424 5.70064E-01
 -1      2425 6.34508E-01
 -1      2426 6.53424E-01
 -1      2427 6.18160E-01
 -1      2428 6.15565E-01
 -1      2429 6.73971E-01
 -1      2430 7.57634E-01
 -1      2431 6.35169E-01
 -1      2432 7.36481E-01
 -1      2433 1.15877E+00
 -1      2434 9.09875E-01
 -1      2435 9.05732E-01
 -1      2436 1.49108E+00
 -1      2437 1.31781E+00
 -1      2438 1.21702E+00
 -1      2439 1.65340E+00
 -1      2440 1.63582E+00
 -1      2441 1.52080E+00
 -1      2442 1.67423E+00
 -1      2443 1.67423E+00
 -1      2444 1.68637E+00
 -1      2445 1.69127E+00
 -1      2446 1.65952E+00
 -1      2447 1.69249E+00
 -1      2448 1.79180E+00
 -1      2449 1.70464E+00
 -1      2450 1.69115E+00
 -1      2451 1.52947E+00
 -1      2452 1.66381E+00
 -1      2453 1.57652E+00
 -1      2454 1.15182E+00
 -1      2455 1.40868E+00
 -1      2456 1.32773E+00
 -1      2457 7.89325E-01
 -1      2458 9.93554E-01
 -1      2459 1.04868E+00
 -1      2460 5.85628E-01
 -1      2461 7.18978E-01
 -1      2462 8.20065E-01
 -1      2463 6.25595E-01
 -1      2464 5.37743E-01
 -1      2465 7.01832E-01
 -1      2466 6.72002E-01
 -1      2467 6.38834E-01
 -1      2468 6.67185E-01
 -1      2469 6.97154E-01
 -1      2470 6.76802E-01
 -1      2471 6.85224E-01
 -1      2472 6.63173E-01
 -1      2473 6.75521E-01
 -1      2474 6.68391E-01
 -1      2475 6.05749E-01
 -1      2476 6.40834E-01
 -1      2477 6.24419E-01
 -1      2478 5.40799E-01
 -1      2479 5.74437E-01
 -1      2480 5.70768E-01
 -1      2481 4.62199E-01
 -1      2482 5.04691E-01
 -1      2483 5.03347E-01
 -1      2484 3.78109E-01
 -1      2485 4.22208E-01
 -1      2486 4.27248E-01
 -1      2487 2.97779E-01
 -1      2488 3.39030E-01
 -1      2489 3.48178E-01
 -1      2490 2.26332E-01
 -1      2491 2.62418E-01
 -1      2492 2.73737E-01
 -1      2493 1.70758E-01
 -1      2494 1.96034E-01
 -1      2495 2.08077E-01
 -1      2496 1.26590E-01
 -1      2497 1.45913E-01
 -1      2498 1.52934E-01
 -1      2499 9.06473E-02
 -1      2500 1.07026E-01
 -1      2501 1.08526E-01
 -1      2502 6.25668E-02
 -1      2503 7.64378E-02
 -1      2504 7.47534E-02
 -1      2505 4.20126E-02
 -1      2506 5.33954E-02
 -1      2507 5.13724E-02
 -1      2508 3.83850E-02
 -1      2509 3.67767E-02
 -1      2510 3.19800E-02
 -1      2511 4.32686E-02
 -1      2512 4.07815E-02
 -1      2513 4.52759E-02
 -1      2514 2.86073E-02
 -1      2515 3.43185E-02
 -1      2516 2.80226E-02
 -1      2517 2.84399E-02
 -1      2518 3.35237E-02
 -1      2519 3.73138E-02
 -1      2520 4.39809E-02
 -1      2521 4.39809E-02
 -1      2522 4.99929E-02
 -1      2523 4.41669E-02
 -1      2524 4.39809E-02
 -1      2525 5.07052E-02
 -1      2526 4.41997E-02
 -1      2527 4.41997E-02
 -1      2528 5.07380E-02
 -1      2529 4.21458E-02
 -1      2530 4.41997E-02
 -1      2531 5.07709E-02
 -1      2532 3.39749E-02
 -1      2533 3.86753E-02
 -1      2534 4.73003E-02
 -1      2535 3.35815E-02
 -1      2536 3.30629E-02
 -1      2537 4.29178E-02
 -1      2538 3.81072E-02
 -1      2539 3.35815E-02
 -1      2540 4.20057E-02
 -1      2541 3.54978E-02
 -1      2542 3.17180E+01
 -1      2543 3.03108E+01
 -1      2544 7.06503E-01
 -1      2545 8.02659E-01
 -1      2546 6.23231E-01
 -1      2547 1.41108E+01
 -1      2548 1.99371E+01
 -1      2549 2.54987E+01
 -1      2550 2.51613E+01
 -1      2551 1.66203E+00
 -1      2552 1.30650E+00
 -1      2553 8.29902E-01
 -1      2554 9.49668E-01
 -1      2555 8.34347E+00
 -1      2556 1.14719E+01
 -1      2557 8.40036E+00
 -1      2558 9.18117E+00
 -1      2559 8.73035E+00
 -1      2560 7.70818E+00
 -1      2561 1.95450E+01
 -1      2562 2.09390E+01
 -1      2563 7.62852E+00
 -1      2564 8.52173E+00
 -1      2565 5.14885E-01
 -1      2566 5.37161E-01
 -1      2567 4.64907E-01
 -1      2568 4.36579E-01
 -1      2569 9.18560E+00
 -1      2570 8.47298E+00
 -1      2571 4.75406E+00
 -1      2572 6.16413E+00
 -1      2573 9.24920E+00
 -1      2574 9.36521E+00
 -1      2575 7.19700E+00
 -1      2576 3.83789E+01
 -1      2577 3.83789E+01
 -1      2578 9.41536E+00
 -1      2579 5.59624E+00
 -1      2580 1.66883E+01
 -1      2581 1.24471E+01
 -1      2582 2.02511E+01
 -1      2583 1.88818E+01
 -1      2584 6.48325E+00
 -1      2585 6.35802E+00
 -1      2586 3.16029E+01
 -1      2587 2.48269E+01
 -1      2588 2.02511E+01
 -1      2589 2.58466E+01
 -1      2590 3.21128E+01
 -1      2591 1.14085E+01
 -1      2592 1.66292E+01
 -1      2593 5.49793E+00
 -1      2594 6.86463E+00
 -1      2595 7.92106E+00
 -1      2596 1.01203E+01
 -1      2597 9.66255E+00
 -1      2598 9.40628E+00
 -1      2599 7.62315E+00
 -1      2600 2.12055E+01
 -1      2601 1.49490E+01
 -1      2602 1.67309E+01
 -1      2603 7.69478E+00
 -1      2604 6.08792E+00
 -1      2605 1.33529E+01
 -1      2606 9.76385E+00
 -1      2607 7.51392E+00
 -1      2608 2.60189E+01
 -1      2609 2.95721E+01
 -1      2610 1.61464E+00
 -1      2611 1.75959E+00
 -1      2612 1.31565E+00
 -1      2613 1.18984E+00
 -1      2614 6.19186E+00
 -1      2615 6.72241E+00
 -1      2616 6.16427E+00
 -1      2617 6.53599E+00
 -1      2618 5.20997E-01
 -1      2619 6.60618E-01
 -1      2620 7.18452E-01
 -1      2621 8.02659E-01
 -1      2622 1.23243E+00
 -1      2623 5.02498E+00
 -1      2624 1.11791E+01
 -1      2625 7.81770E+00
 -1      2626 6.06039E+00
 -1      2627 4.85486E+00
 -1      2628 2.54987E+01
 -1      2629 1.50011E+01
 -1      2630 3.85735E-02
 -1      2631 3.85735E-02
 -1      2632 8.91166E+00
 -1      2633 3.67868E-02
 -1      2634 3.54978E-02
 -1      2635 3.93962E-02
 -1      2636 4.60369E-02
 -1      2637 3.16029E+01
 -1      2638 5.72228E+00
 -1      2639 2.81649E+01
 -1      2640 9.56924E-01
 -1      2641 1.04243E+01
 -1      2642 3.21128E+01
 -1      2643 1.34820E+01
 -1      2644 7.46854E+00
 -1      2645 6.40450E+00
 -1      2646 4.86878E+00
 -1      2647 1.07157E+01
 -1      2648 6.52546E+00
 -1      2649 9.55717E+00
 -1      2650 2.09390E+01
 -1      2651 6.70250E+00
 -1      2652 5.54350E+00
 -1      2653 4.07910E+00
 -1      2654 1.31156E+01
 -1      2655 8.85998E-01
 -1      2656 4.38292E+00
 -1      2657 7.74486E+00
 -1      2658 2.14789E+01
 -1      2659 3.79461E-02
 -1      2660 4.86556E-02
 -1      2661 4.16813E-01
 -1      2662 4.01495E-01
 -1      2663 3.92724E-01
 -1      2664 3.79430E-01
 -1      2665 3.44381E-01
 -1      2666 4.32500E-01
 -1      2667 4.32500E-01
 -1      2668 4.65183E-01
 -1      2669 4.21820E-01
 -1      2670 3.48598E-01
 -1      2671 7.15714E-01
 -1      2672 7.95448E-01
 -1      2673 7.65523E+00
 -1      2674 1.02942E+01
 -1      2675 6.08803E-01
 -1      2676 7.04959E-01
 -1      2677 5.21858E-01
 -1      2678 5.92853E+00
 -1      2679 4.89927E+00
 -1      2680 1.02870E+01
 -1      2681 8.69095E+00
 -1      2682 5.47128E-01
 -1      2683 4.87147E-01
 -1      2684 4.75444E-01
 -1      2685 4.14164E-01
 -1      2686 3.77387E-01
 -1      2687 3.86186E-01
 -1      2688 3.51187E-01
 -1      2689 3.37706E-01
 -1      2690 3.19263E-01
 -1      2691 2.92857E-01
 -1      2692 2.77803E-01
 -1      2693 2.72937E-01
 -1      2694 2.43268E-01
 -1      2695 2.25960E-01
 -1      2696 2.16422E-01
 -1      2697 1.84695E-01
 -1      2698 1.79194E-01
 -1      2699 1.69182E-01
 -1      2700 1.73931E-01
 -1      2701 1.36836E-01
 -1      2702 2.05439E-01
 -1      2703 2.27333E-01
 -1      2704 1.52831E-01
 -1      2705 2.82627E-01
 -1      2706 3.49725E-01
 -1      2707 2.39632E-01
 -1      2708 4.14953E-01
 -1      2709 4.91458E-01
 -1      2710 3.60153E-01
 -1      2711 5.68650E-01
 -1      2712 6.54045E-01
 -1      2713 5.02573E-01
 -1      2714 7.45691E-01
 -1      2715 8.37160E-01
 -1      2716 6.71412E-01
 -1      2717 9.46542E-01
 -1      2718 1.03757E+00
 -1      2719 8.72439E-01
 -1      2720 1.16541E+00
 -1      2721 1.24420E+00
 -1      2722 1.10967E+00
 -1      2723 1.39054E+00
 -1      2724 1.47136E+00
 -1      2725 1.38385E+00
 -1      2726 1.62471E+00
 -1      2727 1.76472E+00
 -1      2728 1.68354E+00
 -1      2729 2.01533E+00
 -1      2730 2.13709E+00
 -1      2731 2.08750E+00
 -1      2732 2.46257E+00
 -1      2733 2.52113E+00
 -1      2734 2.66359E+00
 -1      2735 2.78643E+00
 -1      2736 3.09979E+00
 -1      2737 3.25437E+00
 -1      2738 2.95167E+00
 -1      2739 2.69773E+00
 -1      2740 3.37154E+00
 -1      2741 3.94634E+00
 -1      2742 5.04612E+00
 -1      2743 6.67260E+00
 -1      2744 7.56240E+00
 -1      2745 6.14920E+00
 -1      2746 4.18440E+00
 -1      2747 2.92212E+00
 -1      2748 3.08641E+00
 -1      2749 3.16315E+00
 -1      2750 2.92073E+00
 -1      2751 3.65942E+00
 -1      2752 2.54265E+00
 -1      2753 2.45372E+00
 -1      2754 3.35808E+00
 -1      2755 2.13088E+00
 -1      2756 2.00556E+00
 -1      2757 2.65716E+00
 -1      2758 1.75839E+00
 -1      2759 1.62279E+00
 -1      2760 2.08715E+00
 -1      2761 1.47372E+00
 -1      2762 1.39407E+00
 -1      2763 1.69091E+00
 -1      2764 1.25169E+00
 -1      2765 1.17658E+00
 -1      2766 1.39947E+00
 -1      2767 1.05307E+00
 -1      2768 9.66987E-01
 -1      2769 1.13357E+00
 -1      2770 8.62409E-01
 -1      2771 7.77144E-01
 -1      2772 9.05477E-01
 -1      2773 6.90886E-01
 -1      2774 6.13086E-01
 -1      2775 7.14641E-01
 -1      2776 5.42729E-01
 -1      2777 4.75413E-01
 -1      2778 5.58026E-01
 -1      2779 4.18352E-01
 -1      2780 3.62260E-01
 -1      2781 4.30607E-01
 -1      2782 3.16438E-01
 -1      2783 2.71032E-01
 -1      2784 3.27724E-01
 -1      2785 2.34656E-01
 -1      2786 1.98785E-01
 -1      2787 2.45527E-01
 -1      2788 1.70278E-01
 -1      2789 1.42581E-01
 -1      2790 1.80645E-01
 -1      2791 1.20606E-01
 -1      2792 9.97325E-02
 -1      2793 1.30163E-01
 -1      2794 7.97936E-02
 -1      2795 6.44171E-02
 -1      2796 8.82488E-02
 -1      2797 2.69585E+01
 -1      2798 2.01824E+01
 -1      2799 7.29368E+00
 -1      2800 8.58191E+00
 -1      2801 4.20008E-01
 -1      2802 4.55263E-01
 -1      2803 2.38785E-01
 -1      2804 2.71946E-01
 -1      2805 1.91449E-01
 -1      2806 2.08929E-01
 -1      2807 1.79342E-01
 -1      2808 2.15967E-01
 -1      2809 2.01050E-01
 -1      2810 1.59087E-01
 -1      2811 2.60570E-01
 -1      2812 2.45295E-01
 -1      2813 1.98015E-01
 -1      2814 3.54798E-01
 -1      2815 3.08488E-01
 -1      2816 2.75260E-01
 -1      2817 4.48942E-01
 -1      2818 4.03900E-01
 -1      2819 3.72278E-01
 -1      2820 5.35105E-01
 -1      2821 4.96148E-01
 -1      2822 4.68586E-01
 -1      2823 6.06128E-01
 -1      2824 5.75371E-01
 -1      2825 5.56059E-01
 -1      2826 6.72863E-01
 -1      2827 6.49352E-01
 -1      2828 6.39550E-01
 -1      2829 7.37945E-01
 -1      2830 7.30230E-01
 -1      2831 7.40142E-01
 -1      2832 7.56332E-01
 -1      2833 7.81286E-01
 -1      2834 8.40852E-01
 -1      2835 8.27674E-01
 -1      2836 7.82173E-01
 -1      2837 9.10035E-01
 -1      2838 9.54251E-01
 -1      2839 9.37242E-01
 -1      2840 1.04544E+00
 -1      2841 1.24749E+00
 -1      2842 1.09525E+00
 -1      2843 1.29601E+00
 -1      2844 1.43414E+00
 -1      2845 1.27509E+00
 -1      2846 1.46461E+00
 -1      2847 2.14837E+00
 -1      2848 2.00362E+00
 -1      2849 2.06170E+00
 -1      2850 2.70628E+00
 -1      2851 2.68546E+00
 -1      2852 3.16828E+00
 -1      2853 1.95179E+00
 -1      2854 1.96649E+00
 -1      2855 2.96557E+00
 -1      2856 1.98342E+00
 -1      2857 1.97006E+00
 -1      2858 2.24406E+00
 -1      2859 1.63758E+00
 -1      2860 1.76558E+00
 -1      2861 2.04449E+00
 -1      2862 1.39264E+00
 -1      2863 1.51343E+00
 -1      2864 1.70249E+00
 -1      2865 1.11738E+00
 -1      2866 1.27565E+00
 -1      2867 1.46135E+00
 -1      2868 1.01450E+00
 -1      2869 1.08485E+00
 -1      2870 1.31182E+00
 -1      2871 8.48082E-01
 -1      2872 8.95967E-01
 -1      2873 1.16075E+00
 -1      2874 7.99641E-01
 -1      2875 7.86403E-01
 -1      2876 9.80538E-01
 -1      2877 7.73591E-01
 -1      2878 7.68791E-01
 -1      2879 8.88008E-01
 -1      2880 7.01513E-01
 -1      2881 7.23145E-01
 -1      2882 8.06713E-01
 -1      2883 6.26871E-01
 -1      2884 6.49210E-01
 -1      2885 7.03965E-01
 -1      2886 5.61978E-01
 -1      2887 5.93290E-01
 -1      2888 6.18081E-01
 -1      2889 4.86173E-01
 -1      2890 5.22281E-01
 -1      2891 5.44803E-01
 -1      2892 4.04158E-01
 -1      2893 4.44149E-01
 -1      2894 4.63082E-01
 -1      2895 3.24713E-01
 -1      2896 3.63792E-01
 -1      2897 3.80693E-01
 -1      2898 2.52933E-01
 -1      2899 2.88294E-01
 -1      2900 3.03908E-01
 -1      2901 1.91231E-01
 -1      2902 2.21529E-01
 -1      2903 2.36086E-01
 -1      2904 1.40251E-01
 -1      2905 1.65096E-01
 -1      2906 1.78548E-01
 -1      2907 9.96390E-02
 -1      2908 1.19202E-01
 -1      2909 1.31364E-01
 -1      2910 6.86159E-02
 -1      2911 8.28254E-02
 -1      2912 9.35015E-02
 -1      2913 4.65307E-02
 -1      2914 5.57021E-02
 -1      2915 6.37741E-02
 -1      2916 4.22757E-02
 -1      2917 6.00105E-02
 -1      2918 6.00105E-02
 -1      2919 5.12650E-02
 -1      2920 3.93962E-02
 -1      2921 4.20057E-02
 -1      2922 5.51578E-02
 -1      2923 5.63496E-02
 -1      2924 5.23448E-02
 -1      2925 6.03703E-02
 -1      2926 6.03374E-02
 -1      2927 6.96428E-02
 -1      2928 6.00105E-02
 -1      2929 5.92983E-02
 -1      2930 6.63672E-02
 -1      2931 6.93159E-02
 -1      2932 1.17932E+01
 -1      2933 1.37311E+01
 -1      2934 6.03703E-02
 -1      2935 6.03703E-02
 -1      2936 6.99697E-02
 -1      2937 5.54758E-02
 -1      2938 5.89464E-02
 -1      2939 6.85458E-02
 -1      2940 4.70992E-02
 -1      2941 4.80112E-02
 -1      2942 5.96573E-02
 -1      2943 4.20057E-02
 -1      2944 4.95436E-01
 -1      2945 5.78709E-01
 -1      2946 4.81009E-01
 -1      2947 4.10741E-01
 -1      2948 2.23508E+01
 -1      2949 1.75388E+01
 -1      2950 7.00421E-01
 -1      2951 6.62357E-01
 -1      2952 8.25366E-01
 -1      2953 4.74415E+00
 -1      2954 6.30720E+00
 -1      2955 5.74789E+00
 -1      2956 6.47537E+00
 -1      2957 1.94429E+01
 -1      2958 2.15889E+01
 -1      2959 1.36289E+01
 -1      2960 4.78647E+00
 -1      2961 3.56153E+00
 -1      2962 3.80834E+00
 -1      2963 2.98519E-01
 -1      2964 3.32333E-01
 -1      2965 2.35770E-01
 -1      2966 3.53964E-01
 -1      2967 3.87527E-01
 -1      2968 2.83974E-01
 -1      2969 2.03495E+01
 -1      2970 2.66157E+01
 -1      2971 3.95154E+00
 -1      2972 3.10935E+00
 -1      2973 5.91885E-01
 -1      2974 5.48549E-01
 -1      2975 3.90511E-01
 -1      2976 4.62403E-01
 -1      2977 9.85299E+00
 -1      2978 1.27687E+01
 -1      2979 1.24905E+01
 -1      2980 1.02971E+01
 -1      2981 6.70871E+00
 -1      2982 6.52910E+00
 -1      2983 1.46461E+01
 -1      2984 1.95538E+01
 -1      2985 4.38132E+00
 -1      2986 3.79134E+00
 -1      2987 4.32500E-01
 -1      2988 4.19877E-01
 -1      2989 3.56215E-01
 -1      2990 3.59278E-01
 -1      2991 1.89363E+01
 -1      2992 1.43605E+01
 -1      2993 7.18452E-01
 -1      2994 4.18108E-01
 -1      2995 4.32714E-01
 -1      2996 6.67260E+00
 -1      2997 5.99667E+00
 -1      2998 1.51977E+01
 -1      2999 1.12420E+01
 -1      3000 1.57246E+01
 -1      3001 2.02645E+01
 -1      3002 7.55271E+00
 -1      3003 5.48364E+00
 -1      3004 4.52361E+00
 -1      3005 6.14467E+00
 -1      3006 4.11812E+00
 -1      3007 3.63636E+00
 -1      3008 4.43559E-01
 -1      3009 4.55437E-01
 -1      3010 3.67154E-01
 -1      3011 3.35478E-01
 -1      3012 3.79298E-01
 -1      3013 3.92627E-01
 -1      3014 3.51065E+00
 -1      3015 3.61676E+00
 -1      3016 6.66067E+00
 -1      3017 1.25167E+01
 -1      3018 1.20499E+01
 -1      3019 4.89238E+00
 -1      3020 1.11756E+01
 -1      3021 4.42011E+00
 -1      3022 1.13835E+01
 -1      3023 2.17204E+00
 -1      3024 2.50930E+00
 -1      3025 7.08102E+00
 -1      3026 5.55248E-02
 -1      3027 4.44511E-02
 -1      3028 4.04938E-02
 -1      3029 2.62680E+00
 -1      3030 2.30952E+00
 -1      3031 1.42918E+01
 -1      3032 1.51952E+01
 -1      3033 5.25961E+00
 -1      3034 8.23501E+00
 -1      3035 3.38087E-01
 -1      3036 3.73718E-02
 -1      3037 3.75392E-02
 -1      3038 4.61238E-02
 -1      3039 4.45092E-02
 -1      3040 5.15618E+00
 -1      3041 3.88262E+00
 -1      3042 6.45653E+00
 -1      3043 4.66652E-02
 -1      3044 4.66652E-02
 -1      3045 5.17586E-02
 -1      3046 5.98172E-02
 -1      3047 5.09860E+00
 -1      3048 4.37697E+00
 -1      3049 4.17258E+00
 -1      3050 1.83319E+01
 -1      3051 1.17559E+01
 -1      3052 1.25775E+01
 -1      3053 5.97744E+00
 -1      3054 2.97008E+00
 -1      3055 3.60908E+00
 -1      3056 5.62531E-01
 -1      3057 8.56570E+00
 -1      3058 3.22077E+00
 -1      3059 3.75915E+00
 -1      3060 2.78940E+00
 -1      3061 8.75388E+00
 -1      3062 4.01189E-01
 -1      3063 4.16187E-01
 -1      3064 3.54389E-01
 -1      3065 3.43907E-01
 -1      3066 1.40566E+01
 -1      3067 6.01457E+00
 -1      3068 5.32876E-01
 -1      3069 4.35265E-01
 -1      3070 2.69773E+00
 -1      3071 3.91509E+00
 -1      3072 8.10188E+00
 -1      3073 7.36200E+00
 -1      3074 2.90085E-01
 -1      3075 3.00766E-01
 -1      3076 9.02419E+00
 -1      3077 2.69452E+00
 -1      3078 3.58178E+00
 -1      3079 9.47556E+00
 -1      3080 1.14690E+01
 -1      3081 2.95972E-01
 -1      3082 2.67994E-01
 -1      3083 2.55526E-01
 -1      3084 2.23602E-01
 -1      3085 2.13792E-01
 -1      3086 2.00688E-01
 -1      3087 1.80769E-01
 -1      3088 1.78411E-01
 -1      3089 1.60621E-01
 -1      3090 1.33775E-01
 -1      3091 1.35349E-01
 -1      3092 1.33942E-01
 -1      3093 1.18429E-01
 -1      3094 1.15369E-01
 -1      3095 1.37756E-01
 -1      3096 1.69264E-01
 -1      3097 1.34863E-01
 -1      3098 2.13565E-01
 -1      3099 2.68858E-01
 -1      3100 1.98491E-01
 -1      3101 3.30615E-01
 -1      3102 3.95843E-01
 -1      3103 3.04548E-01
 -1      3104 4.70359E-01
 -1      3105 5.47551E-01
 -1      3106 4.40821E-01
 -1      3107 6.35349E-01
 -1      3108 7.26995E-01
 -1      3109 6.03135E-01
 -1      3110 8.27907E-01
 -1      3111 9.37289E-01
 -1      3112 7.91845E-01
 -1      3113 1.05709E+00
 -1      3114 1.18494E+00
 -1      3115 1.01256E+00
 -1      3116 1.36026E+00
 -1      3117 1.50660E+00
 -1      3118 1.30769E+00
 -1      3119 1.78623E+00
 -1      3120 1.93958E+00
 -1      3121 1.76264E+00
 -1      3122 2.34179E+00
 -1      3123 2.59240E+00
 -1      3124 2.44449E+00
 -1      3125 3.47391E+00
 -1      3126 3.79939E+00
 -1      3127 3.72820E+00
 -1      3128 4.33286E+00
 -1      3129 4.59816E+00
 -1      3130 5.14318E+00
 -1      3131 1.27478E+01
 -1      3132 1.15016E+01
 -1      3133 4.63984E+00
 -1      3134 4.26176E+00
 -1      3135 3.57763E+00
 -1      3136 3.25479E+00
 -1      3137 4.85938E+00
 -1      3138 2.57524E+00
 -1      3139 2.32807E+00
 -1      3140 3.49570E+00
 -1      3141 1.94384E+00
 -1      3142 1.79478E+00
 -1      3143 2.43193E+00
 -1      3144 1.51882E+00
 -1      3145 1.37644E+00
 -1      3146 1.77175E+00
 -1      3147 1.20494E+00
 -1      3148 1.08142E+00
 -1      3149 1.32429E+00
 -1      3150 9.66381E-01
 -1      3151 8.61803E-01
 -1      3152 1.03775E+00
 -1      3153 7.66081E-01
 -1      3154 6.79823E-01
 -1      3155 8.26985E-01
 -1      3156 5.98020E-01
 -1      3157 5.27663E-01
 -1      3158 6.49460E-01
 -1      3159 4.60104E-01
 -1      3160 4.03043E-01
 -1      3161 5.00098E-01
 -1      3162 3.48557E-01
 -1      3163 3.02736E-01
 -1      3164 3.78054E-01
 -1      3165 2.59596E-01
 -1      3166 2.23221E-01
 -1      3167 2.80429E-01
 -1      3168 1.89579E-01
 -1      3169 1.61072E-01
 -1      3170 2.03648E-01
 -1      3171 1.35322E-01
 -1      3172 1.13347E-01
 -1      3173 1.44256E-01
 -1      3174 9.47635E-02
 -1      3175 7.48245E-02
 -1      3176 6.63319E-02
 -1      3177 9.99225E-02
 -1      3178 4.62916E+00
 -1      3179 4.02858E+00
 -1      3180 1.23374E-01
 -1      3181 1.53230E-01
 -1      3182 2.87182E-01
 -1      3183 2.39265E-01
 -1      3184 3.86531E-01
 -1      3185 3.37429E-01
 -1      3186 3.01435E-01
 -1      3187 4.89999E-01
 -1      3188 4.42793E-01
 -1      3189 4.07944E-01
 -1      3190 5.90550E-01
 -1      3191 5.50283E-01
 -1      3192 5.24490E-01
 -1      3193 6.96120E-01
 -1      3194 6.52896E-01
 -1      3195 6.47120E-01
 -1      3196 8.13987E-01
 -1      3197 7.56619E-01
 -1      3198 7.69965E-01
 -1      3199 9.64279E-01
 -1      3200 9.20937E-01
 -1      3201 9.37414E-01
 -1      3202 1.10027E+00
 -1      3203 1.07443E+00
 -1      3204 1.15452E+00
 -1      3205 1.31853E+00
 -1      3206 1.20896E+00
 -1      3207 1.37336E+00
 -1      3208 1.44460E+00
 -1      3209 1.30360E+00
 -1      3210 1.46712E+00
 -1      3211 1.90131E+00
 -1      3212 1.87370E+00
 -1      3213 1.88129E+00
 -1      3214 2.63119E+00
 -1      3215 2.06170E+00
 -1      3216 2.47079E+00
 -1      3217 3.71652E+00
 -1      3218 3.17943E+00
 -1      3219 2.26233E+00
 -1      3220 2.24406E+00
 -1      3221 1.70249E+00
 -1      3222 1.82664E+00
 -1      3223 1.70453E+00
 -1      3224 1.82152E+00
 -1      3225 1.94567E+00
 -1      3226 1.69483E+00
 -1      3227 1.72737E+00
 -1      3228 2.08754E+00
 -1      3229 1.28562E+00
 -1      3230 1.40416E+00
 -1      3231 1.81971E+00
 -1      3232 1.14519E+00
 -1      3233 1.20687E+00
 -1      3234 1.45028E+00
 -1      3235 1.00704E+00
 -1      3236 1.03789E+00
 -1      3237 1.26422E+00
 -1      3238 8.47703E-01
 -1      3239 8.98148E-01
 -1      3240 1.04803E+00
 -1      3241 7.17502E-01
 -1      3242 7.69804E-01
 -1      3243 8.61239E-01
 -1      3244 6.26338E-01
 -1      3245 6.59919E-01
 -1      3246 7.25759E-01
 -1      3247 5.30842E-01
 -1      3248 5.70538E-01
 -1      3249 6.12377E-01
 -1      3250 4.36751E-01
 -1      3251 4.78775E-01
 -1      3252 5.04510E-01
 -1      3253 3.49434E-01
 -1      3254 3.89799E-01
 -1      3255 4.05492E-01
 -1      3256 2.73525E-01
 -1      3257 3.09944E-01
 -1      3258 3.19051E-01
 -1      3259 2.09624E-01
 -1      3260 2.41027E-01
 -1      3261 2.47063E-01
 -1      3262 1.56973E-01
 -1      3263 1.83108E-01
 -1      3264 1.88050E-01
 -1      3265 1.14665E-01
 -1      3266 1.35714E-01
 -1      3267 1.40274E-01
 -1      3268 8.08167E-02
 -1      3269 9.76302E-02
 -1      3270 1.01980E-01
 -1      3271 5.49224E-02
 -1      3272 6.78363E-02
 -1      3273 7.19650E-02
 -1      3274 5.01859E-02
 -1      3275 3.16695E-01
 -1      3276 3.07925E-01
 -1      3277 8.03964E-02
 -1      3278 8.18203E-02
 -1      3279 8.02267E-02
 -1      3280 7.98998E-02
 -1      3281 6.74811E-02
 -1      3282 7.49457E-02
 -1      3283 8.82202E-02
 -1      3284 8.18203E-02
 -1      3285 8.18203E-02
 -1      3286 9.20773E-02
 -1      3287 9.36709E-02
 -1      3288 1.23085E+01
 -1      3289 1.26513E+01
 -1      3290 1.94801E-01
 -1      3291 1.65474E-01
 -1      3292 2.06724E-01
 -1      3293 1.16181E+01
 -1      3294 1.24139E+01
 -1      3295 1.31251E-01
 -1      3296 1.21650E-01
 -1      3297 9.55389E-02
 -1      3298 1.28038E-01
 -1      3299 3.31118E+00
 -1      3300 4.29237E+00
 -1      3301 4.52572E+00
 -1      3302 6.66558E+00
 -1      3303 7.93665E+00
 -1      3304 1.02936E+01
 -1      3305 8.42354E+00
 -1      3306 1.07210E+01
 -1      3307 1.14830E+01
 -1      3308 3.83592E+00
 -1      3309 3.40933E+00
 -1      3310 2.62818E+00
 -1      3311 3.02665E-01
 -1      3312 2.90962E-01
 -1      3313 2.21250E-01
 -1      3314 2.74793E-01
 -1      3315 3.07275E-01
 -1      3316 1.77774E-01
 -1      3317 2.04347E-01
 -1      3318 1.21806E-01
 -1      3319 2.26635E-01
 -1      3320 2.48266E-01
 -1      3321 1.68639E-01
 -1      3322 7.98068E+00
 -1      3323 7.02572E+00
 -1      3324 4.54689E+00
 -1      3325 6.05745E+00
 -1      3326 2.83764E+00
 -1      3327 4.02751E-01
 -1      3328 3.05403E-01
 -1      3329 2.57571E-01
 -1      3330 3.91996E-01
 -1      3331 8.81749E+00
 -1      3332 1.06949E+01
 -1      3333 4.55437E-01
 -1      3334 6.33600E+00
 -1      3335 5.19776E+00
 -1      3336 1.14463E+01
 -1      3337 9.10527E+00
 -1      3338 7.37711E+00
 -1      3339 6.91657E+00
 -1      3340 8.41562E+00
 -1      3341 3.03215E-01
 -1      3342 3.03083E-01
 -1      3343 2.75529E-01
 -1      3344 3.16951E-01
 -1      3345 3.27796E-01
 -1      3346 2.60177E-01
 -1      3347 3.18690E-01
 -1      3348 3.18690E-01
 -1      3349 2.59320E+00
 -1      3350 9.05212E+00
 -1      3351 7.71045E+00
 -1      3352 1.07516E+01
 -1      3353 8.81891E+00
 -1      3354 6.02194E+00
 -1      3355 4.94345E+00
 -1      3356 7.24806E+00
 -1      3357 3.66192E+00
 -1      3358 8.74955E+00
 -1      3359 1.16853E+01
 -1      3360 8.89510E+00
 -1      3361 8.79864E+00
 -1      3362 5.24180E+00
 -1      3363 5.09367E+00
 -1      3364 4.10719E+00
 -1      3365 3.58150E+00
 -1      3366 6.82566E-02
 -1      3367 6.03629E-02
 -1      3368 5.99272E+00
 -1      3369 7.21985E+00
 -1      3370 3.14611E+00
 -1      3371 2.17454E-01
 -1      3372 9.87001E+00
 -1      3373 3.17943E+00
 -1      3374 2.96557E+00
 -1      3375 3.70537E+00
 -1      3376 2.17675E+00
 -1      3377 2.39460E+00
 -1      3378 3.16695E-01
 -1      3379 2.80239E-01
 -1      3380 3.19759E-01
 -1      3381 7.90271E-02
 -1      3382 7.60784E-02
 -1      3383 8.09165E-02
 -1      3384 3.71652E+00
 -1      3385 4.36582E+00
 -1      3386 3.84965E-01
 -1      3387 3.18880E-01
 -1      3388 2.79522E-01
 -1      3389 3.16960E-01
 -1      3390 3.63192E+00
 -1      3391 2.39888E+00
 -1      3392 2.17675E+00
 -1      3393 2.39460E+00
 -1      3394 3.41266E-01
 -1      3395 3.71360E-01
 -1      3396 2.52253E-01
 -1      3397 7.98998E-02
 -1      3398 7.98998E-02
 -1      3399 8.96110E-02
 -1      3400 9.04837E-02
 -1      3401 3.62465E+00
 -1      3402 3.31425E+00
 -1      3403 3.11879E-01
 -1      3404 3.52052E-01
 -1      3405 2.42403E-01
 -1      3406 2.48585E-01
 -1      3407 3.26936E-01
 -1      3408 2.40511E-01
 -1      3409 3.28357E-01
 -1      3410 1.07210E+01
 -1      3411 8.57513E+00
 -1      3412 9.60997E+00
 -1      3413 4.22789E+00
 -1      3414 4.30463E+00
 -1      3415 2.74212E+00
 -1      3416 2.85354E+00
 -1      3417 7.61183E+00
 -1      3418 1.05197E+01
 -1      3419 7.57511E+00
 -1      3420 5.56281E+00
 -1      3421 3.94676E+00
 -1      3422 5.52855E+00
 -1      3423 7.63617E+00
 -1      3424 6.58849E+00
 -1      3425 5.20830E+00
 -1      3426 5.44888E+00
 -1      3427 6.23538E-02
 -1      3428 6.27878E-02
 -1      3429 7.80762E-02
 -1      3430 7.73610E-02
 -1      3431 4.55256E+00
 -1      3432 6.90277E+00
 -1      3433 1.65670E-01
 -1      3434 1.42756E-01
 -1      3435 1.35168E-01
 -1      3436 1.15020E-01
 -1      3437 1.22427E-01
 -1      3438 1.27634E-01
 -1      3439 1.27801E-01
 -1      3440 1.27453E-01
 -1      3441 1.40174E-01
 -1      3442 1.59501E-01
 -1      3443 1.52440E-01
 -1      3444 1.89786E-01
 -1      3445 2.34087E-01
 -1      3446 1.95098E-01
 -1      3447 2.89467E-01
 -1      3448 3.51223E-01
 -1      3449 2.80763E-01
 -1      3450 4.19736E-01
 -1      3451 4.94252E-01
 -1      3452 4.04655E-01
 -1      3453 5.79542E-01
 -1      3454 6.67340E-01
 -1      3455 5.58457E-01
 -1      3456 7.74701E-01
 -1      3457 8.75613E-01
 -1      3458 7.51109E-01
 -1      3459 1.01256E+00
 -1      3460 1.13237E+00
 -1      3461 9.95419E-01
 -1      3462 1.30769E+00
 -1      3463 1.48300E+00
 -1      3464 1.30769E+00
 -1      3465 1.71306E+00
 -1      3466 1.99270E+00
 -1      3467 1.71306E+00
 -1      3468 2.29710E+00
 -1      3469 2.69931E+00
 -1      3470 2.24752E+00
 -1      3471 3.31277E+00
 -1      3472 4.19428E+00
 -1      3473 3.16539E+00
 -1      3474 6.08435E+00
 -1      3475 6.61783E+00
 -1      3476 7.84395E+00
 -1      3477 5.66893E+00
 -1      3478 1.84209E+00
 -1      3479 2.13276E+00
 -1      3480 6.11942E+00
 -1      3481 5.21395E+00
 -1      3482 3.45024E+00
 -1      3483 4.15420E+00
 -1      3484 3.47465E+00
 -1      3485 2.62443E+00
 -1      3486 2.24021E+00
 -1      3487 3.28293E+00
 -1      3488 1.99146E+00
 -1      3489 1.71550E+00
 -1      3490 2.18396E+00
 -1      3491 1.49580E+00
 -1      3492 1.32429E+00
 -1      3493 1.71550E+00
 -1      3494 1.15279E+00
 -1      3495 1.03775E+00
 -1      3496 1.32429E+00
 -1      3497 9.04602E-01
 -1      3498 8.08881E-01
 -1      3499 1.01964E+00
 -1      3500 7.05633E-01
 -1      3501 6.23829E-01
 -1      3502 7.83250E-01
 -1      3503 5.43260E-01
 -1      3504 4.75702E-01
 -1      3505 5.99432E-01
 -1      3506 4.12610E-01
 -1      3507 3.58124E-01
 -1      3508 4.55772E-01
 -1      3509 3.08685E-01
 -1      3510 2.65546E-01
 -1      3511 3.43241E-01
 -1      3512 2.26952E-01
 -1      3513 1.93310E-01
 -1      3514 2.55208E-01
 -1      3515 1.63087E-01
 -1      3516 1.37337E-01
 -1      3517 1.86391E-01
 -1      3518 5.85419E-02
 -1      3519 5.54200E-02
 -1      3520 6.42186E-02
 -1      3521 7.12737E-02
 -1      3522 3.35060E-01
 -1      3523 2.84813E-01
 -1      3524 6.99395E-01
 -1      3525 6.37049E-01
 -1      3526 8.66708E-01
 -1      3527 8.06209E-01
 -1      3528 7.96138E-01
 -1      3529 1.09475E+00
 -1      3530 9.87801E-01
 -1      3531 1.02404E+00
 -1      3532 1.33639E+00
 -1      3533 1.22623E+00
 -1      3534 1.27662E+00
 -1      3535 1.67244E+00
 -1      3536 1.56376E+00
 -1      3537 1.63547E+00
 -1      3538 2.40977E+00
 -1      3539 2.42469E+00
 -1      3540 2.61509E+00
 -1      3541 3.82552E+00
 -1      3542 3.39642E+00
 -1      3543 2.71873E+00
 -1      3544 2.55833E+00
 -1      3545 2.98385E+00
 -1      3546 1.75210E+00
 -1      3547 1.83086E+00
 -1      3548 2.14391E+00
 -1      3549 1.39253E+00
 -1      3550 1.49983E+00
 -1      3551 1.88041E+00
 -1      3552 1.10374E+00
 -1      3553 1.21264E+00
 -1      3554 1.44824E+00
 -1      3555 9.02489E-01
 -1      3556 9.80388E-01
 -1      3557 1.14499E+00
 -1      3558 7.34490E-01
 -1      3559 7.92073E-01
 -1      3560 9.11221E-01
 -1      3561 5.92432E-01
 -1      3562 6.48232E-01
 -1      3563 7.14546E-01
 -1      3564 4.77048E-01
 -1      3565 5.29114E-01
 -1      3566 5.64969E-01
 -1      3567 3.82114E-01
 -1      3568 4.29065E-01
 -1      3569 4.53669E-01
 -1      3570 3.03620E-01
 -1      3571 3.43111E-01
 -1      3572 3.66684E-01
 -1      3573 2.35903E-01
 -1      3574 2.68400E-01
 -1      3575 2.92461E-01
 -1      3576 1.79031E-01
 -1      3577 2.05547E-01
 -1      3578 2.26885E-01
 -1      3579 1.32303E-01
 -1      3580 1.53563E-01
 -1      3581 1.71060E-01
 -1      3582 6.46574E+00
 -1      3583 6.14408E+00
 -1      3584 3.21391E-01
 -1      3585 2.87944E+00
 -1      3586 3.84455E+00
 -1      3587 1.02681E-01
 -1      3588 1.08131E-01
 -1      3589 2.40503E-01
 -1      3590 1.96040E-01
 -1      3591 2.74129E-01
 -1      3592 8.61486E+00
 -1      3593 7.40682E+00
 -1      3594 2.21461E-01
 -1      3595 2.06143E-01
 -1      3596 2.00826E-01
 -1      3597 1.04655E-01
 -1      3598 1.29199E-01
 -1      3599 2.71188E-01
 -1      3600 2.76600E+00
 -1      3601 2.60486E+00
 -1      3602 2.58202E+00
 -1      3603 1.74763E-01
 -1      3604 2.01290E-01
 -1      3605 1.67052E-01
 -1      3606 1.72062E-01
 -1      3607 5.62635E-01
 -1      3608 5.02350E-01
 -1      3609 6.14909E-01
 -1      3610 8.07308E+00
 -1      3611 7.96775E+00
 -1      3612 1.34530E-01
 -1      3613 1.56819E-01
 -1      3614 1.17379E-01
 -1      3615 3.08398E-01
 -1      3616 3.16960E-01
 -1      3617 2.81451E-01
 -1      3618 4.43395E-01
 -1      3619 3.87133E-01
 -1      3620 3.70511E-01
 -1      3621 4.81539E-01
 -1      3622 2.17675E+00
 -1      3623 2.52686E+00
 -1      3624 1.83492E-01
 -1      3625 1.71024E-01
 -1      3626 1.35370E-01
 -1      3627 4.60695E+00
 -1      3628 5.46607E+00
 -1      3629 4.68662E+00
 -1      3630 3.86174E+00
 -1      3631 8.76717E+00
 -1      3632 4.07346E+00
 -1      3633 7.02261E+00
 -1      3634 5.89802E+00
 -1      3635 6.09602E+00
 -1      3636 2.24309E+00
 -1      3637 2.36212E+00
 -1      3638 2.79170E-01
 -1      3639 2.76135E-01
 -1      3640 6.57195E+00
 -1      3641 5.85451E+00
 -1      3642 4.73256E+00
 -1      3643 2.40098E-01
 -1      3644 2.38169E-01
 -1      3645 7.96775E+00
 -1      3646 7.00171E+00
 -1      3647 6.17082E+00
 -1      3648 2.62724E+00
 -1      3649 5.36531E+00
 -1      3650 6.33105E+00
 -1      3651 4.85938E+00
 -1      3652 4.83833E+00
 -1      3653 2.07493E-01
 -1      3654 1.58305E-01
 -1      3655 1.12805E-01
 -1      3656 9.42220E-02
 -1      3657 9.02439E-02
 -1      3658 1.31637E-01
 -1      3659 2.24068E-01
 -1      3660 2.43626E-01
 -1      3661 2.38917E-01
 -1      3662 4.35400E+00
 -1      3663 6.74194E+00
 -1      3664 7.95011E+00
 -1      3665 6.04785E+00
 -1      3666 4.85186E+00
 -1      3667 3.14611E+00
 -1      3668 3.01384E+00
 -1      3669 2.54099E-01
 -1      3670 2.54099E-01
 -1      3671 2.17486E-01
 -1      3672 9.47054E-02
 -1      3673 1.11740E-01
 -1      3674 7.71990E-02
 -1      3675 1.07897E-01
 -1      3676 1.06304E-01
 -1      3677 1.23225E-01
 -1      3678 1.23225E-01
 -1      3679 1.39045E-01
 -1      3680 1.22358E-01
 -1      3681 1.07897E-01
 -1      3682 1.07897E-01
 -1      3683 1.94070E-01
 -1      3684 1.60290E-01
 -1      3685 1.26068E-01
 -1      3686 6.85743E+00
 -1      3687 5.89413E+00
 -1      3688 6.85743E+00
 -1      3689 7.55236E+00
 -1      3690 1.10600E-01
 -1      3691 1.17993E-01
 -1      3692 1.08877E-01
 -1      3693 2.00690E-01
 -1      3694 2.05294E-01
 -1      3695 1.57999E-01
 -1      3696 8.19439E+00
 -1      3697 7.15955E+00
 -1      3698 6.36849E+00
 -1      3699 1.40654E-01
 -1      3700 2.91040E+00
 -1      3701 8.87800E-02
 -1      3702 8.69590E-02
 -1      3703 1.29294E-01
 -1      3704 1.36094E-01
 -1      3705 1.51779E-01
 -1      3706 2.31764E-01
 -1      3707 1.25029E-01
 -1      3708 1.43916E-01
 -1      3709 5.89802E+00
 -1      3710 5.54351E+00
 -1      3711 9.49372E-02
 -1      3712 1.14848E-01
 -1      3713 2.43219E-01
 -1      3714 2.01867E-01
 -1      3715 2.43219E-01
 -1      3716 1.29056E-01
 -1      3717 1.41670E-01
 -1      3718 1.57996E-01
 -1      3719 1.70369E-01
 -1      3720 1.59600E-01
 -1      3721 1.86983E-01
 -1      3722 2.17268E-01
 -1      3723 1.92539E-01
 -1      3724 2.52368E-01
 -1      3725 3.07748E-01
 -1      3726 2.44253E-01
 -1      3727 3.63195E-01
 -1      3728 4.31708E-01
 -1      3729 3.34801E-01
 -1      3730 5.02536E-01
 -1      3731 5.87826E-01
 -1      3732 4.61077E-01
 -1      3733 6.80890E-01
 -1      3734 7.88251E-01
 -1      3735 6.24969E-01
 -1      3736 9.15761E-01
 -1      3737 1.05271E+00
 -1      3738 8.45543E-01
 -1      3739 1.23623E+00
 -1      3740 1.41154E+00
 -1      3741 1.15657E+00
 -1      3742 1.68835E+00
 -1      3743 1.91840E+00
 -1      3744 1.61688E+00
 -1      3745 2.24064E+00
 -1      3746 2.54504E+00
 -1      3747 2.21592E+00
 -1      3748 2.88047E+00
 -1      3749 3.49393E+00
 -1      3750 4.56695E+00
 -1      3751 2.87359E+00
 -1      3752 1.66192E-01
 -1      3753 1.25752E-01
 -1      3754 1.98996E-01
 -1      3755 2.53030E-01
 -1      3756 2.43271E+00
 -1      3757 2.18396E+00
 -1      3758 1.92695E+00
 -1      3759 1.70724E+00
 -1      3760 2.17570E+00
 -1      3761 1.42392E+00
 -1      3762 1.25241E+00
 -1      3763 1.63536E+00
 -1      3764 1.07148E+00
 -1      3765 9.38339E-01
 -1      3766 1.17111E+00
 -1      3767 8.13392E-01
 -1      3768 7.10144E-01
 -1      3769 8.65233E-01
 -1      3770 6.19799E-01
 -1      3771 5.39231E-01
 -1      3772 6.49942E-01
 -1      3773 4.71731E-01
 -1      3774 4.08639E-01
 -1      3775 4.92098E-01
 -1      3776 3.56961E-01
 -1      3777 3.07522E-01
 -1      3778 3.72920E-01
 -1      3779 2.67260E-01
 -1      3780 2.28666E-01
 -1      3781 2.80979E-01
 -1      3782 2.04357E-01
 -1      3783 1.74135E-01
 -1      3784 2.16409E-01
 -1      3785 1.39381E-01
 -1      3786 1.52406E+00
 -1      3787 1.39258E+00
 -1      3788 4.37627E+00
 -1      3789 3.38961E+00
 -1      3790 2.63736E+00
 -1      3791 4.40093E+00
 -1      3792 2.37904E-01
 -1      3793 2.43219E-01
 -1      3794 2.04988E-01
 -1      3795 2.06001E-01
 -1      3796 1.15851E+00
 -1      3797 1.03741E+00
 -1      3798 1.40595E+00
 -1      3799 3.38964E+00
 -1      3800 8.94590E-01
 -1      3801 7.87776E-01
 -1      3802 1.02905E+00
 -1      3803 2.13124E+00
 -1      3804 1.90387E+00
 -1      3805 2.01983E+00
 -1      3806 2.01213E-01
 -1      3807 1.70421E-01
 -1      3808 1.99384E-01
 -1      3809 2.11999E-01
 -1      3810 3.18439E-01
 -1      3811 2.74129E-01
 -1      3812 1.19726E+00
 -1      3813 1.32061E+00
 -1      3814 8.95035E-01
 -1      3815 1.00545E+00
 -1      3816 1.18107E+00
 -1      3817 6.99870E-01
 -1      3818 7.86128E-01
 -1      3819 8.80359E-01
 -1      3820 5.59651E-01
 -1      3821 6.22969E-01
 -1      3822 6.94552E-01
 -1      3823 4.53669E-01
 -1      3824 5.01652E-01
 -1      3825 5.59651E-01
 -1      3826 3.63724E-01
 -1      3827 4.02727E-01
 -1      3828 4.50710E-01
 -1      3829 2.85132E-01
 -1      3830 3.20352E-01
 -1      3831 3.56396E-01
 -1      3832 2.18630E-01
 -1      3833 2.48986E-01
 -1      3834 2.76878E-01
 -1      3835 1.74048E-01
 -1      3836 1.99517E-01
 -1      3837 2.21618E-01
 -1      3838 5.71560E+00
 -1      3839 4.77452E+00
 -1      3840 3.78548E+00
 -1      3841 1.22124E-01
 -1      3842 1.44824E+00
 -1      3843 1.62813E+00
 -1      3844 1.50050E+00
 -1      3845 2.54099E-01
 -1      3846 1.13356E-01
 -1      3847 1.31300E-01
 -1      3848 1.88041E+00
 -1      3849 2.13268E+00
 -1      3850 1.88041E+00
 -1      3851 1.37182E-01
 -1      3852 1.43916E-01
 -1      3853 1.99093E-01
 -1      3854 1.44789E-01
 -1      3855 1.72343E-01
 -1      3856 1.17901E-01
 -1      3857 1.23232E-01
 -1      3858 1.13878E-01
 -1      3859 1.19010E-01
 -1      3860 1.13655E-01
 -1      3861 6.73203E+00
 -1      3862 6.45179E+00
 -1      3863 5.39083E+00
 -1      3864 2.00799E-01
 -1      3865 6.84377E-01
 -1      3866 6.09962E-01
 -1      3867 7.82829E-01
 -1      3868 1.25722E-01
 -1      3869 1.18134E-01
 -1      3870 1.09361E-01
 -1      3871 1.57347E-01
 -1      3872 5.21509E+00
 -1      3873 3.95739E+00
 -1      3874 3.10718E+00
 -1      3875 4.46069E+00
 -1      3876 3.91620E+00
 -1      3877 3.89966E+00
 -1      3878 1.32351E-01
 -1      3879 4.05771E+00
 -1      3880 4.12019E+00
 -1      3881 3.28730E+00
 -1      3882 2.82321E+00
 -1      3883 5.90114E+00
 -1      3884 3.70511E-01
 -1      3885 3.70511E-01
 -1      3886 4.22584E-01
 -1      3887 3.10718E+00
 -1      3888 1.40662E-01
 -1      3889 1.40662E-01
 -1      3890 2.90577E+00
 -1      3891 1.70680E-01
 -1      3892 1.69668E-01
 -1      3893 1.69314E-01
 -1      3894 4.95526E+00
 -1      3895 5.07823E+00
 -1      3896 5.07823E+00
 -1      3897 3.59732E+00
 -1      3898 2.81198E+00
 -1      3899 2.27959E-01
 -1      3900 1.85643E-01
 -1      3901 1.75170E-01
 -1      3902 1.38837E-01
 -1      3903 5.47347E+00
 -1      3904 3.91694E+00
 -1      3905 4.65313E+00
 -1      3906 1.77530E-01
 -1      3907 1.57112E-01
 -1      3908 2.29148E-01
 -1      3909 1.93399E-01
 -1      3910 2.73458E-01
 -1      3911 6.27961E+00
 -1      3912 4.56191E+00
 -1      3913 4.86403E+00
 -1      3914 1.41129E-01
 -1      3915 1.29222E-01
 -1      3916 1.28623E-01
 -1      3917 1.01924E-01
 -1      3918 5.32487E+00
 -1      3919 4.70035E+00
 -1      3920 4.18637E+00
 -1      3921 2.81198E+00
 -1      3922 1.64104E-01
 -1      3923 1.36021E-01
 -1      3924 1.30076E-01
 -1      3925 1.35929E-01
 -1      3926 2.00799E-01
 -1      3927 2.00799E-01
 -1      3928 2.02505E-01
 -1      3929 5.40495E-01
 -1      3930 4.81539E-01
 -1      3931 6.09962E-01
 -1      3932 1.15467E-01
 -1      3933 1.36329E-01
 -1      3934 1.53250E-01
 -1      3935 1.54867E-01
 -1      3936 1.34335E-01
 -1      3937 1.45258E-01
 -1      3938 1.30993E-01
 -1      3939 1.37697E-01
 -1      3940 1.02216E-01
 -1      3941 1.93272E-01
 -1      3942 2.09885E-01
 -1      3943 2.35810E-01
 -1      3944 2.70910E-01
 -1      3945 2.36542E-01
 -1      3946 3.03941E-01
 -1      3947 3.59389E-01
 -1      3948 2.95498E-01
 -1      3949 4.02542E-01
 -1      3950 4.73370E-01
 -1      3951 3.71682E-01
 -1      3952 5.31702E-01
 -1      3953 6.24766E-01
 -1      3954 4.73168E-01
 -1      3955 7.05235E-01
 -1      3956 8.32745E-01
 -1      3957 6.11969E-01
 -1      3958 9.59429E-01
 -1      3959 1.14294E+00
 -1      3960 8.19122E-01
 -1      3961 1.34472E+00
 -1      3962 1.62152E+00
 -1      3963 1.14758E+00
 -1      3964 1.85369E+00
 -1      3965 2.17593E+00
 -1      3966 1.58152E+00
 -1      3967 8.86228E-01
 -1      3968 7.82829E-01
 -1      3969 4.18010E+00
 -1      3970 3.50106E+00
 -1      3971 2.82660E+00
 -1      3972 3.60229E+00
 -1      3973 1.75651E-01
 -1      3974 1.65236E+00
 -1      3975 1.36904E+00
 -1      3976 1.15146E+00
 -1      3977 9.70531E-01
 -1      3978 1.16846E+00
 -1      3979 8.43753E-01
 -1      3980 7.18807E-01
 -1      3981 8.24105E-01
 -1      3982 6.32185E-01
 -1      3983 5.41841E-01
 -1      3984 6.10706E-01
 -1      3985 4.79814E-01
 -1      3986 4.12314E-01
 -1      3987 4.62057E-01
 -1      3988 3.65673E-01
 -1      3989 3.13994E-01
 -1      3990 3.53389E-01
 -1      3991 2.78033E-01
 -1      3992 2.37771E-01
 -1      3993 2.70786E-01
 -1      3994 2.16409E-01
 -1      3995 1.92101E-01
 -1      3996 1.75651E-01
 -1      3997 2.13463E-01
 -1      3998 3.27936E+00
 -1      3999 1.15836E+00
 -1      4000 1.01554E+00
 -1      4001 1.01554E+00
 -1      4002 1.34347E-01
 -1      4003 1.69668E-01
 -1      4004 1.69668E-01
 -1      4005 1.33993E-01
 -1      4006 6.94552E-01
 -1      4007 7.71452E-01
 -1      4008 8.80359E-01
 -1      4009 9.89266E-01
 -1      4010 8.80359E-01
 -1      4011 1.16698E+00
 -1      4012 1.35878E+00
 -1      4013 1.16698E+00
 -1      4014 5.49578E-01
 -1      4015 6.07578E-01
 -1      4016 6.84479E-01
 -1      4017 4.30562E-01
 -1      4018 4.81503E-01
 -1      4019 5.29430E-01
 -1      4020 3.33824E-01
 -1      4021 3.77196E-01
 -1      4022 4.07989E-01
 -1      4023 2.55778E-01
 -1      4024 2.91924E-01
 -1      4025 3.12724E-01
 -1      4026 2.06946E-01
 -1      4027 2.26059E-01
 -1      4028 2.41106E-01
 -1      4029 2.06946E-01
 -1      4030 5.02593E+00
 -1      4031 4.75625E+00
 -1      4032 1.47533E+00
 -1      4033 1.60296E+00
 -1      4034 1.46124E+00
 -1      4035 2.15329E+00
 -1      4036 1.77348E+00
 -1      4037 3.14535E+00
 -1      4038 3.96170E+00
 -1      4039 3.43206E+00
 -1      4040 1.64221E-01
 -1      4041 1.47030E-01
 -1      4042 1.99300E-01
 -1      4043 3.03300E+00
 -1      4044 2.60800E+00
 -1      4045 1.55967E-01
 -1      4046 1.77530E-01
 -1      4047 1.79236E-01
 -1      4048 1.53250E-01
 -1      4049 1.25558E-01
 -1      4050 1.15682E-01
 -1      4051 2.21502E+00
 -1      4052 1.95801E+00
 -1      4053 1.69168E+00
 -1      4054 1.05259E-01
 -1      4055 1.17327E-01
 -1      4056 1.30233E-01
 -1      4057 1.66272E-01
 -1      4058 1.51607E+00
 -1      4059 1.28200E+00
 -1      4060 1.64952E+00
 -1      4061 1.03890E-01
 -1      4062 8.57171E-02
 -1      4063 9.36824E-02
 -1      4064 1.04243E-01
 -1      4065 1.60557E-01
 -1      4066 1.76882E-01
 -1      4067 1.94228E-01
 -1      4068 2.03697E+00
 -1      4069 2.51228E+00
 -1      4070 2.57432E+00
 -1      4071 1.78469E+00
 -1      4072 1.26848E+00
 -1      4073 1.85643E-01
 -1      4074 1.85643E-01
 -1      4075 4.81539E-01
 -1      4076 7.82829E-01
 -1      4077 6.79430E-01
 -1      4078 6.09962E-01
 -1      4079 2.65274E+00
 -1      4080 2.98817E+00
 -1      4081 2.29051E+00
 -1      4082 2.60891E+00
 -1      4083 1.75208E-01
 -1      4084 1.58757E-01
 -1      4085 1.54424E-01
 -1      4086 1.43327E-01
 -1      4087 2.79087E+00
 -1      4088 1.03453E-01
 -1      4089 1.03453E-01
 -1      4090 7.33494E-02
 -1      4091 3.93334E+00
 -1      4092 1.15917E-01
 -1      4093 1.11427E-01
 -1      4094 8.05334E-02
 -1      4095 4.36608E+00
 -1      4096 3.38775E+00
 -1      4097 3.49087E+00
 -1      4098 1.75952E+00
 -1      4099 3.03959E-01
 -1      4100 2.58978E-01
 -1      4101 4.70035E+00
 -1      4102 3.82041E+00
 -1      4103 9.79136E-02
 -1      4104 9.58357E-02
 -1      4105 1.09594E-01
 -1      4106 1.59113E-01
 -1      4107 1.40804E-01
 -1      4108 1.42608E-01
 -1      4109 1.52978E-01
 -1      4110 4.06859E-01
 -1      4111 3.54787E-01
 -1      4112 3.40307E-01
 -1      4113 3.65673E+00
 -1      4114 1.23956E-01
 -1      4115 1.62540E-01
 -1      4116 1.59108E-01
 -1      4117 1.74407E-01
 -1      4118 5.28875E-01
 -1      4119 4.69919E-01
 -1      4120 4.54194E-01
 -1      4121 2.79899E+00
 -1      4122 3.43206E+00
 -1      4123 2.61726E+00
 -1      4124 2.87263E-01
 -1      4125 3.20294E-01
 -1      4126 3.61295E-01
 -1      4127 4.04448E-01
 -1      4128 3.53060E-01
 -1      4129 4.56625E-01
 -1      4130 5.14957E-01
 -1      4131 4.46238E-01
 -1      4132 5.72146E-01
 -1      4133 6.52615E-01
 -1      4134 5.55603E-01
 -1      4135 7.46261E-01
 -1      4136 8.72944E-01
 -1      4137 7.06437E-01
 -1      4138 1.06955E+00
 -1      4139 1.27132E+00
 -1      4140 9.96689E-01
 -1      4141 1.52779E+00
 -1      4142 1.75997E+00
 -1      4143 1.44977E+00
 -1      4144 1.23738E-01
 -1      4145 1.40746E-01
 -1      4146 1.52613E-01
 -1      4147 9.55467E-01
 -1      4148 8.28689E-01
 -1      4149 6.99062E-01
 -1      4150 6.12440E-01
 -1      4151 8.30424E-01
 -1      4152 5.21044E-01
 -1      4153 4.59017E-01
 -1      4154 6.09400E-01
 -1      4155 3.91683E-01
 -1      4156 3.45042E-01
 -1      4157 4.50670E-01
 -1      4158 2.88904E-01
 -1      4159 2.52942E-01
 -1      4160 3.27198E-01
 -1      4161 2.05430E-01
 -1      4162 1.84068E-01
 -1      4163 1.67175E-01
 -1      4164 2.23547E-01
 -1      4165 1.05361E+00
 -1      4166 1.16252E+00
 -1      4167 5.81076E-01
 -1      4168 6.49151E-01
 -1      4169 3.37647E+00
 -1      4170 7.78778E-01
 -1      4171 8.65752E-01
 -1      4172 8.30424E-01
 -1      4173 1.42634E+00
 -1      4174 1.60405E+00
 -1      4175 1.59959E+00
 -1      4176 2.72029E+00
 -1      4177 1.83635E+00
 -1      4178 1.57894E+00
 -1      4179 2.43323E+00
 -1      4180 8.96434E-02
 -1      4181 1.09014E-01
 -1      4182 1.09014E-01
 -1      4183 8.72736E-02
 -1      4184 4.36314E-01
 -1      4185 4.89680E-01
 -1      4186 6.09400E-01
 -1      4187 3.27081E-01
 -1      4188 3.68980E-01
 -1      4189 4.50670E-01
 -1      4190 1.60405E+00
 -1      4191 1.72060E+00
 -1      4192 1.86341E+00
 -1      4193 1.16907E+00
 -1      4194 1.03976E+00
 -1      4195 3.65673E+00
 -1      4196 1.54918E+00
 -1      4197 1.42554E+00
 -1      4198 1.44977E+00
 -1      4199 3.30464E+00
 -1      4200 2.92283E+00
 -1      4201 2.31125E+00
 -1      4202 3.14095E+00
 -1      4203 2.31428E-01
 -1      4204 2.57353E-01
 -1      4205 2.82149E-01
 -1      4206 1.89513E-01
 -1      4207 2.05903E-01
 -1      4208 1.86081E-01
 -1      4209 2.21633E-01
 -1      4210 1.92456E-01
 -1      4211 2.52134E-01
 -1      4212 1.93037E+00
 -1      4213 1.62472E+00
 -1      4214 1.78449E-01
 -1      4215 1.67439E-01
 -1      4216 2.00782E-01
 -1      4217 1.39573E+00
 -1      4218 1.17815E+00
 -1      4219 1.63441E+00
 -1      4220 3.32418E+00
 -1      4221 2.76007E+00
 -1      4222 8.41930E-01
 -1      4223 7.38530E-01
 -1      4224 9.95463E-01
 -1      4225 2.26713E-01
 -1      4226 2.10055E+00
 -1      4227 2.57736E+00
 -1      4228 3.13423E+00
 -1      4229 2.04682E+00
 -1      4230 7.43472E-02
 -1      4231 9.38895E-02
 -1      4232 1.04402E-01
 -1      4233 7.35566E-02
 -1      4234 1.14791E+00
 -1      4235 1.18273E+00
 -1      4236 8.16046E-02
 -1      4237 1.25152E-01
 -1      4238 1.07383E-01
 -1      4239 2.74405E+00
 -1      4240 2.51745E-01
 -1      4241 3.08000E-01
 -1      4242 2.22025E-01
 -1      4243 1.82395E-01
 -1      4244 1.86836E-01
 -1      4245 1.59126E-01
 -1      4246 2.24429E+00
 -1      4247 3.65673E+00
 -1      4248 8.32633E-02
 -1      4249 1.73600E+00
 -1      4250 1.72314E-01
 -1      4251 1.57853E-01
 -1      4252 1.42608E-01
 -1      4253 1.40398E-01
 -1      4254 2.78562E-01
 -1      4255 2.41216E-01
 -1      4256 3.11600E+00
 -1      4257 3.11600E+00
 -1      4258 2.60022E+00
 -1      4259 2.21934E+00
 -1      4260 3.60935E-01
 -1      4261 3.10108E-01
 -1      4262 2.99190E-01
 -1      4263 1.57141E-01
 -1      4264 5.98342E-01
 -1      4265 4.72218E-01
 -1      4266 4.09158E-01
 -1      4267 3.78959E-01
 -1      4268 1.43270E-01
 -1      4269 1.61632E-01
 -1      4270 4.10622E-01
 -1      4271 4.62798E-01
 -1      4272 6.12791E-01
 -1      4273 7.06437E-01
 -1      4274 9.96689E-01
 -1      4275 1.19330E+00
 -1      4276 1.44977E+00
 -1      4277 1.70624E+00
 -1      4278 7.00797E-01
 -1      4279 6.09400E-01
 -1      4280 5.18004E-01
 -1      4281 4.50670E-01
 -1      4282 3.83337E-01
 -1      4283 3.27198E-01
 -1      4284 2.61853E-01
 -1      4285 2.35425E-01
 -1      4286 2.21418E-01
 -1      4287 2.28625E-01
 -1      4288 2.54150E-01
 -1      4289 8.30424E-01
 -1      4290 1.37059E+00
 -1      4291 1.63441E+00
 -1      4292 1.05725E-01
 -1      4293 9.01667E-02
 -1      4294 1.86341E+00
 -1      4295 1.86341E+00
 -1      4296 1.05725E-01
 -1      4297 9.77502E-02
 -1      4298 2.59941E-01
 -1      4299 2.89851E-01
 -1      4300 9.60051E-01
 -1      4301 1.14791E+00
 -1      4302 1.80878E-01
 -1      4303 1.95984E-01
 -1      4304 1.71535E-01
 -1      4305 1.60300E-01
 -1      4306 3.21397E-01
 -1      4307 3.62399E-01
 -1      4308 6.28225E-01
 -1      4309 5.47138E-01
 -1      4310 6.87326E-01
 -1      4311 1.88778E-01
 -1      4312 1.74317E-01
 -1      4313 1.74317E-01
 -1      4314 2.23421E-01
 -1      4315 9.87480E-02
 -1      4316 1.28596E-01
 -1      4317 1.22942E-01
 -1      4318 1.37616E-01
 -1      4319 1.37616E-01
 -1      4320 1.55072E-01
 -1      4321 1.71307E+00
 -1      4322 2.05365E+00
 -1      4323 5.14162E-01
 -1      4324 5.71350E-01
 -1      4325 1.71307E+00
 -1      4326 2.04350E-01
 -1      4327 1.95489E-01
 -1      4328 2.51862E-01
 -1      4329 2.23421E-01
 -1      4330 2.41030E+00
 -1      4331 2.61853E-01
 -1      4332 1.74283E+00
 -1      4333 1.97475E-01
 -1      4334 9.03043E-01
 -1      4335 5.02102E-01
 -1      4336 5.71350E-01
 -1      4337 2.21934E+00
 -1      4338 4.78546E-01
 -1      4339 5.53465E-01
 -1      4340 1.74317E-01
 -1      4341 1.90780E-01
 -1      4342 2.23421E-01
 -1      4343 5.94906E-01
 -1      4344 7.05211E-01
 -1      4345 2.56061E-01
 -3
 9999
