    1C
    1UUSER                                                              
    1UDATE              27.october.2022                                 
    1UTIME              00:46:04                                        
    1UHOST                                                              
    1UPGM               CalculiX                                        
    1UVERSION           Version 2.17                             
    1UCOMPILETIME       Thu Jul 23 21:43:50 CEST 2020                    
    1UDIR                                                               
    1UDBN                                                               
    1UMAT    1SOLIDMATERIAL                                             
    2C                          4300                                     1
 -1         1 2.27198E+01 2.67576E+01 0.00000E+00
 -1         2 2.97198E+01 1.97576E+01 0.00000E+00
 -1         3 1.50000E+02 0.00000E+00 0.00000E+00
 -1         4 1.50000E+02 5.00000E+01 0.00000E+00
 -1         5 0.00000E+00 0.00000E+00 0.00000E+00
 -1         6 0.00000E+00 5.00000E+01 0.00000E+00
 -1         7 0.00000E+00 4.70500E+01 0.00000E+00
 -1         8 0.00000E+00 4.41000E+01 0.00000E+00
 -1         9 0.00000E+00 4.11500E+01 0.00000E+00
 -1        10 0.00000E+00 3.82000E+01 0.00000E+00
 -1        11 0.00000E+00 3.52500E+01 0.00000E+00
 -1        12 0.00000E+00 3.23500E+01 0.00000E+00
 -1        13 0.00000E+00 2.94000E+01 0.00000E+00
 -1        14 0.00000E+00 2.64500E+01 0.00000E+00
 -1        15 0.00000E+00 2.35000E+01 0.00000E+00
 -1        16 0.00000E+00 2.05500E+01 0.00000E+00
 -1        17 0.00000E+00 1.76000E+01 0.00000E+00
 -1        18 0.00000E+00 1.47000E+01 0.00000E+00
 -1        19 0.00000E+00 1.17500E+01 0.00000E+00
 -1        20 0.00000E+00 8.80000E+00 0.00000E+00
 -1        21 0.00000E+00 5.85000E+00 0.00000E+00
 -1        22 0.00000E+00 2.90000E+00 0.00000E+00
 -1        23 3.15000E+00 5.00000E+01 0.00000E+00
 -1        24 6.15000E+00 5.00000E+01 0.00000E+00
 -1        25 9.15000E+00 5.00000E+01 0.00000E+00
 -1        26 1.21500E+01 5.00000E+01 0.00000E+00
 -1        27 1.51500E+01 5.00000E+01 0.00000E+00
 -1        28 1.81500E+01 5.00000E+01 0.00000E+00
 -1        29 2.11500E+01 5.00000E+01 0.00000E+00
 -1        30 2.41500E+01 5.00000E+01 0.00000E+00
 -1        31 2.71500E+01 5.00000E+01 0.00000E+00
 -1        32 3.01500E+01 5.00000E+01 0.00000E+00
 -1        33 3.31500E+01 5.00000E+01 0.00000E+00
 -1        34 3.61500E+01 5.00000E+01 0.00000E+00
 -1        35 3.91500E+01 5.00000E+01 0.00000E+00
 -1        36 4.21500E+01 5.00000E+01 0.00000E+00
 -1        37 4.51500E+01 5.00000E+01 0.00000E+00
 -1        38 4.81500E+01 5.00000E+01 0.00000E+00
 -1        39 5.11500E+01 5.00000E+01 0.00000E+00
 -1        40 5.41500E+01 5.00000E+01 0.00000E+00
 -1        41 5.71500E+01 5.00000E+01 0.00000E+00
 -1        42 6.01500E+01 5.00000E+01 0.00000E+00
 -1        43 6.31500E+01 5.00000E+01 0.00000E+00
 -1        44 6.61500E+01 5.00000E+01 0.00000E+00
 -1        45 6.91500E+01 5.00000E+01 0.00000E+00
 -1        46 7.21500E+01 5.00000E+01 0.00000E+00
 -1        47 7.51500E+01 5.00000E+01 0.00000E+00
 -1        48 7.81500E+01 5.00000E+01 0.00000E+00
 -1        49 8.11500E+01 5.00000E+01 0.00000E+00
 -1        50 8.41500E+01 5.00000E+01 0.00000E+00
 -1        51 8.71500E+01 5.00000E+01 0.00000E+00
 -1        52 9.01500E+01 5.00000E+01 0.00000E+00
 -1        53 9.31500E+01 5.00000E+01 0.00000E+00
 -1        54 9.61500E+01 5.00000E+01 0.00000E+00
 -1        55 9.91500E+01 5.00000E+01 0.00000E+00
 -1        56 1.02150E+02 5.00000E+01 0.00000E+00
 -1        57 1.05150E+02 5.00000E+01 0.00000E+00
 -1        58 1.08150E+02 5.00000E+01 0.00000E+00
 -1        59 1.11150E+02 5.00000E+01 0.00000E+00
 -1        60 1.14150E+02 5.00000E+01 0.00000E+00
 -1        61 1.17150E+02 5.00000E+01 0.00000E+00
 -1        62 1.20150E+02 5.00000E+01 0.00000E+00
 -1        63 1.23150E+02 5.00000E+01 0.00000E+00
 -1        64 1.26150E+02 5.00000E+01 0.00000E+00
 -1        65 1.29150E+02 5.00000E+01 0.00000E+00
 -1        66 1.32150E+02 5.00000E+01 0.00000E+00
 -1        67 1.35150E+02 5.00000E+01 0.00000E+00
 -1        68 1.38150E+02 5.00000E+01 0.00000E+00
 -1        69 1.41150E+02 5.00000E+01 0.00000E+00
 -1        70 1.44150E+02 5.00000E+01 0.00000E+00
 -1        71 1.47150E+02 5.00000E+01 0.00000E+00
 -1        72 3.15000E+00 0.00000E+00 0.00000E+00
 -1        73 6.15000E+00 0.00000E+00 0.00000E+00
 -1        74 9.15000E+00 0.00000E+00 0.00000E+00
 -1        75 1.21500E+01 0.00000E+00 0.00000E+00
 -1        76 1.51500E+01 0.00000E+00 0.00000E+00
 -1        77 1.81500E+01 0.00000E+00 0.00000E+00
 -1        78 2.11500E+01 0.00000E+00 0.00000E+00
 -1        79 2.41500E+01 0.00000E+00 0.00000E+00
 -1        80 2.71500E+01 0.00000E+00 0.00000E+00
 -1        81 3.01500E+01 0.00000E+00 0.00000E+00
 -1        82 3.31500E+01 0.00000E+00 0.00000E+00
 -1        83 3.61500E+01 0.00000E+00 0.00000E+00
 -1        84 3.91500E+01 0.00000E+00 0.00000E+00
 -1        85 4.21500E+01 0.00000E+00 0.00000E+00
 -1        86 4.51500E+01 0.00000E+00 0.00000E+00
 -1        87 4.81500E+01 0.00000E+00 0.00000E+00
 -1        88 5.11500E+01 0.00000E+00 0.00000E+00
 -1        89 5.41500E+01 0.00000E+00 0.00000E+00
 -1        90 5.71500E+01 0.00000E+00 0.00000E+00
 -1        91 6.01500E+01 0.00000E+00 0.00000E+00
 -1        92 6.31500E+01 0.00000E+00 0.00000E+00
 -1        93 6.61500E+01 0.00000E+00 0.00000E+00
 -1        94 6.91500E+01 0.00000E+00 0.00000E+00
 -1        95 7.21500E+01 0.00000E+00 0.00000E+00
 -1        96 7.51500E+01 0.00000E+00 0.00000E+00
 -1        97 7.81500E+01 0.00000E+00 0.00000E+00
 -1        98 8.11500E+01 0.00000E+00 0.00000E+00
 -1        99 8.41500E+01 0.00000E+00 0.00000E+00
 -1       100 8.71500E+01 0.00000E+00 0.00000E+00
 -1       101 9.01500E+01 0.00000E+00 0.00000E+00
 -1       102 9.31500E+01 0.00000E+00 0.00000E+00
 -1       103 9.61500E+01 0.00000E+00 0.00000E+00
 -1       104 9.91500E+01 0.00000E+00 0.00000E+00
 -1       105 1.02150E+02 0.00000E+00 0.00000E+00
 -1       106 1.05150E+02 0.00000E+00 0.00000E+00
 -1       107 1.08150E+02 0.00000E+00 0.00000E+00
 -1       108 1.11150E+02 0.00000E+00 0.00000E+00
 -1       109 1.14150E+02 0.00000E+00 0.00000E+00
 -1       110 1.17150E+02 0.00000E+00 0.00000E+00
 -1       111 1.20150E+02 0.00000E+00 0.00000E+00
 -1       112 1.23150E+02 0.00000E+00 0.00000E+00
 -1       113 1.26150E+02 0.00000E+00 0.00000E+00
 -1       114 1.29150E+02 0.00000E+00 0.00000E+00
 -1       115 1.32150E+02 0.00000E+00 0.00000E+00
 -1       116 1.35150E+02 0.00000E+00 0.00000E+00
 -1       117 1.38150E+02 0.00000E+00 0.00000E+00
 -1       118 1.41150E+02 0.00000E+00 0.00000E+00
 -1       119 1.44150E+02 0.00000E+00 0.00000E+00
 -1       120 1.47150E+02 0.00000E+00 0.00000E+00
 -1       121 1.50000E+02 2.95000E+00 0.00000E+00
 -1       122 1.50000E+02 5.90000E+00 0.00000E+00
 -1       123 1.50000E+02 8.85000E+00 0.00000E+00
 -1       124 1.50000E+02 1.18000E+01 0.00000E+00
 -1       125 1.50000E+02 1.47500E+01 0.00000E+00
 -1       126 1.50000E+02 1.76500E+01 0.00000E+00
 -1       127 1.50000E+02 2.06000E+01 0.00000E+00
 -1       128 1.50000E+02 2.35500E+01 0.00000E+00
 -1       129 1.50000E+02 2.65000E+01 0.00000E+00
 -1       130 1.50000E+02 2.94500E+01 0.00000E+00
 -1       131 1.50000E+02 3.24000E+01 0.00000E+00
 -1       132 1.50000E+02 3.53000E+01 0.00000E+00
 -1       133 1.50000E+02 3.82500E+01 0.00000E+00
 -1       134 1.50000E+02 4.12000E+01 0.00000E+00
 -1       135 1.50000E+02 4.41500E+01 0.00000E+00
 -1       136 1.50000E+02 4.71000E+01 0.00000E+00
 -1       137 2.95573E+01 1.82579E+01 0.00000E+00
 -1       138 2.90624E+01 1.67959E+01 0.00000E+00
 -1       139 2.83468E+01 1.55939E+01 0.00000E+00
 -1       140 2.73431E+01 1.45016E+01 0.00000E+00
 -1       141 2.60948E+01 1.36249E+01 0.00000E+00
 -1       142 2.46097E+01 1.30175E+01 0.00000E+00
 -1       143 2.31357E+01 1.27699E+01 0.00000E+00
 -1       144 2.15856E+01 1.28500E+01 0.00000E+00
 -1       145 2.01723E+01 1.32376E+01 0.00000E+00
 -1       146 1.89108E+01 1.38846E+01 0.00000E+00
 -1       147 1.77545E+01 1.48233E+01 0.00000E+00
 -1       148 1.68254E+01 1.59817E+01 0.00000E+00
 -1       149 1.61685E+01 1.72916E+01 0.00000E+00
 -1       150 1.58066E+01 1.86584E+01 0.00000E+00
 -1       151 1.57350E+01 2.02185E+01 0.00000E+00
 -1       152 1.59741E+01 2.16275E+01 0.00000E+00
 -1       153 1.66132E+01 2.31795E+01 0.00000E+00
 -1       154 1.74343E+01 2.43471E+01 0.00000E+00
 -1       155 1.84971E+01 2.53405E+01 0.00000E+00
 -1       156 1.97113E+01 2.60781E+01 0.00000E+00
 -1       157 2.11829E+01 2.65868E+01 0.00000E+00
 -1       158 2.40766E+01 2.66248E+01 0.00000E+00
 -1       159 2.54098E+01 2.62200E+01 0.00000E+00
 -1       160 2.66000E+01 2.55837E+01 0.00000E+00
 -1       161 2.76331E+01 2.47434E+01 0.00000E+00
 -1       162 2.85256E+01 2.36681E+01 0.00000E+00
 -1       163 2.91780E+01 2.24578E+01 0.00000E+00
 -1       164 2.95974E+01 2.10606E+01 0.00000E+00
 -1       165 2.59800E+00 4.55750E+01 0.00000E+00
 -1       166 2.59800E+00 4.26250E+01 0.00000E+00
 -1       167 2.59800E+00 3.96750E+01 0.00000E+00
 -1       168 2.59800E+00 3.67250E+01 0.00000E+00
 -1       169 2.59800E+00 3.38250E+01 0.00000E+00
 -1       170 2.59800E+00 3.08750E+01 0.00000E+00
 -1       171 2.59800E+00 2.79250E+01 0.00000E+00
 -1       172 2.59800E+00 2.49750E+01 0.00000E+00
 -1       173 2.59800E+00 2.20250E+01 0.00000E+00
 -1       174 2.59800E+00 1.90750E+01 0.00000E+00
 -1       175 2.59800E+00 1.61750E+01 0.00000E+00
 -1       176 2.59800E+00 1.32250E+01 0.00000E+00
 -1       177 2.59800E+00 1.02750E+01 0.00000E+00
 -1       178 2.59800E+00 7.32500E+00 0.00000E+00
 -1       179 2.59800E+00 4.37500E+00 0.00000E+00
 -1       180 2.87400E+00 2.18750E+00 0.00000E+00
 -1       181 4.65000E+00 4.74020E+01 0.00000E+00
 -1       182 7.65000E+00 4.74020E+01 0.00000E+00
 -1       183 1.06500E+01 4.74020E+01 0.00000E+00
 -1       184 1.36500E+01 4.74020E+01 0.00000E+00
 -1       185 1.66500E+01 4.74020E+01 0.00000E+00
 -1       186 1.96500E+01 4.74020E+01 0.00000E+00
 -1       187 2.26500E+01 4.74020E+01 0.00000E+00
 -1       188 2.56500E+01 4.74020E+01 0.00000E+00
 -1       189 2.86500E+01 4.74020E+01 0.00000E+00
 -1       190 3.16500E+01 4.74020E+01 0.00000E+00
 -1       191 3.46500E+01 4.74020E+01 0.00000E+00
 -1       192 3.76500E+01 4.74020E+01 0.00000E+00
 -1       193 4.06500E+01 4.74020E+01 0.00000E+00
 -1       194 4.36500E+01 4.74020E+01 0.00000E+00
 -1       195 4.66500E+01 4.74020E+01 0.00000E+00
 -1       196 4.96500E+01 4.74020E+01 0.00000E+00
 -1       197 5.26500E+01 4.74020E+01 0.00000E+00
 -1       198 5.56500E+01 4.74020E+01 0.00000E+00
 -1       199 5.86500E+01 4.74020E+01 0.00000E+00
 -1       200 6.16500E+01 4.74020E+01 0.00000E+00
 -1       201 6.46500E+01 4.74020E+01 0.00000E+00
 -1       202 6.76500E+01 4.74020E+01 0.00000E+00
 -1       203 7.06500E+01 4.74020E+01 0.00000E+00
 -1       204 7.36500E+01 4.74020E+01 0.00000E+00
 -1       205 7.66500E+01 4.74020E+01 0.00000E+00
 -1       206 7.96500E+01 4.74020E+01 0.00000E+00
 -1       207 8.26500E+01 4.74020E+01 0.00000E+00
 -1       208 8.56500E+01 4.74020E+01 0.00000E+00
 -1       209 8.86500E+01 4.74020E+01 0.00000E+00
 -1       210 9.16500E+01 4.74020E+01 0.00000E+00
 -1       211 9.46500E+01 4.74020E+01 0.00000E+00
 -1       212 9.76500E+01 4.74020E+01 0.00000E+00
 -1       213 1.00650E+02 4.74020E+01 0.00000E+00
 -1       214 1.03650E+02 4.74020E+01 0.00000E+00
 -1       215 1.06650E+02 4.74020E+01 0.00000E+00
 -1       216 1.09650E+02 4.74020E+01 0.00000E+00
 -1       217 1.12650E+02 4.74020E+01 0.00000E+00
 -1       218 1.15650E+02 4.74020E+01 0.00000E+00
 -1       219 1.18650E+02 4.74020E+01 0.00000E+00
 -1       220 1.21650E+02 4.74020E+01 0.00000E+00
 -1       221 1.24650E+02 4.74020E+01 0.00000E+00
 -1       222 1.27650E+02 4.74020E+01 0.00000E+00
 -1       223 1.30650E+02 4.74020E+01 0.00000E+00
 -1       224 1.33650E+02 4.74020E+01 0.00000E+00
 -1       225 1.36650E+02 4.74020E+01 0.00000E+00
 -1       226 1.39650E+02 4.74020E+01 0.00000E+00
 -1       227 1.42650E+02 4.74020E+01 0.00000E+00
 -1       228 1.45650E+02 4.74020E+01 0.00000E+00
 -1       229 5.87400E+00 2.18750E+00 0.00000E+00
 -1       230 8.87400E+00 2.18750E+00 0.00000E+00
 -1       231 1.18740E+01 2.18750E+00 0.00000E+00
 -1       232 1.48740E+01 2.18750E+00 0.00000E+00
 -1       233 1.78740E+01 2.18750E+00 0.00000E+00
 -1       234 2.08740E+01 2.18750E+00 0.00000E+00
 -1       235 2.38740E+01 2.18750E+00 0.00000E+00
 -1       236 2.68740E+01 2.18750E+00 0.00000E+00
 -1       237 2.98740E+01 2.18750E+00 0.00000E+00
 -1       238 3.28740E+01 2.18750E+00 0.00000E+00
 -1       239 3.58740E+01 2.18750E+00 0.00000E+00
 -1       240 3.88740E+01 2.18750E+00 0.00000E+00
 -1       241 4.18740E+01 2.18750E+00 0.00000E+00
 -1       242 4.48740E+01 2.18750E+00 0.00000E+00
 -1       243 4.78740E+01 2.18750E+00 0.00000E+00
 -1       244 5.08740E+01 2.18750E+00 0.00000E+00
 -1       245 5.38740E+01 2.18750E+00 0.00000E+00
 -1       246 5.68740E+01 2.18750E+00 0.00000E+00
 -1       247 5.98740E+01 2.18750E+00 0.00000E+00
 -1       248 6.28740E+01 2.18750E+00 0.00000E+00
 -1       249 6.58740E+01 2.18750E+00 0.00000E+00
 -1       250 6.88740E+01 2.18750E+00 0.00000E+00
 -1       251 7.18740E+01 2.18750E+00 0.00000E+00
 -1       252 7.48740E+01 2.18750E+00 0.00000E+00
 -1       253 7.78740E+01 2.18750E+00 0.00000E+00
 -1       254 8.08740E+01 2.18750E+00 0.00000E+00
 -1       255 8.38740E+01 2.18750E+00 0.00000E+00
 -1       256 8.68740E+01 2.18750E+00 0.00000E+00
 -1       257 8.98740E+01 2.18750E+00 0.00000E+00
 -1       258 9.28740E+01 2.18750E+00 0.00000E+00
 -1       259 9.58740E+01 2.18750E+00 0.00000E+00
 -1       260 9.88740E+01 2.18750E+00 0.00000E+00
 -1       261 1.01874E+02 2.18750E+00 0.00000E+00
 -1       262 1.04874E+02 2.18750E+00 0.00000E+00
 -1       263 1.07874E+02 2.18750E+00 0.00000E+00
 -1       264 1.10874E+02 2.18750E+00 0.00000E+00
 -1       265 1.13874E+02 2.18750E+00 0.00000E+00
 -1       266 1.16874E+02 2.18750E+00 0.00000E+00
 -1       267 1.19874E+02 2.18750E+00 0.00000E+00
 -1       268 1.22874E+02 2.18750E+00 0.00000E+00
 -1       269 1.25874E+02 2.18750E+00 0.00000E+00
 -1       270 1.28874E+02 2.18750E+00 0.00000E+00
 -1       271 1.31874E+02 2.18750E+00 0.00000E+00
 -1       272 1.34874E+02 2.18750E+00 0.00000E+00
 -1       273 1.37874E+02 2.18750E+00 0.00000E+00
 -1       274 1.40874E+02 2.18750E+00 0.00000E+00
 -1       275 1.43874E+02 2.18750E+00 0.00000E+00
 -1       276 1.46874E+02 2.18750E+00 0.00000E+00
 -1       277 1.47402E+02 4.42500E+00 0.00000E+00
 -1       278 1.47402E+02 7.37500E+00 0.00000E+00
 -1       279 1.47402E+02 1.03250E+01 0.00000E+00
 -1       280 1.47402E+02 1.32750E+01 0.00000E+00
 -1       281 1.47402E+02 1.61750E+01 0.00000E+00
 -1       282 1.47402E+02 1.91250E+01 0.00000E+00
 -1       283 1.47402E+02 2.20750E+01 0.00000E+00
 -1       284 1.47402E+02 2.50250E+01 0.00000E+00
 -1       285 1.47402E+02 2.79750E+01 0.00000E+00
 -1       286 1.47402E+02 3.09250E+01 0.00000E+00
 -1       287 1.47402E+02 3.38250E+01 0.00000E+00
 -1       288 1.47402E+02 3.67750E+01 0.00000E+00
 -1       289 1.47402E+02 3.97250E+01 0.00000E+00
 -1       290 1.47402E+02 4.26750E+01 0.00000E+00
 -1       291 1.46526E+02 4.50385E+01 0.00000E+00
 -1       292 3.09272E+01 1.88681E+01 0.00000E+00
 -1       293 3.06169E+01 1.70845E+01 0.00000E+00
 -1       294 2.97464E+01 1.55747E+01 0.00000E+00
 -1       295 2.87993E+01 1.41707E+01 0.00000E+00
 -1       296 2.74639E+01 1.30025E+01 0.00000E+00
 -1       297 2.58112E+01 1.21991E+01 0.00000E+00
 -1       298 2.40735E+01 1.16981E+01 0.00000E+00
 -1       299 2.22894E+01 1.14319E+01 0.00000E+00
 -1       300 2.05362E+01 1.17938E+01 0.00000E+00
 -1       301 1.88735E+01 1.22586E+01 0.00000E+00
 -1       302 1.75157E+01 1.33477E+01 0.00000E+00
 -1       303 1.63442E+01 1.46440E+01 0.00000E+00
 -1       304 1.54132E+01 1.60931E+01 0.00000E+00
 -1       305 1.48156E+01 1.76647E+01 0.00000E+00
 -1       306 1.43923E+01 1.93751E+01 0.00000E+00
 -1       307 1.46593E+01 2.11259E+01 0.00000E+00
 -1       308 1.48627E+01 2.29927E+01 0.00000E+00
 -1       309 1.60320E+01 2.44607E+01 0.00000E+00
 -1       310 1.71378E+01 2.57295E+01 0.00000E+00
 -1       311 1.84747E+01 2.67455E+01 0.00000E+00
 -1       312 1.99415E+01 2.77950E+01 0.00000E+00
 -1       313 2.17989E+01 2.80437E+01 0.00000E+00
 -1       314 2.35162E+01 2.78978E+01 0.00000E+00
 -1       315 2.51198E+01 2.76627E+01 0.00000E+00
 -1       316 2.65766E+01 2.69710E+01 0.00000E+00
 -1       317 2.78815E+01 2.61042E+01 0.00000E+00
 -1       318 2.90123E+01 2.49801E+01 0.00000E+00
 -1       319 2.99190E+01 2.36383E+01 0.00000E+00
 -1       320 3.07094E+01 2.21560E+01 0.00000E+00
 -1       321 3.08657E+01 2.05224E+01 0.00000E+00
 -1       322 5.19600E+00 4.11500E+01 0.00000E+00
 -1       323 5.19600E+00 4.41000E+01 0.00000E+00
 -1       324 5.19600E+00 3.52750E+01 0.00000E+00
 -1       325 5.19600E+00 3.23250E+01 0.00000E+00
 -1       326 5.19600E+00 2.93750E+01 0.00000E+00
 -1       327 5.19600E+00 2.64250E+01 0.00000E+00
 -1       328 5.19600E+00 2.34750E+01 0.00000E+00
 -1       329 5.19600E+00 2.05250E+01 0.00000E+00
 -1       330 5.19600E+00 1.76250E+01 0.00000E+00
 -1       331 5.19600E+00 1.46750E+01 0.00000E+00
 -1       332 5.19600E+00 1.17250E+01 0.00000E+00
 -1       333 5.19600E+00 8.77500E+00 0.00000E+00
 -1       334 5.19600E+00 5.82500E+00 0.00000E+00
 -1       335 5.53500E+00 4.00625E+00 0.00000E+00
 -1       336 8.53500E+00 4.00625E+00 0.00000E+00
 -1       337 9.15000E+00 4.48040E+01 0.00000E+00
 -1       338 1.21500E+01 4.48040E+01 0.00000E+00
 -1       339 1.51500E+01 4.48040E+01 0.00000E+00
 -1       340 1.81500E+01 4.48040E+01 0.00000E+00
 -1       341 2.11500E+01 4.48040E+01 0.00000E+00
 -1       342 2.41500E+01 4.48040E+01 0.00000E+00
 -1       343 2.71500E+01 4.48040E+01 0.00000E+00
 -1       344 3.01500E+01 4.48040E+01 0.00000E+00
 -1       345 3.31500E+01 4.48040E+01 0.00000E+00
 -1       346 3.61500E+01 4.48040E+01 0.00000E+00
 -1       347 3.91500E+01 4.48040E+01 0.00000E+00
 -1       348 4.21500E+01 4.48040E+01 0.00000E+00
 -1       349 4.51500E+01 4.48040E+01 0.00000E+00
 -1       350 4.81500E+01 4.48040E+01 0.00000E+00
 -1       351 5.11500E+01 4.48040E+01 0.00000E+00
 -1       352 5.41500E+01 4.48040E+01 0.00000E+00
 -1       353 5.71500E+01 4.48040E+01 0.00000E+00
 -1       354 6.01500E+01 4.48040E+01 0.00000E+00
 -1       355 6.31500E+01 4.48040E+01 0.00000E+00
 -1       356 6.61500E+01 4.48040E+01 0.00000E+00
 -1       357 6.91500E+01 4.48040E+01 0.00000E+00
 -1       358 7.21500E+01 4.48040E+01 0.00000E+00
 -1       359 7.51500E+01 4.48040E+01 0.00000E+00
 -1       360 7.81500E+01 4.48040E+01 0.00000E+00
 -1       361 8.11500E+01 4.48040E+01 0.00000E+00
 -1       362 8.41500E+01 4.48040E+01 0.00000E+00
 -1       363 8.71500E+01 4.48040E+01 0.00000E+00
 -1       364 9.01500E+01 4.48040E+01 0.00000E+00
 -1       365 9.31500E+01 4.48040E+01 0.00000E+00
 -1       366 9.61500E+01 4.48040E+01 0.00000E+00
 -1       367 9.91500E+01 4.48040E+01 0.00000E+00
 -1       368 1.02150E+02 4.48040E+01 0.00000E+00
 -1       369 1.05150E+02 4.48040E+01 0.00000E+00
 -1       370 1.08150E+02 4.48040E+01 0.00000E+00
 -1       371 1.11150E+02 4.48040E+01 0.00000E+00
 -1       372 1.14150E+02 4.48040E+01 0.00000E+00
 -1       373 1.17150E+02 4.48040E+01 0.00000E+00
 -1       374 1.20150E+02 4.48040E+01 0.00000E+00
 -1       375 1.23150E+02 4.48040E+01 0.00000E+00
 -1       376 1.26150E+02 4.48040E+01 0.00000E+00
 -1       377 1.29150E+02 4.48040E+01 0.00000E+00
 -1       378 1.32150E+02 4.48040E+01 0.00000E+00
 -1       379 1.35150E+02 4.48040E+01 0.00000E+00
 -1       380 1.38150E+02 4.48040E+01 0.00000E+00
 -1       381 1.41150E+02 4.48040E+01 0.00000E+00
 -1       382 1.43838E+02 4.49212E+01 0.00000E+00
 -1       383 1.15350E+01 4.00625E+00 0.00000E+00
 -1       384 1.45350E+01 4.00625E+00 0.00000E+00
 -1       385 1.75350E+01 4.00625E+00 0.00000E+00
 -1       386 2.05350E+01 4.00625E+00 0.00000E+00
 -1       387 2.35350E+01 4.00625E+00 0.00000E+00
 -1       388 2.65350E+01 4.00625E+00 0.00000E+00
 -1       389 2.95350E+01 4.00625E+00 0.00000E+00
 -1       390 3.25350E+01 4.00625E+00 0.00000E+00
 -1       391 3.55350E+01 4.00625E+00 0.00000E+00
 -1       392 3.85350E+01 4.00625E+00 0.00000E+00
 -1       393 4.15350E+01 4.00625E+00 0.00000E+00
 -1       394 4.45350E+01 4.00625E+00 0.00000E+00
 -1       395 4.75350E+01 4.00625E+00 0.00000E+00
 -1       396 5.05350E+01 4.00625E+00 0.00000E+00
 -1       397 5.35350E+01 4.00625E+00 0.00000E+00
 -1       398 5.65350E+01 4.00625E+00 0.00000E+00
 -1       399 5.95350E+01 4.00625E+00 0.00000E+00
 -1       400 6.25350E+01 4.00625E+00 0.00000E+00
 -1       401 6.55350E+01 4.00625E+00 0.00000E+00
 -1       402 6.85350E+01 4.00625E+00 0.00000E+00
 -1       403 7.15350E+01 4.00625E+00 0.00000E+00
 -1       404 7.45350E+01 4.00625E+00 0.00000E+00
 -1       405 7.75350E+01 4.00625E+00 0.00000E+00
 -1       406 8.05350E+01 4.00625E+00 0.00000E+00
 -1       407 8.35350E+01 4.00625E+00 0.00000E+00
 -1       408 8.65350E+01 4.00625E+00 0.00000E+00
 -1       409 8.95350E+01 4.00625E+00 0.00000E+00
 -1       410 9.25350E+01 4.00625E+00 0.00000E+00
 -1       411 9.55350E+01 4.00625E+00 0.00000E+00
 -1       412 9.85350E+01 4.00625E+00 0.00000E+00
 -1       413 1.01535E+02 4.00625E+00 0.00000E+00
 -1       414 1.04535E+02 4.00625E+00 0.00000E+00
 -1       415 1.07535E+02 4.00625E+00 0.00000E+00
 -1       416 1.10535E+02 4.00625E+00 0.00000E+00
 -1       417 1.13535E+02 4.00625E+00 0.00000E+00
 -1       418 1.16535E+02 4.00625E+00 0.00000E+00
 -1       419 1.19535E+02 4.00625E+00 0.00000E+00
 -1       420 1.22535E+02 4.00625E+00 0.00000E+00
 -1       421 1.25535E+02 4.00625E+00 0.00000E+00
 -1       422 1.28535E+02 4.00625E+00 0.00000E+00
 -1       423 1.31535E+02 4.00625E+00 0.00000E+00
 -1       424 1.34535E+02 4.00625E+00 0.00000E+00
 -1       425 1.37535E+02 4.00625E+00 0.00000E+00
 -1       426 1.40535E+02 4.00625E+00 0.00000E+00
 -1       427 1.43535E+02 4.00625E+00 0.00000E+00
 -1       428 1.45469E+02 4.21562E+00 0.00000E+00
 -1       429 1.44804E+02 1.18000E+01 0.00000E+00
 -1       430 1.44804E+02 8.85000E+00 0.00000E+00
 -1       431 1.45136E+02 6.53281E+00 0.00000E+00
 -1       432 1.44804E+02 1.47000E+01 0.00000E+00
 -1       433 1.44804E+02 1.76500E+01 0.00000E+00
 -1       434 1.44804E+02 2.06000E+01 0.00000E+00
 -1       435 1.44804E+02 2.35500E+01 0.00000E+00
 -1       436 1.44804E+02 2.65000E+01 0.00000E+00
 -1       437 1.44804E+02 2.94500E+01 0.00000E+00
 -1       438 1.44804E+02 3.23500E+01 0.00000E+00
 -1       439 1.44804E+02 3.53000E+01 0.00000E+00
 -1       440 1.44804E+02 3.82500E+01 0.00000E+00
 -1       441 1.44804E+02 4.12000E+01 0.00000E+00
 -1       442 3.15949E+01 1.55147E+01 0.00000E+00
 -1       443 3.21917E+01 1.97434E+01 0.00000E+00
 -1       444 3.22142E+01 1.77255E+01 0.00000E+00
 -1       445 3.06478E+01 1.41107E+01 0.00000E+00
 -1       446 2.89298E+01 1.26740E+01 0.00000E+00
 -1       447 5.19600E+00 3.82125E+01 0.00000E+00
 -1       448 2.53943E+01 1.03811E+01 0.00000E+00
 -1       449 2.36102E+01 1.01149E+01 0.00000E+00
 -1       450 2.11000E+01 1.00972E+01 0.00000E+00
 -1       451 1.94373E+01 1.05621E+01 0.00000E+00
 -1       452 1.73312E+01 1.17266E+01 0.00000E+00
 -1       453 1.57818E+01 1.29582E+01 0.00000E+00
 -1       454 1.47882E+01 1.46680E+01 0.00000E+00
 -1       455 1.36679E+01 1.63288E+01 0.00000E+00
 -1       456 1.31830E+01 1.81683E+01 0.00000E+00
 -1       457 1.29959E+01 2.04838E+01 0.00000E+00
 -1       458 1.31993E+01 2.23506E+01 0.00000E+00
 -1       459 1.42369E+01 2.46909E+01 0.00000E+00
 -1       460 1.53427E+01 2.59597E+01 0.00000E+00
 -1       461 1.69713E+01 2.73362E+01 0.00000E+00
 -1       462 1.84051E+01 2.83925E+01 0.00000E+00
 -1       463 2.06649E+01 2.94532E+01 0.00000E+00
 -1       464 2.27744E+01 2.93458E+01 0.00000E+00
 -1       465 2.45060E+01 2.90627E+01 0.00000E+00
 -1       466 2.64760E+01 2.86392E+01 0.00000E+00
 -1       467 2.77809E+01 2.77723E+01 0.00000E+00
 -1       468 2.94198E+01 2.65208E+01 0.00000E+00
 -1       469 3.06090E+01 2.50818E+01 0.00000E+00
 -1       470 3.15319E+01 2.35465E+01 0.00000E+00
 -1       471 3.20354E+01 2.13770E+01 0.00000E+00
 -1       472 2.73142E+01 1.12090E+01 0.00000E+00
 -1       473 1.91284E+01 3.00507E+01 0.00000E+00
 -1       474 1.25735E+01 2.40488E+01 0.00000E+00
 -1       475 1.00350E+01 6.60425E+00 0.00000E+00
 -1       476 7.79400E+00 3.08500E+01 0.00000E+00
 -1       477 7.79400E+00 3.38000E+01 0.00000E+00
 -1       478 7.79400E+00 2.49500E+01 0.00000E+00
 -1       479 7.79400E+00 2.20000E+01 0.00000E+00
 -1       480 7.79400E+00 1.91000E+01 0.00000E+00
 -1       481 7.79400E+00 1.61500E+01 0.00000E+00
 -1       482 7.79400E+00 1.32000E+01 0.00000E+00
 -1       483 7.79400E+00 1.02500E+01 0.00000E+00
 -1       484 1.30350E+01 6.60425E+00 0.00000E+00
 -1       485 1.06500E+01 4.22060E+01 0.00000E+00
 -1       486 2.70334E+01 9.22014E+00 0.00000E+00
 -1       487 1.36500E+01 4.22060E+01 0.00000E+00
 -1       488 1.66500E+01 4.22060E+01 0.00000E+00
 -1       489 1.96500E+01 4.22060E+01 0.00000E+00
 -1       490 2.26500E+01 4.22060E+01 0.00000E+00
 -1       491 2.56500E+01 4.22060E+01 0.00000E+00
 -1       492 2.86500E+01 4.22060E+01 0.00000E+00
 -1       493 3.16500E+01 4.22060E+01 0.00000E+00
 -1       494 3.46500E+01 4.22060E+01 0.00000E+00
 -1       495 3.76500E+01 4.22060E+01 0.00000E+00
 -1       496 4.06500E+01 4.22060E+01 0.00000E+00
 -1       497 4.36500E+01 4.22060E+01 0.00000E+00
 -1       498 4.66500E+01 4.22060E+01 0.00000E+00
 -1       499 4.96500E+01 4.22060E+01 0.00000E+00
 -1       500 5.26500E+01 4.22060E+01 0.00000E+00
 -1       501 5.56500E+01 4.22060E+01 0.00000E+00
 -1       502 5.86500E+01 4.22060E+01 0.00000E+00
 -1       503 6.16500E+01 4.22060E+01 0.00000E+00
 -1       504 6.46500E+01 4.22060E+01 0.00000E+00
 -1       505 6.76500E+01 4.22060E+01 0.00000E+00
 -1       506 7.06500E+01 4.22060E+01 0.00000E+00
 -1       507 7.36500E+01 4.22060E+01 0.00000E+00
 -1       508 7.66500E+01 4.22060E+01 0.00000E+00
 -1       509 7.96500E+01 4.22060E+01 0.00000E+00
 -1       510 8.26500E+01 4.22060E+01 0.00000E+00
 -1       511 8.56500E+01 4.22060E+01 0.00000E+00
 -1       512 8.86500E+01 4.22060E+01 0.00000E+00
 -1       513 9.16500E+01 4.22060E+01 0.00000E+00
 -1       514 9.46500E+01 4.22060E+01 0.00000E+00
 -1       515 9.76500E+01 4.22060E+01 0.00000E+00
 -1       516 1.00650E+02 4.22060E+01 0.00000E+00
 -1       517 1.03650E+02 4.22060E+01 0.00000E+00
 -1       518 1.06650E+02 4.22060E+01 0.00000E+00
 -1       519 1.09650E+02 4.22060E+01 0.00000E+00
 -1       520 1.12650E+02 4.22060E+01 0.00000E+00
 -1       521 1.15650E+02 4.22060E+01 0.00000E+00
 -1       522 1.18650E+02 4.22060E+01 0.00000E+00
 -1       523 1.21650E+02 4.22060E+01 0.00000E+00
 -1       524 1.24650E+02 4.22060E+01 0.00000E+00
 -1       525 1.27650E+02 4.22060E+01 0.00000E+00
 -1       526 1.30650E+02 4.22060E+01 0.00000E+00
 -1       527 1.33650E+02 4.22060E+01 0.00000E+00
 -1       528 1.36650E+02 4.22060E+01 0.00000E+00
 -1       529 1.39650E+02 4.22060E+01 0.00000E+00
 -1       530 1.90350E+01 6.22407E+00 0.00000E+00
 -1       531 2.20350E+01 6.22407E+00 0.00000E+00
 -1       532 2.50350E+01 6.22407E+00 0.00000E+00
 -1       533 2.80350E+01 6.39164E+00 0.00000E+00
 -1       534 3.10350E+01 6.39164E+00 0.00000E+00
 -1       535 3.40350E+01 6.39164E+00 0.00000E+00
 -1       536 3.70350E+01 6.39164E+00 0.00000E+00
 -1       537 4.00350E+01 6.39164E+00 0.00000E+00
 -1       538 4.30350E+01 6.39164E+00 0.00000E+00
 -1       539 4.60350E+01 6.39164E+00 0.00000E+00
 -1       540 4.90350E+01 6.39164E+00 0.00000E+00
 -1       541 5.20350E+01 6.39164E+00 0.00000E+00
 -1       542 5.50350E+01 6.39164E+00 0.00000E+00
 -1       543 5.80350E+01 6.39164E+00 0.00000E+00
 -1       544 6.10350E+01 6.39164E+00 0.00000E+00
 -1       545 6.40350E+01 6.39164E+00 0.00000E+00
 -1       546 6.70350E+01 6.39164E+00 0.00000E+00
 -1       547 7.00350E+01 6.39164E+00 0.00000E+00
 -1       548 7.30350E+01 6.39164E+00 0.00000E+00
 -1       549 7.60350E+01 6.39164E+00 0.00000E+00
 -1       550 7.90350E+01 6.39164E+00 0.00000E+00
 -1       551 8.20350E+01 6.39164E+00 0.00000E+00
 -1       552 8.50350E+01 6.39164E+00 0.00000E+00
 -1       553 8.80350E+01 6.39164E+00 0.00000E+00
 -1       554 9.10350E+01 6.39164E+00 0.00000E+00
 -1       555 9.40350E+01 6.39164E+00 0.00000E+00
 -1       556 9.70350E+01 6.39164E+00 0.00000E+00
 -1       557 1.00035E+02 6.39164E+00 0.00000E+00
 -1       558 1.03035E+02 6.39164E+00 0.00000E+00
 -1       559 1.06035E+02 6.39164E+00 0.00000E+00
 -1       560 1.09035E+02 6.39164E+00 0.00000E+00
 -1       561 1.12035E+02 6.39164E+00 0.00000E+00
 -1       562 1.15035E+02 6.39164E+00 0.00000E+00
 -1       563 1.18035E+02 6.39164E+00 0.00000E+00
 -1       564 1.21035E+02 6.39164E+00 0.00000E+00
 -1       565 1.24035E+02 6.39164E+00 0.00000E+00
 -1       566 1.27035E+02 6.39164E+00 0.00000E+00
 -1       567 1.30035E+02 6.39164E+00 0.00000E+00
 -1       568 1.33035E+02 6.39164E+00 0.00000E+00
 -1       569 1.36035E+02 6.39164E+00 0.00000E+00
 -1       570 1.39035E+02 6.39164E+00 0.00000E+00
 -1       571 1.42035E+02 6.39164E+00 0.00000E+00
 -1       572 1.42206E+02 1.61750E+01 0.00000E+00
 -1       573 1.42206E+02 1.91250E+01 0.00000E+00
 -1       574 1.42206E+02 1.03250E+01 0.00000E+00
 -1       575 1.42206E+02 1.32500E+01 0.00000E+00
 -1       576 1.42206E+02 2.20750E+01 0.00000E+00
 -1       577 1.42206E+02 2.50250E+01 0.00000E+00
 -1       578 1.42206E+02 2.79750E+01 0.00000E+00
 -1       579 1.42206E+02 3.08750E+01 0.00000E+00
 -1       580 1.42206E+02 3.38250E+01 0.00000E+00
 -1       581 1.42206E+02 3.67750E+01 0.00000E+00
 -1       582 1.42206E+02 3.97250E+01 0.00000E+00
 -1       583 3.37504E+01 1.87516E+01 0.00000E+00
 -1       584 3.37174E+01 1.61123E+01 0.00000E+00
 -1       585 2.92741E+01 1.06710E+01 0.00000E+00
 -1       586 1.60350E+01 6.60425E+00 0.00000E+00
 -1       587 3.25432E+01 1.38536E+01 0.00000E+00
 -1       588 3.32095E+01 2.27927E+01 0.00000E+00
 -1       589 3.36541E+01 2.07076E+01 0.00000E+00
 -1       590 2.58163E+01 3.03639E+01 0.00000E+00
 -1       591 1.15469E+01 1.92014E+01 0.00000E+00
 -1       592 7.79400E+00 2.79000E+01 0.00000E+00
 -1       593 1.54893E+01 1.09998E+01 0.00000E+00
 -1       594 2.47554E+01 8.55164E+00 0.00000E+00
 -1       595 2.23666E+01 8.47477E+00 0.00000E+00
 -1       596 1.98745E+01 8.91998E+00 0.00000E+00
 -1       597 1.66709E+01 2.92452E+01 0.00000E+00
 -1       598 1.75543E+01 9.64343E+00 0.00000E+00
 -1       599 1.38021E+01 1.29513E+01 0.00000E+00
 -1       600 1.26819E+01 1.46121E+01 0.00000E+00
 -1       601 1.17670E+01 1.68113E+01 0.00000E+00
 -1       602 1.15592E+01 2.15848E+01 0.00000E+00
 -1       603 1.36231E+01 2.63420E+01 0.00000E+00
 -1       604 3.13365E+01 2.68939E+01 0.00000E+00
 -1       605 1.50422E+01 2.78686E+01 0.00000E+00
 -1       606 2.18154E+01 3.12797E+01 0.00000E+00
 -1       607 2.40846E+01 3.06469E+01 0.00000E+00
 -1       608 2.81702E+01 2.97739E+01 0.00000E+00
 -1       609 2.98090E+01 2.85224E+01 0.00000E+00
 -1       610 3.23250E+01 2.50682E+01 0.00000E+00
 -1       611 7.92300E+00 4.16780E+01 0.00000E+00
 -1       612 7.61550E+00 6.21462E+00 0.00000E+00
 -1       613 3.09921E+01 1.21076E+01 0.00000E+00
 -1       614 7.79400E+00 3.67375E+01 0.00000E+00
 -1       615 1.41678E+02 4.22645E+01 0.00000E+00
 -1       616 1.09334E+01 2.32830E+01 0.00000E+00
 -1       617 2.02789E+01 3.18772E+01 0.00000E+00
 -1       618 1.19598E+01 2.57000E+01 0.00000E+00
 -1       619 1.06409E+01 1.50530E+01 0.00000E+00
 -1       620 9.84425E+00 2.05500E+01 0.00000E+00
 -1       621 1.15350E+01 9.15721E+00 0.00000E+00
 -1       622 3.12333E+01 1.00736E+01 0.00000E+00
 -1       623 1.40178E+02 3.96665E+01 0.00000E+00
 -1       624 3.48008E+01 1.41145E+01 0.00000E+00
 -1       625 1.51500E+01 3.96080E+01 0.00000E+00
 -1       626 1.81500E+01 3.96080E+01 0.00000E+00
 -1       627 2.11500E+01 3.96080E+01 0.00000E+00
 -1       628 2.41500E+01 3.96080E+01 0.00000E+00
 -1       629 2.71500E+01 3.96080E+01 0.00000E+00
 -1       630 3.01500E+01 3.96080E+01 0.00000E+00
 -1       631 3.31500E+01 3.96080E+01 0.00000E+00
 -1       632 3.61500E+01 3.96080E+01 0.00000E+00
 -1       633 3.91500E+01 3.96080E+01 0.00000E+00
 -1       634 4.21500E+01 3.96080E+01 0.00000E+00
 -1       635 4.51500E+01 3.96080E+01 0.00000E+00
 -1       636 4.81500E+01 3.96080E+01 0.00000E+00
 -1       637 5.11500E+01 3.96080E+01 0.00000E+00
 -1       638 5.41500E+01 3.96080E+01 0.00000E+00
 -1       639 5.71500E+01 3.96080E+01 0.00000E+00
 -1       640 6.01500E+01 3.96080E+01 0.00000E+00
 -1       641 6.31500E+01 3.96080E+01 0.00000E+00
 -1       642 6.61500E+01 3.96080E+01 0.00000E+00
 -1       643 6.91500E+01 3.96080E+01 0.00000E+00
 -1       644 7.21500E+01 3.96080E+01 0.00000E+00
 -1       645 7.51500E+01 3.96080E+01 0.00000E+00
 -1       646 7.81500E+01 3.96080E+01 0.00000E+00
 -1       647 8.11500E+01 3.96080E+01 0.00000E+00
 -1       648 8.41500E+01 3.96080E+01 0.00000E+00
 -1       649 8.71500E+01 3.96080E+01 0.00000E+00
 -1       650 9.01500E+01 3.96080E+01 0.00000E+00
 -1       651 9.31500E+01 3.96080E+01 0.00000E+00
 -1       652 9.61500E+01 3.96080E+01 0.00000E+00
 -1       653 9.91500E+01 3.96080E+01 0.00000E+00
 -1       654 1.02150E+02 3.96080E+01 0.00000E+00
 -1       655 1.05150E+02 3.96080E+01 0.00000E+00
 -1       656 1.08150E+02 3.96080E+01 0.00000E+00
 -1       657 1.11150E+02 3.96080E+01 0.00000E+00
 -1       658 1.14150E+02 3.96080E+01 0.00000E+00
 -1       659 1.17150E+02 3.96080E+01 0.00000E+00
 -1       660 1.20150E+02 3.96080E+01 0.00000E+00
 -1       661 1.23150E+02 3.96080E+01 0.00000E+00
 -1       662 1.26150E+02 3.96080E+01 0.00000E+00
 -1       663 1.29150E+02 3.96080E+01 0.00000E+00
 -1       664 1.32150E+02 3.96080E+01 0.00000E+00
 -1       665 1.35150E+02 3.96080E+01 0.00000E+00
 -1       666 1.37664E+02 3.96372E+01 0.00000E+00
 -1       667 1.73133E+01 3.14370E+01 0.00000E+00
 -1       668 3.85350E+01 8.98964E+00 0.00000E+00
 -1       669 4.15350E+01 8.98964E+00 0.00000E+00
 -1       670 4.45350E+01 8.98964E+00 0.00000E+00
 -1       671 4.75350E+01 8.98964E+00 0.00000E+00
 -1       672 5.05350E+01 8.98964E+00 0.00000E+00
 -1       673 5.35350E+01 8.98964E+00 0.00000E+00
 -1       674 5.65350E+01 8.98964E+00 0.00000E+00
 -1       675 5.95350E+01 8.98964E+00 0.00000E+00
 -1       676 6.25350E+01 8.98964E+00 0.00000E+00
 -1       677 6.55350E+01 8.98964E+00 0.00000E+00
 -1       678 6.85350E+01 8.98964E+00 0.00000E+00
 -1       679 7.15350E+01 8.98964E+00 0.00000E+00
 -1       680 7.45350E+01 8.98964E+00 0.00000E+00
 -1       681 7.75350E+01 8.98964E+00 0.00000E+00
 -1       682 8.05350E+01 8.98964E+00 0.00000E+00
 -1       683 8.35350E+01 8.98964E+00 0.00000E+00
 -1       684 8.65350E+01 8.98964E+00 0.00000E+00
 -1       685 8.95350E+01 8.98964E+00 0.00000E+00
 -1       686 9.25350E+01 8.98964E+00 0.00000E+00
 -1       687 9.55350E+01 8.98964E+00 0.00000E+00
 -1       688 9.85350E+01 8.98964E+00 0.00000E+00
 -1       689 1.01535E+02 8.98964E+00 0.00000E+00
 -1       690 1.04535E+02 8.98964E+00 0.00000E+00
 -1       691 1.07535E+02 8.98964E+00 0.00000E+00
 -1       692 1.10535E+02 8.98964E+00 0.00000E+00
 -1       693 1.13535E+02 8.98964E+00 0.00000E+00
 -1       694 1.16535E+02 8.98964E+00 0.00000E+00
 -1       695 1.19535E+02 8.98964E+00 0.00000E+00
 -1       696 1.22535E+02 8.98964E+00 0.00000E+00
 -1       697 1.25535E+02 8.98964E+00 0.00000E+00
 -1       698 1.28535E+02 8.98964E+00 0.00000E+00
 -1       699 1.31535E+02 8.98964E+00 0.00000E+00
 -1       700 1.34535E+02 8.98964E+00 0.00000E+00
 -1       701 1.37535E+02 8.98964E+00 0.00000E+00
 -1       702 1.39870E+02 9.65732E+00 0.00000E+00
 -1       703 1.39608E+02 2.35500E+01 0.00000E+00
 -1       704 1.39608E+02 1.76500E+01 0.00000E+00
 -1       705 1.39608E+02 2.65000E+01 0.00000E+00
 -1       706 1.39608E+02 2.06000E+01 0.00000E+00
 -1       707 1.39608E+02 2.94000E+01 0.00000E+00
 -1       708 1.39608E+02 3.23500E+01 0.00000E+00
 -1       709 1.39608E+02 3.53000E+01 0.00000E+00
 -1       710 1.53043E+01 8.46791E+00 0.00000E+00
 -1       711 2.52812E+01 3.25288E+01 0.00000E+00
 -1       712 1.43167E+01 3.03787E+01 0.00000E+00
 -1       713 3.54489E+01 1.74105E+01 0.00000E+00
 -1       714 3.01546E+01 8.53132E+00 0.00000E+00
 -1       715 3.55350E+01 8.98964E+00 0.00000E+00
 -1       716 3.28448E+01 8.76048E+00 0.00000E+00
 -1       717 1.21500E+01 3.96080E+01 0.00000E+00
 -1       718 1.28976E+01 2.88521E+01 0.00000E+00
 -1       719 3.18237E+01 2.88815E+01 0.00000E+00
 -1       720 1.32215E+01 1.07443E+01 0.00000E+00
 -1       721 3.30499E+01 1.18415E+01 0.00000E+00
 -1       722 1.03920E+01 3.23250E+01 0.00000E+00
 -1       723 3.52731E+01 2.21427E+01 0.00000E+00
 -1       724 1.18201E+01 1.28226E+01 0.00000E+00
 -1       725 9.78225E+00 1.78337E+01 0.00000E+00
 -1       726 3.34863E+01 2.68775E+01 0.00000E+00
 -1       727 2.30119E+01 3.31616E+01 0.00000E+00
 -1       728 3.52479E+01 1.98057E+01 0.00000E+00
 -1       729 2.76351E+01 3.19388E+01 0.00000E+00
 -1       730 3.02339E+01 3.07777E+01 0.00000E+00
 -1       731 3.43708E+01 2.46020E+01 0.00000E+00
 -1       732 1.03920E+01 3.52625E+01 0.00000E+00
 -1       733 1.02466E+01 2.57793E+01 0.00000E+00
 -1       734 1.01794E+01 1.17250E+01 0.00000E+00
 -1       735 1.79548E+01 7.76211E+00 0.00000E+00
 -1       736 1.12343E+01 2.82101E+01 0.00000E+00
 -1       737 2.05350E+01 8.10675E+00 0.00000E+00
 -1       738 1.39870E+02 1.25823E+01 0.00000E+00
 -1       739 1.05210E+01 3.87342E+01 0.00000E+00
 -1       740 3.65322E+01 1.54128E+01 0.00000E+00
 -1       741 2.14755E+01 3.37591E+01 0.00000E+00
 -1       742 1.39739E+02 1.51162E+01 0.00000E+00
 -1       743 2.36134E+01 6.88273E+00 0.00000E+00
 -1       744 1.96500E+01 3.70100E+01 0.00000E+00
 -1       745 2.26500E+01 3.70100E+01 0.00000E+00
 -1       746 2.56500E+01 3.70100E+01 0.00000E+00
 -1       747 2.86500E+01 3.70100E+01 0.00000E+00
 -1       748 3.16500E+01 3.70100E+01 0.00000E+00
 -1       749 3.46500E+01 3.70100E+01 0.00000E+00
 -1       750 3.76500E+01 3.70100E+01 0.00000E+00
 -1       751 4.06500E+01 3.70100E+01 0.00000E+00
 -1       752 4.36500E+01 3.70100E+01 0.00000E+00
 -1       753 4.66500E+01 3.70100E+01 0.00000E+00
 -1       754 4.96500E+01 3.70100E+01 0.00000E+00
 -1       755 5.26500E+01 3.70100E+01 0.00000E+00
 -1       756 5.56500E+01 3.70100E+01 0.00000E+00
 -1       757 5.86500E+01 3.70100E+01 0.00000E+00
 -1       758 6.16500E+01 3.70100E+01 0.00000E+00
 -1       759 6.46500E+01 3.70100E+01 0.00000E+00
 -1       760 6.76500E+01 3.70100E+01 0.00000E+00
 -1       761 7.06500E+01 3.70100E+01 0.00000E+00
 -1       762 7.36500E+01 3.70100E+01 0.00000E+00
 -1       763 7.66500E+01 3.70100E+01 0.00000E+00
 -1       764 7.96500E+01 3.70100E+01 0.00000E+00
 -1       765 8.26500E+01 3.70100E+01 0.00000E+00
 -1       766 8.56500E+01 3.70100E+01 0.00000E+00
 -1       767 8.86500E+01 3.70100E+01 0.00000E+00
 -1       768 9.16500E+01 3.70100E+01 0.00000E+00
 -1       769 9.46500E+01 3.70100E+01 0.00000E+00
 -1       770 9.76500E+01 3.70100E+01 0.00000E+00
 -1       771 1.00650E+02 3.70100E+01 0.00000E+00
 -1       772 1.03650E+02 3.70100E+01 0.00000E+00
 -1       773 1.06650E+02 3.70100E+01 0.00000E+00
 -1       774 1.09650E+02 3.70100E+01 0.00000E+00
 -1       775 1.12650E+02 3.70100E+01 0.00000E+00
 -1       776 1.15650E+02 3.70100E+01 0.00000E+00
 -1       777 1.18650E+02 3.70100E+01 0.00000E+00
 -1       778 1.21650E+02 3.70100E+01 0.00000E+00
 -1       779 1.24650E+02 3.70100E+01 0.00000E+00
 -1       780 1.27650E+02 3.70100E+01 0.00000E+00
 -1       781 1.30650E+02 3.70100E+01 0.00000E+00
 -1       782 1.33650E+02 3.70100E+01 0.00000E+00
 -1       783 4.30350E+01 1.15876E+01 0.00000E+00
 -1       784 1.36500E+01 3.70100E+01 0.00000E+00
 -1       785 4.00350E+01 1.15876E+01 0.00000E+00
 -1       786 4.90350E+01 1.15876E+01 0.00000E+00
 -1       787 5.20350E+01 1.15876E+01 0.00000E+00
 -1       788 5.50350E+01 1.15876E+01 0.00000E+00
 -1       789 5.80350E+01 1.15876E+01 0.00000E+00
 -1       790 6.10350E+01 1.15876E+01 0.00000E+00
 -1       791 6.40350E+01 1.15876E+01 0.00000E+00
 -1       792 6.70350E+01 1.15876E+01 0.00000E+00
 -1       793 7.00350E+01 1.15876E+01 0.00000E+00
 -1       794 7.30350E+01 1.15876E+01 0.00000E+00
 -1       795 7.60350E+01 1.15876E+01 0.00000E+00
 -1       796 7.90350E+01 1.15876E+01 0.00000E+00
 -1       797 8.20350E+01 1.15876E+01 0.00000E+00
 -1       798 8.50350E+01 1.15876E+01 0.00000E+00
 -1       799 8.80350E+01 1.15876E+01 0.00000E+00
 -1       800 9.10350E+01 1.15876E+01 0.00000E+00
 -1       801 9.40350E+01 1.15876E+01 0.00000E+00
 -1       802 9.70350E+01 1.15876E+01 0.00000E+00
 -1       803 1.00035E+02 1.15876E+01 0.00000E+00
 -1       804 1.03035E+02 1.15876E+01 0.00000E+00
 -1       805 1.06035E+02 1.15876E+01 0.00000E+00
 -1       806 1.09035E+02 1.15876E+01 0.00000E+00
 -1       807 1.12035E+02 1.15876E+01 0.00000E+00
 -1       808 1.15035E+02 1.15876E+01 0.00000E+00
 -1       809 1.18035E+02 1.15876E+01 0.00000E+00
 -1       810 1.21035E+02 1.15876E+01 0.00000E+00
 -1       811 1.24035E+02 1.15876E+01 0.00000E+00
 -1       812 1.27035E+02 1.15876E+01 0.00000E+00
 -1       813 1.30035E+02 1.15876E+01 0.00000E+00
 -1       814 1.33035E+02 1.15876E+01 0.00000E+00
 -1       815 1.36035E+02 1.15876E+01 0.00000E+00
 -1       816 1.37953E+02 1.20850E+01 0.00000E+00
 -1       817 1.37010E+02 3.38250E+01 0.00000E+00
 -1       818 1.37010E+02 2.50250E+01 0.00000E+00
 -1       819 3.65894E+01 2.40208E+01 0.00000E+00
 -1       820 1.37337E+02 3.67311E+01 0.00000E+00
 -1       821 2.46973E+01 3.48201E+01 0.00000E+00
 -1       822 2.99759E+01 3.36891E+01 0.00000E+00
 -1       823 1.37010E+02 3.08750E+01 0.00000E+00
 -1       824 4.60350E+01 1.15876E+01 0.00000E+00
 -1       825 1.66500E+01 3.70100E+01 0.00000E+00
 -1       826 3.55496E+01 1.17269E+01 0.00000E+00
 -1       827 3.71431E+01 2.09539E+01 0.00000E+00
 -1       828 1.50765E+01 3.29991E+01 0.00000E+00
 -1       829 1.80422E+01 3.34393E+01 0.00000E+00
 -1       830 3.43619E+01 2.92956E+01 0.00000E+00
 -1       831 1.20210E+01 3.61362E+01 0.00000E+00
 -1       832 3.27721E+01 3.11917E+01 0.00000E+00
 -1       833 2.70511E+01 3.42301E+01 0.00000E+00
 -1       834 1.37010E+02 2.79500E+01 0.00000E+00
 -1       835 3.58395E+01 2.64825E+01 0.00000E+00
 -1       836 3.73440E+01 1.85588E+01 0.00000E+00
 -1       837 3.72810E+01 1.30252E+01 0.00000E+00
 -1       838 1.20210E+01 3.31987E+01 0.00000E+00
 -1       839 1.37010E+02 1.91250E+01 0.00000E+00
 -1       840 1.37010E+02 2.20750E+01 0.00000E+00
 -1       841 1.37141E+02 1.65912E+01 0.00000E+00
 -1       842 3.84274E+01 1.65610E+01 0.00000E+00
 -1       843 1.19828E+01 3.11254E+01 0.00000E+00
 -1       844 3.28514E+01 3.40946E+01 0.00000E+00
 -1       845 3.58514E+01 3.40946E+01 0.00000E+00
 -1       846 3.88514E+01 3.40946E+01 0.00000E+00
 -1       847 4.18514E+01 3.40946E+01 0.00000E+00
 -1       848 4.48514E+01 3.40946E+01 0.00000E+00
 -1       849 4.78514E+01 3.40946E+01 0.00000E+00
 -1       850 5.08514E+01 3.40946E+01 0.00000E+00
 -1       851 5.38514E+01 3.40946E+01 0.00000E+00
 -1       852 5.68514E+01 3.40946E+01 0.00000E+00
 -1       853 5.98514E+01 3.40946E+01 0.00000E+00
 -1       854 6.28514E+01 3.40946E+01 0.00000E+00
 -1       855 6.58514E+01 3.40946E+01 0.00000E+00
 -1       856 6.88514E+01 3.40946E+01 0.00000E+00
 -1       857 7.18514E+01 3.40946E+01 0.00000E+00
 -1       858 7.48514E+01 3.40946E+01 0.00000E+00
 -1       859 7.78514E+01 3.40946E+01 0.00000E+00
 -1       860 8.08514E+01 3.40946E+01 0.00000E+00
 -1       861 8.38514E+01 3.40946E+01 0.00000E+00
 -1       862 8.68514E+01 3.40946E+01 0.00000E+00
 -1       863 8.98514E+01 3.40946E+01 0.00000E+00
 -1       864 9.28514E+01 3.40946E+01 0.00000E+00
 -1       865 9.58514E+01 3.40946E+01 0.00000E+00
 -1       866 9.88514E+01 3.40946E+01 0.00000E+00
 -1       867 1.01851E+02 3.40946E+01 0.00000E+00
 -1       868 1.04851E+02 3.40946E+01 0.00000E+00
 -1       869 1.07851E+02 3.40946E+01 0.00000E+00
 -1       870 1.10851E+02 3.40946E+01 0.00000E+00
 -1       871 1.13851E+02 3.40946E+01 0.00000E+00
 -1       872 1.16851E+02 3.40946E+01 0.00000E+00
 -1       873 1.19851E+02 3.40946E+01 0.00000E+00
 -1       874 1.22851E+02 3.40946E+01 0.00000E+00
 -1       875 1.25851E+02 3.40946E+01 0.00000E+00
 -1       876 1.28851E+02 3.40946E+01 0.00000E+00
 -1       877 1.31851E+02 3.40946E+01 0.00000E+00
 -1       878 5.35350E+01 1.41856E+01 0.00000E+00
 -1       879 5.05350E+01 1.41856E+01 0.00000E+00
 -1       880 5.95350E+01 1.41856E+01 0.00000E+00
 -1       881 6.25350E+01 1.41856E+01 0.00000E+00
 -1       882 6.55350E+01 1.41856E+01 0.00000E+00
 -1       883 6.85350E+01 1.41856E+01 0.00000E+00
 -1       884 7.15350E+01 1.41856E+01 0.00000E+00
 -1       885 7.45350E+01 1.41856E+01 0.00000E+00
 -1       886 7.75350E+01 1.41856E+01 0.00000E+00
 -1       887 8.05350E+01 1.41856E+01 0.00000E+00
 -1       888 8.35350E+01 1.41856E+01 0.00000E+00
 -1       889 8.65350E+01 1.41856E+01 0.00000E+00
 -1       890 8.95350E+01 1.41856E+01 0.00000E+00
 -1       891 9.25350E+01 1.41856E+01 0.00000E+00
 -1       892 9.55350E+01 1.41856E+01 0.00000E+00
 -1       893 9.85350E+01 1.41856E+01 0.00000E+00
 -1       894 1.01535E+02 1.41856E+01 0.00000E+00
 -1       895 1.04535E+02 1.41856E+01 0.00000E+00
 -1       896 1.07535E+02 1.41856E+01 0.00000E+00
 -1       897 1.10535E+02 1.41856E+01 0.00000E+00
 -1       898 1.13535E+02 1.41856E+01 0.00000E+00
 -1       899 1.16535E+02 1.41856E+01 0.00000E+00
 -1       900 1.19535E+02 1.41856E+01 0.00000E+00
 -1       901 1.22535E+02 1.41856E+01 0.00000E+00
 -1       902 1.25535E+02 1.41856E+01 0.00000E+00
 -1       903 1.28535E+02 1.41856E+01 0.00000E+00
 -1       904 1.31535E+02 1.41856E+01 0.00000E+00
 -1       905 1.34535E+02 1.41856E+01 0.00000E+00
 -1       906 3.74007E+01 2.90972E+01 0.00000E+00
 -1       907 1.34412E+02 3.23500E+01 0.00000E+00
 -1       908 4.15350E+01 1.41856E+01 0.00000E+00
 -1       909 1.37547E+02 1.43381E+01 0.00000E+00
 -1       910 3.84963E+01 2.59468E+01 0.00000E+00
 -1       911 3.90500E+01 2.28799E+01 0.00000E+00
 -1       912 3.52665E+01 3.16686E+01 0.00000E+00
 -1       913 5.65350E+01 1.41856E+01 0.00000E+00
 -1       914 3.91196E+01 1.99138E+01 0.00000E+00
 -1       915 4.45350E+01 1.41856E+01 0.00000E+00
 -1       916 1.34412E+02 2.35500E+01 0.00000E+00
 -1       917 1.34412E+02 2.06000E+01 0.00000E+00
 -1       918 1.34412E+02 2.64750E+01 0.00000E+00
 -1       919 1.34543E+02 1.80662E+01 0.00000E+00
 -1       920 4.75350E+01 1.41856E+01 0.00000E+00
 -1       921 4.02030E+01 1.79160E+01 0.00000E+00
 -1       922 1.34412E+02 2.94125E+01 0.00000E+00
 -1       923 3.85351E+01 1.41857E+01 0.00000E+00
 -1       924 4.03514E+01 3.14966E+01 0.00000E+00
 -1       925 4.33514E+01 3.14966E+01 0.00000E+00
 -1       926 4.63514E+01 3.14966E+01 0.00000E+00
 -1       927 4.93514E+01 3.14966E+01 0.00000E+00
 -1       928 5.23514E+01 3.14966E+01 0.00000E+00
 -1       929 5.53514E+01 3.14966E+01 0.00000E+00
 -1       930 5.83514E+01 3.14966E+01 0.00000E+00
 -1       931 6.13514E+01 3.14966E+01 0.00000E+00
 -1       932 6.43514E+01 3.14966E+01 0.00000E+00
 -1       933 6.73514E+01 3.14966E+01 0.00000E+00
 -1       934 7.03514E+01 3.14966E+01 0.00000E+00
 -1       935 7.33514E+01 3.14966E+01 0.00000E+00
 -1       936 7.63514E+01 3.14966E+01 0.00000E+00
 -1       937 7.93514E+01 3.14966E+01 0.00000E+00
 -1       938 8.23514E+01 3.14966E+01 0.00000E+00
 -1       939 8.53514E+01 3.14966E+01 0.00000E+00
 -1       940 8.83514E+01 3.14966E+01 0.00000E+00
 -1       941 9.13514E+01 3.14966E+01 0.00000E+00
 -1       942 9.43514E+01 3.14966E+01 0.00000E+00
 -1       943 9.73514E+01 3.14966E+01 0.00000E+00
 -1       944 1.00351E+02 3.14966E+01 0.00000E+00
 -1       945 1.03351E+02 3.14966E+01 0.00000E+00
 -1       946 1.06351E+02 3.14966E+01 0.00000E+00
 -1       947 1.09351E+02 3.14966E+01 0.00000E+00
 -1       948 1.12351E+02 3.14966E+01 0.00000E+00
 -1       949 1.15351E+02 3.14966E+01 0.00000E+00
 -1       950 1.18351E+02 3.14966E+01 0.00000E+00
 -1       951 1.21351E+02 3.14966E+01 0.00000E+00
 -1       952 1.24351E+02 3.14966E+01 0.00000E+00
 -1       953 1.27351E+02 3.14966E+01 0.00000E+00
 -1       954 1.30351E+02 3.14966E+01 0.00000E+00
 -1       955 1.31814E+02 2.20750E+01 0.00000E+00
 -1       956 4.04024E+01 2.83753E+01 0.00000E+00
 -1       957 6.40350E+01 1.67836E+01 0.00000E+00
 -1       958 6.10350E+01 1.67836E+01 0.00000E+00
 -1       959 7.00350E+01 1.67836E+01 0.00000E+00
 -1       960 7.30350E+01 1.67836E+01 0.00000E+00
 -1       961 7.60350E+01 1.67836E+01 0.00000E+00
 -1       962 7.90350E+01 1.67836E+01 0.00000E+00
 -1       963 8.20350E+01 1.67836E+01 0.00000E+00
 -1       964 8.50350E+01 1.67836E+01 0.00000E+00
 -1       965 8.80350E+01 1.67836E+01 0.00000E+00
 -1       966 9.10350E+01 1.67836E+01 0.00000E+00
 -1       967 9.40350E+01 1.67836E+01 0.00000E+00
 -1       968 9.70350E+01 1.67836E+01 0.00000E+00
 -1       969 1.00035E+02 1.67836E+01 0.00000E+00
 -1       970 1.03035E+02 1.67836E+01 0.00000E+00
 -1       971 1.06035E+02 1.67836E+01 0.00000E+00
 -1       972 1.09035E+02 1.67836E+01 0.00000E+00
 -1       973 1.12035E+02 1.67836E+01 0.00000E+00
 -1       974 1.15035E+02 1.67836E+01 0.00000E+00
 -1       975 1.18035E+02 1.67836E+01 0.00000E+00
 -1       976 1.21035E+02 1.67836E+01 0.00000E+00
 -1       977 1.24035E+02 1.67836E+01 0.00000E+00
 -1       978 1.27035E+02 1.67836E+01 0.00000E+00
 -1       979 1.30035E+02 1.67836E+01 0.00000E+00
 -1       980 5.20350E+01 1.67836E+01 0.00000E+00
 -1       981 5.50350E+01 1.67836E+01 0.00000E+00
 -1       982 3.82682E+01 3.09467E+01 0.00000E+00
 -1       983 4.12855E+01 2.48669E+01 0.00000E+00
 -1       984 5.80350E+01 1.67836E+01 0.00000E+00
 -1       985 4.13020E+01 2.14489E+01 0.00000E+00
 -1       986 4.08690E+01 1.60508E+01 0.00000E+00
 -1       987 6.70350E+01 1.67836E+01 0.00000E+00
 -1       988 1.31945E+02 1.95412E+01 0.00000E+00
 -1       989 1.31814E+02 2.50000E+01 0.00000E+00
 -1       990 4.38690E+01 1.60508E+01 0.00000E+00
 -1       991 4.23854E+01 1.94512E+01 0.00000E+00
 -1       992 4.90350E+01 1.67836E+01 0.00000E+00
 -1       993 4.48514E+01 2.88986E+01 0.00000E+00
 -1       994 4.78514E+01 2.88986E+01 0.00000E+00
 -1       995 5.08514E+01 2.88986E+01 0.00000E+00
 -1       996 5.38514E+01 2.88986E+01 0.00000E+00
 -1       997 5.68514E+01 2.88986E+01 0.00000E+00
 -1       998 5.98514E+01 2.88986E+01 0.00000E+00
 -1       999 6.28514E+01 2.88986E+01 0.00000E+00
 -1      1000 6.58514E+01 2.88986E+01 0.00000E+00
 -1      1001 6.88514E+01 2.88986E+01 0.00000E+00
 -1      1002 7.18514E+01 2.88986E+01 0.00000E+00
 -1      1003 7.48514E+01 2.88986E+01 0.00000E+00
 -1      1004 7.78514E+01 2.88986E+01 0.00000E+00
 -1      1005 8.08514E+01 2.88986E+01 0.00000E+00
 -1      1006 8.38514E+01 2.88986E+01 0.00000E+00
 -1      1007 8.68514E+01 2.88986E+01 0.00000E+00
 -1      1008 8.98514E+01 2.88986E+01 0.00000E+00
 -1      1009 9.28514E+01 2.88986E+01 0.00000E+00
 -1      1010 9.58514E+01 2.88986E+01 0.00000E+00
 -1      1011 9.88514E+01 2.88986E+01 0.00000E+00
 -1      1012 1.01851E+02 2.88986E+01 0.00000E+00
 -1      1013 1.04851E+02 2.88986E+01 0.00000E+00
 -1      1014 1.07851E+02 2.88986E+01 0.00000E+00
 -1      1015 1.10851E+02 2.88986E+01 0.00000E+00
 -1      1016 1.13851E+02 2.88986E+01 0.00000E+00
 -1      1017 1.16851E+02 2.88986E+01 0.00000E+00
 -1      1018 1.19851E+02 2.88986E+01 0.00000E+00
 -1      1019 1.22851E+02 2.88986E+01 0.00000E+00
 -1      1020 1.25851E+02 2.88986E+01 0.00000E+00
 -1      1021 1.28851E+02 2.88986E+01 0.00000E+00
 -1      1022 4.33633E+01 2.72553E+01 0.00000E+00
 -1      1023 7.45350E+01 1.93816E+01 0.00000E+00
 -1      1024 7.15350E+01 1.93816E+01 0.00000E+00
 -1      1025 8.05350E+01 1.93816E+01 0.00000E+00
 -1      1026 8.35350E+01 1.93816E+01 0.00000E+00
 -1      1027 8.65350E+01 1.93816E+01 0.00000E+00
 -1      1028 8.95350E+01 1.93816E+01 0.00000E+00
 -1      1029 9.25350E+01 1.93816E+01 0.00000E+00
 -1      1030 9.55350E+01 1.93816E+01 0.00000E+00
 -1      1031 9.85350E+01 1.93816E+01 0.00000E+00
 -1      1032 1.01535E+02 1.93816E+01 0.00000E+00
 -1      1033 1.04535E+02 1.93816E+01 0.00000E+00
 -1      1034 1.07535E+02 1.93816E+01 0.00000E+00
 -1      1035 1.10535E+02 1.93816E+01 0.00000E+00
 -1      1036 1.13535E+02 1.93816E+01 0.00000E+00
 -1      1037 1.16535E+02 1.93816E+01 0.00000E+00
 -1      1038 1.19535E+02 1.93816E+01 0.00000E+00
 -1      1039 1.22535E+02 1.93816E+01 0.00000E+00
 -1      1040 1.25535E+02 1.93816E+01 0.00000E+00
 -1      1041 1.28535E+02 1.93816E+01 0.00000E+00
 -1      1042 6.55350E+01 1.93816E+01 0.00000E+00
 -1      1043 7.75350E+01 1.93816E+01 0.00000E+00
 -1      1044 4.64520E+01 1.64172E+01 0.00000E+00
 -1      1045 5.65350E+01 1.93816E+01 0.00000E+00
 -1      1046 4.36791E+01 2.31694E+01 0.00000E+00
 -1      1047 6.25350E+01 1.93816E+01 0.00000E+00
 -1      1048 5.95350E+01 1.93816E+01 0.00000E+00
 -1      1049 6.85350E+01 1.93816E+01 0.00000E+00
 -1      1050 1.31632E+02 2.76868E+01 0.00000E+00
 -1      1051 4.31272E+01 1.77510E+01 0.00000E+00
 -1      1052 5.35350E+01 1.93816E+01 0.00000E+00
 -1      1053 1.29216E+02 2.35375E+01 0.00000E+00
 -1      1054 5.05350E+01 1.93816E+01 0.00000E+00
 -1      1055 4.47625E+01 2.11717E+01 0.00000E+00
 -1      1056 1.28876E+02 2.14596E+01 0.00000E+00
 -1      1057 4.93514E+01 2.63006E+01 0.00000E+00
 -1      1058 5.23514E+01 2.63006E+01 0.00000E+00
 -1      1059 5.53514E+01 2.63006E+01 0.00000E+00
 -1      1060 5.83514E+01 2.63006E+01 0.00000E+00
 -1      1061 6.13514E+01 2.63006E+01 0.00000E+00
 -1      1062 6.43514E+01 2.63006E+01 0.00000E+00
 -1      1063 6.73514E+01 2.63006E+01 0.00000E+00
 -1      1064 7.03514E+01 2.63006E+01 0.00000E+00
 -1      1065 7.33514E+01 2.63006E+01 0.00000E+00
 -1      1066 7.63514E+01 2.63006E+01 0.00000E+00
 -1      1067 7.93514E+01 2.63006E+01 0.00000E+00
 -1      1068 8.23514E+01 2.63006E+01 0.00000E+00
 -1      1069 8.53514E+01 2.63006E+01 0.00000E+00
 -1      1070 8.83514E+01 2.63006E+01 0.00000E+00
 -1      1071 9.13514E+01 2.63006E+01 0.00000E+00
 -1      1072 9.43514E+01 2.63006E+01 0.00000E+00
 -1      1073 9.73514E+01 2.63006E+01 0.00000E+00
 -1      1074 1.00351E+02 2.63006E+01 0.00000E+00
 -1      1075 1.03351E+02 2.63006E+01 0.00000E+00
 -1      1076 1.06351E+02 2.63006E+01 0.00000E+00
 -1      1077 1.09351E+02 2.63006E+01 0.00000E+00
 -1      1078 1.12351E+02 2.63006E+01 0.00000E+00
 -1      1079 1.15351E+02 2.63006E+01 0.00000E+00
 -1      1080 1.18351E+02 2.63006E+01 0.00000E+00
 -1      1081 1.21351E+02 2.63006E+01 0.00000E+00
 -1      1082 1.24351E+02 2.63006E+01 0.00000E+00
 -1      1083 1.27351E+02 2.63006E+01 0.00000E+00
 -1      1084 4.61115E+01 2.54125E+01 0.00000E+00
 -1      1085 8.50350E+01 2.19796E+01 0.00000E+00
 -1      1086 8.20350E+01 2.19796E+01 0.00000E+00
 -1      1087 9.10350E+01 2.19796E+01 0.00000E+00
 -1      1088 9.40350E+01 2.19796E+01 0.00000E+00
 -1      1089 9.70350E+01 2.19796E+01 0.00000E+00
 -1      1090 1.00035E+02 2.19796E+01 0.00000E+00
 -1      1091 1.03035E+02 2.19796E+01 0.00000E+00
 -1      1092 1.06035E+02 2.19796E+01 0.00000E+00
 -1      1093 1.09035E+02 2.19796E+01 0.00000E+00
 -1      1094 1.12035E+02 2.19796E+01 0.00000E+00
 -1      1095 1.15035E+02 2.19796E+01 0.00000E+00
 -1      1096 1.18035E+02 2.19796E+01 0.00000E+00
 -1      1097 1.21035E+02 2.19796E+01 0.00000E+00
 -1      1098 1.24035E+02 2.19796E+01 0.00000E+00
 -1      1099 1.26455E+02 2.17196E+01 0.00000E+00
 -1      1100 5.50350E+01 2.19796E+01 0.00000E+00
 -1      1101 6.40350E+01 2.19796E+01 0.00000E+00
 -1      1102 5.80350E+01 2.19796E+01 0.00000E+00
 -1      1103 8.80350E+01 2.19796E+01 0.00000E+00
 -1      1104 6.10350E+01 2.19796E+01 0.00000E+00
 -1      1105 7.30350E+01 2.19796E+01 0.00000E+00
 -1      1106 1.26613E+02 2.38801E+01 0.00000E+00
 -1      1107 4.71949E+01 2.34148E+01 0.00000E+00
 -1      1108 6.70350E+01 2.19796E+01 0.00000E+00
 -1      1109 5.20350E+01 2.19796E+01 0.00000E+00
 -1      1110 4.57102E+01 1.81174E+01 0.00000E+00
 -1      1111 7.90350E+01 2.19796E+01 0.00000E+00
 -1      1112 7.60350E+01 2.19796E+01 0.00000E+00
 -1      1113 4.75351E+01 1.93817E+01 0.00000E+00
 -1      1114 7.00350E+01 2.19796E+01 0.00000E+00
 -1      1115 4.52363E+01 1.96445E+01 0.00000E+00
 -1      1116 5.08514E+01 2.37026E+01 0.00000E+00
 -1      1117 0.00000E+00 4.85250E+01 0.00000E+00
 -1      1118 0.00000E+00 4.55750E+01 0.00000E+00
 -1      1119 0.00000E+00 4.26250E+01 0.00000E+00
 -1      1120 0.00000E+00 3.96750E+01 0.00000E+00
 -1      1121 0.00000E+00 3.67250E+01 0.00000E+00
 -1      1122 0.00000E+00 3.38000E+01 0.00000E+00
 -1      1123 0.00000E+00 3.08750E+01 0.00000E+00
 -1      1124 0.00000E+00 2.79250E+01 0.00000E+00
 -1      1125 0.00000E+00 2.49750E+01 0.00000E+00
 -1      1126 0.00000E+00 2.20250E+01 0.00000E+00
 -1      1127 0.00000E+00 1.90750E+01 0.00000E+00
 -1      1128 0.00000E+00 1.61500E+01 0.00000E+00
 -1      1129 0.00000E+00 1.32250E+01 0.00000E+00
 -1      1130 0.00000E+00 1.02750E+01 0.00000E+00
 -1      1131 0.00000E+00 7.32500E+00 0.00000E+00
 -1      1132 0.00000E+00 4.37500E+00 0.00000E+00
 -1      1133 0.00000E+00 1.45000E+00 0.00000E+00
 -1      1134 1.57500E+00 5.00000E+01 0.00000E+00
 -1      1135 4.65000E+00 5.00000E+01 0.00000E+00
 -1      1136 7.65000E+00 5.00000E+01 0.00000E+00
 -1      1137 1.06500E+01 5.00000E+01 0.00000E+00
 -1      1138 1.36500E+01 5.00000E+01 0.00000E+00
 -1      1139 1.66500E+01 5.00000E+01 0.00000E+00
 -1      1140 1.96500E+01 5.00000E+01 0.00000E+00
 -1      1141 2.26500E+01 5.00000E+01 0.00000E+00
 -1      1142 2.56500E+01 5.00000E+01 0.00000E+00
 -1      1143 2.86500E+01 5.00000E+01 0.00000E+00
 -1      1144 3.16500E+01 5.00000E+01 0.00000E+00
 -1      1145 3.46500E+01 5.00000E+01 0.00000E+00
 -1      1146 3.76500E+01 5.00000E+01 0.00000E+00
 -1      1147 4.06500E+01 5.00000E+01 0.00000E+00
 -1      1148 4.36500E+01 5.00000E+01 0.00000E+00
 -1      1149 4.66500E+01 5.00000E+01 0.00000E+00
 -1      1150 4.96500E+01 5.00000E+01 0.00000E+00
 -1      1151 5.26500E+01 5.00000E+01 0.00000E+00
 -1      1152 5.56500E+01 5.00000E+01 0.00000E+00
 -1      1153 5.86500E+01 5.00000E+01 0.00000E+00
 -1      1154 6.16500E+01 5.00000E+01 0.00000E+00
 -1      1155 6.46500E+01 5.00000E+01 0.00000E+00
 -1      1156 6.76500E+01 5.00000E+01 0.00000E+00
 -1      1157 7.06500E+01 5.00000E+01 0.00000E+00
 -1      1158 7.36500E+01 5.00000E+01 0.00000E+00
 -1      1159 7.66500E+01 5.00000E+01 0.00000E+00
 -1      1160 7.96500E+01 5.00000E+01 0.00000E+00
 -1      1161 8.26500E+01 5.00000E+01 0.00000E+00
 -1      1162 8.56500E+01 5.00000E+01 0.00000E+00
 -1      1163 8.86500E+01 5.00000E+01 0.00000E+00
 -1      1164 9.16500E+01 5.00000E+01 0.00000E+00
 -1      1165 9.46500E+01 5.00000E+01 0.00000E+00
 -1      1166 9.76500E+01 5.00000E+01 0.00000E+00
 -1      1167 1.00650E+02 5.00000E+01 0.00000E+00
 -1      1168 1.03650E+02 5.00000E+01 0.00000E+00
 -1      1169 1.06650E+02 5.00000E+01 0.00000E+00
 -1      1170 1.09650E+02 5.00000E+01 0.00000E+00
 -1      1171 1.12650E+02 5.00000E+01 0.00000E+00
 -1      1172 1.15650E+02 5.00000E+01 0.00000E+00
 -1      1173 1.18650E+02 5.00000E+01 0.00000E+00
 -1      1174 1.21650E+02 5.00000E+01 0.00000E+00
 -1      1175 1.24650E+02 5.00000E+01 0.00000E+00
 -1      1176 1.27650E+02 5.00000E+01 0.00000E+00
 -1      1177 1.30650E+02 5.00000E+01 0.00000E+00
 -1      1178 1.33650E+02 5.00000E+01 0.00000E+00
 -1      1179 1.36650E+02 5.00000E+01 0.00000E+00
 -1      1180 1.39650E+02 5.00000E+01 0.00000E+00
 -1      1181 1.42650E+02 5.00000E+01 0.00000E+00
 -1      1182 1.45650E+02 5.00000E+01 0.00000E+00
 -1      1183 1.48575E+02 5.00000E+01 0.00000E+00
 -1      1184 1.57500E+00 0.00000E+00 0.00000E+00
 -1      1185 4.65000E+00 0.00000E+00 0.00000E+00
 -1      1186 7.65000E+00 0.00000E+00 0.00000E+00
 -1      1187 1.06500E+01 0.00000E+00 0.00000E+00
 -1      1188 1.36500E+01 0.00000E+00 0.00000E+00
 -1      1189 1.66500E+01 0.00000E+00 0.00000E+00
 -1      1190 1.96500E+01 0.00000E+00 0.00000E+00
 -1      1191 2.26500E+01 0.00000E+00 0.00000E+00
 -1      1192 2.56500E+01 0.00000E+00 0.00000E+00
 -1      1193 2.86500E+01 0.00000E+00 0.00000E+00
 -1      1194 3.16500E+01 0.00000E+00 0.00000E+00
 -1      1195 3.46500E+01 0.00000E+00 0.00000E+00
 -1      1196 3.76500E+01 0.00000E+00 0.00000E+00
 -1      1197 4.06500E+01 0.00000E+00 0.00000E+00
 -1      1198 4.36500E+01 0.00000E+00 0.00000E+00
 -1      1199 4.66500E+01 0.00000E+00 0.00000E+00
 -1      1200 4.96500E+01 0.00000E+00 0.00000E+00
 -1      1201 5.26500E+01 0.00000E+00 0.00000E+00
 -1      1202 5.56500E+01 0.00000E+00 0.00000E+00
 -1      1203 5.86500E+01 0.00000E+00 0.00000E+00
 -1      1204 6.16500E+01 0.00000E+00 0.00000E+00
 -1      1205 6.46500E+01 0.00000E+00 0.00000E+00
 -1      1206 6.76500E+01 0.00000E+00 0.00000E+00
 -1      1207 7.06500E+01 0.00000E+00 0.00000E+00
 -1      1208 7.36500E+01 0.00000E+00 0.00000E+00
 -1      1209 7.66500E+01 0.00000E+00 0.00000E+00
 -1      1210 7.96500E+01 0.00000E+00 0.00000E+00
 -1      1211 8.26500E+01 0.00000E+00 0.00000E+00
 -1      1212 8.56500E+01 0.00000E+00 0.00000E+00
 -1      1213 8.86500E+01 0.00000E+00 0.00000E+00
 -1      1214 9.16500E+01 0.00000E+00 0.00000E+00
 -1      1215 9.46500E+01 0.00000E+00 0.00000E+00
 -1      1216 9.76500E+01 0.00000E+00 0.00000E+00
 -1      1217 1.00650E+02 0.00000E+00 0.00000E+00
 -1      1218 1.03650E+02 0.00000E+00 0.00000E+00
 -1      1219 1.06650E+02 0.00000E+00 0.00000E+00
 -1      1220 1.09650E+02 0.00000E+00 0.00000E+00
 -1      1221 1.12650E+02 0.00000E+00 0.00000E+00
 -1      1222 1.15650E+02 0.00000E+00 0.00000E+00
 -1      1223 1.18650E+02 0.00000E+00 0.00000E+00
 -1      1224 1.21650E+02 0.00000E+00 0.00000E+00
 -1      1225 1.24650E+02 0.00000E+00 0.00000E+00
 -1      1226 1.27650E+02 0.00000E+00 0.00000E+00
 -1      1227 1.30650E+02 0.00000E+00 0.00000E+00
 -1      1228 1.33650E+02 0.00000E+00 0.00000E+00
 -1      1229 1.36650E+02 0.00000E+00 0.00000E+00
 -1      1230 1.39650E+02 0.00000E+00 0.00000E+00
 -1      1231 1.42650E+02 0.00000E+00 0.00000E+00
 -1      1232 1.45650E+02 0.00000E+00 0.00000E+00
 -1      1233 1.48575E+02 0.00000E+00 0.00000E+00
 -1      1234 1.50000E+02 1.47500E+00 0.00000E+00
 -1      1235 1.50000E+02 4.42500E+00 0.00000E+00
 -1      1236 1.50000E+02 7.37500E+00 0.00000E+00
 -1      1237 1.50000E+02 1.03250E+01 0.00000E+00
 -1      1238 1.50000E+02 1.32750E+01 0.00000E+00
 -1      1239 1.50000E+02 1.62000E+01 0.00000E+00
 -1      1240 1.50000E+02 1.91250E+01 0.00000E+00
 -1      1241 1.50000E+02 2.20750E+01 0.00000E+00
 -1      1242 1.50000E+02 2.50250E+01 0.00000E+00
 -1      1243 1.50000E+02 2.79750E+01 0.00000E+00
 -1      1244 1.50000E+02 3.09250E+01 0.00000E+00
 -1      1245 1.50000E+02 3.38500E+01 0.00000E+00
 -1      1246 1.50000E+02 3.67750E+01 0.00000E+00
 -1      1247 1.50000E+02 3.97250E+01 0.00000E+00
 -1      1248 1.50000E+02 4.26750E+01 0.00000E+00
 -1      1249 1.50000E+02 4.56250E+01 0.00000E+00
 -1      1250 1.50000E+02 4.85500E+01 0.00000E+00
 -1      1251 2.96790E+01 1.90034E+01 0.00000E+00
 -1      1252 2.93502E+01 1.75132E+01 0.00000E+00
 -1      1253 2.87347E+01 1.61770E+01 0.00000E+00
 -1      1254 2.78740E+01 1.50211E+01 0.00000E+00
 -1      1255 2.67429E+01 1.40292E+01 0.00000E+00
 -1      1256 2.53697E+01 1.32785E+01 0.00000E+00
 -1      1257 2.38793E+01 1.28543E+01 0.00000E+00
 -1      1258 2.23584E+01 1.27669E+01 0.00000E+00
 -1      1259 2.08688E+01 1.30067E+01 0.00000E+00
 -1      1260 1.95251E+01 1.35290E+01 0.00000E+00
 -1      1261 1.83077E+01 1.43231E+01 0.00000E+00
 -1      1262 1.72592E+01 1.53778E+01 0.00000E+00
 -1      1263 1.64626E+01 1.66194E+01 0.00000E+00
 -1      1264 1.59530E+01 1.79658E+01 0.00000E+00
 -1      1265 1.57271E+01 1.94364E+01 0.00000E+00
 -1      1266 1.58185E+01 2.09291E+01 0.00000E+00
 -1      1267 1.62470E+01 2.24227E+01 0.00000E+00
 -1      1268 1.69939E+01 2.37843E+01 0.00000E+00
 -1      1269 1.79398E+01 2.48715E+01 0.00000E+00
 -1      1270 1.90854E+01 2.57402E+01 0.00000E+00
 -1      1271 2.04329E+01 2.63735E+01 0.00000E+00
 -1      1272 2.19466E+01 2.67147E+01 0.00000E+00
 -1      1273 2.34014E+01 2.67243E+01 0.00000E+00
 -1      1274 2.47533E+01 2.64557E+01 0.00000E+00
 -1      1275 2.60203E+01 2.59306E+01 0.00000E+00
 -1      1276 2.71366E+01 2.51882E+01 0.00000E+00
 -1      1277 2.81062E+01 2.42281E+01 0.00000E+00
 -1      1278 2.88816E+01 2.30791E+01 0.00000E+00
 -1      1279 2.94242E+01 2.17702E+01 0.00000E+00
 -1      1280 2.96891E+01 2.04120E+01 0.00000E+00
 -1      1281 1.57500E+00 4.85250E+01 0.00000E+00
 -1      1282 1.29900E+00 4.48375E+01 0.00000E+00
 -1      1283 1.29900E+00 4.63125E+01 0.00000E+00
 -1      1284 1.29900E+00 4.18875E+01 0.00000E+00
 -1      1285 1.29900E+00 4.33625E+01 0.00000E+00
 -1      1286 2.59800E+00 4.41000E+01 0.00000E+00
 -1      1287 1.29900E+00 3.89375E+01 0.00000E+00
 -1      1288 1.29900E+00 4.04125E+01 0.00000E+00
 -1      1289 2.59800E+00 4.11500E+01 0.00000E+00
 -1      1290 1.29900E+00 3.59875E+01 0.00000E+00
 -1      1291 1.29900E+00 3.74625E+01 0.00000E+00
 -1      1292 2.59800E+00 3.82000E+01 0.00000E+00
 -1      1293 1.29900E+00 3.30875E+01 0.00000E+00
 -1      1294 1.29900E+00 3.45375E+01 0.00000E+00
 -1      1295 2.59800E+00 3.52750E+01 0.00000E+00
 -1      1296 1.29900E+00 3.01375E+01 0.00000E+00
 -1      1297 1.29900E+00 3.16125E+01 0.00000E+00
 -1      1298 2.59800E+00 3.23500E+01 0.00000E+00
 -1      1299 1.29900E+00 2.71875E+01 0.00000E+00
 -1      1300 1.29900E+00 2.86625E+01 0.00000E+00
 -1      1301 2.59800E+00 2.94000E+01 0.00000E+00
 -1      1302 1.29900E+00 2.42375E+01 0.00000E+00
 -1      1303 1.29900E+00 2.57125E+01 0.00000E+00
 -1      1304 2.59800E+00 2.64500E+01 0.00000E+00
 -1      1305 1.29900E+00 2.12875E+01 0.00000E+00
 -1      1306 1.29900E+00 2.27625E+01 0.00000E+00
 -1      1307 2.59800E+00 2.35000E+01 0.00000E+00
 -1      1308 1.29900E+00 1.83375E+01 0.00000E+00
 -1      1309 1.29900E+00 1.98125E+01 0.00000E+00
 -1      1310 2.59800E+00 2.05500E+01 0.00000E+00
 -1      1311 1.29900E+00 1.54375E+01 0.00000E+00
 -1      1312 1.29900E+00 1.68875E+01 0.00000E+00
 -1      1313 2.59800E+00 1.76250E+01 0.00000E+00
 -1      1314 1.29900E+00 1.24875E+01 0.00000E+00
 -1      1315 1.29900E+00 1.39625E+01 0.00000E+00
 -1      1316 2.59800E+00 1.47000E+01 0.00000E+00
 -1      1317 1.29900E+00 9.53750E+00 0.00000E+00
 -1      1318 1.29900E+00 1.10125E+01 0.00000E+00
 -1      1319 2.59800E+00 1.17500E+01 0.00000E+00
 -1      1320 1.29900E+00 6.58750E+00 0.00000E+00
 -1      1321 1.29900E+00 8.06250E+00 0.00000E+00
 -1      1322 2.59800E+00 8.80000E+00 0.00000E+00
 -1      1323 1.29900E+00 3.63750E+00 0.00000E+00
 -1      1324 1.29900E+00 5.11250E+00 0.00000E+00
 -1      1325 2.59800E+00 5.85000E+00 0.00000E+00
 -1      1326 1.43700E+00 1.09375E+00 0.00000E+00
 -1      1327 1.43700E+00 2.54375E+00 0.00000E+00
 -1      1328 2.73600E+00 3.28125E+00 0.00000E+00
 -1      1329 3.01200E+00 1.09375E+00 0.00000E+00
 -1      1330 3.90000E+00 4.87010E+01 0.00000E+00
 -1      1331 5.40000E+00 4.87010E+01 0.00000E+00
 -1      1332 6.90000E+00 4.87010E+01 0.00000E+00
 -1      1333 8.40000E+00 4.87010E+01 0.00000E+00
 -1      1334 6.15000E+00 4.74020E+01 0.00000E+00
 -1      1335 9.90000E+00 4.87010E+01 0.00000E+00
 -1      1336 1.14000E+01 4.87010E+01 0.00000E+00
 -1      1337 9.15000E+00 4.74020E+01 0.00000E+00
 -1      1338 1.29000E+01 4.87010E+01 0.00000E+00
 -1      1339 1.44000E+01 4.87010E+01 0.00000E+00
 -1      1340 1.21500E+01 4.74020E+01 0.00000E+00
 -1      1341 1.59000E+01 4.87010E+01 0.00000E+00
 -1      1342 1.74000E+01 4.87010E+01 0.00000E+00
 -1      1343 1.51500E+01 4.74020E+01 0.00000E+00
 -1      1344 1.89000E+01 4.87010E+01 0.00000E+00
 -1      1345 2.04000E+01 4.87010E+01 0.00000E+00
 -1      1346 1.81500E+01 4.74020E+01 0.00000E+00
 -1      1347 2.19000E+01 4.87010E+01 0.00000E+00
 -1      1348 2.34000E+01 4.87010E+01 0.00000E+00
 -1      1349 2.11500E+01 4.74020E+01 0.00000E+00
 -1      1350 2.49000E+01 4.87010E+01 0.00000E+00
 -1      1351 2.64000E+01 4.87010E+01 0.00000E+00
 -1      1352 2.41500E+01 4.74020E+01 0.00000E+00
 -1      1353 2.79000E+01 4.87010E+01 0.00000E+00
 -1      1354 2.94000E+01 4.87010E+01 0.00000E+00
 -1      1355 2.71500E+01 4.74020E+01 0.00000E+00
 -1      1356 3.09000E+01 4.87010E+01 0.00000E+00
 -1      1357 3.24000E+01 4.87010E+01 0.00000E+00
 -1      1358 3.01500E+01 4.74020E+01 0.00000E+00
 -1      1359 3.39000E+01 4.87010E+01 0.00000E+00
 -1      1360 3.54000E+01 4.87010E+01 0.00000E+00
 -1      1361 3.31500E+01 4.74020E+01 0.00000E+00
 -1      1362 3.69000E+01 4.87010E+01 0.00000E+00
 -1      1363 3.84000E+01 4.87010E+01 0.00000E+00
 -1      1364 3.61500E+01 4.74020E+01 0.00000E+00
 -1      1365 3.99000E+01 4.87010E+01 0.00000E+00
 -1      1366 4.14000E+01 4.87010E+01 0.00000E+00
 -1      1367 3.91500E+01 4.74020E+01 0.00000E+00
 -1      1368 4.29000E+01 4.87010E+01 0.00000E+00
 -1      1369 4.44000E+01 4.87010E+01 0.00000E+00
 -1      1370 4.21500E+01 4.74020E+01 0.00000E+00
 -1      1371 4.59000E+01 4.87010E+01 0.00000E+00
 -1      1372 4.74000E+01 4.87010E+01 0.00000E+00
 -1      1373 4.51500E+01 4.74020E+01 0.00000E+00
 -1      1374 4.89000E+01 4.87010E+01 0.00000E+00
 -1      1375 5.04000E+01 4.87010E+01 0.00000E+00
 -1      1376 4.81500E+01 4.74020E+01 0.00000E+00
 -1      1377 5.19000E+01 4.87010E+01 0.00000E+00
 -1      1378 5.34000E+01 4.87010E+01 0.00000E+00
 -1      1379 5.11500E+01 4.74020E+01 0.00000E+00
 -1      1380 5.49000E+01 4.87010E+01 0.00000E+00
 -1      1381 5.64000E+01 4.87010E+01 0.00000E+00
 -1      1382 5.41500E+01 4.74020E+01 0.00000E+00
 -1      1383 5.79000E+01 4.87010E+01 0.00000E+00
 -1      1384 5.94000E+01 4.87010E+01 0.00000E+00
 -1      1385 5.71500E+01 4.74020E+01 0.00000E+00
 -1      1386 6.09000E+01 4.87010E+01 0.00000E+00
 -1      1387 6.24000E+01 4.87010E+01 0.00000E+00
 -1      1388 6.01500E+01 4.74020E+01 0.00000E+00
 -1      1389 6.39000E+01 4.87010E+01 0.00000E+00
 -1      1390 6.54000E+01 4.87010E+01 0.00000E+00
 -1      1391 6.31500E+01 4.74020E+01 0.00000E+00
 -1      1392 6.69000E+01 4.87010E+01 0.00000E+00
 -1      1393 6.84000E+01 4.87010E+01 0.00000E+00
 -1      1394 6.61500E+01 4.74020E+01 0.00000E+00
 -1      1395 6.99000E+01 4.87010E+01 0.00000E+00
 -1      1396 7.14000E+01 4.87010E+01 0.00000E+00
 -1      1397 6.91500E+01 4.74020E+01 0.00000E+00
 -1      1398 7.29000E+01 4.87010E+01 0.00000E+00
 -1      1399 7.44000E+01 4.87010E+01 0.00000E+00
 -1      1400 7.21500E+01 4.74020E+01 0.00000E+00
 -1      1401 7.59000E+01 4.87010E+01 0.00000E+00
 -1      1402 7.74000E+01 4.87010E+01 0.00000E+00
 -1      1403 7.51500E+01 4.74020E+01 0.00000E+00
 -1      1404 7.89000E+01 4.87010E+01 0.00000E+00
 -1      1405 8.04000E+01 4.87010E+01 0.00000E+00
 -1      1406 7.81500E+01 4.74020E+01 0.00000E+00
 -1      1407 8.19000E+01 4.87010E+01 0.00000E+00
 -1      1408 8.34000E+01 4.87010E+01 0.00000E+00
 -1      1409 8.11500E+01 4.74020E+01 0.00000E+00
 -1      1410 8.49000E+01 4.87010E+01 0.00000E+00
 -1      1411 8.64000E+01 4.87010E+01 0.00000E+00
 -1      1412 8.41500E+01 4.74020E+01 0.00000E+00
 -1      1413 8.79000E+01 4.87010E+01 0.00000E+00
 -1      1414 8.94000E+01 4.87010E+01 0.00000E+00
 -1      1415 8.71500E+01 4.74020E+01 0.00000E+00
 -1      1416 9.09000E+01 4.87010E+01 0.00000E+00
 -1      1417 9.24000E+01 4.87010E+01 0.00000E+00
 -1      1418 9.01500E+01 4.74020E+01 0.00000E+00
 -1      1419 9.39000E+01 4.87010E+01 0.00000E+00
 -1      1420 9.54000E+01 4.87010E+01 0.00000E+00
 -1      1421 9.31500E+01 4.74020E+01 0.00000E+00
 -1      1422 9.69000E+01 4.87010E+01 0.00000E+00
 -1      1423 9.84000E+01 4.87010E+01 0.00000E+00
 -1      1424 9.61500E+01 4.74020E+01 0.00000E+00
 -1      1425 9.99000E+01 4.87010E+01 0.00000E+00
 -1      1426 1.01400E+02 4.87010E+01 0.00000E+00
 -1      1427 9.91500E+01 4.74020E+01 0.00000E+00
 -1      1428 1.02900E+02 4.87010E+01 0.00000E+00
 -1      1429 1.04400E+02 4.87010E+01 0.00000E+00
 -1      1430 1.02150E+02 4.74020E+01 0.00000E+00
 -1      1431 1.05900E+02 4.87010E+01 0.00000E+00
 -1      1432 1.07400E+02 4.87010E+01 0.00000E+00
 -1      1433 1.05150E+02 4.74020E+01 0.00000E+00
 -1      1434 1.08900E+02 4.87010E+01 0.00000E+00
 -1      1435 1.10400E+02 4.87010E+01 0.00000E+00
 -1      1436 1.08150E+02 4.74020E+01 0.00000E+00
 -1      1437 1.11900E+02 4.87010E+01 0.00000E+00
 -1      1438 1.13400E+02 4.87010E+01 0.00000E+00
 -1      1439 1.11150E+02 4.74020E+01 0.00000E+00
 -1      1440 1.14900E+02 4.87010E+01 0.00000E+00
 -1      1441 1.16400E+02 4.87010E+01 0.00000E+00
 -1      1442 1.14150E+02 4.74020E+01 0.00000E+00
 -1      1443 1.17900E+02 4.87010E+01 0.00000E+00
 -1      1444 1.19400E+02 4.87010E+01 0.00000E+00
 -1      1445 1.17150E+02 4.74020E+01 0.00000E+00
 -1      1446 1.20900E+02 4.87010E+01 0.00000E+00
 -1      1447 1.22400E+02 4.87010E+01 0.00000E+00
 -1      1448 1.20150E+02 4.74020E+01 0.00000E+00
 -1      1449 1.23900E+02 4.87010E+01 0.00000E+00
 -1      1450 1.25400E+02 4.87010E+01 0.00000E+00
 -1      1451 1.23150E+02 4.74020E+01 0.00000E+00
 -1      1452 1.26900E+02 4.87010E+01 0.00000E+00
 -1      1453 1.28400E+02 4.87010E+01 0.00000E+00
 -1      1454 1.26150E+02 4.74020E+01 0.00000E+00
 -1      1455 1.29900E+02 4.87010E+01 0.00000E+00
 -1      1456 1.31400E+02 4.87010E+01 0.00000E+00
 -1      1457 1.29150E+02 4.74020E+01 0.00000E+00
 -1      1458 1.32900E+02 4.87010E+01 0.00000E+00
 -1      1459 1.34400E+02 4.87010E+01 0.00000E+00
 -1      1460 1.32150E+02 4.74020E+01 0.00000E+00
 -1      1461 1.35900E+02 4.87010E+01 0.00000E+00
 -1      1462 1.37400E+02 4.87010E+01 0.00000E+00
 -1      1463 1.35150E+02 4.74020E+01 0.00000E+00
 -1      1464 1.38900E+02 4.87010E+01 0.00000E+00
 -1      1465 1.40400E+02 4.87010E+01 0.00000E+00
 -1      1466 1.38150E+02 4.74020E+01 0.00000E+00
 -1      1467 1.41900E+02 4.87010E+01 0.00000E+00
 -1      1468 1.43400E+02 4.87010E+01 0.00000E+00
 -1      1469 1.41150E+02 4.74020E+01 0.00000E+00
 -1      1470 1.44900E+02 4.87010E+01 0.00000E+00
 -1      1471 1.46400E+02 4.87010E+01 0.00000E+00
 -1      1472 1.44150E+02 4.74020E+01 0.00000E+00
 -1      1473 1.48575E+02 4.85500E+01 0.00000E+00
 -1      1474 1.47825E+02 4.72510E+01 0.00000E+00
 -1      1475 6.01200E+00 1.09375E+00 0.00000E+00
 -1      1476 4.51200E+00 1.09375E+00 0.00000E+00
 -1      1477 4.37400E+00 2.18750E+00 0.00000E+00
 -1      1478 9.01200E+00 1.09375E+00 0.00000E+00
 -1      1479 7.51200E+00 1.09375E+00 0.00000E+00
 -1      1480 7.37400E+00 2.18750E+00 0.00000E+00
 -1      1481 1.20120E+01 1.09375E+00 0.00000E+00
 -1      1482 1.05120E+01 1.09375E+00 0.00000E+00
 -1      1483 1.03740E+01 2.18750E+00 0.00000E+00
 -1      1484 1.50120E+01 1.09375E+00 0.00000E+00
 -1      1485 1.35120E+01 1.09375E+00 0.00000E+00
 -1      1486 1.33740E+01 2.18750E+00 0.00000E+00
 -1      1487 1.80120E+01 1.09375E+00 0.00000E+00
 -1      1488 1.65120E+01 1.09375E+00 0.00000E+00
 -1      1489 1.63740E+01 2.18750E+00 0.00000E+00
 -1      1490 2.10120E+01 1.09375E+00 0.00000E+00
 -1      1491 1.95120E+01 1.09375E+00 0.00000E+00
 -1      1492 1.93740E+01 2.18750E+00 0.00000E+00
 -1      1493 2.40120E+01 1.09375E+00 0.00000E+00
 -1      1494 2.25120E+01 1.09375E+00 0.00000E+00
 -1      1495 2.23740E+01 2.18750E+00 0.00000E+00
 -1      1496 2.70120E+01 1.09375E+00 0.00000E+00
 -1      1497 2.55120E+01 1.09375E+00 0.00000E+00
 -1      1498 2.53740E+01 2.18750E+00 0.00000E+00
 -1      1499 3.00120E+01 1.09375E+00 0.00000E+00
 -1      1500 2.85120E+01 1.09375E+00 0.00000E+00
 -1      1501 2.83740E+01 2.18750E+00 0.00000E+00
 -1      1502 3.30120E+01 1.09375E+00 0.00000E+00
 -1      1503 3.15120E+01 1.09375E+00 0.00000E+00
 -1      1504 3.13740E+01 2.18750E+00 0.00000E+00
 -1      1505 3.60120E+01 1.09375E+00 0.00000E+00
 -1      1506 3.45120E+01 1.09375E+00 0.00000E+00
 -1      1507 3.43740E+01 2.18750E+00 0.00000E+00
 -1      1508 3.90120E+01 1.09375E+00 0.00000E+00
 -1      1509 3.75120E+01 1.09375E+00 0.00000E+00
 -1      1510 3.73740E+01 2.18750E+00 0.00000E+00
 -1      1511 4.20120E+01 1.09375E+00 0.00000E+00
 -1      1512 4.05120E+01 1.09375E+00 0.00000E+00
 -1      1513 4.03740E+01 2.18750E+00 0.00000E+00
 -1      1514 4.50120E+01 1.09375E+00 0.00000E+00
 -1      1515 4.35120E+01 1.09375E+00 0.00000E+00
 -1      1516 4.33740E+01 2.18750E+00 0.00000E+00
 -1      1517 4.80120E+01 1.09375E+00 0.00000E+00
 -1      1518 4.65120E+01 1.09375E+00 0.00000E+00
 -1      1519 4.63740E+01 2.18750E+00 0.00000E+00
 -1      1520 5.10120E+01 1.09375E+00 0.00000E+00
 -1      1521 4.95120E+01 1.09375E+00 0.00000E+00
 -1      1522 4.93740E+01 2.18750E+00 0.00000E+00
 -1      1523 5.40120E+01 1.09375E+00 0.00000E+00
 -1      1524 5.25120E+01 1.09375E+00 0.00000E+00
 -1      1525 5.23740E+01 2.18750E+00 0.00000E+00
 -1      1526 5.70120E+01 1.09375E+00 0.00000E+00
 -1      1527 5.55120E+01 1.09375E+00 0.00000E+00
 -1      1528 5.53740E+01 2.18750E+00 0.00000E+00
 -1      1529 6.00120E+01 1.09375E+00 0.00000E+00
 -1      1530 5.85120E+01 1.09375E+00 0.00000E+00
 -1      1531 5.83740E+01 2.18750E+00 0.00000E+00
 -1      1532 6.30120E+01 1.09375E+00 0.00000E+00
 -1      1533 6.15120E+01 1.09375E+00 0.00000E+00
 -1      1534 6.13740E+01 2.18750E+00 0.00000E+00
 -1      1535 6.60120E+01 1.09375E+00 0.00000E+00
 -1      1536 6.45120E+01 1.09375E+00 0.00000E+00
 -1      1537 6.43740E+01 2.18750E+00 0.00000E+00
 -1      1538 6.90120E+01 1.09375E+00 0.00000E+00
 -1      1539 6.75120E+01 1.09375E+00 0.00000E+00
 -1      1540 6.73740E+01 2.18750E+00 0.00000E+00
 -1      1541 7.20120E+01 1.09375E+00 0.00000E+00
 -1      1542 7.05120E+01 1.09375E+00 0.00000E+00
 -1      1543 7.03740E+01 2.18750E+00 0.00000E+00
 -1      1544 7.50120E+01 1.09375E+00 0.00000E+00
 -1      1545 7.35120E+01 1.09375E+00 0.00000E+00
 -1      1546 7.33740E+01 2.18750E+00 0.00000E+00
 -1      1547 7.80120E+01 1.09375E+00 0.00000E+00
 -1      1548 7.65120E+01 1.09375E+00 0.00000E+00
 -1      1549 7.63740E+01 2.18750E+00 0.00000E+00
 -1      1550 8.10120E+01 1.09375E+00 0.00000E+00
 -1      1551 7.95120E+01 1.09375E+00 0.00000E+00
 -1      1552 7.93740E+01 2.18750E+00 0.00000E+00
 -1      1553 8.40120E+01 1.09375E+00 0.00000E+00
 -1      1554 8.25120E+01 1.09375E+00 0.00000E+00
 -1      1555 8.23740E+01 2.18750E+00 0.00000E+00
 -1      1556 8.70120E+01 1.09375E+00 0.00000E+00
 -1      1557 8.55120E+01 1.09375E+00 0.00000E+00
 -1      1558 8.53740E+01 2.18750E+00 0.00000E+00
 -1      1559 9.00120E+01 1.09375E+00 0.00000E+00
 -1      1560 8.85120E+01 1.09375E+00 0.00000E+00
 -1      1561 8.83740E+01 2.18750E+00 0.00000E+00
 -1      1562 9.30120E+01 1.09375E+00 0.00000E+00
 -1      1563 9.15120E+01 1.09375E+00 0.00000E+00
 -1      1564 9.13740E+01 2.18750E+00 0.00000E+00
 -1      1565 9.60120E+01 1.09375E+00 0.00000E+00
 -1      1566 9.45120E+01 1.09375E+00 0.00000E+00
 -1      1567 9.43740E+01 2.18750E+00 0.00000E+00
 -1      1568 9.90120E+01 1.09375E+00 0.00000E+00
 -1      1569 9.75120E+01 1.09375E+00 0.00000E+00
 -1      1570 9.73740E+01 2.18750E+00 0.00000E+00
 -1      1571 1.02012E+02 1.09375E+00 0.00000E+00
 -1      1572 1.00512E+02 1.09375E+00 0.00000E+00
 -1      1573 1.00374E+02 2.18750E+00 0.00000E+00
 -1      1574 1.05012E+02 1.09375E+00 0.00000E+00
 -1      1575 1.03512E+02 1.09375E+00 0.00000E+00
 -1      1576 1.03374E+02 2.18750E+00 0.00000E+00
 -1      1577 1.08012E+02 1.09375E+00 0.00000E+00
 -1      1578 1.06512E+02 1.09375E+00 0.00000E+00
 -1      1579 1.06374E+02 2.18750E+00 0.00000E+00
 -1      1580 1.11012E+02 1.09375E+00 0.00000E+00
 -1      1581 1.09512E+02 1.09375E+00 0.00000E+00
 -1      1582 1.09374E+02 2.18750E+00 0.00000E+00
 -1      1583 1.14012E+02 1.09375E+00 0.00000E+00
 -1      1584 1.12512E+02 1.09375E+00 0.00000E+00
 -1      1585 1.12374E+02 2.18750E+00 0.00000E+00
 -1      1586 1.17012E+02 1.09375E+00 0.00000E+00
 -1      1587 1.15512E+02 1.09375E+00 0.00000E+00
 -1      1588 1.15374E+02 2.18750E+00 0.00000E+00
 -1      1589 1.20012E+02 1.09375E+00 0.00000E+00
 -1      1590 1.18512E+02 1.09375E+00 0.00000E+00
 -1      1591 1.18374E+02 2.18750E+00 0.00000E+00
 -1      1592 1.23012E+02 1.09375E+00 0.00000E+00
 -1      1593 1.21512E+02 1.09375E+00 0.00000E+00
 -1      1594 1.21374E+02 2.18750E+00 0.00000E+00
 -1      1595 1.26012E+02 1.09375E+00 0.00000E+00
 -1      1596 1.24512E+02 1.09375E+00 0.00000E+00
 -1      1597 1.24374E+02 2.18750E+00 0.00000E+00
 -1      1598 1.29012E+02 1.09375E+00 0.00000E+00
 -1      1599 1.27512E+02 1.09375E+00 0.00000E+00
 -1      1600 1.27374E+02 2.18750E+00 0.00000E+00
 -1      1601 1.32012E+02 1.09375E+00 0.00000E+00
 -1      1602 1.30512E+02 1.09375E+00 0.00000E+00
 -1      1603 1.30374E+02 2.18750E+00 0.00000E+00
 -1      1604 1.35012E+02 1.09375E+00 0.00000E+00
 -1      1605 1.33512E+02 1.09375E+00 0.00000E+00
 -1      1606 1.33374E+02 2.18750E+00 0.00000E+00
 -1      1607 1.38012E+02 1.09375E+00 0.00000E+00
 -1      1608 1.36512E+02 1.09375E+00 0.00000E+00
 -1      1609 1.36374E+02 2.18750E+00 0.00000E+00
 -1      1610 1.41012E+02 1.09375E+00 0.00000E+00
 -1      1611 1.39512E+02 1.09375E+00 0.00000E+00
 -1      1612 1.39374E+02 2.18750E+00 0.00000E+00
 -1      1613 1.44012E+02 1.09375E+00 0.00000E+00
 -1      1614 1.42512E+02 1.09375E+00 0.00000E+00
 -1      1615 1.42374E+02 2.18750E+00 0.00000E+00
 -1      1616 1.47012E+02 1.09375E+00 0.00000E+00
 -1      1617 1.45512E+02 1.09375E+00 0.00000E+00
 -1      1618 1.45374E+02 2.18750E+00 0.00000E+00
 -1      1619 1.48575E+02 1.47500E+00 0.00000E+00
 -1      1620 1.48701E+02 5.16250E+00 0.00000E+00
 -1      1621 1.48701E+02 3.68750E+00 0.00000E+00
 -1      1622 1.48701E+02 8.11250E+00 0.00000E+00
 -1      1623 1.48701E+02 6.63750E+00 0.00000E+00
 -1      1624 1.47402E+02 5.90000E+00 0.00000E+00
 -1      1625 1.48701E+02 1.10625E+01 0.00000E+00
 -1      1626 1.48701E+02 9.58750E+00 0.00000E+00
 -1      1627 1.47402E+02 8.85000E+00 0.00000E+00
 -1      1628 1.48701E+02 1.40125E+01 0.00000E+00
 -1      1629 1.48701E+02 1.25375E+01 0.00000E+00
 -1      1630 1.47402E+02 1.18000E+01 0.00000E+00
 -1      1631 1.48701E+02 1.69125E+01 0.00000E+00
 -1      1632 1.48701E+02 1.54625E+01 0.00000E+00
 -1      1633 1.47402E+02 1.47250E+01 0.00000E+00
 -1      1634 1.48701E+02 1.98625E+01 0.00000E+00
 -1      1635 1.48701E+02 1.83875E+01 0.00000E+00
 -1      1636 1.47402E+02 1.76500E+01 0.00000E+00
 -1      1637 1.48701E+02 2.28125E+01 0.00000E+00
 -1      1638 1.48701E+02 2.13375E+01 0.00000E+00
 -1      1639 1.47402E+02 2.06000E+01 0.00000E+00
 -1      1640 1.48701E+02 2.57625E+01 0.00000E+00
 -1      1641 1.48701E+02 2.42875E+01 0.00000E+00
 -1      1642 1.47402E+02 2.35500E+01 0.00000E+00
 -1      1643 1.48701E+02 2.87125E+01 0.00000E+00
 -1      1644 1.48701E+02 2.72375E+01 0.00000E+00
 -1      1645 1.47402E+02 2.65000E+01 0.00000E+00
 -1      1646 1.48701E+02 3.16625E+01 0.00000E+00
 -1      1647 1.48701E+02 3.01875E+01 0.00000E+00
 -1      1648 1.47402E+02 2.94500E+01 0.00000E+00
 -1      1649 1.48701E+02 3.45625E+01 0.00000E+00
 -1      1650 1.48701E+02 3.31125E+01 0.00000E+00
 -1      1651 1.47402E+02 3.23750E+01 0.00000E+00
 -1      1652 1.48701E+02 3.75125E+01 0.00000E+00
 -1      1653 1.48701E+02 3.60375E+01 0.00000E+00
 -1      1654 1.47402E+02 3.53000E+01 0.00000E+00
 -1      1655 1.48701E+02 4.04625E+01 0.00000E+00
 -1      1656 1.48701E+02 3.89875E+01 0.00000E+00
 -1      1657 1.47402E+02 3.82500E+01 0.00000E+00
 -1      1658 1.48701E+02 4.34125E+01 0.00000E+00
 -1      1659 1.48701E+02 4.19375E+01 0.00000E+00
 -1      1660 1.47402E+02 4.12000E+01 0.00000E+00
 -1      1661 1.48263E+02 4.60692E+01 0.00000E+00
 -1      1662 1.48263E+02 4.45942E+01 0.00000E+00
 -1      1663 1.46964E+02 4.38568E+01 0.00000E+00
 -1      1664 1.46088E+02 4.62202E+01 0.00000E+00
 -1      1665 3.02422E+01 1.85630E+01 0.00000E+00
 -1      1666 3.03235E+01 1.93128E+01 0.00000E+00
 -1      1667 2.98397E+01 1.69402E+01 0.00000E+00
 -1      1668 3.00871E+01 1.76712E+01 0.00000E+00
 -1      1669 2.90466E+01 1.55843E+01 0.00000E+00
 -1      1670 2.94044E+01 1.61853E+01 0.00000E+00
 -1      1671 2.80712E+01 1.43361E+01 0.00000E+00
 -1      1672 2.85731E+01 1.48823E+01 0.00000E+00
 -1      1673 2.67793E+01 1.33137E+01 0.00000E+00
 -1      1674 2.74035E+01 1.37521E+01 0.00000E+00
 -1      1675 2.52105E+01 1.26083E+01 0.00000E+00
 -1      1676 2.59530E+01 1.29120E+01 0.00000E+00
 -1      1677 2.36046E+01 1.22340E+01 0.00000E+00
 -1      1678 2.43416E+01 1.23578E+01 0.00000E+00
 -1      1679 2.19375E+01 1.21410E+01 0.00000E+00
 -1      1680 2.27126E+01 1.21009E+01 0.00000E+00
 -1      1681 2.03542E+01 1.25157E+01 0.00000E+00
 -1      1682 2.10609E+01 1.23219E+01 0.00000E+00
 -1      1683 1.88922E+01 1.30716E+01 0.00000E+00
 -1      1684 1.95229E+01 1.27481E+01 0.00000E+00
 -1      1685 1.76351E+01 1.40855E+01 0.00000E+00
 -1      1686 1.82133E+01 1.36161E+01 0.00000E+00
 -1      1687 1.65848E+01 1.53129E+01 0.00000E+00
 -1      1688 1.70494E+01 1.47337E+01 0.00000E+00
 -1      1689 1.57909E+01 1.66924E+01 0.00000E+00
 -1      1690 1.61193E+01 1.60374E+01 0.00000E+00
 -1      1691 1.53111E+01 1.81615E+01 0.00000E+00
 -1      1692 1.54920E+01 1.74781E+01 0.00000E+00
 -1      1693 1.50636E+01 1.97968E+01 0.00000E+00
 -1      1694 1.50994E+01 1.90168E+01 0.00000E+00
 -1      1695 1.53167E+01 2.13767E+01 0.00000E+00
 -1      1696 1.51971E+01 2.06722E+01 0.00000E+00
 -1      1697 1.57379E+01 2.30861E+01 0.00000E+00
 -1      1698 1.54184E+01 2.23101E+01 0.00000E+00
 -1      1699 1.67332E+01 2.44039E+01 0.00000E+00
 -1      1700 1.63226E+01 2.38201E+01 0.00000E+00
 -1      1701 1.78175E+01 2.55350E+01 0.00000E+00
 -1      1702 1.72860E+01 2.50383E+01 0.00000E+00
 -1      1703 1.90930E+01 2.64118E+01 0.00000E+00
 -1      1704 1.84859E+01 2.60430E+01 0.00000E+00
 -1      1705 2.05622E+01 2.71909E+01 0.00000E+00
 -1      1706 1.98264E+01 2.69366E+01 0.00000E+00
 -1      1707 2.22593E+01 2.74006E+01 0.00000E+00
 -1      1708 2.14909E+01 2.73152E+01 0.00000E+00
 -1      1709 2.37964E+01 2.72613E+01 0.00000E+00
 -1      1710 2.31180E+01 2.73277E+01 0.00000E+00
 -1      1711 2.52648E+01 2.69414E+01 0.00000E+00
 -1      1712 2.45982E+01 2.71438E+01 0.00000E+00
 -1      1713 2.65883E+01 2.62774E+01 0.00000E+00
 -1      1714 2.59932E+01 2.65955E+01 0.00000E+00
 -1      1715 2.77573E+01 2.54238E+01 0.00000E+00
 -1      1716 2.72408E+01 2.58439E+01 0.00000E+00
 -1      1717 2.87689E+01 2.43241E+01 0.00000E+00
 -1      1718 2.83227E+01 2.48618E+01 0.00000E+00
 -1      1719 2.95485E+01 2.30481E+01 0.00000E+00
 -1      1720 2.92223E+01 2.36532E+01 0.00000E+00
 -1      1721 3.01534E+01 2.16083E+01 0.00000E+00
 -1      1722 2.99437E+01 2.23069E+01 0.00000E+00
 -1      1723 3.02927E+01 2.01400E+01 0.00000E+00
 -1      1724 3.02316E+01 2.07915E+01 0.00000E+00
 -1      1725 2.81316E+01 1.35866E+01 0.00000E+00
 -1      1726 2.92729E+01 1.48727E+01 0.00000E+00
 -1      1727 1.48437E+02 2.56875E+00 0.00000E+00
 -1      1728 1.47138E+02 3.30625E+00 0.00000E+00
 -1      1729 3.07720E+01 1.79763E+01 0.00000E+00
 -1      1730 3.01817E+01 1.63296E+01 0.00000E+00
 -1      1731 3.08964E+01 1.96953E+01 0.00000E+00
 -1      1732 2.66376E+01 1.26008E+01 0.00000E+00
 -1      1733 2.49424E+01 1.19486E+01 0.00000E+00
 -1      1734 2.31815E+01 1.15650E+01 0.00000E+00
 -1      1735 2.14128E+01 1.16128E+01 0.00000E+00
 -1      1736 1.97049E+01 1.20262E+01 0.00000E+00
 -1      1737 1.81946E+01 1.28031E+01 0.00000E+00
 -1      1738 1.69300E+01 1.39958E+01 0.00000E+00
 -1      1739 1.58787E+01 1.53686E+01 0.00000E+00
 -1      1740 1.51144E+01 1.68789E+01 0.00000E+00
 -1      1741 1.46039E+01 1.85199E+01 0.00000E+00
 -1      1742 1.45258E+01 2.02505E+01 0.00000E+00
 -1      1743 1.47610E+01 2.20593E+01 0.00000E+00
 -1      1744 1.54474E+01 2.37267E+01 0.00000E+00
 -1      1745 1.65849E+01 2.50951E+01 0.00000E+00
 -1      1746 1.78063E+01 2.62375E+01 0.00000E+00
 -1      1747 1.92081E+01 2.72703E+01 0.00000E+00
 -1      1748 2.08702E+01 2.79194E+01 0.00000E+00
 -1      1749 2.26576E+01 2.79707E+01 0.00000E+00
 -1      1750 2.43180E+01 2.77803E+01 0.00000E+00
 -1      1751 2.58482E+01 2.73169E+01 0.00000E+00
 -1      1752 2.72290E+01 2.65376E+01 0.00000E+00
 -1      1753 2.84469E+01 2.55421E+01 0.00000E+00
 -1      1754 2.94656E+01 2.43092E+01 0.00000E+00
 -1      1755 3.03142E+01 2.28971E+01 0.00000E+00
 -1      1756 3.07875E+01 2.13392E+01 0.00000E+00
 -1      1757 2.87400E+00 4.77875E+01 0.00000E+00
 -1      1758 3.89700E+00 4.04125E+01 0.00000E+00
 -1      1759 3.89700E+00 4.18875E+01 0.00000E+00
 -1      1760 3.89700E+00 4.33625E+01 0.00000E+00
 -1      1761 3.89700E+00 4.48375E+01 0.00000E+00
 -1      1762 5.19600E+00 4.26250E+01 0.00000E+00
 -1      1763 3.89700E+00 3.45500E+01 0.00000E+00
 -1      1764 3.89700E+00 3.60000E+01 0.00000E+00
 -1      1765 3.89700E+00 3.16000E+01 0.00000E+00
 -1      1766 3.89700E+00 3.30750E+01 0.00000E+00
 -1      1767 5.19600E+00 3.38000E+01 0.00000E+00
 -1      1768 3.89700E+00 2.86500E+01 0.00000E+00
 -1      1769 3.89700E+00 3.01250E+01 0.00000E+00
 -1      1770 5.19600E+00 3.08500E+01 0.00000E+00
 -1      1771 3.89700E+00 2.57000E+01 0.00000E+00
 -1      1772 3.89700E+00 2.71750E+01 0.00000E+00
 -1      1773 5.19600E+00 2.79000E+01 0.00000E+00
 -1      1774 3.89700E+00 2.27500E+01 0.00000E+00
 -1      1775 3.89700E+00 2.42250E+01 0.00000E+00
 -1      1776 5.19600E+00 2.49500E+01 0.00000E+00
 -1      1777 3.89700E+00 1.98000E+01 0.00000E+00
 -1      1778 3.89700E+00 2.12750E+01 0.00000E+00
 -1      1779 5.19600E+00 2.20000E+01 0.00000E+00
 -1      1780 3.89700E+00 1.69000E+01 0.00000E+00
 -1      1781 3.89700E+00 1.83500E+01 0.00000E+00
 -1      1782 5.19600E+00 1.90750E+01 0.00000E+00
 -1      1783 3.89700E+00 1.39500E+01 0.00000E+00
 -1      1784 3.89700E+00 1.54250E+01 0.00000E+00
 -1      1785 5.19600E+00 1.61500E+01 0.00000E+00
 -1      1786 3.89700E+00 1.10000E+01 0.00000E+00
 -1      1787 3.89700E+00 1.24750E+01 0.00000E+00
 -1      1788 5.19600E+00 1.32000E+01 0.00000E+00
 -1      1789 3.89700E+00 8.05000E+00 0.00000E+00
 -1      1790 3.89700E+00 9.52500E+00 0.00000E+00
 -1      1791 5.19600E+00 1.02500E+01 0.00000E+00
 -1      1792 3.89700E+00 5.10000E+00 0.00000E+00
 -1      1793 3.89700E+00 6.57500E+00 0.00000E+00
 -1      1794 5.19600E+00 7.30000E+00 0.00000E+00
 -1      1795 4.20450E+00 3.09687E+00 0.00000E+00
 -1      1796 4.06650E+00 4.19063E+00 0.00000E+00
 -1      1797 5.36550E+00 4.91563E+00 0.00000E+00
 -1      1798 5.70450E+00 3.09687E+00 0.00000E+00
 -1      1799 3.62400E+00 4.64885E+01 0.00000E+00
 -1      1800 8.70450E+00 3.09687E+00 0.00000E+00
 -1      1801 7.20450E+00 3.09687E+00 0.00000E+00
 -1      1802 7.03500E+00 4.00625E+00 0.00000E+00
 -1      1803 4.92300E+00 4.57510E+01 0.00000E+00
 -1      1804 8.40000E+00 4.61030E+01 0.00000E+00
 -1      1805 9.90000E+00 4.61030E+01 0.00000E+00
 -1      1806 1.14000E+01 4.61030E+01 0.00000E+00
 -1      1807 1.29000E+01 4.61030E+01 0.00000E+00
 -1      1808 1.06500E+01 4.48040E+01 0.00000E+00
 -1      1809 1.44000E+01 4.61030E+01 0.00000E+00
 -1      1810 1.59000E+01 4.61030E+01 0.00000E+00
 -1      1811 1.36500E+01 4.48040E+01 0.00000E+00
 -1      1812 1.74000E+01 4.61030E+01 0.00000E+00
 -1      1813 1.89000E+01 4.61030E+01 0.00000E+00
 -1      1814 1.66500E+01 4.48040E+01 0.00000E+00
 -1      1815 2.04000E+01 4.61030E+01 0.00000E+00
 -1      1816 2.19000E+01 4.61030E+01 0.00000E+00
 -1      1817 1.96500E+01 4.48040E+01 0.00000E+00
 -1      1818 2.34000E+01 4.61030E+01 0.00000E+00
 -1      1819 2.49000E+01 4.61030E+01 0.00000E+00
 -1      1820 2.26500E+01 4.48040E+01 0.00000E+00
 -1      1821 2.64000E+01 4.61030E+01 0.00000E+00
 -1      1822 2.79000E+01 4.61030E+01 0.00000E+00
 -1      1823 2.56500E+01 4.48040E+01 0.00000E+00
 -1      1824 2.94000E+01 4.61030E+01 0.00000E+00
 -1      1825 3.09000E+01 4.61030E+01 0.00000E+00
 -1      1826 2.86500E+01 4.48040E+01 0.00000E+00
 -1      1827 3.24000E+01 4.61030E+01 0.00000E+00
 -1      1828 3.39000E+01 4.61030E+01 0.00000E+00
 -1      1829 3.16500E+01 4.48040E+01 0.00000E+00
 -1      1830 3.54000E+01 4.61030E+01 0.00000E+00
 -1      1831 3.69000E+01 4.61030E+01 0.00000E+00
 -1      1832 3.46500E+01 4.48040E+01 0.00000E+00
 -1      1833 3.84000E+01 4.61030E+01 0.00000E+00
 -1      1834 3.99000E+01 4.61030E+01 0.00000E+00
 -1      1835 3.76500E+01 4.48040E+01 0.00000E+00
 -1      1836 4.14000E+01 4.61030E+01 0.00000E+00
 -1      1837 4.29000E+01 4.61030E+01 0.00000E+00
 -1      1838 4.06500E+01 4.48040E+01 0.00000E+00
 -1      1839 4.44000E+01 4.61030E+01 0.00000E+00
 -1      1840 4.59000E+01 4.61030E+01 0.00000E+00
 -1      1841 4.36500E+01 4.48040E+01 0.00000E+00
 -1      1842 4.74000E+01 4.61030E+01 0.00000E+00
 -1      1843 4.89000E+01 4.61030E+01 0.00000E+00
 -1      1844 4.66500E+01 4.48040E+01 0.00000E+00
 -1      1845 5.04000E+01 4.61030E+01 0.00000E+00
 -1      1846 5.19000E+01 4.61030E+01 0.00000E+00
 -1      1847 4.96500E+01 4.48040E+01 0.00000E+00
 -1      1848 5.34000E+01 4.61030E+01 0.00000E+00
 -1      1849 5.49000E+01 4.61030E+01 0.00000E+00
 -1      1850 5.26500E+01 4.48040E+01 0.00000E+00
 -1      1851 5.64000E+01 4.61030E+01 0.00000E+00
 -1      1852 5.79000E+01 4.61030E+01 0.00000E+00
 -1      1853 5.56500E+01 4.48040E+01 0.00000E+00
 -1      1854 5.94000E+01 4.61030E+01 0.00000E+00
 -1      1855 6.09000E+01 4.61030E+01 0.00000E+00
 -1      1856 5.86500E+01 4.48040E+01 0.00000E+00
 -1      1857 6.24000E+01 4.61030E+01 0.00000E+00
 -1      1858 6.39000E+01 4.61030E+01 0.00000E+00
 -1      1859 6.16500E+01 4.48040E+01 0.00000E+00
 -1      1860 6.54000E+01 4.61030E+01 0.00000E+00
 -1      1861 6.69000E+01 4.61030E+01 0.00000E+00
 -1      1862 6.46500E+01 4.48040E+01 0.00000E+00
 -1      1863 6.84000E+01 4.61030E+01 0.00000E+00
 -1      1864 6.99000E+01 4.61030E+01 0.00000E+00
 -1      1865 6.76500E+01 4.48040E+01 0.00000E+00
 -1      1866 7.14000E+01 4.61030E+01 0.00000E+00
 -1      1867 7.29000E+01 4.61030E+01 0.00000E+00
 -1      1868 7.06500E+01 4.48040E+01 0.00000E+00
 -1      1869 7.44000E+01 4.61030E+01 0.00000E+00
 -1      1870 7.59000E+01 4.61030E+01 0.00000E+00
 -1      1871 7.36500E+01 4.48040E+01 0.00000E+00
 -1      1872 7.74000E+01 4.61030E+01 0.00000E+00
 -1      1873 7.89000E+01 4.61030E+01 0.00000E+00
 -1      1874 7.66500E+01 4.48040E+01 0.00000E+00
 -1      1875 8.04000E+01 4.61030E+01 0.00000E+00
 -1      1876 8.19000E+01 4.61030E+01 0.00000E+00
 -1      1877 7.96500E+01 4.48040E+01 0.00000E+00
 -1      1878 8.34000E+01 4.61030E+01 0.00000E+00
 -1      1879 8.49000E+01 4.61030E+01 0.00000E+00
 -1      1880 8.26500E+01 4.48040E+01 0.00000E+00
 -1      1881 8.64000E+01 4.61030E+01 0.00000E+00
 -1      1882 8.79000E+01 4.61030E+01 0.00000E+00
 -1      1883 8.56500E+01 4.48040E+01 0.00000E+00
 -1      1884 8.94000E+01 4.61030E+01 0.00000E+00
 -1      1885 9.09000E+01 4.61030E+01 0.00000E+00
 -1      1886 8.86500E+01 4.48040E+01 0.00000E+00
 -1      1887 9.24000E+01 4.61030E+01 0.00000E+00
 -1      1888 9.39000E+01 4.61030E+01 0.00000E+00
 -1      1889 9.16500E+01 4.48040E+01 0.00000E+00
 -1      1890 9.54000E+01 4.61030E+01 0.00000E+00
 -1      1891 9.69000E+01 4.61030E+01 0.00000E+00
 -1      1892 9.46500E+01 4.48040E+01 0.00000E+00
 -1      1893 9.84000E+01 4.61030E+01 0.00000E+00
 -1      1894 9.99000E+01 4.61030E+01 0.00000E+00
 -1      1895 9.76500E+01 4.48040E+01 0.00000E+00
 -1      1896 1.01400E+02 4.61030E+01 0.00000E+00
 -1      1897 1.02900E+02 4.61030E+01 0.00000E+00
 -1      1898 1.00650E+02 4.48040E+01 0.00000E+00
 -1      1899 1.04400E+02 4.61030E+01 0.00000E+00
 -1      1900 1.05900E+02 4.61030E+01 0.00000E+00
 -1      1901 1.03650E+02 4.48040E+01 0.00000E+00
 -1      1902 1.07400E+02 4.61030E+01 0.00000E+00
 -1      1903 1.08900E+02 4.61030E+01 0.00000E+00
 -1      1904 1.06650E+02 4.48040E+01 0.00000E+00
 -1      1905 1.10400E+02 4.61030E+01 0.00000E+00
 -1      1906 1.11900E+02 4.61030E+01 0.00000E+00
 -1      1907 1.09650E+02 4.48040E+01 0.00000E+00
 -1      1908 1.13400E+02 4.61030E+01 0.00000E+00
 -1      1909 1.14900E+02 4.61030E+01 0.00000E+00
 -1      1910 1.12650E+02 4.48040E+01 0.00000E+00
 -1      1911 1.16400E+02 4.61030E+01 0.00000E+00
 -1      1912 1.17900E+02 4.61030E+01 0.00000E+00
 -1      1913 1.15650E+02 4.48040E+01 0.00000E+00
 -1      1914 1.19400E+02 4.61030E+01 0.00000E+00
 -1      1915 1.20900E+02 4.61030E+01 0.00000E+00
 -1      1916 1.18650E+02 4.48040E+01 0.00000E+00
 -1      1917 1.22400E+02 4.61030E+01 0.00000E+00
 -1      1918 1.23900E+02 4.61030E+01 0.00000E+00
 -1      1919 1.21650E+02 4.48040E+01 0.00000E+00
 -1      1920 1.25400E+02 4.61030E+01 0.00000E+00
 -1      1921 1.26900E+02 4.61030E+01 0.00000E+00
 -1      1922 1.24650E+02 4.48040E+01 0.00000E+00
 -1      1923 1.28400E+02 4.61030E+01 0.00000E+00
 -1      1924 1.29900E+02 4.61030E+01 0.00000E+00
 -1      1925 1.27650E+02 4.48040E+01 0.00000E+00
 -1      1926 1.31400E+02 4.61030E+01 0.00000E+00
 -1      1927 1.32900E+02 4.61030E+01 0.00000E+00
 -1      1928 1.30650E+02 4.48040E+01 0.00000E+00
 -1      1929 1.34400E+02 4.61030E+01 0.00000E+00
 -1      1930 1.35900E+02 4.61030E+01 0.00000E+00
 -1      1931 1.33650E+02 4.48040E+01 0.00000E+00
 -1      1932 1.37400E+02 4.61030E+01 0.00000E+00
 -1      1933 1.38900E+02 4.61030E+01 0.00000E+00
 -1      1934 1.36650E+02 4.48040E+01 0.00000E+00
 -1      1935 1.40400E+02 4.61030E+01 0.00000E+00
 -1      1936 1.41900E+02 4.61030E+01 0.00000E+00
 -1      1937 1.39650E+02 4.48040E+01 0.00000E+00
 -1      1938 1.43244E+02 4.61616E+01 0.00000E+00
 -1      1939 1.44744E+02 4.61616E+01 0.00000E+00
 -1      1940 1.45182E+02 4.49799E+01 0.00000E+00
 -1      1941 1.42494E+02 4.48626E+01 0.00000E+00
 -1      1942 1.17045E+01 3.09687E+00 0.00000E+00
 -1      1943 1.02045E+01 3.09687E+00 0.00000E+00
 -1      1944 1.00350E+01 4.00625E+00 0.00000E+00
 -1      1945 1.47045E+01 3.09687E+00 0.00000E+00
 -1      1946 1.32045E+01 3.09687E+00 0.00000E+00
 -1      1947 1.30350E+01 4.00625E+00 0.00000E+00
 -1      1948 1.77045E+01 3.09687E+00 0.00000E+00
 -1      1949 1.62045E+01 3.09687E+00 0.00000E+00
 -1      1950 1.60350E+01 4.00625E+00 0.00000E+00
 -1      1951 2.07045E+01 3.09687E+00 0.00000E+00
 -1      1952 1.92045E+01 3.09687E+00 0.00000E+00
 -1      1953 1.90350E+01 4.00625E+00 0.00000E+00
 -1      1954 2.37045E+01 3.09687E+00 0.00000E+00
 -1      1955 2.22045E+01 3.09687E+00 0.00000E+00
 -1      1956 2.20350E+01 4.00625E+00 0.00000E+00
 -1      1957 2.67045E+01 3.09687E+00 0.00000E+00
 -1      1958 2.52045E+01 3.09687E+00 0.00000E+00
 -1      1959 2.50350E+01 4.00625E+00 0.00000E+00
 -1      1960 2.97045E+01 3.09687E+00 0.00000E+00
 -1      1961 2.82045E+01 3.09687E+00 0.00000E+00
 -1      1962 2.80350E+01 4.00625E+00 0.00000E+00
 -1      1963 3.27045E+01 3.09687E+00 0.00000E+00
 -1      1964 3.12045E+01 3.09687E+00 0.00000E+00
 -1      1965 3.10350E+01 4.00625E+00 0.00000E+00
 -1      1966 3.57045E+01 3.09687E+00 0.00000E+00
 -1      1967 3.42045E+01 3.09687E+00 0.00000E+00
 -1      1968 3.40350E+01 4.00625E+00 0.00000E+00
 -1      1969 3.87045E+01 3.09687E+00 0.00000E+00
 -1      1970 3.72045E+01 3.09687E+00 0.00000E+00
 -1      1971 3.70350E+01 4.00625E+00 0.00000E+00
 -1      1972 4.17045E+01 3.09687E+00 0.00000E+00
 -1      1973 4.02045E+01 3.09687E+00 0.00000E+00
 -1      1974 4.00350E+01 4.00625E+00 0.00000E+00
 -1      1975 4.47045E+01 3.09687E+00 0.00000E+00
 -1      1976 4.32045E+01 3.09687E+00 0.00000E+00
 -1      1977 4.30350E+01 4.00625E+00 0.00000E+00
 -1      1978 4.77045E+01 3.09687E+00 0.00000E+00
 -1      1979 4.62045E+01 3.09687E+00 0.00000E+00
 -1      1980 4.60350E+01 4.00625E+00 0.00000E+00
 -1      1981 5.07045E+01 3.09687E+00 0.00000E+00
 -1      1982 4.92045E+01 3.09687E+00 0.00000E+00
 -1      1983 4.90350E+01 4.00625E+00 0.00000E+00
 -1      1984 5.37045E+01 3.09687E+00 0.00000E+00
 -1      1985 5.22045E+01 3.09687E+00 0.00000E+00
 -1      1986 5.20350E+01 4.00625E+00 0.00000E+00
 -1      1987 5.67045E+01 3.09687E+00 0.00000E+00
 -1      1988 5.52045E+01 3.09687E+00 0.00000E+00
 -1      1989 5.50350E+01 4.00625E+00 0.00000E+00
 -1      1990 5.97045E+01 3.09687E+00 0.00000E+00
 -1      1991 5.82045E+01 3.09687E+00 0.00000E+00
 -1      1992 5.80350E+01 4.00625E+00 0.00000E+00
 -1      1993 6.27045E+01 3.09687E+00 0.00000E+00
 -1      1994 6.12045E+01 3.09687E+00 0.00000E+00
 -1      1995 6.10350E+01 4.00625E+00 0.00000E+00
 -1      1996 6.57045E+01 3.09687E+00 0.00000E+00
 -1      1997 6.42045E+01 3.09687E+00 0.00000E+00
 -1      1998 6.40350E+01 4.00625E+00 0.00000E+00
 -1      1999 6.87045E+01 3.09687E+00 0.00000E+00
 -1      2000 6.72045E+01 3.09687E+00 0.00000E+00
 -1      2001 6.70350E+01 4.00625E+00 0.00000E+00
 -1      2002 7.17045E+01 3.09687E+00 0.00000E+00
 -1      2003 7.02045E+01 3.09687E+00 0.00000E+00
 -1      2004 7.00350E+01 4.00625E+00 0.00000E+00
 -1      2005 7.47045E+01 3.09687E+00 0.00000E+00
 -1      2006 7.32045E+01 3.09687E+00 0.00000E+00
 -1      2007 7.30350E+01 4.00625E+00 0.00000E+00
 -1      2008 7.77045E+01 3.09687E+00 0.00000E+00
 -1      2009 7.62045E+01 3.09687E+00 0.00000E+00
 -1      2010 7.60350E+01 4.00625E+00 0.00000E+00
 -1      2011 8.07045E+01 3.09687E+00 0.00000E+00
 -1      2012 7.92045E+01 3.09687E+00 0.00000E+00
 -1      2013 7.90350E+01 4.00625E+00 0.00000E+00
 -1      2014 8.37045E+01 3.09687E+00 0.00000E+00
 -1      2015 8.22045E+01 3.09687E+00 0.00000E+00
 -1      2016 8.20350E+01 4.00625E+00 0.00000E+00
 -1      2017 8.67045E+01 3.09687E+00 0.00000E+00
 -1      2018 8.52045E+01 3.09687E+00 0.00000E+00
 -1      2019 8.50350E+01 4.00625E+00 0.00000E+00
 -1      2020 8.97045E+01 3.09687E+00 0.00000E+00
 -1      2021 8.82045E+01 3.09687E+00 0.00000E+00
 -1      2022 8.80350E+01 4.00625E+00 0.00000E+00
 -1      2023 9.27045E+01 3.09687E+00 0.00000E+00
 -1      2024 9.12045E+01 3.09687E+00 0.00000E+00
 -1      2025 9.10350E+01 4.00625E+00 0.00000E+00
 -1      2026 9.57045E+01 3.09687E+00 0.00000E+00
 -1      2027 9.42045E+01 3.09687E+00 0.00000E+00
 -1      2028 9.40350E+01 4.00625E+00 0.00000E+00
 -1      2029 9.87045E+01 3.09687E+00 0.00000E+00
 -1      2030 9.72045E+01 3.09687E+00 0.00000E+00
 -1      2031 9.70350E+01 4.00625E+00 0.00000E+00
 -1      2032 1.01704E+02 3.09687E+00 0.00000E+00
 -1      2033 1.00204E+02 3.09687E+00 0.00000E+00
 -1      2034 1.00035E+02 4.00625E+00 0.00000E+00
 -1      2035 1.04704E+02 3.09687E+00 0.00000E+00
 -1      2036 1.03204E+02 3.09687E+00 0.00000E+00
 -1      2037 1.03035E+02 4.00625E+00 0.00000E+00
 -1      2038 1.07704E+02 3.09687E+00 0.00000E+00
 -1      2039 1.06204E+02 3.09687E+00 0.00000E+00
 -1      2040 1.06035E+02 4.00625E+00 0.00000E+00
 -1      2041 1.10704E+02 3.09687E+00 0.00000E+00
 -1      2042 1.09204E+02 3.09687E+00 0.00000E+00
 -1      2043 1.09035E+02 4.00625E+00 0.00000E+00
 -1      2044 1.13704E+02 3.09687E+00 0.00000E+00
 -1      2045 1.12204E+02 3.09687E+00 0.00000E+00
 -1      2046 1.12035E+02 4.00625E+00 0.00000E+00
 -1      2047 1.16704E+02 3.09687E+00 0.00000E+00
 -1      2048 1.15204E+02 3.09687E+00 0.00000E+00
 -1      2049 1.15035E+02 4.00625E+00 0.00000E+00
 -1      2050 1.19704E+02 3.09687E+00 0.00000E+00
 -1      2051 1.18204E+02 3.09687E+00 0.00000E+00
 -1      2052 1.18035E+02 4.00625E+00 0.00000E+00
 -1      2053 1.22704E+02 3.09687E+00 0.00000E+00
 -1      2054 1.21204E+02 3.09687E+00 0.00000E+00
 -1      2055 1.21035E+02 4.00625E+00 0.00000E+00
 -1      2056 1.25704E+02 3.09687E+00 0.00000E+00
 -1      2057 1.24204E+02 3.09687E+00 0.00000E+00
 -1      2058 1.24035E+02 4.00625E+00 0.00000E+00
 -1      2059 1.28704E+02 3.09687E+00 0.00000E+00
 -1      2060 1.27204E+02 3.09687E+00 0.00000E+00
 -1      2061 1.27035E+02 4.00625E+00 0.00000E+00
 -1      2062 1.31704E+02 3.09687E+00 0.00000E+00
 -1      2063 1.30204E+02 3.09687E+00 0.00000E+00
 -1      2064 1.30035E+02 4.00625E+00 0.00000E+00
 -1      2065 1.34704E+02 3.09687E+00 0.00000E+00
 -1      2066 1.33204E+02 3.09687E+00 0.00000E+00
 -1      2067 1.33035E+02 4.00625E+00 0.00000E+00
 -1      2068 1.37704E+02 3.09687E+00 0.00000E+00
 -1      2069 1.36204E+02 3.09687E+00 0.00000E+00
 -1      2070 1.36035E+02 4.00625E+00 0.00000E+00
 -1      2071 1.40704E+02 3.09687E+00 0.00000E+00
 -1      2072 1.39204E+02 3.09687E+00 0.00000E+00
 -1      2073 1.39035E+02 4.00625E+00 0.00000E+00
 -1      2074 1.43704E+02 3.09687E+00 0.00000E+00
 -1      2075 1.42204E+02 3.09687E+00 0.00000E+00
 -1      2076 1.42035E+02 4.00625E+00 0.00000E+00
 -1      2077 1.46171E+02 3.20156E+00 0.00000E+00
 -1      2078 1.44671E+02 3.20156E+00 0.00000E+00
 -1      2079 1.44502E+02 4.11094E+00 0.00000E+00
 -1      2080 1.46435E+02 4.32031E+00 0.00000E+00
 -1      2081 1.46103E+02 1.25375E+01 0.00000E+00
 -1      2082 1.46103E+02 1.10625E+01 0.00000E+00
 -1      2083 1.46103E+02 9.58750E+00 0.00000E+00
 -1      2084 1.46103E+02 8.11250E+00 0.00000E+00
 -1      2085 1.44804E+02 1.03250E+01 0.00000E+00
 -1      2086 1.46269E+02 6.95391E+00 0.00000E+00
 -1      2087 1.46269E+02 5.47891E+00 0.00000E+00
 -1      2088 1.45302E+02 5.37422E+00 0.00000E+00
 -1      2089 1.44970E+02 7.69141E+00 0.00000E+00
 -1      2090 1.46103E+02 1.54375E+01 0.00000E+00
 -1      2091 1.46103E+02 1.39875E+01 0.00000E+00
 -1      2092 1.44804E+02 1.32500E+01 0.00000E+00
 -1      2093 1.46103E+02 1.83875E+01 0.00000E+00
 -1      2094 1.46103E+02 1.69125E+01 0.00000E+00
 -1      2095 1.44804E+02 1.61750E+01 0.00000E+00
 -1      2096 1.46103E+02 2.13375E+01 0.00000E+00
 -1      2097 1.46103E+02 1.98625E+01 0.00000E+00
 -1      2098 1.44804E+02 1.91250E+01 0.00000E+00
 -1      2099 1.46103E+02 2.42875E+01 0.00000E+00
 -1      2100 1.46103E+02 2.28125E+01 0.00000E+00
 -1      2101 1.44804E+02 2.20750E+01 0.00000E+00
 -1      2102 1.46103E+02 2.72375E+01 0.00000E+00
 -1      2103 1.46103E+02 2.57625E+01 0.00000E+00
 -1      2104 1.44804E+02 2.50250E+01 0.00000E+00
 -1      2105 1.46103E+02 3.01875E+01 0.00000E+00
 -1      2106 1.46103E+02 2.87125E+01 0.00000E+00
 -1      2107 1.44804E+02 2.79750E+01 0.00000E+00
 -1      2108 1.46103E+02 3.30875E+01 0.00000E+00
 -1      2109 1.46103E+02 3.16375E+01 0.00000E+00
 -1      2110 1.44804E+02 3.09000E+01 0.00000E+00
 -1      2111 1.46103E+02 3.60375E+01 0.00000E+00
 -1      2112 1.46103E+02 3.45625E+01 0.00000E+00
 -1      2113 1.44804E+02 3.38250E+01 0.00000E+00
 -1      2114 1.46103E+02 3.89875E+01 0.00000E+00
 -1      2115 1.46103E+02 3.75125E+01 0.00000E+00
 -1      2116 1.44804E+02 3.67750E+01 0.00000E+00
 -1      2117 1.46103E+02 4.19375E+01 0.00000E+00
 -1      2118 1.46103E+02 4.04625E+01 0.00000E+00
 -1      2119 1.44804E+02 3.97250E+01 0.00000E+00
 -1      2120 3.06706E+01 1.55447E+01 0.00000E+00
 -1      2121 3.11059E+01 1.62996E+01 0.00000E+00
 -1      2122 3.15594E+01 1.93058E+01 0.00000E+00
 -1      2123 3.15287E+01 2.01329E+01 0.00000E+00
 -1      2124 3.14155E+01 1.74050E+01 0.00000E+00
 -1      2125 3.15707E+01 1.82968E+01 0.00000E+00
 -1      2126 2.97236E+01 1.41407E+01 0.00000E+00
 -1      2127 3.01971E+01 1.48427E+01 0.00000E+00
 -1      2128 3.11214E+01 1.48127E+01 0.00000E+00
 -1      2129 2.81969E+01 1.28383E+01 0.00000E+00
 -1      2130 2.88646E+01 1.34224E+01 0.00000E+00
 -1      2131 3.89700E+00 3.74688E+01 0.00000E+00
 -1      2132 3.89700E+00 3.89437E+01 0.00000E+00
 -1      2133 5.19600E+00 3.96813E+01 0.00000E+00
 -1      2134 5.19600E+00 3.67438E+01 0.00000E+00
 -1      2135 2.47339E+01 1.10396E+01 0.00000E+00
 -1      2136 2.56028E+01 1.12901E+01 0.00000E+00
 -1      2137 2.29498E+01 1.07734E+01 0.00000E+00
 -1      2138 2.38419E+01 1.09065E+01 0.00000E+00
 -1      2139 2.45022E+01 1.02480E+01 0.00000E+00
 -1      2140 2.08181E+01 1.09455E+01 0.00000E+00
 -1      2141 2.16947E+01 1.07645E+01 0.00000E+00
 -1      2142 1.91554E+01 1.14104E+01 0.00000E+00
 -1      2143 1.99868E+01 1.11779E+01 0.00000E+00
 -1      2144 2.02686E+01 1.03297E+01 0.00000E+00
 -1      2145 1.74235E+01 1.25372E+01 0.00000E+00
 -1      2146 1.81024E+01 1.19926E+01 0.00000E+00
 -1      2147 1.60630E+01 1.38011E+01 0.00000E+00
 -1      2148 1.66488E+01 1.31529E+01 0.00000E+00
 -1      2149 1.51007E+01 1.53806E+01 0.00000E+00
 -1      2150 1.55662E+01 1.46560E+01 0.00000E+00
 -1      2151 1.42418E+01 1.69967E+01 0.00000E+00
 -1      2152 1.45406E+01 1.62110E+01 0.00000E+00
 -1      2153 1.37876E+01 1.87717E+01 0.00000E+00
 -1      2154 1.39993E+01 1.79165E+01 0.00000E+00
 -1      2155 1.38276E+01 2.08048E+01 0.00000E+00
 -1      2156 1.36941E+01 1.99295E+01 0.00000E+00
 -1      2157 1.40310E+01 2.26716E+01 0.00000E+00
 -1      2158 1.39293E+01 2.17382E+01 0.00000E+00
 -1      2159 1.30976E+01 2.14172E+01 0.00000E+00
 -1      2160 1.51345E+01 2.45758E+01 0.00000E+00
 -1      2161 1.45498E+01 2.38418E+01 0.00000E+00
 -1      2162 1.62402E+01 2.58446E+01 0.00000E+00
 -1      2163 1.56874E+01 2.52102E+01 0.00000E+00
 -1      2164 1.47898E+01 2.53253E+01 0.00000E+00
 -1      2165 1.77230E+01 2.70408E+01 0.00000E+00
 -1      2166 1.70546E+01 2.65329E+01 0.00000E+00
 -1      2167 1.91733E+01 2.80938E+01 0.00000E+00
 -1      2168 1.84399E+01 2.75690E+01 0.00000E+00
 -1      2169 2.12319E+01 2.87484E+01 0.00000E+00
 -1      2170 2.03032E+01 2.86241E+01 0.00000E+00
 -1      2171 2.31453E+01 2.86218E+01 0.00000E+00
 -1      2172 2.22866E+01 2.86947E+01 0.00000E+00
 -1      2173 2.48129E+01 2.83627E+01 0.00000E+00
 -1      2174 2.40111E+01 2.84803E+01 0.00000E+00
 -1      2175 2.65263E+01 2.78051E+01 0.00000E+00
 -1      2176 2.57979E+01 2.81509E+01 0.00000E+00
 -1      2177 2.78312E+01 2.69382E+01 0.00000E+00
 -1      2178 2.71787E+01 2.73717E+01 0.00000E+00
 -1      2179 2.71284E+01 2.82057E+01 0.00000E+00
 -1      2180 2.92160E+01 2.57504E+01 0.00000E+00
 -1      2181 2.86507E+01 2.63125E+01 0.00000E+00
 -1      2182 3.02640E+01 2.43601E+01 0.00000E+00
 -1      2183 2.98107E+01 2.50310E+01 0.00000E+00
 -1      2184 3.11206E+01 2.28512E+01 0.00000E+00
 -1      2185 3.07254E+01 2.35924E+01 0.00000E+00
 -1      2186 3.14506E+01 2.09497E+01 0.00000E+00
 -1      2187 3.13724E+01 2.17665E+01 0.00000E+00
 -1      2188 3.21136E+01 2.05602E+01 0.00000E+00
 -1      2189 2.65627E+01 1.17040E+01 0.00000E+00
 -1      2190 2.73890E+01 1.21058E+01 0.00000E+00
 -1      2191 2.97888E+01 1.33924E+01 0.00000E+00
 -1      2192 6.42300E+00 4.57510E+01 0.00000E+00
 -1      2193 2.63542E+01 1.07951E+01 0.00000E+00
 -1      2194 7.17300E+00 4.44520E+01 0.00000E+00
 -1      2195 3.19045E+01 1.66201E+01 0.00000E+00
 -1      2196 3.22029E+01 1.87344E+01 0.00000E+00
 -1      2197 1.45665E+02 4.31193E+01 0.00000E+00
 -1      2198 2.81220E+01 1.19415E+01 0.00000E+00
 -1      2199 3.17836E+01 2.24617E+01 0.00000E+00
 -1      2200 3.10704E+01 2.43141E+01 0.00000E+00
 -1      2201 2.86004E+01 2.71465E+01 0.00000E+00
 -1      2202 2.54910E+01 2.88509E+01 0.00000E+00
 -1      2203 2.36402E+01 2.92042E+01 0.00000E+00
 -1      2204 2.17196E+01 2.93995E+01 0.00000E+00
 -1      2205 1.95350E+01 2.89229E+01 0.00000E+00
 -1      2206 1.87667E+01 2.92216E+01 0.00000E+00
 -1      2207 1.98966E+01 2.97519E+01 0.00000E+00
 -1      2208 1.61570E+01 2.66479E+01 0.00000E+00
 -1      2209 1.37181E+01 2.35207E+01 0.00000E+00
 -1      2210 1.28864E+01 2.31997E+01 0.00000E+00
 -1      2211 1.34052E+01 2.43698E+01 0.00000E+00
 -1      2212 1.30895E+01 1.93260E+01 0.00000E+00
 -1      2213 1.34255E+01 1.72485E+01 0.00000E+00
 -1      2214 1.42281E+01 1.54984E+01 0.00000E+00
 -1      2215 1.52850E+01 1.38131E+01 0.00000E+00
 -1      2216 1.83843E+01 1.11444E+01 0.00000E+00
 -1      2217 2.23551E+01 1.01060E+01 0.00000E+00
 -1      2218 1.65565E+01 1.23424E+01 0.00000E+00
 -1      2219 1.76882E+01 2.78643E+01 0.00000E+00
 -1      2220 3.00144E+01 2.58013E+01 0.00000E+00
 -1      2221 1.07850E+01 5.30525E+00 0.00000E+00
 -1      2222 9.28500E+00 5.30525E+00 0.00000E+00
 -1      2223 6.49500E+00 3.01125E+01 0.00000E+00
 -1      2224 6.49500E+00 3.15875E+01 0.00000E+00
 -1      2225 6.49500E+00 3.30625E+01 0.00000E+00
 -1      2226 6.49500E+00 3.45375E+01 0.00000E+00
 -1      2227 7.79400E+00 3.23250E+01 0.00000E+00
 -1      2228 6.49500E+00 2.42125E+01 0.00000E+00
 -1      2229 6.49500E+00 2.56875E+01 0.00000E+00
 -1      2230 6.49500E+00 2.12625E+01 0.00000E+00
 -1      2231 6.49500E+00 2.27375E+01 0.00000E+00
 -1      2232 7.79400E+00 2.34750E+01 0.00000E+00
 -1      2233 6.49500E+00 1.83625E+01 0.00000E+00
 -1      2234 6.49500E+00 1.98125E+01 0.00000E+00
 -1      2235 7.79400E+00 2.05500E+01 0.00000E+00
 -1      2236 6.49500E+00 1.54125E+01 0.00000E+00
 -1      2237 6.49500E+00 1.68875E+01 0.00000E+00
 -1      2238 7.79400E+00 1.76250E+01 0.00000E+00
 -1      2239 6.49500E+00 1.24625E+01 0.00000E+00
 -1      2240 6.49500E+00 1.39375E+01 0.00000E+00
 -1      2241 7.79400E+00 1.46750E+01 0.00000E+00
 -1      2242 6.49500E+00 9.51250E+00 0.00000E+00
 -1      2243 6.49500E+00 1.09875E+01 0.00000E+00
 -1      2244 7.79400E+00 1.17250E+01 0.00000E+00
 -1      2245 1.37850E+01 5.30525E+00 0.00000E+00
 -1      2246 1.22850E+01 5.30525E+00 0.00000E+00
 -1      2247 1.15350E+01 6.60425E+00 0.00000E+00
 -1      2248 9.90000E+00 4.35050E+01 0.00000E+00
 -1      2249 1.14000E+01 4.35050E+01 0.00000E+00
 -1      2250 2.62139E+01 9.80061E+00 0.00000E+00
 -1      2251 2.71738E+01 1.02146E+01 0.00000E+00
 -1      2252 1.29000E+01 4.35050E+01 0.00000E+00
 -1      2253 1.44000E+01 4.35050E+01 0.00000E+00
 -1      2254 1.21500E+01 4.22060E+01 0.00000E+00
 -1      2255 1.59000E+01 4.35050E+01 0.00000E+00
 -1      2256 1.74000E+01 4.35050E+01 0.00000E+00
 -1      2257 1.51500E+01 4.22060E+01 0.00000E+00
 -1      2258 1.89000E+01 4.35050E+01 0.00000E+00
 -1      2259 2.04000E+01 4.35050E+01 0.00000E+00
 -1      2260 1.81500E+01 4.22060E+01 0.00000E+00
 -1      2261 2.19000E+01 4.35050E+01 0.00000E+00
 -1      2262 2.34000E+01 4.35050E+01 0.00000E+00
 -1      2263 2.11500E+01 4.22060E+01 0.00000E+00
 -1      2264 2.49000E+01 4.35050E+01 0.00000E+00
 -1      2265 2.64000E+01 4.35050E+01 0.00000E+00
 -1      2266 2.41500E+01 4.22060E+01 0.00000E+00
 -1      2267 2.79000E+01 4.35050E+01 0.00000E+00
 -1      2268 2.94000E+01 4.35050E+01 0.00000E+00
 -1      2269 2.71500E+01 4.22060E+01 0.00000E+00
 -1      2270 3.09000E+01 4.35050E+01 0.00000E+00
 -1      2271 3.24000E+01 4.35050E+01 0.00000E+00
 -1      2272 3.01500E+01 4.22060E+01 0.00000E+00
 -1      2273 3.39000E+01 4.35050E+01 0.00000E+00
 -1      2274 3.54000E+01 4.35050E+01 0.00000E+00
 -1      2275 3.31500E+01 4.22060E+01 0.00000E+00
 -1      2276 3.69000E+01 4.35050E+01 0.00000E+00
 -1      2277 3.84000E+01 4.35050E+01 0.00000E+00
 -1      2278 3.61500E+01 4.22060E+01 0.00000E+00
 -1      2279 3.99000E+01 4.35050E+01 0.00000E+00
 -1      2280 4.14000E+01 4.35050E+01 0.00000E+00
 -1      2281 3.91500E+01 4.22060E+01 0.00000E+00
 -1      2282 4.29000E+01 4.35050E+01 0.00000E+00
 -1      2283 4.44000E+01 4.35050E+01 0.00000E+00
 -1      2284 4.21500E+01 4.22060E+01 0.00000E+00
 -1      2285 4.59000E+01 4.35050E+01 0.00000E+00
 -1      2286 4.74000E+01 4.35050E+01 0.00000E+00
 -1      2287 4.51500E+01 4.22060E+01 0.00000E+00
 -1      2288 4.89000E+01 4.35050E+01 0.00000E+00
 -1      2289 5.04000E+01 4.35050E+01 0.00000E+00
 -1      2290 4.81500E+01 4.22060E+01 0.00000E+00
 -1      2291 5.19000E+01 4.35050E+01 0.00000E+00
 -1      2292 5.34000E+01 4.35050E+01 0.00000E+00
 -1      2293 5.11500E+01 4.22060E+01 0.00000E+00
 -1      2294 5.49000E+01 4.35050E+01 0.00000E+00
 -1      2295 5.64000E+01 4.35050E+01 0.00000E+00
 -1      2296 5.41500E+01 4.22060E+01 0.00000E+00
 -1      2297 5.79000E+01 4.35050E+01 0.00000E+00
 -1      2298 5.94000E+01 4.35050E+01 0.00000E+00
 -1      2299 5.71500E+01 4.22060E+01 0.00000E+00
 -1      2300 6.09000E+01 4.35050E+01 0.00000E+00
 -1      2301 6.24000E+01 4.35050E+01 0.00000E+00
 -1      2302 6.01500E+01 4.22060E+01 0.00000E+00
 -1      2303 6.39000E+01 4.35050E+01 0.00000E+00
 -1      2304 6.54000E+01 4.35050E+01 0.00000E+00
 -1      2305 6.31500E+01 4.22060E+01 0.00000E+00
 -1      2306 6.69000E+01 4.35050E+01 0.00000E+00
 -1      2307 6.84000E+01 4.35050E+01 0.00000E+00
 -1      2308 6.61500E+01 4.22060E+01 0.00000E+00
 -1      2309 6.99000E+01 4.35050E+01 0.00000E+00
 -1      2310 7.14000E+01 4.35050E+01 0.00000E+00
 -1      2311 6.91500E+01 4.22060E+01 0.00000E+00
 -1      2312 7.29000E+01 4.35050E+01 0.00000E+00
 -1      2313 7.44000E+01 4.35050E+01 0.00000E+00
 -1      2314 7.21500E+01 4.22060E+01 0.00000E+00
 -1      2315 7.59000E+01 4.35050E+01 0.00000E+00
 -1      2316 7.74000E+01 4.35050E+01 0.00000E+00
 -1      2317 7.51500E+01 4.22060E+01 0.00000E+00
 -1      2318 7.89000E+01 4.35050E+01 0.00000E+00
 -1      2319 8.04000E+01 4.35050E+01 0.00000E+00
 -1      2320 7.81500E+01 4.22060E+01 0.00000E+00
 -1      2321 8.19000E+01 4.35050E+01 0.00000E+00
 -1      2322 8.34000E+01 4.35050E+01 0.00000E+00
 -1      2323 8.11500E+01 4.22060E+01 0.00000E+00
 -1      2324 8.49000E+01 4.35050E+01 0.00000E+00
 -1      2325 8.64000E+01 4.35050E+01 0.00000E+00
 -1      2326 8.41500E+01 4.22060E+01 0.00000E+00
 -1      2327 8.79000E+01 4.35050E+01 0.00000E+00
 -1      2328 8.94000E+01 4.35050E+01 0.00000E+00
 -1      2329 8.71500E+01 4.22060E+01 0.00000E+00
 -1      2330 9.09000E+01 4.35050E+01 0.00000E+00
 -1      2331 9.24000E+01 4.35050E+01 0.00000E+00
 -1      2332 9.01500E+01 4.22060E+01 0.00000E+00
 -1      2333 9.39000E+01 4.35050E+01 0.00000E+00
 -1      2334 9.54000E+01 4.35050E+01 0.00000E+00
 -1      2335 9.31500E+01 4.22060E+01 0.00000E+00
 -1      2336 9.69000E+01 4.35050E+01 0.00000E+00
 -1      2337 9.84000E+01 4.35050E+01 0.00000E+00
 -1      2338 9.61500E+01 4.22060E+01 0.00000E+00
 -1      2339 9.99000E+01 4.35050E+01 0.00000E+00
 -1      2340 1.01400E+02 4.35050E+01 0.00000E+00
 -1      2341 9.91500E+01 4.22060E+01 0.00000E+00
 -1      2342 1.02900E+02 4.35050E+01 0.00000E+00
 -1      2343 1.04400E+02 4.35050E+01 0.00000E+00
 -1      2344 1.02150E+02 4.22060E+01 0.00000E+00
 -1      2345 1.05900E+02 4.35050E+01 0.00000E+00
 -1      2346 1.07400E+02 4.35050E+01 0.00000E+00
 -1      2347 1.05150E+02 4.22060E+01 0.00000E+00
 -1      2348 1.08900E+02 4.35050E+01 0.00000E+00
 -1      2349 1.10400E+02 4.35050E+01 0.00000E+00
 -1      2350 1.08150E+02 4.22060E+01 0.00000E+00
 -1      2351 1.11900E+02 4.35050E+01 0.00000E+00
 -1      2352 1.13400E+02 4.35050E+01 0.00000E+00
 -1      2353 1.11150E+02 4.22060E+01 0.00000E+00
 -1      2354 1.14900E+02 4.35050E+01 0.00000E+00
 -1      2355 1.16400E+02 4.35050E+01 0.00000E+00
 -1      2356 1.14150E+02 4.22060E+01 0.00000E+00
 -1      2357 1.17900E+02 4.35050E+01 0.00000E+00
 -1      2358 1.19400E+02 4.35050E+01 0.00000E+00
 -1      2359 1.17150E+02 4.22060E+01 0.00000E+00
 -1      2360 1.20900E+02 4.35050E+01 0.00000E+00
 -1      2361 1.22400E+02 4.35050E+01 0.00000E+00
 -1      2362 1.20150E+02 4.22060E+01 0.00000E+00
 -1      2363 1.23900E+02 4.35050E+01 0.00000E+00
 -1      2364 1.25400E+02 4.35050E+01 0.00000E+00
 -1      2365 1.23150E+02 4.22060E+01 0.00000E+00
 -1      2366 1.26900E+02 4.35050E+01 0.00000E+00
 -1      2367 1.28400E+02 4.35050E+01 0.00000E+00
 -1      2368 1.26150E+02 4.22060E+01 0.00000E+00
 -1      2369 1.29900E+02 4.35050E+01 0.00000E+00
 -1      2370 1.31400E+02 4.35050E+01 0.00000E+00
 -1      2371 1.29150E+02 4.22060E+01 0.00000E+00
 -1      2372 1.32900E+02 4.35050E+01 0.00000E+00
 -1      2373 1.34400E+02 4.35050E+01 0.00000E+00
 -1      2374 1.32150E+02 4.22060E+01 0.00000E+00
 -1      2375 1.35900E+02 4.35050E+01 0.00000E+00
 -1      2376 1.37400E+02 4.35050E+01 0.00000E+00
 -1      2377 1.35150E+02 4.22060E+01 0.00000E+00
 -1      2378 1.38900E+02 4.35050E+01 0.00000E+00
 -1      2379 1.40400E+02 4.35050E+01 0.00000E+00
 -1      2380 1.38150E+02 4.22060E+01 0.00000E+00
 -1      2381 1.97850E+01 5.11516E+00 0.00000E+00
 -1      2382 1.82850E+01 5.11516E+00 0.00000E+00
 -1      2383 2.27850E+01 5.11516E+00 0.00000E+00
 -1      2384 2.12850E+01 5.11516E+00 0.00000E+00
 -1      2385 2.05350E+01 6.22407E+00 0.00000E+00
 -1      2386 2.57850E+01 5.11516E+00 0.00000E+00
 -1      2387 2.42850E+01 5.11516E+00 0.00000E+00
 -1      2388 2.87850E+01 5.19895E+00 0.00000E+00
 -1      2389 2.72850E+01 5.19895E+00 0.00000E+00
 -1      2390 3.17850E+01 5.19895E+00 0.00000E+00
 -1      2391 3.02850E+01 5.19895E+00 0.00000E+00
 -1      2392 2.95350E+01 6.39164E+00 0.00000E+00
 -1      2393 3.47850E+01 5.19895E+00 0.00000E+00
 -1      2394 3.32850E+01 5.19895E+00 0.00000E+00
 -1      2395 3.25350E+01 6.39164E+00 0.00000E+00
 -1      2396 3.77850E+01 5.19895E+00 0.00000E+00
 -1      2397 3.62850E+01 5.19895E+00 0.00000E+00
 -1      2398 3.55350E+01 6.39164E+00 0.00000E+00
 -1      2399 4.07850E+01 5.19895E+00 0.00000E+00
 -1      2400 3.92850E+01 5.19895E+00 0.00000E+00
 -1      2401 3.85350E+01 6.39164E+00 0.00000E+00
 -1      2402 4.37850E+01 5.19895E+00 0.00000E+00
 -1      2403 4.22850E+01 5.19895E+00 0.00000E+00
 -1      2404 4.15350E+01 6.39164E+00 0.00000E+00
 -1      2405 4.67850E+01 5.19895E+00 0.00000E+00
 -1      2406 4.52850E+01 5.19895E+00 0.00000E+00
 -1      2407 4.45350E+01 6.39164E+00 0.00000E+00
 -1      2408 4.97850E+01 5.19895E+00 0.00000E+00
 -1      2409 4.82850E+01 5.19895E+00 0.00000E+00
 -1      2410 4.75350E+01 6.39164E+00 0.00000E+00
 -1      2411 5.27850E+01 5.19895E+00 0.00000E+00
 -1      2412 5.12850E+01 5.19895E+00 0.00000E+00
 -1      2413 5.05350E+01 6.39164E+00 0.00000E+00
 -1      2414 5.57850E+01 5.19895E+00 0.00000E+00
 -1      2415 5.42850E+01 5.19895E+00 0.00000E+00
 -1      2416 5.35350E+01 6.39164E+00 0.00000E+00
 -1      2417 5.87850E+01 5.19895E+00 0.00000E+00
 -1      2418 5.72850E+01 5.19895E+00 0.00000E+00
 -1      2419 5.65350E+01 6.39164E+00 0.00000E+00
 -1      2420 6.17850E+01 5.19895E+00 0.00000E+00
 -1      2421 6.02850E+01 5.19895E+00 0.00000E+00
 -1      2422 5.95350E+01 6.39164E+00 0.00000E+00
 -1      2423 6.47850E+01 5.19895E+00 0.00000E+00
 -1      2424 6.32850E+01 5.19895E+00 0.00000E+00
 -1      2425 6.25350E+01 6.39164E+00 0.00000E+00
 -1      2426 6.77850E+01 5.19895E+00 0.00000E+00
 -1      2427 6.62850E+01 5.19895E+00 0.00000E+00
 -1      2428 6.55350E+01 6.39164E+00 0.00000E+00
 -1      2429 7.07850E+01 5.19895E+00 0.00000E+00
 -1      2430 6.92850E+01 5.19895E+00 0.00000E+00
 -1      2431 6.85350E+01 6.39164E+00 0.00000E+00
 -1      2432 7.37850E+01 5.19895E+00 0.00000E+00
 -1      2433 7.22850E+01 5.19895E+00 0.00000E+00
 -1      2434 7.15350E+01 6.39164E+00 0.00000E+00
 -1      2435 7.67850E+01 5.19895E+00 0.00000E+00
 -1      2436 7.52850E+01 5.19895E+00 0.00000E+00
 -1      2437 7.45350E+01 6.39164E+00 0.00000E+00
 -1      2438 7.97850E+01 5.19895E+00 0.00000E+00
 -1      2439 7.82850E+01 5.19895E+00 0.00000E+00
 -1      2440 7.75350E+01 6.39164E+00 0.00000E+00
 -1      2441 8.27850E+01 5.19895E+00 0.00000E+00
 -1      2442 8.12850E+01 5.19895E+00 0.00000E+00
 -1      2443 8.05350E+01 6.39164E+00 0.00000E+00
 -1      2444 8.57850E+01 5.19895E+00 0.00000E+00
 -1      2445 8.42850E+01 5.19895E+00 0.00000E+00
 -1      2446 8.35350E+01 6.39164E+00 0.00000E+00
 -1      2447 8.87850E+01 5.19895E+00 0.00000E+00
 -1      2448 8.72850E+01 5.19895E+00 0.00000E+00
 -1      2449 8.65350E+01 6.39164E+00 0.00000E+00
 -1      2450 9.17850E+01 5.19895E+00 0.00000E+00
 -1      2451 9.02850E+01 5.19895E+00 0.00000E+00
 -1      2452 8.95350E+01 6.39164E+00 0.00000E+00
 -1      2453 9.47850E+01 5.19895E+00 0.00000E+00
 -1      2454 9.32850E+01 5.19895E+00 0.00000E+00
 -1      2455 9.25350E+01 6.39164E+00 0.00000E+00
 -1      2456 9.77850E+01 5.19895E+00 0.00000E+00
 -1      2457 9.62850E+01 5.19895E+00 0.00000E+00
 -1      2458 9.55350E+01 6.39164E+00 0.00000E+00
 -1      2459 1.00785E+02 5.19895E+00 0.00000E+00
 -1      2460 9.92850E+01 5.19895E+00 0.00000E+00
 -1      2461 9.85350E+01 6.39164E+00 0.00000E+00
 -1      2462 1.03785E+02 5.19895E+00 0.00000E+00
 -1      2463 1.02285E+02 5.19895E+00 0.00000E+00
 -1      2464 1.01535E+02 6.39164E+00 0.00000E+00
 -1      2465 1.06785E+02 5.19895E+00 0.00000E+00
 -1      2466 1.05285E+02 5.19895E+00 0.00000E+00
 -1      2467 1.04535E+02 6.39164E+00 0.00000E+00
 -1      2468 1.09785E+02 5.19895E+00 0.00000E+00
 -1      2469 1.08285E+02 5.19895E+00 0.00000E+00
 -1      2470 1.07535E+02 6.39164E+00 0.00000E+00
 -1      2471 1.12785E+02 5.19895E+00 0.00000E+00
 -1      2472 1.11285E+02 5.19895E+00 0.00000E+00
 -1      2473 1.10535E+02 6.39164E+00 0.00000E+00
 -1      2474 1.15785E+02 5.19895E+00 0.00000E+00
 -1      2475 1.14285E+02 5.19895E+00 0.00000E+00
 -1      2476 1.13535E+02 6.39164E+00 0.00000E+00
 -1      2477 1.18785E+02 5.19895E+00 0.00000E+00
 -1      2478 1.17285E+02 5.19895E+00 0.00000E+00
 -1      2479 1.16535E+02 6.39164E+00 0.00000E+00
 -1      2480 1.21785E+02 5.19895E+00 0.00000E+00
 -1      2481 1.20285E+02 5.19895E+00 0.00000E+00
 -1      2482 1.19535E+02 6.39164E+00 0.00000E+00
 -1      2483 1.24785E+02 5.19895E+00 0.00000E+00
 -1      2484 1.23285E+02 5.19895E+00 0.00000E+00
 -1      2485 1.22535E+02 6.39164E+00 0.00000E+00
 -1      2486 1.27785E+02 5.19895E+00 0.00000E+00
 -1      2487 1.26285E+02 5.19895E+00 0.00000E+00
 -1      2488 1.25535E+02 6.39164E+00 0.00000E+00
 -1      2489 1.30785E+02 5.19895E+00 0.00000E+00
 -1      2490 1.29285E+02 5.19895E+00 0.00000E+00
 -1      2491 1.28535E+02 6.39164E+00 0.00000E+00
 -1      2492 1.33785E+02 5.19895E+00 0.00000E+00
 -1      2493 1.32285E+02 5.19895E+00 0.00000E+00
 -1      2494 1.31535E+02 6.39164E+00 0.00000E+00
 -1      2495 1.36785E+02 5.19895E+00 0.00000E+00
 -1      2496 1.35285E+02 5.19895E+00 0.00000E+00
 -1      2497 1.34535E+02 6.39164E+00 0.00000E+00
 -1      2498 1.39785E+02 5.19895E+00 0.00000E+00
 -1      2499 1.38285E+02 5.19895E+00 0.00000E+00
 -1      2500 1.37535E+02 6.39164E+00 0.00000E+00
 -1      2501 1.42785E+02 5.19895E+00 0.00000E+00
 -1      2502 1.41285E+02 5.19895E+00 0.00000E+00
 -1      2503 1.40535E+02 6.39164E+00 0.00000E+00
 -1      2504 1.44336E+02 5.26953E+00 0.00000E+00
 -1      2505 1.43505E+02 1.69125E+01 0.00000E+00
 -1      2506 1.43505E+02 1.54375E+01 0.00000E+00
 -1      2507 1.43505E+02 1.98625E+01 0.00000E+00
 -1      2508 1.43505E+02 1.83875E+01 0.00000E+00
 -1      2509 1.42206E+02 1.76500E+01 0.00000E+00
 -1      2510 1.43505E+02 1.10625E+01 0.00000E+00
 -1      2511 1.43505E+02 9.58750E+00 0.00000E+00
 -1      2512 1.43505E+02 1.39750E+01 0.00000E+00
 -1      2513 1.43505E+02 1.25250E+01 0.00000E+00
 -1      2514 1.42206E+02 1.17875E+01 0.00000E+00
 -1      2515 1.42206E+02 1.47125E+01 0.00000E+00
 -1      2516 1.43505E+02 2.28125E+01 0.00000E+00
 -1      2517 1.43505E+02 2.13375E+01 0.00000E+00
 -1      2518 1.42206E+02 2.06000E+01 0.00000E+00
 -1      2519 1.43505E+02 2.57625E+01 0.00000E+00
 -1      2520 1.43505E+02 2.42875E+01 0.00000E+00
 -1      2521 1.42206E+02 2.35500E+01 0.00000E+00
 -1      2522 1.43505E+02 2.87125E+01 0.00000E+00
 -1      2523 1.43505E+02 2.72375E+01 0.00000E+00
 -1      2524 1.42206E+02 2.65000E+01 0.00000E+00
 -1      2525 1.43505E+02 3.16125E+01 0.00000E+00
 -1      2526 1.43505E+02 3.01625E+01 0.00000E+00
 -1      2527 1.42206E+02 2.94250E+01 0.00000E+00
 -1      2528 1.43505E+02 3.45625E+01 0.00000E+00
 -1      2529 1.43505E+02 3.30875E+01 0.00000E+00
 -1      2530 1.42206E+02 3.23500E+01 0.00000E+00
 -1      2531 1.43505E+02 3.75125E+01 0.00000E+00
 -1      2532 1.43505E+02 3.60375E+01 0.00000E+00
 -1      2533 1.42206E+02 3.53000E+01 0.00000E+00
 -1      2534 1.43505E+02 4.04625E+01 0.00000E+00
 -1      2535 1.43505E+02 3.89875E+01 0.00000E+00
 -1      2536 1.42206E+02 3.82500E+01 0.00000E+00
 -1      2537 3.29823E+01 1.82386E+01 0.00000E+00
 -1      2538 3.29710E+01 1.92475E+01 0.00000E+00
 -1      2539 3.26561E+01 1.58135E+01 0.00000E+00
 -1      2540 3.29658E+01 1.69189E+01 0.00000E+00
 -1      2541 2.82942E+01 1.09400E+01 0.00000E+00
 -1      2542 2.91020E+01 1.16725E+01 0.00000E+00
 -1      2543 1.67850E+01 5.30525E+00 0.00000E+00
 -1      2544 1.52850E+01 5.30525E+00 0.00000E+00
 -1      2545 1.45350E+01 6.60425E+00 0.00000E+00
 -1      2546 1.44321E+02 4.30606E+01 0.00000E+00
 -1      2547 3.15955E+01 1.39821E+01 0.00000E+00
 -1      2548 3.20691E+01 1.46842E+01 0.00000E+00
 -1      2549 3.26225E+01 2.20848E+01 0.00000E+00
 -1      2550 3.23707E+01 2.31696E+01 0.00000E+00
 -1      2551 3.29229E+01 2.02255E+01 0.00000E+00
 -1      2552 3.28448E+01 2.10423E+01 0.00000E+00
 -1      2553 2.61461E+01 2.95015E+01 0.00000E+00
 -1      2554 2.51612E+01 2.97133E+01 0.00000E+00
 -1      2555 1.22714E+01 1.98426E+01 0.00000E+00
 -1      2556 1.23650E+01 1.86848E+01 0.00000E+00
 -1      2557 6.49500E+00 2.71625E+01 0.00000E+00
 -1      2558 6.49500E+00 2.86375E+01 0.00000E+00
 -1      2559 7.79400E+00 2.93750E+01 0.00000E+00
 -1      2560 7.79400E+00 2.64250E+01 0.00000E+00
 -1      2561 1.56356E+01 1.19790E+01 0.00000E+00
 -1      2562 1.64103E+01 1.13632E+01 0.00000E+00
 -1      2563 2.41828E+01 9.33325E+00 0.00000E+00
 -1      2564 2.50748E+01 9.46636E+00 0.00000E+00
 -1      2565 2.17333E+01 9.28600E+00 0.00000E+00
 -1      2566 2.29884E+01 9.29482E+00 0.00000E+00
 -1      2567 1.96559E+01 9.74104E+00 0.00000E+00
 -1      2568 2.04872E+01 9.50860E+00 0.00000E+00
 -1      2569 1.75380E+01 2.88188E+01 0.00000E+00
 -1      2570 1.68211E+01 2.82907E+01 0.00000E+00
 -1      2571 1.74428E+01 1.06850E+01 0.00000E+00
 -1      2572 1.84958E+01 1.01028E+01 0.00000E+00
 -1      2573 1.42952E+01 1.38097E+01 0.00000E+00
 -1      2574 1.47920E+01 1.29548E+01 0.00000E+00
 -1      2575 1.31749E+01 1.54704E+01 0.00000E+00
 -1      2576 1.37350E+01 1.46401E+01 0.00000E+00
 -1      2577 1.32420E+01 1.37817E+01 0.00000E+00
 -1      2578 1.24750E+01 1.74898E+01 0.00000E+00
 -1      2579 1.27175E+01 1.65700E+01 0.00000E+00
 -1      2580 1.23793E+01 2.19677E+01 0.00000E+00
 -1      2581 1.22775E+01 2.10343E+01 0.00000E+00
 -1      2582 1.44829E+01 2.61509E+01 0.00000E+00
 -1      2583 1.39300E+01 2.55165E+01 0.00000E+00
 -1      2584 3.09727E+01 2.59879E+01 0.00000E+00
 -1      2585 3.03781E+01 2.67074E+01 0.00000E+00
 -1      2586 1.60068E+01 2.76024E+01 0.00000E+00
 -1      2587 1.51925E+01 2.69142E+01 0.00000E+00
 -1      2588 1.58566E+01 2.85569E+01 0.00000E+00
 -1      2589 2.22949E+01 3.03127E+01 0.00000E+00
 -1      2590 2.12401E+01 3.03665E+01 0.00000E+00
 -1      2591 2.42953E+01 2.98548E+01 0.00000E+00
 -1      2592 2.34295E+01 2.99964E+01 0.00000E+00
 -1      2593 2.49505E+01 3.05054E+01 0.00000E+00
 -1      2594 2.79756E+01 2.87731E+01 0.00000E+00
 -1      2595 2.73231E+01 2.92065E+01 0.00000E+00
 -1      2596 2.96144E+01 2.75216E+01 0.00000E+00
 -1      2597 2.87950E+01 2.81474E+01 0.00000E+00
 -1      2598 2.89896E+01 2.91482E+01 0.00000E+00
 -1      2599 3.19284E+01 2.43073E+01 0.00000E+00
 -1      2600 3.14670E+01 2.50750E+01 0.00000E+00
 -1      2601 6.55950E+00 4.28890E+01 0.00000E+00
 -1      2602 8.53650E+00 4.32410E+01 0.00000E+00
 -1      2603 9.28650E+00 4.19420E+01 0.00000E+00
 -1      2604 6.55950E+00 4.14140E+01 0.00000E+00
 -1      2605 8.07525E+00 5.11044E+00 0.00000E+00
 -1      2606 6.57525E+00 5.11044E+00 0.00000E+00
 -1      2607 6.40575E+00 6.01981E+00 0.00000E+00
 -1      2608 8.82525E+00 6.40944E+00 0.00000E+00
 -1      2609 2.99610E+01 1.23908E+01 0.00000E+00
 -1      2610 3.08200E+01 1.31091E+01 0.00000E+00
 -1      2611 3.01331E+01 1.13893E+01 0.00000E+00
 -1      2612 1.65218E+01 1.03216E+01 0.00000E+00
 -1      2613 7.79400E+00 3.52687E+01 0.00000E+00
 -1      2614 6.49500E+00 3.60062E+01 0.00000E+00
 -1      2615 6.49500E+00 3.74750E+01 0.00000E+00
 -1      2616 1.42758E+02 4.35929E+01 0.00000E+00
 -1      2617 1.43241E+02 4.17323E+01 0.00000E+00
 -1      2618 1.41942E+02 4.09948E+01 0.00000E+00
 -1      2619 1.41414E+02 4.35342E+01 0.00000E+00
 -1      2620 6.40575E+00 7.49481E+00 0.00000E+00
 -1      2621 1.43327E+01 2.71053E+01 0.00000E+00
 -1      2622 1.20664E+01 2.28168E+01 0.00000E+00
 -1      2623 1.12463E+01 2.24339E+01 0.00000E+00
 -1      2624 1.17535E+01 2.36659E+01 0.00000E+00
 -1      2625 2.81538E+01 9.94557E+00 0.00000E+00
 -1      2626 1.40664E+02 4.22352E+01 0.00000E+00
 -1      2627 1.22244E+01 1.57117E+01 0.00000E+00
 -1      2628 3.31303E+01 1.49829E+01 0.00000E+00
 -1      2629 2.35350E+01 6.22407E+00 0.00000E+00
 -1      2630 7.70475E+00 8.23231E+00 0.00000E+00
 -1      2631 2.65350E+01 6.30786E+00 0.00000E+00
 -1      2632 1.43586E+02 6.46223E+00 0.00000E+00
 -1      2633 1.43419E+02 7.62082E+00 0.00000E+00
 -1      2634 1.78997E+01 2.96479E+01 0.00000E+00
 -1      2635 3.37022E+01 1.97296E+01 0.00000E+00
 -1      2636 3.37339E+01 1.74320E+01 0.00000E+00
 -1      2637 1.87144E+01 9.28170E+00 0.00000E+00
 -1      2638 3.34318E+01 2.17501E+01 0.00000E+00
 -1      2639 2.11205E+01 8.69737E+00 0.00000E+00
 -1      2640 3.17677E+01 1.29806E+01 0.00000E+00
 -1      2641 3.27673E+01 2.39304E+01 0.00000E+00
 -1      2642 6.55950E+00 3.99453E+01 0.00000E+00
 -1      2643 3.05728E+01 2.77082E+01 0.00000E+00
 -1      2644 3.18307E+01 2.59811E+01 0.00000E+00
 -1      2645 2.69933E+01 3.00689E+01 0.00000E+00
 -1      2646 1.15531E+01 2.03931E+01 0.00000E+00
 -1      2647 1.16570E+01 1.80063E+01 0.00000E+00
 -1      2648 1.75350E+01 6.41416E+00 0.00000E+00
 -1      2649 2.04719E+01 3.06652E+01 0.00000E+00
 -1      2650 1.97037E+01 3.09639E+01 0.00000E+00
 -1      2651 2.10472E+01 3.15785E+01 0.00000E+00
 -1      2652 1.30983E+01 2.51954E+01 0.00000E+00
 -1      2653 1.22667E+01 2.48744E+01 0.00000E+00
 -1      2654 1.27915E+01 2.60210E+01 0.00000E+00
 -1      2655 2.58944E+01 8.88589E+00 0.00000E+00
 -1      2656 2.35610E+01 8.51321E+00 0.00000E+00
 -1      2657 1.46457E+01 1.19756E+01 0.00000E+00
 -1      2658 2.29500E+01 3.09633E+01 0.00000E+00
 -1      2659 1.42120E+02 8.35832E+00 0.00000E+00
 -1      2660 1.12040E+01 1.59321E+01 0.00000E+00
 -1      2661 1.16614E+01 1.48326E+01 0.00000E+00
 -1      2662 8.81912E+00 1.98250E+01 0.00000E+00
 -1      2663 8.81912E+00 2.12750E+01 0.00000E+00
 -1      2664 9.36370E+00 2.26415E+01 0.00000E+00
 -1      2665 9.36370E+00 2.41165E+01 0.00000E+00
 -1      2666 9.21745E+00 1.41265E+01 0.00000E+00
 -1      2667 9.21745E+00 1.56015E+01 0.00000E+00
 -1      2668 1.22850E+01 7.88073E+00 0.00000E+00
 -1      2669 1.07850E+01 7.88073E+00 0.00000E+00
 -1      2670 2.75342E+01 7.80589E+00 0.00000E+00
 -1      2671 2.60342E+01 7.72211E+00 0.00000E+00
 -1      2672 3.02537E+01 1.03723E+01 0.00000E+00
 -1      2673 3.11127E+01 1.10906E+01 0.00000E+00
 -1      2674 1.40928E+02 4.09655E+01 0.00000E+00
 -1      2675 1.41192E+02 3.96958E+01 0.00000E+00
 -1      2676 1.39914E+02 4.09362E+01 0.00000E+00
 -1      2677 8.91450E+00 8.42712E+00 0.00000E+00
 -1      2678 3.36720E+01 1.39841E+01 0.00000E+00
 -1      2679 3.42591E+01 1.51134E+01 0.00000E+00
 -1      2680 1.44000E+01 4.09070E+01 0.00000E+00
 -1      2681 1.59000E+01 4.09070E+01 0.00000E+00
 -1      2682 1.74000E+01 4.09070E+01 0.00000E+00
 -1      2683 1.89000E+01 4.09070E+01 0.00000E+00
 -1      2684 1.66500E+01 3.96080E+01 0.00000E+00
 -1      2685 2.04000E+01 4.09070E+01 0.00000E+00
 -1      2686 2.19000E+01 4.09070E+01 0.00000E+00
 -1      2687 1.96500E+01 3.96080E+01 0.00000E+00
 -1      2688 2.34000E+01 4.09070E+01 0.00000E+00
 -1      2689 2.49000E+01 4.09070E+01 0.00000E+00
 -1      2690 2.26500E+01 3.96080E+01 0.00000E+00
 -1      2691 2.64000E+01 4.09070E+01 0.00000E+00
 -1      2692 2.79000E+01 4.09070E+01 0.00000E+00
 -1      2693 2.56500E+01 3.96080E+01 0.00000E+00
 -1      2694 2.94000E+01 4.09070E+01 0.00000E+00
 -1      2695 3.09000E+01 4.09070E+01 0.00000E+00
 -1      2696 2.86500E+01 3.96080E+01 0.00000E+00
 -1      2697 3.24000E+01 4.09070E+01 0.00000E+00
 -1      2698 3.39000E+01 4.09070E+01 0.00000E+00
 -1      2699 3.16500E+01 3.96080E+01 0.00000E+00
 -1      2700 3.54000E+01 4.09070E+01 0.00000E+00
 -1      2701 3.69000E+01 4.09070E+01 0.00000E+00
 -1      2702 3.46500E+01 3.96080E+01 0.00000E+00
 -1      2703 3.84000E+01 4.09070E+01 0.00000E+00
 -1      2704 3.99000E+01 4.09070E+01 0.00000E+00
 -1      2705 3.76500E+01 3.96080E+01 0.00000E+00
 -1      2706 4.14000E+01 4.09070E+01 0.00000E+00
 -1      2707 4.29000E+01 4.09070E+01 0.00000E+00
 -1      2708 4.06500E+01 3.96080E+01 0.00000E+00
 -1      2709 4.44000E+01 4.09070E+01 0.00000E+00
 -1      2710 4.59000E+01 4.09070E+01 0.00000E+00
 -1      2711 4.36500E+01 3.96080E+01 0.00000E+00
 -1      2712 4.74000E+01 4.09070E+01 0.00000E+00
 -1      2713 4.89000E+01 4.09070E+01 0.00000E+00
 -1      2714 4.66500E+01 3.96080E+01 0.00000E+00
 -1      2715 5.04000E+01 4.09070E+01 0.00000E+00
 -1      2716 5.19000E+01 4.09070E+01 0.00000E+00
 -1      2717 4.96500E+01 3.96080E+01 0.00000E+00
 -1      2718 5.34000E+01 4.09070E+01 0.00000E+00
 -1      2719 5.49000E+01 4.09070E+01 0.00000E+00
 -1      2720 5.26500E+01 3.96080E+01 0.00000E+00
 -1      2721 5.64000E+01 4.09070E+01 0.00000E+00
 -1      2722 5.79000E+01 4.09070E+01 0.00000E+00
 -1      2723 5.56500E+01 3.96080E+01 0.00000E+00
 -1      2724 5.94000E+01 4.09070E+01 0.00000E+00
 -1      2725 6.09000E+01 4.09070E+01 0.00000E+00
 -1      2726 5.86500E+01 3.96080E+01 0.00000E+00
 -1      2727 6.24000E+01 4.09070E+01 0.00000E+00
 -1      2728 6.39000E+01 4.09070E+01 0.00000E+00
 -1      2729 6.16500E+01 3.96080E+01 0.00000E+00
 -1      2730 6.54000E+01 4.09070E+01 0.00000E+00
 -1      2731 6.69000E+01 4.09070E+01 0.00000E+00
 -1      2732 6.46500E+01 3.96080E+01 0.00000E+00
 -1      2733 6.84000E+01 4.09070E+01 0.00000E+00
 -1      2734 6.99000E+01 4.09070E+01 0.00000E+00
 -1      2735 6.76500E+01 3.96080E+01 0.00000E+00
 -1      2736 7.14000E+01 4.09070E+01 0.00000E+00
 -1      2737 7.29000E+01 4.09070E+01 0.00000E+00
 -1      2738 7.06500E+01 3.96080E+01 0.00000E+00
 -1      2739 7.44000E+01 4.09070E+01 0.00000E+00
 -1      2740 7.59000E+01 4.09070E+01 0.00000E+00
 -1      2741 7.36500E+01 3.96080E+01 0.00000E+00
 -1      2742 7.74000E+01 4.09070E+01 0.00000E+00
 -1      2743 7.89000E+01 4.09070E+01 0.00000E+00
 -1      2744 7.66500E+01 3.96080E+01 0.00000E+00
 -1      2745 8.04000E+01 4.09070E+01 0.00000E+00
 -1      2746 8.19000E+01 4.09070E+01 0.00000E+00
 -1      2747 7.96500E+01 3.96080E+01 0.00000E+00
 -1      2748 8.34000E+01 4.09070E+01 0.00000E+00
 -1      2749 8.49000E+01 4.09070E+01 0.00000E+00
 -1      2750 8.26500E+01 3.96080E+01 0.00000E+00
 -1      2751 8.64000E+01 4.09070E+01 0.00000E+00
 -1      2752 8.79000E+01 4.09070E+01 0.00000E+00
 -1      2753 8.56500E+01 3.96080E+01 0.00000E+00
 -1      2754 8.94000E+01 4.09070E+01 0.00000E+00
 -1      2755 9.09000E+01 4.09070E+01 0.00000E+00
 -1      2756 8.86500E+01 3.96080E+01 0.00000E+00
 -1      2757 9.24000E+01 4.09070E+01 0.00000E+00
 -1      2758 9.39000E+01 4.09070E+01 0.00000E+00
 -1      2759 9.16500E+01 3.96080E+01 0.00000E+00
 -1      2760 9.54000E+01 4.09070E+01 0.00000E+00
 -1      2761 9.69000E+01 4.09070E+01 0.00000E+00
 -1      2762 9.46500E+01 3.96080E+01 0.00000E+00
 -1      2763 9.84000E+01 4.09070E+01 0.00000E+00
 -1      2764 9.99000E+01 4.09070E+01 0.00000E+00
 -1      2765 9.76500E+01 3.96080E+01 0.00000E+00
 -1      2766 1.01400E+02 4.09070E+01 0.00000E+00
 -1      2767 1.02900E+02 4.09070E+01 0.00000E+00
 -1      2768 1.00650E+02 3.96080E+01 0.00000E+00
 -1      2769 1.04400E+02 4.09070E+01 0.00000E+00
 -1      2770 1.05900E+02 4.09070E+01 0.00000E+00
 -1      2771 1.03650E+02 3.96080E+01 0.00000E+00
 -1      2772 1.07400E+02 4.09070E+01 0.00000E+00
 -1      2773 1.08900E+02 4.09070E+01 0.00000E+00
 -1      2774 1.06650E+02 3.96080E+01 0.00000E+00
 -1      2775 1.10400E+02 4.09070E+01 0.00000E+00
 -1      2776 1.11900E+02 4.09070E+01 0.00000E+00
 -1      2777 1.09650E+02 3.96080E+01 0.00000E+00
 -1      2778 1.13400E+02 4.09070E+01 0.00000E+00
 -1      2779 1.14900E+02 4.09070E+01 0.00000E+00
 -1      2780 1.12650E+02 3.96080E+01 0.00000E+00
 -1      2781 1.16400E+02 4.09070E+01 0.00000E+00
 -1      2782 1.17900E+02 4.09070E+01 0.00000E+00
 -1      2783 1.15650E+02 3.96080E+01 0.00000E+00
 -1      2784 1.19400E+02 4.09070E+01 0.00000E+00
 -1      2785 1.20900E+02 4.09070E+01 0.00000E+00
 -1      2786 1.18650E+02 3.96080E+01 0.00000E+00
 -1      2787 1.22400E+02 4.09070E+01 0.00000E+00
 -1      2788 1.23900E+02 4.09070E+01 0.00000E+00
 -1      2789 1.21650E+02 3.96080E+01 0.00000E+00
 -1      2790 1.25400E+02 4.09070E+01 0.00000E+00
 -1      2791 1.26900E+02 4.09070E+01 0.00000E+00
 -1      2792 1.24650E+02 3.96080E+01 0.00000E+00
 -1      2793 1.28400E+02 4.09070E+01 0.00000E+00
 -1      2794 1.29900E+02 4.09070E+01 0.00000E+00
 -1      2795 1.27650E+02 3.96080E+01 0.00000E+00
 -1      2796 1.31400E+02 4.09070E+01 0.00000E+00
 -1      2797 1.32900E+02 4.09070E+01 0.00000E+00
 -1      2798 1.30650E+02 3.96080E+01 0.00000E+00
 -1      2799 1.34400E+02 4.09070E+01 0.00000E+00
 -1      2800 1.35900E+02 4.09070E+01 0.00000E+00
 -1      2801 1.33650E+02 3.96080E+01 0.00000E+00
 -1      2802 1.37157E+02 4.09216E+01 0.00000E+00
 -1      2803 1.38657E+02 4.09216E+01 0.00000E+00
 -1      2804 1.38921E+02 3.96519E+01 0.00000E+00
 -1      2805 1.36407E+02 3.96226E+01 0.00000E+00
 -1      2806 1.82208E+01 3.07438E+01 0.00000E+00
 -1      2807 1.69921E+01 3.03411E+01 0.00000E+00
 -1      2808 3.92850E+01 7.69064E+00 0.00000E+00
 -1      2809 3.77850E+01 7.69064E+00 0.00000E+00
 -1      2810 4.22850E+01 7.69064E+00 0.00000E+00
 -1      2811 4.07850E+01 7.69064E+00 0.00000E+00
 -1      2812 4.00350E+01 8.98964E+00 0.00000E+00
 -1      2813 4.52850E+01 7.69064E+00 0.00000E+00
 -1      2814 4.37850E+01 7.69064E+00 0.00000E+00
 -1      2815 4.30350E+01 8.98964E+00 0.00000E+00
 -1      2816 4.82850E+01 7.69064E+00 0.00000E+00
 -1      2817 4.67850E+01 7.69064E+00 0.00000E+00
 -1      2818 4.60350E+01 8.98964E+00 0.00000E+00
 -1      2819 5.12850E+01 7.69064E+00 0.00000E+00
 -1      2820 4.97850E+01 7.69064E+00 0.00000E+00
 -1      2821 4.90350E+01 8.98964E+00 0.00000E+00
 -1      2822 5.42850E+01 7.69064E+00 0.00000E+00
 -1      2823 5.27850E+01 7.69064E+00 0.00000E+00
 -1      2824 5.20350E+01 8.98964E+00 0.00000E+00
 -1      2825 5.72850E+01 7.69064E+00 0.00000E+00
 -1      2826 5.57850E+01 7.69064E+00 0.00000E+00
 -1      2827 5.50350E+01 8.98964E+00 0.00000E+00
 -1      2828 6.02850E+01 7.69064E+00 0.00000E+00
 -1      2829 5.87850E+01 7.69064E+00 0.00000E+00
 -1      2830 5.80350E+01 8.98964E+00 0.00000E+00
 -1      2831 6.32850E+01 7.69064E+00 0.00000E+00
 -1      2832 6.17850E+01 7.69064E+00 0.00000E+00
 -1      2833 6.10350E+01 8.98964E+00 0.00000E+00
 -1      2834 6.62850E+01 7.69064E+00 0.00000E+00
 -1      2835 6.47850E+01 7.69064E+00 0.00000E+00
 -1      2836 6.40350E+01 8.98964E+00 0.00000E+00
 -1      2837 6.92850E+01 7.69064E+00 0.00000E+00
 -1      2838 6.77850E+01 7.69064E+00 0.00000E+00
 -1      2839 6.70350E+01 8.98964E+00 0.00000E+00
 -1      2840 7.22850E+01 7.69064E+00 0.00000E+00
 -1      2841 7.07850E+01 7.69064E+00 0.00000E+00
 -1      2842 7.00350E+01 8.98964E+00 0.00000E+00
 -1      2843 7.52850E+01 7.69064E+00 0.00000E+00
 -1      2844 7.37850E+01 7.69064E+00 0.00000E+00
 -1      2845 7.30350E+01 8.98964E+00 0.00000E+00
 -1      2846 7.82850E+01 7.69064E+00 0.00000E+00
 -1      2847 7.67850E+01 7.69064E+00 0.00000E+00
 -1      2848 7.60350E+01 8.98964E+00 0.00000E+00
 -1      2849 8.12850E+01 7.69064E+00 0.00000E+00
 -1      2850 7.97850E+01 7.69064E+00 0.00000E+00
 -1      2851 7.90350E+01 8.98964E+00 0.00000E+00
 -1      2852 8.42850E+01 7.69064E+00 0.00000E+00
 -1      2853 8.27850E+01 7.69064E+00 0.00000E+00
 -1      2854 8.20350E+01 8.98964E+00 0.00000E+00
 -1      2855 8.72850E+01 7.69064E+00 0.00000E+00
 -1      2856 8.57850E+01 7.69064E+00 0.00000E+00
 -1      2857 8.50350E+01 8.98964E+00 0.00000E+00
 -1      2858 9.02850E+01 7.69064E+00 0.00000E+00
 -1      2859 8.87850E+01 7.69064E+00 0.00000E+00
 -1      2860 8.80350E+01 8.98964E+00 0.00000E+00
 -1      2861 9.32850E+01 7.69064E+00 0.00000E+00
 -1      2862 9.17850E+01 7.69064E+00 0.00000E+00
 -1      2863 9.10350E+01 8.98964E+00 0.00000E+00
 -1      2864 9.62850E+01 7.69064E+00 0.00000E+00
 -1      2865 9.47850E+01 7.69064E+00 0.00000E+00
 -1      2866 9.40350E+01 8.98964E+00 0.00000E+00
 -1      2867 9.92850E+01 7.69064E+00 0.00000E+00
 -1      2868 9.77850E+01 7.69064E+00 0.00000E+00
 -1      2869 9.70350E+01 8.98964E+00 0.00000E+00
 -1      2870 1.02285E+02 7.69064E+00 0.00000E+00
 -1      2871 1.00785E+02 7.69064E+00 0.00000E+00
 -1      2872 1.00035E+02 8.98964E+00 0.00000E+00
 -1      2873 1.05285E+02 7.69064E+00 0.00000E+00
 -1      2874 1.03785E+02 7.69064E+00 0.00000E+00
 -1      2875 1.03035E+02 8.98964E+00 0.00000E+00
 -1      2876 1.08285E+02 7.69064E+00 0.00000E+00
 -1      2877 1.06785E+02 7.69064E+00 0.00000E+00
 -1      2878 1.06035E+02 8.98964E+00 0.00000E+00
 -1      2879 1.11285E+02 7.69064E+00 0.00000E+00
 -1      2880 1.09785E+02 7.69064E+00 0.00000E+00
 -1      2881 1.09035E+02 8.98964E+00 0.00000E+00
 -1      2882 1.14285E+02 7.69064E+00 0.00000E+00
 -1      2883 1.12785E+02 7.69064E+00 0.00000E+00
 -1      2884 1.12035E+02 8.98964E+00 0.00000E+00
 -1      2885 1.17285E+02 7.69064E+00 0.00000E+00
 -1      2886 1.15785E+02 7.69064E+00 0.00000E+00
 -1      2887 1.15035E+02 8.98964E+00 0.00000E+00
 -1      2888 1.20285E+02 7.69064E+00 0.00000E+00
 -1      2889 1.18785E+02 7.69064E+00 0.00000E+00
 -1      2890 1.18035E+02 8.98964E+00 0.00000E+00
 -1      2891 1.23285E+02 7.69064E+00 0.00000E+00
 -1      2892 1.21785E+02 7.69064E+00 0.00000E+00
 -1      2893 1.21035E+02 8.98964E+00 0.00000E+00
 -1      2894 1.26285E+02 7.69064E+00 0.00000E+00
 -1      2895 1.24785E+02 7.69064E+00 0.00000E+00
 -1      2896 1.24035E+02 8.98964E+00 0.00000E+00
 -1      2897 1.29285E+02 7.69064E+00 0.00000E+00
 -1      2898 1.27785E+02 7.69064E+00 0.00000E+00
 -1      2899 1.27035E+02 8.98964E+00 0.00000E+00
 -1      2900 1.32285E+02 7.69064E+00 0.00000E+00
 -1      2901 1.30785E+02 7.69064E+00 0.00000E+00
 -1      2902 1.30035E+02 8.98964E+00 0.00000E+00
 -1      2903 1.35285E+02 7.69064E+00 0.00000E+00
 -1      2904 1.33785E+02 7.69064E+00 0.00000E+00
 -1      2905 1.33035E+02 8.98964E+00 0.00000E+00
 -1      2906 1.38285E+02 7.69064E+00 0.00000E+00
 -1      2907 1.36785E+02 7.69064E+00 0.00000E+00
 -1      2908 1.36035E+02 8.98964E+00 0.00000E+00
 -1      2909 1.40953E+02 8.02448E+00 0.00000E+00
 -1      2910 1.39453E+02 8.02448E+00 0.00000E+00
 -1      2911 1.38703E+02 9.32348E+00 0.00000E+00
 -1      2912 1.41038E+02 9.99116E+00 0.00000E+00
 -1      2913 1.40907E+02 2.42875E+01 0.00000E+00
 -1      2914 1.40907E+02 2.28125E+01 0.00000E+00
 -1      2915 1.40907E+02 1.83875E+01 0.00000E+00
 -1      2916 1.40907E+02 1.69125E+01 0.00000E+00
 -1      2917 1.40907E+02 2.72375E+01 0.00000E+00
 -1      2918 1.40907E+02 2.57625E+01 0.00000E+00
 -1      2919 1.39608E+02 2.50250E+01 0.00000E+00
 -1      2920 1.40907E+02 2.13375E+01 0.00000E+00
 -1      2921 1.40907E+02 1.98625E+01 0.00000E+00
 -1      2922 1.39608E+02 1.91250E+01 0.00000E+00
 -1      2923 1.39608E+02 2.20750E+01 0.00000E+00
 -1      2924 1.40907E+02 3.01375E+01 0.00000E+00
 -1      2925 1.40907E+02 2.86875E+01 0.00000E+00
 -1      2926 1.39608E+02 2.79500E+01 0.00000E+00
 -1      2927 1.40907E+02 3.30875E+01 0.00000E+00
 -1      2928 1.40907E+02 3.16125E+01 0.00000E+00
 -1      2929 1.39608E+02 3.08750E+01 0.00000E+00
 -1      2930 1.40907E+02 3.60375E+01 0.00000E+00
 -1      2931 1.40907E+02 3.45625E+01 0.00000E+00
 -1      2932 1.39608E+02 3.38250E+01 0.00000E+00
 -1      2933 1.41192E+02 3.82207E+01 0.00000E+00
 -1      2934 1.53968E+01 9.73385E+00 0.00000E+00
 -1      2935 1.64293E+01 9.05567E+00 0.00000E+00
 -1      2936 1.56696E+01 7.53608E+00 0.00000E+00
 -1      2937 1.41696E+01 7.53608E+00 0.00000E+00
 -1      2938 2.55487E+01 3.14464E+01 0.00000E+00
 -1      2939 2.46829E+01 3.15879E+01 0.00000E+00
 -1      2940 1.54938E+01 2.98120E+01 0.00000E+00
 -1      2941 1.46795E+01 2.91237E+01 0.00000E+00
 -1      2942 1.07017E+01 2.10674E+01 0.00000E+00
 -1      2943 1.06956E+01 1.98757E+01 0.00000E+00
 -1      2944 3.45831E+01 1.67614E+01 0.00000E+00
 -1      2945 3.45996E+01 1.80811E+01 0.00000E+00
 -1      2946 9.66450E+00 9.70361E+00 0.00000E+00
 -1      2947 2.90948E+01 7.46148E+00 0.00000E+00
 -1      2948 2.85940E+01 8.87573E+00 0.00000E+00
 -1      2949 2.97143E+01 9.60116E+00 0.00000E+00
 -1      2950 3.05948E+01 7.46148E+00 0.00000E+00
 -1      2951 3.62850E+01 7.69064E+00 0.00000E+00
 -1      2952 3.47850E+01 7.69064E+00 0.00000E+00
 -1      2953 3.70350E+01 8.98964E+00 0.00000E+00
 -1      2954 3.34399E+01 7.57606E+00 0.00000E+00
 -1      2955 3.19399E+01 7.57606E+00 0.00000E+00
 -1      2956 3.14997E+01 8.64590E+00 0.00000E+00
 -1      2957 3.41899E+01 8.87506E+00 0.00000E+00
 -1      2958 1.14000E+01 4.09070E+01 0.00000E+00
 -1      2959 1.29000E+01 4.09070E+01 0.00000E+00
 -1      2960 1.36500E+01 3.96080E+01 0.00000E+00
 -1      2961 1.39699E+01 2.83604E+01 0.00000E+00
 -1      2962 1.32604E+01 2.75971E+01 0.00000E+00
 -1      2963 1.36072E+01 2.96154E+01 0.00000E+00
 -1      2964 3.15801E+01 2.78877E+01 0.00000E+00
 -1      2965 3.08164E+01 2.87020E+01 0.00000E+00
 -1      2966 1.35118E+01 1.18478E+01 0.00000E+00
 -1      2967 1.43554E+01 1.08720E+01 0.00000E+00
 -1      2968 3.20210E+01 1.19746E+01 0.00000E+00
 -1      2969 3.27966E+01 1.28476E+01 0.00000E+00
 -1      2970 9.09300E+00 3.15875E+01 0.00000E+00
 -1      2971 9.09300E+00 3.30625E+01 0.00000E+00
 -1      2972 3.44636E+01 2.14251E+01 0.00000E+00
 -1      2973 3.42413E+01 2.24677E+01 0.00000E+00
 -1      2974 1.22510E+01 1.37174E+01 0.00000E+00
 -1      2975 1.28111E+01 1.28870E+01 0.00000E+00
 -1      2976 1.06646E+01 1.85175E+01 0.00000E+00
 -1      2977 1.07746E+01 1.73225E+01 0.00000E+00
 -1      2978 3.29057E+01 2.59728E+01 0.00000E+00
 -1      2979 3.24114E+01 2.68857E+01 0.00000E+00
 -1      2980 2.35483E+01 3.19043E+01 0.00000E+00
 -1      2981 2.24137E+01 3.22207E+01 0.00000E+00
 -1      2982 2.41466E+01 3.28452E+01 0.00000E+00
 -1      2983 3.44991E+01 1.92787E+01 0.00000E+00
 -1      2984 3.44510E+01 2.02566E+01 0.00000E+00
 -1      2985 2.79026E+01 3.08564E+01 0.00000E+00
 -1      2986 2.67257E+01 3.11514E+01 0.00000E+00
 -1      2987 2.64581E+01 3.22338E+01 0.00000E+00
 -1      2988 3.00215E+01 2.96501E+01 0.00000E+00
 -1      2989 2.92021E+01 3.02758E+01 0.00000E+00
 -1      2990 3.37901E+01 2.36973E+01 0.00000E+00
 -1      2991 3.33479E+01 2.48351E+01 0.00000E+00
 -1      2992 3.39285E+01 2.57397E+01 0.00000E+00
 -1      2993 7.85850E+00 3.92077E+01 0.00000E+00
 -1      2994 2.48952E+01 7.38786E+00 0.00000E+00
 -1      2995 9.09300E+00 3.45313E+01 0.00000E+00
 -1      2996 9.09300E+00 3.60000E+01 0.00000E+00
 -1      2997 1.03920E+01 3.37938E+01 0.00000E+00
 -1      2998 1.05900E+01 2.45312E+01 0.00000E+00
 -1      2999 9.02031E+00 2.53647E+01 0.00000E+00
 -1      3000 8.98670E+00 1.09875E+01 0.00000E+00
 -1      3001 8.98670E+00 1.24625E+01 0.00000E+00
 -1      3002 3.21416E+01 1.09575E+01 0.00000E+00
 -1      3003 1.66295E+01 8.11501E+00 0.00000E+00
 -1      3004 1.77545E+01 8.70277E+00 0.00000E+00
 -1      3005 1.89146E+01 8.34104E+00 0.00000E+00
 -1      3006 1.69949E+01 7.18318E+00 0.00000E+00
 -1      3007 1.14101E+01 2.49141E+01 0.00000E+00
 -1      3008 1.20660E+01 2.85311E+01 0.00000E+00
 -1      3009 1.24287E+01 2.72760E+01 0.00000E+00
 -1      3010 1.15970E+01 2.69550E+01 0.00000E+00
 -1      3011 3.39253E+01 1.29780E+01 0.00000E+00
 -1      3012 1.58150E+01 3.09079E+01 0.00000E+00
 -1      3013 2.12850E+01 7.16541E+00 0.00000E+00
 -1      3014 1.97850E+01 7.16541E+00 0.00000E+00
 -1      3015 1.41038E+02 1.14537E+01 0.00000E+00
 -1      3016 1.39870E+02 1.11198E+01 0.00000E+00
 -1      3017 1.41038E+02 1.29162E+01 0.00000E+00
 -1      3018 3.48219E+01 2.33723E+01 0.00000E+00
 -1      3019 1.02116E+01 1.64433E+01 0.00000E+00
 -1      3020 1.12305E+01 1.39378E+01 0.00000E+00
 -1      3021 2.89345E+01 3.13583E+01 0.00000E+00
 -1      3022 1.39893E+02 3.74832E+01 0.00000E+00
 -1      3023 1.42629E+01 9.60609E+00 0.00000E+00
 -1      3024 9.15750E+00 3.77359E+01 0.00000E+00
 -1      3025 9.22200E+00 4.02061E+01 0.00000E+00
 -1      3026 1.05855E+01 4.04701E+01 0.00000E+00
 -1      3027 1.04565E+01 3.69984E+01 0.00000E+00
 -1      3028 9.81325E+00 1.91919E+01 0.00000E+00
 -1      3029 1.34196E+01 8.81256E+00 0.00000E+00
 -1      3030 3.52605E+01 2.09742E+01 0.00000E+00
 -1      3031 9.51415E+00 2.95300E+01 0.00000E+00
 -1      3032 1.08131E+01 3.02675E+01 0.00000E+00
 -1      3033 3.51248E+01 1.57625E+01 0.00000E+00
 -1      3034 3.59906E+01 1.64117E+01 0.00000E+00
 -1      3035 3.56665E+01 1.47637E+01 0.00000E+00
 -1      3036 1.03888E+01 2.19165E+01 0.00000E+00
 -1      3037 3.10288E+01 2.98296E+01 0.00000E+00
 -1      3038 9.02031E+00 2.68397E+01 0.00000E+00
 -1      3039 1.87961E+01 3.16571E+01 0.00000E+00
 -1      3040 3.53484E+01 1.86081E+01 0.00000E+00
 -1      3041 1.08572E+01 1.04411E+01 0.00000E+00
 -1      3042 2.16454E+01 3.25194E+01 0.00000E+00
 -1      3043 2.08772E+01 3.28181E+01 0.00000E+00
 -1      3044 2.22437E+01 3.34603E+01 0.00000E+00
 -1      3045 1.13355E+01 3.91711E+01 0.00000E+00
 -1      3046 1.40973E+02 1.56456E+01 0.00000E+00
 -1      3047 1.40973E+02 1.41831E+01 0.00000E+00
 -1      3048 1.39805E+02 1.38492E+01 0.00000E+00
 -1      3049 1.39674E+02 1.63831E+01 0.00000E+00
 -1      3050 9.51415E+00 2.80550E+01 0.00000E+00
 -1      3051 1.25208E+01 1.17835E+01 0.00000E+00
 -1      3052 3.26550E+01 2.78795E+01 0.00000E+00
 -1      3053 8.78813E+00 1.69919E+01 0.00000E+00
 -1      3054 8.78813E+00 1.84669E+01 0.00000E+00
 -1      3055 2.29900E+01 7.67875E+00 0.00000E+00
 -1      3056 2.41844E+01 7.71719E+00 0.00000E+00
 -1      3057 1.84949E+01 6.99309E+00 0.00000E+00
 -1      3058 1.04101E+01 1.33890E+01 0.00000E+00
 -1      3059 3.06940E+01 9.30245E+00 0.00000E+00
 -1      3060 1.89000E+01 3.83090E+01 0.00000E+00
 -1      3061 2.04000E+01 3.83090E+01 0.00000E+00
 -1      3062 2.19000E+01 3.83090E+01 0.00000E+00
 -1      3063 2.34000E+01 3.83090E+01 0.00000E+00
 -1      3064 2.11500E+01 3.70100E+01 0.00000E+00
 -1      3065 2.49000E+01 3.83090E+01 0.00000E+00
 -1      3066 2.64000E+01 3.83090E+01 0.00000E+00
 -1      3067 2.41500E+01 3.70100E+01 0.00000E+00
 -1      3068 2.79000E+01 3.83090E+01 0.00000E+00
 -1      3069 2.94000E+01 3.83090E+01 0.00000E+00
 -1      3070 2.71500E+01 3.70100E+01 0.00000E+00
 -1      3071 3.09000E+01 3.83090E+01 0.00000E+00
 -1      3072 3.24000E+01 3.83090E+01 0.00000E+00
 -1      3073 3.01500E+01 3.70100E+01 0.00000E+00
 -1      3074 3.39000E+01 3.83090E+01 0.00000E+00
 -1      3075 3.54000E+01 3.83090E+01 0.00000E+00
 -1      3076 3.31500E+01 3.70100E+01 0.00000E+00
 -1      3077 3.69000E+01 3.83090E+01 0.00000E+00
 -1      3078 3.84000E+01 3.83090E+01 0.00000E+00
 -1      3079 3.61500E+01 3.70100E+01 0.00000E+00
 -1      3080 3.99000E+01 3.83090E+01 0.00000E+00
 -1      3081 4.14000E+01 3.83090E+01 0.00000E+00
 -1      3082 3.91500E+01 3.70100E+01 0.00000E+00
 -1      3083 4.29000E+01 3.83090E+01 0.00000E+00
 -1      3084 4.44000E+01 3.83090E+01 0.00000E+00
 -1      3085 4.21500E+01 3.70100E+01 0.00000E+00
 -1      3086 4.59000E+01 3.83090E+01 0.00000E+00
 -1      3087 4.74000E+01 3.83090E+01 0.00000E+00
 -1      3088 4.51500E+01 3.70100E+01 0.00000E+00
 -1      3089 4.89000E+01 3.83090E+01 0.00000E+00
 -1      3090 5.04000E+01 3.83090E+01 0.00000E+00
 -1      3091 4.81500E+01 3.70100E+01 0.00000E+00
 -1      3092 5.19000E+01 3.83090E+01 0.00000E+00
 -1      3093 5.34000E+01 3.83090E+01 0.00000E+00
 -1      3094 5.11500E+01 3.70100E+01 0.00000E+00
 -1      3095 5.49000E+01 3.83090E+01 0.00000E+00
 -1      3096 5.64000E+01 3.83090E+01 0.00000E+00
 -1      3097 5.41500E+01 3.70100E+01 0.00000E+00
 -1      3098 5.79000E+01 3.83090E+01 0.00000E+00
 -1      3099 5.94000E+01 3.83090E+01 0.00000E+00
 -1      3100 5.71500E+01 3.70100E+01 0.00000E+00
 -1      3101 6.09000E+01 3.83090E+01 0.00000E+00
 -1      3102 6.24000E+01 3.83090E+01 0.00000E+00
 -1      3103 6.01500E+01 3.70100E+01 0.00000E+00
 -1      3104 6.39000E+01 3.83090E+01 0.00000E+00
 -1      3105 6.54000E+01 3.83090E+01 0.00000E+00
 -1      3106 6.31500E+01 3.70100E+01 0.00000E+00
 -1      3107 6.69000E+01 3.83090E+01 0.00000E+00
 -1      3108 6.84000E+01 3.83090E+01 0.00000E+00
 -1      3109 6.61500E+01 3.70100E+01 0.00000E+00
 -1      3110 6.99000E+01 3.83090E+01 0.00000E+00
 -1      3111 7.14000E+01 3.83090E+01 0.00000E+00
 -1      3112 6.91500E+01 3.70100E+01 0.00000E+00
 -1      3113 7.29000E+01 3.83090E+01 0.00000E+00
 -1      3114 7.44000E+01 3.83090E+01 0.00000E+00
 -1      3115 7.21500E+01 3.70100E+01 0.00000E+00
 -1      3116 7.59000E+01 3.83090E+01 0.00000E+00
 -1      3117 7.74000E+01 3.83090E+01 0.00000E+00
 -1      3118 7.51500E+01 3.70100E+01 0.00000E+00
 -1      3119 7.89000E+01 3.83090E+01 0.00000E+00
 -1      3120 8.04000E+01 3.83090E+01 0.00000E+00
 -1      3121 7.81500E+01 3.70100E+01 0.00000E+00
 -1      3122 8.19000E+01 3.83090E+01 0.00000E+00
 -1      3123 8.34000E+01 3.83090E+01 0.00000E+00
 -1      3124 8.11500E+01 3.70100E+01 0.00000E+00
 -1      3125 8.49000E+01 3.83090E+01 0.00000E+00
 -1      3126 8.64000E+01 3.83090E+01 0.00000E+00
 -1      3127 8.41500E+01 3.70100E+01 0.00000E+00
 -1      3128 8.79000E+01 3.83090E+01 0.00000E+00
 -1      3129 8.94000E+01 3.83090E+01 0.00000E+00
 -1      3130 8.71500E+01 3.70100E+01 0.00000E+00
 -1      3131 9.09000E+01 3.83090E+01 0.00000E+00
 -1      3132 9.24000E+01 3.83090E+01 0.00000E+00
 -1      3133 9.01500E+01 3.70100E+01 0.00000E+00
 -1      3134 9.39000E+01 3.83090E+01 0.00000E+00
 -1      3135 9.54000E+01 3.83090E+01 0.00000E+00
 -1      3136 9.31500E+01 3.70100E+01 0.00000E+00
 -1      3137 9.69000E+01 3.83090E+01 0.00000E+00
 -1      3138 9.84000E+01 3.83090E+01 0.00000E+00
 -1      3139 9.61500E+01 3.70100E+01 0.00000E+00
 -1      3140 9.99000E+01 3.83090E+01 0.00000E+00
 -1      3141 1.01400E+02 3.83090E+01 0.00000E+00
 -1      3142 9.91500E+01 3.70100E+01 0.00000E+00
 -1      3143 1.02900E+02 3.83090E+01 0.00000E+00
 -1      3144 1.04400E+02 3.83090E+01 0.00000E+00
 -1      3145 1.02150E+02 3.70100E+01 0.00000E+00
 -1      3146 1.05900E+02 3.83090E+01 0.00000E+00
 -1      3147 1.07400E+02 3.83090E+01 0.00000E+00
 -1      3148 1.05150E+02 3.70100E+01 0.00000E+00
 -1      3149 1.08900E+02 3.83090E+01 0.00000E+00
 -1      3150 1.10400E+02 3.83090E+01 0.00000E+00
 -1      3151 1.08150E+02 3.70100E+01 0.00000E+00
 -1      3152 1.11900E+02 3.83090E+01 0.00000E+00
 -1      3153 1.13400E+02 3.83090E+01 0.00000E+00
 -1      3154 1.11150E+02 3.70100E+01 0.00000E+00
 -1      3155 1.14900E+02 3.83090E+01 0.00000E+00
 -1      3156 1.16400E+02 3.83090E+01 0.00000E+00
 -1      3157 1.14150E+02 3.70100E+01 0.00000E+00
 -1      3158 1.17900E+02 3.83090E+01 0.00000E+00
 -1      3159 1.19400E+02 3.83090E+01 0.00000E+00
 -1      3160 1.17150E+02 3.70100E+01 0.00000E+00
 -1      3161 1.20900E+02 3.83090E+01 0.00000E+00
 -1      3162 1.22400E+02 3.83090E+01 0.00000E+00
 -1      3163 1.20150E+02 3.70100E+01 0.00000E+00
 -1      3164 1.23900E+02 3.83090E+01 0.00000E+00
 -1      3165 1.25400E+02 3.83090E+01 0.00000E+00
 -1      3166 1.23150E+02 3.70100E+01 0.00000E+00
 -1      3167 1.26900E+02 3.83090E+01 0.00000E+00
 -1      3168 1.28400E+02 3.83090E+01 0.00000E+00
 -1      3169 1.26150E+02 3.70100E+01 0.00000E+00
 -1      3170 1.29900E+02 3.83090E+01 0.00000E+00
 -1      3171 1.31400E+02 3.83090E+01 0.00000E+00
 -1      3172 1.29150E+02 3.70100E+01 0.00000E+00
 -1      3173 1.32900E+02 3.83090E+01 0.00000E+00
 -1      3174 1.34400E+02 3.83090E+01 0.00000E+00
 -1      3175 1.32150E+02 3.70100E+01 0.00000E+00
 -1      3176 4.37850E+01 1.02886E+01 0.00000E+00
 -1      3177 4.22850E+01 1.02886E+01 0.00000E+00
 -1      3178 1.29000E+01 3.83090E+01 0.00000E+00
 -1      3179 1.44000E+01 3.83090E+01 0.00000E+00
 -1      3180 4.07850E+01 1.02886E+01 0.00000E+00
 -1      3181 3.92850E+01 1.02886E+01 0.00000E+00
 -1      3182 4.15350E+01 1.15876E+01 0.00000E+00
 -1      3183 4.97850E+01 1.02886E+01 0.00000E+00
 -1      3184 4.82850E+01 1.02886E+01 0.00000E+00
 -1      3185 5.27850E+01 1.02886E+01 0.00000E+00
 -1      3186 5.12850E+01 1.02886E+01 0.00000E+00
 -1      3187 5.05350E+01 1.15876E+01 0.00000E+00
 -1      3188 5.57850E+01 1.02886E+01 0.00000E+00
 -1      3189 5.42850E+01 1.02886E+01 0.00000E+00
 -1      3190 5.35350E+01 1.15876E+01 0.00000E+00
 -1      3191 5.87850E+01 1.02886E+01 0.00000E+00
 -1      3192 5.72850E+01 1.02886E+01 0.00000E+00
 -1      3193 5.65350E+01 1.15876E+01 0.00000E+00
 -1      3194 6.17850E+01 1.02886E+01 0.00000E+00
 -1      3195 6.02850E+01 1.02886E+01 0.00000E+00
 -1      3196 5.95350E+01 1.15876E+01 0.00000E+00
 -1      3197 6.47850E+01 1.02886E+01 0.00000E+00
 -1      3198 6.32850E+01 1.02886E+01 0.00000E+00
 -1      3199 6.25350E+01 1.15876E+01 0.00000E+00
 -1      3200 6.77850E+01 1.02886E+01 0.00000E+00
 -1      3201 6.62850E+01 1.02886E+01 0.00000E+00
 -1      3202 6.55350E+01 1.15876E+01 0.00000E+00
 -1      3203 7.07850E+01 1.02886E+01 0.00000E+00
 -1      3204 6.92850E+01 1.02886E+01 0.00000E+00
 -1      3205 6.85350E+01 1.15876E+01 0.00000E+00
 -1      3206 7.37850E+01 1.02886E+01 0.00000E+00
 -1      3207 7.22850E+01 1.02886E+01 0.00000E+00
 -1      3208 7.15350E+01 1.15876E+01 0.00000E+00
 -1      3209 7.67850E+01 1.02886E+01 0.00000E+00
 -1      3210 7.52850E+01 1.02886E+01 0.00000E+00
 -1      3211 7.45350E+01 1.15876E+01 0.00000E+00
 -1      3212 7.97850E+01 1.02886E+01 0.00000E+00
 -1      3213 7.82850E+01 1.02886E+01 0.00000E+00
 -1      3214 7.75350E+01 1.15876E+01 0.00000E+00
 -1      3215 8.27850E+01 1.02886E+01 0.00000E+00
 -1      3216 8.12850E+01 1.02886E+01 0.00000E+00
 -1      3217 8.05350E+01 1.15876E+01 0.00000E+00
 -1      3218 8.57850E+01 1.02886E+01 0.00000E+00
 -1      3219 8.42850E+01 1.02886E+01 0.00000E+00
 -1      3220 8.35350E+01 1.15876E+01 0.00000E+00
 -1      3221 8.87850E+01 1.02886E+01 0.00000E+00
 -1      3222 8.72850E+01 1.02886E+01 0.00000E+00
 -1      3223 8.65350E+01 1.15876E+01 0.00000E+00
 -1      3224 9.17850E+01 1.02886E+01 0.00000E+00
 -1      3225 9.02850E+01 1.02886E+01 0.00000E+00
 -1      3226 8.95350E+01 1.15876E+01 0.00000E+00
 -1      3227 9.47850E+01 1.02886E+01 0.00000E+00
 -1      3228 9.32850E+01 1.02886E+01 0.00000E+00
 -1      3229 9.25350E+01 1.15876E+01 0.00000E+00
 -1      3230 9.77850E+01 1.02886E+01 0.00000E+00
 -1      3231 9.62850E+01 1.02886E+01 0.00000E+00
 -1      3232 9.55350E+01 1.15876E+01 0.00000E+00
 -1      3233 1.00785E+02 1.02886E+01 0.00000E+00
 -1      3234 9.92850E+01 1.02886E+01 0.00000E+00
 -1      3235 9.85350E+01 1.15876E+01 0.00000E+00
 -1      3236 1.03785E+02 1.02886E+01 0.00000E+00
 -1      3237 1.02285E+02 1.02886E+01 0.00000E+00
 -1      3238 1.01535E+02 1.15876E+01 0.00000E+00
 -1      3239 1.06785E+02 1.02886E+01 0.00000E+00
 -1      3240 1.05285E+02 1.02886E+01 0.00000E+00
 -1      3241 1.04535E+02 1.15876E+01 0.00000E+00
 -1      3242 1.09785E+02 1.02886E+01 0.00000E+00
 -1      3243 1.08285E+02 1.02886E+01 0.00000E+00
 -1      3244 1.07535E+02 1.15876E+01 0.00000E+00
 -1      3245 1.12785E+02 1.02886E+01 0.00000E+00
 -1      3246 1.11285E+02 1.02886E+01 0.00000E+00
 -1      3247 1.10535E+02 1.15876E+01 0.00000E+00
 -1      3248 1.15785E+02 1.02886E+01 0.00000E+00
 -1      3249 1.14285E+02 1.02886E+01 0.00000E+00
 -1      3250 1.13535E+02 1.15876E+01 0.00000E+00
 -1      3251 1.18785E+02 1.02886E+01 0.00000E+00
 -1      3252 1.17285E+02 1.02886E+01 0.00000E+00
 -1      3253 1.16535E+02 1.15876E+01 0.00000E+00
 -1      3254 1.21785E+02 1.02886E+01 0.00000E+00
 -1      3255 1.20285E+02 1.02886E+01 0.00000E+00
 -1      3256 1.19535E+02 1.15876E+01 0.00000E+00
 -1      3257 1.24785E+02 1.02886E+01 0.00000E+00
 -1      3258 1.23285E+02 1.02886E+01 0.00000E+00
 -1      3259 1.22535E+02 1.15876E+01 0.00000E+00
 -1      3260 1.27785E+02 1.02886E+01 0.00000E+00
 -1      3261 1.26285E+02 1.02886E+01 0.00000E+00
 -1      3262 1.25535E+02 1.15876E+01 0.00000E+00
 -1      3263 1.30785E+02 1.02886E+01 0.00000E+00
 -1      3264 1.29285E+02 1.02886E+01 0.00000E+00
 -1      3265 1.28535E+02 1.15876E+01 0.00000E+00
 -1      3266 1.33785E+02 1.02886E+01 0.00000E+00
 -1      3267 1.32285E+02 1.02886E+01 0.00000E+00
 -1      3268 1.31535E+02 1.15876E+01 0.00000E+00
 -1      3269 1.36785E+02 1.02886E+01 0.00000E+00
 -1      3270 1.35285E+02 1.02886E+01 0.00000E+00
 -1      3271 1.34535E+02 1.15876E+01 0.00000E+00
 -1      3272 1.38912E+02 1.08712E+01 0.00000E+00
 -1      3273 1.37744E+02 1.05373E+01 0.00000E+00
 -1      3274 1.36994E+02 1.18363E+01 0.00000E+00
 -1      3275 1.38912E+02 1.23337E+01 0.00000E+00
 -1      3276 1.38309E+02 3.45625E+01 0.00000E+00
 -1      3277 1.38309E+02 3.30875E+01 0.00000E+00
 -1      3278 1.38309E+02 2.57625E+01 0.00000E+00
 -1      3279 1.38309E+02 2.42875E+01 0.00000E+00
 -1      3280 3.59312E+01 2.30818E+01 0.00000E+00
 -1      3281 3.54801E+01 2.43114E+01 0.00000E+00
 -1      3282 1.38758E+02 3.81988E+01 0.00000E+00
 -1      3283 1.38473E+02 3.60156E+01 0.00000E+00
 -1      3284 1.37173E+02 3.52781E+01 0.00000E+00
 -1      3285 1.37501E+02 3.81842E+01 0.00000E+00
 -1      3286 2.49892E+01 3.36745E+01 0.00000E+00
 -1      3287 2.38546E+01 3.39909E+01 0.00000E+00
 -1      3288 1.23782E+01 9.95074E+00 0.00000E+00
 -1      3289 3.01049E+01 3.22334E+01 0.00000E+00
 -1      3290 2.88055E+01 3.28140E+01 0.00000E+00
 -1      3291 1.16776E+01 1.09899E+01 0.00000E+00
 -1      3292 1.92449E+01 7.93443E+00 0.00000E+00
 -1      3293 1.38309E+02 3.16125E+01 0.00000E+00
 -1      3294 1.38309E+02 3.01375E+01 0.00000E+00
 -1      3295 1.37010E+02 3.23500E+01 0.00000E+00
 -1      3296 4.67850E+01 1.02886E+01 0.00000E+00
 -1      3297 4.52850E+01 1.02886E+01 0.00000E+00
 -1      3298 4.45350E+01 1.15876E+01 0.00000E+00
 -1      3299 4.75350E+01 1.15876E+01 0.00000E+00
 -1      3300 1.59000E+01 3.83090E+01 0.00000E+00
 -1      3301 1.74000E+01 3.83090E+01 0.00000E+00
 -1      3302 1.81500E+01 3.70100E+01 0.00000E+00
 -1      3303 3.42997E+01 1.17842E+01 0.00000E+00
 -1      3304 3.51752E+01 1.29207E+01 0.00000E+00
 -1      3305 3.61955E+01 2.03798E+01 0.00000E+00
 -1      3306 3.62081E+01 2.15483E+01 0.00000E+00
 -1      3307 3.20391E+01 9.41703E+00 0.00000E+00
 -1      3308 1.61949E+01 3.22180E+01 0.00000E+00
 -1      3309 1.46966E+01 3.16889E+01 0.00000E+00
 -1      3310 1.91606E+01 3.26583E+01 0.00000E+00
 -1      3311 1.76777E+01 3.24381E+01 0.00000E+00
 -1      3312 1.65593E+01 3.32192E+01 0.00000E+00
 -1      3313 1.09997E+01 1.22738E+01 0.00000E+00
 -1      3314 3.39241E+01 2.80865E+01 0.00000E+00
 -1      3315 3.30928E+01 2.90885E+01 0.00000E+00
 -1      3316 3.70423E+01 1.03583E+01 0.00000E+00
 -1      3317 3.55423E+01 1.03583E+01 0.00000E+00
 -1      3318 1.12710E+01 3.74352E+01 0.00000E+00
 -1      3319 1.20855E+01 3.78721E+01 0.00000E+00
 -1      3320 1.12065E+01 3.56994E+01 0.00000E+00
 -1      3321 3.22979E+01 3.00366E+01 0.00000E+00
 -1      3322 3.15030E+01 3.09847E+01 0.00000E+00
 -1      3323 3.35670E+01 3.02437E+01 0.00000E+00
 -1      3324 2.73431E+01 3.30845E+01 0.00000E+00
 -1      3325 2.61662E+01 3.33795E+01 0.00000E+00
 -1      3326 2.58742E+01 3.45251E+01 0.00000E+00
 -1      3327 1.38309E+02 2.86750E+01 0.00000E+00
 -1      3328 1.38309E+02 2.72250E+01 0.00000E+00
 -1      3329 1.37010E+02 2.64875E+01 0.00000E+00
 -1      3330 1.37010E+02 2.94125E+01 0.00000E+00
 -1      3331 3.51052E+01 2.55422E+01 0.00000E+00
 -1      3332 3.46629E+01 2.66800E+01 0.00000E+00
 -1      3333 3.63965E+01 1.79846E+01 0.00000E+00
 -1      3334 3.62960E+01 1.91822E+01 0.00000E+00
 -1      3335 3.72435E+01 1.97563E+01 0.00000E+00
 -1      3336 9.87689E+00 2.68000E+01 0.00000E+00
 -1      3337 1.28355E+01 3.65731E+01 0.00000E+00
 -1      3338 3.64153E+01 1.23760E+01 0.00000E+00
 -1      3339 3.60409E+01 1.35699E+01 0.00000E+00
 -1      3340 3.69066E+01 1.42190E+01 0.00000E+00
 -1      3341 3.29473E+01 1.03010E+01 0.00000E+00
 -1      3342 1.12065E+01 3.27619E+01 0.00000E+00
 -1      3343 1.12065E+01 3.42306E+01 0.00000E+00
 -1      3344 1.20210E+01 3.46675E+01 0.00000E+00
 -1      3345 2.28242E+01 6.55340E+00 0.00000E+00
 -1      3346 2.20742E+01 7.49474E+00 0.00000E+00
 -1      3347 1.51500E+01 3.70100E+01 0.00000E+00
 -1      3348 1.36243E+02 3.81696E+01 0.00000E+00
 -1      3349 1.35493E+02 3.68706E+01 0.00000E+00
 -1      3350 2.43242E+01 6.55340E+00 0.00000E+00
 -1      3351 1.35487E+01 3.30989E+01 0.00000E+00
 -1      3352 1.31689E+01 3.17887E+01 0.00000E+00
 -1      3353 3.77923E+01 1.16573E+01 0.00000E+00
 -1      3354 3.62145E+01 2.52517E+01 0.00000E+00
 -1      3355 1.38309E+02 1.98625E+01 0.00000E+00
 -1      3356 1.38309E+02 1.83875E+01 0.00000E+00
 -1      3357 1.37010E+02 2.35500E+01 0.00000E+00
 -1      3358 1.38309E+02 2.28125E+01 0.00000E+00
 -1      3359 1.38309E+02 2.13375E+01 0.00000E+00
 -1      3360 1.37076E+02 1.78581E+01 0.00000E+00
 -1      3361 1.38375E+02 1.71206E+01 0.00000E+00
 -1      3362 1.38440E+02 1.58537E+01 0.00000E+00
 -1      3363 3.13740E+01 3.24404E+01 0.00000E+00
 -1      3364 1.11032E+01 2.57396E+01 0.00000E+00
 -1      3365 3.42924E+01 1.04156E+01 0.00000E+00
 -1      3366 1.97588E+01 3.35992E+01 0.00000E+00
 -1      3367 3.74798E+01 1.59869E+01 0.00000E+00
 -1      3368 3.69381E+01 1.69858E+01 0.00000E+00
 -1      3369 3.78857E+01 1.75599E+01 0.00000E+00
 -1      3370 2.02048E+01 8.51336E+00 0.00000E+00
 -1      3371 2.14508E+01 8.29076E+00 0.00000E+00
 -1      3372 2.85135E+01 3.39596E+01 0.00000E+00
 -1      3373 3.68662E+01 2.24874E+01 0.00000E+00
 -1      3374 3.51007E+01 2.78890E+01 0.00000E+00
 -1      3375 1.31498E+01 3.07521E+01 0.00000E+00
 -1      3376 1.24402E+01 2.99888E+01 0.00000E+00
 -1      3377 1.16086E+01 2.96677E+01 0.00000E+00
 -1      3378 2.05628E+01 3.53845E+01 0.00000E+00
 -1      3379 2.20628E+01 3.53845E+01 0.00000E+00
 -1      3380 1.11874E+01 3.17252E+01 0.00000E+00
 -1      3381 1.20019E+01 3.21621E+01 0.00000E+00
 -1      3382 3.28117E+01 3.26432E+01 0.00000E+00
 -1      3383 3.14137E+01 3.38918E+01 0.00000E+00
 -1      3384 1.43632E+01 3.50046E+01 0.00000E+00
 -1      3385 1.58632E+01 3.50046E+01 0.00000E+00
 -1      3386 2.36736E+01 3.59151E+01 0.00000E+00
 -1      3387 2.28310E+01 3.50858E+01 0.00000E+00
 -1      3388 1.73461E+01 3.52247E+01 0.00000E+00
 -1      3389 1.88461E+01 3.52247E+01 0.00000E+00
 -1      3390 2.51736E+01 3.59151E+01 0.00000E+00
 -1      3391 2.63506E+01 3.56201E+01 0.00000E+00
 -1      3392 2.78506E+01 3.56201E+01 0.00000E+00
 -1      3393 2.93130E+01 3.53496E+01 0.00000E+00
 -1      3394 3.08130E+01 3.53496E+01 0.00000E+00
 -1      3395 3.22507E+01 3.55523E+01 0.00000E+00
 -1      3396 3.37507E+01 3.55523E+01 0.00000E+00
 -1      3397 3.52507E+01 3.55523E+01 0.00000E+00
 -1      3398 3.67507E+01 3.55523E+01 0.00000E+00
 -1      3399 3.43514E+01 3.40946E+01 0.00000E+00
 -1      3400 3.82507E+01 3.55523E+01 0.00000E+00
 -1      3401 3.97507E+01 3.55523E+01 0.00000E+00
 -1      3402 3.73514E+01 3.40946E+01 0.00000E+00
 -1      3403 4.12507E+01 3.55523E+01 0.00000E+00
 -1      3404 4.27507E+01 3.55523E+01 0.00000E+00
 -1      3405 4.03514E+01 3.40946E+01 0.00000E+00
 -1      3406 4.42507E+01 3.55523E+01 0.00000E+00
 -1      3407 4.57507E+01 3.55523E+01 0.00000E+00
 -1      3408 4.33514E+01 3.40946E+01 0.00000E+00
 -1      3409 4.72507E+01 3.55523E+01 0.00000E+00
 -1      3410 4.87507E+01 3.55523E+01 0.00000E+00
 -1      3411 4.63514E+01 3.40946E+01 0.00000E+00
 -1      3412 5.02507E+01 3.55523E+01 0.00000E+00
 -1      3413 5.17507E+01 3.55523E+01 0.00000E+00
 -1      3414 4.93514E+01 3.40946E+01 0.00000E+00
 -1      3415 5.32507E+01 3.55523E+01 0.00000E+00
 -1      3416 5.47507E+01 3.55523E+01 0.00000E+00
 -1      3417 5.23514E+01 3.40946E+01 0.00000E+00
 -1      3418 5.62507E+01 3.55523E+01 0.00000E+00
 -1      3419 5.77507E+01 3.55523E+01 0.00000E+00
 -1      3420 5.53514E+01 3.40946E+01 0.00000E+00
 -1      3421 5.92507E+01 3.55523E+01 0.00000E+00
 -1      3422 6.07507E+01 3.55523E+01 0.00000E+00
 -1      3423 5.83514E+01 3.40946E+01 0.00000E+00
 -1      3424 6.22507E+01 3.55523E+01 0.00000E+00
 -1      3425 6.37507E+01 3.55523E+01 0.00000E+00
 -1      3426 6.13514E+01 3.40946E+01 0.00000E+00
 -1      3427 6.52507E+01 3.55523E+01 0.00000E+00
 -1      3428 6.67507E+01 3.55523E+01 0.00000E+00
 -1      3429 6.43514E+01 3.40946E+01 0.00000E+00
 -1      3430 6.82507E+01 3.55523E+01 0.00000E+00
 -1      3431 6.97507E+01 3.55523E+01 0.00000E+00
 -1      3432 6.73514E+01 3.40946E+01 0.00000E+00
 -1      3433 7.12507E+01 3.55523E+01 0.00000E+00
 -1      3434 7.27507E+01 3.55523E+01 0.00000E+00
 -1      3435 7.03514E+01 3.40946E+01 0.00000E+00
 -1      3436 7.42507E+01 3.55523E+01 0.00000E+00
 -1      3437 7.57507E+01 3.55523E+01 0.00000E+00
 -1      3438 7.33514E+01 3.40946E+01 0.00000E+00
 -1      3439 7.72507E+01 3.55523E+01 0.00000E+00
 -1      3440 7.87507E+01 3.55523E+01 0.00000E+00
 -1      3441 7.63514E+01 3.40946E+01 0.00000E+00
 -1      3442 8.02507E+01 3.55523E+01 0.00000E+00
 -1      3443 8.17507E+01 3.55523E+01 0.00000E+00
 -1      3444 7.93514E+01 3.40946E+01 0.00000E+00
 -1      3445 8.32507E+01 3.55523E+01 0.00000E+00
 -1      3446 8.47507E+01 3.55523E+01 0.00000E+00
 -1      3447 8.23514E+01 3.40946E+01 0.00000E+00
 -1      3448 8.62507E+01 3.55523E+01 0.00000E+00
 -1      3449 8.77507E+01 3.55523E+01 0.00000E+00
 -1      3450 8.53514E+01 3.40946E+01 0.00000E+00
 -1      3451 8.92507E+01 3.55523E+01 0.00000E+00
 -1      3452 9.07507E+01 3.55523E+01 0.00000E+00
 -1      3453 8.83514E+01 3.40946E+01 0.00000E+00
 -1      3454 9.22507E+01 3.55523E+01 0.00000E+00
 -1      3455 9.37507E+01 3.55523E+01 0.00000E+00
 -1      3456 9.13514E+01 3.40946E+01 0.00000E+00
 -1      3457 9.52507E+01 3.55523E+01 0.00000E+00
 -1      3458 9.67507E+01 3.55523E+01 0.00000E+00
 -1      3459 9.43514E+01 3.40946E+01 0.00000E+00
 -1      3460 9.82507E+01 3.55523E+01 0.00000E+00
 -1      3461 9.97507E+01 3.55523E+01 0.00000E+00
 -1      3462 9.73514E+01 3.40946E+01 0.00000E+00
 -1      3463 1.01251E+02 3.55523E+01 0.00000E+00
 -1      3464 1.02751E+02 3.55523E+01 0.00000E+00
 -1      3465 1.00351E+02 3.40946E+01 0.00000E+00
 -1      3466 1.04251E+02 3.55523E+01 0.00000E+00
 -1      3467 1.05751E+02 3.55523E+01 0.00000E+00
 -1      3468 1.03351E+02 3.40946E+01 0.00000E+00
 -1      3469 1.07251E+02 3.55523E+01 0.00000E+00
 -1      3470 1.08751E+02 3.55523E+01 0.00000E+00
 -1      3471 1.06351E+02 3.40946E+01 0.00000E+00
 -1      3472 1.10251E+02 3.55523E+01 0.00000E+00
 -1      3473 1.11751E+02 3.55523E+01 0.00000E+00
 -1      3474 1.09351E+02 3.40946E+01 0.00000E+00
 -1      3475 1.13251E+02 3.55523E+01 0.00000E+00
 -1      3476 1.14751E+02 3.55523E+01 0.00000E+00
 -1      3477 1.12351E+02 3.40946E+01 0.00000E+00
 -1      3478 1.16251E+02 3.55523E+01 0.00000E+00
 -1      3479 1.17751E+02 3.55523E+01 0.00000E+00
 -1      3480 1.15351E+02 3.40946E+01 0.00000E+00
 -1      3481 1.19251E+02 3.55523E+01 0.00000E+00
 -1      3482 1.20751E+02 3.55523E+01 0.00000E+00
 -1      3483 1.18351E+02 3.40946E+01 0.00000E+00
 -1      3484 1.22251E+02 3.55523E+01 0.00000E+00
 -1      3485 1.23751E+02 3.55523E+01 0.00000E+00
 -1      3486 1.21351E+02 3.40946E+01 0.00000E+00
 -1      3487 1.25251E+02 3.55523E+01 0.00000E+00
 -1      3488 1.26751E+02 3.55523E+01 0.00000E+00
 -1      3489 1.24351E+02 3.40946E+01 0.00000E+00
 -1      3490 1.28251E+02 3.55523E+01 0.00000E+00
 -1      3491 1.29751E+02 3.55523E+01 0.00000E+00
 -1      3492 1.27351E+02 3.40946E+01 0.00000E+00
 -1      3493 1.31251E+02 3.55523E+01 0.00000E+00
 -1      3494 1.32751E+02 3.55523E+01 0.00000E+00
 -1      3495 1.30351E+02 3.40946E+01 0.00000E+00
 -1      3496 5.42850E+01 1.28866E+01 0.00000E+00
 -1      3497 5.27850E+01 1.28866E+01 0.00000E+00
 -1      3498 5.12850E+01 1.28866E+01 0.00000E+00
 -1      3499 4.97850E+01 1.28866E+01 0.00000E+00
 -1      3500 5.20350E+01 1.41856E+01 0.00000E+00
 -1      3501 6.02850E+01 1.28866E+01 0.00000E+00
 -1      3502 5.87850E+01 1.28866E+01 0.00000E+00
 -1      3503 6.32850E+01 1.28866E+01 0.00000E+00
 -1      3504 6.17850E+01 1.28866E+01 0.00000E+00
 -1      3505 6.10350E+01 1.41856E+01 0.00000E+00
 -1      3506 6.62850E+01 1.28866E+01 0.00000E+00
 -1      3507 6.47850E+01 1.28866E+01 0.00000E+00
 -1      3508 6.40350E+01 1.41856E+01 0.00000E+00
 -1      3509 6.92850E+01 1.28866E+01 0.00000E+00
 -1      3510 6.77850E+01 1.28866E+01 0.00000E+00
 -1      3511 6.70350E+01 1.41856E+01 0.00000E+00
 -1      3512 7.22850E+01 1.28866E+01 0.00000E+00
 -1      3513 7.07850E+01 1.28866E+01 0.00000E+00
 -1      3514 7.00350E+01 1.41856E+01 0.00000E+00
 -1      3515 7.52850E+01 1.28866E+01 0.00000E+00
 -1      3516 7.37850E+01 1.28866E+01 0.00000E+00
 -1      3517 7.30350E+01 1.41856E+01 0.00000E+00
 -1      3518 7.82850E+01 1.28866E+01 0.00000E+00
 -1      3519 7.67850E+01 1.28866E+01 0.00000E+00
 -1      3520 7.60350E+01 1.41856E+01 0.00000E+00
 -1      3521 8.12850E+01 1.28866E+01 0.00000E+00
 -1      3522 7.97850E+01 1.28866E+01 0.00000E+00
 -1      3523 7.90350E+01 1.41856E+01 0.00000E+00
 -1      3524 8.42850E+01 1.28866E+01 0.00000E+00
 -1      3525 8.27850E+01 1.28866E+01 0.00000E+00
 -1      3526 8.20350E+01 1.41856E+01 0.00000E+00
 -1      3527 8.72850E+01 1.28866E+01 0.00000E+00
 -1      3528 8.57850E+01 1.28866E+01 0.00000E+00
 -1      3529 8.50350E+01 1.41856E+01 0.00000E+00
 -1      3530 9.02850E+01 1.28866E+01 0.00000E+00
 -1      3531 8.87850E+01 1.28866E+01 0.00000E+00
 -1      3532 8.80350E+01 1.41856E+01 0.00000E+00
 -1      3533 9.32850E+01 1.28866E+01 0.00000E+00
 -1      3534 9.17850E+01 1.28866E+01 0.00000E+00
 -1      3535 9.10350E+01 1.41856E+01 0.00000E+00
 -1      3536 9.62850E+01 1.28866E+01 0.00000E+00
 -1      3537 9.47850E+01 1.28866E+01 0.00000E+00
 -1      3538 9.40350E+01 1.41856E+01 0.00000E+00
 -1      3539 9.92850E+01 1.28866E+01 0.00000E+00
 -1      3540 9.77850E+01 1.28866E+01 0.00000E+00
 -1      3541 9.70350E+01 1.41856E+01 0.00000E+00
 -1      3542 1.02285E+02 1.28866E+01 0.00000E+00
 -1      3543 1.00785E+02 1.28866E+01 0.00000E+00
 -1      3544 1.00035E+02 1.41856E+01 0.00000E+00
 -1      3545 1.05285E+02 1.28866E+01 0.00000E+00
 -1      3546 1.03785E+02 1.28866E+01 0.00000E+00
 -1      3547 1.03035E+02 1.41856E+01 0.00000E+00
 -1      3548 1.08285E+02 1.28866E+01 0.00000E+00
 -1      3549 1.06785E+02 1.28866E+01 0.00000E+00
 -1      3550 1.06035E+02 1.41856E+01 0.00000E+00
 -1      3551 1.11285E+02 1.28866E+01 0.00000E+00
 -1      3552 1.09785E+02 1.28866E+01 0.00000E+00
 -1      3553 1.09035E+02 1.41856E+01 0.00000E+00
 -1      3554 1.14285E+02 1.28866E+01 0.00000E+00
 -1      3555 1.12785E+02 1.28866E+01 0.00000E+00
 -1      3556 1.12035E+02 1.41856E+01 0.00000E+00
 -1      3557 1.17285E+02 1.28866E+01 0.00000E+00
 -1      3558 1.15785E+02 1.28866E+01 0.00000E+00
 -1      3559 1.15035E+02 1.41856E+01 0.00000E+00
 -1      3560 1.20285E+02 1.28866E+01 0.00000E+00
 -1      3561 1.18785E+02 1.28866E+01 0.00000E+00
 -1      3562 1.18035E+02 1.41856E+01 0.00000E+00
 -1      3563 1.23285E+02 1.28866E+01 0.00000E+00
 -1      3564 1.21785E+02 1.28866E+01 0.00000E+00
 -1      3565 1.21035E+02 1.41856E+01 0.00000E+00
 -1      3566 1.26285E+02 1.28866E+01 0.00000E+00
 -1      3567 1.24785E+02 1.28866E+01 0.00000E+00
 -1      3568 1.24035E+02 1.41856E+01 0.00000E+00
 -1      3569 1.29285E+02 1.28866E+01 0.00000E+00
 -1      3570 1.27785E+02 1.28866E+01 0.00000E+00
 -1      3571 1.27035E+02 1.41856E+01 0.00000E+00
 -1      3572 1.32285E+02 1.28866E+01 0.00000E+00
 -1      3573 1.30785E+02 1.28866E+01 0.00000E+00
 -1      3574 1.30035E+02 1.41856E+01 0.00000E+00
 -1      3575 1.35285E+02 1.28866E+01 0.00000E+00
 -1      3576 1.33785E+02 1.28866E+01 0.00000E+00
 -1      3577 1.33035E+02 1.41856E+01 0.00000E+00
 -1      3578 1.37010E+02 2.06000E+01 0.00000E+00
 -1      3579 1.35330E+02 3.54175E+01 0.00000E+00
 -1      3580 3.66201E+01 2.77898E+01 0.00000E+00
 -1      3581 3.58813E+01 2.91964E+01 0.00000E+00
 -1      3582 1.35711E+02 3.30875E+01 0.00000E+00
 -1      3583 1.35711E+02 3.16125E+01 0.00000E+00
 -1      3584 4.22850E+01 1.28866E+01 0.00000E+00
 -1      3585 4.07850E+01 1.28866E+01 0.00000E+00
 -1      3586 1.38643E+02 1.47271E+01 0.00000E+00
 -1      3587 1.38709E+02 1.34602E+01 0.00000E+00
 -1      3588 1.37750E+02 1.32115E+01 0.00000E+00
 -1      3589 1.37344E+02 1.54646E+01 0.00000E+00
 -1      3590 3.75429E+01 2.49838E+01 0.00000E+00
 -1      3591 3.71679E+01 2.62146E+01 0.00000E+00
 -1      3592 3.80965E+01 2.19169E+01 0.00000E+00
 -1      3593 3.78197E+01 2.34503E+01 0.00000E+00
 -1      3594 3.87732E+01 2.44133E+01 0.00000E+00
 -1      3595 3.48142E+01 3.04821E+01 0.00000E+00
 -1      3596 3.40193E+01 3.14302E+01 0.00000E+00
 -1      3597 5.72850E+01 1.28866E+01 0.00000E+00
 -1      3598 5.57850E+01 1.28866E+01 0.00000E+00
 -1      3599 5.80350E+01 1.41856E+01 0.00000E+00
 -1      3600 3.82318E+01 1.92363E+01 0.00000E+00
 -1      3601 3.81314E+01 2.04338E+01 0.00000E+00
 -1      3602 1.34031E+02 3.46800E+01 0.00000E+00
 -1      3603 3.40590E+01 3.28816E+01 0.00000E+00
 -1      3604 3.63336E+01 3.03829E+01 0.00000E+00
 -1      3605 3.90848E+01 2.13968E+01 0.00000E+00
 -1      3606 1.33132E+02 3.32223E+01 0.00000E+00
 -1      3607 5.50350E+01 1.41856E+01 0.00000E+00
 -1      3608 1.28355E+01 3.51044E+01 0.00000E+00
 -1      3609 4.52850E+01 1.28866E+01 0.00000E+00
 -1      3610 4.37850E+01 1.28866E+01 0.00000E+00
 -1      3611 4.30350E+01 1.41856E+01 0.00000E+00
 -1      3612 1.35711E+02 2.42875E+01 0.00000E+00
 -1      3613 1.35711E+02 2.28125E+01 0.00000E+00
 -1      3614 1.35711E+02 2.13375E+01 0.00000E+00
 -1      3615 1.35711E+02 1.98625E+01 0.00000E+00
 -1      3616 1.34412E+02 2.20750E+01 0.00000E+00
 -1      3617 1.36791E+02 1.29629E+01 0.00000E+00
 -1      3618 1.35711E+02 2.72125E+01 0.00000E+00
 -1      3619 1.35711E+02 2.57500E+01 0.00000E+00
 -1      3620 1.34412E+02 2.50125E+01 0.00000E+00
 -1      3621 1.35777E+02 1.85956E+01 0.00000E+00
 -1      3622 1.35842E+02 1.73287E+01 0.00000E+00
 -1      3623 1.34478E+02 1.93331E+01 0.00000E+00
 -1      3624 3.79485E+01 2.75220E+01 0.00000E+00
 -1      3625 4.82850E+01 1.28866E+01 0.00000E+00
 -1      3626 4.67850E+01 1.28866E+01 0.00000E+00
 -1      3627 4.60350E+01 1.41856E+01 0.00000E+00
 -1      3628 4.90350E+01 1.41856E+01 0.00000E+00
 -1      3629 1.36041E+02 1.42619E+01 0.00000E+00
 -1      3630 3.87735E+01 1.82374E+01 0.00000E+00
 -1      3631 3.96613E+01 1.89149E+01 0.00000E+00
 -1      3632 3.93152E+01 1.72385E+01 0.00000E+00
 -1      3633 1.35711E+02 3.01437E+01 0.00000E+00
 -1      3634 1.35711E+02 2.86812E+01 0.00000E+00
 -1      3635 1.34412E+02 2.79438E+01 0.00000E+00
 -1      3636 1.34412E+02 3.08813E+01 0.00000E+00
 -1      3637 4.00350E+01 1.41857E+01 0.00000E+00
 -1      3638 3.92850E+01 1.28867E+01 0.00000E+00
 -1      3639 3.96014E+01 3.27956E+01 0.00000E+00
 -1      3640 4.11014E+01 3.27956E+01 0.00000E+00
 -1      3641 4.26014E+01 3.27956E+01 0.00000E+00
 -1      3642 4.41014E+01 3.27956E+01 0.00000E+00
 -1      3643 4.18514E+01 3.14966E+01 0.00000E+00
 -1      3644 4.56014E+01 3.27956E+01 0.00000E+00
 -1      3645 4.71014E+01 3.27956E+01 0.00000E+00
 -1      3646 4.48514E+01 3.14966E+01 0.00000E+00
 -1      3647 4.86014E+01 3.27956E+01 0.00000E+00
 -1      3648 5.01014E+01 3.27956E+01 0.00000E+00
 -1      3649 4.78514E+01 3.14966E+01 0.00000E+00
 -1      3650 5.16014E+01 3.27956E+01 0.00000E+00
 -1      3651 5.31014E+01 3.27956E+01 0.00000E+00
 -1      3652 5.08514E+01 3.14966E+01 0.00000E+00
 -1      3653 5.46014E+01 3.27956E+01 0.00000E+00
 -1      3654 5.61014E+01 3.27956E+01 0.00000E+00
 -1      3655 5.38514E+01 3.14966E+01 0.00000E+00
 -1      3656 5.76014E+01 3.27956E+01 0.00000E+00
 -1      3657 5.91014E+01 3.27956E+01 0.00000E+00
 -1      3658 5.68514E+01 3.14966E+01 0.00000E+00
 -1      3659 6.06014E+01 3.27956E+01 0.00000E+00
 -1      3660 6.21014E+01 3.27956E+01 0.00000E+00
 -1      3661 5.98514E+01 3.14966E+01 0.00000E+00
 -1      3662 6.36014E+01 3.27956E+01 0.00000E+00
 -1      3663 6.51014E+01 3.27956E+01 0.00000E+00
 -1      3664 6.28514E+01 3.14966E+01 0.00000E+00
 -1      3665 6.66014E+01 3.27956E+01 0.00000E+00
 -1      3666 6.81014E+01 3.27956E+01 0.00000E+00
 -1      3667 6.58514E+01 3.14966E+01 0.00000E+00
 -1      3668 6.96014E+01 3.27956E+01 0.00000E+00
 -1      3669 7.11014E+01 3.27956E+01 0.00000E+00
 -1      3670 6.88514E+01 3.14966E+01 0.00000E+00
 -1      3671 7.26014E+01 3.27956E+01 0.00000E+00
 -1      3672 7.41014E+01 3.27956E+01 0.00000E+00
 -1      3673 7.18514E+01 3.14966E+01 0.00000E+00
 -1      3674 7.56014E+01 3.27956E+01 0.00000E+00
 -1      3675 7.71014E+01 3.27956E+01 0.00000E+00
 -1      3676 7.48514E+01 3.14966E+01 0.00000E+00
 -1      3677 7.86014E+01 3.27956E+01 0.00000E+00
 -1      3678 8.01014E+01 3.27956E+01 0.00000E+00
 -1      3679 7.78514E+01 3.14966E+01 0.00000E+00
 -1      3680 8.16014E+01 3.27956E+01 0.00000E+00
 -1      3681 8.31014E+01 3.27956E+01 0.00000E+00
 -1      3682 8.08514E+01 3.14966E+01 0.00000E+00
 -1      3683 8.46014E+01 3.27956E+01 0.00000E+00
 -1      3684 8.61014E+01 3.27956E+01 0.00000E+00
 -1      3685 8.38514E+01 3.14966E+01 0.00000E+00
 -1      3686 8.76014E+01 3.27956E+01 0.00000E+00
 -1      3687 8.91014E+01 3.27956E+01 0.00000E+00
 -1      3688 8.68514E+01 3.14966E+01 0.00000E+00
 -1      3689 9.06014E+01 3.27956E+01 0.00000E+00
 -1      3690 9.21014E+01 3.27956E+01 0.00000E+00
 -1      3691 8.98514E+01 3.14966E+01 0.00000E+00
 -1      3692 9.36014E+01 3.27956E+01 0.00000E+00
 -1      3693 9.51014E+01 3.27956E+01 0.00000E+00
 -1      3694 9.28514E+01 3.14966E+01 0.00000E+00
 -1      3695 9.66014E+01 3.27956E+01 0.00000E+00
 -1      3696 9.81014E+01 3.27956E+01 0.00000E+00
 -1      3697 9.58514E+01 3.14966E+01 0.00000E+00
 -1      3698 9.96014E+01 3.27956E+01 0.00000E+00
 -1      3699 1.01101E+02 3.27956E+01 0.00000E+00
 -1      3700 9.88514E+01 3.14966E+01 0.00000E+00
 -1      3701 1.02601E+02 3.27956E+01 0.00000E+00
 -1      3702 1.04101E+02 3.27956E+01 0.00000E+00
 -1      3703 1.01851E+02 3.14966E+01 0.00000E+00
 -1      3704 1.05601E+02 3.27956E+01 0.00000E+00
 -1      3705 1.07101E+02 3.27956E+01 0.00000E+00
 -1      3706 1.04851E+02 3.14966E+01 0.00000E+00
 -1      3707 1.08601E+02 3.27956E+01 0.00000E+00
 -1      3708 1.10101E+02 3.27956E+01 0.00000E+00
 -1      3709 1.07851E+02 3.14966E+01 0.00000E+00
 -1      3710 1.11601E+02 3.27956E+01 0.00000E+00
 -1      3711 1.13101E+02 3.27956E+01 0.00000E+00
 -1      3712 1.10851E+02 3.14966E+01 0.00000E+00
 -1      3713 1.14601E+02 3.27956E+01 0.00000E+00
 -1      3714 1.16101E+02 3.27956E+01 0.00000E+00
 -1      3715 1.13851E+02 3.14966E+01 0.00000E+00
 -1      3716 1.17601E+02 3.27956E+01 0.00000E+00
 -1      3717 1.19101E+02 3.27956E+01 0.00000E+00
 -1      3718 1.16851E+02 3.14966E+01 0.00000E+00
 -1      3719 1.20601E+02 3.27956E+01 0.00000E+00
 -1      3720 1.22101E+02 3.27956E+01 0.00000E+00
 -1      3721 1.19851E+02 3.14966E+01 0.00000E+00
 -1      3722 1.23601E+02 3.27956E+01 0.00000E+00
 -1      3723 1.25101E+02 3.27956E+01 0.00000E+00
 -1      3724 1.22851E+02 3.14966E+01 0.00000E+00
 -1      3725 1.26601E+02 3.27956E+01 0.00000E+00
 -1      3726 1.28101E+02 3.27956E+01 0.00000E+00
 -1      3727 1.25851E+02 3.14966E+01 0.00000E+00
 -1      3728 1.29601E+02 3.27956E+01 0.00000E+00
 -1      3729 1.31101E+02 3.27956E+01 0.00000E+00
 -1      3730 1.28851E+02 3.14966E+01 0.00000E+00
 -1      3731 1.33113E+02 2.28125E+01 0.00000E+00
 -1      3732 1.33113E+02 2.13375E+01 0.00000E+00
 -1      3733 3.86580E+01 1.23064E+01 0.00000E+00
 -1      3734 3.94493E+01 2.71610E+01 0.00000E+00
 -1      3735 3.89015E+01 2.87362E+01 0.00000E+00
 -1      3736 1.35838E+02 1.53884E+01 0.00000E+00
 -1      3737 6.47850E+01 1.54846E+01 0.00000E+00
 -1      3738 6.32850E+01 1.54846E+01 0.00000E+00
 -1      3739 6.17850E+01 1.54846E+01 0.00000E+00
 -1      3740 6.02850E+01 1.54846E+01 0.00000E+00
 -1      3741 6.25350E+01 1.67836E+01 0.00000E+00
 -1      3742 7.07850E+01 1.54846E+01 0.00000E+00
 -1      3743 6.92850E+01 1.54846E+01 0.00000E+00
 -1      3744 7.37850E+01 1.54846E+01 0.00000E+00
 -1      3745 7.22850E+01 1.54846E+01 0.00000E+00
 -1      3746 7.15350E+01 1.67836E+01 0.00000E+00
 -1      3747 7.67850E+01 1.54846E+01 0.00000E+00
 -1      3748 7.52850E+01 1.54846E+01 0.00000E+00
 -1      3749 7.45350E+01 1.67836E+01 0.00000E+00
 -1      3750 7.97850E+01 1.54846E+01 0.00000E+00
 -1      3751 7.82850E+01 1.54846E+01 0.00000E+00
 -1      3752 7.75350E+01 1.67836E+01 0.00000E+00
 -1      3753 8.27850E+01 1.54846E+01 0.00000E+00
 -1      3754 8.12850E+01 1.54846E+01 0.00000E+00
 -1      3755 8.05350E+01 1.67836E+01 0.00000E+00
 -1      3756 8.57850E+01 1.54846E+01 0.00000E+00
 -1      3757 8.42850E+01 1.54846E+01 0.00000E+00
 -1      3758 8.35350E+01 1.67836E+01 0.00000E+00
 -1      3759 8.87850E+01 1.54846E+01 0.00000E+00
 -1      3760 8.72850E+01 1.54846E+01 0.00000E+00
 -1      3761 8.65350E+01 1.67836E+01 0.00000E+00
 -1      3762 9.17850E+01 1.54846E+01 0.00000E+00
 -1      3763 9.02850E+01 1.54846E+01 0.00000E+00
 -1      3764 8.95350E+01 1.67836E+01 0.00000E+00
 -1      3765 9.47850E+01 1.54846E+01 0.00000E+00
 -1      3766 9.32850E+01 1.54846E+01 0.00000E+00
 -1      3767 9.25350E+01 1.67836E+01 0.00000E+00
 -1      3768 9.77850E+01 1.54846E+01 0.00000E+00
 -1      3769 9.62850E+01 1.54846E+01 0.00000E+00
 -1      3770 9.55350E+01 1.67836E+01 0.00000E+00
 -1      3771 1.00785E+02 1.54846E+01 0.00000E+00
 -1      3772 9.92850E+01 1.54846E+01 0.00000E+00
 -1      3773 9.85350E+01 1.67836E+01 0.00000E+00
 -1      3774 1.03785E+02 1.54846E+01 0.00000E+00
 -1      3775 1.02285E+02 1.54846E+01 0.00000E+00
 -1      3776 1.01535E+02 1.67836E+01 0.00000E+00
 -1      3777 1.06785E+02 1.54846E+01 0.00000E+00
 -1      3778 1.05285E+02 1.54846E+01 0.00000E+00
 -1      3779 1.04535E+02 1.67836E+01 0.00000E+00
 -1      3780 1.09785E+02 1.54846E+01 0.00000E+00
 -1      3781 1.08285E+02 1.54846E+01 0.00000E+00
 -1      3782 1.07535E+02 1.67836E+01 0.00000E+00
 -1      3783 1.12785E+02 1.54846E+01 0.00000E+00
 -1      3784 1.11285E+02 1.54846E+01 0.00000E+00
 -1      3785 1.10535E+02 1.67836E+01 0.00000E+00
 -1      3786 1.15785E+02 1.54846E+01 0.00000E+00
 -1      3787 1.14285E+02 1.54846E+01 0.00000E+00
 -1      3788 1.13535E+02 1.67836E+01 0.00000E+00
 -1      3789 1.18785E+02 1.54846E+01 0.00000E+00
 -1      3790 1.17285E+02 1.54846E+01 0.00000E+00
 -1      3791 1.16535E+02 1.67836E+01 0.00000E+00
 -1      3792 1.21785E+02 1.54846E+01 0.00000E+00
 -1      3793 1.20285E+02 1.54846E+01 0.00000E+00
 -1      3794 1.19535E+02 1.67836E+01 0.00000E+00
 -1      3795 1.24785E+02 1.54846E+01 0.00000E+00
 -1      3796 1.23285E+02 1.54846E+01 0.00000E+00
 -1      3797 1.22535E+02 1.67836E+01 0.00000E+00
 -1      3798 1.27785E+02 1.54846E+01 0.00000E+00
 -1      3799 1.26285E+02 1.54846E+01 0.00000E+00
 -1      3800 1.25535E+02 1.67836E+01 0.00000E+00
 -1      3801 1.30785E+02 1.54846E+01 0.00000E+00
 -1      3802 1.29285E+02 1.54846E+01 0.00000E+00
 -1      3803 1.28535E+02 1.67836E+01 0.00000E+00
 -1      3804 3.75337E+01 1.47992E+01 0.00000E+00
 -1      3805 3.84812E+01 1.53734E+01 0.00000E+00
 -1      3806 5.27850E+01 1.54846E+01 0.00000E+00
 -1      3807 5.12850E+01 1.54846E+01 0.00000E+00
 -1      3808 3.55590E+01 3.28816E+01 0.00000E+00
 -1      3809 5.57850E+01 1.54846E+01 0.00000E+00
 -1      3810 5.42850E+01 1.54846E+01 0.00000E+00
 -1      3811 5.35350E+01 1.67836E+01 0.00000E+00
 -1      3812 3.78344E+01 3.00219E+01 0.00000E+00
 -1      3813 3.67673E+01 3.13077E+01 0.00000E+00
 -1      3814 3.93353E+01 2.96610E+01 0.00000E+00
 -1      3815 3.79081E+01 1.36054E+01 0.00000E+00
 -1      3816 1.34539E+02 1.61259E+01 0.00000E+00
 -1      3817 3.70598E+01 3.25206E+01 0.00000E+00
 -1      3818 1.32382E+02 3.19233E+01 0.00000E+00
 -1      3819 4.01677E+01 2.38734E+01 0.00000E+00
 -1      3820 3.98909E+01 2.54068E+01 0.00000E+00
 -1      3821 5.87850E+01 1.54846E+01 0.00000E+00
 -1      3822 5.72850E+01 1.54846E+01 0.00000E+00
 -1      3823 5.95350E+01 1.67836E+01 0.00000E+00
 -1      3824 4.02108E+01 2.06813E+01 0.00000E+00
 -1      3825 4.01760E+01 2.21644E+01 0.00000E+00
 -1      3826 3.97020E+01 1.51183E+01 0.00000E+00
 -1      3827 3.96482E+01 1.63059E+01 0.00000E+00
 -1      3828 4.05360E+01 1.69834E+01 0.00000E+00
 -1      3829 4.12020E+01 1.51182E+01 0.00000E+00
 -1      3830 6.77850E+01 1.54846E+01 0.00000E+00
 -1      3831 6.62850E+01 1.54846E+01 0.00000E+00
 -1      3832 6.55350E+01 1.67836E+01 0.00000E+00
 -1      3833 4.08439E+01 2.66211E+01 0.00000E+00
 -1      3834 3.85598E+01 3.25206E+01 0.00000E+00
 -1      3835 1.31880E+02 2.08081E+01 0.00000E+00
 -1      3836 1.33179E+02 2.00706E+01 0.00000E+00
 -1      3837 1.33244E+02 1.88037E+01 0.00000E+00
 -1      3838 1.33113E+02 2.42750E+01 0.00000E+00
 -1      3839 1.31814E+02 2.35375E+01 0.00000E+00
 -1      3840 1.33113E+02 2.57375E+01 0.00000E+00
 -1      3841 1.33039E+02 1.61259E+01 0.00000E+00
 -1      3842 3.93098E+01 3.12216E+01 0.00000E+00
 -1      3843 4.27020E+01 1.51182E+01 0.00000E+00
 -1      3844 4.23690E+01 1.60508E+01 0.00000E+00
 -1      3845 4.42020E+01 1.51182E+01 0.00000E+00
 -1      3846 4.12938E+01 2.31579E+01 0.00000E+00
 -1      3847 1.32289E+02 1.74249E+01 0.00000E+00
 -1      3848 4.12942E+01 1.86836E+01 0.00000E+00
 -1      3849 4.07525E+01 1.96825E+01 0.00000E+00
 -1      3850 4.18437E+01 2.04500E+01 0.00000E+00
 -1      3851 1.32382E+02 3.04545E+01 0.00000E+00
 -1      3852 4.97850E+01 1.54846E+01 0.00000E+00
 -1      3853 4.82850E+01 1.54846E+01 0.00000E+00
 -1      3854 5.05350E+01 1.67836E+01 0.00000E+00
 -1      3855 5.65350E+01 1.67836E+01 0.00000E+00
 -1      3856 6.85350E+01 1.67836E+01 0.00000E+00
 -1      3857 4.41014E+01 3.01976E+01 0.00000E+00
 -1      3858 4.56014E+01 3.01976E+01 0.00000E+00
 -1      3859 4.71014E+01 3.01976E+01 0.00000E+00
 -1      3860 4.86014E+01 3.01976E+01 0.00000E+00
 -1      3861 4.63514E+01 2.88986E+01 0.00000E+00
 -1      3862 5.01014E+01 3.01976E+01 0.00000E+00
 -1      3863 5.16014E+01 3.01976E+01 0.00000E+00
 -1      3864 4.93514E+01 2.88986E+01 0.00000E+00
 -1      3865 5.31014E+01 3.01976E+01 0.00000E+00
 -1      3866 5.46014E+01 3.01976E+01 0.00000E+00
 -1      3867 5.23514E+01 2.88986E+01 0.00000E+00
 -1      3868 5.61014E+01 3.01976E+01 0.00000E+00
 -1      3869 5.76014E+01 3.01976E+01 0.00000E+00
 -1      3870 5.53514E+01 2.88986E+01 0.00000E+00
 -1      3871 5.91014E+01 3.01976E+01 0.00000E+00
 -1      3872 6.06014E+01 3.01976E+01 0.00000E+00
 -1      3873 5.83514E+01 2.88986E+01 0.00000E+00
 -1      3874 6.21014E+01 3.01976E+01 0.00000E+00
 -1      3875 6.36014E+01 3.01976E+01 0.00000E+00
 -1      3876 6.13514E+01 2.88986E+01 0.00000E+00
 -1      3877 6.51014E+01 3.01976E+01 0.00000E+00
 -1      3878 6.66014E+01 3.01976E+01 0.00000E+00
 -1      3879 6.43514E+01 2.88986E+01 0.00000E+00
 -1      3880 6.81014E+01 3.01976E+01 0.00000E+00
 -1      3881 6.96014E+01 3.01976E+01 0.00000E+00
 -1      3882 6.73514E+01 2.88986E+01 0.00000E+00
 -1      3883 7.11014E+01 3.01976E+01 0.00000E+00
 -1      3884 7.26014E+01 3.01976E+01 0.00000E+00
 -1      3885 7.03514E+01 2.88986E+01 0.00000E+00
 -1      3886 7.41014E+01 3.01976E+01 0.00000E+00
 -1      3887 7.56014E+01 3.01976E+01 0.00000E+00
 -1      3888 7.33514E+01 2.88986E+01 0.00000E+00
 -1      3889 7.71014E+01 3.01976E+01 0.00000E+00
 -1      3890 7.86014E+01 3.01976E+01 0.00000E+00
 -1      3891 7.63514E+01 2.88986E+01 0.00000E+00
 -1      3892 8.01014E+01 3.01976E+01 0.00000E+00
 -1      3893 8.16014E+01 3.01976E+01 0.00000E+00
 -1      3894 7.93514E+01 2.88986E+01 0.00000E+00
 -1      3895 8.31014E+01 3.01976E+01 0.00000E+00
 -1      3896 8.46014E+01 3.01976E+01 0.00000E+00
 -1      3897 8.23514E+01 2.88986E+01 0.00000E+00
 -1      3898 8.61014E+01 3.01976E+01 0.00000E+00
 -1      3899 8.76014E+01 3.01976E+01 0.00000E+00
 -1      3900 8.53514E+01 2.88986E+01 0.00000E+00
 -1      3901 8.91014E+01 3.01976E+01 0.00000E+00
 -1      3902 9.06014E+01 3.01976E+01 0.00000E+00
 -1      3903 8.83514E+01 2.88986E+01 0.00000E+00
 -1      3904 9.21014E+01 3.01976E+01 0.00000E+00
 -1      3905 9.36014E+01 3.01976E+01 0.00000E+00
 -1      3906 9.13514E+01 2.88986E+01 0.00000E+00
 -1      3907 9.51014E+01 3.01976E+01 0.00000E+00
 -1      3908 9.66014E+01 3.01976E+01 0.00000E+00
 -1      3909 9.43514E+01 2.88986E+01 0.00000E+00
 -1      3910 9.81014E+01 3.01976E+01 0.00000E+00
 -1      3911 9.96014E+01 3.01976E+01 0.00000E+00
 -1      3912 9.73514E+01 2.88986E+01 0.00000E+00
 -1      3913 1.01101E+02 3.01976E+01 0.00000E+00
 -1      3914 1.02601E+02 3.01976E+01 0.00000E+00
 -1      3915 1.00351E+02 2.88986E+01 0.00000E+00
 -1      3916 1.04101E+02 3.01976E+01 0.00000E+00
 -1      3917 1.05601E+02 3.01976E+01 0.00000E+00
 -1      3918 1.03351E+02 2.88986E+01 0.00000E+00
 -1      3919 1.07101E+02 3.01976E+01 0.00000E+00
 -1      3920 1.08601E+02 3.01976E+01 0.00000E+00
 -1      3921 1.06351E+02 2.88986E+01 0.00000E+00
 -1      3922 1.10101E+02 3.01976E+01 0.00000E+00
 -1      3923 1.11601E+02 3.01976E+01 0.00000E+00
 -1      3924 1.09351E+02 2.88986E+01 0.00000E+00
 -1      3925 1.13101E+02 3.01976E+01 0.00000E+00
 -1      3926 1.14601E+02 3.01976E+01 0.00000E+00
 -1      3927 1.12351E+02 2.88986E+01 0.00000E+00
 -1      3928 1.16101E+02 3.01976E+01 0.00000E+00
 -1      3929 1.17601E+02 3.01976E+01 0.00000E+00
 -1      3930 1.15351E+02 2.88986E+01 0.00000E+00
 -1      3931 1.19101E+02 3.01976E+01 0.00000E+00
 -1      3932 1.20601E+02 3.01976E+01 0.00000E+00
 -1      3933 1.18351E+02 2.88986E+01 0.00000E+00
 -1      3934 1.22101E+02 3.01976E+01 0.00000E+00
 -1      3935 1.23601E+02 3.01976E+01 0.00000E+00
 -1      3936 1.21351E+02 2.88986E+01 0.00000E+00
 -1      3937 1.25101E+02 3.01976E+01 0.00000E+00
 -1      3938 1.26601E+02 3.01976E+01 0.00000E+00
 -1      3939 1.24351E+02 2.88986E+01 0.00000E+00
 -1      3940 1.28101E+02 3.01976E+01 0.00000E+00
 -1      3941 1.29601E+02 3.01976E+01 0.00000E+00
 -1      3942 1.27351E+02 2.88986E+01 0.00000E+00
 -1      3943 4.23244E+01 2.60611E+01 0.00000E+00
 -1      3944 4.18829E+01 2.78153E+01 0.00000E+00
 -1      3945 7.52850E+01 1.80826E+01 0.00000E+00
 -1      3946 7.37850E+01 1.80826E+01 0.00000E+00
 -1      3947 7.22850E+01 1.80826E+01 0.00000E+00
 -1      3948 7.07850E+01 1.80826E+01 0.00000E+00
 -1      3949 7.30350E+01 1.93816E+01 0.00000E+00
 -1      3950 8.12850E+01 1.80826E+01 0.00000E+00
 -1      3951 7.97850E+01 1.80826E+01 0.00000E+00
 -1      3952 8.42850E+01 1.80826E+01 0.00000E+00
 -1      3953 8.27850E+01 1.80826E+01 0.00000E+00
 -1      3954 8.20350E+01 1.93816E+01 0.00000E+00
 -1      3955 8.72850E+01 1.80826E+01 0.00000E+00
 -1      3956 8.57850E+01 1.80826E+01 0.00000E+00
 -1      3957 8.50350E+01 1.93816E+01 0.00000E+00
 -1      3958 9.02850E+01 1.80826E+01 0.00000E+00
 -1      3959 8.87850E+01 1.80826E+01 0.00000E+00
 -1      3960 8.80350E+01 1.93816E+01 0.00000E+00
 -1      3961 9.32850E+01 1.80826E+01 0.00000E+00
 -1      3962 9.17850E+01 1.80826E+01 0.00000E+00
 -1      3963 9.10350E+01 1.93816E+01 0.00000E+00
 -1      3964 9.62850E+01 1.80826E+01 0.00000E+00
 -1      3965 9.47850E+01 1.80826E+01 0.00000E+00
 -1      3966 9.40350E+01 1.93816E+01 0.00000E+00
 -1      3967 9.92850E+01 1.80826E+01 0.00000E+00
 -1      3968 9.77850E+01 1.80826E+01 0.00000E+00
 -1      3969 9.70350E+01 1.93816E+01 0.00000E+00
 -1      3970 1.02285E+02 1.80826E+01 0.00000E+00
 -1      3971 1.00785E+02 1.80826E+01 0.00000E+00
 -1      3972 1.00035E+02 1.93816E+01 0.00000E+00
 -1      3973 1.05285E+02 1.80826E+01 0.00000E+00
 -1      3974 1.03785E+02 1.80826E+01 0.00000E+00
 -1      3975 1.03035E+02 1.93816E+01 0.00000E+00
 -1      3976 1.08285E+02 1.80826E+01 0.00000E+00
 -1      3977 1.06785E+02 1.80826E+01 0.00000E+00
 -1      3978 1.06035E+02 1.93816E+01 0.00000E+00
 -1      3979 1.11285E+02 1.80826E+01 0.00000E+00
 -1      3980 1.09785E+02 1.80826E+01 0.00000E+00
 -1      3981 1.09035E+02 1.93816E+01 0.00000E+00
 -1      3982 1.14285E+02 1.80826E+01 0.00000E+00
 -1      3983 1.12785E+02 1.80826E+01 0.00000E+00
 -1      3984 1.12035E+02 1.93816E+01 0.00000E+00
 -1      3985 1.17285E+02 1.80826E+01 0.00000E+00
 -1      3986 1.15785E+02 1.80826E+01 0.00000E+00
 -1      3987 1.15035E+02 1.93816E+01 0.00000E+00
 -1      3988 1.20285E+02 1.80826E+01 0.00000E+00
 -1      3989 1.18785E+02 1.80826E+01 0.00000E+00
 -1      3990 1.18035E+02 1.93816E+01 0.00000E+00
 -1      3991 1.23285E+02 1.80826E+01 0.00000E+00
 -1      3992 1.21785E+02 1.80826E+01 0.00000E+00
 -1      3993 1.21035E+02 1.93816E+01 0.00000E+00
 -1      3994 1.26285E+02 1.80826E+01 0.00000E+00
 -1      3995 1.24785E+02 1.80826E+01 0.00000E+00
 -1      3996 1.24035E+02 1.93816E+01 0.00000E+00
 -1      3997 1.29285E+02 1.80826E+01 0.00000E+00
 -1      3998 1.27785E+02 1.80826E+01 0.00000E+00
 -1      3999 1.27035E+02 1.93816E+01 0.00000E+00
 -1      4000 4.03769E+01 2.99359E+01 0.00000E+00
 -1      4001 6.62850E+01 1.80826E+01 0.00000E+00
 -1      4002 6.47850E+01 1.80826E+01 0.00000E+00
 -1      4003 7.82850E+01 1.80826E+01 0.00000E+00
 -1      4004 7.67850E+01 1.80826E+01 0.00000E+00
 -1      4005 7.60350E+01 1.93816E+01 0.00000E+00
 -1      4006 7.90350E+01 1.93816E+01 0.00000E+00
 -1      4007 4.69935E+01 1.53014E+01 0.00000E+00
 -1      4008 4.54935E+01 1.53014E+01 0.00000E+00
 -1      4009 4.51605E+01 1.62340E+01 0.00000E+00
 -1      4010 4.77435E+01 1.66004E+01 0.00000E+00
 -1      4011 5.72850E+01 1.80826E+01 0.00000E+00
 -1      4012 5.57850E+01 1.80826E+01 0.00000E+00
 -1      4013 4.24906E+01 2.23091E+01 0.00000E+00
 -1      4014 4.24823E+01 2.40181E+01 0.00000E+00
 -1      4015 6.32850E+01 1.80826E+01 0.00000E+00
 -1      4016 6.17850E+01 1.80826E+01 0.00000E+00
 -1      4017 6.40350E+01 1.93816E+01 0.00000E+00
 -1      4018 6.02850E+01 1.80826E+01 0.00000E+00
 -1      4019 5.87850E+01 1.80826E+01 0.00000E+00
 -1      4020 6.10350E+01 1.93816E+01 0.00000E+00
 -1      4021 1.30990E+02 1.81624E+01 0.00000E+00
 -1      4022 6.92850E+01 1.80826E+01 0.00000E+00
 -1      4023 6.77850E+01 1.80826E+01 0.00000E+00
 -1      4024 6.70350E+01 1.93816E+01 0.00000E+00
 -1      4025 7.00350E+01 1.93816E+01 0.00000E+00
 -1      4026 1.30992E+02 2.95917E+01 0.00000E+00
 -1      4027 1.33022E+02 2.85496E+01 0.00000E+00
 -1      4028 1.33022E+02 2.70809E+01 0.00000E+00
 -1      4029 1.30242E+02 2.82927E+01 0.00000E+00
 -1      4030 4.19981E+01 1.69009E+01 0.00000E+00
 -1      4031 4.16651E+01 1.78335E+01 0.00000E+00
 -1      4032 4.27563E+01 1.86011E+01 0.00000E+00
 -1      4033 4.34981E+01 1.69009E+01 0.00000E+00
 -1      4034 5.42850E+01 1.80826E+01 0.00000E+00
 -1      4035 5.27850E+01 1.80826E+01 0.00000E+00
 -1      4036 5.50350E+01 1.93816E+01 0.00000E+00
 -1      4037 4.18769E+01 2.99359E+01 0.00000E+00
 -1      4038 1.31723E+02 2.63434E+01 0.00000E+00
 -1      4039 4.35212E+01 2.52123E+01 0.00000E+00
 -1      4040 5.80350E+01 1.93816E+01 0.00000E+00
 -1      4041 1.30240E+02 1.94614E+01 0.00000E+00
 -1      4042 1.30515E+02 2.42687E+01 0.00000E+00
 -1      4043 1.30515E+02 2.28062E+01 0.00000E+00
 -1      4044 5.12850E+01 1.80826E+01 0.00000E+00
 -1      4045 4.97850E+01 1.80826E+01 0.00000E+00
 -1      4046 5.20350E+01 1.93816E+01 0.00000E+00
 -1      4047 4.30323E+01 2.13103E+01 0.00000E+00
 -1      4048 4.42208E+01 2.21705E+01 0.00000E+00
 -1      4049 4.35739E+01 2.03114E+01 0.00000E+00
 -1      4050 4.33574E+01 2.93759E+01 0.00000E+00
 -1      4051 1.30345E+02 2.17673E+01 0.00000E+00
 -1      4052 1.30410E+02 2.05004E+01 0.00000E+00
 -1      4053 1.28705E+02 2.04206E+01 0.00000E+00
 -1      4054 1.29046E+02 2.24985E+01 0.00000E+00
 -1      4055 4.86014E+01 2.75996E+01 0.00000E+00
 -1      4056 5.01014E+01 2.75996E+01 0.00000E+00
 -1      4057 5.16014E+01 2.75996E+01 0.00000E+00
 -1      4058 5.31014E+01 2.75996E+01 0.00000E+00
 -1      4059 5.08514E+01 2.63006E+01 0.00000E+00
 -1      4060 5.46014E+01 2.75996E+01 0.00000E+00
 -1      4061 5.61014E+01 2.75996E+01 0.00000E+00
 -1      4062 5.38514E+01 2.63006E+01 0.00000E+00
 -1      4063 5.76014E+01 2.75996E+01 0.00000E+00
 -1      4064 5.91014E+01 2.75996E+01 0.00000E+00
 -1      4065 5.68514E+01 2.63006E+01 0.00000E+00
 -1      4066 6.06014E+01 2.75996E+01 0.00000E+00
 -1      4067 6.21014E+01 2.75996E+01 0.00000E+00
 -1      4068 5.98514E+01 2.63006E+01 0.00000E+00
 -1      4069 6.36014E+01 2.75996E+01 0.00000E+00
 -1      4070 6.51014E+01 2.75996E+01 0.00000E+00
 -1      4071 6.28514E+01 2.63006E+01 0.00000E+00
 -1      4072 6.66014E+01 2.75996E+01 0.00000E+00
 -1      4073 6.81014E+01 2.75996E+01 0.00000E+00
 -1      4074 6.58514E+01 2.63006E+01 0.00000E+00
 -1      4075 6.96014E+01 2.75996E+01 0.00000E+00
 -1      4076 7.11014E+01 2.75996E+01 0.00000E+00
 -1      4077 6.88514E+01 2.63006E+01 0.00000E+00
 -1      4078 7.26014E+01 2.75996E+01 0.00000E+00
 -1      4079 7.41014E+01 2.75996E+01 0.00000E+00
 -1      4080 7.18514E+01 2.63006E+01 0.00000E+00
 -1      4081 7.56014E+01 2.75996E+01 0.00000E+00
 -1      4082 7.71014E+01 2.75996E+01 0.00000E+00
 -1      4083 7.48514E+01 2.63006E+01 0.00000E+00
 -1      4084 7.86014E+01 2.75996E+01 0.00000E+00
 -1      4085 8.01014E+01 2.75996E+01 0.00000E+00
 -1      4086 7.78514E+01 2.63006E+01 0.00000E+00
 -1      4087 8.16014E+01 2.75996E+01 0.00000E+00
 -1      4088 8.31014E+01 2.75996E+01 0.00000E+00
 -1      4089 8.08514E+01 2.63006E+01 0.00000E+00
 -1      4090 8.46014E+01 2.75996E+01 0.00000E+00
 -1      4091 8.61014E+01 2.75996E+01 0.00000E+00
 -1      4092 8.38514E+01 2.63006E+01 0.00000E+00
 -1      4093 8.76014E+01 2.75996E+01 0.00000E+00
 -1      4094 8.91014E+01 2.75996E+01 0.00000E+00
 -1      4095 8.68514E+01 2.63006E+01 0.00000E+00
 -1      4096 9.06014E+01 2.75996E+01 0.00000E+00
 -1      4097 9.21014E+01 2.75996E+01 0.00000E+00
 -1      4098 8.98514E+01 2.63006E+01 0.00000E+00
 -1      4099 9.36014E+01 2.75996E+01 0.00000E+00
 -1      4100 9.51014E+01 2.75996E+01 0.00000E+00
 -1      4101 9.28514E+01 2.63006E+01 0.00000E+00
 -1      4102 9.66014E+01 2.75996E+01 0.00000E+00
 -1      4103 9.81014E+01 2.75996E+01 0.00000E+00
 -1      4104 9.58514E+01 2.63006E+01 0.00000E+00
 -1      4105 9.96014E+01 2.75996E+01 0.00000E+00
 -1      4106 1.01101E+02 2.75996E+01 0.00000E+00
 -1      4107 9.88514E+01 2.63006E+01 0.00000E+00
 -1      4108 1.02601E+02 2.75996E+01 0.00000E+00
 -1      4109 1.04101E+02 2.75996E+01 0.00000E+00
 -1      4110 1.01851E+02 2.63006E+01 0.00000E+00
 -1      4111 1.05601E+02 2.75996E+01 0.00000E+00
 -1      4112 1.07101E+02 2.75996E+01 0.00000E+00
 -1      4113 1.04851E+02 2.63006E+01 0.00000E+00
 -1      4114 1.08601E+02 2.75996E+01 0.00000E+00
 -1      4115 1.10101E+02 2.75996E+01 0.00000E+00
 -1      4116 1.07851E+02 2.63006E+01 0.00000E+00
 -1      4117 1.11601E+02 2.75996E+01 0.00000E+00
 -1      4118 1.13101E+02 2.75996E+01 0.00000E+00
 -1      4119 1.10851E+02 2.63006E+01 0.00000E+00
 -1      4120 1.14601E+02 2.75996E+01 0.00000E+00
 -1      4121 1.16101E+02 2.75996E+01 0.00000E+00
 -1      4122 1.13851E+02 2.63006E+01 0.00000E+00
 -1      4123 1.17601E+02 2.75996E+01 0.00000E+00
 -1      4124 1.19101E+02 2.75996E+01 0.00000E+00
 -1      4125 1.16851E+02 2.63006E+01 0.00000E+00
 -1      4126 1.20601E+02 2.75996E+01 0.00000E+00
 -1      4127 1.22101E+02 2.75996E+01 0.00000E+00
 -1      4128 1.19851E+02 2.63006E+01 0.00000E+00
 -1      4129 1.23601E+02 2.75996E+01 0.00000E+00
 -1      4130 1.25101E+02 2.75996E+01 0.00000E+00
 -1      4131 1.22851E+02 2.63006E+01 0.00000E+00
 -1      4132 1.26601E+02 2.75996E+01 0.00000E+00
 -1      4133 1.28101E+02 2.75996E+01 0.00000E+00
 -1      4134 1.25851E+02 2.63006E+01 0.00000E+00
 -1      4135 4.48953E+01 2.42910E+01 0.00000E+00
 -1      4136 4.47374E+01 2.63339E+01 0.00000E+00
 -1      4137 8.57850E+01 2.06806E+01 0.00000E+00
 -1      4138 8.42850E+01 2.06806E+01 0.00000E+00
 -1      4139 8.27850E+01 2.06806E+01 0.00000E+00
 -1      4140 8.12850E+01 2.06806E+01 0.00000E+00
 -1      4141 8.35350E+01 2.19796E+01 0.00000E+00
 -1      4142 9.17850E+01 2.06806E+01 0.00000E+00
 -1      4143 9.02850E+01 2.06806E+01 0.00000E+00
 -1      4144 9.47850E+01 2.06806E+01 0.00000E+00
 -1      4145 9.32850E+01 2.06806E+01 0.00000E+00
 -1      4146 9.25350E+01 2.19796E+01 0.00000E+00
 -1      4147 9.77850E+01 2.06806E+01 0.00000E+00
 -1      4148 9.62850E+01 2.06806E+01 0.00000E+00
 -1      4149 9.55350E+01 2.19796E+01 0.00000E+00
 -1      4150 1.00785E+02 2.06806E+01 0.00000E+00
 -1      4151 9.92850E+01 2.06806E+01 0.00000E+00
 -1      4152 9.85350E+01 2.19796E+01 0.00000E+00
 -1      4153 1.03785E+02 2.06806E+01 0.00000E+00
 -1      4154 1.02285E+02 2.06806E+01 0.00000E+00
 -1      4155 1.01535E+02 2.19796E+01 0.00000E+00
 -1      4156 1.06785E+02 2.06806E+01 0.00000E+00
 -1      4157 1.05285E+02 2.06806E+01 0.00000E+00
 -1      4158 1.04535E+02 2.19796E+01 0.00000E+00
 -1      4159 1.09785E+02 2.06806E+01 0.00000E+00
 -1      4160 1.08285E+02 2.06806E+01 0.00000E+00
 -1      4161 1.07535E+02 2.19796E+01 0.00000E+00
 -1      4162 1.12785E+02 2.06806E+01 0.00000E+00
 -1      4163 1.11285E+02 2.06806E+01 0.00000E+00
 -1      4164 1.10535E+02 2.19796E+01 0.00000E+00
 -1      4165 1.15785E+02 2.06806E+01 0.00000E+00
 -1      4166 1.14285E+02 2.06806E+01 0.00000E+00
 -1      4167 1.13535E+02 2.19796E+01 0.00000E+00
 -1      4168 1.18785E+02 2.06806E+01 0.00000E+00
 -1      4169 1.17285E+02 2.06806E+01 0.00000E+00
 -1      4170 1.16535E+02 2.19796E+01 0.00000E+00
 -1      4171 1.21785E+02 2.06806E+01 0.00000E+00
 -1      4172 1.20285E+02 2.06806E+01 0.00000E+00
 -1      4173 1.19535E+02 2.19796E+01 0.00000E+00
 -1      4174 1.24785E+02 2.06806E+01 0.00000E+00
 -1      4175 1.23285E+02 2.06806E+01 0.00000E+00
 -1      4176 1.22535E+02 2.19796E+01 0.00000E+00
 -1      4177 1.27495E+02 2.05506E+01 0.00000E+00
 -1      4178 1.25995E+02 2.05506E+01 0.00000E+00
 -1      4179 1.25245E+02 2.18496E+01 0.00000E+00
 -1      4180 1.27665E+02 2.15896E+01 0.00000E+00
 -1      4181 1.29583E+02 2.56503E+01 0.00000E+00
 -1      4182 1.28284E+02 2.49190E+01 0.00000E+00
 -1      4183 5.57850E+01 2.06806E+01 0.00000E+00
 -1      4184 5.42850E+01 2.06806E+01 0.00000E+00
 -1      4185 1.29492E+02 2.69937E+01 0.00000E+00
 -1      4186 6.47850E+01 2.06806E+01 0.00000E+00
 -1      4187 6.32850E+01 2.06806E+01 0.00000E+00
 -1      4188 5.87850E+01 2.06806E+01 0.00000E+00
 -1      4189 5.72850E+01 2.06806E+01 0.00000E+00
 -1      4190 5.65350E+01 2.19796E+01 0.00000E+00
 -1      4191 8.87850E+01 2.06806E+01 0.00000E+00
 -1      4192 8.72850E+01 2.06806E+01 0.00000E+00
 -1      4193 8.65350E+01 2.19796E+01 0.00000E+00
 -1      4194 8.95350E+01 2.19796E+01 0.00000E+00
 -1      4195 6.17850E+01 2.06806E+01 0.00000E+00
 -1      4196 6.02850E+01 2.06806E+01 0.00000E+00
 -1      4197 6.25350E+01 2.19796E+01 0.00000E+00
 -1      4198 7.37850E+01 2.06806E+01 0.00000E+00
 -1      4199 7.22850E+01 2.06806E+01 0.00000E+00
 -1      4200 4.41074E+01 2.80769E+01 0.00000E+00
 -1      4201 4.54815E+01 2.71555E+01 0.00000E+00
 -1      4202 1.26982E+02 2.50903E+01 0.00000E+00
 -1      4203 1.27915E+02 2.37088E+01 0.00000E+00
 -1      4204 1.27744E+02 2.26698E+01 0.00000E+00
 -1      4205 1.25482E+02 2.50903E+01 0.00000E+00
 -1      4206 4.54370E+01 2.32921E+01 0.00000E+00
 -1      4207 4.66532E+01 2.44137E+01 0.00000E+00
 -1      4208 4.59787E+01 2.22933E+01 0.00000E+00
 -1      4209 6.77850E+01 2.06806E+01 0.00000E+00
 -1      4210 6.62850E+01 2.06806E+01 0.00000E+00
 -1      4211 6.55350E+01 2.19796E+01 0.00000E+00
 -1      4212 5.27850E+01 2.06806E+01 0.00000E+00
 -1      4213 5.12850E+01 2.06806E+01 0.00000E+00
 -1      4214 5.35350E+01 2.19796E+01 0.00000E+00
 -1      4215 4.60811E+01 1.72673E+01 0.00000E+00
 -1      4216 4.47896E+01 1.70841E+01 0.00000E+00
 -1      4217 4.44187E+01 1.79342E+01 0.00000E+00
 -1      4218 5.95350E+01 2.19796E+01 0.00000E+00
 -1      4219 8.05350E+01 2.19796E+01 0.00000E+00
 -1      4220 7.97850E+01 2.06806E+01 0.00000E+00
 -1      4221 7.82850E+01 2.06806E+01 0.00000E+00
 -1      4222 7.67850E+01 2.06806E+01 0.00000E+00
 -1      4223 7.52850E+01 2.06806E+01 0.00000E+00
 -1      4224 7.75350E+01 2.19796E+01 0.00000E+00
 -1      4225 4.90350E+01 1.93817E+01 0.00000E+00
 -1      4226 4.82850E+01 1.80827E+01 0.00000E+00
 -1      4227 7.15350E+01 2.19796E+01 0.00000E+00
 -1      4228 7.07850E+01 2.06806E+01 0.00000E+00
 -1      4229 6.92850E+01 2.06806E+01 0.00000E+00
 -1      4230 7.45350E+01 2.19796E+01 0.00000E+00
 -1      4231 4.69815E+01 2.71555E+01 0.00000E+00
 -1      4232 4.77315E+01 2.58565E+01 0.00000E+00
 -1      4233 4.41818E+01 1.86978E+01 0.00000E+00
 -1      4234 4.38109E+01 1.95479E+01 0.00000E+00
 -1      4235 4.49994E+01 2.04081E+01 0.00000E+00
 -1      4236 4.54733E+01 1.88810E+01 0.00000E+00
 -1      4237 4.69935E+01 1.78995E+01 0.00000E+00
 -1      4238 5.01014E+01 2.50016E+01 0.00000E+00
 -1      4239 5.16014E+01 2.50016E+01 0.00000E+00
 -1      4240 9.86932E+01 2.41401E+01 0.00000E+00
 -1      4241 9.71932E+01 2.41401E+01 0.00000E+00
 -1      4242 5.36932E+01 2.41401E+01 0.00000E+00
 -1      4243 5.51932E+01 2.41401E+01 0.00000E+00
 -1      4244 5.66932E+01 2.41401E+01 0.00000E+00
 -1      4245 5.81932E+01 2.41401E+01 0.00000E+00
 -1      4246 5.96932E+01 2.41401E+01 0.00000E+00
 -1      4247 6.11932E+01 2.41401E+01 0.00000E+00
 -1      4248 6.26932E+01 2.41401E+01 0.00000E+00
 -1      4249 6.41932E+01 2.41401E+01 0.00000E+00
 -1      4250 6.56932E+01 2.41401E+01 0.00000E+00
 -1      4251 6.71932E+01 2.41401E+01 0.00000E+00
 -1      4252 6.86932E+01 2.41401E+01 0.00000E+00
 -1      4253 7.01932E+01 2.41401E+01 0.00000E+00
 -1      4254 7.16932E+01 2.41401E+01 0.00000E+00
 -1      4255 7.31932E+01 2.41401E+01 0.00000E+00
 -1      4256 7.46932E+01 2.41401E+01 0.00000E+00
 -1      4257 7.61932E+01 2.41401E+01 0.00000E+00
 -1      4258 7.76932E+01 2.41401E+01 0.00000E+00
 -1      4259 7.91932E+01 2.41401E+01 0.00000E+00
 -1      4260 8.06932E+01 2.41401E+01 0.00000E+00
 -1      4261 8.21932E+01 2.41401E+01 0.00000E+00
 -1      4262 8.36932E+01 2.41401E+01 0.00000E+00
 -1      4263 8.51932E+01 2.41401E+01 0.00000E+00
 -1      4264 8.66932E+01 2.41401E+01 0.00000E+00
 -1      4265 8.81932E+01 2.41401E+01 0.00000E+00
 -1      4266 8.96932E+01 2.41401E+01 0.00000E+00
 -1      4267 9.11932E+01 2.41401E+01 0.00000E+00
 -1      4268 9.26932E+01 2.41401E+01 0.00000E+00
 -1      4269 9.41932E+01 2.41401E+01 0.00000E+00
 -1      4270 9.56932E+01 2.41401E+01 0.00000E+00
 -1      4271 1.00193E+02 2.41401E+01 0.00000E+00
 -1      4272 1.01693E+02 2.41401E+01 0.00000E+00
 -1      4273 1.03193E+02 2.41401E+01 0.00000E+00
 -1      4274 1.04693E+02 2.41401E+01 0.00000E+00
 -1      4275 1.06193E+02 2.41401E+01 0.00000E+00
 -1      4276 1.07693E+02 2.41401E+01 0.00000E+00
 -1      4277 1.09193E+02 2.41401E+01 0.00000E+00
 -1      4278 1.10693E+02 2.41401E+01 0.00000E+00
 -1      4279 1.12193E+02 2.41401E+01 0.00000E+00
 -1      4280 1.13693E+02 2.41401E+01 0.00000E+00
 -1      4281 1.15193E+02 2.41401E+01 0.00000E+00
 -1      4282 1.16693E+02 2.41401E+01 0.00000E+00
 -1      4283 1.18193E+02 2.41401E+01 0.00000E+00
 -1      4284 1.19693E+02 2.41401E+01 0.00000E+00
 -1      4285 1.21193E+02 2.41401E+01 0.00000E+00
 -1      4286 1.22693E+02 2.41401E+01 0.00000E+00
 -1      4287 1.24193E+02 2.41401E+01 0.00000E+00
 -1      4288 4.82731E+01 2.48577E+01 0.00000E+00
 -1      4289 1.26534E+02 2.27998E+01 0.00000E+00
 -1      4290 1.25324E+02 2.29299E+01 0.00000E+00
 -1      4291 4.66226E+01 1.87495E+01 0.00000E+00
 -1      4292 6.85350E+01 2.19796E+01 0.00000E+00
 -1      4293 4.96149E+01 2.26972E+01 0.00000E+00
 -1      4294 4.88649E+01 2.13982E+01 0.00000E+00
 -1      4295 4.73650E+01 2.13982E+01 0.00000E+00
 -1      4296 5.21932E+01 2.41401E+01 0.00000E+00
 -1      4297 4.61488E+01 2.02767E+01 0.00000E+00
 -1      4298 4.63857E+01 1.95131E+01 0.00000E+00
 -1      4299 5.14432E+01 2.28411E+01 0.00000E+00
 -1      4300 4.90231E+01 2.35587E+01 0.00000E+00
 -3
    3C                          2068                                     1
 -1       165    8    0    1
 -2         6         7        23      1117      1281      1134
 -1       166    8    0    1
 -2         7         8       165      1118      1282      1283
 -1       167    8    0    1
 -2         8         9       166      1119      1284      1285
 -1       168    8    0    1
 -2         8       166       165      1285      1286      1282
 -1       169    8    0    1
 -2         9        10       167      1120      1287      1288
 -1       170    8    0    1
 -2         9       167       166      1288      1289      1284
 -1       171    8    0    1
 -2        10        11       168      1121      1290      1291
 -1       172    8    0    1
 -2        10       168       167      1291      1292      1287
 -1       173    8    0    1
 -2        11        12       169      1122      1293      1294
 -1       174    8    0    1
 -2        11       169       168      1294      1295      1290
 -1       175    8    0    1
 -2        12        13       170      1123      1296      1297
 -1       176    8    0    1
 -2        12       170       169      1297      1298      1293
 -1       177    8    0    1
 -2        13        14       171      1124      1299      1300
 -1       178    8    0    1
 -2        13       171       170      1300      1301      1296
 -1       179    8    0    1
 -2        14        15       172      1125      1302      1303
 -1       180    8    0    1
 -2        14       172       171      1303      1304      1299
 -1       181    8    0    1
 -2        15        16       173      1126      1305      1306
 -1       182    8    0    1
 -2        15       173       172      1306      1307      1302
 -1       183    8    0    1
 -2        16        17       174      1127      1308      1309
 -1       184    8    0    1
 -2        16       174       173      1309      1310      1305
 -1       185    8    0    1
 -2        17        18       175      1128      1311      1312
 -1       186    8    0    1
 -2        17       175       174      1312      1313      1308
 -1       187    8    0    1
 -2        18        19       176      1129      1314      1315
 -1       188    8    0    1
 -2        18       176       175      1315      1316      1311
 -1       189    8    0    1
 -2        19        20       177      1130      1317      1318
 -1       190    8    0    1
 -2        19       177       176      1318      1319      1314
 -1       191    8    0    1
 -2        20        21       178      1131      1320      1321
 -1       192    8    0    1
 -2        20       178       177      1321      1322      1317
 -1       193    8    0    1
 -2        21        22       179      1132      1323      1324
 -1       194    8    0    1
 -2        21       179       178      1324      1325      1320
 -1       195    8    0    1
 -2        22         5       180      1133      1326      1327
 -1       196    8    0    1
 -2       179        22       180      1323      1327      1328
 -1       197    8    0    1
 -2         5        72       180      1184      1329      1326
 -1       198    8    0    1
 -2        24        23       181      1135      1330      1331
 -1       199    8    0    1
 -2        25        24       182      1136      1332      1333
 -1       200    8    0    1
 -2        24       181       182      1331      1334      1332
 -1       201    8    0    1
 -2        26        25       183      1137      1335      1336
 -1       202    8    0    1
 -2        25       182       183      1333      1337      1335
 -1       203    8    0    1
 -2        27        26       184      1138      1338      1339
 -1       204    8    0    1
 -2        26       183       184      1336      1340      1338
 -1       205    8    0    1
 -2        28        27       185      1139      1341      1342
 -1       206    8    0    1
 -2        27       184       185      1339      1343      1341
 -1       207    8    0    1
 -2        29        28       186      1140      1344      1345
 -1       208    8    0    1
 -2        28       185       186      1342      1346      1344
 -1       209    8    0    1
 -2        30        29       187      1141      1347      1348
 -1       210    8    0    1
 -2        29       186       187      1345      1349      1347
 -1       211    8    0    1
 -2        31        30       188      1142      1350      1351
 -1       212    8    0    1
 -2        30       187       188      1348      1352      1350
 -1       213    8    0    1
 -2        32        31       189      1143      1353      1354
 -1       214    8    0    1
 -2        31       188       189      1351      1355      1353
 -1       215    8    0    1
 -2        33        32       190      1144      1356      1357
 -1       216    8    0    1
 -2        32       189       190      1354      1358      1356
 -1       217    8    0    1
 -2        34        33       191      1145      1359      1360
 -1       218    8    0    1
 -2        33       190       191      1357      1361      1359
 -1       219    8    0    1
 -2        35        34       192      1146      1362      1363
 -1       220    8    0    1
 -2        34       191       192      1360      1364      1362
 -1       221    8    0    1
 -2        36        35       193      1147      1365      1366
 -1       222    8    0    1
 -2        35       192       193      1363      1367      1365
 -1       223    8    0    1
 -2        37        36       194      1148      1368      1369
 -1       224    8    0    1
 -2        36       193       194      1366      1370      1368
 -1       225    8    0    1
 -2        38        37       195      1149      1371      1372
 -1       226    8    0    1
 -2        37       194       195      1369      1373      1371
 -1       227    8    0    1
 -2        39        38       196      1150      1374      1375
 -1       228    8    0    1
 -2        38       195       196      1372      1376      1374
 -1       229    8    0    1
 -2        40        39       197      1151      1377      1378
 -1       230    8    0    1
 -2        39       196       197      1375      1379      1377
 -1       231    8    0    1
 -2        41        40       198      1152      1380      1381
 -1       232    8    0    1
 -2        40       197       198      1378      1382      1380
 -1       233    8    0    1
 -2        42        41       199      1153      1383      1384
 -1       234    8    0    1
 -2        41       198       199      1381      1385      1383
 -1       235    8    0    1
 -2        43        42       200      1154      1386      1387
 -1       236    8    0    1
 -2        42       199       200      1384      1388      1386
 -1       237    8    0    1
 -2        44        43       201      1155      1389      1390
 -1       238    8    0    1
 -2        43       200       201      1387      1391      1389
 -1       239    8    0    1
 -2        45        44       202      1156      1392      1393
 -1       240    8    0    1
 -2        44       201       202      1390      1394      1392
 -1       241    8    0    1
 -2        46        45       203      1157      1395      1396
 -1       242    8    0    1
 -2        45       202       203      1393      1397      1395
 -1       243    8    0    1
 -2        47        46       204      1158      1398      1399
 -1       244    8    0    1
 -2        46       203       204      1396      1400      1398
 -1       245    8    0    1
 -2        48        47       205      1159      1401      1402
 -1       246    8    0    1
 -2        47       204       205      1399      1403      1401
 -1       247    8    0    1
 -2        49        48       206      1160      1404      1405
 -1       248    8    0    1
 -2        48       205       206      1402      1406      1404
 -1       249    8    0    1
 -2        50        49       207      1161      1407      1408
 -1       250    8    0    1
 -2        49       206       207      1405      1409      1407
 -1       251    8    0    1
 -2        51        50       208      1162      1410      1411
 -1       252    8    0    1
 -2        50       207       208      1408      1412      1410
 -1       253    8    0    1
 -2        52        51       209      1163      1413      1414
 -1       254    8    0    1
 -2        51       208       209      1411      1415      1413
 -1       255    8    0    1
 -2        53        52       210      1164      1416      1417
 -1       256    8    0    1
 -2        52       209       210      1414      1418      1416
 -1       257    8    0    1
 -2        54        53       211      1165      1419      1420
 -1       258    8    0    1
 -2        53       210       211      1417      1421      1419
 -1       259    8    0    1
 -2        55        54       212      1166      1422      1423
 -1       260    8    0    1
 -2        54       211       212      1420      1424      1422
 -1       261    8    0    1
 -2        56        55       213      1167      1425      1426
 -1       262    8    0    1
 -2        55       212       213      1423      1427      1425
 -1       263    8    0    1
 -2        57        56       214      1168      1428      1429
 -1       264    8    0    1
 -2        56       213       214      1426      1430      1428
 -1       265    8    0    1
 -2        58        57       215      1169      1431      1432
 -1       266    8    0    1
 -2        57       214       215      1429      1433      1431
 -1       267    8    0    1
 -2        59        58       216      1170      1434      1435
 -1       268    8    0    1
 -2        58       215       216      1432      1436      1434
 -1       269    8    0    1
 -2        60        59       217      1171      1437      1438
 -1       270    8    0    1
 -2        59       216       217      1435      1439      1437
 -1       271    8    0    1
 -2        61        60       218      1172      1440      1441
 -1       272    8    0    1
 -2        60       217       218      1438      1442      1440
 -1       273    8    0    1
 -2        62        61       219      1173      1443      1444
 -1       274    8    0    1
 -2        61       218       219      1441      1445      1443
 -1       275    8    0    1
 -2        63        62       220      1174      1446      1447
 -1       276    8    0    1
 -2        62       219       220      1444      1448      1446
 -1       277    8    0    1
 -2        64        63       221      1175      1449      1450
 -1       278    8    0    1
 -2        63       220       221      1447      1451      1449
 -1       279    8    0    1
 -2        65        64       222      1176      1452      1453
 -1       280    8    0    1
 -2        64       221       222      1450      1454      1452
 -1       281    8    0    1
 -2        66        65       223      1177      1455      1456
 -1       282    8    0    1
 -2        65       222       223      1453      1457      1455
 -1       283    8    0    1
 -2        67        66       224      1178      1458      1459
 -1       284    8    0    1
 -2        66       223       224      1456      1460      1458
 -1       285    8    0    1
 -2        68        67       225      1179      1461      1462
 -1       286    8    0    1
 -2        67       224       225      1459      1463      1461
 -1       287    8    0    1
 -2        69        68       226      1180      1464      1465
 -1       288    8    0    1
 -2        68       225       226      1462      1466      1464
 -1       289    8    0    1
 -2        70        69       227      1181      1467      1468
 -1       290    8    0    1
 -2        69       226       227      1465      1469      1467
 -1       291    8    0    1
 -2        71        70       228      1182      1470      1471
 -1       292    8    0    1
 -2        70       227       228      1468      1472      1470
 -1       293    8    0    1
 -2         4        71       136      1183      1473      1250
 -1       294    8    0    1
 -2       136        71       228      1473      1471      1474
 -1       295    8    0    1
 -2        72        73       229      1185      1475      1476
 -1       296    8    0    1
 -2        72       229       180      1476      1477      1329
 -1       297    8    0    1
 -2        73        74       230      1186      1478      1479
 -1       298    8    0    1
 -2        73       230       229      1479      1480      1475
 -1       299    8    0    1
 -2        74        75       231      1187      1481      1482
 -1       300    8    0    1
 -2        74       231       230      1482      1483      1478
 -1       301    8    0    1
 -2        75        76       232      1188      1484      1485
 -1       302    8    0    1
 -2        75       232       231      1485      1486      1481
 -1       303    8    0    1
 -2        76        77       233      1189      1487      1488
 -1       304    8    0    1
 -2        76       233       232      1488      1489      1484
 -1       305    8    0    1
 -2        77        78       234      1190      1490      1491
 -1       306    8    0    1
 -2        77       234       233      1491      1492      1487
 -1       307    8    0    1
 -2        78        79       235      1191      1493      1494
 -1       308    8    0    1
 -2        78       235       234      1494      1495      1490
 -1       309    8    0    1
 -2        79        80       236      1192      1496      1497
 -1       310    8    0    1
 -2        79       236       235      1497      1498      1493
 -1       311    8    0    1
 -2        80        81       237      1193      1499      1500
 -1       312    8    0    1
 -2        80       237       236      1500      1501      1496
 -1       313    8    0    1
 -2        81        82       238      1194      1502      1503
 -1       314    8    0    1
 -2        81       238       237      1503      1504      1499
 -1       315    8    0    1
 -2        82        83       239      1195      1505      1506
 -1       316    8    0    1
 -2        82       239       238      1506      1507      1502
 -1       317    8    0    1
 -2        83        84       240      1196      1508      1509
 -1       318    8    0    1
 -2        83       240       239      1509      1510      1505
 -1       319    8    0    1
 -2        84        85       241      1197      1511      1512
 -1       320    8    0    1
 -2        84       241       240      1512      1513      1508
 -1       321    8    0    1
 -2        85        86       242      1198      1514      1515
 -1       322    8    0    1
 -2        85       242       241      1515      1516      1511
 -1       323    8    0    1
 -2        86        87       243      1199      1517      1518
 -1       324    8    0    1
 -2        86       243       242      1518      1519      1514
 -1       325    8    0    1
 -2        87        88       244      1200      1520      1521
 -1       326    8    0    1
 -2        87       244       243      1521      1522      1517
 -1       327    8    0    1
 -2        88        89       245      1201      1523      1524
 -1       328    8    0    1
 -2        88       245       244      1524      1525      1520
 -1       329    8    0    1
 -2        89        90       246      1202      1526      1527
 -1       330    8    0    1
 -2        89       246       245      1527      1528      1523
 -1       331    8    0    1
 -2        90        91       247      1203      1529      1530
 -1       332    8    0    1
 -2        90       247       246      1530      1531      1526
 -1       333    8    0    1
 -2        91        92       248      1204      1532      1533
 -1       334    8    0    1
 -2        91       248       247      1533      1534      1529
 -1       335    8    0    1
 -2        92        93       249      1205      1535      1536
 -1       336    8    0    1
 -2        92       249       248      1536      1537      1532
 -1       337    8    0    1
 -2        93        94       250      1206      1538      1539
 -1       338    8    0    1
 -2        93       250       249      1539      1540      1535
 -1       339    8    0    1
 -2        94        95       251      1207      1541      1542
 -1       340    8    0    1
 -2        94       251       250      1542      1543      1538
 -1       341    8    0    1
 -2        95        96       252      1208      1544      1545
 -1       342    8    0    1
 -2        95       252       251      1545      1546      1541
 -1       343    8    0    1
 -2        96        97       253      1209      1547      1548
 -1       344    8    0    1
 -2        96       253       252      1548      1549      1544
 -1       345    8    0    1
 -2        97        98       254      1210      1550      1551
 -1       346    8    0    1
 -2        97       254       253      1551      1552      1547
 -1       347    8    0    1
 -2        98        99       255      1211      1553      1554
 -1       348    8    0    1
 -2        98       255       254      1554      1555      1550
 -1       349    8    0    1
 -2        99       100       256      1212      1556      1557
 -1       350    8    0    1
 -2        99       256       255      1557      1558      1553
 -1       351    8    0    1
 -2       100       101       257      1213      1559      1560
 -1       352    8    0    1
 -2       100       257       256      1560      1561      1556
 -1       353    8    0    1
 -2       101       102       258      1214      1562      1563
 -1       354    8    0    1
 -2       101       258       257      1563      1564      1559
 -1       355    8    0    1
 -2       102       103       259      1215      1565      1566
 -1       356    8    0    1
 -2       102       259       258      1566      1567      1562
 -1       357    8    0    1
 -2       103       104       260      1216      1568      1569
 -1       358    8    0    1
 -2       103       260       259      1569      1570      1565
 -1       359    8    0    1
 -2       104       105       261      1217      1571      1572
 -1       360    8    0    1
 -2       104       261       260      1572      1573      1568
 -1       361    8    0    1
 -2       105       106       262      1218      1574      1575
 -1       362    8    0    1
 -2       105       262       261      1575      1576      1571
 -1       363    8    0    1
 -2       106       107       263      1219      1577      1578
 -1       364    8    0    1
 -2       106       263       262      1578      1579      1574
 -1       365    8    0    1
 -2       107       108       264      1220      1580      1581
 -1       366    8    0    1
 -2       107       264       263      1581      1582      1577
 -1       367    8    0    1
 -2       108       109       265      1221      1583      1584
 -1       368    8    0    1
 -2       108       265       264      1584      1585      1580
 -1       369    8    0    1
 -2       109       110       266      1222      1586      1587
 -1       370    8    0    1
 -2       109       266       265      1587      1588      1583
 -1       371    8    0    1
 -2       110       111       267      1223      1589      1590
 -1       372    8    0    1
 -2       110       267       266      1590      1591      1586
 -1       373    8    0    1
 -2       111       112       268      1224      1592      1593
 -1       374    8    0    1
 -2       111       268       267      1593      1594      1589
 -1       375    8    0    1
 -2       112       113       269      1225      1595      1596
 -1       376    8    0    1
 -2       112       269       268      1596      1597      1592
 -1       377    8    0    1
 -2       113       114       270      1226      1598      1599
 -1       378    8    0    1
 -2       113       270       269      1599      1600      1595
 -1       379    8    0    1
 -2       114       115       271      1227      1601      1602
 -1       380    8    0    1
 -2       114       271       270      1602      1603      1598
 -1       381    8    0    1
 -2       115       116       272      1228      1604      1605
 -1       382    8    0    1
 -2       115       272       271      1605      1606      1601
 -1       383    8    0    1
 -2       116       117       273      1229      1607      1608
 -1       384    8    0    1
 -2       116       273       272      1608      1609      1604
 -1       385    8    0    1
 -2       117       118       274      1230      1610      1611
 -1       386    8    0    1
 -2       117       274       273      1611      1612      1607
 -1       387    8    0    1
 -2       118       119       275      1231      1613      1614
 -1       388    8    0    1
 -2       118       275       274      1614      1615      1610
 -1       389    8    0    1
 -2       119       120       276      1232      1616      1617
 -1       390    8    0    1
 -2       119       276       275      1617      1618      1613
 -1       391    8    0    1
 -2       120         3       121      1233      1234      1619
 -1       392    8    0    1
 -2       121       122       277      1235      1620      1621
 -1       393    8    0    1
 -2       122       123       278      1236      1622      1623
 -1       394    8    0    1
 -2       122       278       277      1623      1624      1620
 -1       395    8    0    1
 -2       123       124       279      1237      1625      1626
 -1       396    8    0    1
 -2       123       279       278      1626      1627      1622
 -1       397    8    0    1
 -2       124       125       280      1238      1628      1629
 -1       398    8    0    1
 -2       124       280       279      1629      1630      1625
 -1       399    8    0    1
 -2       125       126       281      1239      1631      1632
 -1       400    8    0    1
 -2       125       281       280      1632      1633      1628
 -1       401    8    0    1
 -2       126       127       282      1240      1634      1635
 -1       402    8    0    1
 -2       126       282       281      1635      1636      1631
 -1       403    8    0    1
 -2       127       128       283      1241      1637      1638
 -1       404    8    0    1
 -2       127       283       282      1638      1639      1634
 -1       405    8    0    1
 -2       128       129       284      1242      1640      1641
 -1       406    8    0    1
 -2       128       284       283      1641      1642      1637
 -1       407    8    0    1
 -2       129       130       285      1243      1643      1644
 -1       408    8    0    1
 -2       129       285       284      1644      1645      1640
 -1       409    8    0    1
 -2       130       131       286      1244      1646      1647
 -1       410    8    0    1
 -2       130       286       285      1647      1648      1643
 -1       411    8    0    1
 -2       131       132       287      1245      1649      1650
 -1       412    8    0    1
 -2       131       287       286      1650      1651      1646
 -1       413    8    0    1
 -2       132       133       288      1246      1652      1653
 -1       414    8    0    1
 -2       132       288       287      1653      1654      1649
 -1       415    8    0    1
 -2       133       134       289      1247      1655      1656
 -1       416    8    0    1
 -2       133       289       288      1656      1657      1652
 -1       417    8    0    1
 -2       134       135       290      1248      1658      1659
 -1       418    8    0    1
 -2       134       290       289      1659      1660      1655
 -1       419    8    0    1
 -2       135       136       291      1249      1661      1662
 -1       420    8    0    1
 -2       290       135       291      1658      1662      1663
 -1       421    8    0    1
 -2       136       228       291      1474      1664      1661
 -1       422    8    0    1
 -2         2       137       292      1251      1665      1666
 -1       423    8    0    1
 -2       137       138       293      1252      1667      1668
 -1       424    8    0    1
 -2       138       139       294      1253      1669      1670
 -1       425    8    0    1
 -2       139       140       295      1254      1671      1672
 -1       426    8    0    1
 -2       140       141       296      1255      1673      1674
 -1       427    8    0    1
 -2       141       142       297      1256      1675      1676
 -1       428    8    0    1
 -2       142       143       298      1257      1677      1678
 -1       429    8    0    1
 -2       143       144       299      1258      1679      1680
 -1       430    8    0    1
 -2       144       145       300      1259      1681      1682
 -1       431    8    0    1
 -2       145       146       301      1260      1683      1684
 -1       432    8    0    1
 -2       146       147       302      1261      1685      1686
 -1       433    8    0    1
 -2       147       148       303      1262      1687      1688
 -1       434    8    0    1
 -2       148       149       304      1263      1689      1690
 -1       435    8    0    1
 -2       149       150       305      1264      1691      1692
 -1       436    8    0    1
 -2       150       151       306      1265      1693      1694
 -1       437    8    0    1
 -2       151       152       307      1266      1695      1696
 -1       438    8    0    1
 -2       152       153       308      1267      1697      1698
 -1       439    8    0    1
 -2       153       154       309      1268      1699      1700
 -1       440    8    0    1
 -2       154       155       310      1269      1701      1702
 -1       441    8    0    1
 -2       155       156       311      1270      1703      1704
 -1       442    8    0    1
 -2       156       157       312      1271      1705      1706
 -1       443    8    0    1
 -2       157         1       313      1272      1707      1708
 -1       444    8    0    1
 -2         1       158       314      1273      1709      1710
 -1       445    8    0    1
 -2       158       159       315      1274      1711      1712
 -1       446    8    0    1
 -2       159       160       316      1275      1713      1714
 -1       447    8    0    1
 -2       160       161       317      1276      1715      1716
 -1       448    8    0    1
 -2       161       162       318      1277      1717      1718
 -1       449    8    0    1
 -2       162       163       319      1278      1719      1720
 -1       450    8    0    1
 -2       163       164       320      1279      1721      1722
 -1       451    8    0    1
 -2       164         2       321      1280      1723      1724
 -1       452    8    0    1
 -2       295       140       296      1671      1674      1725
 -1       453    8    0    1
 -2       294       139       295      1669      1672      1726
 -1       454    8    0    1
 -2       120       121       276      1619      1727      1616
 -1       455    8    0    1
 -2       121       277       276      1621      1728      1727
 -1       456    8    0    1
 -2       292       137       293      1665      1668      1729
 -1       457    8    0    1
 -2       293       138       294      1667      1670      1730
 -1       458    8    0    1
 -2         2       292       321      1666      1731      1723
 -1       459    8    0    1
 -2       141       297       296      1676      1732      1673
 -1       460    8    0    1
 -2       142       298       297      1678      1733      1675
 -1       461    8    0    1
 -2       143       299       298      1680      1734      1677
 -1       462    8    0    1
 -2       144       300       299      1682      1735      1679
 -1       463    8    0    1
 -2       145       301       300      1684      1736      1681
 -1       464    8    0    1
 -2       146       302       301      1686      1737      1683
 -1       465    8    0    1
 -2       147       303       302      1688      1738      1685
 -1       466    8    0    1
 -2       148       304       303      1690      1739      1687
 -1       467    8    0    1
 -2       149       305       304      1692      1740      1689
 -1       468    8    0    1
 -2       150       306       305      1694      1741      1691
 -1       469    8    0    1
 -2       151       307       306      1696      1742      1693
 -1       470    8    0    1
 -2       152       308       307      1698      1743      1695
 -1       471    8    0    1
 -2       153       309       308      1700      1744      1697
 -1       472    8    0    1
 -2       154       310       309      1702      1745      1699
 -1       473    8    0    1
 -2       155       311       310      1704      1746      1701
 -1       474    8    0    1
 -2       156       312       311      1706      1747      1703
 -1       475    8    0    1
 -2       157       313       312      1708      1748      1705
 -1       476    8    0    1
 -2         1       314       313      1710      1749      1707
 -1       477    8    0    1
 -2       158       315       314      1712      1750      1709
 -1       478    8    0    1
 -2       159       316       315      1714      1751      1711
 -1       479    8    0    1
 -2       160       317       316      1716      1752      1713
 -1       480    8    0    1
 -2       161       318       317      1718      1753      1715
 -1       481    8    0    1
 -2       162       319       318      1720      1754      1717
 -1       482    8    0    1
 -2       163       320       319      1722      1755      1719
 -1       483    8    0    1
 -2       164       321       320      1724      1756      1721
 -1       484    8    0    1
 -2        23         7       165      1281      1283      1757
 -1       485    8    0    1
 -2       166       167       322      1289      1758      1759
 -1       486    8    0    1
 -2       165       166       323      1286      1760      1761
 -1       487    8    0    1
 -2       166       322       323      1759      1762      1760
 -1       488    8    0    1
 -2       168       169       324      1295      1763      1764
 -1       489    8    0    1
 -2       169       170       325      1298      1765      1766
 -1       490    8    0    1
 -2       169       325       324      1766      1767      1763
 -1       491    8    0    1
 -2       170       171       326      1301      1768      1769
 -1       492    8    0    1
 -2       170       326       325      1769      1770      1765
 -1       493    8    0    1
 -2       171       172       327      1304      1771      1772
 -1       494    8    0    1
 -2       171       327       326      1772      1773      1768
 -1       495    8    0    1
 -2       172       173       328      1307      1774      1775
 -1       496    8    0    1
 -2       172       328       327      1775      1776      1771
 -1       497    8    0    1
 -2       173       174       329      1310      1777      1778
 -1       498    8    0    1
 -2       173       329       328      1778      1779      1774
 -1       499    8    0    1
 -2       174       175       330      1313      1780      1781
 -1       500    8    0    1
 -2       174       330       329      1781      1782      1777
 -1       501    8    0    1
 -2       175       176       331      1316      1783      1784
 -1       502    8    0    1
 -2       175       331       330      1784      1785      1780
 -1       503    8    0    1
 -2       176       177       332      1319      1786      1787
 -1       504    8    0    1
 -2       176       332       331      1787      1788      1783
 -1       505    8    0    1
 -2       177       178       333      1322      1789      1790
 -1       506    8    0    1
 -2       177       333       332      1790      1791      1786
 -1       507    8    0    1
 -2       178       179       334      1325      1792      1793
 -1       508    8    0    1
 -2       178       334       333      1793      1794      1789
 -1       509    8    0    1
 -2       179       180       335      1328      1795      1796
 -1       510    8    0    1
 -2       334       179       335      1792      1796      1797
 -1       511    8    0    1
 -2       180       229       335      1477      1798      1795
 -1       512    8    0    1
 -2       181        23       165      1330      1757      1799
 -1       513    8    0    1
 -2       229       230       336      1480      1800      1801
 -1       514    8    0    1
 -2       229       336       335      1801      1802      1798
 -1       515    8    0    1
 -2       181       165       323      1799      1761      1803
 -1       516    8    0    1
 -2       183       182       337      1337      1804      1805
 -1       517    8    0    1
 -2       184       183       338      1340      1806      1807
 -1       518    8    0    1
 -2       183       337       338      1805      1808      1806
 -1       519    8    0    1
 -2       185       184       339      1343      1809      1810
 -1       520    8    0    1
 -2       184       338       339      1807      1811      1809
 -1       521    8    0    1
 -2       186       185       340      1346      1812      1813
 -1       522    8    0    1
 -2       185       339       340      1810      1814      1812
 -1       523    8    0    1
 -2       187       186       341      1349      1815      1816
 -1       524    8    0    1
 -2       186       340       341      1813      1817      1815
 -1       525    8    0    1
 -2       188       187       342      1352      1818      1819
 -1       526    8    0    1
 -2       187       341       342      1816      1820      1818
 -1       527    8    0    1
 -2       189       188       343      1355      1821      1822
 -1       528    8    0    1
 -2       188       342       343      1819      1823      1821
 -1       529    8    0    1
 -2       190       189       344      1358      1824      1825
 -1       530    8    0    1
 -2       189       343       344      1822      1826      1824
 -1       531    8    0    1
 -2       191       190       345      1361      1827      1828
 -1       532    8    0    1
 -2       190       344       345      1825      1829      1827
 -1       533    8    0    1
 -2       192       191       346      1364      1830      1831
 -1       534    8    0    1
 -2       191       345       346      1828      1832      1830
 -1       535    8    0    1
 -2       193       192       347      1367      1833      1834
 -1       536    8    0    1
 -2       192       346       347      1831      1835      1833
 -1       537    8    0    1
 -2       194       193       348      1370      1836      1837
 -1       538    8    0    1
 -2       193       347       348      1834      1838      1836
 -1       539    8    0    1
 -2       195       194       349      1373      1839      1840
 -1       540    8    0    1
 -2       194       348       349      1837      1841      1839
 -1       541    8    0    1
 -2       196       195       350      1376      1842      1843
 -1       542    8    0    1
 -2       195       349       350      1840      1844      1842
 -1       543    8    0    1
 -2       197       196       351      1379      1845      1846
 -1       544    8    0    1
 -2       196       350       351      1843      1847      1845
 -1       545    8    0    1
 -2       198       197       352      1382      1848      1849
 -1       546    8    0    1
 -2       197       351       352      1846      1850      1848
 -1       547    8    0    1
 -2       199       198       353      1385      1851      1852
 -1       548    8    0    1
 -2       198       352       353      1849      1853      1851
 -1       549    8    0    1
 -2       200       199       354      1388      1854      1855
 -1       550    8    0    1
 -2       199       353       354      1852      1856      1854
 -1       551    8    0    1
 -2       201       200       355      1391      1857      1858
 -1       552    8    0    1
 -2       200       354       355      1855      1859      1857
 -1       553    8    0    1
 -2       202       201       356      1394      1860      1861
 -1       554    8    0    1
 -2       201       355       356      1858      1862      1860
 -1       555    8    0    1
 -2       203       202       357      1397      1863      1864
 -1       556    8    0    1
 -2       202       356       357      1861      1865      1863
 -1       557    8    0    1
 -2       204       203       358      1400      1866      1867
 -1       558    8    0    1
 -2       203       357       358      1864      1868      1866
 -1       559    8    0    1
 -2       205       204       359      1403      1869      1870
 -1       560    8    0    1
 -2       204       358       359      1867      1871      1869
 -1       561    8    0    1
 -2       206       205       360      1406      1872      1873
 -1       562    8    0    1
 -2       205       359       360      1870      1874      1872
 -1       563    8    0    1
 -2       207       206       361      1409      1875      1876
 -1       564    8    0    1
 -2       206       360       361      1873      1877      1875
 -1       565    8    0    1
 -2       208       207       362      1412      1878      1879
 -1       566    8    0    1
 -2       207       361       362      1876      1880      1878
 -1       567    8    0    1
 -2       209       208       363      1415      1881      1882
 -1       568    8    0    1
 -2       208       362       363      1879      1883      1881
 -1       569    8    0    1
 -2       210       209       364      1418      1884      1885
 -1       570    8    0    1
 -2       209       363       364      1882      1886      1884
 -1       571    8    0    1
 -2       211       210       365      1421      1887      1888
 -1       572    8    0    1
 -2       210       364       365      1885      1889      1887
 -1       573    8    0    1
 -2       212       211       366      1424      1890      1891
 -1       574    8    0    1
 -2       211       365       366      1888      1892      1890
 -1       575    8    0    1
 -2       213       212       367      1427      1893      1894
 -1       576    8    0    1
 -2       212       366       367      1891      1895      1893
 -1       577    8    0    1
 -2       214       213       368      1430      1896      1897
 -1       578    8    0    1
 -2       213       367       368      1894      1898      1896
 -1       579    8    0    1
 -2       215       214       369      1433      1899      1900
 -1       580    8    0    1
 -2       214       368       369      1897      1901      1899
 -1       581    8    0    1
 -2       216       215       370      1436      1902      1903
 -1       582    8    0    1
 -2       215       369       370      1900      1904      1902
 -1       583    8    0    1
 -2       217       216       371      1439      1905      1906
 -1       584    8    0    1
 -2       216       370       371      1903      1907      1905
 -1       585    8    0    1
 -2       218       217       372      1442      1908      1909
 -1       586    8    0    1
 -2       217       371       372      1906      1910      1908
 -1       587    8    0    1
 -2       219       218       373      1445      1911      1912
 -1       588    8    0    1
 -2       218       372       373      1909      1913      1911
 -1       589    8    0    1
 -2       220       219       374      1448      1914      1915
 -1       590    8    0    1
 -2       219       373       374      1912      1916      1914
 -1       591    8    0    1
 -2       221       220       375      1451      1917      1918
 -1       592    8    0    1
 -2       220       374       375      1915      1919      1917
 -1       593    8    0    1
 -2       222       221       376      1454      1920      1921
 -1       594    8    0    1
 -2       221       375       376      1918      1922      1920
 -1       595    8    0    1
 -2       223       222       377      1457      1923      1924
 -1       596    8    0    1
 -2       222       376       377      1921      1925      1923
 -1       597    8    0    1
 -2       224       223       378      1460      1926      1927
 -1       598    8    0    1
 -2       223       377       378      1924      1928      1926
 -1       599    8    0    1
 -2       225       224       379      1463      1929      1930
 -1       600    8    0    1
 -2       224       378       379      1927      1931      1929
 -1       601    8    0    1
 -2       226       225       380      1466      1932      1933
 -1       602    8    0    1
 -2       225       379       380      1930      1934      1932
 -1       603    8    0    1
 -2       227       226       381      1469      1935      1936
 -1       604    8    0    1
 -2       226       380       381      1933      1937      1935
 -1       605    8    0    1
 -2       228       227       382      1472      1938      1939
 -1       606    8    0    1
 -2       291       228       382      1664      1939      1940
 -1       607    8    0    1
 -2       227       381       382      1936      1941      1938
 -1       608    8    0    1
 -2       230       231       383      1483      1942      1943
 -1       609    8    0    1
 -2       230       383       336      1943      1944      1800
 -1       610    8    0    1
 -2       231       232       384      1486      1945      1946
 -1       611    8    0    1
 -2       231       384       383      1946      1947      1942
 -1       612    8    0    1
 -2       232       233       385      1489      1948      1949
 -1       613    8    0    1
 -2       232       385       384      1949      1950      1945
 -1       614    8    0    1
 -2       233       234       386      1492      1951      1952
 -1       615    8    0    1
 -2       233       386       385      1952      1953      1948
 -1       616    8    0    1
 -2       234       235       387      1495      1954      1955
 -1       617    8    0    1
 -2       234       387       386      1955      1956      1951
 -1       618    8    0    1
 -2       235       236       388      1498      1957      1958
 -1       619    8    0    1
 -2       235       388       387      1958      1959      1954
 -1       620    8    0    1
 -2       236       237       389      1501      1960      1961
 -1       621    8    0    1
 -2       236       389       388      1961      1962      1957
 -1       622    8    0    1
 -2       237       238       390      1504      1963      1964
 -1       623    8    0    1
 -2       237       390       389      1964      1965      1960
 -1       624    8    0    1
 -2       238       239       391      1507      1966      1967
 -1       625    8    0    1
 -2       238       391       390      1967      1968      1963
 -1       626    8    0    1
 -2       239       240       392      1510      1969      1970
 -1       627    8    0    1
 -2       239       392       391      1970      1971      1966
 -1       628    8    0    1
 -2       240       241       393      1513      1972      1973
 -1       629    8    0    1
 -2       240       393       392      1973      1974      1969
 -1       630    8    0    1
 -2       241       242       394      1516      1975      1976
 -1       631    8    0    1
 -2       241       394       393      1976      1977      1972
 -1       632    8    0    1
 -2       242       243       395      1519      1978      1979
 -1       633    8    0    1
 -2       242       395       394      1979      1980      1975
 -1       634    8    0    1
 -2       243       244       396      1522      1981      1982
 -1       635    8    0    1
 -2       243       396       395      1982      1983      1978
 -1       636    8    0    1
 -2       244       245       397      1525      1984      1985
 -1       637    8    0    1
 -2       244       397       396      1985      1986      1981
 -1       638    8    0    1
 -2       245       246       398      1528      1987      1988
 -1       639    8    0    1
 -2       245       398       397      1988      1989      1984
 -1       640    8    0    1
 -2       246       247       399      1531      1990      1991
 -1       641    8    0    1
 -2       246       399       398      1991      1992      1987
 -1       642    8    0    1
 -2       247       248       400      1534      1993      1994
 -1       643    8    0    1
 -2       247       400       399      1994      1995      1990
 -1       644    8    0    1
 -2       248       249       401      1537      1996      1997
 -1       645    8    0    1
 -2       248       401       400      1997      1998      1993
 -1       646    8    0    1
 -2       249       250       402      1540      1999      2000
 -1       647    8    0    1
 -2       249       402       401      2000      2001      1996
 -1       648    8    0    1
 -2       250       251       403      1543      2002      2003
 -1       649    8    0    1
 -2       250       403       402      2003      2004      1999
 -1       650    8    0    1
 -2       251       252       404      1546      2005      2006
 -1       651    8    0    1
 -2       251       404       403      2006      2007      2002
 -1       652    8    0    1
 -2       252       253       405      1549      2008      2009
 -1       653    8    0    1
 -2       252       405       404      2009      2010      2005
 -1       654    8    0    1
 -2       253       254       406      1552      2011      2012
 -1       655    8    0    1
 -2       253       406       405      2012      2013      2008
 -1       656    8    0    1
 -2       254       255       407      1555      2014      2015
 -1       657    8    0    1
 -2       254       407       406      2015      2016      2011
 -1       658    8    0    1
 -2       255       256       408      1558      2017      2018
 -1       659    8    0    1
 -2       255       408       407      2018      2019      2014
 -1       660    8    0    1
 -2       256       257       409      1561      2020      2021
 -1       661    8    0    1
 -2       256       409       408      2021      2022      2017
 -1       662    8    0    1
 -2       257       258       410      1564      2023      2024
 -1       663    8    0    1
 -2       257       410       409      2024      2025      2020
 -1       664    8    0    1
 -2       258       259       411      1567      2026      2027
 -1       665    8    0    1
 -2       258       411       410      2027      2028      2023
 -1       666    8    0    1
 -2       259       260       412      1570      2029      2030
 -1       667    8    0    1
 -2       259       412       411      2030      2031      2026
 -1       668    8    0    1
 -2       260       261       413      1573      2032      2033
 -1       669    8    0    1
 -2       260       413       412      2033      2034      2029
 -1       670    8    0    1
 -2       261       262       414      1576      2035      2036
 -1       671    8    0    1
 -2       261       414       413      2036      2037      2032
 -1       672    8    0    1
 -2       262       263       415      1579      2038      2039
 -1       673    8    0    1
 -2       262       415       414      2039      2040      2035
 -1       674    8    0    1
 -2       263       264       416      1582      2041      2042
 -1       675    8    0    1
 -2       263       416       415      2042      2043      2038
 -1       676    8    0    1
 -2       264       265       417      1585      2044      2045
 -1       677    8    0    1
 -2       264       417       416      2045      2046      2041
 -1       678    8    0    1
 -2       265       266       418      1588      2047      2048
 -1       679    8    0    1
 -2       265       418       417      2048      2049      2044
 -1       680    8    0    1
 -2       266       267       419      1591      2050      2051
 -1       681    8    0    1
 -2       266       419       418      2051      2052      2047
 -1       682    8    0    1
 -2       267       268       420      1594      2053      2054
 -1       683    8    0    1
 -2       267       420       419      2054      2055      2050
 -1       684    8    0    1
 -2       268       269       421      1597      2056      2057
 -1       685    8    0    1
 -2       268       421       420      2057      2058      2053
 -1       686    8    0    1
 -2       269       270       422      1600      2059      2060
 -1       687    8    0    1
 -2       269       422       421      2060      2061      2056
 -1       688    8    0    1
 -2       270       271       423      1603      2062      2063
 -1       689    8    0    1
 -2       270       423       422      2063      2064      2059
 -1       690    8    0    1
 -2       271       272       424      1606      2065      2066
 -1       691    8    0    1
 -2       271       424       423      2066      2067      2062
 -1       692    8    0    1
 -2       272       273       425      1609      2068      2069
 -1       693    8    0    1
 -2       272       425       424      2069      2070      2065
 -1       694    8    0    1
 -2       273       274       426      1612      2071      2072
 -1       695    8    0    1
 -2       273       426       425      2072      2073      2068
 -1       696    8    0    1
 -2       274       275       427      1615      2074      2075
 -1       697    8    0    1
 -2       274       427       426      2075      2076      2071
 -1       698    8    0    1
 -2       275       276       428      1618      2077      2078
 -1       699    8    0    1
 -2       427       275       428      2074      2078      2079
 -1       700    8    0    1
 -2       276       277       428      1728      2080      2077
 -1       701    8    0    1
 -2       279       280       429      1630      2081      2082
 -1       702    8    0    1
 -2       278       279       430      1627      2083      2084
 -1       703    8    0    1
 -2       279       429       430      2082      2085      2083
 -1       704    8    0    1
 -2       277       278       431      1624      2086      2087
 -1       705    8    0    1
 -2       428       277       431      2080      2087      2088
 -1       706    8    0    1
 -2       278       430       431      2084      2089      2086
 -1       707    8    0    1
 -2       280       281       432      1633      2090      2091
 -1       708    8    0    1
 -2       280       432       429      2091      2092      2081
 -1       709    8    0    1
 -2       281       282       433      1636      2093      2094
 -1       710    8    0    1
 -2       281       433       432      2094      2095      2090
 -1       711    8    0    1
 -2       282       283       434      1639      2096      2097
 -1       712    8    0    1
 -2       282       434       433      2097      2098      2093
 -1       713    8    0    1
 -2       283       284       435      1642      2099      2100
 -1       714    8    0    1
 -2       283       435       434      2100      2101      2096
 -1       715    8    0    1
 -2       284       285       436      1645      2102      2103
 -1       716    8    0    1
 -2       284       436       435      2103      2104      2099
 -1       717    8    0    1
 -2       285       286       437      1648      2105      2106
 -1       718    8    0    1
 -2       285       437       436      2106      2107      2102
 -1       719    8    0    1
 -2       286       287       438      1651      2108      2109
 -1       720    8    0    1
 -2       286       438       437      2109      2110      2105
 -1       721    8    0    1
 -2       287       288       439      1654      2111      2112
 -1       722    8    0    1
 -2       287       439       438      2112      2113      2108
 -1       723    8    0    1
 -2       288       289       440      1657      2114      2115
 -1       724    8    0    1
 -2       288       440       439      2115      2116      2111
 -1       725    8    0    1
 -2       289       290       441      1660      2117      2118
 -1       726    8    0    1
 -2       289       441       440      2118      2119      2114
 -1       727    8    0    1
 -2       293       294       442      1730      2120      2121
 -1       728    8    0    1
 -2       321       292       443      1731      2122      2123
 -1       729    8    0    1
 -2       292       293       444      1729      2124      2125
 -1       730    8    0    1
 -2       294       295       445      1726      2126      2127
 -1       731    8    0    1
 -2       294       445       442      2127      2128      2120
 -1       732    8    0    1
 -2       295       296       446      1725      2129      2130
 -1       733    8    0    1
 -2       167       168       447      1292      2131      2132
 -1       734    8    0    1
 -2       322       167       447      1758      2132      2133
 -1       735    8    0    1
 -2       168       324       447      1764      2134      2131
 -1       736    8    0    1
 -2       297       298       448      1733      2135      2136
 -1       737    8    0    1
 -2       298       299       449      1734      2137      2138
 -1       738    8    0    1
 -2       298       449       448      2138      2139      2135
 -1       739    8    0    1
 -2       299       300       450      1735      2140      2141
 -1       740    8    0    1
 -2       300       301       451      1736      2142      2143
 -1       741    8    0    1
 -2       300       451       450      2143      2144      2140
 -1       742    8    0    1
 -2       301       302       452      1737      2145      2146
 -1       743    8    0    1
 -2       302       303       453      1738      2147      2148
 -1       744    8    0    1
 -2       303       304       454      1739      2149      2150
 -1       745    8    0    1
 -2       304       305       455      1740      2151      2152
 -1       746    8    0    1
 -2       305       306       456      1741      2153      2154
 -1       747    8    0    1
 -2       306       307       457      1742      2155      2156
 -1       748    8    0    1
 -2       307       308       458      1743      2157      2158
 -1       749    8    0    1
 -2       307       458       457      2158      2159      2155
 -1       750    8    0    1
 -2       308       309       459      1744      2160      2161
 -1       751    8    0    1
 -2       309       310       460      1745      2162      2163
 -1       752    8    0    1
 -2       309       460       459      2163      2164      2160
 -1       753    8    0    1
 -2       310       311       461      1746      2165      2166
 -1       754    8    0    1
 -2       311       312       462      1747      2167      2168
 -1       755    8    0    1
 -2       312       313       463      1748      2169      2170
 -1       756    8    0    1
 -2       313       314       464      1749      2171      2172
 -1       757    8    0    1
 -2       314       315       465      1750      2173      2174
 -1       758    8    0    1
 -2       315       316       466      1751      2175      2176
 -1       759    8    0    1
 -2       316       317       467      1752      2177      2178
 -1       760    8    0    1
 -2       316       467       466      2178      2179      2175
 -1       761    8    0    1
 -2       317       318       468      1753      2180      2181
 -1       762    8    0    1
 -2       318       319       469      1754      2182      2183
 -1       763    8    0    1
 -2       319       320       470      1755      2184      2185
 -1       764    8    0    1
 -2       320       321       471      1756      2186      2187
 -1       765    8    0    1
 -2       321       443       471      2123      2188      2186
 -1       766    8    0    1
 -2       296       297       472      1732      2189      2190
 -1       767    8    0    1
 -2       445       295       446      2126      2130      2191
 -1       768    8    0    1
 -2       181       323       182      1803      2192      1334
 -1       769    8    0    1
 -2       297       448       472      2136      2193      2189
 -1       770    8    0    1
 -2       337       182       323      1804      2192      2194
 -1       771    8    0    1
 -2       444       293       442      2124      2121      2195
 -1       772    8    0    1
 -2       443       292       444      2122      2125      2196
 -1       773    8    0    1
 -2       441       290       291      2117      1663      2197
 -1       774    8    0    1
 -2       296       472       446      2190      2198      2129
 -1       775    8    0    1
 -2       470       320       471      2184      2187      2199
 -1       776    8    0    1
 -2       469       319       470      2182      2185      2200
 -1       777    8    0    1
 -2       467       317       468      2177      2181      2201
 -1       778    8    0    1
 -2       465       315       466      2173      2176      2202
 -1       779    8    0    1
 -2       464       314       465      2171      2174      2203
 -1       780    8    0    1
 -2       463       313       464      2169      2172      2204
 -1       781    8    0    1
 -2       462       312       473      2167      2205      2206
 -1       782    8    0    1
 -2       312       463       473      2170      2207      2205
 -1       783    8    0    1
 -2       460       310       461      2162      2166      2208
 -1       784    8    0    1
 -2       458       308       474      2157      2209      2210
 -1       785    8    0    1
 -2       308       459       474      2161      2211      2209
 -1       786    8    0    1
 -2       456       306       457      2153      2156      2212
 -1       787    8    0    1
 -2       455       305       456      2151      2154      2213
 -1       788    8    0    1
 -2       454       304       455      2149      2152      2214
 -1       789    8    0    1
 -2       453       303       454      2147      2150      2215
 -1       790    8    0    1
 -2       451       301       452      2142      2146      2216
 -1       791    8    0    1
 -2       299       450       449      2141      2217      2137
 -1       792    8    0    1
 -2       452       302       453      2145      2148      2218
 -1       793    8    0    1
 -2       461       311       462      2165      2168      2219
 -1       794    8    0    1
 -2       468       318       469      2180      2183      2220
 -1       795    8    0    1
 -2       336       383       475      1944      2221      2222
 -1       796    8    0    1
 -2       325       326       476      1770      2223      2224
 -1       797    8    0    1
 -2       324       325       477      1767      2225      2226
 -1       798    8    0    1
 -2       325       476       477      2224      2227      2225
 -1       799    8    0    1
 -2       327       328       478      1776      2228      2229
 -1       800    8    0    1
 -2       328       329       479      1779      2230      2231
 -1       801    8    0    1
 -2       328       479       478      2231      2232      2228
 -1       802    8    0    1
 -2       329       330       480      1782      2233      2234
 -1       803    8    0    1
 -2       329       480       479      2234      2235      2230
 -1       804    8    0    1
 -2       330       331       481      1785      2236      2237
 -1       805    8    0    1
 -2       330       481       480      2237      2238      2233
 -1       806    8    0    1
 -2       331       332       482      1788      2239      2240
 -1       807    8    0    1
 -2       331       482       481      2240      2241      2236
 -1       808    8    0    1
 -2       332       333       483      1791      2242      2243
 -1       809    8    0    1
 -2       332       483       482      2243      2244      2239
 -1       810    8    0    1
 -2       383       384       484      1947      2245      2246
 -1       811    8    0    1
 -2       383       484       475      2246      2247      2221
 -1       812    8    0    1
 -2       338       337       485      1808      2248      2249
 -1       813    8    0    1
 -2       472       448       486      2193      2250      2251
 -1       814    8    0    1
 -2       339       338       487      1811      2252      2253
 -1       815    8    0    1
 -2       338       485       487      2249      2254      2252
 -1       816    8    0    1
 -2       340       339       488      1814      2255      2256
 -1       817    8    0    1
 -2       339       487       488      2253      2257      2255
 -1       818    8    0    1
 -2       341       340       489      1817      2258      2259
 -1       819    8    0    1
 -2       340       488       489      2256      2260      2258
 -1       820    8    0    1
 -2       342       341       490      1820      2261      2262
 -1       821    8    0    1
 -2       341       489       490      2259      2263      2261
 -1       822    8    0    1
 -2       343       342       491      1823      2264      2265
 -1       823    8    0    1
 -2       342       490       491      2262      2266      2264
 -1       824    8    0    1
 -2       344       343       492      1826      2267      2268
 -1       825    8    0    1
 -2       343       491       492      2265      2269      2267
 -1       826    8    0    1
 -2       345       344       493      1829      2270      2271
 -1       827    8    0    1
 -2       344       492       493      2268      2272      2270
 -1       828    8    0    1
 -2       346       345       494      1832      2273      2274
 -1       829    8    0    1
 -2       345       493       494      2271      2275      2273
 -1       830    8    0    1
 -2       347       346       495      1835      2276      2277
 -1       831    8    0    1
 -2       346       494       495      2274      2278      2276
 -1       832    8    0    1
 -2       348       347       496      1838      2279      2280
 -1       833    8    0    1
 -2       347       495       496      2277      2281      2279
 -1       834    8    0    1
 -2       349       348       497      1841      2282      2283
 -1       835    8    0    1
 -2       348       496       497      2280      2284      2282
 -1       836    8    0    1
 -2       350       349       498      1844      2285      2286
 -1       837    8    0    1
 -2       349       497       498      2283      2287      2285
 -1       838    8    0    1
 -2       351       350       499      1847      2288      2289
 -1       839    8    0    1
 -2       350       498       499      2286      2290      2288
 -1       840    8    0    1
 -2       352       351       500      1850      2291      2292
 -1       841    8    0    1
 -2       351       499       500      2289      2293      2291
 -1       842    8    0    1
 -2       353       352       501      1853      2294      2295
 -1       843    8    0    1
 -2       352       500       501      2292      2296      2294
 -1       844    8    0    1
 -2       354       353       502      1856      2297      2298
 -1       845    8    0    1
 -2       353       501       502      2295      2299      2297
 -1       846    8    0    1
 -2       355       354       503      1859      2300      2301
 -1       847    8    0    1
 -2       354       502       503      2298      2302      2300
 -1       848    8    0    1
 -2       356       355       504      1862      2303      2304
 -1       849    8    0    1
 -2       355       503       504      2301      2305      2303
 -1       850    8    0    1
 -2       357       356       505      1865      2306      2307
 -1       851    8    0    1
 -2       356       504       505      2304      2308      2306
 -1       852    8    0    1
 -2       358       357       506      1868      2309      2310
 -1       853    8    0    1
 -2       357       505       506      2307      2311      2309
 -1       854    8    0    1
 -2       359       358       507      1871      2312      2313
 -1       855    8    0    1
 -2       358       506       507      2310      2314      2312
 -1       856    8    0    1
 -2       360       359       508      1874      2315      2316
 -1       857    8    0    1
 -2       359       507       508      2313      2317      2315
 -1       858    8    0    1
 -2       361       360       509      1877      2318      2319
 -1       859    8    0    1
 -2       360       508       509      2316      2320      2318
 -1       860    8    0    1
 -2       362       361       510      1880      2321      2322
 -1       861    8    0    1
 -2       361       509       510      2319      2323      2321
 -1       862    8    0    1
 -2       363       362       511      1883      2324      2325
 -1       863    8    0    1
 -2       362       510       511      2322      2326      2324
 -1       864    8    0    1
 -2       364       363       512      1886      2327      2328
 -1       865    8    0    1
 -2       363       511       512      2325      2329      2327
 -1       866    8    0    1
 -2       365       364       513      1889      2330      2331
 -1       867    8    0    1
 -2       364       512       513      2328      2332      2330
 -1       868    8    0    1
 -2       366       365       514      1892      2333      2334
 -1       869    8    0    1
 -2       365       513       514      2331      2335      2333
 -1       870    8    0    1
 -2       367       366       515      1895      2336      2337
 -1       871    8    0    1
 -2       366       514       515      2334      2338      2336
 -1       872    8    0    1
 -2       368       367       516      1898      2339      2340
 -1       873    8    0    1
 -2       367       515       516      2337      2341      2339
 -1       874    8    0    1
 -2       369       368       517      1901      2342      2343
 -1       875    8    0    1
 -2       368       516       517      2340      2344      2342
 -1       876    8    0    1
 -2       370       369       518      1904      2345      2346
 -1       877    8    0    1
 -2       369       517       518      2343      2347      2345
 -1       878    8    0    1
 -2       371       370       519      1907      2348      2349
 -1       879    8    0    1
 -2       370       518       519      2346      2350      2348
 -1       880    8    0    1
 -2       372       371       520      1910      2351      2352
 -1       881    8    0    1
 -2       371       519       520      2349      2353      2351
 -1       882    8    0    1
 -2       373       372       521      1913      2354      2355
 -1       883    8    0    1
 -2       372       520       521      2352      2356      2354
 -1       884    8    0    1
 -2       374       373       522      1916      2357      2358
 -1       885    8    0    1
 -2       373       521       522      2355      2359      2357
 -1       886    8    0    1
 -2       375       374       523      1919      2360      2361
 -1       887    8    0    1
 -2       374       522       523      2358      2362      2360
 -1       888    8    0    1
 -2       376       375       524      1922      2363      2364
 -1       889    8    0    1
 -2       375       523       524      2361      2365      2363
 -1       890    8    0    1
 -2       377       376       525      1925      2366      2367
 -1       891    8    0    1
 -2       376       524       525      2364      2368      2366
 -1       892    8    0    1
 -2       378       377       526      1928      2369      2370
 -1       893    8    0    1
 -2       377       525       526      2367      2371      2369
 -1       894    8    0    1
 -2       379       378       527      1931      2372      2373
 -1       895    8    0    1
 -2       378       526       527      2370      2374      2372
 -1       896    8    0    1
 -2       380       379       528      1934      2375      2376
 -1       897    8    0    1
 -2       379       527       528      2373      2377      2375
 -1       898    8    0    1
 -2       381       380       529      1937      2378      2379
 -1       899    8    0    1
 -2       380       528       529      2376      2380      2378
 -1       900    8    0    1
 -2       385       386       530      1953      2381      2382
 -1       901    8    0    1
 -2       386       387       531      1956      2383      2384
 -1       902    8    0    1
 -2       386       531       530      2384      2385      2381
 -1       903    8    0    1
 -2       387       388       532      1959      2386      2387
 -1       904    8    0    1
 -2       388       389       533      1962      2388      2389
 -1       905    8    0    1
 -2       389       390       534      1965      2390      2391
 -1       906    8    0    1
 -2       389       534       533      2391      2392      2388
 -1       907    8    0    1
 -2       390       391       535      1968      2393      2394
 -1       908    8    0    1
 -2       390       535       534      2394      2395      2390
 -1       909    8    0    1
 -2       391       392       536      1971      2396      2397
 -1       910    8    0    1
 -2       391       536       535      2397      2398      2393
 -1       911    8    0    1
 -2       392       393       537      1974      2399      2400
 -1       912    8    0    1
 -2       392       537       536      2400      2401      2396
 -1       913    8    0    1
 -2       393       394       538      1977      2402      2403
 -1       914    8    0    1
 -2       393       538       537      2403      2404      2399
 -1       915    8    0    1
 -2       394       395       539      1980      2405      2406
 -1       916    8    0    1
 -2       394       539       538      2406      2407      2402
 -1       917    8    0    1
 -2       395       396       540      1983      2408      2409
 -1       918    8    0    1
 -2       395       540       539      2409      2410      2405
 -1       919    8    0    1
 -2       396       397       541      1986      2411      2412
 -1       920    8    0    1
 -2       396       541       540      2412      2413      2408
 -1       921    8    0    1
 -2       397       398       542      1989      2414      2415
 -1       922    8    0    1
 -2       397       542       541      2415      2416      2411
 -1       923    8    0    1
 -2       398       399       543      1992      2417      2418
 -1       924    8    0    1
 -2       398       543       542      2418      2419      2414
 -1       925    8    0    1
 -2       399       400       544      1995      2420      2421
 -1       926    8    0    1
 -2       399       544       543      2421      2422      2417
 -1       927    8    0    1
 -2       400       401       545      1998      2423      2424
 -1       928    8    0    1
 -2       400       545       544      2424      2425      2420
 -1       929    8    0    1
 -2       401       402       546      2001      2426      2427
 -1       930    8    0    1
 -2       401       546       545      2427      2428      2423
 -1       931    8    0    1
 -2       402       403       547      2004      2429      2430
 -1       932    8    0    1
 -2       402       547       546      2430      2431      2426
 -1       933    8    0    1
 -2       403       404       548      2007      2432      2433
 -1       934    8    0    1
 -2       403       548       547      2433      2434      2429
 -1       935    8    0    1
 -2       404       405       549      2010      2435      2436
 -1       936    8    0    1
 -2       404       549       548      2436      2437      2432
 -1       937    8    0    1
 -2       405       406       550      2013      2438      2439
 -1       938    8    0    1
 -2       405       550       549      2439      2440      2435
 -1       939    8    0    1
 -2       406       407       551      2016      2441      2442
 -1       940    8    0    1
 -2       406       551       550      2442      2443      2438
 -1       941    8    0    1
 -2       407       408       552      2019      2444      2445
 -1       942    8    0    1
 -2       407       552       551      2445      2446      2441
 -1       943    8    0    1
 -2       408       409       553      2022      2447      2448
 -1       944    8    0    1
 -2       408       553       552      2448      2449      2444
 -1       945    8    0    1
 -2       409       410       554      2025      2450      2451
 -1       946    8    0    1
 -2       409       554       553      2451      2452      2447
 -1       947    8    0    1
 -2       410       411       555      2028      2453      2454
 -1       948    8    0    1
 -2       410       555       554      2454      2455      2450
 -1       949    8    0    1
 -2       411       412       556      2031      2456      2457
 -1       950    8    0    1
 -2       411       556       555      2457      2458      2453
 -1       951    8    0    1
 -2       412       413       557      2034      2459      2460
 -1       952    8    0    1
 -2       412       557       556      2460      2461      2456
 -1       953    8    0    1
 -2       413       414       558      2037      2462      2463
 -1       954    8    0    1
 -2       413       558       557      2463      2464      2459
 -1       955    8    0    1
 -2       414       415       559      2040      2465      2466
 -1       956    8    0    1
 -2       414       559       558      2466      2467      2462
 -1       957    8    0    1
 -2       415       416       560      2043      2468      2469
 -1       958    8    0    1
 -2       415       560       559      2469      2470      2465
 -1       959    8    0    1
 -2       416       417       561      2046      2471      2472
 -1       960    8    0    1
 -2       416       561       560      2472      2473      2468
 -1       961    8    0    1
 -2       417       418       562      2049      2474      2475
 -1       962    8    0    1
 -2       417       562       561      2475      2476      2471
 -1       963    8    0    1
 -2       418       419       563      2052      2477      2478
 -1       964    8    0    1
 -2       418       563       562      2478      2479      2474
 -1       965    8    0    1
 -2       419       420       564      2055      2480      2481
 -1       966    8    0    1
 -2       419       564       563      2481      2482      2477
 -1       967    8    0    1
 -2       420       421       565      2058      2483      2484
 -1       968    8    0    1
 -2       420       565       564      2484      2485      2480
 -1       969    8    0    1
 -2       421       422       566      2061      2486      2487
 -1       970    8    0    1
 -2       421       566       565      2487      2488      2483
 -1       971    8    0    1
 -2       422       423       567      2064      2489      2490
 -1       972    8    0    1
 -2       422       567       566      2490      2491      2486
 -1       973    8    0    1
 -2       423       424       568      2067      2492      2493
 -1       974    8    0    1
 -2       423       568       567      2493      2494      2489
 -1       975    8    0    1
 -2       424       425       569      2070      2495      2496
 -1       976    8    0    1
 -2       424       569       568      2496      2497      2492
 -1       977    8    0    1
 -2       425       426       570      2073      2498      2499
 -1       978    8    0    1
 -2       425       570       569      2499      2500      2495
 -1       979    8    0    1
 -2       426       427       571      2076      2501      2502
 -1       980    8    0    1
 -2       426       571       570      2502      2503      2498
 -1       981    8    0    1
 -2       427       428       431      2079      2088      2504
 -1       982    8    0    1
 -2       432       433       572      2095      2505      2506
 -1       983    8    0    1
 -2       433       434       573      2098      2507      2508
 -1       984    8    0    1
 -2       433       573       572      2508      2509      2505
 -1       985    8    0    1
 -2       430       429       574      2085      2510      2511
 -1       986    8    0    1
 -2       429       432       575      2092      2512      2513
 -1       987    8    0    1
 -2       574       429       575      2510      2513      2514
 -1       988    8    0    1
 -2       432       572       575      2506      2515      2512
 -1       989    8    0    1
 -2       434       435       576      2101      2516      2517
 -1       990    8    0    1
 -2       434       576       573      2517      2518      2507
 -1       991    8    0    1
 -2       435       436       577      2104      2519      2520
 -1       992    8    0    1
 -2       435       577       576      2520      2521      2516
 -1       993    8    0    1
 -2       436       437       578      2107      2522      2523
 -1       994    8    0    1
 -2       436       578       577      2523      2524      2519
 -1       995    8    0    1
 -2       437       438       579      2110      2525      2526
 -1       996    8    0    1
 -2       437       579       578      2526      2527      2522
 -1       997    8    0    1
 -2       438       439       580      2113      2528      2529
 -1       998    8    0    1
 -2       438       580       579      2529      2530      2525
 -1       999    8    0    1
 -2       439       440       581      2116      2531      2532
 -1      1000    8    0    1
 -2       439       581       580      2532      2533      2528
 -1      1001    8    0    1
 -2       440       441       582      2119      2534      2535
 -1      1002    8    0    1
 -2       440       582       581      2535      2536      2531
 -1      1003    8    0    1
 -2       443       444       583      2196      2537      2538
 -1      1004    8    0    1
 -2       444       442       584      2195      2539      2540
 -1      1005    8    0    1
 -2       446       472       585      2198      2541      2542
 -1      1006    8    0    1
 -2       384       385       586      1950      2543      2544
 -1      1007    8    0    1
 -2       384       586       484      2544      2545      2245
 -1      1008    8    0    1
 -2       441       291       382      2197      1940      2546
 -1      1009    8    0    1
 -2       442       445       587      2128      2547      2548
 -1      1010    8    0    1
 -2       470       471       588      2199      2549      2550
 -1      1011    8    0    1
 -2       471       443       589      2188      2551      2552
 -1      1012    8    0    1
 -2       465       466       590      2202      2553      2554
 -1      1013    8    0    1
 -2       456       457       591      2212      2555      2556
 -1      1014    8    0    1
 -2       326       327       592      1773      2557      2558
 -1      1015    8    0    1
 -2       476       326       592      2223      2558      2559
 -1      1016    8    0    1
 -2       327       478       592      2229      2560      2557
 -1      1017    8    0    1
 -2       452       453       593      2218      2561      2562
 -1      1018    8    0    1
 -2       448       449       594      2139      2563      2564
 -1      1019    8    0    1
 -2       449       450       595      2217      2565      2566
 -1      1020    8    0    1
 -2       450       451       596      2144      2567      2568
 -1      1021    8    0    1
 -2       461       462       597      2219      2569      2570
 -1      1022    8    0    1
 -2       451       452       598      2216      2571      2572
 -1      1023    8    0    1
 -2       453       454       599      2215      2573      2574
 -1      1024    8    0    1
 -2       454       455       600      2214      2575      2576
 -1      1025    8    0    1
 -2       454       600       599      2576      2577      2573
 -1      1026    8    0    1
 -2       455       456       601      2213      2578      2579
 -1      1027    8    0    1
 -2       457       458       602      2159      2580      2581
 -1      1028    8    0    1
 -2       459       460       603      2164      2582      2583
 -1      1029    8    0    1
 -2       468       469       604      2220      2584      2585
 -1      1030    8    0    1
 -2       460       461       605      2208      2586      2587
 -1      1031    8    0    1
 -2       461       597       605      2570      2588      2586
 -1      1032    8    0    1
 -2       463       464       606      2204      2589      2590
 -1      1033    8    0    1
 -2       464       465       607      2203      2591      2592
 -1      1034    8    0    1
 -2       465       590       607      2554      2593      2591
 -1      1035    8    0    1
 -2       466       467       608      2179      2594      2595
 -1      1036    8    0    1
 -2       467       468       609      2201      2596      2597
 -1      1037    8    0    1
 -2       467       609       608      2597      2598      2594
 -1      1038    8    0    1
 -2       469       470       610      2200      2599      2600
 -1      1039    8    0    1
 -2       337       323       611      2194      2601      2602
 -1      1040    8    0    1
 -2       485       337       611      2248      2602      2603
 -1      1041    8    0    1
 -2       323       322       611      1762      2604      2601
 -1      1042    8    0    1
 -2       335       336       612      1802      2605      2606
 -1      1043    8    0    1
 -2       334       335       612      1797      2606      2607
 -1      1044    8    0    1
 -2       336       475       612      2222      2608      2605
 -1      1045    8    0    1
 -2       445       446       613      2191      2609      2610
 -1      1046    8    0    1
 -2       446       585       613      2542      2611      2609
 -1      1047    8    0    1
 -2       452       593       598      2562      2612      2571
 -1      1048    8    0    1
 -2       324       477       614      2226      2613      2614
 -1      1049    8    0    1
 -2       324       614       447      2614      2615      2134
 -1      1050    8    0    1
 -2       441       382       615      2546      2616      2617
 -1      1051    8    0    1
 -2       582       441       615      2534      2617      2618
 -1      1052    8    0    1
 -2       382       381       615      1941      2619      2616
 -1      1053    8    0    1
 -2       333       334       612      1794      2607      2620
 -1      1054    8    0    1
 -2       603       460       605      2582      2587      2621
 -1      1055    8    0    1
 -2       602       458       616      2580      2622      2623
 -1      1056    8    0    1
 -2       458       474       616      2210      2624      2622
 -1      1057    8    0    1
 -2       472       486       585      2251      2625      2541
 -1      1058    8    0    1
 -2       381       529       615      2379      2626      2619
 -1      1059    8    0    1
 -2       600       455       601      2575      2579      2627
 -1      1060    8    0    1
 -2       442       587       584      2548      2628      2539
 -1      1061    8    0    1
 -2       387       532       531      2387      2629      2383
 -1      1062    8    0    1
 -2       333       612       483      2620      2630      2242
 -1      1063    8    0    1
 -2       532       388       533      2386      2389      2631
 -1      1064    8    0    1
 -2       427       431       571      2504      2632      2501
 -1      1065    8    0    1
 -2       431       430       571      2089      2633      2632
 -1      1066    8    0    1
 -2       597       462       473      2569      2206      2634
 -1      1067    8    0    1
 -2       443       583       589      2538      2635      2551
 -1      1068    8    0    1
 -2       583       444       584      2537      2540      2636
 -1      1069    8    0    1
 -2       596       451       598      2567      2572      2637
 -1      1070    8    0    1
 -2       588       471       589      2549      2552      2638
 -1      1071    8    0    1
 -2       595       450       596      2565      2568      2639
 -1      1072    8    0    1
 -2       587       445       613      2547      2610      2640
 -1      1073    8    0    1
 -2       470       588       610      2550      2641      2599
 -1      1074    8    0    1
 -2       611       322       447      2604      2133      2642
 -1      1075    8    0    1
 -2       609       468       604      2596      2585      2643
 -1      1076    8    0    1
 -2       604       469       610      2584      2600      2644
 -1      1077    8    0    1
 -2       466       608       590      2595      2645      2553
 -1      1078    8    0    1
 -2       591       457       602      2555      2581      2646
 -1      1079    8    0    1
 -2       456       591       601      2556      2647      2578
 -1      1080    8    0    1
 -2       586       385       530      2543      2382      2648
 -1      1081    8    0    1
 -2       473       463       617      2207      2649      2650
 -1      1082    8    0    1
 -2       463       606       617      2590      2651      2649
 -1      1083    8    0    1
 -2       474       459       618      2211      2652      2653
 -1      1084    8    0    1
 -2       459       603       618      2583      2654      2652
 -1      1085    8    0    1
 -2       486       448       594      2250      2564      2655
 -1      1086    8    0    1
 -2       594       449       595      2563      2566      2656
 -1      1087    8    0    1
 -2       453       599       593      2574      2657      2561
 -1      1088    8    0    1
 -2       606       464       607      2589      2592      2658
 -1      1089    8    0    1
 -2       571       430       574      2633      2511      2659
 -1      1090    8    0    1
 -2       600       601       619      2627      2660      2661
 -1      1091    8    0    1
 -2       479       480       620      2235      2662      2663
 -1      1092    8    0    1
 -2       478       479       616      2232      2664      2665
 -1      1093    8    0    1
 -2       481       482       619      2241      2666      2667
 -1      1094    8    0    1
 -2       475       484       621      2247      2668      2669
 -1      1095    8    0    1
 -2       532       533       486      2631      2670      2671
 -1      1096    8    0    1
 -2       613       585       622      2611      2672      2673
 -1      1097    8    0    1
 -2       582       615       623      2618      2674      2675
 -1      1098    8    0    1
 -2       615       529       623      2626      2676      2674
 -1      1099    8    0    1
 -2       612       475       483      2608      2677      2630
 -1      1100    8    0    1
 -2       584       587       624      2628      2678      2679
 -1      1101    8    0    1
 -2       488       487       625      2257      2680      2681
 -1      1102    8    0    1
 -2       489       488       626      2260      2682      2683
 -1      1103    8    0    1
 -2       488       625       626      2681      2684      2682
 -1      1104    8    0    1
 -2       490       489       627      2263      2685      2686
 -1      1105    8    0    1
 -2       489       626       627      2683      2687      2685
 -1      1106    8    0    1
 -2       491       490       628      2266      2688      2689
 -1      1107    8    0    1
 -2       490       627       628      2686      2690      2688
 -1      1108    8    0    1
 -2       492       491       629      2269      2691      2692
 -1      1109    8    0    1
 -2       491       628       629      2689      2693      2691
 -1      1110    8    0    1
 -2       493       492       630      2272      2694      2695
 -1      1111    8    0    1
 -2       492       629       630      2692      2696      2694
 -1      1112    8    0    1
 -2       494       493       631      2275      2697      2698
 -1      1113    8    0    1
 -2       493       630       631      2695      2699      2697
 -1      1114    8    0    1
 -2       495       494       632      2278      2700      2701
 -1      1115    8    0    1
 -2       494       631       632      2698      2702      2700
 -1      1116    8    0    1
 -2       496       495       633      2281      2703      2704
 -1      1117    8    0    1
 -2       495       632       633      2701      2705      2703
 -1      1118    8    0    1
 -2       497       496       634      2284      2706      2707
 -1      1119    8    0    1
 -2       496       633       634      2704      2708      2706
 -1      1120    8    0    1
 -2       498       497       635      2287      2709      2710
 -1      1121    8    0    1
 -2       497       634       635      2707      2711      2709
 -1      1122    8    0    1
 -2       499       498       636      2290      2712      2713
 -1      1123    8    0    1
 -2       498       635       636      2710      2714      2712
 -1      1124    8    0    1
 -2       500       499       637      2293      2715      2716
 -1      1125    8    0    1
 -2       499       636       637      2713      2717      2715
 -1      1126    8    0    1
 -2       501       500       638      2296      2718      2719
 -1      1127    8    0    1
 -2       500       637       638      2716      2720      2718
 -1      1128    8    0    1
 -2       502       501       639      2299      2721      2722
 -1      1129    8    0    1
 -2       501       638       639      2719      2723      2721
 -1      1130    8    0    1
 -2       503       502       640      2302      2724      2725
 -1      1131    8    0    1
 -2       502       639       640      2722      2726      2724
 -1      1132    8    0    1
 -2       504       503       641      2305      2727      2728
 -1      1133    8    0    1
 -2       503       640       641      2725      2729      2727
 -1      1134    8    0    1
 -2       505       504       642      2308      2730      2731
 -1      1135    8    0    1
 -2       504       641       642      2728      2732      2730
 -1      1136    8    0    1
 -2       506       505       643      2311      2733      2734
 -1      1137    8    0    1
 -2       505       642       643      2731      2735      2733
 -1      1138    8    0    1
 -2       507       506       644      2314      2736      2737
 -1      1139    8    0    1
 -2       506       643       644      2734      2738      2736
 -1      1140    8    0    1
 -2       508       507       645      2317      2739      2740
 -1      1141    8    0    1
 -2       507       644       645      2737      2741      2739
 -1      1142    8    0    1
 -2       509       508       646      2320      2742      2743
 -1      1143    8    0    1
 -2       508       645       646      2740      2744      2742
 -1      1144    8    0    1
 -2       510       509       647      2323      2745      2746
 -1      1145    8    0    1
 -2       509       646       647      2743      2747      2745
 -1      1146    8    0    1
 -2       511       510       648      2326      2748      2749
 -1      1147    8    0    1
 -2       510       647       648      2746      2750      2748
 -1      1148    8    0    1
 -2       512       511       649      2329      2751      2752
 -1      1149    8    0    1
 -2       511       648       649      2749      2753      2751
 -1      1150    8    0    1
 -2       513       512       650      2332      2754      2755
 -1      1151    8    0    1
 -2       512       649       650      2752      2756      2754
 -1      1152    8    0    1
 -2       514       513       651      2335      2757      2758
 -1      1153    8    0    1
 -2       513       650       651      2755      2759      2757
 -1      1154    8    0    1
 -2       515       514       652      2338      2760      2761
 -1      1155    8    0    1
 -2       514       651       652      2758      2762      2760
 -1      1156    8    0    1
 -2       516       515       653      2341      2763      2764
 -1      1157    8    0    1
 -2       515       652       653      2761      2765      2763
 -1      1158    8    0    1
 -2       517       516       654      2344      2766      2767
 -1      1159    8    0    1
 -2       516       653       654      2764      2768      2766
 -1      1160    8    0    1
 -2       518       517       655      2347      2769      2770
 -1      1161    8    0    1
 -2       517       654       655      2767      2771      2769
 -1      1162    8    0    1
 -2       519       518       656      2350      2772      2773
 -1      1163    8    0    1
 -2       518       655       656      2770      2774      2772
 -1      1164    8    0    1
 -2       520       519       657      2353      2775      2776
 -1      1165    8    0    1
 -2       519       656       657      2773      2777      2775
 -1      1166    8    0    1
 -2       521       520       658      2356      2778      2779
 -1      1167    8    0    1
 -2       520       657       658      2776      2780      2778
 -1      1168    8    0    1
 -2       522       521       659      2359      2781      2782
 -1      1169    8    0    1
 -2       521       658       659      2779      2783      2781
 -1      1170    8    0    1
 -2       523       522       660      2362      2784      2785
 -1      1171    8    0    1
 -2       522       659       660      2782      2786      2784
 -1      1172    8    0    1
 -2       524       523       661      2365      2787      2788
 -1      1173    8    0    1
 -2       523       660       661      2785      2789      2787
 -1      1174    8    0    1
 -2       525       524       662      2368      2790      2791
 -1      1175    8    0    1
 -2       524       661       662      2788      2792      2790
 -1      1176    8    0    1
 -2       526       525       663      2371      2793      2794
 -1      1177    8    0    1
 -2       525       662       663      2791      2795      2793
 -1      1178    8    0    1
 -2       527       526       664      2374      2796      2797
 -1      1179    8    0    1
 -2       526       663       664      2794      2798      2796
 -1      1180    8    0    1
 -2       528       527       665      2377      2799      2800
 -1      1181    8    0    1
 -2       527       664       665      2797      2801      2799
 -1      1182    8    0    1
 -2       529       528       666      2380      2802      2803
 -1      1183    8    0    1
 -2       623       529       666      2676      2803      2804
 -1      1184    8    0    1
 -2       528       665       666      2800      2805      2802
 -1      1185    8    0    1
 -2       597       473       667      2634      2806      2807
 -1      1186    8    0    1
 -2       536       537       668      2401      2808      2809
 -1      1187    8    0    1
 -2       537       538       669      2404      2810      2811
 -1      1188    8    0    1
 -2       537       669       668      2811      2812      2808
 -1      1189    8    0    1
 -2       538       539       670      2407      2813      2814
 -1      1190    8    0    1
 -2       538       670       669      2814      2815      2810
 -1      1191    8    0    1
 -2       539       540       671      2410      2816      2817
 -1      1192    8    0    1
 -2       539       671       670      2817      2818      2813
 -1      1193    8    0    1
 -2       540       541       672      2413      2819      2820
 -1      1194    8    0    1
 -2       540       672       671      2820      2821      2816
 -1      1195    8    0    1
 -2       541       542       673      2416      2822      2823
 -1      1196    8    0    1
 -2       541       673       672      2823      2824      2819
 -1      1197    8    0    1
 -2       542       543       674      2419      2825      2826
 -1      1198    8    0    1
 -2       542       674       673      2826      2827      2822
 -1      1199    8    0    1
 -2       543       544       675      2422      2828      2829
 -1      1200    8    0    1
 -2       543       675       674      2829      2830      2825
 -1      1201    8    0    1
 -2       544       545       676      2425      2831      2832
 -1      1202    8    0    1
 -2       544       676       675      2832      2833      2828
 -1      1203    8    0    1
 -2       545       546       677      2428      2834      2835
 -1      1204    8    0    1
 -2       545       677       676      2835      2836      2831
 -1      1205    8    0    1
 -2       546       547       678      2431      2837      2838
 -1      1206    8    0    1
 -2       546       678       677      2838      2839      2834
 -1      1207    8    0    1
 -2       547       548       679      2434      2840      2841
 -1      1208    8    0    1
 -2       547       679       678      2841      2842      2837
 -1      1209    8    0    1
 -2       548       549       680      2437      2843      2844
 -1      1210    8    0    1
 -2       548       680       679      2844      2845      2840
 -1      1211    8    0    1
 -2       549       550       681      2440      2846      2847
 -1      1212    8    0    1
 -2       549       681       680      2847      2848      2843
 -1      1213    8    0    1
 -2       550       551       682      2443      2849      2850
 -1      1214    8    0    1
 -2       550       682       681      2850      2851      2846
 -1      1215    8    0    1
 -2       551       552       683      2446      2852      2853
 -1      1216    8    0    1
 -2       551       683       682      2853      2854      2849
 -1      1217    8    0    1
 -2       552       553       684      2449      2855      2856
 -1      1218    8    0    1
 -2       552       684       683      2856      2857      2852
 -1      1219    8    0    1
 -2       553       554       685      2452      2858      2859
 -1      1220    8    0    1
 -2       553       685       684      2859      2860      2855
 -1      1221    8    0    1
 -2       554       555       686      2455      2861      2862
 -1      1222    8    0    1
 -2       554       686       685      2862      2863      2858
 -1      1223    8    0    1
 -2       555       556       687      2458      2864      2865
 -1      1224    8    0    1
 -2       555       687       686      2865      2866      2861
 -1      1225    8    0    1
 -2       556       557       688      2461      2867      2868
 -1      1226    8    0    1
 -2       556       688       687      2868      2869      2864
 -1      1227    8    0    1
 -2       557       558       689      2464      2870      2871
 -1      1228    8    0    1
 -2       557       689       688      2871      2872      2867
 -1      1229    8    0    1
 -2       558       559       690      2467      2873      2874
 -1      1230    8    0    1
 -2       558       690       689      2874      2875      2870
 -1      1231    8    0    1
 -2       559       560       691      2470      2876      2877
 -1      1232    8    0    1
 -2       559       691       690      2877      2878      2873
 -1      1233    8    0    1
 -2       560       561       692      2473      2879      2880
 -1      1234    8    0    1
 -2       560       692       691      2880      2881      2876
 -1      1235    8    0    1
 -2       561       562       693      2476      2882      2883
 -1      1236    8    0    1
 -2       561       693       692      2883      2884      2879
 -1      1237    8    0    1
 -2       562       563       694      2479      2885      2886
 -1      1238    8    0    1
 -2       562       694       693      2886      2887      2882
 -1      1239    8    0    1
 -2       563       564       695      2482      2888      2889
 -1      1240    8    0    1
 -2       563       695       694      2889      2890      2885
 -1      1241    8    0    1
 -2       564       565       696      2485      2891      2892
 -1      1242    8    0    1
 -2       564       696       695      2892      2893      2888
 -1      1243    8    0    1
 -2       565       566       697      2488      2894      2895
 -1      1244    8    0    1
 -2       565       697       696      2895      2896      2891
 -1      1245    8    0    1
 -2       566       567       698      2491      2897      2898
 -1      1246    8    0    1
 -2       566       698       697      2898      2899      2894
 -1      1247    8    0    1
 -2       567       568       699      2494      2900      2901
 -1      1248    8    0    1
 -2       567       699       698      2901      2902      2897
 -1      1249    8    0    1
 -2       568       569       700      2497      2903      2904
 -1      1250    8    0    1
 -2       568       700       699      2904      2905      2900
 -1      1251    8    0    1
 -2       569       570       701      2500      2906      2907
 -1      1252    8    0    1
 -2       569       701       700      2907      2908      2903
 -1      1253    8    0    1
 -2       570       571       702      2503      2909      2910
 -1      1254    8    0    1
 -2       701       570       702      2906      2910      2911
 -1      1255    8    0    1
 -2       571       574       702      2659      2912      2909
 -1      1256    8    0    1
 -2       576       577       703      2521      2913      2914
 -1      1257    8    0    1
 -2       572       573       704      2509      2915      2916
 -1      1258    8    0    1
 -2       577       578       705      2524      2917      2918
 -1      1259    8    0    1
 -2       577       705       703      2918      2919      2913
 -1      1260    8    0    1
 -2       573       576       706      2518      2920      2921
 -1      1261    8    0    1
 -2       704       573       706      2915      2921      2922
 -1      1262    8    0    1
 -2       576       703       706      2914      2923      2920
 -1      1263    8    0    1
 -2       578       579       707      2527      2924      2925
 -1      1264    8    0    1
 -2       578       707       705      2925      2926      2917
 -1      1265    8    0    1
 -2       579       580       708      2530      2927      2928
 -1      1266    8    0    1
 -2       579       708       707      2928      2929      2924
 -1      1267    8    0    1
 -2       580       581       709      2533      2930      2931
 -1      1268    8    0    1
 -2       580       709       708      2931      2932      2927
 -1      1269    8    0    1
 -2       581       582       623      2536      2675      2933
 -1      1270    8    0    1
 -2       598       593       710      2612      2934      2935
 -1      1271    8    0    1
 -2       484       586       710      2545      2936      2937
 -1      1272    8    0    1
 -2       607       590       711      2593      2938      2939
 -1      1273    8    0    1
 -2       605       597       712      2588      2940      2941
 -1      1274    8    0    1
 -2       591       602       620      2646      2942      2943
 -1      1275    8    0    1
 -2       583       584       713      2636      2944      2945
 -1      1276    8    0    1
 -2       483       475       621      2677      2669      2946
 -1      1277    8    0    1
 -2       486       533       714      2670      2947      2948
 -1      1278    8    0    1
 -2       585       486       714      2625      2948      2949
 -1      1279    8    0    1
 -2       533       534       714      2392      2950      2947
 -1      1280    8    0    1
 -2       535       536       715      2398      2951      2952
 -1      1281    8    0    1
 -2       536       668       715      2809      2953      2951
 -1      1282    8    0    1
 -2       534       535       716      2395      2954      2955
 -1      1283    8    0    1
 -2       714       534       716      2950      2955      2956
 -1      1284    8    0    1
 -2       535       715       716      2952      2957      2954
 -1      1285    8    0    1
 -2       487       485       717      2254      2958      2959
 -1      1286    8    0    1
 -2       487       717       625      2959      2960      2680
 -1      1287    8    0    1
 -2       603       605       718      2621      2961      2962
 -1      1288    8    0    1
 -2       605       712       718      2941      2963      2961
 -1      1289    8    0    1
 -2       609       604       719      2643      2964      2965
 -1      1290    8    0    1
 -2       593       599       720      2657      2966      2967
 -1      1291    8    0    1
 -2       587       613       721      2640      2968      2969
 -1      1292    8    0    1
 -2       477       476       722      2227      2970      2971
 -1      1293    8    0    1
 -2       588       589       723      2638      2972      2973
 -1      1294    8    0    1
 -2       599       600       724      2577      2974      2975
 -1      1295    8    0    1
 -2       601       591       725      2647      2976      2977
 -1      1296    8    0    1
 -2       604       610       726      2644      2978      2979
 -1      1297    8    0    1
 -2       606       607       727      2658      2980      2981
 -1      1298    8    0    1
 -2       607       711       727      2939      2982      2980
 -1      1299    8    0    1
 -2       589       583       728      2635      2983      2984
 -1      1300    8    0    1
 -2       590       608       729      2645      2985      2986
 -1      1301    8    0    1
 -2       590       729       711      2986      2987      2938
 -1      1302    8    0    1
 -2       608       609       730      2598      2988      2989
 -1      1303    8    0    1
 -2       610       588       731      2641      2990      2991
 -1      1304    8    0    1
 -2       610       731       726      2991      2992      2978
 -1      1305    8    0    1
 -2       611       447       614      2642      2615      2993
 -1      1306    8    0    1
 -2       532       486       594      2671      2655      2994
 -1      1307    8    0    1
 -2       614       477       732      2613      2995      2996
 -1      1308    8    0    1
 -2       477       722       732      2971      2997      2995
 -1      1309    8    0    1
 -2       478       616       733      2665      2998      2999
 -1      1310    8    0    1
 -2       482       483       734      2244      3000      3001
 -1      1311    8    0    1
 -2       613       622       721      2673      3002      2968
 -1      1312    8    0    1
 -2       598       710       735      2935      3003      3004
 -1      1313    8    0    1
 -2       596       598       735      2637      3004      3005
 -1      1314    8    0    1
 -2       710       586       735      2936      3006      3003
 -1      1315    8    0    1
 -2       616       474       733      2624      3007      2998
 -1      1316    8    0    1
 -2       603       718       736      2962      3008      3009
 -1      1317    8    0    1
 -2       603       736       618      3009      3010      2654
 -1      1318    8    0    1
 -2       624       587       721      2678      2969      3011
 -1      1319    8    0    1
 -2       597       667       712      2807      3012      2940
 -1      1320    8    0    1
 -2       530       531       737      2385      3013      3014
 -1      1321    8    0    1
 -2       702       574       738      2912      3015      3016
 -1      1322    8    0    1
 -2       574       575       738      2514      3017      3015
 -1      1323    8    0    1
 -2       731       588       723      2990      2973      3018
 -1      1324    8    0    1
 -2       619       601       725      2660      2977      3019
 -1      1325    8    0    1
 -2       600       619       724      2661      3020      2974
 -1      1326    8    0    1
 -2       608       730       729      2989      3021      2985
 -1      1327    8    0    1
 -2       581       623       709      2933      3022      2930
 -1      1328    8    0    1
 -2       710       593       720      2934      2967      3023
 -1      1329    8    0    1
 -2       611       614       739      2993      3024      3025
 -1      1330    8    0    1
 -2       485       611       739      2603      3025      3026
 -1      1331    8    0    1
 -2       614       732       739      2996      3027      3024
 -1      1332    8    0    1
 -2       725       591       620      2976      2943      3028
 -1      1333    8    0    1
 -2       484       710       621      2937      3029      2668
 -1      1334    8    0    1
 -2       589       728       723      2984      3030      2972
 -1      1335    8    0    1
 -2       722       476       736      2970      3031      3032
 -1      1336    8    0    1
 -2       713       584       740      2944      3033      3034
 -1      1337    8    0    1
 -2       584       624       740      2679      3035      3033
 -1      1338    8    0    1
 -2       620       602       616      2942      2623      3036
 -1      1339    8    0    1
 -2       609       719       730      2965      3037      2988
 -1      1340    8    0    1
 -2       592       478       733      2560      2999      3038
 -1      1341    8    0    1
 -2       667       473       617      2806      2650      3039
 -1      1342    8    0    1
 -2       583       713       728      2945      3040      2983
 -1      1343    8    0    1
 -2       483       621       734      2946      3041      3000
 -1      1344    8    0    1
 -2       617       606       741      2651      3042      3043
 -1      1345    8    0    1
 -2       606       727       741      2981      3044      3042
 -1      1346    8    0    1
 -2       717       485       739      2958      3026      3045
 -1      1347    8    0    1
 -2       575       572       742      2515      3046      3047
 -1      1348    8    0    1
 -2       738       575       742      3017      3047      3048
 -1      1349    8    0    1
 -2       572       704       742      2916      3049      3046
 -1      1350    8    0    1
 -2       476       592       736      2559      3050      3031
 -1      1351    8    0    1
 -2       720       599       724      2966      2975      3051
 -1      1352    8    0    1
 -2       719       604       726      2964      2979      3052
 -1      1353    8    0    1
 -2       480       481       725      2238      3053      3054
 -1      1354    8    0    1
 -2       594       595       743      2656      3055      3056
 -1      1355    8    0    1
 -2       616       479       620      2664      2663      3036
 -1      1356    8    0    1
 -2       586       530       735      2648      3057      3006
 -1      1357    8    0    1
 -2       480       725       620      3054      3028      2662
 -1      1358    8    0    1
 -2       725       481       619      3053      2667      3019
 -1      1359    8    0    1
 -2       482       734       619      3001      3058      2666
 -1      1360    8    0    1
 -2       585       714       622      2949      3059      2672
 -1      1361    8    0    1
 -2       627       626       744      2687      3060      3061
 -1      1362    8    0    1
 -2       628       627       745      2690      3062      3063
 -1      1363    8    0    1
 -2       627       744       745      3061      3064      3062
 -1      1364    8    0    1
 -2       629       628       746      2693      3065      3066
 -1      1365    8    0    1
 -2       628       745       746      3063      3067      3065
 -1      1366    8    0    1
 -2       630       629       747      2696      3068      3069
 -1      1367    8    0    1
 -2       629       746       747      3066      3070      3068
 -1      1368    8    0    1
 -2       631       630       748      2699      3071      3072
 -1      1369    8    0    1
 -2       630       747       748      3069      3073      3071
 -1      1370    8    0    1
 -2       632       631       749      2702      3074      3075
 -1      1371    8    0    1
 -2       631       748       749      3072      3076      3074
 -1      1372    8    0    1
 -2       633       632       750      2705      3077      3078
 -1      1373    8    0    1
 -2       632       749       750      3075      3079      3077
 -1      1374    8    0    1
 -2       634       633       751      2708      3080      3081
 -1      1375    8    0    1
 -2       633       750       751      3078      3082      3080
 -1      1376    8    0    1
 -2       635       634       752      2711      3083      3084
 -1      1377    8    0    1
 -2       634       751       752      3081      3085      3083
 -1      1378    8    0    1
 -2       636       635       753      2714      3086      3087
 -1      1379    8    0    1
 -2       635       752       753      3084      3088      3086
 -1      1380    8    0    1
 -2       637       636       754      2717      3089      3090
 -1      1381    8    0    1
 -2       636       753       754      3087      3091      3089
 -1      1382    8    0    1
 -2       638       637       755      2720      3092      3093
 -1      1383    8    0    1
 -2       637       754       755      3090      3094      3092
 -1      1384    8    0    1
 -2       639       638       756      2723      3095      3096
 -1      1385    8    0    1
 -2       638       755       756      3093      3097      3095
 -1      1386    8    0    1
 -2       640       639       757      2726      3098      3099
 -1      1387    8    0    1
 -2       639       756       757      3096      3100      3098
 -1      1388    8    0    1
 -2       641       640       758      2729      3101      3102
 -1      1389    8    0    1
 -2       640       757       758      3099      3103      3101
 -1      1390    8    0    1
 -2       642       641       759      2732      3104      3105
 -1      1391    8    0    1
 -2       641       758       759      3102      3106      3104
 -1      1392    8    0    1
 -2       643       642       760      2735      3107      3108
 -1      1393    8    0    1
 -2       642       759       760      3105      3109      3107
 -1      1394    8    0    1
 -2       644       643       761      2738      3110      3111
 -1      1395    8    0    1
 -2       643       760       761      3108      3112      3110
 -1      1396    8    0    1
 -2       645       644       762      2741      3113      3114
 -1      1397    8    0    1
 -2       644       761       762      3111      3115      3113
 -1      1398    8    0    1
 -2       646       645       763      2744      3116      3117
 -1      1399    8    0    1
 -2       645       762       763      3114      3118      3116
 -1      1400    8    0    1
 -2       647       646       764      2747      3119      3120
 -1      1401    8    0    1
 -2       646       763       764      3117      3121      3119
 -1      1402    8    0    1
 -2       648       647       765      2750      3122      3123
 -1      1403    8    0    1
 -2       647       764       765      3120      3124      3122
 -1      1404    8    0    1
 -2       649       648       766      2753      3125      3126
 -1      1405    8    0    1
 -2       648       765       766      3123      3127      3125
 -1      1406    8    0    1
 -2       650       649       767      2756      3128      3129
 -1      1407    8    0    1
 -2       649       766       767      3126      3130      3128
 -1      1408    8    0    1
 -2       651       650       768      2759      3131      3132
 -1      1409    8    0    1
 -2       650       767       768      3129      3133      3131
 -1      1410    8    0    1
 -2       652       651       769      2762      3134      3135
 -1      1411    8    0    1
 -2       651       768       769      3132      3136      3134
 -1      1412    8    0    1
 -2       653       652       770      2765      3137      3138
 -1      1413    8    0    1
 -2       652       769       770      3135      3139      3137
 -1      1414    8    0    1
 -2       654       653       771      2768      3140      3141
 -1      1415    8    0    1
 -2       653       770       771      3138      3142      3140
 -1      1416    8    0    1
 -2       655       654       772      2771      3143      3144
 -1      1417    8    0    1
 -2       654       771       772      3141      3145      3143
 -1      1418    8    0    1
 -2       656       655       773      2774      3146      3147
 -1      1419    8    0    1
 -2       655       772       773      3144      3148      3146
 -1      1420    8    0    1
 -2       657       656       774      2777      3149      3150
 -1      1421    8    0    1
 -2       656       773       774      3147      3151      3149
 -1      1422    8    0    1
 -2       658       657       775      2780      3152      3153
 -1      1423    8    0    1
 -2       657       774       775      3150      3154      3152
 -1      1424    8    0    1
 -2       659       658       776      2783      3155      3156
 -1      1425    8    0    1
 -2       658       775       776      3153      3157      3155
 -1      1426    8    0    1
 -2       660       659       777      2786      3158      3159
 -1      1427    8    0    1
 -2       659       776       777      3156      3160      3158
 -1      1428    8    0    1
 -2       661       660       778      2789      3161      3162
 -1      1429    8    0    1
 -2       660       777       778      3159      3163      3161
 -1      1430    8    0    1
 -2       662       661       779      2792      3164      3165
 -1      1431    8    0    1
 -2       661       778       779      3162      3166      3164
 -1      1432    8    0    1
 -2       663       662       780      2795      3167      3168
 -1      1433    8    0    1
 -2       662       779       780      3165      3169      3167
 -1      1434    8    0    1
 -2       664       663       781      2798      3170      3171
 -1      1435    8    0    1
 -2       663       780       781      3168      3172      3170
 -1      1436    8    0    1
 -2       665       664       782      2801      3173      3174
 -1      1437    8    0    1
 -2       664       781       782      3171      3175      3173
 -1      1438    8    0    1
 -2       669       670       783      2815      3176      3177
 -1      1439    8    0    1
 -2       625       717       784      2960      3178      3179
 -1      1440    8    0    1
 -2       668       669       785      2812      3180      3181
 -1      1441    8    0    1
 -2       669       783       785      3177      3182      3180
 -1      1442    8    0    1
 -2       671       672       786      2821      3183      3184
 -1      1443    8    0    1
 -2       672       673       787      2824      3185      3186
 -1      1444    8    0    1
 -2       672       787       786      3186      3187      3183
 -1      1445    8    0    1
 -2       673       674       788      2827      3188      3189
 -1      1446    8    0    1
 -2       673       788       787      3189      3190      3185
 -1      1447    8    0    1
 -2       674       675       789      2830      3191      3192
 -1      1448    8    0    1
 -2       674       789       788      3192      3193      3188
 -1      1449    8    0    1
 -2       675       676       790      2833      3194      3195
 -1      1450    8    0    1
 -2       675       790       789      3195      3196      3191
 -1      1451    8    0    1
 -2       676       677       791      2836      3197      3198
 -1      1452    8    0    1
 -2       676       791       790      3198      3199      3194
 -1      1453    8    0    1
 -2       677       678       792      2839      3200      3201
 -1      1454    8    0    1
 -2       677       792       791      3201      3202      3197
 -1      1455    8    0    1
 -2       678       679       793      2842      3203      3204
 -1      1456    8    0    1
 -2       678       793       792      3204      3205      3200
 -1      1457    8    0    1
 -2       679       680       794      2845      3206      3207
 -1      1458    8    0    1
 -2       679       794       793      3207      3208      3203
 -1      1459    8    0    1
 -2       680       681       795      2848      3209      3210
 -1      1460    8    0    1
 -2       680       795       794      3210      3211      3206
 -1      1461    8    0    1
 -2       681       682       796      2851      3212      3213
 -1      1462    8    0    1
 -2       681       796       795      3213      3214      3209
 -1      1463    8    0    1
 -2       682       683       797      2854      3215      3216
 -1      1464    8    0    1
 -2       682       797       796      3216      3217      3212
 -1      1465    8    0    1
 -2       683       684       798      2857      3218      3219
 -1      1466    8    0    1
 -2       683       798       797      3219      3220      3215
 -1      1467    8    0    1
 -2       684       685       799      2860      3221      3222
 -1      1468    8    0    1
 -2       684       799       798      3222      3223      3218
 -1      1469    8    0    1
 -2       685       686       800      2863      3224      3225
 -1      1470    8    0    1
 -2       685       800       799      3225      3226      3221
 -1      1471    8    0    1
 -2       686       687       801      2866      3227      3228
 -1      1472    8    0    1
 -2       686       801       800      3228      3229      3224
 -1      1473    8    0    1
 -2       687       688       802      2869      3230      3231
 -1      1474    8    0    1
 -2       687       802       801      3231      3232      3227
 -1      1475    8    0    1
 -2       688       689       803      2872      3233      3234
 -1      1476    8    0    1
 -2       688       803       802      3234      3235      3230
 -1      1477    8    0    1
 -2       689       690       804      2875      3236      3237
 -1      1478    8    0    1
 -2       689       804       803      3237      3238      3233
 -1      1479    8    0    1
 -2       690       691       805      2878      3239      3240
 -1      1480    8    0    1
 -2       690       805       804      3240      3241      3236
 -1      1481    8    0    1
 -2       691       692       806      2881      3242      3243
 -1      1482    8    0    1
 -2       691       806       805      3243      3244      3239
 -1      1483    8    0    1
 -2       692       693       807      2884      3245      3246
 -1      1484    8    0    1
 -2       692       807       806      3246      3247      3242
 -1      1485    8    0    1
 -2       693       694       808      2887      3248      3249
 -1      1486    8    0    1
 -2       693       808       807      3249      3250      3245
 -1      1487    8    0    1
 -2       694       695       809      2890      3251      3252
 -1      1488    8    0    1
 -2       694       809       808      3252      3253      3248
 -1      1489    8    0    1
 -2       695       696       810      2893      3254      3255
 -1      1490    8    0    1
 -2       695       810       809      3255      3256      3251
 -1      1491    8    0    1
 -2       696       697       811      2896      3257      3258
 -1      1492    8    0    1
 -2       696       811       810      3258      3259      3254
 -1      1493    8    0    1
 -2       697       698       812      2899      3260      3261
 -1      1494    8    0    1
 -2       697       812       811      3261      3262      3257
 -1      1495    8    0    1
 -2       698       699       813      2902      3263      3264
 -1      1496    8    0    1
 -2       698       813       812      3264      3265      3260
 -1      1497    8    0    1
 -2       699       700       814      2905      3266      3267
 -1      1498    8    0    1
 -2       699       814       813      3267      3268      3263
 -1      1499    8    0    1
 -2       700       701       815      2908      3269      3270
 -1      1500    8    0    1
 -2       700       815       814      3270      3271      3266
 -1      1501    8    0    1
 -2       701       702       816      2911      3272      3273
 -1      1502    8    0    1
 -2       815       701       816      3269      3273      3274
 -1      1503    8    0    1
 -2       702       738       816      3016      3275      3272
 -1      1504    8    0    1
 -2       708       709       817      2932      3276      3277
 -1      1505    8    0    1
 -2       703       705       818      2919      3278      3279
 -1      1506    8    0    1
 -2       731       723       819      3018      3280      3281
 -1      1507    8    0    1
 -2       709       623       820      3022      3282      3283
 -1      1508    8    0    1
 -2       817       709       820      3276      3283      3284
 -1      1509    8    0    1
 -2       623       666       820      2804      3285      3282
 -1      1510    8    0    1
 -2       727       711       821      2982      3286      3287
 -1      1511    8    0    1
 -2       710       720       621      3023      3288      3029
 -1      1512    8    0    1
 -2       729       730       822      3021      3289      3290
 -1      1513    8    0    1
 -2       720       724       621      3051      3291      3288
 -1      1514    8    0    1
 -2       530       737       735      3014      3292      3057
 -1      1515    8    0    1
 -2       707       708       823      2929      3293      3294
 -1      1516    8    0    1
 -2       708       817       823      3277      3295      3293
 -1      1517    8    0    1
 -2       670       671       824      2818      3296      3297
 -1      1518    8    0    1
 -2       783       670       824      3176      3297      3298
 -1      1519    8    0    1
 -2       671       786       824      3184      3299      3296
 -1      1520    8    0    1
 -2       626       625       825      2684      3300      3301
 -1      1521    8    0    1
 -2       626       825       744      3301      3302      3060
 -1      1522    8    0    1
 -2       624       721       826      3011      3303      3304
 -1      1523    8    0    1
 -2       723       728       827      3030      3305      3306
 -1      1524    8    0    1
 -2       622       714       716      3059      2956      3307
 -1      1525    8    0    1
 -2       712       667       828      3012      3308      3309
 -1      1526    8    0    1
 -2       667       617       829      3039      3310      3311
 -1      1527    8    0    1
 -2       667       829       828      3311      3312      3308
 -1      1528    8    0    1
 -2       619       734       724      3058      3313      3020
 -1      1529    8    0    1
 -2       719       726       830      3052      3314      3315
 -1      1530    8    0    1
 -2       715       668       826      2953      3316      3317
 -1      1531    8    0    1
 -2       717       739       831      3045      3318      3319
 -1      1532    8    0    1
 -2       739       732       831      3027      3320      3318
 -1      1533    8    0    1
 -2       730       719       832      3037      3321      3322
 -1      1534    8    0    1
 -2       719       830       832      3315      3323      3321
 -1      1535    8    0    1
 -2       711       729       833      2987      3324      3325
 -1      1536    8    0    1
 -2       711       833       821      3325      3326      3286
 -1      1537    8    0    1
 -2       705       707       834      2926      3327      3328
 -1      1538    8    0    1
 -2       818       705       834      3278      3328      3329
 -1      1539    8    0    1
 -2       707       823       834      3294      3330      3327
 -1      1540    8    0    1
 -2       726       731       835      2992      3331      3332
 -1      1541    8    0    1
 -2       728       713       836      3040      3333      3334
 -1      1542    8    0    1
 -2       728       836       827      3334      3335      3305
 -1      1543    8    0    1
 -2       618       736       592      3010      3050      3336
 -1      1544    8    0    1
 -2       784       717       831      3178      3319      3337
 -1      1545    8    0    1
 -2       624       826       837      3304      3338      3339
 -1      1546    8    0    1
 -2       624       837       740      3339      3340      3035
 -1      1547    8    0    1
 -2       721       622       716      3002      3307      3341
 -1      1548    8    0    1
 -2       732       722       838      2997      3342      3343
 -1      1549    8    0    1
 -2       732       838       831      3343      3344      3320
 -1      1550    8    0    1
 -2       737       531       743      3013      3345      3346
 -1      1551    8    0    1
 -2       825       625       784      3300      3179      3347
 -1      1552    8    0    1
 -2       666       665       820      2805      3348      3285
 -1      1553    8    0    1
 -2       820       665       782      3348      3174      3349
 -1      1554    8    0    1
 -2       532       594       743      2994      3056      3350
 -1      1555    8    0    1
 -2       712       828       838      3309      3351      3352
 -1      1556    8    0    1
 -2       668       785       826      3181      3353      3316
 -1      1557    8    0    1
 -2       835       731       819      3331      3281      3354
 -1      1558    8    0    1
 -2       704       706       839      2922      3355      3356
 -1      1559    8    0    1
 -2       703       818       840      3279      3357      3358
 -1      1560    8    0    1
 -2       703       840       706      3358      3359      2923
 -1      1561    8    0    1
 -2       704       839       841      3356      3360      3361
 -1      1562    8    0    1
 -2       704       841       742      3361      3362      3049
 -1      1563    8    0    1
 -2       531       532       743      2629      3350      3345
 -1      1564    8    0    1
 -2       822       730       832      3289      3322      3363
 -1      1565    8    0    1
 -2       733       474       618      3007      2653      3364
 -1      1566    8    0    1
 -2       621       724       734      3291      3313      3041
 -1      1567    8    0    1
 -2       721       716       715      3341      2957      3365
 -1      1568    8    0    1
 -2       829       617       741      3310      3043      3366
 -1      1569    8    0    1
 -2       713       740       842      3034      3367      3368
 -1      1570    8    0    1
 -2       713       842       836      3368      3369      3333
 -1      1571    8    0    1
 -2       595       596       737      2639      3370      3371
 -1      1572    8    0    1
 -2       729       822       833      3290      3372      3324
 -1      1573    8    0    1
 -2       826       721       715      3303      3365      3317
 -1      1574    8    0    1
 -2       723       827       819      3306      3373      3280
 -1      1575    8    0    1
 -2       596       735       737      3005      3292      3370
 -1      1576    8    0    1
 -2       743       595       737      3055      3371      3346
 -1      1577    8    0    1
 -2       726       835       830      3332      3374      3314
 -1      1578    8    0    1
 -2       718       712       843      2963      3375      3376
 -1      1579    8    0    1
 -2       718       843       736      3376      3377      3008
 -1      1580    8    0    1
 -2       745       744       741      3064      3378      3379
 -1      1581    8    0    1
 -2       838       722       843      3342      3380      3381
 -1      1582    8    0    1
 -2       822       832       844      3363      3382      3383
 -1      1583    8    0    1
 -2       825       784       828      3347      3384      3385
 -1      1584    8    0    1
 -2       727       821       745      3287      3386      3387
 -1      1585    8    0    1
 -2       744       825       829      3302      3388      3389
 -1      1586    8    0    1
 -2       746       745       821      3067      3386      3390
 -1      1587    8    0    1
 -2       747       746       833      3070      3391      3392
 -1      1588    8    0    1
 -2       748       747       822      3073      3393      3394
 -1      1589    8    0    1
 -2       749       748       844      3076      3395      3396
 -1      1590    8    0    1
 -2       750       749       845      3079      3397      3398
 -1      1591    8    0    1
 -2       749       844       845      3396      3399      3397
 -1      1592    8    0    1
 -2       751       750       846      3082      3400      3401
 -1      1593    8    0    1
 -2       750       845       846      3398      3402      3400
 -1      1594    8    0    1
 -2       752       751       847      3085      3403      3404
 -1      1595    8    0    1
 -2       751       846       847      3401      3405      3403
 -1      1596    8    0    1
 -2       753       752       848      3088      3406      3407
 -1      1597    8    0    1
 -2       752       847       848      3404      3408      3406
 -1      1598    8    0    1
 -2       754       753       849      3091      3409      3410
 -1      1599    8    0    1
 -2       753       848       849      3407      3411      3409
 -1      1600    8    0    1
 -2       755       754       850      3094      3412      3413
 -1      1601    8    0    1
 -2       754       849       850      3410      3414      3412
 -1      1602    8    0    1
 -2       756       755       851      3097      3415      3416
 -1      1603    8    0    1
 -2       755       850       851      3413      3417      3415
 -1      1604    8    0    1
 -2       757       756       852      3100      3418      3419
 -1      1605    8    0    1
 -2       756       851       852      3416      3420      3418
 -1      1606    8    0    1
 -2       758       757       853      3103      3421      3422
 -1      1607    8    0    1
 -2       757       852       853      3419      3423      3421
 -1      1608    8    0    1
 -2       759       758       854      3106      3424      3425
 -1      1609    8    0    1
 -2       758       853       854      3422      3426      3424
 -1      1610    8    0    1
 -2       760       759       855      3109      3427      3428
 -1      1611    8    0    1
 -2       759       854       855      3425      3429      3427
 -1      1612    8    0    1
 -2       761       760       856      3112      3430      3431
 -1      1613    8    0    1
 -2       760       855       856      3428      3432      3430
 -1      1614    8    0    1
 -2       762       761       857      3115      3433      3434
 -1      1615    8    0    1
 -2       761       856       857      3431      3435      3433
 -1      1616    8    0    1
 -2       763       762       858      3118      3436      3437
 -1      1617    8    0    1
 -2       762       857       858      3434      3438      3436
 -1      1618    8    0    1
 -2       764       763       859      3121      3439      3440
 -1      1619    8    0    1
 -2       763       858       859      3437      3441      3439
 -1      1620    8    0    1
 -2       765       764       860      3124      3442      3443
 -1      1621    8    0    1
 -2       764       859       860      3440      3444      3442
 -1      1622    8    0    1
 -2       766       765       861      3127      3445      3446
 -1      1623    8    0    1
 -2       765       860       861      3443      3447      3445
 -1      1624    8    0    1
 -2       767       766       862      3130      3448      3449
 -1      1625    8    0    1
 -2       766       861       862      3446      3450      3448
 -1      1626    8    0    1
 -2       768       767       863      3133      3451      3452
 -1      1627    8    0    1
 -2       767       862       863      3449      3453      3451
 -1      1628    8    0    1
 -2       769       768       864      3136      3454      3455
 -1      1629    8    0    1
 -2       768       863       864      3452      3456      3454
 -1      1630    8    0    1
 -2       770       769       865      3139      3457      3458
 -1      1631    8    0    1
 -2       769       864       865      3455      3459      3457
 -1      1632    8    0    1
 -2       771       770       866      3142      3460      3461
 -1      1633    8    0    1
 -2       770       865       866      3458      3462      3460
 -1      1634    8    0    1
 -2       772       771       867      3145      3463      3464
 -1      1635    8    0    1
 -2       771       866       867      3461      3465      3463
 -1      1636    8    0    1
 -2       773       772       868      3148      3466      3467
 -1      1637    8    0    1
 -2       772       867       868      3464      3468      3466
 -1      1638    8    0    1
 -2       774       773       869      3151      3469      3470
 -1      1639    8    0    1
 -2       773       868       869      3467      3471      3469
 -1      1640    8    0    1
 -2       775       774       870      3154      3472      3473
 -1      1641    8    0    1
 -2       774       869       870      3470      3474      3472
 -1      1642    8    0    1
 -2       776       775       871      3157      3475      3476
 -1      1643    8    0    1
 -2       775       870       871      3473      3477      3475
 -1      1644    8    0    1
 -2       777       776       872      3160      3478      3479
 -1      1645    8    0    1
 -2       776       871       872      3476      3480      3478
 -1      1646    8    0    1
 -2       778       777       873      3163      3481      3482
 -1      1647    8    0    1
 -2       777       872       873      3479      3483      3481
 -1      1648    8    0    1
 -2       779       778       874      3166      3484      3485
 -1      1649    8    0    1
 -2       778       873       874      3482      3486      3484
 -1      1650    8    0    1
 -2       780       779       875      3169      3487      3488
 -1      1651    8    0    1
 -2       779       874       875      3485      3489      3487
 -1      1652    8    0    1
 -2       781       780       876      3172      3490      3491
 -1      1653    8    0    1
 -2       780       875       876      3488      3492      3490
 -1      1654    8    0    1
 -2       782       781       877      3175      3493      3494
 -1      1655    8    0    1
 -2       781       876       877      3491      3495      3493
 -1      1656    8    0    1
 -2       787       788       878      3190      3496      3497
 -1      1657    8    0    1
 -2       786       787       879      3187      3498      3499
 -1      1658    8    0    1
 -2       787       878       879      3497      3500      3498
 -1      1659    8    0    1
 -2       789       790       880      3196      3501      3502
 -1      1660    8    0    1
 -2       790       791       881      3199      3503      3504
 -1      1661    8    0    1
 -2       790       881       880      3504      3505      3501
 -1      1662    8    0    1
 -2       791       792       882      3202      3506      3507
 -1      1663    8    0    1
 -2       791       882       881      3507      3508      3503
 -1      1664    8    0    1
 -2       792       793       883      3205      3509      3510
 -1      1665    8    0    1
 -2       792       883       882      3510      3511      3506
 -1      1666    8    0    1
 -2       793       794       884      3208      3512      3513
 -1      1667    8    0    1
 -2       793       884       883      3513      3514      3509
 -1      1668    8    0    1
 -2       794       795       885      3211      3515      3516
 -1      1669    8    0    1
 -2       794       885       884      3516      3517      3512
 -1      1670    8    0    1
 -2       795       796       886      3214      3518      3519
 -1      1671    8    0    1
 -2       795       886       885      3519      3520      3515
 -1      1672    8    0    1
 -2       796       797       887      3217      3521      3522
 -1      1673    8    0    1
 -2       796       887       886      3522      3523      3518
 -1      1674    8    0    1
 -2       797       798       888      3220      3524      3525
 -1      1675    8    0    1
 -2       797       888       887      3525      3526      3521
 -1      1676    8    0    1
 -2       798       799       889      3223      3527      3528
 -1      1677    8    0    1
 -2       798       889       888      3528      3529      3524
 -1      1678    8    0    1
 -2       799       800       890      3226      3530      3531
 -1      1679    8    0    1
 -2       799       890       889      3531      3532      3527
 -1      1680    8    0    1
 -2       800       801       891      3229      3533      3534
 -1      1681    8    0    1
 -2       800       891       890      3534      3535      3530
 -1      1682    8    0    1
 -2       801       802       892      3232      3536      3537
 -1      1683    8    0    1
 -2       801       892       891      3537      3538      3533
 -1      1684    8    0    1
 -2       802       803       893      3235      3539      3540
 -1      1685    8    0    1
 -2       802       893       892      3540      3541      3536
 -1      1686    8    0    1
 -2       803       804       894      3238      3542      3543
 -1      1687    8    0    1
 -2       803       894       893      3543      3544      3539
 -1      1688    8    0    1
 -2       804       805       895      3241      3545      3546
 -1      1689    8    0    1
 -2       804       895       894      3546      3547      3542
 -1      1690    8    0    1
 -2       805       806       896      3244      3548      3549
 -1      1691    8    0    1
 -2       805       896       895      3549      3550      3545
 -1      1692    8    0    1
 -2       806       807       897      3247      3551      3552
 -1      1693    8    0    1
 -2       806       897       896      3552      3553      3548
 -1      1694    8    0    1
 -2       807       808       898      3250      3554      3555
 -1      1695    8    0    1
 -2       807       898       897      3555      3556      3551
 -1      1696    8    0    1
 -2       808       809       899      3253      3557      3558
 -1      1697    8    0    1
 -2       808       899       898      3558      3559      3554
 -1      1698    8    0    1
 -2       809       810       900      3256      3560      3561
 -1      1699    8    0    1
 -2       809       900       899      3561      3562      3557
 -1      1700    8    0    1
 -2       810       811       901      3259      3563      3564
 -1      1701    8    0    1
 -2       810       901       900      3564      3565      3560
 -1      1702    8    0    1
 -2       811       812       902      3262      3566      3567
 -1      1703    8    0    1
 -2       811       902       901      3567      3568      3563
 -1      1704    8    0    1
 -2       812       813       903      3265      3569      3570
 -1      1705    8    0    1
 -2       812       903       902      3570      3571      3566
 -1      1706    8    0    1
 -2       813       814       904      3268      3572      3573
 -1      1707    8    0    1
 -2       813       904       903      3573      3574      3569
 -1      1708    8    0    1
 -2       814       815       905      3271      3575      3576
 -1      1709    8    0    1
 -2       814       905       904      3576      3577      3572
 -1      1710    8    0    1
 -2       839       706       840      3355      3359      3578
 -1      1711    8    0    1
 -2       817       820       782      3284      3349      3579
 -1      1712    8    0    1
 -2       830       835       906      3374      3580      3581
 -1      1713    8    0    1
 -2       747       833       822      3392      3372      3393
 -1      1714    8    0    1
 -2       722       736       843      3032      3377      3380
 -1      1715    8    0    1
 -2       823       817       907      3295      3582      3583
 -1      1716    8    0    1
 -2       829       825       828      3388      3385      3312
 -1      1717    8    0    1
 -2       829       741       744      3366      3378      3389
 -1      1718    8    0    1
 -2       843       712       838      3375      3352      3381
 -1      1719    8    0    1
 -2       785       783       908      3182      3584      3585
 -1      1720    8    0    1
 -2       738       742       909      3048      3586      3587
 -1      1721    8    0    1
 -2       816       738       909      3275      3587      3588
 -1      1722    8    0    1
 -2       742       841       909      3362      3589      3586
 -1      1723    8    0    1
 -2       835       819       910      3354      3590      3591
 -1      1724    8    0    1
 -2       819       827       911      3373      3592      3593
 -1      1725    8    0    1
 -2       819       911       910      3593      3594      3590
 -1      1726    8    0    1
 -2       821       833       746      3326      3391      3390
 -1      1727    8    0    1
 -2       832       830       912      3323      3595      3596
 -1      1728    8    0    1
 -2       788       789       913      3193      3597      3598
 -1      1729    8    0    1
 -2       789       880       913      3502      3599      3597
 -1      1730    8    0    1
 -2       827       836       914      3335      3600      3601
 -1      1731    8    0    1
 -2       748       822       844      3394      3383      3395
 -1      1732    8    0    1
 -2       817       782       907      3579      3602      3582
 -1      1733    8    0    1
 -2       727       745       741      3387      3379      3044
 -1      1734    8    0    1
 -2       832       912       844      3596      3603      3382
 -1      1735    8    0    1
 -2       912       830       906      3595      3581      3604
 -1      1736    8    0    1
 -2       827       914       911      3601      3605      3592
 -1      1737    8    0    1
 -2       782       877       907      3494      3606      3602
 -1      1738    8    0    1
 -2       878       788       913      3496      3598      3607
 -1      1739    8    0    1
 -2       838       828       784      3351      3384      3608
 -1      1740    8    0    1
 -2       783       824       915      3298      3609      3610
 -1      1741    8    0    1
 -2       783       915       908      3610      3611      3584
 -1      1742    8    0    1
 -2       840       818       916      3357      3612      3613
 -1      1743    8    0    1
 -2       839       840       917      3578      3614      3615
 -1      1744    8    0    1
 -2       840       916       917      3613      3616      3614
 -1      1745    8    0    1
 -2       815       816       909      3274      3588      3617
 -1      1746    8    0    1
 -2       818       834       918      3329      3618      3619
 -1      1747    8    0    1
 -2       818       918       916      3619      3620      3612
 -1      1748    8    0    1
 -2       841       839       919      3360      3621      3622
 -1      1749    8    0    1
 -2       839       917       919      3615      3623      3621
 -1      1750    8    0    1
 -2       835       910       906      3591      3624      3580
 -1      1751    8    0    1
 -2       824       786       920      3299      3625      3626
 -1      1752    8    0    1
 -2       915       824       920      3609      3626      3627
 -1      1753    8    0    1
 -2       786       879       920      3499      3628      3625
 -1      1754    8    0    1
 -2       815       909       905      3617      3629      3575
 -1      1755    8    0    1
 -2       914       836       921      3600      3630      3631
 -1      1756    8    0    1
 -2       836       842       921      3369      3632      3630
 -1      1757    8    0    1
 -2       834       823       922      3330      3633      3634
 -1      1758    8    0    1
 -2       918       834       922      3618      3634      3635
 -1      1759    8    0    1
 -2       823       907       922      3583      3636      3633
 -1      1760    8    0    1
 -2       785       908       923      3585      3637      3638
 -1      1761    8    0    1
 -2       847       846       924      3405      3639      3640
 -1      1762    8    0    1
 -2       848       847       925      3408      3641      3642
 -1      1763    8    0    1
 -2       847       924       925      3640      3643      3641
 -1      1764    8    0    1
 -2       849       848       926      3411      3644      3645
 -1      1765    8    0    1
 -2       848       925       926      3642      3646      3644
 -1      1766    8    0    1
 -2       850       849       927      3414      3647      3648
 -1      1767    8    0    1
 -2       849       926       927      3645      3649      3647
 -1      1768    8    0    1
 -2       851       850       928      3417      3650      3651
 -1      1769    8    0    1
 -2       850       927       928      3648      3652      3650
 -1      1770    8    0    1
 -2       852       851       929      3420      3653      3654
 -1      1771    8    0    1
 -2       851       928       929      3651      3655      3653
 -1      1772    8    0    1
 -2       853       852       930      3423      3656      3657
 -1      1773    8    0    1
 -2       852       929       930      3654      3658      3656
 -1      1774    8    0    1
 -2       854       853       931      3426      3659      3660
 -1      1775    8    0    1
 -2       853       930       931      3657      3661      3659
 -1      1776    8    0    1
 -2       855       854       932      3429      3662      3663
 -1      1777    8    0    1
 -2       854       931       932      3660      3664      3662
 -1      1778    8    0    1
 -2       856       855       933      3432      3665      3666
 -1      1779    8    0    1
 -2       855       932       933      3663      3667      3665
 -1      1780    8    0    1
 -2       857       856       934      3435      3668      3669
 -1      1781    8    0    1
 -2       856       933       934      3666      3670      3668
 -1      1782    8    0    1
 -2       858       857       935      3438      3671      3672
 -1      1783    8    0    1
 -2       857       934       935      3669      3673      3671
 -1      1784    8    0    1
 -2       859       858       936      3441      3674      3675
 -1      1785    8    0    1
 -2       858       935       936      3672      3676      3674
 -1      1786    8    0    1
 -2       860       859       937      3444      3677      3678
 -1      1787    8    0    1
 -2       859       936       937      3675      3679      3677
 -1      1788    8    0    1
 -2       861       860       938      3447      3680      3681
 -1      1789    8    0    1
 -2       860       937       938      3678      3682      3680
 -1      1790    8    0    1
 -2       862       861       939      3450      3683      3684
 -1      1791    8    0    1
 -2       861       938       939      3681      3685      3683
 -1      1792    8    0    1
 -2       863       862       940      3453      3686      3687
 -1      1793    8    0    1
 -2       862       939       940      3684      3688      3686
 -1      1794    8    0    1
 -2       864       863       941      3456      3689      3690
 -1      1795    8    0    1
 -2       863       940       941      3687      3691      3689
 -1      1796    8    0    1
 -2       865       864       942      3459      3692      3693
 -1      1797    8    0    1
 -2       864       941       942      3690      3694      3692
 -1      1798    8    0    1
 -2       866       865       943      3462      3695      3696
 -1      1799    8    0    1
 -2       865       942       943      3693      3697      3695
 -1      1800    8    0    1
 -2       867       866       944      3465      3698      3699
 -1      1801    8    0    1
 -2       866       943       944      3696      3700      3698
 -1      1802    8    0    1
 -2       868       867       945      3468      3701      3702
 -1      1803    8    0    1
 -2       867       944       945      3699      3703      3701
 -1      1804    8    0    1
 -2       869       868       946      3471      3704      3705
 -1      1805    8    0    1
 -2       868       945       946      3702      3706      3704
 -1      1806    8    0    1
 -2       870       869       947      3474      3707      3708
 -1      1807    8    0    1
 -2       869       946       947      3705      3709      3707
 -1      1808    8    0    1
 -2       871       870       948      3477      3710      3711
 -1      1809    8    0    1
 -2       870       947       948      3708      3712      3710
 -1      1810    8    0    1
 -2       872       871       949      3480      3713      3714
 -1      1811    8    0    1
 -2       871       948       949      3711      3715      3713
 -1      1812    8    0    1
 -2       873       872       950      3483      3716      3717
 -1      1813    8    0    1
 -2       872       949       950      3714      3718      3716
 -1      1814    8    0    1
 -2       874       873       951      3486      3719      3720
 -1      1815    8    0    1
 -2       873       950       951      3717      3721      3719
 -1      1816    8    0    1
 -2       875       874       952      3489      3722      3723
 -1      1817    8    0    1
 -2       874       951       952      3720      3724      3722
 -1      1818    8    0    1
 -2       876       875       953      3492      3725      3726
 -1      1819    8    0    1
 -2       875       952       953      3723      3727      3725
 -1      1820    8    0    1
 -2       877       876       954      3495      3728      3729
 -1      1821    8    0    1
 -2       876       953       954      3726      3730      3728
 -1      1822    8    0    1
 -2       917       916       955      3616      3731      3732
 -1      1823    8    0    1
 -2       826       785       837      3353      3733      3338
 -1      1824    8    0    1
 -2       906       910       956      3624      3734      3735
 -1      1825    8    0    1
 -2       905       909       841      3629      3589      3736
 -1      1826    8    0    1
 -2       881       882       957      3508      3737      3738
 -1      1827    8    0    1
 -2       880       881       958      3505      3739      3740
 -1      1828    8    0    1
 -2       881       957       958      3738      3741      3739
 -1      1829    8    0    1
 -2       883       884       959      3514      3742      3743
 -1      1830    8    0    1
 -2       884       885       960      3517      3744      3745
 -1      1831    8    0    1
 -2       884       960       959      3745      3746      3742
 -1      1832    8    0    1
 -2       885       886       961      3520      3747      3748
 -1      1833    8    0    1
 -2       885       961       960      3748      3749      3744
 -1      1834    8    0    1
 -2       886       887       962      3523      3750      3751
 -1      1835    8    0    1
 -2       886       962       961      3751      3752      3747
 -1      1836    8    0    1
 -2       887       888       963      3526      3753      3754
 -1      1837    8    0    1
 -2       887       963       962      3754      3755      3750
 -1      1838    8    0    1
 -2       888       889       964      3529      3756      3757
 -1      1839    8    0    1
 -2       888       964       963      3757      3758      3753
 -1      1840    8    0    1
 -2       889       890       965      3532      3759      3760
 -1      1841    8    0    1
 -2       889       965       964      3760      3761      3756
 -1      1842    8    0    1
 -2       890       891       966      3535      3762      3763
 -1      1843    8    0    1
 -2       890       966       965      3763      3764      3759
 -1      1844    8    0    1
 -2       891       892       967      3538      3765      3766
 -1      1845    8    0    1
 -2       891       967       966      3766      3767      3762
 -1      1846    8    0    1
 -2       892       893       968      3541      3768      3769
 -1      1847    8    0    1
 -2       892       968       967      3769      3770      3765
 -1      1848    8    0    1
 -2       893       894       969      3544      3771      3772
 -1      1849    8    0    1
 -2       893       969       968      3772      3773      3768
 -1      1850    8    0    1
 -2       894       895       970      3547      3774      3775
 -1      1851    8    0    1
 -2       894       970       969      3775      3776      3771
 -1      1852    8    0    1
 -2       895       896       971      3550      3777      3778
 -1      1853    8    0    1
 -2       895       971       970      3778      3779      3774
 -1      1854    8    0    1
 -2       896       897       972      3553      3780      3781
 -1      1855    8    0    1
 -2       896       972       971      3781      3782      3777
 -1      1856    8    0    1
 -2       897       898       973      3556      3783      3784
 -1      1857    8    0    1
 -2       897       973       972      3784      3785      3780
 -1      1858    8    0    1
 -2       898       899       974      3559      3786      3787
 -1      1859    8    0    1
 -2       898       974       973      3787      3788      3783
 -1      1860    8    0    1
 -2       899       900       975      3562      3789      3790
 -1      1861    8    0    1
 -2       899       975       974      3790      3791      3786
 -1      1862    8    0    1
 -2       900       901       976      3565      3792      3793
 -1      1863    8    0    1
 -2       900       976       975      3793      3794      3789
 -1      1864    8    0    1
 -2       901       902       977      3568      3795      3796
 -1      1865    8    0    1
 -2       901       977       976      3796      3797      3792
 -1      1866    8    0    1
 -2       902       903       978      3571      3798      3799
 -1      1867    8    0    1
 -2       902       978       977      3799      3800      3795
 -1      1868    8    0    1
 -2       903       904       979      3574      3801      3802
 -1      1869    8    0    1
 -2       903       979       978      3802      3803      3798
 -1      1870    8    0    1
 -2       784       831       838      3337      3344      3608
 -1      1871    8    0    1
 -2       842       740       923      3367      3804      3805
 -1      1872    8    0    1
 -2       879       878       980      3500      3806      3807
 -1      1873    8    0    1
 -2       844       912       845      3603      3808      3399
 -1      1874    8    0    1
 -2       878       913       981      3607      3809      3810
 -1      1875    8    0    1
 -2       878       981       980      3810      3811      3806
 -1      1876    8    0    1
 -2       912       906       982      3604      3812      3813
 -1      1877    8    0    1
 -2       906       956       982      3735      3814      3812
 -1      1878    8    0    1
 -2       923       740       837      3804      3340      3815
 -1      1879    8    0    1
 -2       785       923       837      3638      3815      3733
 -1      1880    8    0    1
 -2       905       841       919      3736      3622      3816
 -1      1881    8    0    1
 -2       845       912       982      3808      3813      3817
 -1      1882    8    0    1
 -2       907       877       954      3606      3729      3818
 -1      1883    8    0    1
 -2       910       911       983      3594      3819      3820
 -1      1884    8    0    1
 -2       913       880       984      3599      3821      3822
 -1      1885    8    0    1
 -2       880       958       984      3740      3823      3821
 -1      1886    8    0    1
 -2       911       914       985      3605      3824      3825
 -1      1887    8    0    1
 -2       842       923       986      3805      3826      3827
 -1      1888    8    0    1
 -2       921       842       986      3632      3827      3828
 -1      1889    8    0    1
 -2       923       908       986      3637      3829      3826
 -1      1890    8    0    1
 -2       882       883       987      3511      3830      3831
 -1      1891    8    0    1
 -2       882       987       957      3831      3832      3737
 -1      1892    8    0    1
 -2       910       983       956      3820      3833      3734
 -1      1893    8    0    1
 -2       846       845       982      3402      3817      3834
 -1      1894    8    0    1
 -2       917       955       988      3732      3835      3836
 -1      1895    8    0    1
 -2       917       988       919      3836      3837      3623
 -1      1896    8    0    1
 -2       955       916       989      3731      3838      3839
 -1      1897    8    0    1
 -2       916       918       989      3620      3840      3838
 -1      1898    8    0    1
 -2       905       919       904      3816      3841      3577
 -1      1899    8    0    1
 -2       846       982       924      3834      3842      3639
 -1      1900    8    0    1
 -2       986       908       990      3829      3843      3844
 -1      1901    8    0    1
 -2       908       915       990      3611      3845      3843
 -1      1902    8    0    1
 -2       911       985       983      3825      3846      3819
 -1      1903    8    0    1
 -2       979       904       919      3801      3841      3847
 -1      1904    8    0    1
 -2       914       921       991      3631      3848      3849
 -1      1905    8    0    1
 -2       914       991       985      3849      3850      3824
 -1      1906    8    0    1
 -2       907       954       922      3818      3851      3636
 -1      1907    8    0    1
 -2       920       879       992      3628      3852      3853
 -1      1908    8    0    1
 -2       879       980       992      3807      3854      3852
 -1      1909    8    0    1
 -2       618       592       733      3336      3038      3364
 -1      1910    8    0    1
 -2       981       913       984      3809      3822      3855
 -1      1911    8    0    1
 -2       883       959       987      3743      3856      3830
 -1      1912    8    0    1
 -2       926       925       993      3646      3857      3858
 -1      1913    8    0    1
 -2       927       926       994      3649      3859      3860
 -1      1914    8    0    1
 -2       926       993       994      3858      3861      3859
 -1      1915    8    0    1
 -2       928       927       995      3652      3862      3863
 -1      1916    8    0    1
 -2       927       994       995      3860      3864      3862
 -1      1917    8    0    1
 -2       929       928       996      3655      3865      3866
 -1      1918    8    0    1
 -2       928       995       996      3863      3867      3865
 -1      1919    8    0    1
 -2       930       929       997      3658      3868      3869
 -1      1920    8    0    1
 -2       929       996       997      3866      3870      3868
 -1      1921    8    0    1
 -2       931       930       998      3661      3871      3872
 -1      1922    8    0    1
 -2       930       997       998      3869      3873      3871
 -1      1923    8    0    1
 -2       932       931       999      3664      3874      3875
 -1      1924    8    0    1
 -2       931       998       999      3872      3876      3874
 -1      1925    8    0    1
 -2       933       932      1000      3667      3877      3878
 -1      1926    8    0    1
 -2       932       999      1000      3875      3879      3877
 -1      1927    8    0    1
 -2       934       933      1001      3670      3880      3881
 -1      1928    8    0    1
 -2       933      1000      1001      3878      3882      3880
 -1      1929    8    0    1
 -2       935       934      1002      3673      3883      3884
 -1      1930    8    0    1
 -2       934      1001      1002      3881      3885      3883
 -1      1931    8    0    1
 -2       936       935      1003      3676      3886      3887
 -1      1932    8    0    1
 -2       935      1002      1003      3884      3888      3886
 -1      1933    8    0    1
 -2       937       936      1004      3679      3889      3890
 -1      1934    8    0    1
 -2       936      1003      1004      3887      3891      3889
 -1      1935    8    0    1
 -2       938       937      1005      3682      3892      3893
 -1      1936    8    0    1
 -2       937      1004      1005      3890      3894      3892
 -1      1937    8    0    1
 -2       939       938      1006      3685      3895      3896
 -1      1938    8    0    1
 -2       938      1005      1006      3893      3897      3895
 -1      1939    8    0    1
 -2       940       939      1007      3688      3898      3899
 -1      1940    8    0    1
 -2       939      1006      1007      3896      3900      3898
 -1      1941    8    0    1
 -2       941       940      1008      3691      3901      3902
 -1      1942    8    0    1
 -2       940      1007      1008      3899      3903      3901
 -1      1943    8    0    1
 -2       942       941      1009      3694      3904      3905
 -1      1944    8    0    1
 -2       941      1008      1009      3902      3906      3904
 -1      1945    8    0    1
 -2       943       942      1010      3697      3907      3908
 -1      1946    8    0    1
 -2       942      1009      1010      3905      3909      3907
 -1      1947    8    0    1
 -2       944       943      1011      3700      3910      3911
 -1      1948    8    0    1
 -2       943      1010      1011      3908      3912      3910
 -1      1949    8    0    1
 -2       945       944      1012      3703      3913      3914
 -1      1950    8    0    1
 -2       944      1011      1012      3911      3915      3913
 -1      1951    8    0    1
 -2       946       945      1013      3706      3916      3917
 -1      1952    8    0    1
 -2       945      1012      1013      3914      3918      3916
 -1      1953    8    0    1
 -2       947       946      1014      3709      3919      3920
 -1      1954    8    0    1
 -2       946      1013      1014      3917      3921      3919
 -1      1955    8    0    1
 -2       948       947      1015      3712      3922      3923
 -1      1956    8    0    1
 -2       947      1014      1015      3920      3924      3922
 -1      1957    8    0    1
 -2       949       948      1016      3715      3925      3926
 -1      1958    8    0    1
 -2       948      1015      1016      3923      3927      3925
 -1      1959    8    0    1
 -2       950       949      1017      3718      3928      3929
 -1      1960    8    0    1
 -2       949      1016      1017      3926      3930      3928
 -1      1961    8    0    1
 -2       951       950      1018      3721      3931      3932
 -1      1962    8    0    1
 -2       950      1017      1018      3929      3933      3931
 -1      1963    8    0    1
 -2       952       951      1019      3724      3934      3935
 -1      1964    8    0    1
 -2       951      1018      1019      3932      3936      3934
 -1      1965    8    0    1
 -2       953       952      1020      3727      3937      3938
 -1      1966    8    0    1
 -2       952      1019      1020      3935      3939      3937
 -1      1967    8    0    1
 -2       954       953      1021      3730      3940      3941
 -1      1968    8    0    1
 -2       953      1020      1021      3938      3942      3940
 -1      1969    8    0    1
 -2       956       983      1022      3833      3943      3944
 -1      1970    8    0    1
 -2       960       961      1023      3749      3945      3946
 -1      1971    8    0    1
 -2       959       960      1024      3746      3947      3948
 -1      1972    8    0    1
 -2       960      1023      1024      3946      3949      3947
 -1      1973    8    0    1
 -2       962       963      1025      3755      3950      3951
 -1      1974    8    0    1
 -2       963       964      1026      3758      3952      3953
 -1      1975    8    0    1
 -2       963      1026      1025      3953      3954      3950
 -1      1976    8    0    1
 -2       964       965      1027      3761      3955      3956
 -1      1977    8    0    1
 -2       964      1027      1026      3956      3957      3952
 -1      1978    8    0    1
 -2       965       966      1028      3764      3958      3959
 -1      1979    8    0    1
 -2       965      1028      1027      3959      3960      3955
 -1      1980    8    0    1
 -2       966       967      1029      3767      3961      3962
 -1      1981    8    0    1
 -2       966      1029      1028      3962      3963      3958
 -1      1982    8    0    1
 -2       967       968      1030      3770      3964      3965
 -1      1983    8    0    1
 -2       967      1030      1029      3965      3966      3961
 -1      1984    8    0    1
 -2       968       969      1031      3773      3967      3968
 -1      1985    8    0    1
 -2       968      1031      1030      3968      3969      3964
 -1      1986    8    0    1
 -2       969       970      1032      3776      3970      3971
 -1      1987    8    0    1
 -2       969      1032      1031      3971      3972      3967
 -1      1988    8    0    1
 -2       970       971      1033      3779      3973      3974
 -1      1989    8    0    1
 -2       970      1033      1032      3974      3975      3970
 -1      1990    8    0    1
 -2       971       972      1034      3782      3976      3977
 -1      1991    8    0    1
 -2       971      1034      1033      3977      3978      3973
 -1      1992    8    0    1
 -2       972       973      1035      3785      3979      3980
 -1      1993    8    0    1
 -2       972      1035      1034      3980      3981      3976
 -1      1994    8    0    1
 -2       973       974      1036      3788      3982      3983
 -1      1995    8    0    1
 -2       973      1036      1035      3983      3984      3979
 -1      1996    8    0    1
 -2       974       975      1037      3791      3985      3986
 -1      1997    8    0    1
 -2       974      1037      1036      3986      3987      3982
 -1      1998    8    0    1
 -2       975       976      1038      3794      3988      3989
 -1      1999    8    0    1
 -2       975      1038      1037      3989      3990      3985
 -1      2000    8    0    1
 -2       976       977      1039      3797      3991      3992
 -1      2001    8    0    1
 -2       976      1039      1038      3992      3993      3988
 -1      2002    8    0    1
 -2       977       978      1040      3800      3994      3995
 -1      2003    8    0    1
 -2       977      1040      1039      3995      3996      3991
 -1      2004    8    0    1
 -2       978       979      1041      3803      3997      3998
 -1      2005    8    0    1
 -2       978      1041      1040      3998      3999      3994
 -1      2006    8    0    1
 -2       924       982       956      3842      3814      4000
 -1      2007    8    0    1
 -2       957       987      1042      3832      4001      4002
 -1      2008    8    0    1
 -2       961       962      1043      3752      4003      4004
 -1      2009    8    0    1
 -2      1023       961      1043      3945      4004      4005
 -1      2010    8    0    1
 -2       962      1025      1043      3951      4006      4003
 -1      2011    8    0    1
 -2       915       920      1044      3627      4007      4008
 -1      2012    8    0    1
 -2       990       915      1044      3845      4008      4009
 -1      2013    8    0    1
 -2       920       992      1044      3853      4010      4007
 -1      2014    8    0    1
 -2       981       984      1045      3855      4011      4012
 -1      2015    8    0    1
 -2       983       985      1046      3846      4013      4014
 -1      2016    8    0    1
 -2       958       957      1047      3741      4015      4016
 -1      2017    8    0    1
 -2       957      1042      1047      4002      4017      4015
 -1      2018    8    0    1
 -2       984       958      1048      3823      4018      4019
 -1      2019    8    0    1
 -2       958      1047      1048      4016      4020      4018
 -1      2020    8    0    1
 -2       979       919       988      3847      3837      4021
 -1      2021    8    0    1
 -2       987       959      1049      3856      4022      4023
 -1      2022    8    0    1
 -2      1042       987      1049      4001      4023      4024
 -1      2023    8    0    1
 -2       959      1024      1049      3948      4025      4022
 -1      2024    8    0    1
 -2       922       954      1050      3851      4026      4027
 -1      2025    8    0    1
 -2       918       922      1050      3635      4027      4028
 -1      2026    8    0    1
 -2       954      1021      1050      3941      4029      4026
 -1      2027    8    0    1
 -2       921       986      1051      3828      4030      4031
 -1      2028    8    0    1
 -2       991       921      1051      3848      4031      4032
 -1      2029    8    0    1
 -2       986       990      1051      3844      4033      4030
 -1      2030    8    0    1
 -2       980       981      1052      3811      4034      4035
 -1      2031    8    0    1
 -2       981      1045      1052      4012      4036      4034
 -1      2032    8    0    1
 -2       924       956       925      4000      4037      3643
 -1      2033    8    0    1
 -2       989       918      1050      3840      4028      4038
 -1      2034    8    0    1
 -2      1022       983      1046      3943      4014      4039
 -1      2035    8    0    1
 -2      1045       984      1048      4011      4019      4040
 -1      2036    8    0    1
 -2      1041       979       988      3997      4021      4041
 -1      2037    8    0    1
 -2       955       989      1053      3839      4042      4043
 -1      2038    8    0    1
 -2       992       980      1054      3854      4044      4045
 -1      2039    8    0    1
 -2       980      1052      1054      4035      4046      4044
 -1      2040    8    0    1
 -2      1046       985      1055      4013      4047      4048
 -1      2041    8    0    1
 -2       985       991      1055      3850      4049      4047
 -1      2042    8    0    1
 -2       925       956      1022      4037      3944      4050
 -1      2043    8    0    1
 -2       988       955      1056      3835      4051      4052
 -1      2044    8    0    1
 -2      1041       988      1056      4041      4052      4053
 -1      2045    8    0    1
 -2       955      1053      1056      4043      4054      4051
 -1      2046    8    0    1
 -2       995       994      1057      3864      4055      4056
 -1      2047    8    0    1
 -2       996       995      1058      3867      4057      4058
 -1      2048    8    0    1
 -2       995      1057      1058      4056      4059      4057
 -1      2049    8    0    1
 -2       997       996      1059      3870      4060      4061
 -1      2050    8    0    1
 -2       996      1058      1059      4058      4062      4060
 -1      2051    8    0    1
 -2       998       997      1060      3873      4063      4064
 -1      2052    8    0    1
 -2       997      1059      1060      4061      4065      4063
 -1      2053    8    0    1
 -2       999       998      1061      3876      4066      4067
 -1      2054    8    0    1
 -2       998      1060      1061      4064      4068      4066
 -1      2055    8    0    1
 -2      1000       999      1062      3879      4069      4070
 -1      2056    8    0    1
 -2       999      1061      1062      4067      4071      4069
 -1      2057    8    0    1
 -2      1001      1000      1063      3882      4072      4073
 -1      2058    8    0    1
 -2      1000      1062      1063      4070      4074      4072
 -1      2059    8    0    1
 -2      1002      1001      1064      3885      4075      4076
 -1      2060    8    0    1
 -2      1001      1063      1064      4073      4077      4075
 -1      2061    8    0    1
 -2      1003      1002      1065      3888      4078      4079
 -1      2062    8    0    1
 -2      1002      1064      1065      4076      4080      4078
 -1      2063    8    0    1
 -2      1004      1003      1066      3891      4081      4082
 -1      2064    8    0    1
 -2      1003      1065      1066      4079      4083      4081
 -1      2065    8    0    1
 -2      1005      1004      1067      3894      4084      4085
 -1      2066    8    0    1
 -2      1004      1066      1067      4082      4086      4084
 -1      2067    8    0    1
 -2      1006      1005      1068      3897      4087      4088
 -1      2068    8    0    1
 -2      1005      1067      1068      4085      4089      4087
 -1      2069    8    0    1
 -2      1007      1006      1069      3900      4090      4091
 -1      2070    8    0    1
 -2      1006      1068      1069      4088      4092      4090
 -1      2071    8    0    1
 -2      1008      1007      1070      3903      4093      4094
 -1      2072    8    0    1
 -2      1007      1069      1070      4091      4095      4093
 -1      2073    8    0    1
 -2      1009      1008      1071      3906      4096      4097
 -1      2074    8    0    1
 -2      1008      1070      1071      4094      4098      4096
 -1      2075    8    0    1
 -2      1010      1009      1072      3909      4099      4100
 -1      2076    8    0    1
 -2      1009      1071      1072      4097      4101      4099
 -1      2077    8    0    1
 -2      1011      1010      1073      3912      4102      4103
 -1      2078    8    0    1
 -2      1010      1072      1073      4100      4104      4102
 -1      2079    8    0    1
 -2      1012      1011      1074      3915      4105      4106
 -1      2080    8    0    1
 -2      1011      1073      1074      4103      4107      4105
 -1      2081    8    0    1
 -2      1013      1012      1075      3918      4108      4109
 -1      2082    8    0    1
 -2      1012      1074      1075      4106      4110      4108
 -1      2083    8    0    1
 -2      1014      1013      1076      3921      4111      4112
 -1      2084    8    0    1
 -2      1013      1075      1076      4109      4113      4111
 -1      2085    8    0    1
 -2      1015      1014      1077      3924      4114      4115
 -1      2086    8    0    1
 -2      1014      1076      1077      4112      4116      4114
 -1      2087    8    0    1
 -2      1016      1015      1078      3927      4117      4118
 -1      2088    8    0    1
 -2      1015      1077      1078      4115      4119      4117
 -1      2089    8    0    1
 -2      1017      1016      1079      3930      4120      4121
 -1      2090    8    0    1
 -2      1016      1078      1079      4118      4122      4120
 -1      2091    8    0    1
 -2      1018      1017      1080      3933      4123      4124
 -1      2092    8    0    1
 -2      1017      1079      1080      4121      4125      4123
 -1      2093    8    0    1
 -2      1019      1018      1081      3936      4126      4127
 -1      2094    8    0    1
 -2      1018      1080      1081      4124      4128      4126
 -1      2095    8    0    1
 -2      1020      1019      1082      3939      4129      4130
 -1      2096    8    0    1
 -2      1019      1081      1082      4127      4131      4129
 -1      2097    8    0    1
 -2      1021      1020      1083      3942      4132      4133
 -1      2098    8    0    1
 -2      1020      1082      1083      4130      4134      4132
 -1      2099    8    0    1
 -2      1022      1046      1084      4039      4135      4136
 -1      2100    8    0    1
 -2      1026      1027      1085      3957      4137      4138
 -1      2101    8    0    1
 -2      1025      1026      1086      3954      4139      4140
 -1      2102    8    0    1
 -2      1026      1085      1086      4138      4141      4139
 -1      2103    8    0    1
 -2      1028      1029      1087      3963      4142      4143
 -1      2104    8    0    1
 -2      1029      1030      1088      3966      4144      4145
 -1      2105    8    0    1
 -2      1029      1088      1087      4145      4146      4142
 -1      2106    8    0    1
 -2      1030      1031      1089      3969      4147      4148
 -1      2107    8    0    1
 -2      1030      1089      1088      4148      4149      4144
 -1      2108    8    0    1
 -2      1031      1032      1090      3972      4150      4151
 -1      2109    8    0    1
 -2      1031      1090      1089      4151      4152      4147
 -1      2110    8    0    1
 -2      1032      1033      1091      3975      4153      4154
 -1      2111    8    0    1
 -2      1032      1091      1090      4154      4155      4150
 -1      2112    8    0    1
 -2      1033      1034      1092      3978      4156      4157
 -1      2113    8    0    1
 -2      1033      1092      1091      4157      4158      4153
 -1      2114    8    0    1
 -2      1034      1035      1093      3981      4159      4160
 -1      2115    8    0    1
 -2      1034      1093      1092      4160      4161      4156
 -1      2116    8    0    1
 -2      1035      1036      1094      3984      4162      4163
 -1      2117    8    0    1
 -2      1035      1094      1093      4163      4164      4159
 -1      2118    8    0    1
 -2      1036      1037      1095      3987      4165      4166
 -1      2119    8    0    1
 -2      1036      1095      1094      4166      4167      4162
 -1      2120    8    0    1
 -2      1037      1038      1096      3990      4168      4169
 -1      2121    8    0    1
 -2      1037      1096      1095      4169      4170      4165
 -1      2122    8    0    1
 -2      1038      1039      1097      3993      4171      4172
 -1      2123    8    0    1
 -2      1038      1097      1096      4172      4173      4168
 -1      2124    8    0    1
 -2      1039      1040      1098      3996      4174      4175
 -1      2125    8    0    1
 -2      1039      1098      1097      4175      4176      4171
 -1      2126    8    0    1
 -2      1040      1041      1099      3999      4177      4178
 -1      2127    8    0    1
 -2      1098      1040      1099      4174      4178      4179
 -1      2128    8    0    1
 -2      1041      1056      1099      4053      4180      4177
 -1      2129    8    0    1
 -2      1053       989      1083      4042      4181      4182
 -1      2130    8    0    1
 -2      1052      1045      1100      4036      4183      4184
 -1      2131    8    0    1
 -2      1050      1021      1083      4029      4133      4185
 -1      2132    8    0    1
 -2      1047      1042      1101      4017      4186      4187
 -1      2133    8    0    1
 -2      1045      1048      1102      4040      4188      4189
 -1      2134    8    0    1
 -2      1045      1102      1100      4189      4190      4183
 -1      2135    8    0    1
 -2      1027      1028      1103      3960      4191      4192
 -1      2136    8    0    1
 -2      1085      1027      1103      4137      4192      4193
 -1      2137    8    0    1
 -2      1028      1087      1103      4143      4194      4191
 -1      2138    8    0    1
 -2      1048      1047      1104      4020      4195      4196
 -1      2139    8    0    1
 -2      1047      1101      1104      4187      4197      4195
 -1      2140    8    0    1
 -2      1024      1023      1105      3949      4198      4199
 -1      2141    8    0    1
 -2       993       925      1022      3857      4050      4200
 -1      2142    8    0    1
 -2       993      1022      1084      4200      4136      4201
 -1      2143    8    0    1
 -2      1053      1083      1106      4182      4202      4203
 -1      2144    8    0    1
 -2      1056      1053      1106      4054      4203      4204
 -1      2145    8    0    1
 -2      1083      1082      1106      4134      4205      4202
 -1      2146    8    0    1
 -2      1084      1046      1107      4135      4206      4207
 -1      2147    8    0    1
 -2      1046      1055      1107      4048      4208      4206
 -1      2148    8    0    1
 -2       989      1050      1083      4038      4185      4181
 -1      2149    8    0    1
 -2      1042      1049      1108      4024      4209      4210
 -1      2150    8    0    1
 -2      1042      1108      1101      4210      4211      4186
 -1      2151    8    0    1
 -2      1054      1052      1109      4046      4212      4213
 -1      2152    8    0    1
 -2      1052      1100      1109      4184      4214      4212
 -1      2153    8    0    1
 -2       990      1044      1110      4009      4215      4216
 -1      2154    8    0    1
 -2       990      1110      1051      4216      4217      4033
 -1      2155    8    0    1
 -2      1048      1104      1102      4196      4218      4188
 -1      2156    8    0    1
 -2      1025      1086      1111      4140      4219      4220
 -1      2157    8    0    1
 -2      1025      1111      1043      4220      4221      4006
 -1      2158    8    0    1
 -2      1023      1043      1112      4005      4222      4223
 -1      2159    8    0    1
 -2      1043      1111      1112      4221      4224      4222
 -1      2160    8    0    1
 -2       992      1054      1113      4045      4225      4226
 -1      2161    8    0    1
 -2      1024      1105      1114      4199      4227      4228
 -1      2162    8    0    1
 -2      1024      1114      1049      4228      4229      4025
 -1      2163    8    0    1
 -2      1105      1023      1112      4198      4223      4230
 -1      2164    8    0    1
 -2       994       993      1084      3861      4201      4231
 -1      2165    8    0    1
 -2      1057       994      1084      4055      4231      4232
 -1      2166    8    0    1
 -2       991      1051      1115      4032      4233      4234
 -1      2167    8    0    1
 -2      1055       991      1115      4049      4234      4235
 -1      2168    8    0    1
 -2      1051      1110      1115      4217      4236      4233
 -1      2169    8    0    1
 -2      1044       992      1113      4010      4226      4237
 -1      2170    8    0    1
 -2      1058      1057      1116      4059      4238      4239
 -1      2171    8    0    1
 -2      1089      1090      1073      4152      4240      4241
 -1      2172    8    0    1
 -2      1059      1058      1100      4062      4242      4243
 -1      2173    8    0    1
 -2      1060      1059      1102      4065      4244      4245
 -1      2174    8    0    1
 -2      1061      1060      1104      4068      4246      4247
 -1      2175    8    0    1
 -2      1062      1061      1101      4071      4248      4249
 -1      2176    8    0    1
 -2      1063      1062      1108      4074      4250      4251
 -1      2177    8    0    1
 -2      1064      1063      1114      4077      4252      4253
 -1      2178    8    0    1
 -2      1065      1064      1105      4080      4254      4255
 -1      2179    8    0    1
 -2      1066      1065      1112      4083      4256      4257
 -1      2180    8    0    1
 -2      1067      1066      1111      4086      4258      4259
 -1      2181    8    0    1
 -2      1068      1067      1086      4089      4260      4261
 -1      2182    8    0    1
 -2      1069      1068      1085      4092      4262      4263
 -1      2183    8    0    1
 -2      1070      1069      1103      4095      4264      4265
 -1      2184    8    0    1
 -2      1071      1070      1087      4098      4266      4267
 -1      2185    8    0    1
 -2      1072      1071      1088      4101      4268      4269
 -1      2186    8    0    1
 -2      1073      1072      1089      4104      4270      4241
 -1      2187    8    0    1
 -2      1074      1073      1090      4107      4240      4271
 -1      2188    8    0    1
 -2      1075      1074      1091      4110      4272      4273
 -1      2189    8    0    1
 -2      1076      1075      1092      4113      4274      4275
 -1      2190    8    0    1
 -2      1077      1076      1093      4116      4276      4277
 -1      2191    8    0    1
 -2      1078      1077      1094      4119      4278      4279
 -1      2192    8    0    1
 -2      1079      1078      1095      4122      4280      4281
 -1      2193    8    0    1
 -2      1080      1079      1096      4125      4282      4283
 -1      2194    8    0    1
 -2      1081      1080      1097      4128      4284      4285
 -1      2195    8    0    1
 -2      1082      1081      1098      4131      4286      4287
 -1      2196    8    0    1
 -2      1105      1064      1114      4254      4253      4227
 -1      2197    8    0    1
 -2      1086      1085      1068      4141      4262      4261
 -1      2198    8    0    1
 -2      1098      1081      1097      4286      4285      4176
 -1      2199    8    0    1
 -2      1097      1080      1096      4284      4283      4173
 -1      2200    8    0    1
 -2      1096      1079      1095      4282      4281      4170
 -1      2201    8    0    1
 -2      1088      1089      1072      4149      4270      4269
 -1      2202    8    0    1
 -2      1087      1088      1071      4146      4268      4267
 -1      2203    8    0    1
 -2      1090      1091      1074      4155      4272      4271
 -1      2204    8    0    1
 -2      1091      1092      1075      4158      4274      4273
 -1      2205    8    0    1
 -2      1092      1093      1076      4161      4276      4275
 -1      2206    8    0    1
 -2      1093      1094      1077      4164      4278      4277
 -1      2207    8    0    1
 -2      1094      1095      1078      4167      4280      4279
 -1      2208    8    0    1
 -2      1100      1102      1059      4190      4244      4243
 -1      2209    8    0    1
 -2      1104      1101      1061      4197      4248      4247
 -1      2210    8    0    1
 -2      1086      1067      1111      4260      4259      4219
 -1      2211    8    0    1
 -2      1104      1060      1102      4246      4245      4218
 -1      2212    8    0    1
 -2      1057      1084      1107      4232      4207      4288
 -1      2213    8    0    1
 -2      1105      1112      1065      4230      4256      4255
 -1      2214    8    0    1
 -2      1087      1070      1103      4266      4265      4194
 -1      2215    8    0    1
 -2      1062      1101      1108      4249      4211      4250
 -1      2216    8    0    1
 -2      1066      1112      1111      4257      4224      4258
 -1      2217    8    0    1
 -2      1069      1085      1103      4263      4193      4264
 -1      2218    8    0    1
 -2      1056      1106      1099      4204      4289      4180
 -1      2219    8    0    1
 -2      1082      1098      1106      4287      4290      4205
 -1      2220    8    0    1
 -2      1098      1099      1106      4179      4289      4290
 -1      2221    8    0    1
 -2      1044      1113      1110      4237      4291      4215
 -1      2222    8    0    1
 -2      1108      1049      1114      4209      4229      4292
 -1      2223    8    0    1
 -2      1054      1109      1107      4213      4293      4294
 -1      2224    8    0    1
 -2      1113      1054      1107      4225      4294      4295
 -1      2225    8    0    1
 -2      1100      1058      1109      4242      4296      4214
 -1      2226    8    0    1
 -2      1107      1055      1113      4208      4297      4295
 -1      2227    8    0    1
 -2      1114      1063      1108      4252      4251      4292
 -1      2228    8    0    1
 -2      1113      1055      1115      4297      4235      4298
 -1      2229    8    0    1
 -2      1113      1115      1110      4298      4236      4291
 -1      2230    8    0    1
 -2      1058      1116      1109      4239      4299      4296
 -1      2231    8    0    1
 -2      1116      1057      1107      4238      4288      4300
 -1      2232    8    0    1
 -2      1109      1116      1107      4299      4300      4293
 -3
    1PSTEP                         1           1           1          
  100CL  101 1.000000000        4300                     0    1           1
 -4  DISP        4    1
 -5  D1          1    2    1    0
 -5  D2          1    2    2    0
 -5  D3          1    2    3    0
 -5  ALL         1    2    0    0    1ALL
 -1         1 2.55913E-03-3.48537E-04-7.03906E-15
 -1         2 4.85224E-03 4.83815E-04-1.21373E-14
 -1         3 1.58167E-02 3.88259E-03-2.30469E-13
 -1         4 1.45748E-02 2.45383E-03-2.35997E-13
 -1         5 0.00000E+00 0.00000E+00 0.00000E+00
 -1         6 0.00000E+00 0.00000E+00 0.00000E+00
 -1         7 0.00000E+00 0.00000E+00 0.00000E+00
 -1         8 0.00000E+00 0.00000E+00 0.00000E+00
 -1         9 0.00000E+00 0.00000E+00 0.00000E+00
 -1        10 0.00000E+00 0.00000E+00 0.00000E+00
 -1        11 0.00000E+00 0.00000E+00 0.00000E+00
 -1        12 0.00000E+00 0.00000E+00 0.00000E+00
 -1        13 0.00000E+00 0.00000E+00 0.00000E+00
 -1        14 0.00000E+00 0.00000E+00 0.00000E+00
 -1        15 0.00000E+00 0.00000E+00 0.00000E+00
 -1        16 0.00000E+00 0.00000E+00 0.00000E+00
 -1        17 0.00000E+00 0.00000E+00 0.00000E+00
 -1        18 0.00000E+00 0.00000E+00 0.00000E+00
 -1        19 0.00000E+00 0.00000E+00 0.00000E+00
 -1        20 0.00000E+00 0.00000E+00 0.00000E+00
 -1        21 0.00000E+00 0.00000E+00 0.00000E+00
 -1        22 0.00000E+00 0.00000E+00 0.00000E+00
 -1        23 4.75125E-04-3.00674E-04 5.45150E-17
 -1        24 8.13222E-04-4.72020E-04-1.90003E-16
 -1        25 1.12059E-03-6.03637E-04-7.26805E-16
 -1        26 1.41047E-03-7.07882E-04-1.55280E-15
 -1        27 1.68410E-03-7.87484E-04-2.66464E-15
 -1        28 1.94289E-03-8.38521E-04-4.06096E-15
 -1        29 2.19100E-03-8.55428E-04-5.73893E-15
 -1        30 2.43548E-03-8.34848E-04-7.69649E-15
 -1        31 2.68464E-03-7.78216E-04-9.92664E-15
 -1        32 2.94545E-03-6.92116E-04-1.24187E-14
 -1        33 3.22157E-03-5.86474E-04-1.51607E-14
 -1        34 3.51292E-03-4.71757E-04-1.81398E-14
 -1        35 3.81647E-03-3.56604E-04-2.13453E-14
 -1        36 4.12787E-03-2.46681E-04-2.47610E-14
 -1        37 4.44278E-03-1.44708E-04-2.83816E-14
 -1        38 4.75771E-03-5.11729E-05-3.21974E-14
 -1        39 5.07033E-03 3.47991E-05-3.61957E-14
 -1        40 5.37934E-03 1.14706E-04-4.03697E-14
 -1        41 5.68428E-03 1.90171E-04-4.47082E-14
 -1        42 5.98523E-03 2.62664E-04-4.92070E-14
 -1        43 6.28259E-03 3.33382E-04-5.38646E-14
 -1        44 6.57688E-03 4.03226E-04-5.86749E-14
 -1        45 6.86869E-03 4.72829E-04-6.36372E-14
 -1        46 7.15854E-03 5.42602E-04-6.87416E-14
 -1        47 7.44692E-03 6.12788E-04-7.39863E-14
 -1        48 7.73422E-03 6.83510E-04-7.93665E-14
 -1        49 8.02075E-03 7.54805E-04-8.48739E-14
 -1        50 8.30676E-03 8.26659E-04-9.05068E-14
 -1        51 8.59244E-03 8.99024E-04-9.62592E-14
 -1        52 8.87791E-03 9.71839E-04-1.02125E-13
 -1        53 9.16327E-03 1.04504E-03-1.08099E-13
 -1        54 9.44859E-03 1.11855E-03-1.14176E-13
 -1        55 9.73391E-03 1.19232E-03-1.20361E-13
 -1        56 1.00193E-02 1.26629E-03-1.26640E-13
 -1        57 1.03046E-02 1.34042E-03-1.33017E-13
 -1        58 1.05901E-02 1.41468E-03-1.39485E-13
 -1        59 1.08756E-02 1.48902E-03-1.46023E-13
 -1        60 1.11611E-02 1.56342E-03-1.52645E-13
 -1        61 1.14466E-02 1.63787E-03-1.59336E-13
 -1        62 1.17322E-02 1.71236E-03-1.66100E-13
 -1        63 1.20178E-02 1.78686E-03-1.72943E-13
 -1        64 1.23035E-02 1.86138E-03-1.79848E-13
 -1        65 1.25891E-02 1.93591E-03-1.86801E-13
 -1        66 1.28748E-02 2.01044E-03-1.93795E-13
 -1        67 1.31605E-02 2.08497E-03-2.00838E-13
 -1        68 1.34462E-02 2.15949E-03-2.07912E-13
 -1        69 1.37319E-02 2.23401E-03-2.15007E-13
 -1        70 1.40176E-02 2.30853E-03-2.22102E-13
 -1        71 1.43034E-02 2.38305E-03-2.29214E-13
 -1        72 5.51836E-04 2.94813E-04 9.10120E-17
 -1        73 9.88529E-04 4.76591E-04-6.78575E-17
 -1        74 1.41613E-03 6.61439E-04-4.74847E-16
 -1        75 1.82971E-03 8.72723E-04-1.14125E-15
 -1        76 2.21205E-03 1.10589E-03-2.07709E-15
 -1        77 2.54551E-03 1.33084E-03-3.29969E-15
 -1        78 2.82837E-03 1.49916E-03-4.82109E-15
 -1        79 3.08559E-03 1.57023E-03-6.65004E-15
 -1        80 3.35763E-03 1.54088E-03-8.78521E-15
 -1        81 3.67351E-03 1.44816E-03-1.12109E-14
 -1        82 4.03524E-03 1.34295E-03-1.39090E-14
 -1        83 4.42510E-03 1.26253E-03-1.68501E-14
 -1        84 4.82167E-03 1.22196E-03-2.00146E-14
 -1        85 5.20974E-03 1.22029E-03-2.33875E-14
 -1        86 5.58200E-03 1.24951E-03-2.69678E-14
 -1        87 5.93683E-03 1.30050E-03-3.07429E-14
 -1        88 6.27565E-03 1.36566E-03-3.47038E-14
 -1        89 6.60106E-03 1.43940E-03-3.88243E-14
 -1        90 6.91580E-03 1.51796E-03-4.31040E-14
 -1        91 7.22233E-03 1.59890E-03-4.75412E-14
 -1        92 7.52270E-03 1.68071E-03-5.21328E-14
 -1        93 7.81849E-03 1.76249E-03-5.68717E-14
 -1        94 8.11096E-03 1.84376E-03-6.17634E-14
 -1        95 8.40103E-03 1.92428E-03-6.67955E-14
 -1        96 8.68942E-03 2.00396E-03-7.19656E-14
 -1        97 8.97663E-03 2.08281E-03-7.72612E-14
 -1        98 9.26306E-03 2.16089E-03-8.26762E-14
 -1        99 9.54897E-03 2.23827E-03-8.82138E-14
 -1       100 9.83456E-03 2.31505E-03-9.38711E-14
 -1       101 1.01200E-02 2.39134E-03-9.96460E-14
 -1       102 1.04053E-02 2.46721E-03-1.05520E-13
 -1       103 1.06906E-02 2.54275E-03-1.11493E-13
 -1       104 1.09759E-02 2.61802E-03-1.17556E-13
 -1       105 1.12612E-02 2.69308E-03-1.23727E-13
 -1       106 1.15466E-02 2.76798E-03-1.29999E-13
 -1       107 1.18320E-02 2.84276E-03-1.36349E-13
 -1       108 1.21175E-02 2.91745E-03-1.42781E-13
 -1       109 1.24030E-02 2.99207E-03-1.49294E-13
 -1       110 1.26886E-02 3.06665E-03-1.55883E-13
 -1       111 1.29741E-02 3.14120E-03-1.62522E-13
 -1       112 1.32598E-02 3.21572E-03-1.69204E-13
 -1       113 1.35454E-02 3.29024E-03-1.75928E-13
 -1       114 1.38311E-02 3.36474E-03-1.82685E-13
 -1       115 1.41168E-02 3.43925E-03-1.89468E-13
 -1       116 1.44024E-02 3.51375E-03-1.96282E-13
 -1       117 1.46881E-02 3.58825E-03-2.03140E-13
 -1       118 1.49739E-02 3.66276E-03-2.10023E-13
 -1       119 1.52596E-02 3.73728E-03-2.16947E-13
 -1       120 1.55453E-02 3.81179E-03-2.23888E-13
 -1       121 1.57434E-02 3.79830E-03-2.30874E-13
 -1       122 1.56702E-02 3.71402E-03-2.31309E-13
 -1       123 1.55969E-02 3.62973E-03-2.31739E-13
 -1       124 1.55236E-02 3.54544E-03-2.32173E-13
 -1       125 1.54503E-02 3.46114E-03-2.32587E-13
 -1       126 1.53782E-02 3.37827E-03-2.32995E-13
 -1       127 1.53050E-02 3.29396E-03-2.33369E-13
 -1       128 1.52317E-02 3.20965E-03-2.33713E-13
 -1       129 1.51584E-02 3.12534E-03-2.34033E-13
 -1       130 1.50851E-02 3.04103E-03-2.34303E-13
 -1       131 1.50119E-02 2.95672E-03-2.34575E-13
 -1       132 1.49399E-02 2.87385E-03-2.34855E-13
 -1       133 1.48666E-02 2.78955E-03-2.35123E-13
 -1       134 1.47933E-02 2.70526E-03-2.35371E-13
 -1       135 1.47201E-02 2.62097E-03-2.35600E-13
 -1       136 1.46468E-02 2.53669E-03-2.35805E-13
 -1       137 4.83108E-03 6.48614E-04-1.19451E-14
 -1       138 4.70387E-03 8.08853E-04-1.14678E-14
 -1       139 4.49987E-03 9.42642E-04-1.08288E-14
 -1       140 4.19794E-03 1.06383E-03-9.97745E-15
 -1       141 3.80862E-03 1.15794E-03-8.97757E-15
 -1       142 3.33181E-03 1.21188E-03-7.86671E-15
 -1       143 2.84979E-03 1.21189E-03-6.83940E-15
 -1       144 2.34213E-03 1.15727E-03-5.83495E-15
 -1       145 1.87979E-03 1.05924E-03-4.98637E-15
 -1       146 1.47580E-03 9.31672E-04-4.28085E-15
 -1       147 1.11334E-03 7.77712E-04-3.67715E-15
 -1       148 8.32092E-04 6.16892E-04-3.22246E-15
 -1       149 6.40603E-04 4.62363E-04-2.92258E-15
 -1       150 5.38944E-04 3.22464E-04-2.77502E-15
 -1       151 5.20099E-04 1.82441E-04-2.77478E-15
 -1       152 5.86612E-04 6.37683E-05-2.92536E-15
 -1       153 7.64076E-04-6.03404E-05-3.28631E-15
 -1       154 9.94468E-04-1.56089E-04-3.74908E-15
 -1       155 1.29883E-03-2.39177E-04-4.36465E-15
 -1       156 1.65491E-03-3.01148E-04-5.09529E-15
 -1       157 2.09174E-03-3.42409E-04-6.02177E-15
 -1       158 2.97965E-03-3.22719E-04-7.97790E-15
 -1       159 3.39704E-03-2.66271E-04-8.93591E-15
 -1       160 3.77600E-03-1.85156E-04-9.81893E-15
 -1       161 4.11052E-03-8.26464E-05-1.06010E-14
 -1       162 4.40651E-03 4.40966E-05-1.12836E-14
 -1       163 4.63131E-03 1.83251E-04-1.17782E-14
 -1       164 4.78853E-03 3.39020E-04-1.20800E-14
 -1       165 2.73301E-04-1.43149E-04-6.08373E-17
 -1       166 2.54318E-04-1.03944E-04-9.43188E-17
 -1       167 2.45508E-04-7.10353E-05-1.10602E-16
 -1       168 2.37015E-04-3.87644E-05-1.17636E-16
 -1       169 2.24866E-04-7.12319E-06-1.19574E-16
 -1       170 2.06126E-04 2.22426E-05-1.19100E-16
 -1       171 1.81195E-04 4.35319E-05-1.17727E-16
 -1       172 1.54711E-04 5.13582E-05-1.16240E-16
 -1       173 1.35521E-04 4.43143E-05-1.14441E-16
 -1       174 1.32762E-04 2.81432E-05-1.11588E-16
 -1       175 1.49382E-04 1.42482E-05-1.06753E-16
 -1       176 1.81551E-04 1.24145E-05-9.87369E-17
 -1       177 2.21012E-04 2.74818E-05-8.59162E-17
 -1       178 2.62668E-04 5.91680E-05-6.43813E-17
 -1       179 3.09510E-04 1.09413E-04-2.75523E-17
 -1       180 4.01921E-04 1.89330E-04 1.13367E-17
 -1       181 5.36016E-04-3.07451E-04-1.69901E-16
 -1       182 8.74673E-04-4.60002E-04-6.06930E-16
 -1       183 1.19170E-03-5.80917E-04-1.31756E-15
 -1       184 1.49300E-03-6.77111E-04-2.30626E-15
 -1       185 1.78114E-03-7.46808E-04-3.57447E-15
 -1       186 2.05903E-03-7.84104E-04-5.12223E-15
 -1       187 2.33095E-03-7.83425E-04-6.94777E-15
 -1       188 2.60226E-03-7.43333E-04-9.04701E-15
 -1       189 2.87811E-03-6.68291E-04-1.14119E-14
 -1       190 3.16199E-03-5.67692E-04-1.40313E-14
 -1       191 3.45498E-03-4.52984E-04-1.68926E-14
 -1       192 3.75601E-03-3.34586E-04-1.99829E-14
 -1       193 4.06271E-03-2.19975E-04-2.32911E-14
 -1       194 4.37234E-03-1.13239E-04-2.68047E-14
 -1       195 4.68245E-03-1.56632E-05-3.05182E-14
 -1       196 4.99123E-03 7.33071E-05-3.44194E-14
 -1       197 5.29754E-03 1.55165E-04-3.84977E-14
 -1       198 5.60084E-03 2.31691E-04-4.27444E-14
 -1       199 5.90100E-03 3.04568E-04-4.71545E-14
 -1       200 6.19820E-03 3.75205E-04-5.17224E-14
 -1       201 6.49277E-03 4.44677E-04-5.64468E-14
 -1       202 6.78511E-03 5.13753E-04-6.13237E-14
 -1       203 7.07564E-03 5.82941E-04-6.63489E-14
 -1       204 7.36472E-03 6.52548E-04-7.15117E-14
 -1       205 7.65270E-03 7.22732E-04-7.68117E-14
 -1       206 7.93985E-03 7.93553E-04-8.22440E-14
 -1       207 8.22640E-03 8.65001E-04-8.78011E-14
 -1       208 8.51254E-03 9.37032E-04-9.34833E-14
 -1       209 8.79839E-03 1.00958E-03-9.92794E-14
 -1       210 9.08406E-03 1.08256E-03-1.05187E-13
 -1       211 9.36963E-03 1.15591E-03-1.11197E-13
 -1       212 9.65514E-03 1.22955E-03-1.17311E-13
 -1       213 9.94063E-03 1.30344E-03-1.23528E-13
 -1       214 1.02261E-02 1.37750E-03-1.29841E-13
 -1       215 1.05116E-02 1.45170E-03-1.36249E-13
 -1       216 1.07972E-02 1.52601E-03-1.42741E-13
 -1       217 1.10827E-02 1.60040E-03-1.49307E-13
 -1       218 1.13683E-02 1.67484E-03-1.55947E-13
 -1       219 1.16539E-02 1.74931E-03-1.62660E-13
 -1       220 1.19395E-02 1.82382E-03-1.69451E-13
 -1       221 1.22252E-02 1.89833E-03-1.76309E-13
 -1       222 1.25108E-02 1.97286E-03-1.83215E-13
 -1       223 1.27965E-02 2.04739E-03-1.90170E-13
 -1       224 1.30822E-02 2.12192E-03-1.97179E-13
 -1       225 1.33679E-02 2.19645E-03-2.04224E-13
 -1       226 1.36536E-02 2.27098E-03-2.11299E-13
 -1       227 1.39393E-02 2.34550E-03-2.18388E-13
 -1       228 1.42250E-02 2.42002E-03-2.25486E-13
 -1       229 8.29192E-04 3.67422E-04-1.76169E-16
 -1       230 1.24349E-03 5.51811E-04-5.95186E-16
 -1       231 1.64564E-03 7.63904E-04-1.26246E-15
 -1       232 2.03052E-03 1.00305E-03-2.19385E-15
 -1       233 2.38985E-03 1.24079E-03-3.40590E-15
 -1       234 2.72137E-03 1.42514E-03-4.91734E-15
 -1       235 3.03655E-03 1.50765E-03-6.73752E-15
 -1       236 3.35647E-03 1.48012E-03-8.86240E-15
 -1       237 3.69683E-03 1.38178E-03-1.12786E-14
 -1       238 4.05873E-03 1.26902E-03-1.39652E-14
 -1       239 4.43265E-03 1.18296E-03-1.68958E-14
 -1       240 4.80718E-03 1.13966E-03-2.00490E-14
 -1       241 5.17408E-03 1.13758E-03-2.34094E-14
 -1       242 5.52924E-03 1.16780E-03-2.69696E-14
 -1       243 5.87163E-03 1.22046E-03-3.07226E-14
 -1       244 6.20207E-03 1.28745E-03-3.46587E-14
 -1       245 6.52217E-03 1.36294E-03-3.87621E-14
 -1       246 6.83378E-03 1.44302E-03-4.30261E-14
 -1       247 7.13864E-03 1.52523E-03-4.74449E-14
 -1       248 7.43827E-03 1.60808E-03-5.20220E-14
 -1       249 7.73391E-03 1.69069E-03-5.67493E-14
 -1       250 8.02656E-03 1.77261E-03-6.16257E-14
 -1       251 8.31700E-03 1.85363E-03-6.66407E-14
 -1       252 8.60582E-03 1.93368E-03-7.17939E-14
 -1       253 8.89349E-03 2.01282E-03-7.70775E-14
 -1       254 9.18035E-03 2.09110E-03-8.24855E-14
 -1       255 9.46666E-03 2.16863E-03-8.80142E-14
 -1       256 9.75260E-03 2.24553E-03-9.36609E-14
 -1       257 1.00383E-02 2.32189E-03-9.94193E-14
 -1       258 1.03239E-02 2.39781E-03-1.05279E-13
 -1       259 1.06093E-02 2.47338E-03-1.11234E-13
 -1       260 1.08948E-02 2.54867E-03-1.17289E-13
 -1       261 1.11803E-02 2.62375E-03-1.23446E-13
 -1       262 1.14657E-02 2.69865E-03-1.29701E-13
 -1       263 1.17512E-02 2.77343E-03-1.36038E-13
 -1       264 1.20368E-02 2.84812E-03-1.42454E-13
 -1       265 1.23223E-02 2.92275E-03-1.48950E-13
 -1       266 1.26079E-02 2.99732E-03-1.55520E-13
 -1       267 1.28935E-02 3.07186E-03-1.62152E-13
 -1       268 1.31791E-02 3.14639E-03-1.68832E-13
 -1       269 1.34648E-02 3.22090E-03-1.75562E-13
 -1       270 1.37505E-02 3.29540E-03-1.82332E-13
 -1       271 1.40361E-02 3.36990E-03-1.89127E-13
 -1       272 1.43218E-02 3.44440E-03-1.95950E-13
 -1       273 1.46075E-02 3.51890E-03-2.02804E-13
 -1       274 1.48932E-02 3.59341E-03-2.09692E-13
 -1       275 1.51789E-02 3.66792E-03-2.16611E-13
 -1       276 1.54647E-02 3.74244E-03-2.23548E-13
 -1       277 1.54594E-02 3.69162E-03-2.25084E-13
 -1       278 1.53861E-02 3.60734E-03-2.25505E-13
 -1       279 1.53128E-02 3.52304E-03-2.25921E-13
 -1       280 1.52395E-02 3.43875E-03-2.26330E-13
 -1       281 1.51675E-02 3.35588E-03-2.26718E-13
 -1       282 1.50942E-02 3.27158E-03-2.27087E-13
 -1       283 1.50209E-02 3.18727E-03-2.27435E-13
 -1       284 1.49476E-02 3.10296E-03-2.27756E-13
 -1       285 1.48743E-02 3.01866E-03-2.28049E-13
 -1       286 1.48011E-02 2.93435E-03-2.28329E-13
 -1       287 1.47290E-02 2.85148E-03-2.28597E-13
 -1       288 1.46558E-02 2.76718E-03-2.28851E-13
 -1       289 1.45825E-02 2.68289E-03-2.29093E-13
 -1       290 1.45093E-02 2.59859E-03-2.29317E-13
 -1       291 1.43672E-02 2.50931E-03-2.27406E-13
 -1       292 4.87796E-03 5.46420E-04-1.33372E-14
 -1       293 4.76755E-03 6.35343E-04-1.29795E-14
 -1       294 4.54254E-03 7.57973E-04-1.21174E-14
 -1       295 4.23086E-03 8.94857E-04-1.12338E-14
 -1       296 3.85647E-03 1.05849E-03-1.00682E-14
 -1       297 3.45295E-03 1.20762E-03-8.73602E-15
 -1       298 3.04607E-03 1.28668E-03-7.45406E-15
 -1       299 2.65224E-03 1.27287E-03-6.25773E-15
 -1       300 2.25104E-03 1.14704E-03-5.20472E-15
 -1       301 1.87403E-03 9.58625E-04-4.31155E-15
 -1       302 1.46335E-03 7.50490E-04-3.64890E-15
 -1       303 1.08352E-03 5.58835E-04-3.12434E-15
 -1       304 7.82715E-04 4.06122E-04-2.74556E-15
 -1       305 5.85035E-04 3.02457E-04-2.52506E-15
 -1       306 4.96955E-04 2.26467E-04-2.40616E-15
 -1       307 5.35356E-04 1.69316E-04-2.52731E-15
 -1       308 7.00686E-04 1.11475E-04-2.69141E-15
 -1       309 9.57917E-04-1.91075E-06-3.20549E-15
 -1       310 1.26557E-03-1.18003E-04-3.76999E-15
 -1       311 1.60691E-03-2.42283E-04-4.49387E-15
 -1       312 1.98838E-03-3.58365E-04-5.36969E-15
 -1       313 2.35808E-03-4.23179E-04-6.51449E-15
 -1       314 2.71775E-03-4.06874E-04-7.66052E-15
 -1       315 3.06267E-03-3.31015E-04-8.81718E-15
 -1       316 3.42777E-03-2.00929E-04-9.91352E-15
 -1       317 3.78399E-03-4.75128E-05-1.09436E-14
 -1       318 4.13515E-03 1.11704E-04-1.18614E-14
 -1       319 4.45246E-03 2.56357E-04-1.26077E-14
 -1       320 4.70175E-03 3.85738E-04-1.32797E-14
 -1       321 4.84890E-03 4.66380E-04-1.33425E-14
 -1       322 5.16670E-04-1.83810E-04-3.87653E-16
 -1       323 5.38974E-04-2.48099E-04-3.37316E-16
 -1       324 4.82229E-04-6.39121E-05-4.21412E-16
 -1       325 4.50650E-04-5.26045E-06-4.20826E-16
 -1       326 4.02215E-04 4.59596E-05-4.14782E-16
 -1       327 3.40646E-04 7.99611E-05-4.06518E-16
 -1       328 2.82172E-04 8.88256E-05-3.97387E-16
 -1       329 2.51936E-04 7.49789E-05-3.87724E-16
 -1       330 2.67700E-04 5.50485E-05-3.76713E-16
 -1       331 3.27723E-04 4.95961E-05-3.61310E-16
 -1       332 4.12333E-04 7.21944E-05-3.37939E-16
 -1       333 5.02475E-04 1.23376E-04-3.00792E-16
 -1       334 5.93992E-04 1.99685E-04-2.41066E-16
 -1       335 7.02053E-04 2.77765E-04-2.20513E-16
 -1       336 1.09974E-03 4.55177E-04-6.41292E-16
 -1       337 9.81333E-04-4.42813E-04-1.06476E-15
 -1       338 1.30237E-03-5.52943E-04-1.93730E-15
 -1       339 1.61276E-03-6.40295E-04-3.08190E-15
 -1       340 1.91300E-03-6.98715E-04-4.50131E-15
 -1       341 2.20531E-03-7.20262E-04-6.19740E-15
 -1       342 2.49382E-03-6.99872E-04-8.16756E-15
 -1       343 2.78341E-03-6.38967E-04-1.04063E-14
 -1       344 3.07785E-03-5.45869E-04-1.29046E-14
 -1       345 3.37853E-03-4.32925E-04-1.56500E-14
 -1       346 3.68453E-03-3.12480E-04-1.86292E-14
 -1       347 3.99370E-03-1.93958E-04-2.18292E-14
 -1       348 4.30373E-03-8.28969E-05-2.52386E-14
 -1       349 4.61277E-03 1.85614E-05-2.88496E-14
 -1       350 4.91967E-03 1.10584E-04-3.26529E-14
 -1       351 5.22384E-03 1.94581E-04-3.66373E-14
 -1       352 5.52511E-03 2.72416E-04-4.07940E-14
 -1       353 5.82357E-03 3.45933E-04-4.51141E-14
 -1       354 6.11949E-03 4.16715E-04-4.95955E-14
 -1       355 6.41319E-03 4.85998E-04-5.42339E-14
 -1       356 6.70501E-03 5.54683E-04-5.90261E-14
 -1       357 6.99529E-03 6.23376E-04-6.39673E-14
 -1       358 7.28433E-03 6.92457E-04-6.90518E-14
 -1       359 7.57240E-03 7.62130E-04-7.42736E-14
 -1       360 7.85973E-03 8.32481E-04-7.96292E-14
 -1       361 8.14650E-03 9.03518E-04-8.51132E-14
 -1       362 8.43287E-03 9.75198E-04-9.07213E-14
 -1       363 8.71895E-03 1.04745E-03-9.64510E-14
 -1       364 9.00483E-03 1.12020E-03-1.02291E-13
 -1       365 9.29058E-03 1.19337E-03-1.08235E-13
 -1       366 9.57625E-03 1.26687E-03-1.14283E-13
 -1       367 9.86187E-03 1.34064E-03-1.20435E-13
 -1       368 1.01475E-02 1.41462E-03-1.26684E-13
 -1       369 1.04331E-02 1.48877E-03-1.33030E-13
 -1       370 1.07187E-02 1.56304E-03-1.39464E-13
 -1       371 1.10043E-02 1.63739E-03-1.45980E-13
 -1       372 1.12899E-02 1.71181E-03-1.52577E-13
 -1       373 1.15755E-02 1.78628E-03-1.59239E-13
 -1       374 1.18612E-02 1.86077E-03-1.65977E-13
 -1       375 1.21468E-02 1.93529E-03-1.72787E-13
 -1       376 1.24325E-02 2.00982E-03-1.79650E-13
 -1       377 1.27182E-02 2.08435E-03-1.86569E-13
 -1       378 1.30039E-02 2.15888E-03-1.93538E-13
 -1       379 1.32896E-02 2.23341E-03-2.00552E-13
 -1       380 1.35753E-02 2.30794E-03-2.07601E-13
 -1       381 1.38610E-02 2.38247E-03-2.14674E-13
 -1       382 1.41141E-02 2.44589E-03-2.21031E-13
 -1       383 1.49585E-03 6.62351E-04-1.30020E-15
 -1       384 1.88760E-03 9.02162E-04-2.21568E-15
 -1       385 2.26729E-03 1.15104E-03-3.40664E-15
 -1       386 2.62764E-03 1.35524E-03-4.89540E-15
 -1       387 2.97293E-03 1.45451E-03-6.69552E-15
 -1       388 3.31980E-03 1.43130E-03-8.80458E-15
 -1       389 3.68056E-03 1.32777E-03-1.12067E-14
 -1       390 4.05269E-03 1.20831E-03-1.38799E-14
 -1       391 4.42565E-03 1.11795E-03-1.67960E-14
 -1       392 4.79100E-03 1.07274E-03-1.99334E-14
 -1       393 5.14502E-03 1.07015E-03-2.32760E-14
 -1       394 5.48723E-03 1.10058E-03-2.68148E-14
 -1       395 5.81852E-03 1.15380E-03-3.05453E-14
 -1       396 6.14032E-03 1.22154E-03-3.44572E-14
 -1       397 6.45415E-03 1.29782E-03-3.85406E-14
 -1       398 6.76142E-03 1.37869E-03-4.27855E-14
 -1       399 7.06342E-03 1.46162E-03-4.71879E-14
 -1       400 7.36124E-03 1.54511E-03-5.17462E-14
 -1       401 7.65581E-03 1.62827E-03-5.64563E-14
 -1       402 7.94789E-03 1.71064E-03-6.13132E-14
 -1       403 8.23808E-03 1.79203E-03-6.63105E-14
 -1       404 8.52686E-03 1.87239E-03-7.14470E-14
 -1       405 8.81461E-03 1.95176E-03-7.67169E-14
 -1       406 9.10161E-03 2.03023E-03-8.21099E-14
 -1       407 9.38808E-03 2.10791E-03-8.76283E-14
 -1       408 9.67419E-03 2.18491E-03-9.32622E-14
 -1       409 9.96006E-03 2.26135E-03-9.90055E-14
 -1       410 1.02458E-02 2.33733E-03-1.04849E-13
 -1       411 1.05314E-02 2.41294E-03-1.10789E-13
 -1       412 1.08170E-02 2.48826E-03-1.16832E-13
 -1       413 1.11025E-02 2.56335E-03-1.22975E-13
 -1       414 1.13880E-02 2.63827E-03-1.29214E-13
 -1       415 1.16736E-02 2.71306E-03-1.35536E-13
 -1       416 1.19592E-02 2.78775E-03-1.41938E-13
 -1       417 1.22448E-02 2.86237E-03-1.48418E-13
 -1       418 1.25304E-02 2.93695E-03-1.54977E-13
 -1       419 1.28160E-02 3.01149E-03-1.61602E-13
 -1       420 1.31017E-02 3.08601E-03-1.68279E-13
 -1       421 1.33873E-02 3.16052E-03-1.75010E-13
 -1       422 1.36730E-02 3.23502E-03-1.81783E-13
 -1       423 1.39587E-02 3.30952E-03-1.88585E-13
 -1       424 1.42444E-02 3.38402E-03-1.95411E-13
 -1       425 1.45301E-02 3.45852E-03-2.02271E-13
 -1       426 1.48158E-02 3.53302E-03-2.09161E-13
 -1       427 1.51015E-02 3.60754E-03-2.16079E-13
 -1       428 1.52804E-02 3.64958E-03-2.20580E-13
 -1       429 1.50287E-02 3.41636E-03-2.20082E-13
 -1       430 1.51020E-02 3.50066E-03-2.19685E-13
 -1       431 1.51912E-02 3.57512E-03-2.20135E-13
 -1       432 1.49567E-02 3.33350E-03-2.20460E-13
 -1       433 1.48834E-02 3.24920E-03-2.20825E-13
 -1       434 1.48101E-02 3.16489E-03-2.21167E-13
 -1       435 1.47368E-02 3.08059E-03-2.21489E-13
 -1       436 1.46635E-02 2.99628E-03-2.21793E-13
 -1       437 1.45903E-02 2.91198E-03-2.22081E-13
 -1       438 1.45182E-02 2.82910E-03-2.22343E-13
 -1       439 1.44450E-02 2.74480E-03-2.22598E-13
 -1       440 1.43717E-02 2.66050E-03-2.22832E-13
 -1       441 1.42985E-02 2.57621E-03-2.23056E-13
 -1       442 4.64387E-03 6.54927E-04-1.38862E-14
 -1       443 4.89408E-03 5.23269E-04-1.46509E-14
 -1       444 4.85787E-03 5.71282E-04-1.45882E-14
 -1       445 4.39650E-03 7.57821E-04-1.29247E-14
 -1       446 4.00252E-03 9.47032E-04-1.13115E-14
 -1       447 5.01123E-04-1.23568E-04-4.12475E-16
 -1       448 3.22357E-03 1.28796E-03-8.36865E-15
 -1       449 2.92005E-03 1.33394E-03-7.09307E-15
 -1       450 2.50002E-03 1.24386E-03-5.51086E-15
 -1       451 2.19173E-03 1.08588E-03-4.60106E-15
 -1       452 1.72148E-03 7.98468E-04-3.59519E-15
 -1       453 1.33063E-03 5.64496E-04-2.95390E-15
 -1       454 9.66865E-04 3.95311E-04-2.57763E-15
 -1       455 6.87269E-04 2.68364E-04-2.21025E-15
 -1       456 5.26226E-04 2.16574E-04-2.07007E-15
 -1       457 4.91030E-04 1.91053E-04-2.04903E-15
 -1       458 5.87755E-04 1.70978E-04-2.15976E-15
 -1       459 8.72363E-04 9.48093E-05-2.58620E-15
 -1       460 1.12464E-03 1.23128E-06-3.05466E-15
 -1       461 1.48812E-03-1.53961E-04-3.82176E-15
 -1       462 1.79906E-03-2.87745E-04-4.58193E-15
 -1       463 2.20754E-03-4.28986E-04-5.90222E-15
 -1       464 2.53884E-03-4.55033E-04-7.23875E-15
 -1       465 2.83038E-03-4.00566E-04-8.44478E-15
 -1       466 3.17820E-03-2.60513E-04-9.93953E-15
 -1       467 3.47808E-03-1.14363E-04-1.09716E-14
 -1       468 3.88728E-03 9.66506E-05-1.23433E-14
 -1       469 4.24886E-03 2.65444E-04-1.33689E-14
 -1       470 4.54929E-03 3.90076E-04-1.41810E-14
 -1       471 4.81089E-03 4.80010E-04-1.45703E-14
 -1       472 3.59297E-03 1.14252E-03-9.89355E-15
 -1       473 2.00157E-03-3.76704E-04-5.06081E-15
 -1       474 7.01335E-04 1.46488E-04-2.03559E-15
 -1       475 1.16026E-03 4.44270E-04-1.06504E-15
 -1       476 6.70986E-04 1.75026E-06-8.94413E-16
 -1       477 7.31169E-04-7.97374E-05-9.05898E-16
 -1       478 4.67681E-04 1.16099E-04-8.50702E-16
 -1       479 3.78332E-04 1.23436E-04-8.26647E-16
 -1       480 3.59789E-04 1.06644E-04-8.05362E-16
 -1       481 4.30623E-04 9.70191E-05-7.83936E-16
 -1       482 5.63082E-04 1.23124E-04-7.55950E-16
 -1       483 7.10590E-04 1.89357E-04-7.12148E-16
 -1       484 1.54930E-03 6.61240E-04-1.86798E-15
 -1       485 1.11571E-03-4.20484E-04-1.56583E-15
 -1       486 3.43117E-03 1.24205E-03-9.57822E-15
 -1       487 1.44124E-03-5.21173E-04-2.58855E-15
 -1       488 1.75931E-03-6.00432E-04-3.88038E-15
 -1       489 2.06851E-03-6.46983E-04-5.44674E-15
 -1       490 2.37102E-03-6.50311E-04-7.28764E-15
 -1       491 2.67197E-03-6.06659E-04-9.40103E-15
 -1       492 2.97658E-03-5.22267E-04-1.17792E-14
 -1       493 3.28712E-03-4.10920E-04-1.44099E-14
 -1       494 3.60237E-03-2.87994E-04-1.72803E-14
 -1       495 3.91914E-03-1.65566E-04-2.03756E-14
 -1       496 4.23435E-03-5.07036E-05-2.36813E-14
 -1       497 4.54604E-03 5.38537E-05-2.71904E-14
 -1       498 4.85345E-03 1.48170E-04-3.08956E-14
 -1       499 5.15666E-03 2.33737E-04-3.47866E-14
 -1       500 5.45616E-03 3.12545E-04-3.88516E-14
 -1       501 5.75257E-03 3.86566E-04-4.30840E-14
 -1       502 6.04648E-03 4.57497E-04-4.74789E-14
 -1       503 6.33841E-03 5.26677E-04-5.20341E-14
 -1       504 6.62880E-03 5.95093E-04-5.67440E-14
 -1       505 6.91799E-03 6.63421E-04-6.16037E-14
 -1       506 7.20625E-03 7.32093E-04-6.66086E-14
 -1       507 7.49380E-03 8.01353E-04-7.17526E-14
 -1       508 7.78081E-03 8.71312E-04-7.70310E-14
 -1       509 8.06742E-03 9.41994E-04-8.24410E-14
 -1       510 8.35373E-03 1.01336E-03-8.79774E-14
 -1       511 8.63982E-03 1.08535E-03-9.36362E-14
 -1       512 8.92576E-03 1.15788E-03-9.94103E-14
 -1       513 9.21159E-03 1.23087E-03-1.05291E-13
 -1       514 9.49735E-03 1.30423E-03-1.11274E-13
 -1       515 9.78306E-03 1.37789E-03-1.17361E-13
 -1       516 1.00687E-02 1.45179E-03-1.23549E-13
 -1       517 1.03544E-02 1.52587E-03-1.29829E-13
 -1       518 1.06401E-02 1.60009E-03-1.36206E-13
 -1       519 1.09257E-02 1.67441E-03-1.42669E-13
 -1       520 1.12114E-02 1.74881E-03-1.49213E-13
 -1       521 1.14971E-02 1.82326E-03-1.55830E-13
 -1       522 1.17828E-02 1.89774E-03-1.62519E-13
 -1       523 1.20684E-02 1.97225E-03-1.69277E-13
 -1       524 1.23541E-02 2.04678E-03-1.76100E-13
 -1       525 1.26398E-02 2.12131E-03-1.82977E-13
 -1       526 1.29255E-02 2.19584E-03-1.89909E-13
 -1       527 1.32112E-02 2.27038E-03-1.96889E-13
 -1       528 1.34969E-02 2.34491E-03-2.03911E-13
 -1       529 1.37826E-02 2.41944E-03-2.10963E-13
 -1       530 2.37083E-03 1.19211E-03-4.25840E-15
 -1       531 2.75326E-03 1.36773E-03-5.91610E-15
 -1       532 3.12831E-03 1.39827E-03-7.89309E-15
 -1       533 3.51406E-03 1.29903E-03-1.01918E-14
 -1       534 3.90871E-03 1.16312E-03-1.27632E-14
 -1       535 4.29443E-03 1.05303E-03-1.55847E-14
 -1       536 4.66026E-03 9.92388E-04-1.86303E-14
 -1       537 5.00570E-03 9.78601E-04-2.18812E-14
 -1       538 5.33525E-03 1.00108E-03-2.53275E-14
 -1       539 5.65360E-03 1.04889E-03-2.89644E-14
 -1       540 5.96418E-03 1.11320E-03-3.27855E-14
 -1       541 6.26916E-03 1.18758E-03-3.67808E-14
 -1       542 6.56991E-03 1.26763E-03-4.09464E-14
 -1       543 6.86733E-03 1.35046E-03-4.52713E-14
 -1       544 7.16207E-03 1.43427E-03-4.97535E-14
 -1       545 7.45466E-03 1.51799E-03-5.43880E-14
 -1       546 7.74554E-03 1.60102E-03-5.91693E-14
 -1       547 8.03505E-03 1.68307E-03-6.40926E-14
 -1       548 8.32351E-03 1.76406E-03-6.91614E-14
 -1       549 8.61115E-03 1.84399E-03-7.43648E-14
 -1       550 8.89819E-03 1.92295E-03-7.96959E-14
 -1       551 9.18477E-03 2.00104E-03-8.51565E-14
 -1       552 9.47102E-03 2.07838E-03-9.07332E-14
 -1       553 9.75704E-03 2.15510E-03-9.64169E-14
 -1       554 1.00429E-02 2.23130E-03-1.02208E-13
 -1       555 1.03287E-02 2.30708E-03-1.08097E-13
 -1       556 1.06144E-02 2.38253E-03-1.14087E-13
 -1       557 1.09000E-02 2.45772E-03-1.20178E-13
 -1       558 1.11856E-02 2.53271E-03-1.26363E-13
 -1       559 1.14713E-02 2.60756E-03-1.32638E-13
 -1       560 1.17569E-02 2.68229E-03-1.38996E-13
 -1       561 1.20425E-02 2.75694E-03-1.45432E-13
 -1       562 1.23282E-02 2.83153E-03-1.51949E-13
 -1       563 1.26138E-02 2.90608E-03-1.58540E-13
 -1       564 1.28995E-02 2.98061E-03-1.65193E-13
 -1       565 1.31852E-02 3.05512E-03-1.71904E-13
 -1       566 1.34709E-02 3.12962E-03-1.78663E-13
 -1       567 1.37566E-02 3.20412E-03-1.85461E-13
 -1       568 1.40422E-02 3.27862E-03-1.92286E-13
 -1       569 1.43280E-02 3.35311E-03-1.99140E-13
 -1       570 1.46137E-02 3.42762E-03-2.06027E-13
 -1       571 1.48994E-02 3.50212E-03-2.12941E-13
 -1       572 1.46726E-02 3.22682E-03-2.14581E-13
 -1       573 1.45993E-02 3.14251E-03-2.14918E-13
 -1       574 1.48179E-02 3.39398E-03-2.13860E-13
 -1       575 1.47453E-02 3.31040E-03-2.14229E-13
 -1       576 1.45260E-02 3.05821E-03-2.15240E-13
 -1       577 1.44527E-02 2.97390E-03-2.15544E-13
 -1       578 1.43795E-02 2.88960E-03-2.15834E-13
 -1       579 1.43074E-02 2.80672E-03-2.16098E-13
 -1       580 1.42342E-02 2.72242E-03-2.16350E-13
 -1       581 1.41609E-02 2.63812E-03-2.16587E-13
 -1       582 1.40877E-02 2.55382E-03-2.16812E-13
 -1       583 4.92813E-03 5.57601E-04-1.61939E-14
 -1       584 4.82049E-03 6.09502E-04-1.60273E-14
 -1       585 3.84428E-03 1.03295E-03-1.15230E-14
 -1       586 1.95314E-03 9.19410E-04-2.93029E-15
 -1       587 4.54620E-03 7.05077E-04-1.47322E-14
 -1       588 4.72147E-03 4.80117E-04-1.58282E-14
 -1       589 4.88982E-03 5.30140E-04-1.61871E-14
 -1       590 2.95256E-03-3.52015E-04-9.50617E-15
 -1       591 4.66521E-04 1.73714E-04-1.64814E-15
 -1       592 5.78256E-04 7.19474E-05-8.74348E-16
 -1       593 1.54962E-03 6.42683E-04-2.84302E-15
 -1       594 3.08762E-03 1.35139E-03-7.82946E-15
 -1       595 2.74896E-03 1.33783E-03-6.22968E-15
 -1       596 2.37281E-03 1.17825E-03-4.80033E-15
 -1       597 1.61837E-03-2.12123E-04-3.79611E-15
 -1       598 1.97850E-03 9.25981E-04-3.67771E-15
 -1       599 1.11267E-03 3.96569E-04-2.26498E-15
 -1       600 8.21480E-04 2.65381E-04-1.92880E-15
 -1       601 5.74876E-04 1.87259E-04-1.68623E-15
 -1       602 4.99660E-04 1.73603E-04-1.68893E-15
 -1       603 1.00056E-03 5.71129E-05-2.45440E-15
 -1       604 4.05625E-03 2.25297E-04-1.41558E-14
 -1       605 1.30014E-03-6.39818E-05-3.04064E-15
 -1       606 2.38587E-03-4.75168E-04-6.71211E-15
 -1       607 2.70056E-03-4.40686E-04-8.22294E-15
 -1       608 3.32266E-03-1.62061E-04-1.14049E-14
 -1       609 3.66792E-03 2.78602E-05-1.27990E-14
 -1       610 4.39621E-03 3.69282E-04-1.50406E-14
 -1       611 8.13222E-04-3.02305E-04-8.75669E-16
 -1       612 8.75743E-04 3.13578E-04-5.76850E-16
 -1       613 4.20428E-03 8.52002E-04-1.31523E-14
 -1       614 7.65388E-04-1.61987E-04-9.03398E-16
 -1       615 1.39743E-02 2.46815E-03-2.15747E-13
 -1       616 5.62065E-04 1.58412E-04-1.55991E-15
 -1       617 2.18841E-03-4.54561E-04-5.79703E-15
 -1       618 7.98442E-04 1.10477E-04-1.90368E-15
 -1       619 6.47704E-04 1.76756E-04-1.38967E-15
 -1       620 4.26714E-04 1.49634E-04-1.25053E-15
 -1       621 1.19469E-03 4.28156E-04-1.52553E-15
 -1       622 4.07837E-03 9.61050E-04-1.32474E-14
 -1       623 1.38960E-02 2.50512E-03-2.12030E-13
 -1       624 4.76416E-03 6.75451E-04-1.70116E-14
 -1       625 1.59833E-03-4.88164E-04-3.26898E-15
 -1       626 1.92363E-03-5.61703E-04-4.70170E-15
 -1       627 2.23987E-03-5.94885E-04-6.41025E-15
 -1       628 2.55108E-03-5.74366E-04-8.39567E-15
 -1       629 2.86474E-03-5.00793E-04-1.06531E-14
 -1       630 3.18563E-03-3.89473E-04-1.31704E-14
 -1       631 3.51261E-03-2.61307E-04-1.59337E-14
 -1       632 3.84068E-03-1.33140E-04-1.89268E-14
 -1       633 4.16481E-03-1.41626E-05-2.21328E-14
 -1       634 4.48216E-03 9.26761E-05-2.55423E-14
 -1       635 4.79210E-03 1.88013E-04-2.91486E-14
 -1       636 5.09543E-03 2.73915E-04-3.29443E-14
 -1       637 5.39348E-03 3.52742E-04-3.69195E-14
 -1       638 5.68761E-03 4.26648E-04-4.10642E-14
 -1       639 5.97896E-03 4.97403E-04-4.53739E-14
 -1       640 6.26842E-03 5.66372E-04-4.98438E-14
 -1       641 6.55660E-03 6.34549E-04-5.44729E-14
 -1       642 6.84394E-03 7.02620E-04-5.92541E-14
 -1       643 7.13073E-03 7.71025E-04-6.41795E-14
 -1       644 7.41717E-03 8.40018E-04-6.92471E-14
 -1       645 7.70336E-03 9.09720E-04-7.44479E-14
 -1       646 7.98940E-03 9.80161E-04-7.97821E-14
 -1       647 8.27534E-03 1.05131E-03-8.52463E-14
 -1       648 8.56120E-03 1.12311E-03-9.08340E-14
 -1       649 8.84702E-03 1.19548E-03-9.65430E-14
 -1       650 9.13280E-03 1.26832E-03-1.02361E-13
 -1       651 9.41856E-03 1.34157E-03-1.08285E-13
 -1       652 9.70430E-03 1.41514E-03-1.14306E-13
 -1       653 9.99003E-03 1.48896E-03-1.20428E-13
 -1       654 1.02757E-02 1.56299E-03-1.26646E-13
 -1       655 1.05615E-02 1.63716E-03-1.32961E-13
 -1       656 1.08472E-02 1.71145E-03-1.39368E-13
 -1       657 1.11329E-02 1.78582E-03-1.45861E-13
 -1       658 1.14186E-02 1.86026E-03-1.52430E-13
 -1       659 1.17043E-02 1.93473E-03-1.59072E-13
 -1       660 1.19900E-02 2.00923E-03-1.65786E-13
 -1       661 1.22757E-02 2.08375E-03-1.72563E-13
 -1       662 1.25614E-02 2.15828E-03-1.79400E-13
 -1       663 1.28472E-02 2.23281E-03-1.86292E-13
 -1       664 1.31329E-02 2.30735E-03-1.93239E-13
 -1       665 1.34186E-02 2.38188E-03-2.00230E-13
 -1       666 1.36573E-02 2.44350E-03-2.06120E-13
 -1       667 1.79915E-03-3.25243E-04-4.19241E-15
 -1       668 4.90041E-03 8.78884E-04-2.05160E-14
 -1       669 5.21379E-03 8.98496E-04-2.38746E-14
 -1       670 5.51424E-03 9.43427E-04-2.74207E-14
 -1       671 5.80833E-03 1.00487E-03-3.11508E-14
 -1       672 6.09945E-03 1.07682E-03-3.50598E-14
 -1       673 6.38922E-03 1.15509E-03-3.91404E-14
 -1       674 6.67831E-03 1.23679E-03-4.33867E-14
 -1       675 6.96692E-03 1.32002E-03-4.77922E-14
 -1       676 7.25512E-03 1.40356E-03-5.23544E-14
 -1       677 7.54292E-03 1.48667E-03-5.70639E-14
 -1       678 7.83033E-03 1.56897E-03-6.19134E-14
 -1       679 8.11739E-03 1.65028E-03-6.69080E-14
 -1       680 8.40414E-03 1.73056E-03-7.20434E-14
 -1       681 8.69063E-03 1.80985E-03-7.73144E-14
 -1       682 8.97690E-03 1.88824E-03-8.27127E-14
 -1       683 9.26301E-03 1.96586E-03-8.82323E-14
 -1       684 9.54898E-03 2.04280E-03-9.38598E-14
 -1       685 9.83486E-03 2.11919E-03-9.95935E-14
 -1       686 1.01207E-02 2.19513E-03-1.05432E-13
 -1       687 1.04064E-02 2.27070E-03-1.11373E-13
 -1       688 1.06922E-02 2.34599E-03-1.17413E-13
 -1       689 1.09779E-02 2.42106E-03-1.23549E-13
 -1       690 1.12636E-02 2.49595E-03-1.29775E-13
 -1       691 1.15493E-02 2.57072E-03-1.36086E-13
 -1       692 1.18350E-02 2.64540E-03-1.42479E-13
 -1       693 1.21206E-02 2.72002E-03-1.48949E-13
 -1       694 1.24063E-02 2.79458E-03-1.55505E-13
 -1       695 1.26920E-02 2.86912E-03-1.62129E-13
 -1       696 1.29777E-02 2.94364E-03-1.68814E-13
 -1       697 1.32634E-02 3.01814E-03-1.75558E-13
 -1       698 1.35491E-02 3.09264E-03-1.82346E-13
 -1       699 1.38348E-02 3.16714E-03-1.89168E-13
 -1       700 1.41205E-02 3.24163E-03-1.96016E-13
 -1       701 1.44063E-02 3.31613E-03-2.02901E-13
 -1       702 1.46121E-02 3.35506E-03-2.08370E-13
 -1       703 1.42419E-02 2.95153E-03-2.09322E-13
 -1       704 1.43885E-02 3.12014E-03-2.08698E-13
 -1       705 1.41687E-02 2.86722E-03-2.09613E-13
 -1       706 1.43152E-02 3.03583E-03-2.09019E-13
 -1       707 1.40966E-02 2.78434E-03-2.09876E-13
 -1       708 1.40234E-02 2.70003E-03-2.10128E-13
 -1       709 1.39501E-02 2.61573E-03-2.10362E-13
 -1       710 1.74160E-03 7.63054E-04-2.71940E-15
 -1       711 2.79950E-03-4.18169E-04-9.18155E-15
 -1       712 1.37440E-03-1.42780E-04-2.85061E-15
 -1       713 4.96542E-03 5.96361E-04-1.78840E-14
 -1       714 3.85323E-03 1.09873E-03-1.21587E-14
 -1       715 4.56417E-03 8.96790E-04-1.73484E-14
 -1       716 4.22358E-03 9.71184E-04-1.46610E-14
 -1       717 1.26597E-03-3.92367E-04-2.10599E-15
 -1       718 1.12172E-03-2.48777E-05-2.29037E-15
 -1       719 3.89187E-03 1.45951E-04-1.46931E-14
 -1       720 1.27827E-03 4.66648E-04-2.05575E-15
 -1       721 4.42858E-03 7.97293E-04-1.51011E-14
 -1       722 9.81675E-04-9.25911E-05-1.55999E-15
 -1       723 4.86748E-03 5.34731E-04-1.79295E-14
 -1       724 9.29746E-04 2.85339E-04-1.67409E-15
 -1       725 4.55248E-04 1.36939E-04-1.20989E-15
 -1       726 4.28915E-03 3.33860E-04-1.62632E-14
 -1       727 2.51349E-03-4.87951E-04-7.57488E-15
 -1       728 4.96755E-03 5.64276E-04-1.77977E-14
 -1       729 3.11846E-03-2.76687E-04-1.10301E-14
 -1       730 3.52731E-03-5.46464E-05-1.32615E-14
 -1       731 4.60796E-03 4.56375E-04-1.70865E-14
 -1       732 1.03605E-03-1.93370E-04-1.57506E-15
 -1       733 6.72438E-04 1.16424E-04-1.42770E-15
 -1       734 8.61361E-04 2.46878E-04-1.23809E-15
 -1       735 2.15785E-03 1.04609E-03-3.80785E-15
 -1       736 9.06282E-04 3.80354E-05-1.74736E-15
 -1       737 2.50330E-03 1.25010E-03-5.13414E-15
 -1       738 1.45394E-02 3.27148E-03-2.08727E-13
 -1       739 1.07998E-03-3.09140E-04-1.59640E-15
 -1       740 4.96006E-03 6.49285E-04-1.89037E-14
 -1       741 2.32759E-03-4.98194E-04-6.58855E-15
 -1       742 1.44640E-02 3.19581E-03-2.08720E-13
 -1       743 2.94156E-03 1.38935E-03-6.95687E-15
 -1       744 2.09945E-03-5.28436E-04-5.54332E-15
 -1       745 2.42384E-03-5.42338E-04-7.39345E-15
 -1       746 2.74707E-03-4.86284E-04-9.52548E-15
 -1       747 3.07901E-03-3.73725E-04-1.19297E-14
 -1       748 3.41991E-03-2.34971E-04-1.45874E-14
 -1       749 3.76263E-03-9.64891E-05-1.74816E-14
 -1       750 4.09868E-03 2.84396E-05-2.05913E-14
 -1       751 4.42372E-03 1.37137E-04-2.39056E-14
 -1       752 4.73720E-03 2.31961E-04-2.74154E-14
 -1       753 5.04091E-03 3.16455E-04-3.11160E-14
 -1       754 5.33730E-03 3.93812E-04-3.49991E-14
 -1       755 5.62865E-03 4.66531E-04-3.90557E-14
 -1       756 5.91680E-03 5.36447E-04-4.32792E-14
 -1       757 6.20305E-03 6.04871E-04-4.76666E-14
 -1       758 6.48830E-03 6.72711E-04-5.22136E-14
 -1       759 6.77312E-03 7.40575E-04-5.69138E-14
 -1       760 7.05782E-03 8.08846E-04-6.17638E-14
 -1       761 7.34258E-03 8.77742E-04-6.67542E-14
 -1       762 7.62750E-03 9.47364E-04-7.18808E-14
 -1       763 7.91258E-03 1.01773E-03-7.71395E-14
 -1       764 8.19783E-03 1.08881E-03-8.25314E-14
 -1       765 8.48321E-03 1.16054E-03-8.80469E-14
 -1       766 8.76871E-03 1.23284E-03-9.36880E-14
 -1       767 9.05430E-03 1.30562E-03-9.94430E-14
 -1       768 9.33995E-03 1.37881E-03-1.05306E-13
 -1       769 9.62564E-03 1.45233E-03-1.11268E-13
 -1       770 9.91136E-03 1.52611E-03-1.17326E-13
 -1       771 1.01971E-02 1.60009E-03-1.23484E-13
 -1       772 1.04828E-02 1.67424E-03-1.29736E-13
 -1       773 1.07686E-02 1.74850E-03-1.36085E-13
 -1       774 1.10543E-02 1.82285E-03-1.42521E-13
 -1       775 1.13401E-02 1.89727E-03-1.49043E-13
 -1       776 1.16258E-02 1.97173E-03-1.55638E-13
 -1       777 1.19116E-02 2.04622E-03-1.62305E-13
 -1       778 1.21973E-02 2.12073E-03-1.69037E-13
 -1       779 1.24830E-02 2.19526E-03-1.75834E-13
 -1       780 1.27688E-02 2.26979E-03-1.82688E-13
 -1       781 1.30545E-02 2.34432E-03-1.89599E-13
 -1       782 1.33402E-02 2.41885E-03-1.96561E-13
 -1       783 5.39935E-03 8.44504E-04-2.58848E-14
 -1       784 1.42390E-03-3.60699E-04-2.67958E-15
 -1       785 5.12330E-03 7.99064E-04-2.24249E-14
 -1       786 5.94578E-03 9.73646E-04-3.33465E-14
 -1       787 6.22159E-03 1.04921E-03-3.73424E-14
 -1       788 6.49980E-03 1.12863E-03-4.15071E-14
 -1       789 6.78012E-03 1.21014E-03-4.58374E-14
 -1       790 7.06212E-03 1.29248E-03-5.03249E-14
 -1       791 7.34534E-03 1.37485E-03-5.49629E-14
 -1       792 7.62944E-03 1.45673E-03-5.97434E-14
 -1       793 7.91414E-03 1.53785E-03-6.46644E-14
 -1       794 8.19924E-03 1.61809E-03-6.97294E-14
 -1       795 8.48459E-03 1.69743E-03-7.49361E-14
 -1       796 8.77011E-03 1.77592E-03-8.02725E-14
 -1       797 9.05574E-03 1.85365E-03-8.57326E-14
 -1       798 9.34142E-03 1.93071E-03-9.13048E-14
 -1       799 9.62714E-03 2.00721E-03-9.69840E-14
 -1       800 9.91288E-03 2.08325E-03-1.02770E-13
 -1       801 1.01986E-02 2.15891E-03-1.08659E-13
 -1       802 1.04844E-02 2.23427E-03-1.14651E-13
 -1       803 1.07701E-02 2.30939E-03-1.20739E-13
 -1       804 1.10559E-02 2.38434E-03-1.26921E-13
 -1       805 1.13416E-02 2.45915E-03-1.33187E-13
 -1       806 1.16273E-02 2.53385E-03-1.39532E-13
 -1       807 1.19131E-02 2.60849E-03-1.45964E-13
 -1       808 1.21988E-02 2.68307E-03-1.52475E-13
 -1       809 1.24845E-02 2.75762E-03-1.59067E-13
 -1       810 1.27702E-02 2.83214E-03-1.65725E-13
 -1       811 1.30560E-02 2.90665E-03-1.72446E-13
 -1       812 1.33417E-02 2.98115E-03-1.79221E-13
 -1       813 1.36274E-02 3.05565E-03-1.86030E-13
 -1       814 1.39131E-02 3.13015E-03-1.92880E-13
 -1       815 1.41988E-02 3.20465E-03-1.99760E-13
 -1       816 1.43691E-02 3.23806E-03-2.04235E-13
 -1       817 1.37393E-02 2.59334E-03-2.04169E-13
 -1       818 1.39578E-02 2.84484E-03-2.03423E-13
 -1       819 4.81153E-03 5.16402E-04-1.93914E-14
 -1       820 1.36983E-02 2.51842E-03-2.05150E-13
 -1       821 2.67967E-03-4.73904E-04-8.80249E-15
 -1       822 3.33769E-03-1.96327E-04-1.30801E-14
 -1       823 1.38126E-02 2.67765E-03-2.03935E-13
 -1       824 5.67218E-03 9.04328E-04-2.95258E-14
 -1       825 1.76583E-03-4.58392E-04-3.97397E-15
 -1       826 4.69303E-03 7.71020E-04-1.76046E-14
 -1       827 5.01524E-03 5.77810E-04-1.98664E-14
 -1       828 1.55139E-03-2.78089E-04-3.22352E-15
 -1       829 1.92079E-03-4.11652E-04-4.61949E-15
 -1       830 4.15684E-03 2.48230E-04-1.72034E-14
 -1       831 1.23091E-03-2.75773E-04-2.08974E-15
 -1       832 3.82365E-03 7.66524E-05-1.56562E-14
 -1       833 2.96495E-03-3.71566E-04-1.06031E-14
 -1       834 1.38852E-02 2.76125E-03-2.03688E-13
 -1       835 4.55193E-03 4.23626E-04-1.86687E-14
 -1       836 5.06972E-03 6.07959E-04-1.99637E-14
 -1       837 4.92007E-03 7.25535E-04-1.95281E-14
 -1       838 1.18825E-03-1.71862E-04-2.07435E-15
 -1       839 1.41044E-02 3.01346E-03-2.02830E-13
 -1       840 1.40311E-02 2.92915E-03-2.03131E-13
 -1       841 1.41799E-02 3.08914E-03-2.02864E-13
 -1       842 5.11525E-03 6.53622E-04-2.10233E-14
 -1       843 1.12545E-03-9.11537E-05-2.03380E-15
 -1       844 3.67095E-03-5.78658E-05-1.57503E-14
 -1       845 4.02395E-03 7.96398E-05-1.87490E-14
 -1       846 4.35936E-03 1.91785E-04-2.19539E-14
 -1       847 4.67636E-03 2.84540E-04-2.53532E-14
 -1       848 4.97934E-03 3.65234E-04-2.89404E-14
 -1       849 5.27243E-03 4.38885E-04-3.27126E-14
 -1       850 5.55927E-03 5.08698E-04-3.66608E-14
 -1       851 5.84257E-03 5.76628E-04-4.07817E-14
 -1       852 6.12416E-03 6.43843E-04-4.50681E-14
 -1       853 6.40519E-03 7.11045E-04-4.95170E-14
 -1       854 6.68635E-03 7.78647E-04-5.41195E-14
 -1       855 6.96800E-03 8.46879E-04-5.88736E-14
 -1       856 7.25030E-03 9.15853E-04-6.37766E-14
 -1       857 7.53327E-03 9.85601E-04-6.88194E-14
 -1       858 7.81686E-03 1.05610E-03-7.39926E-14
 -1       859 8.10098E-03 1.12730E-03-7.92960E-14
 -1       860 8.38555E-03 1.19912E-03-8.47273E-14
 -1       861 8.67047E-03 1.27148E-03-9.02839E-14
 -1       862 8.95566E-03 1.34431E-03-9.59615E-14
 -1       863 9.24106E-03 1.41753E-03-1.01751E-13
 -1       864 9.52659E-03 1.49106E-03-1.07643E-13
 -1       865 9.81223E-03 1.56484E-03-1.13633E-13
 -1       866 1.00979E-02 1.63882E-03-1.19721E-13
 -1       867 1.03837E-02 1.71295E-03-1.25903E-13
 -1       868 1.06694E-02 1.78721E-03-1.32180E-13
 -1       869 1.09552E-02 1.86155E-03-1.38550E-13
 -1       870 1.12410E-02 1.93595E-03-1.45010E-13
 -1       871 1.15268E-02 2.01040E-03-1.51549E-13
 -1       872 1.18126E-02 2.08488E-03-1.58162E-13
 -1       873 1.20983E-02 2.15938E-03-1.64843E-13
 -1       874 1.23841E-02 2.23390E-03-1.71588E-13
 -1       875 1.26698E-02 2.30843E-03-1.78395E-13
 -1       876 1.29556E-02 2.38295E-03-1.85262E-13
 -1       877 1.32413E-02 2.45749E-03-1.92187E-13
 -1       878 6.32904E-03 1.02724E-03-3.96345E-14
 -1       879 6.06326E-03 9.51297E-04-3.55523E-14
 -1       880 6.87441E-03 1.18585E-03-4.82984E-14
 -1       881 7.15207E-03 1.26651E-03-5.28609E-14
 -1       882 7.43198E-03 1.34717E-03-5.75741E-14
 -1       883 7.71358E-03 1.42745E-03-6.24272E-14
 -1       884 7.99641E-03 1.50714E-03-6.74210E-14
 -1       885 8.28013E-03 1.58613E-03-7.25576E-14
 -1       886 8.56450E-03 1.66441E-03-7.78324E-14
 -1       887 8.84932E-03 1.74202E-03-8.32324E-14
 -1       888 9.13447E-03 1.81903E-03-8.87482E-14
 -1       889 9.41984E-03 1.89552E-03-9.43735E-14
 -1       890 9.70537E-03 1.97156E-03-1.00107E-13
 -1       891 9.99099E-03 2.04724E-03-1.05945E-13
 -1       892 1.02767E-02 2.12262E-03-1.11886E-13
 -1       893 1.05624E-02 2.19777E-03-1.17926E-13
 -1       894 1.08482E-02 2.27274E-03-1.24065E-13
 -1       895 1.11339E-02 2.34757E-03-1.30290E-13
 -1       896 1.14197E-02 2.42230E-03-1.36595E-13
 -1       897 1.17055E-02 2.49695E-03-1.42984E-13
 -1       898 1.19912E-02 2.57154E-03-1.49456E-13
 -1       899 1.22770E-02 2.64610E-03-1.56008E-13
 -1       900 1.25627E-02 2.72063E-03-1.62636E-13
 -1       901 1.28485E-02 2.79515E-03-1.69328E-13
 -1       902 1.31342E-02 2.86965E-03-1.76082E-13
 -1       903 1.34200E-02 2.94416E-03-1.82883E-13
 -1       904 1.37057E-02 3.01866E-03-1.89724E-13
 -1       905 1.39914E-02 3.09316E-03-1.96602E-13
 -1       906 4.49808E-03 3.57785E-04-2.03763E-14
 -1       907 1.35285E-02 2.57096E-03-1.98004E-13
 -1       908 5.30554E-03 7.54143E-04-2.43540E-14
 -1       909 1.42745E-02 3.16360E-03-2.03554E-13
 -1       910 4.81945E-03 4.95301E-04-2.15134E-14
 -1       911 5.04117E-03 5.75674E-04-2.20334E-14
 -1       912 4.09122E-03 1.68436E-04-1.81517E-14
 -1       913 6.59977E-03 1.10581E-03-4.38853E-14
 -1       914 5.14946E-03 6.19233E-04-2.19817E-14
 -1       915 5.55087E-03 8.13056E-04-2.79096E-14
 -1       916 1.37470E-02 2.82247E-03-1.97259E-13
 -1       917 1.38203E-02 2.90678E-03-1.96974E-13
 -1       918 1.36744E-02 2.73887E-03-1.97526E-13
 -1       919 1.38958E-02 2.98246E-03-1.97024E-13
 -1       920 5.80356E-03 8.79389E-04-3.16424E-14
 -1       921 5.23634E-03 6.63011E-04-2.30884E-14
 -1       922 1.36014E-02 2.65491E-03-1.97775E-13
 -1       923 5.06622E-03 7.05752E-04-2.09757E-14
 -1       924 4.65165E-03 3.41185E-04-2.36499E-14
 -1       925 4.94911E-03 4.15194E-04-2.71465E-14
 -1       926 5.23539E-03 4.83094E-04-3.08253E-14
 -1       927 5.51525E-03 5.48538E-04-3.46830E-14
 -1       928 5.79212E-03 6.13571E-04-3.87166E-14
 -1       929 6.06806E-03 6.79080E-04-4.29194E-14
 -1       930 6.34429E-03 7.45449E-04-4.72834E-14
 -1       931 6.62145E-03 8.12802E-04-5.18037E-14
 -1       932 6.89983E-03 8.81144E-04-5.64774E-14
 -1       933 7.17950E-03 9.50422E-04-6.13044E-14
 -1       934 7.46039E-03 1.02055E-03-6.62758E-14
 -1       935 7.74237E-03 1.09145E-03-7.13795E-14
 -1       936 8.02528E-03 1.16301E-03-7.66111E-14
 -1       937 8.30894E-03 1.23516E-03-8.19718E-14
 -1       938 8.59320E-03 1.30779E-03-8.74581E-14
 -1       939 8.87793E-03 1.38082E-03-9.30681E-14
 -1       940 9.16300E-03 1.45420E-03-9.87959E-14
 -1       941 9.44832E-03 1.52785E-03-1.04627E-13
 -1       942 9.73383E-03 1.60171E-03-1.10560E-13
 -1       943 1.00195E-02 1.67575E-03-1.16593E-13
 -1       944 1.03052E-02 1.74993E-03-1.22719E-13
 -1       945 1.05909E-02 1.82420E-03-1.28938E-13
 -1       946 1.08767E-02 1.89855E-03-1.35253E-13
 -1       947 1.11625E-02 1.97296E-03-1.41658E-13
 -1       948 1.14483E-02 2.04741E-03-1.48148E-13
 -1       949 1.17341E-02 2.12189E-03-1.54712E-13
 -1       950 1.20199E-02 2.19639E-03-1.61349E-13
 -1       951 1.23057E-02 2.27090E-03-1.68051E-13
 -1       952 1.25914E-02 2.34542E-03-1.74814E-13
 -1       953 1.28772E-02 2.41995E-03-1.81645E-13
 -1       954 1.31629E-02 2.49447E-03-1.88538E-13
 -1       955 1.35362E-02 2.80010E-03-1.91125E-13
 -1       956 4.83366E-03 4.54485E-04-2.36917E-14
 -1       957 7.23690E-03 1.24088E-03-5.54036E-14
 -1       958 6.96152E-03 1.16228E-03-5.07627E-14
 -1       959 7.79523E-03 1.39818E-03-6.51185E-14
 -1       960 8.07700E-03 1.47635E-03-7.01848E-14
 -1       961 8.35993E-03 1.55405E-03-7.53930E-14
 -1       962 8.64371E-03 1.63125E-03-8.07321E-14
 -1       963 8.92812E-03 1.70798E-03-8.61912E-14
 -1       964 9.21299E-03 1.78428E-03-9.17619E-14
 -1       965 9.49818E-03 1.86019E-03-9.74443E-14
 -1       966 9.78359E-03 1.93579E-03-1.03233E-13
 -1       967 1.00692E-02 2.01112E-03-1.09122E-13
 -1       968 1.03548E-02 2.08624E-03-1.15113E-13
 -1       969 1.06406E-02 2.16120E-03-1.21206E-13
 -1       970 1.09263E-02 2.23602E-03-1.27390E-13
 -1       971 1.12121E-02 2.31075E-03-1.33657E-13
 -1       972 1.14979E-02 2.38541E-03-1.40008E-13
 -1       973 1.17837E-02 2.46001E-03-1.46442E-13
 -1       974 1.20695E-02 2.53457E-03-1.52959E-13
 -1       975 1.23552E-02 2.60911E-03-1.59549E-13
 -1       976 1.26410E-02 2.68363E-03-1.66212E-13
 -1       977 1.29268E-02 2.75815E-03-1.72938E-13
 -1       978 1.32125E-02 2.83265E-03-1.79724E-13
 -1       979 1.34983E-02 2.90716E-03-1.86552E-13
 -1       980 6.16159E-03 9.33208E-04-3.77698E-14
 -1       981 6.42263E-03 1.00765E-03-4.19393E-14
 -1       982 4.46755E-03 3.04812E-04-2.13301E-14
 -1       983 5.10246E-03 5.68322E-04-2.46320E-14
 -1       984 6.68973E-03 1.08430E-03-4.62728E-14
 -1       985 5.24486E-03 6.32020E-04-2.45284E-14
 -1       986 5.27560E-03 7.04863E-04-2.37260E-14
 -1       987 7.51503E-03 1.31962E-03-6.01921E-14
 -1       988 1.36117E-02 2.87578E-03-1.91192E-13
 -1       989 1.34636E-02 2.71649E-03-1.91388E-13
 -1       990 5.49978E-03 7.62907E-04-2.72456E-14
 -1       991 5.36477E-03 6.79659E-04-2.56928E-14
 -1       992 5.90838E-03 8.62003E-04-3.37703E-14
 -1       993 5.21065E-03 5.27172E-04-2.89528E-14
 -1       994 5.47942E-03 5.87149E-04-3.27198E-14
 -1       995 5.74703E-03 6.48536E-04-3.66643E-14
 -1       996 6.01553E-03 7.11983E-04-4.07808E-14
 -1       997 6.28581E-03 7.77411E-04-4.50608E-14
 -1       998 6.55826E-03 8.44582E-04-4.95001E-14
 -1       999 6.83292E-03 9.13208E-04-5.40944E-14
 -1      1000 7.10967E-03 9.83027E-04-5.88417E-14
 -1      1001 7.38829E-03 1.05381E-03-6.37381E-14
 -1      1002 7.66852E-03 1.12537E-03-6.87704E-14
 -1      1003 7.95009E-03 1.19756E-03-7.39343E-14
 -1      1004 8.23275E-03 1.27025E-03-7.92265E-14
 -1      1005 8.51627E-03 1.34335E-03-8.46449E-14
 -1      1006 8.80046E-03 1.41677E-03-9.01872E-14
 -1      1007 9.08516E-03 1.49044E-03-9.58489E-14
 -1      1008 9.37023E-03 1.56432E-03-1.01620E-13
 -1      1009 9.65556E-03 1.63836E-03-1.07494E-13
 -1      1010 9.94108E-03 1.71253E-03-1.13470E-13
 -1      1011 1.02267E-02 1.78679E-03-1.19543E-13
 -1      1012 1.05125E-02 1.86113E-03-1.25707E-13
 -1      1013 1.07982E-02 1.93552E-03-1.31969E-13
 -1      1014 1.10840E-02 2.00995E-03-1.38320E-13
 -1      1015 1.13698E-02 2.08442E-03-1.44759E-13
 -1      1016 1.16556E-02 2.15890E-03-1.51279E-13
 -1      1017 1.19415E-02 2.23340E-03-1.57870E-13
 -1      1018 1.22272E-02 2.30791E-03-1.64530E-13
 -1      1019 1.25130E-02 2.38243E-03-1.71247E-13
 -1      1020 1.27988E-02 2.45695E-03-1.78037E-13
 -1      1021 1.30846E-02 2.53147E-03-1.84892E-13
 -1      1022 5.15614E-03 5.43957E-04-2.71285E-14
 -1      1023 8.15608E-03 1.44510E-03-7.29569E-14
 -1      1024 7.87469E-03 1.36838E-03-6.78175E-14
 -1      1025 8.72228E-03 1.59775E-03-8.36323E-14
 -1      1026 9.00654E-03 1.67364E-03-8.91488E-14
 -1      1027 9.29130E-03 1.74927E-03-9.47776E-14
 -1      1028 9.57642E-03 1.82466E-03-1.00516E-13
 -1      1029 9.86180E-03 1.89985E-03-1.06357E-13
 -1      1030 1.01474E-02 1.97487E-03-1.12298E-13
 -1      1031 1.04330E-02 2.04976E-03-1.18346E-13
 -1      1032 1.07188E-02 2.12454E-03-1.24488E-13
 -1      1033 1.10045E-02 2.19924E-03-1.30716E-13
 -1      1034 1.12903E-02 2.27388E-03-1.37030E-13
 -1      1035 1.15761E-02 2.34848E-03-1.43428E-13
 -1      1036 1.18619E-02 2.42304E-03-1.49911E-13
 -1      1037 1.21477E-02 2.49759E-03-1.56469E-13
 -1      1038 1.24335E-02 2.57211E-03-1.63099E-13
 -1      1039 1.27193E-02 2.64663E-03-1.69798E-13
 -1      1040 1.30051E-02 2.72114E-03-1.76553E-13
 -1      1041 1.32908E-02 2.79565E-03-1.83370E-13
 -1      1042 7.31737E-03 1.21465E-03-5.79526E-14
 -1      1043 8.43871E-03 1.52157E-03-7.82324E-14
 -1      1044 5.70145E-03 8.10891E-04-3.04426E-14
 -1      1045 6.50486E-03 9.87824E-04-4.42543E-14
 -1      1046 5.35613E-03 6.41321E-04-2.73977E-14
 -1      1047 7.04258E-03 1.13811E-03-5.32359E-14
 -1      1048 6.77140E-03 1.06230E-03-4.86686E-14
 -1      1049 7.59495E-03 1.29151E-03-6.28162E-14
 -1      1050 1.33795E-02 2.63517E-03-1.91196E-13
 -1      1051 5.43728E-03 7.19255E-04-2.64715E-14
 -1      1052 6.24426E-03 9.15463E-04-3.99992E-14
 -1      1053 1.32524E-02 2.69377E-03-1.85289E-13
 -1      1054 5.99121E-03 8.46007E-04-3.59110E-14
 -1      1055 5.49742E-03 6.95486E-04-2.86281E-14
 -1      1056 1.32716E-02 2.74471E-03-1.84329E-13
 -1      1057 5.70602E-03 6.80124E-04-3.46239E-14
 -1      1058 5.96523E-03 7.41692E-04-3.86534E-14
 -1      1059 6.22844E-03 8.06355E-04-4.28509E-14
 -1      1060 6.49562E-03 8.73587E-04-4.72079E-14
 -1      1061 6.76628E-03 9.42775E-04-5.17211E-14
 -1      1062 7.03999E-03 1.01343E-03-5.63888E-14
 -1      1063 7.31629E-03 1.08517E-03-6.12078E-14
 -1      1064 7.59477E-03 1.15770E-03-6.61686E-14
 -1      1065 7.87502E-03 1.23079E-03-7.12622E-14
 -1      1066 8.15669E-03 1.30428E-03-7.64874E-14
 -1      1067 8.43948E-03 1.37805E-03-8.18396E-14
 -1      1068 8.72314E-03 1.45204E-03-8.73170E-14
 -1      1069 9.00745E-03 1.52617E-03-9.29134E-14
 -1      1070 9.29225E-03 1.60041E-03-9.86243E-14
 -1      1071 9.57740E-03 1.67472E-03-1.04438E-13
 -1      1072 9.86281E-03 1.74909E-03-1.10355E-13
 -1      1073 1.01484E-02 1.82351E-03-1.16375E-13
 -1      1074 1.04341E-02 1.89795E-03-1.22486E-13
 -1      1075 1.07198E-02 1.97242E-03-1.28693E-13
 -1      1076 1.10056E-02 2.04690E-03-1.34995E-13
 -1      1077 1.12914E-02 2.12140E-03-1.41379E-13
 -1      1078 1.15772E-02 2.19590E-03-1.47851E-13
 -1      1079 1.18630E-02 2.27041E-03-1.54404E-13
 -1      1080 1.21488E-02 2.34492E-03-1.61019E-13
 -1      1081 1.24346E-02 2.41944E-03-1.67700E-13
 -1      1082 1.27204E-02 2.49395E-03-1.74442E-13
 -1      1083 1.30062E-02 2.56847E-03-1.81257E-13
 -1      1084 5.46533E-03 6.38000E-04-3.04495E-14
 -1      1085 9.08465E-03 1.63890E-03-9.21103E-14
 -1      1086 8.80034E-03 1.56374E-03-8.65352E-14
 -1      1087 9.65461E-03 1.78887E-03-1.03592E-13
 -1      1088 9.94001E-03 1.86370E-03-1.09488E-13
 -1      1089 1.02256E-02 1.93846E-03-1.15487E-13
 -1      1090 1.05113E-02 2.01315E-03-1.21585E-13
 -1      1091 1.07970E-02 2.08779E-03-1.27773E-13
 -1      1092 1.10828E-02 2.16240E-03-1.34051E-13
 -1      1093 1.13686E-02 2.23697E-03-1.40414E-13
 -1      1094 1.16544E-02 2.31152E-03-1.46864E-13
 -1      1095 1.19402E-02 2.38606E-03-1.53394E-13
 -1      1096 1.22260E-02 2.46058E-03-1.59994E-13
 -1      1097 1.25118E-02 2.53510E-03-1.66658E-13
 -1      1098 1.27976E-02 2.60962E-03-1.73387E-13
 -1      1099 1.30346E-02 2.67716E-03-1.78839E-13
 -1      1100 6.31588E-03 8.95507E-04-4.22434E-14
 -1      1101 7.11910E-03 1.11246E-03-5.57176E-14
 -1      1102 6.57885E-03 9.66036E-04-4.65812E-14
 -1      1103 9.36945E-03 1.71394E-03-9.77987E-14
 -1      1104 6.84694E-03 1.03858E-03-5.10744E-14
 -1      1105 7.95244E-03 1.33768E-03-7.05268E-14
 -1      1106 1.29960E-02 2.61933E-03-1.79379E-13
 -1      1107 5.62184E-03 6.99809E-04-3.17507E-14
 -1      1108 7.39450E-03 1.18716E-03-6.05146E-14
 -1      1109 6.05944E-03 8.27924E-04-3.80682E-14
 -1      1110 5.62619E-03 7.64872E-04-2.96296E-14
 -1      1111 8.51670E-03 1.48847E-03-8.10743E-14
 -1      1112 8.23397E-03 1.41310E-03-7.57336E-14
 -1      1113 5.74866E-03 7.80931E-04-3.19982E-14
 -1      1114 7.67246E-03 1.26232E-03-6.54515E-14
 -1      1115 5.56656E-03 7.29759E-04-2.91324E-14
 -1      1116 5.91404E-03 7.66905E-04-3.65373E-14
 -1      1117 0.00000E+00 0.00000E+00 0.00000E+00
 -1      1118 0.00000E+00 0.00000E+00 0.00000E+00
 -1      1119 0.00000E+00 0.00000E+00 0.00000E+00
 -1      1120 0.00000E+00 0.00000E+00 0.00000E+00
 -1      1121 0.00000E+00 0.00000E+00 0.00000E+00
 -1      1122 0.00000E+00 0.00000E+00 0.00000E+00
 -1      1123 0.00000E+00 0.00000E+00 0.00000E+00
 -1      1124 0.00000E+00 0.00000E+00 0.00000E+00
 -1      1125 0.00000E+00 0.00000E+00 0.00000E+00
 -1      1126 0.00000E+00 0.00000E+00 0.00000E+00
 -1      1127 0.00000E+00 0.00000E+00 0.00000E+00
 -1      1128 0.00000E+00 0.00000E+00 0.00000E+00
 -1      1129 0.00000E+00 0.00000E+00 0.00000E+00
 -1      1130 0.00000E+00 0.00000E+00 0.00000E+00
 -1      1131 0.00000E+00 0.00000E+00 0.00000E+00
 -1      1132 0.00000E+00 0.00000E+00 0.00000E+00
 -1      1133 0.00000E+00 0.00000E+00 0.00000E+00
 -1      1134 2.43867E-04-1.69219E-04 2.18738E-17
 -1      1135 6.37084E-04-3.91193E-04-1.08474E-16
 -1      1136 9.60711E-04-5.46579E-04-4.93095E-16
 -1      1137 1.26198E-03-6.64986E-04-1.17759E-15
 -1      1138 1.54541E-03-7.57877E-04-2.14840E-15
 -1      1139 1.81254E-03-8.24716E-04-3.40339E-15
 -1      1140 2.06647E-03-8.59978E-04-4.94026E-15
 -1      1141 2.31304E-03-8.58322E-04-6.75687E-15
 -1      1142 2.56004E-03-8.18357E-04-8.84979E-15
 -1      1143 2.81518E-03-7.44289E-04-1.12096E-14
 -1      1144 3.08381E-03-6.45037E-04-1.38255E-14
 -1      1145 3.36765E-03-5.31583E-04-1.66856E-14
 -1      1146 3.66511E-03-4.14059E-04-1.97754E-14
 -1      1147 3.97250E-03-2.99855E-04-2.30844E-14
 -1      1148 4.28550E-03-1.93111E-04-2.66007E-14
 -1      1149 4.60025E-03-9.52157E-05-3.03172E-14
 -1      1150 4.91387E-03-5.72633E-06-3.42220E-14
 -1      1151 5.22457E-03 7.67548E-05-3.83069E-14
 -1      1152 5.53149E-03 1.53935E-04-4.25632E-14
 -1      1153 5.83442E-03 2.27448E-04-4.69818E-14
 -1      1154 6.13358E-03 2.98665E-04-5.15607E-14
 -1      1155 6.42943E-03 3.68648E-04-5.62947E-14
 -1      1156 6.72252E-03 4.38156E-04-6.11794E-14
 -1      1157 7.01340E-03 5.07699E-04-6.62109E-14
 -1      1158 7.30256E-03 5.77590E-04-7.13840E-14
 -1      1159 7.59044E-03 6.47996E-04-7.66973E-14
 -1      1160 7.87738E-03 7.18985E-04-8.21419E-14
 -1      1161 8.16368E-03 7.90558E-04-8.77087E-14
 -1      1162 8.44955E-03 8.62678E-04-9.34014E-14
 -1      1163 8.73513E-03 9.35286E-04-9.92084E-14
 -1      1164 9.02056E-03 1.00831E-03-1.05126E-13
 -1      1165 9.30592E-03 1.08169E-03-1.11153E-13
 -1      1166 9.59125E-03 1.15535E-03-1.17283E-13
 -1      1167 9.87658E-03 1.22924E-03-1.23514E-13
 -1      1168 1.01620E-02 1.30331E-03-1.29841E-13
 -1      1169 1.04474E-02 1.37751E-03-1.36263E-13
 -1      1170 1.07328E-02 1.45181E-03-1.42764E-13
 -1      1171 1.10183E-02 1.52620E-03-1.49345E-13
 -1      1172 1.13039E-02 1.60063E-03-1.56003E-13
 -1      1173 1.15894E-02 1.67510E-03-1.62727E-13
 -1      1174 1.18750E-02 1.74960E-03-1.69527E-13
 -1      1175 1.21607E-02 1.82412E-03-1.76403E-13
 -1      1176 1.24463E-02 1.89864E-03-1.83336E-13
 -1      1177 1.27320E-02 1.97317E-03-1.90311E-13
 -1      1178 1.30177E-02 2.04770E-03-1.97327E-13
 -1      1179 1.33034E-02 2.12223E-03-2.04378E-13
 -1      1180 1.35891E-02 2.19675E-03-2.11463E-13
 -1      1181 1.38748E-02 2.27127E-03-2.18561E-13
 -1      1182 1.41605E-02 2.34579E-03-2.25662E-13
 -1      1183 1.44391E-02 2.41844E-03-2.32610E-13
 -1      1184 2.97539E-04 1.78669E-04 4.62412E-17
 -1      1185 7.63375E-04 3.79346E-04-1.87296E-17
 -1      1186 1.19709E-03 5.60069E-04-3.03211E-16
 -1      1187 1.62019E-03 7.59610E-04-8.43862E-16
 -1      1188 2.02057E-03 9.89086E-04-1.64883E-15
 -1      1189 2.38036E-03 1.23123E-03-2.73022E-15
 -1      1190 2.68866E-03 1.44197E-03-4.10421E-15
 -1      1191 2.95678E-03 1.56861E-03-5.77618E-15
 -1      1192 3.21927E-03 1.58413E-03-7.75856E-15
 -1      1193 3.51278E-03 1.50879E-03-1.00376E-14
 -1      1194 3.85264E-03 1.39495E-03-1.25979E-14
 -1      1195 4.22957E-03 1.29266E-03-1.54148E-14
 -1      1196 4.62320E-03 1.22887E-03-1.84651E-14
 -1      1197 5.01534E-03 1.20850E-03-2.17319E-14
 -1      1198 5.39514E-03 1.22479E-03-2.52065E-14
 -1      1199 5.75841E-03 1.26768E-03-2.88832E-14
 -1      1200 6.10513E-03 1.32814E-03-3.27493E-14
 -1      1201 6.43729E-03 1.39940E-03-3.67886E-14
 -1      1202 6.75748E-03 1.47682E-03-4.09895E-14
 -1      1203 7.06827E-03 1.55742E-03-4.53488E-14
 -1      1204 7.37187E-03 1.63934E-03-4.98643E-14
 -1      1205 7.67008E-03 1.72147E-03-5.45262E-14
 -1      1206 7.96433E-03 1.80320E-03-5.93373E-14
 -1      1207 8.25569E-03 1.88421E-03-6.42988E-14
 -1      1208 8.54500E-03 1.96436E-03-6.94020E-14
 -1      1209 8.83286E-03 2.04364E-03-7.46342E-14
 -1      1210 9.11973E-03 2.12209E-03-7.99859E-14
 -1      1211 9.40593E-03 2.19979E-03-8.54605E-14
 -1      1212 9.69171E-03 2.27685E-03-9.10573E-14
 -1      1213 9.97723E-03 2.35336E-03-9.67707E-14
 -1      1214 1.02626E-02 2.42941E-03-1.02596E-13
 -1      1215 1.05479E-02 2.50509E-03-1.08523E-13
 -1      1216 1.08332E-02 2.58047E-03-1.14543E-13
 -1      1217 1.11185E-02 2.65562E-03-1.20656E-13
 -1      1218 1.14039E-02 2.73058E-03-1.26875E-13
 -1      1219 1.16893E-02 2.80541E-03-1.33185E-13
 -1      1220 1.19748E-02 2.88014E-03-1.39574E-13
 -1      1221 1.22602E-02 2.95478E-03-1.46046E-13
 -1      1222 1.25458E-02 3.02938E-03-1.52597E-13
 -1      1223 1.28314E-02 3.10394E-03-1.59216E-13
 -1      1224 1.31170E-02 3.17847E-03-1.65875E-13
 -1      1225 1.34026E-02 3.25299E-03-1.72576E-13
 -1      1226 1.36882E-02 3.32749E-03-1.79311E-13
 -1      1227 1.39739E-02 3.40200E-03-1.86077E-13
 -1      1228 1.42596E-02 3.47650E-03-1.92870E-13
 -1      1229 1.45453E-02 3.55100E-03-1.99712E-13
 -1      1230 1.48310E-02 3.62551E-03-2.06586E-13
 -1      1231 1.51167E-02 3.70002E-03-2.13485E-13
 -1      1232 1.54024E-02 3.77453E-03-2.20420E-13
 -1      1233 1.56810E-02 3.84719E-03-2.27184E-13
 -1      1234 1.57801E-02 3.84044E-03-2.30669E-13
 -1      1235 1.57068E-02 3.75616E-03-2.31090E-13
 -1      1236 1.56335E-02 3.67187E-03-2.31522E-13
 -1      1237 1.55602E-02 3.58758E-03-2.31948E-13
 -1      1238 1.54869E-02 3.50329E-03-2.32374E-13
 -1      1239 1.54143E-02 3.41970E-03-2.32789E-13
 -1      1240 1.53416E-02 3.33611E-03-2.33181E-13
 -1      1241 1.52683E-02 3.25181E-03-2.33537E-13
 -1      1242 1.51950E-02 3.16750E-03-2.33879E-13
 -1      1243 1.51218E-02 3.08319E-03-2.34166E-13
 -1      1244 1.50485E-02 2.99888E-03-2.34428E-13
 -1      1245 1.49759E-02 2.91529E-03-2.34710E-13
 -1      1246 1.49032E-02 2.83170E-03-2.34988E-13
 -1      1247 1.48300E-02 2.74741E-03-2.35244E-13
 -1      1248 1.47567E-02 2.66312E-03-2.35483E-13
 -1      1249 1.46834E-02 2.57883E-03-2.35705E-13
 -1      1250 1.46108E-02 2.49526E-03-2.35909E-13
 -1      1251 4.89306E-03 5.53700E-04-1.20925E-14
 -1      1252 4.80334E-03 6.95370E-04-1.17681E-14
 -1      1253 4.61090E-03 8.34976E-04-1.12166E-14
 -1      1254 4.33339E-03 9.72089E-04-1.04890E-14
 -1      1255 3.97104E-03 1.10365E-03-9.57790E-15
 -1      1256 3.53811E-03 1.20871E-03-8.53771E-15
 -1      1257 3.07402E-03 1.25694E-03-7.47568E-15
 -1      1258 2.60314E-03 1.23284E-03-6.45407E-15
 -1      1259 2.13846E-03 1.14072E-03-5.51599E-15
 -1      1260 1.71229E-03 1.00092E-03-4.72048E-15
 -1      1261 1.31883E-03 8.33405E-04-4.04180E-15
 -1      1262 9.75236E-04 6.58340E-04-3.49071E-15
 -1      1263 7.13958E-04 4.99179E-04-3.09627E-15
 -1      1264 5.48881E-04 3.65256E-04-2.86298E-15
 -1      1265 4.79386E-04 2.47649E-04-2.78265E-15
 -1      1266 5.10845E-04 1.42159E-04-2.86633E-15
 -1      1267 6.48960E-04 3.59882E-05-3.12889E-15
 -1      1268 8.80324E-04-7.24585E-05-3.56545E-15
 -1      1269 1.16775E-03-1.74783E-04-4.12458E-15
 -1      1270 1.50839E-03-2.69633E-04-4.81971E-15
 -1      1271 1.90073E-03-3.44928E-04-5.66371E-15
 -1      1272 2.33650E-03-3.85798E-04-6.64735E-15
 -1      1273 2.75835E-03-3.77490E-04-7.62923E-15
 -1      1274 3.15945E-03-3.23693E-04-8.57300E-15
 -1      1275 3.54985E-03-2.33115E-04-9.48465E-15
 -1      1276 3.91189E-03-1.18010E-04-1.03040E-14
 -1      1277 4.24532E-03 1.42003E-05-1.10210E-14
 -1      1278 4.52991E-03 1.53110E-04-1.15922E-14
 -1      1279 4.74556E-03 2.92071E-04-1.19817E-14
 -1      1280 4.86913E-03 4.23093E-04-1.21480E-14
 -1      1281 1.91265E-04-1.25181E-04-1.71439E-17
 -1      1282 1.27275E-04-6.30465E-05-5.97395E-17
 -1      1283 1.33767E-04-7.57617E-05-4.79082E-17
 -1      1284 1.21452E-04-4.48865E-05-7.82116E-17
 -1      1285 1.24160E-04-5.34346E-05-7.28042E-17
 -1      1286 2.55999E-04-1.19504E-04-1.73527E-16
 -1      1287 1.17932E-04-2.82234E-05-8.68175E-17
 -1      1288 1.19936E-04-3.64130E-05-8.44051E-17
 -1      1289 2.46139E-04-8.43755E-05-2.04901E-16
 -1      1290 1.13594E-04-1.09774E-05-9.09104E-17
 -1      1291 1.16112E-04-1.93869E-05-8.99617E-17
 -1      1292 2.39029E-04-5.12759E-05-2.20229E-16
 -1      1293 1.07094E-04 6.11653E-06-9.17506E-17
 -1      1294 1.10780E-04-1.95953E-06-9.16286E-17
 -1      1295 2.29608E-04-1.78740E-05-2.26232E-16
 -1      1296 9.74780E-05 2.12935E-05-9.13711E-17
 -1      1297 1.02691E-04 1.45021E-05-9.13847E-17
 -1      1298 2.14618E-04 1.46356E-05-2.26693E-16
 -1      1299 8.55335E-05 3.06168E-05-8.99075E-17
 -1      1300 9.16343E-05 2.69324E-05-8.99346E-17
 -1      1301 1.92567E-04 4.16727E-05-2.23942E-16
 -1      1302 7.39661E-05 3.09298E-05-8.81456E-17
 -1      1303 7.93681E-05 3.15157E-05-8.82134E-17
 -1      1304 1.65874E-04 5.63167E-05-2.19564E-16
 -1      1305 6.69400E-05 2.21837E-05-8.60314E-17
 -1      1306 6.95213E-05 2.65019E-05-8.62618E-17
 -1      1307 1.41602E-04 5.39704E-05-2.14503E-16
 -1      1308 6.80194E-05 8.91055E-06-8.34294E-17
 -1      1309 6.62957E-05 1.43772E-05-8.41409E-17
 -1      1310 1.29536E-04 3.67708E-05-2.09061E-16
 -1      1311 7.76087E-05-1.46743E-06-7.97702E-17
 -1      1312 7.18519E-05 1.81170E-06-8.10712E-17
 -1      1313 1.36470E-04 1.51542E-05-2.02509E-16
 -1      1314 9.35268E-05-3.59744E-06-7.44576E-17
 -1      1315 8.50143E-05-4.56185E-06-7.67344E-17
 -1      1316 1.61556E-04 2.00763E-06-1.93611E-16
 -1      1317 1.12088E-04 4.57068E-06-6.60957E-17
 -1      1318 1.02527E-04-1.05663E-06-6.98091E-17
 -1      1319 1.98008E-04 5.94819E-06-1.80384E-16
 -1      1320 1.31453E-04 2.24395E-05-5.20146E-17
 -1      1321 1.21375E-04 1.23798E-05-5.84927E-17
 -1      1322 2.38068E-04 2.87263E-05-1.59202E-16
 -1      1323 1.53417E-04 5.24824E-05-2.81622E-17
 -1      1324 1.41317E-04 3.57717E-05-4.00884E-17
 -1      1325 2.79604E-04 6.96470E-05-1.25225E-16
 -1      1326 2.11786E-04 1.13409E-04 1.08149E-17
 -1      1327 1.82433E-04 7.77070E-05-1.40675E-17
 -1      1328 3.41893E-04 1.33508E-04-8.32803E-17
 -1      1329 4.56185E-04 2.29084E-04-1.98680E-17
 -1      1330 4.84012E-04-3.01503E-04-1.29196E-16
 -1      1331 6.59310E-04-3.93112E-04-2.58948E-16
 -1      1332 8.26914E-04-4.71025E-04-4.66315E-16
 -1      1333 9.88459E-04-5.38564E-04-7.45348E-16
 -1      1334 6.98283E-04-3.90267E-04-4.30076E-16
 -1      1335 1.14447E-03-5.98786E-04-1.09354E-15
 -1      1336 1.29562E-03-6.52212E-04-1.51319E-15
 -1      1337 1.02859E-03-5.28463E-04-1.00363E-15
 -1      1338 1.44247E-03-6.99890E-04-2.00289E-15
 -1      1339 1.58538E-03-7.41165E-04-2.56365E-15
 -1      1340 1.33976E-03-6.37998E-04-1.85369E-15
 -1      1341 1.72476E-03-7.75736E-04-3.19420E-15
 -1      1342 1.86102E-03-8.02652E-04-3.89502E-15
 -1      1343 1.63563E-03-7.22565E-04-2.98255E-15
 -1      1344 1.99469E-03-8.21111E-04-4.66592E-15
 -1      1345 2.12639E-03-8.30348E-04-5.50662E-15
 -1      1346 1.91931E-03-7.77835E-04-4.38985E-15
 -1      1347 2.25686E-03-8.29813E-04-6.41681E-15
 -1      1348 2.38688E-03-8.19299E-04-7.39616E-15
 -1      1349 2.19467E-03-7.97117E-04-6.07568E-15
 -1      1350 2.51727E-03-7.98994E-04-8.44394E-15
 -1      1351 2.64879E-03-7.69407E-04-9.55846E-15
 -1      1352 2.46663E-03-7.76197E-04-8.03746E-15
 -1      1353 2.78211E-03-7.31544E-04-1.07389E-14
 -1      1354 2.91776E-03-6.86503E-04-1.19835E-14
 -1      1355 2.74050E-03-7.16487E-04-1.02682E-14
 -1      1356 3.05611E-03-6.35796E-04-1.32916E-14
 -1      1357 3.19732E-03-5.80781E-04-1.46618E-14
 -1      1358 3.02061E-03-6.25436E-04-1.27592E-14
 -1      1359 3.34140E-03-5.23001E-04-1.60907E-14
 -1      1360 3.48821E-03-4.63720E-04-1.75780E-14
 -1      1361 3.30919E-03-5.14299E-04-1.54975E-14
 -1      1362 3.63747E-03-4.04132E-04-1.91230E-14
 -1      1363 3.78884E-03-3.45182E-04-2.07225E-14
 -1      1364 3.60621E-03-3.94748E-04-1.84713E-14
 -1      1365 3.94191E-03-2.87563E-04-2.23758E-14
 -1      1366 4.09627E-03-2.31838E-04-2.40816E-14
 -1      1367 3.90995E-03-2.76134E-04-2.16701E-14
 -1      1368 4.25150E-03-1.78242E-04-2.58389E-14
 -1      1369 4.40722E-03-1.27014E-04-2.76469E-14
 -1      1370 4.21789E-03-1.64290E-04-2.50791E-14
 -1      1371 4.56311E-03-7.80711E-05-2.95030E-14
 -1      1372 4.71886E-03-3.14275E-05-3.14069E-14
 -1      1373 4.52751E-03-6.17310E-05-2.86911E-14
 -1      1374 4.87424E-03 1.31619E-05-3.33581E-14
 -1      1375 5.02906E-03 5.58120E-05-3.53539E-14
 -1      1376 4.83674E-03 3.14317E-05-3.24960E-14
 -1      1377 5.18320E-03 9.68160E-05-3.73934E-14
 -1      1378 5.33656E-03 1.36344E-04-3.94767E-14
 -1      1379 5.14413E-03 1.16457E-04-3.64839E-14
 -1      1380 5.48908E-03 1.74668E-04-4.16030E-14
 -1      1381 5.64073E-03 2.11968E-04-4.37700E-14
 -1      1382 5.44884E-03 1.95157E-04-4.06457E-14
 -1      1383 5.79153E-03 2.48464E-04-4.59766E-14
 -1      1384 5.94147E-03 2.84317E-04-4.82228E-14
 -1      1385 5.75053E-03 2.69373E-04-4.49742E-14
 -1      1386 6.09062E-03 3.19691E-04-5.05095E-14
 -1      1387 6.23900E-03 3.54718E-04-5.28359E-14
 -1      1388 6.04921E-03 3.40707E-04-4.94630E-14
 -1      1389 6.38667E-03 3.89509E-04-5.52006E-14
 -1      1390 6.53369E-03 4.24166E-04-5.76023E-14
 -1      1391 6.34513E-03 4.10425E-04-5.41093E-14
 -1      1392 6.68012E-03 4.58756E-04-6.00427E-14
 -1      1393 6.82601E-03 4.93355E-04-6.25200E-14
 -1      1394 6.63864E-03 4.79448E-04-5.89096E-14
 -1      1395 6.97143E-03 5.27998E-04-6.50332E-14
 -1      1396 7.11642E-03 5.62736E-04-6.75819E-14
 -1      1397 6.93012E-03 5.48404E-04-6.38592E-14
 -1      1398 7.26104E-03 5.97583E-04-7.01659E-14
 -1      1399 7.40533E-03 6.32573E-04-7.27849E-14
 -1      1400 7.21997E-03 6.17687E-04-6.89516E-14
 -1      1401 7.54934E-03 6.67703E-04-7.54384E-14
 -1      1402 7.69311E-03 7.02994E-04-7.81245E-14
 -1      1403 7.50855E-03 6.87516E-04-7.41832E-14
 -1      1404 7.83668E-03 7.38438E-04-8.08429E-14
 -1      1405 7.98007E-03 7.74041E-04-8.35930E-14
 -1      1406 7.79615E-03 7.57985E-04-7.95492E-14
 -1      1407 8.12331E-03 8.09793E-04-8.63743E-14
 -1      1408 8.26643E-03 8.45694E-04-8.91861E-14
 -1      1409 8.08304E-03 8.29109E-04-8.50424E-14
 -1      1410 8.40946E-03 8.81732E-04-9.20285E-14
 -1      1411 8.55240E-03 9.17902E-04-9.49017E-14
 -1      1412 8.36941E-03 9.00853E-04-9.06612E-14
 -1      1413 8.69528E-03 9.54192E-04-9.78025E-14
 -1      1414 8.83811E-03 9.90596E-04-1.00729E-13
 -1      1415 8.65542E-03 9.73154E-04-9.63986E-14
 -1      1416 8.98089E-03 1.02710E-03-1.03686E-13
 -1      1417 9.12365E-03 1.06370E-03-1.06670E-13
 -1      1418 8.94120E-03 1.04594E-03-1.02250E-13
 -1      1419 9.26639E-03 1.10039E-03-1.09680E-13
 -1      1420 9.40911E-03 1.13715E-03-1.12714E-13
 -1      1421 9.22683E-03 1.11912E-03-1.08209E-13
 -1      1422 9.55183E-03 1.17398E-03-1.15773E-13
 -1      1423 9.69454E-03 1.21087E-03-1.18859E-13
 -1      1424 9.51237E-03 1.19264E-03-1.14270E-13
 -1      1425 9.83725E-03 1.24782E-03-1.21972E-13
 -1      1426 9.97997E-03 1.28481E-03-1.25108E-13
 -1      1427 9.79788E-03 1.26642E-03-1.20434E-13
 -1      1428 1.01227E-02 1.32185E-03-1.28269E-13
 -1      1429 1.02654E-02 1.35892E-03-1.31452E-13
 -1      1430 1.00834E-02 1.34041E-03-1.26700E-13
 -1      1431 1.04081E-02 1.39603E-03-1.34658E-13
 -1      1432 1.05509E-02 1.43316E-03-1.37885E-13
 -1      1433 1.03689E-02 1.41455E-03-1.33058E-13
 -1      1434 1.06936E-02 1.47031E-03-1.41133E-13
 -1      1435 1.08364E-02 1.50749E-03-1.44401E-13
 -1      1436 1.06544E-02 1.48882E-03-1.39505E-13
 -1      1437 1.09791E-02 1.54468E-03-1.47687E-13
 -1      1438 1.11219E-02 1.58189E-03-1.50996E-13
 -1      1439 1.09399E-02 1.56318E-03-1.46034E-13
 -1      1440 1.12647E-02 1.61911E-03-1.54318E-13
 -1      1441 1.14075E-02 1.65634E-03-1.57659E-13
 -1      1442 1.12255E-02 1.63760E-03-1.52639E-13
 -1      1443 1.15503E-02 1.69358E-03-1.61021E-13
 -1      1444 1.16931E-02 1.73083E-03-1.64399E-13
 -1      1445 1.15111E-02 1.71206E-03-1.59315E-13
 -1      1446 1.18359E-02 1.76808E-03-1.67794E-13
 -1      1447 1.19787E-02 1.80533E-03-1.71209E-13
 -1      1448 1.17967E-02 1.78655E-03-1.66065E-13
 -1      1449 1.21215E-02 1.84259E-03-1.74642E-13
 -1      1450 1.22643E-02 1.87985E-03-1.78088E-13
 -1      1451 1.20824E-02 1.86107E-03-1.72887E-13
 -1      1452 1.24072E-02 1.91712E-03-1.81549E-13
 -1      1453 1.25500E-02 1.95438E-03-1.85024E-13
 -1      1454 1.23680E-02 1.93559E-03-1.79770E-13
 -1      1455 1.26928E-02 1.99165E-03-1.88508E-13
 -1      1456 1.28357E-02 2.02891E-03-1.91998E-13
 -1      1457 1.26537E-02 2.01012E-03-1.86704E-13
 -1      1458 1.29785E-02 2.06618E-03-1.95501E-13
 -1      1459 1.31214E-02 2.10344E-03-1.99017E-13
 -1      1460 1.29394E-02 2.08466E-03-1.93684E-13
 -1      1461 1.32642E-02 2.14071E-03-2.02542E-13
 -1      1462 1.34071E-02 2.17797E-03-2.06071E-13
 -1      1463 1.32251E-02 2.15919E-03-2.00707E-13
 -1      1464 1.35499E-02 2.21524E-03-2.09609E-13
 -1      1465 1.36928E-02 2.25250E-03-2.13155E-13
 -1      1466 1.35108E-02 2.23372E-03-2.07764E-13
 -1      1467 1.38356E-02 2.28976E-03-2.16704E-13
 -1      1468 1.39785E-02 2.32702E-03-2.20251E-13
 -1      1469 1.37965E-02 2.30824E-03-2.14846E-13
 -1      1470 1.41213E-02 2.36428E-03-2.23802E-13
 -1      1471 1.42642E-02 2.40153E-03-2.27358E-13
 -1      1472 1.40822E-02 2.38276E-03-2.21941E-13
 -1      1473 1.44751E-02 2.45987E-03-2.32515E-13
 -1      1474 1.44359E-02 2.47835E-03-2.30645E-13
 -1      1475 8.98100E-04 4.14323E-04-1.90034E-16
 -1      1476 6.79928E-04 3.23832E-04-7.40375E-17
 -1      1477 6.08259E-04 2.70152E-04-1.20780E-16
 -1      1478 1.32176E-03 6.00335E-04-6.08088E-16
 -1      1479 1.11177E-03 5.04901E-04-3.68154E-16
 -1      1480 1.03109E-03 4.50041E-04-4.20982E-16
 -1      1481 1.72885E-03 8.15492E-04-1.27993E-15
 -1      1482 1.52769E-03 7.04227E-04-9.11177E-16
 -1      1483 1.44119E-03 6.48992E-04-9.67000E-16
 -1      1484 2.11135E-03 1.05876E-03-2.21818E-15
 -1      1485 1.92395E-03 9.35327E-04-1.71467E-15
 -1      1486 1.83632E-03 8.80952E-04-1.76875E-15
 -1      1487 2.45908E-03 1.29938E-03-3.44061E-15
 -1      1488 2.29001E-03 1.18261E-03-2.79261E-15
 -1      1489 2.20996E-03 1.13227E-03-2.84247E-15
 -1      1490 2.77112E-03 1.48304E-03-4.95807E-15
 -1      1491 2.61884E-03 1.40160E-03-4.16148E-15
 -1      1492 2.55609E-03 1.35870E-03-4.20535E-15
 -1      1493 3.06385E-03 1.56094E-03-6.78014E-15
 -1      1494 2.91805E-03 1.53619E-03-5.83110E-15
 -1      1495 2.87872E-03 1.50115E-03-5.87016E-15
 -1      1496 3.36447E-03 1.52640E-03-8.90863E-15
 -1      1497 3.21141E-03 1.55540E-03-7.80662E-15
 -1      1498 3.19525E-03 1.52454E-03-7.84235E-15
 -1      1499 3.69310E-03 1.42098E-03-1.13239E-14
 -1      1500 3.52472E-03 1.47863E-03-1.00809E-14
 -1      1501 3.52554E-03 1.44714E-03-1.01112E-14
 -1      1502 4.05190E-03 1.30329E-03-1.40098E-14
 -1      1503 3.86929E-03 1.36062E-03-1.26347E-14
 -1      1504 3.87766E-03 1.32590E-03-1.26610E-14
 -1      1505 4.42952E-03 1.21512E-03-1.69388E-14
 -1      1506 4.23934E-03 1.25428E-03-1.54446E-14
 -1      1507 4.24615E-03 1.21636E-03-1.54659E-14
 -1      1508 4.81153E-03 1.17179E-03-2.00938E-14
 -1      1509 4.62083E-03 1.18793E-03-1.84898E-14
 -1      1510 4.62011E-03 1.14799E-03-1.85055E-14
 -1      1511 5.18698E-03 1.17073E-03-2.34578E-14
 -1      1512 5.00060E-03 1.16662E-03-2.17498E-14
 -1      1513 4.99017E-03 1.12584E-03-2.17600E-14
 -1      1514 5.55001E-03 1.20214E-03-2.70244E-14
 -1      1515 5.37027E-03 1.18307E-03-2.52164E-14
 -1      1516 5.35061E-03 1.14233E-03-2.52178E-14
 -1      1517 5.89885E-03 1.25575E-03-3.07881E-14
 -1      1518 5.72623E-03 1.22673E-03-2.88829E-14
 -1      1519 5.69907E-03 1.18653E-03-2.88748E-14
 -1      1520 6.23416E-03 1.32333E-03-3.47292E-14
 -1      1521 6.06811E-03 1.28819E-03-3.27370E-14
 -1      1522 6.03543E-03 1.24875E-03-3.27176E-14
 -1      1523 6.55774E-03 1.39909E-03-3.88404E-14
 -1      1524 6.39728E-03 1.36045E-03-3.67647E-14
 -1      1525 6.36081E-03 1.32183E-03-3.67356E-14
 -1      1526 6.87171E-03 1.47922E-03-4.31138E-14
 -1      1527 6.71579E-03 1.43878E-03-4.09568E-14
 -1      1528 6.67685E-03 1.40093E-03-4.09195E-14
 -1      1529 7.17811E-03 1.56135E-03-4.75419E-14
 -1      1530 7.02573E-03 1.52014E-03-4.53083E-14
 -1      1531 6.98530E-03 1.48297E-03-4.52623E-14
 -1      1532 7.47868E-03 1.64404E-03-5.21244E-14
 -1      1533 7.32902E-03 1.60269E-03-4.98141E-14
 -1      1534 7.28773E-03 1.56608E-03-4.97604E-14
 -1      1535 7.77486E-03 1.72647E-03-5.68550E-14
 -1      1536 7.62723E-03 1.68532E-03-5.44719E-14
 -1      1537 7.58553E-03 1.64918E-03-5.44102E-14
 -1      1538 8.06777E-03 1.80820E-03-6.17333E-14
 -1      1539 7.92166E-03 1.76744E-03-5.92759E-14
 -1      1540 7.87982E-03 1.73167E-03-5.92095E-14
 -1      1541 8.35830E-03 1.88905E-03-6.67590E-14
 -1      1542 8.21328E-03 1.84874E-03-6.42281E-14
 -1      1543 8.17146E-03 1.81326E-03-6.41526E-14
 -1      1544 8.64711E-03 1.96896E-03-7.19193E-14
 -1      1545 8.50288E-03 1.92912E-03-6.93224E-14
 -1      1546 8.46118E-03 1.89386E-03-6.92375E-14
 -1      1547 8.93471E-03 2.04796E-03-7.72058E-14
 -1      1548 8.79104E-03 2.00857E-03-7.45467E-14
 -1      1549 8.74949E-03 1.97348E-03-7.44556E-14
 -1      1550 9.22147E-03 2.12614E-03-8.26149E-14
 -1      1551 9.07817E-03 2.08715E-03-7.98964E-14
 -1      1552 9.03681E-03 2.05218E-03-7.97995E-14
 -1      1553 9.50766E-03 2.20359E-03-8.81479E-14
 -1      1554 9.36462E-03 2.16495E-03-8.53655E-14
 -1      1555 9.32343E-03 2.13008E-03-8.52668E-14
 -1      1556 9.79348E-03 2.28041E-03-9.37977E-14
 -1      1557 9.65061E-03 2.24207E-03-9.09577E-14
 -1      1558 9.60957E-03 2.20727E-03-9.08533E-14
 -1      1559 1.00791E-02 2.35672E-03-9.95581E-14
 -1      1560 9.93630E-03 2.31862E-03-9.66649E-14
 -1      1561 9.89541E-03 2.28387E-03-9.65534E-14
 -1      1562 1.03645E-02 2.43260E-03-1.05427E-13
 -1      1563 1.02218E-02 2.39471E-03-1.02480E-13
 -1      1564 1.01811E-02 2.35999E-03-1.02361E-13
 -1      1565 1.06500E-02 2.50814E-03-1.11392E-13
 -1      1566 1.05073E-02 2.47041E-03-1.08398E-13
 -1      1567 1.04666E-02 2.43571E-03-1.08269E-13
 -1      1568 1.09353E-02 2.58340E-03-1.17455E-13
 -1      1569 1.07926E-02 2.54580E-03-1.14412E-13
 -1      1570 1.07521E-02 2.51112E-03-1.14278E-13
 -1      1571 1.12207E-02 2.65846E-03-1.23615E-13
 -1      1572 1.10780E-02 2.62095E-03-1.20522E-13
 -1      1573 1.10375E-02 2.58628E-03-1.20383E-13
 -1      1574 1.15062E-02 2.73335E-03-1.29872E-13
 -1      1575 1.13635E-02 2.69592E-03-1.26732E-13
 -1      1576 1.13230E-02 2.66126E-03-1.26586E-13
 -1      1577 1.17916E-02 2.80812E-03-1.36214E-13
 -1      1578 1.16489E-02 2.77075E-03-1.33033E-13
 -1      1579 1.16085E-02 2.73609E-03-1.32879E-13
 -1      1580 1.20771E-02 2.88281E-03-1.42640E-13
 -1      1581 1.19344E-02 2.84547E-03-1.39417E-13
 -1      1582 1.18940E-02 2.81081E-03-1.39255E-13
 -1      1583 1.23627E-02 2.95742E-03-1.49141E-13
 -1      1584 1.22199E-02 2.92012E-03-1.45882E-13
 -1      1585 1.21795E-02 2.88546E-03-1.45713E-13
 -1      1586 1.26482E-02 3.03200E-03-1.55722E-13
 -1      1587 1.25055E-02 2.99472E-03-1.52422E-13
 -1      1588 1.24651E-02 2.96005E-03-1.52247E-13
 -1      1589 1.29338E-02 3.10654E-03-1.62355E-13
 -1      1590 1.27910E-02 3.06927E-03-1.59033E-13
 -1      1591 1.27507E-02 3.03460E-03-1.58850E-13
 -1      1592 1.32195E-02 3.18106E-03-1.69038E-13
 -1      1593 1.30766E-02 3.14380E-03-1.65690E-13
 -1      1594 1.30363E-02 3.10913E-03-1.65505E-13
 -1      1595 1.35051E-02 3.25557E-03-1.75757E-13
 -1      1596 1.33623E-02 3.21832E-03-1.72392E-13
 -1      1597 1.33220E-02 3.18365E-03-1.72207E-13
 -1      1598 1.37908E-02 3.33007E-03-1.82514E-13
 -1      1599 1.36479E-02 3.29282E-03-1.79131E-13
 -1      1600 1.36076E-02 3.25815E-03-1.78951E-13
 -1      1601 1.40765E-02 3.40457E-03-1.89299E-13
 -1      1602 1.39336E-02 3.36732E-03-1.85903E-13
 -1      1603 1.38933E-02 3.33265E-03-1.85728E-13
 -1      1604 1.43621E-02 3.47907E-03-1.96122E-13
 -1      1605 1.42193E-02 3.44182E-03-1.92707E-13
 -1      1606 1.41790E-02 3.40715E-03-1.92537E-13
 -1      1607 1.46478E-02 3.55358E-03-2.02979E-13
 -1      1608 1.45050E-02 3.51632E-03-1.99546E-13
 -1      1609 1.44647E-02 3.48165E-03-1.99378E-13
 -1      1610 1.49335E-02 3.62808E-03-2.09867E-13
 -1      1611 1.47907E-02 3.59083E-03-2.06421E-13
 -1      1612 1.47504E-02 3.55615E-03-2.06254E-13
 -1      1613 1.52193E-02 3.70260E-03-2.16781E-13
 -1      1614 1.50764E-02 3.66534E-03-2.13320E-13
 -1      1615 1.50361E-02 3.63066E-03-2.13155E-13
 -1      1616 1.55050E-02 3.77711E-03-2.23716E-13
 -1      1617 1.53621E-02 3.73986E-03-2.20249E-13
 -1      1618 1.53218E-02 3.70518E-03-2.20080E-13
 -1      1619 1.56444E-02 3.80505E-03-2.27381E-13
 -1      1620 1.55648E-02 3.70282E-03-2.28191E-13
 -1      1621 1.56014E-02 3.74496E-03-2.27980E-13
 -1      1622 1.54915E-02 3.61853E-03-2.28615E-13
 -1      1623 1.55281E-02 3.66068E-03-2.28405E-13
 -1      1624 1.54227E-02 3.64948E-03-2.25289E-13
 -1      1625 1.54182E-02 3.53424E-03-2.29040E-13
 -1      1626 1.54548E-02 3.57639E-03-2.28827E-13
 -1      1627 1.53494E-02 3.56519E-03-2.25707E-13
 -1      1628 1.53449E-02 3.44994E-03-2.29448E-13
 -1      1629 1.53815E-02 3.49209E-03-2.29248E-13
 -1      1630 1.52761E-02 3.48090E-03-2.26119E-13
 -1      1631 1.52728E-02 3.36707E-03-2.29848E-13
 -1      1632 1.53089E-02 3.40851E-03-2.29649E-13
 -1      1633 1.52035E-02 3.39731E-03-2.26519E-13
 -1      1634 1.51996E-02 3.28277E-03-2.30221E-13
 -1      1635 1.52362E-02 3.32492E-03-2.30040E-13
 -1      1636 1.51308E-02 3.31373E-03-2.26902E-13
 -1      1637 1.51263E-02 3.19846E-03-2.30564E-13
 -1      1638 1.51629E-02 3.24061E-03-2.30394E-13
 -1      1639 1.50575E-02 3.22942E-03-2.27257E-13
 -1      1640 1.50530E-02 3.11415E-03-2.30891E-13
 -1      1641 1.50896E-02 3.15631E-03-2.30731E-13
 -1      1642 1.49842E-02 3.14512E-03-2.27591E-13
 -1      1643 1.49797E-02 3.02985E-03-2.31171E-13
 -1      1644 1.50164E-02 3.07200E-03-2.31039E-13
 -1      1645 1.49110E-02 3.06081E-03-2.27902E-13
 -1      1646 1.49065E-02 2.94554E-03-2.31446E-13
 -1      1647 1.49431E-02 2.98769E-03-2.31306E-13
 -1      1648 1.48377E-02 2.97651E-03-2.28186E-13
 -1      1649 1.48345E-02 2.86267E-03-2.31716E-13
 -1      1650 1.48705E-02 2.90410E-03-2.31581E-13
 -1      1651 1.47651E-02 2.89292E-03-2.28455E-13
 -1      1652 1.47612E-02 2.77837E-03-2.31980E-13
 -1      1653 1.47978E-02 2.82052E-03-2.31851E-13
 -1      1654 1.46924E-02 2.80933E-03-2.28719E-13
 -1      1655 1.46879E-02 2.69407E-03-2.32225E-13
 -1      1656 1.47246E-02 2.73622E-03-2.32106E-13
 -1      1657 1.46192E-02 2.72503E-03-2.28971E-13
 -1      1658 1.46147E-02 2.60978E-03-2.32455E-13
 -1      1659 1.46513E-02 2.65193E-03-2.32341E-13
 -1      1660 1.45459E-02 2.64074E-03-2.29205E-13
 -1      1661 1.45070E-02 2.52300E-03-2.31606E-13
 -1      1662 1.45436E-02 2.56514E-03-2.31503E-13
 -1      1663 1.44382E-02 2.55395E-03-2.28365E-13
 -1      1664 1.42961E-02 2.46466E-03-2.26454E-13
 -1      1665 4.89445E-03 5.59951E-04-1.26590E-14
 -1      1666 4.91307E-03 5.19112E-04-1.27562E-14
 -1      1667 4.74898E-03 6.60572E-04-1.22519E-14
 -1      1668 4.83355E-03 6.10873E-04-1.24944E-14
 -1      1669 4.50473E-03 7.91393E-04-1.15183E-14
 -1      1670 4.62746E-03 7.32001E-04-1.18405E-14
 -1      1671 4.17037E-03 9.39631E-04-1.06696E-14
 -1      1672 4.33335E-03 8.65681E-04-1.11002E-14
 -1      1673 3.78081E-03 1.10479E-03-9.60831E-15
 -1      1674 3.96530E-03 1.02875E-03-1.01099E-14
 -1      1675 3.36024E-03 1.24507E-03-8.41029E-15
 -1      1676 3.56036E-03 1.18677E-03-8.96451E-15
 -1      1677 2.94965E-03 1.30392E-03-7.26936E-15
 -1      1678 3.13502E-03 1.28858E-03-7.78224E-15
 -1      1679 2.54131E-03 1.26367E-03-6.17009E-15
 -1      1680 2.73002E-03 1.29767E-03-6.66844E-15
 -1      1681 2.13210E-03 1.12453E-03-5.21274E-15
 -1      1682 2.31688E-03 1.19735E-03-5.63183E-15
 -1      1683 1.74740E-03 9.29428E-04-4.39850E-15
 -1      1684 1.92646E-03 1.02293E-03-4.74347E-15
 -1      1685 1.33507E-03 7.21459E-04-3.74601E-15
 -1      1686 1.51815E-03 8.19931E-04-4.04032E-15
 -1      1687 9.69131E-04 5.36214E-04-3.23638E-15
 -1      1688 1.12788E-03 6.19059E-04-3.45764E-15
 -1      1689 6.91283E-04 3.93136E-04-2.88040E-15
 -1      1690 8.07904E-04 4.53242E-04-3.02559E-15
 -1      1691 5.21912E-04 2.95546E-04-2.68612E-15
 -1      1692 5.86067E-04 3.35370E-04-2.75687E-15
 -1      1693 4.64745E-04 2.21193E-04-2.62380E-15
 -1      1694 4.75683E-04 2.51103E-04-2.62310E-15
 -1      1695 5.30464E-04 1.57528E-04-2.76268E-15
 -1      1696 4.86569E-04 1.86227E-04-2.68880E-15
 -1      1697 7.31466E-04 8.51682E-05-3.03529E-15
 -1      1698 6.21168E-04 1.26565E-04-2.86252E-15
 -1      1699 1.00054E-03-3.20501E-05-3.54072E-15
 -1      1700 8.69761E-04 1.72567E-05-3.31440E-15
 -1      1701 1.32446E-03-1.54127E-04-4.14884E-15
 -1      1702 1.16847E-03-9.53127E-05-3.84634E-15
 -1      1703 1.67394E-03-2.78371E-04-4.89379E-15
 -1      1704 1.51131E-03-2.21655E-04-4.53335E-15
 -1      1705 2.06649E-03-3.87734E-04-5.80607E-15
 -1      1706 1.89150E-03-3.40536E-04-5.35056E-15
 -1      1707 2.44873E-03-4.36128E-04-6.89512E-15
 -1      1708 2.27271E-03-4.22118E-04-6.39094E-15
 -1      1709 2.80943E-03-4.07125E-04-7.93658E-15
 -1      1710 2.64847E-03-4.27197E-04-7.46926E-15
 -1      1711 3.16691E-03-3.17910E-04-8.98568E-15
 -1      1712 2.99931E-03-3.67506E-04-8.50554E-15
 -1      1713 3.53663E-03-1.83164E-04-9.96271E-15
 -1      1714 3.36899E-03-2.49460E-04-9.51900E-15
 -1      1715 3.89494E-03-2.84726E-05-1.08520E-14
 -1      1716 3.73070E-03-1.01344E-04-1.04585E-14
 -1      1717 4.24608E-03 1.29434E-04-1.16310E-14
 -1      1718 4.08570E-03 5.66108E-05-1.12880E-14
 -1      1719 4.54939E-03 2.68410E-04-1.22319E-14
 -1      1720 4.41739E-03 2.07674E-04-1.19830E-14
 -1      1721 4.77991E-03 3.91175E-04-1.27049E-14
 -1      1722 4.68236E-03 3.42168E-04-1.25524E-14
 -1      1723 4.89749E-03 4.73159E-04-1.27555E-14
 -1      1724 4.85893E-03 4.35800E-04-1.27287E-14
 -1      1725 4.01277E-03 9.50682E-04-1.07191E-14
 -1      1726 4.37874E-03 7.82709E-04-1.17281E-14
 -1      1727 1.56040E-02 3.77037E-03-2.27213E-13
 -1      1728 1.54620E-02 3.71703E-03-2.24311E-13
 -1      1729 4.86759E-03 5.64403E-04-1.31812E-14
 -1      1730 4.67572E-03 6.51049E-04-1.25823E-14
 -1      1731 4.91487E-03 5.06502E-04-1.33559E-14
 -1      1732 3.61560E-03 1.13812E-03-9.48647E-15
 -1      1733 3.21811E-03 1.28254E-03-8.19649E-15
 -1      1734 2.83834E-03 1.32944E-03-6.96250E-15
 -1      1735 2.47424E-03 1.25248E-03-5.83477E-15
 -1      1736 2.09726E-03 1.07117E-03-4.85023E-15
 -1      1737 1.70712E-03 8.41243E-04-4.06089E-15
 -1      1738 1.29206E-03 6.17756E-04-3.44978E-15
 -1      1739 9.24879E-04 4.36833E-04-2.98146E-15
 -1      1740 6.52203E-04 3.16679E-04-2.67058E-15
 -1      1741 4.94568E-04 2.45596E-04-2.49546E-15
 -1      1742 4.68810E-04 2.08915E-04-2.49751E-15
 -1      1743 5.83198E-04 1.69263E-04-2.65005E-15
 -1      1744 8.18874E-04 9.84143E-05-2.99599E-15
 -1      1745 1.12753E-03-2.41838E-05-3.55464E-15
 -1      1746 1.46904E-03-1.63285E-04-4.21463E-15
 -1      1747 1.83963E-03-3.08344E-04-5.02899E-15
 -1      1748 2.19418E-03-4.24376E-04-6.04164E-15
 -1      1749 2.53525E-03-4.58007E-04-7.19273E-15
 -1      1750 2.86914E-03-4.04993E-04-8.34023E-15
 -1      1751 3.20599E-03-2.82124E-04-9.45725E-15
 -1      1752 3.56593E-03-1.16199E-04-1.05074E-14
 -1      1753 3.93173E-03 6.24573E-05-1.14639E-14
 -1      1754 4.28898E-03 2.26820E-04-1.22771E-14
 -1      1755 4.59856E-03 3.63305E-04-1.29700E-14
 -1      1756 4.81774E-03 4.48727E-04-1.33296E-14
 -1      1757 3.26372E-04-2.01037E-04-1.12079E-16
 -1      1758 3.74620E-04-1.20577E-04-3.23811E-16
 -1      1759 3.80382E-04-1.44925E-04-3.08225E-16
 -1      1760 3.87571E-04-1.70818E-04-2.87544E-16
 -1      1761 3.99281E-04-1.98733E-04-2.56983E-16
 -1      1762 5.20249E-04-2.14002E-04-4.51096E-16
 -1      1763 3.48100E-04-2.46285E-05-3.47094E-16
 -1      1764 3.56943E-04-4.83019E-05-3.45454E-16
 -1      1765 3.22123E-04 2.14475E-05-3.46077E-16
 -1      1766 3.36572E-04-8.24399E-07-3.47243E-16
 -1      1767 4.66909E-04-2.84027E-05-5.13695E-16
 -1      1768 2.84295E-04 5.82185E-05-3.40318E-16
 -1      1769 3.04371E-04 4.16842E-05-3.43570E-16
 -1      1770 4.26997E-04 2.95154E-05-5.09060E-16
 -1      1771 2.39800E-04 7.68005E-05-3.32931E-16
 -1      1772 2.61854E-04 7.03660E-05-3.36740E-16
 -1      1773 3.69717E-04 7.44415E-05-4.99153E-16
 -1      1774 2.02155E-04 7.20948E-05-3.24576E-16
 -1      1775 2.18617E-04 7.72754E-05-3.28744E-16
 -1      1776 3.05206E-04 9.53265E-05-4.86902E-16
 -1      1777 1.88354E-04 4.94828E-05-3.15855E-16
 -1      1778 1.91102E-04 6.19494E-05-3.20239E-16
 -1      1779 2.55972E-04 8.75284E-05-4.73952E-16
 -1      1780 2.07554E-04 2.57566E-05-3.05718E-16
 -1      1781 1.93982E-04 3.63646E-05-3.11322E-16
 -1      1782 2.46977E-04 6.18147E-05-4.61030E-16
 -1      1783 2.55306E-04 1.79341E-05-2.91949E-16
 -1      1784 2.28997E-04 1.88917E-05-2.99809E-16
 -1      1785 2.86879E-04 4.08119E-05-4.46576E-16
 -1      1786 3.17178E-04 3.56014E-05-2.70807E-16
 -1      1787 2.85741E-04 2.35566E-05-2.83017E-16
 -1      1788 3.63155E-04 4.49845E-05-4.26512E-16
 -1      1789 3.81656E-04 7.84173E-05-2.36573E-16
 -1      1790 3.49565E-04 5.43107E-05-2.56373E-16
 -1      1791 4.52680E-04 8.15373E-05-3.95232E-16
 -1      1792 4.49235E-04 1.45002E-04-1.81645E-16
 -1      1793 4.14634E-04 1.08861E-04-2.12897E-16
 -1      1794 5.42473E-04 1.46746E-04-3.44898E-16
 -1      1795 5.48803E-04 2.25119E-04-1.44944E-16
 -1      1796 4.95467E-04 1.80385E-04-1.70138E-16
 -1      1797 6.39305E-04 2.26436E-04-3.00351E-16
 -1      1798 7.55389E-04 3.12431E-04-2.65928E-16
 -1      1799 3.87151E-04-2.18914E-04-1.91118E-16
 -1      1800 1.16487E-03 4.96001E-04-6.90190E-16
 -1      1801 9.60991E-04 4.01681E-04-4.48426E-16
 -1      1802 8.94903E-04 3.54570E-04-4.69568E-16
 -1      1803 5.21906E-04-2.75017E-04-3.37282E-16
 -1      1804 9.17052E-04-4.55712E-04-9.08087E-16
 -1      1805 1.07982E-03-5.17128E-04-1.27090E-15
 -1      1806 1.23858E-03-5.72706E-04-1.70137E-15
 -1      1807 1.39405E-03-6.22175E-04-2.20115E-15
 -1      1808 1.13907E-03-5.04719E-04-1.54720E-15
 -1      1809 1.54617E-03-6.65686E-04-2.76920E-15
 -1      1810 1.69537E-03-7.02169E-04-3.40659E-15
 -1      1811 1.45637E-03-6.05403E-04-2.55472E-15
 -1      1812 1.84176E-03-7.30974E-04-4.11310E-15
 -1      1813 1.98605E-03-7.50940E-04-4.88914E-15
 -1      1814 1.76256E-03-6.80554E-04-3.83541E-15
 -1      1815 2.12825E-03-7.61326E-04-5.73413E-15
 -1      1816 2.26957E-03-7.61407E-04-6.64807E-15
 -1      1817 2.05907E-03-7.22346E-04-5.39210E-15
 -1      1818 2.40990E-03-7.51010E-04-7.63098E-15
 -1      1819 2.55065E-03-7.30218E-04-8.68127E-15
 -1      1820 2.34926E-03-7.23366E-04-7.22401E-15
 -1      1821 2.69167E-03-6.99751E-04-9.79779E-15
 -1      1822 2.83414E-03-6.60520E-04-1.09801E-14
 -1      1823 2.63798E-03-6.81356E-04-9.32751E-15
 -1      1824 2.97788E-03-6.13982E-04-1.22266E-14
 -1      1825 3.12349E-03-5.61546E-04-1.35360E-14
 -1      1826 2.92988E-03-6.01484E-04-1.16947E-14
 -1      1827 3.27085E-03-5.04948E-04-1.49062E-14
 -1      1828 3.41991E-03-4.45606E-04-1.63352E-14
 -1      1829 3.22761E-03-4.94927E-04-1.43148E-14
 -1      1830 3.57066E-03-3.85060E-04-1.78226E-14
 -1      1831 3.72257E-03-3.24394E-04-1.93669E-14
 -1      1832 3.53128E-03-3.74931E-04-1.71754E-14
 -1      1833 3.87573E-03-2.64669E-04-2.09657E-14
 -1      1834 4.02943E-03-2.06526E-04-2.26176E-14
 -1      1835 3.83916E-03-2.52949E-04-2.02633E-14
 -1      1836 4.18383E-03-1.50497E-04-2.43217E-14
 -1      1837 4.33823E-03-9.68395E-05-2.60773E-14
 -1      1838 4.14891E-03-1.36622E-04-2.35670E-14
 -1      1839 4.49279E-03-4.56641E-05-2.78818E-14
 -1      1840 4.64698E-03 3.02673E-06-2.97355E-14
 -1      1841 4.45844E-03-2.96676E-05-2.70750E-14
 -1      1842 4.80092E-03 4.93885E-05-3.16370E-14
 -1      1843 4.95426E-03 9.35539E-05-3.35843E-14
 -1      1844 4.76631E-03 6.71693E-05-3.07803E-14
 -1      1845 5.10709E-03 1.35802E-04-3.55773E-14
 -1      1846 5.25921E-03 1.76316E-04-3.76130E-14
 -1      1847 5.07172E-03 1.54919E-04-3.46723E-14
 -1      1848 5.41067E-03 2.15400E-04-3.96910E-14
 -1      1849 5.56141E-03 2.53237E-04-4.18125E-14
 -1      1850 5.37433E-03 2.35409E-04-3.87405E-14
 -1      1851 5.71144E-03 2.90101E-04-4.39746E-14
 -1      1852 5.86079E-03 3.26152E-04-4.61769E-14
 -1      1853 5.67412E-03 3.10622E-04-4.29773E-14
 -1      1854 6.00946E-03 3.61607E-04-4.84200E-14
 -1      1855 6.15750E-03 3.96597E-04-5.07019E-14
 -1      1856 5.97127E-03 3.82342E-04-4.73795E-14
 -1      1857 6.30494E-03 4.31280E-04-5.30221E-14
 -1      1858 6.45183E-03 4.65753E-04-5.53822E-14
 -1      1859 6.26607E-03 4.52015E-04-5.19391E-14
 -1      1860 6.59820E-03 5.00122E-04-5.77805E-14
 -1      1861 6.74412E-03 5.34458E-04-6.02162E-14
 -1      1862 6.55884E-03 5.20718E-04-5.66547E-14
 -1      1863 6.88960E-03 5.68824E-04-6.26883E-14
 -1      1864 7.03472E-03 6.03269E-04-6.51964E-14
 -1      1865 6.84992E-03 5.89202E-04-6.15206E-14
 -1      1866 7.17948E-03 6.37825E-04-6.77402E-14
 -1      1867 7.32395E-03 6.72522E-04-7.03185E-14
 -1      1868 7.13961E-03 6.57947E-04-6.65326E-14
 -1      1869 7.46815E-03 7.07372E-04-7.29317E-14
 -1      1870 7.61212E-03 7.42392E-04-7.55787E-14
 -1      1871 7.42820E-03 7.27233E-04-7.16844E-14
 -1      1872 7.75588E-03 7.77580E-04-7.82590E-14
 -1      1873 7.89948E-03 8.12944E-04-8.09708E-14
 -1      1874 7.71593E-03 7.97192E-04-7.69724E-14
 -1      1875 8.04292E-03 8.48474E-04-8.37152E-14
 -1      1876 8.18624E-03 8.84171E-04-8.64906E-14
 -1      1877 8.00301E-03 8.67861E-04-8.23914E-14
 -1      1878 8.32944E-03 9.20020E-04-8.92965E-14
 -1      1879 8.47256E-03 9.56021E-04-9.21331E-14
 -1      1880 8.28961E-03 9.39213E-04-8.79362E-14
 -1      1881 8.61560E-03 9.92157E-04-9.50000E-14
 -1      1882 8.75858E-03 1.02842E-03-9.78944E-14
 -1      1883 8.57585E-03 1.01119E-03-9.36040E-14
 -1      1884 8.90151E-03 1.06481E-03-1.00816E-13
 -1      1885 9.04439E-03 1.10130E-03-1.03765E-13
 -1      1886 8.86185E-03 1.08370E-03-9.93876E-14
 -1      1887 9.18725E-03 1.13789E-03-1.06742E-13
 -1      1888 9.33008E-03 1.17457E-03-1.09744E-13
 -1      1889 9.14767E-03 1.15667E-03-1.05279E-13
 -1      1890 9.47289E-03 1.21132E-03-1.12772E-13
 -1      1891 9.61568E-03 1.24815E-03-1.15824E-13
 -1      1892 9.43339E-03 1.23002E-03-1.11277E-13
 -1      1893 9.75847E-03 1.28504E-03-1.18901E-13
 -1      1894 9.90125E-03 1.32199E-03-1.22006E-13
 -1      1895 9.71904E-03 1.30368E-03-1.17376E-13
 -1      1896 1.00440E-02 1.35898E-03-1.25135E-13
 -1      1897 1.01868E-02 1.39602E-03-1.28288E-13
 -1      1898 1.00047E-02 1.37757E-03-1.23575E-13
 -1      1899 1.03296E-02 1.43309E-03-1.31464E-13
 -1      1900 1.04724E-02 1.47020E-03-1.34660E-13
 -1      1901 1.02903E-02 1.45165E-03-1.29872E-13
 -1      1902 1.06151E-02 1.50734E-03-1.37880E-13
 -1      1903 1.07579E-02 1.54450E-03-1.41122E-13
 -1      1904 1.05759E-02 1.52586E-03-1.36261E-13
 -1      1905 1.09007E-02 1.58168E-03-1.44383E-13
 -1      1906 1.10435E-02 1.61887E-03-1.47664E-13
 -1      1907 1.08615E-02 1.60018E-03-1.42735E-13
 -1      1908 1.11863E-02 1.65609E-03-1.50962E-13
 -1      1909 1.13291E-02 1.69331E-03-1.54278E-13
 -1      1910 1.11471E-02 1.67458E-03-1.49289E-13
 -1      1911 1.14719E-02 1.73054E-03-1.57614E-13
 -1      1912 1.16147E-02 1.76778E-03-1.60969E-13
 -1      1913 1.14327E-02 1.74903E-03-1.55918E-13
 -1      1914 1.17575E-02 1.80503E-03-1.64341E-13
 -1      1915 1.19004E-02 1.84229E-03-1.67730E-13
 -1      1916 1.17183E-02 1.82351E-03-1.62618E-13
 -1      1917 1.20432E-02 1.87954E-03-1.71136E-13
 -1      1918 1.21860E-02 1.91681E-03-1.74558E-13
 -1      1919 1.20040E-02 1.89802E-03-1.69390E-13
 -1      1920 1.23288E-02 1.95407E-03-1.77995E-13
 -1      1921 1.24717E-02 1.99133E-03-1.81446E-13
 -1      1922 1.22897E-02 1.97255E-03-1.76225E-13
 -1      1923 1.26145E-02 2.02860E-03-1.84908E-13
 -1      1924 1.27574E-02 2.06587E-03-1.88384E-13
 -1      1925 1.25753E-02 2.04708E-03-1.83116E-13
 -1      1926 1.29002E-02 2.10313E-03-1.91873E-13
 -1      1927 1.30430E-02 2.14040E-03-1.95369E-13
 -1      1928 1.28610E-02 2.12161E-03-1.90061E-13
 -1      1929 1.31859E-02 2.17767E-03-1.98876E-13
 -1      1930 1.33287E-02 2.21493E-03-2.02394E-13
 -1      1931 1.31467E-02 2.19615E-03-1.97052E-13
 -1      1932 1.34716E-02 2.25220E-03-2.05921E-13
 -1      1933 1.36144E-02 2.28946E-03-2.09452E-13
 -1      1934 1.34324E-02 2.27068E-03-2.04079E-13
 -1      1935 1.37573E-02 2.32673E-03-2.12991E-13
 -1      1936 1.39001E-02 2.36399E-03-2.16536E-13
 -1      1937 1.37181E-02 2.34521E-03-2.11141E-13
 -1      1938 1.40267E-02 2.39570E-03-2.19716E-13
 -1      1939 1.41695E-02 2.43296E-03-2.23264E-13
 -1      1940 1.42406E-02 2.47760E-03-2.24221E-13
 -1      1941 1.39875E-02 2.41418E-03-2.17856E-13
 -1      1942 1.56588E-03 7.09452E-04-1.35776E-15
 -1      1943 1.36674E-03 5.98537E-04-9.92384E-16
 -1      1944 1.29424E-03 5.47785E-04-1.01103E-15
 -1      1945 1.95555E-03 9.55717E-04-2.28538E-15
 -1      1946 1.76294E-03 8.29632E-04-1.78781E-15
 -1      1947 1.69110E-03 7.77100E-04-1.79983E-15
 -1      1948 2.32671E-03 1.20799E-03-3.49220E-15
 -1      1949 2.14418E-03 1.08428E-03-2.85289E-15
 -1      1950 2.08020E-03 1.03443E-03-2.85504E-15
 -1      1951 2.67382E-03 1.40947E-03-4.99420E-15
 -1      1952 2.50262E-03 1.31890E-03-4.20540E-15
 -1      1953 2.45157E-03 1.27783E-03-4.19615E-15
 -1      1954 3.00489E-03 1.50194E-03-6.80354E-15
 -1      1955 2.83933E-03 1.47093E-03-5.86013E-15
 -1      1956 2.80140E-03 1.44060E-03-5.84056E-15
 -1      1957 3.33892E-03 1.47130E-03-8.91737E-15
 -1      1958 3.16949E-03 1.49964E-03-7.82283E-15
 -1      1959 3.14283E-03 1.47523E-03-7.79461E-15
 -1      1960 3.69002E-03 1.36135E-03-1.13212E-14
 -1      1961 3.51189E-03 1.42204E-03-1.00833E-14
 -1      1962 3.49509E-03 1.39675E-03-1.00479E-14
 -1      1963 4.05669E-03 1.23711E-03-1.39940E-14
 -1      1964 3.87226E-03 1.29796E-03-1.26254E-14
 -1      1965 3.86365E-03 1.26895E-03-1.25831E-14
 -1      1966 4.42867E-03 1.14404E-03-1.69106E-14
 -1      1967 4.24303E-03 1.18562E-03-1.54236E-14
 -1      1968 4.23864E-03 1.15381E-03-1.53746E-14
 -1      1969 4.79688E-03 1.09804E-03-2.00519E-14
 -1      1970 4.61399E-03 1.11536E-03-1.84544E-14
 -1      1971 4.60870E-03 1.08232E-03-1.83987E-14
 -1      1972 5.15610E-03 1.09607E-03-2.34000E-14
 -1      1973 4.97803E-03 1.09224E-03-2.17007E-14
 -1      1974 4.96817E-03 1.05882E-03-2.16358E-14
 -1      1975 5.50423E-03 1.12774E-03-2.69474E-14
 -1      1976 5.33171E-03 1.10839E-03-2.51496E-14
 -1      1977 5.31573E-03 1.07496E-03-2.50753E-14
 -1      1978 5.84111E-03 1.18224E-03-3.06881E-14
 -1      1979 5.67407E-03 1.15267E-03-2.87942E-14
 -1      1980 5.65203E-03 1.11940E-03-2.87097E-14
 -1      1981 6.16761E-03 1.25101E-03-3.46074E-14
 -1      1982 6.00557E-03 1.21521E-03-3.26261E-14
 -1      1983 5.97837E-03 1.18220E-03-3.25297E-14
 -1      1984 6.48512E-03 1.32802E-03-3.86982E-14
 -1      1985 6.32737E-03 1.28871E-03-3.66322E-14
 -1      1986 6.29617E-03 1.25604E-03-3.65257E-14
 -1      1987 6.79513E-03 1.40932E-03-4.29535E-14
 -1      1988 6.64094E-03 1.36827E-03-4.08053E-14
 -1      1989 6.60681E-03 1.33595E-03-4.06885E-14
 -1      1990 7.09908E-03 1.49249E-03-4.73638E-14
 -1      1991 6.94775E-03 1.45076E-03-4.51386E-14
 -1      1992 6.91159E-03 1.41878E-03-4.50124E-14
 -1      1993 7.39825E-03 1.57606E-03-5.19297E-14
 -1      1994 7.24916E-03 1.53427E-03-4.96283E-14
 -1      1995 7.21165E-03 1.50262E-03-4.94922E-14
 -1      1996 7.69372E-03 1.65921E-03-5.66480E-14
 -1      1997 7.54637E-03 1.61771E-03-5.42703E-14
 -1      1998 7.50799E-03 1.58635E-03-5.41262E-14
 -1      1999 7.98637E-03 1.74153E-03-6.15090E-14
 -1      2000 7.84034E-03 1.70048E-03-5.90614E-14
 -1      2001 7.80144E-03 1.66937E-03-5.89091E-14
 -1      2002 8.27691E-03 1.82284E-03-6.65154E-14
 -1      2003 8.13186E-03 1.78231E-03-6.39941E-14
 -1      2004 8.09267E-03 1.75140E-03-6.38333E-14
 -1      2005 8.56589E-03 1.90310E-03-7.16595E-14
 -1      2006 8.42156E-03 1.86310E-03-6.90698E-14
 -1      2007 8.38223E-03 1.83236E-03-6.89001E-14
 -1      2008 8.85373E-03 1.98239E-03-7.69338E-14
 -1      2009 8.70992E-03 1.94286E-03-7.42817E-14
 -1      2010 8.67056E-03 1.91226E-03-7.41032E-14
 -1      2011 9.14076E-03 2.06077E-03-8.23338E-14
 -1      2012 8.99732E-03 2.02168E-03-7.96183E-14
 -1      2013 8.95798E-03 1.99119E-03-7.94342E-14
 -1      2014 9.42722E-03 2.13838E-03-8.78538E-14
 -1      2015 9.28404E-03 2.09967E-03-8.50783E-14
 -1      2016 9.24475E-03 2.06926E-03-8.48882E-14
 -1      2017 9.71329E-03 2.21532E-03-9.34915E-14
 -1      2018 9.57029E-03 2.17693E-03-9.06586E-14
 -1      2019 9.53107E-03 2.14658E-03-9.04609E-14
 -1      2020 9.99911E-03 2.29171E-03-9.92374E-14
 -1      2021 9.85623E-03 2.25358E-03-9.63517E-14
 -1      2022 9.81708E-03 2.22328E-03-9.61457E-14
 -1      2023 1.02848E-02 2.36765E-03-1.05089E-13
 -1      2024 1.01420E-02 2.32973E-03-1.02151E-13
 -1      2025 1.01029E-02 2.29947E-03-1.01938E-13
 -1      2026 1.05703E-02 2.44323E-03-1.11041E-13
 -1      2027 1.04276E-02 2.40548E-03-1.08053E-13
 -1      2028 1.03886E-02 2.37524E-03-1.07832E-13
 -1      2029 1.08559E-02 2.51852E-03-1.17092E-13
 -1      2030 1.07131E-02 2.48090E-03-1.14054E-13
 -1      2031 1.06742E-02 2.45069E-03-1.13828E-13
 -1      2032 1.11414E-02 2.59359E-03-1.23239E-13
 -1      2033 1.09986E-02 2.55608E-03-1.20154E-13
 -1      2034 1.09597E-02 2.52587E-03-1.19920E-13
 -1      2035 1.14269E-02 2.66850E-03-1.29480E-13
 -1      2036 1.12841E-02 2.63106E-03-1.26349E-13
 -1      2037 1.12453E-02 2.60087E-03-1.26109E-13
 -1      2038 1.17124E-02 2.74327E-03-1.35808E-13
 -1      2039 1.15697E-02 2.70590E-03-1.32634E-13
 -1      2040 1.15308E-02 2.67571E-03-1.32387E-13
 -1      2041 1.19980E-02 2.81796E-03-1.42218E-13
 -1      2042 1.18552E-02 2.78062E-03-1.39002E-13
 -1      2043 1.18164E-02 2.75044E-03-1.38748E-13
 -1      2044 1.22835E-02 2.89257E-03-1.48706E-13
 -1      2045 1.21408E-02 2.85527E-03-1.45453E-13
 -1      2046 1.21020E-02 2.82509E-03-1.45190E-13
 -1      2047 1.25691E-02 2.96715E-03-1.55271E-13
 -1      2048 1.24263E-02 2.92987E-03-1.51979E-13
 -1      2049 1.23876E-02 2.89968E-03-1.51712E-13
 -1      2050 1.28548E-02 3.04169E-03-1.61895E-13
 -1      2051 1.27120E-02 3.00442E-03-1.58576E-13
 -1      2052 1.26732E-02 2.97423E-03-1.58303E-13
 -1      2053 1.31404E-02 3.11620E-03-1.68574E-13
 -1      2054 1.29976E-02 3.07895E-03-1.65228E-13
 -1      2055 1.29588E-02 3.04876E-03-1.64951E-13
 -1      2056 1.34261E-02 3.19071E-03-1.75298E-13
 -1      2057 1.32832E-02 3.15346E-03-1.71930E-13
 -1      2058 1.32445E-02 3.12327E-03-1.71652E-13
 -1      2059 1.37117E-02 3.26521E-03-1.82064E-13
 -1      2060 1.35689E-02 3.22796E-03-1.78678E-13
 -1      2061 1.35302E-02 3.19777E-03-1.78402E-13
 -1      2062 1.39974E-02 3.33971E-03-1.88858E-13
 -1      2063 1.38546E-02 3.30246E-03-1.85459E-13
 -1      2064 1.38158E-02 3.27227E-03-1.85186E-13
 -1      2065 1.42831E-02 3.41421E-03-1.95686E-13
 -1      2066 1.41403E-02 3.37696E-03-1.92268E-13
 -1      2067 1.41015E-02 3.34677E-03-1.91998E-13
 -1      2068 1.45688E-02 3.48871E-03-2.02543E-13
 -1      2069 1.44260E-02 3.45146E-03-1.99109E-13
 -1      2070 1.43872E-02 3.42127E-03-1.98840E-13
 -1      2071 1.48545E-02 3.56322E-03-2.09435E-13
 -1      2072 1.47117E-02 3.52596E-03-2.05987E-13
 -1      2073 1.46729E-02 3.49577E-03-2.05718E-13
 -1      2074 1.51402E-02 3.63773E-03-2.16351E-13
 -1      2075 1.49974E-02 3.60047E-03-2.12892E-13
 -1      2076 1.49586E-02 3.57028E-03-2.12624E-13
 -1      2077 1.53725E-02 3.69601E-03-2.22064E-13
 -1      2078 1.52297E-02 3.65875E-03-2.18597E-13
 -1      2079 1.51910E-02 3.62856E-03-2.18334E-13
 -1      2080 1.53699E-02 3.67060E-03-2.22830E-13
 -1      2081 1.51341E-02 3.42756E-03-2.23199E-13
 -1      2082 1.51708E-02 3.46970E-03-2.23001E-13
 -1      2083 1.52074E-02 3.51185E-03-2.22798E-13
 -1      2084 1.52440E-02 3.55400E-03-2.22593E-13
 -1      2085 1.50654E-02 3.45851E-03-2.19883E-13
 -1      2086 1.52886E-02 3.59123E-03-2.22817E-13
 -1      2087 1.53253E-02 3.63337E-03-2.22609E-13
 -1      2088 1.52358E-02 3.61235E-03-2.20358E-13
 -1      2089 1.51466E-02 3.53789E-03-2.19910E-13
 -1      2090 1.50621E-02 3.34469E-03-2.23583E-13
 -1      2091 1.50981E-02 3.38612E-03-2.23390E-13
 -1      2092 1.49927E-02 3.37493E-03-2.20272E-13
 -1      2093 1.49888E-02 3.26039E-03-2.23952E-13
 -1      2094 1.50254E-02 3.30254E-03-2.23770E-13
 -1      2095 1.49200E-02 3.29135E-03-2.20642E-13
 -1      2096 1.49155E-02 3.17608E-03-2.24292E-13
 -1      2097 1.49521E-02 3.21823E-03-2.24127E-13
 -1      2098 1.48467E-02 3.20704E-03-2.20995E-13
 -1      2099 1.48422E-02 3.09178E-03-2.24619E-13
 -1      2100 1.48788E-02 3.13393E-03-2.24457E-13
 -1      2101 1.47734E-02 3.12274E-03-2.21328E-13
 -1      2102 1.47689E-02 3.00747E-03-2.24920E-13
 -1      2103 1.48056E-02 3.04962E-03-2.24770E-13
 -1      2104 1.47002E-02 3.03843E-03-2.21642E-13
 -1      2105 1.46957E-02 2.92317E-03-2.25198E-13
 -1      2106 1.47323E-02 2.96532E-03-2.25062E-13
 -1      2107 1.46269E-02 2.95413E-03-2.21936E-13
 -1      2108 1.46236E-02 2.84029E-03-2.25464E-13
 -1      2109 1.46597E-02 2.88173E-03-2.25333E-13
 -1      2110 1.45543E-02 2.87054E-03-2.22210E-13
 -1      2111 1.45504E-02 2.75599E-03-2.25721E-13
 -1      2112 1.45870E-02 2.79814E-03-2.25594E-13
 -1      2113 1.44816E-02 2.78695E-03-2.22471E-13
 -1      2114 1.44771E-02 2.67170E-03-2.25959E-13
 -1      2115 1.45138E-02 2.71384E-03-2.25840E-13
 -1      2116 1.44084E-02 2.70265E-03-2.22715E-13
 -1      2117 1.44039E-02 2.58740E-03-2.26183E-13
 -1      2118 1.44405E-02 2.62955E-03-2.26074E-13
 -1      2119 1.43351E-02 2.61836E-03-2.22946E-13
 -1      2120 4.58998E-03 6.49793E-04-1.30418E-14
 -1      2121 4.71598E-03 6.04003E-04-1.34774E-14
 -1      2122 4.92393E-03 5.21591E-04-1.40165E-14
 -1      2123 4.90909E-03 5.07839E-04-1.40199E-14
 -1      2124 4.83798E-03 5.62286E-04-1.38114E-14
 -1      2125 4.90063E-03 5.42383E-04-1.39918E-14
 -1      2126 4.28953E-03 7.76383E-04-1.21312E-14
 -1      2127 4.45039E-03 7.07530E-04-1.25792E-14
 -1      2128 4.52324E-03 6.63854E-04-1.34544E-14
 -1      2129 3.88785E-03 9.79096E-04-1.07631E-14
 -1      2130 4.07345E-03 8.84440E-04-1.13487E-14
 -1      2131 3.63664E-04-7.25460E-05-3.41469E-16
 -1      2132 3.69461E-04-9.64283E-05-3.34205E-16
 -1      2133 5.05434E-04-1.51318E-04-4.91238E-16
 -1      2134 4.90629E-04-9.00129E-05-5.09439E-16
 -1      2135 3.11563E-03 1.32458E-03-8.01768E-15
 -1      2136 3.27944E-03 1.26858E-03-8.65893E-15
 -1      2137 2.80047E-03 1.34895E-03-6.78477E-15
 -1      2138 2.95359E-03 1.35092E-03-7.38832E-15
 -1      2139 3.05200E-03 1.34958E-03-7.82100E-15
 -1      2140 2.42133E-03 1.22728E-03-5.47086E-15
 -1      2141 2.58152E-03 1.29865E-03-5.99065E-15
 -1      2142 2.08999E-03 1.02898E-03-4.55826E-15
 -1      2143 2.25632E-03 1.13868E-03-5.00370E-15
 -1      2144 2.37399E-03 1.19356E-03-5.14627E-15
 -1      2145 1.64553E-03 7.49627E-04-3.71010E-15
 -1      2146 1.83829E-03 8.69338E-04-4.03354E-15
 -1      2147 1.24044E-03 5.16781E-04-3.11285E-15
 -1      2148 1.43145E-03 6.20208E-04-3.36568E-15
 -1      2149 8.75845E-04 3.55991E-04-2.71873E-15
 -1      2150 1.03726E-03 4.26404E-04-2.90338E-15
 -1      2151 6.14307E-04 2.54703E-04-2.41480E-15
 -1      2152 7.23372E-04 2.88142E-04-2.51998E-15
 -1      2153 4.76148E-04 2.16567E-04-2.27923E-15
 -1      2154 5.26071E-04 2.28913E-04-2.33672E-15
 -1      2155 4.81559E-04 2.04423E-04-2.32951E-15
 -1      2156 4.58473E-04 2.06619E-04-2.26971E-15
 -1      2157 6.26534E-04 1.82257E-04-2.47212E-15
 -1      2158 5.37720E-04 1.94279E-04-2.39428E-15
 -1      2159 5.04118E-04 1.99702E-04-2.15360E-15
 -1      2160 9.28234E-04 9.57255E-05-2.95584E-15
 -1      2161 7.85550E-04 1.42709E-04-2.70320E-15
 -1      2162 1.22443E-03-2.02130E-05-3.48160E-15
 -1      2163 1.06847E-03 4.26772E-05-3.20778E-15
 -1      2164 1.00507E-03 8.53855E-05-2.88504E-15
 -1      2165 1.58799E-03-1.84600E-04-4.24523E-15
 -1      2166 1.42455E-03-1.08322E-04-3.88921E-15
 -1      2167 1.92582E-03-3.34639E-04-5.07133E-15
 -1      2168 1.75969E-03-2.60105E-04-4.64288E-15
 -1      2169 2.29380E-03-4.59828E-04-6.31629E-15
 -1      2170 2.14177E-03-4.17527E-04-5.74589E-15
 -1      2171 2.61032E-03-4.69983E-04-7.56082E-15
 -1      2172 2.46778E-03-4.76824E-04-6.98776E-15
 -1      2173 2.90508E-03-3.93047E-04-8.73680E-15
 -1      2174 2.76407E-03-4.40478E-04-8.16049E-15
 -1      2175 3.24438E-03-2.34823E-04-1.00234E-14
 -1      2176 3.08749E-03-3.14552E-04-9.47156E-15
 -1      2177 3.57468E-03-6.19853E-05-1.10429E-14
 -1      2178 3.40742E-03-1.53295E-04-1.05273E-14
 -1      2179 3.28815E-03-1.90810E-04-1.05365E-14
 -1      2180 3.97170E-03 1.44451E-04-1.21698E-14
 -1      2181 3.79600E-03 5.54625E-05-1.17090E-14
 -1      2182 4.33732E-03 3.08199E-04-1.30384E-14
 -1      2183 4.17008E-03 2.37012E-04-1.26634E-14
 -1      2184 4.63933E-03 4.25262E-04-1.37651E-14
 -1      2185 4.50194E-03 3.75104E-04-1.34280E-14
 -1      2186 4.86275E-03 4.88150E-04-1.39799E-14
 -1      2187 4.78407E-03 4.68562E-04-1.39484E-14
 -1      2188 4.89390E-03 5.12680E-04-1.46375E-14
 -1      2189 3.48053E-03 1.18378E-03-9.40694E-15
 -1      2190 3.66216E-03 1.08953E-03-1.00735E-14
 -1      2191 4.18354E-03 8.14712E-04-1.21717E-14
 -1      2192 6.91127E-04-3.53406E-04-5.48146E-16
 -1      2193 3.37130E-03 1.23513E-03-9.21027E-15
 -1      2194 7.54471E-04-3.50237E-04-7.28896E-16
 -1      2195 4.78453E-03 5.77351E-04-1.42755E-14
 -1      2196 4.92215E-03 5.35580E-04-1.46503E-14
 -1      2197 1.43328E-02 2.54276E-03-2.25234E-13
 -1      2198 3.75730E-03 1.03424E-03-1.06741E-14
 -1      2199 4.71501E-03 4.67115E-04-1.44061E-14
 -1      2200 4.40478E-03 3.69080E-04-1.38156E-14
 -1      2201 3.64909E-03 8.83979E-06-1.17215E-14
 -1      2202 2.97601E-03-3.56795E-04-9.27383E-15
 -1      2203 2.67207E-03-4.64892E-04-7.93511E-15
 -1      2204 2.38023E-03-4.79828E-04-6.65760E-15
 -1      2205 2.03961E-03-3.82950E-04-5.32370E-15
 -1      2206 1.94202E-03-3.41130E-04-4.92016E-15
 -1      2207 2.12396E-03-4.22306E-04-5.57377E-15
 -1      2208 1.32908E-03-4.89552E-05-3.50737E-15
 -1      2209 7.03226E-04 1.73390E-04-2.42192E-15
 -1      2210 6.32087E-04 1.86227E-04-2.16057E-15
 -1      2211 7.80310E-04 1.57970E-04-2.36862E-15
 -1      2212 4.59274E-04 1.98932E-04-2.10291E-15
 -1      2213 5.71327E-04 2.15065E-04-2.18606E-15
 -1      2214 8.07832E-04 2.88606E-04-2.44206E-15
 -1      2215 1.15688E-03 4.38985E-04-2.82729E-15
 -1      2216 1.99377E-03 9.47507E-04-4.17087E-15
 -1      2217 2.71386E-03 1.34159E-03-6.37996E-15
 -1      2218 1.55272E-03 6.55691E-04-3.34253E-15
 -1      2219 1.68020E-03-2.14595E-04-4.28717E-15
 -1      2220 4.05101E-03 2.17194E-04-1.29093E-14
 -1      2221 1.32439E-03 5.44063E-04-1.25627E-15
 -1      2222 1.12860E-03 4.41089E-04-9.18577E-16
 -1      2223 5.29837E-04 3.83416E-05-7.20981E-16
 -1      2224 5.61315E-04 5.05729E-06-7.27202E-16
 -1      2225 5.86556E-04-3.10130E-05-7.31172E-16
 -1      2226 6.05812E-04-6.77740E-05-7.32501E-16
 -1      2227 7.05267E-04-3.18612E-05-9.90703E-16
 -1      2228 3.62568E-04 1.14740E-04-6.84606E-16
 -1      2229 4.04495E-04 1.07839E-04-6.94337E-16
 -1      2230 3.03573E-04 1.03367E-04-6.64806E-16
 -1      2231 3.26330E-04 1.12447E-04-6.74225E-16
 -1      2232 4.08576E-04 1.32875E-04-9.16490E-16
 -1      2233 3.06539E-04 7.57026E-05-6.46808E-16
 -1      2234 2.96161E-04 8.92716E-05-6.55664E-16
 -1      2235 3.46403E-04 1.17943E-04-8.89622E-16
 -1      2236 3.76928E-04 6.14180E-05-6.27326E-16
 -1      2237 3.35042E-04 6.46144E-05-6.37823E-16
 -1      2238 3.73325E-04 9.19528E-05-8.66847E-16
 -1      2239 4.87784E-04 8.33508E-05-6.00567E-16
 -1      2240 4.30207E-04 6.74453E-05-6.16003E-16
 -1      2241 4.83806E-04 9.18367E-05-8.43442E-16
 -1      2242 6.06526E-04 1.42940E-04-5.57361E-16
 -1      2243 5.48188E-04 1.09310E-04-5.81973E-16
 -1      2244 6.32145E-04 1.37347E-04-8.09154E-16
 -1      2245 1.72263E-03 7.81102E-04-2.11869E-15
 -1      2246 1.52359E-03 6.57322E-04-1.65535E-15
 -1      2247 1.35379E-03 5.39597E-04-1.51013E-15
 -1      2248 1.04235E-03-4.35419E-04-1.39125E-15
 -1      2249 1.20562E-03-4.91124E-04-1.83233E-15
 -1      2250 3.30240E-03 1.28257E-03-9.06084E-15
 -1      2251 3.46556E-03 1.19946E-03-9.82888E-15
 -1      2252 1.36687E-03-5.42241E-04-2.33983E-15
 -1      2253 1.52588E-03-5.87699E-04-2.91495E-15
 -1      2254 1.27745E-03-4.76658E-04-2.12597E-15
 -1      2255 1.68227E-03-6.26938E-04-3.55822E-15
 -1      2256 1.83632E-03-6.58248E-04-4.26999E-15
 -1      2257 1.60077E-03-5.69800E-04-3.28189E-15
 -1      2258 1.98778E-03-6.80755E-04-5.05023E-15
 -1      2259 2.13759E-03-6.92910E-04-5.89948E-15
 -1      2260 1.91483E-03-6.35772E-04-4.70935E-15
 -1      2261 2.28557E-03-6.94139E-04-6.81729E-15
 -1      2262 2.43322E-03-6.83819E-04-7.80378E-15
 -1      2263 2.21996E-03-6.62595E-04-6.41108E-15
 -1      2264 2.58036E-03-6.62233E-04-8.85696E-15
 -1      2265 2.72853E-03-6.30087E-04-9.97717E-15
 -1      2266 2.52035E-03-6.42125E-04-8.38649E-15
 -1      2267 2.87749E-03-5.88576E-04-1.11630E-14
 -1      2268 3.02813E-03-5.39439E-04-1.24124E-14
 -1      2269 2.82209E-03-5.75522E-04-1.06308E-14
 -1      2270 3.18019E-03-4.84378E-04-1.37243E-14
 -1      2271 3.33375E-03-4.25364E-04-1.50972E-14
 -1      2272 3.12949E-03-4.73776E-04-1.31340E-14
 -1      2273 3.48859E-03-3.64043E-04-1.65283E-14
 -1      2274 3.64420E-03-3.01975E-04-1.80175E-14
 -1      2275 3.44295E-03-3.52773E-04-1.58822E-14
 -1      2276 3.80053E-03-2.40380E-04-1.95627E-14
 -1      2277 3.95681E-03-1.80160E-04-2.11615E-14
 -1      2278 3.75978E-03-2.27108E-04-1.88630E-14
 -1      2279 4.11319E-03-1.22011E-04-2.28133E-14
 -1      2280 4.26897E-03-6.62630E-05-2.45170E-14
 -1      2281 4.07646E-03-1.06608E-04-2.20622E-14
 -1      2282 4.42437E-03-1.31706E-05-2.62706E-14
 -1      2283 4.57888E-03 3.73002E-05-2.80738E-14
 -1      2284 4.39031E-03 3.98317E-06-2.54683E-14
 -1      2285 4.73275E-03 8.51924E-05-2.99261E-14
 -1      2286 4.88567E-03 1.30713E-04-3.18250E-14
 -1      2287 4.69999E-03 1.03627E-04-2.90737E-14
 -1      2288 5.03785E-03 1.74067E-04-3.37696E-14
 -1      2289 5.18912E-03 2.15510E-04-3.57594E-14
 -1      2290 5.00528E-03 1.93378E-04-3.28699E-14
 -1      2291 5.33966E-03 2.55309E-04-3.77921E-14
 -1      2292 5.48940E-03 2.93706E-04-3.98670E-14
 -1      2293 5.30653E-03 2.75183E-04-3.68454E-14
 -1      2294 5.63845E-03 3.30961E-04-4.19836E-14
 -1      2295 5.78684E-03 3.67276E-04-4.41423E-14
 -1      2296 5.60437E-03 3.51154E-04-4.09932E-14
 -1      2297 5.93461E-03 4.02875E-04-4.63417E-14
 -1      2298 6.08183E-03 4.37912E-04-4.85810E-14
 -1      2299 5.89944E-03 4.23205E-04-4.53067E-14
 -1      2300 6.22852E-03 4.72561E-04-5.08590E-14
 -1      2301 6.37477E-03 5.06934E-04-5.31761E-14
 -1      2302 6.19230E-03 4.92893E-04-4.97811E-14
 -1      2303 6.52058E-03 5.41155E-04-5.55321E-14
 -1      2304 6.66602E-03 5.75302E-04-5.79262E-14
 -1      2305 6.48343E-03 5.61394E-04-5.44130E-14
 -1      2306 6.81111E-03 6.09455E-04-6.03584E-14
 -1      2307 6.95590E-03 6.43665E-04-6.28251E-14
 -1      2308 6.77321E-03 6.29540E-04-5.91977E-14
 -1      2309 7.10041E-03 6.77979E-04-6.53291E-14
 -1      2310 7.24470E-03 7.12427E-04-6.78684E-14
 -1      2311 7.06194E-03 6.97877E-04-6.41296E-14
 -1      2312 7.38875E-03 7.47032E-04-7.04411E-14
 -1      2313 7.53264E-03 7.81811E-04-7.30492E-14
 -1      2314 7.34986E-03 7.66733E-04-6.92027E-14
 -1      2315 7.67634E-03 8.16768E-04-7.56912E-14
 -1      2316 7.81992E-03 8.51910E-04-7.83655E-14
 -1      2317 7.63716E-03 8.36272E-04-7.44129E-14
 -1      2318 7.96336E-03 8.87231E-04-8.10721E-14
 -1      2319 8.10670E-03 9.22732E-04-8.38112E-14
 -1      2320 7.92400E-03 9.06553E-04-7.97570E-14
 -1      2321 8.24994E-03 9.58401E-04-8.65808E-14
 -1      2322 8.39311E-03 9.94235E-04-8.93810E-14
 -1      2323 8.21048E-03 9.77560E-04-8.52282E-14
 -1      2324 8.53621E-03 1.03022E-03-9.22126E-14
 -1      2325 8.67925E-03 1.06635E-03-9.50739E-14
 -1      2326 8.49670E-03 1.04924E-03-9.08246E-14
 -1      2327 8.82225E-03 1.10260E-03-9.79630E-14
 -1      2328 8.96521E-03 1.13898E-03-1.00878E-13
 -1      2329 8.78273E-03 1.12150E-03-9.65413E-14
 -1      2330 9.10813E-03 1.17547E-03-1.03821E-13
 -1      2331 9.25103E-03 1.21206E-03-1.06791E-13
 -1      2332 9.06863E-03 1.19427E-03-1.02368E-13
 -1      2333 9.39391E-03 1.24874E-03-1.09786E-13
 -1      2334 9.53677E-03 1.28550E-03-1.12807E-13
 -1      2335 9.35444E-03 1.26746E-03-1.08299E-13
 -1      2336 9.67961E-03 1.32233E-03-1.15853E-13
 -1      2337 9.82245E-03 1.35922E-03-1.18924E-13
 -1      2338 9.64018E-03 1.34098E-03-1.14334E-13
 -1      2339 9.96528E-03 1.39617E-03-1.22020E-13
 -1      2340 1.01081E-02 1.43317E-03-1.25141E-13
 -1      2341 9.92589E-03 1.41477E-03-1.20470E-13
 -1      2342 1.02509E-02 1.47021E-03-1.28286E-13
 -1      2343 1.03937E-02 1.50729E-03-1.31454E-13
 -1      2344 1.02116E-02 1.48878E-03-1.26704E-13
 -1      2345 1.05366E-02 1.54440E-03-1.34646E-13
 -1      2346 1.06794E-02 1.58154E-03-1.37857E-13
 -1      2347 1.04972E-02 1.56294E-03-1.33033E-13
 -1      2348 1.08222E-02 1.61870E-03-1.41090E-13
 -1      2349 1.09650E-02 1.65588E-03-1.44346E-13
 -1      2350 1.07829E-02 1.63722E-03-1.39450E-13
 -1      2351 1.11078E-02 1.69308E-03-1.47618E-13
 -1      2352 1.12507E-02 1.73029E-03-1.50911E-13
 -1      2353 1.10686E-02 1.71159E-03-1.45951E-13
 -1      2354 1.13935E-02 1.76752E-03-1.54223E-13
 -1      2355 1.15363E-02 1.80476E-03-1.57553E-13
 -1      2356 1.13542E-02 1.78602E-03-1.52530E-13
 -1      2357 1.16791E-02 1.84200E-03-1.60900E-13
 -1      2358 1.18220E-02 1.87925E-03-1.64267E-13
 -1      2359 1.16399E-02 1.86049E-03-1.59184E-13
 -1      2360 1.19648E-02 1.91650E-03-1.67647E-13
 -1      2361 1.21076E-02 1.95376E-03-1.71044E-13
 -1      2362 1.19256E-02 1.93499E-03-1.65908E-13
 -1      2363 1.22505E-02 1.99103E-03-1.74459E-13
 -1      2364 1.23933E-02 2.02829E-03-1.77887E-13
 -1      2365 1.22113E-02 2.00951E-03-1.72696E-13
 -1      2366 1.25362E-02 2.06556E-03-1.81330E-13
 -1      2367 1.26790E-02 2.10282E-03-1.84786E-13
 -1      2368 1.24970E-02 2.08404E-03-1.79547E-13
 -1      2369 1.28219E-02 2.14009E-03-1.88255E-13
 -1      2370 1.29647E-02 2.17736E-03-1.91738E-13
 -1      2371 1.27827E-02 2.15857E-03-1.86453E-13
 -1      2372 1.31076E-02 2.21463E-03-1.95228E-13
 -1      2373 1.32504E-02 2.25190E-03-1.98728E-13
 -1      2374 1.30684E-02 2.23311E-03-1.93407E-13
 -1      2375 1.33933E-02 2.28916E-03-2.02241E-13
 -1      2376 1.35361E-02 2.32643E-03-2.05761E-13
 -1      2377 1.33541E-02 2.30764E-03-2.00404E-13
 -1      2378 1.36790E-02 2.36369E-03-2.09289E-13
 -1      2379 1.38218E-02 2.40095E-03-2.12823E-13
 -1      2380 1.36398E-02 2.38218E-03-2.07440E-13
 -1      2381 2.50875E-03 1.29623E-03-4.66070E-15
 -1      2382 2.32145E-03 1.18393E-03-3.91247E-15
 -1      2383 2.86684E-03 1.43642E-03-6.39152E-15
 -1      2384 2.68826E-03 1.38351E-03-5.48738E-15
 -1      2385 2.56908E-03 1.31453E-03-5.13507E-15
 -1      2386 3.22152E-03 1.43380E-03-8.43261E-15
 -1      2387 3.04176E-03 1.45238E-03-7.37329E-15
 -1      2388 3.59220E-03 1.32117E-03-1.07785E-14
 -1      2389 3.40374E-03 1.38401E-03-9.57288E-15
 -1      2390 3.97611E-03 1.18442E-03-1.33927E-14
 -1      2391 3.78412E-03 1.25122E-03-1.20525E-14
 -1      2392 3.70192E-03 1.23555E-03-1.15198E-14
 -1      2393 4.35601E-03 1.07941E-03-1.62536E-14
 -1      2394 4.16821E-03 1.12635E-03-1.47935E-14
 -1      2395 4.09749E-03 1.09831E-03-1.42121E-14
 -1      2396 4.72142E-03 1.02444E-03-1.93401E-14
 -1      2397 4.54134E-03 1.04578E-03-1.77704E-14
 -1      2398 4.47716E-03 1.00851E-03-1.71424E-14
 -1      2399 5.07068E-03 1.01616E-03-2.26334E-14
 -1      2400 4.89822E-03 1.01517E-03-2.09615E-14
 -1      2401 4.83401E-03 9.71753E-04-2.02891E-14
 -1      2402 5.40635E-03 1.04364E-03-2.61242E-14
 -1      2403 5.24014E-03 1.02619E-03-2.43546E-14
 -1      2404 5.17127E-03 9.78407E-04-2.36365E-14
 -1      2405 5.73134E-03 1.09560E-03-2.98065E-14
 -1      2406 5.57003E-03 1.06717E-03-2.79418E-14
 -1      2407 5.49462E-03 1.01628E-03-2.71773E-14
 -1      2408 6.04799E-03 1.16305E-03-3.36695E-14
 -1      2409 5.89056E-03 1.12782E-03-3.17155E-14
 -1      2410 5.80859E-03 1.07477E-03-3.09052E-14
 -1      2411 6.35801E-03 1.23961E-03-3.77064E-14
 -1      2412 6.20370E-03 1.20048E-03-3.56670E-14
 -1      2413 6.11610E-03 1.14606E-03-3.48119E-14
 -1      2414 6.66267E-03 1.32103E-03-4.19100E-14
 -1      2415 6.51090E-03 1.27991E-03-3.97872E-14
 -1      2416 6.41886E-03 1.22474E-03-3.88902E-14
 -1      2417 6.96298E-03 1.40464E-03-4.62732E-14
 -1      2418 6.81327E-03 1.36269E-03-4.40725E-14
 -1      2419 6.71795E-03 1.30723E-03-4.31345E-14
 -1      2420 7.25979E-03 1.48881E-03-5.07925E-14
 -1      2421 7.11174E-03 1.44673E-03-4.85132E-14
 -1      2422 7.01409E-03 1.39128E-03-4.75370E-14
 -1      2423 7.55381E-03 1.57261E-03-5.54631E-14
 -1      2424 7.40708E-03 1.53080E-03-5.31080E-14
 -1      2425 7.30785E-03 1.47554E-03-5.20946E-14
 -1      2426 7.84564E-03 1.65555E-03-6.02790E-14
 -1      2427 7.69995E-03 1.61421E-03-5.78539E-14
 -1      2428 7.59968E-03 1.55924E-03-5.68011E-14
 -1      2429 8.13577E-03 1.73744E-03-6.52420E-14
 -1      2430 7.99088E-03 1.69664E-03-6.27438E-14
 -1      2431 7.88996E-03 1.64198E-03-6.16552E-14
 -1      2432 8.42460E-03 1.81821E-03-7.03409E-14
 -1      2433 8.28032E-03 1.77797E-03-6.77729E-14
 -1      2434 8.17901E-03 1.72363E-03-6.66505E-14
 -1      2435 8.71246E-03 1.89792E-03-7.55756E-14
 -1      2436 8.56863E-03 1.85820E-03-7.29415E-14
 -1      2437 8.46712E-03 1.80415E-03-7.17839E-14
 -1      2438 8.99960E-03 1.97666E-03-8.09394E-14
 -1      2439 8.85611E-03 1.93741E-03-7.82421E-14
 -1      2440 8.75451E-03 1.88363E-03-7.70514E-14
 -1      2441 9.28622E-03 2.05456E-03-8.64223E-14
 -1      2442 9.14297E-03 2.01571E-03-8.36647E-14
 -1      2443 9.04136E-03 1.96216E-03-8.24448E-14
 -1      2444 9.57247E-03 2.13173E-03-9.20234E-14
 -1      2445 9.42938E-03 2.09323E-03-8.92090E-14
 -1      2446 9.32781E-03 2.03987E-03-8.79587E-14
 -1      2447 9.85846E-03 2.20831E-03-9.77350E-14
 -1      2448 9.71549E-03 2.17009E-03-9.48669E-14
 -1      2449 9.61397E-03 2.11688E-03-9.35875E-14
 -1      2450 1.01443E-02 2.28439E-03-1.03551E-13
 -1      2451 1.00014E-02 2.24641E-03-1.00631E-13
 -1      2452 9.89993E-03 2.19332E-03-9.93250E-14
 -1      2453 1.04300E-02 2.36008E-03-1.09469E-13
 -1      2454 1.02872E-02 2.32228E-03-1.06497E-13
 -1      2455 1.01858E-02 2.26930E-03-1.05165E-13
 -1      2456 1.07156E-02 2.43545E-03-1.15486E-13
 -1      2457 1.05728E-02 2.39780E-03-1.12465E-13
 -1      2458 1.04715E-02 2.34489E-03-1.11106E-13
 -1      2459 1.10013E-02 2.51058E-03-1.21603E-13
 -1      2460 1.08585E-02 2.47304E-03-1.18533E-13
 -1      2461 1.07572E-02 2.42020E-03-1.17146E-13
 -1      2462 1.12869E-02 2.58553E-03-1.27811E-13
 -1      2463 1.11441E-02 2.54808E-03-1.24697E-13
 -1      2464 1.10428E-02 2.49528E-03-1.23285E-13
 -1      2465 1.15724E-02 2.66034E-03-1.34109E-13
 -1      2466 1.14296E-02 2.62295E-03-1.30950E-13
 -1      2467 1.13285E-02 2.57018E-03-1.29515E-13
 -1      2468 1.18580E-02 2.73504E-03-1.40488E-13
 -1      2469 1.17152E-02 2.69770E-03-1.37289E-13
 -1      2470 1.16141E-02 2.64496E-03-1.35833E-13
 -1      2471 1.21437E-02 2.80967E-03-1.46948E-13
 -1      2472 1.20009E-02 2.77237E-03-1.43708E-13
 -1      2473 1.18997E-02 2.71964E-03-1.42229E-13
 -1      2474 1.24293E-02 2.88425E-03-1.53485E-13
 -1      2475 1.22865E-02 2.84697E-03-1.50206E-13
 -1      2476 1.21854E-02 2.79425E-03-1.48704E-13
 -1      2477 1.27149E-02 2.95880E-03-1.60088E-13
 -1      2478 1.25721E-02 2.92153E-03-1.56779E-13
 -1      2479 1.24710E-02 2.86882E-03-1.55256E-13
 -1      2480 1.30006E-02 3.03332E-03-1.66753E-13
 -1      2481 1.28578E-02 2.99606E-03-1.63414E-13
 -1      2482 1.27567E-02 2.94336E-03-1.61877E-13
 -1      2483 1.32863E-02 3.10782E-03-1.73471E-13
 -1      2484 1.31434E-02 3.07057E-03-1.70107E-13
 -1      2485 1.30423E-02 3.01787E-03-1.68557E-13
 -1      2486 1.35719E-02 3.18232E-03-1.80233E-13
 -1      2487 1.34291E-02 3.14508E-03-1.76847E-13
 -1      2488 1.33280E-02 3.09238E-03-1.75291E-13
 -1      2489 1.38576E-02 3.25682E-03-1.87029E-13
 -1      2490 1.37148E-02 3.21957E-03-1.83627E-13
 -1      2491 1.36137E-02 3.16687E-03-1.82065E-13
 -1      2492 1.41433E-02 3.33132E-03-1.93856E-13
 -1      2493 1.40005E-02 3.29407E-03-1.90439E-13
 -1      2494 1.38994E-02 3.24137E-03-1.88876E-13
 -1      2495 1.44290E-02 3.40582E-03-2.00712E-13
 -1      2496 1.42862E-02 3.36857E-03-1.97280E-13
 -1      2497 1.41851E-02 3.31587E-03-1.95715E-13
 -1      2498 1.47147E-02 3.48032E-03-2.07601E-13
 -1      2499 1.45719E-02 3.44307E-03-2.04152E-13
 -1      2500 1.44708E-02 3.39037E-03-2.02585E-13
 -1      2501 1.50004E-02 3.55483E-03-2.14519E-13
 -1      2502 1.48576E-02 3.51757E-03-2.11056E-13
 -1      2503 1.47565E-02 3.46487E-03-2.09487E-13
 -1      2504 1.51463E-02 3.59133E-03-2.18109E-13
 -1      2505 1.47780E-02 3.23801E-03-2.17698E-13
 -1      2506 1.48146E-02 3.28016E-03-2.17522E-13
 -1      2507 1.47047E-02 3.15370E-03-2.18040E-13
 -1      2508 1.47413E-02 3.19585E-03-2.17871E-13
 -1      2509 1.46359E-02 3.18467E-03-2.14754E-13
 -1      2510 1.49233E-02 3.40517E-03-2.16968E-13
 -1      2511 1.49600E-02 3.44732E-03-2.16772E-13
 -1      2512 1.48510E-02 3.32195E-03-2.17338E-13
 -1      2513 1.48870E-02 3.36338E-03-2.17155E-13
 -1      2514 1.47816E-02 3.35219E-03-2.14045E-13
 -1      2515 1.47089E-02 3.26861E-03-2.14406E-13
 -1      2516 1.46314E-02 3.06940E-03-2.18362E-13
 -1      2517 1.46680E-02 3.11155E-03-2.18204E-13
 -1      2518 1.45626E-02 3.10036E-03-2.15085E-13
 -1      2519 1.45581E-02 2.98509E-03-2.18669E-13
 -1      2520 1.45948E-02 3.02725E-03-2.18518E-13
 -1      2521 1.44894E-02 3.01606E-03-2.15399E-13
 -1      2522 1.44849E-02 2.90079E-03-2.18955E-13
 -1      2523 1.45215E-02 2.94294E-03-2.18813E-13
 -1      2524 1.44161E-02 2.93175E-03-2.15696E-13
 -1      2525 1.44128E-02 2.81791E-03-2.19218E-13
 -1      2526 1.44489E-02 2.85935E-03-2.19088E-13
 -1      2527 1.43434E-02 2.84816E-03-2.15970E-13
 -1      2528 1.43396E-02 2.73361E-03-2.19473E-13
 -1      2529 1.43762E-02 2.77576E-03-2.19348E-13
 -1      2530 1.42708E-02 2.76457E-03-2.16229E-13
 -1      2531 1.42663E-02 2.64931E-03-2.19709E-13
 -1      2532 1.43030E-02 2.69146E-03-2.19593E-13
 -1      2533 1.41976E-02 2.68027E-03-2.16475E-13
 -1      2534 1.41931E-02 2.56502E-03-2.19934E-13
 -1      2535 1.42297E-02 2.60716E-03-2.19821E-13
 -1      2536 1.41243E-02 2.59597E-03-2.16706E-13
 -1      2537 4.92280E-03 5.44521E-04-1.54228E-14
 -1      2538 4.94009E-03 5.38173E-04-1.54545E-14
 -1      2539 4.74682E-03 5.92821E-04-1.49914E-14
 -1      2540 4.85550E-03 5.65604E-04-1.53477E-14
 -1      2541 3.68667E-03 1.07933E-03-1.07806E-14
 -1      2542 3.87563E-03 9.70576E-04-1.15005E-14
 -1      2543 2.12089E-03 1.04680E-03-3.25014E-15
 -1      2544 1.92327E-03 9.12579E-04-2.64928E-15
 -1      2545 1.75685E-03 7.85219E-04-2.44379E-15
 -1      2546 1.42063E-02 2.51105E-03-2.22048E-13
 -1      2547 4.46247E-03 6.89906E-04-1.38767E-14
 -1      2548 4.58968E-03 6.43733E-04-1.43633E-14
 -1      2549 4.78665E-03 5.02345E-04-1.52328E-14
 -1      2550 4.65187E-03 4.71655E-04-1.50370E-14
 -1      2551 4.92115E-03 5.29435E-04-1.54496E-14
 -1      2552 4.87771E-03 5.23141E-04-1.54078E-14
 -1      2553 3.02489E-03-3.22156E-04-9.81553E-15
 -1      2554 2.87264E-03-3.99452E-04-9.06911E-15
 -1      2555 4.48138E-04 1.88478E-04-1.89759E-15
 -1      2556 4.66764E-04 1.81887E-04-1.90718E-15
 -1      2557 4.49487E-04 9.14476E-05-7.04176E-16
 -1      2558 4.91727E-04 6.82773E-05-7.12836E-16
 -1      2559 6.27818E-04 4.87228E-05-9.72218E-16
 -1      2560 5.20015E-04 1.09469E-04-9.45872E-16
 -1      2561 1.47490E-03 5.76927E-04-2.97897E-15
 -1      2562 1.66520E-03 6.99715E-04-3.28837E-15
 -1      2563 2.99554E-03 1.37530E-03-7.56117E-15
 -1      2564 3.12385E-03 1.34725E-03-8.19754E-15
 -1      2565 2.64598E-03 1.32631E-03-5.96970E-15
 -1      2566 2.82236E-03 1.37252E-03-6.75810E-15
 -1      2567 2.31830E-03 1.15127E-03-4.80125E-15
 -1      2568 2.45409E-03 1.23711E-03-5.25085E-15
 -1      2569 1.73974E-03-2.45621E-04-4.27441E-15
 -1      2570 1.59698E-03-1.70979E-04-3.90520E-15
 -1      2571 1.89673E-03 8.56790E-04-3.72868E-15
 -1      2572 2.11317E-03 1.01222E-03-4.21755E-15
 -1      2573 1.05670E-03 3.57960E-04-2.48862E-15
 -1      2574 1.23495E-03 4.42085E-04-2.66673E-15
 -1      2575 7.48039E-04 2.34271E-04-2.12832E-15
 -1      2576 8.93304E-04 2.87044E-04-2.30301E-15
 -1      2577 9.60969E-04 2.95142E-04-2.15805E-15
 -1      2578 5.28603E-04 1.84733E-04-1.92941E-15
 -1      2579 6.11547E-04 1.96203E-04-1.99539E-15
 -1      2580 5.21509E-04 1.96070E-04-1.97604E-15
 -1      2581 4.72021E-04 1.92814E-04-1.92287E-15
 -1      2582 1.07848E-03 6.36591E-05-2.82382E-15
 -1      2583 9.49593E-04 1.08388E-04-2.59521E-15
 -1      2584 4.12752E-03 2.80866E-04-1.38231E-14
 -1      2585 3.94782E-03 1.95364E-04-1.33044E-14
 -1      2586 1.42184E-03-8.58574E-05-3.50664E-15
 -1      2587 1.24408E-03-3.72753E-06-3.13264E-15
 -1      2588 1.48452E-03-1.24730E-04-3.49357E-15
 -1      2589 2.45936E-03-4.95022E-04-7.07767E-15
 -1      2590 2.31988E-03-4.80677E-04-6.40674E-15
 -1      2591 2.74287E-03-4.48140E-04-8.43561E-15
 -1      2592 2.62037E-03-4.79758E-04-7.82799E-15
 -1      2593 2.80879E-03-4.22816E-04-8.94629E-15
 -1      2594 3.35259E-03-1.33678E-04-1.12755E-14
 -1      2595 3.21813E-03-2.14094E-04-1.07511E-14
 -1      2596 3.73480E-03 8.55076E-05-1.26458E-14
 -1      2597 3.53974E-03-2.68062E-05-1.19509E-14
 -1      2598 3.46451E-03-6.22109E-05-1.21679E-14
 -1      2599 4.47130E-03 4.15296E-04-1.46564E-14
 -1      2600 4.31606E-03 3.58395E-04-1.42482E-14
 -1      2601 6.69711E-04-2.79465E-04-6.61770E-16
 -1      2602 8.90089E-04-3.73025E-04-1.05715E-15
 -1      2603 9.61313E-04-3.63599E-04-1.27868E-15
 -1      2604 6.59356E-04-2.41715E-04-6.92615E-16
 -1      2605 9.80723E-04 3.73094E-04-6.82099E-16
 -1      2606 7.87092E-04 2.85449E-04-4.51340E-16
 -1      2607 7.30023E-04 2.43955E-04-4.60000E-16
 -1      2608 1.01487E-03 3.66035E-04-8.73311E-16
 -1      2609 4.07532E-03 8.65847E-04-1.22916E-14
 -1      2610 4.27355E-03 7.70568E-04-1.31065E-14
 -1      2611 4.00118E-03 9.21896E-04-1.23986E-14
 -1      2612 1.78970E-03 7.75316E-04-3.32658E-15
 -1      2613 7.50642E-04-1.17223E-04-9.96192E-16
 -1      2614 6.19998E-04-1.04851E-04-7.30549E-16
 -1      2615 6.30523E-04-1.41549E-04-7.24396E-16
 -1      2616 1.40442E-02 2.45702E-03-2.18392E-13
 -1      2617 1.41364E-02 2.52218E-03-2.19402E-13
 -1      2618 1.40310E-02 2.51098E-03-2.16284E-13
 -1      2619 1.39177E-02 2.42531E-03-2.15216E-13
 -1      2620 6.74456E-04 1.96530E-04-5.01687E-16
 -1      2621 1.16299E-03 2.37283E-05-2.81754E-15
 -1      2622 5.67059E-04 1.89677E-04-1.91636E-15
 -1      2623 5.12931E-04 1.82780E-04-1.68939E-15
 -1      2624 6.17335E-04 1.78609E-04-1.85741E-15
 -1      2625 3.60409E-03 1.14309E-03-1.06125E-14
 -1      2626 1.38785E-02 2.44379E-03-2.13358E-13
 -1      2627 6.71312E-04 1.94392E-04-1.86437E-15
 -1      2628 4.70319E-03 6.21973E-04-1.54250E-14
 -1      2629 2.93771E-03 1.42452E-03-6.95253E-15
 -1      2630 7.92723E-04 2.35399E-04-7.23502E-16
 -1      2631 3.30978E-03 1.37647E-03-9.08826E-15
 -1      2632 1.50453E-02 3.53862E-03-2.16538E-13
 -1      2633 1.50007E-02 3.50139E-03-2.16311E-13
 -1      2634 1.83668E-03-3.01692E-04-4.49611E-15
 -1      2635 4.94727E-03 5.44087E-04-1.62291E-14
 -1      2636 4.91224E-03 5.63511E-04-1.61543E-14
 -1      2637 2.20231E-03 1.07039E-03-4.30760E-15
 -1      2638 4.84054E-03 5.24221E-04-1.60457E-14
 -1      2639 2.57651E-03 1.29905E-03-5.58418E-15
 -1      2640 4.37140E-03 7.43777E-04-1.39940E-14
 -1      2641 4.57928E-03 4.58496E-04-1.54755E-14
 -1      2642 6.51263E-04-2.05031E-04-7.14381E-16
 -1      2643 3.84027E-03 1.49002E-04-1.35350E-14
 -1      2644 4.22051E-03 3.29600E-04-1.46493E-14
 -1      2645 3.11043E-03-2.72000E-04-1.05194E-14
 -1      2646 4.44876E-04 1.79820E-04-1.72517E-15
 -1      2647 4.82669E-04 1.66035E-04-1.72305E-15
 -1      2648 2.17358E-03 1.07002E-03-3.64072E-15
 -1      2649 2.21945E-03-4.62050E-04-5.95596E-15
 -1      2650 2.12227E-03-4.35104E-04-5.52249E-15
 -1      2651 2.29443E-03-4.88131E-04-6.34212E-15
 -1      2652 8.45026E-04 1.38013E-04-2.30858E-15
 -1      2653 7.49637E-04 1.54188E-04-2.04212E-15
 -1      2654 8.99717E-04 1.12870E-04-2.24498E-15
 -1      2655 3.23584E-03 1.32613E-03-8.77198E-15
 -1      2656 2.91220E-03 1.38798E-03-7.09974E-15
 -1      2657 1.34231E-03 4.88494E-04-2.61732E-15
 -1      2658 2.53671E-03-4.93344E-04-7.54298E-15
 -1      2659 1.48587E-02 3.44805E-03-2.13408E-13
 -1      2660 5.99261E-04 1.61205E-04-1.59860E-15
 -1      2661 7.22538E-04 1.91842E-04-1.71265E-15
 -1      2662 3.76296E-04 1.29567E-04-1.08606E-15
 -1      2663 3.89827E-04 1.41784E-04-1.10111E-15
 -1      2664 4.51192E-04 1.57857E-04-1.23776E-15
 -1      2665 5.16191E-04 1.52465E-04-1.25950E-15
 -1      2666 6.08226E-04 1.32210E-04-1.12138E-15
 -1      2667 5.20603E-04 1.15814E-04-1.13512E-15
 -1      2668 1.37746E-03 5.32294E-04-1.77014E-15
 -1      2669 1.18367E-03 4.25599E-04-1.36418E-15
 -1      2670 3.44871E-03 1.27924E-03-9.97797E-15
 -1      2671 3.24324E-03 1.35162E-03-8.80944E-15
 -1      2672 3.94032E-03 9.80533E-04-1.24494E-14
 -1      2673 4.11421E-03 8.87787E-04-1.32730E-14
 -1      2674 1.39352E-02 2.48663E-03-2.13892E-13
 -1      2675 1.39918E-02 2.52947E-03-2.14423E-13
 -1      2676 1.38393E-02 2.46228E-03-2.11502E-13
 -1      2677 9.23451E-04 2.91334E-04-9.57337E-16
 -1      2678 4.66038E-03 6.59007E-04-1.59114E-14
 -1      2679 4.79744E-03 6.18703E-04-1.65689E-14
 -1      2680 1.51824E-03-5.09514E-04-3.00824E-15
 -1      2681 1.68061E-03-5.52009E-04-3.65558E-15
 -1      2682 1.84042E-03-5.87688E-04-4.37035E-15
 -1      2683 1.99792E-03-6.13858E-04-5.15367E-15
 -1      2684 1.76363E-03-5.35207E-04-4.03428E-15
 -1      2685 2.15266E-03-6.29376E-04-6.00617E-15
 -1      2686 2.30618E-03-6.32208E-04-6.92724E-15
 -1      2687 2.08373E-03-5.92755E-04-5.60308E-15
 -1      2688 2.45815E-03-6.22035E-04-7.91749E-15
 -1      2689 2.61083E-03-5.98755E-04-8.97500E-15
 -1      2690 2.39492E-03-6.00828E-04-7.44832E-15
 -1      2691 2.76394E-03-5.63207E-04-1.00989E-14
 -1      2692 2.91910E-03-5.17580E-04-1.12894E-14
 -1      2693 2.70459E-03-5.51809E-04-9.56770E-15
 -1      2694 3.07590E-03-4.63574E-04-1.25440E-14
 -1      2695 3.23465E-03-4.04123E-04-1.38606E-14
 -1      2696 3.02063E-03-4.54662E-04-1.19535E-14
 -1      2697 3.39491E-03-3.41042E-04-1.52370E-14
 -1      2698 3.55597E-03-2.76786E-04-1.66721E-14
 -1      2699 3.34512E-03-3.29808E-04-1.45919E-14
 -1      2700 3.71758E-03-2.12697E-04-1.81642E-14
 -1      2701 3.87867E-03-1.50126E-04-1.97122E-14
 -1      2702 3.67412E-03-1.97722E-04-1.74673E-14
 -1      2703 4.03928E-03-8.98464E-05-2.13126E-14
 -1      2704 4.19853E-03-3.22543E-05-2.29650E-14
 -1      2705 4.00166E-03-7.18914E-05-2.05647E-14
 -1      2706 4.35665E-03 2.23331E-05-2.46697E-14
 -1      2707 4.51312E-03 7.40594E-05-2.64227E-14
 -1      2708 4.32336E-03 4.19594E-05-2.38720E-14
 -1      2709 4.66825E-03 1.22904E-04-2.82246E-14
 -1      2710 4.82179E-03 1.69222E-04-3.00753E-14
 -1      2711 4.63747E-03 1.43194E-04-2.73792E-14
 -1      2712 4.97409E-03 2.13152E-04-3.19721E-14
 -1      2713 5.12504E-03 2.55077E-04-3.39150E-14
 -1      2714 4.94423E-03 2.33557E-04-3.10776E-14
 -1      2715 5.27494E-03 2.95204E-04-3.59019E-14
 -1      2716 5.42381E-03 3.33863E-04-3.79318E-14
 -1      2717 5.24486E-03 3.15499E-04-3.49607E-14
 -1      2718 5.57184E-03 3.71277E-04-4.00047E-14
 -1      2719 5.71909E-03 4.07701E-04-4.21188E-14
 -1      2720 5.54081E-03 3.91405E-04-3.90186E-14
 -1      2721 5.86571E-03 4.43337E-04-4.42747E-14
 -1      2722 6.01178E-03 4.78372E-04-4.64712E-14
 -1      2723 5.83342E-03 4.63304E-04-4.32457E-14
 -1      2724 6.15736E-03 5.12969E-04-4.87069E-14
 -1      2725 6.30255E-03 5.47261E-04-5.09827E-14
 -1      2726 6.12370E-03 5.32794E-04-4.76359E-14
 -1      2727 6.44738E-03 5.81370E-04-5.32970E-14
 -1      2728 6.59193E-03 6.15382E-04-5.56500E-14
 -1      2729 6.41244E-03 6.01064E-04-5.21841E-14
 -1      2730 6.73622E-03 6.49383E-04-5.80406E-14
 -1      2731 6.88030E-03 6.83427E-04-6.04689E-14
 -1      2732 6.70015E-03 6.68953E-04-5.68870E-14
 -1      2733 7.02419E-03 7.17569E-04-6.29329E-14
 -1      2734 7.16794E-03 7.51838E-04-6.54320E-14
 -1      2735 6.98720E-03 7.37018E-04-6.17390E-14
 -1      2736 7.31154E-03 7.86265E-04-6.79674E-14
 -1      2737 7.45503E-03 8.20864E-04-7.05357E-14
 -1      2738 7.27380E-03 8.05594E-04-6.67344E-14
 -1      2739 7.59841E-03 8.55648E-04-7.31394E-14
 -1      2740 7.74173E-03 8.90620E-04-7.57760E-14
 -1      2741 7.56012E-03 8.74860E-04-7.18690E-14
 -1      2742 7.88495E-03 9.25780E-04-7.84446E-14
 -1      2743 8.02813E-03 9.61127E-04-8.11458E-14
 -1      2744 7.84625E-03 9.44881E-04-7.71365E-14
 -1      2745 8.17124E-03 9.96652E-04-8.38807E-14
 -1      2746 8.31432E-03 1.03235E-03-8.66451E-14
 -1      2747 8.13226E-03 1.01565E-03-8.25353E-14
 -1      2748 8.45735E-03 1.06821E-03-8.94399E-14
 -1      2749 8.60035E-03 1.10422E-03-9.22662E-14
 -1      2750 8.41818E-03 1.08711E-03-8.80603E-14
 -1      2751 8.74332E-03 1.14037E-03-9.51228E-14
 -1      2752 8.88627E-03 1.17665E-03-9.80070E-14
 -1      2753 8.70403E-03 1.15919E-03-9.37077E-14
 -1      2754 9.02920E-03 1.21305E-03-1.00918E-13
 -1      2755 9.17211E-03 1.24956E-03-1.03855E-13
 -1      2756 8.98985E-03 1.23181E-03-9.94710E-14
 -1      2757 9.31501E-03 1.28617E-03-1.06817E-13
 -1      2758 9.45790E-03 1.32286E-03-1.09806E-13
 -1      2759 9.27563E-03 1.30486E-03-1.05339E-13
 -1      2760 9.60077E-03 1.35964E-03-1.12820E-13
 -1      2761 9.74364E-03 1.39648E-03-1.15859E-13
 -1      2762 9.56139E-03 1.37828E-03-1.11311E-13
 -1      2763 9.88651E-03 1.43338E-03-1.18924E-13
 -1      2764 1.00294E-02 1.47034E-03-1.22014E-13
 -1      2765 9.84714E-03 1.45199E-03-1.17382E-13
 -1      2766 1.01722E-02 1.50735E-03-1.25127E-13
 -1      2767 1.03151E-02 1.54440E-03-1.28264E-13
 -1      2768 1.01329E-02 1.52592E-03-1.23554E-13
 -1      2769 1.04579E-02 1.58148E-03-1.31425E-13
 -1      2770 1.06008E-02 1.61860E-03-1.34609E-13
 -1      2771 1.04186E-02 1.60003E-03-1.29821E-13
 -1      2772 1.07436E-02 1.65574E-03-1.37813E-13
 -1      2773 1.08865E-02 1.69291E-03-1.41040E-13
 -1      2774 1.07043E-02 1.67427E-03-1.36181E-13
 -1      2775 1.10293E-02 1.73010E-03-1.44287E-13
 -1      2776 1.11722E-02 1.76730E-03-1.47554E-13
 -1      2777 1.09900E-02 1.74861E-03-1.42626E-13
 -1      2778 1.13150E-02 1.80452E-03-1.50842E-13
 -1      2779 1.14578E-02 1.84174E-03-1.54147E-13
 -1      2780 1.12757E-02 1.82302E-03-1.49156E-13
 -1      2781 1.16007E-02 1.87898E-03-1.57469E-13
 -1      2782 1.17435E-02 1.91623E-03-1.60813E-13
 -1      2783 1.15615E-02 1.89748E-03-1.55760E-13
 -1      2784 1.18864E-02 1.95348E-03-1.64173E-13
 -1      2785 1.20292E-02 1.99073E-03-1.67546E-13
 -1      2786 1.18472E-02 1.97197E-03-1.62438E-13
 -1      2787 1.21721E-02 2.02799E-03-1.70938E-13
 -1      2788 1.23149E-02 2.06526E-03-1.74344E-13
 -1      2789 1.21329E-02 2.04648E-03-1.69182E-13
 -1      2790 1.24578E-02 2.10252E-03-1.77766E-13
 -1      2791 1.26006E-02 2.13979E-03-1.81202E-13
 -1      2792 1.24186E-02 2.12101E-03-1.75990E-13
 -1      2793 1.27435E-02 2.17706E-03-1.84651E-13
 -1      2794 1.28863E-02 2.21432E-03-1.88115E-13
 -1      2795 1.27043E-02 2.19554E-03-1.82854E-13
 -1      2796 1.30292E-02 2.25159E-03-1.91590E-13
 -1      2797 1.31721E-02 2.28886E-03-1.95075E-13
 -1      2798 1.29900E-02 2.27008E-03-1.89774E-13
 -1      2799 1.33149E-02 2.32613E-03-1.98572E-13
 -1      2800 1.34578E-02 2.36339E-03-2.02078E-13
 -1      2801 1.32757E-02 2.34461E-03-1.96742E-13
 -1      2802 1.35771E-02 2.39420E-03-2.05024E-13
 -1      2803 1.37200E-02 2.43147E-03-2.08545E-13
 -1      2804 1.37766E-02 2.47431E-03-2.09078E-13
 -1      2805 1.35379E-02 2.41269E-03-2.03180E-13
 -1      2806 1.92127E-03-3.57925E-04-4.71162E-15
 -1      2807 1.74220E-03-2.71394E-04-4.08698E-15
 -1      2808 4.94820E-03 9.20126E-04-2.12552E-14
 -1      2809 4.78013E-03 9.22918E-04-1.96279E-14
 -1      2810 5.27057E-03 9.42042E-04-2.46555E-14
 -1      2811 5.11147E-03 9.27336E-04-2.29318E-14
 -1      2812 5.05953E-03 8.76031E-04-2.22273E-14
 -1      2813 5.58038E-03 9.89708E-04-2.82457E-14
 -1      2814 5.42663E-03 9.63387E-04-2.64273E-14
 -1      2815 5.36559E-03 9.11574E-04-2.56794E-14
 -1      2816 5.88300E-03 1.05392E-03-3.20180E-14
 -1      2817 5.73231E-03 1.02020E-03-3.01090E-14
 -1      2818 5.66203E-03 9.67326E-04-2.93155E-14
 -1      2819 6.18138E-03 1.12832E-03-3.59690E-14
 -1      2820 6.03255E-03 1.09015E-03-3.39723E-14
 -1      2821 5.95403E-03 1.03600E-03-3.31345E-14
 -1      2822 6.47702E-03 1.20851E-03-4.00891E-14
 -1      2823 6.32943E-03 1.16788E-03-3.80079E-14
 -1      2824 6.24412E-03 1.11261E-03-3.71279E-14
 -1      2825 6.77066E-03 1.29160E-03-4.43741E-14
 -1      2826 6.62401E-03 1.24982E-03-4.22114E-14
 -1      2827 6.53338E-03 1.19371E-03-4.12904E-14
 -1      2828 7.06272E-03 1.37575E-03-4.88172E-14
 -1      2829 6.91683E-03 1.33362E-03-4.65763E-14
 -1      2830 6.82217E-03 1.27698E-03-4.56159E-14
 -1      2831 7.35346E-03 1.45984E-03-5.34116E-14
 -1      2832 7.20821E-03 1.41785E-03-5.10952E-14
 -1      2833 7.11058E-03 1.36092E-03-5.00979E-14
 -1      2834 7.64310E-03 1.54325E-03-5.81549E-14
 -1      2835 7.49838E-03 1.50165E-03-5.57654E-14
 -1      2836 7.39862E-03 1.44463E-03-5.47313E-14
 -1      2837 7.93182E-03 1.62566E-03-6.30445E-14
 -1      2838 7.78755E-03 1.58459E-03-6.05816E-14
 -1      2839 7.68628E-03 1.52760E-03-5.95120E-14
 -1      2840 8.21978E-03 1.70697E-03-6.80737E-14
 -1      2841 8.07587E-03 1.66645E-03-6.55430E-14
 -1      2842 7.97358E-03 1.60956E-03-6.44341E-14
 -1      2843 8.50715E-03 1.78718E-03-7.32404E-14
 -1      2844 8.36352E-03 1.74721E-03-7.06396E-14
 -1      2845 8.26053E-03 1.69046E-03-6.94986E-14
 -1      2846 8.79404E-03 1.86637E-03-7.85416E-14
 -1      2847 8.65064E-03 1.82690E-03-7.58745E-14
 -1      2848 8.54720E-03 1.77030E-03-7.46994E-14
 -1      2849 9.08057E-03 1.94466E-03-8.39650E-14
 -1      2850 8.93734E-03 1.90562E-03-8.12389E-14
 -1      2851 8.83362E-03 1.84917E-03-8.00316E-14
 -1      2852 9.36682E-03 2.02216E-03-8.95088E-14
 -1      2853 9.22372E-03 1.98350E-03-8.67224E-14
 -1      2854 9.11984E-03 1.92718E-03-8.54879E-14
 -1      2855 9.65288E-03 2.09900E-03-9.51655E-14
 -1      2856 9.50987E-03 2.06065E-03-9.23246E-14
 -1      2857 9.40591E-03 2.00446E-03-9.10602E-14
 -1      2858 9.93880E-03 2.17530E-03-1.00926E-13
 -1      2859 9.79585E-03 2.13721E-03-9.80317E-14
 -1      2860 9.69186E-03 2.08111E-03-9.67405E-14
 -1      2861 1.02246E-02 2.25115E-03-1.06791E-13
 -1      2862 1.00817E-02 2.21328E-03-1.03846E-13
 -1      2863 9.97772E-03 2.15726E-03-1.02527E-13
 -1      2864 1.05104E-02 2.32666E-03-1.12756E-13
 -1      2865 1.03675E-02 2.28895E-03-1.09761E-13
 -1      2866 1.02635E-02 2.23300E-03-1.08417E-13
 -1      2867 1.07961E-02 2.40190E-03-1.18821E-13
 -1      2868 1.06532E-02 2.36431E-03-1.15776E-13
 -1      2869 1.05493E-02 2.30842E-03-1.14407E-13
 -1      2870 1.10818E-02 2.47692E-03-1.24979E-13
 -1      2871 1.09389E-02 2.43943E-03-1.21888E-13
 -1      2872 1.08350E-02 2.38358E-03-1.20493E-13
 -1      2873 1.13674E-02 2.55178E-03-1.31229E-13
 -1      2874 1.12246E-02 2.51437E-03-1.28094E-13
 -1      2875 1.11207E-02 2.45855E-03-1.26675E-13
 -1      2876 1.16531E-02 2.62653E-03-1.37565E-13
 -1      2877 1.15103E-02 2.58917E-03-1.34388E-13
 -1      2878 1.14064E-02 2.53338E-03-1.32945E-13
 -1      2879 1.19388E-02 2.70119E-03-1.43979E-13
 -1      2880 1.17959E-02 2.66387E-03-1.40762E-13
 -1      2881 1.16921E-02 2.60809E-03-1.39297E-13
 -1      2882 1.22244E-02 2.77579E-03-1.50473E-13
 -1      2883 1.20816E-02 2.73850E-03-1.47217E-13
 -1      2884 1.19778E-02 2.68273E-03-1.45730E-13
 -1      2885 1.25101E-02 2.85034E-03-1.57041E-13
 -1      2886 1.23673E-02 2.81307E-03-1.53748E-13
 -1      2887 1.22635E-02 2.75732E-03-1.52241E-13
 -1      2888 1.27958E-02 2.92487E-03-1.63678E-13
 -1      2889 1.26529E-02 2.88761E-03-1.60352E-13
 -1      2890 1.25492E-02 2.83186E-03-1.58829E-13
 -1      2891 1.30815E-02 2.99938E-03-1.70376E-13
 -1      2892 1.29386E-02 2.96213E-03-1.67020E-13
 -1      2893 1.28349E-02 2.90639E-03-1.65483E-13
 -1      2894 1.33672E-02 3.07389E-03-1.77123E-13
 -1      2895 1.32243E-02 3.03664E-03-1.73745E-13
 -1      2896 1.31206E-02 2.98089E-03-1.72196E-13
 -1      2897 1.36528E-02 3.14838E-03-1.83910E-13
 -1      2898 1.35100E-02 3.11113E-03-1.80511E-13
 -1      2899 1.34063E-02 3.05539E-03-1.78957E-13
 -1      2900 1.39385E-02 3.22288E-03-1.90735E-13
 -1      2901 1.37957E-02 3.18563E-03-1.87319E-13
 -1      2902 1.36920E-02 3.12989E-03-1.85758E-13
 -1      2903 1.42243E-02 3.29738E-03-1.97587E-13
 -1      2904 1.40814E-02 3.26013E-03-1.94156E-13
 -1      2905 1.39777E-02 3.20439E-03-1.92593E-13
 -1      2906 1.45100E-02 3.37188E-03-2.04472E-13
 -1      2907 1.43671E-02 3.33462E-03-2.01027E-13
 -1      2908 1.42634E-02 3.27888E-03-1.99462E-13
 -1      2909 1.47557E-02 3.42859E-03-2.10668E-13
 -1      2910 1.46129E-02 3.39134E-03-2.07204E-13
 -1      2911 1.45092E-02 3.33560E-03-2.05639E-13
 -1      2912 1.47150E-02 3.37452E-03-2.11117E-13
 -1      2913 1.43473E-02 2.96271E-03-2.12438E-13
 -1      2914 1.43840E-02 3.00487E-03-2.12287E-13
 -1      2915 1.44939E-02 3.13133E-03-2.11812E-13
 -1      2916 1.45305E-02 3.17348E-03-2.11645E-13
 -1      2917 1.42741E-02 2.87841E-03-2.12724E-13
 -1      2918 1.43107E-02 2.92056E-03-2.12585E-13
 -1      2919 1.42053E-02 2.90937E-03-2.09479E-13
 -1      2920 1.44206E-02 3.04702E-03-2.12131E-13
 -1      2921 1.44573E-02 3.08917E-03-2.11973E-13
 -1      2922 1.43519E-02 3.07799E-03-2.08869E-13
 -1      2923 1.42786E-02 2.99368E-03-2.09182E-13
 -1      2924 1.42020E-02 2.79553E-03-2.12987E-13
 -1      2925 1.42380E-02 2.83697E-03-2.12858E-13
 -1      2926 1.41326E-02 2.82578E-03-2.09754E-13
 -1      2927 1.41288E-02 2.71123E-03-2.13241E-13
 -1      2928 1.41654E-02 2.75338E-03-2.13114E-13
 -1      2929 1.40600E-02 2.74219E-03-2.10009E-13
 -1      2930 1.40555E-02 2.62693E-03-2.13475E-13
 -1      2931 1.40922E-02 2.66908E-03-2.13358E-13
 -1      2932 1.39867E-02 2.65788E-03-2.10251E-13
 -1      2933 1.40285E-02 2.57162E-03-2.14316E-13
 -1      2934 1.67570E-03 6.92762E-04-2.86731E-15
 -1      2935 1.87941E-03 8.38071E-04-3.26425E-15
 -1      2936 1.86327E-03 8.41632E-04-2.90708E-15
 -1      2937 1.65509E-03 7.04506E-04-2.35622E-15
 -1      2938 2.85150E-03-4.04215E-04-9.43661E-15
 -1      2939 2.74024E-03-4.49943E-04-8.79358E-15
 -1      2940 1.51678E-03-1.66023E-04-3.39637E-15
 -1      2941 1.36915E-03-9.02843E-05-3.03619E-15
 -1      2942 4.41295E-04 1.72716E-04-1.52587E-15
 -1      2943 4.23481E-04 1.61243E-04-1.50639E-15
 -1      2944 4.91654E-03 5.81145E-04-1.69936E-14
 -1      2945 4.96574E-03 5.66062E-04-1.70780E-14
 -1      2946 9.40219E-04 2.81115E-04-1.15142E-15
 -1      2947 3.65993E-03 1.20798E-03-1.12355E-14
 -1      2948 3.62467E-03 1.17023E-03-1.09166E-14
 -1      2949 3.81724E-03 1.05832E-03-1.19229E-14
 -1      2950 3.86497E-03 1.12880E-03-1.25386E-14
 -1      2951 4.60490E-03 9.35864E-04-1.80499E-14
 -1      2952 4.42324E-03 9.63181E-04-1.65234E-14
 -1      2953 4.73427E-03 8.71694E-04-1.89657E-14
 -1      2954 4.24781E-03 1.00480E-03-1.51910E-14
 -1      2955 4.05134E-03 1.06102E-03-1.37710E-14
 -1      2956 4.02780E-03 1.02184E-03-1.34566E-14
 -1      2957 4.39131E-03 9.16570E-04-1.60462E-14
 -1      2958 1.18842E-03-4.09536E-04-1.91463E-15
 -1      2959 1.35393E-03-4.61311E-04-2.42804E-15
 -1      2960 1.43348E-03-4.45794E-04-2.73846E-15
 -1      2961 1.22815E-03-2.31156E-05-2.73777E-15
 -1      2962 1.08419E-03 3.72970E-05-2.45633E-15
 -1      2963 1.26206E-03-7.02802E-05-2.64680E-15
 -1      2964 3.94893E-03 2.06320E-04-1.44916E-14
 -1      2965 3.76035E-03 1.06171E-04-1.38038E-14
 -1      2966 1.21433E-03 4.07050E-04-2.23595E-15
 -1      2967 1.42589E-03 5.30559E-04-2.50790E-15
 -1      2968 4.30547E-03 7.96056E-04-1.41790E-14
 -1      2969 4.47591E-03 7.24691E-04-1.49780E-14
 -1      2970 8.24219E-04-3.19533E-05-1.29157E-15
 -1      2971 8.58736E-04-8.02916E-05-1.30107E-15
 -1      2972 4.89848E-03 5.42935E-04-1.70966E-14
 -1      2973 4.81280E-03 5.28206E-04-1.69128E-14
 -1      2974 8.78609E-04 2.47916E-04-1.86824E-15
 -1      2975 1.02325E-03 3.09995E-04-2.02728E-15
 -1      2976 4.40391E-04 1.49647E-04-1.48384E-15
 -1      2977 4.92142E-04 1.44472E-04-1.50111E-15
 -1      2978 4.33113E-03 3.78930E-04-1.57067E-14
 -1      2979 4.16493E-03 3.08922E-04-1.52574E-14
 -1      2980 2.59347E-03-4.88906E-04-7.99222E-15
 -1      2981 2.45587E-03-5.04998E-04-7.23521E-15
 -1      2982 2.64722E-03-4.80100E-04-8.44562E-15
 -1      2983 4.97278E-03 5.55835E-04-1.70332E-14
 -1      2984 4.95268E-03 5.52190E-04-1.70293E-14
 -1      2985 3.18724E-03-2.27333E-04-1.13012E-14
 -1      2986 3.01596E-03-3.24899E-04-1.03473E-14
 -1      2987 2.94056E-03-3.67265E-04-1.01688E-14
 -1      2988 3.56401E-03-5.05988E-06-1.31066E-14
 -1      2989 3.40197E-03-1.02805E-04-1.23982E-14
 -1      2990 4.67200E-03 4.92245E-04-1.65022E-14
 -1      2991 4.50883E-03 4.44047E-04-1.61028E-14
 -1      2992 4.45434E-03 4.21495E-04-1.67279E-14
 -1      2993 7.87422E-04-2.30920E-04-9.86787E-16
 -1      2994 3.09412E-03 1.39780E-03-7.95837E-15
 -1      2995 8.82945E-04-1.28693E-04-1.30596E-15
 -1      2996 9.00527E-04-1.75565E-04-1.30553E-15
 -1      2997 1.01679E-03-1.39138E-04-1.65772E-15
 -1      2998 6.11782E-04 1.58176E-04-1.56798E-15
 -1      2999 5.59785E-04 1.35122E-04-1.20022E-15
 -1      3000 7.88123E-04 2.02126E-04-1.03005E-15
 -1      3001 6.97215E-04 1.60454E-04-1.05409E-15
 -1      3002 4.24313E-03 8.56034E-04-1.42278E-14
 -1      3003 1.96603E-03 9.07232E-04-3.31923E-15
 -1      3004 2.09645E-03 9.93172E-04-3.83374E-15
 -1      3005 2.28182E-03 1.12718E-03-4.38043E-15
 -1      3006 2.06696E-03 9.87102E-04-3.43914E-15
 -1      3007 6.92785E-04 1.55753E-04-1.79712E-15
 -1      3008 1.01891E-03 2.50894E-05-2.09163E-15
 -1      3009 9.70546E-04 7.10675E-05-2.17140E-15
 -1      3010 8.63350E-04 9.41949E-05-1.90639E-15
 -1      3011 4.60501E-03 7.05493E-04-1.61026E-14
 -1      3012 1.60431E-03-2.31677E-04-3.57353E-15
 -1      3013 2.64141E-03 1.33790E-03-5.61317E-15
 -1      3014 2.44601E-03 1.23953E-03-4.78030E-15
 -1      3015 1.46787E-02 3.33273E-03-2.11300E-13
 -1      3016 1.45758E-02 3.31327E-03-2.08556E-13
 -1      3017 1.46423E-02 3.29094E-03-2.11476E-13
 -1      3018 4.76333E-03 5.17757E-04-1.75554E-14
 -1      3019 5.20469E-04 1.34940E-04-1.36337E-15
 -1      3020 7.73699E-04 2.00819E-04-1.59597E-15
 -1      3021 3.29960E-03-1.71404E-04-1.21969E-14
 -1      3022 1.39231E-02 2.56042E-03-2.11202E-13
 -1      3023 1.52394E-03 5.98152E-04-2.45272E-15
 -1      3024 9.21293E-04-2.31559E-04-1.31389E-15
 -1      3025 9.43403E-04-3.08828E-04-1.29965E-15
 -1      3026 1.09587E-03-3.66494E-04-1.67296E-15
 -1      3027 1.06159E-03-2.50936E-04-1.67784E-15
 -1      3028 4.08049E-04 1.40076E-04-1.29494E-15
 -1      3029 1.46893E-03 5.72730E-04-2.14973E-15
 -1      3030 4.94927E-03 5.56943E-04-1.79106E-14
 -1      3031 7.99971E-04 3.05767E-05-1.37737E-15
 -1      3032 9.66136E-04-1.74894E-05-1.74315E-15
 -1      3033 4.89549E-03 6.07798E-04-1.74983E-14
 -1      3034 4.97657E-03 6.07968E-04-1.84425E-14
 -1      3035 4.87665E-03 6.40892E-04-1.80005E-14
 -1      3036 4.61125E-04 1.70885E-04-1.46596E-15
 -1      3037 3.68700E-03 5.49214E-05-1.40377E-14
 -1      3038 6.32752E-04 1.08667E-04-1.22059E-15
 -1      3039 2.01145E-03-4.09827E-04-5.05088E-15
 -1      3040 4.99865E-03 5.72703E-04-1.78879E-14
 -1      3041 1.02597E-03 3.14452E-04-1.45253E-15
 -1      3042 2.36158E-03-5.05439E-04-6.75011E-15
 -1      3043 2.27004E-03-4.96672E-04-6.28282E-15
 -1      3044 2.42094E-03-5.14152E-04-7.16174E-15
 -1      3045 1.17314E-03-3.52219E-04-1.92736E-15
 -1      3046 1.45683E-02 3.21131E-03-2.11652E-13
 -1      3047 1.46046E-02 3.25311E-03-2.11477E-13
 -1      3048 1.45017E-02 3.23364E-03-2.08731E-13
 -1      3049 1.44262E-02 3.15798E-03-2.08719E-13
 -1      3050 7.35801E-04 7.55587E-05-1.35806E-15
 -1      3051 1.10409E-03 3.47746E-04-1.93191E-15
 -1      3052 4.08207E-03 2.63208E-04-1.55317E-14
 -1      3053 4.32566E-04 1.06361E-04-1.05548E-15
 -1      3054 3.89333E-04 1.14540E-04-1.06762E-15
 -1      3055 2.84900E-03 1.39347E-03-6.68522E-15
 -1      3056 2.99995E-03 1.40004E-03-7.48124E-15
 -1      3057 2.28060E-03 1.13457E-03-4.11818E-15
 -1      3058 7.51802E-04 1.87110E-04-1.38536E-15
 -1      3059 3.94484E-03 1.02153E-03-1.27721E-14
 -1      3060 2.01283E-03-5.52908E-04-5.20366E-15
 -1      3061 2.17310E-03-5.73245E-04-6.05759E-15
 -1      3062 2.33000E-03-5.79470E-04-6.98144E-15
 -1      3063 2.48698E-03-5.69094E-04-7.97497E-15
 -1      3064 2.26372E-03-5.54963E-04-6.51698E-15
 -1      3065 2.64343E-03-5.42303E-04-9.03711E-15
 -1      3066 2.80243E-03-5.01215E-04-1.01668E-14
 -1      3067 2.58210E-03-5.34070E-04-8.50641E-15
 -1      3068 2.96334E-03-4.47622E-04-1.13625E-14
 -1      3069 3.12742E-03-3.86129E-04-1.26239E-14
 -1      3070 2.90601E-03-4.43754E-04-1.07724E-14
 -1      3071 3.29389E-03-3.18989E-04-1.39466E-14
 -1      3072 3.46165E-03-2.50304E-04-1.53295E-14
 -1      3073 3.24227E-03-3.10344E-04-1.33007E-14
 -1      3074 3.63027E-03-1.81704E-04-1.67706E-14
 -1      3075 3.79794E-03-1.15406E-04-1.82675E-14
 -1      3076 3.58643E-03-1.65845E-04-1.60743E-14
 -1      3077 3.96463E-03-5.21974E-05-1.98183E-14
 -1      3078 4.12900E-03 7.48138E-06-2.14214E-14
 -1      3079 3.92838E-03-3.12257E-05-1.90737E-14
 -1      3080 4.29134E-03 6.33355E-05-2.30763E-14
 -1      3081 4.45095E-03 1.15791E-04-2.47817E-14
 -1      3082 4.26072E-03 8.64725E-05-2.22838E-14
 -1      3083 4.60830E-03 1.64851E-04-2.65357E-14
 -1      3084 4.76319E-03 2.11158E-04-2.83374E-14
 -1      3085 4.58089E-03 1.88045E-04-2.56946E-14
 -1      3086 4.91609E-03 2.54834E-04-3.01865E-14
 -1      3087 5.06705E-03 2.96464E-04-3.20820E-14
 -1      3088 4.88980E-03 2.77168E-04-2.92986E-14
 -1      3089 5.21646E-03 3.36213E-04-3.40227E-14
 -1      3090 5.36447E-03 3.74537E-04-3.60076E-14
 -1      3091 5.18983E-03 3.57494E-04-3.30885E-14
 -1      3092 5.51137E-03 4.11607E-04-3.80362E-14
 -1      3093 5.65733E-03 4.47747E-04-4.01065E-14
 -1      3094 5.48354E-03 4.31980E-04-3.70563E-14
 -1      3095 5.80254E-03 4.83116E-04-4.22185E-14
 -1      3096 5.94715E-03 5.17935E-04-4.43726E-14
 -1      3097 5.77310E-03 5.02827E-04-4.11953E-14
 -1      3098 6.09129E-03 5.52336E-04-4.65669E-14
 -1      3099 6.23507E-03 5.86463E-04-4.88010E-14
 -1      3100 6.06012E-03 5.71614E-04-4.55003E-14
 -1      3101 6.37856E-03 6.20423E-04-5.10736E-14
 -1      3102 6.52185E-03 6.54305E-04-5.33852E-14
 -1      3103 6.34574E-03 6.39442E-04-4.99660E-14
 -1      3104 6.66497E-03 6.88186E-04-5.57363E-14
 -1      3105 6.80800E-03 7.22119E-04-5.81246E-14
 -1      3106 6.63068E-03 7.07061E-04-5.45875E-14
 -1      3107 6.95092E-03 7.56155E-04-6.05489E-14
 -1      3108 7.09381E-03 7.90323E-04-6.30097E-14
 -1      3109 6.91537E-03 7.74954E-04-5.93611E-14
 -1      3110 7.23665E-03 8.24653E-04-6.55067E-14
 -1      3111 7.37948E-03 8.59157E-04-6.80375E-14
 -1      3112 7.20008E-03 8.43413E-04-6.42809E-14
 -1      3113 7.52229E-03 8.93849E-04-7.06014E-14
 -1      3114 7.66510E-03 9.28731E-04-7.32004E-14
 -1      3115 7.48491E-03 9.12585E-04-6.93388E-14
 -1      3116 7.80790E-03 9.63805E-04-7.58332E-14
 -1      3117 7.95072E-03 9.99067E-04-7.84968E-14
 -1      3118 7.76991E-03 9.82524E-04-7.45313E-14
 -1      3119 8.09354E-03 1.03451E-03-8.11927E-14
 -1      3120 8.23636E-03 1.07013E-03-8.39223E-14
 -1      3121 8.05508E-03 1.05321E-03-7.98567E-14
 -1      3122 8.37919E-03 1.10592E-03-8.66838E-14
 -1      3123 8.52204E-03 1.14186E-03-8.94745E-14
 -1      3124 8.34041E-03 1.12460E-03-8.53089E-14
 -1      3125 8.66488E-03 1.17795E-03-9.22951E-14
 -1      3126 8.80773E-03 1.21417E-03-9.51463E-14
 -1      3127 8.62587E-03 1.19661E-03-9.08871E-14
 -1      3128 8.95059E-03 1.25051E-03-9.80253E-14
 -1      3129 9.09345E-03 1.28697E-03-1.00932E-13
 -1      3130 8.91143E-03 1.26915E-03-9.65823E-14
 -1      3131 9.23631E-03 1.32352E-03-1.03864E-13
 -1      3132 9.37918E-03 1.36017E-03-1.06822E-13
 -1      3133 9.19706E-03 1.34214E-03-1.02390E-13
 -1      3134 9.52205E-03 1.39691E-03-1.09804E-13
 -1      3135 9.66492E-03 1.43371E-03-1.12812E-13
 -1      3136 9.48275E-03 1.41550E-03-1.08301E-13
 -1      3137 9.80779E-03 1.47058E-03-1.15845E-13
 -1      3138 9.95066E-03 1.50751E-03-1.18903E-13
 -1      3139 9.76847E-03 1.48916E-03-1.14311E-13
 -1      3140 1.00935E-02 1.54449E-03-1.21985E-13
 -1      3141 1.02364E-02 1.58152E-03-1.25091E-13
 -1      3142 1.00542E-02 1.56305E-03-1.20421E-13
 -1      3143 1.03793E-02 1.61858E-03-1.28222E-13
 -1      3144 1.05221E-02 1.65568E-03-1.31376E-13
 -1      3145 1.03400E-02 1.63713E-03-1.26626E-13
 -1      3146 1.06650E-02 1.69281E-03-1.34553E-13
 -1      3147 1.08079E-02 1.72996E-03-1.37750E-13
 -1      3148 1.06257E-02 1.71134E-03-1.32928E-13
 -1      3149 1.09507E-02 1.76713E-03-1.40972E-13
 -1      3150 1.10936E-02 1.80432E-03-1.44212E-13
 -1      3151 1.09115E-02 1.78565E-03-1.39320E-13
 -1      3152 1.12365E-02 1.84153E-03-1.47474E-13
 -1      3153 1.13793E-02 1.87875E-03-1.50756E-13
 -1      3154 1.11972E-02 1.86004E-03-1.45798E-13
 -1      3155 1.15222E-02 1.91598E-03-1.54055E-13
 -1      3156 1.16651E-02 1.95322E-03-1.57373E-13
 -1      3157 1.14830E-02 1.93448E-03-1.52353E-13
 -1      3158 1.18079E-02 1.99047E-03-1.60708E-13
 -1      3159 1.19508E-02 2.02772E-03-1.64062E-13
 -1      3160 1.17687E-02 2.00896E-03-1.58983E-13
 -1      3161 1.20937E-02 2.06497E-03-1.67431E-13
 -1      3162 1.22365E-02 2.10223E-03-1.70815E-13
 -1      3163 1.20544E-02 2.08347E-03-1.65683E-13
 -1      3164 1.23794E-02 2.13950E-03-1.74215E-13
 -1      3165 1.25222E-02 2.17676E-03-1.77631E-13
 -1      3166 1.23402E-02 2.15799E-03-1.72445E-13
 -1      3167 1.26651E-02 2.21403E-03-1.81062E-13
 -1      3168 1.28080E-02 2.25129E-03-1.84505E-13
 -1      3169 1.26259E-02 2.23252E-03-1.79270E-13
 -1      3170 1.29508E-02 2.28856E-03-1.87961E-13
 -1      3171 1.30937E-02 2.32583E-03-1.91433E-13
 -1      3172 1.29116E-02 2.30705E-03-1.86152E-13
 -1      3173 1.32365E-02 2.36310E-03-1.94913E-13
 -1      3174 1.33794E-02 2.40036E-03-1.98405E-13
 -1      3175 1.31974E-02 2.38158E-03-1.93088E-13
 -1      3176 5.45516E-03 8.86886E-04-2.67056E-14
 -1      3177 5.31156E-03 8.61214E-04-2.49315E-14
 -1      3178 1.34639E-03-3.79154E-04-2.47458E-15
 -1      3179 1.51581E-03-4.30169E-04-3.05592E-15
 -1      3180 5.16607E-03 8.39919E-04-2.32044E-14
 -1      3181 5.01702E-03 8.24727E-04-2.15231E-14
 -1      3182 5.26458E-03 8.11886E-04-2.41857E-14
 -1      3183 6.02117E-03 1.02088E-03-3.42528E-14
 -1      3184 5.87993E-03 9.83957E-04-3.22987E-14
 -1      3185 6.30397E-03 1.09884E-03-3.82890E-14
 -1      3186 6.16241E-03 1.05926E-03-3.62496E-14
 -1      3187 6.08404E-03 1.00788E-03-3.53729E-14
 -1      3188 6.58768E-03 1.18025E-03-4.24926E-14
 -1      3189 6.44566E-03 1.13922E-03-4.03702E-14
 -1      3190 6.36067E-03 1.08645E-03-3.94522E-14
 -1      3191 6.87228E-03 1.26329E-03-4.68609E-14
 -1      3192 6.72984E-03 1.22164E-03-4.46570E-14
 -1      3193 6.63974E-03 1.16771E-03-4.36995E-14
 -1      3194 7.15753E-03 1.34675E-03-5.13803E-14
 -1      3195 7.01480E-03 1.30501E-03-4.91010E-14
 -1      3196 6.92081E-03 1.25022E-03-4.81057E-14
 -1      3197 7.44321E-03 1.42988E-03-5.60522E-14
 -1      3198 7.30030E-03 1.38838E-03-5.36981E-14
 -1      3199 7.20340E-03 1.33299E-03-5.26656E-14
 -1      3200 7.72912E-03 1.51226E-03-6.08683E-14
 -1      3201 7.58613E-03 1.47117E-03-5.84423E-14
 -1      3202 7.48707E-03 1.41541E-03-5.73747E-14
 -1      3203 8.01515E-03 1.59368E-03-6.58274E-14
 -1      3204 7.87212E-03 1.55309E-03-6.33300E-14
 -1      3205 7.77151E-03 1.49711E-03-6.22275E-14
 -1      3206 8.30120E-03 1.67408E-03-7.09241E-14
 -1      3207 8.15817E-03 1.63400E-03-6.83590E-14
 -1      3208 8.05644E-03 1.57791E-03-6.72205E-14
 -1      3209 8.58723E-03 1.75350E-03-7.61613E-14
 -1      3210 8.44422E-03 1.71391E-03-7.35256E-14
 -1      3211 8.34171E-03 1.65778E-03-7.23538E-14
 -1      3212 8.87322E-03 1.83201E-03-8.15255E-14
 -1      3213 8.73023E-03 1.79286E-03-7.88274E-14
 -1      3214 8.62718E-03 1.73674E-03-7.76237E-14
 -1      3215 9.15916E-03 1.90973E-03-8.70098E-14
 -1      3216 9.01619E-03 1.87096E-03-8.42533E-14
 -1      3217 8.91279E-03 1.81487E-03-8.30188E-14
 -1      3218 9.44504E-03 1.98676E-03-9.26112E-14
 -1      3219 9.30210E-03 1.94832E-03-8.97971E-14
 -1      3220 9.19847E-03 1.89228E-03-8.85347E-14
 -1      3221 9.73089E-03 2.06322E-03-9.83151E-14
 -1      3222 9.58797E-03 2.02506E-03-9.54497E-14
 -1      3223 9.48420E-03 1.96906E-03-9.41590E-14
 -1      3224 1.00167E-02 2.13922E-03-1.04129E-13
 -1      3225 9.87379E-03 2.10127E-03-1.01209E-13
 -1      3226 9.76994E-03 2.04532E-03-9.98921E-14
 -1      3227 1.03025E-02 2.21484E-03-1.10043E-13
 -1      3228 1.01596E-02 2.17707E-03-1.07073E-13
 -1      3229 1.00557E-02 2.12116E-03-1.05729E-13
 -1      3230 1.05882E-02 2.29016E-03-1.16057E-13
 -1      3231 1.04454E-02 2.25253E-03-1.13037E-13
 -1      3232 1.03415E-02 2.19666E-03-1.11668E-13
 -1      3233 1.08740E-02 2.36525E-03-1.22167E-13
 -1      3234 1.07311E-02 2.32773E-03-1.19101E-13
 -1      3235 1.06272E-02 2.27189E-03-1.17707E-13
 -1      3236 1.11597E-02 2.44017E-03-1.28372E-13
 -1      3237 1.10168E-02 2.40273E-03-1.25257E-13
 -1      3238 1.09130E-02 2.34691E-03-1.23843E-13
 -1      3239 1.14454E-02 2.51496E-03-1.34660E-13
 -1      3240 1.13026E-02 2.47758E-03-1.31505E-13
 -1      3241 1.11987E-02 2.42178E-03-1.30067E-13
 -1      3242 1.17311E-02 2.58965E-03-1.41030E-13
 -1      3243 1.15883E-02 2.55231E-03-1.37835E-13
 -1      3244 1.14845E-02 2.49653E-03-1.36374E-13
 -1      3245 1.20169E-02 2.66427E-03-1.47481E-13
 -1      3246 1.18740E-02 2.62696E-03-1.44245E-13
 -1      3247 1.17702E-02 2.57119E-03-1.42765E-13
 -1      3248 1.23026E-02 2.73884E-03-1.54011E-13
 -1      3249 1.21597E-02 2.70156E-03-1.50737E-13
 -1      3250 1.20559E-02 2.64580E-03-1.49234E-13
 -1      3251 1.25883E-02 2.81338E-03-1.60619E-13
 -1      3252 1.24454E-02 2.77611E-03-1.57307E-13
 -1      3253 1.23417E-02 2.72036E-03-1.55785E-13
 -1      3254 1.28740E-02 2.88790E-03-1.67288E-13
 -1      3255 1.27311E-02 2.85064E-03-1.63945E-13
 -1      3256 1.26274E-02 2.79489E-03-1.62409E-13
 -1      3257 1.31597E-02 2.96240E-03-1.74018E-13
 -1      3258 1.30168E-02 2.92515E-03-1.70646E-13
 -1      3259 1.29131E-02 2.86940E-03-1.69095E-13
 -1      3260 1.34454E-02 3.03690E-03-1.80791E-13
 -1      3261 1.33026E-02 2.99965E-03-1.77400E-13
 -1      3262 1.31988E-02 2.94391E-03-1.75840E-13
 -1      3263 1.37311E-02 3.11140E-03-1.87608E-13
 -1      3264 1.35883E-02 3.07415E-03-1.84195E-13
 -1      3265 1.34845E-02 3.01840E-03-1.82629E-13
 -1      3266 1.40168E-02 3.18589E-03-1.94457E-13
 -1      3267 1.38740E-02 3.14864E-03-1.91029E-13
 -1      3268 1.37703E-02 3.09290E-03-1.89459E-13
 -1      3269 1.43025E-02 3.26039E-03-2.01341E-13
 -1      3270 1.41597E-02 3.22314E-03-1.97894E-13
 -1      3271 1.40560E-02 3.16740E-03-1.96324E-13
 -1      3272 1.44906E-02 3.29656E-03-2.06310E-13
 -1      3273 1.43877E-02 3.27710E-03-2.03576E-13
 -1      3274 1.42840E-02 3.22135E-03-2.02002E-13
 -1      3275 1.44543E-02 3.25477E-03-2.06484E-13
 -1      3276 1.38447E-02 2.60454E-03-2.07267E-13
 -1      3277 1.38813E-02 2.64669E-03-2.07153E-13
 -1      3278 1.40632E-02 2.85603E-03-2.06520E-13
 -1      3279 1.40999E-02 2.89818E-03-2.06378E-13
 -1      3280 4.85124E-03 5.38887E-04-1.87066E-14
 -1      3281 4.72094E-03 5.05519E-04-1.82771E-14
 -1      3282 1.37971E-02 2.51177E-03-2.08589E-13
 -1      3283 1.38242E-02 2.56708E-03-2.07759E-13
 -1      3284 1.37188E-02 2.55588E-03-2.04665E-13
 -1      3285 1.36778E-02 2.48096E-03-2.05641E-13
 -1      3286 2.72740E-03-4.62372E-04-9.08183E-15
 -1      3287 2.59498E-03-4.99234E-04-8.26796E-15
 -1      3288 1.24719E-03 4.30643E-04-1.85782E-15
 -1      3289 3.40631E-03-1.28565E-04-1.32491E-14
 -1      3290 3.21317E-03-2.38334E-04-1.21201E-14
 -1      3291 1.07696E-03 3.34845E-04-1.67912E-15
 -1      3292 2.34432E-03 1.17043E-03-4.53179E-15
 -1      3293 1.39180E-02 2.68884E-03-2.07034E-13
 -1      3294 1.39546E-02 2.73099E-03-2.06911E-13
 -1      3295 1.37759E-02 2.63550E-03-2.04061E-13
 -1      3296 5.73881E-03 9.48995E-04-3.03888E-14
 -1      3297 5.59723E-03 9.16462E-04-2.85252E-14
 -1      3298 5.53771E-03 8.67456E-04-2.77351E-14
 -1      3299 5.80996E-03 9.34005E-04-3.14654E-14
 -1      3300 1.68425E-03-4.78255E-04-3.70368E-15
 -1      3301 1.85021E-03-5.19799E-04-4.41896E-15
 -1      3302 1.93807E-03-5.07082E-04-4.80882E-15
 -1      3303 4.56004E-03 7.60521E-04-1.63947E-14
 -1      3304 4.72497E-03 7.03814E-04-1.73649E-14
 -1      3305 5.00838E-03 5.73188E-04-1.88703E-14
 -1      3306 4.96070E-03 5.64857E-04-1.89371E-14
 -1      3307 4.13585E-03 9.52725E-04-1.40189E-14
 -1      3308 1.68964E-03-3.01517E-04-3.78369E-15
 -1      3309 1.48533E-03-2.09609E-04-3.12478E-15
 -1      3310 2.06430E-03-4.46714E-04-5.28455E-15
 -1      3311 1.88048E-03-3.78189E-04-4.49735E-15
 -1      3312 1.74871E-03-3.51838E-04-3.97619E-15
 -1      3313 8.97767E-04 2.45487E-04-1.51948E-15
 -1      3314 4.20835E-03 3.07760E-04-1.67967E-14
 -1      3315 4.01558E-03 2.16030E-04-1.59956E-14
 -1      3316 4.78630E-03 8.12094E-04-1.91027E-14
 -1      3317 4.62157E-03 8.19339E-04-1.75390E-14
 -1      3318 1.15706E-03-2.93384E-04-1.92535E-15
 -1      3319 1.25204E-03-3.36078E-04-2.19051E-15
 -1      3320 1.13593E-03-2.32332E-04-1.91055E-15
 -1      3321 3.83582E-03 1.21615E-04-1.52441E-14
 -1      3322 3.66228E-03 2.08956E-05-1.45091E-14
 -1      3323 3.97953E-03 1.74397E-04-1.64866E-14
 -1      3324 3.02111E-03-3.36076E-04-1.09007E-14
 -1      3325 2.87182E-03-4.07562E-04-9.96959E-15
 -1      3326 2.81202E-03-4.41129E-04-9.76405E-15
 -1      3327 1.39909E-02 2.77279E-03-2.06783E-13
 -1      3328 1.40269E-02 2.81423E-03-2.06656E-13
 -1      3329 1.39215E-02 2.80304E-03-2.03561E-13
 -1      3330 1.38489E-02 2.71945E-03-2.03820E-13
 -1      3331 4.57768E-03 4.58796E-04-1.79281E-14
 -1      3332 4.42332E-03 4.01005E-04-1.75084E-14
 -1      3333 5.03630E-03 5.92644E-04-1.89629E-14
 -1      3334 5.03519E-03 5.83027E-04-1.89193E-14
 -1      3335 5.06764E-03 5.92527E-04-1.99647E-14
 -1      3336 7.01520E-04 1.10133E-04-1.42948E-15
 -1      3337 1.33093E-03-3.19352E-04-2.46213E-15
 -1      3338 4.81315E-03 7.29907E-04-1.86129E-14
 -1      3339 4.84188E-03 6.82171E-04-1.83092E-14
 -1      3340 4.94607E-03 6.71599E-04-1.92705E-14
 -1      3341 4.30613E-03 8.68966E-04-1.49508E-14
 -1      3342 1.08962E-03-1.25327E-04-1.89500E-15
 -1      3343 1.11775E-03-1.80084E-04-1.90624E-15
 -1      3344 1.21857E-03-2.22964E-04-2.17355E-15
 -1      3345 2.84509E-03 1.40775E-03-6.51485E-15
 -1      3346 2.73510E-03 1.36741E-03-6.09980E-15
 -1      3347 1.59941E-03-4.15716E-04-3.37924E-15
 -1      3348 1.35584E-02 2.45015E-03-2.02699E-13
 -1      3349 1.35193E-02 2.46864E-03-2.00856E-13
 -1      3350 3.03068E-03 1.42070E-03-7.50567E-15
 -1      3351 1.37645E-03-2.20134E-04-2.70384E-15
 -1      3352 1.29835E-03-1.50771E-04-2.54079E-15
 -1      3353 4.91409E-03 7.63983E-04-2.00190E-14
 -1      3354 4.69353E-03 4.88253E-04-1.90826E-14
 -1      3355 1.42098E-02 3.02465E-03-2.05928E-13
 -1      3356 1.42465E-02 3.06680E-03-2.05772E-13
 -1      3357 1.39945E-02 2.88700E-03-2.03286E-13
 -1      3358 1.41365E-02 2.94034E-03-2.06234E-13
 -1      3359 1.41732E-02 2.98249E-03-2.06082E-13
 -1      3360 1.41421E-02 3.05130E-03-2.02858E-13
 -1      3361 1.42842E-02 3.10464E-03-2.05787E-13
 -1      3362 1.43219E-02 3.14247E-03-2.05798E-13
 -1      3363 3.55982E-03-6.01777E-05-1.44123E-14
 -1      3364 7.33304E-04 1.35047E-04-1.73433E-15
 -1      3365 4.47842E-03 8.30914E-04-1.62798E-14
 -1      3366 2.13440E-03-4.80747E-04-5.64556E-15
 -1      3367 5.05222E-03 6.38679E-04-2.00056E-14
 -1      3368 5.04666E-03 6.13534E-04-1.94842E-14
 -1      3369 5.10754E-03 6.23029E-04-2.05432E-14
 -1      3370 2.45684E-03 1.23719E-03-5.06144E-15
 -1      3371 2.63288E-03 1.32671E-03-5.76240E-15
 -1      3372 3.13707E-03-2.94510E-04-1.18876E-14
 -1      3373 4.94119E-03 5.59783E-04-1.96802E-14
 -1      3374 4.35454E-03 3.56231E-04-1.79903E-14
 -1      3375 1.25953E-03-1.05681E-04-2.51214E-15
 -1      3376 1.14005E-03-4.72151E-05-2.24830E-15
 -1      3377 1.02809E-03-1.20927E-05-1.97311E-15
 -1      3378 2.21508E-03-5.25129E-04-6.15030E-15
 -1      3379 2.37954E-03-5.34575E-04-7.08311E-15
 -1      3380 1.06087E-03-8.40372E-05-1.87726E-15
 -1      3381 1.16802E-03-1.25828E-04-2.14267E-15
 -1      3382 3.72916E-03 1.12480E-05-1.57758E-14
 -1      3383 3.49528E-03-1.24622E-04-1.44604E-14
 -1      3384 1.50009E-03-3.21496E-04-3.04448E-15
 -1      3385 1.67812E-03-3.78558E-04-3.68501E-15
 -1      3386 2.54534E-03-5.25951E-04-8.16914E-15
 -1      3387 2.46579E-03-5.27447E-04-7.58416E-15
 -1      3388 1.85299E-03-4.40320E-04-4.38973E-15
 -1      3389 2.02544E-03-4.85680E-04-5.16836E-15
 -1      3390 2.70841E-03-4.90984E-04-9.24871E-15
 -1      3391 2.84293E-03-4.43591E-04-1.01426E-14
 -1      3392 3.01284E-03-3.78442E-04-1.13453E-14
 -1      3393 3.18977E-03-2.95911E-04-1.25795E-14
 -1      3394 3.36720E-03-2.17112E-04-1.39095E-14
 -1      3395 3.53173E-03-1.50092E-04-1.52375E-14
 -1      3396 3.70841E-03-7.64228E-05-1.66810E-14
 -1      3397 3.88388E-03-7.76648E-06-1.81795E-14
 -1      3398 4.05522E-03 5.54047E-05-1.97305E-14
 -1      3399 3.84280E-03 1.70293E-05-1.72885E-14
 -1      3400 4.22351E-03 1.12998E-04-2.13333E-14
 -1      3401 4.38726E-03 1.65979E-04-2.29869E-14
 -1      3402 4.19047E-03 1.42291E-04-2.03878E-14
 -1      3403 4.54750E-03 2.14405E-04-2.46887E-14
 -1      3404 4.70398E-03 2.59756E-04-2.64391E-14
 -1      3405 4.51828E-03 2.43336E-04-2.36885E-14
 -1      3406 4.85750E-03 3.02050E-04-2.82364E-14
 -1      3407 5.00827E-03 3.42325E-04-3.00800E-14
 -1      3408 4.82894E-03 3.28744E-04-2.71801E-14
 -1      3409 5.15686E-03 3.80653E-04-3.19700E-14
 -1      3410 5.30361E-03 4.17746E-04-3.39043E-14
 -1      3411 5.12701E-03 4.04840E-04-3.08579E-14
 -1      3412 5.44890E-03 4.53675E-04-3.58834E-14
 -1      3413 5.59305E-03 4.88891E-04-3.79058E-14
 -1      3414 5.41679E-03 4.75754E-04-3.47169E-14
 -1      3415 5.73633E-03 5.23467E-04-3.99706E-14
 -1      3416 5.87898E-03 5.57671E-04-4.20767E-14
 -1      3417 5.70160E-03 5.44035E-04-3.87513E-14
 -1      3418 6.02114E-03 5.91575E-04-4.42229E-14
 -1      3419 6.16301E-03 6.25334E-04-4.64115E-14
 -1      3420 5.98380E-03 6.11182E-04-4.29533E-14
 -1      3421 6.30466E-03 6.59014E-04-4.86397E-14
 -1      3422 6.44622E-03 6.92696E-04-5.09067E-14
 -1      3423 6.26490E-03 6.78081E-04-4.73184E-14
 -1      3424 6.58773E-03 7.26438E-04-5.32132E-14
 -1      3425 6.72926E-03 7.60277E-04-5.55569E-14
 -1      3426 6.54585E-03 7.45258E-04-5.18428E-14
 -1      3427 6.87083E-03 7.94257E-04-5.79390E-14
 -1      3428 7.01249E-03 8.28391E-04-6.03572E-14
 -1      3429 6.82716E-03 8.13011E-04-5.65211E-14
 -1      3430 7.15423E-03 8.62707E-04-6.28112E-14
 -1      3431 7.29607E-03 8.97205E-04-6.53024E-14
 -1      3432 7.10907E-03 8.81498E-04-6.13484E-14
 -1      3433 7.43801E-03 9.31901E-04-6.78264E-14
 -1      3434 7.58006E-03 9.66787E-04-7.03841E-14
 -1      3435 7.39167E-03 9.50778E-04-6.63181E-14
 -1      3436 7.72220E-03 1.00187E-03-7.29758E-14
 -1      3437 7.86444E-03 1.03714E-03-7.56010E-14
 -1      3438 7.67493E-03 1.02085E-03-7.14266E-14
 -1      3439 8.00676E-03 1.07259E-03-7.82569E-14
 -1      3440 8.14917E-03 1.10821E-03-8.09449E-14
 -1      3441 7.95879E-03 1.09166E-03-7.66634E-14
 -1      3442 8.29165E-03 1.14399E-03-8.36675E-14
 -1      3443 8.43419E-03 1.17993E-03-8.64210E-14
 -1      3444 8.24314E-03 1.16315E-03-8.20313E-14
 -1      3445 8.57679E-03 1.21601E-03-8.92039E-14
 -1      3446 8.71944E-03 1.25223E-03-9.20165E-14
 -1      3447 8.52790E-03 1.23524E-03-8.75250E-14
 -1      3448 8.86213E-03 1.28856E-03-9.48597E-14
 -1      3449 9.00486E-03 1.32500E-03-9.77306E-14
 -1      3450 8.81297E-03 1.30783E-03-9.31419E-14
 -1      3451 9.14762E-03 1.36155E-03-1.00627E-13
 -1      3452 9.29041E-03 1.39819E-03-1.03552E-13
 -1      3453 9.09828E-03 1.38086E-03-9.88713E-14
 -1      3454 9.43322E-03 1.43490E-03-1.06505E-13
 -1      3455 9.57605E-03 1.47170E-03-1.09479E-13
 -1      3456 9.38376E-03 1.45424E-03-1.04711E-13
 -1      3457 9.71889E-03 1.50855E-03-1.12478E-13
 -1      3458 9.86174E-03 1.54547E-03-1.15503E-13
 -1      3459 9.66936E-03 1.52790E-03-1.10652E-13
 -1      3460 1.00046E-02 1.58243E-03-1.18553E-13
 -1      3461 1.01475E-02 1.61945E-03-1.21625E-13
 -1      3462 9.95504E-03 1.60179E-03-1.16690E-13
 -1      3463 1.02904E-02 1.65650E-03-1.24723E-13
 -1      3464 1.04332E-02 1.69358E-03-1.27844E-13
 -1      3465 1.02408E-02 1.67585E-03-1.22826E-13
 -1      3466 1.05761E-02 1.73070E-03-1.30990E-13
 -1      3467 1.07190E-02 1.76784E-03-1.34157E-13
 -1      3468 1.05265E-02 1.75005E-03-1.29057E-13
 -1      3469 1.08619E-02 1.80500E-03-1.37348E-13
 -1      3470 1.10048E-02 1.84219E-03-1.40560E-13
 -1      3471 1.08123E-02 1.82435E-03-1.35383E-13
 -1      3472 1.11477E-02 1.87939E-03-1.43793E-13
 -1      3473 1.12905E-02 1.91660E-03-1.47046E-13
 -1      3474 1.10981E-02 1.89873E-03-1.41796E-13
 -1      3475 1.14334E-02 1.95382E-03-1.50320E-13
 -1      3476 1.15763E-02 1.99105E-03-1.53613E-13
 -1      3477 1.13839E-02 1.97316E-03-1.48293E-13
 -1      3478 1.17192E-02 2.02830E-03-1.56924E-13
 -1      3479 1.18621E-02 2.06554E-03-1.60250E-13
 -1      3480 1.16697E-02 2.04763E-03-1.54868E-13
 -1      3481 1.20049E-02 2.10279E-03-1.63592E-13
 -1      3482 1.21478E-02 2.14005E-03-1.66954E-13
 -1      3483 1.19554E-02 2.12212E-03-1.61510E-13
 -1      3484 1.22907E-02 2.17731E-03-1.70333E-13
 -1      3485 1.24336E-02 2.21457E-03-1.73723E-13
 -1      3486 1.22412E-02 2.19664E-03-1.68223E-13
 -1      3487 1.25764E-02 2.25184E-03-1.77133E-13
 -1      3488 1.27193E-02 2.28910E-03-1.80558E-13
 -1      3489 1.25269E-02 2.27116E-03-1.75001E-13
 -1      3490 1.28622E-02 2.32637E-03-1.83994E-13
 -1      3491 1.30050E-02 2.36363E-03-1.87445E-13
 -1      3492 1.28127E-02 2.34569E-03-1.81840E-13
 -1      3493 1.31479E-02 2.40090E-03-1.90908E-13
 -1      3494 1.32908E-02 2.43817E-03-1.94383E-13
 -1      3495 1.30984E-02 2.42022E-03-1.88733E-13
 -1      3496 6.41415E-03 1.07528E-03-4.06183E-14
 -1      3497 6.27776E-03 1.03562E-03-3.85368E-14
 -1      3498 6.14248E-03 9.96773E-04-3.64962E-14
 -1      3499 6.00818E-03 9.58758E-04-3.44987E-14
 -1      3500 6.19656E-03 9.86793E-04-3.76223E-14
 -1      3501 6.96772E-03 1.23768E-03-4.93530E-14
 -1      3502 6.82826E-03 1.19673E-03-4.71118E-14
 -1      3503 7.24815E-03 1.31960E-03-5.39521E-14
 -1      3504 7.10768E-03 1.27864E-03-5.16341E-14
 -1      3505 7.01301E-03 1.22538E-03-5.06035E-14
 -1      3506 7.53019E-03 1.40118E-03-5.86978E-14
 -1      3507 7.38898E-03 1.36044E-03-5.63064E-14
 -1      3508 7.29176E-03 1.30634E-03-5.52393E-14
 -1      3509 7.81339E-03 1.48211E-03-6.35869E-14
 -1      3510 7.67166E-03 1.44173E-03-6.11240E-14
 -1      3511 7.57251E-03 1.38702E-03-6.00227E-14
 -1      3512 8.09742E-03 1.56224E-03-6.86152E-14
 -1      3513 7.95531E-03 1.52228E-03-6.60845E-14
 -1      3514 7.85474E-03 1.46715E-03-6.49469E-14
 -1      3515 8.38203E-03 1.64153E-03-7.37834E-14
 -1      3516 8.23966E-03 1.60199E-03-7.11823E-14
 -1      3517 8.13805E-03 1.54659E-03-7.00117E-14
 -1      3518 8.66703E-03 1.72001E-03-7.90864E-14
 -1      3519 8.52448E-03 1.68087E-03-7.64184E-14
 -1      3520 8.42212E-03 1.62528E-03-7.52145E-14
 -1      3521 8.95231E-03 1.79775E-03-8.45121E-14
 -1      3522 8.80964E-03 1.75897E-03-8.17851E-14
 -1      3523 8.70675E-03 1.70327E-03-8.05498E-14
 -1      3524 9.23778E-03 1.87483E-03-9.00556E-14
 -1      3525 9.09502E-03 1.83636E-03-8.72690E-14
 -1      3526 8.99176E-03 1.78060E-03-8.60059E-14
 -1      3527 9.52336E-03 1.95135E-03-9.57070E-14
 -1      3528 9.38055E-03 1.91315E-03-9.28685E-14
 -1      3529 9.27705E-03 1.85735E-03-9.15758E-14
 -1      3530 9.80902E-03 2.02741E-03-1.01467E-13
 -1      3531 9.66618E-03 1.98943E-03-9.85732E-14
 -1      3532 9.56252E-03 1.93361E-03-9.72552E-14
 -1      3533 1.00947E-02 2.10308E-03-1.07331E-13
 -1      3534 9.95187E-03 2.06529E-03-1.04386E-13
 -1      3535 9.84811E-03 2.00947E-03-1.03041E-13
 -1      3536 1.03805E-02 2.17846E-03-1.13294E-13
 -1      3537 1.02376E-02 2.14081E-03-1.10300E-13
 -1      3538 1.01338E-02 2.08499E-03-1.08931E-13
 -1      3539 1.06662E-02 2.25360E-03-1.19360E-13
 -1      3540 1.05234E-02 2.21606E-03-1.16315E-13
 -1      3541 1.04195E-02 2.16025E-03-1.14922E-13
 -1      3542 1.09520E-02 2.32856E-03-1.25516E-13
 -1      3543 1.08091E-02 2.29110E-03-1.22427E-13
 -1      3544 1.07053E-02 2.23530E-03-1.21011E-13
 -1      3545 1.12378E-02 2.40337E-03-1.31761E-13
 -1      3546 1.10949E-02 2.36598E-03-1.28627E-13
 -1      3547 1.09910E-02 2.31019E-03-1.27190E-13
 -1      3548 1.15235E-02 2.47809E-03-1.38089E-13
 -1      3549 1.13806E-02 2.44074E-03-1.34915E-13
 -1      3550 1.12768E-02 2.38496E-03-1.33455E-13
 -1      3551 1.18093E-02 2.55273E-03-1.44498E-13
 -1      3552 1.16664E-02 2.51542E-03-1.41283E-13
 -1      3553 1.15626E-02 2.45964E-03-1.39804E-13
 -1      3554 1.20950E-02 2.62732E-03-1.50990E-13
 -1      3555 1.19521E-02 2.59003E-03-1.47733E-13
 -1      3556 1.18484E-02 2.53426E-03-1.46234E-13
 -1      3557 1.23808E-02 2.70187E-03-1.57560E-13
 -1      3558 1.22379E-02 2.66460E-03-1.54265E-13
 -1      3559 1.21341E-02 2.60883E-03-1.52748E-13
 -1      3560 1.26665E-02 2.77639E-03-1.64200E-13
 -1      3561 1.25236E-02 2.73913E-03-1.60872E-13
 -1      3562 1.24199E-02 2.68338E-03-1.59336E-13
 -1      3563 1.29522E-02 2.85091E-03-1.70904E-13
 -1      3564 1.28094E-02 2.81365E-03-1.67544E-13
 -1      3565 1.27056E-02 2.75790E-03-1.65994E-13
 -1      3566 1.32380E-02 2.92541E-03-1.77664E-13
 -1      3567 1.30951E-02 2.88816E-03-1.74278E-13
 -1      3568 1.29914E-02 2.83241E-03-1.72714E-13
 -1      3569 1.35237E-02 2.99991E-03-1.84465E-13
 -1      3570 1.33808E-02 2.96266E-03-1.81059E-13
 -1      3571 1.32771E-02 2.90691E-03-1.79488E-13
 -1      3572 1.38094E-02 3.07440E-03-1.91311E-13
 -1      3573 1.36665E-02 3.03715E-03-1.87883E-13
 -1      3574 1.35628E-02 2.98141E-03-1.86305E-13
 -1      3575 1.40951E-02 3.14890E-03-1.98190E-13
 -1      3576 1.39523E-02 3.11165E-03-1.94746E-13
 -1      3577 1.38486E-02 3.05591E-03-1.93165E-13
 -1      3578 1.40678E-02 2.97131E-03-2.02992E-13
 -1      3579 1.35398E-02 2.50610E-03-2.00373E-13
 -1      3580 4.51754E-03 4.02789E-04-1.95776E-14
 -1      3581 4.32829E-03 3.18638E-04-1.88252E-14
 -1      3582 1.36339E-02 2.58215E-03-2.01089E-13
 -1      3583 1.36705E-02 2.62430E-03-2.00977E-13
 -1      3584 5.35381E-03 7.91545E-04-2.51709E-14
 -1      3585 5.22460E-03 7.64956E-04-2.34399E-14
 -1      3586 1.43692E-02 3.17971E-03-2.06142E-13
 -1      3587 1.44070E-02 3.21754E-03-2.06148E-13
 -1      3588 1.43218E-02 3.20083E-03-2.03905E-13
 -1      3589 1.42272E-02 3.12637E-03-2.03220E-13
 -1      3590 4.81753E-03 5.16966E-04-2.04977E-14
 -1      3591 4.69275E-03 4.73832E-04-2.01276E-14
 -1      3592 5.03959E-03 5.82559E-04-2.09913E-14
 -1      3593 4.93967E-03 5.55996E-04-2.07484E-14
 -1      3594 4.94548E-03 5.47261E-04-2.18286E-14
 -1      3595 4.11160E-03 2.16896E-04-1.77425E-14
 -1      3596 3.95070E-03 1.32532E-04-1.69519E-14
 -1      3597 6.68948E-03 1.15597E-03-4.49083E-14
 -1      3598 6.55137E-03 1.11540E-03-4.27424E-14
 -1      3599 6.73696E-03 1.14462E-03-4.61171E-14
 -1      3600 5.12425E-03 6.10958E-04-2.10145E-14
 -1      3601 5.09585E-03 5.99611E-04-2.09639E-14
 -1      3602 1.34344E-02 2.49490E-03-1.97296E-13
 -1      3603 3.86975E-03 6.11619E-05-1.69992E-14
 -1      3604 4.29225E-03 2.76429E-04-1.93130E-14
 -1      3605 5.11618E-03 6.01821E-04-2.20617E-14
 -1      3606 1.33849E-02 2.51422E-03-1.95104E-13
 -1      3607 6.46446E-03 1.06477E-03-4.17880E-14
 -1      3608 1.31922E-03-2.67772E-04-2.45970E-15
 -1      3609 5.61259E-03 8.52829E-04-2.87686E-14
 -1      3610 5.48263E-03 8.21015E-04-2.69475E-14
 -1      3611 5.43160E-03 7.77116E-04-2.61612E-14
 -1      3612 1.38524E-02 2.83365E-03-2.00341E-13
 -1      3613 1.38891E-02 2.87581E-03-2.00201E-13
 -1      3614 1.39257E-02 2.91797E-03-2.00059E-13
 -1      3615 1.39624E-02 2.96012E-03-1.99911E-13
 -1      3616 1.37837E-02 2.86463E-03-1.97124E-13
 -1      3617 1.42367E-02 3.18412E-03-2.01666E-13
 -1      3618 1.37798E-02 2.75006E-03-2.00607E-13
 -1      3619 1.38161E-02 2.79186E-03-2.00477E-13
 -1      3620 1.37107E-02 2.78067E-03-1.97397E-13
 -1      3621 1.40001E-02 2.99796E-03-1.99931E-13
 -1      3622 1.40378E-02 3.03580E-03-1.99951E-13
 -1      3623 1.38580E-02 2.94462E-03-1.97008E-13
 -1      3624 4.66433E-03 4.41440E-04-2.10013E-14
 -1      3625 5.87520E-03 9.21996E-04-3.25454E-14
 -1      3626 5.74320E-03 8.86535E-04-3.06351E-14
 -1      3627 5.67917E-03 8.41572E-04-2.98061E-14
 -1      3628 5.93441E-03 9.11929E-04-3.36273E-14
 -1      3629 1.41330E-02 3.12838E-03-2.00082E-13
 -1      3630 5.16019E-03 6.30150E-04-2.15572E-14
 -1      3631 5.20679E-03 6.38103E-04-2.25850E-14
 -1      3632 5.18886E-03 6.51679E-04-2.21000E-14
 -1      3633 1.37070E-02 2.66628E-03-2.00858E-13
 -1      3634 1.37433E-02 2.70808E-03-2.00735E-13
 -1      3635 1.36379E-02 2.69689E-03-1.97656E-13
 -1      3636 1.35650E-02 2.61293E-03-1.97898E-13
 -1      3637 5.19112E-03 7.19933E-04-2.26948E-14
 -1      3638 5.09543E-03 7.41224E-04-2.17538E-14
 -1      3639 4.50329E-03 2.72738E-04-2.28580E-14
 -1      3640 4.66039E-03 3.15893E-04-2.45580E-14
 -1      3641 4.81316E-03 3.55224E-04-2.63041E-14
 -1      3642 4.96238E-03 3.92674E-04-2.80966E-14
 -1      3643 4.80204E-03 3.83244E-04-2.54313E-14
 -1      3644 5.10876E-03 4.28290E-04-2.99365E-14
 -1      3645 5.25301E-03 4.62967E-04-3.18207E-14
 -1      3646 5.09394E-03 4.52462E-04-2.90171E-14
 -1      3647 5.39551E-03 4.96745E-04-3.37496E-14
 -1      3648 5.53686E-03 5.30193E-04-3.57226E-14
 -1      3649 5.37666E-03 5.17912E-04-3.27858E-14
 -1      3650 5.67728E-03 5.63313E-04-3.77381E-14
 -1      3651 5.81718E-03 5.96371E-04-3.97980E-14
 -1      3652 5.65467E-03 5.82395E-04-3.67295E-14
 -1      3653 5.95667E-03 6.29390E-04-4.18986E-14
 -1      3654 6.09602E-03 6.62492E-04-4.40397E-14
 -1      3655 5.93074E-03 6.47188E-04-4.08461E-14
 -1      3656 6.23529E-03 6.95706E-04-4.62213E-14
 -1      3657 6.37466E-03 7.29079E-04-4.84432E-14
 -1      3658 6.20656E-03 7.12816E-04-4.51272E-14
 -1      3659 6.51412E-03 7.62638E-04-5.07046E-14
 -1      3660 6.65380E-03 7.96390E-04-5.30041E-14
 -1      3661 6.48305E-03 7.79469E-04-4.95687E-14
 -1      3662 6.79367E-03 8.30361E-04-5.53419E-14
 -1      3663 6.93379E-03 8.64538E-04-5.77176E-14
 -1      3664 6.76068E-03 8.47177E-04-5.41660E-14
 -1      3665 7.07415E-03 8.98940E-04-6.01307E-14
 -1      3666 7.21476E-03 9.33546E-04-6.25795E-14
 -1      3667 7.03961E-03 9.15892E-04-5.89145E-14
 -1      3668 7.35560E-03 9.68371E-04-6.50631E-14
 -1      3669 7.49668E-03 1.00339E-03-6.75821E-14
 -1      3670 7.31984E-03 9.85532E-04-6.38109E-14
 -1      3671 7.63797E-03 1.03861E-03-7.01343E-14
 -1      3672 7.77947E-03 1.07401E-03-7.27204E-14
 -1      3673 7.60125E-03 1.05600E-03-6.88449E-14
 -1      3674 7.92114E-03 1.10959E-03-7.53388E-14
 -1      3675 8.06299E-03 1.14532E-03-7.79868E-14
 -1      3676 7.88369E-03 1.12721E-03-7.40130E-14
 -1      3677 8.20498E-03 1.18122E-03-8.06694E-14
 -1      3678 8.34711E-03 1.21726E-03-8.33835E-14
 -1      3679 8.16698E-03 1.19905E-03-7.93106E-14
 -1      3680 8.48936E-03 1.25343E-03-8.61289E-14
 -1      3681 8.63172E-03 1.28972E-03-8.89043E-14
 -1      3682 8.45095E-03 1.27142E-03-8.47343E-14
 -1      3683 8.77417E-03 1.32612E-03-9.17108E-14
 -1      3684 8.91669E-03 1.36262E-03-9.45468E-14
 -1      3685 8.73545E-03 1.34426E-03-9.02827E-14
 -1      3686 9.05929E-03 1.39922E-03-9.74095E-14
 -1      3687 9.20194E-03 1.43590E-03-1.00299E-13
 -1      3688 9.02037E-03 1.41746E-03-9.59489E-14
 -1      3689 9.34464E-03 1.47265E-03-1.03217E-13
 -1      3690 9.48739E-03 1.50947E-03-1.06161E-13
 -1      3691 9.30558E-03 1.49098E-03-1.01726E-13
 -1      3692 9.63017E-03 1.54635E-03-1.09129E-13
 -1      3693 9.77297E-03 1.58328E-03-1.12122E-13
 -1      3694 9.59101E-03 1.56474E-03-1.07608E-13
 -1      3695 9.91580E-03 1.62026E-03-1.15140E-13
 -1      3696 1.00587E-02 1.65729E-03-1.18182E-13
 -1      3697 9.87659E-03 1.63870E-03-1.13591E-13
 -1      3698 1.02015E-02 1.69434E-03-1.21246E-13
 -1      3699 1.03444E-02 1.73144E-03-1.24336E-13
 -1      3700 1.01623E-02 1.71281E-03-1.19670E-13
 -1      3701 1.04873E-02 1.76855E-03-1.27449E-13
 -1      3702 1.06302E-02 1.80570E-03-1.30585E-13
 -1      3703 1.04480E-02 1.78704E-03-1.25843E-13
 -1      3704 1.07731E-02 1.84286E-03-1.33743E-13
 -1      3705 1.09159E-02 1.88004E-03-1.36926E-13
 -1      3706 1.07338E-02 1.86136E-03-1.32109E-13
 -1      3707 1.10588E-02 1.91724E-03-1.40132E-13
 -1      3708 1.12017E-02 1.95445E-03-1.43356E-13
 -1      3709 1.10196E-02 1.93574E-03-1.38468E-13
 -1      3710 1.13446E-02 1.99167E-03-1.46602E-13
 -1      3711 1.14875E-02 2.02890E-03-1.49868E-13
 -1      3712 1.13054E-02 2.01018E-03-1.44916E-13
 -1      3713 1.16304E-02 2.06614E-03-1.53153E-13
 -1      3714 1.17733E-02 2.10338E-03-1.56456E-13
 -1      3715 1.15912E-02 2.08464E-03-1.51442E-13
 -1      3716 1.19162E-02 2.14063E-03-1.59776E-13
 -1      3717 1.20591E-02 2.17788E-03-1.63110E-13
 -1      3718 1.18770E-02 2.15913E-03-1.58042E-13
 -1      3719 1.22020E-02 2.21514E-03-1.66464E-13
 -1      3720 1.23449E-02 2.25240E-03-1.69835E-13
 -1      3721 1.21628E-02 2.23364E-03-1.64710E-13
 -1      3722 1.24877E-02 2.28966E-03-1.73221E-13
 -1      3723 1.26306E-02 2.32692E-03-1.76624E-13
 -1      3724 1.24485E-02 2.30816E-03-1.71444E-13
 -1      3725 1.27735E-02 2.36418E-03-1.80040E-13
 -1      3726 1.29164E-02 2.40145E-03-1.83473E-13
 -1      3727 1.27343E-02 2.38268E-03-1.78242E-13
 -1      3728 1.30592E-02 2.43871E-03-1.86914E-13
 -1      3729 1.32021E-02 2.47598E-03-1.90372E-13
 -1      3730 1.30200E-02 2.45721E-03-1.85098E-13
 -1      3731 1.36416E-02 2.81128E-03-1.94196E-13
 -1      3732 1.36783E-02 2.85344E-03-1.94061E-13
 -1      3733 5.02075E-03 7.50009E-04-2.10141E-14
 -1      3734 4.82485E-03 4.82595E-04-2.26513E-14
 -1      3735 4.67083E-03 4.16867E-04-2.20675E-14
 -1      3736 1.40856E-02 3.09115E-03-1.99736E-13
 -1      3737 7.33427E-03 1.29316E-03-5.65289E-14
 -1      3738 7.19516E-03 1.25319E-03-5.41735E-14
 -1      3739 7.05674E-03 1.21324E-03-5.18533E-14
 -1      3740 6.91904E-03 1.17331E-03-4.95724E-14
 -1      3741 7.09903E-03 1.20102E-03-5.31062E-14
 -1      3742 7.89557E-03 1.45220E-03-6.63095E-14
 -1      3743 7.75463E-03 1.41261E-03-6.38109E-14
 -1      3744 8.17833E-03 1.53092E-03-7.14093E-14
 -1      3745 8.03681E-03 1.49163E-03-6.88429E-14
 -1      3746 7.93590E-03 1.43716E-03-6.76732E-14
 -1      3747 8.46200E-03 1.60901E-03-7.66478E-14
 -1      3748 8.32006E-03 1.57004E-03-7.40117E-14
 -1      3749 8.21826E-03 1.51516E-03-7.28098E-14
 -1      3750 8.74633E-03 1.68649E-03-8.20140E-14
 -1      3751 8.60409E-03 1.64782E-03-7.93156E-14
 -1      3752 8.50165E-03 1.59266E-03-7.80821E-14
 -1      3753 9.03114E-03 1.76341E-03-8.74982E-14
 -1      3754 8.88868E-03 1.72502E-03-8.47417E-14
 -1      3755 8.78577E-03 1.66965E-03-8.34776E-14
 -1      3756 9.31629E-03 1.83984E-03-9.30976E-14
 -1      3757 9.17368E-03 1.80168E-03-9.02844E-14
 -1      3758 9.07044E-03 1.74618E-03-8.89918E-14
 -1      3759 9.60167E-03 1.91585E-03-9.88032E-14
 -1      3760 9.45895E-03 1.87789E-03-9.59377E-14
 -1      3761 9.35549E-03 1.82229E-03-9.46190E-14
 -1      3762 9.88721E-03 1.99150E-03-1.04617E-13
 -1      3763 9.74442E-03 1.95371E-03-1.01696E-13
 -1      3764 9.64081E-03 1.89804E-03-1.00353E-13
 -1      3765 1.01729E-02 2.06687E-03-1.10531E-13
 -1      3766 1.00300E-02 2.02922E-03-1.07562E-13
 -1      3767 9.92631E-03 1.97350E-03-1.06191E-13
 -1      3768 1.04586E-02 2.14201E-03-1.16548E-13
 -1      3769 1.03157E-02 2.10447E-03-1.13527E-13
 -1      3770 1.02119E-02 2.04872E-03-1.12132E-13
 -1      3771 1.07443E-02 2.21698E-03-1.22661E-13
 -1      3772 1.06014E-02 2.17951E-03-1.19594E-13
 -1      3773 1.04976E-02 2.12376E-03-1.18175E-13
 -1      3774 1.10301E-02 2.29181E-03-1.28863E-13
 -1      3775 1.08872E-02 2.25441E-03-1.25752E-13
 -1      3776 1.07834E-02 2.19864E-03-1.24313E-13
 -1      3777 1.13159E-02 2.36653E-03-1.35151E-13
 -1      3778 1.11730E-02 2.32918E-03-1.31995E-13
 -1      3779 1.10692E-02 2.27341E-03-1.30537E-13
 -1      3780 1.16017E-02 2.44119E-03-1.41520E-13
 -1      3781 1.14588E-02 2.40387E-03-1.38325E-13
 -1      3782 1.13550E-02 2.34810E-03-1.36846E-13
 -1      3783 1.18875E-02 2.51578E-03-1.47974E-13
 -1      3784 1.17446E-02 2.47849E-03-1.44736E-13
 -1      3785 1.16408E-02 2.42272E-03-1.43239E-13
 -1      3786 1.21732E-02 2.59034E-03-1.54505E-13
 -1      3787 1.20303E-02 2.55307E-03-1.51230E-13
 -1      3788 1.19266E-02 2.49730E-03-1.49714E-13
 -1      3789 1.24590E-02 2.66488E-03-1.61114E-13
 -1      3790 1.23161E-02 2.62761E-03-1.57803E-13
 -1      3791 1.22123E-02 2.57185E-03-1.56267E-13
 -1      3792 1.27447E-02 2.73940E-03-1.67790E-13
 -1      3793 1.26019E-02 2.70214E-03-1.64444E-13
 -1      3794 1.24981E-02 2.64638E-03-1.62893E-13
 -1      3795 1.30305E-02 2.81390E-03-1.74525E-13
 -1      3796 1.28876E-02 2.77665E-03-1.71150E-13
 -1      3797 1.27839E-02 2.72089E-03-1.69586E-13
 -1      3798 1.33162E-02 2.88841E-03-1.81314E-13
 -1      3799 1.31734E-02 2.85116E-03-1.77915E-13
 -1      3800 1.30696E-02 2.79540E-03-1.76338E-13
 -1      3801 1.36020E-02 2.96291E-03-1.88149E-13
 -1      3802 1.34591E-02 2.92566E-03-1.84726E-13
 -1      3803 1.33554E-02 2.86991E-03-1.83143E-13
 -1      3804 5.01730E-03 6.64617E-04-1.99836E-14
 -1      3805 5.10308E-03 6.67986E-04-2.10548E-14
 -1      3806 6.24641E-03 9.77685E-04-3.87509E-14
 -1      3807 6.11611E-03 9.40048E-04-3.67098E-14
 -1      3808 4.04809E-03 1.27986E-04-1.85167E-14
 -1      3809 6.51173E-03 1.05475E-03-4.29591E-14
 -1      3810 6.37831E-03 1.01590E-03-4.08339E-14
 -1      3811 6.29249E-03 9.68794E-04-3.98820E-14
 -1      3812 4.47866E-03 3.38753E-04-2.09117E-14
 -1      3813 4.27947E-03 2.47836E-04-1.97769E-14
 -1      3814 4.65479E-03 3.91279E-04-2.25588E-14
 -1      3815 5.00175E-03 7.01667E-04-2.03011E-14
 -1      3816 1.39436E-02 3.03781E-03-1.96821E-13
 -1      3817 4.24091E-03 2.02074E-04-2.00875E-14
 -1      3818 1.33457E-02 2.53271E-03-1.93271E-13
 -1      3819 5.07587E-03 5.77620E-04-2.33742E-14
 -1      3820 4.96981E-03 5.39863E-04-2.31078E-14
 -1      3821 6.78224E-03 1.13356E-03-4.73290E-14
 -1      3822 6.64640E-03 1.09396E-03-4.51246E-14
 -1      3823 6.82554E-03 1.12245E-03-4.85427E-14
 -1      3824 5.20606E-03 6.26530E-04-2.32954E-14
 -1      3825 5.15400E-03 6.07052E-04-2.33204E-14
 -1      3826 5.18505E-03 6.93999E-04-2.23910E-14
 -1      3827 5.20139E-03 6.71596E-04-2.24126E-14
 -1      3828 5.26614E-03 6.78135E-04-2.34599E-14
 -1      3829 5.29734E-03 7.22354E-04-2.40931E-14
 -1      3830 7.61407E-03 1.37290E-03-6.13487E-14
 -1      3831 7.47391E-03 1.33307E-03-5.89199E-14
 -1      3832 7.37575E-03 1.27990E-03-5.78190E-14
 -1      3833 4.97724E-03 5.21811E-04-2.42205E-14
 -1      3834 4.40623E-03 2.52596E-04-2.17066E-14
 -1      3835 1.35739E-02 2.83794E-03-1.91171E-13
 -1      3836 1.37160E-02 2.89128E-03-1.94089E-13
 -1      3837 1.37537E-02 2.92912E-03-1.94114E-13
 -1      3838 1.36053E-02 2.76948E-03-1.94328E-13
 -1      3839 1.34999E-02 2.75830E-03-1.91270E-13
 -1      3840 1.35690E-02 2.72768E-03-1.94459E-13
 -1      3841 1.38007E-02 3.00056E-03-1.93374E-13
 -1      3842 4.55886E-03 3.28865E-04-2.25372E-14
 -1      3843 5.41203E-03 7.51793E-04-2.58396E-14
 -1      3844 5.39179E-03 7.28168E-04-2.55158E-14
 -1      3845 5.53001E-03 7.83091E-04-2.76304E-14
 -1      3846 5.18796E-03 6.06357E-04-2.46392E-14
 -1      3847 1.36970E-02 2.94481E-03-1.91785E-13
 -1      3848 5.31028E-03 6.68692E-04-2.44319E-14
 -1      3849 5.26207E-03 6.47336E-04-2.38629E-14
 -1      3850 5.31543E-03 6.55728E-04-2.51623E-14
 -1      3851 1.33822E-02 2.57469E-03-1.93158E-13
 -1      3852 5.98775E-03 9.03383E-04-3.47118E-14
 -1      3853 5.86139E-03 8.67542E-04-3.27576E-14
 -1      3854 6.03585E-03 8.95391E-04-3.57994E-14
 -1      3855 6.55627E-03 1.04478E-03-4.41326E-14
 -1      3856 7.65490E-03 1.35869E-03-6.26760E-14
 -1      3857 5.08344E-03 4.76692E-04-2.81028E-14
 -1      3858 5.22273E-03 5.07905E-04-2.99419E-14
 -1      3859 5.36043E-03 5.38780E-04-3.18244E-14
 -1      3860 5.49744E-03 5.69816E-04-3.37526E-14
 -1      3861 5.34696E-03 5.59424E-04-3.08677E-14
 -1      3862 5.63374E-03 6.00982E-04-3.57250E-14
 -1      3863 5.76989E-03 6.32516E-04-3.77393E-14
 -1      3864 5.61455E-03 6.19065E-04-3.47224E-14
 -1      3865 5.90592E-03 6.64387E-04-3.97967E-14
 -1      3866 6.04214E-03 6.96646E-04-4.18964E-14
 -1      3867 5.88215E-03 6.80951E-04-3.87513E-14
 -1      3868 6.17855E-03 7.29287E-04-4.40364E-14
 -1      3869 6.31534E-03 7.62295E-04-4.62154E-14
 -1      3870 6.15121E-03 7.45080E-04-4.29477E-14
 -1      3871 6.45248E-03 7.95670E-04-4.84360E-14
 -1      3872 6.59006E-03 8.29371E-04-5.06956E-14
 -1      3873 6.42232E-03 8.11202E-04-4.73059E-14
 -1      3874 6.72805E-03 8.63401E-04-5.29926E-14
 -1      3875 6.86650E-03 8.97711E-04-5.53280E-14
 -1      3876 6.69570E-03 8.78997E-04-5.18221E-14
 -1      3877 7.00535E-03 9.32308E-04-5.77023E-14
 -1      3878 7.14463E-03 9.67145E-04-6.01135E-14
 -1      3879 6.97128E-03 9.48158E-04-5.64919E-14
 -1      3880 7.28429E-03 1.00223E-03-6.25606E-14
 -1      3881 7.42433E-03 1.03751E-03-6.50419E-14
 -1      3882 7.24889E-03 1.01842E-03-6.13121E-14
 -1      3883 7.56471E-03 1.07300E-03-6.75588E-14
 -1      3884 7.70540E-03 1.10866E-03-7.01086E-14
 -1      3885 7.52828E-03 1.08957E-03-6.62741E-14
 -1      3886 7.84637E-03 1.14450E-03-7.26911E-14
 -1      3887 7.98761E-03 1.18048E-03-7.53068E-14
 -1      3888 7.80916E-03 1.16144E-03-7.13718E-14
 -1      3889 8.12908E-03 1.21660E-03-7.79546E-14
 -1      3890 8.27076E-03 1.25285E-03-8.06344E-14
 -1      3891 8.09128E-03 1.23387E-03-7.65996E-14
 -1      3892 8.41263E-03 1.28921E-03-8.33431E-14
 -1      3893 8.55465E-03 1.32567E-03-8.60853E-14
 -1      3894 8.37438E-03 1.30676E-03-8.19558E-14
 -1      3895 8.69682E-03 1.36223E-03-8.88576E-14
 -1      3896 8.83911E-03 1.39887E-03-9.16601E-14
 -1      3897 8.65825E-03 1.38002E-03-8.74351E-14
 -1      3898 8.98151E-03 1.43559E-03-9.44914E-14
 -1      3899 9.12400E-03 1.47237E-03-9.73499E-14
 -1      3900 8.94271E-03 1.45357E-03-9.30362E-14
 -1      3901 9.26657E-03 1.50922E-03-1.00237E-13
 -1      3902 9.40921E-03 1.54612E-03-1.03150E-13
 -1      3903 9.22760E-03 1.52735E-03-9.87506E-14
 -1      3904 9.55190E-03 1.58307E-03-1.06088E-13
 -1      3905 9.69464E-03 1.62006E-03-1.09053E-13
 -1      3906 9.51282E-03 1.60131E-03-1.04572E-13
 -1      3907 9.83741E-03 1.65709E-03-1.12043E-13
 -1      3908 9.98022E-03 1.69415E-03-1.15057E-13
 -1      3909 9.79826E-03 1.67542E-03-1.10497E-13
 -1      3910 1.01231E-02 1.73124E-03-1.18094E-13
 -1      3911 1.02659E-02 1.76836E-03-1.21155E-13
 -1      3912 1.00839E-02 1.74964E-03-1.16520E-13
 -1      3913 1.04088E-02 1.80550E-03-1.24240E-13
 -1      3914 1.05517E-02 1.84266E-03-1.27348E-13
 -1      3915 1.03696E-02 1.82394E-03-1.22639E-13
 -1      3916 1.06945E-02 1.87984E-03-1.30480E-13
 -1      3917 1.08374E-02 1.91703E-03-1.33634E-13
 -1      3918 1.06553E-02 1.89831E-03-1.28852E-13
 -1      3919 1.09803E-02 1.95424E-03-1.36811E-13
 -1      3920 1.11232E-02 1.99145E-03-1.40011E-13
 -1      3921 1.09411E-02 1.97272E-03-1.35158E-13
 -1      3922 1.12662E-02 2.02868E-03-1.43234E-13
 -1      3923 1.14091E-02 2.06591E-03-1.46475E-13
 -1      3924 1.12269E-02 2.04718E-03-1.41553E-13
 -1      3925 1.15520E-02 2.10315E-03-1.49734E-13
 -1      3926 1.16949E-02 2.14039E-03-1.53014E-13
 -1      3927 1.15127E-02 2.12165E-03-1.48031E-13
 -1      3928 1.18378E-02 2.17764E-03-1.56313E-13
 -1      3929 1.19807E-02 2.21489E-03-1.59626E-13
 -1      3930 1.17985E-02 2.19615E-03-1.54585E-13
 -1      3931 1.21236E-02 2.25215E-03-1.62957E-13
 -1      3932 1.22664E-02 2.28940E-03-1.66304E-13
 -1      3933 1.20843E-02 2.27065E-03-1.61210E-13
 -1      3934 1.24093E-02 2.32666E-03-1.69669E-13
 -1      3935 1.25522E-02 2.36392E-03-1.73050E-13
 -1      3936 1.23701E-02 2.34517E-03-1.67899E-13
 -1      3937 1.26951E-02 2.40118E-03-1.76448E-13
 -1      3938 1.28380E-02 2.43844E-03-1.79861E-13
 -1      3939 1.26559E-02 2.41969E-03-1.74655E-13
 -1      3940 1.29809E-02 2.47571E-03-1.83289E-13
 -1      3941 1.31237E-02 2.51297E-03-1.86727E-13
 -1      3942 1.29417E-02 2.49421E-03-1.81478E-13
 -1      3943 5.13039E-03 5.60768E-04-2.59266E-14
 -1      3944 5.00081E-03 5.05849E-04-2.54437E-14
 -1      3945 8.25788E-03 1.49931E-03-7.42119E-14
 -1      3946 8.11666E-03 1.46070E-03-7.16093E-14
 -1      3947 7.97575E-03 1.42200E-03-6.90403E-14
 -1      3948 7.83520E-03 1.38321E-03-6.65057E-14
 -1      3949 8.01519E-03 1.40666E-03-7.04091E-14
 -1      3950 8.82508E-03 1.65274E-03-8.49416E-14
 -1      3951 8.68300E-03 1.61453E-03-8.22141E-14
 -1      3952 9.10966E-03 1.72887E-03-9.04860E-14
 -1      3953 8.96731E-03 1.69085E-03-8.76988E-14
 -1      3954 8.86427E-03 1.63571E-03-8.64077E-14
 -1      3955 9.39464E-03 1.80467E-03-9.61404E-14
 -1      3956 9.25210E-03 1.76681E-03-9.32996E-14
 -1      3957 9.14880E-03 1.71148E-03-9.19797E-14
 -1      3958 9.67993E-03 1.88019E-03-1.01901E-13
 -1      3959 9.53726E-03 1.84246E-03-9.90075E-14
 -1      3960 9.43377E-03 1.78699E-03-9.76617E-14
 -1      3961 9.96541E-03 1.95546E-03-1.07766E-13
 -1      3962 9.82265E-03 1.91785E-03-1.04822E-13
 -1      3963 9.71904E-03 1.86228E-03-1.03451E-13
 -1      3964 1.02510E-02 2.03055E-03-1.13735E-13
 -1      3965 1.01082E-02 1.99303E-03-1.10738E-13
 -1      3966 1.00045E-02 1.93739E-03-1.09343E-13
 -1      3967 1.05367E-02 2.10547E-03-1.19803E-13
 -1      3968 1.03939E-02 2.06803E-03-1.16756E-13
 -1      3969 1.02901E-02 2.01234E-03-1.15338E-13
 -1      3970 1.08225E-02 2.18028E-03-1.25963E-13
 -1      3971 1.06796E-02 2.14289E-03-1.22872E-13
 -1      3972 1.05758E-02 2.08717E-03-1.21431E-13
 -1      3973 1.11083E-02 2.25500E-03-1.32211E-13
 -1      3974 1.09654E-02 2.21765E-03-1.29077E-13
 -1      3975 1.08616E-02 2.16191E-03-1.27616E-13
 -1      3976 1.13941E-02 2.32965E-03-1.38543E-13
 -1      3977 1.12512E-02 2.29233E-03-1.35366E-13
 -1      3978 1.11474E-02 2.23658E-03-1.33886E-13
 -1      3979 1.16799E-02 2.40425E-03-1.44962E-13
 -1      3980 1.15370E-02 2.36696E-03-1.41742E-13
 -1      3981 1.14332E-02 2.31119E-03-1.40243E-13
 -1      3982 1.19657E-02 2.47881E-03-1.51458E-13
 -1      3983 1.18228E-02 2.44154E-03-1.48200E-13
 -1      3984 1.17190E-02 2.38577E-03-1.46685E-13
 -1      3985 1.22515E-02 2.55335E-03-1.58031E-13
 -1      3986 1.21086E-02 2.51609E-03-1.54734E-13
 -1      3987 1.20048E-02 2.46032E-03-1.53204E-13
 -1      3988 1.25373E-02 2.62788E-03-1.64675E-13
 -1      3989 1.23944E-02 2.59062E-03-1.61346E-13
 -1      3990 1.22906E-02 2.53485E-03-1.59797E-13
 -1      3991 1.28230E-02 2.70239E-03-1.71383E-13
 -1      3992 1.26801E-02 2.66514E-03-1.68022E-13
 -1      3993 1.25764E-02 2.60937E-03-1.66459E-13
 -1      3994 1.31088E-02 2.77690E-03-1.78153E-13
 -1      3995 1.29659E-02 2.73965E-03-1.74761E-13
 -1      3996 1.28622E-02 2.68389E-03-1.73183E-13
 -1      3997 1.33945E-02 2.85140E-03-1.84975E-13
 -1      3998 1.32517E-02 2.81415E-03-1.81558E-13
 -1      3999 1.31479E-02 2.75839E-03-1.79970E-13
 -1      4000 4.74157E-03 4.04885E-04-2.37325E-14
 -1      4001 7.41627E-03 1.26650E-03-5.91129E-14
 -1      4002 7.27777E-03 1.22754E-03-5.67196E-14
 -1      4003 8.54109E-03 1.57622E-03-7.95158E-14
 -1      4004 8.39937E-03 1.53781E-03-7.68480E-14
 -1      4005 8.29721E-03 1.48330E-03-7.56148E-14
 -1      4006 8.58034E-03 1.55966E-03-8.09509E-14
 -1      4007 5.75562E-03 8.41269E-04-3.10953E-14
 -1      4008 5.63327E-03 8.07484E-04-2.92217E-14
 -1      4009 5.60406E-03 7.83135E-04-2.88792E-14
 -1      4010 5.80717E-03 8.33752E-04-3.21420E-14
 -1      4011 6.59829E-03 1.03474E-03-4.53088E-14
 -1      4012 6.46591E-03 9.97020E-04-4.31430E-14
 -1      4013 5.30496E-03 6.38810E-04-2.60030E-14
 -1      4014 5.23781E-03 6.08444E-04-2.60557E-14
 -1      4015 7.14000E-03 1.18866E-03-5.43615E-14
 -1      4016 7.00303E-03 1.14985E-03-5.20408E-14
 -1      4017 7.17983E-03 1.17601E-03-5.56192E-14
 -1      4018 6.86701E-03 1.11123E-03-4.97583E-14
 -1      4019 6.73204E-03 1.07279E-03-4.75147E-14
 -1      4020 6.90693E-03 1.09966E-03-5.09779E-14
 -1      4021 1.35550E-02 2.89147E-03-1.88880E-13
 -1      4022 7.69506E-03 1.34436E-03-6.40068E-14
 -1      4023 7.55539E-03 1.30543E-03-6.15413E-14
 -1      4024 7.45597E-03 1.25284E-03-6.04087E-14
 -1      4025 7.73462E-03 1.32980E-03-6.53391E-14
 -1      4026 1.32712E-02 2.56482E-03-1.89881E-13
 -1      4027 1.34904E-02 2.64504E-03-1.94490E-13
 -1      4028 1.35269E-02 2.68702E-03-1.94366E-13
 -1      4029 1.32320E-02 2.58332E-03-1.88055E-13
 -1      4030 5.36639E-03 7.06937E-04-2.51400E-14
 -1      4031 5.34149E-03 6.86986E-04-2.48112E-14
 -1      4032 5.40918E-03 6.96978E-04-2.61349E-14
 -1      4033 5.47484E-03 7.37147E-04-2.69109E-14
 -1      4034 6.33512E-03 9.59917E-04-4.10167E-14
 -1      4035 6.20609E-03 9.23353E-04-3.89322E-14
 -1      4036 6.37490E-03 9.50616E-04-4.21546E-14
 -1      4037 4.88662E-03 4.38461E-04-2.54574E-14
 -1      4038 1.34215E-02 2.67583E-03-1.91305E-13
 -1      4039 5.26634E-03 5.99611E-04-2.73265E-14
 -1      4040 6.63822E-03 1.02430E-03-4.64876E-14
 -1      4041 1.34513E-02 2.83572E-03-1.87285E-13
 -1      4042 1.33580E-02 2.70513E-03-1.88348E-13
 -1      4043 1.33943E-02 2.74694E-03-1.88221E-13
 -1      4044 6.07914E-03 8.87646E-04-3.68904E-14
 -1      4045 5.95447E-03 8.52668E-04-3.48911E-14
 -1      4046 6.11850E-03 8.79486E-04-3.79842E-14
 -1      4047 5.37425E-03 6.63291E-04-2.66012E-14
 -1      4048 5.43422E-03 6.69574E-04-2.80655E-14
 -1      4049 5.43716E-03 6.87198E-04-2.72006E-14
 -1      4050 5.05400E-03 4.86775E-04-2.72026E-14
 -1      4051 1.34039E-02 2.77240E-03-1.87737E-13
 -1      4052 1.34416E-02 2.81025E-03-1.87772E-13
 -1      4053 1.32812E-02 2.77018E-03-1.83866E-13
 -1      4054 1.32620E-02 2.71924E-03-1.84827E-13
 -1      4055 5.59681E-03 6.36175E-04-3.37239E-14
 -1      4056 5.72774E-03 6.65959E-04-3.56948E-14
 -1      4057 5.85916E-03 6.96603E-04-3.77075E-14
 -1      4058 5.99140E-03 7.27978E-04-3.97640E-14
 -1      4059 5.83677E-03 7.11264E-04-3.66673E-14
 -1      4060 6.12424E-03 7.60033E-04-4.18622E-14
 -1      4061 6.25795E-03 7.92713E-04-4.40001E-14
 -1      4062 6.09751E-03 7.74053E-04-4.07789E-14
 -1      4063 6.39234E-03 8.25969E-04-4.61796E-14
 -1      4064 6.52755E-03 8.59711E-04-4.83983E-14
 -1      4065 6.36240E-03 8.39904E-04-4.50550E-14
 -1      4066 6.66342E-03 8.93908E-04-5.06554E-14
 -1      4067 6.80003E-03 9.28478E-04-5.29508E-14
 -1      4068 6.63110E-03 9.08081E-04-4.94906E-14
 -1      4069 6.93725E-03 9.63404E-04-5.52843E-14
 -1      4070 7.07511E-03 9.98613E-04-5.76566E-14
 -1      4071 6.90315E-03 9.78005E-04-5.40798E-14
 -1      4072 7.21351E-03 1.03410E-03-6.00657E-14
 -1      4073 7.35246E-03 1.06980E-03-6.25102E-14
 -1      4074 7.17806E-03 1.04922E-03-5.88208E-14
 -1      4075 7.49187E-03 1.10570E-03-6.49902E-14
 -1      4076 7.63172E-03 1.14178E-03-6.75046E-14
 -1      4077 7.45541E-03 1.12137E-03-6.37088E-14
 -1      4078 7.77197E-03 1.17801E-03-7.00522E-14
 -1      4079 7.91258E-03 1.21436E-03-7.26325E-14
 -1      4080 7.73474E-03 1.19419E-03-6.87346E-14
 -1      4081 8.05349E-03 1.25084E-03-7.52464E-14
 -1      4082 8.19470E-03 1.28741E-03-7.78921E-14
 -1      4083 8.01570E-03 1.26749E-03-7.38940E-14
 -1      4084 8.33616E-03 1.32408E-03-8.05690E-14
 -1      4085 8.47784E-03 1.36081E-03-8.32761E-14
 -1      4086 8.29794E-03 1.34113E-03-7.91831E-14
 -1      4087 8.61971E-03 1.39762E-03-8.60145E-14
 -1      4088 8.76175E-03 1.43449E-03-8.87843E-14
 -1      4089 8.58118E-03 1.41502E-03-8.45972E-14
 -1      4090 8.90393E-03 1.47141E-03-9.15849E-14
 -1      4091 9.04625E-03 1.50837E-03-9.44124E-14
 -1      4092 8.86518E-03 1.48908E-03-9.01334E-14
 -1      4093 9.18867E-03 1.54537E-03-9.72662E-14
 -1      4094 9.33118E-03 1.58241E-03-1.00149E-13
 -1      4095 9.14975E-03 1.56327E-03-9.57860E-14
 -1      4096 9.47377E-03 1.61948E-03-1.03058E-13
 -1      4097 9.61643E-03 1.65657E-03-1.05992E-13
 -1      4098 9.43475E-03 1.63755E-03-1.01547E-13
 -1      4099 9.75914E-03 1.69369E-03-1.08953E-13
 -1      4100 9.90190E-03 1.73083E-03-1.11939E-13
 -1      4101 9.72004E-03 1.71190E-03-1.07412E-13
 -1      4102 1.00447E-02 1.76799E-03-1.14949E-13
 -1      4103 1.01875E-02 1.80516E-03-1.17982E-13
 -1      4104 1.00055E-02 1.78629E-03-1.13380E-13
 -1      4105 1.03304E-02 1.84235E-03-1.21040E-13
 -1      4106 1.04732E-02 1.87955E-03-1.24122E-13
 -1      4107 1.02912E-02 1.86072E-03-1.19445E-13
 -1      4108 1.06161E-02 1.91676E-03-1.27227E-13
 -1      4109 1.07590E-02 1.95397E-03-1.30356E-13
 -1      4110 1.05769E-02 1.93518E-03-1.25604E-13
 -1      4111 1.09019E-02 1.99120E-03-1.33505E-13
 -1      4112 1.10448E-02 2.02843E-03-1.36679E-13
 -1      4113 1.08627E-02 2.00966E-03-1.31857E-13
 -1      4114 1.11877E-02 2.06567E-03-1.39876E-13
 -1      4115 1.13306E-02 2.10291E-03-1.43093E-13
 -1      4116 1.11485E-02 2.08415E-03-1.38200E-13
 -1      4117 1.14735E-02 2.14015E-03-1.46329E-13
 -1      4118 1.16164E-02 2.17740E-03-1.49585E-13
 -1      4119 1.14343E-02 2.15865E-03-1.44628E-13
 -1      4120 1.17593E-02 2.21465E-03-1.52860E-13
 -1      4121 1.19022E-02 2.25190E-03-1.56154E-13
 -1      4122 1.17201E-02 2.23315E-03-1.51138E-13
 -1      4123 1.20451E-02 2.28916E-03-1.59465E-13
 -1      4124 1.21880E-02 2.32641E-03-1.62790E-13
 -1      4125 1.20059E-02 2.30766E-03-1.57721E-13
 -1      4126 1.23309E-02 2.36367E-03-1.66132E-13
 -1      4127 1.24738E-02 2.40093E-03-1.69491E-13
 -1      4128 1.22917E-02 2.38218E-03-1.64370E-13
 -1      4129 1.26167E-02 2.43819E-03-1.72867E-13
 -1      4130 1.27596E-02 2.47545E-03-1.76260E-13
 -1      4131 1.25775E-02 2.45670E-03-1.71083E-13
 -1      4132 1.29025E-02 2.51271E-03-1.79667E-13
 -1      4133 1.30454E-02 2.54997E-03-1.83091E-13
 -1      4134 1.28633E-02 2.53121E-03-1.77861E-13
 -1      4135 5.41265E-03 6.42035E-04-2.89644E-14
 -1      4136 5.31714E-03 5.94743E-04-2.88263E-14
 -1      4137 9.18790E-03 1.69401E-03-9.34752E-14
 -1      4138 9.04556E-03 1.65632E-03-9.06595E-14
 -1      4139 8.90336E-03 1.61858E-03-8.78727E-14
 -1      4140 8.76130E-03 1.58080E-03-8.51147E-14
 -1      4141 8.94236E-03 1.60132E-03-8.93388E-14
 -1      4142 9.75814E-03 1.84432E-03-1.05002E-13
 -1      4143 9.61547E-03 1.80680E-03-1.02081E-13
 -1      4144 1.00436E-02 1.91926E-03-1.10922E-13
 -1      4145 9.90086E-03 1.88181E-03-1.07949E-13
 -1      4146 9.79724E-03 1.82630E-03-1.06556E-13
 -1      4147 1.03293E-02 1.99409E-03-1.16944E-13
 -1      4148 1.01864E-02 1.95669E-03-1.13920E-13
 -1      4149 1.00827E-02 1.90109E-03-1.12503E-13
 -1      4150 1.06150E-02 2.06884E-03-1.23061E-13
 -1      4151 1.04721E-02 2.03148E-03-1.19991E-13
 -1      4152 1.03684E-02 1.97582E-03-1.18550E-13
 -1      4153 1.09007E-02 2.14352E-03-1.29268E-13
 -1      4154 1.07579E-02 2.10618E-03-1.26154E-13
 -1      4155 1.06541E-02 2.05048E-03-1.24692E-13
 -1      4156 1.11865E-02 2.21814E-03-1.35565E-13
 -1      4157 1.10436E-02 2.18083E-03-1.32407E-13
 -1      4158 1.09399E-02 2.12510E-03-1.30925E-13
 -1      4159 1.14724E-02 2.29273E-03-1.41949E-13
 -1      4160 1.13295E-02 2.25544E-03-1.38745E-13
 -1      4161 1.12257E-02 2.19969E-03-1.37248E-13
 -1      4162 1.17582E-02 2.36729E-03-1.48411E-13
 -1      4163 1.16153E-02 2.33001E-03-1.45170E-13
 -1      4164 1.15115E-02 2.27425E-03-1.43653E-13
 -1      4165 1.20440E-02 2.44182E-03-1.54952E-13
 -1      4166 1.19011E-02 2.40456E-03-1.51671E-13
 -1      4167 1.17973E-02 2.34879E-03-1.50140E-13
 -1      4168 1.23298E-02 2.51635E-03-1.61565E-13
 -1      4169 1.21869E-02 2.47909E-03-1.58249E-13
 -1      4170 1.20831E-02 2.42332E-03-1.56701E-13
 -1      4171 1.26156E-02 2.59087E-03-1.68244E-13
 -1      4172 1.24727E-02 2.55361E-03-1.64897E-13
 -1      4173 1.23689E-02 2.49785E-03-1.63334E-13
 -1      4174 1.29013E-02 2.66538E-03-1.74986E-13
 -1      4175 1.27585E-02 2.62813E-03-1.71609E-13
 -1      4176 1.26547E-02 2.57236E-03-1.70032E-13
 -1      4177 1.31627E-02 2.73641E-03-1.81120E-13
 -1      4178 1.30198E-02 2.69915E-03-1.77714E-13
 -1      4179 1.29161E-02 2.64339E-03-1.76127E-13
 -1      4180 1.31531E-02 2.71094E-03-1.81599E-13
 -1      4181 1.32349E-02 2.64248E-03-1.86324E-13
 -1      4182 1.31293E-02 2.63112E-03-1.83292E-13
 -1      4183 6.41222E-03 9.40805E-04-4.32949E-14
 -1      4184 6.28251E-03 9.05328E-04-4.11682E-14
 -1      4185 1.31928E-02 2.60182E-03-1.86226E-13
 -1      4186 7.21865E-03 1.16301E-03-5.68790E-14
 -1      4187 7.08163E-03 1.12524E-03-5.45196E-14
 -1      4188 6.67632E-03 1.01340E-03-4.76693E-14
 -1      4189 6.54355E-03 9.76809E-04-4.54626E-14
 -1      4190 6.44767E-03 9.30258E-04-4.44388E-14
 -1      4191 9.47286E-03 1.76924E-03-9.91830E-14
 -1      4192 9.33033E-03 1.73165E-03-9.63148E-14
 -1      4193 9.22694E-03 1.67643E-03-9.49690E-14
 -1      4194 9.51194E-03 1.75141E-03-1.00708E-13
 -1      4195 6.94549E-03 1.08769E-03-5.21985E-14
 -1      4196 6.81034E-03 1.05036E-03-4.99150E-14
 -1      4197 6.98297E-03 1.07521E-03-5.34217E-14
 -1      4198 8.05426E-03 1.39112E-03-7.17786E-14
 -1      4199 7.91375E-03 1.35307E-03-6.92089E-14
 -1      4200 5.18432E-03 5.38922E-04-2.80919E-14
 -1      4201 5.34490E-03 5.87997E-04-2.97584E-14
 -1      4202 1.30011E-02 2.59390E-03-1.80337E-13
 -1      4203 1.31242E-02 2.65655E-03-1.82349E-13
 -1      4204 1.31338E-02 2.68202E-03-1.81872E-13
 -1      4205 1.28582E-02 2.55665E-03-1.76931E-13
 -1      4206 5.49058E-03 6.70868E-04-2.95971E-14
 -1      4207 5.54847E-03 6.70622E-04-3.11526E-14
 -1      4208 5.56343E-03 6.98570E-04-3.02298E-14
 -1      4209 7.49494E-03 1.23889E-03-6.17049E-14
 -1      4210 7.35645E-03 1.20090E-03-5.92739E-14
 -1      4211 7.25667E-03 1.14959E-03-5.81402E-14
 -1      4212 6.15462E-03 8.70716E-04-3.90825E-14
 -1      4213 6.02883E-03 8.36833E-04-3.70384E-14
 -1      4214 6.18828E-03 8.61061E-04-4.01842E-14
 -1      4215 5.66837E-03 7.85111E-04-3.00889E-14
 -1      4216 5.57056E-03 7.60646E-04-2.84835E-14
 -1      4217 5.53564E-03 7.39259E-04-2.80869E-14
 -1      4218 6.71299E-03 1.00190E-03-4.88532E-14
 -1      4219 8.65837E-03 1.52610E-03-8.38217E-14
 -1      4220 8.61942E-03 1.54296E-03-8.23861E-14
 -1      4221 8.47774E-03 1.50507E-03-7.96868E-14
 -1      4222 8.33630E-03 1.46713E-03-7.70189E-14
 -1      4223 8.19512E-03 1.42914E-03-7.43828E-14
 -1      4224 8.37517E-03 1.45076E-03-7.84238E-14
 -1      4225 5.87134E-03 8.11951E-04-3.39852E-14
 -1      4226 5.83264E-03 8.19002E-04-3.29359E-14
 -1      4227 7.81227E-03 1.29991E-03-6.80096E-14
 -1      4228 7.77366E-03 1.31500E-03-6.66733E-14
 -1      4229 7.63403E-03 1.27693E-03-6.41715E-14
 -1      4230 8.09302E-03 1.37534E-03-7.31500E-14
 -1      4231 5.47367E-03 6.15688E-04-3.16360E-14
 -1      4232 5.58641E-03 6.59977E-04-3.25639E-14
 -1      4233 5.50918E-03 7.22648E-04-2.78452E-14
 -1      4234 5.46931E-03 7.02929E-04-2.74454E-14
 -1      4235 5.53798E-03 7.12038E-04-2.89335E-14
 -1      4236 5.60195E-03 7.45649E-04-2.94345E-14
 -1      4237 5.73251E-03 7.93774E-04-3.12751E-14
 -1      4238 5.81431E-03 7.24669E-04-3.56320E-14
 -1      4239 5.94173E-03 7.55341E-04-3.76436E-14
 -1      4240 1.03298E-02 1.91828E-03-1.19003E-13
 -1      4241 1.01869E-02 1.88099E-03-1.15965E-13
 -1      4242 6.14573E-03 8.18707E-04-4.04922E-14
 -1      4243 6.27586E-03 8.51870E-04-4.26043E-14
 -1      4244 6.40730E-03 8.85871E-04-4.47571E-14
 -1      4245 6.53999E-03 9.20397E-04-4.69510E-14
 -1      4246 6.67378E-03 9.55529E-04-4.91821E-14
 -1      4247 6.80861E-03 9.91038E-04-5.14525E-14
 -1      4248 6.94437E-03 1.02697E-03-5.37611E-14
 -1      4249 7.08097E-03 1.06317E-03-5.61076E-14
 -1      4250 7.21834E-03 1.09965E-03-5.84907E-14
 -1      4251 7.35639E-03 1.13630E-03-6.09112E-14
 -1      4252 7.49507E-03 1.17315E-03-6.33678E-14
 -1      4253 7.63429E-03 1.21009E-03-6.58580E-14
 -1      4254 7.77401E-03 1.24716E-03-6.83827E-14
 -1      4255 7.91417E-03 1.28429E-03-7.09402E-14
 -1      4256 8.05472E-03 1.32149E-03-7.35325E-14
 -1      4257 8.19560E-03 1.35872E-03-7.61574E-14
 -1      4258 8.33679E-03 1.39600E-03-7.88120E-14
 -1      4259 8.47825E-03 1.43328E-03-8.15002E-14
 -1      4260 8.61993E-03 1.47059E-03-8.42185E-14
 -1      4261 8.76181E-03 1.50791E-03-8.69665E-14
 -1      4262 8.90387E-03 1.54523E-03-8.97450E-14
 -1      4263 9.04607E-03 1.58255E-03-9.25529E-14
 -1      4264 9.18840E-03 1.61987E-03-9.53854E-14
 -1      4265 9.33084E-03 1.65718E-03-9.82450E-14
 -1      4266 9.47336E-03 1.69450E-03-1.01137E-13
 -1      4267 9.61597E-03 1.73180E-03-1.04052E-13
 -1      4268 9.75864E-03 1.76911E-03-1.06993E-13
 -1      4269 9.90136E-03 1.80641E-03-1.09958E-13
 -1      4270 1.00441E-02 1.84370E-03-1.12949E-13
 -1      4271 1.04726E-02 1.95556E-03-1.22068E-13
 -1      4272 1.06155E-02 1.99283E-03-1.25154E-13
 -1      4273 1.07584E-02 2.03011E-03-1.28265E-13
 -1      4274 1.09013E-02 2.06738E-03-1.31399E-13
 -1      4275 1.10442E-02 2.10465E-03-1.34551E-13
 -1      4276 1.11871E-02 2.14192E-03-1.37729E-13
 -1      4277 1.13300E-02 2.17919E-03-1.40928E-13
 -1      4278 1.14729E-02 2.21645E-03-1.44147E-13
 -1      4279 1.16158E-02 2.25371E-03-1.47387E-13
 -1      4280 1.17587E-02 2.29097E-03-1.50645E-13
 -1      4281 1.19016E-02 2.32823E-03-1.53921E-13
 -1      4282 1.20445E-02 2.36549E-03-1.57216E-13
 -1      4283 1.21874E-02 2.40275E-03-1.60528E-13
 -1      4284 1.23303E-02 2.44001E-03-1.63857E-13
 -1      4285 1.24732E-02 2.47727E-03-1.67201E-13
 -1      4286 1.26161E-02 2.51453E-03-1.70561E-13
 -1      4287 1.27590E-02 2.55179E-03-1.73939E-13
 -1      4288 5.66617E-03 6.91699E-04-3.32334E-14
 -1      4289 1.30153E-02 2.64825E-03-1.79130E-13
 -1      4290 1.28968E-02 2.61448E-03-1.76396E-13
 -1      4291 5.69172E-03 7.71346E-04-3.08597E-14
 -1      4292 7.53331E-03 1.22459E-03-6.30049E-14
 -1      4293 5.84151E-03 7.61965E-04-3.49050E-14
 -1      4294 5.81412E-03 7.71485E-04-3.38664E-14
 -1      4295 5.69478E-03 7.40802E-04-3.19370E-14
 -1      4296 6.01708E-03 7.86169E-04-3.84208E-14
 -1      4297 5.62717E-03 7.36352E-04-3.03495E-14
 -1      4298 5.66056E-03 7.53723E-04-3.06055E-14
 -1      4299 5.98933E-03 7.97354E-04-3.73521E-14
 -1      4300 5.76870E-03 7.32992E-04-3.41632E-14
 -3
    1PSTEP                         2           1           1          
  100CL  101 1.000000000        4300                     0    1           1
 -4  STRESS      6    1
 -5  SXX         1    4    1    1
 -5  SYY         1    4    2    2
 -5  SZZ         1    4    3    3
 -5  SXY         1    4    1    2
 -5  SYZ         1    4    2    3
 -5  SZX         1    4    3    1
 -1         1 6.44464E+01 8.20984E-01 3.32285E+00 1.95089E-01-1.26194E-13-1.16864E-12
 -1         2-6.65052E-01-2.31785E+01-3.33268E+00-1.53850E-01 1.21516E-12 1.53513E-13
 -1         3 1.99998E+01 8.41680E-06-3.39085E-05 8.55252E-06-5.14285E-13-4.99546E-13
 -1         4 1.99998E+01 7.93024E-06-3.44779E-05-8.21522E-06 1.13944E-13 1.06649E-13
 -1         5 4.22584E+01 8.03680E+00 3.22160E+00 7.09855E+00-5.04596E-14 4.94620E-12
 -1         6 4.11757E+01 1.41276E+01 5.91606E+00-9.86787E+00-3.56382E-13 5.00747E-12
 -1         7 2.37337E+01 6.94794E+00-1.51111E-01-5.32015E+00-4.81282E-14 7.48353E-13
 -1         8 2.21703E+01 6.68797E+00 7.27693E-02-3.57569E+00-5.38875E-14-4.61491E-13
 -1         9 2.13105E+01 6.42293E+00 1.04154E-01-2.50863E+00-4.25771E-14-1.06681E-12
 -1        10 2.06213E+01 6.20479E+00 1.40662E-01-1.47026E+00-1.86517E-14-1.32239E-12
 -1        11 1.97360E+01 5.93266E+00 1.63025E-01-3.86134E-01-5.19723E-15-1.42283E-12
 -1        12 1.84633E+01 5.55163E+00 1.55655E-01 6.58315E-01 6.56419E-15-1.43554E-12
 -1        13 1.67036E+01 5.03227E+00 1.00321E-01 1.52276E+00 1.68893E-14-1.44444E-12
 -1        14 1.46841E+01 4.44100E+00-4.36097E-03 1.95639E+00 2.27457E-14-1.45920E-12
 -1        15 1.29254E+01 3.92930E+00-1.25864E-01 1.80313E+00 2.33633E-14-1.47536E-12
 -1        16 1.21049E+01 3.69423E+00-2.04241E-01 1.13954E+00 2.00081E-14-1.47287E-12
 -1        17 1.26957E+01 3.87242E+00-1.93763E-01 3.16104E-01 1.66187E-14-1.40724E-12
 -1        18 1.46062E+01 4.44003E+00-1.05733E-01-2.16907E-01 1.89293E-14-1.27058E-12
 -1        19 1.74378E+01 5.27974E+00 7.93019E-03-1.84535E-01 3.01842E-14-1.02641E-12
 -1        20 2.06356E+01 6.23090E+00 9.66910E-02 4.76062E-01 4.31322E-14-6.20852E-13
 -1        21 2.39811E+01 7.22495E+00 1.63519E-01 1.73925E+00 5.52614E-14 1.17685E-13
 -1        22 2.79799E+01 8.29695E+00 3.25212E-01 3.94524E+00 1.18239E-14 1.58639E-12
 -1        23 2.66655E+01-1.57414E+00-1.05132E+00-8.08792E-01-2.44742E-13 3.78766E-12
 -1        24 2.22937E+01-9.62420E-02-3.17408E-01 6.37566E-02-6.00605E-14 2.76703E-12
 -1        25 2.09150E+01-4.70043E-02-4.46223E-02 3.78133E-02-2.75784E-14 1.73772E-12
 -1        26 1.97443E+01-1.66789E-02 1.13903E-02-1.06878E-02-9.82667E-15 1.09172E-12
 -1        27 1.86271E+01-1.76270E-02-3.91233E-03-2.88886E-02-4.76778E-15 6.59852E-13
 -1        28 1.76960E+01-2.48487E-02-3.08404E-02-2.64392E-02-5.85599E-15 3.77862E-13
 -1        29 1.71689E+01-3.04219E-02-4.96291E-02-6.39440E-03-8.44116E-15 1.44760E-13
 -1        30 1.72043E+01-2.92207E-02-5.10023E-02 2.17886E-02 6.98400E-15-1.52624E-13
 -1        31 1.77990E+01-2.04606E-02-3.49450E-02 4.55380E-02-1.23720E-14-3.57093E-13
 -1        32 1.87793E+01-7.44209E-03-9.93609E-03 5.58773E-02-4.15494E-14-5.94748E-13
 -1        33 1.98806E+01 4.96369E-03 1.28979E-02 5.16200E-02 3.73086E-14-6.89122E-13
 -1        34 2.08588E+01 1.31756E-02 2.63831E-02 3.79216E-02 5.96203E-16-6.71036E-13
 -1        35 2.15644E+01 1.61805E-02 2.94619E-02 2.16609E-02 1.49860E-14-7.26055E-13
 -1        36 2.19555E+01 1.50338E-02 2.52474E-02 7.81721E-03-1.42157E-14-7.73156E-13
 -1        37 2.20686E+01 1.15939E-02 1.78593E-02-1.55922E-03-3.97566E-15-8.90535E-13
 -1        38 2.19780E+01 7.52046E-03 1.03975E-02-6.59219E-03-3.52001E-14-1.03985E-12
 -1        39 2.17626E+01 3.86017E-03 4.43618E-03-8.39134E-03 1.55464E-14-1.27066E-12
 -1        40 2.14885E+01 1.06903E-03 3.79099E-04-8.20236E-03-4.74256E-14-1.36536E-12
 -1        41 2.12032E+01-7.91965E-04-1.99493E-03-7.01787E-03 5.83027E-14-1.41544E-12
 -1        42 2.09360E+01-1.86090E-03-3.12240E-03-5.49385E-03-7.00657E-14-1.32789E-12
 -1        43 2.07026E+01-2.34036E-03-3.43430E-03-4.00259E-03-4.38089E-14-1.21859E-12
 -1        44 2.05087E+01-2.42511E-03-3.27105E-03-2.72011E-03 4.54259E-15-9.47760E-13
 -1        45 2.03540E+01-2.27258E-03-2.87002E-03-1.70343E-03-2.81945E-14-9.19951E-13
 -1        46 2.02348E+01-1.99726E-03-2.38221E-03-9.45851E-04-2.36491E-14-1.03678E-12
 -1        47 2.01459E+01-1.67579E-03-1.89556E-03-4.11770E-04 2.43354E-14-9.72404E-13
 -1        48 2.00818E+01-1.35550E-03-1.45583E-03-5.65698E-05 7.84540E-15-8.81020E-13
 -1        49 2.00373E+01-1.06271E-03-1.08232E-03 1.63091E-04 8.33681E-14-7.01794E-13
 -1        50 2.00077E+01-8.09729E-04-7.78810E-04 2.84730E-04-1.01734E-13-7.65386E-13
 -1        51 1.99891E+01-5.99997E-04-5.40760E-04 3.38644E-04-5.82552E-16-7.19887E-13
 -1        52 1.99785E+01-4.31799E-04-3.59715E-04 3.48117E-04 1.98871E-14-8.07330E-13
 -1        53 1.99735E+01-3.00728E-04-2.25989E-04 3.30326E-04-4.17645E-14-8.39346E-13
 -1        54 1.99721E+01-2.01267E-04-1.30136E-04 2.97474E-04-6.78267E-14-8.57166E-13
 -1        55 1.99731E+01-1.27749E-04-6.36887E-05 2.57887E-04-9.59473E-14-8.74814E-13
 -1        56 1.99754E+01-7.48937E-05-1.94576E-05 2.16987E-04 1.92836E-15-9.26995E-13
 -1        57 1.99784E+01-3.80666E-05 8.42827E-06 1.78087E-04 3.17006E-15-9.35180E-13
 -1        58 1.99815E+01-1.33685E-05 2.46173E-05 1.43020E-04 1.04403E-13-8.57475E-13
 -1        59 1.99846E+01 2.37634E-06 3.26936E-05 1.12616E-04 3.94656E-14-1.05414E-12
 -1        60 1.99875E+01 1.16861E-05 3.53539E-05 8.70577E-05 5.26216E-15-1.10944E-12
 -1        61 1.99900E+01 1.65113E-05 3.45806E-05 6.61332E-05 9.92627E-14-8.71350E-13
 -1        62 1.99922E+01 1.83321E-05 3.17983E-05 4.94123E-05-1.06162E-13-1.01807E-12
 -1        63 1.99941E+01 1.82515E-05 2.80089E-05 3.63641E-05-3.04206E-14-1.48453E-12
 -1        64 1.99956E+01 1.70795E-05 2.39092E-05 2.64300E-05 3.79338E-14-1.67347E-12
 -1        65 1.99968E+01 1.54081E-05 1.99979E-05 1.90594E-05 6.23247E-14-1.21743E-12
 -1        66 1.99978E+01 1.36674E-05 1.66756E-05 1.37084E-05-4.63185E-14-8.35370E-13
 -1        67 1.99985E+01 1.21696E-05 1.43661E-05 9.79058E-06 1.46367E-13-4.43109E-13
 -1        68 1.99991E+01 1.11048E-05 1.35286E-05 6.57330E-06-2.24469E-14-3.75875E-13
 -1        69 1.99995E+01 1.03754E-05 1.42612E-05 2.86049E-06-1.68260E-14-3.51821E-13
 -1        70 1.99998E+01 8.36036E-06 1.37346E-05-4.07167E-06 7.90371E-14 1.82097E-13
 -1        71 1.99998E+01-1.52148E-06-1.21630E-06-1.30755E-05-2.81618E-14 3.67046E-13
 -1        72 3.06090E+01-5.00998E-01-1.13286E+00-6.12561E-01 6.67903E-14 4.50118E-12
 -1        73 3.01723E+01-3.21654E-02-2.07143E-01-1.41595E-01 5.48977E-14 3.45799E-12
 -1        74 2.95988E+01 2.68599E-02 8.61446E-02-5.82412E-02 2.72304E-14 2.74312E-12
 -1        75 2.80485E+01 2.40498E-02 1.59229E-01 2.99210E-02-1.81279E-16 2.31192E-12
 -1        76 2.50989E+01-1.45325E-02 8.57241E-02 1.63497E-01 8.79505E-15 2.02154E-12
 -1        77 2.13036E+01-6.14703E-02-1.11574E-01 2.61609E-01-9.80466E-15 1.69983E-12
 -1        78 1.83808E+01-7.25721E-02-2.96175E-01 2.02530E-01-3.14479E-14 1.51036E-12
 -1        79 1.80892E+01-4.09405E-02-2.96509E-01-7.12931E-03 3.01950E-14 8.46552E-13
 -1        80 2.05163E+01 2.79750E-03-1.17025E-01-1.95089E-01-2.36515E-14 2.68646E-13
 -1        81 2.39834E+01 3.12490E-02 7.46460E-02-2.33729E-01 3.48727E-14 1.17267E-14
 -1        82 2.66566E+01 3.79535E-02 1.55979E-01-1.56397E-01 3.40188E-14-1.41637E-13
 -1        83 2.77801E+01 2.94113E-02 1.35081E-01-6.00046E-02 2.46632E-14-1.28040E-13
 -1        84 2.75818E+01 1.58262E-02 7.55676E-02 3.72143E-03 3.63599E-14-9.82278E-14
 -1        85 2.66318E+01 4.41866E-03 2.44852E-02 3.16623E-02-3.18644E-14-2.83553E-13
 -1        86 2.54170E+01-2.59471E-03-4.91322E-03 3.73550E-02 1.36287E-14-4.52954E-13
 -1        87 2.42292E+01-5.86568E-03-1.68529E-02 3.30868E-02-7.77660E-15-7.87143E-13
 -1        88 2.31996E+01-6.74742E-03-1.90199E-02 2.60082E-02-1.66458E-14-5.92870E-13
 -1        89 2.23638E+01-6.38648E-03-1.70019E-02 1.92166E-02 5.54406E-14-8.17396E-13
 -1        90 2.17119E+01-5.51298E-03-1.37776E-02 1.36953E-02-5.87943E-14-7.83662E-13
 -1        91 2.12164E+01-4.51999E-03-1.06312E-02 9.53170E-03-1.77617E-15-4.78393E-13
 -1        92 2.08469E+01-3.59021E-03-7.98919E-03 6.51164E-03-7.40844E-14-2.07220E-13
 -1        93 2.05755E+01-2.79193E-03-5.91092E-03 4.36743E-03 2.19770E-15-9.15447E-14
 -1        94 2.03790E+01-2.13756E-03-4.32663E-03 2.86476E-03 6.17085E-15-5.07087E-13
 -1        95 2.02390E+01-1.61560E-03-3.13762E-03 1.82208E-03-4.10334E-14-5.94145E-13
 -1        96 2.01410E+01-1.20648E-03-2.25264E-03 1.10597E-03 4.52293E-14-2.02358E-13
 -1        97 2.00739E+01-8.89790E-04-1.59749E-03 6.20647E-04-4.91044E-14 5.34827E-14
 -1        98 2.00294E+01-6.47159E-04-1.11495E-03 2.97937E-04 1.78652E-14-1.07384E-13
 -1        99 2.00009E+01-4.63061E-04-7.61799E-04 8.93359E-05-4.92348E-14-3.93741E-13
 -1       100 1.99839E+01-3.24797E-04-5.05559E-04-3.97495E-05 1.12940E-13-3.47239E-13
 -1       101 1.99747E+01-2.22141E-04-3.21812E-04-1.14061E-04-6.18543E-14-6.86762E-13
 -1       102 1.99708E+01-1.46942E-04-1.92113E-04-1.51315E-04 9.13004E-14-1.01445E-12
 -1       103 1.99704E+01-9.27351E-05-1.02476E-04-1.64168E-04 3.57745E-15-6.77907E-13
 -1       104 1.99719E+01-5.44255E-05-4.22748E-05-1.61605E-04 1.91303E-14-1.89053E-13
 -1       105 1.99747E+01-2.80170E-05-3.43744E-06-1.49929E-04 6.11096E-14-2.69178E-13
 -1       106 1.99779E+01-1.03983E-05 2.01425E-05-1.33483E-04-9.96735E-14-3.66451E-13
 -1       107 1.99813E+01 8.33482E-07 3.30540E-05-1.15180E-04 4.04459E-14-1.43020E-13
 -1       108 1.99845E+01 7.51576E-06 3.87110E-05-9.69036E-05 3.71569E-14-4.49959E-13
 -1       109 1.99875E+01 1.10384E-05 3.96216E-05-7.98003E-05 1.53565E-13-5.53268E-13
 -1       110 1.99900E+01 1.24401E-05 3.75993E-05-6.45045E-05-2.17216E-14-8.80401E-13
 -1       111 1.99922E+01 1.24878E-05 3.39328E-05-5.13028E-05-2.59165E-14-2.25165E-13
 -1       112 1.99941E+01 1.17413E-05 2.95208E-05-4.02561E-05-7.48122E-14 4.46466E-13
 -1       113 1.99956E+01 1.06077E-05 2.49853E-05-3.12869E-05 1.14051E-13 8.42872E-13
 -1       114 1.99968E+01 9.38611E-06 2.07732E-05-2.42397E-05-9.09794E-14 1.20220E-12
 -1       115 1.99978E+01 8.29680E-06 1.72602E-05-1.89060E-05 1.14616E-13 7.92913E-13
 -1       116 1.99986E+01 7.47873E-06 1.48451E-05-1.49881E-05 1.87250E-13-1.90810E-13
 -1       117 1.99991E+01 7.00634E-06 1.39983E-05-1.20223E-05-1.02847E-13-8.87121E-13
 -1       118 1.99995E+01 6.72082E-06 1.48135E-05-9.13446E-06 9.91896E-14-9.31945E-13
 -1       119 1.99998E+01 5.15902E-06 1.40999E-05-3.33436E-06 3.75246E-15-2.08993E-12
 -1       120 1.99998E+01-5.75714E-06-2.49701E-06 9.81703E-06 1.46184E-13-1.44432E-12
 -1       121 1.99998E+01 3.17362E-05-8.32211E-07 1.44208E-05-1.02157E-12 2.36725E-13
 -1       122 1.99998E+01-3.16975E-05 1.42685E-05 2.59750E-07-8.79439E-13-6.70553E-14
 -1       123 1.99998E+01-2.69785E-04 1.11197E-05-8.64263E-06-8.84229E-13-3.16800E-14
 -1       124 1.99998E+01-6.16979E-04 4.24056E-06-1.26158E-05-1.43995E-12 1.16198E-13
 -1       125 1.99998E+01-1.00125E-03-2.33957E-06-1.29319E-05-1.61028E-12-9.89396E-14
 -1       126 1.99998E+01-1.35016E-03-7.48839E-06-1.09686E-05-1.41073E-12 4.05428E-13
 -1       127 1.99998E+01-1.61971E-03-1.10078E-05-7.22889E-06-6.77016E-13 5.48923E-14
 -1       128 1.99998E+01-1.76412E-03-1.28096E-05-2.49381E-06-1.26774E-12-9.90959E-14
 -1       129 1.99998E+01-1.76293E-03-1.27963E-05 2.56621E-06 2.79049E-13 2.30824E-13
 -1       130 1.99998E+01-1.61629E-03-1.09672E-05 7.28519E-06 6.40640E-13-2.09301E-13
 -1       131 1.99998E+01-1.34508E-03-7.34783E-06 1.11021E-05-6.63967E-13-2.67475E-13
 -1       132 1.99998E+01-9.95476E-04-2.25408E-06 1.29413E-05-1.05472E-12 2.16474E-13
 -1       133 1.99998E+01-6.11519E-04 4.24510E-06 1.25057E-05-7.67268E-13 1.39747E-13
 -1       134 1.99998E+01-2.64292E-04 1.17856E-05 9.55802E-06-5.91151E-13-1.66558E-13
 -1       135 1.99998E+01-3.28450E-05 1.26369E-05-2.90334E-07-5.72358E-13-3.71195E-14
 -1       136 1.99998E+01 2.90651E-05-1.26096E-06-2.38418E-05-4.37489E-13 5.11417E-15
 -1       137-1.48575E+00-1.90562E+01-3.15785E+00-3.75017E+00 3.48679E-12 7.21524E-13
 -1       138-1.42781E+00-7.92048E+00-2.41736E+00-2.72268E+00 4.93594E-12 2.41068E-12
 -1       139 2.99193E+00 3.48293E+00-1.28138E+00 3.55453E+00 5.28039E-12 3.86863E-12
 -1       140 1.57672E+01 1.05549E+01 2.35544E-01 1.28460E+01 4.11521E-12 4.63884E-12
 -1       141 3.62114E+01 1.04147E+01 1.90957E+00 1.89584E+01 2.52903E-12 4.51650E-12
 -1       142 5.80665E+01 4.99881E+00 3.35330E+00 1.56780E+01 7.54771E-13 2.34407E-12
 -1       143 6.87610E+01 1.16762E+00 3.98897E+00 3.74006E+00 5.35058E-14-1.03087E-12
 -1       144 6.38333E+01 2.44649E+00 3.63550E+00-9.73675E+00 8.22986E-13-4.31155E-12
 -1       145 4.65529E+01 6.97559E+00 2.42069E+00-1.70829E+01 2.64294E-12-6.44612E-12
 -1       146 2.62437E+01 9.73600E+00 8.66506E-01-1.56258E+01 4.54864E-12-7.02549E-12
 -1       147 8.77666E+00 7.21171E+00-7.74631E-01-8.10923E+00 6.12982E-12-6.09773E-12
 -1       148-5.89816E-02-1.32840E+00-2.02042E+00 4.22162E-02 6.29435E-12-4.09495E-12
 -1       149-1.82975E+00-1.14083E+01-2.69383E+00 3.79394E+00 4.80765E-12-1.87098E-12
 -1       150-9.76855E-01-1.78195E+01-2.88150E+00 2.52717E+00 2.09653E-12-4.15965E-13
 -1       151-6.04430E-01-1.76935E+01-2.72076E+00-8.42312E-01-1.35247E-12-1.60698E-13
 -1       152-1.18888E+00-1.09551E+01-2.29467E+00-2.63820E+00-4.15107E-12-1.25986E-12
 -1       153 6.34303E-01-1.57915E-02-1.52765E+00 9.78032E-01-5.96706E-12-3.34036E-12
 -1       154 7.34461E+00 8.24595E+00-5.56061E-01 7.90364E+00-6.12194E-12-5.35610E-12
 -1       155 2.11707E+01 1.11470E+01 6.28511E-01 1.51960E+01-4.92939E-12-6.47282E-12
 -1       156 3.94631E+01 8.38329E+00 1.83129E+00 1.74790E+01-2.96399E-12-6.08230E-12
 -1       157 5.66805E+01 3.49623E+00 2.84453E+00 1.21526E+01-1.05843E-12-4.04060E-12
 -1       158 5.95017E+01 2.94042E+00 3.13675E+00-1.13966E+01-3.58148E-13 1.51471E-12
 -1       159 4.52681E+01 7.76600E+00 2.43617E+00-1.79288E+01-1.50280E-12 3.50892E-12
 -1       160 2.75645E+01 1.14090E+01 1.37054E+00-1.74022E+01-3.12961E-12 4.53343E-12
 -1       161 1.21996E+01 1.03034E+01 1.33211E-01-1.11500E+01-4.61703E-12 4.74726E-12
 -1       162 2.19886E+00 2.91286E+00-1.16197E+00-2.83699E+00-5.14006E-12 3.55760E-12
 -1       163-1.25371E+00-8.39021E+00-2.25570E+00 2.58191E+00-3.98909E-12 1.77486E-12
 -1       164-1.19787E+00-1.88896E+01-3.02010E+00 3.22521E+00-1.59317E-12 4.66949E-13
 -1       165 2.38660E+01 4.02501E+00-7.25177E-02-4.16271E+00-7.22328E-13 1.68920E-13
 -1       166 2.25860E+01 4.30618E+00-5.91922E-02-3.15907E+00-5.78778E-13-5.48280E-13
 -1       167 2.18759E+01 4.23568E+00-4.03024E-02-2.20470E+00-3.79081E-13-9.25033E-13
 -1       168 2.11639E+01 3.98910E+00-2.96733E-02-1.19758E+00-1.76278E-13-1.08726E-12
 -1       169 2.01056E+01 3.73200E+00-2.32576E-02-1.37726E-01 5.93449E-15-1.14690E-12
 -1       170 1.84253E+01 3.60736E+00-1.94375E-02 9.04676E-01 1.68391E-13-1.18184E-12
 -1       171 1.61343E+01 3.75056E+00-1.76425E-02 1.69779E+00 2.99358E-13-1.21232E-12
 -1       172 1.36542E+01 4.15863E+00-1.60326E-02 1.97413E+00 3.57018E-13-1.27663E-12
 -1       173 1.18234E+01 4.62352E+00-1.52077E-02 1.60734E+00 3.39700E-13-1.31937E-12
 -1       174 1.15336E+01 4.84512E+00-1.62896E-02 8.16279E-01 2.65974E-13-1.31266E-12
 -1       175 1.30736E+01 4.71614E+00-1.95654E-02 1.23002E-01 2.09523E-13-1.19139E-12
 -1       176 1.60499E+01 4.42158E+00-2.58863E-02-4.61991E-02 2.47271E-13-9.62832E-13
 -1       177 1.96520E+01 4.22165E+00-3.83592E-02 4.44299E-01 3.62495E-13-6.33245E-13
 -1       178 2.33808E+01 4.13588E+00-5.32292E-02 1.43399E+00 5.01096E-13-9.36751E-14
 -1       179 2.74254E+01 3.63492E+00-6.04237E-02 2.64197E+00 5.67005E-13 8.01248E-13
 -1       180 3.07652E+01 9.82690E-01-3.85562E-01 2.41314E+00 4.67506E-13 1.98438E-12
 -1       181 2.50305E+01 8.78847E-01-3.81191E-03-2.41439E+00-6.59060E-13 1.12879E-12
 -1       182 2.30268E+01 1.03295E-01-1.38351E-02-1.31432E+00-5.65731E-13 8.39789E-13
 -1       183 2.16638E+01 2.95899E-02 1.41995E-02-1.01103E+00-4.10459E-13 5.93662E-13
 -1       184 2.06442E+01 3.12604E-02 1.19497E-02-8.97314E-01-2.94313E-13 3.32111E-13
 -1       185 1.98256E+01 8.91448E-02 7.76655E-03-7.25166E-01-2.14389E-13 1.42714E-13
 -1       186 1.92608E+01 1.51619E-01 5.47533E-03-4.13070E-01-1.80563E-13-1.59612E-14
 -1       187 1.90318E+01 1.77674E-01 4.30851E-03 3.61061E-03-1.88220E-13-1.60197E-13
 -1       188 1.91674E+01 1.48429E-01 3.51235E-03 4.12980E-01-1.66207E-13-3.25259E-13
 -1       189 1.96015E+01 7.66167E-02 2.58021E-03 6.94437E-01-1.40501E-13-4.09927E-13
 -1       190 2.01934E+01-4.65720E-03 1.26822E-03 7.84438E-01-9.11129E-14-4.55562E-13
 -1       191 2.07858E+01-6.51184E-02-2.33310E-04 6.98147E-01-5.58290E-14-6.26504E-13
 -1       192 2.12602E+01-9.22821E-02-1.54053E-03 5.03102E-01-8.73368E-15-6.59604E-13
 -1       193 2.15591E+01-9.05346E-02-2.31292E-03 2.76255E-01-1.85268E-14-6.25332E-13
 -1       194 2.16795E+01-7.19334E-02-2.46309E-03 7.40977E-02-7.21220E-14-5.92199E-13
 -1       195 2.16525E+01-4.79793E-02-2.12977E-03-7.57713E-02-6.89348E-14-5.88375E-13
 -1       196 2.15226E+01-2.60069E-02-1.54104E-03-1.68824E-01-1.28294E-13-6.30266E-13
 -1       197 2.13333E+01-9.20031E-03-9.03864E-04-2.13530E-01-7.78577E-14-7.70651E-13
 -1       198 2.11201E+01 1.98607E-03-3.51159E-04-2.23008E-01-2.34280E-14-7.88173E-13
 -1       199 2.09082E+01 8.42169E-03 5.90279E-05-2.10046E-01-5.19847E-14-8.33889E-13
 -1       200 2.07132E+01 1.13729E-02 3.21804E-04-1.84926E-01 6.77625E-14-8.39202E-13
 -1       201 2.05434E+01 1.20305E-02 4.60535E-04-1.54954E-01 1.00325E-13-8.33621E-13
 -1       202 2.04017E+01 1.13335E-02 5.07964E-04-1.24811E-01 1.67111E-14-7.36039E-13
 -1       203 2.02874E+01 9.94764E-03 4.95457E-04-9.71700E-02 2.69623E-14-5.42750E-13
 -1       204 2.01982E+01 8.30743E-03 4.48360E-04-7.33064E-02 5.08084E-14-4.23995E-13
 -1       205 2.01304E+01 6.67406E-03 3.85028E-04-5.35963E-02 4.24222E-14-4.18778E-13
 -1       206 2.00803E+01 5.18870E-03 3.17609E-04-3.78870E-02 5.01743E-14-3.62297E-13
 -1       207 2.00445E+01 3.91450E-03 2.53419E-04-2.57486E-02-3.82685E-14-4.87452E-13
 -1       208 2.00198E+01 2.86689E-03 1.96330E-04-1.66378E-02-1.15431E-14-4.39560E-13
 -1       209 2.00035E+01 2.03437E-03 1.47924E-04-9.99608E-03 2.20930E-14-4.48660E-13
 -1       210 1.99933E+01 1.39200E-03 1.08366E-04-5.30498E-03-9.86852E-14-3.14233E-13
 -1       211 1.99876E+01 9.09828E-04 7.70170E-05-2.11181E-03-4.35953E-14-2.56170E-13
 -1       212 1.99848E+01 5.57765E-04 5.28465E-05-3.84364E-05 1.83428E-14-2.02180E-13
 -1       213 1.99842E+01 3.08253E-04 3.46928E-05 1.22047E-03-3.71693E-14-2.89692E-13
 -1       214 1.99848E+01 1.37440E-04 2.14169E-05 1.90449E-03 3.55708E-14-2.16407E-13
 -1       215 1.99861E+01 2.55094E-05 1.19850E-05 2.19679E-03-4.62224E-14-4.71395E-13
 -1       216 1.99878E+01-4.34892E-05 5.50582E-06 2.23396E-03-1.03551E-13-6.64330E-13
 -1       217 1.99896E+01-8.20552E-05 1.23861E-06 2.11527E-03-3.77744E-15-5.39996E-13
 -1       218 1.99913E+01-9.97549E-05-1.41416E-06 1.91080E-03 1.57912E-13-2.99385E-13
 -1       219 1.99930E+01-1.03752E-04-2.92323E-06 1.66837E-03-8.89191E-14-5.29192E-13
 -1       220 1.99944E+01-9.93051E-05-3.65205E-06 1.41915E-03-2.11779E-13-6.59427E-13
 -1       221 1.99956E+01-9.02091E-05-3.87673E-06 1.18205E-03-9.19980E-14-6.32264E-13
 -1       222 1.99967E+01-7.91829E-05-3.80309E-06 9.67123E-04 2.28579E-13-7.03209E-13
 -1       223 1.99975E+01-6.82060E-05-3.57576E-06 7.78019E-04 2.62244E-13-4.90423E-13
 -1       224 1.99982E+01-5.88131E-05-3.28526E-06 6.13631E-04 3.51052E-13-1.18385E-13
 -1       225 1.99988E+01-5.22354E-05-2.92236E-06 4.69252E-04 1.49088E-13-9.16460E-14
 -1       226 1.99992E+01-4.96170E-05-2.41198E-06 3.37443E-04-2.19279E-14-1.75339E-13
 -1       227 1.99995E+01-5.12076E-05-1.96447E-06 2.09765E-04 2.39298E-13-1.67186E-13
 -1       228 1.99997E+01-5.30974E-05-1.44221E-06 8.35488E-05 1.81905E-14 9.18182E-14
 -1       229 2.95782E+01 9.58971E-02-4.50808E-02 7.54493E-01 4.62389E-13 1.84999E-12
 -1       230 2.85523E+01-1.45931E-01 2.18909E-02 6.33212E-01 3.04926E-13 1.60672E-12
 -1       231 2.75193E+01-2.95399E-01 2.99384E-02 1.21900E+00 1.95700E-13 1.42718E-12
 -1       232 2.59995E+01-2.44411E-01 1.33970E-02 1.97373E+00 2.04494E-13 1.24056E-12
 -1       233 2.40904E+01 8.70325E-02-2.49213E-02 2.19371E+00 1.96787E-13 1.03972E-12
 -1       234 2.25150E+01 5.20809E-01-6.03405E-02 1.29650E+00 2.48315E-13 6.62688E-13
 -1       235 2.21663E+01 6.28549E-01-5.92799E-02-3.93761E-01 4.52631E-13 1.78568E-13
 -1       236 2.31717E+01 2.93964E-01-2.50300E-02-1.71330E+00 3.03505E-13-2.02813E-13
 -1       237 2.47144E+01-1.30934E-01 6.96712E-03-1.89626E+00 1.63789E-13-5.01840E-13
 -1       238 2.58677E+01-3.26976E-01 1.59892E-02-1.19521E+00 2.30866E-14-4.98485E-13
 -1       239 2.62510E+01-2.94273E-01 9.45417E-03-2.94227E-01-1.50930E-14-3.88130E-13
 -1       240 2.59587E+01-1.75154E-01 3.63151E-04 3.69418E-01 7.76159E-15-3.37540E-13
 -1       241 2.52570E+01-6.78057E-02-4.05399E-03 7.05424E-01 9.01523E-14-3.26024E-13
 -1       242 2.43911E+01-8.86541E-04-4.17353E-03 7.93959E-01 1.21975E-13-4.59600E-13
 -1       243 2.35260E+01 3.07752E-02-2.53062E-03 7.43274E-01 5.06508E-14-3.62447E-13
 -1       244 2.27491E+01 4.06969E-02-8.63915E-04 6.33989E-01-5.68827E-14-3.54386E-13
 -1       245 2.20943E+01 3.97448E-02 2.41243E-04 5.12292E-01 1.20187E-13-4.22096E-13
 -1       246 2.15647E+01 3.44204E-02 7.96297E-04 4.00021E-01-1.00870E-13-4.05358E-13
 -1       247 2.11483E+01 2.80358E-02 9.81248E-04 3.05113E-01-1.85492E-13-3.08560E-13
 -1       248 2.08278E+01 2.20478E-02 9.63395E-04 2.28639E-01-2.14368E-13-1.96255E-13
 -1       249 2.05853E+01 1.69637E-02 8.54128E-04 1.68773E-01 3.59719E-14 4.85931E-14
 -1       250 2.04044E+01 1.28567E-02 7.16070E-04 1.22790E-01 2.34664E-13-9.38555E-14
 -1       251 2.02716E+01 9.62864E-03 5.80130E-04 8.79598E-02 1.18830E-14-3.82922E-13
 -1       252 2.01755E+01 7.13252E-03 4.59337E-04 6.18843E-02-2.03543E-13-3.59331E-13
 -1       253 2.01073E+01 5.22318E-03 3.57579E-04 4.25832E-02-6.05108E-14-1.80189E-13
 -1       254 2.00599E+01 3.77504E-03 2.74506E-04 2.84696E-02 1.28061E-13-3.98774E-13
 -1       255 2.00277E+01 2.68550E-03 2.08058E-04 1.82938E-02 4.67998E-14-3.61825E-13
 -1       256 2.00068E+01 1.87294E-03 1.55688E-04 1.10811E-02-6.87301E-14-2.67913E-13
 -1       257 1.99938E+01 1.27319E-03 1.14908E-04 6.07688E-03 1.79096E-13-2.15701E-13
 -1       258 1.99865E+01 8.36095E-04 8.35031E-05 2.69986E-03 1.34840E-13-3.91079E-13
 -1       259 1.99829E+01 5.22480E-04 5.95850E-05 5.05533E-04-1.93071E-13-4.02541E-13
 -1       260 1.99818E+01 3.01847E-04 4.15849E-05-8.43613E-04-1.41740E-13-3.67377E-13
 -1       261 1.99824E+01 1.50503E-04 2.82177E-05-1.60142E-03 7.13462E-14-1.37279E-13
 -1       262 1.99838E+01 5.01365E-05 1.84419E-05-1.95665E-03-1.47592E-13-4.50639E-14
 -1       263 1.99857E+01-1.33168E-05 1.14203E-05-2.04771E-03-1.19130E-14-2.75473E-13
 -1       264 1.99877E+01-5.05614E-05 6.48541E-06-1.97440E-03 1.34403E-13-1.64768E-13
 -1       265 1.99898E+01-6.96585E-05 3.10950E-06-1.80715E-03 1.20626E-13-4.94564E-13
 -1       266 1.99916E+01-7.66031E-05 8.79037E-07-1.59432E-03-4.21943E-14-3.67413E-13
 -1       267 1.99933E+01-7.57931E-05-5.27201E-07-1.36794E-03-3.78026E-13-1.32253E-13
 -1       268 1.99948E+01-7.04100E-05-1.35644E-06-1.14803E-03-2.72650E-13 7.80913E-14
 -1       269 1.99960E+01-6.27295E-05-1.79675E-06-9.45990E-04-1.26471E-13 5.72912E-14
 -1       270 1.99970E+01-5.43841E-05-1.98509E-06-7.66986E-04-3.26400E-13 2.24405E-13
 -1       271 1.99978E+01-4.66025E-05-2.00593E-06-6.11671E-04 5.22614E-13-3.93540E-14
 -1       272 1.99985E+01-4.03965E-05-1.87810E-06-4.77239E-04 5.46520E-13-2.92936E-13
 -1       273 1.99990E+01-3.65627E-05-1.49817E-06-3.58148E-04 4.20119E-14-2.51766E-13
 -1       274 1.99994E+01-3.58470E-05-7.50313E-07-2.47168E-04 1.72746E-13-2.98952E-13
 -1       275 1.99996E+01-3.91079E-05-7.47764E-07-1.36450E-04 2.57444E-13-1.54214E-13
 -1       276 1.99997E+01-3.24771E-05-2.47322E-06-3.07602E-05-3.56907E-13-2.86658E-13
 -1       277 1.99997E+01-1.12931E-04-1.33818E-06-9.01458E-05-4.73893E-13 2.00824E-13
 -1       278 1.99998E+01-2.88542E-04-4.27749E-07-1.99473E-04-3.79564E-13-9.09681E-14
 -1       279 1.99998E+01-5.29645E-04-1.49466E-07-2.75710E-04-5.47585E-13-5.52755E-13
 -1       280 1.99998E+01-8.04328E-04 1.41258E-07-3.00642E-04-9.20618E-13 4.23317E-14
 -1       281 1.99998E+01-1.06868E-03 7.04722E-07-2.76284E-04-8.09874E-13 2.80267E-13
 -1       282 1.99998E+01-1.29348E-03 1.22222E-06-2.09438E-04-5.48641E-13 3.01903E-13
 -1       283 1.99998E+01-1.44166E-03 1.59180E-06-1.12127E-04-3.11496E-13-2.11995E-13
 -1       284 1.99998E+01-1.49281E-03 1.72065E-06 9.43856E-07 2.77791E-14 8.04682E-13
 -1       285 1.99998E+01-1.43991E-03 1.58968E-06 1.13875E-04-6.32010E-14 6.16228E-14
 -1       286 1.99998E+01-1.29019E-03 1.22137E-06 2.10813E-04-8.68847E-14-4.26487E-13
 -1       287 1.99998E+01-1.06886E-03 6.75310E-07 2.76259E-04 7.34631E-14-1.74159E-13
 -1       288 1.99998E+01-7.99690E-04 1.41667E-07 3.00457E-04 1.19895E-13 1.03198E-13
 -1       289 1.99998E+01-5.25231E-04-1.85122E-07 2.74579E-04-9.63556E-14 1.10393E-13
 -1       290 1.99998E+01-2.88245E-04-1.20978E-06 1.97874E-04-1.10306E-13-4.53617E-14
 -1       291 1.99997E+01-1.61512E-04-1.32108E-06 1.56770E-04-1.54603E-14-1.71739E-14
 -1       292-7.00727E-01-9.38823E+00-9.12059E-01 9.15504E-01 6.78443E-13 1.15238E-12
 -1       293 3.18200E+00-7.38551E+00-7.20016E-01 3.77196E+00 1.17320E-12 1.43700E-12
 -1       294 9.56384E+00-4.61651E+00-5.68240E-01 5.60248E+00 1.79168E-12 1.56668E-12
 -1       295 1.92710E+01-1.31595E+00-1.76063E-01 7.22159E+00 1.79734E-12 1.51740E-12
 -1       296 3.02382E+01 2.04602E+00 2.86965E-01 7.39733E+00 1.67141E-12 1.39638E-12
 -1       297 4.07252E+01 5.06929E+00 8.33941E-01 6.35812E+00 1.60979E-12 8.62421E-13
 -1       298 4.73022E+01 6.49636E+00 1.13310E+00 3.34018E+00 1.56838E-12-1.80522E-13
 -1       299 4.66922E+01 6.99399E+00 9.93536E-01-1.14689E-01 1.69509E-12-1.14228E-12
 -1       300 4.33525E+01 5.24763E+00 8.12799E-01-3.20263E+00 1.83833E-12-2.02652E-12
 -1       301 3.53175E+01 2.40085E+00 3.49035E-01-4.55464E+00 1.97826E-12-2.14620E-12
 -1       302 2.51952E+01 2.19780E-01-6.20184E-03-6.59945E+00 2.39583E-12-2.74558E-12
 -1       303 1.39827E+01-2.14062E+00-4.55757E-01-5.96393E+00 2.59770E-12-2.77894E-12
 -1       304 5.59257E+00-4.77470E+00-7.55379E-01-3.83827E+00 2.21481E-12-2.36544E-12
 -1       305 7.42889E-01-6.59384E+00-8.48999E-01-1.58359E+00 1.38868E-12-1.91969E-12
 -1       306-8.51806E-01-6.26688E+00-7.07592E-01 4.53713E-01 2.80936E-13-1.75043E-12
 -1       307 3.37151E-01-6.00951E+00-7.32687E-01 2.46982E+00-8.85958E-13-1.68147E-12
 -1       308 5.99240E+00-3.11782E+00-3.63758E-01 5.54653E+00-1.27290E-12-1.94644E-12
 -1       309 1.22878E+01-4.51885E-01-3.18912E-01 6.71792E+00-2.45051E-12-2.49660E-12
 -1       310 2.13948E+01 2.18364E+00-4.44501E-03 7.96882E+00-2.59068E-12-2.77667E-12
 -1       311 3.12807E+01 4.12508E+00 3.61607E-01 7.71851E+00-2.36734E-12-2.68580E-12
 -1       312 3.82797E+01 5.35973E+00 4.52250E-01 3.68873E+00-1.92388E-12-1.64552E-12
 -1       313 4.37870E+01 6.74105E+00 7.62077E-01 1.38191E+00-1.60781E-12-1.29079E-12
 -1       314 4.56681E+01 6.53836E+00 9.64952E-01-2.19260E+00-1.34397E-12-4.39836E-13
 -1       315 4.11759E+01 6.04709E+00 7.71528E-01-5.08765E+00-1.38425E-12 3.37286E-13
 -1       316 3.45456E+01 4.61296E+00 5.75602E-01-7.59746E+00-1.53843E-12 1.11253E-12
 -1       317 2.56634E+01 2.38486E+00 2.31762E-01-8.17422E+00-1.83162E-12 1.37607E-12
 -1       318 1.64019E+01-7.63333E-01-1.59040E-01-7.38499E+00-1.79048E-12 1.62589E-12
 -1       319 8.30535E+00-4.42580E+00-5.20151E-01-5.63743E+00-1.39377E-12 1.81569E-12
 -1       320 2.76934E+00-7.18736E+00-6.71825E-01-4.01037E+00-5.98105E-13 1.60702E-12
 -1       321-6.46368E-01-9.70833E+00-9.49291E-01-1.38860E+00 3.20438E-14 1.49061E-12
 -1       322 2.28994E+01 2.48723E+00-2.56023E-02-2.67411E+00-5.69419E-13-4.07565E-13
 -1       323 2.35485E+01 2.03022E+00-2.81256E-02-3.04559E+00-7.35201E-13-1.91340E-14
 -1       324 2.16936E+01 2.17692E+00-2.40762E-02-8.89634E-01-1.00025E-13-7.54704E-13
 -1       325 2.03783E+01 2.03594E+00-2.01841E-02 3.53705E-01 1.43250E-13-8.03588E-13
 -1       326 1.81958E+01 2.25166E+00-1.33114E-02 1.64295E+00 3.54739E-13-8.75347E-13
 -1       327 1.52055E+01 3.00087E+00 9.06971E-05 2.53202E+00 5.09709E-13-1.00781E-12
 -1       328 1.21761E+01 4.07270E+00 1.67143E-02 2.52108E+00 5.30257E-13-1.17534E-12
 -1       329 1.05136E+01 4.82473E+00 2.55925E-02 1.48980E+00 4.08015E-13-1.27004E-12
 -1       330 1.12684E+01 4.71847E+00 2.41299E-02 1.30923E-01 2.46151E-13-1.20071E-12
 -1       331 1.42924E+01 3.85691E+00 9.39058E-03-6.28213E-01 1.74138E-13-9.09661E-13
 -1       332 1.83869E+01 2.84839E+00-9.60743E-03-3.50877E-01 2.42151E-13-5.56491E-13
 -1       333 2.24695E+01 2.11441E+00-2.49289E-02 5.69475E-01 3.94559E-13-1.17870E-13
 -1       334 2.60624E+01 1.49888E+00-4.55694E-02 1.39899E+00 5.56389E-13 5.04931E-13
 -1       335 2.81098E+01 7.39463E-01-3.44132E-02 1.28950E+00 5.45848E-13 1.05530E-12
 -1       336 2.77241E+01-2.95592E-01-9.95836E-04 1.00716E+00 3.82239E-13 1.02975E-12
 -1       337 2.30038E+01 3.83080E-01 1.02834E-02-2.06065E+00-5.74735E-13 1.37368E-13
 -1       338 2.21924E+01 1.67630E-01 7.07178E-03-1.73424E+00-4.55715E-13 1.10628E-13
 -1       339 2.14677E+01 2.70180E-01 6.24119E-03-1.47545E+00-3.80598E-13 4.81044E-14
 -1       340 2.08665E+01 4.91114E-01 5.52892E-03-1.05055E+00-3.08736E-13-8.44901E-14
 -1       341 2.04800E+01 6.57129E-01 5.17801E-03-4.19034E-01-3.07278E-13-2.48392E-13
 -1       342 2.03791E+01 6.43641E-01 4.70383E-03 2.92480E-01-2.96662E-13-3.82526E-13
 -1       343 2.05475E+01 4.36536E-01 3.74552E-03 8.74888E-01-2.13711E-13-4.61769E-13
 -1       344 2.08738E+01 1.31463E-01 1.99257E-03 1.16858E+00-1.88969E-13-5.64678E-13
 -1       345 2.12150E+01-1.43302E-01-7.23350E-05 1.14611E+00-1.54283E-13-5.94293E-13
 -1       346 2.14663E+01-3.07235E-01-1.85510E-03 8.94864E-01-2.04266E-14-5.81156E-13
 -1       347 2.15870E+01-3.50379E-01-2.83885E-03 5.43920E-01-3.01758E-14-5.93043E-13
 -1       348 2.15856E+01-3.08026E-01-2.95777E-03 2.01100E-01-2.04155E-16-5.82705E-13
 -1       349 2.14932E+01-2.25812E-01-2.48814E-03-7.19853E-02-3.68054E-14-5.26175E-13
 -1       350 2.13442E+01-1.38562E-01-1.75972E-03-2.55568E-01-1.21922E-13-5.79154E-13
 -1       351 2.11671E+01-6.51747E-02-1.02396E-03-3.56143E-01-1.62048E-13-4.93912E-13
 -1       352 2.09832E+01-1.20437E-02-4.16113E-04-3.91918E-01-9.31612E-14-4.51308E-13
 -1       353 2.08064E+01 2.16637E-02 1.80727E-05-3.83315E-01-4.05659E-14-5.68177E-13
 -1       354 2.06455E+01 3.98524E-02 2.87183E-04-3.48157E-01-6.97646E-14-6.22869E-13
 -1       355 2.05047E+01 4.70297E-02 4.24805E-04-3.00000E-01 1.14046E-13-5.54883E-13
 -1       356 2.03856E+01 4.71448E-02 4.69581E-04-2.48142E-01 1.56806E-13-5.28956E-13
 -1       357 2.02876E+01 4.32173E-02 4.55579E-04-1.98363E-01 1.05567E-13-4.42209E-13
 -1       358 2.02090E+01 3.73537E-02 4.08953E-04-1.53825E-01 5.34048E-14-3.91943E-13
 -1       359 2.01474E+01 3.09134E-02 3.47906E-04-1.15898E-01 9.40508E-14-3.83583E-13
 -1       360 2.01003E+01 2.47032E-02 2.84062E-04-8.48090E-02 2.63464E-14-4.45928E-13
 -1       361 2.00651E+01 1.91483E-02 2.24158E-04-6.01237E-02 5.54681E-14-4.32138E-13
 -1       362 2.00395E+01 1.44264E-02 1.71576E-04-4.10728E-02-3.43222E-14-3.06145E-13
 -1       363 2.00214E+01 1.05638E-02 1.27541E-04-2.67635E-02 3.19066E-14-2.83222E-13
 -1       364 2.00090E+01 7.50258E-03 9.19873E-05-1.63080E-02-9.96735E-15-3.94617E-13
 -1       365 2.00009E+01 5.14323E-03 6.41543E-05-8.89393E-03-6.45667E-14-3.57242E-13
 -1       366 1.99959E+01 3.37235E-03 4.29677E-05-3.81743E-03 1.22632E-13-1.62853E-13
 -1       367 1.99931E+01 2.07832E-03 2.72747E-05-4.92093E-04 7.54576E-14 5.25067E-14
 -1       368 1.99919E+01 1.15982E-03 1.59774E-05 1.55532E-03-6.12449E-15 1.88192E-13
 -1       369 1.99916E+01 5.29556E-04 8.10016E-06 2.69651E-03-1.86547E-13 8.64677E-14
 -1       370 1.99920E+01 1.15129E-04 2.81618E-06 3.21629E-03-7.24160E-14 3.22561E-14
 -1       371 1.99927E+01-1.41714E-04-5.51328E-07 3.32771E-03 8.78407E-14 1.55223E-13
 -1       372 1.99936E+01-2.86661E-04-2.54064E-06 3.18618E-03 2.89717E-13 2.56807E-13
 -1       373 1.99946E+01-3.54745E-04-3.56965E-06 2.90194E-03 1.06495E-14 3.73350E-14
 -1       374 1.99955E+01-3.72276E-04-3.95620E-06 2.55063E-03-1.51370E-13 1.95317E-13
 -1       375 1.99964E+01-3.58654E-04-3.93786E-06 2.18182E-03-2.87585E-13 2.74128E-13
 -1       376 1.99971E+01-3.27983E-04-3.69055E-06 1.82585E-03-1.19640E-13 1.91261E-13
 -1       377 1.99977E+01-2.90459E-04-3.34175E-06 1.49903E-03 2.69415E-13-8.72525E-15
 -1       378 1.99983E+01-2.53562E-04-2.97241E-06 1.20752E-03 4.02348E-13 7.46461E-14
 -1       379 1.99987E+01-2.22984E-04-2.65447E-06 9.50034E-04 1.90160E-13-1.03164E-13
 -1       380 1.99991E+01-2.02090E-04-2.34435E-06 7.20505E-04-1.31773E-13-1.36239E-13
 -1       381 1.99994E+01-1.94194E-04-2.52230E-06 5.10333E-04 7.15871E-14 2.05380E-14
 -1       382 1.99996E+01-1.80726E-04-1.76192E-06 3.26056E-04 1.05008E-13-8.81245E-14
 -1       383 2.74405E+01-8.24630E-01 4.81994E-03 1.62678E+00 2.56285E-13 1.03062E-12
 -1       384 2.69384E+01-7.57240E-01-9.01053E-03 2.65956E+00 2.97381E-13 9.66541E-13
 -1       385 2.59898E+01 1.57562E-01-3.70161E-02 3.13080E+00 3.53819E-13 7.89498E-13
 -1       386 2.48905E+01 1.48520E+00-5.62152E-02 2.06860E+00 5.16958E-13 4.47279E-13
 -1       387 2.44483E+01 1.94191E+00-5.28850E-02-2.95736E-01 6.71952E-13-9.59300E-14
 -1       388 2.49609E+01 9.88671E-01-3.47661E-02-2.25768E+00 5.51417E-13-4.49266E-13
 -1       389 2.57259E+01-3.50870E-01-1.89296E-02-2.56015E+00 2.46724E-13-7.11024E-13
 -1       390 2.59898E+01-1.00525E+00-1.33439E-02-1.55566E+00-2.00747E-14-6.42864E-13
 -1       391 2.56762E+01-9.31426E-01-1.01967E-02-2.68238E-01-1.01938E-13-5.00087E-13
 -1       392 2.50342E+01-5.67993E-01-9.44996E-03 6.74281E-01-3.81552E-15-3.98884E-13
 -1       393 2.42838E+01-2.28578E-01-6.96537E-03 1.15282E+00 1.14634E-13-3.04303E-13
 -1       394 2.35406E+01-1.00127E-02-3.38838E-03 1.27947E+00 1.18186E-13-2.22103E-13
 -1       395 2.28597E+01 9.74483E-02-4.24450E-04 1.20328E+00 3.55629E-14-1.18137E-13
 -1       396 2.22639E+01 1.34004E-01 1.30811E-03 1.03744E+00-1.42492E-14-2.22685E-13
 -1       397 2.17601E+01 1.33659E-01 2.02728E-03 8.49069E-01 7.61830E-14-2.78958E-13
 -1       398 2.13455E+01 1.17585E-01 2.12795E-03 6.71768E-01-2.79933E-14-2.16243E-13
 -1       399 2.10119E+01 9.70094E-02 1.92636E-03 5.19052E-01-2.19098E-13-2.30491E-13
 -1       400 2.07487E+01 7.71233E-02 1.61658E-03 3.93877E-01-2.49083E-13-2.48844E-13
 -1       401 2.05444E+01 5.99022E-02 1.29852E-03 2.94363E-01-1.38120E-13-2.46891E-13
 -1       402 2.03883E+01 4.57828E-02 1.01481E-03 2.16852E-01 3.50512E-13-4.73187E-14
 -1       403 2.02707E+01 3.45530E-02 7.78347E-04 1.57382E-01 1.33762E-13-9.36426E-14
 -1       404 2.01834E+01 2.57837E-02 5.88479E-04 1.12324E-01-2.69444E-13-2.89274E-13
 -1       405 2.01197E+01 1.90192E-02 4.39393E-04 7.85821E-02-3.34052E-14-2.10149E-13
 -1       406 2.00741E+01 1.38501E-02 3.24043E-04 5.36208E-02 1.68442E-13-2.33362E-13
 -1       407 2.00421E+01 9.93433E-03 2.35780E-04 3.54030E-02 4.19993E-14-1.27831E-13
 -1       408 2.00203E+01 6.99472E-03 1.68899E-04 2.23158E-02-1.42408E-13-4.94059E-15
 -1       409 2.00060E+01 4.81066E-03 1.18715E-04 1.30931E-02 3.08583E-13-1.40610E-13
 -1       410 1.99970E+01 3.20779E-03 8.14684E-05 6.74876E-03 1.50901E-13-2.39761E-13
 -1       411 1.99918E+01 2.04886E-03 5.41724E-05 2.52030E-03-6.58525E-14-1.93970E-13
 -1       412 1.99891E+01 1.22620E-03 3.44713E-05-1.76909E-04-1.22765E-13-5.00207E-13
 -1       413 1.99883E+01 6.55649E-04 2.05161E-05-1.78689E-03-2.76697E-14-2.29979E-13
 -1       414 1.99885E+01 2.71783E-04 1.08618E-05-2.64311E-03-5.05053E-14-5.37966E-15
 -1       415 1.99893E+01 2.40721E-05 4.38630E-06-2.99273E-03 7.50043E-14-2.23889E-13
 -1       416 1.99905E+01-1.26155E-04 2.24031E-07-3.01605E-03 1.02155E-13-1.47428E-13
 -1       417 1.99919E+01-2.08188E-04-2.28674E-06-2.84210E-03 2.41157E-13-2.03978E-13
 -1       418 1.99932E+01-2.43944E-04-3.64706E-06-2.56102E-03-9.69771E-14-1.03183E-13
 -1       419 1.99944E+01-2.49607E-04-4.23224E-06-2.23382E-03-4.93500E-13-3.34610E-13
 -1       420 1.99955E+01-2.36968E-04-4.32077E-06-1.89998E-03-3.72583E-13-3.37639E-13
 -1       421 1.99965E+01-2.14519E-04-4.11732E-06-1.58323E-03-2.86800E-13-2.41314E-13
 -1       422 1.99973E+01-1.88356E-04-3.77087E-06-1.29596E-03-7.86203E-14-2.23616E-13
 -1       423 1.99980E+01-1.62975E-04-3.38080E-06-1.04229E-03 4.62901E-13-5.82659E-13
 -1       424 1.99985E+01-1.41859E-04-3.00520E-06-8.20313E-04 5.28301E-13-1.95267E-13
 -1       425 1.99990E+01-1.27597E-04-2.64083E-06-6.23650E-04 2.59826E-14-9.89963E-14
 -1       426 1.99993E+01-1.21198E-04-2.15364E-06-4.43837E-04 3.07375E-14-2.17573E-13
 -1       427 1.99995E+01-1.20702E-04-1.73657E-06-2.73920E-04 8.97403E-14 4.96393E-14
 -1       428 1.99997E+01-1.24816E-04-1.14855E-06-1.80191E-04-3.58039E-13 2.87119E-13
 -1       429 1.99998E+01-6.86613E-04-4.52653E-07-5.20199E-04-3.68129E-13-3.08886E-13
 -1       430 1.99997E+01-4.47671E-04-1.38910E-06-4.50396E-04-5.06781E-13-2.78477E-13
 -1       431 1.99997E+01-2.72139E-04-1.59802E-06-3.24037E-04-4.71555E-13 1.56696E-13
 -1       432 1.99998E+01-9.18924E-04 3.38706E-07-5.10596E-04-4.39002E-13-2.64446E-13
 -1       433 1.99999E+01-1.12618E-03 9.75085E-07-4.25784E-04-3.27555E-13 6.03475E-13
 -1       434 2.00000E+01-1.27941E-03 1.44104E-06-2.80545E-04-1.24784E-13 2.75868E-13
 -1       435 2.00000E+01-1.36047E-03 1.69292E-06-9.67745E-05 6.62783E-14 4.57976E-13
 -1       436 2.00000E+01-1.35966E-03 1.69280E-06 1.00062E-04-1.26077E-13 3.70543E-13
 -1       437 2.00000E+01-1.27709E-03 1.43642E-06 2.83361E-04-8.07561E-14-2.68383E-13
 -1       438 1.99999E+01-1.12589E-03 9.55134E-07 4.25794E-04 3.23195E-13-2.10786E-13
 -1       439 1.99998E+01-9.18505E-04 3.70604E-07 5.10714E-04 3.87752E-13 1.40546E-13
 -1       440 1.99998E+01-6.82569E-04-2.66604E-07 5.19592E-04 2.33003E-13 3.70368E-15
 -1       441 1.99997E+01-4.42059E-04-1.24518E-06 4.50048E-04 1.48344E-13 7.67142E-14
 -1       442 1.18895E+01-4.81927E+00 1.76071E-02 6.96628E+00-1.08524E-13 8.20226E-13
 -1       443 1.19546E+00-3.91093E+00-1.08011E-01-4.05887E-01 1.49681E-14 1.45658E-12
 -1       444 3.96310E+00-3.74753E+00-3.32310E-02 4.04890E+00-9.06775E-14 1.13978E-12
 -1       445 1.88262E+01-5.35934E+00-4.89398E-02 6.67990E+00 1.89723E-13 5.08812E-13
 -1       446 2.74234E+01-3.07782E+00-1.20372E-02 4.67858E+00 6.90337E-13 1.58928E-13
 -1       447 2.24058E+01 2.40946E+00-3.34322E-02-1.91743E+00-3.37901E-13-6.49007E-13
 -1       448 3.58248E+01 5.15937E+00 3.51450E-02-4.03480E-01 1.60787E-12-6.57391E-13
 -1       449 3.68323E+01 7.53673E+00 7.14758E-02 2.28320E-01 1.84433E-12-5.06178E-13
 -1       450 3.61258E+01 6.33141E+00 1.27712E-02 1.49984E+00 1.72248E-12-2.91961E-13
 -1       451 3.53070E+01 3.04010E+00 4.31701E-02 1.18130E+00 1.48868E-12-3.28862E-13
 -1       452 3.07703E+01-1.81730E+00-2.62859E-02-1.68613E+00 1.02765E-12-6.07972E-13
 -1       453 2.38508E+01-4.01802E+00-3.55494E-02-4.46102E+00 6.67397E-13-9.17974E-13
 -1       454 1.45139E+01-3.95259E+00-9.85696E-02-5.92457E+00 6.36491E-13-1.57628E-12
 -1       455 7.19225E+00-2.53573E+00-3.48188E-02-4.85083E+00 3.02064E-13-1.86627E-12
 -1       456 2.37875E+00-1.28521E+00-1.97180E-02-1.89129E+00 2.66169E-13-2.05606E-12
 -1       457 1.90954E+00-6.37006E-01 1.47838E-02 2.60965E+00 2.02748E-13-2.01987E-12
 -1       458 5.72556E+00-9.12561E-01 5.22824E-02 5.60596E+00 1.84255E-13-1.79128E-12
 -1       459 1.43193E+01-2.27215E+00 1.41630E-02 7.01240E+00-1.48020E-13-1.34467E-12
 -1       460 2.04226E+01-2.19972E+00-3.53264E-02 6.21167E+00-5.81382E-13-1.16798E-12
 -1       461 2.78074E+01-1.31403E-01 8.21802E-03 3.98851E+00-1.12758E-12-9.16822E-13
 -1       462 3.18876E+01 2.58525E+00-1.35807E-02 1.47457E+00-1.40290E-12-5.89584E-13
 -1       463 3.36132E+01 6.66206E+00-5.78078E-02-6.66439E-01-1.67689E-12-4.69930E-13
 -1       464 3.56684E+01 8.17847E+00 7.79711E-02-4.18375E-01-1.69026E-12-6.34270E-13
 -1       465 3.58071E+01 7.02340E+00 9.96732E-02-6.43852E-01-1.48377E-12-5.46937E-13
 -1       466 3.33302E+01 3.64021E+00 4.01697E-02-1.25184E+00-1.17250E-12-5.31242E-13
 -1       467 3.08217E+01 5.56456E-01 6.51480E-02-3.23070E+00-8.75423E-13-2.63289E-13
 -1       468 2.45322E+01-3.02601E+00-3.45581E-03-5.71016E+00-4.53054E-13 3.16969E-14
 -1       469 1.71186E+01-4.55976E+00-3.14905E-02-7.28491E+00-3.32928E-14 6.38999E-13
 -1       470 9.94567E+00-4.59001E+00-3.45607E-02-7.10181E+00 2.67189E-13 1.30927E-12
 -1       471 2.91133E+00-4.22797E+00-1.23026E-01-3.99254E+00 1.84908E-13 1.65085E-12
 -1       472 3.36241E+01 6.71205E-01 3.28473E-02 1.12402E+00 9.97129E-13-4.06564E-13
 -1       473 3.07642E+01 4.08962E+00-9.59906E-02-1.50209E+00-1.31781E-12-5.36793E-14
 -1       474 1.18912E+01-8.51929E-01 1.29345E-01 6.61802E+00 5.73146E-13-1.37055E-12
 -1       475 2.64327E+01-1.15188E+00 3.26096E-03 9.91540E-01 2.11002E-13 5.35608E-13
 -1       476 2.07999E+01 5.56250E-01 2.64155E-03 1.17176E+00 3.13221E-13-6.42474E-13
 -1       477 2.23222E+01 6.97392E-01-7.41103E-03-4.67384E-01 3.96601E-14-5.67696E-13
 -1       478 1.36970E+01 2.33686E+00 3.89751E-02 3.84510E+00 6.78086E-13-1.09685E-12
 -1       479 9.83610E+00 3.85464E+00 7.63198E-02 2.96495E+00 5.71696E-13-1.39622E-12
 -1       480 8.85924E+00 4.29383E+00 7.48317E-02 6.29962E-01 3.02003E-13-1.49146E-12
 -1       481 1.16618E+01 3.33270E+00 6.88511E-02-1.43945E+00 4.90797E-14-1.20828E-12
 -1       482 1.66854E+01 1.66468E+00 2.96332E-02-1.74648E+00-2.21195E-14-6.93512E-13
 -1       483 2.15573E+01 4.33407E-01 1.36442E-02-6.42255E-01 1.14804E-13-2.18972E-13
 -1       484 2.74198E+01-1.94768E+00-1.35053E-02 1.91724E+00 2.25901E-13 6.94579E-13
 -1       485 2.31182E+01 4.52875E-01-1.38543E-04-2.35236E+00-4.86798E-13-9.27356E-14
 -1       486 3.14326E+01 1.56921E+00-1.17636E-01-2.12059E+00 9.22609E-13-1.05441E-12
 -1       487 2.27161E+01 4.15985E-01 2.46365E-03-2.14517E+00-4.45621E-13-6.71091E-14
 -1       488 2.22019E+01 7.89124E-01 2.61411E-03-1.78040E+00-4.34149E-13-1.08195E-13
 -1       489 2.17238E+01 1.23413E+00 1.01958E-03-1.09640E+00-4.56804E-13-2.58811E-13
 -1       490 2.14549E+01 1.41232E+00 4.46962E-04-1.59991E-01-4.20394E-13-3.88909E-13
 -1       491 2.14747E+01 1.15263E+00 7.58055E-04 7.44807E-01-3.74210E-13-5.55134E-13
 -1       492 2.16928E+01 5.64797E-01 8.14421E-04 1.31085E+00-2.69710E-13-6.90756E-13
 -1       493 2.19216E+01-6.91324E-02 5.58759E-04 1.41655E+00-1.96765E-13-6.86281E-13
 -1       494 2.20186E+01-5.15393E-01-3.72833E-04 1.15525E+00-6.49644E-14-6.29639E-13
 -1       495 2.19505E+01-6.98388E-01-1.18250E-03 7.17068E-01 3.15963E-14-5.68979E-13
 -1       496 2.17614E+01-6.69511E-01-1.46068E-03 2.68141E-01-2.32470E-14-4.71989E-13
 -1       497 2.15157E+01-5.24789E-01-1.32988E-03-9.63935E-02-6.08669E-14-5.27249E-13
 -1       498 2.12631E+01-3.46905E-01-9.91855E-04-3.45430E-01-8.10029E-14-5.14291E-13
 -1       499 2.10309E+01-1.85551E-01-6.20787E-04-4.85794E-01-5.55763E-14-4.58321E-13
 -1       500 2.08295E+01-6.16404E-02-3.00714E-04-5.40316E-01-1.45360E-13-3.77373E-13
 -1       501 2.06602E+01 2.19573E-02-6.43530E-05-5.34910E-01-1.36501E-13-4.27515E-13
 -1       502 2.05201E+01 7.11198E-02 8.70876E-05-4.92434E-01-1.17111E-13-5.15887E-13
 -1       503 2.04055E+01 9.44965E-02 1.69965E-04-4.30576E-01 7.56586E-14-3.80436E-13
 -1       504 2.03124E+01 1.00410E-01 2.03684E-04-3.61810E-01 1.49098E-13-4.50281E-13
 -1       505 2.02374E+01 9.56176E-02 2.05490E-04-2.94193E-01 1.33055E-13-4.20381E-13
 -1       506 2.01776E+01 8.50750E-02 1.88844E-04-2.32412E-01 1.68127E-13-3.67663E-13
 -1       507 2.01305E+01 7.21416E-02 1.63258E-04-1.78754E-01 2.33703E-14-2.87880E-13
 -1       508 2.00939E+01 5.89296E-02 1.34922E-04-1.33918E-01 5.20290E-15-4.07375E-13
 -1       509 2.00658E+01 4.66505E-02 1.07530E-04-9.76231E-02-1.60906E-14-4.32804E-13
 -1       510 2.00447E+01 3.59034E-02 8.30294E-05-6.90440E-02 3.35827E-14-5.22704E-13
 -1       511 2.00290E+01 2.68950E-02 6.22368E-05-4.71109E-02 4.32060E-14-4.16678E-13
 -1       512 2.00177E+01 1.95972E-02 4.52751E-05-3.06968E-02-2.49153E-14-3.16199E-13
 -1       513 2.00097E+01 1.38538E-02 3.18812E-05-1.87301E-02 3.97494E-14-1.07101E-13
 -1       514 2.00042E+01 9.45117E-03 2.16057E-05-1.02540E-02 1.89572E-13 8.16917E-14
 -1       515 2.00006E+01 6.16135E-03 1.39362E-05-4.45118E-03 2.14835E-13 8.48300E-14
 -1       516 1.99984E+01 3.76688E-03 8.37057E-06-6.46938E-04 7.17069E-14 1.28139E-14
 -1       517 1.99971E+01 2.07385E-03 4.45450E-06 1.70037E-03-1.32154E-13-3.30665E-15
 -1       518 1.99966E+01 9.16981E-04 1.79805E-06 3.01473E-03-9.02104E-14 2.08620E-13
 -1       519 1.99964E+01 1.60209E-04 7.91694E-08 3.62042E-03 6.14960E-14 4.93673E-13
 -1       520 1.99965E+01-3.05418E-04-9.60182E-07 3.75975E-03-4.10273E-14 3.11238E-13
 -1       521 1.99968E+01-5.65062E-04-1.52150E-06 3.60939E-03-1.06977E-13-2.86065E-15
 -1       522 1.99972E+01-6.83874E-04-1.75864E-06 3.29471E-03 1.29065E-13 1.87828E-13
 -1       523 1.99976E+01-7.10732E-04-1.78720E-06 2.90166E-03-1.54840E-13 4.13521E-13
 -1       524 1.99980E+01-6.81682E-04-1.69289E-06 2.48657E-03-2.81847E-13 3.89675E-13
 -1       525 1.99984E+01-6.22964E-04-1.54094E-06 2.08386E-03-7.58037E-14 1.68074E-13
 -1       526 1.99987E+01-5.53550E-04-1.37554E-06 1.71197E-03 1.57963E-13 1.29689E-13
 -1       527 1.99990E+01-4.87228E-04-1.16338E-06 1.37803E-03 9.55775E-14 8.72774E-14
 -1       528 1.99992E+01-4.35042E-04-1.25162E-06 1.08083E-03 4.70230E-17-2.67156E-13
 -1       529 1.99994E+01-3.97357E-04-9.66999E-07 8.14975E-04-2.97407E-14-2.78425E-13
 -1       530 2.78165E+01 1.64025E+00-7.91257E-02 3.43165E+00 6.68750E-13 6.17650E-13
 -1       531 2.72556E+01 3.90867E+00-1.23709E-01 1.26553E+00 1.06019E-12 8.04704E-14
 -1       532 2.71666E+01 3.20296E+00-1.36171E-01-1.82954E+00 1.03606E-12-5.94271E-13
 -1       533 2.76804E+01 2.68036E-01-7.01830E-02-2.93508E+00 5.27262E-13-9.54375E-13
 -1       534 2.70776E+01-1.83120E+00-3.77151E-02-1.86687E+00 1.23720E-14-9.03578E-13
 -1       535 2.58080E+01-2.15477E+00-9.24966E-03-2.11807E-01-1.93882E-13-7.63053E-13
 -1       536 2.44396E+01-1.50256E+00-4.97550E-03 1.01247E+00-1.86276E-13-6.38905E-13
 -1       537 2.33519E+01-7.26664E-01-4.93511E-03 1.62979E+00-6.26248E-14-3.84370E-13
 -1       538 2.25727E+01-1.62212E-01-2.94939E-03 1.80509E+00 6.39987E-14-2.88377E-13
 -1       539 2.20198E+01 1.50514E-01-6.48694E-04 1.71827E+00 8.59995E-15-2.06979E-13
 -1       540 2.16071E+01 2.82995E-01 8.17351E-04 1.50959E+00 6.31051E-14-1.18190E-13
 -1       541 2.12816E+01 3.11490E-01 1.47020E-03 1.26201E+00 7.54365E-14-1.16383E-13
 -1       542 2.10158E+01 2.89271E-01 1.60411E-03 1.02033E+00-2.58422E-14-1.01405E-13
 -1       543 2.07962E+01 2.47471E-01 1.47478E-03 8.05263E-01-7.68537E-14-3.09944E-14
 -1       544 2.06154E+01 2.02110E-01 1.24512E-03 6.23758E-01-1.83218E-13-1.98644E-13
 -1       545 2.04682E+01 1.60377E-01 1.00163E-03 4.75641E-01-2.43861E-13-3.34251E-13
 -1       546 2.03501E+01 1.24806E-01 7.81987E-04 3.57524E-01-1.75221E-14-3.18378E-13
 -1       547 2.02570E+01 9.57190E-02 5.98360E-04 2.64934E-01 1.95013E-13-1.15362E-14
 -1       548 2.01847E+01 7.25149E-02 4.51021E-04 1.93363E-01 8.17288E-14-9.38710E-14
 -1       549 2.01295E+01 5.43000E-02 3.35634E-04 1.38728E-01-1.62419E-13-4.23098E-13
 -1       550 2.00881E+01 4.01688E-02 2.46679E-04 9.75305E-02 7.25056E-14-3.47389E-13
 -1       551 2.00576E+01 2.93133E-02 1.78882E-04 6.68643E-02 1.19671E-14-1.19180E-13
 -1       552 2.00356E+01 2.10527E-02 1.27714E-04 4.43612E-02-1.66088E-13-1.85644E-13
 -1       553 2.00201E+01 1.48297E-02 8.94672E-05 2.81186E-02 1.25644E-13-3.18054E-13
 -1       554 2.00095E+01 1.01945E-02 6.11813E-05 1.66233E-02 2.92159E-13-2.26468E-13
 -1       555 2.00026E+01 6.78756E-03 4.05209E-05 8.68364E-03 1.49550E-16-3.81128E-13
 -1       556 1.99982E+01 4.32259E-03 2.56555E-05 3.36997E-03 7.73247E-15-2.50368E-13
 -1       557 1.99957E+01 2.57319E-03 1.51575E-05-3.58967E-05-5.67231E-14-3.71160E-13
 -1       558 1.99944E+01 1.36122E-03 7.91738E-06-2.08259E-03-2.09134E-13-1.76356E-13
 -1       559 1.99940E+01 5.47501E-04 3.07797E-06-3.18403E-03 1.37482E-13-3.66964E-14
 -1       560 1.99942E+01 2.42096E-05-1.91140E-08-3.64809E-03 7.30975E-14 1.90317E-14
 -1       561 1.99946E+01-2.91344E-04-1.87523E-06-3.70001E-03 1.64359E-13 1.74896E-13
 -1       562 1.99952E+01-4.61870E-04-2.86849E-06-3.50134E-03 1.06794E-14 3.64401E-13
 -1       563 1.99959E+01-5.34330E-04-3.28099E-06-3.16515E-03-4.03420E-14 3.94206E-13
 -1       564 1.99966E+01-5.43439E-04-3.32066E-06-2.76804E-03-2.46855E-13 1.54217E-14
 -1       565 1.99972E+01-5.14529E-04-3.13982E-06-2.35958E-03-1.16168E-13-3.29853E-13
 -1       566 1.99977E+01-4.65892E-04-2.84749E-06-1.96951E-03-1.18839E-13-5.55621E-13
 -1       567 1.99982E+01-4.10707E-04-2.52064E-06-1.61326E-03 2.97152E-13-4.00141E-13
 -1       568 1.99986E+01-3.58772E-04-2.19634E-06-1.29597E-03 4.73588E-13-3.29671E-13
 -1       569 1.99990E+01-3.17022E-04-2.02844E-06-1.01564E-03 1.76155E-13-3.36387E-14
 -1       570 1.99992E+01-2.90727E-04-2.23917E-06-7.66743E-04 1.67275E-13-4.77159E-13
 -1       571 1.99995E+01-2.76620E-04-1.96413E-06-5.39317E-04-2.25470E-13-2.29096E-13
 -1       572 2.00000E+01-1.04116E-03 4.67889E-07-6.54190E-04 2.73696E-13 3.32107E-13
 -1       573 2.00001E+01-1.21342E-03 5.66324E-07-4.89144E-04 4.03992E-14 4.73945E-13
 -1       574 1.99997E+01-5.87683E-04-1.49678E-07-7.08754E-04-2.07516E-13-5.01377E-14
 -1       575 1.99998E+01-8.26240E-04 1.27318E-07-7.31510E-04 5.62874E-14-2.21366E-14
 -1       576 2.00002E+01-1.32360E-03 7.18633E-07-2.60133E-04 7.70706E-14 3.21066E-13
 -1       577 2.00002E+01-1.36090E-03 7.72572E-07 2.40492E-06-8.30344E-14 4.66320E-13
 -1       578 2.00002E+01-1.32179E-03 7.14397E-07 2.64591E-04-3.25595E-14 1.59863E-13
 -1       579 2.00001E+01-1.21266E-03 5.54092E-07 4.89180E-04 1.97834E-13-1.03450E-13
 -1       580 2.00000E+01-1.04116E-03 2.58064E-07 6.53741E-04 3.39170E-14-1.34693E-13
 -1       581 1.99998E+01-8.22921E-04-1.90894E-07 7.30391E-04 5.82503E-14-9.16070E-15
 -1       582 1.99997E+01-5.83841E-04-5.80063E-07 7.06881E-04 1.16237E-13 5.36305E-14
 -1       583 5.04323E+00-9.58236E-01 1.61205E-01 1.71640E+00-2.04531E-13 1.08404E-12
 -1       584 1.08572E+01-2.30717E+00 1.61178E-01 5.72377E+00-5.66318E-13 7.44550E-13
 -1       585 2.98638E+01-3.19946E+00-8.24409E-02 6.85742E-01 2.52014E-13-8.25437E-13
 -1       586 2.82186E+01-1.05126E+00-5.59545E-02 3.27511E+00 3.97866E-13 8.09070E-13
 -1       587 1.83530E+01-4.69482E+00 8.67028E-02 6.34272E+00-5.52967E-13 1.82729E-13
 -1       588 8.66150E+00-2.56658E+00 1.20516E-01-6.07139E+00 5.21097E-13 1.24366E-12
 -1       589 4.93791E+00-1.10028E+00 1.59514E-01-2.46678E+00 1.68039E-13 1.35320E-12
 -1       590 3.05567E+01 4.84141E+00-1.29494E-01 1.01288E+00-1.14940E-12-9.35224E-13
 -1       591 4.08845E+00 1.84382E+00 1.61087E-01 2.81916E-01 2.25644E-13-1.97213E-12
 -1       592 1.79049E+01 1.05892E+00 2.76180E-02 2.91671E+00 5.68243E-13-7.97120E-13
 -1       593 2.81733E+01-3.84780E+00-1.62506E-02-9.17139E-01 2.11893E-13 1.86511E-13
 -1       594 3.11506E+01 5.15926E+00-1.82044E-01-1.44558E+00 1.46914E-12-7.01394E-13
 -1       595 3.12490E+01 6.41736E+00-1.61259E-01 1.08215E+00 1.56318E-12-1.68119E-13
 -1       596 3.19281E+01 3.68633E+00-1.30016E-01 2.91801E+00 1.29441E-12 3.31173E-13
 -1       597 2.86273E+01-1.81813E-01-7.94971E-02 3.02667E-01-6.56522E-13 4.03011E-14
 -1       598 3.13043E+01-7.04101E-01-9.19115E-02 2.25556E+00 6.95482E-13 5.00891E-13
 -1       599 2.10357E+01-4.03019E+00 3.75224E-02-4.32702E+00-1.57152E-13-5.70499E-13
 -1       600 1.42993E+01-2.12807E+00 1.14858E-01-5.16941E+00-2.47746E-13-1.15489E-12
 -1       601 7.55559E+00 5.75695E-01 1.50414E-01-3.45809E+00-8.02067E-14-1.71572E-12
 -1       602 5.78234E+00 1.51593E+00 1.44679E-01 4.17625E+00 4.84002E-13-1.78328E-12
 -1       603 1.97428E+01-2.44988E+00 4.69861E-02 5.59429E+00 3.78635E-13-6.96326E-13
 -1       604 2.28045E+01-4.78314E+00 3.11806E-02-5.50362E+00 4.02345E-13-3.00013E-13
 -1       605 2.51485E+01-2.27397E+00-1.02203E-02 3.23322E+00-6.20476E-14-2.55511E-13
 -1       606 2.91145E+01 7.09814E+00-1.93568E-01-1.06410E+00-1.48720E-12-3.49047E-13
 -1       607 3.05543E+01 7.14079E+00-1.52492E-01 4.09628E-01-1.45796E-12-7.11223E-13
 -1       608 2.94823E+01 1.81035E-01-1.14619E-01 2.37348E-01-5.01484E-13-1.05650E-12
 -1       609 2.75895E+01-3.08446E+00-4.08461E-02-2.35347E+00-1.33678E-14-8.25728E-13
 -1       610 1.62589E+01-4.40379E+00 8.86014E-02-7.23502E+00 7.03396E-13 4.39784E-13
 -1       611 2.32929E+01 1.08175E+00-1.19033E-02-2.57633E+00-5.70441E-13-2.36055E-13
 -1       612 2.60798E+01 3.98560E-02-1.61416E-02 9.40669E-01 3.77834E-13 4.83794E-13
 -1       613 2.52448E+01-5.21719E+00 1.92909E-02 4.10412E+00-1.90396E-13-4.50202E-13
 -1       614 2.29881E+01 1.02979E+00-1.17459E-02-1.68156E+00-2.32060E-13-5.22614E-13
 -1       615 1.99995E+01-3.81303E-04-1.16695E-06 6.44521E-04 9.88466E-14-5.81100E-15
 -1       616 1.00901E+01 1.16386E+00 1.28421E-01 5.40602E+00 7.20181E-13-1.44612E-12
 -1       617 2.80596E+01 5.50417E+00-1.28112E-01-2.05414E+00-1.32015E-12-1.49734E-13
 -1       618 1.65595E+01-1.18869E+00 8.52172E-02 5.77647E+00 7.10362E-13-8.85195E-13
 -1       619 1.29280E+01 4.12008E-01 1.08536E-01-3.73402E+00-2.49890E-13-1.15949E-12
 -1       620 6.79047E+00 3.31004E+00 1.52066E-01 2.25416E+00 4.59828E-13-1.71928E-12
 -1       621 2.54193E+01-2.41693E+00 9.74624E-03-1.88135E-01-5.24613E-14 2.96763E-13
 -1       622 2.74222E+01-4.20153E+00-7.81747E-04 1.23205E+00-1.91529E-13-9.05984E-13
 -1       623 1.99996E+01-6.12044E-04-5.63402E-07 8.86097E-04 1.28738E-13 1.17660E-15
 -1       624 1.65866E+01-2.70600E+00 7.90550E-02 5.45403E+00-7.05311E-13 1.80869E-13
 -1       625 2.33467E+01 8.32942E-01-2.43826E-04-2.37164E+00-4.81247E-13-1.36892E-13
 -1       626 2.29208E+01 1.65579E+00-4.13049E-03-1.89091E+00-5.38699E-13-1.72682E-13
 -1       627 2.25127E+01 2.30731E+00-6.97261E-03-8.89395E-01-5.63519E-13-3.27392E-13
 -1       628 2.23963E+01 2.24348E+00-5.65679E-03 3.48508E-01-5.97353E-13-5.40400E-13
 -1       629 2.25789E+01 1.41167E+00-5.32643E-03 1.28764E+00-4.04622E-13-6.99312E-13
 -1       630 2.28098E+01 2.73949E-01-2.07981E-03 1.58617E+00-2.12964E-13-7.31360E-13
 -1       631 2.28278E+01-6.36625E-01-8.18036E-04 1.31418E+00-4.30316E-14-6.00837E-13
 -1       632 2.25764E+01-1.08454E+00-7.09778E-04 7.65555E-01 3.08142E-14-5.59516E-13
 -1       633 2.21537E+01-1.12451E+00-7.15763E-04 2.05102E-01 8.82658E-15-6.13387E-13
 -1       634 2.16871E+01-9.23211E-01-5.99081E-04-2.31303E-01-5.25855E-14-5.55360E-13
 -1       635 2.12653E+01-6.38015E-01-4.28948E-04-5.12417E-01 1.00179E-14-3.97052E-13
 -1       636 2.09246E+01-3.65010E-01-2.71405E-04-6.58752E-01-5.42091E-14-3.48381E-13
 -1       637 2.06674E+01-1.47335E-01-1.37648E-04-7.05224E-01-1.13760E-13-3.99846E-13
 -1       638 2.04809E+01 5.18432E-03-3.82200E-05-6.85329E-01-1.66220E-13-4.09594E-13
 -1       639 2.03486E+01 9.95145E-02 2.02404E-05-6.25941E-01-1.47593E-13-2.55247E-13
 -1       640 2.02552E+01 1.48705E-01 5.04282E-05-5.46702E-01 6.19880E-14-1.58947E-13
 -1       641 2.01888E+01 1.66195E-01 6.27078E-05-4.61051E-01 3.48955E-14-1.32563E-13
 -1       642 2.01410E+01 1.63372E-01 6.39173E-05-3.77582E-01 1.51365E-13-2.87168E-13
 -1       643 2.01060E+01 1.48888E-01 5.89145E-05-3.01310E-01 2.75482E-13-2.67286E-13
 -1       644 2.00799E+01 1.28826E-01 5.09408E-05-2.34722E-01 8.04964E-14-2.31001E-13
 -1       645 2.00601E+01 1.07168E-01 4.20498E-05-1.78608E-01-1.02096E-13-2.75069E-13
 -1       646 2.00450E+01 8.63266E-02 3.34468E-05-1.32689E-01 4.00183E-14-3.14477E-13
 -1       647 2.00333E+01 6.76074E-02 2.57603E-05-9.60670E-02-4.55511E-14-1.74611E-13
 -1       648 2.00244E+01 5.15780E-02 1.92491E-05-6.75453E-02 1.53880E-13-2.04419E-13
 -1       649 2.00175E+01 3.83436E-02 1.39496E-05-4.58368E-02 8.46290E-14-1.11362E-13
 -1       650 2.00123E+01 2.77408E-02 9.77546E-06-2.96953E-02 1.80822E-13 1.46565E-13
 -1       651 2.00084E+01 1.94686E-02 6.58219E-06-1.79890E-02 1.30535E-13 1.07882E-13
 -1       652 2.00055E+01 1.31732E-02 4.20655E-06-9.73471E-03 1.43905E-13-3.57223E-14
 -1       653 2.00034E+01 8.49894E-03 2.48920E-06-4.10782E-03 9.00117E-14-7.97204E-14
 -1       654 2.00019E+01 5.11774E-03 1.28659E-06-4.35595E-04-4.22293E-14-4.10586E-14
 -1       655 2.00008E+01 2.74243E-03 4.75890E-07 1.81734E-03-5.48556E-14 2.51824E-13
 -1       656 2.00001E+01 1.13145E-03-4.40158E-08 3.06753E-03 3.59393E-14 2.82666E-13
 -1       657 1.99997E+01 8.76785E-05-3.53897E-07 3.63208E-03-8.63401E-14 7.86785E-14
 -1       658 1.99994E+01-5.45622E-04-5.16551E-07 3.74707E-03-6.84972E-14 1.92803E-14
 -1       659 1.99993E+01-8.90349E-04-5.79543E-07 3.58412E-03 1.22555E-13 3.62688E-15
 -1       660 1.99992E+01-1.03938E-03-5.78233E-07 3.26457E-03-2.19192E-14-2.58891E-13
 -1       661 1.99993E+01-1.06220E-03-5.40344E-07 2.87135E-03-3.21956E-13-5.46412E-13
 -1       662 1.99993E+01-1.00991E-03-4.87850E-07 2.45852E-03-1.75607E-13-2.24569E-13
 -1       663 1.99994E+01-9.19727E-04-4.30155E-07 2.05889E-03-1.16823E-13-1.14113E-13
 -1       664 1.99994E+01-8.17770E-04-4.56183E-07 1.68977E-03 1.14995E-13-8.10954E-14
 -1       665 1.99995E+01-7.25623E-04-3.98587E-07 1.35919E-03-6.78567E-14-7.46827E-14
 -1       666 1.99995E+01-6.60213E-04-5.69040E-07 1.10818E-03 2.12297E-14 1.02676E-13
 -1       667 2.78726E+01 1.59006E+00-9.93486E-02-2.05644E+00-7.50601E-13 1.28151E-13
 -1       668 2.22143E+01-1.44799E+00 3.64142E-04 2.41512E+00-3.09193E-13-4.70114E-13
 -1       669 2.12565E+01-4.17376E-01-8.63572E-04 2.40315E+00-9.89230E-14-2.87525E-13
 -1       670 2.08001E+01 1.78406E-01-2.57281E-04 2.16667E+00 3.15472E-14-6.66396E-14
 -1       671 2.05835E+01 4.57942E-01 1.42688E-04 1.86906E+00 2.06543E-14-8.96508E-14
 -1       672 2.04766E+01 5.43640E-01 4.56358E-04 1.56417E+00 3.92144E-14-1.35737E-13
 -1       673 2.04106E+01 5.27220E-01 5.67856E-04 1.27937E+00 2.79332E-14-5.64864E-14
 -1       674 2.03568E+01 4.65486E-01 5.50377E-04 1.02688E+00-1.61903E-14-8.15215E-14
 -1       675 2.03056E+01 3.89883E-01 4.75548E-04 8.10899E-01-1.17217E-13 1.21362E-14
 -1       676 2.02558E+01 3.16029E-01 3.87632E-04 6.30977E-01-1.47593E-13-7.56328E-14
 -1       677 2.02088E+01 2.50548E-01 3.05337E-04 4.84154E-01-1.59972E-13-2.38078E-13
 -1       678 2.01663E+01 1.95407E-01 2.35411E-04 3.66362E-01 6.04311E-14-3.23016E-13
 -1       679 2.01294E+01 1.50377E-01 1.78752E-04 2.73241E-01 1.81036E-13-2.29288E-13
 -1       680 2.00983E+01 1.14329E-01 1.34044E-04 2.00609E-01 5.14826E-14 7.77100E-15
 -1       681 2.00729E+01 8.58825E-02 9.93405E-05 1.44687E-01-3.36726E-14-2.09344E-13
 -1       682 2.00527E+01 6.36896E-02 7.27156E-05 1.02195E-01-1.54384E-13-1.36930E-13
 -1       683 2.00371E+01 4.65542E-02 5.24834E-05 7.03553E-02-1.34038E-15-2.20424E-13
 -1       684 2.00252E+01 3.34601E-02 3.72501E-05 4.68594E-02-8.42572E-14-3.07170E-13
 -1       685 2.00164E+01 2.35644E-02 2.58934E-05 2.98198E-02 5.19404E-14-2.32844E-13
 -1       686 2.00100E+01 1.61780E-02 1.75224E-05 1.77123E-02 1.82637E-13-8.68368E-14
 -1       687 2.00055E+01 1.07427E-02 1.14352E-05 9.32084E-03-4.54598E-15-2.12678E-13
 -1       688 2.00024E+01 6.80961E-03 7.08099E-06 3.68666E-03-7.64227E-14-2.11023E-13
 -1       689 2.00004E+01 4.02057E-03 4.02993E-06 6.33119E-05-1.55792E-13-2.14253E-13
 -1       690 1.99991E+01 2.09195E-03 1.94772E-06-2.12309E-03-1.68770E-13-3.85659E-13
 -1       691 1.99984E+01 8.01176E-04 5.76135E-07-3.30759E-03 3.10278E-14-2.58589E-13
 -1       692 1.99981E+01-2.47270E-05-2.82840E-07-3.81493E-03-7.37390E-14 5.83897E-14
 -1       693 1.99980E+01-5.18661E-04-7.79596E-07-3.88331E-03 1.18641E-13 2.32482E-13
 -1       694 1.99981E+01-7.81511E-04-1.02712E-06-3.68389E-03 3.30265E-14 2.04072E-13
 -1       695 1.99982E+01-8.88875E-04-1.10984E-06-3.33661E-03-5.27350E-14 7.82179E-14
 -1       696 1.99984E+01-8.96664E-04-1.08958E-06-2.92273E-03 8.27092E-14-5.73252E-15
 -1       697 1.99986E+01-8.45718E-04-1.01407E-06-2.49479E-03-2.02770E-14-1.80355E-13
 -1       698 1.99989E+01-7.65517E-04-9.10140E-07-2.08423E-03 1.68794E-13-3.35155E-13
 -1       699 1.99991E+01-6.77108E-04-7.71755E-07-1.70764E-03 4.25813E-13-6.29673E-13
 -1       700 1.99992E+01-5.96736E-04-7.34535E-07-1.37056E-03 2.15430E-13-2.89288E-13
 -1       701 1.99994E+01-5.34894E-04-9.14969E-07-1.07207E-03 2.05127E-13-1.14665E-13
 -1       702 1.99995E+01-5.57542E-04-5.73919E-07-8.88460E-04 9.29094E-14 5.71897E-14
 -1       703 2.00004E+01-1.42126E-03 2.63223E-07-1.64022E-04-1.05627E-13 4.21089E-13
 -1       704 2.00002E+01-1.19718E-03 1.05677E-07-7.34852E-04 2.24866E-14 5.68919E-14
 -1       705 2.00004E+01-1.42004E-03 2.49433E-07 1.70472E-04-1.29055E-13 2.18419E-13
 -1       706 2.00004E+01-1.34490E-03 2.57729E-07-4.78888E-04-5.10499E-14 3.89375E-13
 -1       707 2.00004E+01-1.34371E-03 2.13610E-07 4.79465E-04 7.80882E-15 2.28137E-13
 -1       708 2.00002E+01-1.19600E-03 9.54958E-08 7.36374E-04 1.07353E-13-2.34730E-13
 -1       709 2.00000E+01-9.90096E-04 4.45302E-07 9.03430E-04 8.83488E-14-9.41549E-14
 -1       710 2.88420E+01-2.52397E+00-3.92427E-02 2.05565E+00 2.37718E-13 7.18928E-13
 -1       711 2.70820E+01 4.90942E+00-1.42867E-01 1.30607E+00-1.01891E-12-9.13127E-13
 -1       712 2.59582E+01-1.47249E+00-4.26465E-02 1.83362E-01 1.58931E-14 4.16351E-14
 -1       713 9.73011E+00-1.26628E-01 1.53910E-01 3.19405E+00-3.47944E-13 6.85195E-13
 -1       714 2.84916E+01-2.59980E+00-5.71173E-02-1.24221E+00 5.95097E-14-1.09146E-12
 -1       715 2.39382E+01-2.78852E+00 2.71790E-03 1.98985E+00-4.17868E-13-6.02601E-13
 -1       716 2.62134E+01-3.54136E+00-1.85556E-02 7.29112E-01-2.62626E-13-8.85763E-13
 -1       717 2.35234E+01 4.52817E-01-1.39229E-03-2.44168E+00-4.07818E-13-1.58415E-13
 -1       718 2.34043E+01-2.01208E+00 7.23231E-03 2.49633E+00 3.73545E-13-1.69084E-13
 -1       719 2.52147E+01-4.22633E+00-3.35143E-03-3.02979E+00 3.51275E-13-7.84114E-13
 -1       720 2.53036E+01-3.63379E+00 2.69364E-02-1.46402E+00-1.74468E-13 1.28340E-13
 -1       721 2.30296E+01-4.63485E+00 4.50859E-02 4.20030E+00-6.56957E-13-4.51426E-13
 -1       722 2.33149E+01-5.35319E-01-9.62187E-03-3.89256E-02 1.42951E-13-3.41625E-13
 -1       723 9.50596E+00-4.02778E-01 1.42059E-01-4.12608E+00 4.16236E-13 1.09604E-12
 -1       724 1.94935E+01-2.29295E+00 8.69231E-02-3.64400E+00-3.44631E-13-5.05150E-13
 -1       725 7.80418E+00 3.01586E+00 1.39305E-01-1.17100E+00 7.94434E-14-1.64400E-12
 -1       726 2.03492E+01-4.26399E+00 5.06202E-02-5.63340E+00 6.92928E-13-7.64345E-14
 -1       727 2.62065E+01 5.97410E+00-1.39685E-01-1.54390E-01-1.16375E-12-6.06681E-13
 -1       728 7.38219E+00 3.56317E-01 1.59541E-01-4.81481E-01-4.25745E-14 9.79987E-13
 -1       729 2.76604E+01 1.80751E+00-9.68523E-02 1.66709E+00-6.25142E-13-1.11837E-12
 -1       730 2.72279E+01-2.09940E+00-5.79838E-02-3.06724E-02 1.62231E-14-1.13353E-12
 -1       731 1.44409E+01-2.68554E+00 1.10152E-01-6.35975E+00 7.46424E-13 5.11362E-13
 -1       732 2.37341E+01 8.39548E-02-8.75810E-03-1.50808E+00-1.27581E-13-3.20765E-13
 -1       733 1.56761E+01 1.75406E-01 3.86536E-02 4.87724E+00 7.77337E-13-8.64206E-13
 -1       734 2.05217E+01-1.11145E+00 3.51873E-02-2.22842E+00-1.83312E-13-3.31176E-13
 -1       735 2.95197E+01 4.77289E-01-1.15864E-01 3.53477E+00 6.77347E-13 7.80095E-13
 -1       736 2.08747E+01-1.31346E+00 2.96569E-02 3.34654E+00 5.65353E-13-4.08778E-13
 -1       737 3.04126E+01 4.41600E+00-1.24954E-01 2.75183E+00 1.24027E-12 2.77844E-13
 -1       738 1.99998E+01-8.12391E-04 1.56874E-07-9.27690E-04 2.63959E-13-1.31637E-13
 -1       739 2.35991E+01 4.96352E-01-3.72341E-03-2.33555E+00-3.40711E-13-2.67561E-13
 -1       740 1.41351E+01-7.16348E-01 8.37585E-02 4.24295E+00-4.96336E-13 3.24966E-13
 -1       741 2.57146E+01 5.31628E+00-9.54799E-02-1.29482E+00-1.10113E-12-3.56470E-13
 -1       742 2.00000E+01-1.01941E-03 2.29183E-07-8.73554E-04 3.25513E-13 2.93583E-13
 -1       743 2.79848E+01 4.68562E+00-1.75896E-01-3.92316E-01 1.25612E-12-3.02246E-13
 -1       744 2.37440E+01 2.98853E+00-2.83694E-02-1.83188E+00-6.99709E-13-2.17584E-13
 -1       745 2.34297E+01 3.60000E+00-2.91623E-02-3.64402E-01-7.76086E-13-4.44963E-13
 -1       746 2.35975E+01 2.79556E+00-3.10164E-02 1.09854E+00-6.74656E-13-6.23509E-13
 -1       747 2.38832E+01 1.03268E+00-1.95461E-02 1.72514E+00-3.51502E-13-7.80963E-13
 -1       748 2.38972E+01-6.18797E-01-5.10750E-03 1.42774E+00-4.09601E-14-8.04731E-13
 -1       749 2.34376E+01-1.50713E+00-3.79895E-03 6.81857E-01 4.28277E-14-6.81588E-13
 -1       750 2.27063E+01-1.66957E+00-2.46702E-03-3.68846E-02 4.21905E-14-6.39948E-13
 -1       751 2.19449E+01-1.40572E+00-8.61217E-04-5.45272E-01 1.21419E-13-5.10272E-13
 -1       752 2.12956E+01-9.88628E-01-5.49003E-04-8.20555E-01 9.22951E-14-3.02009E-13
 -1       753 2.08096E+01-5.81612E-01-3.34022E-04-9.25552E-01 3.22514E-15-2.34407E-13
 -1       754 2.04746E+01-2.52762E-01-1.63260E-04-9.21869E-01-1.20906E-13-3.30097E-13
 -1       755 2.02594E+01-1.88237E-02-3.40224E-05-8.56103E-01-1.30077E-13-3.00109E-13
 -1       756 2.01296E+01 1.29445E-01 2.27903E-05-7.59481E-01-7.41727E-15-2.09661E-13
 -1       757 2.00567E+01 2.10405E-01 4.28224E-05-6.51531E-01 6.14111E-15-1.99148E-14
 -1       758 2.00194E+01 2.43215E-01 4.76934E-05-5.44055E-01 8.12150E-14 1.49040E-14
 -1       759 2.00028E+01 2.44351E-01 4.53787E-05-4.43862E-01-7.75927E-15 3.35344E-16
 -1       760 1.99976E+01 2.26569E-01 4.00105E-05-3.54520E-01 4.95600E-14-1.41199E-13
 -1       761 1.99979E+01 1.99044E-01 3.35744E-05-2.77492E-01 2.00885E-13-3.32580E-13
 -1       762 2.00003E+01 1.67955E-01 2.71315E-05-2.12891E-01 6.67932E-14-2.85915E-13
 -1       763 2.00031E+01 1.37189E-01 2.12414E-05-1.59998E-01-2.88106E-14-3.18508E-14
 -1       764 2.00054E+01 1.08967E-01 1.61584E-05-1.17626E-01 1.54978E-13-5.61109E-14
 -1       765 2.00069E+01 8.43702E-02 1.19508E-05-8.43751E-02 4.38426E-14-6.54004E-15
 -1       766 2.00076E+01 6.37383E-02 8.58141E-06-5.88043E-02 1.86327E-13 7.57638E-14
 -1       767 2.00078E+01 4.69596E-02 5.95948E-06-3.95398E-02 1.64874E-13 1.52013E-13
 -1       768 2.00074E+01 3.36741E-02 3.97262E-06-2.53383E-02 5.10341E-14 1.62538E-13
 -1       769 2.00068E+01 2.34083E-02 2.50619E-06-1.51176E-02-1.23500E-13 1.11197E-13
 -1       770 2.00059E+01 1.56612E-02 1.45371E-06-7.96383E-03 1.38529E-13-1.14340E-15
 -1       771 2.00051E+01 9.95435E-03 7.21958E-07-3.12501E-03 1.24248E-13 1.98630E-14
 -1       772 2.00042E+01 5.85888E-03 2.32579E-07 3.62443E-06 7.50455E-14-2.29393E-14
 -1       773 2.00034E+01 3.00675E-03-7.81531E-08 1.89833E-03-1.00936E-13-5.12942E-15
 -1       774 2.00027E+01 1.09250E-03-2.60700E-07 2.92666E-03-8.75064E-14-3.74319E-14
 -1       775 2.00020E+01-1.30606E-04-3.53995E-07 3.36659E-03-2.27923E-13-7.32822E-15
 -1       776 2.00015E+01-8.57285E-04-3.87074E-07 3.42385E-03 1.98352E-13-3.31460E-14
 -1       777 2.00011E+01-1.23799E-03-3.80333E-07 3.24721E-03-1.81606E-14-1.33529E-13
 -1       778 2.00007E+01-1.38676E-03-3.48656E-07 2.94122E-03-1.95127E-13-8.32701E-15
 -1       779 2.00005E+01-1.38849E-03-3.10957E-07 2.57686E-03-3.04415E-13-1.42846E-13
 -1       780 2.00003E+01-1.30533E-03-2.68408E-07 2.20008E-03-2.16685E-13-5.92996E-13
 -1       781 2.00001E+01-1.18261E-03-6.18830E-07 1.83971E-03 2.41781E-13-3.29569E-13
 -1       782 2.00000E+01-1.05611E-03-4.07794E-07 1.51062E-03 1.28762E-13-1.07409E-13
 -1       783 1.92013E+01 2.59576E-01 1.42080E-03 2.52654E+00-1.04675E-13-1.77863E-13
 -1       784 2.42623E+01 4.73797E-01-2.54248E-03-2.47611E+00-3.79505E-13-1.18289E-13
 -1       785 1.93971E+01-5.53503E-01 1.39423E-02 3.10162E+00-2.51187E-13-2.14367E-13
 -1       786 1.94474E+01 8.00803E-01 1.95591E-05 1.68493E+00 7.23666E-14-1.89794E-13
 -1       787 1.96193E+01 7.92650E-01 1.17619E-04 1.37678E+00-9.92563E-15-2.04557E-13
 -1       788 1.97612E+01 7.14804E-01 1.61691E-04 1.11732E+00 2.97139E-14-2.65281E-13
 -1       789 1.98658E+01 6.11016E-01 1.47576E-04 8.97709E-01-1.73136E-13-1.72327E-13
 -1       790 1.99368E+01 5.04846E-01 1.21142E-04 7.12744E-01 9.47091E-15-2.08463E-13
 -1       791 1.99816E+01 4.07434E-01 9.40219E-05 5.58593E-01-3.09379E-14-2.75259E-13
 -1       792 2.00076E+01 3.23075E-01 7.14301E-05 4.31831E-01-8.60997E-14-3.35989E-13
 -1       793 2.00209E+01 2.52528E-01 5.37481E-05 3.29063E-01-8.48984E-14-1.49891E-13
 -1       794 2.00262E+01 1.94882E-01 4.01560E-05 2.46927E-01 7.36968E-15-7.28788E-14
 -1       795 2.00267E+01 1.48557E-01 2.97608E-05 1.82208E-01 1.36434E-13-1.62651E-13
 -1       796 2.00247E+01 1.11819E-01 2.18362E-05 1.31935E-01-8.82096E-14-1.72123E-13
 -1       797 2.00215E+01 8.30206E-02 1.58220E-05 9.34520E-02-4.13637E-15-2.76872E-13
 -1       798 2.00179E+01 6.06946E-02 1.12865E-05 6.44450E-02 3.74306E-14-2.82304E-13
 -1       799 2.00145E+01 4.35823E-02 7.89472E-06 4.29429E-02-1.03156E-13-2.32720E-13
 -1       800 2.00114E+01 3.06252E-02 5.38458E-06 2.72986E-02 7.50563E-14-1.52806E-13
 -1       801 2.00087E+01 2.09462E-02 3.55075E-06 1.61592E-02 8.27399E-14-2.04709E-13
 -1       802 2.00065E+01 1.38263E-02 2.23210E-06 8.43087E-03-2.93287E-14-2.05165E-13
 -1       803 2.00048E+01 8.68196E-03 1.30239E-06 3.24240E-03-1.25271E-13-3.58266E-13
 -1       804 2.00034E+01 5.04399E-03 6.63119E-07-8.97124E-05-1.71793E-13-1.00785E-13
 -1       805 2.00023E+01 2.53901E-03 2.37841E-07-2.09376E-03-6.41336E-14 6.70411E-14
 -1       806 2.00015E+01 8.73007E-04-3.23045E-08-3.17171E-03-8.66202E-14 1.81500E-13
 -1       807 2.00010E+01-1.82898E-04-1.92214E-07-3.62426E-03 4.43422E-14-9.78780E-14
 -1       808 2.00005E+01-8.04672E-04-2.75653E-07-3.67222E-03-7.66852E-14-1.56852E-13
 -1       809 2.00002E+01-1.12585E-03-3.07563E-07-3.47422E-03 2.08092E-13-3.54707E-14
 -1       810 2.00000E+01-1.24644E-03-3.08670E-07-3.14129E-03 7.98372E-14-1.75296E-13
 -1       811 1.99999E+01-1.24036E-03-2.94110E-07-2.74847E-03 1.85416E-13-8.45677E-14
 -1       812 1.99998E+01-1.16150E-03-2.90318E-07-2.34410E-03 3.21734E-13-2.70211E-13
 -1       813 1.99997E+01-1.04879E-03-2.27612E-07-1.95639E-03 3.57929E-13-2.90385E-13
 -1       814 1.99997E+01-9.29968E-04-2.42388E-07-1.60221E-03 1.08468E-13-7.88949E-14
 -1       815 1.99997E+01-8.24874E-04-1.43305E-07-1.28414E-03 8.49745E-14 9.23457E-14
 -1       816 1.99998E+01-8.14647E-04 3.86463E-07-1.09893E-03 2.05385E-14 7.00907E-14
 -1       817 2.00003E+01-1.19667E-03-8.30156E-07 1.01890E-03 1.19356E-13 9.46973E-14
 -1       818 2.00008E+01-1.55565E-03 1.09012E-07 4.51343E-06-9.00873E-14 1.59862E-13
 -1       819 1.37497E+01-9.10389E-01 8.05035E-02-4.79965E+00 5.53979E-13 5.98133E-13
 -1       820 1.99999E+01-9.36845E-04 5.22079E-07 1.13894E-03 6.90012E-14-6.93641E-14
 -1       821 2.48259E+01 4.26559E+00-7.55920E-02 8.43939E-01-8.83956E-13-7.58646E-13
 -1       822 2.58239E+01-4.65265E-01-3.51453E-02 1.45713E+00-1.44052E-13-9.75423E-13
 -1       823 2.00005E+01-1.39058E-03 1.42283E-07 7.52851E-04-3.28838E-14-8.01608E-14
 -1       824 1.92783E+01 6.64271E-01 1.95075E-04 2.05918E+00 2.18790E-14-2.01031E-13
 -1       825 2.41726E+01 1.56493E+00-1.84416E-02-2.54461E+00-5.39265E-13-6.66257E-14
 -1       826 2.08082E+01-2.89494E+00 2.19603E-02 4.00011E+00-5.65884E-13-3.25292E-13
 -1       827 1.04883E+01 8.14208E-01 9.16635E-02-1.86014E+00 9.04084E-14 7.36661E-13
 -1       828 2.58900E+01 1.86072E-01-4.19753E-02-1.97196E+00-3.19424E-13 5.65381E-14
 -1       829 2.62164E+01 2.78701E+00-7.12501E-02-2.61530E+00-7.99246E-13 2.58821E-14
 -1       830 2.29299E+01-3.84452E+00 2.21530E-02-3.44192E+00 5.19277E-13-5.46096E-13
 -1       831 2.42076E+01 1.75324E-01 7.69927E-03-2.08902E+00-2.15680E-13-2.16257E-13
 -1       832 2.52391E+01-3.31678E+00-1.84113E-02-1.15686E+00 2.34099E-13-1.03597E-12
 -1       833 2.55222E+01 2.55439E+00-5.77271E-02 1.77014E+00-6.58014E-13-9.25448E-13
 -1       834 2.00007E+01-1.51261E-03 5.45865E-08 4.01005E-04 1.02288E-13 4.47152E-13
 -1       835 1.81370E+01-2.75045E+00 4.47607E-02-5.20565E+00 6.79429E-13 1.02755E-13
 -1       836 1.08238E+01 9.58732E-01 9.30824E-02 1.12858E+00-1.84777E-13 6.51531E-13
 -1       837 1.82308E+01-1.47412E+00 5.23919E-02 4.05315E+00-4.58444E-13-1.26484E-13
 -1       838 2.44423E+01-5.87169E-01-8.45653E-03-1.01777E+00-2.30844E-14-1.83949E-13
 -1       839 2.00005E+01-1.39258E-03 6.64835E-08-7.52192E-04-5.05656E-14 2.47351E-13
 -1       840 2.00007E+01-1.51485E-03 1.42110E-07-3.96102E-04-2.68096E-13 1.33593E-13
 -1       841 2.00003E+01-1.22441E-03-4.59307E-07-9.76288E-04 4.66092E-14-6.52557E-14
 -1       842 1.35769E+01 5.78065E-01 4.93221E-02 2.65313E+00-3.14161E-13 3.73550E-13
 -1       843 2.39946E+01-1.16335E+00-4.29132E-03 5.17277E-01 1.81311E-13-1.80337E-13
 -1       844 2.47613E+01-1.98792E+00-4.95888E-03 4.34838E-01 9.96772E-14-8.80063E-13
 -1       845 2.35137E+01-2.42831E+00 5.76519E-03-6.12210E-01 1.93739E-13-7.25955E-13
 -1       846 2.22326E+01-2.04340E+00 1.18927E-03-1.20319E+00 2.05192E-13-5.46439E-13
 -1       847 2.12563E+01-1.43286E+00 1.46712E-03-1.41214E+00 2.45083E-13-4.20432E-13
 -1       848 2.05780E+01-8.37223E-01 2.95872E-04-1.39384E+00 8.86836E-14-3.89420E-13
 -1       849 2.01574E+01-3.65966E-01 8.17221E-06-1.26553E+00-5.99492E-14-3.18132E-13
 -1       850 1.99207E+01-3.31197E-02 2.26685E-05-1.09635E+00-6.93237E-14-2.50871E-13
 -1       851 1.98065E+01 1.78280E-01 2.50510E-05-9.23285E-01-3.87308E-14-7.13131E-15
 -1       852 1.97680E+01 2.95806E-01 7.12540E-06-7.62200E-01 8.99236E-14-4.24294E-14
 -1       853 1.97728E+01 3.46100E-01-2.13675E-06-6.19242E-01 5.35639E-15-1.68245E-13
 -1       854 1.97996E+01 3.51605E-01-5.89623E-06-4.95935E-01-3.73681E-14-1.12149E-13
 -1       855 1.98351E+01 3.29692E-01-6.16081E-06-3.91680E-01-8.24669E-14-1.32250E-13
 -1       856 1.98715E+01 2.92987E-01-5.08380E-06-3.04969E-01 7.91751E-14-8.81574E-14
 -1       857 1.99047E+01 2.50177E-01-3.71770E-06-2.33931E-01 1.21774E-13-1.28385E-13
 -1       858 1.99327E+01 2.06884E-01-2.46872E-06-1.76585E-01 1.68282E-13-2.28287E-13
 -1       859 1.99552E+01 1.66469E-01-1.46248E-06-1.30971E-01 6.47782E-14-1.84382E-13
 -1       860 1.99724E+01 1.30692E-01-7.12792E-07-9.52318E-02 5.36144E-14-1.57701E-13
 -1       861 1.99850E+01 1.00239E-01-1.90527E-07-6.76654E-02 1.23985E-13-2.52116E-13
 -1       862 1.99939E+01 7.51185E-02 1.47485E-07-4.67516E-02 1.76554E-13-2.25549E-13
 -1       863 1.99997E+01 5.49415E-02 3.45401E-07-3.11660E-02 2.66123E-13-2.19682E-13
 -1       864 2.00034E+01 3.91188E-02 4.42517E-07-1.97790E-02-9.24348E-14-1.63199E-13
 -1       865 2.00054E+01 2.69888E-02 4.71077E-07-1.16468E-02-2.49122E-14-2.35117E-14
 -1       866 2.00063E+01 1.78971E-02 4.56032E-07-5.99463E-03 1.46757E-13-3.31536E-13
 -1       867 2.00064E+01 1.12417E-02 4.15756E-07-2.19839E-03 7.79903E-14-4.68329E-13
 -1       868 2.00061E+01 6.49519E-03 3.63143E-07 2.36506E-04-6.63412E-16-5.06787E-13
 -1       869 2.00055E+01 3.21203E-03 3.06737E-07 1.69514E-03-9.14774E-15-2.56345E-13
 -1       870 2.00047E+01 1.02630E-03 2.51769E-07 2.47219E-03-1.02499E-13-2.44554E-14
 -1       871 2.00039E+01-3.55181E-04 2.01303E-07 2.78897E-03-1.50393E-13 1.96882E-13
 -1       872 2.00032E+01-1.16231E-03 1.58433E-07 2.80844E-03 4.85169E-14 4.22860E-14
 -1       873 2.00025E+01-1.57188E-03 1.29985E-07 2.64786E-03-1.66306E-13-5.02253E-14
 -1       874 2.00019E+01-1.71739E-03 1.18114E-07 2.38922E-03-3.31500E-13-2.69843E-13
 -1       875 2.00014E+01-1.69769E-03 9.02094E-08 2.08788E-03-3.75920E-13 8.70378E-14
 -1       876 2.00010E+01-1.58560E-03-3.06884E-08 1.77975E-03-1.09435E-13 8.40129E-14
 -1       877 2.00007E+01-1.43212E-03 1.73905E-06 1.48393E-03 2.30372E-13-2.17635E-13
 -1       878 1.90663E+01 9.63159E-01-8.96162E-05 1.04029E+00 9.95954E-14 7.43294E-14
 -1       879 1.87030E+01 1.05733E+00-3.53426E-04 1.26765E+00-7.23320E-15 1.02711E-13
 -1       880 1.95454E+01 7.02552E-01 1.17126E-05 6.93974E-01-6.40784E-15-5.55283E-14
 -1       881 1.96923E+01 5.76929E-01 1.13464E-05 5.57957E-01 7.57629E-14-3.94803E-14
 -1       882 1.97966E+01 4.65229E-01 7.46008E-06 4.42326E-01 4.67386E-14-1.71243E-13
 -1       883 1.98693E+01 3.69514E-01 4.60740E-06 3.45345E-01-2.03091E-13-1.67780E-13
 -1       884 1.99192E+01 2.89554E-01 2.93701E-06 2.65303E-01-4.05071E-15 5.10673E-15
 -1       885 1.99528E+01 2.24004E-01 1.97100E-06 2.00346E-01 2.14865E-13-1.65757E-13
 -1       886 1.99750E+01 1.71075E-01 1.37829E-06 1.48517E-01-6.40659E-14-1.67876E-13
 -1       887 1.99892E+01 1.28896E-01 9.87369E-07 1.07854E-01 1.47254E-14-1.35246E-13
 -1       888 1.99981E+01 9.56949E-02 7.13541E-07 7.64908E-02 2.82124E-14-1.24345E-13
 -1       889 2.00032E+01 6.98756E-02 5.13790E-07 5.27203E-02-3.71042E-14-4.41207E-14
 -1       890 2.00060E+01 5.00478E-02 3.64914E-07 3.50359E-02 1.23274E-13-2.42684E-13
 -1       891 2.00072E+01 3.50241E-02 2.53284E-07 2.21441E-02 6.59298E-14-1.90077E-13
 -1       892 2.00073E+01 2.38072E-02 1.70029E-07 1.29613E-02 7.27689E-14 2.38505E-14
 -1       893 2.00069E+01 1.55705E-02 1.08783E-07 6.59838E-03 1.87841E-14 4.23518E-14
 -1       894 2.00062E+01 9.63749E-03 6.46452E-08 2.34016E-03-1.89093E-13 4.00707E-14
 -1       895 2.00054E+01 5.46099E-03 3.36964E-08-3.78651E-04-1.25822E-13-6.60053E-14
 -1       896 2.00045E+01 2.60398E-03 1.27538E-08-1.99692E-03-1.38833E-13-1.42665E-13
 -1       897 2.00037E+01 7.21615E-04-7.99735E-10-2.84943E-03 1.91891E-13-1.39693E-13
 -1       898 2.00030E+01-4.54684E-04-9.12357E-09-3.18682E-03-5.65739E-14 7.23967E-14
 -1       899 2.00023E+01-1.13128E-03-1.38149E-08-3.19303E-03-1.04379E-13 1.51980E-13
 -1       900 2.00017E+01-1.46452E-03-1.55814E-08-2.99997E-03 2.51009E-13 3.70573E-13
 -1       901 2.00013E+01-1.57134E-03-2.66517E-08-2.69969E-03 2.42592E-13 3.52808E-13
 -1       902 2.00009E+01-1.53802E-03-5.23118E-08-2.35397E-03 3.63592E-13 1.57500E-13
 -1       903 2.00006E+01-1.42652E-03-2.87173E-07-2.00280E-03 3.43829E-13 1.27805E-13
 -1       904 2.00003E+01-1.28567E-03-6.94806E-08-1.66798E-03 1.40665E-13-5.96165E-16
 -1       905 2.00002E+01-1.13863E-03-7.52615E-07-1.36366E-03 8.13997E-14 1.54351E-13
 -1       906 2.06345E+01-2.64966E+00 1.44428E-02-3.56920E+00 5.05456E-13-2.65110E-13
 -1       907 2.00007E+01-1.43626E-03 2.67131E-07 1.08412E-03 2.39145E-13-1.39675E-13
 -1       908 1.70377E+01 5.23984E-01 5.14645E-03 2.60881E+00-2.01239E-13 8.52421E-15
 -1       909 2.00000E+01-1.02652E-03 7.44428E-09-1.08286E-03 1.91684E-13 2.73569E-13
 -1       910 1.68736E+01-1.13784E+00 2.48905E-02-4.12486E+00 4.79414E-13 1.40834E-13
 -1       911 1.36646E+01 4.91430E-01 3.77115E-02-2.87827E+00 2.27381E-13 4.33948E-13
 -1       912 2.35185E+01-3.16185E+00-1.47440E-03-1.78699E+00 3.69887E-13-8.45167E-13
 -1       913 1.93420E+01 8.35846E-01-1.20814E-05 8.52888E-01-7.19898E-14 8.12153E-14
 -1       914 1.23488E+01 1.26678E+00 4.41510E-02-4.10153E-01-5.15100E-14 5.69262E-13
 -1       915 1.76715E+01 9.37296E-01-8.10212E-04 1.97286E+00-3.86706E-14-4.56817E-14
 -1       916 2.00012E+01-1.70504E-03 1.92051E-07-2.36356E-04-5.60192E-14 3.20876E-13
 -1       917 2.00010E+01-1.61488E-03 2.03313E-07-6.95409E-04-4.79321E-14 7.73473E-14
 -1       918 2.00012E+01-1.70449E-03 4.06827E-08 2.44296E-04-9.21100E-14 6.34821E-13
 -1       919 2.00007E+01-1.46629E-03 2.51517E-07-1.02333E-03 9.33641E-14-4.33792E-14
 -1       920 1.82380E+01 1.07325E+00-1.08060E-03 1.55963E+00 2.70117E-14 2.23939E-14
 -1       921 1.37960E+01 1.22896E+00 2.57362E-02 1.20451E+00-1.04812E-13 3.63258E-13
 -1       922 2.00010E+01-1.61434E-03-9.72021E-08 6.99111E-04 4.51208E-14 1.01576E-13
 -1       923 1.64814E+01-3.54688E-01 3.54519E-02 3.58654E+00-3.43381E-13 5.97066E-14
 -1       924 2.08697E+01-1.79222E+00-6.24440E-03-2.25047E+00 2.96129E-13-4.80441E-13
 -1       925 2.01040E+01-1.00201E+00-3.40212E-03-2.00186E+00 1.94281E-13-4.67451E-13
 -1       926 1.96484E+01-3.81063E-01-1.17476E-03-1.66034E+00 7.34888E-14-3.94792E-13
 -1       927 1.94609E+01 2.23032E-02 6.24801E-05-1.33851E+00 5.13989E-14-1.87798E-13
 -1       928 1.94077E+01 2.71608E-01 4.00284E-05-1.06361E+00 4.23881E-14-9.37098E-14
 -1       929 1.94330E+01 4.06807E-01 1.35619E-05-8.36797E-01-1.58293E-14-9.47292E-14
 -1       930 1.94976E+01 4.61865E-01-3.78567E-07-6.53693E-01-1.41157E-13-2.45401E-13
 -1       931 1.95778E+01 4.63995E-01-7.08361E-06-5.07451E-01 2.66685E-14-2.01962E-13
 -1       932 1.96595E+01 4.33760E-01-9.43220E-06-3.91264E-01 1.75863E-14-1.05739E-13
 -1       933 1.97349E+01 3.85968E-01-9.74378E-06-2.99296E-01-2.39007E-15 2.32049E-14
 -1       934 1.98003E+01 3.30860E-01-9.18813E-06-2.26810E-01 2.90357E-14-8.63395E-14
 -1       935 1.98546E+01 2.75162E-01-8.25258E-06-1.69993E-01 1.26245E-13-7.28483E-14
 -1       936 1.98980E+01 2.22973E-01-7.15465E-06-1.25766E-01 8.53514E-14-5.69004E-14
 -1       937 1.99316E+01 1.76503E-01-6.02159E-06-9.16268E-02 1.01296E-13-1.77379E-13
 -1       938 1.99567E+01 1.36668E-01-4.93649E-06-6.55372E-02 1.10311E-13-1.70575E-13
 -1       939 1.99750E+01 1.03548E-01-3.95063E-06-4.58298E-02 7.52356E-14-2.17830E-13
 -1       940 1.99878E+01 7.67129E-02-3.09052E-06-3.11429E-02 1.37325E-13-2.19008E-13
 -1       941 1.99965E+01 5.54695E-02-2.36448E-06-2.03680E-02 1.07776E-13-3.77615E-13
 -1       942 2.00019E+01 3.90140E-02-1.76860E-06-1.26079E-02-6.40947E-14-3.76449E-13
 -1       943 2.00051E+01 2.65367E-02-1.29158E-06-7.14248E-03-1.14847E-13-3.44314E-13
 -1       944 2.00068E+01 1.72815E-02-9.18427E-07-3.39883E-03 7.87067E-15-4.06379E-13
 -1       945 2.00073E+01 1.05771E-02-6.32959E-07-9.26370E-04 9.38092E-15-4.48210E-13
 -1       946 2.00071E+01 5.84987E-03-4.19541E-07 6.25054E-04 2.04343E-13-2.90847E-13
 -1       947 2.00065E+01 2.62330E-03-2.64149E-07 1.52391E-03 2.06646E-13 5.36123E-15
 -1       948 2.00058E+01 5.11546E-04-1.55031E-07 1.97297E-03-1.64272E-14 4.71864E-14
 -1       949 2.00049E+01-7.91237E-04-8.20676E-08 2.12282E-03-9.12105E-15 2.74076E-13
 -1       950 2.00040E+01-1.52265E-03-3.16358E-08 2.08315E-03-1.28694E-14 3.75256E-13
 -1       951 2.00032E+01-1.86396E-03 2.32253E-08 1.93217E-03-2.68391E-13 2.66161E-13
 -1       952 2.00025E+01-1.95135E-03 6.85866E-08 1.72368E-03-2.73627E-13 4.30199E-13
 -1       953 2.00019E+01-1.88385E-03-3.13816E-08 1.49431E-03-3.40052E-13 5.21815E-13
 -1       954 2.00014E+01-1.73570E-03 7.17533E-09 1.26460E-03-1.19225E-13 3.74176E-13
 -1       955 2.00015E+01-1.84323E-03 5.00325E-09-5.55511E-04 1.61582E-13 2.44751E-13
 -1       956 1.89973E+01-1.29587E+00 6.44870E-03-3.16214E+00 3.48948E-13-8.16298E-14
 -1       957 1.95590E+01 6.03795E-01-4.39302E-05 3.83964E-01 1.64167E-13 4.92386E-14
 -1       958 1.93769E+01 7.35404E-01-5.69290E-05 4.66361E-01 4.53242E-14 4.90100E-14
 -1       959 1.97893E+01 3.88589E-01-2.59293E-05 2.45588E-01-1.66854E-13-2.29027E-13
 -1       960 1.98590E+01 3.05291E-01-1.92342E-05 1.90680E-01 9.39734E-15-8.26670E-14
 -1       961 1.99086E+01 2.36630E-01-1.39807E-05 1.45083E-01 5.54082E-14 1.37525E-13
 -1       962 1.99434E+01 1.80890E-01-9.95456E-06 1.08073E-01 8.17122E-14 5.59012E-14
 -1       963 1.99674E+01 1.36270E-01-6.92462E-06 7.86747E-02 9.97108E-14-5.15357E-14
 -1       964 1.99836E+01 1.01031E-01-4.68311E-06 5.58006E-02 3.26665E-14-2.06541E-13
 -1       965 1.99941E+01 7.35714E-02-3.05407E-06 3.83646E-02 1.03223E-13-2.58865E-13
 -1       966 2.00007E+01 5.24700E-02-1.89297E-06 2.53509E-02 5.57350E-15-7.42704E-14
 -1       967 2.00046E+01 3.64915E-02-1.08366E-06 1.58546E-02 8.74366E-14-1.87676E-13
 -1       968 2.00065E+01 2.45847E-02-5.34615E-07 9.09785E-03 1.51411E-14-1.76582E-13
 -1       969 2.00073E+01 1.58700E-02-1.74924E-07 4.43184E-03 3.61362E-15 3.85479E-14
 -1       970 2.00072E+01 9.62265E-03 4.95132E-08 1.32846E-03 2.61014E-14 1.07290E-13
 -1       971 2.00067E+01 5.25398E-03 1.79370E-07-6.32566E-04 1.26977E-14 5.94234E-14
 -1       972 2.00060E+01 2.29275E-03 2.44789E-07-1.77888E-03 4.55942E-14-2.65427E-13
 -1       973 2.00051E+01 3.66975E-04 2.67762E-07-2.36082E-03-4.42808E-14-1.80302E-13
 -1       974 2.00043E+01-8.12811E-04 2.64226E-07-2.56573E-03-1.58121E-13-3.05354E-13
 -1       975 2.00034E+01-1.46858E-03 2.46293E-07-2.53075E-03-5.07419E-14-1.15655E-13
 -1       976 2.00027E+01-1.76795E-03 2.21435E-07-2.35396E-03 2.24193E-13 7.06722E-14
 -1       977 2.00021E+01-1.83607E-03 1.52861E-07-2.10377E-03 3.71162E-13 1.94062E-13
 -1       978 2.00015E+01-1.76582E-03 1.28380E-08-1.82476E-03 3.85846E-13 3.03038E-13
 -1       979 2.00011E+01-1.62088E-03 9.20999E-07-1.54575E-03 1.59170E-13 3.01015E-13
 -1       980 1.83521E+01 1.17127E+00-2.40347E-04 7.64361E-01 1.30547E-14 6.18287E-14
 -1       981 1.87989E+01 1.02839E+00-1.45989E-04 6.53502E-01-5.19806E-15 9.15290E-14
 -1       982 2.15014E+01-2.45126E+00 9.22191E-03-2.55727E+00 3.84921E-13-5.65874E-13
 -1       983 1.62031E+01 1.45063E-01 8.52086E-03-2.81879E+00 2.50134E-13 1.84041E-13
 -1       984 1.91304E+01 8.79304E-01-8.42657E-05 5.56293E-01 4.41674E-14 3.26064E-14
 -1       985 1.43171E+01 1.17866E+00 1.37094E-02-1.26360E+00 1.49210E-13 3.06578E-13
 -1       986 1.53323E+01 9.15079E-01 1.76489E-02 2.14385E+00-1.63428E-13 1.74262E-13
 -1       987 1.96924E+01 4.87894E-01-3.41609E-05 3.10104E-01 3.51981E-14 5.02749E-15
 -1       988 2.00013E+01-1.71810E-03-5.04288E-07-9.85240E-04 1.88259E-13-1.56356E-13
 -1       989 2.00016E+01-1.89210E-03 1.05997E-07 3.02660E-06-7.91693E-14 3.20559E-13
 -1       990 1.65213E+01 1.19231E+00 2.14211E-04 1.55489E+00-8.98593E-14 6.90668E-14
 -1       991 1.48069E+01 1.41892E+00 9.36528E-03 6.72742E-02-1.50259E-14 3.21734E-13
 -1       992 1.77541E+01 1.28245E+00 5.94721E-05 8.95763E-01 5.62686E-14 1.30783E-13
 -1       993 1.88413E+01-2.53335E-01 9.90489E-03-2.06942E+00 1.98627E-13-2.16240E-13
 -1       994 1.87851E+01 1.73841E-01-1.46298E-03-1.56877E+00 1.51253E-13-1.43787E-13
 -1       995 1.88699E+01 4.36920E-01-7.06412E-05-1.16706E+00 4.09056E-14-2.28482E-13
 -1       996 1.90123E+01 5.64257E-01-5.82708E-05-8.68378E-01-3.10180E-14-2.56982E-13
 -1       997 1.91690E+01 6.07505E-01-6.69186E-05-6.44339E-01-6.46683E-14-2.83033E-13
 -1       998 1.93225E+01 5.95032E-01-4.03114E-05-4.77709E-01-2.66022E-14-1.19076E-13
 -1       999 1.94622E+01 5.49485E-01-3.87340E-05-3.53709E-01 8.84727E-14-1.16209E-13
 -1      1000 1.95836E+01 4.86379E-01-3.68850E-05-2.61257E-01 7.06532E-14-1.44678E-13
 -1      1001 1.96855E+01 4.16492E-01-3.40548E-05-1.92257E-01 7.59608E-14-1.32326E-13
 -1      1002 1.97686E+01 3.46971E-01-3.04554E-05-1.40732E-01 4.60524E-14-5.45910E-14
 -1      1003 1.98345E+01 2.82207E-01-2.64346E-05-1.02264E-01 9.38553E-14-3.29271E-13
 -1      1004 1.98856E+01 2.24583E-01-2.23327E-05-7.35863E-02 4.84123E-14-2.09581E-13
 -1      1005 1.99242E+01 1.75076E-01-1.84120E-05-5.22736E-02 3.13604E-15-1.98047E-13
 -1      1006 1.99526E+01 1.33741E-01-1.48428E-05-3.65142E-02 7.68303E-14-2.59111E-13
 -1      1007 1.99729E+01 1.00064E-01-1.17156E-05-2.49459E-02 1.93600E-13-3.47214E-13
 -1      1008 1.99870E+01 7.32241E-02-9.06001E-06-1.65379E-02 1.55992E-13-1.84441E-13
 -1      1009 1.99964E+01 5.22701E-02-6.86429E-06-1.05058E-02-3.64483E-14-1.64952E-13
 -1      1010 2.00023E+01 3.62378E-02-5.09108E-06-6.25057E-03-1.64151E-13-1.22461E-13
 -1      1011 2.00058E+01 2.42206E-02-3.68974E-06-3.31365E-03-2.05587E-13-8.00863E-14
 -1      1012 2.00075E+01 1.54076E-02-2.60492E-06-1.34474E-03-5.61477E-14-1.10716E-13
 -1      1013 2.00080E+01 9.09976E-03-1.78222E-06-7.70016E-05 1.74752E-13-1.86438E-13
 -1      1014 2.00078E+01 4.71197E-03-1.17171E-06 6.91568E-04 4.35597E-13-1.93795E-13
 -1      1015 2.00071E+01 1.76623E-03-7.29982E-07 1.11253E-03 1.32235E-13-1.61341E-13
 -1      1016 2.00063E+01-1.19604E-04-4.21382E-07 1.29831E-03 1.53887E-13 3.81442E-14
 -1      1017 2.00053E+01-1.24511E-03-2.15121E-07 1.33105E-03 4.27761E-14-1.34223E-13
 -1      1018 2.00044E+01-1.84070E-03-5.99153E-08 1.26963E-03-2.57006E-14 2.73507E-14
 -1      1019 2.00035E+01-2.08034E-03 5.13861E-08 1.15611E-03-6.31690E-14 1.67433E-13
 -1      1020 2.00027E+01-2.09441E-03 2.29518E-07 1.01727E-03-2.74744E-13 4.34534E-13
 -1      1021 2.00020E+01-1.97693E-03 7.65299E-07 8.76126E-04-4.19023E-13 5.59073E-13
 -1      1022 1.80148E+01-1.79430E-01 3.35642E-03-2.46164E+00 1.67494E-13 7.12104E-16
 -1      1023 1.98343E+01 3.01755E-01-5.46452E-05 1.16720E-01-1.50297E-13-5.04098E-14
 -1      1024 1.97580E+01 3.83281E-01-7.03849E-05 1.47729E-01-1.11383E-13 1.54492E-14
 -1      1025 1.99298E+01 1.78914E-01-3.17906E-05 6.74336E-02 1.31873E-13 4.61599E-14
 -1      1026 1.99579E+01 1.34568E-01-2.37574E-05 4.92665E-02 1.31682E-13 1.37361E-14
 -1      1027 1.99773E+01 9.94735E-02-1.74758E-05 3.49466E-02 1.19563E-13 3.45539E-14
 -1      1028 1.99903E+01 7.21118E-02-1.26261E-05 2.39417E-02 2.15732E-14 3.56432E-14
 -1      1029 1.99986E+01 5.11030E-02-8.93195E-06 1.56923E-02 1.61740E-13-1.86653E-13
 -1      1030 2.00037E+01 3.52297E-02-6.15865E-06 9.66548E-03-8.01219E-14 1.86011E-14
 -1      1031 2.00065E+01 2.34435E-02-4.10938E-06 5.38504E-03 3.58143E-15 2.99264E-14
 -1      1032 2.00077E+01 1.48607E-02-2.62190E-06 2.44362E-03-5.10714E-14 9.58537E-14
 -1      1033 2.00079E+01 8.74964E-03-1.56432E-06 5.04574E-04 1.13397E-13-2.23060E-14
 -1      1034 2.00075E+01 4.51502E-03-8.30903E-07-7.02517E-04 1.57833E-13-1.52273E-13
 -1      1035 2.00068E+01 1.68010E-03-3.37715E-07-1.38949E-03 7.60902E-15-6.17505E-14
 -1      1036 2.00059E+01-1.30978E-04-1.84697E-08-1.71848E-03 4.02042E-14-2.17297E-13
 -1      1037 2.00050E+01-1.21004E-03 1.80477E-07-1.81071E-03-2.92209E-13-1.46854E-13
 -1      1038 2.00040E+01-1.78016E-03 3.38673E-07-1.75435E-03-8.50967E-14 8.46192E-14
 -1      1039 2.00032E+01-2.00776E-03 3.77558E-07-1.61207E-03 1.21381E-13 2.10424E-13
 -1      1040 2.00025E+01-2.01811E-03 7.04576E-07-1.43110E-03 2.79478E-13 1.20102E-13
 -1      1041 2.00018E+01-1.90431E-03 4.90715E-07-1.23395E-03 3.34087E-13 4.11053E-14
 -1      1042 1.95150E+01 5.91486E-01-1.12598E-04 2.17449E-01 9.30456E-14 1.12024E-13
 -1      1043 1.98899E+01 2.34111E-01-4.19444E-05 8.98633E-02 1.24572E-13 7.53306E-14
 -1      1044 1.71855E+01 1.29573E+00-3.85870E-04 1.15683E+00-4.45265E-14 2.17261E-13
 -1      1045 1.87549E+01 1.00076E+00-2.12644E-04 2.95022E-01 7.21116E-14 2.36659E-13
 -1      1046 1.60525E+01 9.31134E-01 1.89883E-03-1.56473E+00 1.85845E-13 1.72859E-13
 -1      1047 1.93290E+01 7.17706E-01-1.37953E-04 2.51172E-01 8.60214E-14 7.35787E-14
 -1      1048 1.90820E+01 8.55866E-01-1.64925E-04 2.78778E-01 7.49725E-14 1.60400E-13
 -1      1049 1.96543E+01 4.79742E-01-8.96604E-05 1.81938E-01 2.13432E-14 1.88104E-13
 -1      1050 2.00016E+01-1.86210E-03-4.73492E-07 5.20680E-04-4.48017E-13 6.73979E-13
 -1      1051 1.55405E+01 1.37395E+00 5.78835E-03 9.38022E-01-6.72034E-14 2.75982E-13
 -1      1052 1.83243E+01 1.14313E+00-6.40642E-05 2.92143E-01-2.45805E-14 2.17031E-13
 -1      1053 2.00021E+01-2.04116E-03-1.11962E-06-3.25128E-04 4.29376E-14 2.93600E-14
 -1      1054 1.77320E+01 1.28669E+00 1.42901E-03 2.78367E-01 6.70773E-14 2.11138E-13
 -1      1055 1.59865E+01 1.31279E+00-2.02246E-03-5.91899E-01 5.49540E-14 1.28613E-13
 -1      1056 2.00021E+01-1.99808E-03-4.79625E-07-7.88612E-04 1.88676E-13-2.22835E-14
 -1      1057 1.81903E+01 6.84052E-01 1.34256E-03-1.16972E+00 2.17603E-14-1.18016E-13
 -1      1058 1.84889E+01 7.84311E-01 6.51956E-04-8.14626E-01-8.70682E-15-1.23494E-13
 -1      1059 1.87833E+01 7.88390E-01 1.56324E-05-5.63153E-01 8.80223E-15-1.10694E-13
 -1      1060 1.90356E+01 7.46262E-01-1.21148E-04-3.89301E-01-2.09459E-14-4.52478E-14
 -1      1061 1.92481E+01 6.76439E-01-9.99004E-05-2.67287E-01 6.90047E-14 8.09744E-14
 -1      1062 1.94238E+01 5.92542E-01-7.58587E-05-1.82589E-01 1.12756E-13 1.55035E-13
 -1      1063 1.95667E+01 5.04712E-01-5.54540E-05-1.24213E-01 9.23807E-14 6.50528E-14
 -1      1064 1.96807E+01 4.19688E-01-3.84923E-05-8.41889E-02 4.70617E-14 4.06309E-14
 -1      1065 1.97701E+01 3.41578E-01-2.48907E-05-5.68475E-02-1.58962E-13 6.65511E-14
 -1      1066 1.98389E+01 2.72545E-01-1.44613E-05-3.82128E-02 2.67565E-15-1.18896E-13
 -1      1067 1.98908E+01 2.13378E-01-6.83539E-06-2.55269E-02 1.26863E-13-1.39913E-13
 -1      1068 1.99292E+01 1.63953E-01-1.54321E-06-1.68953E-02 1.00963E-13 1.39747E-14
 -1      1069 1.99570E+01 1.23584E-01 1.90175E-06-1.10256E-02 1.07202E-14 2.11099E-13
 -1      1070 1.99765E+01 9.12773E-02 3.94858E-06-7.04021E-03 2.27708E-13 6.52115E-14
 -1      1071 1.99898E+01 6.59170E-02 4.98227E-06-4.34404E-03 2.50082E-13-1.39983E-13
 -1      1072 1.99985E+01 4.63813E-02 5.31560E-06-2.53298E-03-9.75901E-14-1.40369E-13
 -1      1073 2.00038E+01 3.16179E-02 5.19179E-06-1.33135E-03-1.87154E-13-9.87269E-14
 -1      1074 2.00068E+01 2.06841E-02 4.79274E-06-5.49872E-04 7.62874E-15-8.82039E-14
 -1      1075 2.00081E+01 1.27643E-02 4.24925E-06-5.75689E-05 1.41850E-13 2.93652E-13
 -1      1076 2.00084E+01 7.17219E-03 3.65145E-06 2.36874E-04 1.84726E-13 1.59007E-13
 -1      1077 2.00080E+01 3.34384E-03 3.05822E-06 3.97512E-04 1.38491E-13-8.11461E-14
 -1      1078 2.00072E+01 8.25422E-04 2.50554E-06 4.69440E-04 1.31590E-13-8.27717E-14
 -1      1079 2.00063E+01-7.41414E-04 2.01571E-06 4.84435E-04-3.21778E-14-1.14074E-13
 -1      1080 2.00053E+01-1.63454E-03 1.61771E-06 4.64940E-04-1.66062E-15-2.65535E-13
 -1      1081 2.00043E+01-2.06479E-03 1.47000E-06 4.26789E-04 4.25073E-14-2.80464E-13
 -1      1082 2.00034E+01-2.18771E-03-1.45404E-06 3.80199E-04 4.21177E-14-2.05836E-13
 -1      1083 2.00026E+01-2.13190E-03 3.89538E-07 3.28462E-04-2.20484E-13-2.58109E-14
 -1      1084 1.74711E+01 6.27388E-01-1.25273E-03-1.59259E+00 1.18049E-13 8.28358E-14
 -1      1085 1.99578E+01 1.25935E-01 2.05878E-05 2.36509E-02 1.62148E-13 1.66954E-13
 -1      1086 1.99296E+01 1.67966E-01 2.79249E-05 3.19003E-02 1.49440E-13 2.25418E-13
 -1      1087 1.99905E+01 6.67409E-02 1.01007E-05 1.16274E-02 5.12904E-14 2.48873E-14
 -1      1088 1.99989E+01 4.68913E-02 6.63445E-06 7.60223E-03-1.28299E-13-2.39037E-14
 -1      1089 2.00041E+01 3.19516E-02 4.09154E-06 4.63643E-03-1.43112E-13 3.03518E-14
 -1      1090 2.00069E+01 2.09173E-02 2.28228E-06 2.52216E-03-3.26549E-14 2.04786E-13
 -1      1091 2.00081E+01 1.29374E-02 1.03891E-06 1.07010E-03 2.60544E-13-2.21752E-13
 -1      1092 2.00084E+01 7.30640E-03 2.20214E-07 1.17761E-04 9.52643E-14-1.77861E-13
 -1      1093 2.00079E+01 3.45037E-03-2.88046E-07-4.68408E-04 1.15564E-13-1.54421E-13
 -1      1094 2.00071E+01 9.10434E-04-5.74535E-07-7.94479E-04 3.59387E-14-1.52049E-13
 -1      1095 2.00062E+01-6.74062E-04-7.04114E-07-9.42280E-04-1.35569E-13-1.82390E-13
 -1      1096 2.00052E+01-1.58212E-03-7.31548E-07-9.73391E-04-1.85226E-13-3.57217E-13
 -1      1097 2.00042E+01-2.02737E-03-9.07271E-07-9.33530E-04-8.70896E-14-4.21691E-13
 -1      1098 2.00033E+01-2.16849E-03-1.23200E-06-8.47545E-04 1.23615E-13-3.85701E-13
 -1      1099 2.00026E+01-2.10900E-03-1.66168E-06-8.22582E-04 2.74410E-13-3.28912E-13
 -1      1100 1.84800E+01 1.03390E+00-3.65772E-04-7.90151E-02-9.21855E-15 8.57142E-14
 -1      1101 1.93613E+01 6.66126E-01 8.07628E-05 7.13251E-02 5.17159E-14 1.59331E-13
 -1      1102 1.88527E+01 9.13921E-01 7.59960E-05 5.14055E-03 1.30159E-13 8.04773E-14
 -1      1103 1.99773E+01 9.26575E-02 1.46899E-05 1.69195E-02 3.34016E-14 4.27916E-14
 -1      1104 1.91396E+01 7.88472E-01 8.25894E-05 5.08512E-02 2.38586E-13 1.23409E-13
 -1      1105 1.97615E+01 3.60202E-01 5.74115E-05 6.28538E-02-9.50612E-14 1.19423E-13
 -1      1106 2.00028E+01-2.16918E-03 1.66898E-06-2.85187E-04-8.26606E-14-2.63487E-13
 -1      1107 1.71373E+01 1.05359E+00 3.61869E-04-9.63401E-01-3.69106E-14 8.68375E-14
 -1      1108 1.95320E+01 5.52157E-01 7.59476E-05 7.60990E-02 1.19861E-14 1.53985E-13
 -1      1109 1.80140E+01 1.12236E+00-3.68807E-03-2.18119E-01-6.05405E-14 1.01261E-13
 -1      1110 1.65079E+01 1.39859E+00-1.79398E-03 6.54824E-01-5.83843E-14 2.13569E-13
 -1      1111 1.98900E+01 2.20171E-01 3.67098E-05 4.15598E-02 1.24249E-13 1.45883E-13
 -1      1112 1.98355E+01 2.83889E-01 4.67294E-05 5.21963E-02-6.96212E-14 9.07920E-14
 -1      1113 1.69569E+01 1.38873E+00 5.86982E-03 2.34111E-01 1.85247E-14 2.08316E-13
 -1      1114 1.96626E+01 4.49700E-01 6.76792E-05 7.17846E-02 3.06664E-14 1.63442E-13
 -1      1115 1.61702E+01 1.40097E+00 5.65514E-03 5.52714E-02 1.13634E-14 2.33471E-13
 -1      1116 1.79475E+01 1.02720E+00 1.00965E-03-5.89923E-01-3.39069E-14 2.23213E-14
 -1      1117 3.20826E+01 1.04296E+01 2.68245E+00-7.60950E+00-1.00475E-13 2.82263E-12
 -1      1118 2.33191E+01 7.07291E+00 2.57235E-01-4.34029E+00-4.93217E-14 2.82267E-13
 -1      1119 2.17862E+01 6.57395E+00 1.26984E-01-3.03789E+00-3.20993E-14-7.31269E-13
 -1      1120 2.09889E+01 6.34082E+00 1.47115E-01-1.99526E+00-1.79995E-14-1.15724E-12
 -1      1121 2.01953E+01 6.11088E+00 1.74282E-01-9.31966E-01-8.38218E-15-1.34316E-12
 -1      1122 1.91042E+01 5.78414E+00 1.76225E-01 1.40824E-01-1.69309E-15-1.39980E-12
 -1      1123 1.75727E+01 5.31182E+00 1.33320E-01 1.10988E+00 3.16414E-15-1.41341E-12
 -1      1124 1.56703E+01 4.71268E+00 3.85806E-02 1.77291E+00 6.18949E-15-1.42474E-12
 -1      1125 1.37808E+01 4.10828E+00-8.64905E-02 1.91699E+00 6.99441E-15-1.44296E-12
 -1      1126 1.25005E+01 3.69241E+00-1.92427E-01 1.49487E+00 8.16014E-15-1.45244E-12
 -1      1127 1.23869E+01 3.64739E+00-2.28906E-01 7.23980E-01 8.72913E-15-1.41830E-12
 -1      1128 1.36329E+01 4.03639E+00-1.78208E-01 2.32610E-02 1.10745E-14-1.31472E-12
 -1      1129 1.59940E+01 4.77709E+00-7.03562E-02-2.38428E-01 1.52101E-14-1.12223E-12
 -1      1130 1.90218E+01 5.72136E+00 4.93269E-02 1.11146E-01 2.03171E-14-7.94524E-13
 -1      1131 2.23430E+01 6.75266E+00 1.65822E-01 1.07185E+00 2.99205E-14-2.21781E-13
 -1      1132 2.60820E+01 7.93697E+00 3.74465E-01 2.76055E+00 4.05231E-14 8.66335E-13
 -1      1133 3.33193E+01 1.05759E+01 1.93348E+00 5.98944E+00 9.75331E-14 3.12564E-12
 -1      1134 3.32739E+01 4.15894E+00 1.48849E+00-4.81747E+00-4.02872E-13 4.41591E-12
 -1      1135 2.34431E+01-1.76245E-01-6.54383E-01-1.25180E-01-1.32901E-13 3.50459E-12
 -1      1136 2.14561E+01-7.31070E-02-2.13367E-01 5.04479E-02-4.97623E-14 2.24634E-12
 -1      1137 2.02914E+01-2.76867E-02-2.60118E-02 6.28662E-03-3.26848E-14 1.39413E-12
 -1      1138 1.91548E+01-2.13461E-02-6.87722E-03-2.10467E-02-1.08895E-14 8.77545E-13
 -1      1139 1.81017E+01-3.54676E-02-3.68510E-02-2.81236E-02-1.38253E-14 5.37494E-13
 -1      1140 1.73390E+01-5.25809E-02-6.99710E-02-1.65429E-02-3.48636E-15 2.71446E-13
 -1      1141 1.70795E+01-5.92304E-02-8.41323E-02 7.68881E-03-1.55622E-14-1.23799E-14
 -1      1142 1.74121E+01-4.90709E-02-7.10601E-02 3.37002E-02 1.03476E-15-2.55084E-13
 -1      1143 1.82414E+01-2.57807E-02-3.71421E-02 5.07998E-02-2.02017E-14-4.70526E-13
 -1      1144 1.93303E+01 4.89445E-04 1.90549E-03 5.39527E-02-6.16812E-15-6.87853E-13
 -1      1145 2.04070E+01 2.03506E-02 3.14627E-02 4.51358E-02 1.99400E-14-6.38538E-13
 -1      1146 2.12667E+01 2.97445E-02 4.50687E-02 3.03055E-02-3.13334E-15-7.37584E-13
 -1      1147 2.18154E+01 2.98288E-02 4.44523E-02 1.53224E-02-1.56342E-15-7.36534E-13
 -1      1148 2.20572E+01 2.42400E-02 3.53675E-02 3.67750E-03-4.16984E-15-8.76637E-13
 -1      1149 2.20542E+01 1.65930E-02 2.35245E-02-3.64160E-03-2.31052E-14-9.49535E-13
 -1      1150 2.18876E+01 9.31312E-03 1.26497E-02-7.20547E-03-8.97774E-15-1.17607E-12
 -1      1151 2.16322E+01 3.55386E-03 4.37677E-03-8.15110E-03-2.04947E-15-1.29527E-12
 -1      1152 2.13452E+01-4.18717E-04-1.06920E-03-7.57475E-03-3.39496E-15-1.47347E-12
 -1      1153 2.10646E+01-2.80741E-03-4.14636E-03-6.29438E-03 5.71375E-17-1.37083E-12
 -1      1154 2.08123E+01-3.98635E-03-5.50951E-03-4.82801E-03-5.53388E-14-1.29083E-12
 -1      1155 2.05981E+01-4.33611E-03-5.76413E-03-3.45779E-03-1.15268E-14-1.04979E-12
 -1      1156 2.04241E+01-4.17286E-03-5.37912E-03-2.30857E-03-1.84485E-14-9.73610E-13
 -1      1157 2.02879E+01-3.73076E-03-4.68041E-03-1.41243E-03-4.78349E-14-9.35292E-13
 -1      1158 2.01849E+01-3.16919E-03-3.87617E-03-7.53218E-04 1.23575E-14-1.04444E-12
 -1      1159 2.01095E+01-2.58849E-03-3.08839E-03-2.94077E-04 3.14211E-14-9.13521E-13
 -1      1160 2.00561E+01-2.04620E-03-2.38079E-03 7.06921E-06 9.55589E-15-7.91326E-13
 -1      1161 2.00198E+01-1.57093E-03-1.78001E-03 1.89695E-04-3.16969E-15-7.19988E-13
 -1      1162 1.99965E+01-1.17274E-03-1.29062E-03 2.87362E-04-4.43406E-14-7.72771E-13
 -1      1163 1.99824E+01-8.50693E-04-9.05119E-04 3.26875E-04 8.02064E-15-7.46358E-13
 -1      1164 1.99751E+01-5.97870E-04-6.10257E-04 3.28669E-04-1.49442E-14-9.08666E-13
 -1      1165 1.99722E+01-4.04691E-04-3.90937E-04 3.07720E-04-5.56985E-14-8.33895E-13
 -1      1166 1.99722E+01-2.60909E-04-2.32394E-04 2.74594E-04-3.15058E-14-9.20675E-13
 -1      1167 1.99740E+01-1.56764E-04-1.21329E-04 2.36448E-04-5.05311E-14-8.24856E-13
 -1      1168 1.99768E+01-8.35705E-05-4.63826E-05 1.97896E-04 4.68477E-15-9.22465E-13
 -1      1169 1.99799E+01-3.39491E-05 1.78245E-06 1.61712E-04 5.81677E-14-8.91648E-13
 -1      1170 1.99831E+01-1.84179E-06 3.06112E-05 1.29390E-04 4.54271E-14-9.18372E-13
 -1      1171 1.99861E+01 1.75848E-05 4.58865E-05 1.01562E-04 4.69528E-15-1.17295E-12
 -1      1172 1.99888E+01 2.80947E-05 5.19956E-05 7.83046E-05 5.17202E-14-9.87243E-13
 -1      1173 1.99912E+01 3.25563E-05 5.21951E-05 5.93649E-05 1.45075E-15-9.23275E-13
 -1      1174 1.99932E+01 3.31133E-05 4.88528E-05 4.43091E-05-4.46104E-14-1.17985E-12
 -1      1175 1.99949E+01 3.13411E-05 4.36626E-05 3.26232E-05-8.13976E-15-1.62750E-12
 -1      1176 1.99962E+01 2.83842E-05 3.78335E-05 2.37713E-05 5.24743E-14-1.57608E-12
 -1      1177 1.99973E+01 2.50766E-05 3.22594E-05 1.72164E-05-9.10528E-15-8.80591E-13
 -1      1178 1.99982E+01 2.20300E-05 2.76805E-05 1.23961E-05 2.24490E-14-7.49336E-13
 -1      1179 1.99989E+01 1.96784E-05 2.47826E-05 8.65628E-06 3.42699E-14-2.89885E-13
 -1      1180 1.99994E+01 1.82698E-05 2.40035E-05 5.06580E-06 1.37102E-14-5.76534E-13
 -1      1181 1.99997E+01 1.72994E-05 2.40870E-05 2.99982E-08 1.84533E-14-2.14783E-14
 -1      1182 1.99998E+01 1.74912E-05 1.67742E-05-9.48335E-06 2.21893E-14 2.52267E-13
 -1      1183 1.99998E+01-8.83770E-06-1.95009E-05-8.59810E-06 5.26172E-14 2.91863E-13
 -1      1184 3.69899E+01 6.60803E-01 2.46612E-01 2.16204E+00-4.76633E-14 5.03092E-12
 -1      1185 3.04211E+01-1.77795E-02-5.47836E-01 2.82245E-02 3.83756E-14 4.03433E-12
 -1      1186 2.99567E+01 5.97603E-02-2.04446E-02-5.77081E-02 3.28935E-14 3.11193E-12
 -1      1187 2.90405E+01 1.02986E-01 1.91381E-01-3.48269E-02 1.33496E-14 2.53177E-12
 -1      1188 2.68442E+01 6.81950E-02 1.96447E-01 4.82804E-02-5.12784E-15 2.21667E-12
 -1      1189 2.33388E+01-4.57564E-02 1.16535E-02 1.65159E-01-3.84675E-16 1.83364E-12
 -1      1190 1.96892E+01-1.57220E-01-2.64803E-01 2.23941E-01-4.36769E-14 1.63808E-12
 -1      1191 1.78530E+01-1.58945E-01-4.08469E-01 1.44754E-01 9.67976E-16 1.24780E-12
 -1      1192 1.89481E+01-6.37371E-02-2.94003E-01-2.74259E-02 1.66412E-14 5.14977E-13
 -1      1193 2.21092E+01 2.89588E-02-4.50075E-02-1.59551E-01 1.16370E-14 1.89404E-13
 -1      1194 2.53747E+01 6.43548E-02 1.37297E-01-1.79958E-01 6.06121E-14-1.00253E-13
 -1      1195 2.73486E+01 5.67955E-02 1.79928E-01-1.22444E-01 3.57717E-14-1.29369E-13
 -1      1196 2.77981E+01 3.50408E-02 1.32908E-01-5.17804E-02 3.02536E-14-9.37479E-14
 -1      1197 2.71815E+01 1.54538E-02 6.64384E-02-2.26320E-03-6.46401E-15-1.52729E-13
 -1      1198 2.60606E+01 2.48543E-03 1.72013E-02 2.20787E-02-1.25476E-14-4.04995E-13
 -1      1199 2.48339E+01-4.42703E-03-9.12107E-03 2.92906E-02 5.10062E-14-5.88272E-13
 -1      1200 2.37115E+01-7.31499E-03-1.91805E-02 2.78259E-02-3.19957E-14-7.69010E-13
 -1      1201 2.27727E+01-7.91448E-03-2.05852E-02 2.31511E-02 6.38432E-15-6.50098E-13
 -1      1202 2.20270E+01-7.38682E-03-1.83476E-02 1.79927E-02 4.03182E-14-8.36220E-13
 -1      1203 2.14536E+01-6.40633E-03-1.50641E-02 1.34445E-02-5.97287E-15-5.61605E-13
 -1      1204 2.10223E+01-5.32555E-03-1.18590E-02 9.79932E-03-2.54026E-14-3.72373E-13
 -1      1205 2.07033E+01-4.30925E-03-9.11961E-03 7.01696E-03-4.47192E-14-5.41294E-14
 -1      1206 2.04708E+01-3.42177E-03-6.91256E-03 4.94977E-03 1.72153E-14-2.98755E-13
 -1      1207 2.03038E+01-2.67774E-03-5.18533E-03 3.43850E-03-7.12820E-15-6.00497E-13
 -1      1208 2.01859E+01-2.06938E-03-3.85405E-03 2.34567E-03 2.49924E-14-4.90045E-13
 -1      1209 2.01043E+01-1.58031E-03-2.83697E-03 1.56272E-03-2.78118E-14-8.02924E-14
 -1      1210 2.00492E+01-1.19219E-03-2.06484E-03 1.00727E-03-2.51879E-14 4.85729E-14
 -1      1211 2.00132E+01-8.87554E-04-1.48220E-03 6.17997E-04 1.22782E-14-3.07727E-13
 -1      1212 1.99910E+01-6.50968E-04-1.04559E-03 3.49580E-04-1.46657E-15-3.53255E-13
 -1      1213 1.99782E+01-4.69219E-04-7.21252E-04 1.68570E-04 9.61372E-15-4.72163E-13
 -1      1214 1.99720E+01-3.31234E-04-4.82961E-04 5.02847E-05 3.65448E-14-9.25288E-13
 -1      1215 1.99700E+01-2.27845E-04-3.10309E-04-2.34917E-05 4.96170E-14-9.25758E-13
 -1      1216 1.99708E+01-1.51535E-04-1.87398E-04-6.61794E-05-1.43956E-14-3.30479E-13
 -1      1217 1.99730E+01-9.61907E-05-1.01838E-04-8.76211E-05-8.15902E-15-2.45795E-13
 -1      1218 1.99761E+01-5.68883E-05-4.40083E-05-9.49804E-05-1.02107E-14-3.80638E-13
 -1      1219 1.99795E+01-2.96955E-05-6.46914E-06-9.34117E-05-1.60190E-14-2.55067E-13
 -1      1220 1.99829E+01-1.15057E-05 1.64835E-05-8.65652E-05 7.72970E-14-3.59965E-13
 -1      1221 1.99860E+01 1.09374E-07 2.91816E-05-7.69721E-05 6.00398E-14-3.97040E-13
 -1      1222 1.99887E+01 7.02671E-06 3.48770E-05-6.63397E-05 8.95937E-14-7.99574E-13
 -1      1223 1.99911E+01 1.06822E-05 3.59798E-05-5.57771E-05-4.33456E-14-5.53795E-13
 -1      1224 1.99932E+01 1.21653E-05 3.42545E-05-4.59678E-05-9.21519E-15 3.41725E-14
 -1      1225 1.99949E+01 1.23012E-05 3.09844E-05-3.73009E-05-3.12574E-14 7.30834E-13
 -1      1226 1.99962E+01 1.17261E-05 2.71168E-05-2.99706E-05 6.02720E-14 1.01077E-12
 -1      1227 1.99973E+01 1.09535E-05 2.34047E-05-2.40435E-05-2.89053E-14 1.10130E-12
 -1      1228 1.99982E+01 1.04139E-05 2.05366E-05-1.94812E-05 1.14514E-13 3.20206E-13
 -1      1229 1.99989E+01 1.04318E-05 1.92055E-05-1.61068E-05 8.30033E-14-5.59961E-13
 -1      1230 1.99994E+01 1.12455E-05 1.99549E-05-1.34741E-05-7.65103E-14-8.16045E-13
 -1      1231 1.99997E+01 1.20946E-05 2.14014E-05-1.00566E-05 1.29533E-13-1.60366E-12
 -1      1232 1.99998E+01 7.79502E-06 1.40770E-05-1.86032E-06 3.86482E-14-1.81940E-12
 -1      1233 1.99998E+01-7.62432E-06-1.98889E-05 7.80225E-06-8.16353E-14-1.00918E-12
 -1      1234 1.99998E+01 2.28743E-05-1.83022E-05 7.77285E-06-8.75169E-13-1.43002E-14
 -1      1235 1.99998E+01 3.17170E-05 1.63281E-05 7.88643E-06-9.82137E-13-7.23337E-14
 -1      1236 1.99998E+01-1.26094E-04 2.01628E-05-4.32487E-06-7.63856E-13-1.64671E-14
 -1      1237 1.99998E+01-4.30099E-04 1.16318E-05-1.05838E-05-1.35209E-12-1.61295E-14
 -1      1238 1.99998E+01-8.09140E-04 7.72107E-07-1.26696E-05-1.22306E-12 5.06370E-14
 -1      1239 1.99998E+01-1.18752E-03-8.81441E-06-1.17631E-05-1.86513E-12 4.28293E-14
 -1      1240 1.99998E+01-1.50601E-03-1.60030E-05-9.04509E-06-9.70045E-13 3.12630E-13
 -1      1241 1.99998E+01-1.71896E-03-2.05602E-05-4.82982E-06-8.53552E-13-1.03849E-13
 -1      1242 1.99998E+01-1.79258E-03-2.20869E-05 3.52791E-08-7.82330E-13 5.99079E-14
 -1      1243 1.99998E+01-1.71659E-03-2.05076E-05 4.90020E-06 7.91252E-13-5.05109E-14
 -1      1244 1.99998E+01-1.50162E-03-1.58728E-05 9.09221E-06 2.33727E-14-1.85674E-13
 -1      1245 1.99998E+01-1.18170E-03-8.61051E-06 1.19407E-05-9.77872E-13-2.56681E-14
 -1      1246 1.99998E+01-8.03274E-04 8.94651E-07 1.26406E-05-8.95780E-13 4.55196E-14
 -1      1247 1.99998E+01-4.24885E-04 1.18067E-05 1.06894E-05-6.82503E-13 4.17992E-14
 -1      1248 1.99998E+01-1.17887E-04 2.13777E-05 5.28167E-06-6.95386E-13-1.28878E-13
 -1      1249 1.99998E+01 2.46051E-05 1.41585E-05-1.42189E-05-3.50618E-13-1.15603E-13
 -1      1250 1.99998E+01 2.59984E-05-1.82273E-05-9.11011E-06-2.13724E-13 8.01982E-14
 -1      1251-1.08871E+00-2.29213E+01-3.72720E+00-2.21611E+00 2.55546E-12 4.84144E-13
 -1      1252-1.82504E+00-1.46328E+01-3.19010E+00-3.91208E+00 4.26226E-12 1.60372E-12
 -1      1253 1.78935E-01-2.53638E+00-2.10260E+00-2.08665E-01 5.35838E-12 3.32301E-12
 -1      1254 8.86006E+00 7.50427E+00-5.17194E-01 8.09328E+00 4.83902E-12 4.42890E-12
 -1      1255 2.60674E+01 1.13175E+01 1.33057E+00 1.64283E+01 3.41926E-12 4.77751E-12
 -1      1256 4.84961E+01 8.21759E+00 3.13344E+00 1.83296E+01 1.65423E-12 3.69305E-12
 -1      1257 6.59889E+01 3.20232E+00 4.41719E+00 1.02894E+01 3.35058E-13 6.67799E-13
 -1      1258 6.90012E+01 2.03325E+00 4.61431E+00-3.24251E+00 3.62974E-13-2.75607E-12
 -1      1259 5.72696E+01 5.14775E+00 3.73103E+00-1.43463E+01 1.72351E-12-5.59153E-12
 -1      1260 3.71041E+01 9.20444E+00 2.08486E+00-1.70336E+01 3.66474E-12-7.03393E-12
 -1      1261 1.73251E+01 9.21041E+00 2.14744E-01-1.21967E+01 5.47562E-12-6.80345E-12
 -1      1262 3.73255E+00 3.04727E+00-1.52536E+00-3.62257E+00 6.42619E-12-5.29798E-12
 -1      1263-1.39296E+00-7.06059E+00-2.65825E+00 2.56665E+00 5.72253E-12-3.08620E-12
 -1      1264-1.55975E+00-1.59277E+01-3.19278E+00 3.65787E+00 3.54783E-12-1.18908E-12
 -1      1265-8.29140E-01-1.91636E+01-3.17953E+00 8.95684E-01 3.78253E-13-3.04604E-13
 -1      1266-9.06035E-01-1.57226E+01-2.89519E+00-2.16554E+00-2.88591E-12-7.28070E-13
 -1      1267-6.76017E-01-6.06170E+00-2.15444E+00-1.38612E+00-5.22560E-12-2.40780E-12
 -1      1268 3.43618E+00 4.15010E+00-1.19344E+00 4.06181E+00-6.23390E-12-4.53759E-12
 -1      1269 1.39987E+01 1.02617E+01 1.28688E-01 1.16915E+01-5.68701E-12-6.11911E-12
 -1      1270 3.09170E+01 1.05262E+01 1.62906E+00 1.70616E+01-4.03866E-12-6.54232E-12
 -1      1271 4.95094E+01 6.59261E+00 2.92095E+00 1.55400E+01-1.99984E-12-5.25469E-12
 -1      1272 6.30199E+01 2.32336E+00 3.80334E+00 6.58316E+00-5.01512E-13-2.68879E-12
 -1      1273 6.43390E+01 2.04103E+00 3.94548E+00-5.91778E+00-1.90566E-13 2.07001E-13
 -1      1274 5.39825E+01 5.83766E+00 3.36875E+00-1.53239E+01-9.13797E-13 2.65765E-12
 -1      1275 3.72366E+01 1.02891E+01 2.33665E+00-1.83974E+01-2.34635E-12 4.16800E-12
 -1      1276 1.99334E+01 1.15676E+01 9.69666E-01-1.46490E+01-3.98970E-12 4.84657E-12
 -1      1277 6.77024E+00 7.01335E+00-5.14744E-01-6.87731E+00-5.05684E-12 4.29234E-12
 -1      1278-4.16669E-02-3.10701E+00-1.95481E+00 4.43002E-01-4.77574E-12 2.80687E-12
 -1      1279-1.54618E+00-1.47185E+01-3.01030E+00 3.45419E+00-2.88525E-12 1.16668E-12
 -1      1280-1.02013E+00-2.27538E+01-3.68397E+00 1.80372E+00-2.25653E-13 2.46948E-13
 -1      1281 2.55883E+01 2.08111E+00-8.23775E-01-3.15592E+00-1.50685E-13 2.22378E-12
 -1      1282 2.30532E+01 5.21258E+00-4.83580E-02-3.71139E+00-3.56395E-13-1.99091E-13
 -1      1283 2.37378E+01 5.38490E+00-1.37864E-01-4.72684E+00-4.82669E-13 3.34885E-13
 -1      1284 2.19271E+01 5.36597E+00 1.06681E-03-2.81847E+00-3.11140E-13-9.17842E-13
 -1      1285 2.23542E+01 5.50676E+00-6.97797E-03-3.36237E+00-3.71425E-13-6.20011E-13
 -1      1286 2.32623E+01 4.17921E+00-3.01962E-02-3.51191E+00-6.05016E-13-1.22916E-13
 -1      1287 2.12383E+01 5.20777E+00 3.30904E-02-1.83686E+00-1.96669E-13-1.23903E-12
 -1      1288 2.15763E+01 5.32386E+00 1.74240E-02-2.34768E+00-2.51257E-13-1.10693E-12
 -1      1289 2.22464E+01 4.32034E+00-2.49889E-02-2.67676E+00-4.61749E-13-7.15934E-13
 -1      1290 2.04366E+01 4.93650E+00 4.70335E-02-7.93297E-01-8.34194E-14-1.36698E-12
 -1      1291 2.08720E+01 5.07628E+00 3.62738E-02-1.31927E+00-1.20327E-13-1.31636E-12
 -1      1292 2.15390E+01 4.15186E+00-1.62059E-02-1.70456E+00-2.65742E-13-9.90617E-13
 -1      1293 1.92559E+01 4.60981E+00 4.09227E-02 2.57919E-01 1.77497E-14-1.40519E-12
 -1      1294 1.99109E+01 4.80774E+00 5.36824E-02-2.49098E-01-1.36696E-14-1.39534E-12
 -1      1295 2.06494E+01 3.88812E+00-1.47342E-02-6.69786E-01-8.64777E-14-1.09808E-12
 -1      1296 1.75132E+01 4.28985E+00 1.02915E-02 1.21324E+00 1.08816E-13-1.41898E-12
 -1      1297 1.84623E+01 4.56766E+00 6.47983E-02 7.84732E-01 8.50986E-14-1.41897E-12
 -1      1298 1.92727E+01 3.67536E+00-1.91586E-02 3.87879E-01 8.39953E-14-1.15871E-12
 -1      1299 1.53423E+01 4.08281E+00-3.94207E-02 1.82925E+00 1.78385E-13-1.44155E-12
 -1      1300 1.64754E+01 4.40899E+00 5.89870E-02 1.59686E+00 1.59928E-13-1.43654E-12
 -1      1301 1.72714E+01 3.65432E+00-2.75625E-02 1.31876E+00 2.20345E-13-1.18494E-12
 -1      1302 1.32336E+01 4.06397E+00-8.52714E-02 1.89490E+00 2.04448E-13-1.47522E-12
 -1      1303 1.42542E+01 4.35398E+00 2.72659E-02 1.93596E+00 1.96662E-13-1.47131E-12
 -1      1304 1.48731E+01 3.90528E+00-3.17036E-02 1.86591E+00 3.16094E-13-1.23834E-12
 -1      1305 1.19549E+01 4.21805E+00-9.81255E-02 1.38862E+00 1.91489E-13-1.49285E-12
 -1      1306 1.24539E+01 4.35542E+00-2.72596E-02 1.67141E+00 1.91708E-13-1.49753E-12
 -1      1307 1.27159E+01 4.33398E+00-2.68951E-02 1.82068E+00 3.34451E-13-1.29301E-12
 -1      1308 1.21653E+01 4.44244E+00-6.84466E-02 5.93319E-01 1.52073E-13-1.45355E-12
 -1      1309 1.18522E+01 4.34683E+00-8.12838E-02 9.51097E-01 1.53454E-13-1.48929E-12
 -1      1310 1.16554E+01 4.67790E+00-2.23315E-02 1.22117E+00 2.91148E-13-1.31262E-12
 -1      1311 1.39296E+01 4.66159E+00-1.52723E-02-1.30228E-02 1.32505E-13-1.32014E-12
 -1      1312 1.28608E+01 4.34411E+00-1.03990E-01 2.02208E-01 1.21195E-13-1.39635E-12
 -1      1313 1.22823E+01 4.71891E+00-2.65867E-02 4.52162E-01 2.22919E-13-1.24968E-12
 -1      1314 1.68323E+01 4.91109E+00 3.01279E-02-8.75868E-02 1.66506E-13-1.08535E-12
 -1      1315 1.52632E+01 4.44725E+00-8.65443E-02-1.45262E-01 1.37668E-13-1.21311E-12
 -1      1316 1.45301E+01 4.50344E+00-3.81448E-02 4.57562E-03 2.12746E-13-1.06641E-12
 -1      1317 2.02057E+01 5.26026E+00 5.09830E-02 4.70418E-01 2.42223E-13-7.15993E-13
 -1      1318 1.84704E+01 4.74295E+00-4.94816E-02 1.16974E-01 2.02283E-13-9.25780E-13
 -1      1319 1.78263E+01 4.27286E+00-4.51431E-02 1.70127E-01 2.89338E-13-7.84987E-13
 -1      1320 2.37166E+01 5.69302E+00 6.05005E-02 1.57813E+00 3.32234E-13-7.92907E-14
 -1      1321 2.19272E+01 5.15969E+00-2.49856E-02 9.42142E-01 2.75890E-13-4.47538E-13
 -1      1322 2.15096E+01 4.18544E+00-3.91255E-02 9.19489E-01 4.05800E-13-3.45599E-13
 -1      1323 2.76467E+01 5.84564E+00 7.16105E-02 3.29287E+00 3.27016E-13 1.07800E-12
 -1      1324 2.55931E+01 5.38325E+00-2.91400E-02 2.20260E+00 3.05700E-13 3.77198E-13
 -1      1325 2.54089E+01 4.03451E+00-9.23659E-03 2.02384E+00 5.18113E-13 3.76657E-13
 -1      1326 3.61709E+01 3.88447E+00 1.09562E+00 4.70849E+00 1.79551E-13 3.31379E-12
 -1      1327 2.95412E+01 4.17028E+00-1.96347E-01 3.37698E+00 1.69365E-13 1.75759E-12
 -1      1328 2.95088E+01 2.72684E+00 1.25411E-02 2.71653E+00 5.52603E-13 1.43258E-12
 -1      1329 3.03646E+01 2.68654E-01-8.53280E-01 6.53107E-01 3.22374E-13 3.19814E-12
 -1      1330 2.52537E+01 1.01485E-01-4.57469E-01-1.54750E+00-4.18748E-13 2.40924E-12
 -1      1331 2.36414E+01 3.05075E-01-1.83507E-01-1.02056E+00-3.81292E-13 1.92431E-12
 -1      1332 2.28230E+01 1.19543E-01-7.71328E-02-6.70730E-01-3.03001E-13 1.75018E-12
 -1      1333 2.20009E+01 5.40460E-02-1.22024E-02-6.20499E-01-2.88158E-13 1.29229E-12
 -1      1334 2.37922E+01 3.27450E-01-1.09861E-01-1.76014E+00-6.60985E-13 1.00225E-12
 -1      1335 2.13429E+01 2.72523E-02 9.76036E-03-5.00761E-01-2.29142E-13 1.13724E-12
 -1      1336 2.07254E+01 1.55060E-02 1.84929E-02-5.04378E-01-2.05940E-13 8.33855E-13
 -1      1337 2.22269E+01 7.31614E-02-2.52800E-02-1.14286E+00-5.04811E-13 7.41374E-13
 -1      1338 2.02089E+01 1.46804E-02 1.89185E-02-4.58072E-01-1.50936E-13 6.99399E-13
 -1      1339 1.96624E+01 2.39141E-02 1.31645E-02-4.54248E-01-1.44967E-13 4.74102E-13
 -1      1340 2.11086E+01 2.01285E-02-1.28531E-03-9.54850E-01-3.50619E-13 4.82950E-13
 -1      1341 1.92438E+01 3.52838E-02 9.48161E-03-3.83152E-01-1.08255E-13 3.96103E-13
 -1      1342 1.88031E+01 5.18086E-02 3.69212E-03-3.61454E-01-1.08252E-13 2.53282E-13
 -1      1343 2.01898E+01 4.57568E-02-5.62521E-03-8.18917E-01-2.57228E-13 2.44270E-13
 -1      1344 1.85126E+01 6.48092E-02 7.75383E-05-2.31798E-01-9.77777E-14 1.70265E-13
 -1      1345 1.82660E+01 7.64169E-02-3.14759E-03-1.91963E-01-8.86487E-14 6.08120E-14
 -1      1346 1.94832E+01 9.53147E-02-1.59634E-02-5.77125E-01-2.04596E-13 6.63319E-14
 -1      1347 1.81502E+01 8.24672E-02-5.22505E-03-1.87009E-02-1.02827E-13-2.10562E-14
 -1      1348 1.81636E+01 8.09081E-02-5.77184E-03 2.87937E-02-9.06619E-14-1.59745E-13
 -1      1349 1.90742E+01 1.31404E-01-2.33866E-02-2.07981E-01-1.76928E-13-8.85320E-14
 -1      1350 1.82396E+01 7.60357E-02-5.85663E-03 1.99199E-01-7.27404E-14-2.31863E-13
 -1      1351 1.85096E+01 6.03658E-02-4.20474E-03 2.38734E-01-7.80487E-14-3.32512E-13
 -1      1352 1.90311E+01 1.30806E-01-2.32200E-02 2.12220E-01-1.77199E-13-2.39706E-13
 -1      1353 1.87431E+01 4.74333E-02-3.16977E-03 3.56265E-01-8.65879E-14-3.90722E-13
 -1      1354 1.91922E+01 2.38770E-02-1.89769E-04 3.76034E-01-8.47616E-14-5.03989E-13
 -1      1355 1.93374E+01 9.12358E-02-1.53069E-02 5.63152E-01-1.62259E-13-3.79867E-13
 -1      1356 1.95082E+01 9.98227E-03 3.73203E-04 4.14089E-01-7.17642E-14-5.31516E-13
 -1      1357 2.00178E+01-1.26666E-02 3.67552E-03 4.11804E-01-1.08984E-14-5.99208E-13
 -1      1358 1.98813E+01 3.02602E-02-3.82527E-03 7.50130E-01-1.20150E-13-4.46260E-13
 -1      1359 2.03330E+01-2.14500E-02 2.73007E-03 3.76297E-01-8.12024E-15-6.37067E-13
 -1      1360 2.07916E+01-3.69722E-02 5.62813E-03 3.58095E-01-1.66672E-14-6.39849E-13
 -1      1361 2.05021E+01-2.71167E-02 6.12140E-03 7.49376E-01-6.51820E-14-5.62578E-13
 -1      1362 2.10434E+01-3.87343E-02 3.25125E-03 2.76884E-01-2.83428E-14-6.67921E-13
 -1      1363 2.13799E+01-4.55055E-02 5.42390E-03 2.52048E-01 5.31259E-15-6.87735E-13
 -1      1364 2.10537E+01-6.33311E-02 1.16053E-02 6.04528E-01-4.95654E-14-6.58194E-13
 -1      1365 2.15383E+01-4.18856E-02 2.44369E-03 1.57212E-01 3.57960E-15-6.65469E-13
 -1      1366 2.17299E+01-4.17068E-02 3.89880E-03 1.33463E-01-2.21069E-14-6.73334E-13
 -1      1367 2.14464E+01-7.43982E-02 1.25689E-02 3.89939E-01 1.00354E-14-6.47550E-13
 -1      1368 2.17941E+01-3.56249E-02 1.18889E-03 4.87313E-02-4.34878E-14-6.96039E-13
 -1      1369 2.18548E+01-3.14997E-02 2.07422E-03 3.03125E-02-2.89035E-14-7.51649E-13
 -1      1370 2.16530E+01-6.65655E-02 1.05792E-02 1.73264E-01-6.82232E-14-6.19134E-13
 -1      1371 2.18417E+01-2.53760E-02 1.36441E-04-3.26247E-02-4.58002E-14-7.48272E-13
 -1      1372 2.18041E+01-1.99111E-02 6.08433E-04-4.45820E-02-6.04165E-14-8.31077E-13
 -1      1373 2.16918E+01-4.93683E-02 7.39857E-03-3.52440E-03-6.65904E-14-5.98727E-13
 -1      1374 2.17373E+01-1.50501E-02-4.62224E-04-8.37351E-02-9.47467E-14-8.40334E-13
 -1      1375 2.16380E+01-9.87701E-03-2.82408E-04-8.99633E-02-5.93308E-14-9.45070E-13
 -1      1376 2.16042E+01-3.06148E-02 4.25413E-03-1.24861E-01-1.08222E-13-6.16581E-13
 -1      1377 2.15406E+01-6.64161E-03-6.41799E-04-1.08843E-01-2.94527E-14-9.97829E-13
 -1      1378 2.14109E+01-2.50301E-03-6.66590E-04-1.10806E-01-6.52493E-14-1.05187E-12
 -1      1379 2.14364E+01-1.47304E-02 1.73803E-03-1.93206E-01-9.62008E-14-6.86000E-13
 -1      1380 2.13014E+01-7.20751E-04-5.53311E-04-1.14904E-01-5.26545E-14-1.05319E-12
 -1      1381 2.11644E+01 2.22096E-03-7.14805E-04-1.14100E-01 8.44345E-15-1.05753E-12
 -1      1382 2.12289E+01-3.26563E-03-3.94154E-06-2.19679E-01-6.15727E-14-8.24509E-13
 -1      1383 2.10558E+01 2.92317E-03-3.47632E-04-1.08783E-01 1.77073E-14-1.08759E-12
 -1      1384 2.09262E+01 4.80032E-03-5.89955E-04-1.06437E-01-4.21507E-14-1.10511E-12
 -1      1385 2.10121E+01 3.93655E-03-1.05692E-03-2.17394E-01-4.63491E-14-8.24446E-13
 -1      1386 2.08265E+01 4.80331E-03-1.28485E-04-9.60182E-02-9.32457E-15-1.08426E-12
 -1      1387 2.07124E+01 5.85384E-03-4.06306E-04-9.30056E-02 4.34554E-15-1.03738E-12
 -1      1388 2.08062E+01 7.75963E-03-1.58673E-03-1.97941E-01 7.89549E-15-8.50521E-13
 -1      1389 2.06259E+01 5.46472E-03 5.07908E-05-8.05505E-02 3.27025E-14-9.82278E-13
 -1      1390 2.05304E+01 5.93091E-03-2.28442E-04-7.74336E-02 6.27161E-14-8.64296E-13
 -1      1391 2.06227E+01 9.22191E-03-1.76008E-03-1.70112E-01 7.81388E-14-8.47374E-13
 -1      1392 2.04583E+01 5.36590E-03 1.72997E-04-6.49039E-02 1.56275E-14-8.62271E-13
 -1      1393 2.03817E+01 5.45141E-03-8.48979E-05-6.20064E-02-7.90416E-15-8.47911E-13
 -1      1394 2.04667E+01 9.20304E-03-1.71312E-03-1.39878E-01 6.47432E-14-8.15723E-13
 -1      1395 2.03238E+01 4.84739E-03 2.41122E-04-5.05202E-02 1.94572E-14-7.58969E-13
 -1      1396 2.02643E+01 4.70640E-03 1.73082E-05-4.80006E-02-1.62327E-15-7.75999E-13
 -1      1397 2.03391E+01 8.36207E-03-1.54523E-03-1.10887E-01 2.19239E-14-6.30243E-13
 -1      1398 2.02192E+01 4.14094E-03 2.66643E-04-3.80898E-02 3.81916E-14-7.53860E-13
 -1      1399 2.01746E+01 3.88189E-03 8.18830E-05-3.60006E-02 5.44245E-14-6.85843E-13
 -1      1400 2.02380E+01 7.14756E-03-1.32351E-03-8.50886E-02 2.96579E-14-4.74441E-13
 -1      1401 2.01405E+01 3.39234E-03 2.62679E-04-2.78212E-02 3.68368E-14-6.95625E-13
 -1      1402 2.01081E+01 3.08691E-03 1.16604E-04-2.61525E-02 5.34842E-14-6.59995E-13
 -1      1403 2.01602E+01 5.84055E-03-1.09016E-03-6.32888E-02 2.88301E-14-4.27956E-13
 -1      1404 2.00830E+01 2.68553E-03 2.40744E-04-1.96393E-02 2.56107E-14-6.82504E-13
 -1      1405 2.00603E+01 2.37802E-03 1.29782E-04-1.83487E-02 7.45051E-14-5.55831E-13
 -1      1406 2.01020E+01 4.60170E-03-8.69612E-04-4.55856E-02 4.30197E-14-4.29168E-13
 -1      1407 2.00424E+01 2.06266E-03 2.09653E-04-1.33214E-02 3.50825E-14-5.93589E-13
 -1      1408 2.00272E+01 1.77820E-03 1.28668E-04-1.23524E-02-8.13875E-14-6.15662E-13
 -1      1409 2.00598E+01 3.51108E-03-6.74358E-04-3.16784E-02 3.52232E-14-3.87855E-13
 -1      1410 2.00149E+01 1.53942E-03 1.75534E-04-8.58365E-03-4.02976E-14-5.96647E-13
 -1      1411 2.00052E+01 1.29029E-03 1.18952E-04-7.87739E-03 2.14298E-14-5.95642E-13
 -1      1412 2.00302E+01 2.59821E-03-5.09210E-04-2.10746E-02-4.65683E-14-4.91617E-13
 -1      1413 1.99972E+01 1.11576E-03 1.42277E-04-5.13399E-03-4.14409E-14-5.78264E-13
 -1      1414 1.99915E+01 9.06041E-04 1.04776E-04-4.63543E-03-7.60102E-15-5.96504E-13
 -1      1415 2.00102E+01 1.86296E-03-3.74363E-04-1.32197E-02-1.04086E-14-4.52915E-13
 -1      1416 1.99866E+01 7.83103E-04 1.12090E-04-2.70117E-03-3.48364E-14-5.62274E-13
 -1      1417 1.99837E+01 6.12013E-04 8.89654E-05-2.36211E-03-6.59003E-14-5.63730E-13
 -1      1418 1.99973E+01 1.28945E-03-2.67449E-04-7.57317E-03-3.29873E-14-4.03103E-13
 -1      1419 1.99810E+01 5.29036E-04 8.60112E-05-1.04849E-03-3.26387E-14-5.13471E-13
 -1      1420 1.99800E+01 3.93113E-04 7.33261E-05-8.28625E-04-5.19087E-14-5.11412E-13
 -1      1421 1.99897E+01 8.54869E-04-1.84881E-04-3.64846E-03-6.99947E-14-3.02931E-13
 -1      1422 1.99788E+01 3.40101E-04 6.43131E-05 2.16187E-05-3.53488E-14-5.24711E-13
 -1      1423 1.99791E+01 2.34666E-04 5.89102E-05 1.54847E-04-1.70063E-14-6.31061E-13
 -1      1424 1.99857E+01 5.34705E-04-1.22694E-04-1.02983E-03-4.91286E-14-1.61942E-13
 -1      1425 1.99788E+01 2.03425E-04 4.68093E-05 6.68567E-04-8.12077E-14-5.48994E-13
 -1      1426 1.99798E+01 1.23482E-04 4.62469E-05 7.40693E-04-4.01325E-14-6.31010E-13
 -1      1427 1.99842E+01 3.05694E-04-7.70320E-05 6.24405E-04 4.68386E-14-2.41745E-13
 -1      1428 1.99802E+01 1.07531E-04 3.30653E-05 1.01730E-03 5.66483E-15-5.51357E-13
 -1      1429 1.99816E+01 4.82912E-05 3.55179E-05 1.04784E-03 4.61896E-14-5.08148E-13
 -1      1430 1.99843E+01 1.47261E-04-4.44106E-05 1.58645E-03-5.81410E-14-3.26033E-13
 -1      1431 1.99823E+01 4.26642E-05 2.25401E-05 1.16325E-03-2.80039E-14-6.56212E-13
 -1      1432 1.99838E+01-1.74679E-07 2.66887E-05 1.16673E-03 4.94112E-14-6.55492E-13
 -1      1433 1.99853E+01 4.20606E-05-2.18307E-05 2.06733E-03 8.23664E-15-2.77363E-13
 -1      1434 1.99847E+01 8.24377E-07 1.46744E-05 1.17748E-03 9.76523E-15-8.08261E-13
 -1      1435 1.99862E+01-2.93160E-05 1.96012E-05 1.16448E-03-7.44989E-15-7.97105E-13
 -1      1436 1.99869E+01-2.40232E-05-6.80280E-06 2.22658E-03-5.90791E-14-6.41663E-13
 -1      1437 1.99871E+01-2.43652E-05 8.94222E-06 1.11158E-03 4.99859E-14-8.47145E-13
 -1      1438 1.99885E+01-4.48902E-05 1.40365E-05 1.08953E-03 2.39783E-14-8.13925E-13
 -1      1439 1.99887E+01-6.21462E-05 2.68122E-06 2.18178E-03-4.28818E-14-6.09616E-13
 -1      1440 1.99894E+01-3.78627E-05 4.87661E-06 1.00191E-03 6.35266E-14-6.84102E-13
 -1      1441 1.99906E+01-5.12743E-05 9.75578E-06 9.75906E-04 9.98564E-14-6.62361E-13
 -1      1442 1.99905E+01-8.09067E-05 8.20140E-06 2.01729E-03 7.40447E-14-3.30726E-13
 -1      1443 1.99915E+01-4.34390E-05 2.08024E-06 8.73237E-04-8.36370E-15-7.18706E-13
 -1      1444 1.99926E+01-5.17250E-05 6.52532E-06 8.46590E-04-1.40243E-13-8.46818E-13
 -1      1445 1.99922E+01-8.67815E-05 1.09739E-05 1.79183E-03 4.53515E-14-4.62454E-13
 -1      1446 1.99933E+01-4.39055E-05 2.25610E-07 7.41667E-04-1.50770E-13-8.75537E-13
 -1      1447 1.99942E+01-4.86179E-05 4.13055E-06 7.16396E-04-1.22230E-13-1.10422E-12
 -1      1448 1.99937E+01-8.45469E-05 1.19160E-05 1.54465E-03-1.56242E-13-6.35191E-13
 -1      1449 1.99948E+01-4.13222E-05-9.49415E-07 6.16947E-04-7.20505E-14-1.14533E-12
 -1      1450 1.99956E+01-4.36579E-05 2.38413E-06 5.94146E-04 3.03741E-14-1.12167E-12
 -1      1451 1.99951E+01-7.76591E-05 1.17067E-05 1.30064E-03-2.08648E-13-6.87725E-13
 -1      1452 1.99961E+01-3.71843E-05-1.64607E-06 5.04238E-04 1.38642E-13-1.20488E-12
 -1      1453 1.99967E+01-3.80610E-05 1.13406E-06 4.84342E-04 1.61944E-13-9.78252E-13
 -1      1454 1.99962E+01-6.85883E-05 1.08412E-05 1.07415E-03 6.67661E-14-6.95197E-13
 -1      1455 1.99971E+01-3.25844E-05-2.00243E-06 4.05396E-04 1.13496E-13-8.37086E-13
 -1      1456 1.99976E+01-3.27096E-05 2.76186E-07 3.88356E-04 8.27996E-14-6.28659E-13
 -1      1457 1.99971E+01-5.91129E-05 9.68047E-06 8.71939E-04 2.64516E-13-5.92961E-13
 -1      1458 1.99980E+01-2.83626E-05-2.08284E-06 3.19826E-04 1.47978E-13-4.97304E-13
 -1      1459 1.99984E+01-2.82736E-05-2.06532E-07 3.05215E-04 2.54283E-13-3.00934E-13
 -1      1460 1.99979E+01-5.05740E-05 8.49646E-06 6.95212E-04 2.66414E-13-3.57005E-13
 -1      1461 1.99986E+01-2.51730E-05-1.82755E-06 2.45067E-04 1.67790E-13-2.81733E-13
 -1      1462 1.99989E+01-2.52740E-05-2.33502E-07 2.32149E-04 3.96995E-14-2.15760E-13
 -1      1463 1.99985E+01-4.40358E-05 7.52020E-06 5.41013E-04 2.74770E-13-1.52642E-13
 -1      1464 1.99991E+01-2.36000E-05-1.05884E-06 1.77166E-04-4.52599E-14-3.04649E-13
 -1      1465 1.99993E+01-2.40488E-05 2.82235E-07 1.64852E-04-1.79442E-14-3.00995E-13
 -1      1466 1.99990E+01-4.05884E-05 6.90347E-06 4.03268E-04 7.01950E-15-9.55209E-14
 -1      1467 1.99995E+01-2.37206E-05 2.81148E-07 1.11560E-04 1.63554E-13-2.12680E-13
 -1      1468 1.99996E+01-2.39719E-05 7.02255E-07 9.85332E-05 2.03962E-13 4.83477E-14
 -1      1469 1.99994E+01-4.07401E-05 6.53883E-06 2.73847E-04 1.22676E-13-2.79531E-13
 -1      1470 1.99997E+01-2.68038E-05 4.47096E-07 4.51338E-05 5.64516E-14 1.82849E-13
 -1      1471 1.99998E+01-2.09606E-05-2.29726E-06 3.11030E-05-3.37182E-14 2.64062E-13
 -1      1472 1.99996E+01-4.33842E-05 5.68623E-06 1.47610E-04 1.79137E-13 5.70977E-14
 -1      1473 1.99998E+01 5.36945E-07-6.38247E-06-1.11404E-05-2.46312E-13 2.48374E-13
 -1      1474 1.99998E+01-2.23377E-05 6.76831E-07 2.46236E-05-2.33393E-13 7.31095E-14
 -1      1475 2.99610E+01-4.06915E-04-1.12594E-01 2.57176E-01 2.86257E-13 2.63408E-12
 -1      1476 3.08181E+01 1.66849E-01-2.29525E-01 4.23842E-01 2.24099E-13 3.06905E-12
 -1      1477 3.01180E+01 7.70392E-01-1.05983E-01 1.55386E+00 4.61992E-13 2.05498E-12
 -1      1478 2.90499E+01-7.22140E-02 3.90560E-02 3.17555E-01 1.81847E-13 2.16236E-12
 -1      1479 2.94743E+01-2.17269E-02-3.73148E-02 2.61572E-01 1.76078E-13 2.46042E-12
 -1      1480 2.90086E+01-1.07379E-02-2.43213E-02 6.56374E-01 3.77615E-13 1.76548E-12
 -1      1481 2.77132E+01-1.07469E-01 7.23241E-02 6.79239E-01 1.14379E-13 1.85751E-12
 -1      1482 2.84947E+01-1.47754E-01 3.48890E-02 5.48118E-01 1.11569E-13 2.04865E-12
 -1      1483 2.81138E+01-1.89246E-01 5.00126E-02 9.02732E-01 2.48032E-13 1.54686E-12
 -1      1484 2.54994E+01-6.73226E-02 3.60994E-02 1.10706E+00 1.24139E-13 1.64012E-12
 -1      1485 2.68726E+01-1.66677E-01 3.72688E-02 9.55265E-01 8.10428E-14 1.74763E-12
 -1      1486 2.68913E+01-2.37436E-01 6.14020E-02 1.58376E+00 1.71908E-13 1.34248E-12
 -1      1487 2.27282E+01 6.39162E-02-6.15490E-02 1.21211E+00 1.12696E-13 1.34791E-12
 -1      1488 2.44426E+01-3.51655E-02-5.97543E-03 1.15672E+00 1.06898E-13 1.48455E-12
 -1      1489 2.51408E+01-7.77184E-02 1.76721E-02 2.10145E+00 2.08233E-13 1.16617E-12
 -1      1490 2.05630E+01 2.00672E-01-1.58047E-01 6.83351E-01 1.18010E-13 1.06403E-12
 -1      1491 2.18642E+01 1.93826E-01-7.29989E-02 8.20461E-01 9.32310E-14 1.17927E-12
 -1      1492 2.32796E+01 2.69010E-01-5.93790E-02 1.78733E+00 1.86240E-13 8.75633E-13
 -1      1493 2.02583E+01 2.02902E-01-1.58445E-01-2.73084E-01 2.26850E-13 5.07927E-13
 -1      1494 2.03868E+01 3.26840E-01-1.08261E-01-8.52358E-03 2.09187E-13 8.13592E-13
 -1      1495 2.22077E+01 5.46043E-01-1.03721E-01 4.75958E-01 3.68997E-13 4.30874E-13
 -1      1496 2.19134E+01 6.81560E-02-5.83747E-02-9.95184E-01 1.21495E-13 8.14626E-15
 -1      1497 2.08380E+01 2.37882E-01-7.47542E-02-7.91096E-01 1.71967E-13 2.84384E-13
 -1      1498 2.25150E+01 4.50058E-01-8.58373E-02-1.06771E+00 4.00624E-13-1.08559E-14
 -1      1499 2.43403E+01-6.83730E-02 4.79728E-02-1.06881E+00 7.93375E-14-2.60764E-13
 -1      1500 2.27945E+01 3.14257E-02-4.50492E-03-1.03189E+00 6.68335E-14-1.14256E-13
 -1      1501 2.38411E+01 6.99020E-02-3.74513E-02-1.82940E+00 2.29986E-13-3.33913E-13
 -1      1502 2.62103E+01-1.16357E-01 8.89199E-02-6.57474E-01 2.40806E-14-3.14498E-13
 -1      1503 2.50037E+01-1.16692E-01 4.38965E-02-7.42475E-01 4.19664E-14-2.61596E-13
 -1      1504 2.52565E+01-2.45438E-01 3.77176E-04-1.55418E+00 1.23585E-13-5.28647E-13
 -1      1505 2.69598E+01-9.34022E-02 7.17225E-02-1.53536E-01 9.54445E-15-2.81754E-13
 -1      1506 2.64416E+01-1.47986E-01 5.03161E-02-2.64412E-01 2.89005E-15-2.50557E-13
 -1      1507 2.60729E+01-3.19378E-01 1.60913E-02-7.39588E-01-2.06432E-15-4.05372E-13
 -1      1508 2.67308E+01-5.04536E-02 3.54375E-02 2.05353E-01 2.29972E-14-2.21092E-13
 -1      1509 2.68164E+01-1.09436E-01 3.18265E-02 1.24036E-01 2.38004E-15-2.50033E-13
 -1      1510 2.61397E+01-2.32891E-01 1.59152E-02 4.50521E-02 3.98986E-15-3.74629E-13
 -1      1511 2.59243E+01-1.60526E-02 7.22812E-03 3.79642E-01 1.15437E-14-2.90826E-13
 -1      1512 2.63650E+01-5.71034E-02 1.06597E-02 3.37546E-01 4.89383E-14-2.33896E-13
 -1      1513 2.56433E+01-1.14336E-01 9.93467E-03 5.42055E-01 5.61322E-14-3.27438E-13
 -1      1514 2.48985E+01 3.75475E-03-7.08295E-03 4.20224E-01 3.88618E-14-4.64798E-13
 -1      1515 2.54721E+01-1.73850E-02-2.28063E-03 4.06875E-01 3.60682E-14-3.70246E-13
 -1      1516 2.48500E+01-2.72677E-02 4.52332E-03 7.51406E-01 1.04158E-13-3.50091E-13
 -1      1517 2.38806E+01 1.22643E-02-1.14663E-02 3.88483E-01 3.59233E-14-5.46303E-13
 -1      1518 2.44487E+01 5.37548E-03-7.00569E-03 3.91049E-01 7.66923E-14-4.48593E-13
 -1      1519 2.39733E+01 1.97481E-02 1.36977E-03 7.68682E-01 1.13379E-13-4.88186E-13
 -1      1520 2.29812E+01 1.42951E-02-1.09903E-02 3.28024E-01-7.67435E-14-4.94823E-13
 -1      1521 2.34787E+01 1.54396E-02-7.06127E-03 3.37411E-01-7.31025E-14-5.85535E-13
 -1      1522 2.31433E+01 3.80524E-02-1.07021E-04 6.88170E-01-2.78558E-14-3.07843E-13
 -1      1523 2.22370E+01 1.33057E-02-8.87967E-03 2.62840E-01 6.93159E-14-6.26077E-13
 -1      1524 2.26441E+01 1.81040E-02-5.41879E-03 2.74000E-01 6.88958E-14-4.97637E-13
 -1      1525 2.24216E+01 4.07152E-02-6.91216E-04 5.72706E-01 3.38232E-14-3.82236E-13
 -1      1526 2.16459E+01 1.12334E-02-6.62748E-03 2.03773E-01-9.60560E-14-6.08257E-13
 -1      1527 2.19656E+01 1.71523E-02-3.61379E-03 2.14338E-01-1.26982E-14-6.35604E-13
 -1      1528 2.18262E+01 3.64897E-02-8.75468E-04 4.55921E-01 2.66198E-14-4.37524E-13
 -1      1529 2.11890E+01 9.00956E-03-4.74725E-03 1.54451E-01-8.21077E-14-3.73963E-13
 -1      1530 2.14333E+01 1.47816E-02-2.18577E-03 1.63530E-01-1.10579E-13-4.80705E-13
 -1      1531 2.13518E+01 3.01003E-02-8.93988E-04 3.52530E-01-1.41522E-13-3.30336E-13
 -1      1532 2.08429E+01 7.01403E-03-3.32311E-03 1.15074E-01-1.33686E-13-2.06433E-13
 -1      1533 2.10259E+01 1.21063E-02-1.20450E-03 1.22492E-01-1.09475E-13-3.14669E-13
 -1      1534 2.09831E+01 2.37298E-02-8.43569E-04 2.66981E-01-1.99947E-13-2.19724E-13
 -1      1535 2.05848E+01 5.35857E-03-2.29188E-03 8.44761E-02 3.22450E-14-3.59133E-14
 -1      1536 2.07198E+01 9.61929E-03-5.82522E-04 9.03625E-02-2.75060E-14-9.09810E-14
 -1      1537 2.07018E+01 1.82080E-02-7.63308E-04 1.98892E-01-1.12792E-13-1.01309E-13
 -1      1538 2.03952E+01 4.03935E-03-1.56086E-03 6.11191E-02 1.01947E-13-2.82844E-13
 -1      1539 2.04934E+01 7.49405E-03-2.10399E-04 6.57037E-02 9.41920E-14-1.23592E-13
 -1      1540 2.04907E+01 1.37260E-02-6.70976E-04 1.46002E-01 1.37898E-13 4.14459E-14
 -1      1541 2.02580E+01 3.01133E-03-1.04785E-03 4.35230E-02-2.46232E-14-4.60118E-13
 -1      1542 2.03283E+01 5.75566E-03 2.96233E-07 4.70466E-02 3.41271E-14-4.40150E-13
 -1      1543 2.03345E+01 1.02127E-02-5.76310E-04 1.05599E-01 1.70408E-13-2.74710E-13
 -1      1544 2.01604E+01 2.22095E-03-6.89807E-04 3.04162E-02-9.32042E-14-2.37432E-13
 -1      1545 2.02098E+01 4.36882E-03 1.11122E-04 3.30948E-02-1.22445E-13-4.71337E-13
 -1      1546 2.02206E+01 7.51283E-03-4.85248E-04 7.51311E-02-8.97701E-14-4.05505E-13
 -1      1547 2.00922E+01 1.61892E-03-4.41157E-04 2.07619E-02-4.93290E-14-6.41998E-14
 -1      1548 2.01262E+01 3.27965E-03 1.62017E-04 2.27771E-02-3.00103E-14-1.37930E-13
 -1      1549 2.01390E+01 5.46360E-03-4.01371E-04 5.24194E-02-1.51263E-13-2.00741E-13
 -1      1550 2.00458E+01 1.16392E-03-2.69702E-04 1.37379E-02 5.82396E-14-2.10959E-13
 -1      1551 2.00685E+01 2.43369E-03 1.77972E-04 1.52374E-02 2.35312E-14-1.78928E-13
 -1      1552 2.00816E+01 3.92199E-03-3.26595E-04 3.56853E-02 4.66208E-14-3.24407E-13
 -1      1553 2.00152E+01 8.22735E-04-1.52812E-04 8.70132E-03 1.18388E-14-4.00423E-13
 -1      1554 2.00299E+01 1.78262E-03 1.74319E-04 9.80329E-03 5.59571E-14-2.74711E-13
 -1      1555 2.00423E+01 2.77133E-03-2.61653E-04 2.35141E-02 1.25590E-13-3.37363E-13
 -1      1556 1.99960E+01 5.69201E-04-7.45286E-05 5.15364E-03 3.62546E-14-3.35330E-13
 -1      1557 2.00049E+01 1.28596E-03 1.60358E-04 5.95164E-03-7.64517E-14-3.46478E-13
 -1      1558 2.00161E+01 1.91958E-03-2.06474E-04 1.47953E-02-6.41954E-14-3.33310E-13
 -1      1559 1.99847E+01 3.82846E-04-2.35159E-05 2.71074E-03 5.31282E-14-4.21356E-13
 -1      1560 1.99897E+01 9.10673E-04 1.41675E-04 3.27841E-03 1.27227E-13-2.35626E-13
 -1      1561 1.99994E+01 1.29525E-03-1.60483E-04 8.66515E-03 2.91224E-14-1.83971E-13
 -1      1562 1.99790E+01 2.47703E-04 8.34365E-06 1.07814E-03 9.28975E-14-6.66847E-13
 -1      1563 1.99812E+01 6.30148E-04 1.21576E-04 1.47307E-03 5.41897E-14-5.54234E-13
 -1      1564 1.99895E+01 8.43152E-04-1.22810E-04 4.45602E-03 2.12701E-13-3.83293E-13
 -1      1565 1.99768E+01 1.51335E-04 2.68984E-05 3.14629E-05-1.03096E-13-5.39526E-13
 -1      1566 1.99773E+01 4.23114E-04 1.01964E-04 2.98445E-04-5.11044E-14-6.74069E-13
 -1      1567 1.99842E+01 5.20751E-04-9.24511E-05 1.65495E-03-3.11542E-14-4.02585E-13
 -1      1568 1.99770E+01 8.40670E-05 3.63733E-05-5.98964E-04-4.45004E-14-2.46630E-13
 -1      1569 1.99764E+01 2.72629E-04 8.38767E-05-4.25358E-04-1.03729E-13-4.28108E-13
 -1      1570 1.99820E+01 2.95314E-04-6.83711E-05-1.29345E-04-2.03175E-13-3.67706E-13
 -1      1571 1.99786E+01 3.83982E-05 3.98156E-05-9.40243E-04 6.56398E-14-1.89216E-13
 -1      1572 1.99774E+01 1.65256E-04 6.78160E-05-8.33567E-04 4.77165E-14-1.47655E-13
 -1      1573 1.99818E+01 1.41678E-04-4.95703E-05-1.19287E-03-2.59202E-14-1.99272E-13
 -1      1574 1.99809E+01 8.54193E-06 3.94083E-05-1.08648E-03-1.34099E-13-1.36673E-13
 -1      1575 1.99794E+01 9.03951E-05 5.39517E-05-1.02671E-03-1.63523E-14-1.44043E-13
 -1      1576 1.99829E+01 4.05618E-05-3.51277E-05-1.75729E-03-4.12387E-14-1.82237E-13
 -1      1577 1.99835E+01-9.93358E-06 3.66962E-05-1.10634E-03-8.19117E-15-1.97981E-13
 -1      1578 1.99819E+01 3.97339E-05 4.22531E-05-1.07853E-03-2.79767E-14-2.88021E-13
 -1      1579 1.99846E+01-2.27284E-05-2.42221E-05-1.98656E-03-2.95575E-14-1.26515E-13
 -1      1580 1.99861E+01-2.03907E-05 3.27524E-05-1.04907E-03 1.00934E-13-3.04867E-13
 -1      1581 1.99846E+01 6.81025E-06 3.25733E-05-1.04220E-03 1.08917E-13-1.93854E-13
 -1      1582 1.99866E+01-5.93058E-05-1.61406E-05-2.00009E-03 3.50974E-14-2.69608E-13
 -1      1583 1.99886E+01-2.53516E-05 2.83024E-05-9.49166E-04 9.87677E-14-5.12139E-13
 -1      1584 1.99872E+01-1.33531E-05 2.47035E-05-9.55280E-04 6.01058E-14-4.34122E-13
 -1      1585 1.99887E+01-7.74911E-05-1.02786E-05-1.88329E-03 1.53707E-13-2.79301E-13
 -1      1586 1.99908E+01-2.66840E-05 2.38187E-05-8.30138E-04-2.23106E-14-5.71459E-13
 -1      1587 1.99896E+01-2.45477E-05 1.84092E-05-8.43605E-04 5.85028E-14-4.77951E-13
 -1      1588 1.99907E+01-8.34378E-05-6.13211E-06-1.69579E-03 3.33202E-14-5.04216E-13
 -1      1589 1.99928E+01-2.57515E-05 1.95924E-05-7.07348E-04-1.96935E-13-1.94227E-13
 -1      1590 1.99917E+01-2.96287E-05 1.34530E-05-7.24304E-04-2.14044E-13-4.75200E-13
 -1      1591 1.99925E+01-8.16310E-05-3.28800E-06-1.47802E-03-2.38760E-13-2.36428E-13
 -1      1592 1.99944E+01-2.35363E-05 1.57876E-05-5.90240E-04-1.41430E-13 2.01507E-13
 -1      1593 1.99935E+01-3.07222E-05 9.60855E-06-6.08141E-04-1.19399E-13-4.66222E-14
 -1      1594 1.99940E+01-7.52879E-05-1.41122E-06-1.25616E-03-2.98400E-13 2.87285E-14
 -1      1595 1.99958E+01-2.07392E-05 1.24854E-05-4.83999E-04 2.06058E-14 4.05256E-13
 -1      1596 1.99950E+01-2.93979E-05 6.66944E-06-5.01280E-04-9.86512E-14 3.44412E-13
 -1      1597 1.99954E+01-6.66786E-05-2.30956E-07-1.04607E-03-2.05125E-13 3.21302E-14
 -1      1598 1.99969E+01-1.78656E-05 9.72243E-06-3.90766E-04-2.05240E-13 6.58213E-13
 -1      1599 1.99963E+01-2.68189E-05 4.45582E-06-4.06593E-04-7.97041E-14 5.04389E-13
 -1      1600 1.99965E+01-5.73883E-05 4.76109E-07-8.56162E-04-1.94059E-13 1.05474E-13
 -1      1601 1.99978E+01-1.53017E-05 7.53556E-06-3.10454E-04 4.06174E-13 4.01979E-13
 -1      1602 1.99973E+01-2.38767E-05 2.82636E-06-3.24570E-04 1.83996E-13 6.39162E-13
 -1      1603 1.99974E+01-4.85399E-05 9.10823E-07-6.89453E-04-2.05775E-14 1.58918E-13
 -1      1604 1.99985E+01-1.33690E-05 6.01278E-06-2.41252E-04 3.36127E-13-1.97895E-13
 -1      1605 1.99981E+01-2.13083E-05 1.69943E-06-2.53896E-04 3.55864E-13 2.08559E-13
 -1      1606 1.99982E+01-4.09884E-05 1.27966E-06-5.44971E-04 6.53687E-13-2.19097E-13
 -1      1607 1.99990E+01-1.22975E-05 5.32576E-06-1.79955E-04 5.39148E-15-5.16025E-13
 -1      1608 1.99988E+01-1.97357E-05 1.09396E-06-1.91826E-04 1.65753E-13-2.10655E-13
 -1      1609 1.99987E+01-3.54425E-05 1.82319E-06-4.18642E-04 2.91096E-13-2.58009E-13
 -1      1610 1.99994E+01-1.22822E-05 5.47639E-06-1.22400E-04 1.42340E-13-5.84136E-13
 -1      1611 1.99992E+01-1.96740E-05 1.09729E-06-1.34644E-04 1.89371E-14-5.75716E-13
 -1      1612 1.99992E+01-3.24659E-05 2.78125E-06-3.04134E-04 2.52553E-14-2.72289E-13
 -1      1613 1.99997E+01-1.32209E-05 4.93341E-06-6.38340E-05 1.28621E-13-1.09431E-12
 -1      1614 1.99996E+01-2.13335E-05 1.37994E-06-7.84029E-05 2.59756E-13-6.22936E-13
 -1      1615 1.99995E+01-3.28703E-05 3.78918E-06-1.94250E-04 2.67334E-13-2.74480E-13
 -1      1616 1.99998E+01-1.22476E-05-2.80574E-06-8.68126E-06-1.75120E-13-8.59544E-13
 -1      1617 1.99998E+01-2.04449E-05 5.93605E-08-2.32432E-05-1.77939E-13-1.13465E-12
 -1      1618 1.99997E+01-3.19147E-05 3.48137E-06-8.45503E-05-6.49697E-14-2.72670E-13
 -1      1619 1.99998E+01 4.11298E-07-6.62305E-06 8.46357E-06-4.65030E-13-5.19198E-13
 -1      1620 1.99998E+01-8.46008E-05 3.06484E-06-4.90370E-05-6.86448E-13-9.53055E-15
 -1      1621 1.99998E+01-4.23996E-05-2.14266E-06-3.47501E-05-6.36936E-13 1.16482E-13
 -1      1622 1.99998E+01-2.87731E-04 2.54776E-06-1.06841E-04-6.55554E-13-1.07994E-13
 -1      1623 1.99998E+01-1.73248E-04 2.12707E-06-9.60715E-05-5.93445E-13-3.85741E-14
 -1      1624 1.99998E+01-1.87122E-04 4.07679E-06-1.45055E-04-4.72481E-13 7.02922E-14
 -1      1625 1.99998E+01-5.74613E-04 1.20914E-06-1.44441E-04-1.08926E-12-2.58089E-13
 -1      1626 1.99998E+01-4.10704E-04 1.75208E-06-1.38871E-04-7.68303E-13-2.46474E-13
 -1      1627 1.99998E+01-3.98597E-04 4.04723E-06-2.40002E-04-4.72210E-13-3.69354E-13
 -1      1628 1.99998E+01-8.97627E-04 2.07550E-07-1.55105E-04-1.12288E-12 4.50893E-14
 -1      1629 1.99998E+01-7.16201E-04 8.02655E-07-1.55196E-04-1.13132E-12 1.50574E-13
 -1      1630 1.99998E+01-6.63778E-04 1.23936E-06-2.90847E-04-7.95796E-13-2.63227E-13
 -1      1631 1.99998E+01-1.19913E-03-2.33487E-07-1.40302E-04-1.02121E-12 3.89556E-13
 -1      1632 1.99998E+01-1.03414E-03 2.01845E-07-1.45099E-04-1.21241E-12 8.69668E-14
 -1      1633 1.99998E+01-9.41918E-04-1.67369E-06-2.90752E-04-9.21094E-13 2.42118E-14
 -1      1634 1.99998E+01-1.44319E-03-4.08295E-07-1.03912E-04-6.63255E-13 1.85586E-13
 -1      1635 1.99998E+01-1.31553E-03-1.39193E-07-1.12563E-04-9.33462E-13 4.00416E-13
 -1      1636 1.99998E+01-1.19416E-03-4.06759E-06-2.44779E-04-6.44492E-13 4.35686E-13
 -1      1637 1.99998E+01-1.58833E-03-4.24973E-07-5.24509E-05-7.22853E-13-2.24891E-13
 -1      1638 1.99998E+01-1.51989E-03-2.87421E-07-6.34454E-05-5.13534E-13-6.78814E-14
 -1      1639 1.99998E+01-1.38626E-03-5.79066E-06-1.61981E-04-4.55075E-13 8.97673E-14
 -1      1640 1.99998E+01-1.61425E-03-3.77067E-07 6.37843E-06 6.15474E-14 5.35730E-13
 -1      1641 1.99998E+01-1.61481E-03-3.76530E-07-5.40806E-06-6.10421E-13 3.85231E-13
 -1      1642 1.99998E+01-1.48889E-03-6.67529E-06-5.59965E-05-1.65482E-13 2.39630E-13
 -1      1643 1.99998E+01-1.51735E-03-2.77484E-07 6.43285E-05 1.91157E-13-1.36938E-13
 -1      1644 1.99998E+01-1.58687E-03-4.27039E-07 5.33658E-05 1.59818E-13 1.95462E-13
 -1      1645 1.99998E+01-1.48799E-03-6.66552E-06 5.78319E-05 1.39244E-14 5.36071E-13
 -1      1646 1.99998E+01-1.31142E-03-9.59869E-08 1.13210E-04-3.63627E-13-3.82442E-13
 -1      1647 1.99998E+01-1.43991E-03-4.33956E-07 1.04648E-04 2.28210E-13-2.53467E-13
 -1      1648 1.99998E+01-1.38370E-03-5.75090E-06 1.63561E-04-2.81072E-14-2.27831E-13
 -1      1649 1.99998E+01-1.03167E-03 1.86183E-07 1.45116E-04-4.25375E-13 1.16945E-13
 -1      1650 1.99998E+01-1.19690E-03-2.45238E-07 1.40411E-04-2.84359E-13-2.45216E-13
 -1      1651 1.99998E+01-1.19232E-03-4.07568E-06 2.45389E-04-1.24502E-13-3.80571E-13
 -1      1652 1.99998E+01-7.11207E-04 7.75673E-07 1.55019E-04-3.47035E-13 6.82669E-14
 -1      1653 1.99998E+01-8.92519E-04 2.17226E-07 1.55037E-04-4.28047E-13 1.61097E-13
 -1      1654 1.99998E+01-9.39590E-04-1.62103E-06 2.90776E-04 1.04913E-13 1.64044E-13
 -1      1655 1.99998E+01-4.06204E-04 1.89753E-06 1.38545E-04-4.23794E-13-7.89710E-15
 -1      1656 1.99998E+01-5.69896E-04 1.16395E-06 1.43934E-04-4.37284E-13 1.88613E-13
 -1      1657 1.99998E+01-6.59228E-04 1.23810E-06 2.90243E-04 2.12104E-14 3.11007E-14
 -1      1658 1.99998E+01-1.73314E-04 7.09750E-07 9.61876E-05-3.87103E-13-6.65606E-15
 -1      1659 1.99998E+01-2.85100E-04 2.61764E-06 1.07297E-04-3.39804E-13-1.10807E-13
 -1      1660 1.99998E+01-3.95729E-04 3.96648E-06 2.38744E-04-2.00628E-13-4.46220E-14
 -1      1661 1.99998E+01-6.85062E-05-3.10006E-06 5.83736E-05-1.87208E-13-2.18083E-14
 -1      1662 1.99998E+01-1.13894E-04 2.28735E-06 7.87420E-05-2.51232E-13 3.33525E-14
 -1      1663 1.99997E+01-2.18039E-04 2.10293E-06 1.77667E-04-9.53989E-14 6.11876E-14
 -1      1664 1.99997E+01-1.07788E-04-2.02567E-06 1.21491E-04 1.77796E-14-1.09320E-13
 -1      1665-5.95764E-01-1.36541E+01-1.69516E+00-1.05935E+00 2.03870E-12 8.56260E-13
 -1      1666-5.32498E-01-1.54909E+01-1.83776E+00 1.42969E-01 9.74748E-13 6.97442E-13
 -1      1667 1.61283E+00-7.44505E+00-1.24251E+00 7.09305E-01 2.99016E-12 1.83661E-12
 -1      1668 7.81118E-01-1.22906E+01-1.70552E+00 4.90340E-02 2.26374E-12 1.12239E-12
 -1      1669 6.71410E+00-4.07283E-01-7.03072E-01 4.38617E+00 3.53184E-12 2.60714E-12
 -1      1670 3.80757E+00-5.63834E+00-1.42024E+00 1.67311E+00 3.32068E-12 2.02949E-12
 -1      1671 1.75431E+01 4.60874E+00 8.93091E-02 9.58334E+00 2.97651E-12 2.95985E-12
 -1      1672 1.10634E+01 1.08544E+00-8.04572E-01 5.82773E+00 3.38263E-12 2.64389E-12
 -1      1673 3.25514E+01 6.41982E+00 1.01284E+00 1.27673E+01 2.16427E-12 2.87148E-12
 -1      1674 2.29996E+01 5.75834E+00 4.46195E-02 1.04175E+01 2.74436E-12 2.96252E-12
 -1      1675 4.82673E+01 5.22113E+00 1.84009E+00 1.11102E+01 1.25219E-12 1.64480E-12
 -1      1676 3.82768E+01 6.89533E+00 1.01116E+00 1.26230E+01 1.93845E-12 2.59726E-12
 -1      1677 5.67928E+01 3.57900E+00 2.11856E+00 3.91710E+00 8.10241E-13-5.35960E-13
 -1      1678 5.21098E+01 4.99065E+00 1.81473E+00 9.00708E+00 1.11557E-12 9.49463E-13
 -1      1679 5.43150E+01 4.03002E+00 1.80262E+00-4.34131E+00 1.20315E-12-2.58626E-12
 -1      1680 5.65248E+01 3.71244E+00 2.02101E+00 1.28759E+00 9.02056E-13-1.17248E-12
 -1      1681 4.44623E+01 5.31675E+00 1.19146E+00-9.89890E+00 2.12916E-12-4.11560E-12
 -1      1682 5.22180E+01 3.90215E+00 1.85268E+00-6.66619E+00 1.40167E-12-3.17713E-12
 -1      1683 3.08617E+01 5.21425E+00 3.18278E-01-1.00844E+01 3.07920E-12-4.46776E-12
 -1      1684 3.98942E+01 4.70176E+00 1.13671E+00-1.03911E+01 2.38692E-12-4.18954E-12
 -1      1685 1.69055E+01 3.44218E+00-5.50283E-01-7.72101E+00 4.10050E-12-4.40437E-12
 -1      1686 2.52567E+01 5.01033E+00 3.54207E-01-1.06945E+01 3.52063E-12-4.74110E-12
 -1      1687 6.75552E+00-1.41679E+00-1.24206E+00-3.32498E+00 4.33731E-12-3.47111E-12
 -1      1688 1.16036E+01 2.62712E+00-4.69020E-01-6.74453E+00 4.39981E-12-4.28224E-12
 -1      1689 1.70485E+00-7.44151E+00-1.60912E+00-1.52778E-01 3.46057E-12-2.15161E-12
 -1      1690 3.37289E+00-2.91603E+00-1.12753E+00-1.87254E+00 4.21707E-12-3.08609E-12
 -1      1691-1.08089E-01-1.14731E+01-1.65341E+00 5.95452E-01 1.76165E-12-1.16818E-12
 -1      1692 2.74376E-02-8.65139E+00-1.47461E+00 8.80824E-01 3.05089E-12-1.79457E-12
 -1      1693-4.70715E-01-1.13811E+01-1.44820E+00 8.44376E-02-4.64268E-13-9.46299E-13
 -1      1694-5.77262E-01-1.14405E+01-1.50485E+00 1.18413E+00 1.11247E-12-1.05607E-12
 -1      1695 4.08732E-02-8.13223E+00-1.24803E+00 7.11178E-02-2.47447E-12-1.35383E-12
 -1      1696-1.24443E-01-1.11824E+01-1.53219E+00 6.02711E-01-1.12771E-12-9.01723E-13
 -1      1697 3.91031E+00-1.60618E+00-7.11065E-01 3.24440E+00-3.54294E-12-2.47796E-12
 -1      1698 2.22327E+00-6.29506E+00-1.18488E+00 1.63993E+00-2.66298E-12-1.66232E-12
 -1      1699 1.00792E+01 4.07111E+00-2.70168E-01 7.06825E+00-4.30977E-12-3.79652E-12
 -1      1700 6.22612E+00 1.82704E-01-9.10453E-01 4.12975E+00-4.11393E-12-2.91950E-12
 -1      1701 2.10928E+01 6.75679E+00 3.24242E-01 1.12280E+01-3.81584E-12-4.50362E-12
 -1      1702 1.42612E+01 5.03291E+00-4.13808E-01 8.27080E+00-4.22051E-12-4.06186E-12
 -1      1703 3.44522E+01 6.31547E+00 8.78314E-01 1.23361E+01-2.74186E-12-4.33686E-12
 -1      1704 2.60262E+01 7.09027E+00 2.32860E-01 1.15658E+01-3.49432E-12-4.54847E-12
 -1      1705 4.61482E+01 4.45848E+00 1.28501E+00 7.91912E+00-1.60517E-12-2.84461E-12
 -1      1706 3.86833E+01 6.03117E+00 7.74785E-01 1.03377E+01-2.32686E-12-3.72213E-12
 -1      1707 5.30054E+01 3.60733E+00 1.65732E+00 1.12261E+00-9.00391E-13-1.29768E-12
 -1      1708 4.94281E+01 4.42651E+00 1.32831E+00 6.28315E+00-1.26957E-12-2.53697E-12
 -1      1709 5.17907E+01 4.18689E+00 1.63463E+00-6.39866E+00-8.19567E-13 4.40037E-13
 -1      1710 5.39623E+01 3.38225E+00 1.72905E+00-1.36953E+00-7.26835E-13-7.11570E-13
 -1      1711 4.28361E+01 6.09066E+00 1.21005E+00-1.11668E+01-1.37317E-12 1.82632E-12
 -1      1712 4.92178E+01 4.48135E+00 1.63422E+00-8.28134E+00-9.30103E-13 9.45466E-13
 -1      1713 3.08359E+01 7.34237E+00 6.69439E-01-1.25052E+01-2.20357E-12 2.74536E-12
 -1      1714 3.89875E+01 6.31459E+00 1.30254E+00-1.25574E+01-1.56031E-12 2.29472E-12
 -1      1715 1.88422E+01 5.91680E+00-1.52717E-02-9.91293E+00-3.08653E-12 3.00671E-12
 -1      1716 2.62057E+01 6.94453E+00 7.38088E-01-1.23905E+01-2.54285E-12 2.84905E-12
 -1      1717 9.15337E+00 1.15224E+00-7.25361E-01-5.47296E+00-3.35909E-12 2.60347E-12
 -1      1718 1.43817E+01 4.79447E+00 6.43837E-02-8.91675E+00-3.23019E-12 3.10130E-12
 -1      1719 3.35806E+00-5.79192E+00-1.28912E+00-1.75090E+00-2.64677E-12 1.84552E-12
 -1      1720 5.72034E+00-6.60125E-01-6.31427E-01-4.10127E+00-3.23763E-12 2.59176E-12
 -1      1721 7.57225E-01-1.21364E+01-1.60993E+00-4.87928E-01-1.09934E-12 1.10074E-12
 -1      1722 1.41813E+00-7.60116E+00-1.17007E+00-9.31557E-01-2.18769E-12 1.59250E-12
 -1      1723-5.18130E-01-1.56135E+01-1.85787E+00-5.19923E-01 5.57943E-13 7.69967E-13
 -1      1724-4.98796E-01-1.37216E+01-1.67202E+00 6.45743E-01-7.40297E-13 9.41885E-13
 -1      1725 2.50073E+01 5.34952E-01 1.79168E-01 7.41618E+00 1.78668E-12 1.59872E-12
 -1      1726 1.42997E+01-3.07400E+00-4.36317E-01 6.47604E+00 1.87073E-12 1.59361E-12
 -1      1727 1.99998E+01-8.29368E-06-7.48346E-07-5.86897E-06-6.82739E-13-8.24086E-14
 -1      1728 1.99998E+01-7.11926E-05-1.56725E-07-5.87913E-05-3.92166E-13 5.72001E-14
 -1      1729 7.53328E-01-9.15940E+00-1.14999E+00 2.27634E+00 9.95926E-13 1.28159E-12
 -1      1730 5.97280E+00-6.68561E+00-9.24783E-01 4.51564E+00 1.58207E-12 1.63234E-12
 -1      1731-1.16588E+00-1.04488E+01-1.30639E+00-2.60141E-01 4.26957E-13 1.35991E-12
 -1      1732 3.61693E+01 4.01649E+00 8.85874E-01 6.97524E+00 1.67683E-12 1.21037E-12
 -1      1733 4.53661E+01 6.51333E+00 1.55037E+00 5.01429E+00 1.63697E-12 4.04565E-13
 -1      1734 4.85249E+01 7.52467E+00 1.69649E+00 1.64946E+00 1.60694E-12-7.28501E-13
 -1      1735 4.64984E+01 6.85022E+00 1.51067E+00-1.73562E+00 1.77247E-12-1.63236E-12
 -1      1736 4.01203E+01 4.40385E+00 9.80842E-01-3.92078E+00 1.95650E-12-2.22267E-12
 -1      1737 3.09837E+01 1.64809E+00 4.60078E-01-5.81736E+00 2.22333E-12-2.57905E-12
 -1      1738 1.96971E+01-8.97901E-01-1.77666E-01-6.38826E+00 2.59848E-12-2.90401E-12
 -1      1739 9.46697E+00-3.78782E+00-7.70045E-01-4.81888E+00 2.49301E-12-2.68896E-12
 -1      1740 2.72560E+00-6.29941E+00-1.08737E+00-2.60168E+00 1.86173E-12-2.21970E-12
 -1      1741-4.71792E-01-7.23704E+00-1.10211E+00-4.85364E-01 8.16541E-13-1.89049E-12
 -1      1742-6.44610E-01-6.95865E+00-1.03745E+00 1.43380E+00-2.70062E-13-1.76614E-12
 -1      1743 2.73664E+00-4.85051E+00-7.38015E-01 3.99601E+00-1.24784E-12-1.91666E-12
 -1      1744 8.75058E+00-2.41981E+00-5.83386E-01 5.86835E+00-1.91958E-12-2.25987E-12
 -1      1745 1.68089E+01 8.90613E-01-1.62309E-01 7.39382E+00-2.62546E-12-2.77800E-12
 -1      1746 2.67116E+01 3.48309E+00 3.81694E-01 7.98833E+00-2.54019E-12-2.85594E-12
 -1      1747 3.59327E+01 5.21359E+00 8.29647E-01 6.03585E+00-2.17495E-12-2.26852E-12
 -1      1748 4.20441E+01 6.63930E+00 1.04464E+00 2.65438E+00-1.80159E-12-1.58157E-12
 -1      1749 4.60728E+01 7.29094E+00 1.41595E+00-3.43378E-01-1.46383E-12-8.95062E-13
 -1      1750 4.45911E+01 6.91570E+00 1.37291E+00-3.78749E+00-1.37246E-12-1.24345E-14
 -1      1751 3.88351E+01 5.88993E+00 1.10160E+00-6.52739E+00-1.48205E-12 7.91589E-13
 -1      1752 3.06310E+01 3.89412E+00 6.65211E-01-8.03585E+00-1.73656E-12 1.32394E-12
 -1      1753 2.11966E+01 9.89048E-01 1.39213E-01-7.85089E+00-1.88038E-12 1.63258E-12
 -1      1754 1.21898E+01-2.76063E+00-4.26680E-01-6.47821E+00-1.67744E-12 1.77136E-12
 -1      1755 5.20911E+00-6.46134E+00-8.49448E-01-4.67832E+00-1.01152E-12 1.77439E-12
 -1      1756 6.09110E-01-9.10398E+00-1.11894E+00-2.65936E+00-3.76477E-13 1.63536E-12
 -1      1757 2.61949E+01 2.19367E+00-2.05433E-02-3.13105E+00-4.97668E-13 1.82948E-12
 -1      1758 2.24135E+01 3.31729E+00-3.65375E-02-2.44585E+00-4.55456E-13-5.69218E-13
 -1      1759 2.27036E+01 3.31657E+00-6.47323E-02-2.89092E+00-5.86567E-13-3.97897E-13
 -1      1760 2.30718E+01 3.13616E+00-5.41698E-02-3.09645E+00-6.31688E-13-1.58401E-13
 -1      1761 2.33425E+01 2.85673E+00-1.77839E-01-3.44124E+00-7.25663E-13 1.75089E-13
 -1      1762 2.31815E+01 2.36778E+00-8.79467E-03-2.84063E+00-6.53649E-13-2.08344E-13
 -1      1763 2.09058E+01 2.95464E+00-1.76619E-02-5.21021E-01-4.28563E-14-8.35158E-13
 -1      1764 2.14076E+01 3.06214E+00-3.13798E-02-1.03535E+00-1.44051E-13-8.15108E-13
 -1      1765 1.93865E+01 2.82612E+00-1.92844E-02 6.27403E-01 1.57515E-13-8.84189E-13
 -1      1766 2.02424E+01 2.88728E+00-1.35420E-02 1.04982E-01 7.29920E-14-8.70404E-13
 -1      1767 2.10428E+01 2.11553E+00-2.31408E-02-2.77300E-01 1.53662E-14-7.76650E-13
 -1      1768 1.71048E+01 3.00032E+00-3.09945E-02 1.67105E+00 3.27096E-13-9.33659E-13
 -1      1769 1.83507E+01 2.96633E+00 1.07681E-02 1.24903E+00 2.56111E-13-9.23425E-13
 -1      1770 1.92708E+01 2.11235E+00-3.51731E-02 9.99912E-01 2.36707E-13-8.43313E-13
 -1      1771 1.43349E+01 3.56262E+00-4.16739E-02 2.25171E+00 4.32751E-13-1.03988E-12
 -1      1772 1.57593E+01 3.43975E+00 3.53749E-02 2.07427E+00 4.06088E-13-1.00403E-12
 -1      1773 1.66702E+01 2.56978E+00-3.12566E-02 2.11923E+00 4.24724E-13-9.44954E-13
 -1      1774 1.19225E+01 4.32851E+00-3.34453E-02 2.05507E+00 4.30575E-13-1.14235E-12
 -1      1775 1.30253E+01 4.18006E+00 4.38478E-02 2.21028E+00 4.48060E-13-1.12016E-12
 -1      1776 1.36672E+01 3.48598E+00-4.44757E-03 2.58417E+00 5.07707E-13-1.10682E-12
 -1      1777 1.10236E+01 4.84163E+00-2.89295E-03 1.15322E+00 3.35143E-13-1.18590E-12
 -1      1778 1.12277E+01 4.75890E+00 2.18704E-02 1.53569E+00 3.82991E-13-1.18956E-12
 -1      1779 1.13459E+01 4.43976E+00 3.52951E-02 2.04760E+00 4.59247E-13-1.23920E-12
 -1      1780 1.22557E+01 4.76607E+00 3.17282E-02 1.53514E-01 2.25705E-13-1.09605E-12
 -1      1781 1.13718E+01 4.77979E+00-1.57479E-02 4.81264E-01 2.63982E-13-1.15720E-12
 -1      1782 1.09069E+01 4.77769E+00 4.95056E-02 8.02231E-01 3.22105E-13-1.25113E-12
 -1      1783 1.52831E+01 4.20894E+00 4.04041E-02-2.89691E-01 2.16188E-13-8.41449E-13
 -1      1784 1.35898E+01 4.26980E+00-4.31061E-02-2.43131E-01 1.94112E-13-9.61122E-13
 -1      1785 1.27718E+01 4.26232E+00 2.24482E-02-3.00192E-01 2.02749E-13-1.06806E-12
 -1      1786 1.90878E+01 3.57933E+00 1.22733E-02 8.70825E-02 3.13825E-13-5.10109E-13
 -1      1787 1.71335E+01 3.62493E+00-4.86601E-02-1.98346E-01 2.40714E-13-6.74599E-13
 -1      1788 1.63045E+01 3.29246E+00-2.04874E-02-5.39308E-01 2.03403E-13-7.35752E-13
 -1      1789 2.29083E+01 3.09298E+00-3.96511E-02 1.00373E+00 4.57065E-13-3.39451E-14
 -1      1790 2.10023E+01 3.15865E+00-5.10602E-02 5.09090E-01 3.64424E-13-2.90372E-13
 -1      1791 2.03793E+01 2.45733E+00-3.54567E-02 9.84481E-02 3.17496E-13-3.26645E-13
 -1      1792 2.67045E+01 2.45380E+00-6.58204E-02 1.93590E+00 5.62855E-13 7.08808E-13
 -1      1793 2.47687E+01 2.75533E+00-5.60840E-02 1.46789E+00 5.05460E-13 2.83308E-13
 -1      1794 2.43653E+01 1.86562E+00 1.60369E-03 1.02286E+00 4.67102E-13 2.05311E-13
 -1      1795 2.93559E+01 9.86936E-01-1.44785E-01 1.69303E+00 5.16504E-13 1.58731E-12
 -1      1796 2.79287E+01 2.11282E+00 1.85397E-04 1.98747E+00 5.41148E-13 1.02478E-12
 -1      1797 2.71052E+01 1.14158E+00-3.40912E-02 1.36172E+00 5.61419E-13 7.79286E-13
 -1      1798 2.87376E+01 4.53147E-01-7.30213E-02 9.98553E-01 5.23956E-13 1.45745E-12
 -1      1799 2.48083E+01 2.66175E+00 1.03336E-01-3.59446E+00-6.52367E-13 7.75727E-13
 -1      1800 2.80595E+01-2.54368E-01-2.52771E-02 8.15803E-01 3.58342E-13 1.32266E-12
 -1      1801 2.85980E+01-2.55236E-02-1.89246E-02 8.53545E-01 4.00659E-13 1.43291E-12
 -1      1802 2.79295E+01 2.47832E-01 1.40619E-03 1.11920E+00 4.56087E-13 1.06176E-12
 -1      1803 2.44514E+01 1.70560E+00 8.78582E-02-2.93330E+00-6.82621E-13 5.52933E-13
 -1      1804 2.30774E+01 3.08384E-01 2.91933E-02-1.70725E+00-5.41053E-13 4.84273E-13
 -1      1805 2.23491E+01 1.73580E-01 1.63538E-03-1.50838E+00-4.82475E-13 3.54475E-13
 -1      1806 2.19602E+01 1.17949E-01 2.41427E-02-1.38585E+00-4.20575E-13 3.44095E-13
 -1      1807 2.14434E+01 1.06769E-01 1.35134E-02-1.30571E+00-3.76815E-13 2.19297E-13
 -1      1808 2.25642E+01 2.61256E-01 7.71643E-04-1.88131E+00-5.23963E-13 1.29988E-13
 -1      1809 2.10763E+01 1.44022E-01 1.43251E-02-1.19438E+00-3.28586E-13 1.92566E-13
 -1      1810 2.06753E+01 2.06169E-01 1.76205E-02-1.08674E+00-2.91183E-13 9.38073E-14
 -1      1811 2.17983E+01 2.09759E-01-1.91954E-03-1.61033E+00-4.25182E-13 8.70252E-14
 -1      1812 2.03654E+01 2.77151E-01 9.86078E-03-8.97587E-01-2.61098E-13 2.76203E-14
 -1      1813 2.00959E+01 3.49568E-01 1.88255E-02-7.13919E-01-2.36177E-13-5.21412E-14
 -1      1814 2.11301E+01 3.67251E-01-6.72124E-03-1.27494E+00-3.55249E-13-1.13451E-14
 -1      1815 1.98956E+01 4.02200E-01 1.14876E-02-4.31005E-01-2.44704E-13-1.23711E-13
 -1      1816 1.97856E+01 4.31456E-01 1.57419E-02-1.89423E-01-2.31934E-13-2.09303E-13
 -1      1817 2.06270E+01 5.53504E-01-1.28945E-02-7.43968E-01-3.17787E-13-1.57209E-13
 -1      1818 1.97355E+01 4.27700E-01 1.49137E-02 1.29842E-01-2.45556E-13-2.61364E-13
 -1      1819 1.97930E+01 3.88662E-01 9.15789E-03 3.65696E-01-2.21762E-13-3.41441E-13
 -1      1820 2.03810E+01 6.26853E-01-1.53546E-02-6.25252E-02-3.00711E-13-3.26623E-13
 -1      1821 1.98855E+01 3.24486E-01 1.54344E-02 6.28000E-01-2.10863E-13-3.87488E-13
 -1      1822 2.00809E+01 2.32772E-01 2.25526E-03 7.89015E-01-1.62158E-13-4.10054E-13
 -1      1823 2.04260E+01 5.22254E-01-1.13291E-02 5.95152E-01-2.56786E-13-4.26600E-13
 -1      1824 2.02559E+01 1.37955E-01 1.08183E-02 9.22684E-01-1.67276E-13-4.49572E-13
 -1      1825 2.05285E+01 3.52546E-02-2.36299E-03 9.73201E-01-1.38086E-13-4.69349E-13
 -1      1826 2.06944E+01 2.77432E-01-3.35394E-03 1.03813E+00-1.99109E-13-5.21909E-13
 -1      1827 2.07089E+01-5.03617E-02 2.78429E-03 9.64681E-01-1.46983E-13-5.01568E-13
 -1      1828 2.09889E+01-1.26111E-01-4.09289E-03 9.14619E-01-9.42647E-14-5.95439E-13
 -1      1829 2.10487E+01-2.15443E-03 3.65563E-03 1.17144E+00-1.90694E-13-6.02098E-13
 -1      1830 2.11190E+01-1.77635E-01-5.03420E-03 8.02045E-01-5.00255E-14-5.87134E-13
 -1      1831 2.13501E+01-2.11077E-01-3.94291E-03 6.90651E-01 7.57640E-15-6.17399E-13
 -1      1832 2.13578E+01-2.15981E-01 6.88600E-03 1.02833E+00-8.33099E-14-5.99141E-13
 -1      1833 2.14097E+01-2.25446E-01-9.92468E-03 5.31936E-01-1.74444E-14-6.15201E-13
 -1      1834 2.15614E+01-2.22364E-01-3.04737E-03 4.02977E-01-5.77489E-15-6.11421E-13
 -1      1835 2.15478E+01-3.18495E-01 6.73248E-03 7.21045E-01-2.27787E-14-5.85730E-13
 -1      1836 2.15568E+01-2.10419E-01-1.12621E-02 2.47238E-01-1.66048E-14-6.19607E-13
 -1      1837 2.16238E+01-1.86060E-01-2.07706E-03 1.32478E-01-3.05546E-14-5.61300E-13
 -1      1838 2.16056E+01-3.20440E-01 4.95704E-03 3.70125E-01-2.28506E-14-6.11632E-13
 -1      1839 2.15727E+01-1.61761E-01-9.94830E-03 8.11420E-03-5.48064E-14-5.36406E-13
 -1      1840 2.15672E+01-1.30610E-01-1.26441E-03-7.70158E-02-3.68941E-14-5.08078E-13
 -1      1841 2.15541E+01-2.60641E-01 2.94192E-03 6.04737E-02-1.03103E-14-5.57841E-13
 -1      1842 2.14882E+01-1.04576E-01-7.32535E-03-1.60741E-01-9.31989E-14-5.51147E-13
 -1      1843 2.14305E+01-7.59222E-02-6.21442E-04-2.13685E-01-1.01707E-13-5.90722E-13
 -1      1844 2.14282E+01-1.78381E-01 1.31114E-03-1.67944E-01-9.50019E-14-5.61521E-13
 -1      1845 2.13386E+01-5.39086E-02-4.47734E-03-2.59643E-01-1.38256E-13-5.70394E-13
 -1      1846 2.12495E+01-3.18619E-02-1.19769E-04-2.85104E-01-1.19243E-13-5.92709E-13
 -1      1847 2.12605E+01-1.00142E-01 1.74112E-04-3.09298E-01-1.26051E-13-5.54857E-13
 -1      1848 2.11554E+01-1.58321E-02-2.02945E-03-3.01596E-01-7.44728E-14-6.46146E-13
 -1      1849 2.10524E+01-1.05767E-03 2.58280E-04-3.06912E-01-2.27093E-14-6.31961E-13
 -1      1850 2.10763E+01-3.84472E-02-5.48708E-04-3.76505E-01-1.47082E-13-4.78345E-13
 -1      1851 2.09629E+01 9.20670E-03-2.22294E-04-3.03263E-01-2.40510E-14-7.14447E-13
 -1      1852 2.08590E+01 1.77577E-02 5.21070E-04-2.95648E-01-4.31761E-14-7.08952E-13
 -1      1853 2.08933E+01 3.91129E-03-9.67985E-04-3.89188E-01-6.09620E-14-4.88438E-13
 -1      1854 2.07781E+01 2.34010E-02 9.42305E-04-2.79981E-01-7.16899E-14-7.14568E-13
 -1      1855 2.06815E+01 2.73283E-02 6.79019E-04-2.65282E-01 2.29802E-14-6.92128E-13
 -1      1856 2.07228E+01 2.92271E-02-1.17633E-03-3.66592E-01-7.01012E-14-6.22976E-13
 -1      1857 2.06112E+01 2.96793E-02 1.57630E-03-2.43754E-01 8.21805E-14-6.99095E-13
 -1      1858 2.05264E+01 3.05222E-02 7.48802E-04-2.26168E-01 1.09853E-13-7.17613E-13
 -1      1859 2.05711E+01 4.16102E-02-1.24094E-03-3.24426E-01 6.29065E-15-5.93118E-13
 -1      1860 2.04671E+01 3.07475E-02 1.82365E-03-2.02989E-01 1.18490E-13-7.02265E-13
 -1      1861 2.03959E+01 2.97432E-02 7.51016E-04-1.85233E-01 8.61380E-14-6.40015E-13
 -1      1862 2.04408E+01 4.51937E-02-1.20998E-03-2.74089E-01 1.45500E-13-5.42315E-13
 -1      1863 2.03473E+01 2.87367E-02 1.81751E-03-1.63006E-01 3.84696E-14-5.68851E-13
 -1      1864 2.02895E+01 2.67776E-02 7.06613E-04-1.46652E-01 5.10738E-14-4.71146E-13
 -1      1865 2.03323E+01 4.33793E-02-1.11894E-03-2.23080E-01 1.28085E-13-4.90123E-13
 -1      1866 2.02507E+01 2.51649E-02 1.66362E-03-1.26794E-01 1.92352E-14-4.50096E-13
 -1      1867 2.02053E+01 2.28434E-02 6.34110E-04-1.12610E-01 3.87859E-14-4.13584E-13
 -1      1868 2.02444E+01 3.86650E-02-9.94225E-04-1.75827E-01 6.67493E-14-3.96850E-13
 -1      1869 2.01750E+01 2.10303E-02 1.43788E-03-9.57260E-02 5.28750E-14-3.83930E-13
 -1      1870 2.01404E+01 1.87088E-02 5.48199E-04-8.39554E-02 5.78536E-14-3.57692E-13
 -1      1871 2.01748E+01 3.27360E-02-8.55206E-04-1.34564E-01 7.99033E-14-4.15287E-13
 -1      1872 2.01172E+01 1.69385E-02 1.19041E-03-7.01393E-02 1.30425E-14-4.08939E-13
 -1      1873 2.00915E+01 1.48170E-02 4.59496E-04-6.07109E-02 2.24362E-14-3.92697E-13
 -1      1874 2.01210E+01 2.66430E-02-7.15494E-04-1.00063E-01 4.84768E-14-4.18637E-13
 -1      1875 2.00743E+01 1.32200E-02 9.51540E-04-4.97610E-02 3.50249E-14-3.47935E-13
 -1      1876 2.00558E+01 1.13908E-02 3.74982E-04-4.24368E-02 1.01870E-14-4.25736E-13
 -1      1877 2.00804E+01 2.09815E-02-5.84008E-04-7.22040E-02 5.46485E-14-4.39722E-13
 -1      1878 2.00432E+01 1.00240E-02 7.37533E-04-3.40033E-02-7.33428E-14-3.89761E-13
 -1      1879 2.00304E+01 8.51236E-03 2.98729E-04-2.84735E-02-5.76901E-14-3.76181E-13
 -1      1880 2.00505E+01 1.60414E-02-4.65963E-04-5.03731E-02 1.00105E-14-3.58270E-13
 -1      1881 2.00215E+01 7.38769E-03 5.55350E-04-2.21532E-02-2.00042E-14-3.37935E-13
 -1      1882 2.00130E+01 6.18014E-03 2.32667E-04-1.80951E-02 6.77952E-14-3.69161E-13
 -1      1883 2.00290E+01 1.19198E-02-3.63800E-04-3.37323E-02 4.11401E-16-3.47190E-13
 -1      1884 2.00069E+01 5.28369E-03 4.06165E-04-1.34888E-02 6.87865E-14-4.23338E-13
 -1      1885 2.00015E+01 4.34701E-03 1.77258E-04-1.05996E-02-3.22948E-14-3.76170E-13
 -1      1886 2.00141E+01 8.59990E-03-2.78014E-04-2.13870E-02 6.14268E-15-2.99925E-13
 -1      1887 1.99976E+01 3.65208E-03 2.87854E-04-7.34328E-03-1.03542E-13-3.23340E-13
 -1      1888 1.99945E+01 2.94508E-03 1.32037E-04-5.35685E-03-4.71911E-14-3.01628E-13
 -1      1889 2.00041E+01 6.00441E-03-2.07833E-04-1.24852E-02-3.54332E-14-3.83348E-13
 -1      1890 1.99921E+01 2.42022E-03 1.96660E-04-3.13585E-03 3.90107E-14-2.64769E-13
 -1      1891 1.99906E+01 1.90088E-03 9.60142E-05-1.82838E-03 7.95675E-14-1.20165E-13
 -1      1892 1.99978E+01 4.02986E-03-1.51751E-04-6.26786E-03 4.57012E-14-3.06792E-13
 -1      1893 1.99892E+01 1.51465E-03 1.28240E-04-3.81192E-04 2.37747E-14-1.11609E-13
 -1      1894 1.99888E+01 1.14406E-03 6.79594E-05 4.29104E-04 2.87277E-14-1.17892E-13
 -1      1895 1.99941E+01 2.56720E-03-1.07909E-04-2.08981E-03 9.42380E-14-3.19662E-14
 -1      1896 1.99882E+01 8.67621E-04 7.82970E-05 1.31307E-03-4.03245E-14-8.35878E-14
 -1      1897 1.99884E+01 6.11829E-04 4.65845E-05 1.76964E-03 4.22083E-15-3.45739E-14
 -1      1898 1.99922E+01 1.51350E-03-7.43640E-05 5.78388E-04 3.29911E-14 8.18936E-14
 -1      1899 1.99883E+01 4.20145E-04 4.29105E-05 2.25542E-03-7.99143E-14-1.20112E-13
 -1      1900 1.99889E+01 2.50730E-04 3.06599E-05 2.46860E-03-9.47933E-14-2.13679E-13
 -1      1901 1.99915E+01 7.77777E-04-4.92506E-05 2.15859E-03-1.02453E-13 1.02804E-13
 -1      1902 1.99891E+01 1.22907E-04 1.86950E-05 2.68238E-03-6.77223E-14-3.06561E-13
 -1      1903 1.99899E+01 1.68532E-05 1.90770E-05 2.73492E-03-1.05432E-13-3.40803E-13
 -1      1904 1.99917E+01 2.83132E-04-3.08804E-05 2.97840E-03-8.57644E-14 8.48901E-14
 -1      1905 1.99903E+01-6.40225E-05 2.83735E-06 2.77086E-03-8.16263E-14-2.61157E-13
 -1      1906 1.99912E+01-1.24859E-04 1.08756E-05 2.72332E-03-1.38726E-14-2.70893E-13
 -1      1907 1.99923E+01-3.32417E-05-1.77858E-05 3.28611E-03-1.98451E-14 1.01497E-13
 -1      1908 1.99916E+01-1.72129E-04-6.92825E-06 2.64995E-03 1.45017E-13-7.85098E-14
 -1      1909 1.99925E+01-2.01713E-04 5.24938E-06 2.54541E-03 2.70873E-13 6.24176E-14
 -1      1910 1.99932E+01-2.21230E-04-8.73070E-06 3.26537E-03 1.91899E-13 1.52711E-13
 -1      1911 1.99930E+01-2.25666E-04-1.23791E-05 2.41119E-03 1.03177E-13-1.03151E-13
 -1      1912 1.99938E+01-2.34515E-04 1.53639E-06 2.27933E-03-3.55007E-15-9.64910E-14
 -1      1913 1.99941E+01-3.19511E-04-2.70175E-06 3.04851E-03 1.30610E-13 9.21745E-14
 -1      1914 1.99942E+01-2.42927E-04-1.48766E-05 2.11738E-03-8.39043E-14-1.29004E-13
 -1      1915 1.99949E+01-2.38801E-04-7.97197E-07 1.97777E-03-1.34144E-13-1.27661E-13
 -1      1916 1.99951E+01-3.57433E-04 1.11318E-06 2.72807E-03-5.24570E-14 7.50984E-14
 -1      1917 1.99954E+01-2.37445E-04-1.54397E-05 1.80970E-03-2.27139E-13-1.42379E-13
 -1      1918 1.99960E+01-2.25973E-04-2.17761E-06 1.67448E-03-1.42997E-13-6.71110E-14
 -1      1919 1.99959E+01-3.56824E-04 3.35109E-06 2.36630E-03-2.51477E-13 2.37124E-13
 -1      1920 1.99964E+01-2.19078E-04-1.48135E-05 1.51339E-03-1.60223E-13-1.67646E-13
 -1      1921 1.99969E+01-2.04296E-04-2.94356E-06 1.38925E-03 2.18716E-14-1.77324E-13
 -1      1922 1.99968E+01-3.33659E-04 4.50096E-06 2.00292E-03-1.85238E-13 2.88170E-13
 -1      1923 1.99972E+01-1.94946E-04-1.35258E-05 1.24208E-03 2.46490E-13-2.92412E-13
 -1      1924 1.99976E+01-1.79764E-04-3.35999E-06 1.13178E-03 3.48543E-13-2.02018E-13
 -1      1925 1.99974E+01-2.99505E-04 4.92962E-06 1.66105E-03 4.88002E-14 1.25841E-13
 -1      1926 1.99979E+01-1.70245E-04-1.19245E-05 1.00099E-03 3.53153E-13-1.23232E-13
 -1      1927 1.99983E+01-1.56838E-04-3.63493E-06 9.04392E-04 4.00158E-13 1.07798E-13
 -1      1928 1.99980E+01-2.62784E-04 4.90491E-06 1.35179E-03 3.68959E-13 1.60506E-14
 -1      1929 1.99985E+01-1.48930E-04-1.02331E-05 7.89145E-04 2.94828E-13-1.63887E-14
 -1      1930 1.99987E+01-1.38839E-04-3.84227E-06 7.03922E-04 2.10839E-13-3.20744E-14
 -1      1931 1.99985E+01-2.29803E-04 4.60686E-06 1.07749E-03 2.53440E-13 5.05694E-16
 -1      1932 1.99989E+01-1.33656E-04-8.48326E-06 6.01271E-04 1.38915E-14-1.10115E-13
 -1      1933 1.99991E+01-1.28113E-04-4.02121E-06 5.23838E-04-3.46396E-14-1.53402E-13
 -1      1934 1.99989E+01-2.04762E-04 4.23908E-06 8.34205E-04 5.48748E-14-1.59498E-13
 -1      1935 1.99993E+01-1.26322E-04-6.54951E-06 4.29490E-04 7.99398E-14-1.55464E-13
 -1      1936 1.99994E+01-1.24724E-04-3.99268E-06 3.55532E-04 1.26120E-13-1.04340E-13
 -1      1937 1.99992E+01-1.91557E-04 3.44837E-06 6.14976E-04-1.37629E-15-1.18419E-13
 -1      1938 1.99995E+01-1.21631E-04-5.01440E-06 2.71216E-04 1.69899E-13-1.22087E-13
 -1      1939 1.99996E+01-1.19254E-04-4.16739E-06 2.01853E-04 1.28674E-13-5.14083E-14
 -1      1940 1.99996E+01-1.61491E-04 2.74415E-06 2.40632E-04 6.66364E-14-1.37764E-13
 -1      1941 1.99995E+01-1.80717E-04 4.24478E-06 4.16612E-04 7.73682E-14 1.84392E-14
 -1      1942 2.74108E+01-5.53299E-01-2.38844E-03 1.45558E+00 2.52106E-13 1.22915E-12
 -1      1943 2.79503E+01-4.64841E-01 1.15041E-02 1.10328E+00 2.69658E-13 1.30851E-12
 -1      1944 2.75754E+01-5.60990E-01-4.60700E-04 1.27677E+00 3.23424E-13 1.04698E-12
 -1      1945 2.64471E+01-4.48062E-01 4.91389E-03 2.35399E+00 2.72206E-13 1.09903E-12
 -1      1946 2.71646E+01-5.75976E-01 4.21530E-04 1.88593E+00 2.10727E-13 1.18128E-12
 -1      1947 2.72130E+01-7.60436E-01 1.34818E-02 2.13383E+00 2.62769E-13 1.02002E-12
 -1      1948 2.50768E+01 1.94796E-01-9.20363E-03 2.67177E+00 2.87922E-13 9.21527E-13
 -1      1949 2.59475E+01-1.50165E-01-1.93585E-02 2.50944E+00 2.74659E-13 1.01224E-12
 -1      1950 2.65093E+01-2.69389E-01-1.08396E-03 2.94370E+00 3.38448E-13 9.09065E-13
 -1      1951 2.37402E+01 1.02589E+00-5.11012E-02 1.64991E+00 3.94657E-13 5.45166E-13
 -1      1952 2.44908E+01 7.06312E-01-3.24301E-02 2.15031E+00 3.36980E-13 7.58754E-13
 -1      1953 2.54532E+01 8.16692E-01-4.46715E-02 2.68431E+00 4.12816E-13 6.36285E-13
 -1      1954 2.32977E+01 1.22123E+00-8.06260E-02-3.91353E-01 5.47763E-13 4.85098E-14
 -1      1955 2.35363E+01 1.27320E+00-2.61639E-02 5.58178E-01 4.67085E-13 2.72911E-13
 -1      1956 2.46328E+01 1.67532E+00-8.08921E-02 9.17086E-01 6.02768E-13 1.62267E-13
 -1      1957 2.40349E+01 5.57665E-01-5.87214E-02-2.01437E+00 4.02414E-13-3.26239E-13
 -1      1958 2.36364E+01 9.39198E-01-1.50128E-02-1.29486E+00 5.10730E-13-1.14363E-13
 -1      1959 2.46857E+01 1.44802E+00-5.41670E-02-1.34040E+00 6.24820E-13-2.77205E-13
 -1      1960 2.52178E+01-2.71305E-01-6.70640E-03-2.24003E+00 1.97766E-13-6.11875E-13
 -1      1961 2.44980E+01 7.53108E-02-1.45379E-02-2.14216E+00 2.76373E-13-4.54626E-13
 -1      1962 2.53529E+01 3.40360E-01-1.47786E-02-2.48584E+00 3.90993E-13-5.80244E-13
 -1      1963 2.59639E+01-6.47609E-01 2.68774E-02-1.37630E+00-1.26323E-14-6.05184E-13
 -1      1964 2.53689E+01-5.49633E-01-1.98829E-02-1.73097E+00 9.69017E-14-5.53391E-13
 -1      1965 2.58566E+01-6.62987E-01-9.12354E-03-2.07772E+00 1.43377E-13-6.68061E-13
 -1      1966 2.60080E+01-5.80687E-01 2.93357E-02-2.75514E-01-4.65912E-14-4.35822E-13
 -1      1967 2.57678E+01-6.61317E-01-1.95175E-02-7.27343E-01-4.56510E-14-4.72748E-13
 -1      1968 2.58165E+01-9.66789E-01-1.41775E-02-8.93175E-01-7.65429E-14-5.66995E-13
 -1      1969 2.55270E+01-3.46851E-01 1.53700E-02 5.30447E-01 1.49689E-14-3.65073E-13
 -1      1970 2.56312E+01-4.70192E-01-1.53108E-02 1.95452E-01-2.06918E-14-3.85201E-13
 -1      1971 2.53394E+01-7.57617E-01-1.64871E-02 2.27182E-01-4.48253E-14-4.56442E-13
 -1      1972 2.47828E+01-1.34560E-01 2.78368E-03 9.36756E-01 1.36853E-13-2.93755E-13
 -1      1973 2.51095E+01-2.29601E-01-1.01024E-02 7.62770E-01 6.82510E-14-3.02263E-13
 -1      1974 2.46521E+01-4.06432E-01-1.32023E-02 9.29711E-01 6.09356E-14-3.64766E-13
 -1      1975 2.39655E+01-3.15428E-05-3.43582E-03 1.04160E+00 1.28772E-13-3.17578E-13
 -1      1976 2.43893E+01-5.37032E-02-4.71828E-03 9.91376E-01 9.61982E-14-2.61650E-13
 -1      1977 2.39112E+01-1.24989E-01-7.73236E-03 1.22422E+00 1.08508E-13-2.77204E-13
 -1      1978 2.31864E+01 6.50923E-02-4.97504E-03 9.75357E-01 6.58089E-15-2.81809E-13
 -1      1979 2.36190E+01 4.30467E-02-2.19956E-04 9.96645E-01 1.03835E-13-3.23554E-13
 -1      1980 2.32005E+01 4.03969E-02-3.12541E-03 1.24399E+00 1.29255E-13-1.45186E-13
 -1      1981 2.24984E+01 8.64739E-02-4.37964E-03 8.35742E-01-7.43329E-16-2.60756E-13
 -1      1982 2.28912E+01 8.27109E-02 2.69533E-03 8.88815E-01-3.79124E-14-2.31304E-13
 -1      1983 2.25608E+01 1.13553E-01-5.78992E-04 1.12026E+00-4.44185E-14-1.86199E-13
 -1      1984 2.19196E+01 8.53105E-02-3.21048E-03 6.79497E-01 7.13934E-14-3.63258E-13
 -1      1985 2.22528E+01 9.02080E-02 4.11670E-03 7.40826E-01 3.62726E-14-3.17519E-13
 -1      1986 2.20089E+01 1.32099E-01 4.01819E-04 9.42077E-01 6.59620E-14-2.51211E-13
 -1      1987 2.14489E+01 7.46789E-02-2.12333E-03 5.34150E-01-5.32100E-14-3.50790E-13
 -1      1988 2.17195E+01 8.26769E-02 4.47036E-03 5.92080E-01 6.92228E-14-3.47610E-13
 -1      1989 2.15482E+01 1.24015E-01 5.48840E-04 7.58987E-01 5.07745E-14-2.42871E-13
 -1      1990 2.10755E+01 6.14583E-02-1.29981E-03 4.10193E-01-2.22859E-13-3.52782E-13
 -1      1991 2.12887E+01 6.97824E-02 4.20607E-03 4.60096E-01-1.54635E-13-3.14940E-13
 -1      1992 2.11735E+01 1.05742E-01 3.70360E-04 5.94086E-01-1.37765E-13-2.54489E-13
 -1      1993 2.07849E+01 4.87996E-02-7.33802E-04 3.09454E-01-2.02819E-13-2.63248E-13
 -1      1994 2.09493E+01 5.62691E-02 3.65921E-03 3.50329E-01-2.05750E-13-2.74849E-13
 -1      1995 2.08751E+01 8.55851E-02 1.29925E-04 4.55370E-01-2.51256E-13-2.08397E-13
 -1      1996 2.05625E+01 3.78818E-02-3.67024E-04 2.29960E-01-6.22245E-14-1.13636E-13
 -1      1997 2.06871E+01 4.41292E-02 3.03481E-03 2.62436E-01-1.84844E-13-2.65883E-13
 -1      1998 2.06417E+01 6.71486E-02-6.65219E-05 3.43265E-01-1.95602E-13-2.84197E-13
 -1      1999 2.03948E+01 2.89470E-02-1.40049E-04 1.68446E-01 3.01766E-13-3.18992E-14
 -1      2000 2.04878E+01 3.39751E-02 2.43933E-03 1.93736E-01 1.85249E-13 4.60518E-14
 -1      2001 2.04620E+01 5.16287E-02-1.93457E-04 2.54961E-01 1.20546E-13-1.33401E-13
 -1      2002 2.02701E+01 2.18462E-02-6.24385E-06 1.21529E-01 7.83269E-14-2.93227E-13
 -1      2003 2.03385E+01 2.58009E-02 1.91807E-03 1.40936E-01 2.49793E-13-1.44480E-13
 -1      2004 2.03258E+01 3.91202E-02-2.58558E-04 1.86638E-01 2.68552E-13-6.11862E-14
 -1      2005 2.01788E+01 1.63022E-02 6.74405E-05 8.61750E-02-1.99358E-13-3.70991E-13
 -1      2006 2.02284E+01 1.93661E-02 1.48316E-03 1.00889E-01-1.44616E-13-3.23584E-13
 -1      2007 2.02240E+01 2.92870E-02-2.78781E-04 1.34503E-01-1.00908E-13-2.06387E-13
 -1      2008 2.01131E+01 1.20252E-02 1.03323E-04 5.98401E-02-7.66736E-14-1.55721E-13
 -1      2009 2.01484E+01 1.43724E-02 1.13087E-03 7.08690E-02-1.69758E-13-2.56020E-13
 -1      2010 2.01491E+01 2.16762E-02-2.70412E-04 9.51996E-02-1.64561E-13-2.57339E-13
 -1      2011 2.00668E+01 8.75630E-03 1.16093E-04 4.04604E-02 1.89513E-13-3.11068E-13
 -1      2012 2.00913E+01 1.05371E-02 8.51094E-04 4.86295E-02 9.17764E-14-2.15299E-13
 -1      2013 2.00949E+01 1.58494E-02-2.46025E-04 6.59201E-02 9.75885E-14-1.98542E-13
 -1      2014 2.00348E+01 6.27942E-03 1.15269E-04 2.63942E-02 1.08203E-13-2.33311E-13
 -1      2015 2.00515E+01 7.61752E-03 6.32127E-04 3.23653E-02 1.22132E-13-2.42322E-13
 -1      2016 2.00566E+01 1.14282E-02-2.14293E-04 4.43835E-02 1.17822E-13-1.77006E-13
 -1      2017 2.00135E+01 4.41973E-03 1.06940E-04 1.63506E-02-8.57990E-14-1.89940E-13
 -1      2018 2.00244E+01 5.41464E-03 4.62804E-04 2.06475E-02-9.44713E-14-2.20264E-13
 -1      2019 2.00300E+01 8.10265E-03-1.80736E-04 2.87697E-02-7.42902E-14-9.29822E-14
 -1      2020 1.99999E+01 3.03796E-03 9.49466E-05 9.32236E-03 2.16874E-13-1.93469E-13
 -1      2021 2.00067E+01 3.76869E-03 3.33320E-04 1.23566E-02 9.09825E-14-1.94688E-13
 -1      2022 2.00122E+01 5.62507E-03-1.48597E-04 1.76429E-02 8.01943E-14-5.23743E-14
 -1      2023 1.99918E+01 2.02395E-03 8.16649E-05 4.52909E-03 1.50619E-13-3.24594E-13
 -1      2024 1.99957E+01 2.55285E-03 2.35414E-04 6.62136E-03 1.98463E-13-2.99484E-13
 -1      2025 2.00008E+01 3.79977E-03-1.19584E-04 9.87967E-03 2.45441E-13-2.33541E-13
 -1      2026 1.99874E+01 1.29095E-03 6.85151E-05 1.37029E-03-1.28335E-13-3.04616E-13
 -1      2027 1.99893E+01 1.66697E-03 1.62283E-04 2.76897E-03 2.69063E-14-2.67812E-13
 -1      2028 1.99938E+01 2.47306E-03-9.44254E-05 4.60780E-03 4.36649E-14-2.18577E-13
 -1      2029 1.99855E+01 7.70843E-04 5.62995E-05-6.12398E-04-1.49993E-13-5.33190E-13
 -1      2030 1.99862E+01 1.03223E-03 1.08409E-04 2.83398E-04-1.61392E-13-5.14390E-13
 -1      2031 1.99901E+01 1.52466E-03-7.32504E-05 1.15524E-03-4.43692E-14-3.45233E-13
 -1      2032 1.99854E+01 4.10350E-04 4.54223E-05-1.76557E-03-1.53413E-14-2.11679E-13
 -1      2033 1.99852E+01 5.86824E-04 6.93557E-05-1.22756E-03-8.32025E-14-3.90095E-13
 -1      2034 1.99884E+01 8.60672E-04-5.58494E-05-9.91212E-04-8.67122E-14-3.91743E-13
 -1      2035 1.99862E+01 1.68035E-04 3.60350E-05-2.34835E-03-2.08354E-13-9.09888E-14
 -1      2036 1.99855E+01 2.82539E-04 4.15869E-05-2.05896E-03-4.30184E-14-1.83275E-13
 -1      2037 1.99882E+01 4.08155E-04-4.18383E-05-2.21946E-03-3.31577E-14-9.28739E-14
 -1      2038 1.99876E+01 1.18899E-05 2.81337E-05-2.55186E-03 1.04236E-14-2.59287E-13
 -1      2039 1.99866E+01 8.19720E-05 2.23083E-05-2.43003E-03-3.96281E-14-1.89879E-13
 -1      2040 1.99888E+01 1.10726E-04-3.07620E-05-2.81920E-03 3.89252E-14-1.30343E-13
 -1      2041 1.99892E+01-8.25865E-05 2.16230E-05-2.51476E-03 1.16153E-13-1.45209E-13
 -1      2042 1.99882E+01-4.36422E-05 9.32888E-06-2.50124E-03 2.56557E-14-2.05726E-13
 -1      2043 1.99899E+01-7.48553E-05-2.21568E-05-3.00366E-03 6.28551E-14-1.68765E-13
 -1      2044 1.99908E+01-1.33952E-04 1.63583E-05-2.33567E-03 1.70239E-13-3.49256E-13
 -1      2045 1.99898E+01-1.16213E-04 9.47339E-07-2.38796E-03 2.26537E-13-1.97865E-13
 -1      2046 1.99912E+01-1.81440E-04-1.55857E-05-2.92718E-03 2.19310E-13-1.58679E-13
 -1      2047 1.99924E+01-1.56093E-04 1.21729E-05-2.08294E-03-9.36267E-14-2.57480E-13
 -1      2048 1.99915E+01-1.52239E-04-4.14398E-06-2.17127E-03-2.17576E-14-3.23629E-13
 -1      2049 1.99925E+01-2.33708E-04-1.06562E-05-2.69907E-03 2.97933E-14-2.09245E-13
 -1      2050 1.99939E+01-1.59264E-04 8.89521E-06-1.80237E-03-4.97112E-13-2.31522E-13
 -1      2051 1.99930E+01-1.63983E-04-6.93899E-06-1.90654E-03-2.79609E-13-3.41922E-13
 -1      2052 1.99938E+01-2.49968E-04-7.02787E-06-2.39472E-03-2.40180E-13-2.28607E-13
 -1      2053 1.99952E+01-1.50940E-04 6.35777E-06-1.52315E-03-3.44923E-13-7.97845E-14
 -1      2054 1.99944E+01-1.60445E-04-8.18449E-06-1.63005E-03-3.29832E-13-2.38342E-13
 -1      2055 1.99950E+01-2.43619E-04-4.41243E-06-2.06425E-03-4.35866E-13-3.43806E-13
 -1      2056 1.99962E+01-1.36512E-04 4.40204E-06-1.26240E-03-1.98897E-13-5.35004E-14
 -1      2057 1.99956E+01-1.48149E-04-8.43498E-06-1.36413E-03-2.41232E-13-1.08971E-13
 -1      2058 1.99960E+01-2.24340E-04-2.57098E-06-1.73916E-03-3.36782E-13-3.14812E-13
 -1      2059 1.99972E+01-1.19868E-04 2.87977E-06-1.02856E-03-2.20253E-13 4.27647E-14
 -1      2060 1.99966E+01-1.31789E-04-8.09666E-06-1.12101E-03-1.90910E-13-3.22707E-14
 -1      2061 1.99969E+01-1.99063E-04-1.30823E-06-1.43747E-03-2.14119E-13-1.33875E-13
 -1      2062 1.99979E+01-1.03906E-04 1.66289E-06-8.23741E-04 4.22734E-13-2.97384E-13
 -1      2063 1.99975E+01-1.14800E-04-7.45654E-06-9.05639E-04 1.43100E-14-1.29063E-13
 -1      2064 1.99976E+01-1.72806E-04-4.66158E-07-1.16739E-03 1.86328E-13-4.12955E-13
 -1      2065 1.99985E+01-9.08922E-05 6.59705E-07-6.45353E-04 5.54269E-13-3.25598E-13
 -1      2066 1.99982E+01-9.98067E-05-6.70398E-06-7.17612E-04 6.32032E-13-2.18120E-13
 -1      2067 1.99983E+01-1.49317E-04 9.86310E-08-9.30055E-04 5.81332E-13-3.48789E-13
 -1      2068 1.99990E+01-8.24995E-05-1.00338E-07-4.87222E-04 1.20655E-14-2.03966E-13
 -1      2069 1.99987E+01-8.88668E-05-5.92568E-06-5.52545E-04 2.62140E-13-1.80097E-13
 -1      2070 1.99988E+01-1.31513E-04 5.05812E-07-7.21305E-04 2.24402E-13-1.17900E-13
 -1      2071 1.99993E+01-7.94953E-05-5.08672E-07-3.41560E-04 1.10071E-13-2.24743E-13
 -1      2072 1.99991E+01-8.30499E-05-5.02869E-06-4.03542E-04 1.91303E-14-2.19801E-13
 -1      2073 1.99991E+01-1.20795E-04 1.00024E-06-5.33607E-04 2.99321E-14-2.18963E-13
 -1      2074 1.99996E+01-8.13389E-05-1.71951E-06-2.01805E-04 1.27632E-13-2.05705E-14
 -1      2075 1.99994E+01-8.18115E-05-3.73033E-06-2.63362E-04 1.62078E-13-1.61778E-13
 -1      2076 1.99994E+01-1.17848E-04 1.30993E-06-3.59167E-04 8.48273E-14-1.27059E-13
 -1      2077 1.99997E+01-7.94238E-05-2.97592E-06-1.02147E-04-3.56353E-13 3.04388E-14
 -1      2078 1.99996E+01-8.54074E-05-2.61049E-06-1.59588E-04-3.95002E-14 8.26871E-14
 -1      2079 1.99996E+01-1.20713E-04 1.32702E-06-2.26759E-04-1.03162E-13 1.94069E-13
 -1      2080 1.99997E+01-1.16724E-04-9.27233E-08-1.34042E-04-4.59820E-13 2.47503E-13
 -1      2081 1.99998E+01-7.42815E-04 1.71985E-06-4.09346E-04-5.52128E-13-1.89633E-13
 -1      2082 1.99998E+01-6.11845E-04-2.52652E-06-3.96020E-04-3.51467E-13-4.63133E-13
 -1      2083 1.99997E+01-4.88460E-04 3.57152E-07-3.64174E-04-4.79982E-13-5.19831E-13
 -1      2084 1.99997E+01-3.71963E-04-3.15609E-06-3.20722E-04-3.74146E-13-1.72515E-13
 -1      2085 1.99997E+01-5.65045E-04 1.53180E-07-4.89932E-04-4.70548E-13-3.55988E-13
 -1      2086 1.99997E+01-2.82385E-04-6.37160E-07-2.62091E-04-4.38376E-13 4.01488E-14
 -1      2087 1.99997E+01-1.91943E-04-2.69763E-06-2.02067E-04-4.82114E-13 2.00558E-13
 -1      2088 1.99997E+01-1.97046E-04-1.79104E-06-2.51037E-04-3.98641E-13 2.06166E-13
 -1      2089 1.99997E+01-3.56804E-04 1.26618E-06-3.86308E-04-5.01213E-13-5.84303E-14
 -1      2090 1.99998E+01-9.88258E-04 3.10055E-06-3.90566E-04-7.71375E-13-1.39688E-13
 -1      2091 1.99998E+01-8.61980E-04-6.66771E-07-4.05495E-04-6.07525E-13-1.04781E-13
 -1      2092 1.99998E+01-8.05829E-04-1.16457E-06-5.19113E-04-3.97280E-13-2.40083E-13
 -1      2093 1.99999E+01-1.20184E-03 4.25588E-06-3.13330E-04-4.40814E-13 3.49980E-13
 -1      2094 1.99999E+01-1.09446E-03 1.30646E-06-3.52969E-04-6.47180E-13 5.40415E-13
 -1      2095 1.99999E+01-1.03089E-03-2.53668E-06-4.71490E-04-4.23164E-13 2.05108E-13
 -1      2096 1.99999E+01-1.35117E-03 4.90476E-06-1.91238E-04-2.10853E-13 1.68437E-14
 -1      2097 1.99999E+01-1.28026E-03 3.07269E-06-2.48565E-04-3.15986E-13 2.92440E-13
 -1      2098 1.99999E+01-1.21561E-03-3.76435E-06-3.55516E-04-1.91090E-13 3.79045E-13
 -1      2099 1.99999E+01-1.41713E-03 4.94057E-06-4.26639E-05 6.21657E-14 5.63870E-13
 -1      2100 1.99999E+01-1.39263E-03 4.32993E-06-1.09188E-04-8.43530E-14 9.59626E-14
 -1      2101 2.00000E+01-1.33574E-03-4.56713E-06-1.89884E-04-1.52814E-14 2.47764E-13
 -1      2102 1.99999E+01-1.39138E-03 4.31792E-06 1.11689E-04-5.95578E-14 1.61824E-13
 -1      2103 1.99999E+01-1.41672E-03 4.94762E-06 4.52508E-05-1.64155E-14 6.10987E-13
 -1      2104 2.00000E+01-1.37690E-03-4.83513E-06 1.66045E-06-3.57467E-15 6.07733E-13
 -1      2105 1.99999E+01-1.27747E-03 3.09902E-06 2.50599E-04-5.54867E-14-3.03651E-13
 -1      2106 1.99999E+01-1.34920E-03 4.86823E-06 1.93550E-04-7.77195E-14-8.18191E-14
 -1      2107 2.00000E+01-1.33417E-03-4.53703E-06 1.92970E-04-1.75568E-13-6.07582E-14
 -1      2108 1.99999E+01-1.09429E-03 1.31273E-06 3.52873E-04 1.50524E-13-3.03407E-13
 -1      2109 1.99999E+01-1.20009E-03 4.22683E-06 3.14098E-04 7.51846E-14-2.34486E-13
 -1      2110 1.99999E+01-1.21412E-03-3.79685E-06 3.56870E-04 1.72120E-13-1.81151E-13
 -1      2111 1.99998E+01-8.59525E-04-7.03170E-07 4.05385E-04 2.70690E-13 2.46870E-13
 -1      2112 1.99998E+01-9.88030E-04 3.11815E-06 3.90493E-04 2.24267E-13 3.35668E-14
 -1      2113 1.99999E+01-1.03047E-03-2.53641E-06 4.71528E-04 3.28877E-13-1.40989E-13
 -1      2114 1.99998E+01-6.07384E-04-2.53199E-06 3.95285E-04 1.42732E-13 1.92922E-14
 -1      2115 1.99998E+01-7.38423E-04 1.75576E-06 4.08836E-04 2.67747E-13-2.08425E-15
 -1      2116 1.99998E+01-8.03054E-04-7.71842E-07 5.18755E-04 4.14667E-13 1.29869E-13
 -1      2117 1.99997E+01-3.62059E-04-1.02804E-06 3.20325E-04 4.58931E-14 1.23547E-14
 -1      2118 1.99997E+01-4.84005E-04 4.84893E-07 3.62780E-04 6.88539E-14 8.03497E-14
 -1      2119 1.99997E+01-5.61437E-04 2.00443E-07 4.88062E-04 9.56597E-14-3.00384E-14
 -1      2120 1.10862E+01-4.74338E+00-1.52098E-01 6.44275E+00 8.19900E-13 1.08509E-12
 -1      2121 7.55534E+00-5.81398E+00-3.21200E-01 5.37994E+00 4.57745E-13 1.12965E-12
 -1      2122 3.56009E-01-6.39581E+00-4.15557E-01 4.32397E-01 3.23103E-13 1.26804E-12
 -1      2123 3.79292E-01-6.61984E+00-4.54097E-01-1.10461E+00 2.25930E-14 1.47582E-12
 -1      2124 3.71591E+00-5.38323E+00-2.71890E-01 4.09388E+00 5.28300E-13 1.18200E-12
 -1      2125 1.66777E+00-6.29126E+00-4.18835E-01 2.32279E+00 2.55518E-13 1.12821E-12
 -1      2126 1.90934E+01-3.37814E+00-3.75151E-02 6.97333E+00 1.01497E-12 9.33864E-13
 -1      2127 1.42738E+01-4.99194E+00-3.48996E-01 6.19889E+00 8.81184E-13 9.75831E-13
 -1      2128 1.53693E+01-5.24810E+00-5.69120E-02 6.78532E+00 7.67164E-14 7.03215E-13
 -1      2129 2.85877E+01-4.35868E-01 1.31961E-01 6.07359E+00 1.22474E-12 7.79710E-13
 -1      2130 2.31937E+01-2.26338E+00-2.00241E-01 5.87715E+00 1.19210E-12 9.08884E-13
 -1      2131 2.17861E+01 3.19077E+00-2.72116E-02-1.56568E+00-2.48845E-13-7.58931E-13
 -1      2132 2.21006E+01 3.28295E+00-4.88956E-02-2.03546E+00-3.69522E-13-6.78568E-13
 -1      2133 2.26979E+01 2.48974E+00-1.11195E-02-2.30595E+00-4.37323E-13-5.26371E-13
 -1      2134 2.20641E+01 2.33750E+00-1.27325E-02-1.42080E+00-2.18315E-13-6.95489E-13
 -1      2135 4.07559E+01 5.74204E+00 3.75869E-01 1.62207E+00 1.60161E-12-3.68261E-13
 -1      2136 3.79919E+01 4.70552E+00 1.97882E-01 2.49995E+00 1.57718E-12 2.57572E-14
 -1      2137 4.11667E+01 7.13126E+00 3.15971E-01 3.73331E-01 1.72690E-12-7.50268E-13
 -1      2138 4.15266E+01 6.78227E+00 4.09162E-01 1.37148E+00 1.68277E-12-3.67539E-13
 -1      2139 3.69597E+01 6.79187E+00 3.67876E-01-9.34734E-02 1.72606E-12-5.67102E-13
 -1      2140 3.94231E+01 5.48394E+00 2.29992E-01-4.62718E-01 1.74005E-12-1.07092E-12
 -1      2141 4.08253E+01 6.58397E+00 3.47886E-01 3.95736E-01 1.75154E-12-7.13124E-13
 -1      2142 3.51912E+01 2.58902E+00 6.65156E-02-1.46377E+00 1.67016E-12-1.21247E-12
 -1      2143 3.89078E+01 4.03786E+00 3.35869E-01-1.08694E+00 1.69462E-12-1.14864E-12
 -1      2144 3.61663E+01 4.98125E+00 2.49598E-01 1.38463E+00 1.62381E-12-3.44835E-13
 -1      2145 2.79802E+01-1.02623E+00-1.20827E-01-3.97352E+00 1.61476E-12-1.64058E-12
 -1      2146 3.26383E+01 2.81307E-01 9.13346E-02-3.25960E+00 1.55326E-12-1.37435E-12
 -1      2147 1.90296E+01-3.23712E+00-3.25250E-01-5.22838E+00 1.50957E-12-1.82726E-12
 -1      2148 2.43951E+01-2.01129E+00-2.25929E-02-5.49529E+00 1.56036E-12-1.74250E-12
 -1      2149 9.91708E+00-4.20683E+00-4.62550E-01-4.88040E+00 1.38423E-12-1.96494E-12
 -1      2150 1.43795E+01-3.01763E+00-1.96828E-01-5.97012E+00 1.64668E-12-2.08211E-12
 -1      2151 3.93895E+00-4.23883E+00-4.00793E-01-3.21933E+00 8.01303E-13-1.88644E-12
 -1      2152 6.72491E+00-3.54553E+00-2.46267E-01-4.53674E+00 1.25061E-12-2.03856E-12
 -1      2153 7.56127E-01-3.46525E+00-2.92438E-01-6.07288E-01 2.63803E-13-1.85674E-12
 -1      2154 1.80611E+00-3.73849E+00-3.17453E-01-1.96661E+00 8.29059E-13-1.94328E-12
 -1      2155 1.28150E+00-3.14198E+00-2.73380E-01 2.77036E+00-3.22464E-13-1.81422E-12
 -1      2156 5.94799E-01-3.14006E+00-2.56837E-01 1.38807E+00 2.57440E-13-1.83348E-12
 -1      2157 5.81578E+00-2.04917E+00-1.51689E-01 5.58416E+00-4.85445E-13-1.77316E-12
 -1      2158 2.98704E+00-3.33279E+00-3.49470E-01 3.97025E+00-3.08031E-13-1.75879E-12
 -1      2159 3.67163E+00-1.00512E+00-5.08902E-02 4.13012E+00 1.57513E-13-1.97187E-12
 -1      2160 1.35594E+01-1.36810E+00-3.79987E-02 6.98369E+00-1.31350E-12-1.85171E-12
 -1      2161 1.01956E+01-2.32233E+00-1.06910E-01 6.39946E+00-7.66720E-13-1.63211E-12
 -1      2162 2.08942E+01-3.46973E-02 3.08889E-02 7.04621E+00-1.61127E-12-1.88205E-12
 -1      2163 1.63778E+01-1.42217E+00-2.50524E-01 6.50656E+00-1.42120E-12-1.81588E-12
 -1      2164 1.72802E+01-2.37970E+00-5.92837E-02 6.59919E+00-3.86524E-13-1.34801E-12
 -1      2165 2.92505E+01 1.96077E+00 1.40079E-01 5.82817E+00-1.79254E-12-1.73173E-12
 -1      2166 2.45561E+01 7.76804E-01-1.30835E-01 5.90050E+00-1.76004E-12-1.80633E-12
 -1      2167 3.45704E+01 3.95732E+00 1.14087E-01 2.62866E+00-1.66434E-12-1.15946E-12
 -1      2168 3.17740E+01 3.04547E+00 1.06279E-01 4.30897E+00-1.81170E-12-1.59306E-12
 -1      2169 3.85437E+01 6.76764E+00 3.57623E-01 6.65793E-01-1.68870E-12-8.89400E-13
 -1      2170 3.58188E+01 5.82003E+00 8.12789E-02 1.29943E+00-1.75956E-12-9.83491E-13
 -1      2171 4.03667E+01 7.21672E+00 4.07747E-01-9.89214E-01-1.53316E-12-5.84421E-13
 -1      2172 3.92707E+01 7.18270E+00 2.08302E-01 2.21955E-01-1.60655E-12-9.01529E-13
 -1      2173 3.81568E+01 6.27294E+00 2.48798E-01-2.61363E+00-1.39877E-12-1.28508E-13
 -1      2174 4.02880E+01 6.71668E+00 4.10619E-01-1.63614E+00-1.42680E-12-4.64934E-13
 -1      2175 3.38351E+01 3.70103E+00 1.29130E-01-4.15303E+00-1.30516E-12 2.28817E-13
 -1      2176 3.67847E+01 4.83627E+00 3.11130E-01-3.25949E+00-1.29075E-12-7.62168E-14
 -1      2177 2.82212E+01 1.19586E+00-5.06596E-04-5.63230E+00-1.28689E-12 5.60885E-13
 -1      2178 3.24272E+01 2.59627E+00 2.84358E-01-5.41133E+00-1.25033E-12 4.10116E-13
 -1      2179 3.25422E+01 2.35093E+00 2.51548E-01-2.27692E+00-1.02313E-12-3.83915E-13
 -1      2180 2.04368E+01-2.07538E+00-1.92920E-01-6.53886E+00-1.05355E-12 7.84983E-13
 -1      2181 2.50198E+01-2.85526E-01 1.50343E-01-6.92406E+00-1.18361E-12 6.80456E-13
 -1      2182 1.26974E+01-4.44317E+00-3.19627E-01-6.50315E+00-6.54810E-13 1.17181E-12
 -1      2183 1.68695E+01-2.63966E+00-1.21530E-02-7.35606E+00-9.13380E-13 1.05005E-12
 -1      2184 6.36961E+00-5.67604E+00-3.32998E-01-5.48599E+00-1.33393E-13 1.42109E-12
 -1      2185 9.39399E+00-4.50124E+00-1.80669E-01-6.51679E+00-5.50004E-13 1.52012E-12
 -1      2186 1.21159E+00-6.79054E+00-4.99521E-01-2.51855E+00 1.20626E-13 1.56275E-12
 -1      2187 2.90596E+00-5.55797E+00-3.18123E-01-4.10392E+00-2.40141E-13 1.56197E-12
 -1      2188 1.88881E+00-4.36057E+00-2.35570E-01-2.20344E+00 1.16698E-13 1.62836E-12
 -1      2189 3.66059E+01 2.78603E+00 3.17230E-01 3.69535E+00 1.34261E-12 2.29927E-13
 -1      2190 3.19181E+01 1.02071E+00-1.72564E-03 4.03766E+00 1.29506E-12 4.66516E-13
 -1      2191 2.31782E+01-4.35038E+00-1.68634E-03 5.68724E+00 4.83280E-13 4.09339E-13
 -1      2192 2.34464E+01 9.63349E-01-3.14359E-02-2.26610E+00-6.49258E-13 3.92526E-13
 -1      2193 3.53762E+01 3.21223E+00 2.78387E-01 3.38595E-01 1.32330E-12-5.12923E-13
 -1      2194 2.33409E+01 1.07782E+00-1.63497E-02-2.54107E+00-6.67400E-13 9.79633E-14
 -1      2195 7.77493E+00-4.55991E+00-8.90012E-02 5.61087E+00-7.23865E-14 1.10181E-12
 -1      2196 2.32057E+00-4.10691E+00-1.84171E-01 1.84522E+00 7.38298E-15 1.29602E-12
 -1      2197 1.99997E+01-2.97195E-04-1.82812E-06 3.03955E-04 5.80002E-14 5.62856E-14
 -1      2198 3.10955E+01-1.07444E+00 1.61106E-01 3.04178E+00 8.72899E-13-9.92539E-14
 -1      2199 6.20566E+00-4.63086E+00-1.55262E-01-5.64639E+00 1.78635E-13 1.49961E-12
 -1      2200 1.35172E+01-4.76661E+00-8.03177E-02-7.18924E+00 1.09357E-13 1.02691E-12
 -1      2201 2.80021E+01-1.15793E+00 1.35170E-01-4.52837E+00-7.01911E-13-5.41789E-14
 -1      2202 3.51282E+01 5.63094E+00 2.84433E-01-9.76589E-01-1.36141E-12-4.87888E-13
 -1      2203 3.63649E+01 7.98102E+00 3.58459E-01-5.61918E-01-1.58717E-12-5.95246E-13
 -1      2204 3.52344E+01 7.72974E+00 2.25555E-01-5.48496E-01-1.68499E-12-5.99326E-13
 -1      2205 3.41121E+01 4.65796E+00 1.10490E-01 7.53613E-01-1.58171E-12-7.44294E-13
 -1      2206 3.15499E+01 3.50043E+00 3.60939E-02-9.29040E-02-1.35872E-12-2.69645E-13
 -1      2207 3.20059E+01 5.35791E+00-1.07224E-01-1.11968E+00-1.48456E-12-2.83551E-13
 -1      2208 2.43129E+01-1.15226E+00 6.01619E-02 5.17749E+00-9.03999E-13-1.10689E-12
 -1      2209 9.24665E+00-1.87852E+00-5.30809E-02 6.24679E+00-2.30260E-13-1.65400E-12
 -1      2210 8.98506E+00-7.23128E-01 1.71964E-01 6.27263E+00 2.91211E-13-1.58856E-12
 -1      2211 1.27710E+01-1.88812E+00-8.96780E-02 6.71999E+00 3.06533E-13-1.33488E-12
 -1      2212 1.84374E+00-1.25285E+00-1.08147E-01 3.79452E-01 2.29722E-13-2.09016E-12
 -1      2213 4.62321E+00-2.17538E+00-1.35977E-01-3.37127E+00 3.08253E-13-2.02610E-12
 -1      2214 1.06716E+01-3.52492E+00-1.53447E-01-5.35391E+00 4.82614E-13-1.79129E-12
 -1      2215 1.93438E+01-4.01277E+00-3.82701E-02-5.35447E+00 7.04881E-13-1.33159E-12
 -1      2216 3.36204E+01 7.11083E-01 1.52536E-01-2.64280E-01 1.26375E-12-5.38292E-13
 -1      2217 3.72335E+01 7.36949E+00 2.94074E-01 9.05350E-01 1.79445E-12-4.30100E-13
 -1      2218 2.76163E+01-2.86762E+00 9.13311E-02-3.07374E+00 8.87873E-13-8.27005E-13
 -1      2219 3.03362E+01 1.45236E+00 1.82835E-01 2.74591E+00-1.29890E-12-8.09075E-13
 -1      2220 2.09573E+01-3.82596E+00 2.13922E-02-6.54792E+00-2.88769E-13 4.06480E-13
 -1      2221 2.69310E+01-1.03028E+00-2.38171E-02 1.32562E+00 2.42966E-13 7.77061E-13
 -1      2222 2.71107E+01-6.07523E-01 4.01732E-02 1.06959E+00 2.82413E-13 7.77220E-13
 -1      2223 1.94663E+01 1.40807E+00-6.55101E-03 1.41722E+00 3.48551E-13-7.64427E-13
 -1      2224 2.05669E+01 1.31642E+00-3.12385E-03 7.54591E-01 2.22260E-13-7.37440E-13
 -1      2225 2.13777E+01 1.38080E+00 1.48107E-03-5.29131E-02 1.06617E-13-6.91129E-13
 -1      2226 2.19626E+01 1.41605E+00-2.85317E-02-6.65165E-01-3.84215E-14-6.79817E-13
 -1      2227 2.15435E+01 6.38135E-01-1.09694E-02 3.33960E-01 1.61756E-13-5.96297E-13
 -1      2228 1.27373E+01 3.15543E+00-3.22437E-02 3.16757E+00 6.05209E-13-1.14433E-12
 -1      2229 1.46068E+01 2.75396E+00 8.26330E-02 3.14676E+00 5.92647E-13-1.06186E-12
 -1      2230 1.00808E+01 4.29399E+00 2.45317E-03 2.18881E+00 4.83907E-13-1.33470E-12
 -1      2231 1.11716E+01 4.01100E+00 8.60012E-02 2.71496E+00 5.64299E-13-1.28502E-12
 -1      2232 1.17784E+01 3.06811E+00 6.65121E-02 3.50685E+00 6.10911E-13-1.26877E-12
 -1      2233 1.01302E+01 4.52195E+00 5.31873E-02 3.70050E-01 2.64922E-13-1.34402E-12
 -1      2234 9.70654E+00 4.56313E+00 3.69412E-02 1.08019E+00 3.66313E-13-1.38020E-12
 -1      2235 9.34189E+00 4.11515E+00 1.12870E-01 1.83142E+00 4.36030E-13-1.47170E-12
 -1      2236 1.31492E+01 3.65434E+00 8.65894E-02-9.95323E-01 1.07031E-13-1.05618E-12
 -1      2237 1.13315E+01 3.98970E+00-8.85333E-03-6.16381E-01 1.51441E-13-1.20823E-12
 -1      2238 1.02559E+01 3.85323E+00 1.07686E-01-4.59253E-01 1.70615E-13-1.37856E-12
 -1      2239 1.76529E+01 2.32948E+00 6.08339E-02-9.98599E-01 1.18410E-13-6.37082E-13
 -1      2240 1.53268E+01 2.72620E+00-3.11025E-02-1.18101E+00 7.41083E-14-8.10067E-13
 -1      2241 1.42061E+01 2.44461E+00 4.92837E-02-1.68785E+00 2.10595E-14-9.55160E-13
 -1      2242 2.19569E+01 1.27828E+00-2.05793E-02-1.07165E-02 2.72270E-13-1.90127E-13
 -1      2243 1.98844E+01 1.65813E+00-1.36841E-02-5.02186E-01 1.69621E-13-3.94899E-13
 -1      2244 1.90455E+01 9.89697E-01-1.60304E-02-1.23219E+00 6.05974E-14-4.46518E-13
 -1      2245 2.72318E+01-1.30726E+00-1.98389E-02 2.33208E+00 2.91810E-13 8.25566E-13
 -1      2246 2.74717E+01-1.33027E+00 2.26658E-02 1.81141E+00 2.21632E-13 8.63586E-13
 -1      2247 2.67941E+01-1.55018E+00-3.33702E-02 1.40425E+00 2.28675E-13 6.47341E-13
 -1      2248 2.30440E+01 4.26710E-01 2.30019E-03-2.21269E+00-5.13148E-13 9.81333E-15
 -1      2249 2.26599E+01 3.00903E-01-3.97311E-03-2.02793E+00-4.67394E-13 4.59658E-15
 -1      2250 3.32612E+01 3.12066E+00-1.69811E-01-1.05359E+00 1.25805E-12-8.42632E-13
 -1      2251 3.25509E+01 1.12213E+00-5.77620E-02-6.90325E-01 9.21790E-13-7.83318E-13
 -1      2252 2.24609E+01 2.86109E-01 6.86428E-03-1.94342E+00-4.42626E-13 3.70348E-14
 -1      2253 2.21099E+01 3.66051E-01 1.00585E-02-1.80135E+00-4.24616E-13-1.02556E-14
 -1      2254 2.29271E+01 4.25451E-01 6.79745E-03-2.24714E+00-4.78682E-13-6.17163E-14
 -1      2255 2.18379E+01 5.04956E-01 1.02118E-03-1.62845E+00-4.05203E-13-2.06632E-14
 -1      2256 2.15591E+01 6.77439E-01 1.73715E-02-1.40272E+00-3.71963E-13-8.42899E-14
 -1      2257 2.24516E+01 6.01900E-01 2.57023E-03-1.97593E+00-4.41368E-13-7.93712E-14
 -1      2258 2.13020E+01 8.39830E-01 1.00813E-03-1.07780E+00-3.76402E-13-1.69737E-13
 -1      2259 2.11263E+01 9.71278E-01 1.56181E-02-7.43137E-01-3.83153E-13-2.45128E-13
 -1      2260 2.19438E+01 1.00421E+00-5.74048E-03-1.45607E+00-4.45472E-13-1.77214E-13
 -1      2261 2.09844E+01 1.03656E+00 8.41294E-03-3.00869E-01-3.59635E-13-3.28070E-13
 -1      2262 2.09303E+01 1.02269E+00 6.24350E-03 7.60420E-02-3.47080E-13-3.88501E-13
 -1      2263 2.15602E+01 1.30802E+00-1.36300E-02-6.35815E-01-4.51262E-13-3.24492E-13
 -1      2264 2.09510E+01 9.30699E-01 1.63491E-02 5.04060E-01-3.49439E-13-4.58964E-13
 -1      2265 2.10088E+01 7.59676E-01-4.51640E-03 8.09946E-01-2.81066E-13-5.16036E-13
 -1      2266 2.14386E+01 1.26852E+00-1.28634E-02 3.02471E-01-3.98650E-13-4.52825E-13
 -1      2267 2.11421E+01 5.49024E-01 1.74663E-02 1.08192E+00-2.50956E-13-5.85259E-13
 -1      2268 2.12698E+01 3.02484E-01-1.04253E-02 1.23180E+00-2.09674E-13-6.41170E-13
 -1      2269 2.15748E+01 8.54745E-01-4.12291E-03 1.05006E+00-3.19698E-13-6.51099E-13
 -1      2270 2.14093E+01 7.30563E-02 1.07238E-02 1.28833E+00-2.01692E-13-6.58125E-13
 -1      2271 2.15525E+01-1.42748E-01-9.71038E-03 1.27126E+00-1.60733E-13-6.27164E-13
 -1      2272 2.18164E+01 2.54171E-01 5.25232E-03 1.38538E+00-2.32317E-13-7.06429E-13
 -1      2273 2.16171E+01-3.06819E-01 9.53020E-04 1.15186E+00-1.10261E-13-6.13583E-13
 -1      2274 2.17310E+01-4.29681E-01-5.48700E-03 1.01745E+00-3.11522E-14-6.02679E-13
 -1      2275 2.19870E+01-2.82971E-01 8.62880E-03 1.29877E+00-1.43092E-13-6.49963E-13
 -1      2276 2.17013E+01-4.99644E-01-6.62877E-03 8.09684E-01 7.39122E-15-5.81962E-13
 -1      2277 2.17634E+01-5.26341E-01-1.07339E-03 6.26622E-01 2.32980E-14-5.69333E-13
 -1      2278 2.19987E+01-6.00228E-01 6.44274E-03 9.39551E-01-1.07639E-14-6.30980E-13
 -1      2279 2.16646E+01-5.19170E-01-9.96212E-03 4.10235E-01-4.40225E-14-5.25592E-13
 -1      2280 2.16731E+01-4.80781E-01 1.82642E-03 2.33704E-01-1.74259E-14-5.03222E-13
 -1      2281 2.18633E+01-6.80949E-01 2.64255E-03 4.89905E-01 3.96016E-15-5.14373E-13
 -1      2282 2.15418E+01-4.30461E-01-9.78611E-03 5.59854E-02-2.27379E-14-5.45890E-13
 -1      2283 2.15067E+01-3.63587E-01 3.00668E-03-8.34734E-02-3.82114E-14-5.38813E-13
 -1      2284 2.16400E+01-5.96919E-01-3.77485E-04 8.06940E-02-4.08677E-14-4.69715E-13
 -1      2285 2.13714E+01-3.00116E-01-7.73366E-03-2.05998E-01-7.62732E-14-5.47855E-13
 -1      2286 2.13069E+01-2.31281E-01 3.03775E-03-2.99114E-01-9.66805E-14-5.58557E-13
 -1      2287 2.13873E+01-4.36965E-01-1.90594E-03-2.26240E-01-8.31580E-14-5.46542E-13
 -1      2288 2.11832E+01-1.73057E-01-5.14562E-03-3.68946E-01-8.33109E-14-5.21625E-13
 -1      2289 2.11023E+01-1.16024E-01 2.53234E-03-4.19426E-01-7.81534E-14-4.65157E-13
 -1      2290 2.11434E+01-2.67855E-01-2.35001E-03-4.20035E-01-7.21331E-14-5.03669E-13
 -1      2291 2.09962E+01-7.09949E-02-2.77381E-03-4.47377E-01-1.57902E-13-4.45055E-13
 -1      2292 2.09092E+01-3.00839E-02 1.89924E-03-4.64637E-01-1.33586E-13-3.82591E-13
 -1      2293 2.09262E+01-1.25336E-01-2.24007E-03-5.16277E-01-1.00260E-13-4.21738E-13
 -1      2294 2.08212E+01 4.85626E-04-9.27087E-04-4.63279E-01-1.20277E-13-4.28466E-13
 -1      2295 2.07358E+01 2.62300E-02 1.33553E-03-4.57768E-01-6.76018E-14-4.82020E-13
 -1      2296 2.07409E+01-2.15448E-02-1.93505E-03-5.39710E-01-1.43135E-13-3.60266E-13
 -1      2297 2.06641E+01 4.43615E-02 3.43317E-04-4.38266E-01-1.01455E-13-5.32370E-13
 -1      2298 2.05849E+01 5.80712E-02 9.03165E-04-4.19102E-01-9.50502E-14-5.46368E-13
 -1      2299 2.05864E+01 4.49168E-02-1.61745E-03-5.14867E-01-1.40779E-13-5.02994E-13
 -1      2300 2.05270E+01 6.68563E-02 1.11151E-03-3.90103E-01 5.86488E-15-5.22709E-13
 -1      2301 2.04568E+01 7.20413E-02 5.99397E-04-3.64242E-01 1.14881E-13-4.52144E-13
 -1      2302 2.04593E+01 8.12858E-02-1.34941E-03-4.62043E-01-3.46708E-14-4.72153E-13
 -1      2303 2.04105E+01 7.44810E-02 1.49430E-03-3.31826E-01 1.29232E-13-4.73805E-13
 -1      2304 2.03505E+01 7.41964E-02 3.97502E-04-3.04070E-01 1.67873E-13-4.90440E-13
 -1      2305 2.03556E+01 9.60450E-02-1.13621E-03-3.96292E-01 1.00086E-13-3.90917E-13
 -1      2306 2.03136E+01 7.27340E-02 1.60809E-03-2.72153E-01 1.39943E-13-4.98250E-13
 -1      2307 2.02637E+01 6.93178E-02 2.67828E-04-2.45505E-01 1.48596E-13-4.61565E-13
 -1      2308 2.02719E+01 9.67346E-02-9.65184E-04-3.27832E-01 1.43537E-13-4.65147E-13
 -1      2309 2.02346E+01 6.57457E-02 1.55083E-03-2.16351E-01 1.58997E-13-4.32132E-13
 -1      2310 2.01943E+01 6.08355E-02 1.85914E-04-1.92469E-01 1.14155E-13-3.66448E-13
 -1      2311 2.02048E+01 8.92086E-02-8.22536E-04-2.62990E-01 1.88753E-13-3.92784E-13
 -1      2312 2.01716E+01 5.63688E-02 1.39699E-03-1.67176E-01 7.01995E-14-3.02590E-13
 -1      2313 2.01398E+01 5.10276E-02 1.34102E-04-1.46790E-01 7.23448E-14-3.37338E-13
 -1      2314 2.01517E+01 7.76182E-02-6.98647E-04-2.05211E-01 9.07240E-14-3.02860E-13
 -1      2315 2.01223E+01 4.64305E-02 1.19896E-03-1.25689E-01 4.22233E-14-4.19247E-13
 -1      2316 2.00978E+01 4.12932E-02 1.00639E-04-1.08929E-01 2.75641E-14-4.40621E-13
 -1      2317 2.01101E+01 6.46926E-02-5.88335E-04-1.55960E-01-5.32711E-15-3.76053E-13
 -1      2318 2.00845E+01 3.70046E-02 9.91022E-04-9.18789E-02 2.87913E-14-4.52953E-13
 -1      2319 2.00661E+01 3.24084E-02 7.81390E-05-7.85271E-02 4.88727E-14-4.45424E-13
 -1      2320 2.00781E+01 5.20874E-02-4.89439E-04-1.15421E-01-5.00961E-15-4.11157E-13
 -1      2321 2.00561E+01 2.86468E-02 7.93821E-04-6.51305E-02 5.95643E-14-5.08718E-13
 -1      2322 2.00426E+01 2.47337E-02 6.21606E-05-5.47876E-02 4.22578E-14-3.83116E-13
 -1      2323 2.00538E+01 4.07030E-02-4.01356E-04-8.30263E-02 1.28796E-14-4.95132E-13
 -1      2324 2.00352E+01 2.15764E-02 6.18333E-04-4.45312E-02 3.69719E-14-4.11194E-13
 -1      2325 2.00256E+01 1.83679E-02 5.01362E-05-3.67294E-02 7.30142E-14-3.79688E-13
 -1      2326 2.00357E+01 3.09396E-02-3.24015E-04-5.78183E-02 1.24127E-14-4.64503E-13
 -1      2327 2.00203E+01 1.58076E-02 4.69082E-04-2.90748E-02 2.96133E-14-2.90525E-13
 -1      2328 2.00136E+01 1.32574E-02 4.06290E-05-2.33461E-02-3.22695E-14-3.21881E-13
 -1      2329 2.00224E+01 2.28852E-02-2.57308E-04-3.86922E-02 4.12342E-14-3.73147E-13
 -1      2330 2.00099E+01 1.12409E-02 3.46546E-04-1.77834E-02-2.39021E-14-3.13750E-13
 -1      2331 2.00055E+01 9.26892E-03 3.28534E-05-1.36970E-02-1.00196E-14-2.94808E-13
 -1      2332 2.00130E+01 1.64475E-02-2.00865E-04-2.45454E-02-2.01959E-14-1.70299E-13
 -1      2333 2.00030E+01 7.72219E-03 2.48876E-04-9.77207E-03 4.67877E-14-1.66571E-13
 -1      2334 2.00002E+01 6.23640E-03 2.63815E-05-6.95308E-03 1.31276E-13-4.11375E-14
 -1      2335 2.00064E+01 1.14426E-02-1.54020E-04-1.43619E-02 1.18849E-13-1.29489E-14
 -1      2336 1.99986E+01 5.07984E-03 1.73058E-04-4.27926E-03 1.53588E-13-2.20728E-14
 -1      2337 1.99970E+01 3.98938E-03 2.09706E-05-2.41397E-03 1.93067E-13 1.51858E-13
 -1      2338 2.00020E+01 7.65123E-03-1.15873E-04-7.25419E-03 1.97071E-13 3.04552E-14
 -1      2339 1.99960E+01 3.14696E-03 1.15662E-04-6.72757E-04 1.18326E-13 9.63779E-14
 -1      2340 1.99952E+01 2.36892E-03 1.64669E-05 4.93047E-04 6.87247E-14 1.79153E-13
 -1      2341 1.99992E+01 4.85225E-03-8.53855E-05-2.47648E-03 1.42132E-13 2.25503E-14
 -1      2342 1.99946E+01 1.77274E-03 7.32953E-05 1.55659E-03-4.40892E-14 8.64555E-14
 -1      2343 1.99944E+01 1.23538E-03 1.27561E-05 2.22341E-03-1.54036E-13 6.23506E-14
 -1      2344 1.99976E+01 2.84184E-03-6.14675E-05 5.78870E-04-2.17964E-14 2.40613E-14
 -1      2345 1.99942E+01 8.27539E-04 4.28551E-05 2.80836E-03-1.55977E-13 1.74743E-13
 -1      2346 1.99943E+01 4.71144E-04 9.73940E-06 3.13049E-03-3.64057E-14 1.92043E-13
 -1      2347 1.99967E+01 1.44211E-03-4.30527E-05 2.39392E-03-1.58488E-13 5.84181E-14
 -1      2348 1.99943E+01 2.03908E-04 2.16462E-05 3.38867E-03-1.50606E-15 2.65456E-13
 -1      2349 1.99946E+01-1.97665E-05 7.32353E-06 3.48204E-03 1.46892E-13 4.55233E-13
 -1      2350 1.99964E+01 5.03983E-04-2.91480E-05 3.34203E-03 3.95062E-14 3.33367E-13
 -1      2351 1.99947E+01-1.84617E-04 7.41429E-06 3.52658E-03 6.78738E-14 3.61898E-13
 -1      2352 1.99951E+01-3.13556E-04 5.41815E-06 3.47618E-03 8.96001E-14 3.28890E-13
 -1      2353 1.99964E+01-9.36920E-05-1.88641E-05 3.70574E-03-2.60734E-14 4.33288E-13
 -1      2354 1.99953E+01-4.05912E-04-1.67004E-06 3.38932E-03 6.62989E-14 9.90788E-14
 -1      2355 1.99957E+01-4.69354E-04 3.93561E-06 3.25581E-03-4.90917E-14-5.43450E-15
 -1      2356 1.99967E+01-4.46796E-04-1.14299E-05 3.69390E-03-6.40179E-14 1.21665E-13
 -1      2357 1.99959E+01-5.12095E-04-7.05270E-06 3.09565E-03 7.39865E-14 3.39031E-14
 -1      2358 1.99964E+01-5.32088E-04 2.79163E-06 2.92093E-03 1.74030E-16 9.53446E-14
 -1      2359 1.99970E+01-6.29516E-04-6.19448E-06 3.45698E-03-5.09970E-15 4.61952E-14
 -1      2360 1.99966E+01-5.42392E-04-9.84963E-06 2.72713E-03-1.98747E-13 2.36001E-13
 -1      2361 1.99970E+01-5.35251E-04 1.90551E-06 2.53894E-03-2.43678E-13 1.98833E-13
 -1      2362 1.99974E+01-6.98082E-04-2.62182E-06 3.10015E-03-3.92747E-14 3.93358E-13
 -1      2363 1.99972E+01-5.25800E-04-1.09016E-05 2.33734E-03-2.99616E-13 2.44612E-13
 -1      2364 1.99975E+01-5.03416E-04 1.19935E-06 2.15292E-03-1.40262E-13 2.16751E-13
 -1      2365 1.99978E+01-6.94336E-04-2.82055E-07 2.69420E-03-1.86648E-13 4.19672E-13
 -1      2366 1.99977E+01-4.83463E-04-1.08270E-05 1.95910E-03-2.62009E-14 1.32993E-13
 -1      2367 1.99980E+01-4.54418E-04 6.02323E-07 1.78799E-03 1.19060E-13 6.77482E-14
 -1      2368 1.99982E+01-6.48943E-04 1.15932E-06 2.28422E-03-1.90159E-13 2.78978E-13
 -1      2369 1.99982E+01-4.30690E-04-1.00626E-05 1.61014E-03 2.23269E-13 4.71406E-14
 -1      2370 1.99985E+01-4.01199E-04 6.35915E-08 1.45633E-03 3.24582E-13-2.12722E-14
 -1      2371 1.99985E+01-5.84132E-04 1.95831E-06 1.89640E-03 1.12977E-14 1.45837E-13
 -1      2372 1.99986E+01-3.78617E-04-8.86453E-06 1.29735E-03 1.86512E-13-1.03700E-13
 -1      2373 1.99988E+01-3.53325E-04-4.88047E-07 1.16087E-03 1.01587E-13-1.35302E-13
 -1      2374 1.99988E+01-5.16092E-04 2.29504E-06 1.54338E-03 1.29437E-13 9.33068E-14
 -1      2375 1.99990E+01-3.36112E-04-7.62944E-06 1.01964E-03 1.14949E-13-2.33783E-13
 -1      2376 1.99991E+01-3.17202E-04-9.30905E-07 8.97191E-04-7.30922E-14-1.72274E-13
 -1      2377 1.99991E+01-4.56961E-04 2.19838E-06 1.22820E-03 9.27966E-14-4.33809E-14
 -1      2378 1.99992E+01-3.05691E-04-6.07118E-06 7.71609E-04-9.89098E-14-1.27101E-13
 -1      2379 1.99994E+01-2.96976E-04-2.35407E-06 6.60479E-04 7.11990E-15-9.35968E-14
 -1      2380 1.99993E+01-4.10994E-04 2.94979E-06 9.45795E-04-7.84367E-15-3.03197E-13
 -1      2381 2.63786E+01 1.78554E+00-2.65116E-02 2.72175E+00 5.87488E-13 5.38208E-13
 -1      2382 2.68510E+01 7.07579E-01-1.06692E-01 3.25637E+00 4.88831E-13 6.83210E-13
 -1      2383 2.58228E+01 2.91719E+00-8.56808E-02 4.37831E-01 8.53706E-13-2.77556E-17
 -1      2384 2.60429E+01 2.57746E+00-1.06997E-01 1.64944E+00 7.74436E-13 2.42908E-13
 -1      2385 2.75218E+01 2.78884E+00-1.17807E-01 2.44117E+00 8.48516E-13 3.50123E-13
 -1      2386 2.60043E+01 1.84548E+00-1.25271E-01-1.97645E+00 7.69579E-13-5.22346E-13
 -1      2387 2.58629E+01 2.65639E+00-4.65941E-02-1.01895E+00 8.67639E-13-3.38611E-13
 -1      2388 2.66087E+01-2.26673E-01-8.15112E-02-2.68848E+00 3.60587E-13-8.00891E-13
 -1      2389 2.63125E+01 8.52779E-01-1.58271E-02-2.60207E+00 5.74291E-13-6.89762E-13
 -1      2390 2.64910E+01-1.45086E+00-2.07298E-02-1.70037E+00-4.49658E-14-7.45141E-13
 -1      2391 2.63581E+01-9.87792E-01-3.05664E-02-2.21401E+00 1.36554E-13-8.29831E-13
 -1      2392 2.73918E+01-7.98111E-01-4.35799E-02-2.44080E+00 2.75314E-13-9.60801E-13
 -1      2393 2.57372E+01-1.48108E+00 1.70459E-02-2.58421E-01-1.97682E-13-6.43884E-13
 -1      2394 2.58464E+01-1.58213E+00-3.65430E-02-8.76473E-01-1.05430E-13-6.96627E-13
 -1      2395 2.64096E+01-2.03602E+00-2.87721E-02-1.02051E+00-8.31175E-14-7.89998E-13
 -1      2396 2.47500E+01-9.60475E-01 1.98952E-02 8.21903E-01-1.04378E-13-5.06895E-13
 -1      2397 2.50219E+01-1.25739E+00-3.01434E-02 3.79403E-01-1.39971E-13-5.94070E-13
 -1      2398 2.50594E+01-1.86066E+00-2.66676E-02 4.30786E-01-1.97412E-13-7.32920E-13
 -1      2399 2.38342E+01-4.23719E-01 1.17218E-02 1.37734E+00 6.08281E-15-3.57634E-13
 -1      2400 2.41765E+01-6.86253E-01-1.98121E-02 1.15520E+00-3.54838E-14-3.98168E-13
 -1      2401 2.38366E+01-1.13824E+00-2.63098E-02 1.34487E+00-1.24104E-13-4.97103E-13
 -1      2402 2.30706E+01-5.59176E-02 5.08347E-03 1.53432E+00 5.85350E-14-2.94235E-13
 -1      2403 2.34261E+01-2.22982E-01-9.40992E-03 1.47962E+00 8.19653E-14-3.05552E-13
 -1      2404 2.29254E+01-4.59450E-01-1.87660E-02 1.73261E+00 2.79707E-14-3.11950E-13
 -1      2405 2.24511E+01 1.37345E-01 1.75692E-03 1.45655E+00 1.61359E-14-1.38955E-13
 -1      2406 2.27863E+01 5.52325E-02-1.18737E-03 1.49870E+00 5.40584E-14-2.17592E-13
 -1      2407 2.22759E+01-1.29655E-02-1.02771E-02 1.76895E+00 2.22766E-14-2.78370E-13
 -1      2408 2.19449E+01 2.12285E-01 4.79084E-04 1.27088E+00-9.47376E-15-1.71256E-13
 -1      2409 2.22434E+01 1.84033E-01 3.67933E-03 1.35678E+00 4.35409E-14-9.29116E-14
 -1      2410 2.18017E+01 2.12363E-01-4.99317E-03 1.61694E+00 4.92586E-14-1.70289E-13
 -1      2411 2.15287E+01 2.21657E-01 1.46148E-04 1.05346E+00 7.96238E-14-1.76159E-13
 -1      2412 2.17841E+01 2.22006E-01 5.94656E-03 1.15075E+00 6.50448E-14-1.98589E-13
 -1      2413 2.14360E+01 2.93905E-01-2.34522E-03 1.38639E+00 6.61105E-14-1.18285E-13
 -1      2414 2.11872E+01 2.00634E-01 1.60240E-04 8.44161E-01-4.19218E-14-7.62136E-14
 -1      2415 2.13990E+01 2.13626E-01 6.51485E-03 9.36190E-01 2.34413E-14-1.65794E-13
 -1      2416 2.11414E+01 2.97382E-01-1.28649E-03 1.14054E+00 3.53404E-14-1.21391E-13
 -1      2417 2.09096E+01 1.69019E-01 2.54500E-04 6.60385E-01-1.68676E-13-6.62350E-14
 -1      2418 2.10809E+01 1.85941E-01 6.14557E-03 7.40206E-01-9.87112E-14-7.05451E-14
 -1      2419 2.08991E+01 2.65542E-01-9.74350E-04 9.11649E-01-6.48314E-14-9.36117E-14
 -1      2420 2.06866E+01 1.36617E-01 3.32034E-04 5.07187E-01-2.65588E-13-2.41390E-13
 -1      2421 2.08223E+01 1.53271E-01 5.35539E-03 5.73089E-01-2.05914E-13-1.95486E-13
 -1      2422 2.06992E+01 2.22152E-01-9.31415E-04 7.13241E-01-1.26095E-13-1.15287E-13
 -1      2423 2.05099E+01 1.07592E-01 3.69582E-04 3.83550E-01-2.15655E-13-3.26381E-13
 -1      2424 2.06157E+01 1.22264E-01 4.44897E-03 4.36313E-01-2.52897E-13-3.07670E-13
 -1      2425 2.05357E+01 1.78857E-01-9.38963E-04 5.48499E-01-2.05935E-13-2.50849E-13
 -1      2426 2.03721E+01 8.32318E-02 3.70850E-04 2.85935E-01 1.79765E-13-2.38983E-13
 -1      2427 2.04531E+01 9.54548E-02 3.58257E-03 3.27306E-01-5.45886E-14-2.71958E-13
 -1      2428 2.04038E+01 1.40499E-01-9.19201E-04 4.15530E-01-1.52836E-13-3.41555E-13
 -1      2429 2.02661E+01 6.35111E-02 3.46966E-04 2.10107E-01 1.58757E-13-2.74692E-14
 -1      2430 2.03273E+01 7.33745E-02 2.82265E-03 2.42046E-01 2.87802E-13-1.02624E-13
 -1      2431 2.02990E+01 1.08479E-01-8.59288E-04 3.10344E-01 1.03467E-13-2.06051E-13
 -1      2432 2.01858E+01 4.78902E-02 3.08779E-04 1.51981E-01-1.46144E-13-2.19161E-13
 -1      2433 2.02313E+01 5.56939E-02 2.18746E-03 1.76324E-01 7.62944E-14-7.33333E-14
 -1      2434 2.02170E+01 8.26339E-02-7.69647E-04 2.28424E-01 1.72020E-13 2.82547E-14
 -1      2435 2.01260E+01 3.56946E-02 2.64604E-04 1.07962E-01-7.96868E-14-3.54478E-13
 -1      2436 2.01593E+01 4.17855E-02 1.67206E-03 1.26294E-01-2.49031E-13-3.34501E-13
 -1      2437 2.01539E+01 6.21998E-02-6.65096E-04 1.65463E-01-9.33589E-14-2.61912E-13
 -1      2438 2.00821E+01 2.62759E-02 2.20038E-04 7.50285E-02 7.82548E-14-2.98555E-13
 -1      2439 2.01061E+01 3.09801E-02 1.26208E-03 8.86664E-02 8.24449E-14-3.27228E-13
 -1      2440 2.01063E+01 4.62691E-02-5.57964E-04 1.17667E-01-3.04904E-14-3.99684E-13
 -1      2441 2.00506E+01 1.90704E-02 1.78445E-04 5.07091E-02 1.17434E-14-1.14180E-13
 -1      2442 2.00675E+01 2.26693E-02 9.40652E-04 6.07195E-02 5.25394E-14-2.19787E-13
 -1      2443 2.00709E+01 3.39826E-02-4.56548E-04 8.18351E-02 4.20851E-14-2.27464E-13
 -1      2444 2.00285E+01 1.36096E-02 1.41572E-04 3.30146E-02-1.75044E-13-7.07498E-14
 -1      2445 2.00401E+01 1.63364E-02 6.91611E-04 4.02497E-02-1.10503E-13-1.41341E-13
 -1      2446 2.00451E+01 2.45968E-02-3.65540E-04 5.53317E-02-3.66204E-14-9.68239E-14
 -1      2447 2.00134E+01 9.51318E-03 1.10081E-04 2.03628E-02 2.02945E-13-2.00051E-13
 -1      2448 2.00211E+01 1.15575E-02 5.00715E-04 2.54963E-02-1.88846E-14-8.48825E-14
 -1      2449 2.00267E+01 1.74955E-02-2.86981E-04 3.60242E-02-7.51231E-14-2.67887E-13
 -1      2450 2.00035E+01 6.47618E-03 8.39572E-05 1.15070E-02 2.05090E-13-1.56413E-13
 -1      2451 2.00084E+01 7.99026E-03 3.55955E-04 1.50669E-02 3.18612E-13-1.08248E-13
 -1      2452 2.00139E+01 1.21790E-02-2.21168E-04 2.22072E-02 2.15309E-13-2.84587E-13
 -1      2453 1.99973E+01 4.25564E-03 6.28046E-05 5.47266E-03-7.03427E-14-3.14581E-13
 -1      2454 2.00002E+01 5.36102E-03 2.47445E-04 7.86968E-03 5.72790E-14-2.53302E-13
 -1      2455 2.00054E+01 8.24659E-03-1.67360E-04 1.25309E-02 1.70915E-13-3.31712E-13
 -1      2456 1.99938E+01 2.65899E-03 4.60366E-05 1.50528E-03-2.50178E-15-2.85520E-13
 -1      2457 1.99953E+01 3.45214E-03 1.67157E-04 3.05588E-03 1.58104E-15-2.16544E-13
 -1      2458 1.99999E+01 5.37934E-03-1.24280E-04 5.93636E-03-2.63494E-14-3.69514E-13
 -1      2459 1.99920E+01 1.53433E-03 3.30027E-05-9.74015E-04-6.19416E-14-2.84608E-13
 -1      2460 1.99926E+01 2.09144E-03 1.08642E-04-2.82505E-05-1.10745E-13-3.80326E-13
 -1      2461 1.99966E+01 3.32457E-03-9.04347E-05 1.60143E-03 5.16744E-15-2.93953E-13
 -1      2462 1.99915E+01 7.62545E-04 2.30628E-05-2.40431E-03-9.26507E-14-5.03931E-14
 -1      2463 1.99915E+01 1.14339E-03 6.67526E-05-1.88107E-03-8.57336E-14-1.15402E-13
 -1      2464 1.99948E+01 1.88321E-03-6.43166E-05-1.10587E-03-1.45811E-13-2.68978E-13
 -1      2465 1.99917E+01 2.50896E-04 1.56279E-05-3.11450E-03 1.05936E-13-9.54797E-14
 -1      2466 1.99913E+01 5.02018E-04 3.74181E-05-2.87799E-03 1.08225E-13 7.60304E-15
 -1      2467 1.99941E+01 8.99319E-04-4.45156E-05-2.66561E-03-8.61323E-15-1.62508E-13
 -1      2468 1.99924E+01-7.22009E-05 1.01801E-05-3.34733E-03 3.54272E-14-4.81516E-14
 -1      2469 1.99918E+01 8.51070E-05 1.74405E-05-3.29795E-03 2.31420E-14-4.78390E-15
 -1      2470 1.99940E+01 2.51714E-04-2.97766E-05-3.43772E-03 6.67693E-14 4.99828E-15
 -1      2471 1.99932E+01-2.61427E-04 6.27701E-06-3.27883E-03 1.87049E-13 3.05178E-15
 -1      2472 1.99926E+01-1.70526E-04 4.33106E-06-3.34488E-03 1.54231E-13-2.01214E-14
 -1      2473 1.99943E+01-1.52974E-04-1.90201E-05-3.68794E-03 1.68872E-13 5.88341E-14
 -1      2474 1.99942E+01-3.58070E-04 3.54979E-06-3.03397E-03-4.00346E-14 1.98906E-13
 -1      2475 1.99935E+01-3.12905E-04-3.82700E-06-3.16500E-03 8.65377E-14 8.57867E-14
 -1      2476 1.99949E+01-3.85924E-04-1.13419E-05-3.60901E-03 1.78664E-14 2.39204E-13
 -1      2477 1.99951E+01-3.92914E-04 1.69497E-06-2.69911E-03-2.54289E-13 8.26612E-14
 -1      2478 1.99945E+01-3.78091E-04-8.49307E-06-2.86065E-03-4.93442E-15 2.50820E-13
 -1      2479 1.99955E+01-5.00757E-04-6.00168E-06-3.33771E-03 5.85730E-14 3.82404E-13
 -1      2480 1.99960E+01-3.88607E-04 4.64753E-07-2.33175E-03-3.38791E-13-1.79296E-13
 -1      2481 1.99955E+01-3.92811E-04-1.07634E-05-2.50123E-03-3.83818E-13-1.25812E-13
 -1      2482 1.99962E+01-5.37364E-04-2.40463E-06-2.96846E-03-1.69342E-13 1.96939E-13
 -1      2483 1.99968E+01-3.61611E-04-3.42794E-07-1.96813E-03-2.94949E-13-3.35221E-13
 -1      2484 1.99963E+01-3.76620E-04-1.14495E-05-2.13171E-03-2.86749E-13-3.22400E-13
 -1      2485 1.99969E+01-5.25035E-04-8.14261E-08-2.56402E-03-1.90732E-13-1.90043E-13
 -1      2486 1.99975E+01-3.23791E-04-8.90395E-07-1.62898E-03-2.79402E-14-4.83072E-13
 -1      2487 1.99971E+01-3.43671E-04-1.11404E-05-1.77916E-03-2.28664E-13-4.71003E-13
 -1      2488 1.99975E+01-4.85025E-04 1.33064E-06-2.16379E-03-1.59997E-13-3.40328E-13
 -1      2489 1.99981E+01-2.83769E-04-1.31241E-06-1.32389E-03 4.04722E-13-4.75816E-13
 -1      2490 1.99977E+01-3.04165E-04-1.02500E-05-1.45775E-03 1.52568E-13-4.24473E-13
 -1      2491 1.99980E+01-4.32647E-04 2.10655E-06-1.79016E-03 6.10514E-14-5.55118E-13
 -1      2492 1.99986E+01-2.47975E-04-1.68177E-06-1.05424E-03 4.55102E-13-2.19239E-13
 -1      2493 1.99983E+01-2.65652E-04-9.04823E-06-1.17229E-03 4.58330E-13-4.58377E-13
 -1      2494 1.99984E+01-3.79130E-04 2.43302E-06-1.45330E-03 4.00922E-13-3.38911E-13
 -1      2495 1.99990E+01-2.21216E-04-2.14815E-06-8.15791E-04 2.87250E-14-3.89205E-14
 -1      2496 1.99987E+01-2.33796E-04-7.74171E-06-9.20881E-04 2.50598E-13-7.59980E-14
 -1      2497 1.99988E+01-3.32550E-04 2.47212E-06-1.15455E-03 3.59553E-13-1.90001E-13
 -1      2498 1.99993E+01-2.05441E-04-2.27422E-06-6.00008E-04 1.61675E-14-3.14723E-13
 -1      2499 1.99991E+01-2.12644E-04-6.38887E-06-6.96615E-04 1.35878E-13-2.27365E-13
 -1      2500 1.99991E+01-2.98525E-04 2.57571E-06-8.90260E-04 2.01835E-13-1.84252E-13
 -1      2501 1.99995E+01-1.99601E-04-2.70936E-06-4.01728E-04-1.83943E-14-1.87619E-13
 -1      2502 1.99994E+01-2.01504E-04-5.16884E-06-4.91972E-04-6.44089E-14-2.81402E-13
 -1      2503 1.99994E+01-2.76396E-04 3.52290E-06-6.50707E-04-8.63046E-14-4.04098E-13
 -1      2504 1.99996E+01-1.97685E-04-3.33936E-06-3.01186E-04-1.76526E-13 1.18008E-13
 -1      2505 1.99999E+01-1.07655E-03 4.80532E-06-5.36178E-04-1.02367E-14 4.79475E-13
 -1      2506 1.99999E+01-9.79925E-04-1.12683E-06-5.82563E-04-7.88163E-14-1.01095E-15
 -1      2507 2.00000E+01-1.23843E-03 4.95208E-06-3.80623E-04-6.12273E-14 3.90177E-13
 -1      2508 2.00000E+01-1.16729E-03 5.64438E-07-4.58902E-04-9.14367E-14 5.45816E-13
 -1      2509 2.00000E+01-1.13677E-03-3.14311E-06-5.75075E-04 1.63347E-13 4.33181E-13
 -1      2510 1.99997E+01-6.33597E-04 3.25045E-06-6.10848E-04-3.94611E-13-2.00307E-13
 -1      2511 1.99997E+01-5.21921E-04-4.10523E-06-5.79775E-04-5.00508E-13-1.95279E-13
 -1      2512 1.99998E+01-8.67008E-04 4.10659E-06-6.17532E-04-2.22928E-13-1.09623E-13
 -1      2513 1.99998E+01-7.58272E-04-2.78721E-06-6.24956E-04-2.33143E-13-1.58926E-13
 -1      2514 1.99997E+01-7.11442E-04-2.46183E-06-7.23419E-04-1.64897E-14-7.74970E-14
 -1      2515 1.99999E+01-9.40819E-04-2.65857E-06-6.96746E-04 1.45271E-13 1.02415E-13
 -1      2516 2.00001E+01-1.33427E-03 4.53922E-06-1.74294E-04 5.28003E-14 3.98793E-13
 -1      2517 2.00001E+01-1.29666E-03 2.24180E-06-2.73071E-04-5.15093E-14 2.72462E-13
 -1      2518 2.00001E+01-1.28026E-03-4.10107E-06-3.76926E-04 1.75270E-14 3.39646E-13
 -1      2519 2.00001E+01-1.35362E-03 3.60979E-06 5.48718E-05-1.01887E-13 5.02553E-13
 -1      2520 2.00001E+01-1.35400E-03 3.63013E-06-5.08366E-05-7.05807E-14 5.59932E-13
 -1      2521 2.00002E+01-1.35532E-03-4.53826E-06-1.29619E-04-2.03054E-14 4.51896E-13
 -1      2522 2.00001E+01-1.29459E-03 2.26786E-06 2.76654E-04-7.04702E-14-1.14405E-13
 -1      2523 2.00001E+01-1.33302E-03 4.52150E-06 1.78180E-04-1.61964E-13 1.68233E-13
 -1      2524 2.00002E+01-1.35444E-03-4.51443E-06 1.34306E-04-4.73054E-14 2.31675E-13
 -1      2525 2.00000E+01-1.16680E-03 5.58824E-07 4.58918E-04 2.08676E-13-9.88513E-14
 -1      2526 2.00000E+01-1.23690E-03 4.92775E-06 3.82126E-04 1.38293E-13-1.94252E-13
 -1      2527 2.00001E+01-1.27880E-03-4.14285E-06 3.79107E-04 1.93886E-13-2.84816E-14
 -1      2528 1.99999E+01-9.80212E-04-1.39161E-06 5.82508E-04 2.18903E-13-4.92436E-14
 -1      2529 1.99999E+01-1.07601E-03 4.81874E-06 5.36131E-04 1.56030E-13-2.34123E-13
 -1      2530 2.00000E+01-1.13604E-03-3.25813E-06 5.75014E-04 2.17003E-14-1.36531E-13
 -1      2531 1.99998E+01-7.54926E-04-2.96935E-06 6.22045E-04 2.04545E-13 3.49632E-14
 -1      2532 1.99998E+01-8.64599E-04 3.83431E-06 6.17825E-04 2.99317E-13 1.12126E-13
 -1      2533 1.99999E+01-9.38194E-04-2.50176E-06 6.97899E-04 8.71513E-14 4.35974E-14
 -1      2534 1.99997E+01-5.15320E-04-3.52647E-06 5.74832E-04 1.31656E-13 8.76680E-14
 -1      2535 1.99997E+01-6.29895E-04 2.66655E-06 6.12341E-04 8.60600E-14 5.24799E-14
 -1      2536 1.99997E+01-7.04298E-04 1.66143E-06 7.21053E-04 6.21807E-14-1.02038E-13
 -1      2537 4.35870E+00-2.32391E+00 2.82898E-02 2.91986E+00-1.49145E-13 1.07936E-12
 -1      2538 3.22641E+00-2.33595E+00 6.21369E-02 5.68694E-01-1.29646E-13 1.24784E-12
 -1      2539 1.11421E+01-3.60731E+00 4.28046E-02 6.39737E+00-3.26100E-13 7.97334E-13
 -1      2540 7.60656E+00-2.86808E+00 1.23639E-01 4.85496E+00-3.71314E-13 9.69946E-13
 -1      2541 3.13555E+01-1.43769E+00-1.38765E-01 1.00240E+00 6.10306E-13-6.27998E-13
 -1      2542 2.88673E+01-3.11707E+00-2.89156E-02 2.50462E+00 4.25632E-13-3.94296E-13
 -1      2543 2.71819E+01-2.43316E-01-1.57017E-02 3.23698E+00 4.16993E-13 8.05619E-13
 -1      2544 2.75627E+01-9.86521E-01-4.40279E-02 2.96810E+00 3.39208E-13 8.69475E-13
 -1      2545 2.78519E+01-1.50814E+00-2.19279E-03 2.62509E+00 2.97550E-13 7.51742E-13
 -1      2546 1.99996E+01-3.12147E-04-3.14029E-06 3.93652E-04 7.99530E-14 6.14199E-14
 -1      2547 1.84983E+01-5.04116E+00-8.19477E-03 6.59950E+00-1.64424E-13 3.28904E-13
 -1      2548 1.52371E+01-4.65105E+00 6.60529E-02 6.54319E+00-3.37230E-13 4.77202E-13
 -1      2549 5.88562E+00-3.25375E+00 3.66242E-02-4.98633E+00 3.47888E-13 1.41714E-12
 -1      2550 9.10716E+00-3.63036E+00-1.91385E-03-6.64165E+00 3.57880E-13 1.24917E-12
 -1      2551 3.12374E+00-2.37679E+00 4.85533E-02-1.37537E+00 1.11855E-13 1.36480E-12
 -1      2552 3.92143E+00-2.56331E+00 2.99801E-02-3.30772E+00 1.53377E-13 1.50796E-12
 -1      2553 3.18754E+01 4.25138E+00-8.92699E-02-1.61024E-02-1.15263E-12-7.51788E-13
 -1      2554 3.29381E+01 5.84005E+00-8.11930E-02 7.54329E-02-1.32289E-12-7.19313E-13
 -1      2555 2.92300E+00 6.17654E-01 6.83648E-02 1.46943E+00 2.07577E-13-1.97364E-12
 -1      2556 3.24241E+00 3.04532E-01 7.08120E-02-8.49183E-01 2.61978E-13-1.98597E-12
 -1      2557 1.63834E+01 1.98703E+00-3.43493E-02 2.71203E+00 5.55325E-13-9.00821E-13
 -1      2558 1.80688E+01 1.72072E+00 3.68257E-02 2.24756E+00 4.54130E-13-8.42967E-13
 -1      2559 1.93093E+01 7.74999E-01-4.51966E-03 2.09159E+00 4.08045E-13-7.31195E-13
 -1      2560 1.58153E+01 1.60382E+00 1.60129E-02 3.45269E+00 6.13835E-13-9.74148E-13
 -1      2561 2.61627E+01-3.80853E+00 1.17553E-02-2.55114E+00 4.09756E-13-3.49443E-13
 -1      2562 2.91129E+01-3.04866E+00-1.32230E-01-1.41654E+00 6.56100E-13-1.92346E-13
 -1      2563 3.36892E+01 6.20779E+00-1.30186E-01-5.07034E-01 1.64718E-12-5.98049E-13
 -1      2564 3.33576E+01 5.16528E+00-1.00753E-01-1.10425E+00 1.52178E-12-6.82593E-13
 -1      2565 3.35618E+01 6.43098E+00-1.01100E-01 1.40661E+00 1.60716E-12-2.12635E-13
 -1      2566 3.38672E+01 6.91466E+00-9.15341E-02 5.01184E-01 1.73750E-12-3.59608E-13
 -1      2567 3.34823E+01 3.49216E+00-3.93120E-02 2.21931E+00 1.38750E-12 2.95042E-14
 -1      2568 3.37667E+01 4.82232E+00-1.43683E-01 2.08444E+00 1.51373E-12-1.91513E-15
 -1      2569 3.00197E+01 1.07535E+00-1.16991E-01 1.01269E+00-1.05761E-12-2.49800E-13
 -1      2570 2.83176E+01-1.66421E-01-3.59392E-02 1.99779E+00-8.44352E-13-3.99875E-13
 -1      2571 3.12119E+01-1.11120E+00-1.95943E-02 4.81786E-01 8.25950E-13-1.43219E-14
 -1      2572 3.29331E+01 9.20133E-01-1.52768E-01 1.61427E+00 1.10331E-12 8.70415E-14
 -1      2573 1.79647E+01-3.91982E+00-4.28809E-03-5.06285E+00 1.86462E-13-1.04281E-12
 -1      2574 2.21204E+01-4.14804E+00-8.60644E-02-4.47501E+00 2.83190E-13-7.10758E-13
 -1      2575 1.08058E+01-2.23364E+00 4.61165E-02-4.99535E+00 1.55431E-15-1.48395E-12
 -1      2576 1.43961E+01-3.11220E+00 5.37615E-03-5.60807E+00 1.83797E-13-1.32751E-12
 -1      2577 1.77452E+01-3.09583E+00 1.08495E-01-4.75637E+00-1.89543E-13-9.12090E-13
 -1      2578 5.02858E+00-2.56345E-01 6.95777E-02-2.63666E+00 5.92582E-14-1.86778E-12
 -1      2579 7.37749E+00-9.47983E-01 5.93417E-02-4.20455E+00 1.34504E-13-1.75179E-12
 -1      2580 5.69851E+00 2.77349E-01 7.55143E-02 4.89479E+00 3.48527E-13-1.76104E-12
 -1      2581 3.96646E+00 4.44903E-01 8.02288E-02 3.33587E+00 3.85636E-13-1.89204E-12
 -1      2582 1.99814E+01-2.29648E+00 1.09743E-02 6.00440E+00-1.38389E-13-9.33066E-13
 -1      2583 1.70448E+01-2.20228E+00 5.44121E-02 6.31117E+00 9.27869E-14-1.03610E-12
 -1      2584 2.01079E+01-4.60813E+00 1.03151E-02-6.32079E+00 2.12358E-13 1.35336E-13
 -1      2585 2.34592E+01-4.03485E+00-4.13589E-02-5.64762E+00-3.15303E-14-1.49575E-13
 -1      2586 2.62376E+01-1.32883E+00-5.59450E-02 3.67052E+00-6.18838E-13-5.75956E-13
 -1      2587 2.28532E+01-2.18069E+00-3.28039E-02 4.68321E+00-3.02675E-13-6.74183E-13
 -1      2588 2.71549E+01-1.22029E+00 3.32375E-02 1.81952E+00-3.65388E-13-1.70169E-13
 -1      2589 3.22865E+01 7.60283E+00-7.48746E-02-6.01733E-01-1.61843E-12-5.03226E-13
 -1      2590 3.12427E+01 6.83376E+00-1.94034E-01-9.95413E-01-1.58240E-12-3.85830E-13
 -1      2591 3.30327E+01 6.96050E+00-8.93577E-02 2.38678E-02-1.45023E-12-6.55948E-13
 -1      2592 3.28324E+01 7.58489E+00-1.33188E-01-1.03707E-01-1.57790E-12-6.33119E-13
 -1      2593 3.08661E+01 6.14507E+00-1.70053E-02 6.95743E-01-1.31345E-12-8.15653E-13
 -1      2594 3.01207E+01 2.97740E-01-5.77628E-02-1.30596E+00-6.39350E-13-7.11653E-13
 -1      2595 3.10731E+01 1.73737E+00-1.33653E-01-5.57544E-01-8.28296E-13-8.09186E-13
 -1      2596 2.61600E+01-3.04877E+00-3.60785E-02-3.90548E+00-1.77733E-13-4.17444E-13
 -1      2597 2.88724E+01-1.43234E+00-6.97843E-02-2.79200E+00-4.54664E-13-5.61939E-13
 -1      2598 2.88100E+01-1.39038E+00 1.11762E-02-1.08814E+00-2.82271E-13-8.98337E-13
 -1      2599 1.32438E+01-4.38983E+00 5.89261E-02-7.07670E+00 5.05707E-13 8.43145E-13
 -1      2600 1.65505E+01-4.55100E+00-1.43475E-02-7.30781E+00 3.22409E-13 5.12170E-13
 -1      2601 2.33592E+01 1.49574E+00-3.02170E-02-2.71867E+00-6.32399E-13-1.57589E-13
 -1      2602 2.31247E+01 7.44460E-01-9.91918E-03-2.31893E+00-5.87566E-13-5.95561E-14
 -1      2603 2.32507E+01 7.91502E-01 2.10957E-02-2.45593E+00-5.18341E-13-1.27662E-13
 -1      2604 2.31082E+01 1.75101E+00-1.93821E-02-2.63178E+00-5.75540E-13-3.12451E-13
 -1      2605 2.69045E+01-1.90776E-01-3.02299E-02 9.65488E-01 3.90639E-13 7.38301E-13
 -1      2606 2.70720E+01 4.52034E-01-9.42802E-03 1.12037E+00 4.45092E-13 7.59566E-13
 -1      2607 2.59935E+01 7.97195E-01-3.48659E-02 1.14444E+00 4.64484E-13 4.99309E-13
 -1      2608 2.61710E+01-6.35751E-01-4.78113E-02 9.30394E-01 3.10240E-13 5.03139E-13
 -1      2609 2.61307E+01-4.37250E+00-5.52073E-02 4.43767E+00 2.61818E-13-1.85962E-13
 -1      2610 2.21425E+01-5.15736E+00-2.69138E-03 5.35586E+00-6.43929E-15 2.23016E-14
 -1      2611 2.78119E+01-4.18747E+00 4.85363E-02 2.38815E+00 4.89331E-14-6.16673E-13
 -1      2612 3.00654E+01-2.27389E+00 2.50430E-02 7.32439E-01 4.48891E-13 3.03202E-13
 -1      2613 2.26692E+01 9.03423E-01 1.26974E-03-1.08217E+00-9.99908E-14-5.39971E-13
 -1      2614 2.23913E+01 1.59427E+00-5.63487E-04-1.27526E+00-1.45983E-13-6.47749E-13
 -1      2615 2.26432E+01 1.67096E+00-4.54112E-02-1.78318E+00-2.93198E-13-5.99847E-13
 -1      2616 1.99995E+01-2.82914E-04-3.83627E-06 4.83558E-04 5.39901E-14 1.04757E-14
 -1      2617 1.99996E+01-4.08776E-04 2.22711E-06 5.46181E-04 8.95489E-14 5.76208E-14
 -1      2618 1.99996E+01-4.83856E-04-1.88967E-06 6.77827E-04 1.35156E-13 6.37135E-14
 -1      2619 1.99994E+01-2.92102E-04-5.76904E-06 5.79313E-04 3.24061E-14-2.11914E-15
 -1      2620 2.44010E+01 1.07962E+00 5.98759E-03 7.90144E-01 3.69749E-13 1.84706E-13
 -1      2621 2.25616E+01-2.43162E+00 4.26929E-02 4.46645E+00 1.55292E-13-5.13159E-13
 -1      2622 8.23211E+00 1.49221E-01 1.36292E-01 5.53476E+00 4.71956E-13-1.62600E-12
 -1      2623 7.94957E+00 1.35703E+00 1.44262E-01 4.84684E+00 5.74693E-13-1.60258E-12
 -1      2624 1.07575E+01-3.23786E-02 1.62088E-02 5.92307E+00 6.75668E-13-1.36910E-12
 -1      2625 3.10237E+01-8.16024E-01-2.58008E-02-6.87571E-01 5.94851E-13-9.42330E-13
 -1      2626 1.99995E+01-3.83327E-04 3.43617E-06 7.27736E-04 3.05650E-14-2.16559E-13
 -1      2627 1.09074E+01-8.48856E-01 1.36900E-01-4.36261E+00-1.60760E-13-1.48842E-12
 -1      2628 1.45491E+01-3.62386E+00 1.17643E-01 6.15425E+00-5.56444E-13 5.42399E-13
 -1      2629 2.72571E+01 3.65886E+00-1.13691E-01-2.96905E-01 1.06712E-12-2.53639E-13
 -1      2630 2.39946E+01 2.69635E-01 3.03985E-02 2.41128E-01 2.40469E-13 1.48236E-13
 -1      2631 2.74964E+01 1.83066E+00-7.50523E-02-2.53885E+00 7.92560E-13-8.01130E-13
 -1      2632 1.99996E+01-2.75108E-04-8.45916E-07-4.30415E-04-3.32017E-13-9.96903E-15
 -1      2633 1.99996E+01-3.60738E-04 1.48360E-07-4.96840E-04-4.30583E-13-7.59346E-14
 -1      2634 2.99465E+01 1.92605E+00-5.08608E-02-6.57019E-01-9.90472E-13-3.75255E-14
 -1      2635 4.94757E+00-1.10354E+00 1.51713E-01-3.93633E-01-7.50094E-15 1.22558E-12
 -1      2636 7.81110E+00-1.63673E+00 1.63633E-01 3.84851E+00-3.60614E-13 9.46687E-13
 -1      2637 3.18237E+01 1.52552E+00-5.81619E-02 2.64151E+00 9.98909E-13 4.12059E-13
 -1      2638 6.75438E+00-1.89354E+00 1.39706E-01-4.28876E+00 3.34247E-13 1.37032E-12
 -1      2639 3.17850E+01 5.25643E+00-8.02508E-02 2.07171E+00 1.43130E-12 4.66294E-14
 -1      2640 2.19167E+01-5.02401E+00 7.97361E-02 5.25352E+00-3.81112E-13-1.17621E-13
 -1      2641 1.24336E+01-3.56288E+00 1.14720E-01-6.78769E+00 6.11816E-13 8.84307E-13
 -1      2642 2.29560E+01 1.76812E+00-7.01036E-03-2.31963E+00-4.47003E-13-4.46044E-13
 -1      2643 2.54378E+01-3.96148E+00 5.10246E-02-3.96831E+00 1.81258E-13-5.13922E-13
 -1      2644 1.96733E+01-4.64046E+00 8.21350E-02-6.42877E+00 5.58165E-13 9.50628E-14
 -1      2645 3.03088E+01 2.60009E+00-3.85710E-02 6.91296E-01-8.27477E-13-9.86711E-13
 -1      2646 4.89786E+00 1.63851E+00 1.69464E-01 2.29098E+00 3.52426E-13-1.93409E-12
 -1      2647 5.78293E+00 1.17755E+00 1.67577E-01-1.63862E+00 8.88595E-14-1.89490E-12
 -1      2648 2.81301E+01 2.53088E-01-5.49032E-02 3.44778E+00 5.42254E-13 7.31401E-13
 -1      2649 3.07331E+01 5.96752E+00-9.93023E-02-1.43370E+00-1.47932E-12-3.03965E-13
 -1      2650 2.93826E+01 4.98801E+00-8.62285E-02-1.73672E+00-1.33346E-12-1.16532E-13
 -1      2651 2.86164E+01 6.33499E+00-1.32183E-01-1.58986E+00-1.39030E-12-2.53242E-13
 -1      2652 1.55582E+01-1.82083E+00 5.77068E-02 6.39279E+00 3.15886E-13-1.11063E-12
 -1      2653 1.44266E+01-7.74555E-01 2.35108E-01 6.31706E+00 5.33545E-13-1.16546E-12
 -1      2654 1.79037E+01-1.97584E+00-1.64338E-02 5.62741E+00 5.98938E-13-7.70300E-13
 -1      2655 3.16010E+01 3.66935E+00-1.60981E-02-1.88850E+00 1.21356E-12-8.81156E-13
 -1      2656 3.14275E+01 5.91701E+00-9.26434E-02-2.13569E-01 1.54343E-12-4.36103E-13
 -1      2657 2.48360E+01-4.01207E+00 6.16221E-02-2.75722E+00 3.54994E-14-2.33674E-13
 -1      2658 3.01438E+01 7.34527E+00-6.66541E-02-3.47816E-01-1.49339E-12-5.21048E-13
 -1      2659 1.99996E+01-4.33409E-04-2.57973E-06-6.32208E-04-3.21605E-13-7.90445E-14
 -1      2660 1.02950E+01 5.38446E-01 1.43503E-01-3.55086E+00-1.76775E-13-1.42042E-12
 -1      2661 1.34576E+01-8.93442E-01 6.98061E-02-4.46578E+00-2.17909E-13-1.14832E-12
 -1      2662 7.77612E+00 3.77152E+00 7.66226E-02 1.43665E+00 3.62541E-13-1.58747E-12
 -1      2663 8.37387E+00 3.59666E+00 1.14157E-01 2.60393E+00 5.30871E-13-1.53472E-12
 -1      2664 9.71457E+00 2.52939E+00 4.92433E-02 4.13682E+00 6.47753E-13-1.41415E-12
 -1      2665 1.21647E+01 1.86662E+00 1.38610E-01 4.56664E+00 7.13443E-13-1.24564E-12
 -1      2666 1.50874E+01 1.11232E+00 1.20557E-01-2.65420E+00-1.50775E-13-9.07725E-13
 -1      2667 1.20744E+01 1.88629E+00 3.43441E-02-2.52918E+00-9.52086E-14-1.17314E-12
 -1      2668 2.64362E+01-2.24274E+00-2.53352E-02 8.50048E-01 1.21585E-13 4.81558E-13
 -1      2669 2.60341E+01-1.67420E+00 6.77888E-02 4.40860E-01 6.38222E-14 4.05344E-13
 -1      2670 2.94058E+01 7.41607E-01-1.38173E-01-2.56778E+00 6.93112E-13-9.97855E-13
 -1      2671 2.93336E+01 2.72680E+00-1.11720E-01-2.08653E+00 1.01588E-12-8.21690E-13
 -1      2672 2.83730E+01-3.76414E+00-9.49667E-02 1.03477E+00 5.14727E-14-8.61020E-13
 -1      2673 2.64311E+01-4.59410E+00 3.45656E-02 2.51593E+00-1.89813E-13-6.97997E-13
 -1      2674 1.99995E+01-4.97827E-04-1.29670E-06 7.62602E-04 1.53000E-13 3.97407E-14
 -1      2675 1.99996E+01-5.99451E-04-1.99447E-06 7.93921E-04 1.66397E-13-6.46456E-14
 -1      2676 1.99995E+01-5.10997E-04-4.93181E-06 8.50329E-04 5.23056E-14-1.12095E-13
 -1      2677 2.41502E+01-4.93409E-01 2.19359E-03 1.39270E-01 1.59798E-13 1.49304E-13
 -1      2678 1.72442E+01-3.75682E+00 2.83011E-02 5.96821E+00-6.12177E-13 2.16716E-13
 -1      2679 1.38294E+01-2.46482E+00 1.24047E-01 5.56260E+00-6.20393E-13 4.57356E-13
 -1      2680 2.30150E+01 5.89271E-01-9.53906E-03-2.24880E+00-4.41150E-13-1.18508E-13
 -1      2681 2.27881E+01 8.57307E-01 1.14772E-02-2.07045E+00-4.64540E-13-1.42646E-13
 -1      2682 2.25465E+01 1.17153E+00-1.42513E-02-1.82691E+00-4.88672E-13-1.58667E-13
 -1      2683 2.23442E+01 1.49223E+00 1.46017E-02-1.48208E+00-5.05842E-13-2.26953E-13
 -1      2684 2.31506E+01 1.25670E+00 6.18742E-03-2.15893E+00-5.12629E-13-1.38042E-13
 -1      2685 2.21172E+01 1.73830E+00-8.45601E-03-9.94350E-01-5.13278E-13-3.07457E-13
 -1      2686 2.19979E+01 1.86898E+00 4.35772E-03-5.13458E-01-5.02619E-13-3.56461E-13
 -1      2687 2.27189E+01 1.98017E+00-9.10944E-03-1.41587E+00-5.53410E-13-2.45630E-13
 -1      2688 2.19415E+01 1.84575E+00 7.57896E-03 8.21185E-02-5.01896E-13-4.63268E-13
 -1      2689 2.19279E+01 1.65661E+00-1.17900E-02 5.46300E-01-4.67806E-13-5.38508E-13
 -1      2690 2.24455E+01 2.26673E+00-1.67116E-02-2.68862E-01-5.77968E-13-4.35244E-13
 -1      2691 2.20507E+01 1.34112E+00 1.79718E-02 1.00416E+00-4.04645E-13-6.37063E-13
 -1      2692 2.21112E+01 9.19862E-01-2.23539E-02 1.28550E+00-3.26153E-13-6.85856E-13
 -1      2693 2.24899E+01 1.82712E+00-9.56879E-03 8.46564E-01-5.10416E-13-6.26701E-13
 -1      2694 2.22668E+01 4.82865E-01 1.56992E-02 1.44378E+00-2.46479E-13-7.04892E-13
 -1      2695 2.23382E+01 4.54926E-02-1.91333E-02 1.48443E+00-1.87603E-13-7.16977E-13
 -1      2696 2.27170E+01 8.55427E-01 4.84880E-03 1.47169E+00-2.95474E-13-7.40561E-13
 -1      2697 2.23776E+01-3.14510E-01 5.07513E-03 1.36661E+00-1.35509E-13-6.41847E-13
 -1      2698 2.24067E+01-6.03798E-01-9.06305E-03 1.22404E+00-4.35546E-14-6.24844E-13
 -1      2699 2.28463E+01-1.65859E-01 1.21761E-02 1.47074E+00-1.40067E-13-6.57201E-13
 -1      2700 2.22925E+01-7.90565E-01-4.68325E-03 9.62939E-01-1.66147E-14-5.77407E-13
 -1      2701 2.22602E+01-8.92833E-01 4.27077E-04 7.39106E-01 3.01629E-14-5.59772E-13
 -1      2702 2.27178E+01-8.53821E-01 8.32238E-03 1.04438E+00 4.38983E-15-5.76243E-13
 -1      2703 2.20457E+01-9.20055E-01-8.91145E-03 4.62753E-01 1.67761E-14-5.36475E-13
 -1      2704 2.19639E+01-8.83321E-01 6.07552E-03 2.39870E-01 2.16080E-14-5.49601E-13
 -1      2705 2.23639E+01-1.10616E+00 1.09494E-03 4.80885E-01 7.79180E-15-5.79870E-13
 -1      2706 2.17197E+01-8.11708E-01-8.74302E-03 1.87671E-02-3.61448E-14-5.39485E-13
 -1      2707 2.16117E+01-7.05845E-01 7.78677E-03-1.58581E-01-4.81338E-14-5.26732E-13
 -1      2708 2.19079E+01-1.03034E+00-4.23895E-03-2.05842E-02-2.31976E-14-6.23033E-13
 -1      2709 2.13884E+01-5.96372E-01-6.56379E-03-3.04713E-01-4.59886E-14-4.83825E-13
 -1      2710 2.12746E+01-4.75712E-01 7.10772E-03-4.23802E-01-3.21951E-14-4.66950E-13
 -1      2711 2.14600E+01-7.87993E-01-6.25381E-03-3.78708E-01-2.56155E-14-4.33938E-13
 -1      2712 2.10934E+01-3.67770E-01-4.12598E-03-5.02617E-01-8.87011E-14-4.09045E-13
 -1      2713 2.09863E+01-2.62192E-01 5.47212E-03-5.68143E-01-8.67641E-14-4.30607E-13
 -1      2714 2.10799E+01-5.07926E-01-6.09602E-03-5.90811E-01-9.21913E-15-3.84729E-13
 -1      2715 2.08497E+01-1.74587E-01-2.09619E-03-5.96085E-01-9.09331E-14-4.35541E-13
 -1      2716 2.07547E+01-9.53421E-02 3.74318E-03-6.19749E-01-1.06414E-13-4.19937E-13
 -1      2717 2.07839E+01-2.61089E-01-5.00066E-03-6.85576E-01-1.01231E-13-3.71075E-13
 -1      2718 2.06564E+01-3.31371E-02-6.14479E-04-6.13413E-01-1.61802E-13-3.92216E-13
 -1      2719 2.05749E+01 1.93477E-02 2.29883E-03-6.08027E-01-1.53268E-13-4.07846E-13
 -1      2720 2.05654E+01-7.45870E-02-3.71820E-03-6.97511E-01-1.29028E-13-3.91556E-13
 -1      2721 2.05058E+01 5.83356E-02 3.67102E-04-5.81046E-01-1.57146E-13-3.80074E-13
 -1      2722 2.04372E+01 8.85391E-02 1.23402E-03-5.57775E-01-1.21290E-13-3.91914E-13
 -1      2723 2.04086E+01 4.99095E-02-2.61948E-03-6.56862E-01-1.62902E-13-3.64241E-13
 -1      2724 2.03893E+01 1.09295E-01 9.55685E-04-5.20229E-01-2.39694E-14-3.57258E-13
 -1      2725 2.03321E+01 1.23039E-01 5.19934E-04-4.87690E-01 6.92878E-14-3.12775E-13
 -1      2726 2.02976E+01 1.22411E-01-1.80269E-03-5.86845E-01-4.63209E-14-1.62355E-13
 -1      2727 2.02989E+01 1.30895E-01 1.25721E-03-4.46508E-01 4.94150E-14-2.35481E-13
 -1      2728 2.02517E+01 1.33585E-01 8.16916E-05-4.10783E-01 7.54583E-14-2.89935E-13
 -1      2729 2.02190E+01 1.56236E-01-1.24086E-03-5.03936E-01 6.65760E-14-1.73826E-13
 -1      2730 2.02284E+01 1.33126E-01 1.35914E-03-3.70402E-01 1.58885E-13-3.31072E-13
 -1      2731 2.01899E+01 1.29090E-01-1.59960E-04-3.35434E-01 1.40895E-13-3.30313E-13
 -1      2732 2.01627E+01 1.63879E-01-8.71826E-04-4.19093E-01 6.90391E-14-1.95614E-13
 -1      2733 2.01733E+01 1.23823E-01 1.33021E-03-2.98442E-01 1.76032E-13-2.63193E-13
 -1      2734 2.01422E+01 1.16219E-01-2.71549E-04-2.66532E-01 2.05178E-13-2.74750E-13
 -1      2735 2.01218E+01 1.55424E-01-6.34462E-04-3.39069E-01 2.06462E-13-3.15272E-13
 -1      2736 2.01303E+01 1.08614E-01 1.22245E-03-2.34217E-01 1.30327E-13-2.60120E-13
 -1      2737 2.01055E+01 9.95805E-02-3.03025E-04-2.06491E-01 4.98179E-14-2.00634E-13
 -1      2738 2.00915E+01 1.38284E-01-4.80991E-04-2.67574E-01 2.20039E-13-2.97189E-13
 -1      2739 2.00967E+01 9.12584E-02 1.07372E-03-1.79274E-01-6.09442E-14-3.24900E-13
 -1      2740 2.00772E+01 8.21396E-02-2.89225E-04-1.56073E-01-3.25188E-14-3.45589E-13
 -1      2741 2.00688E+01 1.17521E-01-3.78504E-04-2.06217E-01-6.81970E-14-2.53215E-13
 -1      2742 2.00706E+01 7.40828E-02 9.10273E-04-1.33827E-01-6.09007E-15-3.48189E-13
 -1      2743 2.00555E+01 6.56499E-02-2.53062E-04-1.15006E-01-2.70430E-14-3.77137E-13
 -1      2744 2.00515E+01 9.63477E-02-3.06165E-04-1.55229E-01-1.49632E-14-2.79860E-13
 -1      2745 2.00506E+01 5.83920E-02 7.49276E-04-9.72939E-02-2.20199E-14-3.22873E-13
 -1      2746 2.00391E+01 5.10242E-02-2.08752E-04-8.24360E-02 1.86893E-14-3.41958E-13
 -1      2747 2.00383E+01 7.66312E-02-2.51621E-04-1.14006E-01-1.77678E-14-2.88239E-13
 -1      2748 2.00354E+01 4.48005E-02 6.00988E-04-6.86705E-02 8.83016E-14-3.63895E-13
 -1      2749 2.00268E+01 3.86248E-02-1.64520E-04-5.72328E-02 6.51903E-14-2.89976E-13
 -1      2750 2.00281E+01 5.93122E-02-2.07958E-04-8.14883E-02 8.25100E-14-1.87251E-13
 -1      2751 2.00239E+01 3.34836E-02 4.70697E-04-4.67815E-02 7.86717E-14-2.60820E-13
 -1      2752 2.00177E+01 2.84753E-02-1.24645E-04-3.81910E-02 4.91572E-14-2.79382E-13
 -1      2753 2.00204E+01 4.47290E-02-1.71507E-04-5.64282E-02 8.79888E-14-1.65365E-13
 -1      2754 2.00155E+01 2.43563E-02 3.60291E-04-3.04426E-02 5.09738E-14-1.30892E-13
 -1      2755 2.00111E+01 2.04077E-02-9.09408E-05-2.41530E-02 1.18171E-13 7.47174E-14
 -1      2756 2.00144E+01 3.28531E-02-1.40401E-04-3.75545E-02 1.45964E-13-6.54750E-15
 -1      2757 2.00095E+01 1.71953E-02 2.69473E-04-1.85531E-02 1.29480E-13 7.83918E-14
 -1      2758 2.00064E+01 1.41612E-02-6.37604E-05-1.40749E-02 2.08883E-13 1.58670E-13
 -1      2759 2.00099E+01 2.34527E-02-1.13696E-04-2.36759E-02 1.44148E-13 1.27315E-13
 -1      2760 2.00052E+01 1.17179E-02 1.96670E-04-1.01433E-02 1.74118E-13 2.38259E-14
 -1      2761 2.00031E+01 9.44392E-03-4.26650E-05-7.05715E-03 1.81949E-13-3.91789E-15
 -1      2762 2.00066E+01 1.62006E-02-9.08738E-05-1.37341E-02 1.22569E-13 1.30914E-14
 -1      2763 2.00022E+01 7.63135E-03 1.39662E-04-4.39180E-03 1.19719E-13 3.56038E-14
 -1      2764 2.00009E+01 5.97022E-03-2.68451E-05-2.35030E-03 2.09007E-14-4.90126E-14
 -1      2765 2.00042E+01 1.07424E-02-7.15780E-05-6.82529E-03 1.54600E-13-8.56704E-14
 -1      2766 2.00003E+01 4.66047E-03 9.60143E-05-6.24090E-04-1.26236E-14-1.04489E-14
 -1      2767 1.99995E+01 3.48062E-03-1.53743E-05 6.52494E-04-9.69029E-14 1.06783E-14
 -1      2768 2.00024E+01 6.73672E-03-5.54901E-05-2.20128E-03 2.91448E-15-7.47306E-14
 -1      2769 1.99991E+01 2.56180E-03 6.33397E-05 1.69923E-03-1.27481E-13 9.21879E-14
 -1      2770 1.99987E+01 1.75089E-03-7.35222E-06 2.43066E-03-1.06057E-13 2.44221E-13
 -1      2771 2.00012E+01 3.87633E-03-4.22845E-05 7.41232E-04-2.72214E-14 5.54254E-14
 -1      2772 1.99984E+01 1.12885E-03 3.94526E-05 2.99940E-03-4.85767E-16 3.26527E-13
 -1      2773 1.99983E+01 5.94155E-04-1.97637E-06 3.35434E-03 5.72678E-14 4.02643E-13
 -1      2774 2.00004E+01 1.89742E-03-3.16209E-05 2.47738E-03 2.36368E-15 3.32505E-13
 -1      2775 1.99981E+01 1.92146E-04 2.24433E-05 3.59803E-03-5.16853E-14 2.38160E-13
 -1      2776 1.99981E+01-1.40770E-04 1.42886E-06 3.70303E-03-3.29938E-14 1.34398E-13
 -1      2777 1.99998E+01 5.81188E-04-2.31535E-05 3.37316E-03-6.14315E-14 1.25327E-13
 -1      2778 1.99980E+01-3.83744E-04 1.07016E-05 3.73518E-03-4.17860E-14 1.40594E-13
 -1      2779 1.99981E+01-5.73243E-04 3.40876E-06 3.68292E-03-9.50385E-14 8.58268E-14
 -1      2780 1.99995E+01-2.48777E-04-1.65443E-05 3.70442E-03-4.22893E-14 6.59528E-14
 -1      2781 1.99981E+01-7.04577E-04 2.90860E-06 3.58575E-03-2.12901E-14-6.03225E-15
 -1      2782 1.99983E+01-7.95438E-04 4.38808E-06 3.44231E-03 1.40665E-13 4.44015E-14
 -1      2783 1.99993E+01-7.31324E-04-1.14757E-05 3.67434E-03-6.75078E-16 3.37850E-14
 -1      2784 1.99982E+01-8.51216E-04-1.98886E-06 3.27371E-03 8.49804E-14 4.43575E-14
 -1      2785 1.99984E+01-8.77136E-04 4.68713E-06 3.08472E-03-9.14183E-14 1.45347E-13
 -1      2786 1.99992E+01-9.73421E-04-7.66051E-06 3.42887E-03 9.81934E-14-1.25976E-13
 -1      2787 1.99984E+01-8.84330E-04-4.81269E-06 2.88402E-03-2.16954E-13 3.51406E-15
 -1      2788 1.99986E+01-8.70224E-04 4.53954E-06 2.67964E-03-3.00503E-13-4.56154E-14
 -1      2789 1.99992E+01-1.05588E-03-4.84750E-06 3.06966E-03-1.92831E-13-3.70323E-13
 -1      2790 1.99986E+01-8.48680E-04-6.18807E-06 2.47231E-03-2.74803E-13 6.73233E-14
 -1      2791 1.99988E+01-8.12718E-04 4.10303E-06 2.27123E-03-1.60136E-13-3.69810E-14
 -1      2792 1.99993E+01-1.03869E-03-2.82841E-06 2.66486E-03-2.52394E-13-4.57247E-13
 -1      2793 1.99988E+01-7.76882E-04-6.58220E-06 2.07247E-03-1.68725E-13-3.98769E-14
 -1      2794 1.99990E+01-7.32149E-04 3.50170E-06 1.88502E-03-6.28282E-15-2.09022E-14
 -1      2795 1.99993E+01-9.65792E-04-1.43795E-06 2.25763E-03-1.42130E-13-1.36684E-13
 -1      2796 1.99990E+01-6.92369E-04-6.32214E-06 1.70271E-03 1.51643E-13 7.30285E-14
 -1      2797 1.99992E+01-6.48273E-04 2.82887E-06 1.53328E-03 1.08837E-13 6.21336E-14
 -1      2798 1.99994E+01-8.68791E-04-5.31558E-07 1.87267E-03 4.55312E-14-4.14636E-14
 -1      2799 1.99992E+01-6.11607E-04-5.23998E-06 1.37050E-03 9.61910E-15 1.40300E-13
 -1      2800 1.99993E+01-5.76488E-04 1.90846E-06 1.22015E-03-9.23564E-14-1.54375E-13
 -1      2801 1.99995E+01-7.70739E-04-1.44088E-07 1.52283E-03 1.90562E-14-1.11433E-13
 -1      2802 1.99994E+01-5.54196E-04-5.49889E-06 1.09553E-03-2.57031E-14-1.81545E-13
 -1      2803 1.99995E+01-5.25105E-04 8.34674E-07 9.58589E-04 5.23496E-15-1.53161E-13
 -1      2804 1.99996E+01-6.27701E-04 4.95917E-06 9.93419E-04 6.50032E-14 1.35688E-13
 -1      2805 1.99995E+01-6.95536E-04-1.46931E-06 1.23316E-03-5.62433E-14-2.37453E-14
 -1      2806 2.91122E+01 2.65116E+00-1.87443E-01-1.62989E+00-1.04694E-12 1.03528E-14
 -1      2807 2.83171E+01 9.32784E-01-3.38142E-02-9.72948E-01-7.17267E-13 1.00031E-13
 -1      2808 2.28439E+01-1.01280E+00 3.39184E-02 1.99754E+00-2.00947E-13-4.37659E-13
 -1      2809 2.33570E+01-1.51844E+00-4.00149E-03 1.74427E+00-2.51368E-13-5.27688E-13
 -1      2810 2.19512E+01-2.54863E-01 1.42665E-02 2.08810E+00-1.17287E-14-2.39202E-13
 -1      2811 2.23304E+01-6.05791E-01-1.02239E-03 2.02980E+00-6.78012E-14-3.24590E-13
 -1      2812 2.16339E+01-9.82943E-01-3.91604E-02 2.43416E+00-2.04765E-13-3.99254E-13
 -1      2813 2.14260E+01 1.79415E-01 4.67728E-03 1.93638E+00 1.98756E-14-1.44160E-13
 -1      2814 2.17023E+01-4.69268E-03 4.00975E-03 1.99074E+00 4.03742E-14-1.53899E-13
 -1      2815 2.09855E+01-1.31631E-01-1.70375E-02 2.28760E+00-1.90564E-14-1.67528E-13
 -1      2816 2.11018E+01 3.74487E-01 2.43204E-04 1.68753E+00 4.03784E-14-1.51473E-13
 -1      2817 2.13103E+01 3.00124E-01 5.32166E-03 1.79611E+00 3.10492E-14-1.54223E-13
 -1      2818 2.06753E+01 3.14465E-01-7.00357E-03 2.01911E+00 1.24182E-14-6.20037E-14
 -1      2819 2.08813E+01 4.26170E-01-1.50902E-03 1.41291E+00 2.91664E-14-1.02990E-13
 -1      2820 2.10474E+01 4.14329E-01 5.90090E-03 1.53866E+00 6.78178E-14-1.42135E-13
 -1      2821 2.05258E+01 5.00448E-01-1.98197E-03 1.71622E+00 4.48760E-14-1.24099E-13
 -1      2822 2.07140E+01 4.04555E-01-1.95233E-03 1.15004E+00 1.44311E-14-4.53327E-14
 -1      2823 2.08506E+01 4.23045E-01 5.86354E-03 1.27251E+00 3.56414E-14-4.36535E-14
 -1      2824 2.04435E+01 5.35853E-01 1.28573E-05 1.42065E+00 9.69382E-15-1.11053E-13
 -1      2825 2.05769E+01 3.52148E-01-1.82653E-03 9.16189E-01-5.21910E-14-7.67926E-14
 -1      2826 2.06905E+01 3.82255E-01 5.45431E-03 1.02558E+00-1.60340E-14-1.04253E-13
 -1      2827 2.03842E+01 4.96611E-01 4.99441E-04 1.15167E+00 4.15867E-14-4.62215E-14
 -1      2828 2.04610E+01 2.91839E-01-1.50170E-03 7.17271E-01-1.45569E-13-9.03307E-14
 -1      2829 2.05550E+01 3.23815E-01 4.83573E-03 8.10115E-01-5.98700E-14-3.14851E-14
 -1      2830 2.03310E+01 4.27552E-01 3.80247E-04 9.17365E-01-7.78507E-14-7.94621E-14
 -1      2831 2.03626E+01 2.34556E-01-1.15023E-03 5.53103E-01-1.90404E-13-1.44520E-13
 -1      2832 2.04395E+01 2.63944E-01 4.13600E-03 6.29331E-01-1.26431E-13-9.55400E-14
 -1      2833 2.02797E+01 3.52478E-01 1.00657E-04 7.19492E-01-1.27902E-13-1.90666E-14
 -1      2834 2.02802E+01 1.84631E-01-8.42628E-04 4.20545E-01-1.35339E-13-2.09225E-13
 -1      2835 2.03421E+01 2.09814E-01 3.44231E-03 4.81696E-01-2.03180E-13-2.15191E-13
 -1      2836 2.02308E+01 2.82593E-01-1.50306E-04 5.56269E-01-1.54008E-13-1.79996E-13
 -1      2837 2.02124E+01 1.43093E-01-5.98395E-04 3.15320E-01 8.81696E-14-1.62097E-13
 -1      2838 2.02615E+01 1.63842E-01 2.80392E-03 3.63523E-01-2.56067E-15-2.36834E-13
 -1      2839 2.01857E+01 2.22188E-01-3.17696E-04 4.24140E-01-6.16287E-14-2.60356E-13
 -1      2840 2.01578E+01 1.09481E-01-4.15043E-04 2.32977E-01 1.44072E-13-1.46521E-13
 -1      2841 2.01960E+01 1.26167E-01 2.24400E-03 2.70432E-01 1.58093E-13-1.03100E-13
 -1      2842 2.01459E+01 1.72099E-01-4.03047E-04 3.18862E-01 1.10355E-13-3.37813E-13
 -1      2843 2.01146E+01 8.27733E-02-2.82251E-04 1.69371E-01-7.74657E-15-2.48177E-13
 -1      2844 2.01438E+01 9.59732E-02 1.76892E-03 1.98101E-01 1.30655E-13-6.81818E-14
 -1      2845 2.01120E+01 1.31613E-01-4.26109E-04 2.36152E-01 1.26906E-13-3.06868E-14
 -1      2846 2.00811E+01 6.18288E-02-1.88414E-04 1.20850E-01 2.48817E-14-3.04100E-13
 -1      2847 2.01031E+01 7.21433E-02 1.37544E-03 1.42613E-01-5.48114E-14-3.45635E-13
 -1      2848 2.00840E+01 9.94506E-02-4.08499E-04 1.72022E-01-1.01466E-14-1.60744E-13
 -1      2849 2.00556E+01 4.55805E-02-1.23280E-04 8.43123E-02-9.74704E-14-1.81947E-13
 -1      2850 2.00720E+01 5.35563E-02 1.05553E-03 1.00585E-01-2.80413E-14-2.42102E-13
 -1      2851 2.00614E+01 7.42269E-02-3.67950E-04 1.22942E-01-5.71831E-14-1.31391E-13
 -1      2852 2.00367E+01 3.31014E-02-7.86975E-05 5.71811E-02-4.18747E-14-2.29665E-13
 -1      2853 2.00486E+01 3.92070E-02 7.99334E-04 6.91761E-02-2.69442E-15-1.78248E-13
 -1      2854 2.00437E+01 5.46587E-02-3.17158E-04 8.58813E-02-9.59605E-14-2.07429E-13
 -1      2855 2.00230E+01 2.36148E-02-4.85603E-05 3.73483E-02-3.96924E-15-3.51170E-13
 -1      2856 2.00313E+01 2.82400E-02 5.96867E-04 4.60475E-02-1.38905E-13-2.89287E-13
 -1      2857 2.00302E+01 3.96328E-02-2.64379E-04 5.83003E-02-3.32887E-14-2.63339E-13
 -1      2858 2.00132E+01 1.64837E-02-2.84485E-05 2.31123E-02 1.69281E-13-2.44192E-13
 -1      2859 2.00190E+01 1.99468E-02 4.38833E-04 2.93015E-02 1.54608E-13-2.63323E-13
 -1      2860 2.00200E+01 2.82161E-02-2.14491E-04 3.81033E-02-1.19320E-14-2.81763E-13
 -1      2861 2.00064E+01 1.11911E-02-1.52333E-05 1.31148E-02 1.22881E-13-2.50191E-13
 -1      2862 2.00103E+01 1.37498E-02 3.16990E-04 1.74162E-02 2.81504E-13-2.16349E-13
 -1      2863 2.00126E+01 1.96414E-02-1.70025E-04 2.35867E-02 1.53937E-13-1.80162E-13
 -1      2864 2.00020E+01 7.32100E-03-6.72850E-06 6.28343E-03-4.11877E-14-3.32470E-13
 -1      2865 2.00044E+01 9.18216E-03 2.24243E-04 9.18471E-03 2.06907E-14-2.83162E-13
 -1      2866 2.00073E+01 1.32855E-02-1.31981E-04 1.33823E-02 6.56429E-14-1.61212E-13
 -1      2867 1.99991E+01 4.54067E-03-1.41807E-06 1.78015E-03-2.95244E-14-3.34036E-13
 -1      2868 2.00006E+01 5.86929E-03 1.54610E-04 3.65968E-03-6.12266E-14-2.30488E-13
 -1      2869 2.00036E+01 8.64555E-03-1.00427E-04 6.40485E-03-8.93001E-14-2.43007E-13
 -1      2870 1.99975E+01 2.58603E-03 1.74505E-06-1.04189E-03-2.10215E-13-2.78729E-13
 -1      2871 1.99982E+01 3.51278E-03 1.03123E-04 1.06088E-04-7.93028E-14-3.13136E-13
 -1      2872 2.00011E+01 5.31952E-03-7.49051E-05 1.80350E-03-7.87314E-14-2.04521E-13
 -1      2873 1.99966E+01 1.24894E-03 3.48227E-06-2.67593E-03 2.23803E-15-2.58488E-13
 -1      2874 1.99969E+01 1.87650E-03 6.57113E-05-2.03972E-03-1.73855E-13-3.34035E-13
 -1      2875 1.99996E+01 2.98789E-03-5.47069E-05-1.08043E-03-1.58611E-13-3.48508E-13
 -1      2876 1.99963E+01 3.66835E-04 4.28930E-06-3.49285E-03 1.12477E-13-1.09058E-13
 -1      2877 1.99963E+01 7.75135E-04 3.90797E-05-3.20428E-03 8.78832E-14-1.45912E-13
 -1      2878 1.99986E+01 1.39893E-03-3.90346E-05-2.75011E-03-6.75535E-14-3.85986E-13
 -1      2879 1.99964E+01-1.86005E-04 4.50499E-06-3.76710E-03 6.84182E-14 1.78300E-13
 -1      2880 1.99962E+01 6.46243E-05 2.05904E-05-3.70559E-03 6.68602E-14 3.97704E-14
 -1      2881 1.99982E+01 3.56100E-04-2.71016E-05-3.58434E-03-5.55967E-14-7.99640E-14
 -1      2882 1.99966E+01-5.05702E-04 4.35854E-06-3.69811E-03 9.48878E-14 2.56281E-13
 -1      2883 1.99963E+01-3.65841E-04 8.15744E-06-3.77678E-03 1.46214E-13 3.13046E-13
 -1      2884 1.99980E+01-2.92436E-04-1.81862E-05-3.86370E-03 5.75992E-14 2.63192E-13
 -1      2885 1.99970E+01-6.64850E-04 4.00145E-06-3.42762E-03-1.93173E-14 2.47166E-13
 -1      2886 1.99967E+01-6.00489E-04 1.52454E-07-3.58533E-03 6.22602E-14 2.37938E-13
 -1      2887 1.99980E+01-6.62651E-04-1.16562E-05-3.79215E-03 7.40760E-14 1.42321E-13
 -1      2888 1.99974E+01-7.17571E-04 3.52931E-06-3.05360E-03-7.35716E-14 5.41938E-14
 -1      2889 1.99971E+01-7.02535E-04-4.67862E-06-3.24862E-03-3.72896E-14 1.75824E-13
 -1      2890 1.99981E+01-8.42028E-04-6.97718E-06-3.51463E-03-4.21629E-14 1.75172E-13
 -1      2891 1.99978E+01-7.03694E-04 2.99741E-06-2.64122E-03-1.03517E-14-2.43762E-13
 -1      2892 1.99975E+01-7.18809E-04-7.28634E-06-2.84630E-03-1.00688E-13 2.40052E-14
 -1      2893 1.99983E+01-8.95708E-04-3.70977E-06-3.13127E-03 1.54307E-14 8.38989E-14
 -1      2894 1.99982E+01-6.52180E-04 2.43308E-06-2.23145E-03-9.20175E-14-2.98747E-13
 -1      2895 1.99979E+01-6.83566E-04-8.38097E-06-2.42996E-03-3.50357E-16-2.72069E-13
 -1      2896 1.99985E+01-8.71575E-04-1.50096E-06-2.70863E-03 6.18883E-14-9.73315E-14
 -1      2897 1.99985E+01-5.83871E-04 1.86453E-06-1.84756E-03 2.01010E-13-3.41368E-13
 -1      2898 1.99983E+01-6.21590E-04-8.47808E-06-2.03058E-03-2.08333E-14-3.94044E-13
 -1      2899 1.99988E+01-8.04432E-04-7.76434E-08-2.28841E-03 1.14339E-14-2.41989E-13
 -1      2900 1.99988E+01-5.13980E-04 1.29228E-06-1.50037E-03 4.65005E-13-4.48597E-13
 -1      2901 1.99986E+01-5.50684E-04-7.93195E-06-1.66445E-03 3.98872E-13-5.44420E-13
 -1      2902 1.99990E+01-7.19195E-04 8.00345E-07-1.89434E-03 3.42919E-13-6.16684E-13
 -1      2903 1.99991E+01-4.53909E-04 4.39137E-07-1.19144E-03 2.82672E-13-2.67362E-13
 -1      2904 1.99989E+01-4.84292E-04-7.01468E-06-1.33706E-03 4.03132E-13-2.91760E-13
 -1      2905 1.99991E+01-6.34296E-04 1.26344E-06-1.53742E-03 3.08726E-13-3.13705E-13
 -1      2906 1.99993E+01-4.11344E-04-2.10099E-06-9.16908E-04 2.41753E-13-3.26748E-13
 -1      2907 1.99992E+01-4.30761E-04-6.09714E-06-1.04536E-03 2.61987E-13-8.71240E-14
 -1      2908 1.99993E+01-5.62536E-04 1.88838E-06-1.21942E-03 1.88204E-13-2.08595E-13
 -1      2909 1.99995E+01-4.17188E-04-2.99797E-06-7.12931E-04-1.50465E-13-1.74733E-13
 -1      2910 1.99994E+01-4.28969E-04-5.54008E-06-8.33058E-04 1.30852E-13-3.18003E-13
 -1      2911 1.99995E+01-5.38566E-04 5.64031E-06-9.77711E-04 1.70305E-13-5.68219E-14
 -1      2912 1.99996E+01-5.63648E-04 5.52590E-06-7.97243E-04-1.13494E-14 1.17144E-13
 -1      2913 2.00003E+01-1.38483E-03 3.26342E-06-7.75386E-05-8.27041E-14 4.46873E-13
 -1      2914 2.00003E+01-1.36797E-03 1.77087E-06-2.14503E-04 2.10217E-14 3.91831E-13
 -1      2915 2.00002E+01-1.19753E-03 4.97018E-06-6.08261E-04 7.99976E-14 2.77253E-13
 -1      2916 2.00001E+01-1.11835E-03-1.00998E-06-6.94243E-04 1.97837E-13 3.04342E-13
 -1      2917 2.00003E+01-1.36645E-03 1.78771E-06 2.19910E-04 3.61190E-16 2.44798E-13
 -1      2918 2.00003E+01-1.38424E-03 3.26629E-06 8.31701E-05-7.63012E-14 3.15102E-13
 -1      2919 2.00004E+01-1.43184E-03-4.58200E-06 3.27576E-06-2.02624E-13 3.21655E-13
 -1      2920 2.00003E+01-1.32677E-03 4.47679E-06-3.65685E-04 4.84235E-14 3.18362E-13
 -1      2921 2.00002E+01-1.27693E-03 7.98232E-08-4.85372E-04-2.17229E-14 4.07603E-13
 -1      2922 2.00003E+01-1.28060E-03-3.71113E-06-6.10677E-04-6.07727E-14 2.37818E-13
 -1      2923 2.00004E+01-1.39381E-03-4.38699E-06-3.23257E-04-2.29824E-14 4.16287E-13
 -1      2924 2.00002E+01-1.27592E-03 5.25274E-08 4.85687E-04 1.29355E-13-2.18757E-14
 -1      2925 2.00003E+01-1.32518E-03 4.45676E-06 3.68300E-04-2.29146E-15 2.63650E-13
 -1      2926 2.00004E+01-1.39240E-03-4.41370E-06 3.26692E-04 1.49344E-16 2.66495E-13
 -1      2927 2.00001E+01-1.11856E-03-1.95070E-06 6.95064E-04 6.24068E-14-1.65610E-13
 -1      2928 2.00002E+01-1.19594E-03 5.25807E-06 6.08429E-04 1.44582E-13-1.38604E-13
 -1      2929 2.00003E+01-1.27914E-03-3.85888E-06 6.11121E-04 7.53144E-14-4.83385E-14
 -1      2930 1.99999E+01-9.12520E-04-4.61002E-06 8.19350E-04-3.16900E-14-9.48153E-14
 -1      2931 2.00000E+01-1.00747E-03 6.53076E-06 7.72067E-04 1.44942E-13-1.47877E-13
 -1      2932 2.00001E+01-1.09899E-03-2.46424E-06 8.22101E-04 2.03515E-13-1.21709E-13
 -1      2933 1.99997E+01-7.12667E-04 3.89783E-06 8.08893E-04 7.54079E-14-1.19040E-13
 -1      2934 2.87017E+01-2.92737E+00 5.32091E-02 7.89390E-01 2.03353E-13 4.96853E-13
 -1      2935 2.97507E+01-1.86212E+00-1.79783E-01 2.03551E+00 4.71564E-13 6.04211E-13
 -1      2936 2.85153E+01-1.56460E+00-7.00934E-03 2.66737E+00 3.50175E-13 7.56589E-13
 -1      2937 2.80686E+01-2.30627E+00-2.47720E-02 1.91478E+00 2.02968E-13 6.83675E-13
 -1      2938 2.87049E+01 4.91371E+00-1.49682E-01 1.23143E+00-1.09282E-12-9.34960E-13
 -1      2939 2.86245E+01 5.93134E+00-1.95755E-01 8.03102E-01-1.23657E-12-8.24847E-13
 -1      2940 2.70430E+01-1.04678E+00-1.53055E-01 3.47985E-01-3.20716E-13 3.64569E-14
 -1      2941 2.56304E+01-1.75898E+00-5.47358E-03 1.60470E+00-9.25995E-15-7.29833E-14
 -1      2942 6.26505E+00 2.37559E+00 1.36832E-01 3.23510E+00 4.52846E-13-1.75987E-12
 -1      2943 5.44124E+00 2.59191E+00 1.36093E-01 1.28240E+00 3.52254E-13-1.81435E-12
 -1      2944 1.00237E+01-1.24665E+00 9.31274E-02 4.38974E+00-4.50764E-13 6.94972E-13
 -1      2945 7.52547E+00-4.77142E-01 2.01531E-01 2.48393E+00-2.62811E-13 8.84348E-13
 -1      2946 2.32780E+01-1.02764E+00-2.26045E-02-5.09161E-01 3.58411E-14 3.83478E-14
 -1      2947 2.81695E+01-1.11805E+00-6.76865E-02-2.06818E+00 3.08233E-13-1.01090E-12
 -1      2948 2.98327E+01-7.38677E-01-1.03397E-01-1.72709E+00 4.86167E-13-1.06005E-12
 -1      2949 2.92154E+01-2.86354E+00-4.42541E-02-3.84613E-01 1.38892E-13-9.79564E-13
 -1      2950 2.78312E+01-2.22831E+00-4.63037E-02-1.55423E+00 3.51941E-14-1.00052E-12
 -1      2951 2.42561E+01-2.05240E+00 4.57532E-02 1.46622E+00-2.97779E-13-6.58810E-13
 -1      2952 2.49051E+01-2.54217E+00-1.85202E-02 9.18036E-01-2.76166E-13-6.74512E-13
 -1      2953 2.29029E+01-2.14088E+00-4.76784E-02 2.21489E+00-3.55554E-13-5.58525E-13
 -1      2954 2.61117E+01-2.78129E+00 3.48951E-02 2.15313E-01-2.32085E-13-8.14984E-13
 -1      2955 2.67314E+01-2.73273E+00-4.10705E-02-5.69877E-01-9.20305E-14-8.72252E-13
 -1      2956 2.72902E+01-3.13051E+00-4.36104E-02-2.21395E-01-9.93251E-14-9.89583E-13
 -1      2957 2.49460E+01-3.19343E+00-3.90107E-02 1.38092E+00-3.49670E-13-7.23168E-13
 -1      2958 2.32760E+01 4.30721E-01-1.72374E-02-2.38386E+00-4.42213E-13-1.41741E-13
 -1      2959 2.31211E+01 4.48283E-01-1.13444E-03-2.28537E+00-4.29779E-13-1.34867E-13
 -1      2960 2.34701E+01 6.40401E-01 1.38876E-02-2.41743E+00-4.55197E-13-1.29041E-13
 -1      2961 2.41073E+01-2.20953E+00-4.49510E-02 2.92737E+00 1.42039E-13-2.01839E-13
 -1      2962 2.16964E+01-2.19677E+00 2.88066E-02 4.04326E+00 3.71765E-13-4.04676E-13
 -1      2963 2.48608E+01-1.74465E+00 3.00821E-02 1.37738E+00 1.86948E-13-1.05929E-13
 -1      2964 2.41764E+01-4.36649E+00 7.46760E-02-4.15020E+00 3.74756E-13-5.57367E-13
 -1      2965 2.61296E+01-3.79447E+00-1.15008E-01-2.77222E+00 1.54154E-13-8.49404E-13
 -1      2966 2.33479E+01-3.68913E+00 8.83271E-02-2.76826E+00-1.97925E-13-1.80446E-13
 -1      2967 2.64091E+01-3.93246E+00-1.06547E-01-1.31076E+00 4.50889E-14 1.78475E-13
 -1      2968 2.38273E+01-5.04323E+00-5.93971E-02 4.25577E+00-4.20525E-13-4.46213E-13
 -1      2969 2.07664E+01-4.55342E+00 9.52352E-02 5.20516E+00-5.96120E-13-2.06205E-13
 -1      2970 2.21184E+01 1.01437E-04 1.75054E-02 5.67300E-01 2.47149E-13-4.83924E-13
 -1      2971 2.27324E+01 4.82837E-02-2.45423E-02-2.16027E-01 8.57613E-14-4.73750E-13
 -1      2972 7.28720E+00-7.00807E-01 1.54052E-01-3.29266E+00 2.91517E-13 1.19901E-12
 -1      2973 8.96496E+00-1.49228E+00 8.41129E-02-5.11167E+00 4.54123E-13 1.14880E-12
 -1      2974 1.68910E+01-2.14063E+00 1.00530E-01-4.29298E+00-3.13652E-13-7.99499E-13
 -1      2975 1.99944E+01-3.20916E+00-6.97911E-03-4.04986E+00-2.27193E-13-5.37945E-13
 -1      2976 6.00568E+00 2.45716E+00 1.47594E-01-4.37759E-01 1.29731E-13-1.79795E-12
 -1      2977 7.56036E+00 1.75110E+00 9.20971E-02-2.31345E+00 2.22877E-14-1.66017E-12
 -1      2978 1.85284E+01-4.21442E+00 1.28441E-01-6.32257E+00 7.26003E-13 1.67769E-13
 -1      2979 2.12566E+01-4.65094E+00-5.93978E-02-5.62950E+00 5.56305E-13-1.81480E-13
 -1      2980 2.82807E+01 6.57806E+00-1.57181E-01 1.88251E-01-1.32006E-12-6.62321E-13
 -1      2981 2.75386E+01 6.51491E+00-2.06318E-01-6.38728E-01-1.33124E-12-4.78931E-13
 -1      2982 2.68132E+01 5.57231E+00-8.98784E-02 5.72399E-01-1.09215E-12-7.55146E-13
 -1      2983 6.11673E+00-3.35509E-01 1.08691E-01 6.13789E-01-1.05790E-13 1.00275E-12
 -1      2984 6.14984E+00-3.97016E-01 1.38218E-01-1.50372E+00 4.77673E-14 1.11972E-12
 -1      2985 2.86225E+01 1.18509E+00-6.08303E-02 1.03114E+00-5.70211E-13-1.10283E-12
 -1      2986 2.89081E+01 3.15388E+00-1.81968E-01 1.28247E+00-8.69776E-13-1.03448E-12
 -1      2987 2.75032E+01 3.42398E+00-8.47154E-02 1.51666E+00-8.20899E-13-9.97702E-13
 -1      2988 2.75117E+01-2.44086E+00 4.81434E-03-1.09296E+00 4.18068E-15-1.01508E-12
 -1      2989 2.81195E+01-1.12086E+00-1.65304E-01-1.21035E-03-2.36505E-13-1.08173E-12
 -1      2990 1.17076E+01-2.53478E+00 1.51941E-01-6.19026E+00 6.58543E-13 8.28754E-13
 -1      2991 1.50865E+01-3.65098E+00 1.36987E-02-6.84044E+00 7.10876E-13 4.67834E-13
 -1      2992 1.75014E+01-3.50745E+00 1.07440E-01-6.09983E+00 7.19799E-13 2.54637E-13
 -1      2993 2.31700E+01 1.16071E+00 3.74765E-03-2.20054E+00-4.03769E-13-3.75256E-13
 -1      2994 2.89845E+01 3.98541E+00-2.36579E-01-1.57501E+00 1.23834E-12-6.31974E-13
 -1      2995 2.31137E+01 3.65290E-01 1.34319E-02-9.84896E-01-2.81910E-14-4.35266E-13
 -1      2996 2.32628E+01 4.80976E-01-4.78223E-02-1.55803E+00-1.89031E-13-4.35631E-13
 -1      2997 2.35152E+01-1.79306E-01-2.61686E-03-7.84119E-01-2.82326E-15-3.29637E-13
 -1      2998 1.30739E+01 6.69865E-01 1.21459E-01 5.29950E+00 7.00183E-13-1.18158E-12
 -1      2999 1.44729E+01 1.22155E+00-1.91958E-02 4.35738E+00 7.26366E-13-9.61203E-13
 -1      3000 2.11397E+01-2.29130E-01 9.68196E-02-1.40591E+00-4.96027E-14-2.89008E-13
 -1      3001 1.84591E+01 2.90401E-01 9.40298E-03-2.00035E+00-1.26824E-13-5.01432E-13
 -1      3002 2.53842E+01-4.48647E+00 4.93756E-02 2.70437E+00-4.34972E-13-6.54241E-13
 -1      3003 2.93230E+01-1.06997E+00-5.39825E-02 2.84108E+00 4.49033E-13 7.21173E-13
 -1      3004 3.04633E+01 1.35135E-01-3.34942E-02 2.97493E+00 6.99968E-13 6.62803E-13
 -1      3005 3.05420E+01 1.81230E+00-2.10265E-01 3.15462E+00 9.80563E-13 5.73971E-13
 -1      3006 2.87811E+01-5.41807E-01-1.61930E-01 3.31440E+00 5.24240E-13 7.78350E-13
 -1      3007 1.40166E+01-3.34689E-01 1.12997E-01 5.71970E+00 6.82565E-13-1.12948E-12
 -1      3008 2.19761E+01-1.75189E+00-4.25422E-02 2.92640E+00 4.86850E-13-2.82722E-13
 -1      3009 2.04417E+01-1.89077E+00 6.50478E-02 4.48974E+00 4.80047E-13-5.62757E-13
 -1      3010 1.87834E+01-1.17301E+00 8.41282E-02 4.65612E+00 5.92290E-13-6.59042E-13
 -1      3011 1.98121E+01-3.71568E+00 9.51812E-02 4.99494E+00-6.72781E-13-1.53329E-13
 -1      3012 2.71321E+01-1.96751E-02-2.58289E-02-9.63540E-01-3.60234E-13 8.91648E-14
 -1      3013 2.88103E+01 4.29389E+00-1.09156E-01 2.02323E+00 1.15807E-12 1.94560E-13
 -1      3014 2.89609E+01 2.74312E+00-1.73549E-01 3.06745E+00 9.46285E-13 4.72428E-13
 -1      3015 1.99997E+01-7.01211E-04-2.33991E-06-8.16515E-04 1.96626E-13-6.13053E-14
 -1      3016 1.99997E+01-6.92745E-04-4.76654E-06-9.12570E-04 2.10745E-13-5.00045E-15
 -1      3017 1.99998E+01-8.11712E-04 5.23539E-06-8.26911E-04 2.05169E-13-5.05137E-14
 -1      3018 1.19916E+01-1.52897E+00 1.70696E-01-5.30138E+00 6.05058E-13 8.24840E-13
 -1      3019 1.02678E+01 1.77188E+00 1.57952E-01-2.50486E+00-7.62931E-14-1.44246E-12
 -1      3020 1.61815E+01-9.69361E-01 1.13508E-01-3.75316E+00-3.11126E-13-8.63316E-13
 -1      3021 2.76408E+01-1.63408E-01-4.09326E-02 8.99581E-01-2.84037E-13-1.10852E-12
 -1      3022 1.99998E+01-8.06494E-04-1.35325E-06 9.07446E-04-4.38850E-14-7.85432E-14
 -1      3023 2.72265E+01-3.17586E+00-1.67002E-02 2.35701E-01 7.26919E-14 4.29011E-13
 -1      3024 2.34017E+01 7.62084E-01 1.88112E-02-2.04581E+00-2.72120E-13-3.85973E-13
 -1      3025 2.33420E+01 7.44178E-01-3.76861E-02-2.41225E+00-4.53954E-13-2.63948E-13
 -1      3026 2.33173E+01 5.20645E-01-4.93102E-03-2.35276E+00-4.35120E-13-1.79011E-13
 -1      3027 2.36939E+01 3.44210E-01 6.11372E-03-1.96208E+00-2.36247E-13-2.95453E-13
 -1      3028 7.27341E+00 3.24001E+00 1.90426E-01 5.37103E-01 2.67984E-13-1.71212E-12
 -1      3029 2.70739E+01-2.67403E+00-2.72551E-02 8.73979E-01 8.54525E-14 5.10383E-13
 -1      3030 8.44344E+00 4.17272E-03 1.81995E-01-2.35973E+00 1.69441E-13 1.05513E-12
 -1      3031 2.08177E+01-3.79210E-01 1.19000E-02 2.18914E+00 4.52385E-13-5.24226E-13
 -1      3032 2.22694E+01-9.22898E-01 1.12883E-02 1.56932E+00 3.33651E-13-3.52138E-13
 -1      3033 1.27439E+01-1.46265E+00 1.54993E-01 4.91867E+00-5.05929E-13 5.23928E-13
 -1      3034 1.19297E+01-4.30274E-01 1.01498E-01 3.81917E+00-3.90521E-13 5.16115E-13
 -1      3035 1.52518E+01-1.68675E+00 6.85928E-02 4.76895E+00-6.30582E-13 2.80227E-13
 -1      3036 8.23765E+00 2.22916E+00 1.49293E-01 3.88885E+00 5.88335E-13-1.62913E-12
 -1      3037 2.63671E+01-3.20055E+00-1.78745E-02-1.57856E+00 1.76362E-13-9.68850E-13
 -1      3038 1.69862E+01 7.66093E-01 1.15926E-01 3.89142E+00 6.22313E-13-8.34426E-13
 -1      3039 2.80975E+01 3.53805E+00-1.13674E-01-2.12259E+00-1.03516E-12-1.69864E-14
 -1      3040 8.52453E+00 1.41006E-01 1.91006E-01 1.44110E+00-1.86771E-13 8.68500E-13
 -1      3041 2.29826E+01-1.83500E+00-9.05685E-03-1.25912E+00-1.10356E-13-1.45491E-14
 -1      3042 2.73876E+01 6.06518E+00-1.52035E-01-1.13090E+00-1.26854E-12-3.61849E-13
 -1      3043 2.68660E+01 5.54074E+00-8.94556E-02-1.66914E+00-1.21252E-12-2.44443E-13
 -1      3044 2.60574E+01 5.64670E+00-8.49869E-02-7.34052E-01-1.13246E-12-4.71650E-13
 -1      3045 2.36090E+01 5.20368E-01 2.42958E-02-2.39592E+00-3.72176E-13-1.78865E-13
 -1      3046 2.00000E+01-1.02272E-03 5.18419E-06-7.60555E-04 3.38654E-13 2.70790E-13
 -1      3047 1.99999E+01-9.23433E-04-1.33978E-06-8.01860E-04 1.76277E-13 7.90490E-14
 -1      3048 1.99999E+01-9.23224E-04-3.70564E-06-9.04109E-04 2.21137E-13 9.16144E-14
 -1      3049 2.00001E+01-1.11598E-03-3.49842E-06-8.08053E-04 2.35967E-13 2.09792E-13
 -1      3050 1.91455E+01-1.67243E-01-1.63929E-02 3.09623E+00 6.24946E-13-5.86187E-13
 -1      3051 2.25394E+01-2.90869E+00 1.12221E-01-2.57150E+00-2.79429E-13-2.00964E-13
 -1      3052 2.29466E+01-4.30855E+00 6.33016E-02-4.36667E+00 5.31380E-13-4.01179E-13
 -1      3053 9.83464E+00 3.19533E+00 1.20132E-01-1.30568E+00 4.63744E-14-1.41510E-12
 -1      3054 8.25147E+00 3.59881E+00 5.72472E-02-2.64562E-01 2.04730E-13-1.54320E-12
 -1      3055 2.95644E+01 5.45414E+00-1.93720E-01 3.57792E-01 1.37873E-12-2.31841E-13
 -1      3056 2.94764E+01 4.90836E+00-1.91851E-01-8.62571E-01 1.36588E-12-4.95999E-13
 -1      3057 2.87408E+01 1.33719E+00-9.85471E-03 3.49050E+00 7.10862E-13 7.04485E-13
 -1      3058 1.68506E+01-4.59580E-01 4.77835E-02-3.08467E+00-2.16792E-13-7.18217E-13
 -1      3059 2.79834E+01-3.35911E+00-1.99934E-02 7.60193E-02-5.62571E-14-1.00145E-12
 -1      3060 2.33116E+01 2.22527E+00-4.24954E-02-1.82967E+00-6.01650E-13-1.94198E-13
 -1      3061 2.31618E+01 2.69084E+00-1.31843E-05-1.34527E+00-6.27203E-13-2.51008E-13
 -1      3062 2.29896E+01 2.93564E+00-2.09777E-02-6.25387E-01-6.64298E-13-3.84450E-13
 -1      3063 2.29251E+01 2.89731E+00-2.43007E-02-9.40185E-03-6.94445E-13-4.72516E-13
 -1      3064 2.36661E+01 3.30682E+00-1.46685E-02-1.12107E+00-7.27772E-13-3.30707E-13
 -1      3065 2.30192E+01 2.58393E+00 7.07632E-03 7.11459E-01-6.48925E-13-5.73724E-13
 -1      3066 2.30510E+01 2.00583E+00-4.47076E-02 1.16963E+00-5.19299E-13-6.47302E-13
 -1      3067 2.35690E+01 3.25262E+00-2.29602E-02 3.97457E-01-7.39561E-13-5.22165E-13
 -1      3068 2.32570E+01 1.31462E+00 1.42486E-02 1.49683E+00-3.81209E-13-7.21676E-13
 -1      3069 2.33044E+01 5.57756E-01-4.02587E-02 1.62195E+00-2.62177E-13-7.56310E-13
 -1      3070 2.37972E+01 1.92888E+00-7.47781E-03 1.46359E+00-5.16795E-13-7.14010E-13
 -1      3071 2.33558E+01-1.05255E-01 6.17241E-03 1.50845E+00-1.55195E-13-7.29338E-13
 -1      3072 2.33339E+01-6.66553E-01-1.75634E-02 1.35172E+00-3.61150E-14-6.98098E-13
 -1      3073 2.39400E+01 2.33965E-01 1.02615E-02 1.61862E+00-1.91166E-13-8.09967E-13
 -1      3074 2.31252E+01-1.05572E+00-7.36933E-03 1.00055E+00-3.70439E-15-6.49129E-13
 -1      3075 2.30034E+01-1.29052E+00 8.38075E-04 7.20375E-01 5.39141E-14-6.45029E-13
 -1      3076 2.36858E+01-1.05985E+00 5.55057E-03 1.06377E+00-3.03078E-15-7.64534E-13
 -1      3077 2.26347E+01-1.38944E+00-1.17254E-02 3.62901E-01 1.66390E-14-6.28599E-13
 -1      3078 2.24448E+01-1.37255E+00 1.08957E-02 8.97771E-02 2.14759E-14-6.50307E-13
 -1      3079 2.30567E+01-1.59226E+00-3.98915E-03 3.14260E-01 2.94233E-14-6.64499E-13
 -1      3080 2.20464E+01-1.28534E+00-9.75882E-03-1.74666E-01 4.50373E-14-5.68271E-13
 -1      3081 2.18353E+01-1.13563E+00 1.33621E-02-3.78909E-01 4.75114E-14-5.45849E-13
 -1      3082 2.22922E+01-1.55201E+00-1.15243E-02-3.02700E-01 7.76320E-14-5.66264E-13
 -1      3083 2.14931E+01-9.73007E-01-5.79569E-03-5.30978E-01-3.25412E-15-3.95846E-13
 -1      3084 2.12989E+01-7.89621E-01 1.14645E-02-6.57928E-01 3.87608E-14-3.17297E-13
 -1      3085 2.15814E+01-1.21158E+00-1.36221E-02-6.92185E-01 1.38811E-13-4.12968E-13
 -1      3086 2.10411E+01-6.21287E-01-2.53498E-03-7.23348E-01 7.29234E-15-3.00293E-13
 -1      3087 2.08812E+01-4.56169E-01 8.32981E-03-7.85616E-01 1.90874E-15-3.18717E-13
 -1      3088 2.10196E+01-7.98041E-01-1.24461E-02-8.79178E-01 2.94430E-14-2.47369E-13
 -1      3089 2.07035E+01-3.15680E-01-4.77266E-04-7.93580E-01-7.22477E-14-3.41203E-13
 -1      3090 2.05807E+01-1.88903E-01 5.38864E-03-8.09008E-01-1.15202E-13-3.84367E-13
 -1      3091 2.06172E+01-4.26841E-01-9.71578E-03-9.27424E-01-7.00586E-14-3.02577E-13
 -1      3092 2.04668E+01-8.65063E-02 6.72787E-04-7.82897E-01-1.17191E-13-3.62880E-13
 -1      3093 2.03762E+01-2.57230E-04 3.10255E-03-7.67770E-01-1.25996E-13-3.22541E-13
 -1      3094 2.03500E+01-1.42417E-01-6.84353E-03-8.91000E-01-1.07201E-13-3.46561E-13
 -1      3095 2.03081E+01 6.61203E-02 1.22908E-03-7.23863E-01-9.55153E-14-3.16540E-13
 -1      3096 2.02425E+01 1.17834E-01 1.48680E-03-6.90887E-01-7.42885E-14-2.17555E-13
 -1      3097 2.01836E+01 5.10130E-02-4.49794E-03-8.08727E-01-8.32122E-14-2.55232E-13
 -1      3098 2.02049E+01 1.55188E-01 1.44811E-03-6.39689E-01-7.76201E-14-1.53419E-13
 -1      3099 2.01576E+01 1.80796E-01 4.35107E-04-5.98027E-01 2.99241E-14-8.07743E-14
 -1      3100 2.00866E+01 1.67246E-01-2.81122E-03-7.05764E-01-7.71482E-15-1.13232E-13
 -1      3101 2.01391E+01 1.97054E-01 1.48778E-03-5.46032E-01 8.36414E-14-7.96377E-14
 -1      3102 2.01046E+01 2.04637E-01-1.92311E-04-5.01918E-01 8.44418E-14-4.81102E-14
 -1      3103 2.00342E+01 2.25184E-01-1.68304E-03-5.97635E-01 4.83683E-14-8.04431E-15
 -1      3104 2.00974E+01 2.06848E-01 1.42980E-03-4.52948E-01 1.65577E-14-3.86896E-14
 -1      3105 2.00718E+01 2.03049E-01-5.24168E-04-4.10358E-01 5.94990E-14-8.30793E-14
 -1      3106 2.00089E+01 2.42802E-01-9.71096E-04-4.93557E-01 4.47891E-14 5.37574E-15
 -1      3107 2.00707E+01 1.96759E-01 1.31768E-03-3.66459E-01 1.13003E-13-1.86332E-13
 -1      3108 2.00514E+01 1.86552E-01-6.62140E-04-3.27704E-01 2.22998E-13-1.95347E-13
 -1      3109 1.99990E+01 2.34856E-01-5.45364E-04-3.98664E-01-8.90569E-15-2.97522E-14
 -1      3110 2.00531E+01 1.75785E-01 1.17682E-03-2.89764E-01 2.63732E-13-2.95980E-13
 -1      3111 2.00384E+01 1.62641E-01-6.80804E-04-2.55980E-01 1.59299E-13-3.06895E-13
 -1      3112 1.99971E+01 2.12413E-01-3.04119E-04-3.15433E-01 1.37589E-13-2.48928E-13
 -1      3113 2.00411E+01 1.50122E-01 1.02367E-03-2.24140E-01 4.23166E-14-2.66296E-13
 -1      3114 2.00297E+01 1.36300E-01-6.32035E-04-1.95667E-01-3.64996E-14-1.92905E-13
 -1      3115 1.99987E+01 1.83220E-01-1.75382E-04-2.44625E-01 1.63285E-13-3.51852E-13
 -1      3116 2.00325E+01 1.23750E-01 8.69758E-04-1.69611E-01-7.87858E-14-1.04738E-13
 -1      3117 2.00236E+01 1.10612E-01-5.50335E-04-1.46284E-01 3.29539E-14-1.38679E-13
 -1      3118 2.00014E+01 1.52354E-01-1.11481E-04-1.85916E-01-1.19026E-14-1.10322E-13
 -1      3119 2.00260E+01 9.90221E-02 7.23177E-04-1.25438E-01 1.32266E-13-1.52915E-13
 -1      3120 2.00190E+01 8.72955E-02-4.57554E-04-1.06799E-01 4.04350E-14-9.22435E-14
 -1      3121 2.00039E+01 1.22894E-01-8.24893E-05-1.38341E-01 6.24053E-14-5.93964E-14
 -1      3122 2.00208E+01 7.71573E-02 5.89195E-04-9.04729E-02-6.38083E-14-6.30981E-14
 -1      3123 2.00153E+01 6.71472E-02-3.66656E-04-7.59198E-02 6.70381E-14-5.83526E-14
 -1      3124 2.00059E+01 9.65057E-02-7.05873E-05-1.00594E-01 1.04530E-13-5.63929E-14
 -1      3125 2.00166E+01 5.86258E-02 4.70766E-04-6.33956E-02 1.55611E-13-5.84147E-14
 -1      3126 2.00124E+01 5.03721E-02-2.84597E-04-5.22849E-02 9.81939E-14 3.79588E-14
 -1      3127 2.00070E+01 7.39081E-02-6.58021E-05-7.12495E-02 1.08651E-13 2.28559E-14
 -1      3128 2.00131E+01 4.34348E-02 3.69025E-04-4.28779E-02 8.38919E-14 5.15606E-14
 -1      3129 2.00099E+01 3.68232E-02-2.14434E-04-3.45859E-02 1.84287E-13 1.63187E-13
 -1      3130 2.00075E+01 5.52182E-02-6.30023E-05-4.88939E-02 1.66105E-13 1.69988E-13
 -1      3131 2.00102E+01 3.13281E-02 2.83775E-04-2.76762E-02 1.30166E-13 1.68034E-13
 -1      3132 2.00078E+01 2.61662E-02-1.56828E-04-2.16357E-02 8.41204E-14 1.19512E-13
 -1      3133 2.00074E+01 4.02013E-02-5.98916E-05-3.22165E-02 1.27340E-13 1.38928E-13
 -1      3134 2.00079E+01 2.19204E-02 2.13932E-04-1.66847E-02-2.56440E-14 1.36950E-13
 -1      3135 2.00061E+01 1.79866E-02-1.11072E-04-1.24020E-02 7.03252E-16 6.36931E-14
 -1      3136 2.00069E+01 2.84408E-02-5.57260E-05-2.00537E-02-3.08645E-14 1.75287E-13
 -1      3137 2.00059E+01 1.47838E-02 1.57893E-04-8.95552E-03 1.06841E-13 3.51335E-14
 -1      3138 2.00046E+01 1.18574E-02-7.57743E-05-6.01530E-03 1.26461E-13-7.56206E-14
 -1      3139 2.00062E+01 1.94492E-02-5.05313E-05-1.14069E-02 7.48318E-15 8.59264E-15
 -1      3140 2.00044E+01 9.49982E-03 1.13814E-04-3.70075E-03 1.02333E-13-7.60719E-16
 -1      3141 2.00034E+01 7.37737E-03-4.92834E-05-1.76321E-03 4.50119E-15-2.55802E-14
 -1      3142 2.00053E+01 1.27362E-02-4.46496E-05-5.44380E-03 1.29719E-13-2.91676E-15
 -1      3143 2.00032E+01 5.68725E-03 7.98125E-05-2.81711E-04 2.16540E-14-4.32174E-14
 -1      3144 2.00025E+01 4.19112E-03-2.99482E-05 9.24422E-04 2.38783E-14 7.23815E-14
 -1      3145 2.00045E+01 7.84786E-03-3.84948E-05-1.48667E-03 8.56806E-14-4.34655E-14
 -1      3146 2.00022E+01 3.01578E-03 5.41003E-05 1.80757E-03-5.99114E-14 1.28993E-13
 -1      3147 2.00018E+01 1.99643E-03-1.62558E-05 2.49407E-03-6.86218E-15 9.99694E-14
 -1      3148 2.00037E+01 4.38548E-03-3.24342E-05 1.00414E-03 1.06928E-14-4.53974E-14
 -1      3149 2.00015E+01 1.20914E-03 3.50592E-05 2.95941E-03-9.91812E-14 7.35199E-14
 -1      3150 2.00012E+01 5.44433E-04-6.89600E-06 3.28809E-03-1.24789E-13 4.92106E-14
 -1      3151 2.00029E+01 2.01220E-03-2.67432E-05 2.44961E-03-1.30748E-13-4.83097E-14
 -1      3152 2.00009E+01 4.28176E-05 2.12794E-05 3.47167E-03-1.34698E-13 5.31055E-14
 -1      3153 2.00007E+01-3.64510E-04-7.79677E-07 3.56350E-03-1.25693E-13-1.10720E-13
 -1      3154 2.00023E+01 4.51906E-04-2.15991E-05 3.17165E-03-1.37589E-13 2.52097E-14
 -1      3155 2.00005E+01-6.61174E-04 1.15694E-05 3.56565E-03 2.83273E-14-6.71797E-14
 -1      3156 2.00004E+01-8.86901E-04 2.96977E-06 3.50897E-03 1.60555E-13-4.86838E-14
 -1      3157 2.00017E+01-5.16035E-04-1.70936E-05 3.41133E-03-3.36021E-14-4.03287E-14
 -1      3158 2.00002E+01-1.04096E-03 4.94925E-06 3.40188E-03 4.93627E-14-2.08674E-14
 -1      3159 2.00002E+01-1.14294E-03 5.03838E-06 3.25950E-03-7.60139E-14-2.38492E-13
 -1      3160 2.00013E+01-1.06407E-03-1.32525E-05 3.34523E-03 1.28662E-13-9.70784E-14
 -1      3161 2.00000E+01-1.20163E-03 6.30294E-07 3.09365E-03-2.02667E-13-1.39389E-13
 -1      3162 2.00000E+01-1.22320E-03 5.95010E-06 2.90879E-03-2.90555E-13-2.57665E-13
 -1      3163 2.00009E+01-1.32431E-03-1.00561E-05 3.09943E-03-1.23400E-13-7.89903E-14
 -1      3164 1.99999E+01-1.22167E-03-2.01354E-06 2.71820E-03-2.77426E-13-3.05258E-13
 -1      3165 1.99999E+01-1.19477E-03 6.09501E-06 2.51932E-03-1.91397E-13-2.19503E-13
 -1      3166 2.00006E+01-1.39603E-03-7.45727E-06 2.76123E-03-2.41203E-13 6.76027E-15
 -1      3167 1.99998E+01-1.15877E-03-3.46005E-06 2.32580E-03-1.80723E-13-3.85976E-13
 -1      3168 1.99998E+01-1.10656E-03 5.80039E-06 2.13045E-03-1.45765E-13-3.46873E-13
 -1      3169 2.00003E+01-1.35263E-03-5.40263E-06 2.38873E-03-2.71192E-13-4.01263E-13
 -1      3170 1.99997E+01-1.05524E-03-4.14458E-06 1.94707E-03 1.25623E-14-1.56972E-13
 -1      3171 1.99998E+01-9.94783E-04 4.74647E-06 1.76479E-03 1.27452E-13-1.42901E-13
 -1      3172 2.00002E+01-1.24741E-03-3.82190E-06 2.01863E-03-3.22891E-16-4.38564E-13
 -1      3173 1.99997E+01-9.38450E-04-3.39034E-06 1.59592E-03 1.06349E-13-5.62699E-14
 -1      3174 1.99997E+01-8.83903E-04 4.02017E-06 1.43263E-03 7.41264E-14-3.97383E-14
 -1      3175 2.00000E+01-1.11855E-03-1.21072E-06 1.67322E-03 2.19751E-13-2.27636E-13
 -1      3176 2.00198E+01 2.20474E-01 2.19220E-03 2.33946E+00-2.22645E-14-1.51587E-13
 -1      3177 2.02632E+01-7.44108E-02 1.71547E-02 2.47257E+00-1.05850E-13-2.35562E-13
 -1      3178 2.38233E+01 4.22970E-01-2.44731E-02-2.42595E+00-3.89867E-13-1.59689E-13
 -1      3179 2.37761E+01 6.94905E-01-1.99070E-03-2.40560E+00-4.47907E-13-1.33955E-13
 -1      3180 2.03879E+01-4.53498E-01 2.68896E-02 2.72798E+00-2.13797E-13-2.93786E-13
 -1      3181 2.08454E+01-1.03920E+00 1.66520E-02 2.80746E+00-2.82215E-13-3.34407E-13
 -1      3182 1.92665E+01-1.67346E-01-8.97179E-03 2.80570E+00-1.95847E-13-1.87675E-13
 -1      3183 1.99584E+01 6.65912E-01-4.95745E-03 1.62682E+00 7.45807E-14-1.69287E-13
 -1      3184 2.00201E+01 6.35277E-01 7.08326E-03 1.77643E+00 7.98283E-14-1.53138E-13
 -1      3185 2.00098E+01 6.53421E-01-4.87848E-03 1.33054E+00-2.22332E-15-2.00104E-13
 -1      3186 2.00489E+01 6.73058E-01 4.97182E-03 1.46921E+00 2.20476E-14-1.66011E-13
 -1      3187 1.95444E+01 8.01888E-01 3.33816E-03 1.52865E+00 5.31302E-14-1.51078E-13
 -1      3188 2.00541E+01 5.84050E-01-4.27807E-03 1.07416E+00 3.06089E-14-1.73799E-13
 -1      3189 2.00859E+01 6.25576E-01 3.89505E-03 1.19734E+00 7.58678E-14-1.57029E-13
 -1      3190 1.97008E+01 7.58082E-01 3.53517E-03 1.24532E+00 1.14962E-14-2.24400E-13
 -1      3191 2.00817E+01 4.95035E-01-3.54034E-03 8.55828E-01-1.76039E-13-8.26029E-14
 -1      3192 2.01115E+01 5.42661E-01 3.26929E-03 9.61781E-01-1.10409E-13-1.31167E-13
 -1      3193 1.98219E+01 6.66196E-01 2.98649E-03 1.00602E+00-8.14653E-14-2.37192E-13
 -1      3194 2.00934E+01 4.05787E-01-2.82433E-03 6.72897E-01-8.35710E-14-1.69811E-13
 -1      3195 2.01219E+01 4.51569E-01 2.82089E-03 7.61775E-01-5.81721E-14-4.48894E-14
 -1      3196 1.99072E+01 5.60176E-01 2.22597E-03 8.03887E-01-9.95676E-14-1.78486E-13
 -1      3197 2.00932E+01 3.25090E-01-2.19884E-03 5.22035E-01-1.05679E-13-3.10899E-13
 -1      3198 2.01198E+01 3.65633E-01 2.44145E-03 5.95070E-01-1.15439E-13-2.45660E-13
 -1      3199 1.99631E+01 4.57557E-01 1.52578E-03 6.34462E-01 2.97688E-16-2.79981E-13
 -1      3200 2.00856E+01 2.56029E-01-1.68175E-03 3.99490E-01 1.01296E-15-3.92619E-13
 -1      3201 2.01095E+01 2.90320E-01 2.08991E-03 4.58471E-01-9.79689E-14-3.82570E-13
 -1      3202 1.99969E+01 3.66068E-01 9.71440E-04 4.94140E-01-5.90561E-14-3.03684E-13
 -1      3203 2.00743E+01 1.98848E-01-1.26897E-03 3.01367E-01 1.71766E-14-2.26104E-13
 -1      3204 2.00950E+01 2.27034E-01 1.76002E-03 3.48276E-01-1.70835E-14-2.98426E-13
 -1      3205 2.00154E+01 2.88204E-01 5.69203E-04 3.79514E-01-6.40701E-14-2.77398E-13
 -1      3206 2.00617E+01 1.52521E-01-9.47078E-04 2.23869E-01-2.55281E-14-1.14193E-14
 -1      3207 2.00792E+01 1.75244E-01 1.45646E-03 2.60659E-01 1.18803E-13-1.60178E-13
 -1      3208 2.00240E+01 2.23845E-01 2.95502E-04 2.87199E-01-4.77427E-14-1.03602E-13
 -1      3209 2.00495E+01 1.15569E-01-7.00011E-04 1.63480E-01-5.62947E-15-1.78971E-13
 -1      3210 2.00638E+01 1.33625E-01 1.18476E-03 1.91948E-01 3.87048E-14-1.11761E-13
 -1      3211 2.00265E+01 1.71702E-01 1.19703E-04 2.13902E-01 5.60898E-14-1.36473E-13
 -1      3212 2.00385E+01 8.64611E-02-5.12448E-04 1.17058E-01-1.26505E-13-1.41761E-13
 -1      3213 2.00499E+01 1.00638E-01 9.48041E-04 1.38793E-01-9.57899E-14-1.65726E-13
 -1      3214 2.00255E+01 1.30086E-01 1.36660E-05 1.56524E-01 7.04977E-15-1.55967E-13
 -1      3215 2.00292E+01 6.37846E-02-3.71216E-04 8.18771E-02-2.78723E-14-2.49871E-13
 -1      3216 2.00380E+01 7.47952E-02 7.46698E-04 9.82375E-02-8.35939E-14-2.25762E-13
 -1      3217 2.00228E+01 9.72789E-02-4.51313E-05 1.12250E-01-3.20408E-14-2.28622E-13
 -1      3218 2.00215E+01 4.63083E-02-2.65600E-04 5.56175E-02-3.62514E-14-2.24703E-13
 -1      3219 2.00283E+01 5.47669E-02 5.79024E-04 6.77452E-02-5.95512E-15-2.36253E-13
 -1      3220 2.00193E+01 7.17065E-02-7.33712E-05 7.85947E-02 2.57159E-14-3.50477E-13
 -1      3221 2.00154E+01 3.29905E-02-1.87156E-04 3.63453E-02-6.10706E-14-2.28012E-13
 -1      3222 2.00204E+01 3.94140E-02 4.41981E-04 4.51822E-02-5.25879E-14-2.39999E-13
 -1      3223 2.00158E+01 5.19938E-02-8.27815E-05 5.34158E-02-3.48601E-14-2.72170E-13
 -1      3224 2.00107E+01 2.29657E-02-1.29336E-04 2.24716E-02 1.27149E-13-6.28525E-14
 -1      3225 2.00144E+01 2.77822E-02 3.31871E-04 2.87835E-02 4.09641E-14-2.60414E-13
 -1      3226 2.00126E+01 3.69739E-02-8.12777E-05 3.49053E-02-4.35747E-14-1.85668E-13
 -1      3227 2.00071E+01 1.55233E-02-8.71110E-05 1.27102E-02 5.34042E-14-1.63576E-13
 -1      3228 2.00097E+01 1.90831E-02 2.44808E-04 1.71114E-02 1.35610E-13-1.22480E-13
 -1      3229 2.00098E+01 2.56741E-02-7.40102E-05 2.15646E-02 1.10775E-13-1.50212E-13
 -1      3230 2.00045E+01 1.00854E-02-5.66294E-05 6.03342E-03-9.65315E-14-1.07067E-13
 -1      3231 2.00063E+01 1.26729E-02 1.77033E-04 9.01087E-03-3.79272E-14-1.17475E-13
 -1      3232 2.00074E+01 1.72933E-02-6.42064E-05 1.21717E-02 7.98776E-15-2.82524E-13
 -1      3233 2.00026E+01 6.18640E-03-3.49459E-05 1.63197E-03-1.40395E-13-1.66281E-13
 -1      3234 2.00038E+01 8.03005E-03 1.25093E-04 3.56651E-03-5.95928E-14-2.49262E-13
 -1      3235 2.00055E+01 1.11787E-02-5.37987E-05 5.74564E-03-5.69512E-14-3.35212E-13
 -1      3236 2.00013E+01 3.45408E-03-1.98098E-05-1.12320E-03-1.72750E-13-1.55213E-13
 -1      3237 2.00020E+01 4.73600E-03 8.59329E-05 6.23975E-05-1.84855E-13-1.18544E-13
 -1      3238 2.00039E+01 6.80310E-03-4.38724E-05 1.51055E-03-1.83416E-13-2.41373E-13
 -1      3239 2.00004E+01 1.59400E-03-9.50290E-06-2.71392E-03-7.85918E-15-9.01829E-14
 -1      3240 2.00009E+01 2.45788E-03 5.69191E-05-2.05352E-03-1.28409E-13-9.63141E-14
 -1      3241 2.00028E+01 3.74488E-03-3.49751E-05-1.13820E-03-1.14811E-13-4.42199E-16
 -1      3242 1.99998E+01 3.75592E-04-2.71807E-06-3.50357E-03-6.28342E-14 2.91312E-14
 -1      3243 2.00001E+01 9.33550E-04 3.58373E-05-3.20070E-03-3.29702E-16-2.35719E-14
 -1      3244 2.00019E+01 1.67039E-03-2.73235E-05-2.66463E-03-8.14227E-14 1.74225E-13
 -1      3245 1.99995E+01-3.79678E-04 1.53447E-06-3.76158E-03 7.33969E-15 4.51016E-14
 -1      3246 1.99996E+01-4.11319E-05 2.08599E-05-3.69273E-03-4.66990E-14-5.57243E-14
 -1      3247 2.00012E+01 3.18350E-04-2.09404E-05-3.41907E-03-1.76733E-14-2.10652E-14
 -1      3248 1.99993E+01-8.08339E-04 3.99876E-06-3.68386E-03 1.83784E-14 3.05388E-14
 -1      3249 1.99993E+01-6.23307E-04 1.05057E-05-3.75988E-03-8.36287E-15-4.39250E-14
 -1      3250 2.00007E+01-5.13400E-04-1.57420E-05-3.66149E-03-1.15586E-14-1.43587E-13
 -1      3251 1.99992E+01-1.01345E-03 5.22704E-06-3.40964E-03 4.11788E-14 3.78092E-15
 -1      3252 1.99992E+01-9.32398E-04 3.59460E-06-3.56773E-03 1.40150E-13 8.29228E-14
 -1      3253 2.00003E+01-9.79341E-04-1.15935E-05-3.58090E-03 6.09247E-14-8.23784E-14
 -1      3254 1.99992E+01-1.07181E-03 5.62176E-06-3.03499E-03 8.92969E-14-1.28419E-13
 -1      3255 1.99991E+01-1.05798E-03-7.97371E-07-3.23229E-03-2.67262E-14-6.52951E-14
 -1      3256 2.00001E+01-1.19598E-03-8.34670E-06-3.31161E-03 1.36346E-13-1.29623E-13
 -1      3257 1.99993E+01-1.03988E-03 5.47375E-06-2.62364E-03 7.09854E-14-1.18236E-13
 -1      3258 1.99992E+01-1.06636E-03-3.38042E-06-2.83218E-03 1.91938E-13-1.26417E-13
 -1      3259 1.99999E+01-1.25004E-03-5.85787E-06-2.94621E-03 1.63418E-13-1.41909E-13
 -1      3260 1.99993E+01-9.58688E-04 4.96973E-06-2.21545E-03 1.88612E-13-3.16174E-13
 -1      3261 1.99992E+01-1.00600E-03-4.69806E-06-2.41817E-03 4.67662E-14-2.77076E-13
 -1      3262 1.99998E+01-1.20517E-03-3.99319E-06-2.54603E-03 2.01736E-13-1.76901E-13
 -1      3263 1.99994E+01-8.57250E-04 4.39471E-06-1.83276E-03 4.04252E-13-5.27047E-13
 -1      3264 1.99993E+01-9.11841E-04-5.11634E-06-2.02052E-03 3.70567E-13-4.62409E-13
 -1      3265 1.99997E+01-1.10776E-03-2.68150E-06-2.14930E-03 3.59154E-13-2.82729E-13
 -1      3266 1.99995E+01-7.58424E-04 3.48270E-06-1.48648E-03 1.40871E-13-1.67771E-13
 -1      3267 1.99994E+01-8.09100E-04-4.94657E-06-1.65573E-03 2.40502E-13-2.92291E-13
 -1      3268 1.99997E+01-9.90473E-04-1.72900E-06-1.77757E-03 1.91444E-13-1.59158E-13
 -1      3269 1.99995E+01-6.77977E-04 4.71378E-07-1.17888E-03 1.38685E-13 4.94546E-15
 -1      3270 1.99995E+01-7.15549E-04-4.53787E-06-1.32725E-03 1.23792E-13-6.35278E-14
 -1      3271 1.99997E+01-8.78143E-04-8.48641E-07-1.44115E-03 1.22215E-13 5.53112E-15
 -1      3272 1.99996E+01-6.86874E-04-1.92775E-06-9.93777E-04 2.46184E-14 9.71501E-14
 -1      3273 1.99996E+01-6.81148E-04-4.36553E-06-1.09149E-03 7.59043E-14 3.75722E-14
 -1      3274 1.99997E+01-8.19099E-04 1.39780E-06-1.18990E-03 6.91369E-14 1.20495E-13
 -1      3275 1.99998E+01-8.06604E-04 5.20739E-06-1.01067E-03 1.24014E-13-4.34478E-14
 -1      3276 2.00001E+01-1.09678E-03-5.56622E-06 9.57080E-04 1.91422E-13 8.84847E-14
 -1      3277 2.00002E+01-1.18623E-03 5.78116E-06 8.73894E-04 9.34899E-14 1.49345E-14
 -1      3278 2.00006E+01-1.48327E-03 2.02740E-06 8.98887E-05-1.91633E-13 1.83900E-13
 -1      3279 2.00006E+01-1.48389E-03 2.04150E-06-8.21634E-05-1.71075E-13 3.11519E-13
 -1      3280 1.17264E+01-6.35396E-01 1.31968E-01-4.45907E+00 5.31547E-13 8.50958E-13
 -1      3281 1.38910E+01-1.86892E+00 1.89965E-02-5.57483E+00 6.34937E-13 5.58151E-13
 -1      3282 1.99997E+01-7.74911E-04-2.79223E-06 1.01421E-03 5.70124E-14 2.00267E-14
 -1      3283 2.00000E+01-9.54236E-04 7.40885E-06 1.02158E-03 5.07046E-14-2.31383E-14
 -1      3284 2.00001E+01-1.07134E-03 2.19808E-06 1.08438E-03 8.43789E-14-1.02553E-13
 -1      3285 1.99997E+01-8.00316E-04-2.04644E-06 1.12780E-03 7.12642E-14 1.47858E-13
 -1      3286 2.59825E+01 4.60735E+00-8.99496E-02 1.11192E+00-9.50684E-13-8.51631E-13
 -1      3287 2.54675E+01 5.11451E+00-1.20312E-01 3.42442E-01-1.02091E-12-6.98566E-13
 -1      3288 2.53789E+01-2.99455E+00 3.21680E-02-7.87868E-01-1.28987E-13 1.93481E-13
 -1      3289 2.66592E+01-1.08121E+00 2.78879E-02 8.15246E-01-8.01997E-14-1.05961E-12
 -1      3290 2.65585E+01 4.71917E-01-1.38862E-01 1.46891E+00-3.92908E-13-1.02847E-12
 -1      3291 2.26829E+01-2.35381E+00 4.19739E-02-1.91017E+00-1.95125E-13-6.94783E-14
 -1      3292 2.99959E+01 2.36861E+00-1.04907E-01 3.23091E+00 9.45272E-13 5.55597E-13
 -1      3293 2.00004E+01-1.29429E-03-2.06491E-06 7.44914E-04 4.49600E-15-1.99747E-13
 -1      3294 2.00005E+01-1.35915E-03 5.16514E-06 6.12339E-04 7.26820E-15 2.02794E-13
 -1      3295 2.00004E+01-1.29839E-03-3.43900E-06 8.93015E-04 3.30426E-14-5.43782E-14
 -1      3296 1.99336E+01 5.56421E-01-3.46066E-03 1.96427E+00 1.68065E-15-1.39235E-13
 -1      3297 2.00536E+01 4.28292E-01 1.11510E-02 2.11546E+00 3.06852E-14-1.18007E-13
 -1      3298 1.92307E+01 4.63270E-01-3.52834E-03 2.28712E+00-1.65727E-14-1.98172E-13
 -1      3299 1.93695E+01 7.37017E-01 1.38592E-03 1.86860E+00 3.49275E-14-2.20897E-13
 -1      3300 2.37312E+01 1.11480E+00-3.07039E-02-2.41708E+00-4.92553E-13-1.00816E-13
 -1      3301 2.35697E+01 1.68151E+00 9.40662E-03-2.20281E+00-5.34704E-13-1.16245E-13
 -1      3302 2.40435E+01 2.32358E+00 1.12681E-02-2.24639E+00-6.15783E-13-1.18888E-13
 -1      3303 2.17380E+01-3.81027E+00-3.04978E-03 4.10469E+00-6.32452E-13-3.63085E-13
 -1      3304 1.88309E+01-2.82068E+00 6.48672E-02 4.74703E+00-6.57384E-13-1.37508E-13
 -1      3305 8.98262E+00 5.79705E-01 1.14373E-01-1.16280E+00 3.90252E-14 8.55649E-13
 -1      3306 9.84747E+00 1.47559E-01 5.54370E-02-2.97319E+00 2.44291E-13 9.27661E-13
 -1      3307 2.68100E+01-3.89715E+00-9.11699E-03 1.01383E+00-2.40200E-13-8.95999E-13
 -1      3308 2.67543E+01 6.65670E-01-1.31786E-01-1.88610E+00-5.24475E-13 8.14487E-14
 -1      3309 2.59882E+01-5.33765E-01-1.93214E-02-9.02906E-01-1.92926E-13 6.57981E-14
 -1      3310 2.70317E+01 3.97615E+00-1.61655E-01-2.26038E+00-1.06262E-12-6.92849E-14
 -1      3311 2.70732E+01 2.37528E+00-3.17946E-02-2.37455E+00-7.80334E-13 9.93164E-14
 -1      3312 2.62324E+01 1.46188E+00-5.95397E-03-2.36464E+00-5.41782E-13 6.86465E-14
 -1      3313 2.00541E+01-1.71741E+00 5.66073E-02-2.91154E+00-2.36880E-13-4.24348E-13
 -1      3314 2.18641E+01-3.91873E+00 1.11098E-01-4.44305E+00 5.94191E-13-3.54937E-13
 -1      3315 2.38036E+01-4.14926E+00-7.52285E-02-3.29304E+00 4.22749E-13-6.13690E-13
 -1      3316 2.16555E+01-2.08196E+00 5.37458E-02 3.12161E+00-4.16792E-13-4.06009E-13
 -1      3317 2.25453E+01-2.90110E+00 2.59542E-02 3.03106E+00-4.88578E-13-4.38661E-13
 -1      3318 2.38171E+01 2.87907E-01-3.18584E-02-2.19051E+00-2.77899E-13-2.70828E-13
 -1      3319 2.38257E+01 3.41724E-01-7.43879E-03-2.27265E+00-3.27799E-13-1.89358E-13
 -1      3320 2.40315E+01 1.57964E-01 2.73096E-02-1.81444E+00-1.55314E-13-2.62685E-13
 -1      3321 2.53330E+01-3.60159E+00 5.86391E-02-1.99408E+00 2.95918E-13-9.18980E-13
 -1      3322 2.60277E+01-2.87156E+00-1.21260E-01-6.73502E-01 1.10976E-13-1.08394E-12
 -1      3323 2.41437E+01-3.60657E+00 1.48158E-02-2.31531E+00 3.58390E-13-7.72498E-13
 -1      3324 2.66002E+01 2.30169E+00-4.35170E-02 1.75911E+00-6.63858E-13-1.02233E-12
 -1      3325 2.62214E+01 3.63402E+00-1.33700E-01 1.49437E+00-8.29947E-13-9.10876E-13
 -1      3326 2.52523E+01 3.45147E+00-4.91875E-02 1.32977E+00-7.67421E-13-8.50361E-13
 -1      3327 2.00005E+01-1.42577E-03 1.59127E-07 4.41462E-04 4.40039E-14 3.11351E-13
 -1      3328 2.00006E+01-1.45982E-03 3.70137E-06 2.82544E-04-1.58057E-14 2.98695E-13
 -1      3329 2.00007E+01-1.54372E-03-4.53156E-06 2.03806E-04 7.76523E-14 3.20697E-13
 -1      3330 2.00006E+01-1.46042E-03-4.18317E-06 5.79779E-04 3.54885E-14 2.44407E-13
 -1      3331 1.64941E+01-2.60848E+00 1.36852E-01-5.69675E+00 7.07490E-13 3.11071E-13
 -1      3332 1.89441E+01-3.63538E+00-5.88706E-02-5.46879E+00 6.55476E-13 3.08364E-14
 -1      3333 1.01475E+01 3.71842E-01 7.40974E-02 2.11773E+00-2.89090E-13 6.44512E-13
 -1      3334 9.14128E+00 6.94706E-01 1.33552E-01 3.61377E-01-1.31896E-13 8.16153E-13
 -1      3335 1.06809E+01 9.27632E-01 1.32961E-01-3.37492E-01-5.87215E-14 7.11681E-13
 -1      3336 1.73231E+01-4.76272E-02 4.83524E-02 4.22524E+00 6.78534E-13-8.21461E-13
 -1      3337 2.42836E+01 3.33161E-01 1.36215E-02-2.28426E+00-3.09366E-13-1.48561E-13
 -1      3338 1.94692E+01-2.19514E+00 3.44996E-02 4.04652E+00-5.18280E-13-2.46716E-13
 -1      3339 1.75161E+01-2.08501E+00 7.47079E-02 4.72411E+00-5.97369E-13 1.96509E-14
 -1      3340 1.61643E+01-1.15987E+00 4.20840E-02 4.20794E+00-4.86181E-13 9.96217E-14
 -1      3341 2.48354E+01-4.07094E+00 2.36856E-02 2.43852E+00-4.43673E-13-6.66698E-13
 -1      3342 2.39468E+01-5.23047E-01 2.99861E-02-5.16635E-01 7.50385E-14-2.52533E-13
 -1      3343 2.39820E+01-2.64679E-01-3.95408E-02-1.21976E+00-9.24664E-14-2.62295E-13
 -1      3344 2.43006E+01-1.67565E-01-1.40604E-02-1.57526E+00-1.26676E-13-2.20343E-13
 -1      3345 2.76709E+01 4.31440E+00-1.46473E-01 4.22357E-01 1.19932E-12-9.81420E-14
 -1      3346 2.92618E+01 4.79018E+00-1.44392E-01 1.20039E+00 1.27207E-12-2.29521E-14
 -1      3347 2.42682E+01 1.05946E+00 1.99903E-02-2.53855E+00-4.70811E-13-5.14658E-14
 -1      3348 1.99997E+01-8.33384E-04-1.68372E-06 1.24564E-03 4.52942E-14-5.94594E-14
 -1      3349 1.99999E+01-9.99845E-04-3.94296E-06 1.31718E-03 4.13427E-14-1.12071E-13
 -1      3350 2.76350E+01 3.90681E+00-1.16203E-01-1.14265E+00 1.14236E-12-4.51889E-13
 -1      3351 2.51877E+01-2.11834E-01 1.60289E-03-1.49982E+00-1.56822E-13-2.82135E-14
 -1      3352 2.51333E+01-1.05280E+00-3.13820E-02-4.03517E-01 2.31521E-14-7.41889E-14
 -1      3353 1.99140E+01-1.65930E+00-1.08542E-03 3.53632E+00-3.75859E-13-2.51639E-13
 -1      3354 1.60437E+01-1.82163E+00 1.01580E-01-5.05355E+00 5.94420E-13 3.57783E-13
 -1      3355 2.00005E+01-1.36123E-03 4.81152E-06-6.11803E-04-1.31218E-13 3.87752E-13
 -1      3356 2.00004E+01-1.29442E-03-1.24297E-06-7.43959E-04-6.73865E-14 1.31830E-13
 -1      3357 2.00007E+01-1.54496E-03-4.46356E-06-1.96866E-04-2.59757E-13 8.87161E-14
 -1      3358 2.00006E+01-1.46159E-03 3.72923E-06-2.76851E-04-2.33692E-13 2.17607E-13
 -1      3359 2.00005E+01-1.42745E-03 2.94682E-07-4.38840E-04-1.21382E-13 2.78851E-13
 -1      3360 2.00004E+01-1.31407E-03-4.28231E-06-8.69692E-04 2.63776E-14-6.99468E-14
 -1      3361 2.00003E+01-1.20120E-03 5.06801E-06-8.52057E-04-3.85760E-14-1.56179E-13
 -1      3362 2.00001E+01-1.12210E-03-1.57015E-06-9.23668E-04 1.51702E-13 1.73181E-13
 -1      3363 2.57301E+01-1.92307E+00-1.15288E-02 2.13353E-01 6.62463E-14-1.01018E-12
 -1      3364 1.59621E+01-6.19758E-01-1.74205E-02 5.19921E+00 7.89896E-13-8.68944E-13
 -1      3365 2.36452E+01-3.63074E+00 5.99333E-02 2.95553E+00-5.62540E-13-4.93673E-13
 -1      3366 2.60870E+01 4.14191E+00-6.86077E-02-2.04240E+00-9.67823E-13-1.55834E-13
 -1      3367 1.36888E+01-1.06579E-01 1.60398E-02 3.40612E+00-4.12399E-13 3.65166E-13
 -1      3368 1.18982E+01 2.64506E-01 1.35240E-01 2.89407E+00-3.68747E-13 5.29826E-13
 -1      3369 1.22278E+01 7.56793E-01 7.06230E-02 1.97451E+00-2.78368E-13 4.93855E-13
 -1      3370 3.12514E+01 4.11775E+00-7.50233E-02 2.83724E+00 1.24953E-12 2.98761E-13
 -1      3371 3.08249E+01 5.39426E+00-1.67377E-01 1.88298E+00 1.41065E-12 2.28983E-14
 -1      3372 2.57505E+01 1.03945E+00-2.76427E-02 1.67528E+00-4.10862E-13-9.63535E-13
 -1      3373 1.20479E+01 3.49845E-02 1.25379E-01-3.41420E+00 3.63244E-13 7.04575E-13
 -1      3374 2.06632E+01-3.37190E+00 5.40465E-02-4.41202E+00 6.22495E-13-2.19466E-13
 -1      3375 2.47735E+01-1.32299E+00-5.24414E-02 4.10487E-01 1.11395E-13-7.16996E-14
 -1      3376 2.38933E+01-1.54354E+00 6.34494E-02 1.45647E+00 2.86949E-13-1.74204E-13
 -1      3377 2.26743E+01-1.27053E+00 4.93987E-02 1.90666E+00 3.70990E-13-2.96454E-13
 -1      3378 2.45976E+01 4.06601E+00-9.59009E-02-1.55616E+00-9.00419E-13-3.21618E-13
 -1      3379 2.44600E+01 4.47624E+00-5.92229E-02-8.08928E-01-9.27897E-13-4.25761E-13
 -1      3380 2.35700E+01-9.25467E-01-5.88302E-02 2.35573E-01 1.55307E-13-2.74537E-13
 -1      3381 2.41633E+01-8.54793E-01-1.24065E-02-2.37652E-01 7.60954E-14-1.89513E-13
 -1      3382 2.51426E+01-2.51335E+00 4.79973E-02-2.85020E-01 1.56257E-13-9.67369E-13
 -1      3383 2.52240E+01-1.33017E+00-5.37712E-02 9.13948E-01-1.41102E-14-9.12360E-13
 -1      3384 2.50375E+01 3.17788E-01-2.80056E-02-2.25212E+00-3.15094E-13-5.96910E-14
 -1      3385 2.50457E+01 9.88269E-01-3.30655E-02-2.32787E+00-4.55011E-13-4.05331E-14
 -1      3386 2.41323E+01 4.01772E+00-2.66766E-02 1.98526E-01-8.41431E-13-5.92527E-13
 -1      3387 2.47336E+01 4.64802E+00-9.51724E-02-2.64553E-01-9.41906E-13-5.39133E-13
 -1      3388 2.50686E+01 2.03624E+00-9.03038E-02-2.53535E+00-6.48127E-13-5.44998E-14
 -1      3389 2.49041E+01 3.03789E+00-4.41229E-02-2.23018E+00-7.78322E-13-1.23604E-13
 -1      3390 2.41610E+01 3.44547E+00-8.60953E-02 9.34495E-01-7.68406E-13-6.74419E-13
 -1      3391 2.45396E+01 2.79471E+00-2.31066E-02 1.41754E+00-6.80934E-13-7.87381E-13
 -1      3392 2.46145E+01 1.64669E+00-8.54268E-02 1.71372E+00-5.00116E-13-8.35368E-13
 -1      3393 2.48259E+01 4.49744E-01-6.76789E-03 1.60289E+00-2.78486E-13-8.92126E-13
 -1      3394 2.47952E+01-5.79215E-01-2.78636E-02 1.42111E+00-6.43049E-14-8.75333E-13
 -1      3395 2.42858E+01-1.27706E+00-1.89483E-02 9.10439E-01 2.39773E-14-8.40866E-13
 -1      3396 2.40832E+01-1.73618E+00 1.82736E-03 5.60230E-01 8.89384E-14-7.76698E-13
 -1      3397 2.34518E+01-1.96816E+00-1.57240E-02 3.66368E-02 8.46380E-14-6.83993E-13
 -1      3398 2.31312E+01-1.99063E+00 2.32322E-02-2.87450E-01 1.15760E-13-6.59322E-13
 -1      3399 2.40384E+01-2.28541E+00-3.70217E-02-1.23870E-01 1.42945E-13-8.09226E-13
 -1      3400 2.24782E+01-1.89475E+00-1.31330E-02-6.33030E-01 1.35387E-13-5.59163E-13
 -1      3401 2.21211E+01-1.68478E+00 1.91117E-02-8.51321E-01 1.65933E-13-5.25482E-13
 -1      3402 2.27957E+01-2.30731E+00-2.99982E-02-9.37935E-01 2.12561E-13-6.34010E-13
 -1      3403 2.16211E+01-1.43921E+00-1.90736E-03-9.85771E-01 1.90826E-13-4.56168E-13
 -1      3404 2.13096E+01-1.17703E+00 1.71955E-02-1.09588E+00 2.11813E-13-3.75686E-13
 -1      3405 2.16665E+01-1.75973E+00-2.20130E-02-1.31669E+00 2.18884E-13-4.67670E-13
 -1      3406 2.09567E+01-9.26117E-01 1.11157E-03-1.11433E+00 9.77374E-14-3.53711E-13
 -1      3407 2.07209E+01-6.88270E-01 1.17628E-02-1.14577E+00 6.43092E-14-2.96004E-13
 -1      3408 2.08610E+01-1.15579E+00-1.89258E-02-1.41101E+00 1.57030E-13-4.13323E-13
 -1      3409 2.05002E+01-4.80162E-01 3.01897E-03-1.10108E+00-1.68081E-14-2.88716E-13
 -1      3410 2.03345E+01-2.96987E-01 7.20841E-03-1.08505E+00-8.99510E-14-2.84011E-13
 -1      3411 2.03294E+01-6.15732E-01-1.40315E-02-1.33239E+00 2.86130E-14-3.77633E-13
 -1      3412 2.02101E+01-1.45289E-01 3.43935E-03-1.01305E+00-1.00718E-13-2.95481E-13
 -1      3413 2.01019E+01-1.96260E-02 4.02369E-03-9.71428E-01-9.49565E-14-2.77844E-13
 -1      3414 2.00145E+01-2.07757E-01-9.26540E-03-1.18157E+00-6.42473E-14-2.70191E-13
 -1      3415 2.00415E+01 7.95638E-02 3.16144E-03-8.92374E-01-1.06460E-13-1.73340E-13
 -1      3416 1.99751E+01 1.56499E-01 1.88456E-03-8.39054E-01-2.14978E-14-1.06821E-13
 -1      3417 1.98491E+01 6.77970E-02-5.69317E-03-1.00950E+00-5.09139E-14-1.73135E-13
 -1      3418 1.99545E+01 2.13600E-01 2.66050E-03-7.62645E-01 3.97642E-14-1.18261E-13
 -1      3419 1.99162E+01 2.53516E-01 5.37018E-04-7.06049E-01 5.24135E-14-5.08919E-14
 -1      3420 1.97794E+01 2.34514E-01-3.26774E-03-8.42037E-01 1.41146E-14 3.97252E-16
 -1      3421 1.99185E+01 2.79808E-01 2.17416E-03-6.36619E-01 4.95174E-14-6.57219E-14
 -1      3422 1.98979E+01 2.93797E-01-2.47731E-04-5.81699E-01 4.87695E-14-6.54878E-14
 -1      3423 1.97666E+01 3.19798E-01-1.70591E-03-6.89879E-01 7.40326E-14-1.36688E-13
 -1      3424 1.99119E+01 2.99232E-01 1.76855E-03-5.20871E-01 1.97076E-14-5.42524E-14
 -1      3425 1.99019E+01 2.96455E-01-6.57438E-04-4.70399E-01 1.49522E-14-1.14197E-13
 -1      3426 1.97848E+01 3.48474E-01-7.51100E-04-5.56729E-01-4.79580E-14-1.46937E-13
 -1      3427 1.99206E+01 2.88921E-01 1.44627E-03-4.18431E-01-4.75133E-14-1.09557E-13
 -1      3428 1.99165E+01 2.76330E-01-8.27578E-04-3.73791E-01-3.62758E-14-1.85113E-13
 -1      3429 1.98173E+01 3.40667E-01-2.04657E-04-4.42988E-01-4.63712E-14-7.77495E-14
 -1      3430 1.99358E+01 2.61637E-01 1.19090E-03-3.30271E-01 1.74447E-14-1.54217E-13
 -1      3431 1.99345E+01 2.44175E-01-8.52213E-04-2.91959E-01 1.16269E-13-2.57147E-13
 -1      3432 1.98539E+01 3.11531E-01 8.08010E-05-3.47571E-01-1.50583E-14-8.69212E-14
 -1      3433 1.99522E+01 2.26351E-01 9.84255E-04-2.56151E-01 1.81710E-13-2.48146E-13
 -1      3434 1.99522E+01 2.07329E-01-7.94539E-04-2.24092E-01 1.62338E-13-2.72941E-13
 -1      3435 1.98889E+01 2.71819E-01 2.06542E-04-2.68775E-01 1.05337E-13-1.03419E-13
 -1      3436 1.99673E+01 1.88995E-01 8.12830E-04-1.95113E-01 1.54058E-13-2.95686E-13
 -1      3437 1.99676E+01 1.70480E-01-6.96005E-04-1.68884E-01 1.11345E-13-1.17639E-13
 -1      3438 1.99195E+01 2.28748E-01 2.39994E-04-2.04666E-01 1.68636E-13-2.11859E-13
 -1      3439 1.99798E+01 1.53214E-01 6.67995E-04-1.45808E-01 2.46225E-14-1.62502E-13
 -1      3440 1.99800E+01 1.36376E-01-5.82897E-04-1.24789E-01 1.08295E-13-1.43902E-13
 -1      3441 1.99446E+01 1.86848E-01 2.24625E-04-1.53270E-01 9.81212E-14-2.09387E-13
 -1      3442 1.99894E+01 1.21016E-01 5.44543E-04-1.06708E-01 1.06328E-13-1.61065E-13
 -1      3443 1.99894E+01 1.06409E-01-4.71026E-04-9.01936E-02 1.20291E-13-1.49924E-13
 -1      3444 1.99643E+01 1.48699E-01 1.87304E-04-1.12674E-01 7.20926E-14-1.32645E-13
 -1      3445 1.99964E+01 9.32992E-02 4.39288E-04-7.62586E-02 1.01617E-13-1.63709E-13
 -1      3446 1.99962E+01 8.10750E-02-3.69089E-04-6.35349E-02 1.64591E-13-1.86299E-13
 -1      3447 1.99791E+01 1.15535E-01 1.43735E-04-8.10957E-02 8.14485E-14-1.87093E-13
 -1      3448 2.00011E+01 7.02447E-02 3.50090E-04-5.29789E-02 2.00009E-13-1.19802E-13
 -1      3449 2.00007E+01 6.03120E-02-2.81116E-04-4.33691E-02 1.75569E-13-2.33609E-14
 -1      3450 1.99897E+01 8.77091E-02 1.02364E-04-5.69222E-02 1.71797E-13-2.77053E-13
 -1      3451 2.00041E+01 5.16076E-02 2.75260E-04-3.55196E-02 2.13946E-13-4.01513E-14
 -1      3452 2.00035E+01 4.37417E-02-2.08201E-04-2.84130E-02 1.56619E-13-2.59071E-14
 -1      3453 1.99969E+01 6.50312E-02 6.71129E-05-3.87304E-02 2.20165E-13-1.92706E-13
 -1      3454 2.00057E+01 3.69155E-02 2.13270E-04-2.26949E-02-2.90071E-14 3.69885E-15
 -1      3455 2.00050E+01 3.08321E-02-1.49717E-04-1.75601E-02-1.06890E-13 2.48480E-15
 -1      3456 2.00016E+01 4.70117E-02 3.92292E-05-2.52934E-02 1.00418E-13-2.28002E-13
 -1      3457 2.00063E+01 2.56010E-02 1.62630E-04-1.34917E-02-8.73165E-14 6.75243E-15
 -1      3458 2.00057E+01 2.10032E-02-1.04130E-04-9.87953E-03 1.03896E-13 6.24279E-16
 -1      3459 2.00044E+01 3.30235E-02 1.84921E-05-1.55749E-02-1.04485E-13-5.90610E-14
 -1      3460 2.00063E+01 1.70854E-02 1.21871E-04-7.06570E-03 1.73273E-13-1.15709E-13
 -1      3461 2.00057E+01 1.36912E-02-6.95306E-05-4.60628E-03 1.73280E-13-1.15459E-13
 -1      3462 2.00058E+01 2.24068E-02 3.97495E-06-8.71624E-03 7.29185E-14-1.96839E-13
 -1      3463 2.00059E+01 1.08265E-02 8.95652E-05-2.72882E-03 1.32619E-13-2.11289E-13
 -1      3464 2.00053E+01 8.38380E-03-4.39567E-05-1.12389E-03 6.84733E-14-2.15941E-13
 -1      3465 2.00063E+01 1.45316E-02-5.50046E-06-4.01896E-03 1.42664E-13-4.41173E-13
 -1      3466 2.00052E+01 6.34383E-03 6.43656E-05 6.89014E-05 3.69441E-14-2.23207E-13
 -1      3467 2.00047E+01 4.63639E-03-2.55760E-05 1.05476E-03-5.02557E-14-2.11121E-13
 -1      3468 2.00062E+01 8.83195E-03-1.11098E-05-9.24577E-04 2.26464E-14-5.19587E-13
 -1      3469 2.00045E+01 3.22821E-03 4.50341E-05 1.75850E-03-1.03028E-13-1.45072E-13
 -1      3470 2.00041E+01 2.07644E-03-1.27784E-05 2.30746E-03-9.01195E-15-9.12383E-14
 -1      3471 2.00057E+01 4.82019E-03-1.38990E-05 1.00579E-03-1.93757E-14-4.69687E-13
 -1      3472 2.00038E+01 1.14159E-03 3.04654E-05 2.67147E-03-4.68016E-14-1.85991E-14
 -1      3473 2.00034E+01 4.00306E-04-4.20755E-06 2.92173E-03-1.88530E-13 7.41210E-14
 -1      3474 2.00050E+01 2.08973E-03-1.47344E-05 2.11117E-03-7.49459E-15-1.00598E-13
 -1      3475 2.00030E+01-1.88119E-04 1.96968E-05 3.05785E-03-1.93163E-13 1.05644E-13
 -1      3476 2.00028E+01-6.33640E-04 1.24244E-06 3.11209E-03 4.31176E-14 1.30783E-13
 -1      3477 2.00043E+01 3.10442E-04-1.42965E-05 2.64880E-03-1.30101E-13 5.60316E-14
 -1      3478 2.00024E+01-9.75108E-04 1.19110E-05 3.10238E-03 1.28150E-13 2.77278E-15
 -1      3479 2.00022E+01-1.21366E-03 4.45018E-06 3.03513E-03 4.73710E-14-1.84908E-14
 -1      3480 2.00035E+01-7.79609E-04-1.30960E-05 2.81016E-03-8.53280E-14 7.22988E-14
 -1      3481 2.00018E+01-1.38460E-03 6.43173E-06 2.93840E-03-7.47016E-14-1.28104E-13
 -1      3482 2.00017E+01-1.48363E-03 6.09401E-06 2.80234E-03-1.33983E-13-1.04114E-13
 -1      3483 2.00028E+01-1.38401E-03-1.15001E-05 2.73479E-03-6.42870E-15 2.24411E-14
 -1      3484 2.00014E+01-1.54170E-03 2.70552E-06 2.65951E-03-2.33772E-13-2.15601E-13
 -1      3485 2.00012E+01-1.55147E-03 6.68430E-06 2.49061E-03-3.44166E-13-2.22439E-13
 -1      3486 2.00022E+01-1.65805E-03-9.76527E-06 2.52186E-03-2.48849E-13-1.96196E-13
 -1      3487 2.00010E+01-1.53937E-03 2.63785E-07 2.32911E-03-3.65089E-13-2.06920E-13
 -1      3488 2.00009E+01-1.49671E-03 6.58677E-06 2.15092E-03-3.12633E-13-1.94262E-13
 -1      3489 2.00017E+01-1.71791E-03-8.05666E-06 2.23966E-03-3.22001E-13-1.84780E-13
 -1      3490 2.00006E+01-1.44587E-03-1.30792E-06 1.98816E-03-1.65988E-13-2.78850E-13
 -1      3491 2.00006E+01-1.37819E-03 5.21221E-06 1.81558E-03 1.59754E-13-1.98872E-13
 -1      3492 2.00012E+01-1.64924E-03-6.50817E-06 1.93344E-03-2.93218E-13 1.93089E-13
 -1      3493 2.00004E+01-1.31015E-03-3.05872E-06 1.65894E-03 2.44864E-13-3.49021E-13
 -1      3494 2.00003E+01-1.24412E-03-2.94603E-08 1.50380E-03 1.70560E-13-2.44583E-13
 -1      3495 2.00008E+01-1.51547E-03-4.16101E-06 1.63102E-03 1.29415E-13-3.07370E-14
 -1      3496 1.94037E+01 8.30620E-01-6.36339E-03 1.08347E+00 6.05089E-14-1.12763E-13
 -1      3497 1.93373E+01 8.81288E-01 1.86412E-03 1.20478E+00 5.25778E-14-6.09463E-14
 -1      3498 1.91488E+01 9.13944E-01-8.22752E-03 1.32835E+00 3.41421E-15-3.92150E-14
 -1      3499 1.90698E+01 9.35595E-01 3.53718E-03 1.47211E+00 3.27274E-14-2.51763E-14
 -1      3500 1.89080E+01 1.01924E+00 7.51300E-03 1.15219E+00 3.83809E-14 1.08671E-13
 -1      3501 1.97352E+01 5.98437E-01-3.89275E-03 7.05914E-01-5.11180E-14-1.41890E-13
 -1      3502 1.97024E+01 6.59007E-01 1.09332E-03 7.93865E-01-9.02400E-14-1.44243E-13
 -1      3503 1.98326E+01 4.87844E-01-3.04949E-03 5.60105E-01 3.42478E-14-1.31405E-13
 -1      3504 1.98126E+01 5.43115E-01 1.05733E-03 6.34115E-01 6.41448E-14-1.00600E-13
 -1      3505 1.96284E+01 6.43356E-01 3.41785E-03 6.25100E-01 4.35568E-14 5.37721E-15
 -1      3506 1.98989E+01 3.90562E-01-2.37810E-03 4.38369E-01-4.52814E-14-1.64196E-13
 -1      3507 1.98881E+01 4.38563E-01 1.03750E-03 4.99772E-01 2.51232E-14-1.32716E-13
 -1      3508 1.97511E+01 5.23600E-01 2.44948E-03 4.99339E-01 4.85547E-14-1.64966E-13
 -1      3509 1.99428E+01 3.08062E-01-1.84208E-03 3.38102E-01-7.68353E-14-1.42955E-13
 -1      3510 1.99381E+01 3.48450E-01 9.90544E-04 3.88279E-01-1.10358E-13-1.91536E-13
 -1      3511 1.98375E+01 4.19086E-01 1.71508E-03 3.93094E-01-9.04658E-14-1.73822E-13
 -1      3512 1.99711E+01 2.39799E-01-1.41601E-03 2.56733E-01 7.30985E-15-3.01464E-14
 -1      3513 1.99701E+01 2.73042E-01 9.11658E-04 2.97116E-01-2.49079E-14-9.49375E-15
 -1      3514 1.98972E+01 3.30671E-01 1.17578E-03 3.04653E-01-9.61666E-14-6.80867E-14
 -1      3515 1.99886E+01 1.84324E-01-1.07956E-03 1.91697E-01 1.73132E-13-1.83583E-13
 -1      3516 1.99898E+01 2.11234E-01 8.09940E-04 2.23714E-01 1.12356E-13-8.28589E-14
 -1      3517 1.99379E+01 2.57512E-01 7.89362E-04 2.32233E-01 1.05297E-13-6.04848E-14
 -1      3518 1.99990E+01 1.39882E-01-8.15675E-04 1.40507E-01-5.48334E-14-1.58082E-13
 -1      3519 2.00013E+01 1.61371E-01 6.97416E-04 1.65515E-01 7.39995E-14-1.40891E-13
 -1      3520 1.99651E+01 1.97996E-01 5.17915E-04 1.73922E-01 6.39653E-14-2.17631E-13
 -1      3521 2.00048E+01 1.04722E-01-6.10124E-04 1.00838E-01-1.32023E-14-1.45861E-13
 -1      3522 2.00074E+01 1.21673E-01 5.84401E-04 1.20078E-01-1.21184E-14-1.15067E-13
 -1      3523 1.99828E+01 1.50257E-01 3.30499E-04 1.27757E-01-1.48053E-14-1.61602E-13
 -1      3524 2.00076E+01 7.72297E-02-4.51143E-04 7.05863E-02 8.81704E-14-1.82693E-13
 -1      3525 2.00102E+01 9.04452E-02 4.78127E-04 8.51588E-02 6.13974E-14-1.50511E-13
 -1      3526 1.99940E+01 1.12444E-01 2.03203E-04 9.18194E-02 7.57945E-15-1.21178E-13
 -1      3527 2.00086E+01 5.59859E-02-3.29120E-04 4.79046E-02-9.10103E-14-1.76023E-13
 -1      3528 2.00110E+01 6.61662E-02 3.82849E-04 5.87581E-02 3.13875E-14-1.32499E-13
 -1      3529 2.00008E+01 8.28551E-02 1.18209E-04 6.43201E-02 1.93368E-14-8.55196E-14
 -1      3530 2.00085E+01 3.97724E-02-2.36263E-04 3.12096E-02 1.05988E-13-1.79228E-13
 -1      3531 2.00106E+01 4.75157E-02 3.00491E-04 3.91451E-02 1.68316E-14-1.80573E-13
 -1      3532 2.00047E+01 5.99828E-02 6.25779E-05 4.36515E-02 4.73898E-15-1.27565E-13
 -1      3533 2.00078E+01 2.75635E-02-1.66293E-04 1.91737E-02 7.46482E-14-1.65129E-13
 -1      3534 2.00096E+01 3.33720E-02 2.31356E-04 2.48545E-02 1.00649E-13-1.94929E-13
 -1      3535 2.00065E+01 4.25282E-02 2.70787E-05 2.84133E-02 1.12099E-13-2.71596E-13
 -1      3536 2.00069E+01 1.85070E-02-1.14168E-04 1.07049E-02 8.54928E-15-1.82773E-13
 -1      3537 2.00083E+01 2.27969E-02 1.74730E-04 1.46707E-02 6.55180E-14-1.33700E-13
 -1      3538 2.00072E+01 2.93922E-02 5.21783E-06 1.74172E-02 1.01340E-13-9.83350E-14
 -1      3539 2.00058E+01 1.19032E-02-7.58551E-05 4.92095E-03-6.55122E-14-2.26464E-13
 -1      3540 2.00069E+01 1.50152E-02 1.29338E-04 7.60419E-03 2.53444E-14-1.23470E-13
 -1      3541 2.00071E+01 1.96581E-02-7.52763E-06 9.67784E-03 2.15546E-15 5.46186E-14
 -1      3542 2.00048E+01 7.18388E-03-4.81431E-05 1.12090E-03-2.17903E-13-4.24566E-14
 -1      3543 2.00057E+01 9.39407E-03 9.36619E-05 2.86238E-03-1.96324E-13-1.10399E-13
 -1      3544 2.00065E+01 1.25712E-02-1.42823E-05 4.39397E-03-5.16477E-14 3.48611E-14
 -1      3545 2.00039E+01 3.89289E-03-2.84861E-05-1.24312E-03-1.07110E-13-4.50479E-14
 -1      3546 2.00045E+01 5.42223E-03 6.61452E-05-1.78805E-04-1.48132E-13-7.02060E-14
 -1      3547 2.00057E+01 7.51750E-03-1.71887E-05 9.26330E-04-1.85027E-13-5.79192E-15
 -1      3548 2.00030E+01 1.66811E-03-1.48792E-05-2.59232E-03-1.65040E-13 9.51823E-14
 -1      3549 2.00035E+01 2.69148E-03 4.53158E-05-2.00301E-03-7.49079E-14-3.91306E-14
 -1      3550 2.00049E+01 4.00353E-03-1.77039E-05-1.22615E-03-1.12181E-13-1.16693E-13
 -1      3551 2.00023E+01 2.25561E-04-5.75521E-06-3.24498E-03 1.68557E-13-1.22813E-14
 -1      3552 2.00027E+01 8.79659E-04 2.98528E-05-2.97881E-03-1.00311E-14 1.06739E-13
 -1      3553 2.00041E+01 1.63743E-03-1.68088E-05-2.44942E-03-1.35097E-14-1.56855E-13
 -1      3554 2.00018E+01-6.54687E-04 9.93487E-08-3.43720E-03-1.05461E-13-5.97315E-14
 -1      3555 2.00020E+01-2.64375E-04 1.86143E-05-3.38219E-03 9.05502E-14-4.44866E-14
 -1      3556 2.00033E+01 1.11907E-04-1.51541E-05-3.03538E-03 1.68193E-13-1.46190E-13
 -1      3557 2.00013E+01-1.14068E-03 3.61654E-06-3.34053E-03 5.35542E-14 9.18194E-14
 -1      3558 2.00014E+01-9.33860E-04 1.06413E-05-3.41584E-03-1.05635E-13 5.29263E-14
 -1      3559 2.00026E+01-8.10838E-04-1.31625E-05-3.20067E-03-1.46088E-13 1.82597E-13
 -1      3560 2.00009E+01-1.35910E-03 5.49844E-06-3.07660E-03 1.45771E-13 1.28355E-13
 -1      3561 2.00010E+01-1.27547E-03 5.14965E-06-3.22535E-03 2.30741E-13 1.43495E-13
 -1      3562 2.00020E+01-1.31236E-03-1.10997E-05-3.10263E-03 8.01498E-14 1.77293E-13
 -1      3563 2.00006E+01-1.40421E-03 6.25404E-06-2.72909E-03 2.49755E-13 8.70401E-14
 -1      3564 2.00007E+01-1.39906E-03 1.50956E-06-2.91253E-03 1.76432E-13 1.43620E-13
 -1      3565 2.00015E+01-1.52939E-03-9.14131E-06-2.85281E-03 2.02281E-13 4.71064E-13
 -1      3566 2.00003E+01-1.34510E-03 6.28874E-06-2.35308E-03 3.95847E-13-8.14076E-14
 -1      3567 2.00004E+01-1.38586E-03-7.76201E-07-2.54606E-03 2.44540E-13 3.92679E-14
 -1      3568 2.00011E+01-1.56363E-03-7.40249E-06-2.52777E-03 2.87670E-13 2.44103E-13
 -1      3569 2.00002E+01-1.23209E-03 5.82214E-06-1.98300E-03 2.73425E-13-2.73496E-14
 -1      3570 2.00002E+01-1.29487E-03-2.13146E-06-2.17017E-03 3.86949E-13 3.70750E-14
 -1      3571 2.00007E+01-1.48913E-03-5.92343E-06-2.17778E-03 3.58006E-13 2.27608E-13
 -1      3572 2.00000E+01-1.09860E-03 6.86804E-06-1.64007E-03 1.46686E-13 9.76574E-16
 -1      3573 2.00000E+01-1.16736E-03-2.23324E-06-1.81087E-03 2.56730E-13-1.21800E-13
 -1      3574 2.00004E+01-1.36034E-03-5.44165E-06-1.83421E-03 2.42389E-13-5.20141E-14
 -1      3575 1.99999E+01-9.76879E-04 3.13642E-06-1.32490E-03 8.21384E-14 1.78873E-14
 -1      3576 1.99999E+01-1.03908E-03-3.24480E-06-1.47884E-03 1.17518E-13 4.50147E-14
 -1      3577 2.00002E+01-1.22287E-03-6.38595E-06-1.51423E-03 1.33395E-13 1.06177E-13
 -1      3578 2.00006E+01-1.46298E-03-3.93408E-06-5.77239E-04-1.16830E-13 3.06003E-13
 -1      3579 2.00002E+01-1.12384E-03 4.18248E-06 1.26039E-03 8.79474E-14-6.72972E-14
 -1      3580 1.95995E+01-2.59004E+00 9.59486E-02-4.30655E+00 6.16632E-13-1.10846E-13
 -1      3581 2.15358E+01-3.36695E+00-7.02205E-02-3.55735E+00 5.29059E-13-3.92150E-13
 -1      3582 2.00005E+01-1.32284E-03-5.66072E-06 1.05454E-03 1.73600E-13-4.17917E-14
 -1      3583 2.00006E+01-1.40233E-03 8.59161E-06 9.13925E-04 1.12635E-13-1.47239E-13
 -1      3584 1.81201E+01 3.62251E-01-9.70960E-03 2.58117E+00-1.57564E-13-9.40530E-14
 -1      3585 1.82351E+01-1.92759E-02 2.31795E-02 2.87925E+00-2.16045E-13-7.72496E-14
 -1      3586 2.00000E+01-1.01579E-03 5.00254E-06-9.75220E-04 2.05084E-13 2.82030E-13
 -1      3587 1.99999E+01-9.17988E-04-7.21416E-07-1.00336E-03 1.92265E-13 9.43576E-14
 -1      3588 1.99999E+01-9.23033E-04-1.04120E-06-1.09143E-03 1.70641E-13 1.23086E-13
 -1      3589 2.00002E+01-1.13048E-03 1.29756E-07-1.03287E-03 9.90664E-14 2.09476E-13
 -1      3590 1.54870E+01-9.69797E-01 9.40760E-02-4.39962E+00 5.22457E-13 3.72015E-13
 -1      3591 1.72562E+01-2.02083E+00-5.33431E-02-4.67042E+00 5.69666E-13 1.24706E-13
 -1      3592 1.21283E+01 6.72660E-01 7.23595E-02-2.39404E+00 1.83143E-13 5.80751E-13
 -1      3593 1.35227E+01-2.63487E-01-7.20541E-03-3.81839E+00 3.76088E-13 5.49095E-13
 -1      3594 1.53077E+01-2.96214E-01 6.32325E-02-3.56454E+00 3.70894E-13 3.28980E-13
 -1      3595 2.33332E+01-3.34175E+00 7.68495E-02-2.51098E+00 4.41215E-13-7.25725E-13
 -1      3596 2.41750E+01-3.33977E+00-8.47588E-02-1.54229E+00 2.86041E-13-9.22314E-13
 -1      3597 1.95961E+01 7.16915E-01-4.97018E-03 8.78808E-01-1.02566E-13-5.72269E-14
 -1      3598 1.95471E+01 7.77810E-01 1.28789E-03 9.82217E-01-5.04971E-14-1.12586E-13
 -1      3599 1.94570E+01 7.74258E-01 4.64151E-03 7.72455E-01-4.40979E-14-1.60466E-14
 -1      3600 1.15151E+01 1.07132E+00 3.78711E-02 3.33205E-01-1.11377E-13 6.41369E-13
 -1      3601 1.13913E+01 1.01231E+00 4.64664E-02-1.11531E+00-3.75247E-14 6.19178E-13
 -1      3602 2.00003E+01-1.25700E-03-1.06867E-06 1.31310E-03 1.86546E-13-1.87422E-13
 -1      3603 2.42735E+01-2.62555E+00 8.91615E-03-6.49211E-01 2.32781E-13-8.46989E-13
 -1      3604 2.20862E+01-2.97215E+00-2.24024E-04-2.73340E+00 4.35674E-13-5.41055E-13
 -1      3605 1.29876E+01 9.48292E-01 7.73846E-02-1.67334E+00 8.42278E-14 4.48214E-13
 -1      3606 2.00007E+01-1.42660E-03 6.83248E-06 1.28258E-03 2.34998E-13-1.52798E-13
 -1      3607 1.92222E+01 9.06464E-01 6.10151E-03 9.45265E-01 2.85022E-14 3.29176E-14
 -1      3608 2.44081E+01-3.33415E-02-1.44457E-02-1.80631E+00-2.14833E-13-1.74439E-13
 -1      3609 1.84646E+01 7.78546E-01-1.23071E-02 2.02894E+00-5.40182E-15-9.71956E-14
 -1      3610 1.84413E+01 6.22965E-01 1.54534E-02 2.25216E+00-6.29663E-14-7.88712E-14
 -1      3611 1.73892E+01 7.47282E-01 1.11093E-02 2.27192E+00-1.34094E-13-3.64473E-14
 -1      3612 2.00010E+01-1.62529E-03 2.93975E-06-1.13509E-04-1.35164E-13 1.68204E-13
 -1      3613 2.00009E+01-1.60729E-03 9.21234E-07-3.17663E-04-2.15311E-13 2.13198E-13
 -1      3614 2.00009E+01-1.55846E-03 4.29322E-06-5.42363E-04-1.61727E-13 1.65919E-13
 -1      3615 2.00008E+01-1.50269E-03-4.33099E-07-7.23974E-04-4.47638E-14 1.98838E-13
 -1      3616 2.00011E+01-1.66849E-03-3.87055E-06-4.68163E-04-4.86702E-14 1.68592E-13
 -1      3617 1.99999E+01-9.28557E-04-1.37972E-06-1.18450E-03 1.31405E-13 1.58580E-13
 -1      3618 2.00009E+01-1.60541E-03 7.84317E-07 3.24119E-04 6.07088E-14 5.25233E-13
 -1      3619 2.00010E+01-1.62504E-03 2.70069E-06 1.21964E-04 4.14950E-15 3.66534E-13
 -1      3620 2.00012E+01-1.71309E-03-4.20813E-06 3.51796E-06-7.33147E-14 4.89957E-13
 -1      3621 2.00006E+01-1.41872E-03 5.80445E-06-8.83794E-04 7.31410E-14-7.27621E-14
 -1      3622 2.00005E+01-1.35003E-03-5.09067E-06-1.00124E-03 9.24532E-14-1.37424E-13
 -1      3623 2.00008E+01-1.54372E-03-3.48747E-06-8.62256E-04 7.39196E-14 1.93533E-14
 -1      3624 1.88541E+01-1.90469E+00 4.65559E-02-3.89804E+00 4.77432E-13-5.77862E-14
 -1      3625 1.88287E+01 9.22273E-01-1.06869E-02 1.63138E+00 1.81270E-14-7.11326E-14
 -1      3626 1.87556E+01 8.83139E-01 7.56272E-03 1.80742E+00 2.70802E-14-6.82443E-14
 -1      3627 1.79877E+01 1.01767E+00 8.19973E-03 1.75855E+00-8.31263E-15-4.16954E-14
 -1      3628 1.84980E+01 1.07660E+00 7.94831E-03 1.41080E+00 1.41617E-14 8.80914E-14
 -1      3629 2.00001E+01-1.08389E-03-3.08884E-06-1.22060E-03 1.23427E-13 2.35038E-13
 -1      3630 1.24683E+01 1.12470E+00 8.98023E-02 1.16417E+00-1.53817E-13 4.87325E-13
 -1      3631 1.30795E+01 1.24925E+00 3.90139E-02 4.77513E-01-5.29516E-14 4.83273E-13
 -1      3632 1.35806E+01 8.81730E-01 8.42638E-03 1.88394E+00-2.31379E-13 3.45036E-13
 -1      3633 2.00008E+01-1.50251E-03-1.92094E-06 7.26475E-04 2.19887E-14-1.48023E-15
 -1      3634 2.00009E+01-1.55504E-03 4.62218E-06 5.46838E-04 1.09073E-13 3.55381E-13
 -1      3635 2.00011E+01-1.66623E-03-4.67978E-06 4.74040E-04-3.94231E-14 4.29982E-13
 -1      3636 2.00008E+01-1.53107E-03-2.99708E-06 8.94935E-04 1.09979E-13-9.97576E-14
 -1      3637 1.67852E+01 1.10351E-01 3.10736E-02 3.07428E+00-2.65730E-13 4.39059E-14
 -1      3638 1.79680E+01-5.20861E-01-1.81657E-03 3.35727E+00-2.70409E-13-9.97692E-14
 -1      3639 2.16218E+01-1.92733E+00 1.33424E-02-1.72014E+00 2.31514E-13-5.44342E-13
 -1      3640 2.11230E+01-1.58249E+00 2.03911E-02-1.80587E+00 2.52271E-13-4.71471E-13
 -1      3641 2.06969E+01-1.21168E+00 8.90083E-03-1.71519E+00 2.26023E-13-4.36932E-13
 -1      3642 2.03659E+01-8.84716E-01 1.51666E-02-1.67451E+00 1.37776E-13-4.32732E-13
 -1      3643 2.04027E+01-1.39621E+00-2.78854E-02-2.11933E+00 2.32910E-13-4.57660E-13
 -1      3644 2.01348E+01-6.09878E-01 7.29773E-03-1.53717E+00 8.79019E-14-3.84699E-13
 -1      3645 1.99224E+01-3.66676E-01 5.31456E-03-1.45453E+00 1.78922E-14-3.88311E-13
 -1      3646 1.98288E+01-6.97241E-01-1.42084E-02-1.83200E+00 1.38532E-13-4.24276E-13
 -1      3647 1.98227E+01-1.65691E-01 7.33462E-03-1.30830E+00-4.38613E-14-2.38698E-13
 -1      3648 1.96990E+01-4.12516E-03 1.72657E-03-1.21363E+00-3.12120E-14-2.20335E-13
 -1      3649 1.95308E+01-1.86869E-01-9.77457E-03-1.49620E+00 6.61394E-14-2.74172E-13
 -1      3650 1.96725E+01 1.25545E-01 5.61761E-03-1.08359E+00-1.76689E-14-1.47132E-13
 -1      3651 1.96102E+01 2.23261E-01-2.62269E-04-9.91879E-01 2.63930E-14-5.31372E-14
 -1      3652 1.94216E+01 1.42759E-01-5.25475E-03-1.19895E+00 3.64466E-14-1.28957E-13
 -1      3653 1.96247E+01 2.98124E-01 4.16031E-03-8.81898E-01-1.33770E-14 4.30591E-16
 -1      3654 1.96006E+01 3.48398E-01-1.24492E-03-7.99154E-01 3.52397E-14-1.20475E-14
 -1      3655 1.94152E+01 3.37693E-01-2.43593E-03-9.48185E-01 2.80278E-14-1.33098E-13
 -1      3656 1.96355E+01 3.83423E-01 2.99176E-03-7.08742E-01-3.89069E-15-1.03391E-13
 -1      3657 1.96339E+01 4.00738E-01-1.64397E-03-6.36756E-01-5.60830E-14-1.88946E-13
 -1      3658 1.94644E+01 4.34280E-01-7.76845E-04-7.43531E-01-9.47931E-14-1.63072E-13
 -1      3659 1.96767E+01 4.08720E-01 2.13458E-03-5.63541E-01-3.96727E-14-1.93487E-13
 -1      3660 1.96867E+01 4.04646E-01-1.72677E-03-5.02264E-01-1.89467E-15-1.52029E-13
 -1      3661 1.95390E+01 4.63628E-01 1.56216E-04-5.79170E-01-7.27478E-14-2.59506E-13
 -1      3662 1.97302E+01 3.95609E-01 1.53004E-03-4.43491E-01-5.52814E-14-7.53688E-14
 -1      3663 1.97451E+01 3.78848E-01-1.64368E-03-3.92129E-01-6.04252E-14-1.11303E-13
 -1      3664 1.96210E+01 4.49894E-01 6.27041E-04-4.48232E-01 4.44802E-14-1.17948E-13
 -1      3665 1.97852E+01 3.60180E-01 1.11320E-03-3.45254E-01-8.54334E-14-7.86493E-14
 -1      3666 1.98011E+01 3.36946E-01-1.47917E-03-3.02770E-01 3.83219E-14-1.98950E-14
 -1      3667 1.96998E+01 4.10957E-01 8.21893E-04-3.44375E-01 3.55113E-15-4.79974E-14
 -1      3668 1.98359E+01 3.13829E-01 8.25157E-04-2.65631E-01 1.04906E-13-1.50019E-13
 -1      3669 1.98506E+01 2.88348E-01-1.28067E-03-2.30938E-01 6.86087E-14-1.12904E-13
 -1      3670 1.97701E+01 3.59448E-01 8.53441E-04-2.62324E-01 1.57135E-14-1.84397E-15
 -1      3671 1.98796E+01 2.64226E-01 6.23488E-04-2.01730E-01 7.69874E-14-8.26605E-14
 -1      3672 1.98921E+01 2.39203E-01-1.07598E-03-1.73765E-01 1.24805E-13-1.58710E-13
 -1      3673 1.98297E+01 3.03917E-01 7.93892E-04-1.97814E-01 7.59595E-14-9.46373E-14
 -1      3674 1.99153E+01 2.16204E-01 4.79307E-04-1.50992E-01 9.07340E-14-1.19270E-13
 -1      3675 1.99253E+01 1.93222E-01-8.81363E-04-1.28751E-01 7.95069E-14-1.38572E-13
 -1      3676 1.98781E+01 2.49820E-01 6.89924E-04-1.47407E-01 1.16866E-13-7.17622E-14
 -1      3677 1.99433E+01 1.72531E-01 3.73485E-04-1.11168E-01 5.40322E-14-1.70384E-13
 -1      3678 1.99509E+01 1.52385E-01-7.05747E-04-9.37260E-02 6.29620E-14-1.84325E-13
 -1      3679 1.99163E+01 2.00337E-01 5.70815E-04-1.08317E-01 6.70553E-14-1.37527E-13
 -1      3680 1.99646E+01 1.34532E-01 2.93617E-04-8.03015E-02 4.67511E-14-1.20444E-13
 -1      3681 1.99701E+01 1.17490E-01-5.53243E-04-6.68238E-02 1.15449E-13-1.83275E-13
 -1      3682 1.99453E+01 1.57045E-01 4.53908E-04-7.82798E-02 1.02664E-13-1.89188E-13
 -1      3683 1.99800E+01 1.02583E-01 2.31775E-04-5.67040E-02 6.77427E-14-1.78681E-13
 -1      3684 1.99838E+01 8.85787E-02-4.24799E-04-4.64521E-02 9.12982E-14-2.42685E-13
 -1      3685 1.99667E+01 1.20448E-01 3.48527E-04-5.54444E-02 8.49334E-14-1.86745E-13
 -1      3686 1.99909E+01 7.64695E-02 1.82910E-04-3.89334E-02 1.76355E-13-2.17648E-13
 -1      3687 1.99933E+01 6.52469E-02-3.19390E-04-3.12674E-02 2.27733E-13-2.58932E-13
 -1      3688 1.99820E+01 9.03726E-02 2.58785E-04-3.82989E-02 1.23691E-13-2.41695E-13
 -1      3689 1.99982E+01 5.56451E-02 1.43773E-04-2.57740E-02 1.84237E-13-3.33282E-13
 -1      3690 1.99996E+01 4.68554E-02-2.34855E-04-2.01493E-02 3.24408E-14-3.13210E-13
 -1      3691 1.99926E+01 6.62566E-02 1.85574E-04-2.56100E-02 1.20699E-13-3.00233E-13
 -1      3692 2.00027E+01 3.94112E-02 1.12213E-04-1.62138E-02-7.03598E-14-2.86215E-13
 -1      3693 2.00035E+01 3.26759E-02-1.68495E-04-1.21754E-02-5.19848E-14-1.83831E-13
 -1      3694 1.99995E+01 4.73488E-02 1.27943E-04-1.63765E-02 3.84530E-14-4.33354E-13
 -1      3695 2.00053E+01 2.70295E-02 8.67357E-05-9.42244E-03-5.53739E-14-2.52605E-13
 -1      3696 2.00056E+01 2.19803E-02-1.17468E-04-6.59662E-03-9.06007E-15-2.87291E-13
 -1      3697 2.00037E+01 3.28394E-02 8.40117E-05-9.79096E-03-1.10455E-13-4.18116E-13
 -1      3698 2.00066E+01 1.77926E-02 6.62418E-05-4.72766E-03 9.45961E-14-3.95355E-13
 -1      3699 2.00065E+01 1.40937E-02-7.90385E-05-2.81269E-03 8.84910E-14-4.50726E-13
 -1      3700 2.00060E+01 2.19425E-02 5.15524E-05-5.20795E-03-6.04637E-14-2.96013E-13
 -1      3701 2.00069E+01 1.10618E-02 4.98719E-05-1.59342E-03 4.82361E-14-4.55307E-13
 -1      3702 2.00066E+01 8.42039E-03-5.07221E-05-3.49641E-04 1.24257E-14-4.30143E-13
 -1      3703 2.00070E+01 1.39419E-02 2.83419E-05-2.11675E-03 1.41847E-14-4.79742E-13
 -1      3704 2.00066E+01 6.28472E-03 3.69216E-05 4.01560E-04 9.61704E-14-4.18353E-13
 -1      3705 2.00063E+01 4.45400E-03-3.03533E-05 1.16135E-03 1.01248E-13-3.04665E-13
 -1      3706 2.00072E+01 8.21255E-03 1.23510E-05-1.17826E-04 6.36364E-14-3.99472E-13
 -1      3707 2.00060E+01 2.99851E-03 2.67957E-05 1.58324E-03 1.09620E-13-1.12541E-13
 -1      3708 2.00056E+01 1.77617E-03-1.61046E-05 2.00280E-03 3.84267E-14-4.29713E-15
 -1      3709 2.00068E+01 4.22749E-03 1.83182E-06 1.09741E-03 2.25870E-13-1.58681E-13
 -1      3710 2.00053E+01 8.25719E-04 1.89835E-05 2.19974E-03-4.67485E-14 3.43230E-14
 -1      3711 2.00049E+01 4.97163E-05-6.47443E-06 2.38750E-03-1.28757E-14 1.26178E-13
 -1      3712 2.00061E+01 1.55398E-03-4.65949E-06 1.76395E-03 7.22432E-14 5.01949E-14
 -1      3713 2.00045E+01-5.34545E-04 1.30466E-05 2.43661E-03-1.51968E-13 2.42223E-13
 -1      3714 2.00041E+01-9.91280E-04-2.54367E-07 2.47278E-03-7.90456E-14 1.61411E-13
 -1      3715 2.00053E+01-1.55029E-04-8.27526E-06 2.05795E-03 2.51236E-14 1.27772E-13
 -1      3716 2.00036E+01-1.31724E-03 8.61381E-06 2.42992E-03 1.55167E-14 2.90304E-13
 -1      3717 2.00033E+01-1.55245E-03 3.51561E-06 2.37252E-03-8.82282E-14 1.82081E-13
 -1      3718 2.00044E+01-1.17217E-03-9.90439E-06 2.10911E-03-4.29310E-14 3.82804E-13
 -1      3719 2.00029E+01-1.70239E-03 5.38576E-06 2.27723E-03-2.36608E-13 1.64307E-13
 -1      3720 2.00026E+01-1.79000E-03 5.56241E-06 2.16716E-03-3.46106E-13 4.81392E-14
 -1      3721 2.00036E+01-1.70751E-03-1.02076E-05 2.01102E-03-1.28989E-13 2.24121E-13
 -1      3722 2.00022E+01-1.82563E-03 3.09779E-06 2.04640E-03-2.92850E-13 1.52053E-13
 -1      3723 2.00020E+01-1.82030E-03 6.43726E-06 1.91144E-03-2.99679E-13 2.85040E-13
 -1      3724 2.00028E+01-1.92034E-03-9.71200E-06 1.82948E-03-2.81505E-13 4.01439E-13
 -1      3725 2.00017E+01-1.78688E-03 1.44167E-06 1.78317E-03-3.57827E-13 3.62430E-13
 -1      3726 2.00015E+01-1.72890E-03 6.43321E-06 1.64170E-03-2.75237E-13 3.55324E-13
 -1      3727 2.00022E+01-1.92855E-03-8.80301E-06 1.60912E-03-2.97174E-13 3.85571E-13
 -1      3728 2.00012E+01-1.65734E-03 5.77092E-07 1.51742E-03-9.83375E-14 3.17375E-13
 -1      3729 2.00010E+01-1.58123E-03 3.27758E-06 1.38407E-03 1.59127E-13 1.23546E-13
 -1      3730 2.00016E+01-1.81718E-03-7.25980E-06 1.37975E-03-2.31396E-13 5.49207E-13
 -1      3731 2.00014E+01-1.76935E-03 3.27326E-06-3.93270E-04 1.04551E-13 3.61054E-13
 -1      3732 2.00013E+01-1.72699E-03 4.65874E-07-6.25312E-04 2.67508E-14 1.10429E-13
 -1      3733 1.88499E+01-9.49171E-01 5.70677E-02 3.51572E+00-3.22881E-13-1.74459E-13
 -1      3734 1.80868E+01-1.14648E+00 6.56487E-02-3.60576E+00 3.87516E-13-9.05244E-15
 -1      3735 1.95892E+01-2.01587E+00-5.71923E-02-3.38993E+00 4.27553E-13-1.85973E-13
 -1      3736 2.00002E+01-1.17601E-03 4.49896E-06-1.16906E-03 7.42555E-14 1.70630E-13
 -1      3737 1.96730E+01 5.31153E-01-2.70034E-03 4.15249E-01 8.91882E-14-7.68622E-14
 -1      3738 1.96220E+01 5.90638E-01-3.01138E-04 4.69008E-01 1.07679E-13-9.26886E-15
 -1      3739 1.95282E+01 6.52123E-01-3.43741E-03 5.15040E-01 6.66339E-14 1.96798E-14
 -1      3740 1.94557E+01 7.18742E-01-6.80494E-04 5.77310E-01 8.97101E-14 3.46250E-14
 -1      3741 1.94787E+01 6.73702E-01 3.81919E-03 4.24847E-01 1.13307E-13 2.77401E-15
 -1      3742 1.98516E+01 3.36695E-01-1.67392E-03 2.56557E-01-9.16578E-14-1.64810E-13
 -1      3743 1.98278E+01 3.79958E-01 1.63985E-04 2.94658E-01-2.09015E-13-2.29615E-13
 -1      3744 1.99040E+01 2.62667E-01-1.30822E-03 1.96315E-01 1.48671E-13-1.20505E-13
 -1      3745 1.98883E+01 2.98432E-01 2.66876E-04 2.27512E-01 6.61437E-14-5.79483E-14
 -1      3746 1.98281E+01 3.48434E-01 1.46187E-03 2.17733E-01-5.86801E-14-1.71067E-13
 -1      3747 1.99404E+01 2.02224E-01-1.01367E-03 1.47374E-01-2.48714E-14-4.79746E-14
 -1      3748 1.99303E+01 2.31328E-01 3.09510E-04 1.72454E-01 1.39992E-13-5.65331E-15
 -1      3749 1.98865E+01 2.72005E-01 1.04371E-03 1.67501E-01 8.19317E-15 6.35773E-14
 -1      3750 1.99653E+01 1.53574E-01-7.77288E-04 1.08371E-01 4.17699E-14-1.10887E-13
 -1      3751 1.99590E+01 1.76929E-01 3.11796E-04 1.28176E-01 3.85516E-15-2.07632E-14
 -1      3752 1.99279E+01 2.09480E-01 7.37460E-04 1.26235E-01 6.93438E-14 1.12410E-13
 -1      3753 1.99820E+01 1.14930E-01-5.88912E-04 7.78676E-02 2.58466E-14-1.24065E-13
 -1      3754 1.99783E+01 1.33427E-01 2.89806E-04 9.32331E-02 6.56655E-14-1.08246E-13
 -1      3755 1.99567E+01 1.59067E-01 5.14574E-04 9.30754E-02 6.71001E-14-3.00977E-14
 -1      3756 1.99929E+01 8.46266E-02-4.40135E-04 5.44563E-02-7.15508E-15-1.35951E-13
 -1      3757 1.99909E+01 9.90875E-02 2.55280E-04 6.61656E-02 3.19653E-14-1.84472E-13
 -1      3758 1.99763E+01 1.18973E-01 3.53444E-04 6.69858E-02 8.93000E-14-1.48111E-13
 -1      3759 1.99997E+01 6.11711E-02-3.23849E-04 3.68316E-02 5.62954E-14-2.40727E-13
 -1      3760 1.99988E+01 7.23281E-02 2.16148E-04 4.55894E-02 3.12723E-14-1.68173E-13
 -1      3761 1.99894E+01 8.75071E-02 2.37833E-04 4.68756E-02 7.05664E-14-2.73824E-13
 -1      3762 2.00037E+01 4.32621E-02-2.34006E-04 2.38327E-02-5.34957E-15-1.24393E-13
 -1      3763 2.00035E+01 5.17506E-02 1.77369E-04 3.02522E-02 5.99236E-14-2.54770E-13
 -1      3764 1.99977E+01 6.31463E-02 1.55629E-04 3.16915E-02 2.57185E-14-1.79258E-13
 -1      3765 2.00058E+01 2.97876E-02-1.65474E-04 1.44605E-02 9.13920E-14-8.10269E-15
 -1      3766 2.00060E+01 3.61490E-02 1.41755E-04 1.90605E-02 5.74099E-14-1.42642E-13
 -1      3767 2.00028E+01 4.45514E-02 9.78403E-05 2.04721E-02 5.08275E-14-9.82052E-14
 -1      3768 2.00066E+01 1.98131E-02-1.13934E-04 7.87807E-03-1.28158E-14-9.55715E-15
 -1      3769 2.00071E+01 2.45008E-02 1.10655E-04 1.10877E-02 3.03823E-14 9.86499E-15
 -1      3770 2.00056E+01 3.05720E-02 5.78110E-05 1.23756E-02 4.22043E-14-1.81121E-13
 -1      3771 2.00067E+01 1.25647E-02-7.57822E-05 3.40057E-03-8.37734E-14 6.99995E-14
 -1      3772 2.00072E+01 1.59531E-02 8.44856E-05 5.56732E-03 2.92261E-14 4.59191E-14
 -1      3773 2.00069E+01 2.02376E-02 3.06249E-05 6.68895E-03 1.54240E-14-1.06519E-13
 -1      3774 2.00063E+01 7.41034E-03-4.80505E-05 4.79378E-04-8.36092E-14 3.27676E-14
 -1      3775 2.00068E+01 9.80437E-03 6.31001E-05 1.87944E-03-7.56696E-14 2.50113E-14
 -1      3776 2.00072E+01 1.27420E-02 1.26544E-05 2.82411E-03 3.95153E-14 1.22894E-13
 -1      3777 2.00056E+01 3.84058E-03-2.83203E-05-1.31659E-03-7.57092E-14-8.78364E-14
 -1      3778 2.00061E+01 5.48518E-03 4.60515E-05-4.67728E-04-3.96836E-14-3.94099E-14
 -1      3779 2.00069E+01 7.42567E-03 1.22783E-06 3.07517E-04 6.07584E-15 1.25894E-13
 -1      3780 2.00048E+01 1.45039E-03-1.46458E-05-2.31967E-03 7.19525E-14-2.58087E-13
 -1      3781 2.00053E+01 2.53971E-03 3.27578E-05-1.85687E-03-9.60255E-14-2.17629E-13
 -1      3782 2.00063E+01 3.75661E-03-5.61712E-06-1.23412E-03 2.72587E-14-6.75674E-14
 -1      3783 2.00040E+01-7.79633E-05-5.48252E-06-2.78117E-03-2.84235E-14-2.69833E-14
 -1      3784 2.00045E+01 6.07840E-04 2.26069E-05-2.58023E-03 1.27067E-13-2.44720E-13
 -1      3785 2.00055E+01 1.31175E-03-9.31493E-06-2.08915E-03 3.46805E-14-3.06275E-13
 -1      3786 2.00033E+01-9.90322E-04 3.79240E-07-2.88735E-03-1.52488E-13-8.93427E-14
 -1      3787 2.00036E+01-5.91049E-04 1.50160E-05-2.85670E-03-1.53410E-13-4.15316E-15
 -1      3788 2.00046E+01-2.40643E-04-1.09069E-05-2.47586E-03-1.01239E-13-2.31410E-13
 -1      3789 2.00026E+01-1.47413E-03 3.88605E-06-2.77316E-03 1.10764E-13 1.25517E-13
 -1      3790 2.00029E+01-1.27254E-03 9.46136E-06-2.84679E-03-6.23986E-14-5.41592E-14
 -1      3791 2.00038E+01-1.15703E-03-1.11381E-05-2.55597E-03-1.07746E-13-2.51295E-13
 -1      3792 2.00020E+01-1.67032E-03 5.74767E-06-2.53401E-03 2.35016E-13 2.18446E-13
 -1      3793 2.00022E+01-1.59984E-03 5.49370E-06-2.66555E-03 2.69607E-13 2.42220E-13
 -1      3794 2.00030E+01-1.63265E-03-1.05214E-05-2.44665E-03 6.26479E-14 3.01574E-15
 -1      3795 2.00015E+01-1.68374E-03 6.42192E-06-2.23521E-03 3.92282E-13 1.85160E-13
 -1      3796 2.00017E+01-1.69495E-03 2.73257E-06-2.39323E-03 3.26688E-13 2.53541E-13
 -1      3797 2.00024E+01-1.81426E-03-9.48074E-06-2.23078E-03 3.34603E-13 1.52367E-13
 -1      3798 2.00011E+01-1.59075E-03 6.07159E-06-1.91873E-03 3.92832E-13 2.17987E-13
 -1      3799 2.00012E+01-1.64817E-03 8.47603E-07-2.08313E-03 4.03296E-13 1.79309E-13
 -1      3800 2.00018E+01-1.81108E-03-8.30135E-06-1.96482E-03 3.20240E-13 1.88360E-13
 -1      3801 2.00007E+01-1.44853E-03 6.25186E-06-1.60804E-03 1.04391E-13 8.42401E-14
 -1      3802 2.00008E+01-1.52405E-03-5.70569E-07-1.76851E-03 3.58093E-13 4.82036E-14
 -1      3803 2.00013E+01-1.70157E-03-6.15170E-06-1.68505E-03 3.62565E-13 3.22749E-13
 -1      3804 1.54516E+01-4.93841E-01 1.03145E-01 3.88328E+00-4.26052E-13 1.91017E-13
 -1      3805 1.49579E+01 5.71680E-02 2.16807E-02 3.19623E+00-3.02033E-13 2.54654E-13
 -1      3806 1.86937E+01 1.05677E+00-8.16799E-03 9.09415E-01 3.20757E-14 1.18806E-13
 -1      3807 1.85148E+01 1.11387E+00-1.50122E-03 1.00852E+00-6.56853E-15 8.34123E-14
 -1      3808 2.36628E+01-2.69405E+00 6.61500E-02-1.15607E+00 2.91074E-13-7.99073E-13
 -1      3809 1.90587E+01 9.25350E-01-5.91289E-03 7.58647E-01-4.65819E-14 1.21832E-13
 -1      3810 1.89221E+01 9.95313E-01-1.43146E-03 8.41232E-01 4.10908E-14 8.35066E-14
 -1      3811 1.86046E+01 1.11035E+00 9.61828E-03 7.07681E-01 3.16098E-14 6.28367E-14
 -1      3812 2.11644E+01-2.44617E+00 6.96117E-02-3.00828E+00 4.25870E-13-4.28376E-13
 -1      3813 2.23232E+01-2.91076E+00-6.43757E-02-2.24452E+00 3.64782E-13-7.04123E-13
 -1      3814 2.02345E+01-1.89212E+00 1.19632E-02-2.89972E+00 4.01462E-13-3.03780E-13
 -1      3815 1.72931E+01-9.14010E-01 2.88590E-02 3.80783E+00-3.84972E-13-2.83662E-14
 -1      3816 2.00005E+01-1.30358E-03 3.34441E-06-1.20588E-03 3.67177E-14 2.46272E-14
 -1      3817 2.25713E+01-2.51649E+00 1.58001E-03-1.62013E+00 3.08813E-13-6.63945E-13
 -1      3818 2.00010E+01-1.58543E-03-3.83464E-06 1.16640E-03 5.20612E-14 1.44062E-13
 -1      3819 1.50655E+01 3.53591E-01 5.59657E-02-2.82978E+00 2.24701E-13 3.21861E-13
 -1      3820 1.63463E+01-5.60790E-01-5.33612E-02-3.45889E+00 3.58405E-13 1.56371E-13
 -1      3821 1.93293E+01 7.85890E-01-4.43728E-03 6.29070E-01 3.35568E-14 1.01222E-14
 -1      3822 1.92285E+01 8.56866E-01-1.13557E-03 7.00548E-01-2.54714E-14 9.54302E-14
 -1      3823 1.92685E+01 8.12995E-01 5.17863E-03 5.11072E-01 5.53167E-14 7.31474E-14
 -1      3824 1.33525E+01 1.21079E+00 2.58944E-02-8.60363E-01 5.50788E-14 4.27755E-13
 -1      3825 1.38730E+01 7.97446E-01-1.61045E-02-2.04719E+00 1.68431E-13 3.18457E-13
 -1      3826 1.58072E+01 2.93411E-01 1.84489E-02 2.86210E+00-2.75895E-13 1.44065E-13
 -1      3827 1.45528E+01 8.11688E-01 7.87515E-02 2.37729E+00-2.17460E-13 2.69257E-13
 -1      3828 1.45143E+01 1.02123E+00-2.65119E-03 1.72327E+00-1.33383E-13 2.95085E-13
 -1      3829 1.61086E+01 6.77823E-01-2.11776E-02 2.39651E+00-1.74131E-13 8.76348E-14
 -1      3830 1.97773E+01 4.25877E-01-2.12871E-03 3.29257E-01-1.29269E-13-1.21750E-13
 -1      3831 1.97421E+01 4.77229E-01-2.01471E-05 3.74931E-01 5.56131E-14-1.28993E-13
 -1      3832 1.96334E+01 5.48802E-01 2.79444E-03 3.46664E-01 8.98149E-14 1.22722E-14
 -1      3833 1.76383E+01-5.71316E-01 2.68553E-02-3.04517E+00 2.79851E-13 6.42190E-14
 -1      3834 2.19576E+01-2.18767E+00 3.48112E-02-1.84291E+00 2.86745E-13-6.16897E-13
 -1      3835 2.00014E+01-1.78410E-03-3.20022E-06-7.74377E-04 1.92916E-13-2.36040E-14
 -1      3836 2.00011E+01-1.65901E-03 4.26202E-06-8.39389E-04 8.53487E-14-4.53374E-14
 -1      3837 2.00010E+01-1.58793E-03 1.76907E-06-9.99780E-04 1.54906E-13 1.18609E-14
 -1      3838 2.00014E+01-1.79490E-03 1.36827E-06-1.17531E-04-3.68087E-14 3.28402E-13
 -1      3839 2.00016E+01-1.87467E-03-3.76351E-06-2.77310E-04 6.28139E-14 3.10286E-13
 -1      3840 2.00014E+01-1.79312E-03 2.37409E-06 1.24224E-04-1.45185E-13 5.05134E-13
 -1      3841 2.00006E+01-1.37960E-03 9.02687E-07-1.34348E-03 4.33303E-14 6.78991E-14
 -1      3842 2.11246E+01-2.14296E+00-2.25441E-02-2.40753E+00 3.45843E-13-5.18630E-13
 -1      3843 1.67543E+01 8.88338E-01 8.59393E-03 2.06153E+00-1.62536E-13 1.53636E-14
 -1      3844 1.60109E+01 1.08358E+00 3.31114E-02 1.82305E+00-1.28670E-13 9.09359E-14
 -1      3845 1.70431E+01 1.03143E+00-2.43352E-02 1.77738E+00-5.99260E-14-1.80919E-14
 -1      3846 1.52387E+01 7.02617E-01 3.11122E-02-2.09494E+00 1.89617E-13 2.47730E-13
 -1      3847 2.00009E+01-1.54804E-03-2.77008E-06-1.27838E-03 1.04887E-13 2.22966E-13
 -1      3848 1.42423E+01 1.30727E+00-3.13380E-03 5.99264E-01-3.60831E-14 3.38687E-13
 -1      3849 1.36826E+01 1.36637E+00 4.27264E-02-1.67302E-01-3.04596E-15 4.52768E-13
 -1      3850 1.45809E+01 1.30426E+00 2.06797E-02-5.36433E-01 6.02816E-14 3.37961E-13
 -1      3851 2.00012E+01-1.67359E-03 3.56444E-06 9.71885E-04-1.04548E-13 1.60816E-13
 -1      3852 1.82089E+01 1.15442E+00-1.13167E-02 1.09383E+00 1.09430E-14 1.30020E-13
 -1      3853 1.79826E+01 1.18405E+00 1.25205E-03 1.22092E+00 6.07875E-14 8.70950E-14
 -1      3854 1.80938E+01 1.24059E+00 1.28803E-02 8.29862E-01 1.29706E-14 8.54065E-14
 -1      3855 1.89852E+01 9.61488E-01 6.98269E-03 6.04703E-01-3.77226E-15 6.62259E-14
 -1      3856 1.97464E+01 4.40354E-01 2.02927E-03 2.77446E-01-7.71171E-14-1.10399E-13
 -1      3857 1.94297E+01-6.52235E-01-1.20145E-02-2.06386E+00 1.98290E-13-3.51175E-13
 -1      3858 1.92369E+01-3.17609E-01-1.49047E-03-1.84789E+00 1.23124E-13-3.24170E-13
 -1      3859 1.92327E+01-9.00558E-02 9.62260E-03-1.61775E+00 9.09129E-14-2.51278E-13
 -1      3860 1.91276E+01 9.18244E-02-2.67759E-03-1.44941E+00 1.24511E-13-1.79655E-13
 -1      3861 1.87925E+01-5.66134E-02-7.48810E-03-1.81574E+00 1.68364E-13-1.66649E-13
 -1      3862 1.91762E+01 2.40996E-01 8.23606E-03-1.25648E+00 8.67057E-14-1.97038E-13
 -1      3863 1.91394E+01 3.45324E-01-3.36422E-03-1.11562E+00 6.28084E-14-1.64001E-13
 -1      3864 1.88215E+01 3.07723E-01-2.49329E-03-1.36294E+00 1.06572E-13-1.89258E-13
 -1      3865 1.92157E+01 4.26792E-01 5.56140E-03-9.67566E-01-2.37203E-14-1.95770E-13
 -1      3866 1.92200E+01 4.77778E-01-3.53910E-03-8.53734E-01-2.24148E-14-2.21423E-13
 -1      3867 1.89432E+01 5.01286E-01-1.26802E-04-1.01362E+00-4.79333E-15-2.49480E-13
 -1      3868 1.93038E+01 5.13584E-01 3.66075E-03-7.41023E-01-7.66441E-14-2.43203E-13
 -1      3869 1.93300E+01 5.27965E-01-3.23867E-03-6.50584E-01-1.30591E-13-3.13861E-13
 -1      3870 1.90950E+01 5.88263E-01 1.12398E-03-7.53446E-01-4.69827E-14-2.95165E-13
 -1      3871 1.94111E+01 5.33096E-01 2.36498E-03-5.65543E-01-1.30284E-13-2.41273E-13
 -1      3872 1.94467E+01 5.24049E-01-2.80359E-03-4.94206E-01-5.27777E-15-1.74559E-13
 -1      3873 1.92513E+01 6.03725E-01 1.66002E-03-5.58799E-01-4.59885E-14-2.19650E-13
 -1      3874 1.95201E+01 5.10059E-01 1.49405E-03-4.30143E-01 3.39340E-14-1.61015E-13
 -1      3875 1.95575E+01 4.87238E-01-2.36435E-03-3.74008E-01 8.37853E-14-1.28770E-13
 -1      3876 1.93979E+01 5.74597E-01 1.77030E-03-4.14104E-01 3.65780E-14-1.01320E-13
 -1      3877 1.96211E+01 4.62463E-01 9.33404E-04-3.25720E-01 5.57663E-14-1.33466E-13
 -1      3878 1.96563E+01 4.32680E-01-1.95989E-03-2.81621E-01 5.05117E-14-8.47182E-14
 -1      3879 1.95279E+01 5.20040E-01 1.69531E-03-3.06308E-01 8.58064E-14-9.28915E-14
 -1      3880 1.97096E+01 4.02977E-01 5.75735E-04-2.45235E-01 7.23225E-14-7.10188E-14
 -1      3881 1.97404E+01 3.70910E-01-1.60110E-03-2.10675E-01 3.27740E-14-6.07576E-14
 -1      3882 1.96389E+01 4.53252E-01 1.52670E-03-2.25896E-01 9.04714E-14-1.80226E-13
 -1      3883 1.97838E+01 3.40210E-01 3.52219E-04-1.83284E-01 9.54786E-15-3.32962E-14
 -1      3884 1.98095E+01 3.08891E-01-1.29004E-03-1.56299E-01 1.02125E-13-4.69064E-14
 -1      3885 1.97307E+01 3.83243E-01 1.31587E-03-1.65862E-01 3.87955E-14-4.18150E-14
 -1      3886 1.98440E+01 2.79662E-01 2.15987E-04-1.35720E-01 1.10986E-13-1.59300E-13
 -1      3887 1.98646E+01 2.50890E-01-1.02521E-03-1.14763E-01 1.15281E-13-1.13204E-13
 -1      3888 1.98046E+01 3.15810E-01 1.09543E-03-1.21032E-01 5.44424E-14-2.14711E-13
 -1      3889 1.98913E+01 2.24527E-01 1.35115E-04-9.93526E-02 4.01469E-14-1.42968E-13
 -1      3890 1.99073E+01 1.99224E-01-8.03371E-04-8.31891E-02 9.85953E-14-7.42928E-14
 -1      3891 1.98624E+01 2.54355E-01 8.85275E-04-8.75798E-02 8.27783E-14-3.43588E-13
 -1      3892 1.99275E+01 1.76373E-01 8.82977E-05-7.17062E-02 6.49040E-14-1.53070E-13
 -1      3893 1.99395E+01 1.54858E-01-6.20385E-04-5.93483E-02 8.25373E-14-1.73540E-13
 -1      3894 1.99067E+01 2.00565E-01 6.96490E-04-6.26734E-02 2.86023E-14-1.19962E-13
 -1      3895 1.99544E+01 1.35664E-01 6.16983E-05-5.08504E-02 8.99357E-14-2.01227E-13
 -1      3896 1.99631E+01 1.17872E-01-4.71709E-04-4.15007E-02 9.08202E-14-2.49236E-13
 -1      3897 1.99397E+01 1.54957E-01 5.34113E-04-4.42027E-02 4.14003E-14-1.91696E-13
 -1      3898 1.99738E+01 1.02169E-01 4.66102E-05-3.52687E-02 1.42713E-13-2.58135E-13
 -1      3899 1.99798E+01 8.78076E-02-3.52711E-04-2.82821E-02 1.42858E-13-2.95356E-13
 -1      3900 1.99638E+01 1.17301E-01 3.99209E-04-3.05874E-02 1.10674E-13-3.32371E-13
 -1      3901 1.99873E+01 7.52571E-02 3.77553E-05-2.37650E-02 9.57610E-14-1.68469E-13
 -1      3902 1.99914E+01 6.39153E-02-2.58894E-04-1.86199E-02 8.72554E-14-2.55084E-13
 -1      3903 1.99807E+01 8.69242E-02 2.90389E-04-2.06356E-02 2.19032E-13-3.00374E-13
 -1      3904 1.99964E+01 5.40985E-02 3.20764E-05-1.53942E-02 3.59862E-14-2.02854E-13
 -1      3905 1.99989E+01 4.53264E-02-1.86064E-04-1.16701E-02-2.37920E-14-2.54909E-13
 -1      3906 1.99922E+01 6.29369E-02 2.04910E-04-1.34429E-02 3.57926E-14-1.57984E-13
 -1      3907 2.00021E+01 3.78064E-02 2.79038E-05-9.40983E-03-1.48096E-13-2.40886E-13
 -1      3908 2.00036E+01 3.11605E-02-1.30426E-04-6.76987E-03-1.44001E-13-2.57437E-13
 -1      3909 1.99997E+01 4.43763E-02 1.39434E-04-8.31990E-03-1.10592E-13-2.28925E-13
 -1      3910 2.00054E+01 2.55199E-02 2.43992E-05-5.22449E-03-1.53045E-13-1.96341E-13
 -1      3911 2.00061E+01 2.05916E-02-8.86403E-05-3.40073E-03-1.13896E-13-2.62414E-13
 -1      3912 2.00042E+01 3.03027E-02 9.05207E-05-4.73942E-03-1.69419E-13-1.00126E-13
 -1      3913 2.00071E+01 1.64540E-02 2.11954E-05-2.37830E-03-5.26398E-14-2.55076E-13
 -1      3914 2.00073E+01 1.28833E-02-5.78370E-05-1.15976E-03-2.11630E-14-3.42430E-13
 -1      3915 2.00067E+01 1.98531E-02 5.49319E-05-2.29831E-03-1.29454E-13-1.02358E-13
 -1      3916 2.00076E+01 9.92229E-03 1.81730E-05-5.14029E-04 8.50122E-14-3.14701E-13
 -1      3917 2.00075E+01 7.40285E-03-3.56016E-05 2.63629E-04 2.05151E-13-2.22372E-13
 -1      3918 2.00078E+01 1.22693E-02 2.97886E-05-6.88878E-04 5.00037E-14-1.96409E-13
 -1      3919 2.00075E+01 5.34422E-03 1.53275E-05 6.43162E-04 3.33183E-13-1.92244E-13
 -1      3920 2.00071E+01 3.62249E-03-1.99414E-05 1.10632E-03 3.38868E-13-9.04956E-14
 -1      3921 2.00079E+01 6.90629E-03 1.26367E-05 3.22628E-04 2.95860E-13-1.93522E-13
 -1      3922 2.00069E+01 2.24177E-03 1.26956E-05 1.30232E-03 2.00000E-13-8.74757E-14
 -1      3923 2.00064E+01 1.11270E-03-9.24228E-06 1.54682E-03 2.34192E-14 2.30528E-14
 -1      3924 2.00074E+01 3.23034E-03 1.45242E-06 9.12467E-04 3.06769E-13-2.62216E-13
 -1      3925 2.00060E+01 2.30208E-04 1.03167E-05 1.62030E-03 3.41300E-14 7.75003E-14
 -1      3926 2.00056E+01-4.68571E-04-2.21998E-06 1.71765E-03 1.66504E-13 2.02065E-13
 -1      3927 2.00067E+01 8.09583E-04-5.38850E-06 1.21224E-03 1.15429E-13 6.67016E-14
 -1      3928 2.00051E+01-9.93799E-04 8.21655E-06 1.71293E-03 1.23187E-14 4.34117E-14
 -1      3929 2.00047E+01-1.38837E-03 2.13434E-06 1.71551E-03-1.05305E-14 1.33255E-13
 -1      3930 2.00057E+01-6.98168E-04-9.15640E-06 1.31891E-03 6.46125E-14-7.73734E-14
 -1      3931 2.00042E+01-1.66485E-03 6.40694E-06 1.66412E-03-2.72806E-14 7.78957E-14
 -1      3932 2.00038E+01-1.85130E-03 4.65302E-06 1.60948E-03-1.30704E-13 8.16650E-14
 -1      3933 2.00048E+01-1.55892E-03-1.07986E-05 1.30275E-03 2.78604E-14-9.60229E-14
 -1      3934 2.00034E+01-1.96120E-03 4.89514E-06 1.53359E-03-2.13723E-13 1.53835E-13
 -1      3935 2.00030E+01-2.01211E-03 5.84031E-06 1.44799E-03-2.85537E-13 3.13946E-13
 -1      3936 2.00039E+01-1.97544E-03-1.09137E-05 1.21375E-03-3.16425E-14 1.21619E-13
 -1      3937 2.00026E+01-2.01610E-03 3.66224E-06 1.36169E-03-2.86965E-13 3.42133E-13
 -1      3938 2.00023E+01-1.98365E-03 5.92078E-06 1.26312E-03-2.85837E-13 4.30396E-13
 -1      3939 2.00031E+01-2.10075E-03-1.01436E-05 1.08713E-03-1.70733E-13 2.79108E-13
 -1      3940 2.00020E+01-1.92849E-03 2.01598E-06 1.17603E-03-3.34378E-13 5.59401E-13
 -1      3941 2.00017E+01-1.85267E-03 5.41379E-06 1.07415E-03-2.57889E-13 4.58401E-13
 -1      3942 2.00023E+01-2.04659E-03-8.26458E-06 9.46361E-04-3.15707E-13 5.26870E-13
 -1      3943 1.72442E+01 2.91574E-02 5.05321E-02-2.62487E+00 2.07850E-13 4.65463E-14
 -1      3944 1.83788E+01-7.71956E-01-3.98531E-02-2.80553E+00 2.28082E-13-4.96296E-14
 -1      3945 1.98696E+01 2.67740E-01-1.09654E-03 1.31723E-01-3.87131E-14 1.69592E-14
 -1      3946 1.98453E+01 3.03717E-01-2.04399E-04 1.52987E-01-1.19226E-13-1.38752E-14
 -1      3947 1.98060E+01 3.42584E-01-1.37695E-03 1.70311E-01-1.06335E-13-3.83681E-14
 -1      3948 1.97716E+01 3.85819E-01-4.26665E-04 1.95592E-01-1.04876E-13-4.42788E-14
 -1      3949 1.98002E+01 3.44107E-01 1.49254E-03 1.32029E-01-1.65238E-13 9.30657E-15
 -1      3950 1.99476E+01 1.56598E-01-6.69444E-04 7.34947E-02 1.01970E-13 7.34554E-15
 -1      3951 1.99361E+01 1.80333E-01 1.59788E-05 8.74621E-02 1.26411E-13 8.89789E-14
 -1      3952 1.99700E+01 1.17003E-01-5.11556E-04 5.28495E-02 8.69032E-14-7.24758E-14
 -1      3953 1.99623E+01 1.35858E-01 5.87464E-05 6.37972E-02 1.28625E-13 8.83426E-15
 -1      3954 1.99453E+01 1.57318E-01 5.67218E-04 5.81605E-02 1.11201E-13-4.66624E-15
 -1      3955 1.99852E+01 8.58960E-02-3.84415E-04 3.68780E-02 1.40645E-13-1.16397E-13
 -1      3956 1.99803E+01 1.00661E-01 7.69622E-05 4.52790E-02 1.02993E-13-4.29839E-14
 -1      3957 1.99686E+01 1.17419E-01 3.99895E-04 4.19420E-02 1.46187E-13-1.25618E-14
 -1      3958 1.99951E+01 6.18082E-02-2.83574E-04 2.47991E-02 9.42687E-15-3.00102E-14
 -1      3959 1.99921E+01 7.32020E-02 8.03631E-05 3.11099E-02 7.69764E-14-5.95555E-14
 -1      3960 1.99844E+01 8.60602E-02 2.76425E-04 2.93066E-02 4.36380E-14 4.61582E-14
 -1      3961 2.00013E+01 4.34329E-02-2.04845E-04 1.58751E-02 1.77304E-13-3.08901E-13
 -1      3962 1.99997E+01 5.20918E-02 7.54868E-05 2.05107E-02 1.55471E-13-1.30696E-13
 -1      3963 1.99949E+01 6.17809E-02 1.86213E-04 1.97055E-02 9.19683E-14-1.19234E-13
 -1      3964 2.00049E+01 2.96380E-02-1.44378E-04 9.44631E-03 1.92400E-14-1.91831E-13
 -1      3965 2.00041E+01 3.61111E-02 6.65565E-05 1.27684E-02 4.18251E-14-1.72545E-13
 -1      3966 2.00014E+01 4.32732E-02 1.21109E-04 1.25908E-02 5.93142E-14-9.25804E-14
 -1      3967 2.00068E+01 1.94626E-02-9.87361E-05 4.94682E-03-2.05521E-14-7.31244E-14
 -1      3968 2.00065E+01 2.42144E-02 5.61811E-05 7.26034E-03 1.74549E-14-1.16020E-13
 -1      3969 2.00052E+01 2.93971E-02 7.48446E-05 7.45741E-03-3.76268E-14 1.18157E-14
 -1      3970 2.00074E+01 1.21054E-02-6.49244E-05 1.90622E-03 6.95571E-15 6.70859E-14
 -1      3971 2.00075E+01 1.55217E-02 4.58802E-05 3.46146E-03 2.91825E-15 1.96160E-14
 -1      3972 2.00071E+01 1.91812E-02 4.26034E-05 3.86328E-03-2.69602E-14 2.46735E-14
 -1      3973 2.00073E+01 6.90928E-03-4.03950E-05-5.60292E-05 4.38718E-14 2.16610E-14
 -1      3974 2.00076E+01 9.30556E-03 3.64631E-05 9.41447E-04 8.67715E-14 4.36442E-14
 -1      3975 2.00078E+01 1.18137E-02 2.06991E-05 1.43661E-03 5.08549E-14 8.37309E-14
 -1      3976 2.00067E+01 3.34377E-03-2.30256E-05-1.24058E-03 1.66075E-13-1.21077E-13
 -1      3977 2.00072E+01 4.97370E-03 2.82923E-05-6.43586E-04 1.20046E-13 1.56200E-14
 -1      3978 2.00077E+01 6.62804E-03 6.32060E-06-1.25780E-04 1.21419E-13-9.73867E-14
 -1      3979 2.00060E+01 9.86858E-04-1.10829E-05-1.87975E-03-4.48770E-14-1.76073E-13
 -1      3980 2.00064E+01 2.05154E-03 2.14623E-05-1.56241E-03 8.85664E-14-1.40697E-13
 -1      3981 2.00071E+01 3.08590E-03-2.66197E-06-1.06460E-03 1.19983E-13-8.61221E-14
 -1      3982 2.00051E+01-4.92085E-04-3.17808E-06-2.14924E-03-2.66950E-14-3.24851E-13
 -1      3983 2.00055E+01 1.64334E-04 1.59181E-05-2.02062E-03-2.12782E-14-1.29406E-13
 -1      3984 2.00063E+01 7.59263E-04-7.84988E-06-1.56641E-03-8.30516E-15-1.47049E-13
 -1      3985 2.00042E+01-1.34831E-03 1.77177E-06-2.17892E-03-1.45875E-13-1.09938E-13
 -1      3986 2.00046E+01-9.79412E-04 1.15304E-05-2.17208E-03-1.79270E-13-1.46118E-13
 -1      3987 2.00054E+01-6.86978E-04-1.04353E-05-1.77249E-03-1.23613E-13-1.99986E-13
 -1      3988 2.00034E+01-1.77567E-03 4.66866E-06-2.06237E-03 7.61838E-14 7.22144E-14
 -1      3989 2.00038E+01-1.60305E-03 8.13574E-06-2.12921E-03-3.96543E-14 3.01084E-14
 -1      3990 2.00045E+01-1.51122E-03-1.12806E-05-1.78723E-03-1.99397E-13-7.71365E-14
 -1      3991 2.00027E+01-1.91915E-03 6.10700E-06-1.86560E-03 2.03083E-13 2.14731E-13
 -1      3992 2.00030E+01-1.87472E-03 5.53755E-06-1.97232E-03 1.32557E-13 1.51433E-13
 -1      3993 2.00036E+01-1.90884E-03-1.08842E-05-1.68547E-03 5.37986E-14 1.46941E-13
 -1      3994 2.00020E+01-1.88817E-03 6.01560E-06-1.63368E-03 3.44769E-13 1.88189E-13
 -1      3995 2.00023E+01-1.92053E-03 3.42578E-06-1.75809E-03 3.42034E-13 2.47422E-13
 -1      3996 2.00028E+01-2.02612E-03-9.75548E-06-1.52243E-03 1.83858E-13 2.55332E-13
 -1      3997 2.00015E+01-1.75774E-03 6.01884E-06-1.39596E-03 2.26476E-13 3.08676E-13
 -1      3998 2.00017E+01-1.83295E-03 1.68532E-06-1.52237E-03 3.97374E-13 3.25052E-13
 -1      3999 2.00021E+01-1.97190E-03-7.63185E-06-1.33332E-03 3.04326E-13 1.84688E-14
 -1      4000 2.00022E+01-1.54756E+00 1.43829E-02-2.71245E+00 3.55717E-13-2.73182E-13
 -1      4001 1.95993E+01 5.37459E-01-2.12154E-03 2.65757E-01 8.06259E-14 9.00619E-14
 -1      4002 1.95326E+01 5.96266E-01-1.25080E-03 2.98463E-01 1.38805E-13 8.40330E-14
 -1      4003 1.99153E+01 2.06287E-01-8.62753E-04 9.95735E-02 1.06225E-13 6.58289E-14
 -1      4004 1.98984E+01 2.35732E-01-6.53123E-05 1.17009E-01 1.18183E-13 7.77650E-14
 -1      4005 1.98650E+01 2.69082E-01 1.09274E-03 1.03079E-01 2.24564E-15-4.04998E-14
 -1      4006 1.99119E+01 2.07333E-01 7.92172E-04 7.84405E-02 1.34874E-13 9.27884E-14
 -1      4007 1.76775E+01 1.16327E+00-1.77320E-02 1.37112E+00-1.36080E-14 6.50366E-14
 -1      4008 1.74163E+01 1.13635E+00 5.47501E-03 1.55653E+00-1.86707E-14 2.96245E-14
 -1      4009 1.69058E+01 1.26827E+00 1.96157E-02 1.34461E+00-4.53523E-14 1.42883E-13
 -1      4010 1.75041E+01 1.30623E+00 1.27896E-02 1.02258E+00 1.81305E-14 1.74462E-13
 -1      4011 1.89324E+01 9.36176E-01-4.29707E-03 4.30501E-01 4.86617E-14 6.82601E-14
 -1      4012 1.87646E+01 1.00924E+00-4.04020E-03 4.68303E-01 3.59591E-14 1.25871E-13
 -1      4013 1.52457E+01 1.06674E+00 2.29341E-02-1.42164E+00 1.66043E-13 2.33097E-13
 -1      4014 1.59912E+01 4.95918E-01-4.03384E-02-2.18620E+00 2.13883E-13 1.76453E-13
 -1      4015 1.94382E+01 6.58191E-01-2.63482E-03 3.20220E-01 1.16596E-13 6.00449E-14
 -1      4016 1.93467E+01 7.24152E-01-1.92249E-03 3.55593E-01 4.89866E-14 5.98474E-14
 -1      4017 1.94325E+01 6.58602E-01 3.67030E-03 2.34428E-01 5.88524E-14 7.19684E-14
 -1      4018 1.92218E+01 7.92583E-01-3.31767E-03 3.76143E-01 2.99256E-14 1.11467E-13
 -1      4019 1.90974E+01 8.63876E-01-2.81072E-03 4.13123E-01 7.68211E-14 8.02489E-14
 -1      4020 1.92199E+01 7.92199E-01 4.94430E-03 2.65307E-01 9.33020E-14 1.41374E-13
 -1      4021 2.00012E+01-1.67003E-03-2.00564E-06-1.26005E-03 1.04204E-13 1.75125E-13
 -1      4022 1.97185E+01 4.32208E-01-1.71313E-03 2.15245E-01-6.21043E-14 5.95923E-14
 -1      4023 1.96703E+01 4.83196E-01-7.63593E-04 2.44460E-01 4.53057E-14 1.61538E-13
 -1      4024 1.95924E+01 5.38575E-01 2.72804E-03 1.99652E-01 7.55810E-14 1.62324E-13
 -1      4025 1.97118E+01 4.33689E-01 2.02314E-03 1.64691E-01-1.39118E-14 1.12242E-13
 -1      4026 2.00015E+01-1.80682E-03-2.28491E-06 8.94298E-04-3.23433E-13 4.33712E-13
 -1      4027 2.00013E+01-1.73498E-03 8.85600E-07 6.09768E-04-1.85564E-13 4.12823E-13
 -1      4028 2.00014E+01-1.77565E-03 3.52550E-06 3.82992E-04-3.26839E-13 6.90343E-13
 -1      4029 2.00018E+01-1.91922E-03 1.14618E-06 6.96859E-04-4.81897E-13 6.05877E-13
 -1      4030 1.54042E+01 1.14541E+00 4.16936E-03 1.51463E+00-1.09278E-13 2.25005E-13
 -1      4031 1.47546E+01 1.33466E+00 4.26881E-02 1.04804E+00-6.53188E-14 3.00161E-13
 -1      4032 1.51327E+01 1.37238E+00-6.32185E-03 5.34519E-01-2.96885E-14 2.91594E-13
 -1      4033 1.59810E+01 1.24532E+00-2.07585E-02 1.27564E+00-8.34059E-14 2.07381E-13
 -1      4034 1.85463E+01 1.08058E+00-5.88185E-03 4.79966E-01 1.59368E-14 1.15837E-13
 -1      4035 1.83195E+01 1.15219E+00-5.40392E-03 5.18910E-01 2.89416E-14 1.22023E-13
 -1      4036 1.85658E+01 1.08215E+00 9.09830E-03 2.95392E-01 2.99723E-14 2.19106E-13
 -1      4037 1.96645E+01-1.11704E+00 2.60390E-02-2.50485E+00 2.53454E-13-2.74082E-13
 -1      4038 2.00016E+01-1.87966E-03-3.29990E-06 2.63047E-04-2.95716E-13 4.95903E-13
 -1      4039 1.70079E+01 3.89661E-01 1.05097E-02-2.06777E+00 2.00219E-13 1.41363E-13
 -1      4040 1.89381E+01 9.35682E-01 6.67532E-03 2.87485E-01 5.28566E-14 1.83422E-13
 -1      4041 2.00015E+01-1.81540E-03-4.14646E-06-1.10973E-03 2.78270E-13-8.94776E-14
 -1      4042 2.00019E+01-1.96399E-03 3.71424E-06-1.60095E-04 1.66488E-14 1.94412E-13
 -1      4043 2.00018E+01-1.93872E-03 2.14449E-06-4.37944E-04 1.13291E-13 1.19233E-13
 -1      4044 1.80281E+01 1.20987E+00-9.24269E-03 5.26092E-01 3.90632E-14 1.16636E-13
 -1      4045 1.77198E+01 1.26604E+00-9.99377E-03 5.63111E-01 5.81612E-14 1.76450E-13
 -1      4046 1.80812E+01 1.22755E+00 1.69922E-02 2.86378E-01 2.06387E-14 1.83894E-13
 -1      4047 1.52120E+01 1.25797E+00 1.28403E-02-9.16755E-01 1.13554E-13 2.21054E-13
 -1      4048 1.60506E+01 1.12837E+00 1.16052E-02-1.02748E+00 1.13305E-13 1.51931E-13
 -1      4049 1.53798E+01 1.34977E+00-6.10929E-03-2.92006E-01 1.17718E-14 2.19107E-13
 -1      4050 1.91180E+01-6.29049E-01 1.79682E-03-2.26526E+00 1.81405E-13-2.64841E-13
 -1      4051 2.00018E+01-1.91940E-03 5.47163E-07-6.72522E-04 1.90801E-13 5.95387E-14
 -1      4052 2.00017E+01-1.85748E-03 1.68623E-06-8.90889E-04 2.43713E-13-1.43213E-13
 -1      4053 2.00019E+01-1.94537E-03 1.38942E-06-1.00602E-03 2.55703E-13-1.31935E-13
 -1      4054 2.00021E+01-2.01676E-03-1.51174E-07-5.51571E-04 1.14975E-13 2.77999E-15
 -1      4055 1.84842E+01 4.44471E-01 6.12580E-03-1.36813E+00 7.86197E-14-1.33265E-13
 -1      4056 1.85156E+01 5.45452E-01-8.16197E-03-1.16845E+00 5.81311E-15-1.78867E-13
 -1      4057 1.86901E+01 6.14665E-01 5.00227E-03-9.88862E-01-2.62325E-14-1.60132E-13
 -1      4058 1.87458E+01 6.52469E-01-9.26858E-03-8.47057E-01-2.01589E-14-1.67494E-13
 -1      4059 1.83642E+01 7.36844E-01 6.74369E-03-9.83308E-01 2.16085E-14-7.53176E-14
 -1      4060 1.89054E+01 6.82288E-01 3.99078E-03-7.12191E-01-1.56906E-15-1.50869E-13
 -1      4061 1.89726E+01 6.82913E-01-6.72584E-03-6.07935E-01-1.05013E-14-1.23067E-13
 -1      4062 1.86660E+01 8.02564E-01 1.17912E-02-6.79403E-01-2.02476E-14-1.15040E-13
 -1      4063 1.91067E+01 6.80175E-01 2.13725E-03-5.13727E-01-4.16274E-15-1.16201E-13
 -1      4064 1.91762E+01 6.59336E-01-5.07653E-03-4.36936E-01 1.02755E-14-5.44959E-14
 -1      4065 1.89373E+01 7.81374E-01 1.06563E-02-4.70772E-01-1.22303E-14-9.77616E-14
 -1      4066 1.92877E+01 6.37658E-01 1.16421E-03-3.70260E-01 3.31389E-14-1.83728E-14
 -1      4067 1.93526E+01 6.04537E-01-3.80861E-03-3.13487E-01 7.59290E-14-1.87260E-14
 -1      4068 1.91637E+01 7.22185E-01 8.31173E-03-3.24452E-01 3.07298E-14 1.19154E-14
 -1      4069 1.94440E+01 5.72068E-01 5.33160E-04-2.66550E-01 8.55429E-14 1.72524E-15
 -1      4070 1.95016E+01 5.33224E-01-2.85437E-03-2.24456E-01 9.44976E-14-2.16536E-14
 -1      4071 1.93528E+01 6.42506E-01 6.38165E-03-2.22351E-01 7.89773E-14 1.50466E-13
 -1      4072 1.95753E+01 4.96054E-01 1.49248E-04-1.91610E-01 9.29021E-14-3.81627E-14
 -1      4073 1.96243E+01 4.56006E-01-2.13272E-03-1.60323E-01 8.52506E-14-3.97348E-14
 -1      4074 1.95082E+01 5.54492E-01 4.87115E-03-1.51706E-01 9.28365E-14 1.09432E-13
 -1      4075 1.96828E+01 4.18273E-01-6.53841E-05-1.37447E-01 6.91385E-14-6.27841E-14
 -1      4076 1.97232E+01 3.79957E-01-1.58621E-03-1.14140E-01 6.62717E-14-2.28094E-14
 -1      4077 1.96336E+01 4.66445E-01 3.69507E-03-1.03125E-01 8.06813E-14 3.46605E-14
 -1      4078 1.97688E+01 3.44280E-01-1.69692E-04-9.82679E-02-5.14961E-14-5.82457E-14
 -1      4079 1.98012E+01 3.09430E-01-1.17267E-03-8.08757E-02-6.45417E-14-1.70306E-13
 -1      4080 1.97328E+01 3.83665E-01 2.78021E-03-6.98627E-02-4.25707E-14 4.44470E-14
 -1      4081 1.98361E+01 2.77299E-01-2.05726E-04-6.99006E-02 6.18140E-14-3.10528E-13
 -1      4082 1.98614E+01 2.46774E-01-8.60401E-04-5.69145E-02 7.15387E-14-2.91558E-13
 -1      4083 1.98100E+01 3.09191E-01 2.07043E-03-4.71535E-02-1.30293E-13-3.70564E-15
 -1      4084 1.98877E+01 2.18876E-01-2.02377E-04-4.93500E-02 9.56184E-14-1.96096E-13
 -1      4085 1.99068E+01 1.92935E-01-6.25374E-04-3.96634E-02 6.10057E-14-2.07584E-13
 -1      4086 1.98689E+01 2.44426E-01 1.52254E-03-3.16732E-02 9.27313E-14-1.93129E-13
 -1      4087 1.99262E+01 1.69415E-01-1.78771E-04-3.44694E-02 4.59532E-14-1.28594E-13
 -1      4088 1.99404E+01 1.47921E-01-4.49278E-04-2.72653E-02 1.07981E-13-1.24018E-13
 -1      4089 1.99130E+01 1.89646E-01 1.10276E-03-2.11266E-02 1.09364E-13-6.72973E-14
 -1      4090 1.99544E+01 1.28581E-01-1.47005E-04-2.37169E-02 2.47827E-14-6.40218E-14
 -1      4091 1.99646E+01 1.11167E-01-3.18110E-04-1.83869E-02 7.67620E-14-5.62015E-14
 -1      4092 1.99452E+01 1.44402E-01 7.84145E-04-1.39425E-02 5.61427E-14 7.44407E-14
 -1      4093 1.99744E+01 9.56131E-02-1.14259E-04-1.59808E-02 2.78523E-13-1.35499E-13
 -1      4094 1.99815E+01 8.17902E-02-2.21135E-04-1.20676E-02 2.83228E-13-1.10298E-13
 -1      4095 1.99682E+01 1.07819E-01 5.45050E-04-9.05188E-03 1.01656E-13 1.95911E-13
 -1      4096 1.99882E+01 6.95354E-02-8.44036E-05-1.04539E-02 1.85749E-13-1.68613E-13
 -1      4097 1.99930E+01 5.87760E-02-1.50104E-04-7.61120E-03 7.56414E-14-1.23538E-13
 -1      4098 1.99842E+01 7.88163E-02 3.68002E-04-5.72915E-03 2.40578E-13-9.16587E-14
 -1      4099 1.99973E+01 4.93094E-02-5.91777E-05-6.54678E-03-1.02145E-13-1.24927E-13
 -1      4100 2.00003E+01 4.10952E-02-9.86788E-05-4.51017E-03-1.35348E-13-7.21988E-14
 -1      4101 1.99948E+01 5.62542E-02 2.38935E-04-3.48208E-03 7.98409E-14-1.20007E-13
 -1      4102 2.00030E+01 3.39260E-02-3.90258E-05-3.82526E-03-1.39998E-13-2.77186E-15
 -1      4103 2.00047E+01 2.77788E-02-6.19824E-05-2.39225E-03-1.54322E-13 5.74630E-14
 -1      4104 2.00016E+01 3.90304E-02 1.46579E-04-1.97563E-03-1.43707E-13-1.64161E-13
 -1      4105 2.00062E+01 2.24606E-02-2.36685E-05-1.96807E-03-1.61261E-13 2.83914E-14
 -1      4106 2.00071E+01 1.79577E-02-3.62704E-05-9.83190E-04-6.90948E-14 3.41481E-14
 -1      4107 2.00055E+01 2.61359E-02 8.19730E-05-9.80444E-04-1.25398E-13-1.26605E-13
 -1      4108 2.00077E+01 1.41004E-02-1.24745E-05-7.36365E-04 2.68179E-14 1.28344E-13
 -1      4109 2.00080E+01 1.08802E-02-1.86736E-05-8.04303E-05 1.29884E-13 1.27540E-13
 -1      4110 2.00075E+01 1.66829E-02 3.80550E-05-3.38325E-04 1.13601E-13 8.15781E-14
 -1      4111 2.00082E+01 8.15374E-03-4.69082E-06 4.76382E-05 2.03610E-13-2.32171E-15
 -1      4112 2.00081E+01 5.91504E-03-7.00311E-06 4.65613E-04 3.51145E-13 3.54375E-14
 -1      4113 2.00083E+01 9.91404E-03 9.31857E-06 6.07076E-05 1.29950E-13 2.40209E-13
 -1      4114 2.00079E+01 4.04675E-03 4.24448E-07 5.16064E-04 2.81464E-13-1.67805E-13
 -1      4115 2.00076E+01 2.54439E-03 4.01779E-07 7.65057E-04 1.29963E-13-1.73779E-13
 -1      4116 2.00082E+01 5.19973E-03-8.48029E-06 2.93687E-04 1.61198E-13 5.99792E-14
 -1      4117 2.00072E+01 1.31422E-03 3.53373E-06 7.66639E-04 9.56522E-14-1.73878E-13
 -1      4118 2.00067E+01 3.52656E-04 4.79219E-06 8.98426E-04 1.22624E-13-8.53321E-14
 -1      4119 2.00075E+01 2.02778E-03-1.85686E-05 4.14858E-04 1.61129E-13-1.02134E-13
 -1      4120 2.00063E+01-4.13563E-04 5.19040E-06 8.71057E-04 1.03231E-13-1.89026E-13
 -1      4121 2.00058E+01-9.87360E-04 7.10397E-06 9.23994E-04 1.12732E-13-1.16656E-13
 -1      4122 2.00067E+01-1.01851E-05-2.33537E-05 4.62524E-04-7.15701E-15-1.00370E-13
 -1      4123 2.00053E+01-1.42502E-03 5.82431E-06 8.81254E-04 9.21504E-14-2.31097E-13
 -1      4124 2.00048E+01-1.72862E-03 8.01649E-06 8.83224E-04 3.70233E-14-1.10656E-13
 -1      4125 2.00057E+01-1.23376E-03-2.45358E-05 4.63786E-04-3.20407E-14-2.13496E-13
 -1      4126 2.00043E+01-1.94131E-03 5.70225E-06 8.33914E-04-1.13516E-14-1.05090E-13
 -1      4127 2.00039E+01-2.06308E-03 7.91480E-06 8.04526E-04 6.53181E-14-6.01824E-14
 -1      4128 2.00047E+01-1.88804E-03-2.28513E-05 4.38083E-04 3.29159E-15-3.16062E-13
 -1      4129 2.00035E+01-2.12928E-03 4.81401E-06 7.54230E-04 4.75473E-14-4.68302E-14
 -1      4130 2.00031E+01-2.13609E-03 5.45250E-06 7.05063E-04-1.62032E-13 7.44922E-14
 -1      4131 2.00038E+01-2.15166E-03-1.54816E-05 4.00709E-04 6.23688E-14-2.64178E-13
 -1      4132 2.00027E+01-2.10631E-03 4.30450E-06 6.65393E-04-2.82586E-13 2.08164E-13
 -1      4133 2.00023E+01-2.05225E-03 9.12096E-07 6.13020E-04-3.35918E-13 2.38282E-13
 -1      4134 2.00029E+01-2.16932E-03-9.66139E-06 3.52493E-04-1.12426E-13-1.42744E-13
 -1      4135 1.68186E+01 7.94518E-01 1.55211E-02-1.58938E+00 1.35197E-13 8.83977E-14
 -1      4136 1.76276E+01 2.09045E-01-2.99931E-02-2.02185E+00 1.59715E-13 8.94172E-14
 -1      4137 1.99669E+01 1.11873E-01-4.57321E-04 2.92674E-02 1.24536E-13 5.52476E-14
 -1      4138 1.99578E+01 1.30190E-01-3.37895E-05 3.59628E-02 1.70623E-13 3.49593E-14
 -1      4139 1.99430E+01 1.50191E-01-5.98082E-04 4.05907E-02 1.00334E-13 6.40978E-14
 -1      4140 1.99295E+01 1.73210E-01-1.10193E-04 4.89507E-02 1.30056E-13 6.56708E-14
 -1      4141 1.99461E+01 1.47796E-01 9.63395E-04 2.76257E-02 1.48543E-13 1.74447E-13
 -1      4142 1.99942E+01 5.84570E-02-2.50971E-04 1.36019E-02 8.01902E-14 2.70875E-14
 -1      4143 1.99904E+01 6.95103E-02 3.21755E-05 1.75681E-02 1.16454E-13 7.50442E-14
 -1      4144 2.00011E+01 4.07246E-02-1.79315E-04 8.57597E-03-1.22088E-13 1.43226E-13
 -1      4145 1.99988E+01 4.91009E-02 4.15646E-05 1.15142E-02-2.52448E-14 3.09517E-14
 -1      4146 1.99954E+01 5.70078E-02 2.85805E-04 9.46240E-03-4.82511E-14-4.20007E-14
 -1      4147 2.00051E+01 2.74615E-02-1.24387E-04 4.95695E-03-3.37517E-14 8.65376E-14
 -1      4148 2.00039E+01 3.36969E-02 4.32348E-05 7.07607E-03-1.18896E-13 9.72168E-14
 -1      4149 2.00019E+01 3.95160E-02 1.74145E-04 5.98674E-03-1.29636E-13-3.36435E-14
 -1      4150 2.00072E+01 1.77286E-02-8.31464E-05 2.43523E-03-6.85609E-14 1.95092E-13
 -1      4151 2.00067E+01 2.22794E-02 4.06461E-05 3.91810E-03 5.48376E-16 1.90240E-13
 -1      4152 2.00057E+01 2.64657E-02 9.67769E-05 3.46806E-03-8.86203E-14 1.10047E-13
 -1      4153 2.00079E+01 1.07393E-02-5.28609E-05 7.46507E-04 1.97816E-13-1.02328E-13
 -1      4154 2.00080E+01 1.39863E-02 3.59803E-05 1.74708E-03 1.30839E-13 1.41332E-14
 -1      4155 2.00076E+01 1.69193E-02 4.46105E-05 1.70546E-03 1.30344E-13 3.42008E-14
 -1      4156 2.00079E+01 5.84710E-03-3.11611E-05-3.26426E-04 7.15862E-14-1.63111E-13
 -1      4157 2.00082E+01 8.10187E-03 3.05642E-05 3.17332E-04 1.25104E-13-9.13353E-14
 -1      4158 2.00082E+01 1.00912E-02 1.07148E-05 5.21810E-04 1.42274E-13-2.68127E-13
 -1      4159 2.00073E+01 2.53026E-03-1.60537E-05-9.56704E-04 8.38475E-14-1.05539E-13
 -1      4160 2.00078E+01 4.04333E-03 2.51659E-05-5.70199E-04 1.02502E-13-1.78005E-13
 -1      4161 2.00081E+01 5.33626E-03-1.01525E-05-2.31436E-04 7.23769E-14-1.70889E-13
 -1      4162 2.00065E+01 3.74286E-04-5.90133E-06-1.27864E-03-3.86349E-14-1.95667E-13
 -1      4163 2.00070E+01 1.34381E-03 2.01966E-05-1.07230E-03 2.21714E-14-1.12720E-13
 -1      4164 2.00074E+01 2.13431E-03-2.19160E-05-6.74188E-04 1.51671E-13-1.69090E-13
 -1      4165 2.00056E+01-9.44729E-04 6.19191E-07-1.39383E-03-2.24261E-13-1.45178E-13
 -1      4166 2.00061E+01-3.64531E-04 1.58478E-05-1.30935E-03-4.28371E-14-2.13037E-13
 -1      4167 2.00066E+01 7.28141E-05-2.74755E-05-9.00248E-04-1.19912E-13-2.54047E-13
 -1      4168 2.00046E+01-1.67602E-03 4.56903E-06-1.37713E-03-2.27547E-13-2.05643E-13
 -1      4169 2.00051E+01-1.36702E-03 1.21849E-05-1.37156E-03-2.82525E-13-2.97496E-13
 -1      4170 2.00056E+01-1.16993E-03-2.89245E-05-9.81031E-04-1.55838E-13-2.19939E-13
 -1      4171 2.00037E+01-2.00898E-03 6.18881E-06-1.28186E-03 1.02962E-13-1.05515E-13
 -1      4172 2.00041E+01-1.88208E-03 9.14861E-06-1.32456E-03-9.72962E-14-2.19982E-13
 -1      4173 2.00046E+01-1.84090E-03-2.76369E-05-9.69692E-04-1.63383E-13-4.93621E-13
 -1      4174 2.00029E+01-2.07808E-03 6.51553E-06-1.14325E-03 1.39285E-13-1.17714E-13
 -1      4175 2.00033E+01-2.06914E-03 7.58104E-06-1.21114E-03 1.80772E-13-1.34395E-13
 -1      4176 2.00037E+01-2.12641E-03-2.27180E-05-9.03002E-04 6.17553E-14-4.25739E-13
 -1      4177 2.00022E+01-2.00723E-03 3.61125E-06-1.03510E-03 2.95246E-13-2.15323E-13
 -1      4178 2.00026E+01-2.05931E-03 3.44989E-06-1.12033E-03 2.36016E-13-2.17747E-13
 -1      4179 2.00029E+01-2.13968E-03-8.56487E-06-8.29405E-04 2.04366E-13-4.00967E-13
 -1      4180 2.00023E+01-2.05921E-03-5.19935E-06-8.10743E-04 2.02069E-13-6.22482E-14
 -1      4181 2.00021E+01-2.01868E-03-4.22746E-07 1.61089E-04-1.17710E-13 1.52491E-13
 -1      4182 2.00024E+01-2.08944E-03-9.97687E-07-8.18706E-06-1.43692E-13 2.17437E-14
 -1      4183 1.86141E+01 1.01265E+00-3.45911E-03 1.16304E-01 3.52686E-14 2.18383E-13
 -1      4184 1.83896E+01 1.07291E+00-8.62494E-03 1.00151E-01-2.37028E-14 1.96484E-13
 -1      4185 2.00021E+01-2.00278E-03-4.05612E-07 4.27098E-04-2.77056E-13 3.22793E-13
 -1      4186 1.94361E+01 6.25346E-01-2.05686E-03 1.46143E-01 5.72109E-14 7.67602E-14
 -1      4187 1.93415E+01 6.86065E-01-2.82801E-03 1.56690E-01 1.09947E-13 8.51459E-14
 -1      4188 1.89647E+01 8.80192E-01-2.90237E-03 1.46494E-01 6.82257E-14 1.66607E-13
 -1      4189 1.87957E+01 9.45653E-01-6.04973E-03 1.42562E-01 7.17902E-14 2.42202E-13
 -1      4190 1.87070E+01 9.91921E-01 1.50529E-02-3.07026E-02 5.05960E-14 7.29681E-14
 -1      4191 1.99833E+01 8.17563E-02-3.42574E-04 2.03799E-02 1.74593E-14 7.49854E-14
 -1      4192 1.99773E+01 9.61003E-02 9.73265E-06 2.55991E-02 4.77365E-14 8.31185E-14
 -1      4193 1.99692E+01 1.09842E-01 6.62862E-04 2.01160E-02 9.01369E-14 1.27576E-13
 -1      4194 1.99849E+01 8.00353E-02 4.43597E-04 1.41067E-02 4.53515E-14-1.10844E-14
 -1      4195 1.92320E+01 7.49044E-01-2.43432E-03 1.53792E-01 1.44041E-13 8.07821E-14
 -1      4196 1.91053E+01 8.13736E-01-4.18600E-03 1.58856E-01 1.62930E-13 1.34751E-13
 -1      4197 1.92734E+01 7.37310E-01 8.82392E-03 6.39427E-02 1.69577E-13 1.78043E-13
 -1      4198 1.97965E+01 3.28899E-01-1.19299E-03 9.01610E-02-1.46689E-13 2.15520E-14
 -1      4199 1.97587E+01 3.70144E-01-7.43096E-04 1.03373E-01-1.13381E-13 5.50220E-14
 -1      4200 1.84854E+01-1.92418E-01 2.74719E-02-2.25472E+00 1.82198E-13-1.03381E-13
 -1      4201 1.81331E+01 1.97221E-01 9.07309E-03-1.87571E+00 1.95952E-13-8.36570E-15
 -1      4202 2.00027E+01-2.14205E-03 6.16999E-06 3.39775E-05-1.54791E-13-1.02557E-13
 -1      4203 2.00025E+01-2.11358E-03-7.23370E-06-3.08488E-04-1.82105E-14-1.25347E-13
 -1      4204 2.00024E+01-2.08553E-03-3.05018E-07-5.47395E-04 2.03825E-14-8.79144E-14
 -1      4205 2.00031E+01-2.17431E-03 5.58178E-06 5.28427E-05 1.03433E-14-1.42019E-13
 -1      4206 1.66489E+01 9.83376E-01 3.96067E-03-1.26636E+00 6.62243E-14 1.14363E-13
 -1      4207 1.73470E+01 8.35017E-01 9.48692E-03-1.26395E+00-9.69927E-16 6.89234E-14
 -1      4208 1.65642E+01 1.17694E+00-6.29237E-04-7.96351E-01 8.98153E-15 1.09827E-13
 -1      4209 1.95914E+01 5.12997E-01-1.73517E-03 1.30113E-01 1.07355E-15 1.46296E-13
 -1      4210 1.95211E+01 5.67884E-01-1.86920E-03 1.43323E-01 5.73236E-14 1.14988E-13
 -1      4211 1.94637E+01 6.16422E-01 6.58203E-03 7.54914E-02 9.45262E-16 1.22684E-13
 -1      4212 1.81521E+01 1.13753E+00-4.31864E-03 5.27605E-02-7.09708E-14 1.87918E-13
 -1      4213 1.78441E+01 1.19760E+00-1.05779E-02 3.28327E-02 1.70194E-14 1.50123E-13
 -1      4214 1.82803E+01 1.10010E+00 1.33128E-02-1.44512E-01-3.14200E-14 9.51892E-14
 -1      4215 1.68094E+01 1.32217E+00-1.79060E-02 9.10978E-01-6.24598E-14 2.47446E-13
 -1      4216 1.65005E+01 1.30601E+00 1.75589E-03 1.08615E+00-7.78350E-14 1.85573E-13
 -1      4217 1.60790E+01 1.40769E+00 2.13296E-02 7.83692E-01-6.75718E-14 2.50014E-13
 -1      4218 1.90270E+01 8.64799E-01 1.17618E-02 3.23828E-02 1.90589E-13 8.18819E-14
 -1      4219 1.99132E+01 1.95335E-01 1.37068E-03 3.66355E-02 1.29055E-13 1.98459E-13
 -1      4220 1.99089E+01 1.98176E-01-7.67041E-04 5.45729E-02 1.08925E-13 4.01070E-14
 -1      4221 1.98896E+01 2.26635E-01-2.36452E-04 6.46996E-02 1.19794E-13 5.30254E-14
 -1      4222 1.98615E+01 2.57298E-01-9.65342E-04 7.12207E-02 4.52222E-14 4.37583E-14
 -1      4223 1.98343E+01 2.91882E-01-4.36453E-04 8.30539E-02-7.69733E-14-5.36924E-14
 -1      4224 1.98676E+01 2.53881E-01 1.91756E-03 4.68958E-02 4.18294E-14 5.41233E-14
 -1      4225 1.73856E+01 1.36519E+00 2.14030E-02 2.57787E-01 5.83392E-14 2.88308E-13
 -1      4226 1.73180E+01 1.32767E+00-9.83304E-03 5.81665E-01 2.79685E-14 1.88856E-13
 -1      4227 1.97213E+01 4.08708E-01 3.61300E-03 6.78577E-02-4.62629E-14 1.58121E-13
 -1      4228 1.97087E+01 4.13994E-01-1.44936E-03 1.10416E-01-2.05286E-14 9.50099E-14
 -1      4229 1.96569E+01 4.62160E-01-1.20086E-03 1.24274E-01 4.37232E-14 1.33919E-13
 -1      4230 1.98052E+01 3.24701E-01 2.64649E-03 5.77408E-02-1.02945E-13 7.41568E-14
 -1      4231 1.81405E+01 3.87256E-01-4.29117E-03-1.60296E+00 1.48104E-13-1.59538E-14
 -1      4232 1.78695E+01 6.52824E-01 4.96854E-03-1.37111E+00 5.17551E-14-3.64596E-14
 -1      4233 1.58313E+01 1.38213E+00-4.90364E-04 4.75666E-01-3.67610E-14 2.48554E-13
 -1      4234 1.55342E+01 1.41774E+00 1.94419E-02 4.66259E-02-5.34111E-15 2.84956E-13
 -1      4235 1.60645E+01 1.35051E+00-8.86017E-04-2.62862E-01 3.33722E-14 1.94454E-13
 -1      4236 1.63187E+01 1.38767E+00-5.95838E-03 3.70191E-01-1.40853E-14 1.99497E-13
 -1      4237 1.70338E+01 1.34555E+00-1.30595E-03 6.89681E-01-3.98687E-14 2.28811E-13
 -1      4238 1.80574E+01 8.68769E-01 4.02470E-03-8.77478E-01 8.64499E-15-5.18019E-14
 -1      4239 1.82172E+01 9.00966E-01 2.65733E-04-7.10927E-01-2.42812E-15-6.50304E-14
 -1      4240 2.00052E+01 2.61267E-02-1.03637E-04 8.63244E-04-1.40836E-13-5.49337E-14
 -1      4241 2.00038E+01 3.20746E-02-1.35933E-05 1.73599E-03-1.77885E-13-1.06332E-13
 -1      4242 1.84436E+01 9.19634E-01-4.09590E-03-4.43457E-01-2.11024E-14-6.23279E-14
 -1      4243 1.85914E+01 8.98157E-01-1.19195E-02-3.34220E-01-7.82013E-15-6.98470E-14
 -1      4244 1.87804E+01 8.52486E-01-7.37645E-03-2.79657E-01 9.91843E-14-7.12340E-14
 -1      4245 1.89107E+01 8.21356E-01-9.41287E-03-2.00453E-01 6.46793E-14-3.41301E-14
 -1      4246 1.90586E+01 7.67698E-01-6.27553E-03-1.68389E-01 9.67366E-14 7.98102E-14
 -1      4247 1.91685E+01 7.26973E-01-6.86707E-03-1.13690E-01 1.74753E-13 1.48340E-13
 -1      4248 1.92831E+01 6.70987E-01-4.98399E-03-9.62560E-02 6.12185E-14 2.11493E-13
 -1      4249 1.93737E+01 6.26104E-01-4.90899E-03-5.91818E-02 6.37770E-14 1.97372E-13
 -1      4250 1.94621E+01 5.71689E-01-3.90463E-03-5.11068E-02 7.60633E-14 1.79760E-13
 -1      4251 1.95355E+01 5.26729E-01-3.47275E-03-2.63084E-02 4.54740E-14 9.99647E-14
 -1      4252 1.96030E+01 4.76362E-01-3.03886E-03-2.39802E-02 5.11889E-14 1.09666E-13
 -1      4253 1.96615E+01 4.33987E-01-2.43189E-03-7.58091E-03-6.69797E-15 1.17012E-13
 -1      4254 1.97126E+01 3.89046E-01-2.34713E-03-8.53498E-03-3.92108E-14 1.19512E-13
 -1      4255 1.97584E+01 3.50806E-01-1.68269E-03 2.20174E-03-9.09734E-14 9.77865E-14
 -1      4256 1.97967E+01 3.11865E-01-1.79509E-03-4.06175E-04-1.49273E-13 1.88929E-13
 -1      4257 1.98319E+01 2.78492E-01-1.14719E-03 6.56400E-03-7.16709E-14 1.49837E-13
 -1      4258 1.98601E+01 2.45571E-01-1.35641E-03 3.32833E-03 7.19819E-14 1.44140E-13
 -1      4259 1.98867E+01 2.17232E-01-7.67574E-04 7.82339E-03 1.32936E-13 1.17870E-13
 -1      4260 1.99072E+01 1.89993E-01-1.01042E-03 4.56542E-03 1.55688E-13 1.58693E-13
 -1      4261 1.99268E+01 1.66485E-01-5.01070E-04 7.45096E-03 1.61472E-13 1.95871E-13
 -1      4262 1.99414E+01 1.44380E-01-7.40271E-04 4.49380E-03 1.19901E-13 1.49862E-13
 -1      4263 1.99556E+01 1.25283E-01-3.16145E-04 6.34142E-03 1.28683E-13 2.32255E-13
 -1      4264 1.99658E+01 1.07668E-01-5.31867E-04 3.82739E-03 6.48865E-14 1.81816E-13
 -1      4265 1.99758E+01 9.24490E-02-1.89647E-04 5.00951E-03 7.39117E-14 8.37360E-14
 -1      4266 1.99826E+01 7.86558E-02-3.73275E-04 2.97176E-03 4.07018E-14 1.52545E-14
 -1      4267 1.99894E+01 6.67500E-02-1.04671E-04 3.72836E-03 1.32272E-13-1.02217E-13
 -1      4268 1.99939E+01 5.61363E-02-2.54421E-04 2.13929E-03 7.23749E-14-1.40733E-13
 -1      4269 1.99983E+01 4.69909E-02-4.89405E-05 2.62369E-03-8.76152E-14-1.54071E-13
 -1      4270 2.00010E+01 3.89692E-02-1.66868E-04 1.42632E-03-1.34338E-13-1.21085E-13
 -1      4271 2.00068E+01 2.10317E-02 7.73408E-06 1.06007E-03 4.38424E-14-1.98447E-14
 -1      4272 2.00074E+01 1.67136E-02-5.90262E-05 4.45839E-04 2.31532E-13-1.71651E-13
 -1      4273 2.00081E+01 1.30308E-02 1.95800E-05 5.69256E-04 2.14223E-13-1.54670E-14
 -1      4274 2.00083E+01 9.97128E-03-2.84474E-05 1.54084E-04 1.15397E-13 2.27910E-14
 -1      4275 2.00084E+01 7.37648E-03 2.51573E-05 2.29423E-04 9.69359E-14-3.33103E-14
 -1      4276 2.00082E+01 5.27152E-03-8.26049E-06-3.71154E-05 7.08669E-14-8.25012E-14
 -1      4277 2.00080E+01 3.49946E-03 2.67186E-05 6.61328E-06 1.19594E-13-9.34249E-14
 -1      4278 2.00077E+01 2.10473E-03 4.37719E-06-1.52282E-04 1.26679E-13-1.06874E-13
 -1      4279 2.00073E+01 9.42568E-04 2.58208E-05-1.29292E-04 1.35672E-13-4.89944E-14
 -1      4280 2.00068E+01 6.52301E-05 1.16417E-05-2.12771E-04-6.71381E-15-1.11547E-13
 -1      4281 2.00063E+01-6.54706E-04 2.35055E-05-2.03200E-04-1.31303E-13-7.40434E-14
 -1      4282 2.00058E+01-1.16435E-03 1.51182E-05-2.35961E-04-1.25522E-13-1.49197E-13
 -1      4283 2.00053E+01-1.57185E-03 2.03463E-05-2.34694E-04-6.34057E-14-1.57457E-13
 -1      4284 2.00048E+01-1.82859E-03 1.55982E-05-2.35650E-04-9.65581E-14-2.10778E-13
 -1      4285 2.00043E+01-2.02242E-03 1.59228E-05-2.39118E-04-2.97239E-14-2.14628E-13
 -1      4286 2.00039E+01-2.11860E-03 1.07518E-05-2.24363E-04 8.23467E-14-2.57892E-13
 -1      4287 2.00034E+01-2.16965E-03 8.46433E-06-2.26914E-04 9.32619E-14-1.90152E-13
 -1      4288 1.76652E+01 8.31936E-01-1.12163E-02-1.09195E+00-4.93030E-15-4.59919E-15
 -1      4289 2.00027E+01-2.12866E-03 2.61908E-06-5.55637E-04 6.46244E-14-3.09533E-13
 -1      4290 2.00031E+01-2.17945E-03-6.16968E-06-5.64427E-04 1.30944E-14-3.32361E-13
 -1      4291 1.67482E+01 1.39526E+00 7.11415E-03 4.36918E-01-3.22447E-14 1.61487E-13
 -1      4292 1.96099E+01 5.06182E-01 4.89112E-03 7.49791E-02 2.31708E-14 1.71854E-13
 -1      4293 1.76156E+01 1.11535E+00 1.08511E-02-5.48190E-01-3.07594E-14 7.67424E-14
 -1      4294 1.73634E+01 1.20029E+00-4.00195E-03-3.08628E-01 1.68880E-14 1.45791E-13
 -1      4295 1.69692E+01 1.22875E+00-5.71160E-03-3.86922E-01 2.93639E-14 1.59604E-13
 -1      4296 1.82121E+01 9.44944E-01-9.67302E-03-5.37741E-01-2.42762E-14-7.24894E-14
 -1      4297 1.64583E+01 1.33502E+00-6.15346E-03-1.71464E-01 4.60417E-14 1.48956E-13
 -1      4298 1.66019E+01 1.38677E+00 1.11676E-02 1.53095E-01 1.76497E-15 1.71690E-13
 -1      4299 1.79820E+01 1.06318E+00-4.78270E-03-4.12577E-01-5.95217E-14 6.78043E-14
 -1      4300 1.75695E+01 1.03493E+00-3.46818E-04-7.58718E-01-2.59153E-14 6.30626E-14
 -3
    1PSTEP                         3           1           1          
  100CL  101 1.000000000        4300                     0    1           1
 -4  TOSTRAIN    6    1
 -5  EXX         1    4    1    1
 -5  EYY         1    4    2    2
 -5  EZZ         1    4    3    3
 -5  EXY         1    4    1    2
 -5  EYZ         1    4    2    3
 -5  EZX         1    4    3    1
 -1         1 3.00968E-04-9.29038E-05-7.74160E-05 1.20770E-06-7.81282E-19-7.23443E-18
 -1         2 3.47062E-05-1.04663E-04 1.81923E-05-9.52405E-07 7.52229E-18 9.50371E-19
 -1         3 9.52372E-05-2.85711E-05-2.85713E-05 5.29442E-11-3.18367E-18-3.09243E-18
 -1         4 9.52372E-05-2.85711E-05-2.85713E-05-5.08561E-11 7.05370E-19 6.60209E-19
 -1         5 1.85147E-04-2.67009E-05-5.65093E-05 4.39434E-05-3.12238E-19 3.06192E-17
 -1         6 1.67441E-04 2.98562E-10-5.08329E-05-6.10868E-05-2.20694E-18 3.09997E-17
 -1         7 1.03308E-04-6.04070E-07-4.45505E-05-3.29342E-05-2.97626E-19 4.63266E-18
 -1         8 9.59146E-05 7.17015E-08-4.08796E-05-2.21352E-05-3.33625E-19-2.85687E-18
 -1         9 9.21540E-05-6.91365E-09-3.91232E-05-1.55296E-05-2.63665E-19-6.60404E-18
 -1        10 8.91318E-05-1.13351E-07-3.76532E-05-9.10158E-06-1.15329E-19-8.18625E-18
 -1        11 8.52730E-05-1.76498E-07-3.58933E-05-2.39035E-06-3.20814E-20-8.80800E-18
 -1        12 7.97672E-05-1.62160E-07-3.35658E-05 4.07528E-06 4.09752E-20-8.88668E-18
 -1        13 7.22086E-05-4.23900E-08-3.05735E-05 9.42658E-06 1.04662E-19-8.94178E-18
 -1        14 6.35862E-05 1.76567E-07-2.73423E-05 1.21110E-05 1.41190E-19-9.03313E-18
 -1        15 5.61160E-05 4.25942E-07-2.46775E-05 1.11622E-05 1.44737E-19-9.13320E-18
 -1        16 5.26569E-05 5.90596E-07-2.35428E-05 7.05430E-06 1.23862E-19-9.11775E-18
 -1        17 5.52005E-05 5.80179E-07-2.45914E-05 1.95683E-06 1.02915E-19-8.71147E-18
 -1        18 6.33616E-05 4.28022E-07-2.77124E-05-1.34275E-06 1.17420E-19-7.86550E-18
 -1        19 7.54834E-05 2.19128E-07-3.24159E-05-1.14236E-06 1.87088E-19-6.35399E-18
 -1        20 8.92253E-05 5.33968E-08-3.79203E-05 2.94705E-06 2.67345E-19-3.84338E-18
 -1        21 1.03641E-04-8.77950E-08-4.38014E-05 1.07668E-05 3.42095E-19 7.28544E-19
 -1        22 1.20920E-04-9.26585E-07-5.02754E-05 2.44229E-05 7.39036E-20 9.82059E-18
 -1        23 1.30729E-04-4.40876E-05-4.08511E-05-5.00681E-06-1.51502E-18 2.34465E-17
 -1        24 1.06751E-04-3.18529E-05-3.32221E-05 3.94684E-07-3.71778E-19 1.71293E-17
 -1        25 9.97263E-05-3.00387E-05-3.00239E-05 2.34082E-07-1.70715E-19 1.07573E-17
 -1        26 9.40280E-05-2.83018E-05-2.81281E-05-6.61628E-08-6.08338E-20 6.75829E-18
 -1        27 8.87311E-05-2.66885E-05-2.66036E-05-1.78834E-07-2.95155E-20 4.08481E-18
 -1        28 8.43461E-05-2.53542E-05-2.53913E-05-1.63671E-07-3.62495E-20 2.33915E-18
 -1        29 8.18711E-05-2.46010E-05-2.47199E-05-3.95844E-08-5.22547E-20 8.96135E-19
 -1        30 8.20396E-05-2.46438E-05-2.47786E-05 1.34882E-07 4.32318E-20-9.44799E-19
 -1        31 8.48365E-05-2.54747E-05-2.55644E-05 2.81902E-07-7.65903E-20-2.21057E-18
 -1        32 8.94500E-05-2.68488E-05-2.68642E-05 3.45907E-07-2.57209E-19-3.68180E-18
 -1        33 9.46438E-05-2.83956E-05-2.83465E-05 3.19553E-07 2.30960E-19-4.26599E-18
 -1        34 9.92712E-05-2.97733E-05-2.96915E-05 2.34753E-07 3.68757E-21-4.15400E-18
 -1        35 1.02622E-04-3.07713E-05-3.06891E-05 1.34091E-07 9.27650E-20-4.49459E-18
 -1        36 1.04492E-04-3.13294E-05-3.12662E-05 4.83922E-08-8.79996E-20-4.78620E-18
 -1        37 1.05047E-04-3.14969E-05-3.14581E-05-9.65234E-09-2.46107E-20-5.51284E-18
 -1        38 1.04631E-04-3.13761E-05-3.13583E-05-4.08088E-08-2.17905E-19-6.43714E-18
 -1        39 1.03619E-04-3.10773E-05-3.10737E-05-5.19464E-08 9.62402E-20-7.86600E-18
 -1        40 1.02324E-04-3.06933E-05-3.06976E-05-5.07765E-08-2.93587E-19-8.45222E-18
 -1        41 1.00971E-04-3.02912E-05-3.02986E-05-4.34439E-08 3.60921E-19-8.76223E-18
 -1        42 9.97025E-05-2.99130E-05-2.99208E-05-3.40095E-08-4.33740E-19-8.22029E-18
 -1        43 9.85922E-05-2.95814E-05-2.95882E-05-2.47780E-08-2.71198E-19-7.54364E-18
 -1        44 9.76687E-05-2.93051E-05-2.93103E-05-1.68388E-08 2.81216E-20-5.86709E-18
 -1        45 9.69312E-05-2.90839E-05-2.90876E-05-1.05450E-08-1.74536E-19-5.69493E-18
 -1        46 9.63624E-05-2.89130E-05-2.89153E-05-5.85527E-09-1.46399E-19-6.41816E-18
 -1        47 9.59380E-05-2.87851E-05-2.87865E-05-2.54905E-09 1.50647E-19-6.01964E-18
 -1        48 9.56317E-05-2.86927E-05-2.86933E-05-3.50194E-10 4.85670E-20-5.45393E-18
 -1        49 9.54187E-05-2.86282E-05-2.86283E-05 1.00961E-09 5.16089E-19-4.34444E-18
 -1        50 9.52768E-05-2.85851E-05-2.85849E-05 1.76261E-09-6.29780E-19-4.73811E-18
 -1        51 9.51879E-05-2.85580E-05-2.85576E-05 2.09637E-09-3.60617E-21-4.45644E-18
 -1        52 9.51371E-05-2.85423E-05-2.85419E-05 2.15501E-09 1.23110E-19-4.99776E-18
 -1        53 9.51126E-05-2.85347E-05-2.85342E-05 2.04488E-09-2.58542E-19-5.19595E-18
 -1        54 9.51059E-05-2.85324E-05-2.85319E-05 1.84150E-09-4.19879E-19-5.30626E-18
 -1        55 9.51102E-05-2.85335E-05-2.85331E-05 1.59644E-09-5.93960E-19-5.41551E-18
 -1        56 9.51210E-05-2.85366E-05-2.85363E-05 1.34325E-09 1.19375E-20-5.73854E-18
 -1        57 9.51351E-05-2.85407E-05-2.85404E-05 1.10244E-09 1.96242E-20-5.78921E-18
 -1        58 9.51501E-05-2.85451E-05-2.85449E-05 8.85360E-10 6.46307E-19-5.30818E-18
 -1        59 9.51649E-05-2.85495E-05-2.85493E-05 6.97146E-10 2.44311E-19-6.52563E-18
 -1        60 9.51785E-05-2.85536E-05-2.85534E-05 5.38929E-10 3.25753E-20-6.86796E-18
 -1        61 9.51906E-05-2.85572E-05-2.85571E-05 4.09396E-10 6.14483E-19-5.39407E-18
 -1        62 9.52010E-05-2.85603E-05-2.85602E-05 3.05886E-10-6.57194E-19-6.30234E-18
 -1        63 9.52097E-05-2.85629E-05-2.85628E-05 2.25111E-10-1.88318E-19-9.18994E-18
 -1        64 9.52169E-05-2.85650E-05-2.85650E-05 1.63614E-10 2.34828E-19-1.03596E-17
 -1        65 9.52228E-05-2.85668E-05-2.85668E-05 1.17987E-10 3.85820E-19-7.53645E-18
 -1        66 9.52274E-05-2.85682E-05-2.85682E-05 8.48618E-11-2.86734E-19-5.17134E-18
 -1        67 9.52311E-05-2.85693E-05-2.85693E-05 6.06083E-11 9.06083E-19-2.74306E-18
 -1        68 9.52339E-05-2.85701E-05-2.85701E-05 4.06919E-11-1.38957E-19-2.32685E-18
 -1        69 9.52358E-05-2.85707E-05-2.85707E-05 1.77078E-11-1.04161E-19-2.17794E-18
 -1        70 9.52370E-05-2.85711E-05-2.85711E-05-2.52056E-11 4.89277E-19 1.12726E-18
 -1        71 9.52373E-05-2.85712E-05-2.85712E-05-8.09438E-11-1.74335E-19 2.27219E-18
 -1        72 1.48091E-04-4.44944E-05-4.84060E-05-3.79204E-06 4.13379E-19 2.78644E-17
 -1        73 1.44019E-04-4.29605E-05-4.40437E-05-8.76539E-07 3.39846E-19 2.14066E-17
 -1        74 1.40785E-04-4.22791E-05-4.19121E-05-3.60541E-07 1.68576E-19 1.69812E-17
 -1        75 1.33302E-04-4.01822E-05-3.93454E-05 1.85225E-07-1.12166E-21 1.43120E-17
 -1        76 1.19417E-04-3.60473E-05-3.54266E-05 1.01212E-06 5.44459E-20 1.25144E-17
 -1        77 1.01693E-04-3.05670E-05-3.08772E-05 1.61948E-06-6.06952E-20 1.05230E-17
 -1        78 8.80543E-05-2.61807E-05-2.75649E-05 1.25376E-06-1.94665E-19 9.34987E-18
 -1        79 8.66213E-05-2.56131E-05-2.71952E-05-4.41338E-08 1.86923E-19 5.24062E-18
 -1        80 9.78600E-05-2.91286E-05-2.98703E-05-1.20769E-06-1.46416E-19 1.66294E-18
 -1        81 1.14055E-04-3.42198E-05-3.39512E-05-1.44689E-06 2.15881E-19 7.25801E-20
 -1        82 1.26659E-04-3.81229E-05-3.73923E-05-9.68170E-07 2.10587E-19-8.76626E-19
 -1        83 1.32051E-04-3.97388E-05-3.90846E-05-3.71457E-07 1.52689E-19-7.92611E-19
 -1        84 1.31211E-04-3.94352E-05-3.90654E-05 2.30374E-08 2.25087E-19-6.08087E-19
 -1        85 1.26777E-04-3.80593E-05-3.79351E-05 1.96005E-07-1.97257E-19-1.75542E-18
 -1        86 1.21044E-04-3.63153E-05-3.63297E-05 2.31245E-07 8.43692E-20-2.80401E-18
 -1        87 1.15410E-04-3.46170E-05-3.46850E-05 2.04823E-07-4.81392E-20-4.87281E-18
 -1        88 1.10511E-04-3.31472E-05-3.32232E-05 1.61003E-07-1.03046E-19-3.67016E-18
 -1        89 1.06528E-04-3.19544E-05-3.20202E-05 1.18960E-07 3.43206E-19-5.06007E-18
 -1        90 1.03418E-04-3.10236E-05-3.10747E-05 8.47802E-08-3.63965E-19-4.85126E-18
 -1        91 1.01052E-04-3.03155E-05-3.03533E-05 5.90058E-08-1.09943E-20-2.96149E-18
 -1        92 9.92874E-05-2.97869E-05-2.98142E-05 4.03102E-08-4.58616E-19-1.28279E-18
 -1        93 9.79909E-05-2.93984E-05-2.94177E-05 2.70365E-08 1.36052E-20-5.66704E-19
 -1        94 9.70523E-05-2.91169E-05-2.91305E-05 1.77342E-08 3.82008E-20-3.13911E-18
 -1        95 9.63831E-05-2.89161E-05-2.89255E-05 1.12796E-08-2.54016E-19-3.67804E-18
 -1        96 9.59146E-05-2.87754E-05-2.87819E-05 6.84647E-09 2.79991E-19-1.25269E-18
 -1        97 9.55938E-05-2.86790E-05-2.86834E-05 3.84210E-09-3.03980E-19 3.31084E-19
 -1        98 9.53804E-05-2.86149E-05-2.86178E-05 1.84437E-09 1.10594E-19-6.64756E-19
 -1        99 9.52443E-05-2.85739E-05-2.85757E-05 5.53032E-10-3.04787E-19-2.43745E-18
 -1       100 9.51626E-05-2.85492E-05-2.85504E-05-2.46068E-10 6.99154E-19-2.14957E-18
 -1       101 9.51185E-05-2.85359E-05-2.85365E-05-7.06094E-10-3.82907E-19-4.25138E-18
 -1       102 9.50997E-05-2.85302E-05-2.85305E-05-9.36713E-10 5.65193E-19-6.27995E-18
 -1       103 9.50972E-05-2.85294E-05-2.85294E-05-1.01628E-09 2.21462E-20-4.19656E-18
 -1       104 9.51046E-05-2.85316E-05-2.85315E-05-1.00041E-09 1.18426E-19-1.17033E-18
 -1       105 9.51176E-05-2.85354E-05-2.85352E-05-9.28133E-10 3.78297E-19-1.66634E-18
 -1       106 9.51331E-05-2.85400E-05-2.85398E-05-8.26321E-10-6.17026E-19-2.26851E-18
 -1       107 9.51491E-05-2.85448E-05-2.85446E-05-7.13019E-10 2.50379E-19-8.85360E-19
 -1       108 9.51644E-05-2.85494E-05-2.85492E-05-5.99879E-10 2.30019E-19-2.78546E-18
 -1       109 9.51783E-05-2.85535E-05-2.85533E-05-4.94002E-10 9.50640E-19-3.42499E-18
 -1       110 9.51906E-05-2.85572E-05-2.85570E-05-3.99313E-10-1.34467E-19-5.45010E-18
 -1       111 9.52011E-05-2.85603E-05-2.85602E-05-3.17589E-10-1.60435E-19-1.39388E-18
 -1       112 9.52098E-05-2.85630E-05-2.85628E-05-2.49205E-10-4.63123E-19 2.76384E-18
 -1       113 9.52171E-05-2.85651E-05-2.85650E-05-1.93681E-10 7.06030E-19 5.21778E-18
 -1       114 9.52229E-05-2.85669E-05-2.85668E-05-1.50055E-10-5.63206E-19 7.44221E-18
 -1       115 9.52275E-05-2.85683E-05-2.85682E-05-1.17037E-10 7.09528E-19 4.90851E-18
 -1       116 9.52312E-05-2.85694E-05-2.85693E-05-9.27833E-11 1.15917E-18-1.18121E-18
 -1       117 9.52339E-05-2.85702E-05-2.85701E-05-7.44240E-11-6.36669E-19-5.49170E-18
 -1       118 9.52359E-05-2.85708E-05-2.85707E-05-5.65467E-11 6.14031E-19-5.76918E-18
 -1       119 9.52370E-05-2.85711E-05-2.85711E-05-2.06413E-11 2.32295E-20-1.29376E-17
 -1       120 9.52373E-05-2.85712E-05-2.85712E-05 6.07721E-11 9.04947E-19-8.94102E-18
 -1       121 9.52371E-05-2.85710E-05-2.85712E-05 8.92718E-11-6.32402E-18 1.46544E-18
 -1       122 9.52372E-05-2.85713E-05-2.85710E-05 1.60798E-12-5.44415E-18-4.15104E-19
 -1       123 9.52375E-05-2.85725E-05-2.85707E-05-5.35020E-11-5.47380E-18-1.96114E-19
 -1       124 9.52380E-05-2.85741E-05-2.85702E-05-7.80980E-11-8.91400E-18 7.19318E-19
 -1       125 9.52386E-05-2.85759E-05-2.85697E-05-8.00545E-11-9.96842E-18-6.12483E-19
 -1       126 9.52391E-05-2.85776E-05-2.85692E-05-6.79010E-11-8.73309E-18 2.50979E-18
 -1       127 9.52394E-05-2.85788E-05-2.85689E-05-4.47503E-11-4.19105E-18 3.39810E-19
 -1       128 9.52396E-05-2.85795E-05-2.85687E-05-1.54379E-11-7.84791E-18-6.13451E-19
 -1       129 9.52396E-05-2.85795E-05-2.85687E-05 1.58861E-11 1.72745E-18 1.42891E-18
 -1       130 9.52394E-05-2.85788E-05-2.85689E-05 4.50988E-11 3.96587E-18-1.29567E-18
 -1       131 9.52390E-05-2.85775E-05-2.85692E-05 6.87274E-11-4.11027E-18-1.65580E-18
 -1       132 9.52386E-05-2.85759E-05-2.85697E-05 8.01130E-11-6.52925E-18 1.34008E-18
 -1       133 9.52380E-05-2.85741E-05-2.85703E-05 7.74164E-11-4.74975E-18 8.65099E-19
 -1       134 9.52375E-05-2.85724E-05-2.85707E-05 5.91687E-11-3.65951E-18-1.03108E-18
 -1       135 9.52372E-05-2.85713E-05-2.85710E-05-1.79730E-12-3.54317E-18-2.29788E-19
 -1       136 9.52371E-05-2.85710E-05-2.85712E-05-1.47592E-10-2.70827E-18 3.16592E-20
 -1       137 2.46594E-05-8.41101E-05 1.43082E-05-2.32153E-05 2.15849E-17 4.46648E-18
 -1       138 7.96926E-06-3.22235E-05 1.84346E-06-1.68547E-05 3.05563E-17 1.49239E-17
 -1       139 1.11022E-05 1.41418E-05-1.53516E-05 2.20043E-05 3.26887E-17 2.39499E-17
 -1       140 5.96672E-05 2.74001E-05-3.64814E-05 7.95227E-05 2.54745E-17 2.87131E-17
 -1       141 1.54829E-04-4.86463E-06-5.75155E-05 1.17362E-04 1.56557E-17 2.79618E-17
 -1       142 2.64575E-04-6.39387E-05-7.41252E-05 9.70543E-05 4.67255E-18 1.45105E-17
 -1       143 3.20067E-04-9.83685E-05-8.09030E-05 2.31528E-05 3.31163E-19-6.38149E-18
 -1       144 2.95280E-04-8.47341E-05-7.73735E-05-6.02751E-05 5.09466E-18-2.66906E-17
 -1       145 2.08257E-04-3.67453E-05-6.49422E-05-1.05751E-04 1.63613E-17-3.99063E-17
 -1       146 1.09824E-04 7.63297E-06-4.72734E-05-9.67313E-05 2.81583E-17-4.34909E-17
 -1       147 3.25978E-05 2.29100E-05-2.65293E-05-5.02000E-05 3.79479E-17-3.77463E-17
 -1       148 4.50316E-06-3.35513E-06-7.63909E-06 2.61338E-07 3.89635E-17-2.53498E-17
 -1       149 1.14328E-05-4.78630E-05 6.08376E-06 2.34863E-05 2.97620E-17-1.15821E-17
 -1       150 2.49212E-05-7.93429E-05 1.31305E-05 1.56444E-05 1.29782E-17-2.57505E-18
 -1       151 2.62849E-05-7.95043E-05 1.31838E-05-5.21431E-06-8.37207E-18-9.94853E-19
 -1       152 1.32669E-05-4.71907E-05 6.42157E-06-1.63317E-05-2.56973E-17-7.79916E-18
 -1       153 5.22541E-06 1.20101E-06-8.15811E-06 6.05448E-06-3.69366E-17-2.06784E-17
 -1       154 2.39888E-05 2.95685E-05-2.49201E-05 4.89273E-05-3.78967E-17-3.31563E-17
 -1       155 8.39907E-05 2.19393E-05-4.31753E-05 9.40707E-05-3.05139E-17-4.00706E-17
 -1       156 1.73327E-04-1.90715E-05-5.96315E-05 1.08203E-04-1.83486E-17-3.76523E-17
 -1       157 2.60849E-04-6.83871E-05-7.24214E-05 7.52301E-05-6.55228E-18-2.50137E-17
 -1       158 2.74660E-04-7.54815E-05-7.42661E-05-7.05506E-05-2.21706E-18 9.37644E-18
 -1       159 2.00988E-04-3.11680E-05-6.41622E-05-1.10988E-04-9.30307E-18 2.17217E-17
 -1       160 1.13003E-04 1.29927E-05-4.91501E-05-1.07728E-04-1.93740E-17 2.80639E-17
 -1       161 4.31838E-05 3.14457E-05-3.15129E-05-6.90238E-05-2.85819E-17 2.93887E-17
 -1       162 7.96947E-06 1.23895E-05-1.28356E-05-1.75623E-05-3.18196E-17 2.20258E-17
 -1       163 9.23839E-06-3.49399E-05 3.03558E-06 1.59832E-05-2.46952E-17 1.09873E-17
 -1       164 2.55954E-05-8.39247E-05 1.43149E-05 1.99656E-05-9.86200E-18 2.89061E-18
 -1       165 1.08001E-04-1.48240E-05-4.01896E-05-2.57692E-05-4.47157E-18 1.04585E-18
 -1       166 1.01485E-04-1.16756E-05-3.86993E-05-1.95561E-05-3.58298E-18-3.39417E-18
 -1       167 9.81774E-05-1.10237E-05-3.74941E-05-1.36482E-05-2.34668E-18-5.72641E-18
 -1       168 9.51240E-05-1.11960E-05-3.60741E-05-7.41358E-06-1.09121E-18-6.73062E-18
 -1       169 9.04428E-05-1.09176E-05-3.41645E-05-8.52589E-07 3.67599E-20-7.09984E-18
 -1       170 8.26138E-05-9.11613E-06-3.15677E-05 5.60037E-06 1.04241E-18-7.31616E-18
 -1       171 7.14972E-05-5.16399E-06-2.84909E-05 1.05102E-05 1.85315E-18-7.50482E-18
 -1       172 5.91021E-05 3.19877E-07-2.55233E-05 1.22208E-05 2.21013E-18-7.90293E-18
 -1       173 4.97187E-05 5.14787E-06-2.35680E-05 9.95018E-06 2.10289E-18-8.16755E-18
 -1       174 4.80234E-05 6.61873E-06-2.34757E-05 5.05316E-06 1.64652E-18-8.12600E-18
 -1       175 5.55460E-05 3.80914E-06-2.55071E-05 7.61441E-07 1.29705E-18-7.37529E-18
 -1       176 7.01483E-05-1.83621E-06-2.93682E-05-2.85995E-07 1.53076E-18-5.96039E-18
 -1       177 8.76046E-05-7.91632E-06-3.42878E-05 2.75042E-06 2.24399E-18-3.92009E-18
 -1       178 1.05505E-04-1.36304E-05-3.95630E-05 8.87710E-06 3.10195E-18-5.79847E-19
 -1       179 1.25491E-04-2.17837E-05-4.46596E-05 1.63550E-05 3.50997E-18 4.96007E-18
 -1       180 1.45648E-04-3.87199E-05-4.71901E-05 1.49385E-05 2.89409E-18 1.22844E-17
 -1       181 1.17943E-04-3.15675E-05-3.70315E-05-1.49462E-05-4.07989E-18 6.98768E-18
 -1       182 1.09524E-04-3.23839E-05-3.31089E-05-8.13628E-06-3.50212E-18 5.19871E-18
 -1       183 1.03099E-04-3.08277E-05-3.09230E-05-6.25873E-06-2.54094E-18 3.67505E-18
 -1       184 9.82442E-05-2.93600E-05-2.94795E-05-5.55480E-06-1.82193E-18 2.05593E-18
 -1       185 9.42691E-05-2.79088E-05-2.84126E-05-4.48912E-06-1.32717E-18 8.83466E-19
 -1       186 9.14937E-05-2.68013E-05-2.77060E-05-2.55710E-06-1.11777E-18-9.88076E-20
 -1       187 9.03678E-05-2.63484E-05-2.74216E-05 2.23514E-08-1.16516E-18-9.91698E-19
 -1       188 9.10562E-05-2.66802E-05-2.75773E-05 2.55654E-06-1.02890E-18-2.01351E-18
 -1       189 9.32276E-05-2.76411E-05-2.80994E-05 4.29889E-06-8.69767E-19-2.53764E-18
 -1       190 9.61637E-05-2.88716E-05-2.88350E-05 4.85604E-06-5.64033E-19-2.82016E-18
 -1       191 9.90735E-05-3.00038E-05-2.96021E-05 4.32186E-06-3.45613E-19-3.87836E-18
 -1       192 1.01373E-04-3.08090E-05-3.02473E-05 3.11444E-06-5.40612E-20-4.08328E-18
 -1       193 1.02795E-04-3.12265E-05-3.06804E-05 1.71015E-06-1.14687E-19-3.87110E-18
 -1       194 1.03342E-04-3.13097E-05-3.08796E-05 4.58700E-07-4.46467E-19-3.66599E-18
 -1       195 1.03179E-04-3.11576E-05-3.08737E-05-4.69060E-07-4.26738E-19-3.64233E-18
 -1       196 1.02528E-04-3.08682E-05-3.07168E-05-1.04510E-06-7.94199E-19-3.90164E-18
 -1       197 1.01602E-04-3.05187E-05-3.04674E-05-1.32185E-06-4.81975E-19-4.77070E-18
 -1       198 1.00570E-04-3.01616E-05-3.01761E-05-1.38053E-06-1.45030E-19-4.87917E-18
 -1       199 9.95505E-05-2.98288E-05-2.98805E-05-1.30029E-06-3.21809E-19-5.16217E-18
 -1       200 9.86175E-05-2.95366E-05-2.96050E-05-1.14478E-06 4.19483E-19-5.19506E-18
 -1       201 9.78078E-05-2.92911E-05-2.93627E-05-9.59236E-07 6.21057E-19-5.16051E-18
 -1       202 9.71339E-05-2.90920E-05-2.91590E-05-7.72638E-07 1.03450E-19-4.55643E-18
 -1       203 9.65919E-05-2.89354E-05-2.89939E-05-6.01529E-07 1.66910E-19-3.35988E-18
 -1       204 9.61692E-05-2.88156E-05-2.88642E-05-4.53801E-07 3.14529E-19-2.62473E-18
 -1       205 9.58487E-05-2.87264E-05-2.87653E-05-3.31787E-07 2.62614E-19-2.59244E-18
 -1       206 9.56128E-05-2.86619E-05-2.86921E-05-2.34539E-07 3.10603E-19-2.24279E-18
 -1       207 9.54443E-05-2.86168E-05-2.86394E-05-1.59396E-07-2.36900E-19-3.01756E-18
 -1       208 9.53281E-05-2.85864E-05-2.86029E-05-1.02996E-07-7.14574E-20-2.72109E-18
 -1       209 9.52516E-05-2.85669E-05-2.85786E-05-6.18805E-08 1.36766E-19-2.77742E-18
 -1       210 9.52041E-05-2.85554E-05-2.85633E-05-3.28403E-08-6.10908E-19-1.94525E-18
 -1       211 9.51774E-05-2.85494E-05-2.85546E-05-1.30731E-08-2.69876E-19-1.58581E-18
 -1       212 9.51651E-05-2.85472E-05-2.85503E-05-2.37940E-10 1.13551E-19-1.25159E-18
 -1       213 9.51622E-05-2.85474E-05-2.85491E-05 7.55531E-09-2.30096E-19-1.79333E-18
 -1       214 9.51653E-05-2.85490E-05-2.85498E-05 1.17897E-08 2.20200E-19-1.33966E-18
 -1       215 9.51718E-05-2.85515E-05-2.85515E-05 1.35992E-08-2.86139E-19-2.91816E-18
 -1       216 9.51800E-05-2.85542E-05-2.85539E-05 1.38293E-08-6.41032E-19-4.11252E-18
 -1       217 9.51886E-05-2.85569E-05-2.85564E-05 1.30945E-08-2.33842E-20-3.34283E-18
 -1       218 9.51970E-05-2.85595E-05-2.85589E-05 1.18287E-08 9.77550E-19-1.85333E-18
 -1       219 9.52048E-05-2.85619E-05-2.85612E-05 1.03280E-08-5.50451E-19-3.27595E-18
 -1       220 9.52116E-05-2.85639E-05-2.85633E-05 8.78520E-09-1.31101E-18-4.08217E-18
 -1       221 9.52175E-05-2.85656E-05-2.85651E-05 7.31743E-09-5.69511E-19-3.91401E-18
 -1       222 9.52224E-05-2.85671E-05-2.85666E-05 5.98695E-09 1.41501E-18-4.35320E-18
 -1       223 9.52265E-05-2.85682E-05-2.85678E-05 4.81631E-09 1.62341E-18-3.03595E-18
 -1       224 9.52298E-05-2.85692E-05-2.85688E-05 3.79867E-09 2.17318E-18-7.32857E-19
 -1       225 9.52324E-05-2.85699E-05-2.85696E-05 2.90489E-09 9.22924E-19-5.67333E-19
 -1       226 9.52344E-05-2.85705E-05-2.85702E-05 2.08894E-09-1.35744E-19-1.08543E-18
 -1       227 9.52358E-05-2.85709E-05-2.85706E-05 1.29854E-09 1.48137E-18-1.03496E-18
 -1       228 9.52367E-05-2.85712E-05-2.85709E-05 5.17207E-10 1.12608E-19 5.68398E-19
 -1       229 1.40776E-04-4.17335E-05-4.26062E-05 4.67067E-06 2.86239E-18 1.14523E-17
 -1       230 1.36140E-04-4.15151E-05-4.04762E-05 3.91989E-06 1.88764E-18 9.94636E-18
 -1       231 1.31424E-04-4.07628E-05-3.87488E-05 7.54619E-06 1.21148E-18 8.83494E-18
 -1       232 1.24137E-04-3.83252E-05-3.67292E-05 1.22183E-05 1.26591E-18 7.67964E-18
 -1       233 1.14628E-04-3.39648E-05-3.46579E-05 1.35801E-05 1.21817E-18 6.43635E-18
 -1       234 1.06556E-04-2.95980E-05-3.31956E-05 8.02593E-06 1.53713E-18 4.10231E-18
 -1       235 1.04741E-04-2.85884E-05-3.28464E-05-2.43757E-06 2.80202E-18 1.10543E-18
 -1       236 1.09957E-04-3.16669E-05-3.36416E-05-1.06062E-05 1.87881E-18-1.25551E-18
 -1       237 1.17865E-04-3.59397E-05-3.50860E-05-1.17388E-05 1.01392E-18-3.10660E-18
 -1       238 1.23624E-04-3.85337E-05-3.64106E-05-7.39894E-06 1.42917E-19-3.08583E-18
 -1       239 1.25411E-04-3.89162E-05-3.70359E-05-1.82140E-06-9.34317E-20-2.40270E-18
 -1       240 1.23862E-04-3.79184E-05-3.68319E-05 2.28687E-06 4.80526E-20-2.08953E-18
 -1       241 1.20374E-04-3.63985E-05-3.60039E-05 4.36691E-06 5.58084E-19-2.01823E-18
 -1       242 1.16155E-04-3.48427E-05-3.48631E-05 4.91498E-06 7.55081E-19-2.84516E-18
 -1       243 1.11988E-04-3.34585E-05-3.36646E-05 4.60122E-06 3.13549E-19-2.24372E-18
 -1       244 1.08272E-04-3.23037E-05-3.25610E-05 3.92470E-06-3.52131E-19-2.19383E-18
 -1       245 1.05154E-04-3.13744E-05-3.16189E-05 3.17133E-06 7.44011E-19-2.61298E-18
 -1       246 1.02639E-04-3.06439E-05-3.08521E-05 2.47632E-06-6.24432E-19-2.50936E-18
 -1       247 1.00665E-04-3.00798E-05-3.02473E-05 1.88880E-06-1.14829E-18-1.91013E-18
 -1       248 9.91473E-05-2.96504E-05-2.97809E-05 1.41538E-06-1.32704E-18-1.21491E-18
 -1       249 9.79997E-05-2.93280E-05-2.94277E-05 1.04479E-06 2.22683E-19 3.00814E-19
 -1       250 9.71446E-05-2.90890E-05-2.91642E-05 7.60131E-07 1.45268E-18-5.81010E-19
 -1       251 9.65169E-05-2.89144E-05-2.89704E-05 5.44513E-07 7.35603E-20-2.37047E-18
 -1       252 9.60632E-05-2.87889E-05-2.88302E-05 3.83093E-07-1.26003E-18-2.22443E-18
 -1       253 9.57411E-05-2.87004E-05-2.87305E-05 2.63610E-07-3.74591E-19-1.11545E-18
 -1       254 9.55173E-05-2.86393E-05-2.86610E-05 1.76240E-07 7.92757E-19-2.46860E-18
 -1       255 9.53661E-05-2.85986E-05-2.86139E-05 1.13247E-07 2.89713E-19-2.23987E-18
 -1       256 9.52676E-05-2.85725E-05-2.85831E-05 6.85975E-08-4.25472E-19-1.65851E-18
 -1       257 9.52068E-05-2.85567E-05-2.85639E-05 3.76188E-08 1.10869E-18-1.33529E-18
 -1       258 9.51723E-05-2.85482E-05-2.85529E-05 1.67134E-08 8.34723E-19-2.42097E-18
 -1       259 9.51558E-05-2.85446E-05-2.85475E-05 3.12949E-09-1.19520E-18-2.49192E-18
 -1       260 9.51511E-05-2.85441E-05-2.85457E-05-5.22236E-09-8.77438E-19-2.27424E-18
 -1       261 9.51539E-05-2.85456E-05-2.85463E-05-9.91356E-09 4.41667E-19-8.49824E-19
 -1       262 9.51609E-05-2.85481E-05-2.85483E-05-1.21126E-08-9.13665E-19-2.78967E-19
 -1       263 9.51700E-05-2.85511E-05-2.85509E-05-1.26763E-08-7.37471E-20-1.70531E-18
 -1       264 9.51798E-05-2.85542E-05-2.85538E-05-1.22225E-08 8.32018E-19-1.01999E-18
 -1       265 9.51895E-05-2.85571E-05-2.85567E-05-1.11871E-08 7.46731E-19-3.06158E-18
 -1       266 9.51984E-05-2.85599E-05-2.85594E-05-9.86962E-09-2.61203E-19-2.27446E-18
 -1       267 9.52064E-05-2.85622E-05-2.85618E-05-8.46819E-09-2.34016E-18-8.18710E-19
 -1       268 9.52132E-05-2.85643E-05-2.85638E-05-7.10686E-09-1.68784E-18 4.83422E-19
 -1       269 9.52191E-05-2.85660E-05-2.85656E-05-5.85613E-09-7.82913E-19 3.54660E-19
 -1       270 9.52239E-05-2.85674E-05-2.85671E-05-4.74801E-09-2.02057E-18 1.38917E-18
 -1       271 9.52278E-05-2.85685E-05-2.85683E-05-3.78653E-09 3.23523E-18-2.43620E-19
 -1       272 9.52309E-05-2.85694E-05-2.85692E-05-2.95434E-09 3.38322E-18-1.81341E-18
 -1       273 9.52333E-05-2.85701E-05-2.85699E-05-2.21711E-09 2.60074E-19-1.55855E-18
 -1       274 9.52351E-05-2.85707E-05-2.85705E-05-1.53009E-09 1.06938E-18-1.85066E-18
 -1       275 9.52363E-05-2.85710E-05-2.85708E-05-8.44692E-10 1.59370E-18-9.54659E-19
 -1       276 9.52369E-05-2.85712E-05-2.85710E-05-1.90421E-10-2.20942E-18-1.77455E-18
 -1       277 9.52371E-05-2.85716E-05-2.85709E-05-5.58045E-10-2.93362E-18 1.24320E-18
 -1       278 9.52374E-05-2.85725E-05-2.85707E-05-1.23483E-09-2.34968E-18-5.63136E-19
 -1       279 9.52378E-05-2.85736E-05-2.85704E-05-1.70678E-09-3.38981E-18-3.42182E-18
 -1       280 9.52383E-05-2.85750E-05-2.85700E-05-1.86112E-09-5.69906E-18 2.62053E-19
 -1       281 9.52388E-05-2.85763E-05-2.85696E-05-1.71033E-09-5.01351E-18 1.73499E-18
 -1       282 9.52391E-05-2.85774E-05-2.85693E-05-1.29652E-09-3.39635E-18 1.86892E-18
 -1       283 9.52394E-05-2.85781E-05-2.85691E-05-6.94119E-10-1.92831E-18-1.31235E-18
 -1       284 9.52395E-05-2.85783E-05-2.85691E-05 5.84292E-12 1.71966E-19 4.98136E-18
 -1       285 9.52394E-05-2.85781E-05-2.85691E-05 7.04939E-10-3.91245E-19 3.81474E-19
 -1       286 9.52391E-05-2.85773E-05-2.85693E-05 1.30504E-09-5.37858E-19-2.64016E-18
 -1       287 9.52388E-05-2.85763E-05-2.85696E-05 1.71017E-09 4.54771E-19-1.07813E-18
 -1       288 9.52383E-05-2.85750E-05-2.85700E-05 1.85997E-09 7.42209E-19 6.38847E-19
 -1       289 9.52378E-05-2.85736E-05-2.85704E-05 1.69978E-09-5.96487E-19 6.83384E-19
 -1       290 9.52373E-05-2.85725E-05-2.85707E-05 1.22493E-09-6.82846E-19-2.80811E-19
 -1       291 9.52370E-05-2.85718E-05-2.85708E-05 9.70480E-10-9.57067E-20-1.06315E-19
 -1       292 1.13779E-05-4.24019E-05 1.00697E-05 5.66741E-06 4.20001E-18 7.13392E-18
 -1       293 2.67317E-05-3.86862E-05 2.57637E-06 2.33502E-05 7.26331E-18 8.89580E-18
 -1       294 5.29489E-05-3.48342E-05-9.77352E-06 3.46820E-05 1.10913E-17 9.69863E-18
 -1       295 9.38980E-05-3.35449E-05-2.64884E-05 4.47051E-05 1.11270E-17 9.39275E-18
 -1       296 1.40659E-04-3.38644E-05-4.47538E-05 4.57930E-05 1.03467E-17 8.64355E-18
 -1       297 1.85496E-04-3.52307E-05-6.14496E-05 3.93598E-05 9.96549E-18 5.33885E-18
 -1       298 2.14349E-04-3.82583E-05-7.14594E-05 2.06773E-05 9.70943E-18-1.11766E-18
 -1       299 2.10933E-04-3.48178E-05-7.19635E-05-7.09979E-07 1.04935E-17-7.07103E-18
 -1       300 1.97783E-04-3.81046E-05-6.55583E-05-1.98258E-05 1.13799E-17-1.25450E-17
 -1       301 1.64250E-04-3.95195E-05-5.22212E-05-2.81954E-05 1.22465E-17-1.32863E-17
 -1       302 1.19672E-04-3.49378E-05-3.63367E-05-4.08537E-05 1.48309E-17-1.69974E-17
 -1       303 7.02936E-05-2.95177E-05-1.90876E-05-3.69196E-05 1.60807E-17-1.72033E-17
 -1       304 3.45314E-05-2.96469E-05-4.76544E-06-2.37607E-05 1.37103E-17-1.46431E-17
 -1       305 1.41702E-05-3.12476E-05 4.31565E-06-9.80320E-06 8.59675E-18-1.18838E-17
 -1       306 5.90731E-06-2.76146E-05 6.80007E-06 2.80870E-06 1.73912E-18-1.08364E-17
 -1       307 1.12372E-05-2.80516E-05 4.61438E-06 1.52893E-05-5.48496E-18-1.04091E-17
 -1       308 3.35089E-05-2.28877E-05-5.83874E-06 3.43356E-05-7.87974E-18-1.20493E-17
 -1       309 5.96143E-05-1.92502E-05-1.84270E-05 4.15871E-05-1.51695E-17-1.54551E-17
 -1       310 9.87668E-05-2.01593E-05-3.37046E-05 4.93308E-05-1.60371E-17-1.71895E-17
 -1       311 1.42546E-04-2.55601E-05-4.88578E-05 4.77812E-05-1.46553E-17-1.66264E-17
 -1       312 1.73982E-04-2.98089E-05-6.01885E-05 2.28350E-05-1.19097E-17-1.01862E-17
 -1       313 1.97791E-04-3.15413E-05-6.85540E-05 8.55468E-06-9.95327E-18-7.99059E-18
 -1       314 2.06748E-04-3.54836E-05-6.99857E-05-1.35732E-05-8.32019E-18-2.72300E-18
 -1       315 1.86335E-04-3.11292E-05-6.37874E-05-3.14950E-05-8.56922E-18 2.08857E-18
 -1       316 1.57091E-04-2.82066E-05-5.31998E-05-4.70319E-05-9.52361E-18 6.88722E-18
 -1       317 1.18469E-04-2.56366E-05-3.89653E-05-5.06023E-05-1.13383E-17 8.51861E-18
 -1       318 7.94221E-05-2.68390E-05-2.30982E-05-4.57166E-05-1.10851E-17 1.00642E-17
 -1       319 4.66149E-05-3.21969E-05-8.01913E-06-3.48984E-05-8.62809E-18 1.12399E-17
 -1       320 2.44147E-05-3.72220E-05 3.11229E-06-2.48261E-05-3.70302E-18 9.94830E-18
 -1       321 1.21472E-05-4.39506E-05 1.02720E-05-8.59607E-06 1.98417E-19 9.22737E-18
 -1       322 1.05528E-04-2.08329E-05-3.63886E-05-1.65540E-05-3.52497E-18-2.52303E-18
 -1       323 1.09275E-04-2.39328E-05-3.66749E-05-1.88536E-05-4.55125E-18-1.18479E-19
 -1       324 1.00227E-04-2.05902E-05-3.42154E-05-5.50726E-06-6.19207E-19-4.67199E-18
 -1       325 9.41601E-05-1.93881E-05-3.21165E-05 2.18960E-06 8.86787E-19-4.97456E-18
 -1       326 8.34489E-05-1.52527E-05-2.92740E-05 1.01706E-05 2.19600E-18-5.41882E-18
 -1       327 6.81201E-05-7.43241E-06-2.60087E-05 1.56744E-05 3.15535E-18-6.23881E-18
 -1       328 5.21394E-05 1.97550E-06-2.31330E-05 1.56067E-05 3.28255E-18-7.27593E-18
 -1       329 4.31356E-05 7.91894E-06-2.17900E-05 9.22258E-06 2.52580E-18-7.86217E-18
 -1       330 4.68839E-05 6.33670E-06-2.27235E-05 8.10473E-07 1.52380E-18-7.43297E-18
 -1       331 6.25360E-05-2.06495E-06-2.58829E-05-3.88894E-06 1.07798E-18-5.63122E-18
 -1       332 8.35013E-05-1.26895E-05-3.03819E-05-2.17209E-06 1.49904E-18-3.44493E-18
 -1       333 1.04013E-04-2.19951E-05-3.52386E-05 3.52532E-06 2.44251E-18-7.29653E-19
 -1       334 1.22030E-04-3.00293E-05-3.95902E-05 8.66040E-06 3.44432E-18 3.12582E-18
 -1       335 1.32849E-04-3.65864E-05-4.13771E-05 7.98263E-06 3.37907E-18 6.53284E-18
 -1       336 1.32443E-04-4.10121E-05-3.91884E-05 6.23483E-06 2.36624E-18 6.37464E-18
 -1       337 1.08980E-04-3.10531E-05-3.33609E-05-1.27564E-05-3.55787E-18 8.50374E-19
 -1       338 1.05428E-04-3.09152E-05-3.19092E-05-1.07358E-05-2.82109E-18 6.84844E-19
 -1       339 1.01832E-04-2.93905E-05-3.10244E-05-9.13374E-06-2.35609E-18 2.97789E-19
 -1       340 9.86546E-05-2.74785E-05-3.04845E-05-6.50341E-06-1.91122E-18-5.23033E-19
 -1       341 9.65776E-05-2.61353E-05-3.01712E-05-2.59402E-06-1.90220E-18-1.53767E-18
 -1       342 9.61173E-05-2.60548E-05-3.00102E-05 1.81059E-06-1.83647E-18-2.36801E-18
 -1       343 9.72164E-05-2.72802E-05-2.99594E-05 5.41597E-06-1.32297E-18-2.85857E-18
 -1       344 9.92084E-05-2.91966E-05-2.99980E-05 7.23410E-06-1.16981E-18-3.49563E-18
 -1       345 1.01229E-04-3.09894E-05-3.01028E-05 7.09500E-06-9.55090E-19-3.67895E-18
 -1       346 1.02662E-04-3.21265E-05-3.02360E-05 5.53964E-06-1.26449E-19-3.59763E-18
 -1       347 1.03300E-04-3.25029E-05-3.03515E-05 3.36712E-06-1.86803E-19-3.67122E-18
 -1       348 1.03233E-04-3.22991E-05-3.04106E-05 1.24491E-06-1.26393E-21-3.60722E-18
 -1       349 1.02675E-04-3.17763E-05-3.03939E-05-4.45624E-07-2.27843E-19-3.25728E-18
 -1       350 1.01839E-04-3.11490E-05-3.03021E-05-1.58209E-06-7.54752E-19-3.58524E-18
 -1       351 1.00890E-04-3.05476E-05-3.01505E-05-2.20469E-06-1.00315E-18-3.05755E-18
 -1       352 9.99376E-05-3.00327E-05-2.99607E-05-2.42616E-06-5.76712E-19-2.79381E-18
 -1       353 9.90472E-05-2.96203E-05-2.97543E-05-2.37290E-06-2.51122E-19-3.51729E-18
 -1       354 9.82544E-05-2.93042E-05-2.95491E-05-2.15526E-06-4.31876E-19-3.85585E-18
 -1       355 9.75736E-05-2.90691E-05-2.93576E-05-1.85714E-06 7.05997E-19-3.43499E-18
 -1       356 9.70061E-05-2.88984E-05-2.91874E-05-1.53611E-06 9.70705E-19-3.27449E-18
 -1       357 9.65451E-05-2.87771E-05-2.90418E-05-1.22796E-06 6.53509E-19-2.73748E-18
 -1       358 9.61792E-05-2.86927E-05-2.89214E-05-9.52252E-07 3.30601E-19-2.42632E-18
 -1       359 9.58954E-05-2.86353E-05-2.88245E-05-7.17464E-07 5.82219E-19-2.37456E-18
 -1       360 9.56801E-05-2.85975E-05-2.87487E-05-5.25008E-07 1.63097E-19-2.76051E-18
 -1       361 9.55206E-05-2.85736E-05-2.86908E-05-3.72195E-07 3.43374E-19-2.67514E-18
 -1       362 9.54055E-05-2.85594E-05-2.86477E-05-2.54260E-07-2.12471E-19-1.89518E-18
 -1       363 9.53247E-05-2.85519E-05-2.86165E-05-1.65679E-07 1.97517E-19-1.75328E-18
 -1       364 9.52700E-05-2.85487E-05-2.85945E-05-1.00954E-07-6.17026E-20-2.44287E-18
 -1       365 9.52348E-05-2.85483E-05-2.85797E-05-5.50577E-08-3.99698E-19-2.21150E-18
 -1       366 9.52136E-05-2.85495E-05-2.85701E-05-2.36317E-08 7.59150E-19-1.00814E-18
 -1       367 9.52022E-05-2.85517E-05-2.85644E-05-3.04629E-09 4.67118E-19 3.25041E-19
 -1       368 9.51976E-05-2.85543E-05-2.85614E-05 9.62817E-09-3.79135E-20 1.16500E-18
 -1       369 9.51974E-05-2.85569E-05-2.85602E-05 1.66927E-08-1.15482E-18 5.35276E-19
 -1       370 9.51998E-05-2.85594E-05-2.85601E-05 1.99104E-08-4.48290E-19 1.99681E-19
 -1       371 9.52037E-05-2.85617E-05-2.85608E-05 2.06001E-08 5.43776E-19 9.60906E-19
 -1       372 9.52082E-05-2.85637E-05-2.85619E-05 1.97240E-08 1.79349E-18 1.58976E-18
 -1       373 9.52128E-05-2.85654E-05-2.85632E-05 1.79644E-08 6.59255E-20 2.31121E-19
 -1       374 9.52172E-05-2.85668E-05-2.85645E-05 1.57896E-08-9.37054E-19 1.20911E-18
 -1       375 9.52213E-05-2.85679E-05-2.85657E-05 1.35065E-08-1.78029E-18 1.69698E-18
 -1       376 9.52248E-05-2.85688E-05-2.85668E-05 1.13029E-08-7.40629E-19 1.18400E-18
 -1       377 9.52278E-05-2.85696E-05-2.85678E-05 9.27974E-09 1.66780E-18-5.40134E-20
 -1       378 9.52303E-05-2.85702E-05-2.85686E-05 7.47510E-09 2.49072E-18 4.62095E-19
 -1       379 9.52324E-05-2.85707E-05-2.85693E-05 5.88116E-09 1.17718E-18-6.38634E-19
 -1       380 9.52340E-05-2.85711E-05-2.85698E-05 4.46027E-09-8.15737E-19-8.43383E-19
 -1       381 9.52354E-05-2.85714E-05-2.85703E-05 3.15920E-09 4.43158E-19 1.27140E-19
 -1       382 9.52363E-05-2.85717E-05-2.85705E-05 2.01844E-09 6.50048E-19-5.45533E-19
 -1       383 1.31840E-04-4.31344E-05-3.79997E-05 1.00705E-05 1.58653E-18 6.38002E-18
 -1       384 1.29373E-04-4.20765E-05-3.74446E-05 1.64639E-05 1.84093E-18 5.98335E-18
 -1       385 1.23589E-04-3.63251E-05-3.75297E-05 1.93811E-05 2.19033E-18 4.88735E-18
 -1       386 1.16485E-04-2.84051E-05-3.79472E-05 1.28056E-05 3.20017E-18 2.76887E-18
 -1       387 1.13722E-04-2.56034E-05-3.79522E-05-1.83075E-06 4.15970E-18-5.93857E-19
 -1       388 1.17499E-04-3.09008E-05-3.72363E-05-1.39761E-05 3.41350E-18-2.78117E-18
 -1       389 1.23032E-04-3.83950E-05-3.63401E-05-1.58485E-05 1.52733E-18-4.40159E-18
 -1       390 1.25216E-04-4.18961E-05-3.57557E-05-9.63029E-06-1.24286E-19-3.97964E-18
 -1       391 1.23613E-04-4.11011E-05-3.53982E-05-1.66052E-06-6.31053E-19-3.09577E-18
 -1       392 1.20035E-04-3.84543E-05-3.49967E-05 4.17412E-06-2.36144E-20-2.46928E-18
 -1       393 1.15974E-04-3.57696E-05-3.43978E-05 7.13651E-06 7.09633E-19-1.88378E-18
 -1       394 1.12117E-04-3.36722E-05-3.36312E-05 7.92055E-06 7.31627E-19-1.37492E-18
 -1       395 1.08717E-04-3.21921E-05-3.27980E-05 7.44890E-06 2.20151E-19-7.31324E-19
 -1       396 1.05825E-04-3.11694E-05-3.19908E-05 6.42227E-06-8.82072E-20-1.37852E-18
 -1       397 1.03425E-04-3.04522E-05-3.12671E-05 5.25614E-06 4.71610E-19-1.72688E-18
 -1       398 1.01474E-04-2.99366E-05-3.06513E-05 4.15857E-06-1.73294E-19-1.33865E-18
 -1       399 9.99155E-05-2.95578E-05-3.01465E-05 3.21318E-06-1.35632E-18-1.42685E-18
 -1       400 9.86909E-05-2.92761E-05-2.97435E-05 2.43829E-06-1.54194E-18-1.54046E-18
 -1       401 9.77432E-05-2.90658E-05-2.94286E-05 1.82225E-06-8.55024E-19-1.52837E-18
 -1       402 9.70202E-05-2.89095E-05-2.91867E-05 1.34241E-06 2.16984E-18-2.92925E-19
 -1       403 9.64765E-05-2.87947E-05-2.90037E-05 9.74270E-07 8.28052E-19-5.79692E-19
 -1       404 9.60738E-05-2.87115E-05-2.88675E-05 6.95336E-07-1.66799E-18-1.79074E-18
 -1       405 9.57805E-05-2.86525E-05-2.87676E-05 4.86461E-07-2.06794E-19-1.30092E-18
 -1       406 9.55708E-05-2.86118E-05-2.86956E-05 3.31938E-07 1.04273E-18-1.44462E-18
 -1       407 9.54242E-05-2.85847E-05-2.86447E-05 2.19161E-07 2.59996E-19-7.91332E-19
 -1       408 9.53246E-05-2.85674E-05-2.86096E-05 1.38145E-07-8.81571E-19-3.05846E-20
 -1       409 9.52594E-05-2.85572E-05-2.85862E-05 8.10526E-08 1.91028E-18-8.70440E-19
 -1       410 9.52189E-05-2.85519E-05-2.85713E-05 4.17781E-08 9.34149E-19-1.48424E-18
 -1       411 9.51958E-05-2.85500E-05-2.85623E-05 1.56019E-08-4.07658E-19-1.20077E-18
 -1       412 9.51846E-05-2.85501E-05-2.85575E-05-1.09515E-09-7.59976E-19-3.09652E-18
 -1       413 9.51813E-05-2.85516E-05-2.85555E-05-1.10617E-08-1.71288E-19-1.42368E-18
 -1       414 9.51829E-05-2.85537E-05-2.85553E-05-1.63621E-08-3.12652E-19-3.33027E-20
 -1       415 9.51873E-05-2.85561E-05-2.85562E-05-1.85264E-08 4.64312E-19-1.38598E-18
 -1       416 9.51932E-05-2.85585E-05-2.85577E-05-1.86708E-08 6.32388E-19-9.12647E-19
 -1       417 9.51997E-05-2.85608E-05-2.85595E-05-1.75940E-08 1.49287E-18-1.26272E-18
 -1       418 9.52060E-05-2.85628E-05-2.85614E-05-1.58539E-08-6.00335E-19-6.38753E-19
 -1       419 9.52119E-05-2.85646E-05-2.85631E-05-1.38284E-08-3.05500E-18-2.07140E-18
 -1       420 9.52171E-05-2.85662E-05-2.85647E-05-1.17618E-08-2.30646E-18-2.09014E-18
 -1       421 9.52217E-05-2.85674E-05-2.85661E-05-9.80098E-09-1.77543E-18-1.49385E-18
 -1       422 9.52255E-05-2.85685E-05-2.85673E-05-8.02259E-09-4.86697E-19-1.38429E-18
 -1       423 9.52287E-05-2.85693E-05-2.85683E-05-6.45227E-09 2.86558E-18-3.60693E-18
 -1       424 9.52313E-05-2.85700E-05-2.85691E-05-5.07813E-09 3.27044E-18-1.20880E-18
 -1       425 9.52333E-05-2.85706E-05-2.85698E-05-3.86069E-09 1.60845E-19-6.12834E-19
 -1       426 9.52349E-05-2.85710E-05-2.85703E-05-2.74756E-09 1.90280E-19-1.34688E-18
 -1       427 9.52361E-05-2.85713E-05-2.85706E-05-1.69570E-09 5.55535E-19 3.07291E-19
 -1       428 9.52366E-05-2.85715E-05-2.85708E-05-1.11547E-09-2.21643E-18 1.77740E-18
 -1       429 9.52380E-05-2.85744E-05-2.85701E-05-3.22028E-09-2.27889E-18-1.91215E-18
 -1       430 9.52372E-05-2.85731E-05-2.85703E-05-2.78816E-09-3.13722E-18-1.72390E-18
 -1       431 9.52368E-05-2.85722E-05-2.85706E-05-2.00594E-09-2.91915E-18 9.70024E-19
 -1       432 9.52387E-05-2.85756E-05-2.85699E-05-3.16083E-09-2.71763E-18-1.63704E-18
 -1       433 9.52393E-05-2.85767E-05-2.85697E-05-2.63581E-09-2.02772E-18 3.73579E-18
 -1       434 9.52397E-05-2.85775E-05-2.85695E-05-1.73671E-09-7.72472E-19 1.70775E-18
 -1       435 9.52399E-05-2.85779E-05-2.85694E-05-5.99080E-10 4.10294E-19 2.83509E-18
 -1       436 9.52399E-05-2.85779E-05-2.85694E-05 6.19434E-10-7.80474E-19 2.29384E-18
 -1       437 9.52397E-05-2.85774E-05-2.85695E-05 1.75414E-09-4.99919E-19-1.66142E-18
 -1       438 9.52393E-05-2.85767E-05-2.85697E-05 2.63587E-09 2.00073E-18-1.30487E-18
 -1       439 9.52386E-05-2.85756E-05-2.85699E-05 3.16156E-09 2.40037E-18 8.70046E-19
 -1       440 9.52379E-05-2.85743E-05-2.85701E-05 3.21652E-09 1.44240E-18 2.29275E-20
 -1       441 9.52372E-05-2.85731E-05-2.85703E-05 2.78601E-09 9.18318E-19 4.74897E-19
 -1       442 6.34760E-05-3.99590E-05-1.00164E-05 4.31246E-05-6.71697E-19 5.07754E-18
 -1       443 1.14340E-05-2.01770E-05 3.36491E-06-2.51264E-06 9.26542E-20 9.01645E-18
 -1       444 2.42730E-05-2.34595E-05-4.66196E-07 2.50646E-05-5.61212E-19 7.05600E-18
 -1       445 9.73746E-05-5.23453E-05-1.94714E-05 4.13518E-05 1.17452E-18 3.14974E-18
 -1       446 1.35002E-04-5.38154E-05-3.48368E-05 2.89627E-05 4.27339E-18 9.83829E-19
 -1       447 1.03300E-04-2.04869E-05-3.56096E-05-1.18698E-05-2.09177E-18-4.01768E-18
 -1       448 1.63174E-04-2.66601E-05-5.83815E-05-2.49773E-06 9.95380E-18-4.06946E-18
 -1       449 1.64523E-04-1.68305E-05-6.30439E-05 1.41341E-06 1.14174E-17-3.13344E-18
 -1       450 1.62964E-04-2.14769E-05-6.05923E-05 9.28474E-06 1.06632E-17-1.80746E-18
 -1       451 1.63724E-04-3.60235E-05-5.45760E-05 7.31281E-06 9.21529E-18-2.03584E-18
 -1       452 1.49159E-04-5.25739E-05-4.14866E-05-1.04380E-05 6.36164E-18-3.76337E-18
 -1       453 1.19366E-04-5.31552E-05-2.85018E-05-2.76158E-05 4.13183E-18-5.68306E-18
 -1       454 7.49014E-05-3.94153E-05-1.55570E-05-3.66759E-05 3.93944E-18-9.75792E-18
 -1       455 3.79210E-05-2.22998E-05-6.81798E-06-3.00290E-05 1.86972E-18-1.15531E-17
 -1       456 1.31916E-05-9.49010E-06-1.65610E-06-1.17080E-05 1.64764E-18-1.27286E-17
 -1       457 9.98195E-06-5.78240E-06-1.74751E-06 1.61550E-05 1.25520E-18-1.25036E-17
 -1       458 2.84936E-05-1.25996E-05-6.62676E-06 3.47035E-05 1.14042E-18-1.10891E-17
 -1       459 7.14127E-05-3.12961E-05-1.71427E-05 4.34101E-05-9.16278E-19-8.32415E-18
 -1       460 1.00444E-04-3.95996E-05-2.62009E-05 3.84532E-05-3.59894E-18-7.23027E-18
 -1       461 1.32592E-04-4.03623E-05-3.94980E-05 2.46908E-05-6.98035E-18-5.67533E-18
 -1       462 1.48172E-04-3.32237E-05-4.93116E-05 9.12829E-06-8.68450E-18-3.64986E-18
 -1       463 1.50628E-04-1.62122E-05-5.78114E-05-4.12557E-06-1.03805E-17-2.90908E-18
 -1       464 1.58055E-04-1.21212E-05-6.22671E-05-2.58994E-06-1.04634E-17-3.92643E-18
 -1       465 1.60334E-04-1.78507E-05-6.07118E-05-3.98575E-06-9.18512E-18-3.38596E-18
 -1       466 1.53457E-04-3.03376E-05-5.26236E-05-7.74950E-06-7.25812E-18-3.28882E-18
 -1       467 1.45882E-04-4.14742E-05-4.45157E-05-1.99996E-05-5.41926E-18-1.62990E-18
 -1       468 1.21148E-04-4.94506E-05-3.07396E-05-3.53486E-05-2.80431E-18 1.96829E-19
 -1       469 8.80763E-05-4.61233E-05-1.80912E-05-4.50971E-05-2.06147E-19 3.95578E-18
 -1       470 5.39669E-05-3.60159E-05-7.81552E-06-4.39636E-05 1.65341E-18 8.10494E-18
 -1       471 2.00792E-05-2.41165E-05 1.29507E-06-2.47157E-05 1.14477E-18 1.02190E-17
 -1       472 1.59109E-04-4.48851E-05-4.88368E-05 6.95824E-06 6.17270E-18-2.51685E-18
 -1       473 1.40791E-04-2.43374E-05-5.02483E-05-9.29865E-06-8.15783E-18-3.32355E-19
 -1       474 5.76570E-05-2.12290E-05-1.51544E-05 4.09687E-05 3.54812E-18-8.48415E-18
 -1       475 1.27511E-04-4.32508E-05-3.60999E-05 6.13810E-06 1.30621E-18 3.31568E-18
 -1       476 9.82485E-05-2.70690E-05-3.04961E-05 7.25373E-06 1.93898E-18-3.97722E-18
 -1       477 1.05310E-04-2.85573E-05-3.29204E-05-2.89333E-06 2.45514E-19-3.51431E-18
 -1       478 6.18298E-05-8.49492E-06-2.27199E-05 2.38030E-05 4.19766E-18-6.79007E-18
 -1       479 4.12229E-05 4.19484E-06-1.91948E-05 1.83544E-05 3.53906E-18-8.64318E-18
 -1       480 3.59459E-05 7.68383E-06-1.84338E-05 3.89976E-06 1.86955E-18-9.23282E-18
 -1       481 5.06732E-05-8.88118E-07-2.10929E-05-8.91086E-06 3.03823E-19-7.47982E-18
 -1       482 7.70339E-05-1.59516E-05-2.60733E-05-1.08116E-05-1.36945E-19-4.29317E-18
 -1       483 1.02015E-04-2.87518E-05-3.13503E-05-3.97586E-06 7.10690E-19-1.35554E-18
 -1       484 1.33372E-04-4.84266E-05-3.64531E-05 1.18686E-05 1.39844E-18 4.29977E-18
 -1       485 1.09440E-04-3.08693E-05-3.36736E-05-1.45622E-05-3.01351E-18-5.74078E-19
 -1       486 1.47605E-04-3.72632E-05-4.77056E-05-1.31275E-05 5.71133E-18-6.52729E-18
 -1       487 1.07574E-04-3.04742E-05-3.30341E-05-1.32796E-05-2.75861E-18-4.15438E-19
 -1       488 1.04592E-04-2.79630E-05-3.28319E-05-1.10215E-05-2.68759E-18-6.69775E-19
 -1       489 1.01682E-04-2.51586E-05-3.27922E-05-6.78724E-06-2.82784E-18-1.60217E-18
 -1       490 1.00148E-04-2.39251E-05-3.26653E-05-9.90421E-07-2.60243E-18-2.40753E-18
 -1       491 1.00613E-04-2.51904E-05-3.23211E-05 4.61071E-06-2.31654E-18-3.43654E-18
 -1       492 1.02491E-04-2.83013E-05-3.17926E-05 8.11478E-06-1.66963E-18-4.27611E-18
 -1       493 1.04487E-04-3.16466E-05-3.12152E-05 8.76912E-06-1.21807E-18-4.24841E-18
 -1       494 1.05587E-04-3.39089E-05-3.07207E-05 7.15156E-06-4.02160E-19-3.89777E-18
 -1       495 1.05525E-04-3.46818E-05-3.03658E-05 4.43899E-06 1.95597E-19-3.52225E-18
 -1       496 1.04584E-04-3.42738E-05-3.01383E-05 1.65992E-06-1.43909E-19-2.92184E-18
 -1       497 1.03207E-04-3.32338E-05-2.99934E-05-5.96722E-07-3.76794E-19-3.26392E-18
 -1       498 1.01750E-04-3.20264E-05-2.98850E-05-2.13838E-06-5.01446E-19-3.18370E-18
 -1       499 1.00413E-04-3.09268E-05-2.97820E-05-3.00730E-06-3.44044E-19-2.83723E-18
 -1       500 9.92766E-05-3.00495E-05-2.96698E-05-3.34481E-06-8.99845E-19-2.33612E-18
 -1       501 9.83505E-05-2.94099E-05-2.95462E-05-3.31135E-06-8.45005E-19-2.64652E-18
 -1       502 9.76132E-05-2.89759E-05-2.94157E-05-3.04840E-06-7.24971E-19-3.19359E-18
 -1       503 9.70337E-05-2.87009E-05-2.92849E-05-2.66547E-06 4.68363E-19-2.35508E-18
 -1       504 9.65818E-05-2.85398E-05-2.91601E-05-2.23977E-06 9.22990E-19-2.78746E-18
 -1       505 9.62317E-05-2.84555E-05-2.90462E-05-1.82120E-06 8.23676E-19-2.60236E-18
 -1       506 9.59621E-05-2.84203E-05-2.89458E-05-1.43874E-06 1.04079E-18-2.27601E-18
 -1       507 9.57563E-05-2.84146E-05-2.88602E-05-1.10657E-06 1.44673E-19-1.78211E-18
 -1       508 9.56008E-05-2.84251E-05-2.87891E-05-8.29019E-07 3.22084E-20-2.52184E-18
 -1       509 9.54847E-05-2.84435E-05-2.87316E-05-6.04334E-07-9.96085E-20-2.67926E-18
 -1       510 9.53994E-05-2.84644E-05-2.86861E-05-4.27415E-07 2.07893E-19-3.23579E-18
 -1       511 9.53378E-05-2.84849E-05-2.86510E-05-2.91639E-07 2.67466E-19-2.57943E-18
 -1       512 9.52943E-05-2.85035E-05-2.86245E-05-1.90028E-07-1.54237E-19-1.95742E-18
 -1       513 9.52645E-05-2.85194E-05-2.86049E-05-1.15948E-07 2.46068E-19-6.63009E-19
 -1       514 9.52447E-05-2.85325E-05-2.85909E-05-6.34769E-08 1.17354E-18 5.05711E-19
 -1       515 9.52323E-05-2.85430E-05-2.85811E-05-2.75549E-08 1.32993E-18 5.25138E-19
 -1       516 9.52251E-05-2.85512E-05-2.85745E-05-4.00486E-09 4.43900E-19 7.93242E-20
 -1       517 9.52215E-05-2.85575E-05-2.85703E-05 1.05261E-08-8.18093E-19-2.04697E-20
 -1       518 9.52204E-05-2.85621E-05-2.85678E-05 1.86626E-08-5.58446E-19 1.29146E-18
 -1       519 9.52208E-05-2.85655E-05-2.85665E-05 2.24121E-08 3.80689E-19 3.05607E-18
 -1       520 9.52221E-05-2.85679E-05-2.85661E-05 2.32746E-08-2.53979E-19 1.92671E-18
 -1       521 9.52238E-05-2.85696E-05-2.85661E-05 2.23439E-08-6.62239E-19-1.77088E-20
 -1       522 9.52258E-05-2.85707E-05-2.85665E-05 2.03958E-08 7.98971E-19 1.16275E-18
 -1       523 9.52277E-05-2.85714E-05-2.85670E-05 1.79627E-08-9.58532E-19 2.55989E-18
 -1       524 9.52295E-05-2.85718E-05-2.85676E-05 1.53931E-08-1.74477E-18 2.41227E-18
 -1       525 9.52311E-05-2.85720E-05-2.85682E-05 1.29001E-08-4.69261E-19 1.04046E-18
 -1       526 9.52326E-05-2.85722E-05-2.85688E-05 1.05979E-08 9.77866E-19 8.02836E-19
 -1       527 9.52338E-05-2.85723E-05-2.85692E-05 8.53069E-09 5.91670E-19 5.40289E-19
 -1       528 9.52349E-05-2.85723E-05-2.85697E-05 6.69084E-09 2.91095E-22-1.65382E-18
 -1       529 9.52357E-05-2.85724E-05-2.85700E-05 5.04508E-09-1.84109E-19-1.72358E-18
 -1       530 1.30229E-04-3.18141E-05-4.24578E-05 2.12435E-05 4.13990E-18 3.82355E-18
 -1       531 1.24381E-04-2.01471E-05-4.51094E-05 7.83423E-06 6.56308E-18 4.98148E-19
 -1       532 1.24984E-04-2.33627E-05-4.40335E-05-1.13257E-05 6.41368E-18-3.67890E-18
 -1       533 1.31529E-04-3.81668E-05-4.02606E-05-1.81695E-05 3.26407E-18-5.90811E-18
 -1       534 1.31611E-04-4.73484E-05-3.62458E-05-1.15568E-05 7.65903E-20-5.59359E-18
 -1       535 1.25987E-04-4.71161E-05-3.38343E-05-1.31119E-06-1.20021E-18-4.72365E-18
 -1       536 1.18533E-04-4.20617E-05-3.27910E-05 6.26767E-06-1.15313E-18-3.95513E-18
 -1       537 1.12245E-04-3.68131E-05-3.23453E-05 1.00892E-05-3.87685E-19-2.37943E-18
 -1       538 1.07725E-04-3.30150E-05-3.20291E-05 1.11743E-05 3.96184E-19-1.78519E-18
 -1       539 1.04642E-04-3.07392E-05-3.16750E-05 1.06369E-05 5.32379E-20-1.28130E-18
 -1       540 1.02485E-04-2.95208E-05-3.12677E-05 9.34509E-06 3.90651E-19-7.31652E-19
 -1       541 1.00894E-04-2.89211E-05-3.08402E-05 7.81247E-06 4.66989E-19-7.20469E-19
 -1       542 9.96597E-05-2.86474E-05-3.04282E-05 6.31635E-06-1.59976E-19-6.27748E-19
 -1       543 9.86738E-05-2.85325E-05-3.00553E-05 4.98496E-06-4.75762E-19-1.91870E-19
 -1       544 9.78779E-05-2.84899E-05-2.97333E-05 3.86136E-06-1.13420E-18-1.22970E-18
 -1       545 9.72370E-05-2.84780E-05-2.94646E-05 2.94444E-06-1.50962E-18-2.06917E-18
 -1       546 9.67260E-05-2.84784E-05-2.92462E-05 2.21324E-06-1.08470E-19-1.97091E-18
 -1       547 9.63243E-05-2.84836E-05-2.90724E-05 1.64007E-06 1.20722E-18-7.14144E-20
 -1       548 9.60133E-05-2.84906E-05-2.89367E-05 1.19701E-06 5.05940E-19-5.81106E-19
 -1       549 9.57767E-05-2.84983E-05-2.88324E-05 8.58792E-07-1.00545E-18-2.61918E-18
 -1       550 9.55999E-05-2.85064E-05-2.87535E-05 6.03760E-07 4.48844E-19-2.15050E-18
 -1       551 9.54703E-05-2.85144E-05-2.86948E-05 4.13922E-07 7.40824E-20-7.37780E-19
 -1       552 9.53775E-05-2.85223E-05-2.86518E-05 2.74617E-07-1.02817E-18-1.14922E-18
 -1       553 9.53127E-05-2.85297E-05-2.86210E-05 1.74067E-07 7.77793E-19-1.96891E-18
 -1       554 9.52689E-05-2.85366E-05-2.85993E-05 1.02906E-07 1.80860E-18-1.40195E-18
 -1       555 9.52405E-05-2.85428E-05-2.85846E-05 5.37559E-08 9.25757E-22-2.35937E-18
 -1       556 9.52233E-05-2.85483E-05-2.85749E-05 2.08617E-08 4.78677E-20-1.54990E-18
 -1       557 9.52138E-05-2.85530E-05-2.85688E-05-2.22218E-10-3.51143E-19-2.29766E-18
 -1       558 9.52096E-05-2.85570E-05-2.85654E-05-1.28922E-08-1.29464E-18-1.09173E-18
 -1       559 9.52089E-05-2.85603E-05-2.85637E-05-1.97107E-08 8.51079E-19-2.27168E-19
 -1       560 9.52102E-05-2.85630E-05-2.85631E-05-2.25834E-08 4.52509E-19 1.17816E-19
 -1       561 9.52128E-05-2.85651E-05-2.85633E-05-2.29048E-08 1.01746E-18 1.08269E-18
 -1       562 9.52160E-05-2.85668E-05-2.85640E-05-2.16750E-08 6.61107E-20 2.25582E-18
 -1       563 9.52193E-05-2.85681E-05-2.85648E-05-1.95938E-08-2.49736E-19 2.44032E-18
 -1       564 9.52225E-05-2.85691E-05-2.85658E-05-1.71355E-08-1.52815E-18 9.54679E-20
 -1       565 9.52254E-05-2.85698E-05-2.85667E-05-1.46069E-08-7.19138E-19-2.04195E-18
 -1       566 9.52280E-05-2.85704E-05-2.85675E-05-1.21922E-08-7.35673E-19-3.43956E-18
 -1       567 9.52302E-05-2.85708E-05-2.85683E-05-9.98686E-09 1.83951E-18-2.47707E-18
 -1       568 9.52321E-05-2.85712E-05-2.85690E-05-8.02267E-09 2.93173E-18-2.04082E-18
 -1       569 9.52336E-05-2.85715E-05-2.85695E-05-6.28732E-09 1.09048E-18-2.08239E-19
 -1       570 9.52349E-05-2.85717E-05-2.85699E-05-4.74650E-09 1.03551E-18-2.95384E-18
 -1       571 9.52360E-05-2.85720E-05-2.85703E-05-3.33863E-09-1.39576E-18-1.41822E-18
 -1       572 9.52394E-05-2.85763E-05-2.85699E-05-4.04975E-09 1.69431E-18 2.05590E-18
 -1       573 9.52402E-05-2.85773E-05-2.85698E-05-3.02803E-09 2.50090E-19 2.93395E-18
 -1       574 9.52373E-05-2.85737E-05-2.85701E-05-4.38752E-09-1.28462E-18-3.10376E-19
 -1       575 9.52384E-05-2.85751E-05-2.85700E-05-4.52839E-09 3.48446E-19-1.37036E-19
 -1       576 9.52408E-05-2.85780E-05-2.85698E-05-1.61035E-09 4.77104E-19 1.98755E-18
 -1       577 9.52409E-05-2.85782E-05-2.85698E-05 1.48876E-11-5.14023E-19 2.88674E-18
 -1       578 9.52408E-05-2.85780E-05-2.85698E-05 1.63794E-09-2.01559E-19 9.89627E-19
 -1       579 9.52402E-05-2.85773E-05-2.85698E-05 3.02826E-09 1.22468E-18-6.40402E-19
 -1       580 9.52394E-05-2.85763E-05-2.85699E-05 4.04697E-09 2.09962E-19-8.33817E-19
 -1       581 9.52384E-05-2.85751E-05-2.85700E-05 4.52147E-09 3.60597E-19-5.67091E-20
 -1       582 9.52373E-05-2.85737E-05-2.85701E-05 4.37593E-09 7.19560E-19 3.31998E-19
 -1       583 2.51540E-05-1.19979E-05-5.06807E-06 1.06253E-05-1.26612E-18 6.71083E-18
 -1       584 5.47666E-05-2.67271E-05-1.14468E-05 3.54329E-05-3.50571E-18 4.60902E-18
 -1       585 1.46897E-04-5.77803E-05-3.84845E-05 4.24507E-06 1.56006E-18-5.10989E-18
 -1       586 1.35956E-04-4.52384E-05-3.90770E-05 2.02745E-05 2.46298E-18 5.00855E-18
 -1       587 9.39781E-05-4.86987E-05-1.90988E-05 3.92645E-05-3.42312E-18 1.13117E-18
 -1       588 4.47396E-05-2.47675E-05-8.13313E-06-3.75848E-05 3.22587E-18 7.69884E-18
 -1       589 2.48578E-05-1.25215E-05-4.72273E-06-1.52705E-05 1.04030E-18 8.37705E-18
 -1       590 1.38777E-04-2.04131E-05-5.11854E-05 6.27019E-06-7.11529E-18-5.78952E-18
 -1       591 1.66047E-05 2.70932E-06-7.70758E-06 1.74519E-06 1.39686E-18-1.22082E-17
 -1       592 8.37094E-05-2.05755E-05-2.69597E-05 1.80558E-05 3.51770E-18-4.93457E-18
 -1       593 1.39679E-04-5.85473E-05-3.48282E-05-5.67753E-06 1.31176E-18 1.15435E-18
 -1       594 1.41226E-04-1.96729E-05-5.27381E-05-8.94882E-06 9.09465E-18-4.34194E-18
 -1       595 1.39868E-04-1.38522E-05-5.45770E-05 6.69903E-06 9.67703E-18-1.04067E-18
 -1       596 1.46958E-04-2.78719E-05-5.14969E-05 1.80639E-05 8.01288E-18 2.05024E-18
 -1       597 1.36694E-04-4.16483E-05-4.10149E-05 1.87365E-06-4.06420E-18 2.49557E-19
 -1       598 1.50205E-04-4.79420E-05-4.41522E-05 1.39630E-05 4.30536E-18 3.10088E-18
 -1       599 1.05874E-04-4.92959E-05-2.41149E-05-2.67863E-05-9.73029E-19-3.53168E-18
 -1       600 7.09681E-05-3.07254E-05-1.68406E-05-3.20011E-05-1.53371E-18-7.14928E-18
 -1       601 3.49417E-05-8.26717E-06-1.08999E-05-2.14072E-05-4.96626E-19-1.06213E-17
 -1       602 2.51627E-05-1.24844E-06-9.73716E-06 2.58530E-05 2.99617E-18-1.10397E-17
 -1       603 9.74458E-05-3.99372E-05-2.44804E-05 3.46313E-05 2.34395E-18-4.31060E-18
 -1       604 1.15381E-04-5.53992E-05-2.55963E-05-3.40700E-05 2.49065E-18-1.85724E-18
 -1       605 1.23018E-04-4.67403E-05-3.27266E-05 2.00152E-05-3.84103E-19-1.58173E-18
 -1       606 1.28777E-04-7.51496E-06-5.26541E-05-6.58729E-06-9.20651E-18-2.16075E-18
 -1       607 1.35513E-04-9.42737E-06-5.45763E-05 2.53579E-06-9.02567E-18-4.40282E-18
 -1       608 1.40297E-04-4.10918E-05-4.29220E-05 1.46930E-06-3.10443E-18-6.53989E-18
 -1       609 1.35843E-04-5.40431E-05-3.52017E-05-1.45691E-05-8.27710E-20-5.11163E-18
 -1       610 8.35879E-05-4.43240E-05-1.65140E-05-4.47882E-05 4.35428E-18 2.72246E-18
 -1       611 1.09390E-04-2.81074E-05-3.48776E-05-1.59487E-05-3.53130E-18-1.46130E-18
 -1       612 1.24156E-04-3.70441E-05-3.73907E-05 5.82319E-06 2.33897E-18 2.99491E-18
 -1       613 1.27639E-04-6.09353E-05-2.85190E-05 2.54065E-05-1.17854E-18-2.78698E-18
 -1       614 1.08013E-04-2.79197E-05-3.43672E-05-1.04097E-05-1.43657E-18-3.23522E-18
 -1       615 9.52363E-05-2.85725E-05-2.85702E-05 3.98989E-09 6.11908E-19-3.59728E-20
 -1       616 4.62021E-05-9.05574E-06-1.54656E-05 3.34658E-05 4.45830E-18-8.95197E-18
 -1       617 1.25937E-04-1.36918E-05-4.85583E-05-1.27161E-05-8.17244E-18-9.26945E-19
 -1       618 8.04309E-05-2.94385E-05-2.15524E-05 3.57591E-05 4.39766E-18-5.47975E-18
 -1       619 6.08181E-05-1.66616E-05-1.85403E-05-2.31154E-05-1.54700E-18-7.17773E-18
 -1       620 2.73897E-05 5.84418E-06-1.37052E-05 1.39544E-05 2.84655E-18-1.06433E-17
 -1       621 1.24483E-04-4.78364E-05-3.28141E-05-1.16465E-06-3.24769E-19 1.83709E-18
 -1       622 1.36585E-04-5.91807E-05-3.31761E-05 7.62699E-06-1.18563E-18-5.60840E-18
 -1       623 9.52371E-05-2.85738E-05-2.85700E-05 5.48536E-09 7.96949E-19 7.28372E-21
 -1       624 8.27364E-05-3.66937E-05-1.94529E-05 3.37631E-05-4.36622E-18 1.11972E-18
 -1       625 1.09985E-04-2.93857E-05-3.45436E-05-1.46816E-05-2.97915E-18-8.47428E-19
 -1       626 1.06787E-04-2.48534E-05-3.51290E-05-1.17056E-05-3.33480E-18-1.06898E-18
 -1       627 1.03917E-04-2.11638E-05-3.54903E-05-5.50578E-06-3.48844E-18-2.02671E-18
 -1       628 1.03452E-04-2.13034E-05-3.52266E-05 2.15743E-06-3.69789E-18-3.34533E-18
 -1       629 1.05509E-04-2.55257E-05-3.42976E-05 7.97110E-06-2.50480E-18-4.32907E-18
 -1       630 1.08230E-04-3.12779E-05-3.29866E-05 9.81917E-06-1.31835E-18-4.52747E-18
 -1       631 1.09615E-04-3.56416E-05-3.17056E-05 8.13542E-06-2.66385E-19-3.71947E-18
 -1       632 1.09057E-04-3.74154E-05-3.07060E-05 4.73915E-06 1.90755E-19-3.46367E-18
 -1       633 1.07101E-04-3.70020E-05-3.00451E-05 1.26968E-06 5.46407E-20-3.79716E-18
 -1       634 1.04592E-04-3.53770E-05-2.96656E-05-1.43187E-06-3.25529E-19-3.43794E-18
 -1       635 1.02176E-04-3.34166E-05-2.94697E-05-3.17211E-06 6.20162E-20-2.45794E-18
 -1       636 1.00163E-04-3.16300E-05-2.93721E-05-4.07799E-06-3.35580E-19-2.15664E-18
 -1       637 9.86267E-05-3.02262E-05-2.93150E-05-4.36567E-06-7.04231E-19-2.47524E-18
 -1       638 9.75210E-05-2.92338E-05-2.92661E-05-4.24251E-06-1.02898E-18-2.53558E-18
 -1       639 9.67560E-05-2.85956E-05-2.92115E-05-3.87487E-06-9.13672E-19-1.58010E-18
 -1       640 9.62407E-05-2.82279E-05-2.91482E-05-3.38435E-06 3.83736E-19-9.83958E-19
 -1       641 9.58997E-05-2.80498E-05-2.90783E-05-2.85413E-06 2.16020E-19-8.20628E-19
 -1       642 9.56762E-05-2.79950E-05-2.90060E-05-2.33742E-06 9.37019E-19-1.77771E-18
 -1       643 9.55301E-05-2.80140E-05-2.89353E-05-1.86525E-06 1.70536E-18-1.65463E-18
 -1       644 9.54344E-05-2.80722E-05-2.88693E-05-1.45304E-06 4.98311E-19-1.43001E-18
 -1       645 9.53711E-05-2.81470E-05-2.88102E-05-1.10567E-06-6.32021E-19-1.70281E-18
 -1       646 9.53289E-05-2.82246E-05-2.87588E-05-8.21408E-07 2.47732E-19-1.94676E-18
 -1       647 9.53002E-05-2.82971E-05-2.87155E-05-5.94701E-07-2.81983E-19-1.08093E-18
 -1       648 9.52805E-05-2.83607E-05-2.86798E-05-4.18138E-07 9.52591E-19-1.26545E-18
 -1       649 9.52667E-05-2.84139E-05-2.86512E-05-2.83752E-07 5.23894E-19-6.89381E-19
 -1       650 9.52570E-05-2.84569E-05-2.86286E-05-1.83828E-07 1.11938E-18 9.07309E-19
 -1       651 9.52502E-05-2.84907E-05-2.86112E-05-1.11360E-07 8.08077E-19 6.67838E-19
 -1       652 9.52454E-05-2.85165E-05-2.85981E-05-6.02625E-08 8.90838E-19-2.21138E-19
 -1       653 9.52420E-05-2.85358E-05-2.85884E-05-2.54294E-08 5.57215E-19-4.93507E-19
 -1       654 9.52396E-05-2.85497E-05-2.85814E-05-2.69654E-09-2.61420E-19-2.54173E-19
 -1       655 9.52381E-05-2.85595E-05-2.85765E-05 1.12502E-08-3.39583E-19 1.55891E-18
 -1       656 9.52371E-05-2.85662E-05-2.85732E-05 1.89895E-08 2.22481E-19 1.74984E-18
 -1       657 9.52365E-05-2.85706E-05-2.85711E-05 2.24843E-08-5.34486E-19 4.87058E-19
 -1       658 9.52361E-05-2.85732E-05-2.85698E-05 2.31961E-08-4.24030E-19 1.19354E-19
 -1       659 9.52360E-05-2.85747E-05-2.85691E-05 2.21874E-08 7.58671E-19 2.24521E-20
 -1       660 9.52360E-05-2.85753E-05-2.85689E-05 2.02093E-08-1.35691E-19-1.60266E-18
 -1       661 9.52360E-05-2.85754E-05-2.85688E-05 1.77750E-08-1.99306E-18-3.38255E-18
 -1       662 9.52362E-05-2.85752E-05-2.85690E-05 1.52194E-08-1.08709E-18-1.39019E-18
 -1       663 9.52363E-05-2.85749E-05-2.85692E-05 1.27455E-08-7.23189E-19-7.06414E-19
 -1       664 9.52365E-05-2.85745E-05-2.85694E-05 1.04605E-08 7.11871E-19-5.02019E-19
 -1       665 9.52367E-05-2.85742E-05-2.85697E-05 8.41405E-09-4.20065E-19-4.62322E-19
 -1       666 9.52369E-05-2.85739E-05-2.85698E-05 6.86013E-09 1.31422E-19 6.35616E-19
 -1       667 1.30597E-04-3.21043E-05-4.25626E-05-1.27303E-05-4.64652E-18 7.93405E-19
 -1       668 1.07850E-04-3.86304E-05-2.96644E-05 1.49507E-05-1.91405E-18-2.91023E-18
 -1       669 1.01819E-04-3.23528E-05-2.97744E-05 1.48767E-05-6.12378E-19-1.77992E-18
 -1       670 9.87936E-05-2.88645E-05-2.99705E-05 1.34127E-05 1.95291E-19-4.12531E-19
 -1       671 9.73624E-05-2.72246E-05-3.00586E-05 1.15704E-05 1.27860E-19-5.54981E-19
 -1       672 9.67302E-05-2.66641E-05-3.00267E-05 9.68293E-06 2.42756E-19-8.40277E-19
 -1       673 9.64395E-05-2.66483E-05-2.99085E-05 7.91990E-06 1.72920E-19-3.49677E-19
 -1       674 9.62712E-05-2.68653E-05-2.97435E-05 6.35685E-06-1.00225E-19-5.04656E-19
 -1       675 9.61355E-05-2.71520E-05-2.95626E-05 5.01985E-06-7.25626E-19 7.51293E-20
 -1       676 9.60040E-05-2.74325E-05-2.93864E-05 3.90605E-06-9.13671E-19-4.68203E-19
 -1       677 9.58741E-05-2.76771E-05-2.92262E-05 2.99715E-06-9.90303E-19-1.47381E-18
 -1       678 9.57507E-05-2.78789E-05-2.90871E-05 2.26795E-06 3.74097E-19-1.99962E-18
 -1       679 9.56391E-05-2.80404E-05-2.89702E-05 1.69149E-06 1.12070E-18-1.41940E-18
 -1       680 9.55427E-05-2.81676E-05-2.88745E-05 1.24186E-06 3.18702E-19 4.81062E-20
 -1       681 9.54625E-05-2.82668E-05-2.87978E-05 8.95683E-07-2.08450E-19-1.29594E-18
 -1       682 9.53982E-05-2.83436E-05-2.87374E-05 6.32638E-07-9.55712E-19-8.47661E-19
 -1       683 9.53481E-05-2.84028E-05-2.86907E-05 4.35533E-07-8.29766E-21-1.36453E-18
 -1       684 9.53102E-05-2.84481E-05-2.86550E-05 2.90082E-07-5.21592E-19-1.90153E-18
 -1       685 9.52823E-05-2.84826E-05-2.86283E-05 1.84599E-07 3.21536E-19-1.44142E-18
 -1       686 9.52624E-05-2.85087E-05-2.86087E-05 1.09648E-07 1.13061E-18-5.37561E-19
 -1       687 9.52488E-05-2.85281E-05-2.85945E-05 5.77004E-08-2.81418E-20-1.31658E-18
 -1       688 9.52397E-05-2.85424E-05-2.85845E-05 2.28222E-08-4.73093E-19-1.30633E-18
 -1       689 9.52341E-05-2.85528E-05-2.85777E-05 3.91931E-10-9.64430E-19-1.32633E-18
 -1       690 9.52309E-05-2.85602E-05-2.85732E-05-1.31430E-08-1.04477E-18-2.38741E-18
 -1       691 9.52295E-05-2.85654E-05-2.85703E-05-2.04756E-08 1.92077E-19-1.60079E-18
 -1       692 9.52291E-05-2.85688E-05-2.85687E-05-2.36162E-08-4.56479E-19 3.61460E-19
 -1       693 9.52294E-05-2.85711E-05-2.85678E-05-2.40395E-08 7.34442E-19 1.43918E-18
 -1       694 9.52301E-05-2.85724E-05-2.85676E-05-2.28051E-08 2.04450E-19 1.26330E-18
 -1       695 9.52310E-05-2.85731E-05-2.85676E-05-2.06552E-08-3.26455E-19 4.84206E-19
 -1       696 9.52319E-05-2.85735E-05-2.85679E-05-1.80931E-08 5.12009E-19-3.54870E-20
 -1       697 9.52329E-05-2.85735E-05-2.85683E-05-1.54439E-08-1.25525E-19-1.11648E-18
 -1       698 9.52338E-05-2.85734E-05-2.85687E-05-1.29024E-08 1.04492E-18-2.07477E-18
 -1       699 9.52346E-05-2.85733E-05-2.85691E-05-1.05711E-08 2.63599E-18-3.89798E-18
 -1       700 9.52353E-05-2.85732E-05-2.85695E-05-8.48441E-09 1.33362E-18-1.79083E-18
 -1       701 9.52359E-05-2.85731E-05-2.85698E-05-6.63659E-09 1.26984E-18-7.09829E-19
 -1       702 9.52367E-05-2.85734E-05-2.85700E-05-5.49999E-09 5.75153E-19 3.54031E-19
 -1       703 9.52422E-05-2.85788E-05-2.85700E-05-1.01537E-09-6.53884E-19 2.60674E-18
 -1       704 9.52408E-05-2.85774E-05-2.85700E-05-4.54908E-09 1.39202E-19 3.52188E-19
 -1       705 9.52422E-05-2.85788E-05-2.85700E-05 1.05530E-09-7.98909E-19 1.35211E-18
 -1       706 9.52417E-05-2.85783E-05-2.85700E-05-2.96455E-09-3.16023E-19 2.41042E-18
 -1       707 9.52417E-05-2.85783E-05-2.85700E-05 2.96812E-09 4.83403E-20 1.41228E-18
 -1       708 9.52408E-05-2.85774E-05-2.85700E-05 4.55850E-09 6.64567E-19-1.45309E-18
 -1       709 9.52394E-05-2.85761E-05-2.85700E-05 5.59266E-09 5.46921E-19-5.82864E-19
 -1       710 1.41005E-04-5.31657E-05-3.77840E-05 1.27254E-05 1.47159E-18 4.45056E-18
 -1       711 1.22152E-04-1.51062E-05-4.63823E-05 8.08520E-06-6.30748E-18-5.65275E-18
 -1       712 1.25775E-04-4.40341E-05-3.51826E-05 1.13510E-06 9.84014E-20 2.57749E-19
 -1       713 4.62949E-05-1.47230E-05-1.29863E-05 1.97727E-05-2.15391E-18 4.24184E-18
 -1       714 1.39470E-04-5.30006E-05-3.72602E-05-7.68986E-06 3.68380E-19-6.75664E-18
 -1       715 1.17971E-04-4.74800E-05-3.02009E-05 1.23181E-05-2.58680E-18-3.73039E-18
 -1       716 1.29911E-04-5.42849E-05-3.24770E-05 4.51355E-06-1.62577E-18-5.48328E-18
 -1       717 1.11371E-04-3.14466E-05-3.42584E-05-1.51152E-05-2.52458E-18-9.80666E-19
 -1       718 1.14313E-04-4.30263E-05-3.05258E-05 1.54535E-05 2.31243E-18-1.04676E-18
 -1       719 1.26112E-04-5.61416E-05-2.99993E-05-1.87559E-05 2.17447E-18-4.85401E-18
 -1       720 1.25646E-04-5.34902E-05-3.08286E-05-9.06300E-06-1.08005E-18 7.94477E-19
 -1       721 1.16222E-04-5.50345E-05-2.60635E-05 2.60019E-05-4.06692E-18-2.79452E-18
 -1       722 1.11802E-04-3.58424E-05-3.25881E-05-2.40968E-07 8.84936E-19-2.11482E-18
 -1       723 4.56389E-05-1.57009E-05-1.23281E-05-2.55424E-05 2.57665E-18 6.78510E-18
 -1       724 9.59777E-05-3.88909E-05-2.41583E-05-2.25581E-05-2.13338E-18-3.12715E-18
 -1       725 3.26554E-05 3.01341E-06-1.47938E-05-7.24903E-06 4.91769E-19-1.01769E-17
 -1       726 1.02920E-04-4.94474E-05-2.27378E-05-3.48734E-05 4.28961E-18-4.73154E-19
 -1       727 1.16458E-04-8.79021E-06-4.66375E-05-9.55750E-07-7.20412E-18-3.75563E-18
 -1       728 3.44164E-05-9.07716E-06-1.02953E-05-2.98060E-06-2.63566E-19 6.06650E-18
 -1       729 1.29272E-04-3.07692E-05-4.25582E-05 1.03201E-05-3.86993E-18-6.92330E-18
 -1       730 1.32738E-04-4.88113E-05-3.61739E-05-1.89877E-07 1.00393E-19-7.01703E-18
 -1       731 7.24453E-05-3.35755E-05-1.62688E-05-3.93699E-05 4.62067E-18 3.16565E-18
 -1       732 1.12912E-04-3.34936E-05-3.40675E-05-9.33574E-06-7.89789E-19-1.98569E-18
 -1       733 7.43421E-05-2.16143E-05-2.24609E-05 3.01924E-05 4.81204E-18-5.34986E-18
 -1       734 9.92598E-05-3.46596E-05-2.75613E-05-1.37950E-05-1.13477E-18-2.05012E-18
 -1       735 1.40054E-04-3.97326E-05-4.34045E-05 2.18819E-05 4.19313E-18 4.82901E-18
 -1       736 1.01238E-04-3.61180E-05-2.78035E-05 2.07167E-05 3.49979E-18-2.53053E-18
 -1       737 1.38692E-04-2.22395E-05-5.03502E-05 1.70351E-05 7.67782E-18 1.72003E-18
 -1       738 9.52383E-05-2.85750E-05-2.85700E-05-5.74285E-09 1.63403E-18-8.14894E-19
 -1       739 1.11673E-04-3.13441E-05-3.44399E-05-1.44582E-05-2.10917E-18-1.65634E-18
 -1       740 6.82138E-05-2.37239E-05-1.87708E-05 2.62659E-05-3.07253E-18 2.01166E-18
 -1       741 1.14992E-04-1.12831E-05-4.47845E-05-8.01555E-06-6.81650E-18-2.20669E-18
 -1       742 9.52396E-05-2.85763E-05-2.85700E-05-5.40771E-09 2.01508E-18 1.81742E-18
 -1       743 1.26818E-04-1.74145E-05-4.75096E-05-2.42863E-06 7.77587E-18-1.87106E-18
 -1       744 1.08838E-04-1.96484E-05-3.83245E-05-1.13402E-05-4.33150E-18-1.34695E-18
 -1       745 1.06469E-04-1.62864E-05-3.87527E-05-2.25582E-06-4.80433E-18-2.75454E-18
 -1       746 1.08420E-04-2.03542E-05-3.78520E-05 6.80047E-06-4.17642E-18-3.85981E-18
 -1       747 1.12282E-04-2.91734E-05-3.56872E-05 1.06794E-05-2.17596E-18-4.83453E-18
 -1       748 1.14687E-04-3.70782E-05-3.32791E-05 8.83838E-06-2.53565E-19-4.98167E-18
 -1       749 1.13766E-04-4.06537E-05-3.13474E-05 4.22102E-06 2.65124E-19-4.21935E-18
 -1       750 1.10514E-04-4.03844E-05-3.00642E-05-2.28333E-07 2.61181E-19-3.96158E-18
 -1       751 1.06509E-04-3.80425E-05-2.93458E-05-3.37549E-06 7.51641E-19-3.15882E-18
 -1       752 1.02821E-04-3.51292E-05-2.90125E-05-5.07962E-06 5.71351E-19-1.86958E-18
 -1       753 9.99245E-05-3.24970E-05-2.88986E-05-5.72961E-06 1.99649E-20-1.45109E-18
 -1       754 9.78595E-05-3.04528E-05-2.88891E-05-5.70681E-06-7.48467E-19-2.04346E-18
 -1       755 9.65001E-05-2.90315E-05-2.89152E-05-5.29968E-06-8.05238E-19-1.85782E-18
 -1       756 9.56705E-05-2.81403E-05-2.89414E-05-4.70155E-06-4.59166E-20-1.29790E-18
 -1       757 9.52077E-05-2.76506E-05-2.89529E-05-4.03329E-06 3.80163E-20-1.23282E-19
 -1       758 9.49828E-05-2.74410E-05-2.89463E-05-3.36796E-06 5.02759E-19 9.22630E-20
 -1       759 9.49025E-05-2.74120E-05-2.89243E-05-2.74772E-06-4.80336E-20 2.07589E-21
 -1       760 9.49031E-05-2.74892E-05-2.88915E-05-2.19465E-06 3.06800E-19-8.74090E-19
 -1       761 9.49437E-05-2.76207E-05-2.88526E-05-1.71781E-06 1.24358E-18-2.05883E-18
 -1       762 9.49997E-05-2.77721E-05-2.88117E-05-1.31790E-06 4.13482E-19-1.76995E-18
 -1       763 9.50568E-05-2.79226E-05-2.87717E-05-9.90463E-07-1.78351E-19-1.97171E-19
 -1       764 9.51080E-05-2.80602E-05-2.87347E-05-7.28159E-07 9.59388E-19-3.47353E-19
 -1       765 9.51504E-05-2.81795E-05-2.87017E-05-5.22322E-07 2.71407E-19-4.04859E-20
 -1       766 9.51834E-05-2.82788E-05-2.86734E-05-3.64027E-07 1.15346E-18 4.69014E-19
 -1       767 9.52080E-05-2.83589E-05-2.86496E-05-2.44770E-07 1.02065E-18 9.41033E-19
 -1       768 9.52253E-05-2.84217E-05-2.86301E-05-1.56856E-07 3.15925E-19 1.00619E-18
 -1       769 9.52369E-05-2.84696E-05-2.86145E-05-9.35853E-08-7.64521E-19 6.88363E-19
 -1       770 9.52440E-05-2.85053E-05-2.86023E-05-4.92999E-08 8.57561E-19-7.07822E-21
 -1       771 9.52480E-05-2.85313E-05-2.85929E-05-1.93453E-08 7.69157E-19 1.22961E-19
 -1       772 9.52497E-05-2.85495E-05-2.85858E-05 2.24369E-11 4.64567E-19-1.42005E-19
 -1       773 9.52499E-05-2.85620E-05-2.85806E-05 1.17516E-08-6.24844E-19-3.17535E-20
 -1       774 9.52493E-05-2.85700E-05-2.85768E-05 1.81174E-08-5.41706E-19-2.31721E-19
 -1       775 9.52480E-05-2.85750E-05-2.85742E-05 2.08408E-08-1.41095E-18-4.53652E-20
 -1       776 9.52466E-05-2.85777E-05-2.85724E-05 2.11953E-08 1.22790E-18-2.05189E-19
 -1       777 9.52451E-05-2.85789E-05-2.85712E-05 2.01018E-08-1.12423E-19-8.26611E-19
 -1       778 9.52436E-05-2.85791E-05-2.85705E-05 1.82076E-08-1.20793E-18-5.15482E-20
 -1       779 9.52423E-05-2.85787E-05-2.85701E-05 1.59520E-08-1.88447E-18-8.84285E-19
 -1       780 9.52412E-05-2.85780E-05-2.85699E-05 1.36195E-08-1.34138E-18-3.67093E-18
 -1       781 9.52402E-05-2.85772E-05-2.85699E-05 1.13887E-08 1.49674E-18-2.04019E-18
 -1       782 9.52395E-05-2.85764E-05-2.85699E-05 9.35147E-09 7.97096E-19-6.64915E-19
 -1       783 9.10620E-05-2.61964E-05-2.77945E-05 1.56405E-05-6.47988E-19-1.10106E-18
 -1       784 1.14862E-04-3.24007E-05-3.53494E-05-1.53283E-05-2.34932E-18-7.32273E-19
 -1       785 9.31377E-05-3.03657E-05-2.68530E-05 1.92005E-05-1.55496E-18-1.32704E-18
 -1       786 9.14627E-05-2.39687E-05-2.89259E-05 1.04305E-05 4.47984E-19-1.17491E-18
 -1       787 9.22927E-05-2.42532E-05-2.91594E-05 8.52292E-06-6.14445E-20-1.26631E-18
 -1       788 9.30795E-05-2.48267E-05-2.92506E-05 6.91677E-06 1.83943E-19-1.64221E-18
 -1       789 9.37259E-05-2.54703E-05-2.92519E-05 5.55725E-06-1.07179E-18-1.06679E-18
 -1       790 9.42158E-05-2.60773E-05-2.92018E-05 4.41222E-06 5.86295E-20-1.29048E-18
 -1       791 9.45683E-05-2.66051E-05-2.91268E-05 3.45796E-06-1.91520E-19-1.70398E-18
 -1       792 9.48126E-05-2.70439E-05-2.90435E-05 2.67324E-06-5.32998E-19-2.07993E-18
 -1       793 9.49768E-05-2.73989E-05-2.89618E-05 2.03706E-06-5.25561E-19-9.27895E-19
 -1       794 9.50844E-05-2.76809E-05-2.88871E-05 1.52860E-06 4.56219E-20-4.51154E-19
 -1       795 9.51532E-05-2.79023E-05-2.88217E-05 1.12796E-06 8.44591E-19-1.00689E-18
 -1       796 9.51960E-05-2.80743E-05-2.87664E-05 8.16741E-07-5.46059E-19-1.06552E-18
 -1       797 9.52218E-05-2.82068E-05-2.87207E-05 5.78513E-07-2.56061E-20-1.71397E-18
 -1       798 9.52367E-05-2.83080E-05-2.86837E-05 3.98945E-07 2.31713E-19-1.74760E-18
 -1       799 9.52447E-05-2.83846E-05-2.86543E-05 2.65837E-07-6.38586E-19-1.44065E-18
 -1       800 9.52485E-05-2.84418E-05-2.86314E-05 1.68991E-07 4.64635E-19-9.45940E-19
 -1       801 9.52497E-05-2.84842E-05-2.86138E-05 1.00033E-07 5.12200E-19-1.26725E-18
 -1       802 9.52495E-05-2.85149E-05-2.86005E-05 5.21911E-08-1.81559E-19-1.27007E-18
 -1       803 9.52485E-05-2.85369E-05-2.85907E-05 2.00720E-08-7.75488E-19-2.21783E-18
 -1       804 9.52471E-05-2.85523E-05-2.85835E-05-5.55363E-10-1.06348E-18-6.23905E-19
 -1       805 9.52456E-05-2.85627E-05-2.85784E-05-1.29614E-08-3.97018E-19 4.15016E-19
 -1       806 9.52442E-05-2.85695E-05-2.85749E-05-1.96344E-08-5.36220E-19 1.12357E-18
 -1       807 9.52429E-05-2.85737E-05-2.85725E-05-2.24359E-08 2.74499E-19-6.05912E-19
 -1       808 9.52417E-05-2.85760E-05-2.85710E-05-2.27328E-08-4.74718E-19-9.70988E-19
 -1       809 9.52408E-05-2.85771E-05-2.85701E-05-2.15071E-08 1.28819E-18-2.19581E-19
 -1       810 9.52399E-05-2.85774E-05-2.85697E-05-1.94461E-08 4.94230E-19-1.08516E-18
 -1       811 9.52392E-05-2.85771E-05-2.85695E-05-1.70143E-08 1.14781E-18-5.23514E-19
 -1       812 9.52387E-05-2.85766E-05-2.85695E-05-1.45111E-08 1.99169E-18-1.67273E-18
 -1       813 9.52383E-05-2.85760E-05-2.85695E-05-1.21110E-08 2.21575E-18-1.79762E-18
 -1       814 9.52380E-05-2.85754E-05-2.85697E-05-9.91845E-09 6.71471E-19-4.88397E-19
 -1       815 9.52378E-05-2.85749E-05-2.85698E-05-7.94941E-09 5.26032E-19 5.71664E-19
 -1       816 9.52381E-05-2.85750E-05-2.85699E-05-6.80292E-09 1.27143E-19 4.33895E-19
 -1       817 9.52411E-05-2.85775E-05-2.85701E-05 6.30746E-09 7.38871E-19 5.86221E-19
 -1       818 9.52440E-05-2.85800E-05-2.85703E-05 2.79403E-11-5.57683E-19 9.89622E-19
 -1       819 6.66602E-05-2.40926E-05-1.79585E-05-2.97121E-05 3.42935E-18 3.70273E-18
 -1       820 9.52390E-05-2.85758E-05-2.85700E-05 7.05057E-09 4.27150E-19-4.29397E-19
 -1       821 1.12233E-04-1.50453E-05-4.19193E-05 5.22438E-06-5.47218E-18-4.69638E-18
 -1       822 1.23686E-04-3.90566E-05-3.63939E-05 9.02031E-06-8.91760E-19-6.03834E-18
 -1       823 9.52427E-05-2.85788E-05-2.85702E-05 4.66051E-09-2.03566E-19-4.96234E-19
 -1       824 9.08521E-05-2.43775E-05-2.84884E-05 1.27473E-05 1.35442E-19-1.24448E-18
 -1       825 1.12898E-04-2.70539E-05-3.68557E-05-1.57523E-05-3.33832E-18-4.12445E-19
 -1       826 1.03191E-04-4.35428E-05-2.54858E-05 2.47626E-05-3.50310E-18-2.01374E-18
 -1       827 4.86500E-05-1.12370E-05-1.57099E-05-1.15152E-05 5.59674E-19 4.56032E-18
 -1       828 1.23080E-04-3.60396E-05-3.74514E-05-1.22074E-05-1.97737E-18 3.50003E-19
 -1       829 1.20960E-04-2.40787E-05-4.17727E-05-1.61899E-05-4.94772E-18 1.60208E-19
 -1       830 1.14651E-04-5.10959E-05-2.71594E-05-2.13071E-05 3.21459E-18-3.38060E-18
 -1       831 1.15013E-04-3.37585E-05-3.47961E-05-1.29320E-05-1.33517E-18-1.33874E-18
 -1       832 1.24951E-04-5.18237E-05-3.14052E-05-7.16152E-06 1.44918E-18-6.41311E-18
 -1       833 1.17968E-04-2.42140E-05-4.03843E-05 1.09580E-05-4.07342E-18-5.72895E-18
 -1       834 9.52437E-05-2.85797E-05-2.85703E-05 2.48241E-09 6.33212E-19 2.76809E-18
 -1       835 9.02318E-05-3.90713E-05-2.17676E-05-3.22254E-05 4.20596E-18 6.36075E-19
 -1       836 5.00392E-05-1.10301E-05-1.63889E-05 6.98644E-06-1.14386E-18 4.03328E-18
 -1       837 8.88443E-05-3.31384E-05-2.36886E-05 2.50909E-05-2.83798E-18-7.82979E-19
 -1       838 1.17243E-04-3.77016E-05-3.41191E-05-6.30048E-06-1.42907E-19-1.13873E-18
 -1       839 9.52427E-05-2.85788E-05-2.85702E-05-4.65643E-09-3.13025E-19 1.53122E-18
 -1       840 9.52437E-05-2.85797E-05-2.85703E-05-2.45206E-09-1.65964E-18 8.27006E-19
 -1       841 9.52413E-05-2.85777E-05-2.85701E-05-6.04369E-09 2.88533E-19-4.03964E-19
 -1       842 6.37556E-05-1.67133E-05-1.99865E-05 1.64241E-05-1.94481E-18 2.31247E-18
 -1       843 1.15928E-04-3.98117E-05-3.26366E-05 3.20219E-06 1.12240E-18-1.11637E-18
 -1       844 1.20758E-04-4.48325E-05-3.25570E-05 2.69185E-06 6.17060E-19-5.44802E-18
 -1       845 1.15431E-04-4.51626E-05-3.00945E-05-3.78987E-06 1.19934E-18-4.49400E-18
 -1       846 1.08787E-04-4.14930E-05-2.88360E-05-7.44832E-06 1.27024E-18-3.38272E-18
 -1       847 1.03265E-04-3.71914E-05-2.83122E-05-8.74182E-06 1.51718E-18-2.60268E-18
 -1       848 9.91861E-05-3.33843E-05-2.81997E-05-8.62854E-06 5.48994E-19-2.41069E-18
 -1       849 9.65106E-05-3.05390E-05-2.82735E-05-7.83424E-06-3.71114E-19-1.96939E-18
 -1       850 9.49077E-05-2.86159E-05-2.84107E-05-6.78695E-06-4.29147E-19-1.55301E-18
 -1       851 9.40619E-05-2.74461E-05-2.85496E-05-5.71557E-06-2.39762E-19-4.41464E-20
 -1       852 9.37105E-05-2.68313E-05-2.86625E-05-4.71838E-06 5.56669E-19-2.62658E-19
 -1       853 9.36616E-05-2.65987E-05-2.87412E-05-3.83340E-06 3.31585E-20-1.04152E-18
 -1       854 9.37814E-05-2.66108E-05-2.87874E-05-3.07007E-06-2.31327E-19-6.94256E-19
 -1       855 9.39819E-05-2.67659E-05-2.88069E-05-2.42469E-06-5.10509E-19-8.18693E-19
 -1       856 9.42077E-05-2.69927E-05-2.88065E-05-1.88791E-06 4.90132E-19-5.45736E-19
 -1       857 9.44268E-05-2.72439E-05-2.87927E-05-1.44815E-06 7.53838E-19-7.94761E-19
 -1       858 9.46222E-05-2.74901E-05-2.87709E-05-1.09315E-06 1.04175E-18-1.41321E-18
 -1       859 9.47869E-05-2.77147E-05-2.87452E-05-8.10771E-07 4.01008E-19-1.14141E-18
 -1       860 9.49199E-05-2.79096E-05-2.87187E-05-5.89530E-07 3.31899E-19-9.76247E-19
 -1       861 9.50235E-05-2.80727E-05-2.86932E-05-4.18881E-07 7.67526E-19-1.56072E-18
 -1       862 9.51015E-05-2.82049E-05-2.86700E-05-2.89415E-07 1.09295E-18-1.39626E-18
 -1       863 9.51583E-05-2.83094E-05-2.86495E-05-1.92932E-07 1.64743E-18-1.35994E-18
 -1       864 9.51983E-05-2.83900E-05-2.86321E-05-1.22442E-07-5.72215E-19-1.01028E-18
 -1       865 9.52253E-05-2.84506E-05-2.86177E-05-7.20990E-08-1.54218E-19-1.45549E-19
 -1       866 9.52425E-05-2.84952E-05-2.86060E-05-3.71096E-08 9.08498E-19-2.05237E-18
 -1       867 9.52526E-05-2.85271E-05-2.85966E-05-1.36091E-08 4.82797E-19-2.89918E-18
 -1       868 9.52577E-05-2.85492E-05-2.85894E-05 1.46409E-09-4.10684E-21-3.13725E-18
 -1       869 9.52595E-05-2.85639E-05-2.85838E-05 1.04937E-08-5.66289E-20-1.58690E-18
 -1       870 9.52591E-05-2.85733E-05-2.85796E-05 1.53040E-08-6.34517E-19-1.51391E-19
 -1       871 9.52574E-05-2.85788E-05-2.85766E-05 1.72650E-08-9.31004E-19 1.21880E-18
 -1       872 9.52550E-05-2.85816E-05-2.85744E-05 1.73856E-08 3.00343E-19 2.61771E-19
 -1       873 9.52524E-05-2.85825E-05-2.85728E-05 1.63915E-08-1.02951E-18-3.10918E-19
 -1       874 9.52498E-05-2.85824E-05-2.85718E-05 1.47904E-08-2.05215E-18-1.67046E-18
 -1       875 9.52474E-05-2.85816E-05-2.85711E-05 1.29250E-08-2.32713E-18 5.38805E-19
 -1       876 9.52452E-05-2.85804E-05-2.85706E-05 1.10175E-08-6.77453E-19 5.20080E-19
 -1       877 9.52434E-05-2.85792E-05-2.85703E-05 9.18623E-09 1.42611E-18-1.34726E-18
 -1       878 8.94160E-05-2.26509E-05-2.86139E-05 6.43992E-06 6.16543E-19 4.60134E-19
 -1       879 8.75521E-05-2.16832E-05-2.82308E-05 7.84737E-06-4.47767E-20 6.35832E-19
 -1       880 9.20696E-05-2.45765E-05-2.89256E-05 4.29603E-06-3.96675E-20-3.43746E-19
 -1       881 9.29487E-05-2.53846E-05-2.89560E-05 3.45402E-06 4.69008E-19-2.44402E-19
 -1       882 9.36047E-05-2.60654E-05-2.89454E-05 2.73821E-06 2.89334E-19-1.06008E-18
 -1       883 9.40878E-05-2.66251E-05-2.89125E-05 2.13785E-06-1.25723E-18-1.03864E-18
 -1       884 9.44395E-05-2.70771E-05-2.88696E-05 1.64235E-06-2.50757E-20 3.16131E-20
 -1       885 9.46933E-05-2.74373E-05-2.88240E-05 1.24024E-06 1.33012E-18-1.02612E-18
 -1       886 9.48746E-05-2.77211E-05-2.87801E-05 9.19390E-07-3.96598E-19-1.03923E-18
 -1       887 9.50028E-05-2.79423E-05-2.87402E-05 6.67669E-07 9.11576E-20-8.37238E-19
 -1       888 9.50922E-05-2.81130E-05-2.87054E-05 4.73514E-07 1.74648E-19-7.69755E-19
 -1       889 9.51537E-05-2.82433E-05-2.86759E-05 3.26364E-07-2.29693E-19-2.73128E-19
 -1       890 9.51951E-05-2.83417E-05-2.86515E-05 2.16889E-07 7.63122E-19-1.50233E-18
 -1       891 9.52221E-05-2.84149E-05-2.86317E-05 1.37083E-07 4.08137E-19-1.17667E-18
 -1       892 9.52390E-05-2.84685E-05-2.86159E-05 8.02364E-08 4.50474E-19 1.47646E-19
 -1       893 9.52489E-05-2.85072E-05-2.86036E-05 4.08471E-08 1.16283E-19 2.62178E-19
 -1       894 9.52541E-05-2.85345E-05-2.85941E-05 1.44867E-08-1.17057E-18 2.48057E-19
 -1       895 9.52560E-05-2.85531E-05-2.85869E-05-2.34403E-09-7.78901E-19-4.08605E-19
 -1       896 9.52560E-05-2.85655E-05-2.85816E-05-1.23619E-08-8.59444E-19-8.83164E-19
 -1       897 9.52547E-05-2.85733E-05-2.85778E-05-1.76393E-08 1.18789E-18-8.64766E-19
 -1       898 9.52528E-05-2.85778E-05-2.85750E-05-1.97279E-08-3.50219E-19 4.48170E-19
 -1       899 9.52507E-05-2.85801E-05-2.85731E-05-1.97664E-08-6.46158E-19 9.40826E-19
 -1       900 9.52485E-05-2.85809E-05-2.85718E-05-1.85712E-08 1.55386E-18 2.29403E-18
 -1       901 9.52464E-05-2.85807E-05-2.85710E-05-1.67124E-08 1.50176E-18 2.18405E-18
 -1       902 9.52445E-05-2.85800E-05-2.85705E-05-1.45722E-08 2.25081E-18 9.75000E-19
 -1       903 9.52429E-05-2.85790E-05-2.85702E-05-1.23983E-08 2.12847E-18 7.91176E-19
 -1       904 9.52416E-05-2.85780E-05-2.85701E-05-1.03256E-08 8.70782E-19-3.69055E-21
 -1       905 9.52404E-05-2.85771E-05-2.85700E-05-8.44172E-09 5.03903E-19 9.55504E-19
 -1       906 1.02024E-04-4.21159E-05-2.56238E-05-2.20950E-05 3.12901E-18-1.64116E-18
 -1       907 9.52434E-05-2.85792E-05-2.85703E-05 6.71124E-09 1.48042E-18-8.64654E-19
 -1       908 8.03761E-05-2.18518E-05-2.50636E-05 1.61497E-05-1.24577E-18 5.27650E-20
 -1       909 9.52397E-05-2.85764E-05-2.85700E-05-6.70340E-09 1.18662E-18 1.69352E-18
 -1       910 8.19403E-05-2.95590E-05-2.23611E-05-2.55349E-05 2.96779E-18 8.71845E-19
 -1       911 6.43136E-05-1.72346E-05-2.00433E-05-1.78179E-05 1.40760E-18 2.68633E-18
 -1       912 1.16512E-04-4.86522E-05-2.90880E-05-1.10623E-05 2.28977E-18-5.23198E-18
 -1       913 9.09108E-05-2.36512E-05-2.88256E-05 5.27978E-06-4.45651E-19 5.02762E-19
 -1       914 5.69311E-05-1.16719E-05-1.92406E-05-2.53904E-06-3.18885E-19 3.52401E-18
 -1       915 8.28122E-05-2.07805E-05-2.65879E-05 1.22130E-05-2.39388E-19-2.82793E-19
 -1       916 9.52460E-05-2.85812E-05-2.85706E-05-1.46316E-09-3.46785E-19 1.98637E-18
 -1       917 9.52451E-05-2.85805E-05-2.85705E-05-4.30491E-09-2.96723E-19 4.78817E-19
 -1       918 9.52460E-05-2.85812E-05-2.85706E-05 1.51231E-09-5.70205E-19 3.92984E-18
 -1       919 9.52436E-05-2.85794E-05-2.85704E-05-6.33487E-09 5.77968E-19-2.68538E-19
 -1       920 8.53157E-05-2.09420E-05-2.75926E-05 9.65486E-06 1.67216E-19 1.38630E-19
 -1       921 6.39030E-05-1.38932E-05-2.13417E-05 7.45650E-06-6.48833E-19 2.24875E-18
 -1       922 9.52451E-05-2.85805E-05-2.85705E-05 4.32783E-09 2.79319E-19 6.28806E-19
 -1       923 7.89391E-05-2.52846E-05-2.28694E-05 2.22024E-05-2.12569E-18 3.69617E-19
 -1       924 1.01949E-04-3.83393E-05-2.72833E-05-1.39315E-05 1.83318E-18-2.97416E-18
 -1       925 9.71697E-05-3.34866E-05-2.73048E-05-1.23924E-05 1.20269E-18-2.89374E-18
 -1       926 9.41098E-05-2.98820E-05-2.75304E-05-1.02783E-05 4.54932E-19-2.44395E-18
 -1       927 9.26388E-05-2.76951E-05-2.78328E-05-8.28603E-06 3.18185E-19-1.16256E-18
 -1       928 9.20296E-05-2.64320E-05-2.81131E-05-6.58428E-06 2.62402E-19-5.80109E-19
 -1       929 9.19567E-05-2.58242E-05-2.83425E-05-5.18017E-06-9.79906E-20-5.86419E-19
 -1       930 9.21861E-05-2.56544E-05-2.85136E-05-4.04667E-06-8.73827E-19-1.51915E-18
 -1       931 9.25650E-05-2.57588E-05-2.86312E-05-3.14136E-06 1.65091E-19-1.25024E-18
 -1       932 9.29970E-05-2.60195E-05-2.87047E-05-2.42211E-06 1.08868E-19-6.54573E-19
 -1       933 9.34243E-05-2.63547E-05-2.87441E-05-1.85278E-06-1.47955E-20 1.43649E-19
 -1       934 9.38146E-05-2.67106E-05-2.87589E-05-1.40406E-06 1.79745E-19-5.34483E-19
 -1       935 9.41526E-05-2.70534E-05-2.87568E-05-1.05234E-06 7.81520E-19-4.50966E-19
 -1       936 9.44338E-05-2.73639E-05-2.87443E-05-7.78550E-07 5.28366E-19-3.52241E-19
 -1       937 9.46600E-05-2.76332E-05-2.87258E-05-5.67214E-07 6.27068E-19-1.09806E-18
 -1       938 9.48368E-05-2.78588E-05-2.87049E-05-4.05706E-07 6.82880E-19-1.05594E-18
 -1       939 9.49712E-05-2.80427E-05-2.86837E-05-2.83708E-07 4.65745E-19-1.34847E-18
 -1       940 9.50706E-05-2.81888E-05-2.86637E-05-1.92789E-07 8.50107E-19-1.35576E-18
 -1       941 9.51420E-05-2.83022E-05-2.86456E-05-1.26087E-07 6.67187E-19-2.33761E-18
 -1       942 9.51916E-05-2.83884E-05-2.86300E-05-7.80491E-08-3.96777E-19-2.33040E-18
 -1       943 9.52247E-05-2.84524E-05-2.86167E-05-4.42153E-08-7.10956E-19-2.13147E-18
 -1       944 9.52456E-05-2.84988E-05-2.86058E-05-2.10404E-08 4.87232E-20-2.51568E-18
 -1       945 9.52577E-05-2.85315E-05-2.85969E-05-5.73467E-09 5.80724E-20-2.77464E-18
 -1       946 9.52636E-05-2.85537E-05-2.85900E-05 3.86938E-09 1.26498E-18-1.80048E-18
 -1       947 9.52655E-05-2.85683E-05-2.85845E-05 9.43374E-09 1.27923E-18 3.31886E-20
 -1       948 9.52648E-05-2.85772E-05-2.85804E-05 1.22136E-08-1.01692E-19 2.92107E-19
 -1       949 9.52625E-05-2.85822E-05-2.85773E-05 1.31413E-08-5.64637E-20 1.69666E-18
 -1       950 9.52595E-05-2.85844E-05-2.85750E-05 1.28957E-08-7.96678E-20 2.32301E-18
 -1       951 9.52562E-05-2.85849E-05-2.85734E-05 1.19611E-08-1.66147E-18 1.64767E-18
 -1       952 9.52528E-05-2.85843E-05-2.85722E-05 1.06704E-08-1.69388E-18 2.66314E-18
 -1       953 9.52498E-05-2.85831E-05-2.85714E-05 9.25052E-09-2.10509E-18 3.23028E-18
 -1       954 9.52470E-05-2.85816E-05-2.85709E-05 7.82850E-09-7.38059E-19 2.31633E-18
 -1       955 9.52480E-05-2.85824E-05-2.85710E-05-3.43888E-09 1.00027E-18 1.51512E-18
 -1       956 9.23053E-05-3.33190E-05-2.52570E-05-1.95751E-05 2.16015E-18-5.05331E-19
 -1       957 9.22754E-05-2.50661E-05-2.88041E-05 2.37692E-06 1.01627E-18 3.04811E-19
 -1       958 9.12204E-05-2.41793E-05-2.87321E-05 2.88700E-06 2.80579E-19 3.03395E-19
 -1       959 9.36797E-05-2.64200E-05-2.88257E-05 1.52031E-06-1.03290E-18-1.41778E-18
 -1       960 9.41308E-05-2.69163E-05-2.88063E-05 1.18040E-06 5.81741E-20-5.11748E-19
 -1       961 9.44650E-05-2.73141E-05-2.87790E-05 8.98130E-07 3.43003E-19 8.51343E-19
 -1       962 9.47103E-05-2.76292E-05-2.87491E-05 6.69025E-07 5.05837E-19 3.46055E-19
 -1       963 9.48882E-05-2.78759E-05-2.87196E-05 4.87034E-07 6.17257E-19-3.19031E-19
 -1       964 9.50155E-05-2.80668E-05-2.86923E-05 3.45432E-07 2.02221E-19-1.27859E-18
 -1       965 9.51050E-05-2.82127E-05-2.86681E-05 2.37495E-07 6.39003E-19-1.60250E-18
 -1       966 9.51665E-05-2.83226E-05-2.86474E-05 1.56934E-07 3.45026E-20-4.59769E-19
 -1       967 9.52077E-05-2.84042E-05-2.86301E-05 9.81473E-08 5.41274E-19-1.16180E-18
 -1       968 9.52341E-05-2.84637E-05-2.86159E-05 5.63200E-08 9.37305E-20-1.09313E-18
 -1       969 9.52500E-05-2.85062E-05-2.86045E-05 2.74352E-08 2.23700E-20 2.38630E-19
 -1       970 9.52588E-05-2.85359E-05-2.85955E-05 8.22380E-09 1.61580E-19 6.64174E-19
 -1       971 9.52626E-05-2.85560E-05-2.85885E-05-3.91588E-09 7.86051E-20 3.67859E-19
 -1       972 9.52632E-05-2.85690E-05-2.85832E-05-1.10121E-08 2.82250E-19-1.64312E-18
 -1       973 9.52619E-05-2.85770E-05-2.85793E-05-1.46146E-08-2.74119E-19-1.11616E-18
 -1       974 9.52595E-05-2.85814E-05-2.85763E-05-1.58831E-08-9.78843E-19-1.89028E-18
 -1       975 9.52566E-05-2.85833E-05-2.85742E-05-1.56666E-08-3.14116E-19-7.15958E-19
 -1       976 9.52535E-05-2.85837E-05-2.85728E-05-1.45721E-08 1.38786E-18 4.37494E-19
 -1       977 9.52506E-05-2.85831E-05-2.85718E-05-1.30234E-08 2.29767E-18 1.20133E-18
 -1       978 9.52479E-05-2.85820E-05-2.85711E-05-1.12961E-08 2.38857E-18 1.87595E-18
 -1       979 9.52456E-05-2.85807E-05-2.85707E-05-9.56894E-09 9.85341E-19 1.86343E-18
 -1       980 8.57180E-05-2.06394E-05-2.78917E-05 4.73176E-06 8.08148E-20 3.82749E-19
 -1       981 8.80496E-05-2.19583E-05-2.83254E-05 4.04549E-06-3.21781E-20 5.66608E-19
 -1       982 1.05876E-04-4.24021E-05-2.71706E-05-1.58307E-05 2.38285E-18-3.50303E-18
 -1       983 7.69384E-05-2.24687E-05-2.33140E-05-1.74496E-05 1.54845E-18 1.13930E-18
 -1       984 8.98412E-05-2.31419E-05-2.85857E-05 3.44372E-06 2.73417E-19 2.01849E-19
 -1       985 6.64735E-05-1.48600E-05-2.20716E-05-7.82228E-06 9.23683E-19 1.89785E-18
 -1       986 7.16786E-05-1.75710E-05-2.31265E-05 1.32715E-05-1.01169E-18 1.07876E-18
 -1       987 9.30763E-05-2.58086E-05-2.88291E-05 1.91969E-06 2.17893E-19 3.11226E-20
 -1       988 9.52465E-05-2.85814E-05-2.85708E-05-6.09910E-09 1.16541E-18-9.67917E-19
 -1       989 9.52486E-05-2.85828E-05-2.85711E-05 1.87361E-11-4.90096E-19 1.98441E-18
 -1       990 7.69691E-05-1.79244E-05-2.53041E-05 9.62551E-06-5.56274E-19 4.27554E-19
 -1       991 6.84688E-05-1.44094E-05-2.31352E-05 4.16459E-07-9.30198E-20 1.99168E-18
 -1       992 8.27112E-05-1.92562E-05-2.71948E-05 5.54520E-06 3.48330E-19 8.09607E-19
 -1       993 9.00681E-05-2.81366E-05-2.65070E-05-1.28107E-05 1.22960E-18-1.33863E-18
 -1       994 8.92066E-05-2.60060E-05-2.70912E-05-9.71145E-06 9.36329E-19-8.90112E-19
 -1       995 8.92328E-05-2.48764E-05-2.75816E-05-7.22469E-06 2.53225E-19-1.41441E-18
 -1       996 8.97287E-05-2.44734E-05-2.79668E-05-5.37567E-06-1.92016E-19-1.59084E-18
 -1       997 9.04131E-05-2.44913E-05-2.82524E-05-3.98877E-06-4.00327E-19-1.75211E-18
 -1       998 9.11621E-05-2.47701E-05-2.84539E-05-2.95725E-06-1.64681E-19-7.37134E-19
 -1       999 9.18920E-05-2.51864E-05-2.85882E-05-2.18963E-06 5.47688E-19-7.19391E-19
 -1      1000 9.25603E-05-2.56604E-05-2.86715E-05-1.61730E-06 4.37377E-19-8.95624E-19
 -1      1001 9.31455E-05-2.61388E-05-2.87173E-05-1.19016E-06 4.70233E-19-8.19160E-19
 -1      1002 9.36404E-05-2.65885E-05-2.87366E-05-8.71198E-07 2.85086E-19-3.37945E-19
 -1      1003 9.40470E-05-2.69912E-05-2.87383E-05-6.33061E-07 5.81009E-19-2.03834E-18
 -1      1004 9.43725E-05-2.73385E-05-2.87289E-05-4.55534E-07 2.99695E-19-1.29741E-18
 -1      1005 9.46269E-05-2.76294E-05-2.87133E-05-3.23598E-07 1.94135E-20-1.22601E-18
 -1      1006 9.48213E-05-2.78668E-05-2.86948E-05-2.26040E-07 4.75616E-19-1.60402E-18
 -1      1007 9.49663E-05-2.80563E-05-2.86758E-05-1.54427E-07 1.19848E-18-2.14942E-18
 -1      1008 9.50718E-05-2.82042E-05-2.86576E-05-1.02377E-07 9.65667E-19-1.14178E-18
 -1      1009 9.51464E-05-2.83174E-05-2.86410E-05-6.50362E-08-2.25632E-19-1.02113E-18
 -1      1010 9.51975E-05-2.84022E-05-2.86266E-05-3.86940E-08-1.01617E-18-7.58090E-19
 -1      1011 9.52309E-05-2.84643E-05-2.86143E-05-2.05131E-08-1.27268E-18-4.95772E-19
 -1      1012 9.52516E-05-2.85087E-05-2.86041E-05-8.32461E-09-3.47581E-19-6.85384E-19
 -1      1013 9.52631E-05-2.85395E-05-2.85958E-05-4.76676E-10 1.08180E-18-1.15414E-18
 -1      1014 9.52684E-05-2.85601E-05-2.85893E-05 4.28114E-09 2.69655E-18-1.19968E-18
 -1      1015 9.52695E-05-2.85732E-05-2.85841E-05 6.88709E-09 8.18596E-19-9.98780E-19
 -1      1016 9.52681E-05-2.85809E-05-2.85802E-05 8.03715E-09 9.52631E-19 2.36131E-19
 -1      1017 9.52652E-05-2.85849E-05-2.85772E-05 8.23983E-09 2.64805E-19-8.30905E-19
 -1      1018 9.52615E-05-2.85864E-05-2.85750E-05 7.85964E-09-1.59099E-19 1.69314E-19
 -1      1019 9.52577E-05-2.85863E-05-2.85734E-05 7.15684E-09-3.91046E-19 1.03649E-18
 -1      1020 9.52540E-05-2.85853E-05-2.85723E-05 6.29739E-09-1.70080E-18 2.68998E-18
 -1      1021 9.52506E-05-2.85837E-05-2.85715E-05 5.42364E-09-2.59395E-18 3.46093E-18
 -1      1022 8.60363E-05-2.65946E-05-2.54631E-05-1.52387E-05 1.03687E-18 4.40556E-21
 -1      1023 9.40182E-05-2.68978E-05-2.87661E-05 7.22550E-07-9.30413E-19-3.12060E-19
 -1      1024 9.35382E-05-2.64004E-05-2.87736E-05 9.14510E-07-6.89511E-19 9.56379E-20
 -1      1025 9.46482E-05-2.76191E-05-2.87269E-05 4.17446E-07 8.16356E-19 2.85752E-19
 -1      1026 9.48454E-05-2.78705E-05-2.87036E-05 3.04983E-07 8.15172E-19 8.50332E-20
 -1      1027 9.49879E-05-2.80653E-05-2.86812E-05 2.16336E-07 7.40155E-19 2.13905E-19
 -1      1028 9.50887E-05-2.82141E-05-2.86606E-05 1.48211E-07 1.33548E-19 2.20648E-19
 -1      1029 9.51585E-05-2.83261E-05-2.86425E-05 9.71427E-08 1.00125E-18-1.15547E-18
 -1      1030 9.52053E-05-2.84089E-05-2.86270E-05 5.98339E-08-4.95993E-19 1.15150E-19
 -1      1031 9.52353E-05-2.84690E-05-2.86142E-05 3.33360E-08 2.21708E-20 1.85259E-19
 -1      1032 9.52535E-05-2.85116E-05-2.86037E-05 1.51272E-08-3.16156E-19 5.93380E-19
 -1      1033 9.52633E-05-2.85411E-05-2.85952E-05 3.12355E-09 7.01980E-19-1.38085E-19
 -1      1034 9.52675E-05-2.85607E-05-2.85886E-05-4.34892E-09 9.77059E-19-9.42641E-19
 -1      1035 9.52681E-05-2.85731E-05-2.85835E-05-8.60163E-09 4.71034E-20-3.82265E-19
 -1      1036 9.52664E-05-2.85805E-05-2.85797E-05-1.06382E-08 2.48883E-19-1.34517E-18
 -1      1037 9.52634E-05-2.85843E-05-2.85768E-05-1.12092E-08-1.80891E-18-9.09099E-19
 -1      1038 9.52599E-05-2.85857E-05-2.85747E-05-1.08602E-08-5.26789E-19 5.23833E-19
 -1      1039 9.52563E-05-2.85856E-05-2.85732E-05-9.97945E-09 7.51403E-19 1.30262E-18
 -1      1040 9.52528E-05-2.85846E-05-2.85721E-05-8.85921E-09 1.73010E-18 7.43487E-19
 -1      1041 9.52496E-05-2.85831E-05-2.85713E-05-7.63874E-09 2.06816E-18 2.54462E-19
 -1      1042 9.20837E-05-2.50618E-05-2.87241E-05 1.34611E-06 5.75997E-19 6.93482E-19
 -1      1043 9.43795E-05-2.72993E-05-2.87488E-05 5.56296E-07 7.71158E-19 4.66332E-19
 -1      1044 7.99854E-05-1.83801E-05-2.64036E-05 7.16135E-06-2.75640E-19 1.34495E-18
 -1      1045 8.78799E-05-2.20269E-05-2.82234E-05 1.82632E-06 4.46405E-19 1.46503E-18
 -1      1046 7.51076E-05-1.85009E-05-2.42533E-05-9.68643E-06 1.15047E-18 1.07008E-18
 -1      1047 9.10177E-05-2.41950E-05-2.86388E-05 1.55488E-06 5.32513E-19 4.55487E-19
 -1      1048 8.96442E-05-2.31842E-05-2.84834E-05 1.72577E-06 4.64115E-19 9.92950E-19
 -1      1049 9.29069E-05-2.57930E-05-2.87634E-05 1.12629E-06 1.32124E-19 1.16445E-18
 -1      1050 9.52483E-05-2.85826E-05-2.85710E-05 3.22326E-09-2.77344E-18 4.17225E-18
 -1      1051 7.20313E-05-1.56664E-05-2.41360E-05 5.80680E-06-4.16020E-19 1.70846E-18
 -1      1052 8.56257E-05-2.07340E-05-2.78110E-05 1.80850E-06-1.52165E-19 1.34352E-18
 -1      1053 9.52512E-05-2.85842E-05-2.85716E-05-2.01270E-09 2.65804E-19 1.81752E-19
 -1      1054 8.25981E-05-1.92064E-05-2.71628E-05 1.72322E-06 4.15241E-19 1.30704E-18
 -1      1055 7.42536E-05-1.65835E-05-2.47229E-05-3.66414E-06 3.40192E-19 7.96171E-19
 -1      1056 9.52507E-05-2.85839E-05-2.85715E-05-4.88188E-09 1.16800E-18-1.37945E-19
 -1      1057 8.56415E-05-2.27307E-05-2.69570E-05-7.24114E-06 1.34706E-19-7.30575E-19
 -1      1058 8.69210E-05-2.26788E-05-2.75301E-05-5.04292E-06-5.38999E-20-7.64490E-19
 -1      1059 8.83178E-05-2.30790E-05-2.79594E-05-3.48619E-06 5.44897E-20-6.85246E-19
 -1      1060 8.95800E-05-2.36400E-05-2.82604E-05-2.40996E-06-1.29666E-19-2.80106E-19
 -1      1061 9.06913E-05-2.42760E-05-2.84641E-05-1.65463E-06 4.27173E-19 5.01270E-19
 -1      1062 9.16480E-05-2.49266E-05-2.85952E-05-1.13031E-06 6.98014E-19 9.59743E-19
 -1      1063 9.24536E-05-2.55489E-05-2.86736E-05-7.68939E-07 5.71880E-19 4.02708E-19
 -1      1064 9.31180E-05-2.61167E-05-2.87150E-05-5.21169E-07 2.91334E-19 2.51524E-19
 -1      1065 9.36552E-05-2.66163E-05-2.87310E-05-3.51913E-07-9.84053E-19 4.11983E-19
 -1      1066 9.40815E-05-2.70434E-05-2.87307E-05-2.36555E-07 1.65634E-20-7.36024E-19
 -1      1067 9.44134E-05-2.73994E-05-2.87203E-05-1.58024E-07 7.85344E-19-8.66128E-19
 -1      1068 9.46670E-05-2.76896E-05-2.87046E-05-1.04590E-07 6.25008E-19 8.65100E-20
 -1      1069 9.48569E-05-2.79215E-05-2.86866E-05-6.82538E-08 6.63629E-20 1.30680E-18
 -1      1070 9.49960E-05-2.81033E-05-2.86683E-05-4.35823E-08 1.40962E-18 4.03690E-19
 -1      1071 9.50956E-05-2.82430E-05-2.86511E-05-2.68917E-08 1.54813E-18-8.66564E-19
 -1      1072 9.51648E-05-2.83485E-05-2.86356E-05-1.56804E-08-6.04129E-19-8.68949E-19
 -1      1073 9.52112E-05-2.84264E-05-2.86221E-05-8.24170E-09-1.15857E-18-6.11166E-19
 -1      1074 9.52409E-05-2.84827E-05-2.86107E-05-3.40397E-09 4.72256E-20-5.46024E-19
 -1      1075 9.52586E-05-2.85223E-05-2.86013E-05-3.56379E-10 8.78122E-19 1.81784E-18
 -1      1076 9.52678E-05-2.85493E-05-2.85936E-05 1.46636E-09 1.14354E-18 9.84327E-19
 -1      1077 9.52714E-05-2.85669E-05-2.85876E-05 2.46079E-09 8.57323E-19-5.02333E-19
 -1      1078 9.52713E-05-2.85778E-05-2.85829E-05 2.90606E-09 8.14608E-19-5.12396E-19
 -1      1079 9.52690E-05-2.85839E-05-2.85793E-05 2.99888E-09-1.99196E-19-7.06172E-19
 -1      1080 9.52655E-05-2.85867E-05-2.85766E-05 2.87820E-09-1.02800E-20-1.64379E-18
 -1      1081 9.52615E-05-2.85874E-05-2.85746E-05 2.64203E-09 2.63141E-19-1.73620E-18
 -1      1082 9.52573E-05-2.85867E-05-2.85731E-05 2.35361E-09 2.60729E-19-1.27422E-18
 -1      1083 9.52534E-05-2.85853E-05-2.85721E-05 2.03333E-09-1.36490E-18-1.59782E-19
 -1      1084 8.23014E-05-2.19694E-05-2.58610E-05-9.85889E-06 7.30781E-19 5.12789E-19
 -1      1085 9.48570E-05-2.79114E-05-2.86909E-05 1.46410E-07 1.00377E-18 1.03353E-18
 -1      1086 9.46629E-05-2.76711E-05-2.87107E-05 1.97478E-07 9.25105E-19 1.39544E-18
 -1      1087 9.50973E-05-2.82400E-05-2.86531E-05 7.19791E-08 3.17512E-19 1.54064E-19
 -1      1088 9.51661E-05-2.83466E-05-2.86369E-05 4.70614E-08-7.94235E-19-1.47975E-19
 -1      1089 9.52119E-05-2.84251E-05-2.86229E-05 2.87017E-08-8.85932E-19 1.87892E-19
 -1      1090 9.52411E-05-2.84817E-05-2.86112E-05 1.56134E-08-2.02149E-19 1.26772E-18
 -1      1091 9.52584E-05-2.85215E-05-2.86015E-05 6.62443E-09 1.61289E-18-1.37275E-18
 -1      1092 9.52674E-05-2.85486E-05-2.85938E-05 7.28997E-10 5.89731E-19-1.10105E-18
 -1      1093 9.52709E-05-2.85663E-05-2.85877E-05-2.89967E-09 7.15394E-19-9.55940E-19
 -1      1094 9.52707E-05-2.85773E-05-2.85829E-05-4.91820E-09 2.22478E-19-9.41258E-19
 -1      1095 9.52685E-05-2.85835E-05-2.85793E-05-5.83316E-09-8.39237E-19-1.12908E-18
 -1      1096 9.52650E-05-2.85864E-05-2.85766E-05-6.02575E-09-1.14664E-18-2.21134E-18
 -1      1097 9.52611E-05-2.85871E-05-2.85746E-05-5.77900E-09-5.39126E-19-2.61047E-18
 -1      1098 9.52571E-05-2.85865E-05-2.85731E-05-5.24671E-09 7.65234E-19-2.38767E-18
 -1      1099 9.52537E-05-2.85852E-05-2.85722E-05-5.09217E-09 1.69873E-18-2.03612E-18
 -1      1100 8.65234E-05-2.14761E-05-2.78787E-05-4.89141E-07-5.70676E-20 5.30611E-19
 -1      1101 9.12448E-05-2.44871E-05-2.86102E-05 4.41536E-07 3.20146E-19 9.86335E-19
 -1      1102 8.84689E-05-2.25805E-05-2.82376E-05 3.18224E-08 8.05747E-19 4.98193E-19
 -1      1103 9.49976E-05-2.80978E-05-2.86713E-05 1.04739E-07 2.06772E-19 2.64900E-19
 -1      1104 9.00142E-05-2.35877E-05-2.84682E-05 3.14793E-07 1.47696E-18 7.63959E-19
 -1      1105 9.35877E-05-2.65155E-05-2.87450E-05 3.89095E-07-5.88475E-19 7.39287E-19
 -1      1106 9.52545E-05-2.85858E-05-2.85723E-05-1.76544E-09-5.11709E-19-1.63111E-18
 -1      1107 8.01007E-05-1.94653E-05-2.59853E-05-5.96391E-06-2.28496E-19 5.37566E-19
 -1      1108 9.22208E-05-2.52737E-05-2.86914E-05 4.71089E-07 7.41994E-20 9.53239E-19
 -1      1109 8.41829E-05-2.03845E-05-2.73552E-05-1.35026E-06-3.74774E-19 6.26857E-19
 -1      1110 7.66138E-05-1.69203E-05-2.55893E-05 4.05367E-06-3.61427E-19 1.32210E-18
 -1      1111 9.43998E-05-2.73659E-05-2.87287E-05 2.57275E-07 7.69159E-19 9.03086E-19
 -1      1112 9.40489E-05-2.69846E-05-2.87417E-05 3.23120E-07-4.30989E-19 5.62045E-19
 -1      1113 7.87548E-05-1.76195E-05-2.61801E-05 1.44926E-06 1.14677E-19 1.28958E-18
 -1      1114 9.29890E-05-2.59481E-05-2.87316E-05 4.44381E-07 1.89840E-19 1.01178E-18
 -1      1115 7.49916E-05-1.64371E-05-2.50748E-05 3.42156E-07 7.03456E-20 1.44530E-18
 -1      1116 8.39956E-05-2.07493E-05-2.71020E-05-3.65191E-06-2.09900E-19 1.38179E-19
 -1      1117 1.34043E-04 2.98562E-10-4.79581E-05-4.71065E-05-6.21722E-19 1.74743E-17
 -1      1118 1.00572E-04 8.62044E-11-4.21922E-05-2.68684E-05-3.05567E-19 1.74716E-18
 -1      1119 9.41708E-05 5.79536E-11-3.99098E-05-1.88060E-05-1.98735E-19-4.52690E-18
 -1      1120 9.06787E-05 5.55223E-11-3.83419E-05-1.23516E-05-1.11173E-19-7.16386E-18
 -1      1121 8.71892E-05 5.70139E-11-3.67503E-05-5.76931E-06-5.17749E-20-8.31479E-18
 -1      1122 8.24576E-05 5.56969E-11-3.47156E-05 8.71769E-07-1.03762E-20-8.66542E-18
 -1      1123 7.59009E-05 4.60431E-11-3.20574E-05 6.87066E-06 1.99053E-20-8.74970E-18
 -1      1124 6.78331E-05 2.49792E-11-2.89349E-05 1.09751E-05 3.85400E-20-8.81985E-18
 -1      1125 5.98773E-05-3.97227E-12-2.59677E-05 1.18671E-05 4.38340E-20-8.93260E-18
 -1      1126 5.45261E-05-2.92754E-11-2.40490E-05 9.25398E-06 5.05043E-20-8.99132E-18
 -1      1127 5.41017E-05-3.70617E-11-2.39962E-05 4.48178E-06 5.39454E-20-8.77997E-18
 -1      1128 5.94067E-05-2.26147E-11-2.60904E-05 1.43997E-07 6.83979E-20-8.13874E-18
 -1      1129 6.94380E-05 6.53842E-12-3.00080E-05-1.47598E-06 9.44442E-20-6.94711E-18
 -1      1130 8.23364E-05 3.81512E-11-3.51125E-05 6.88049E-07 1.26208E-19-4.91848E-18
 -1      1131 9.65116E-05 6.82012E-11-4.07756E-05 6.63526E-06 1.85500E-19-1.37288E-18
 -1      1132 1.12327E-04 1.13293E-10-4.68154E-05 1.70891E-05 2.50722E-19 5.36312E-18
 -1      1133 1.40793E-04 2.46220E-10-5.35003E-05 3.70775E-05 6.04782E-19 1.93494E-17
 -1      1134 1.50379E-04-2.98560E-05-4.63875E-05-2.98225E-05-2.49430E-18 2.73371E-17
 -1      1135 1.12820E-04-3.33945E-05-3.63544E-05-7.74927E-07-8.22522E-19 2.16952E-17
 -1      1136 1.02581E-04-3.06950E-05-3.15632E-05 3.12296E-07-3.08029E-19 1.39059E-17
 -1      1137 9.67024E-05-2.90824E-05-2.90720E-05 3.89172E-08-2.02335E-19 8.63031E-18
 -1      1138 9.12538E-05-2.74559E-05-2.73663E-05-1.30289E-07-6.74136E-20 5.43245E-18
 -1      1139 8.63017E-05-2.59758E-05-2.59843E-05-1.74098E-07-8.55867E-20 3.32736E-18
 -1      1140 8.27417E-05-2.49204E-05-2.50281E-05-1.02408E-07-2.15861E-20 1.68041E-18
 -1      1141 8.15360E-05-2.45612E-05-2.47154E-05 4.75974E-08-9.63401E-20-7.66366E-20
 -1      1142 8.30862E-05-2.50065E-05-2.51427E-05 2.08620E-07 6.40569E-21-1.57911E-18
 -1      1143 8.69539E-05-2.61289E-05-2.61992E-05 3.14475E-07-1.25060E-19-2.91279E-18
 -1      1144 9.20455E-05-2.76151E-05-2.76063E-05 3.33993E-07-3.81837E-20-4.25814E-18
 -1      1145 9.71020E-05-2.91008E-05-2.90321E-05 2.79412E-07 1.23440E-19-3.95300E-18
 -1      1146 1.01163E-04-3.03037E-05-3.02089E-05 1.87606E-07-1.94007E-20-4.56598E-18
 -1      1147 1.03777E-04-3.10864E-05-3.09958E-05 9.48531E-08-9.67636E-21-4.55949E-18
 -1      1148 1.04949E-04-3.14454E-05-3.13765E-05 2.27655E-08-2.58130E-20-5.42680E-18
 -1      1149 1.04963E-04-3.14605E-05-3.14176E-05-2.25432E-08-1.43029E-19-5.87806E-18
 -1      1150 1.04195E-04-3.12417E-05-3.12210E-05-4.46053E-08-5.55750E-20-7.28043E-18
 -1      1151 1.02999E-04-3.08924E-05-3.08873E-05-5.04592E-08-1.26877E-20-8.01835E-18
 -1      1152 1.01646E-04-3.04936E-05-3.04976E-05-4.68913E-08-2.10165E-20-9.12149E-18
 -1      1153 1.00318E-04-3.00998E-05-3.01081E-05-3.89652E-08 3.53620E-22-8.48607E-18
 -1      1154 9.91197E-05-2.97429E-05-2.97524E-05-2.98877E-08-3.42573E-19-7.99088E-18
 -1      1155 9.81004E-05-2.94382E-05-2.94470E-05-2.14053E-08-7.13559E-20-6.49872E-18
 -1      1156 9.72711E-05-2.91894E-05-2.91969E-05-1.42911E-08-1.14203E-19-6.02711E-18
 -1      1157 9.66212E-05-2.89938E-05-2.89997E-05-8.74360E-09-2.96121E-19-5.78990E-18
 -1      1158 9.61287E-05-2.88451E-05-2.88495E-05-4.66278E-09 7.64993E-20-6.46560E-18
 -1      1159 9.57674E-05-2.87357E-05-2.87388E-05-1.82048E-09 1.94512E-19-5.65513E-18
 -1      1160 9.55115E-05-2.86579E-05-2.86600E-05 4.37617E-11 5.91552E-20-4.89869E-18
 -1      1161 9.53374E-05-2.86047E-05-2.86060E-05 1.17430E-09-1.96218E-20-4.45707E-18
 -1      1162 9.52247E-05-2.85701E-05-2.85708E-05 1.77891E-09-2.74489E-19-4.78382E-18
 -1      1163 9.51570E-05-2.85491E-05-2.85494E-05 2.02351E-09 4.96517E-20-4.62031E-18
 -1      1164 9.51211E-05-2.85378E-05-2.85378E-05 2.03462E-09-9.25116E-20-5.62507E-18
 -1      1165 9.51067E-05-2.85330E-05-2.85330E-05 1.90493E-09-3.44800E-19-5.16221E-18
 -1      1166 9.51065E-05-2.85326E-05-2.85325E-05 1.69987E-09-1.95036E-19-5.69942E-18
 -1      1167 9.51147E-05-2.85349E-05-2.85347E-05 1.46373E-09-3.12811E-19-5.10625E-18
 -1      1168 9.51276E-05-2.85386E-05-2.85383E-05 1.22507E-09 2.90010E-20-5.71050E-18
 -1      1169 9.51425E-05-2.85429E-05-2.85427E-05 1.00107E-09 3.60086E-19-5.51972E-18
 -1      1170 9.51576E-05-2.85473E-05-2.85471E-05 8.00988E-10 2.81216E-19-5.68516E-18
 -1      1171 9.51719E-05-2.85516E-05-2.85514E-05 6.28716E-10 2.90660E-20-7.26109E-18
 -1      1172 9.51848E-05-2.85554E-05-2.85553E-05 4.84743E-10 3.20172E-19-6.11150E-18
 -1      1173 9.51960E-05-2.85588E-05-2.85586E-05 3.67497E-10 8.98086E-21-5.71551E-18
 -1      1174 9.52056E-05-2.85616E-05-2.85615E-05 2.74294E-10-2.76160E-19-7.30386E-18
 -1      1175 9.52136E-05-2.85640E-05-2.85639E-05 2.01953E-10-5.03890E-20-1.00750E-17
 -1      1176 9.52200E-05-2.85660E-05-2.85659E-05 1.47156E-10 3.24841E-19-9.75667E-18
 -1      1177 9.52253E-05-2.85675E-05-2.85675E-05 1.06578E-10-5.63660E-20-5.45127E-18
 -1      1178 9.52294E-05-2.85688E-05-2.85687E-05 7.67376E-11 1.38970E-19-4.63875E-18
 -1      1179 9.52326E-05-2.85697E-05-2.85697E-05 5.35865E-11 2.12147E-19-1.79453E-18
 -1      1180 9.52350E-05-2.85705E-05-2.85704E-05 3.13597E-11 8.48726E-20-3.56902E-18
 -1      1181 9.52366E-05-2.85709E-05-2.85709E-05 1.85703E-13 1.14235E-19-1.32961E-19
 -1      1182 9.52373E-05-2.85711E-05-2.85711E-05-5.87065E-11 1.37363E-19 1.56165E-18
 -1      1183 9.52373E-05-2.85712E-05-2.85713E-05-5.32263E-11 3.25726E-19 1.80677E-18
 -1      1184 1.74846E-04-5.00483E-05-5.26123E-05 1.33840E-05-2.95085E-19 3.11433E-17
 -1      1185 1.45671E-04-4.27608E-05-4.60421E-05 1.74723E-07 2.37460E-19 2.49744E-17
 -1      1186 1.42595E-04-4.24815E-05-4.29780E-05-3.57241E-07 2.03627E-19 1.92643E-17
 -1      1187 1.37868E-04-4.12695E-05-4.07223E-05-2.15595E-07 8.26519E-20 1.56729E-17
 -1      1188 1.27452E-04-3.83048E-05-3.75109E-05 2.98878E-07-3.17439E-20 1.37221E-17
 -1      1189 1.11186E-04-3.35757E-05-3.32203E-05 1.02241E-06-2.38393E-21 1.13511E-17
 -1      1190 9.43609E-05-2.84978E-05-2.91638E-05 1.38630E-06-2.70402E-19 1.01407E-17
 -1      1191 8.58246E-05-2.56776E-05-2.72222E-05 8.96097E-07 6.02187E-21 7.72444E-18
 -1      1192 9.07400E-05-2.69522E-05-2.83777E-05-1.69779E-07 1.02994E-19 3.18770E-18
 -1      1193 1.05305E-04-3.13823E-05-3.18402E-05-9.87700E-07 7.20342E-20 1.17251E-18
 -1      1194 1.20544E-04-3.61392E-05-3.56877E-05-1.11402E-06 3.75229E-19-6.20240E-19
 -1      1195 1.29893E-04-3.90560E-05-3.82938E-05-7.57984E-07 2.21440E-19-8.00658E-19
 -1      1196 1.32132E-04-3.97346E-05-3.91288E-05-3.20545E-07 1.87294E-19-5.80350E-19
 -1      1197 1.29319E-04-3.88521E-05-3.85365E-05-1.40103E-08-4.00157E-20-9.45501E-19
 -1      1198 1.24070E-04-3.72421E-05-3.71510E-05 1.36678E-07-7.76747E-20-2.50722E-18
 -1      1199 1.18276E-04-3.54850E-05-3.55141E-05 1.81323E-07 3.15753E-19-3.64163E-18
 -1      1200 1.12950E-04-3.38809E-05-3.39544E-05 1.72256E-07-1.98068E-19-4.76062E-18
 -1      1201 1.08482E-04-3.25407E-05-3.26191E-05 1.43316E-07 3.95227E-20-4.02436E-18
 -1      1202 1.04927E-04-3.14762E-05-3.15440E-05 1.11383E-07 2.49589E-19-5.17659E-18
 -1      1203 1.02191E-04-3.06571E-05-3.07106E-05 8.32277E-08-3.69741E-20-3.47661E-18
 -1      1204 1.00131E-04-3.00403E-05-3.00808E-05 6.06625E-08-1.57253E-19-2.30517E-18
 -1      1205 9.86064E-05-2.95836E-05-2.96134E-05 4.34383E-08-2.76831E-19-3.35084E-19
 -1      1206 9.74948E-05-2.92504E-05-2.92720E-05 3.06415E-08 1.06570E-19-1.84943E-18
 -1      1207 9.66962E-05-2.90108E-05-2.90264E-05 2.12859E-08-4.41264E-20-3.71736E-18
 -1      1208 9.61319E-05-2.88414E-05-2.88524E-05 1.45208E-08 1.54714E-19-3.03361E-18
 -1      1209 9.57409E-05-2.87239E-05-2.87316E-05 9.67395E-09-1.72169E-19-4.97048E-19
 -1      1210 9.54769E-05-2.86444E-05-2.86498E-05 6.23546E-09-1.55925E-19 3.00690E-19
 -1      1211 9.53046E-05-2.85925E-05-2.85961E-05 3.82569E-09 7.60081E-20-1.90498E-18
 -1      1212 9.51976E-05-2.85601E-05-2.85626E-05 2.16406E-09-9.07851E-21-2.18682E-18
 -1      1213 9.51362E-05-2.85415E-05-2.85431E-05 1.04353E-09 5.95136E-20-2.92292E-18
 -1      1214 9.51059E-05-2.85323E-05-2.85332E-05 3.11286E-10 2.26230E-19-5.72797E-18
 -1      1215 9.50961E-05-2.85293E-05-2.85298E-05-1.45425E-10 3.07153E-19-5.73088E-18
 -1      1216 9.50993E-05-2.85301E-05-2.85303E-05-4.09682E-10-8.91153E-20-2.04582E-18
 -1      1217 9.51100E-05-2.85332E-05-2.85333E-05-5.42416E-10-5.05082E-20-1.52159E-18
 -1      1218 9.51246E-05-2.85376E-05-2.85375E-05-5.87974E-10-6.32090E-20-2.35633E-18
 -1      1219 9.51406E-05-2.85423E-05-2.85422E-05-5.78263E-10-9.91650E-20-1.57898E-18
 -1      1220 9.51565E-05-2.85470E-05-2.85468E-05-5.35880E-10 4.78505E-19-2.22835E-18
 -1      1221 9.51712E-05-2.85514E-05-2.85512E-05-4.76494E-10 3.71675E-19-2.45786E-18
 -1      1222 9.51844E-05-2.85554E-05-2.85552E-05-4.10674E-10 5.54628E-19-4.94974E-18
 -1      1223 9.51959E-05-2.85588E-05-2.85586E-05-3.45287E-10-2.68330E-19-3.42826E-18
 -1      1224 9.52055E-05-2.85617E-05-2.85615E-05-2.84562E-10-5.70464E-20 2.11544E-19
 -1      1225 9.52135E-05-2.85641E-05-2.85639E-05-2.30911E-10-1.93498E-19 4.52421E-18
 -1      1226 9.52200E-05-2.85660E-05-2.85659E-05-1.85532E-10 3.73112E-19 6.25712E-18
 -1      1227 9.52253E-05-2.85676E-05-2.85675E-05-1.48841E-10-1.78937E-19 6.81755E-18
 -1      1228 9.52294E-05-2.85688E-05-2.85688E-05-1.20598E-10 7.08896E-19 1.98223E-18
 -1      1229 9.52326E-05-2.85698E-05-2.85697E-05-9.97087E-11 5.13830E-19-3.46643E-18
 -1      1230 9.52350E-05-2.85705E-05-2.85704E-05-8.34108E-11-4.73635E-19-5.05171E-18
 -1      1231 9.52366E-05-2.85710E-05-2.85709E-05-6.22551E-11 8.01871E-19-9.92739E-18
 -1      1232 9.52373E-05-2.85712E-05-2.85711E-05-1.15163E-11 2.39251E-19-1.12630E-17
 -1      1233 9.52373E-05-2.85712E-05-2.85713E-05 4.82996E-11-5.05361E-19-6.24733E-18
 -1      1234 9.52371E-05-2.85710E-05-2.85713E-05 4.81176E-11-5.41771E-18-8.85249E-20
 -1      1235 9.52371E-05-2.85710E-05-2.85711E-05 4.88208E-11-6.07990E-18-4.47780E-19
 -1      1236 9.52374E-05-2.85718E-05-2.85709E-05-2.67730E-11-4.72863E-18-1.01939E-19
 -1      1237 9.52378E-05-2.85732E-05-2.85705E-05-6.55190E-11-8.37010E-18-9.98494E-20
 -1      1238 9.52383E-05-2.85750E-05-2.85700E-05-7.84308E-11-7.57135E-18 3.13467E-19
 -1      1239 9.52388E-05-2.85768E-05-2.85695E-05-7.28189E-11-1.15461E-17 2.65134E-19
 -1      1240 9.52393E-05-2.85783E-05-2.85690E-05-5.59934E-11-6.00504E-18 1.93533E-18
 -1      1241 9.52396E-05-2.85793E-05-2.85688E-05-2.98989E-11-5.28389E-18-6.42874E-19
 -1      1242 9.52397E-05-2.85796E-05-2.85687E-05 2.18394E-13-4.84299E-18 3.70858E-19
 -1      1243 9.52395E-05-2.85793E-05-2.85688E-05 3.03346E-11 4.89823E-18-3.12687E-19
 -1      1244 9.52393E-05-2.85783E-05-2.85691E-05 5.62851E-11 1.44688E-19-1.14941E-18
 -1      1245 9.52388E-05-2.85767E-05-2.85695E-05 7.39183E-11-6.05350E-18-1.58898E-19
 -1      1246 9.52383E-05-2.85750E-05-2.85700E-05 7.82512E-11-5.54530E-18 2.81788E-19
 -1      1247 9.52378E-05-2.85732E-05-2.85705E-05 6.61723E-11-4.22502E-18 2.58757E-19
 -1      1248 9.52373E-05-2.85718E-05-2.85709E-05 3.26961E-11-4.30477E-18-7.97815E-19
 -1      1249 9.52372E-05-2.85711E-05-2.85711E-05-8.80215E-11-2.17049E-18-7.15636E-19
 -1      1250 9.52371E-05-2.85710E-05-2.85713E-05-5.63959E-11-1.32305E-18 4.96465E-19
 -1      1251 3.28849E-05-1.02269E-04 1.65514E-05-1.37188E-05 1.58192E-17 2.99731E-18
 -1      1252 1.67706E-05-6.25154E-05 8.32019E-06-2.42176E-05 2.63859E-17 9.92807E-18
 -1      1253 7.47919E-06-9.32992E-06-6.64459E-06-1.29173E-06 3.31698E-17 2.05719E-17
 -1      1254 3.22092E-05 2.38162E-05-2.58404E-05 5.01012E-05 2.99579E-17 2.74151E-17
 -1      1255 1.06062E-04 1.47531E-05-4.70709E-05 1.01699E-04 2.11657E-17 2.95716E-17
 -1      1256 2.14718E-04-3.46252E-05-6.60985E-05 1.13469E-04 1.02415E-17 2.28631E-17
 -1      1257 3.03348E-04-8.53309E-05-7.78103E-05 6.36963E-05 2.07428E-18 4.13479E-18
 -1      1258 3.19081E-04-9.54829E-05-7.95049E-05-2.00727E-05 2.24681E-18-1.70614E-17
 -1      1259 2.60029E-04-6.26307E-05-7.14009E-05-8.88107E-05 1.06688E-17-3.46165E-17
 -1      1260 1.60559E-04-1.21536E-05-5.62272E-05-1.05446E-04 2.26861E-17-4.35443E-17
 -1      1261 6.90360E-05 1.88022E-05-3.68853E-05-7.55035E-05 3.39000E-17-4.21162E-17
 -1      1262 1.55999E-05 1.13577E-05-1.69491E-05-2.24254E-05 3.97817E-17-3.27963E-17
 -1      1263 7.25092E-06-2.78344E-05-5.81823E-07 1.58888E-05 3.54238E-17-1.91053E-17
 -1      1264 1.98877E-05-6.90571E-05 9.77844E-06 2.26439E-05 2.19627E-17-7.36103E-18
 -1      1265 2.79705E-05-8.55287E-05 1.34205E-05 5.54471E-06 2.34183E-18-1.88576E-18
 -1      1266 2.22823E-05-6.94390E-05 9.96851E-06-1.34057E-05-1.78665E-17-4.50717E-18
 -1      1267 8.51822E-06-2.48217E-05-6.33936E-07-8.58076E-06-3.23490E-17-1.49057E-17
 -1      1268 1.21390E-05 1.65585E-05-1.65206E-05 2.51445E-05-3.85874E-17-2.80893E-17
 -1      1269 5.18170E-05 2.86832E-05-3.40448E-05 7.23759E-05-3.52052E-17-3.78793E-17
 -1      1270 1.29859E-04 3.63049E-06-5.14471E-05 1.05620E-04-2.49993E-17-4.05017E-17
 -1      1271 2.22168E-04-4.35071E-05-6.62365E-05 9.62000E-05-1.23798E-17-3.25286E-17
 -1      1272 2.91342E-04-8.43982E-05-7.52364E-05 4.07529E-05-3.10464E-18-1.66455E-17
 -1      1273 2.97824E-04-8.78301E-05-7.60406E-05-3.66338E-05-1.17978E-18 1.28114E-18
 -1      1274 2.43907E-04-5.41320E-05-6.94157E-05-9.48621E-05-5.65691E-18 1.64511E-17
 -1      1275 1.59280E-04-7.53736E-06-5.67669E-05-1.13889E-04-1.45249E-17 2.58023E-17
 -1      1276 7.70106E-05 2.52222E-05-4.03840E-05-9.06843E-05-2.46995E-17 3.00019E-17
 -1      1277 2.29555E-05 2.44605E-05-2.21420E-05-4.25738E-05-3.13029E-17 2.65731E-17
 -1      1278 7.03275E-06-1.19432E-05-4.81050E-06 2.74239E-06-2.95648E-17 1.73769E-17
 -1      1279 1.79642E-05-6.35790E-05 8.90053E-06 2.13831E-05-1.78631E-17 7.22265E-18
 -1      1280 3.29105E-05-1.01631E-04 1.64201E-05 1.11659E-05-1.39676E-18 1.52866E-18
 -1      1281 1.20053E-04-2.54678E-05-4.34504E-05-1.95367E-05-9.32795E-19 1.37660E-17
 -1      1282 1.02400E-04-8.04224E-06-4.06099E-05-2.29753E-05-2.20641E-18-1.23238E-18
 -1      1283 1.05541E-04-8.07180E-06-4.22603E-05-2.92614E-05-2.98749E-18 2.07306E-18
 -1      1284 9.67474E-05-5.77370E-06-3.89850E-05-1.74476E-05-1.92615E-18-5.68192E-18
 -1      1285 9.85919E-05-5.70199E-06-3.98347E-05-2.08147E-05-2.29927E-18-3.83812E-18
 -1      1286 1.04845E-04-1.32876E-05-3.93459E-05-2.17404E-05-3.74542E-18-7.60847E-19
 -1      1287 9.36477E-05-5.58873E-06-3.76225E-05-1.13710E-05-1.21745E-18-7.67020E-18
 -1      1288 9.51137E-05-5.49641E-06-3.83458E-05-1.45333E-05-1.55536E-18-6.85247E-18
 -1      1289 9.97988E-05-1.11718E-05-3.80714E-05-1.65704E-05-2.85845E-18-4.43210E-18
 -1      1290 9.01976E-05-5.75514E-06-3.60233E-05-4.91089E-06-5.16478E-19-8.46226E-18
 -1      1291 9.20869E-05-5.69623E-06-3.68963E-05-8.16693E-06-7.44860E-19-8.14891E-18
 -1      1292 9.66587E-05-1.09761E-05-3.67784E-05-1.05521E-05-1.64507E-18-6.13236E-18
 -1      1293 8.50508E-05-5.61540E-06-3.38990E-05 1.59664E-06 1.10114E-19-8.69882E-18
 -1      1294 8.78688E-05-5.62679E-06-3.50567E-05-1.54204E-06-8.44915E-20-8.63780E-18
 -1      1295 9.27969E-05-1.09632E-05-3.51237E-05-4.14629E-06-5.35298E-19-6.79757E-18
 -1      1296 7.72533E-05-4.60573E-06-3.10983E-05 7.51052E-06 6.73603E-19-8.78416E-18
 -1      1297 8.12979E-05-4.71654E-06-3.25914E-05 4.85787E-06 5.26960E-19-8.78416E-18
 -1      1298 8.65515E-05-1.00033E-05-3.28741E-05 2.40116E-06 5.19946E-19-7.17297E-18
 -1      1299 6.72823E-05-2.41931E-06-2.79379E-05 1.13239E-05 1.10432E-18-8.92390E-18
 -1      1300 7.20712E-05-2.62527E-06-2.95539E-05 9.88533E-06 9.89970E-19-8.89287E-18
 -1      1301 7.70637E-05-7.23253E-06-3.00251E-05 8.16373E-06 1.36404E-18-7.33536E-18
 -1      1302 5.73333E-05 5.68930E-07-2.51169E-05 1.17304E-05 1.26568E-18-9.13228E-18
 -1      1303 6.16183E-05 3.31127E-07-2.64533E-05 1.19845E-05 1.21772E-18-9.10812E-18
 -1      1304 6.52904E-05-2.60533E-06-2.69772E-05 1.15509E-05 1.95678E-18-7.66589E-18
 -1      1305 5.10424E-05 3.14771E-06-2.35714E-05 8.59624E-06 1.18545E-18-9.24147E-18
 -1      1306 5.31212E-05 2.98776E-06-2.41431E-05 1.03468E-05 1.18675E-18-9.27040E-18
 -1      1307 5.43992E-05 2.51077E-06-2.44851E-05 1.12709E-05 2.07041E-18-8.00433E-18
 -1      1308 5.16813E-05 3.87328E-06-2.40512E-05 3.67293E-06 9.41477E-19-8.99817E-18
 -1      1309 5.03455E-05 3.88357E-06-2.35286E-05 5.88774E-06 9.49947E-19-9.21940E-18
 -1      1310 4.88512E-05 5.65701E-06-2.34397E-05 7.55962E-06 1.80233E-18-8.12577E-18
 -1      1311 5.96938E-05 2.32046E-06-2.66316E-05-8.06171E-08 8.20351E-19-8.17229E-18
 -1      1312 5.51844E-05 2.46227E-06-2.50736E-05 1.25177E-06 7.50259E-19-8.64407E-18
 -1      1313 5.17837E-05 4.96289E-06-2.44140E-05 2.79910E-06 1.38002E-18-7.73612E-18
 -1      1314 7.30948E-05-7.03018E-07-3.09185E-05-5.42204E-07 1.03084E-18-6.71885E-18
 -1      1315 6.64524E-05-5.03568E-07-2.85699E-05-8.99241E-07 8.52327E-19-7.50973E-18
 -1      1316 6.28122E-05 7.42096E-07-2.73725E-05 2.83252E-08 1.31706E-18-6.60158E-18
 -1      1317 8.86301E-05-3.88927E-06-3.61372E-05 2.91211E-06 1.49946E-18-4.43234E-18
 -1      1318 8.12493E-05-3.73010E-06-3.33975E-05 7.24124E-07 1.25234E-18-5.73102E-18
 -1      1319 7.88473E-05-5.05461E-06-3.17851E-05 1.05317E-06 1.79110E-18-4.85943E-18
 -1      1320 1.04717E-04-6.85770E-06-4.17257E-05 9.76939E-06 2.05681E-18-4.90750E-19
 -1      1321 9.70802E-05-6.71900E-06-3.88146E-05 5.83231E-06 1.70783E-18-2.77051E-18
 -1      1322 9.65031E-05-1.07414E-05-3.68934E-05 5.69207E-06 2.51209E-18-2.13939E-18
 -1      1323 1.23198E-04-1.17611E-05-4.75051E-05 2.03844E-05 2.02420E-18 6.67335E-18
 -1      1324 1.14223E-04-1.08854E-05-4.43907E-05 1.36352E-05 1.89270E-18 2.33495E-18
 -1      1325 1.15244E-04-1.70733E-05-4.21060E-05 1.25285E-05 3.20729E-18 2.33167E-18
 -1      1326 1.65128E-04-3.47404E-05-5.20047E-05 2.91478E-05 1.11152E-18 2.05134E-17
 -1      1327 1.34995E-04-2.20628E-05-4.90943E-05 2.09051E-05 1.04905E-18 1.08803E-17
 -1      1328 1.36605E-04-2.91884E-05-4.59912E-05 1.68166E-05 3.42087E-18 8.86843E-18
 -1      1329 1.45429E-04-4.08797E-05-4.78250E-05 4.04305E-06 1.99561E-18 1.97977E-17
 -1      1330 1.20764E-04-3.49400E-05-3.84002E-05-9.57977E-06-2.59224E-18 1.49137E-17
 -1      1331 1.12405E-04-3.20586E-05-3.50832E-05-6.31775E-06-2.36026E-18 1.19125E-17
 -1      1332 1.08620E-04-3.19248E-05-3.31424E-05-4.15214E-06-1.87568E-18 1.08344E-17
 -1      1333 1.04706E-04-3.11550E-05-3.15651E-05-3.84118E-06-1.78388E-18 7.99988E-18
 -1      1334 1.12986E-04-3.22727E-05-3.49798E-05-1.08961E-05-4.09175E-18 6.20438E-18
 -1      1335 1.01580E-04-3.03740E-05-3.04823E-05-3.09995E-06-1.41850E-18 7.04009E-18
 -1      1336 9.86437E-05-2.95603E-05-2.95418E-05-3.12234E-06-1.27486E-18 5.16196E-18
 -1      1337 1.05774E-04-3.13682E-05-3.19776E-05-7.07487E-06-3.12505E-18 4.58945E-18
 -1      1338 9.61846E-05-2.88269E-05-2.88007E-05-2.83568E-06-9.34367E-19 4.32962E-18
 -1      1339 9.35774E-05-2.79940E-05-2.80606E-05-2.81201E-06-8.97412E-19 2.93492E-18
 -1      1340 1.00490E-04-3.00574E-05-3.01900E-05-5.91098E-06-2.17051E-18 2.98970E-18
 -1      1341 9.15730E-05-2.73366E-05-2.74963E-05-2.37190E-06-6.70149E-19 2.45203E-18
 -1      1342 8.94594E-05-2.66202E-05-2.69180E-05-2.23757E-06-6.70129E-19 1.56792E-18
 -1      1343 9.60844E-05-2.86166E-05-2.89347E-05-5.06948E-06-1.59236E-18 1.51215E-18
 -1      1344 8.80627E-05-2.61381E-05-2.65388E-05-1.43494E-06-6.05298E-19 1.05402E-18
 -1      1345 8.68765E-05-2.57260E-05-2.62185E-05-1.18834E-06-5.48785E-19 3.76457E-19
 -1      1346 9.26637E-05-2.73564E-05-2.80453E-05-3.57268E-06-1.26655E-18 4.10619E-19
 -1      1347 8.63194E-05-2.55288E-05-2.60716E-05-1.15768E-07-6.36539E-19-1.30347E-19
 -1      1348 8.63860E-05-2.55545E-05-2.60911E-05 1.78247E-07-5.61226E-19-9.88898E-19
 -1      1349 9.06750E-05-2.65896E-05-2.75479E-05-1.28750E-06-1.09526E-18-5.48057E-19
 -1      1350 8.67550E-05-2.56862E-05-2.61931E-05 1.23314E-06-4.50311E-19-1.43532E-18
 -1      1351 8.80610E-05-2.61489E-05-2.65486E-05 1.47788E-06-4.83160E-19-2.05840E-18
 -1      1352 9.04704E-05-2.65312E-05-2.74847E-05 1.31375E-06-1.09693E-18-1.48390E-18
 -1      1353 8.91896E-05-2.65455E-05-2.68587E-05 2.20545E-06-5.36016E-19-2.41876E-18
 -1      1354 9.13574E-05-2.73034E-05-2.74524E-05 2.32783E-06-5.24720E-19-3.11997E-18
 -1      1355 9.19743E-05-2.71685E-05-2.78281E-05 3.48618E-06-1.00446E-18-2.35156E-18
 -1      1356 9.28814E-05-2.78218E-05-2.78813E-05 2.56341E-06-4.44255E-19-3.29030E-18
 -1      1357 9.53356E-05-2.86624E-05-2.85612E-05 2.54926E-06-6.74664E-20-3.70934E-18
 -1      1358 9.46352E-05-2.82523E-05-2.84633E-05 4.64366E-06-7.43791E-19-2.76257E-18
 -1      1359 9.68506E-05-2.91532E-05-2.90035E-05 2.32946E-06-5.02661E-20-3.94379E-18
 -1      1360 9.90525E-05-2.98864E-05-2.96227E-05 2.21678E-06-1.03179E-19-3.96094E-18
 -1      1361 9.76589E-05-2.94265E-05-2.92208E-05 4.63900E-06-4.03509E-19-3.48263E-18
 -1      1362 1.00257E-04-3.02511E-05-2.99912E-05 1.71405E-06-1.75455E-19-4.13473E-18
 -1      1363 1.01866E-04-3.07672E-05-3.04519E-05 1.56030E-06 3.28887E-20-4.25740E-18
 -1      1364 1.00330E-04-3.03949E-05-2.99310E-05 3.74232E-06-3.06831E-19-4.07453E-18
 -1      1365 1.02620E-04-3.09720E-05-3.06976E-05 9.73218E-07 2.21552E-20-4.11954E-18
 -1      1366 1.03530E-04-3.12469E-05-3.09646E-05 8.26202E-07-1.36842E-19-4.16825E-18
 -1      1367 1.02214E-04-3.10100E-05-3.04716E-05 2.41391E-06 6.21213E-20-4.00864E-18
 -1      1368 1.03831E-04-3.13058E-05-3.10779E-05 3.01670E-07-2.69208E-19-4.30881E-18
 -1      1369 1.04112E-04-3.13741E-05-3.11662E-05 1.87649E-07-1.78926E-19-4.65307E-18
 -1      1370 1.03190E-04-3.12650E-05-3.07874E-05 1.07259E-06-4.22329E-19-3.83273E-18
 -1      1371 1.04044E-04-3.13234E-05-3.11655E-05-2.01963E-07-2.83526E-19-4.63216E-18
 -1      1372 1.03857E-04-3.12444E-05-3.11173E-05-2.75984E-07-3.74010E-19-5.14476E-18
 -1      1373 1.03354E-04-3.12339E-05-3.08825E-05-2.18177E-08-4.12224E-19-3.70641E-18
 -1      1374 1.03533E-04-3.11244E-05-3.10341E-05-5.18360E-07-5.86527E-19-5.20207E-18
 -1      1375 1.03053E-04-3.09581E-05-3.08987E-05-5.56916E-07-3.67288E-19-5.85044E-18
 -1      1376 1.02915E-04-3.10150E-05-3.07991E-05-7.72946E-07-6.69945E-19-3.81693E-18
 -1      1377 1.02585E-04-3.08030E-05-3.07659E-05-6.73789E-07-1.82326E-19-6.17704E-18
 -1      1378 1.01961E-04-3.05980E-05-3.05867E-05-6.85940E-07-4.03924E-19-6.51158E-18
 -1      1379 1.02097E-04-3.06961E-05-3.05941E-05-1.19604E-06-5.95530E-19-4.24666E-18
 -1      1380 1.01437E-04-3.04332E-05-3.04321E-05-7.11310E-07-3.25957E-19-6.51973E-18
 -1      1381 1.00781E-04-3.02233E-05-3.02415E-05-7.06336E-07 5.22689E-20-6.54663E-18
 -1      1382 1.01095E-04-3.03425E-05-3.03223E-05-1.35992E-06-3.81164E-19-5.10410E-18
 -1      1383 1.00262E-04-3.00652E-05-3.00855E-05-6.73416E-07 1.09616E-19-6.73269E-18
 -1      1384 9.96426E-05-2.98709E-05-2.99043E-05-6.58896E-07-2.60932E-19-6.84117E-18
 -1      1385 1.00054E-04-2.99970E-05-3.00279E-05-1.34577E-06-2.86923E-19-5.10371E-18
 -1      1386 9.91673E-05-2.97291E-05-2.97597E-05-5.94398E-07-5.77236E-20-6.71207E-18
 -1      1387 9.86228E-05-2.95607E-05-2.95995E-05-5.75749E-07 2.69007E-20-6.42190E-18
 -1      1388 9.90683E-05-2.96839E-05-2.97418E-05-1.22535E-06 4.88773E-20-5.26513E-18
 -1      1389 9.82105E-05-2.94396E-05-2.94731E-05-4.98646E-07 2.02445E-19-6.08077E-18
 -1      1390 9.77556E-05-2.93005E-05-2.93387E-05-4.79351E-07 3.88243E-19-5.35041E-18
 -1      1391 9.81927E-05-2.94146E-05-2.94826E-05-1.05307E-06 4.83717E-19-5.24565E-18
 -1      1392 9.74128E-05-2.92009E-05-2.92330E-05-4.01786E-07 9.67421E-20-5.33787E-18
 -1      1393 9.70478E-05-2.90906E-05-2.91248E-05-3.83849E-07-4.89298E-20-5.24897E-18
 -1      1394 9.74500E-05-2.91919E-05-2.92595E-05-8.65910E-07 4.00791E-19-5.04971E-18
 -1      1395 9.67726E-05-2.90112E-05-2.90397E-05-3.12744E-07 1.20450E-19-4.69838E-18
 -1      1396 9.64900E-05-2.89266E-05-2.89557E-05-2.97146E-07-1.00486E-20-4.80381E-18
 -1      1397 9.68431E-05-2.90138E-05-2.90752E-05-6.86444E-07 1.35720E-19-3.90150E-18
 -1      1398 9.62757E-05-2.88653E-05-2.88892E-05-2.35794E-07 2.36424E-19-4.66675E-18
 -1      1399 9.60639E-05-2.88025E-05-2.88260E-05-2.22861E-07 3.36913E-19-4.24570E-18
 -1      1400 9.63630E-05-2.88755E-05-2.89279E-05-5.26739E-07 1.83597E-19-2.93701E-18
 -1      1401 9.59018E-05-2.87563E-05-2.87757E-05-1.72226E-07 2.28038E-19-4.30625E-18
 -1      1402 9.57482E-05-2.87113E-05-2.87297E-05-1.61897E-07 3.31093E-19-4.08568E-18
 -1      1403 9.59941E-05-2.87709E-05-2.88138E-05-3.91788E-07 1.78472E-19-2.64925E-18
 -1      1404 9.56291E-05-2.86776E-05-2.86927E-05-1.21577E-07 1.58543E-19-4.22503E-18
 -1      1405 9.55217E-05-2.86464E-05-2.86604E-05-1.13587E-07 4.61222E-19-3.44086E-18
 -1      1406 9.57186E-05-2.86940E-05-2.87279E-05-2.82197E-07 2.66312E-19-2.65676E-18
 -1      1407 9.54369E-05-2.86225E-05-2.86340E-05-8.24659E-08 2.17178E-19-3.67460E-18
 -1      1408 9.53649E-05-2.86020E-05-2.86122E-05-7.64674E-08-5.03828E-19-3.81124E-18
 -1      1409 9.55189E-05-2.86392E-05-2.86651E-05-1.96104E-07 2.18048E-19-2.40101E-18
 -1      1410 9.53067E-05-2.85857E-05-2.85941E-05-5.31369E-08-2.49461E-19-3.69353E-18
 -1      1411 9.52610E-05-2.85729E-05-2.85802E-05-4.87648E-08 1.32661E-19-3.68731E-18
 -1      1412 9.53788E-05-2.86014E-05-2.86207E-05-1.30462E-07-2.88280E-19-3.04335E-18
 -1      1413 9.52229E-05-2.85623E-05-2.85683E-05-3.17819E-08-2.56539E-19-3.57973E-18
 -1      1414 9.51963E-05-2.85552E-05-2.85601E-05-2.86955E-08-4.70541E-20-3.69264E-18
 -1      1415 9.52843E-05-2.85765E-05-2.85904E-05-8.18361E-08-6.44341E-20-2.80376E-18
 -1      1416 9.51729E-05-2.85487E-05-2.85528E-05-1.67215E-08-2.15654E-19-3.48074E-18
 -1      1417 9.51596E-05-2.85454E-05-2.85486E-05-1.46226E-08-4.07954E-19-3.48976E-18
 -1      1418 9.52238E-05-2.85611E-05-2.85707E-05-4.68815E-08-2.04207E-19-2.49540E-18
 -1      1419 9.51466E-05-2.85419E-05-2.85446E-05-6.49067E-09-2.02049E-19-3.17863E-18
 -1      1420 9.51424E-05-2.85411E-05-2.85431E-05-5.12958E-09-3.21339E-19-3.16589E-18
 -1      1421 9.51879E-05-2.85523E-05-2.85588E-05-2.25857E-08-4.33301E-19-1.87528E-18
 -1      1422 9.51366E-05-2.85396E-05-2.85413E-05 1.33830E-10-2.18826E-19-3.24821E-18
 -1      1423 9.51380E-05-2.85405E-05-2.85416E-05 9.58575E-10-1.05277E-19-3.90657E-18
 -1      1424 9.51693E-05-2.85482E-05-2.85523E-05-6.37514E-09-3.04129E-19-1.00250E-18
 -1      1425 9.51369E-05-2.85403E-05-2.85413E-05 4.13875E-09-5.02714E-19-3.39854E-18
 -1      1426 9.51417E-05-2.85421E-05-2.85426E-05 4.58524E-09-2.48439E-19-3.90625E-18
 -1      1427 9.51624E-05-2.85472E-05-2.85496E-05 3.86536E-09 2.89953E-19-1.49652E-18
 -1      1428 9.51436E-05-2.85427E-05-2.85431E-05 6.29757E-09 3.50680E-20-3.41316E-18
 -1      1429 9.51502E-05-2.85449E-05-2.85450E-05 6.48661E-09 2.85935E-19-3.14568E-18
 -1      1430 9.51630E-05-2.85482E-05-2.85494E-05 9.82086E-09-3.59921E-19-2.01830E-18
 -1      1431 9.51537E-05-2.85460E-05-2.85461E-05 7.20104E-09-1.73357E-19-4.06226E-18
 -1      1432 9.51609E-05-2.85483E-05-2.85481E-05 7.22264E-09 3.05879E-19-4.05781E-18
 -1      1433 9.51682E-05-2.85502E-05-2.85506E-05 1.27978E-08 5.09887E-20-1.71701E-18
 -1      1434 9.51652E-05-2.85496E-05-2.85495E-05 7.28915E-09 6.04515E-20-5.00352E-18
 -1      1435 9.51723E-05-2.85518E-05-2.85515E-05 7.20866E-09-4.61184E-20-4.93446E-18
 -1      1436 9.51757E-05-2.85528E-05-2.85527E-05 1.37836E-08-3.65728E-19-3.97220E-18
 -1      1437 9.51768E-05-2.85532E-05-2.85530E-05 6.88118E-09 3.09437E-19-5.24423E-18
 -1      1438 9.51834E-05-2.85552E-05-2.85549E-05 6.74473E-09 1.48437E-19-5.03858E-18
 -1      1439 9.51843E-05-2.85556E-05-2.85552E-05 1.35062E-08-2.65459E-19-3.77381E-18
 -1      1440 9.51877E-05-2.85565E-05-2.85562E-05 6.20228E-09 3.93260E-19-4.23491E-18
 -1      1441 9.51936E-05-2.85583E-05-2.85579E-05 6.04132E-09 6.18159E-19-4.10033E-18
 -1      1442 9.51929E-05-2.85582E-05-2.85577E-05 1.24880E-08 4.58372E-19-2.04735E-18
 -1      1443 9.51976E-05-2.85595E-05-2.85592E-05 5.40575E-09-5.17753E-20-4.44913E-18
 -1      1444 9.52027E-05-2.85610E-05-2.85607E-05 5.24079E-09-8.68172E-19-5.24221E-18
 -1      1445 9.52010E-05-2.85607E-05-2.85601E-05 1.10923E-08 2.80748E-19-2.86281E-18
 -1      1446 9.52062E-05-2.85621E-05-2.85618E-05 4.59127E-09-9.33339E-19-5.41999E-18
 -1      1447 9.52105E-05-2.85634E-05-2.85630E-05 4.43483E-09-7.56662E-19-6.83563E-18
 -1      1448 9.52083E-05-2.85629E-05-2.85623E-05 9.56214E-09-9.67211E-19-3.93213E-18
 -1      1449 9.52135E-05-2.85642E-05-2.85640E-05 3.81919E-09-4.46027E-19-7.09011E-18
 -1      1450 9.52171E-05-2.85653E-05-2.85650E-05 3.67805E-09 1.88030E-19-6.94364E-18
 -1      1451 9.52147E-05-2.85648E-05-2.85642E-05 8.05159E-09-1.29163E-18-4.25734E-18
 -1      1452 9.52196E-05-2.85660E-05-2.85658E-05 3.12148E-09 8.58259E-19-7.45878E-18
 -1      1453 9.52225E-05-2.85669E-05-2.85667E-05 2.99831E-09 1.00251E-18-6.05585E-18
 -1      1454 9.52201E-05-2.85663E-05-2.85659E-05 6.64951E-09 4.13314E-19-4.30360E-18
 -1      1455 9.52246E-05-2.85675E-05-2.85673E-05 2.50959E-09 7.02596E-19-5.18196E-18
 -1      1456 9.52269E-05-2.85682E-05-2.85680E-05 2.40411E-09 5.12569E-19-3.89170E-18
 -1      1457 9.52246E-05-2.85677E-05-2.85672E-05 5.39772E-09 1.63748E-18-3.67071E-18
 -1      1458 9.52285E-05-2.85687E-05-2.85685E-05 1.97987E-09 9.16056E-19-3.07855E-18
 -1      1459 9.52304E-05-2.85692E-05-2.85691E-05 1.88943E-09 1.57413E-18-1.86292E-18
 -1      1460 9.52283E-05-2.85687E-05-2.85683E-05 4.30369E-09 1.64923E-18-2.21003E-18
 -1      1461 9.52317E-05-2.85696E-05-2.85695E-05 1.51708E-09 1.03870E-18-1.74406E-18
 -1      1462 9.52331E-05-2.85700E-05-2.85699E-05 1.43712E-09 2.45759E-19-1.33565E-18
 -1      1463 9.52312E-05-2.85696E-05-2.85692E-05 3.34913E-09 1.70096E-18-9.44924E-19
 -1      1464 9.52341E-05-2.85703E-05-2.85702E-05 1.09674E-09-2.80180E-19-1.88592E-18
 -1      1465 9.52350E-05-2.85706E-05-2.85705E-05 1.02052E-09-1.11083E-19-1.86330E-18
 -1      1466 9.52335E-05-2.85702E-05-2.85699E-05 2.49642E-09 4.34540E-20-5.91320E-19
 -1      1467 9.52357E-05-2.85708E-05-2.85707E-05 6.90607E-10 1.01248E-18-1.31659E-18
 -1      1468 9.52363E-05-2.85710E-05-2.85709E-05 6.09968E-10 1.26262E-18 2.99295E-19
 -1      1469 9.52351E-05-2.85707E-05-2.85704E-05 1.69524E-09 7.59423E-19-1.73043E-18
 -1      1470 9.52368E-05-2.85712E-05-2.85710E-05 2.79400E-10 3.49462E-19 1.13192E-18
 -1      1471 9.52370E-05-2.85712E-05-2.85711E-05 1.92542E-10-2.08732E-19 1.63467E-18
 -1      1472 9.52363E-05-2.85711E-05-2.85708E-05 9.13774E-10 1.10894E-18 3.53462E-19
 -1      1473 9.52372E-05-2.85711E-05-2.85712E-05-6.89644E-11-1.52479E-18 1.53755E-18
 -1      1474 9.52370E-05-2.85712E-05-2.85711E-05 1.52432E-10-1.44482E-18 4.52583E-19
 -1      1475 1.42833E-04-4.26426E-05-4.33370E-05 1.59204E-06 1.77207E-18 1.63062E-17
 -1      1476 1.46842E-04-4.29035E-05-4.53572E-05 2.62378E-06 1.38723E-18 1.89989E-17
 -1      1477 1.42470E-04-3.92058E-05-4.46309E-05 9.61915E-06 2.86001E-18 1.27213E-17
 -1      1478 1.38380E-04-4.18995E-05-4.12107E-05 1.96582E-06 1.12572E-18 1.33860E-17
 -1      1479 1.40438E-04-4.21563E-05-4.22528E-05 1.61926E-06 1.09001E-18 1.52311E-17
 -1      1480 1.38186E-04-4.14572E-05-4.15413E-05 4.06327E-06 2.33765E-18 1.09292E-17
 -1      1481 1.32018E-04-4.02053E-05-3.90923E-05 4.20481E-06 7.08067E-19 1.14989E-17
 -1      1482 1.35850E-04-4.14601E-05-4.03295E-05 3.39311E-06 6.90663E-19 1.26821E-17
 -1      1483 1.34074E-04-4.11351E-05-3.96540E-05 5.58834E-06 1.53545E-18 9.57580E-18
 -1      1484 1.21470E-04-3.67998E-05-3.61596E-05 6.85323E-06 7.68486E-19 1.01532E-17
 -1      1485 1.28150E-04-3.92363E-05-3.79738E-05 5.91355E-06 5.01702E-19 1.08187E-17
 -1      1486 1.28305E-04-3.96346E-05-3.77846E-05 9.80421E-06 1.06418E-18 8.31056E-18
 -1      1487 1.08226E-04-3.20766E-05-3.28533E-05 7.50354E-06 6.97624E-19 8.34433E-18
 -1      1488 1.16452E-04-3.50769E-05-3.48962E-05 7.16063E-06 6.61744E-19 9.19010E-18
 -1      1489 1.19804E-04-3.63107E-05-3.57202E-05 1.30089E-05 1.28903E-18 7.21916E-18
 -1      1490 9.78583E-05-2.81944E-05-3.04150E-05 4.23027E-06 7.30513E-19 6.58685E-18
 -1      1491 1.03943E-04-3.02073E-05-3.18591E-05 5.07904E-06 5.77068E-19 7.30037E-18
 -1      1492 1.10556E-04-3.18907E-05-3.39236E-05 1.10644E-05 1.15281E-18 5.42059E-18
 -1      1493 9.64044E-05-2.77478E-05-2.99847E-05-1.69052E-06 1.40433E-18 3.14429E-18
 -1      1494 9.67680E-05-2.74130E-05-3.01065E-05-5.27650E-08 1.29498E-18 5.03656E-18
 -1      1495 1.05119E-04-2.89769E-05-3.29992E-05 2.94640E-06 2.28424E-18 2.66731E-18
 -1      1496 1.04335E-04-3.08969E-05-3.16801E-05-6.16067E-06 7.52086E-19 5.01867E-20
 -1      1497 9.89955E-05-2.85290E-05-3.04644E-05-4.89726E-06 1.06451E-18 1.76040E-18
 -1      1498 1.06694E-04-2.98985E-05-3.32159E-05-6.60963E-06 2.48011E-18-6.72068E-20
 -1      1499 1.15935E-04-3.51659E-05-3.44457E-05-6.61644E-06 4.91137E-19-1.61423E-18
 -1      1500 1.08507E-04-3.24075E-05-3.26299E-05-6.38791E-06 4.13731E-19-7.07273E-19
 -1      1501 1.13483E-04-3.36723E-05-3.43369E-05-1.13248E-05 1.42372E-18-2.06703E-18
 -1      1502 1.24850E-04-3.81244E-05-3.68537E-05-4.07008E-06 1.49084E-19-1.94680E-18
 -1      1503 1.19169E-04-3.63379E-05-3.53438E-05-4.59627E-06 2.59801E-19-1.61932E-18
 -1      1504 1.20619E-04-3.72501E-05-3.57283E-05-9.62108E-06 7.65043E-19-3.27249E-18
 -1      1505 1.28411E-04-3.90613E-05-3.80391E-05-9.50463E-07 5.90872E-20-1.74415E-18
 -1      1506 1.26052E-04-3.85502E-05-3.73226E-05-1.63683E-06 1.78671E-20-1.55097E-18
 -1      1507 1.24590E-04-3.87909E-05-3.67142E-05-4.57840E-06-1.27849E-20-2.50945E-18
 -1      1508 1.27311E-04-3.84778E-05-3.79461E-05 1.27123E-06 1.42368E-19-1.36867E-18
 -1      1509 1.27808E-04-3.88757E-05-3.80012E-05 7.67845E-07 1.47304E-20-1.54783E-18
 -1      1510 1.24785E-04-3.84741E-05-3.69339E-05 2.78894E-07 2.46831E-20-2.31913E-18
 -1      1511 1.23462E-04-3.71214E-05-3.69773E-05 2.35017E-06 7.14585E-20-1.80034E-18
 -1      1512 1.25614E-04-3.79514E-05-3.75319E-05 2.08957E-06 3.02947E-19-1.44794E-18
 -1      1513 1.22260E-04-3.71920E-05-3.64227E-05 3.35558E-06 3.47495E-19-2.02698E-18
 -1      1514 1.18569E-04-3.55413E-05-3.56084E-05 2.60139E-06 2.40574E-19-2.87734E-18
 -1      1515 1.21324E-04-3.64683E-05-3.63748E-05 2.51875E-06 2.23278E-19-2.29202E-18
 -1      1516 1.18366E-04-3.56363E-05-3.54395E-05 4.65156E-06 6.44781E-19-2.16721E-18
 -1      1517 1.13716E-04-3.40403E-05-3.41872E-05 2.40489E-06 2.22383E-19-3.38183E-18
 -1      1518 1.16425E-04-3.48912E-05-3.49678E-05 2.42078E-06 4.74762E-19-2.77700E-18
 -1      1519 1.14128E-04-3.41555E-05-3.42693E-05 4.75851E-06 7.01868E-19-3.02212E-18
 -1      1520 1.09430E-04-3.27465E-05-3.29030E-05 2.03062E-06-4.75081E-19-3.06322E-18
 -1      1521 1.11792E-04-3.34575E-05-3.35967E-05 2.08873E-06-4.52537E-19-3.62475E-18
 -1      1522 1.10152E-04-3.28805E-05-3.31167E-05 4.26010E-06-1.72437E-19-1.90569E-18
 -1      1523 1.05884E-04-3.16911E-05-3.18285E-05 1.62710E-06 4.29102E-19-3.87572E-18
 -1      1524 1.07811E-04-3.22548E-05-3.24005E-05 1.69619E-06 4.26494E-19-3.08062E-18
 -1      1525 1.06712E-04-3.18360E-05-3.20923E-05 3.54532E-06 2.09376E-19-2.36622E-18
 -1      1526 1.03069E-04-3.08598E-05-3.09703E-05 1.26145E-06-5.94630E-19-3.76542E-18
 -1      1527 1.04579E-04-3.12925E-05-3.14211E-05 1.32686E-06-7.86053E-20-3.93471E-18
 -1      1528 1.03883E-04-3.10053E-05-3.12366E-05 2.82237E-06 1.64794E-19-2.70848E-18
 -1      1529 1.00894E-04-3.02203E-05-3.03055E-05 9.56122E-07-5.08284E-19-2.31501E-18
 -1      1530 1.02045E-04-3.05455E-05-3.06505E-05 1.01233E-06-6.84537E-19-2.97580E-18
 -1      1531 1.01634E-04-3.03580E-05-3.05499E-05 2.18233E-06-8.76084E-19-2.04494E-18
 -1      1532 9.92465E-05-2.97374E-05-2.98014E-05 7.12362E-07-8.27583E-19-1.27792E-18
 -1      1533 1.00108E-04-2.99777E-05-3.00601E-05 7.58286E-07-6.77702E-19-1.94796E-18
 -1      1534 9.98868E-05-2.98616E-05-3.00138E-05 1.65274E-06-1.23776E-18-1.36019E-18
 -1      1535 9.80186E-05-2.93781E-05-2.94255E-05 5.22947E-07 1.99612E-19-2.22321E-19
 -1      1536 9.86530E-05-2.95531E-05-2.96163E-05 5.59387E-07-1.70275E-19-5.63217E-19
 -1      1537 9.85552E-05-2.94862E-05-2.96037E-05 1.23123E-06-6.98236E-19-6.27151E-19
 -1      1538 9.71167E-05-2.91146E-05-2.91493E-05 3.78356E-07 6.31100E-19-1.75094E-18
 -1      1539 9.75771E-05-2.92403E-05-2.92880E-05 4.06737E-07 5.83094E-19-7.65094E-19
 -1      1540 9.75560E-05-2.92061E-05-2.92952E-05 9.03820E-07 8.53657E-19 2.56570E-19
 -1      1541 9.64640E-05-2.89242E-05-2.89493E-05 2.69428E-07-1.52430E-19-2.84835E-18
 -1      1542 9.67931E-05-2.90130E-05-2.90486E-05 2.91241E-07 2.11263E-19-2.72474E-18
 -1      1543 9.68170E-05-2.89998E-05-2.90666E-05 6.53705E-07 1.05491E-18-1.70059E-18
 -1      1544 9.59996E-05-2.87890E-05-2.88070E-05 1.88291E-07-5.76978E-19-1.46982E-18
 -1      1545 9.62306E-05-2.88505E-05-2.88768E-05 2.04872E-07-7.57995E-19-2.91780E-18
 -1      1546 9.62786E-05-2.88501E-05-2.88996E-05 4.65097E-07-5.55721E-19-2.51027E-18
 -1      1547 9.56755E-05-2.86948E-05-2.87076E-05 1.28526E-07-3.05370E-19-3.97427E-19
 -1      1548 9.58341E-05-2.87363E-05-2.87556E-05 1.41001E-07-1.85778E-19-8.53854E-19
 -1      1549 9.58928E-05-2.87434E-05-2.87797E-05 3.24501E-07-9.36392E-19-1.24268E-18
 -1      1550 9.54549E-05-2.86309E-05-2.86398E-05 8.50443E-08 3.60531E-19-1.30594E-18
 -1      1551 9.55608E-05-2.86580E-05-2.86720E-05 9.43270E-08 1.45670E-19-1.10765E-18
 -1      1552 9.56217E-05-2.86689E-05-2.86952E-05 2.20909E-07 2.88605E-19-2.00824E-18
 -1      1553 9.53096E-05-2.85890E-05-2.85951E-05 5.38653E-08 7.32878E-20-2.47881E-18
 -1      1554 9.53775E-05-2.86059E-05-2.86158E-05 6.06870E-08 3.46401E-19-1.70059E-18
 -1      1555 9.54358E-05-2.86183E-05-2.86370E-05 1.45563E-07 7.77463E-19-2.08844E-18
 -1      1556 9.52183E-05-2.85629E-05-2.85669E-05 3.19035E-08 2.24433E-19-2.07585E-18
 -1      1557 9.52594E-05-2.85725E-05-2.85795E-05 3.68435E-08-4.73272E-19-2.14486E-18
 -1      1558 9.53123E-05-2.85850E-05-2.85981E-05 9.15897E-08-3.97400E-19-2.06335E-18
 -1      1559 9.51649E-05-2.85478E-05-2.85503E-05 1.67808E-08 3.28889E-19-2.60840E-18
 -1      1560 9.51874E-05-2.85525E-05-2.85573E-05 2.02949E-08 7.87595E-19-1.45864E-18
 -1      1561 9.52337E-05-2.85642E-05-2.85732E-05 5.36414E-08 1.80282E-19-1.13887E-18
 -1      1562 9.51376E-05-2.85402E-05-2.85417E-05 6.67419E-09 5.75080E-19-4.12810E-18
 -1      1563 9.51475E-05-2.85418E-05-2.85449E-05 9.11900E-09 3.35460E-19-3.43097E-18
 -1      1564 9.51869E-05-2.85522E-05-2.85582E-05 2.75849E-08 1.31672E-18-2.37277E-18
 -1      1565 9.51276E-05-2.85377E-05-2.85384E-05 1.94770E-10-6.38216E-19-3.33992E-18
 -1      1566 9.51294E-05-2.85372E-05-2.85392E-05 1.84752E-09-3.16361E-19-4.17281E-18
 -1      1567 9.51621E-05-2.85462E-05-2.85500E-05 1.02449E-08-1.92860E-19-2.49219E-18
 -1      1568 9.51286E-05-2.85383E-05-2.85386E-05-3.70787E-09-2.75478E-19-1.52676E-18
 -1      1569 9.51254E-05-2.85366E-05-2.85378E-05-2.63317E-09-6.42130E-19-2.65019E-18
 -1      1570 9.51520E-05-2.85442E-05-2.85465E-05-8.00707E-10-1.25775E-18-2.27627E-18
 -1      1571 9.51362E-05-2.85408E-05-2.85407E-05-5.82055E-09 4.06341E-19-1.17134E-18
 -1      1572 9.51302E-05-2.85385E-05-2.85391E-05-5.16017E-09 2.95388E-19-9.14053E-19
 -1      1573 9.51515E-05-2.85447E-05-2.85459E-05-7.38443E-09-1.60459E-19-1.23359E-18
 -1      1574 9.51472E-05-2.85442E-05-2.85440E-05-6.72581E-09-8.30135E-19-8.46070E-19
 -1      1575 9.51399E-05-2.85417E-05-2.85419E-05-6.35585E-09-1.01229E-19-8.91696E-19
 -1      1576 9.51566E-05-2.85467E-05-2.85472E-05-1.08785E-08-2.55287E-19-1.12813E-18
 -1      1577 9.51596E-05-2.85480E-05-2.85477E-05-6.84878E-09-5.07073E-20-1.22560E-18
 -1      1578 9.51520E-05-2.85455E-05-2.85455E-05-6.67663E-09-1.73189E-19-1.78299E-18
 -1      1579 9.51649E-05-2.85495E-05-2.85495E-05-1.22977E-08-1.82975E-19-7.83185E-19
 -1      1580 9.51721E-05-2.85518E-05-2.85515E-05-6.49423E-09 6.24831E-19-1.88727E-18
 -1      1581 9.51648E-05-2.85495E-05-2.85493E-05-6.45171E-09 6.74245E-19-1.20005E-18
 -1      1582 9.51746E-05-2.85526E-05-2.85523E-05-1.23815E-08 2.17270E-19-1.66900E-18
 -1      1583 9.51839E-05-2.85553E-05-2.85550E-05-5.87579E-09 6.11419E-19-3.17039E-18
 -1      1584 9.51772E-05-2.85533E-05-2.85530E-05-5.91364E-09 3.72084E-19-2.68742E-18
 -1      1585 9.51844E-05-2.85556E-05-2.85552E-05-1.16584E-08 9.51519E-19-1.72900E-18
 -1      1586 9.51944E-05-2.85585E-05-2.85582E-05-5.13895E-09-1.38113E-19-3.53760E-18
 -1      1587 9.51885E-05-2.85567E-05-2.85564E-05-5.22231E-09 3.62160E-19-2.95875E-18
 -1      1588 9.51938E-05-2.85585E-05-2.85580E-05-1.04978E-08 2.06268E-19-3.12134E-18
 -1      1589 9.52036E-05-2.85612E-05-2.85610E-05-4.37882E-09-1.21912E-18-1.20236E-18
 -1      1590 9.51986E-05-2.85597E-05-2.85595E-05-4.48379E-09-1.32504E-18-2.94172E-18
 -1      1591 9.52023E-05-2.85610E-05-2.85606E-05-9.14965E-09-1.47804E-18-1.46360E-18
 -1      1592 9.52115E-05-2.85636E-05-2.85633E-05-3.65387E-09-8.75516E-19 1.24743E-18
 -1      1593 9.52072E-05-2.85623E-05-2.85621E-05-3.76468E-09-7.39135E-19-2.88614E-19
 -1      1594 9.52098E-05-2.85633E-05-2.85628E-05-7.77623E-09-1.84724E-18 1.77843E-19
 -1      1595 9.52180E-05-2.85655E-05-2.85653E-05-2.99619E-09 1.27559E-19 2.50873E-18
 -1      1596 9.52145E-05-2.85645E-05-2.85643E-05-3.10316E-09-6.10698E-19 2.13207E-18
 -1      1597 9.52162E-05-2.85651E-05-2.85647E-05-6.47569E-09-1.26982E-18 1.98901E-19
 -1      1598 9.52233E-05-2.85671E-05-2.85669E-05-2.41903E-09-1.27053E-18 4.07465E-18
 -1      1599 9.52205E-05-2.85663E-05-2.85661E-05-2.51701E-09-4.93406E-19 3.12241E-18
 -1      1600 9.52215E-05-2.85667E-05-2.85663E-05-5.30005E-09-1.20132E-18 6.52932E-19
 -1      1601 9.52276E-05-2.85684E-05-2.85682E-05-1.92186E-09 2.51441E-18 2.48844E-18
 -1      1602 9.52253E-05-2.85677E-05-2.85675E-05-2.00924E-09 1.13902E-18 3.95672E-18
 -1      1603 9.52258E-05-2.85680E-05-2.85677E-05-4.26804E-09-1.27384E-19 9.83776E-19
 -1      1604 9.52310E-05-2.85694E-05-2.85692E-05-1.49346E-09 2.08079E-18-1.22507E-18
 -1      1605 9.52292E-05-2.85689E-05-2.85687E-05-1.57174E-09 2.20297E-18 1.29108E-18
 -1      1606 9.52294E-05-2.85690E-05-2.85687E-05-3.37363E-09 4.04664E-18-1.35631E-18
 -1      1607 9.52336E-05-2.85701E-05-2.85700E-05-1.11401E-09 3.33758E-20-3.19444E-18
 -1      1608 9.52322E-05-2.85698E-05-2.85696E-05-1.18749E-09 1.02609E-18-1.30406E-18
 -1      1609 9.52321E-05-2.85698E-05-2.85696E-05-2.59159E-09 1.80202E-18-1.59720E-18
 -1      1610 9.52354E-05-2.85707E-05-2.85706E-05-7.57715E-10 8.81150E-19-3.61608E-18
 -1      1611 9.52345E-05-2.85704E-05-2.85703E-05-8.33508E-10 1.17230E-19-3.56396E-18
 -1      1612 9.52342E-05-2.85704E-05-2.85702E-05-1.88273E-09 1.56342E-19-1.68560E-18
 -1      1613 9.52366E-05-2.85710E-05-2.85709E-05-3.95163E-10 7.96224E-19-6.77430E-18
 -1      1614 9.52360E-05-2.85709E-05-2.85708E-05-4.85351E-10 1.60801E-18-3.85627E-18
 -1      1615 9.52357E-05-2.85709E-05-2.85706E-05-1.20250E-09 1.65493E-18-1.69916E-18
 -1      1616 9.52371E-05-2.85712E-05-2.85711E-05-5.37411E-11-1.08407E-18-5.32099E-18
 -1      1617 9.52369E-05-2.85712E-05-2.85710E-05-1.43886E-10-1.10153E-18-7.02402E-18
 -1      1618 9.52367E-05-2.85711E-05-2.85709E-05-5.23407E-10-4.02193E-19-1.68796E-18
 -1      1619 9.52372E-05-2.85711E-05-2.85712E-05 5.23935E-11-2.87875E-18-3.21408E-18
 -1      1620 9.52372E-05-2.85715E-05-2.85710E-05-3.03562E-10-4.24944E-18-5.89987E-20
 -1      1621 9.52371E-05-2.85713E-05-2.85711E-05-2.15119E-10-3.94294E-18 7.21082E-19
 -1      1622 9.52375E-05-2.85725E-05-2.85707E-05-6.61395E-10-4.05819E-18-6.68533E-19
 -1      1623 9.52373E-05-2.85719E-05-2.85709E-05-5.94728E-10-3.67371E-18-2.38792E-19
 -1      1624 9.52372E-05-2.85720E-05-2.85708E-05-8.97959E-10-2.92488E-18 4.35142E-19
 -1      1625 9.52379E-05-2.85739E-05-2.85703E-05-8.94160E-10-6.74301E-18-1.59769E-18
 -1      1626 9.52377E-05-2.85731E-05-2.85705E-05-8.59677E-10-4.75616E-18-1.52579E-18
 -1      1627 9.52376E-05-2.85730E-05-2.85705E-05-1.48572E-09-2.92321E-18-2.28648E-18
 -1      1628 9.52384E-05-2.85754E-05-2.85699E-05-9.60175E-10-6.95118E-18 2.79124E-19
 -1      1629 9.52382E-05-2.85746E-05-2.85701E-05-9.60739E-10-7.00344E-18 9.32123E-19
 -1      1630 9.52380E-05-2.85743E-05-2.85702E-05-1.80048E-09-4.92636E-18-1.62950E-18
 -1      1631 9.52389E-05-2.85769E-05-2.85694E-05-8.68539E-10-6.32177E-18 2.41153E-18
 -1      1632 9.52387E-05-2.85761E-05-2.85697E-05-8.98231E-10-7.50537E-18 5.38366E-19
 -1      1633 9.52385E-05-2.85756E-05-2.85698E-05-1.79989E-09-5.70201E-18 1.49883E-19
 -1      1634 9.52393E-05-2.85780E-05-2.85691E-05-6.43267E-10-4.10586E-18 1.14887E-18
 -1      1635 9.52391E-05-2.85774E-05-2.85693E-05-6.96817E-10-5.77857E-18 2.47876E-18
 -1      1636 9.52390E-05-2.85769E-05-2.85695E-05-1.51530E-09-3.98971E-18 2.69710E-18
 -1      1637 9.52395E-05-2.85787E-05-2.85689E-05-3.24696E-10-4.47481E-18-1.39218E-18
 -1      1638 9.52394E-05-2.85784E-05-2.85690E-05-3.92757E-10-3.17902E-18-4.20218E-19
 -1      1639 9.52393E-05-2.85778E-05-2.85692E-05-1.00274E-09-2.81713E-18 5.55702E-19
 -1      1640 9.52396E-05-2.85789E-05-2.85689E-05 3.94855E-11 3.81008E-19 3.31643E-18
 -1      1641 9.52396E-05-2.85789E-05-2.85689E-05-3.34785E-11-3.77879E-18 2.38477E-18
 -1      1642 9.52394E-05-2.85783E-05-2.85691E-05-3.46645E-10-1.02441E-18 1.48342E-18
 -1      1643 9.52394E-05-2.85784E-05-2.85690E-05 3.98224E-10 1.18335E-18-8.47711E-19
 -1      1644 9.52395E-05-2.85787E-05-2.85689E-05 3.30360E-10 9.89350E-19 1.21001E-18
 -1      1645 9.52394E-05-2.85783E-05-2.85691E-05 3.58007E-10 8.61985E-20 3.31853E-18
 -1      1646 9.52391E-05-2.85774E-05-2.85693E-05 7.00825E-10-2.25102E-18-2.36750E-18
 -1      1647 9.52393E-05-2.85780E-05-2.85691E-05 6.47821E-10 1.41273E-18-1.56908E-18
 -1      1648 9.52393E-05-2.85778E-05-2.85692E-05 1.01252E-09-1.73997E-19-1.41038E-18
 -1      1649 9.52386E-05-2.85761E-05-2.85697E-05 8.98336E-10-2.63327E-18 7.23947E-19
 -1      1650 9.52389E-05-2.85769E-05-2.85694E-05 8.69212E-10-1.76032E-18-1.51801E-18
 -1      1651 9.52389E-05-2.85768E-05-2.85695E-05 1.51907E-09-7.70726E-19-2.35592E-18
 -1      1652 9.52381E-05-2.85745E-05-2.85701E-05 9.59640E-10-2.14831E-18 4.22604E-19
 -1      1653 9.52384E-05-2.85754E-05-2.85699E-05 9.59755E-10-2.64982E-18 9.97269E-19
 -1      1654 9.52385E-05-2.85756E-05-2.85698E-05 1.80004E-09 6.49461E-19 1.01551E-18
 -1      1655 9.52377E-05-2.85731E-05-2.85705E-05 8.57661E-10-2.62348E-18-4.88868E-20
 -1      1656 9.52379E-05-2.85738E-05-2.85703E-05 8.91023E-10-2.70700E-18 1.16760E-18
 -1      1657 9.52380E-05-2.85743E-05-2.85702E-05 1.79674E-09 1.31302E-19 1.92528E-19
 -1      1658 9.52373E-05-2.85719E-05-2.85709E-05 5.95447E-10-2.39635E-18-4.12042E-20
 -1      1659 9.52375E-05-2.85725E-05-2.85707E-05 6.64218E-10-2.10355E-18-6.85949E-19
 -1      1660 9.52376E-05-2.85730E-05-2.85705E-05 1.47794E-09-1.24198E-18-2.76232E-19
 -1      1661 9.52371E-05-2.85714E-05-2.85710E-05 3.61360E-10-1.15891E-18-1.35004E-19
 -1      1662 9.52371E-05-2.85716E-05-2.85709E-05 4.87451E-10-1.55525E-18 2.06468E-19
 -1      1663 9.52372E-05-2.85721E-05-2.85707E-05 1.09985E-09-5.90565E-19 3.78781E-19
 -1      1664 9.52368E-05-2.85715E-05-2.85709E-05 7.52090E-10 1.10064E-19-6.76742E-19
 -1      1665 1.90905E-05-6.17467E-05 1.22847E-05-6.55785E-06 1.26208E-17 5.30052E-18
 -1      1666 2.22196E-05-7.03803E-05 1.41394E-05 8.85046E-07 6.03416E-18 4.31733E-18
 -1      1667 2.00909E-05-3.59817E-05 2.41504E-06 4.39094E-06 1.85119E-17 1.13699E-17
 -1      1668 2.37141E-05-5.72063E-05 8.32065E-06 3.03544E-07 1.40142E-17 6.94800E-18
 -1      1669 3.35581E-05-1.05266E-05-1.23577E-05 2.71525E-05 2.18628E-17 1.61411E-17
 -1      1670 2.82150E-05-3.02597E-05-4.14766E-06 1.03573E-05 2.05558E-17 1.25640E-17
 -1      1671 7.68272E-05-3.24281E-06-3.12203E-05 5.93255E-05 1.84264E-17 1.83222E-17
 -1      1672 5.22815E-05-9.48668E-06-2.11867E-05 3.60764E-05 2.09420E-17 1.63681E-17
 -1      1673 1.44389E-04-1.73784E-05-5.08501E-05 7.90359E-05 1.33971E-17 1.77758E-17
 -1      1674 1.01232E-04-5.49966E-06-4.08703E-05 6.44892E-05 1.69889E-17 1.83374E-17
 -1      1675 2.19757E-04-4.67194E-05-6.76497E-05 6.87776E-05 7.75194E-18 1.01822E-17
 -1      1676 1.70976E-04-2.32908E-05-5.97166E-05 7.81421E-05 1.20008E-17 1.60801E-17
 -1      1677 2.62303E-04-6.71162E-05-7.61570E-05 2.42487E-05 5.01613E-18-3.31783E-18
 -1      1678 2.38420E-04-5.32701E-05-7.29305E-05 5.57581E-05 6.90597E-18 5.87841E-18
 -1      1679 2.50311E-04-6.09775E-05-7.47662E-05-2.68748E-05 7.44796E-18-1.60098E-17
 -1      1680 2.60975E-04-6.59586E-05-7.64294E-05 7.97082E-06 5.58364E-18-7.25820E-18
 -1      1681 2.02428E-04-3.99019E-05-6.54394E-05-6.12789E-05 1.31804E-17-2.54779E-17
 -1      1682 2.40436E-04-5.86621E-05-7.13494E-05-4.12669E-05 8.67685E-18-1.96673E-17
 -1      1683 1.39057E-04-1.97131E-05-5.00215E-05-6.24271E-05 1.90612E-17-2.76565E-17
 -1      1684 1.81632E-04-3.62263E-05-5.82956E-05-6.43256E-05 1.47765E-17-2.59336E-17
 -1      1685 7.63709E-05-6.97321E-06-3.16884E-05-4.77967E-05 2.53847E-17-2.72643E-17
 -1      1686 1.12606E-04-1.27283E-05-4.15519E-05-6.62038E-05 2.17942E-17-2.93480E-17
 -1      1687 3.59675E-05-1.46230E-05-1.35413E-05-2.05832E-05 2.68509E-17-2.14880E-17
 -1      1688 5.21722E-05-3.39645E-06-2.25630E-05-4.17519E-05 2.72389E-17-2.65087E-17
 -1      1689 2.10478E-05-3.55725E-05 5.32785E-07-9.45769E-07 2.14240E-17-1.33195E-17
 -1      1690 2.18379E-05-1.70935E-05-6.02184E-06-1.15919E-05 2.61039E-17-1.91048E-17
 -1      1691 1.82375E-05-5.21174E-05 8.67116E-06 3.68613E-06 1.09051E-17-7.23186E-18
 -1      1692 1.45964E-05-3.91297E-05 5.29796E-06 5.45272E-06 1.88867E-17-1.11093E-17
 -1      1693 1.60860E-05-5.14543E-05 1.00349E-05 5.22709E-07-2.87367E-18-5.85850E-18
 -1      1694 1.57445E-05-5.15041E-05 1.00023E-05 7.33034E-06 6.88659E-18-6.53782E-18
 -1      1695 1.35950E-05-3.70004E-05 5.61609E-06 4.40253E-07-1.53194E-17-8.38091E-18
 -1      1696 1.75711E-05-5.08830E-05 8.85651E-06 3.73107E-06-6.98125E-18-5.58205E-18
 -1      1697 2.19309E-05-1.22188E-05-6.67763E-06 2.00844E-05-2.19322E-17-1.53398E-17
 -1      1698 2.12726E-05-3.14599E-05 1.74539E-07 1.01520E-05-1.64850E-17-1.02906E-17
 -1      1699 4.25663E-05 5.37333E-06-2.15012E-05 4.37558E-05-2.66790E-17-2.35009E-17
 -1      1700 3.06878E-05-6.72379E-06-1.34910E-05 2.55651E-05-2.54652E-17-1.80731E-17
 -1      1701 9.03261E-05 1.57943E-06-3.82411E-05 6.95065E-05-2.36204E-17-2.78792E-17
 -1      1702 6.13117E-05 4.18426E-06-2.95335E-05 5.12002E-05-2.61259E-17-2.51450E-17
 -1      1703 1.53781E-04-2.03985E-05-5.40571E-05 7.63661E-05-1.69741E-17-2.68476E-17
 -1      1704 1.13472E-04-3.74968E-06-4.62003E-05 7.15981E-05-2.16324E-17-2.81588E-17
 -1      1705 2.11548E-04-4.65309E-05-6.61762E-05 4.90231E-05-9.93690E-18-1.76090E-17
 -1      1706 1.74483E-04-2.76489E-05-6.01884E-05 6.39952E-05-1.44046E-17-2.30418E-17
 -1      1707 2.44886E-04-6.09118E-05-7.29833E-05 6.94947E-06-5.57390E-18-8.03347E-18
 -1      1708 2.27151E-04-5.14305E-05-7.06099E-05 3.88957E-05-7.85898E-18-1.57057E-17
 -1      1709 2.38306E-04-5.63843E-05-7.21840E-05-3.96107E-05-5.07352E-18 2.72321E-18
 -1      1710 2.49662E-04-6.34532E-05-7.36872E-05-8.47803E-06-4.49986E-18-4.40494E-18
 -1      1711 1.93552E-04-3.39199E-05-6.41332E-05-6.91280E-05-8.50072E-18 1.13062E-17
 -1      1712 2.25634E-04-5.13059E-05-6.89310E-05-5.12654E-05-5.75792E-18 5.85300E-18
 -1      1713 1.35392E-04-1.00439E-05-5.13525E-05-7.74129E-05-1.36419E-17 1.69940E-17
 -1      1714 1.74773E-04-2.74877E-05-5.85147E-05-7.77362E-05-9.65935E-18 1.42056E-17
 -1      1715 8.12938E-05 1.27969E-06-3.54427E-05-6.13658E-05-1.91065E-17 1.86127E-17
 -1      1716 1.13814E-04-5.42195E-06-4.38428E-05-7.67030E-05-1.57413E-17 1.76361E-17
 -1      1717 4.29776E-05-6.55314E-06-1.81764E-05-3.38802E-05-2.07947E-17 1.61182E-17
 -1      1718 6.15430E-05 2.19354E-06-2.70879E-05-5.51989E-05-1.99951E-17 1.91988E-17
 -1      1719 2.61065E-05-3.05362E-05-2.66172E-06-1.08389E-05-1.63850E-17 1.14252E-17
 -1      1720 2.90848E-05-1.04133E-05-1.02357E-05-2.53888E-05-2.00425E-17 1.60449E-17
 -1      1721 2.32434E-05-5.65741E-05 8.58961E-06-3.02051E-06-6.80506E-18 6.81417E-18
 -1      1722 1.92834E-05-3.65504E-05 3.26113E-06-5.76678E-06-1.35424E-17 9.85819E-18
 -1      1723 2.24918E-05-7.09556E-05 1.41982E-05-3.21857E-06 3.45357E-18 4.76647E-18
 -1      1724 1.96157E-05-6.22399E-05 1.23529E-05 3.99746E-06-4.58245E-18 5.83097E-18
 -1      1725 1.18062E-04-3.34333E-05-3.56358E-05 4.59097E-05 1.10606E-17 9.89673E-18
 -1      1726 7.31085E-05-3.44429E-05-1.81144E-05 4.00898E-05 1.15806E-17 9.86539E-18
 -1      1727 9.52371E-05-2.85712E-05-2.85711E-05-3.63317E-11-4.22648E-18-5.10148E-19
 -1      1728 9.52370E-05-2.85714E-05-2.85710E-05-3.63946E-10-2.42770E-18 3.54096E-19
 -1      1729 1.83150E-05-4.30495E-05 6.53252E-06 1.40916E-05 6.16555E-18 7.93416E-18
 -1      1730 3.93139E-05-3.90477E-05-3.38542E-06 2.79540E-05 9.79424E-18 1.01050E-17
 -1      1731 1.12414E-05-4.62245E-05 1.03715E-05-1.61040E-06 2.64306E-18 8.41866E-18
 -1      1732 1.65232E-04-3.38099E-05-5.31899E-05 4.31801E-05 1.03808E-17 7.49285E-18
 -1      1733 2.04509E-04-3.60076E-05-6.67307E-05 3.10408E-05 1.01339E-17 2.50341E-18
 -1      1734 2.17898E-04-3.59131E-05-7.19923E-05 1.02110E-05 9.94755E-18-4.50944E-18
 -1      1735 2.09477E-04-3.59643E-05-6.90187E-05-1.07443E-05 1.09729E-17-1.01051E-17
 -1      1736 1.83357E-04-3.77452E-05-5.89352E-05-2.42715E-05 1.21116E-17-1.37575E-17
 -1      1737 1.44530E-04-3.70716E-05-4.44260E-05-3.60122E-05 1.37643E-17-1.59657E-17
 -1      1738 9.53323E-05-3.21606E-05-2.77021E-05-3.95464E-05 1.60852E-17-1.79766E-17
 -1      1739 5.15920E-05-3.04614E-05-1.17800E-05-2.98312E-05 1.54321E-17-1.66461E-17
 -1      1740 2.35316E-05-3.23375E-05-7.24794E-08-1.61056E-05 1.15247E-17-1.37406E-17
 -1      1741 9.66644E-06-3.22137E-05 5.76447E-06-3.00463E-06 5.05488E-18-1.17035E-17
 -1      1742 8.35344E-06-3.07335E-05 5.92156E-06 8.87591E-06-1.67204E-18-1.09322E-17
 -1      1743 2.10152E-05-2.59529E-05-4.94541E-07 2.47372E-05-7.72536E-18-1.18650E-17
 -1      1744 4.59597E-05-2.31903E-05-1.18220E-05 3.63279E-05-1.18839E-17-1.39898E-17
 -1      1745 7.90019E-05-1.95398E-05-2.60579E-05 4.57712E-05-1.62529E-17-1.71973E-17
 -1      1746 1.21677E-04-2.21185E-05-4.13176E-05 4.94516E-05-1.57247E-17-1.76801E-17
 -1      1747 1.62475E-04-2.76910E-05-5.48297E-05 3.73648E-05-1.34640E-17-1.40438E-17
 -1      1748 1.89233E-04-2.99396E-05-6.45732E-05 1.64318E-05-1.11531E-17-9.79043E-18
 -1      1749 2.06956E-04-3.31223E-05-6.94913E-05-2.12567E-06-9.06198E-18-5.54108E-18
 -1      1750 2.00498E-04-3.27309E-05-6.70435E-05-2.34464E-05-8.49616E-18-7.62330E-20
 -1      1751 1.74941E-04-2.90052E-05-5.86472E-05-4.04076E-05-9.17472E-18 4.90093E-18
 -1      1752 1.39349E-04-2.61655E-05-4.61540E-05-4.97458E-05-1.07501E-17 8.19504E-18
 -1      1753 9.93244E-05-2.57700E-05-3.10309E-05-4.86008E-05-1.16412E-17 1.01060E-17
 -1      1754 6.26000E-05-2.99503E-05-1.55021E-05-4.01032E-05-1.03855E-17 1.09653E-17
 -1      1755 3.52493E-05-3.69964E-05-2.25609E-06-2.89610E-05-6.26296E-18 1.09841E-17
 -1      1756 1.75047E-05-4.26240E-05 6.80727E-06-1.64627E-05-2.33019E-18 1.01237E-17
 -1      1757 1.21633E-04-2.69459E-05-4.06529E-05-1.93827E-05-3.08092E-18 1.13248E-17
 -1      1758 1.02044E-04-1.61704E-05-3.69322E-05-1.51410E-05-2.81949E-18-3.52374E-18
 -1      1759 1.03467E-04-1.65480E-05-3.74799E-05-1.78962E-05-3.63111E-18-2.46317E-18
 -1      1760 1.05463E-04-1.79483E-05-3.76980E-05-1.91685E-05-3.91046E-18-9.80547E-19
 -1      1761 1.07328E-04-1.94888E-05-3.82743E-05-2.13029E-05-4.49221E-18 1.08394E-18
 -1      1762 1.07018E-04-2.18288E-05-3.65409E-05-1.75848E-05-4.04641E-18-1.28977E-18
 -1      1763 9.53557E-05-1.57705E-05-3.41704E-05-3.22537E-06-2.65293E-19-5.17002E-18
 -1      1764 9.76114E-05-1.59559E-05-3.51062E-05-6.40931E-06-8.91727E-19-5.04591E-18
 -1      1765 8.83067E-05-1.42097E-05-3.18241E-05 3.88393E-06 9.75094E-19-5.47355E-18
 -1      1766 9.22869E-05-1.51494E-05-3.31069E-05 6.49887E-07 4.51866E-19-5.38821E-18
 -1      1767 9.72147E-05-1.99541E-05-3.31935E-05-1.71662E-06 9.51192E-20-4.80785E-18
 -1      1768 7.72093E-05-1.01039E-05-2.88691E-05 1.03446E-05 2.02486E-18-5.77981E-18
 -1      1769 8.31311E-05-1.21052E-05-3.04016E-05 7.73208E-06 1.58546E-18-5.71644E-18
 -1      1770 8.87985E-05-1.74207E-05-3.07149E-05 6.18993E-06 1.46533E-18-5.22053E-18
 -1      1771 6.32315E-05-3.45402E-06-2.57663E-05 1.39391E-05 2.67894E-18-6.43732E-18
 -1      1772 7.00800E-05-6.18409E-06-2.72588E-05 1.28407E-05 2.51383E-18-6.21540E-18
 -1      1773 7.57556E-05-1.15329E-05-2.76346E-05 1.31190E-05 2.62924E-18-5.84973E-18
 -1      1774 5.06379E-05 3.62764E-06-2.33749E-05 1.27219E-05 2.66548E-18-7.07170E-18
 -1      1775 5.59909E-05 1.23492E-06-2.43702E-05 1.36827E-05 2.77372E-18-6.93432E-18
 -1      1776 6.01084E-05-2.91837E-06-2.45258E-05 1.59973E-05 3.14297E-18-6.85176E-18
 -1      1777 4.55807E-05 7.31154E-06-2.26783E-05 7.13895E-06 2.07469E-18-7.34126E-18
 -1      1778 4.66356E-05 6.59062E-06-2.27339E-05 9.50668E-06 2.37088E-18-7.36396E-18
 -1      1779 4.76351E-05 4.88290E-06-2.23829E-05 1.26756E-05 2.84295E-18-7.67129E-18
 -1      1780 5.15065E-05 5.14211E-06-2.41657E-05 9.50326E-07 1.39725E-18-6.78508E-18
 -1      1781 4.73455E-05 6.53802E-06-2.31487E-05 2.97926E-06 1.63417E-18-7.16361E-18
 -1      1782 4.50417E-05 7.09890E-06-2.21708E-05 4.96619E-06 1.99398E-18-7.74511E-18
 -1      1783 6.67062E-05-1.84815E-06-2.76534E-05-1.79332E-06 1.33826E-18-5.20898E-18
 -1      1784 5.86751E-05 9.79981E-07-2.57189E-05-1.50510E-06 1.20160E-18-5.94978E-18
 -1      1785 5.46971E-05 2.01923E-06-2.42276E-05-1.85833E-06 1.25510E-18-6.61185E-18
 -1      1786 8.57632E-05-1.02413E-05-3.23231E-05 5.39082E-07 1.94272E-18-3.15782E-18
 -1      1787 7.64791E-05-7.14534E-06-2.98866E-05-1.22786E-06 1.49009E-18-4.17612E-18
 -1      1788 7.29662E-05-7.58448E-06-2.80932E-05-3.33857E-06 1.25917E-18-4.55464E-18
 -1      1789 1.04725E-04-1.79410E-05-3.73335E-05 6.21355E-06 2.82946E-18-2.10144E-19
 -1      1790 9.55717E-05-1.48892E-05-3.47588E-05 3.15151E-06 2.25594E-18-1.79754E-18
 -1      1791 9.35844E-05-1.73610E-05-3.27926E-05 6.09441E-07 1.96546E-18-2.02207E-18
 -1      1792 1.23753E-04-2.63705E-05-4.19682E-05 1.19841E-05 3.48434E-18 4.38790E-18
 -1      1793 1.14090E-04-2.21831E-05-3.95871E-05 9.08693E-06 3.12897E-18 1.75383E-18
 -1      1794 1.13358E-04-2.59259E-05-3.74650E-05 6.33201E-06 2.89159E-18 1.27095E-18
 -1      1795 1.38587E-04-3.70304E-05-4.40363E-05 1.04807E-05 3.19744E-18 9.82622E-18
 -1      1796 1.29975E-04-2.98374E-05-4.29156E-05 1.23034E-05 3.34996E-18 6.34407E-18
 -1      1797 1.27490E-04-3.32370E-05-4.05149E-05 8.42968E-06 3.47545E-18 4.82422E-18
 -1      1798 1.36303E-04-3.87916E-05-4.20488E-05 6.18152E-06 3.24347E-18 9.02231E-18
 -1      1799 1.14185E-04-2.29131E-05-3.87508E-05-2.22514E-05-4.03848E-18 4.80215E-18
 -1      1800 1.34016E-04-4.12601E-05-3.98420E-05 5.05021E-06 2.21831E-18 8.18787E-18
 -1      1801 1.36245E-04-4.09488E-05-4.09080E-05 5.28385E-06 2.48022E-18 8.87038E-18
 -1      1802 1.32642E-04-3.87212E-05-4.02467E-05 6.92840E-06 2.82336E-18 6.57280E-18
 -1      1803 1.13873E-04-2.69342E-05-3.69487E-05-1.81586E-05-4.22574E-18 3.42286E-18
 -1      1804 1.09410E-04-3.15409E-05-3.32692E-05-1.05687E-05-3.34935E-18 2.99788E-18
 -1      1805 1.06174E-04-3.11031E-05-3.21675E-05-9.33762E-06-2.98674E-18 2.19437E-18
 -1      1806 1.04369E-04-3.08445E-05-3.14252E-05-8.57908E-06-2.60355E-18 2.13012E-18
 -1      1807 1.01940E-04-3.01443E-05-3.07216E-05-8.08299E-06-2.33266E-18 1.35756E-18
 -1      1808 1.07074E-04-3.09915E-05-3.26041E-05-1.16462E-05-3.24358E-18 8.04687E-19
 -1      1809 1.00137E-04-2.94437E-05-3.02466E-05-7.39376E-06-2.03411E-18 1.19207E-18
 -1      1810 9.81339E-05-2.85795E-05-2.97467E-05-6.72744E-06-1.80257E-18 5.80712E-19
 -1      1811 1.03504E-04-3.01388E-05-3.14492E-05-9.96871E-06-2.63208E-18 5.38729E-19
 -1      1812 9.65682E-05-2.77878E-05-2.94424E-05-5.55649E-06-1.61632E-18 1.70983E-19
 -1      1813 9.51687E-05-2.70708E-05-2.91182E-05-4.41950E-06-1.46205E-18-3.22779E-19
 -1      1814 1.00104E-04-2.84274E-05-3.07425E-05-7.89250E-06-2.19916E-18-7.02318E-20
 -1      1815 9.41497E-05-2.65234E-05-2.89421E-05-2.66812E-06-1.51483E-18-7.65829E-19
 -1      1816 9.35784E-05-2.62331E-05-2.88066E-05-1.17262E-06-1.43576E-18-1.29569E-18
 -1      1817 9.74515E-05-2.68130E-05-3.03193E-05-4.60552E-06-1.96726E-18-9.73197E-19
 -1      1818 9.33463E-05-2.61782E-05-2.87336E-05 8.03783E-07-1.52009E-18-1.61797E-18
 -1      1819 9.36840E-05-2.64380E-05-2.87873E-05 2.26383E-06-1.37280E-18-2.11368E-18
 -1      1820 9.61787E-05-2.61087E-05-3.00843E-05-3.87061E-07-1.86154E-18-2.02195E-18
 -1      1821 9.42070E-05-2.68847E-05-2.87978E-05 3.88762E-06-1.30534E-18-2.39874E-18
 -1      1822 9.52874E-05-2.75817E-05-2.90087E-05 4.88438E-06-1.00383E-18-2.53843E-18
 -1      1823 9.65369E-05-2.66769E-05-2.99801E-05 3.68427E-06-1.58962E-18-2.64086E-18
 -1      1824 9.62440E-05-2.82955E-05-2.90825E-05 5.71185E-06-1.03552E-18-2.78306E-18
 -1      1825 9.77078E-05-2.91552E-05-2.93881E-05 6.02458E-06-8.54817E-19-2.90550E-18
 -1      1826 9.81531E-05-2.82375E-05-2.99757E-05 6.42655E-06-1.23258E-18-3.23086E-18
 -1      1827 9.86816E-05-2.98279E-05-2.94989E-05 5.97183E-06-9.09894E-19-3.10494E-18
 -1      1828 1.00133E-04-3.05788E-05-2.98235E-05 5.66193E-06-5.83543E-19-3.68605E-18
 -1      1829 1.00230E-04-3.00850E-05-3.00491E-05 7.25176E-06-1.18049E-18-3.72728E-18
 -1      1830 1.00828E-04-3.10087E-05-2.99402E-05 4.96504E-06-3.09680E-19-3.63463E-18
 -1      1831 1.01974E-04-3.14996E-05-3.02174E-05 4.27546E-06 4.69044E-20-3.82200E-18
 -1      1832 1.02002E-04-3.15494E-05-3.01697E-05 6.36585E-06-5.15727E-19-3.70897E-18
 -1      1833 1.02287E-04-3.16447E-05-3.03105E-05 3.29293E-06-1.07990E-19-3.80839E-18
 -1      1834 1.02995E-04-3.18565E-05-3.04988E-05 2.49462E-06-3.57541E-20-3.78499E-18
 -1      1835 1.03054E-04-3.23089E-05-3.02956E-05 4.46361E-06-1.41011E-19-3.62595E-18
 -1      1836 1.02968E-04-3.17813E-05-3.05484E-05 1.53052E-06-1.02789E-19-3.83566E-18
 -1      1837 1.03239E-04-3.17741E-05-3.06352E-05 8.20099E-07-1.89143E-19-3.47471E-18
 -1      1838 1.03335E-04-3.23982E-05-3.03838E-05 2.29125E-06-1.41459E-19-3.78629E-18
 -1      1839 1.02972E-04-3.15742E-05-3.06344E-05 5.02308E-08-3.39276E-19-3.32061E-18
 -1      1840 1.02890E-04-3.14305E-05-3.06298E-05-4.76764E-07-2.28390E-19-3.14524E-18
 -1      1841 1.03007E-04-3.20369E-05-3.04052E-05 3.74361E-07-6.38253E-20-3.45330E-18
 -1      1842 1.02485E-04-3.11850E-05-3.05830E-05-9.95061E-07-5.76944E-19-3.41187E-18
 -1      1843 1.02159E-04-3.09757E-05-3.05095E-05-1.32281E-06-6.29609E-19-3.65685E-18
 -1      1844 1.02292E-04-3.14630E-05-3.03506E-05-1.03965E-06-5.88106E-19-3.47608E-18
 -1      1845 1.01696E-04-3.07341E-05-3.04281E-05-1.60732E-06-8.55871E-19-3.53101E-18
 -1      1846 1.01234E-04-3.05080E-05-3.03115E-05-1.76493E-06-7.38173E-19-3.66915E-18
 -1      1847 1.01383E-04-3.08492E-05-3.02282E-05-1.91470E-06-7.80316E-19-3.43483E-18
 -1      1848 1.00765E-04-3.02945E-05-3.02090E-05-1.86702E-06-4.61022E-19-3.99995E-18
 -1      1849 1.00251E-04-3.00803E-05-3.00721E-05-1.89993E-06-1.40582E-19-3.91214E-18
 -1      1850 1.00419E-04-3.02913E-05-3.00566E-05-2.33075E-06-9.10509E-19-2.96119E-18
 -1      1851 9.98106E-05-2.99029E-05-2.99612E-05-1.87734E-06-1.48887E-19-4.42277E-18
 -1      1852 9.93024E-05-2.97147E-05-2.98214E-05-1.83020E-06-2.67281E-19-4.38875E-18
 -1      1853 9.94877E-05-2.98276E-05-2.98578E-05-2.40926E-06-3.77384E-19-3.02366E-18
 -1      1854 9.89087E-05-2.95729E-05-2.97120E-05-1.73321E-06-4.43795E-19-4.42352E-18
 -1      1855 9.84433E-05-2.94158E-05-2.95808E-05-1.64222E-06 1.42258E-19-4.28460E-18
 -1      1856 9.86399E-05-2.94631E-05-2.96513E-05-2.26938E-06-4.33960E-19-3.85652E-18
 -1      1857 9.81039E-05-2.93055E-05-2.94795E-05-1.50896E-06 5.08736E-19-4.32773E-18
 -1      1858 9.76999E-05-2.91791E-05-2.93634E-05-1.40009E-06 6.80045E-19-4.44237E-18
 -1      1859 9.78997E-05-2.91873E-05-2.94526E-05-2.00835E-06 3.89424E-20-3.67168E-18
 -1      1860 9.74160E-05-2.90950E-05-2.92740E-05-1.25660E-06 7.33507E-19-4.34735E-18
 -1      1861 9.70796E-05-2.89964E-05-2.91759E-05-1.14668E-06 5.33235E-19-3.96200E-18
 -1      1862 9.72743E-05-2.89842E-05-2.92715E-05-1.69674E-06 9.00714E-19-3.35719E-18
 -1      1863 9.68483E-05-2.89333E-05-2.91000E-05-1.00908E-06 2.38147E-19-3.52146E-18
 -1      1864 9.65776E-05-2.88585E-05-2.90199E-05-9.07848E-07 3.16172E-19-2.91662E-18
 -1      1865 9.67603E-05-2.88380E-05-2.91135E-05-1.38097E-06 7.92904E-19-3.03410E-18
 -1      1866 9.63936E-05-2.88121E-05-2.89576E-05-7.84914E-07 1.19075E-19-2.78631E-18
 -1      1867 9.61823E-05-2.87569E-05-2.88944E-05-6.97111E-07 2.40103E-19-2.56028E-18
 -1      1868 9.63481E-05-2.87350E-05-2.89805E-05-1.08845E-06 4.13210E-19-2.45669E-18
 -1      1869 9.60393E-05-2.87233E-05-2.88446E-05-5.92590E-07 3.27321E-19-2.37671E-18
 -1      1870 9.58790E-05-2.86836E-05-2.87961E-05-5.19724E-07 3.58141E-19-2.21429E-18
 -1      1871 9.60249E-05-2.86640E-05-2.88720E-05-8.33015E-07 4.94640E-19-2.57082E-18
 -1      1872 9.57703E-05-2.86599E-05-2.87574E-05-4.34195E-07 8.07397E-20-2.53153E-18
 -1      1873 9.56521E-05-2.86323E-05-2.87212E-05-3.75829E-07 1.38891E-19-2.43098E-18
 -1      1874 9.57773E-05-2.86164E-05-2.87858E-05-6.19438E-07 3.00095E-19-2.59156E-18
 -1      1875 9.55715E-05-2.86159E-05-2.86919E-05-3.08044E-07 2.16821E-19-2.15388E-18
 -1      1876 9.54869E-05-2.85974E-05-2.86656E-05-2.62704E-07 6.30622E-20-2.63551E-18
 -1      1877 9.55918E-05-2.85855E-05-2.87190E-05-4.46977E-07 3.38300E-19-2.72209E-18
 -1      1878 9.54286E-05-2.85865E-05-2.86440E-05-2.10496E-07-4.54027E-19-2.41281E-18
 -1      1879 9.53703E-05-2.85748E-05-2.86256E-05-1.76265E-07-3.57129E-19-2.32874E-18
 -1      1880 9.54562E-05-2.85665E-05-2.86687E-05-3.11834E-07 6.19697E-20-2.21786E-18
 -1      1881 9.53293E-05-2.85678E-05-2.86101E-05-1.37139E-07-1.23836E-19-2.09198E-18
 -1      1882 9.52908E-05-2.85609E-05-2.85977E-05-1.12017E-07 4.19684E-19-2.28528E-18
 -1      1883 9.53597E-05-2.85556E-05-2.86316E-05-2.08819E-07 2.54658E-21-2.14927E-18
 -1      1884 9.52630E-05-2.85568E-05-2.85869E-05-8.35019E-08 4.25821E-19-2.62066E-18
 -1      1885 9.52390E-05-2.85532E-05-2.85790E-05-6.56165E-08-1.99920E-19-2.32867E-18
 -1      1886 9.52933E-05-2.85502E-05-2.86052E-05-1.32396E-07 3.80261E-20-1.85668E-18
 -1      1887 9.52210E-05-2.85510E-05-2.85718E-05-4.54584E-08-6.40977E-19-2.00163E-18
 -1      1888 9.52075E-05-2.85497E-05-2.85671E-05-3.31615E-08-2.92135E-19-1.86722E-18
 -1      1889 9.52494E-05-2.85484E-05-2.85869E-05-7.72893E-08-2.19348E-19-2.37311E-18
 -1      1890 9.51966E-05-2.85489E-05-2.85626E-05-1.94124E-08 2.41495E-19-1.63905E-18
 -1      1891 9.51903E-05-2.85490E-05-2.85602E-05-1.13186E-08 4.92561E-19-7.43881E-19
 -1      1892 9.52220E-05-2.85488E-05-2.85747E-05-3.88011E-08 2.82912E-19-1.89919E-18
 -1      1893 9.51844E-05-2.85490E-05-2.85576E-05-2.35976E-09 1.47177E-19-6.90915E-19
 -1      1894 9.51829E-05-2.85500E-05-2.85567E-05 2.65636E-09 1.77838E-19-7.29808E-19
 -1      1895 9.52063E-05-2.85506E-05-2.85671E-05-1.29369E-08 5.83378E-19-1.97886E-19
 -1      1896 9.51804E-05-2.85505E-05-2.85554E-05 8.12850E-09-2.49628E-19-5.17448E-19
 -1      1897 9.51819E-05-2.85520E-05-2.85555E-05 1.09549E-08 2.61289E-20-2.14029E-19
 -1      1898 9.51989E-05-2.85530E-05-2.85628E-05 3.58050E-09 2.04231E-19 5.06960E-19
 -1      1899 9.51817E-05-2.85528E-05-2.85551E-05 1.39621E-08-4.94708E-19-7.43552E-19
 -1      1900 9.51848E-05-2.85544E-05-2.85558E-05 1.52818E-08-5.86816E-19-1.32278E-18
 -1      1901 9.51968E-05-2.85556E-05-2.85607E-05 1.33627E-08-6.34232E-19 6.36407E-19
 -1      1902 9.51860E-05-2.85553E-05-2.85559E-05 1.66052E-08-4.19233E-19-1.89776E-18
 -1      1903 9.51900E-05-2.85570E-05-2.85569E-05 1.69305E-08-6.52673E-19-2.10974E-18
 -1      1904 9.51981E-05-2.85582E-05-2.85601E-05 1.84377E-08-5.30923E-19 5.25510E-19
 -1      1905 9.51919E-05-2.85579E-05-2.85574E-05 1.71530E-08-5.05305E-19-1.61668E-18
 -1      1906 9.51962E-05-2.85594E-05-2.85586E-05 1.68587E-08-8.58777E-20-1.67695E-18
 -1      1907 9.52015E-05-2.85606E-05-2.85605E-05 2.03426E-08-1.22851E-19 6.28314E-19
 -1      1908 9.51984E-05-2.85603E-05-2.85592E-05 1.64045E-08 8.97722E-19-4.86013E-19
 -1      1909 9.52026E-05-2.85617E-05-2.85604E-05 1.57573E-08 1.67683E-18 3.86395E-19
 -1      1910 9.52058E-05-2.85627E-05-2.85614E-05 2.02142E-08 1.18794E-18 9.45354E-19
 -1      1911 9.52049E-05-2.85624E-05-2.85611E-05 1.49264E-08 6.38713E-19-6.38556E-19
 -1      1912 9.52088E-05-2.85636E-05-2.85622E-05 1.41101E-08-2.19766E-20-5.97325E-19
 -1      1913 9.52105E-05-2.85645E-05-2.85626E-05 1.88718E-08 8.08536E-19 5.70604E-19
 -1      1914 9.52110E-05-2.85643E-05-2.85629E-05 1.31076E-08-5.19408E-19-7.98596E-19
 -1      1915 9.52144E-05-2.85653E-05-2.85639E-05 1.22434E-08-8.30413E-19-7.90283E-19
 -1      1916 9.52151E-05-2.85661E-05-2.85639E-05 1.68880E-08-3.24734E-19 4.64895E-19
 -1      1917 9.52164E-05-2.85659E-05-2.85645E-05 1.12029E-08-1.40610E-18-8.81391E-19
 -1      1918 9.52193E-05-2.85668E-05-2.85654E-05 1.03658E-08-8.85218E-19-4.15449E-19
 -1      1919 9.52193E-05-2.85673E-05-2.85651E-05 1.46485E-08-1.55676E-18 1.46791E-18
 -1      1920 9.52211E-05-2.85672E-05-2.85660E-05 9.36859E-09-9.91857E-19-1.03781E-18
 -1      1921 9.52235E-05-2.85679E-05-2.85667E-05 8.60011E-09 1.35396E-19-1.09772E-18
 -1      1922 9.52231E-05-2.85684E-05-2.85663E-05 1.23990E-08-1.14671E-18 1.78391E-18
 -1      1923 9.52250E-05-2.85683E-05-2.85672E-05 7.68908E-09 1.52589E-18-1.81017E-18
 -1      1924 9.52271E-05-2.85689E-05-2.85678E-05 7.00624E-09 2.15765E-18-1.25059E-18
 -1      1925 9.52264E-05-2.85692E-05-2.85673E-05 1.02827E-08 3.02096E-19 7.79017E-19
 -1      1926 9.52284E-05-2.85692E-05-2.85682E-05 6.19662E-09 2.18618E-18-7.62867E-19
 -1      1927 9.52300E-05-2.85697E-05-2.85687E-05 5.59862E-09 2.47717E-18 6.67320E-19
 -1      1928 9.52291E-05-2.85699E-05-2.85682E-05 8.36821E-09 2.28403E-18 9.93607E-20
 -1      1929 9.52310E-05-2.85699E-05-2.85691E-05 4.88518E-09 1.82513E-18-1.01454E-19
 -1      1930 9.52323E-05-2.85703E-05-2.85695E-05 4.35761E-09 1.30519E-18-1.98556E-19
 -1      1931 9.52314E-05-2.85704E-05-2.85690E-05 6.67019E-09 1.56892E-18 3.13049E-21
 -1      1932 9.52332E-05-2.85705E-05-2.85697E-05 3.72216E-09 8.59948E-20-6.81662E-19
 -1      1933 9.52342E-05-2.85708E-05-2.85700E-05 3.24281E-09-2.14436E-19-9.49629E-19
 -1      1934 9.52333E-05-2.85709E-05-2.85696E-05 5.16412E-09 3.39701E-19-9.87368E-19
 -1      1935 9.52348E-05-2.85710E-05-2.85702E-05 2.65875E-09 4.94865E-19-9.62394E-19
 -1      1936 9.52355E-05-2.85712E-05-2.85704E-05 2.20091E-09 7.80741E-19-6.45914E-19
 -1      1937 9.52348E-05-2.85713E-05-2.85701E-05 3.80699E-09-8.51988E-21-7.33070E-19
 -1      1938 9.52360E-05-2.85713E-05-2.85706E-05 1.67896E-09 1.05176E-18-7.55777E-19
 -1      1939 9.52365E-05-2.85714E-05-2.85707E-05 1.24957E-09 7.96556E-19-3.18242E-19
 -1      1940 9.52366E-05-2.85717E-05-2.85707E-05 1.48962E-09 4.12511E-19-8.52825E-19
 -1      1941 9.52359E-05-2.85715E-05-2.85704E-05 2.57903E-09 4.78946E-19 1.14147E-19
 -1      1942 1.31321E-04-4.17896E-05-3.83792E-05 9.01071E-06 1.56066E-18 7.60906E-18
 -1      1943 1.33744E-04-4.21589E-05-3.92101E-05 6.82982E-06 1.66931E-18 8.10026E-18
 -1      1944 1.32114E-04-4.20642E-05-3.85943E-05 7.90383E-06 2.00215E-18 6.48132E-18
 -1      1945 1.26572E-04-3.99222E-05-3.71181E-05 1.45723E-05 1.68508E-18 6.80342E-18
 -1      1946 1.30177E-04-4.15499E-05-3.79817E-05 1.16748E-05 1.30450E-18 7.31270E-18
 -1      1947 1.30653E-04-4.25161E-05-3.77252E-05 1.32094E-05 1.62667E-18 6.31444E-18
 -1      1948 1.19148E-04-3.48833E-05-3.61461E-05 1.65396E-05 1.78234E-18 5.70469E-18
 -1      1949 1.23802E-04-3.77553E-05-3.69456E-05 1.55346E-05 1.70025E-18 6.26616E-18
 -1      1950 1.26621E-04-3.91517E-05-3.74908E-05 1.82229E-05 2.09515E-18 5.62753E-18
 -1      1951 1.11656E-04-2.89564E-05-3.56235E-05 1.02137E-05 2.44300E-18 3.37483E-18
 -1      1952 1.15660E-04-3.15771E-05-3.61503E-05 1.33114E-05 2.08592E-18 4.69705E-18
 -1      1953 1.20103E-04-3.24089E-05-3.77412E-05 1.66171E-05 2.55560E-18 3.93891E-18
 -1      1954 1.09312E-04-2.73518E-05-3.54109E-05-2.42266E-06 3.39088E-18 3.00273E-19
 -1      1955 1.10296E-04-2.75230E-05-3.55667E-05 3.45539E-06 2.89151E-18 1.68944E-18
 -1      1956 1.15021E-04-2.70964E-05-3.79682E-05 5.67720E-06 3.73150E-18 1.00451E-18
 -1      1957 1.13739E-04-3.15962E-05-3.54119E-05-1.24699E-05 2.49112E-18-2.01962E-18
 -1      1958 1.11234E-04-2.92724E-05-3.51794E-05-8.01580E-06 3.16166E-18-7.07987E-19
 -1      1959 1.15560E-04-2.82925E-05-3.75918E-05-8.29769E-06 3.86792E-18-1.71603E-18
 -1      1960 1.20482E-04-3.73077E-05-3.56697E-05-1.38668E-05 1.22426E-18-3.78780E-18
 -1      1961 1.16570E-04-3.46178E-05-3.51740E-05-1.32610E-05 1.71086E-18-2.81437E-18
 -1      1962 1.20263E-04-3.45766E-05-3.67751E-05-1.53886E-05 2.42045E-18-3.59200E-18
 -1      1963 1.24524E-04-4.02135E-05-3.60381E-05-8.51995E-06-7.82050E-20-3.74636E-18
 -1      1964 1.21618E-04-3.88302E-05-3.55508E-05-1.07155E-05 5.99852E-19-3.42577E-18
 -1      1965 1.24087E-04-4.00821E-05-3.60344E-05-1.28621E-05 8.87576E-19-4.13563E-18
 -1      1966 1.24635E-04-3.99613E-05-3.61850E-05-1.70556E-06-2.88401E-19-2.69794E-18
 -1      1967 1.23676E-04-3.99324E-05-3.59594E-05-4.50260E-06-2.82618E-19-2.92654E-18
 -1      1968 1.24337E-04-4.14642E-05-3.55671E-05-5.52918E-06-4.73862E-19-3.50997E-18
 -1      1969 1.22031E-04-3.81408E-05-3.58985E-05 3.28372E-06 9.26773E-20-2.25995E-18
 -1      1970 1.22747E-04-3.88332E-05-3.60173E-05 1.20994E-06-1.28100E-19-2.38457E-18
 -1      1971 1.21770E-04-3.97833E-05-3.51953E-05 1.40636E-06-2.77496E-19-2.82559E-18
 -1      1972 1.18202E-04-3.60487E-05-3.51985E-05 5.79896E-06 8.47188E-19-1.81847E-18
 -1      1973 1.19912E-04-3.69496E-05-3.55908E-05 4.72191E-06 4.22517E-19-1.87115E-18
 -1      1974 1.17990E-04-3.71338E-05-3.46995E-05 5.75535E-06 3.77214E-19-2.25808E-18
 -1      1975 1.14126E-04-3.42317E-05-3.42528E-05 6.44799E-06 7.97161E-19-1.96596E-18
 -1      1976 1.16223E-04-3.50909E-05-3.47877E-05 6.13709E-06 5.95517E-19-1.61975E-18
 -1      1977 1.14053E-04-3.47430E-05-3.40172E-05 7.57852E-06 6.71714E-19-1.71604E-18
 -1      1978 1.10325E-04-3.28063E-05-3.32401E-05 6.03793E-06 4.07378E-20-1.74453E-18
 -1      1979 1.12410E-04-3.35361E-05-3.38039E-05 6.16971E-06 6.42790E-19-2.00295E-18
 -1      1980 1.10426E-04-3.29468E-05-3.32162E-05 7.70088E-06 8.00149E-19-8.98771E-19
 -1      1981 1.07018E-04-3.17225E-05-3.22849E-05 5.17364E-06-4.60243E-21-1.61420E-18
 -1      1982 1.08884E-04-3.23117E-05-3.28070E-05 5.50219E-06-2.34701E-19-1.43188E-18
 -1      1983 1.07271E-04-3.16881E-05-3.23947E-05 6.93497E-06-2.74971E-19-1.15266E-18
 -1      1984 1.04262E-04-3.09029E-05-3.14509E-05 4.20641E-06 4.41961E-19-2.24874E-18
 -1      1985 1.05831E-04-3.13661E-05-3.18990E-05 4.58607E-06 2.24543E-19-1.96560E-18
 -1      1986 1.04615E-04-3.08129E-05-3.16282E-05 5.83190E-06 4.08336E-19-1.55511E-18
 -1      1987 1.02034E-04-3.02827E-05-3.07581E-05 3.30665E-06-3.29393E-19-2.17156E-18
 -1      1988 1.03301E-04-3.06405E-05-3.11246E-05 3.66526E-06 4.28523E-19-2.15187E-18
 -1      1989 1.02433E-04-3.01934E-05-3.09577E-05 4.69849E-06 3.14320E-19-1.50349E-18
 -1      1990 1.00273E-04-2.98133E-05-3.02018E-05 2.53929E-06-1.37960E-18-2.18389E-18
 -1      1991 1.01269E-04-3.00861E-05-3.04921E-05 2.84821E-06-9.57263E-19-1.94963E-18
 -1      1992 1.00674E-04-2.97448E-05-3.03971E-05 3.67768E-06-8.52827E-19-1.57541E-18
 -1      1993 9.89071E-05-2.94593E-05-2.97659E-05 1.91567E-06-1.25554E-18-1.62963E-18
 -1      1994 9.96731E-05-2.96649E-05-2.99906E-05 2.16870E-06-1.27369E-18-1.70144E-18
 -1      1995 9.92826E-05-2.94141E-05-2.99432E-05 2.81895E-06-1.55540E-18-1.29008E-18
 -1      1996 9.78631E-05-2.91941E-05-2.94309E-05 1.42356E-06-3.85199E-19-7.03459E-19
 -1      1997 9.84427E-05-2.93472E-05-2.96016E-05 1.62460E-06-1.14427E-18-1.64594E-18
 -1      1998 9.81978E-05-2.91682E-05-2.95843E-05 2.12497E-06-1.21087E-18-1.75932E-18
 -1      1999 9.70768E-05-2.89974E-05-2.91774E-05 1.04276E-06 1.86807E-18-1.97471E-19
 -1      2000 9.75088E-05-2.91100E-05-2.93052E-05 1.19932E-06 1.14678E-18 2.85082E-19
 -1      2001 9.73646E-05-2.89853E-05-2.93061E-05 1.57833E-06 7.46237E-19-8.25819E-19
 -1      2002 9.64931E-05-2.88532E-05-2.89885E-05 7.52320E-07 4.84881E-19-1.81521E-18
 -1      2003 9.68104E-05-2.89349E-05-2.90827E-05 8.72463E-07 1.54634E-18-8.94402E-19
 -1      2004 9.67338E-05-2.88502E-05-2.90939E-05 1.15538E-06 1.66247E-18-3.78772E-19
 -1      2005 9.60662E-05-2.87494E-05-2.88499E-05 5.33464E-07-1.23412E-18-2.29661E-18
 -1      2006 9.62957E-05-2.88076E-05-2.89183E-05 6.24550E-07-8.95244E-19-2.00314E-18
 -1      2007 9.62632E-05-2.87515E-05-2.89345E-05 8.32636E-07-6.24664E-19-1.27763E-18
 -1      2008 9.57594E-05-2.86759E-05-2.87497E-05 3.70439E-07-4.74647E-19-9.63985E-19
 -1      2009 9.59225E-05-2.87166E-05-2.87985E-05 4.38713E-07-1.05088E-18-1.58489E-18
 -1      2010 9.59174E-05-2.86808E-05-2.88167E-05 5.89331E-07-1.01871E-18-1.59305E-18
 -1      2011 9.55433E-05-2.86253E-05-2.86788E-05 2.50469E-07 1.17318E-18-1.92566E-18
 -1      2012 9.56567E-05-2.86529E-05-2.87129E-05 3.01040E-07 5.68139E-19-1.33280E-18
 -1      2013 9.56679E-05-2.86312E-05-2.87309E-05 4.08077E-07 6.04119E-19-1.22907E-18
 -1      2014 9.53949E-05-2.85915E-05-2.86296E-05 1.63393E-07 6.69826E-19-1.44431E-18
 -1      2015 9.54715E-05-2.86096E-05-2.86529E-05 2.00357E-07 7.56056E-19-1.50009E-18
 -1      2016 9.54914E-05-2.85975E-05-2.86696E-05 2.74755E-07 7.29376E-19-1.09575E-18
 -1      2017 9.52961E-05-2.85699E-05-2.85966E-05 1.01218E-07-5.31137E-19-1.17582E-18
 -1      2018 9.53461E-05-2.85812E-05-2.86119E-05 1.27818E-07-5.84822E-19-1.36354E-18
 -1      2019 9.53697E-05-2.85755E-05-2.86268E-05 1.78098E-07-4.59892E-19-5.75604E-19
 -1      2020 9.52332E-05-2.85570E-05-2.85752E-05 5.77099E-08 1.34255E-18-1.19766E-18
 -1      2021 9.52642E-05-2.85635E-05-2.85848E-05 7.64931E-08 5.63225E-19-1.20521E-18
 -1      2022 9.52885E-05-2.85619E-05-2.85976E-05 1.09218E-07 4.96441E-19-3.24222E-19
 -1      2023 9.51958E-05-2.85501E-05-2.85621E-05 2.80372E-08 9.32402E-19-2.00939E-18
 -1      2024 9.52134E-05-2.85534E-05-2.85677E-05 4.09894E-08 1.22858E-18-1.85395E-18
 -1      2025 9.52365E-05-2.85543E-05-2.85785E-05 6.11599E-08 1.51940E-18-1.44573E-18
 -1      2026 9.51760E-05-2.85473E-05-2.85549E-05 8.48274E-09-7.94457E-19-1.88572E-18
 -1      2027 9.51846E-05-2.85484E-05-2.85578E-05 1.71412E-08 1.66563E-19-1.65788E-18
 -1      2028 9.52054E-05-2.85507E-05-2.85666E-05 2.85245E-08 2.70306E-19-1.35309E-18
 -1      2029 9.51681E-05-2.85472E-05-2.85516E-05-3.79103E-09-9.28525E-19-3.30070E-18
 -1      2030 9.51706E-05-2.85469E-05-2.85526E-05 1.75437E-09-9.99093E-19-3.18432E-18
 -1      2031 9.51888E-05-2.85499E-05-2.85598E-05 7.15149E-09-2.74666E-19-2.13716E-18
 -1      2032 9.51678E-05-2.85486E-05-2.85509E-05-1.09297E-08-9.49697E-20-1.31039E-18
 -1      2033 9.51665E-05-2.85475E-05-2.85507E-05-7.59919E-09-5.15063E-19-2.41487E-18
 -1      2034 9.51819E-05-2.85507E-05-2.85564E-05-6.13607E-09-5.36790E-19-2.42507E-18
 -1      2035 9.51721E-05-2.85510E-05-2.85518E-05-1.45374E-08-1.28981E-18-5.63264E-19
 -1      2036 9.51686E-05-2.85494E-05-2.85509E-05-1.27460E-08-2.66304E-19-1.13456E-18
 -1      2037 9.51814E-05-2.85526E-05-2.85553E-05-1.37395E-08-2.05262E-19-5.74934E-19
 -1      2038 9.51788E-05-2.85536E-05-2.85535E-05-1.57972E-08 6.45268E-20-1.60511E-18
 -1      2039 9.51743E-05-2.85520E-05-2.85523E-05-1.50431E-08-2.45317E-19-1.17544E-18
 -1      2040 9.51846E-05-2.85549E-05-2.85557E-05-1.74522E-08 2.40965E-19-8.06884E-19
 -1      2041 9.51867E-05-2.85564E-05-2.85558E-05-1.55676E-08 7.19045E-19-8.98914E-19
 -1      2042 9.51818E-05-2.85547E-05-2.85544E-05-1.54839E-08 1.58821E-19-1.27354E-18
 -1      2043 9.51900E-05-2.85573E-05-2.85570E-05-1.85941E-08 3.89103E-19-1.04474E-18
 -1      2044 9.51947E-05-2.85590E-05-2.85581E-05-1.44589E-08 1.05386E-18-2.16206E-18
 -1      2045 9.51899E-05-2.85575E-05-2.85567E-05-1.47826E-08 1.40237E-18-1.22488E-18
 -1      2046 9.51963E-05-2.85596E-05-2.85586E-05-1.81206E-08 1.35764E-18-9.82297E-19
 -1      2047 9.52023E-05-2.85614E-05-2.85603E-05-1.28944E-08-5.79594E-19-1.59392E-18
 -1      2048 9.51978E-05-2.85600E-05-2.85591E-05-1.34412E-08-1.34690E-19-2.00342E-18
 -1      2049 9.52027E-05-2.85618E-05-2.85604E-05-1.67085E-08 1.84435E-19-1.29533E-18
 -1      2050 9.52092E-05-2.85635E-05-2.85624E-05-1.11575E-08-3.07736E-18-1.43323E-18
 -1      2051 9.52052E-05-2.85623E-05-2.85613E-05-1.18024E-08-1.73091E-18-2.11666E-18
 -1      2052 9.52089E-05-2.85637E-05-2.85622E-05-1.48245E-08-1.48683E-18-1.41518E-18
 -1      2053 9.52152E-05-2.85652E-05-2.85643E-05-9.42901E-09-2.13524E-18-4.93904E-19
 -1      2054 9.52118E-05-2.85642E-05-2.85633E-05-1.00908E-08-2.04181E-18-1.47545E-18
 -1      2055 9.52145E-05-2.85654E-05-2.85639E-05-1.27787E-08-2.69822E-18-2.12832E-18
 -1      2056 9.52204E-05-2.85667E-05-2.85658E-05-7.81487E-09-1.23127E-18-3.31193E-19
 -1      2057 9.52175E-05-2.85659E-05-2.85650E-05-8.44462E-09-1.49334E-18-6.74582E-19
 -1      2058 9.52194E-05-2.85668E-05-2.85654E-05-1.07663E-08-2.08484E-18-1.94884E-18
 -1      2059 9.52247E-05-2.85679E-05-2.85672E-05-6.36729E-09-1.36347E-18 2.64734E-19
 -1      2060 9.52223E-05-2.85672E-05-2.85665E-05-6.93960E-09-1.18183E-18-1.99771E-19
 -1      2061 9.52236E-05-2.85679E-05-2.85667E-05-8.89861E-09-1.32550E-18-8.28748E-19
 -1      2062 9.52283E-05-2.85689E-05-2.85683E-05-5.09935E-09 2.61693E-18-1.84095E-18
 -1      2063 9.52263E-05-2.85684E-05-2.85677E-05-5.60634E-09 8.85858E-20-7.98964E-19
 -1      2064 9.52271E-05-2.85689E-05-2.85678E-05-7.22672E-09 1.15346E-18-2.55639E-18
 -1      2065 9.52311E-05-2.85697E-05-2.85692E-05-3.99504E-09 3.43119E-18-2.01561E-18
 -1      2066 9.52295E-05-2.85693E-05-2.85687E-05-4.44236E-09 3.91258E-18-1.35027E-18
 -1      2067 9.52300E-05-2.85697E-05-2.85687E-05-5.75748E-09 3.59872E-18-2.15917E-18
 -1      2068 9.52333E-05-2.85704E-05-2.85698E-05-3.01614E-09 7.46909E-20-1.26265E-18
 -1      2069 9.52321E-05-2.85700E-05-2.85695E-05-3.42052E-09 1.62277E-18-1.11488E-18
 -1      2070 9.52324E-05-2.85703E-05-2.85695E-05-4.46522E-09 1.38916E-18-7.29860E-19
 -1      2071 9.52350E-05-2.85708E-05-2.85704E-05-2.11442E-09 6.81393E-19-1.39126E-18
 -1      2072 9.52341E-05-2.85706E-05-2.85701E-05-2.49812E-09 1.18426E-19-1.36067E-18
 -1      2073 9.52342E-05-2.85708E-05-2.85700E-05-3.30328E-09 1.85294E-19-1.35548E-18
 -1      2074 9.52362E-05-2.85712E-05-2.85707E-05-1.24927E-09 7.90105E-19-1.27341E-19
 -1      2075 9.52356E-05-2.85710E-05-2.85705E-05-1.63034E-09 1.00334E-18-1.00148E-18
 -1      2076 9.52355E-05-2.85712E-05-2.85704E-05-2.22341E-09 5.25121E-19-7.86557E-19
 -1      2077 9.52368E-05-2.85714E-05-2.85709E-05-6.32338E-10-2.20599E-18 1.88431E-19
 -1      2078 9.52364E-05-2.85713E-05-2.85708E-05-9.87927E-10-2.44525E-19 5.11872E-19
 -1      2079 9.52364E-05-2.85714E-05-2.85707E-05-1.40375E-09-6.38623E-19 1.20138E-18
 -1      2080 9.52369E-05-2.85716E-05-2.85708E-05-8.29786E-10-2.84650E-18 1.53216E-18
 -1      2081 9.52382E-05-2.85747E-05-2.85701E-05-2.53405E-09-3.41793E-18-1.17392E-18
 -1      2082 9.52378E-05-2.85740E-05-2.85702E-05-2.45155E-09-2.17575E-18-2.86701E-18
 -1      2083 9.52375E-05-2.85734E-05-2.85704E-05-2.25441E-09-2.97132E-18-3.21800E-18
 -1      2084 9.52373E-05-2.85728E-05-2.85705E-05-1.98542E-09-2.31614E-18-1.06795E-18
 -1      2085 9.52376E-05-2.85737E-05-2.85702E-05-3.03291E-09-2.91292E-18-2.20373E-18
 -1      2086 9.52371E-05-2.85724E-05-2.85706E-05-1.62247E-09-2.71376E-18 2.48540E-19
 -1      2087 9.52369E-05-2.85719E-05-2.85707E-05-1.25089E-09-2.98451E-18 1.24155E-18
 -1      2088 9.52367E-05-2.85719E-05-2.85707E-05-1.55404E-09-2.46778E-18 1.27627E-18
 -1      2089 9.52371E-05-2.85727E-05-2.85705E-05-2.39143E-09-3.10274E-18-3.61712E-19
 -1      2090 9.52387E-05-2.85759E-05-2.85698E-05-2.41779E-09-4.77518E-18-8.64736E-19
 -1      2091 9.52384E-05-2.85753E-05-2.85699E-05-2.51021E-09-3.76087E-18-6.48642E-19
 -1      2092 9.52383E-05-2.85750E-05-2.85700E-05-3.21356E-09-2.45935E-18-1.48623E-18
 -1      2093 9.52392E-05-2.85770E-05-2.85695E-05-1.93966E-09-2.72885E-18 2.16655E-18
 -1      2094 9.52390E-05-2.85764E-05-2.85697E-05-2.18505E-09-4.00635E-18 3.34543E-18
 -1      2095 9.52390E-05-2.85762E-05-2.85698E-05-2.91875E-09-2.61959E-18 1.26971E-18
 -1      2096 9.52396E-05-2.85777E-05-2.85693E-05-1.18386E-09-1.30528E-18 1.04270E-19
 -1      2097 9.52394E-05-2.85774E-05-2.85694E-05-1.53874E-09-1.95611E-18 1.81034E-18
 -1      2098 9.52395E-05-2.85771E-05-2.85696E-05-2.20081E-09-1.18294E-18 2.34647E-18
 -1      2099 9.52397E-05-2.85781E-05-2.85693E-05-2.64110E-10 3.84835E-19 3.49063E-18
 -1      2100 9.52397E-05-2.85779E-05-2.85693E-05-6.75927E-10-5.22185E-19 5.94054E-19
 -1      2101 9.52398E-05-2.85777E-05-2.85695E-05-1.17547E-09-9.45990E-20 1.53378E-18
 -1      2102 9.52397E-05-2.85779E-05-2.85693E-05 6.91411E-10-3.68691E-19 1.00177E-18
 -1      2103 9.52397E-05-2.85781E-05-2.85693E-05 2.80124E-10-1.01619E-19 3.78230E-18
 -1      2104 9.52399E-05-2.85779E-05-2.85694E-05 1.02790E-11-2.21289E-20 3.76216E-18
 -1      2105 9.52394E-05-2.85774E-05-2.85694E-05 1.55133E-09-3.43489E-19-1.87974E-18
 -1      2106 9.52396E-05-2.85777E-05-2.85693E-05 1.19817E-09-4.81121E-19-5.06499E-19
 -1      2107 9.52398E-05-2.85777E-05-2.85695E-05 1.19457E-09-1.08685E-18-3.76122E-19
 -1      2108 9.52390E-05-2.85764E-05-2.85697E-05 2.18445E-09 9.31813E-19-1.87823E-18
 -1      2109 9.52392E-05-2.85770E-05-2.85695E-05 1.94441E-09 4.65429E-19-1.45158E-18
 -1      2110 9.52395E-05-2.85771E-05-2.85696E-05 2.20919E-09 1.06551E-18-1.12141E-18
 -1      2111 9.52384E-05-2.85753E-05-2.85699E-05 2.50953E-09 1.67570E-18 1.52824E-18
 -1      2112 9.52387E-05-2.85759E-05-2.85698E-05 2.41734E-09 1.38832E-18 2.07795E-19
 -1      2113 9.52390E-05-2.85761E-05-2.85698E-05 2.91898E-09 2.03591E-18-8.72787E-19
 -1      2114 9.52378E-05-2.85740E-05-2.85702E-05 2.44700E-09 8.83577E-19 1.19428E-19
 -1      2115 9.52381E-05-2.85746E-05-2.85701E-05 2.53089E-09 1.65748E-18-1.29025E-20
 -1      2116 9.52383E-05-2.85750E-05-2.85700E-05 3.21134E-09 2.56698E-18 8.03951E-19
 -1      2117 9.52373E-05-2.85727E-05-2.85705E-05 1.98296E-09 2.84100E-19 7.64814E-20
 -1      2118 9.52375E-05-2.85734E-05-2.85704E-05 2.24578E-09 4.26238E-19 4.97403E-19
 -1      2119 9.52376E-05-2.85737E-05-2.85702E-05 3.02133E-09 5.92179E-19-1.85952E-19
 -1      2120 5.97849E-05-3.82076E-05-9.78542E-06 3.98837E-05 5.07669E-18 6.71724E-18
 -1      2121 4.47423E-05-3.80201E-05-4.01718E-06 3.33044E-05 2.83375E-18 6.99321E-18
 -1      2122 1.14258E-05-3.03712E-05 6.64944E-06 2.67674E-06 2.00037E-18 7.84945E-18
 -1      2123 1.19118E-05-3.14162E-05 6.75270E-06-6.83809E-06 1.39655E-19 9.13610E-18
 -1      2124 2.57736E-05-3.05545E-05 1.08717E-06 2.53430E-05 3.27124E-18 7.31731E-18
 -1      2125 1.75276E-05-3.17426E-05 4.61054E-06 1.43791E-05 1.58226E-18 6.98379E-18
 -1      2126 9.58004E-05-4.33091E-05-2.26290E-05 4.31683E-05 6.28414E-18 5.78058E-18
 -1      2127 7.56006E-05-4.36638E-05-1.49218E-05 3.83741E-05 5.45532E-18 6.04083E-18
 -1      2128 8.07658E-05-4.68658E-05-1.47299E-05 4.20044E-05 4.75185E-19 4.35327E-18
 -1      2129 1.36566E-04-4.31036E-05-3.95885E-05 3.75984E-05 7.58179E-18 4.82555E-18
 -1      2130 1.13966E-04-4.36258E-05-3.08540E-05 3.63824E-05 7.37977E-18 5.62557E-18
 -1      2131 9.92240E-05-1.58900E-05-3.58109E-05-9.69228E-06-1.54046E-18-4.69815E-18
 -1      2132 1.00621E-04-1.58694E-05-3.64951E-05-1.26005E-05-2.28753E-18-4.20060E-18
 -1      2133 1.04544E-04-2.05538E-05-3.60353E-05-1.42749E-05-2.70724E-18-3.25848E-18
 -1      2134 1.01746E-04-2.03709E-05-3.49200E-05-8.79546E-06-1.35147E-18-4.30547E-18
 -1      2135 1.85336E-04-3.14167E-05-6.46358E-05 1.00414E-05 9.91494E-18-2.28021E-18
 -1      2136 1.73909E-04-3.21496E-05-6.00540E-05 1.54759E-05 9.76375E-18 1.59666E-19
 -1      2137 1.85393E-04-2.53026E-05-6.74925E-05 2.31110E-06 1.06908E-17-4.64444E-18
 -1      2138 1.87472E-04-2.76117E-05-6.70643E-05 8.49012E-06 1.04177E-17-2.27492E-18
 -1      2139 1.65770E-04-2.09829E-05-6.07504E-05-5.78645E-07 1.06853E-17-3.51053E-18
 -1      2140 1.79566E-04-3.05332E-05-6.30577E-05-2.86445E-06 1.07715E-17-6.62973E-18
 -1      2141 1.84503E-04-2.74666E-05-6.60709E-05 2.44980E-06 1.08429E-17-4.41474E-18
 -1      2142 1.63784E-04-3.80395E-05-5.36551E-05-9.06141E-06 1.03389E-17-7.50598E-18
 -1      2143 1.79027E-04-3.68345E-05-5.97516E-05-6.72866E-06 1.04905E-17-7.11042E-18
 -1      2144 1.64748E-04-2.83025E-05-5.75937E-05 8.57150E-06 1.00528E-17-2.13473E-18
 -1      2145 1.34878E-04-4.46859E-05-3.90811E-05-2.45980E-05 9.99605E-18-1.01576E-17
 -1      2146 1.54888E-04-4.54170E-05-4.65931E-05-2.01785E-05 9.61541E-18-8.50845E-18
 -1      2147 9.57063E-05-4.21354E-05-2.41095E-05-3.23662E-05 9.34489E-18-1.13121E-17
 -1      2148 1.19073E-04-4.43955E-05-3.20845E-05-3.40185E-05 9.66041E-18-1.07878E-17
 -1      2149 5.38947E-05-3.35390E-05-1.03601E-05-3.02120E-05 8.56943E-18-1.21640E-17
 -1      2150 7.30657E-05-3.46306E-05-1.71685E-05-3.69579E-05 1.01940E-17-1.28891E-17
 -1      2151 2.53849E-05-2.52394E-05-1.48014E-06-1.99292E-05 4.96044E-18-1.16776E-17
 -1      2152 3.74402E-05-2.61387E-05-5.71468E-06-2.80846E-05 7.74188E-18-1.26199E-17
 -1      2153 8.96873E-06-1.71636E-05 2.47761E-06-3.75940E-06 1.63308E-18-1.14942E-17
 -1      2154 1.43948E-05-1.99290E-05 1.24886E-06-1.21743E-05 5.13260E-18-1.20298E-17
 -1      2155 1.09815E-05-1.64020E-05 1.35601E-06 1.71499E-05-1.99603E-18-1.12302E-17
 -1      2156 7.68509E-06-1.54355E-05 2.41306E-06 8.59284E-06 1.59375E-18-1.13494E-17
 -1      2157 3.08383E-05-1.78495E-05-6.10320E-06 3.45686E-05-3.00527E-18-1.09765E-17
 -1      2158 1.94844E-05-1.96384E-05-1.17022E-06 2.45777E-05-1.90731E-18-1.08875E-17
 -1      2159 1.89926E-05-9.95877E-06-4.05164E-06 2.55674E-05 9.74935E-19-1.22072E-17
 -1      2160 6.65772E-05-2.58310E-05-1.75971E-05 4.32324E-05-8.13109E-18-1.14633E-17
 -1      2161 5.20209E-05-2.54711E-05-1.17566E-05 3.96157E-05-4.74677E-18-1.01036E-17
 -1      2162 9.95014E-05-3.00582E-05-2.96521E-05 4.36194E-05-9.97466E-18-1.16509E-17
 -1      2163 8.03790E-05-2.98112E-05-2.25581E-05 4.02787E-05-8.79728E-18-1.12412E-17
 -1      2164 8.57710E-05-3.59332E-05-2.15687E-05 4.08521E-05-2.39244E-18-8.34465E-18
 -1      2165 1.36287E-04-3.26496E-05-4.39205E-05 3.60792E-05-1.10970E-17-1.07205E-17
 -1      2166 1.16011E-04-3.11942E-05-3.68129E-05 3.65269E-05-1.08958E-17-1.11825E-17
 -1      2167 1.58805E-04-3.07049E-05-5.44964E-05 1.62726E-05-1.03029E-17-7.17691E-18
 -1      2168 1.46802E-04-3.10410E-05-4.92360E-05 2.66746E-05-1.12154E-17-9.86158E-18
 -1      2169 1.73362E-04-2.33464E-05-6.30275E-05 4.12158E-06-1.04541E-17-5.50571E-18
 -1      2170 1.62135E-04-2.35714E-05-5.90970E-05 8.04406E-06-1.08924E-17-6.08847E-18
 -1      2171 1.81330E-04-2.38839E-05-6.60347E-05-6.12371E-06-9.49143E-18-3.61805E-18
 -1      2172 1.76445E-04-2.21953E-05-6.53701E-05 1.37401E-06-9.94586E-18-5.58099E-18
 -1      2173 1.72382E-04-2.49940E-05-6.22863E-05-1.61796E-05-8.65816E-18-7.95364E-19
 -1      2174 1.81666E-04-2.61566E-05-6.51942E-05-1.01285E-05-8.83286E-18-2.87864E-18
 -1      2175 1.55648E-04-3.08964E-05-5.30082E-05-2.57092E-05-8.07953E-18 1.41751E-18
 -1      2176 1.67812E-04-2.99642E-05-5.79770E-05-2.01778E-05-7.99006E-18-4.72221E-19
 -1      2177 1.32679E-04-3.46207E-05-4.20268E-05-3.48666E-05-7.96634E-18 3.47284E-18
 -1      2178 1.50300E-04-3.43675E-05-4.86794E-05-3.34987E-05-7.74008E-18 2.53856E-18
 -1      2179 1.51245E-04-3.56534E-05-4.86495E-05-1.40952E-05-6.33364E-18-2.37635E-18
 -1      2180 1.00558E-04-3.88026E-05-2.71492E-05-4.04786E-05-6.52173E-18 4.85943E-18
 -1      2181 1.19335E-04-3.73170E-05-3.46188E-05-4.28632E-05-7.32683E-18 4.21314E-18
 -1      2182 6.72680E-05-3.88406E-05-1.33139E-05-4.02576E-05-4.05348E-18 7.25399E-18
 -1      2183 8.41193E-05-3.66517E-05-2.03862E-05-4.55375E-05-5.65479E-18 6.50013E-18
 -1      2184 3.89158E-05-3.56525E-05-2.57652E-06-3.39609E-05-8.26281E-19 8.79718E-18
 -1      2185 5.14217E-05-3.45963E-05-7.84997E-06-4.03420E-05-3.40423E-18 9.41030E-18
 -1      2186 1.61839E-05-3.33532E-05 5.59126E-06-1.55910E-05 7.46871E-19 9.67312E-18
 -1      2187 2.22324E-05-3.01635E-05 2.27371E-06-2.54052E-05-1.48697E-18 9.66930E-18
 -1      2188 1.55603E-05-2.31264E-05 2.40932E-06-1.36403E-05 7.22307E-19 1.00797E-17
 -1      2189 1.69881E-04-3.94805E-05-5.47636E-05 2.28760E-05 8.31135E-18 1.42344E-18
 -1      2190 1.50535E-04-4.07342E-05-4.70636E-05 2.49951E-05 8.01706E-18 2.88754E-18
 -1      2191 1.16590E-04-5.38254E-05-2.69049E-05 3.52067E-05 2.99172E-18 2.53390E-18
 -1      2192 1.10318E-04-2.88626E-05-3.50207E-05-1.40283E-05-4.01922E-18 2.42993E-18
 -1      2193 1.63472E-04-3.56389E-05-5.38007E-05 2.09606E-06 8.19229E-18-3.17468E-18
 -1      2194 1.09631E-04-2.81882E-05-3.49617E-05-1.57304E-05-4.13154E-18 6.06409E-19
 -1      2195 4.36648E-05-3.26938E-05-5.01671E-06 3.47339E-05-4.48080E-19 6.82073E-18
 -1      2196 1.71805E-05-2.26087E-05 1.67490E-06 1.14228E-05 4.57398E-20 8.02310E-18
 -1      2197 9.52370E-05-2.85724E-05-2.85706E-05 1.88163E-09 3.59049E-19 3.48435E-19
 -1      2198 1.49379E-04-4.97687E-05-4.21200E-05 1.88301E-05 5.40386E-18-6.14946E-19
 -1      2199 3.63881E-05-3.06951E-05-2.98906E-06-3.49538E-05 1.10495E-18 9.28327E-18
 -1      2200 7.12917E-05-4.18937E-05-1.28833E-05-4.45048E-05 6.76779E-19 6.35701E-18
 -1      2201 1.34805E-04-4.57101E-05-3.77052E-05-2.80328E-05-4.34528E-18-3.35425E-19
 -1      2202 1.58827E-04-2.37755E-05-5.68729E-05-6.04555E-06-8.42713E-18-3.01988E-18
 -1      2203 1.61253E-04-1.44571E-05-6.16444E-05-3.47854E-06-9.82558E-18-3.68502E-18
 -1      2204 1.56418E-04-1.38487E-05-6.03032E-05-3.39545E-06-1.04308E-17-3.71000E-18
 -1      2205 1.55626E-04-2.67086E-05-5.48596E-05 4.66522E-06-9.79138E-18-4.60701E-18
 -1      2206 1.45186E-04-2.84542E-05-4.99001E-05-5.75120E-07-8.41104E-18-1.66950E-18
 -1      2207 1.44908E-04-2.00556E-05-5.38874E-05-6.93133E-06-9.18988E-18-1.75548E-18
 -1      2208 1.17336E-04-4.03057E-05-3.28002E-05 3.20511E-05-5.59592E-18-6.85250E-18
 -1      2209 4.67911E-05-2.20790E-05-1.07787E-05 3.86706E-05-1.42556E-18-1.02387E-17
 -1      2210 4.35734E-05-1.65249E-05-1.09839E-05 3.88306E-05 1.80249E-18-9.83405E-18
 -1      2211 6.36396E-05-2.71072E-05-1.59740E-05 4.16000E-05 1.89735E-18-8.26339E-18
 -1      2212 1.07240E-05-8.44538E-06-1.35911E-06 2.34899E-06 1.42204E-18-1.29393E-17
 -1      2213 2.53172E-05-1.67693E-05-4.14442E-06-2.08698E-05 1.90794E-18-1.25424E-17
 -1      2214 5.60721E-05-3.18113E-05-1.09403E-05-3.31432E-05 2.98706E-18-1.10890E-17
 -1      2215 9.79004E-05-4.66877E-05-2.20837E-05-3.31467E-05 4.36391E-18-8.24332E-18
 -1      2216 1.58864E-04-4.48610E-05-4.83187E-05-1.63602E-06 7.82301E-18-3.33180E-18
 -1      2217 1.66354E-04-1.85180E-05-6.23182E-05 5.60455E-06 1.11088E-17-2.66275E-18
 -1      2218 1.35472E-04-5.32377E-05-3.49204E-05-1.90279E-05 5.49661E-18-5.11947E-18
 -1      2219 1.42122E-04-3.66826E-05-4.45416E-05 1.69985E-05-8.04078E-18-5.00851E-18
 -1      2220 1.05232E-04-4.81884E-05-2.43715E-05-4.05347E-05-1.78724E-18 2.51632E-18
 -1      2221 1.29749E-04-4.33449E-05-3.71144E-05 8.20619E-06 1.50408E-18 4.81038E-18
 -1      2222 1.29909E-04-4.16799E-05-3.76704E-05 6.62127E-06 1.74828E-18 4.81136E-18
 -1      2223 9.06944E-05-2.10945E-05-2.98517E-05 8.77324E-06 2.15768E-18-4.73216E-18
 -1      2224 9.60617E-05-2.31082E-05-3.12768E-05 4.67127E-06 1.37589E-18-4.56509E-18
 -1      2225 9.98240E-05-2.39665E-05-3.25051E-05-3.27557E-07 6.60004E-19-4.27844E-18
 -1      2226 1.02602E-04-2.45913E-05-3.35339E-05-4.11769E-06-2.37861E-19-4.20838E-18
 -1      2227 1.01692E-04-2.77220E-05-3.17403E-05 2.06737E-06 1.00134E-18-3.69137E-18
 -1      2228 5.61922E-05-3.12426E-06-2.28575E-05 1.96087E-05 3.74654E-18-7.08397E-18
 -1      2229 6.55037E-05-7.87075E-06-2.44075E-05 1.94799E-05 3.66879E-18-6.57342E-18
 -1      2230 4.18660E-05 6.04296E-06-2.05237E-05 1.35497E-05 2.99560E-18-8.26244E-18
 -1      2231 4.73452E-05 3.01773E-06-2.12799E-05 1.68069E-05 3.49329E-18-7.95486E-18
 -1      2232 5.16098E-05-2.31131E-06-2.08926E-05 2.17091E-05 3.78184E-18-7.85422E-18
 -1      2233 4.17031E-05 6.98543E-06-2.06784E-05 2.29079E-06 1.63999E-18-8.32019E-18
 -1      2234 3.96501E-05 7.80992E-06-2.02093E-05 6.68689E-06 2.26766E-18-8.54410E-18
 -1      2235 3.84452E-05 6.08916E-06-1.86869E-05 1.13373E-05 2.69922E-18-9.11047E-18
 -1      2236 5.72709E-05-1.50662E-06-2.35927E-05-6.16152E-06 6.62558E-19-6.53822E-18
 -1      2237 4.82725E-05 2.82340E-06-2.19296E-05-3.81569E-06 9.37493E-19-7.47957E-18
 -1      2238 4.31794E-05 3.54352E-06-1.96432E-05-2.84300E-06 1.05618E-18-8.53386E-18
 -1      2239 8.06466E-05-1.42125E-05-2.82566E-05-6.18180E-06 7.33014E-19-3.94385E-18
 -1      2240 6.91346E-05-8.86909E-06-2.59381E-05-7.31102E-06 4.58728E-19-5.01470E-18
 -1      2241 6.40855E-05-8.72388E-06-2.35521E-05-1.04486E-05 1.30284E-19-5.91287E-18
 -1      2242 1.02760E-04-2.52505E-05-3.32910E-05-6.63403E-08 1.68550E-18-1.17698E-18
 -1      2243 9.23385E-05-2.04909E-05-3.08402E-05-3.10877E-06 1.05002E-18-2.44464E-18
 -1      2244 8.93017E-05-2.24721E-05-2.86980E-05-7.62787E-06 3.75130E-19-2.76413E-18
 -1      2245 1.31571E-04-4.50993E-05-3.71295E-05 1.44367E-05 1.80644E-18 5.11065E-18
 -1      2246 1.32686E-04-4.56123E-05-3.72370E-05 1.12135E-05 1.37201E-18 5.34601E-18
 -1      2247 1.29853E-04-4.56115E-05-3.62217E-05 8.69297E-06 1.41561E-18 4.00734E-18
 -1      2248 1.09121E-04-3.08914E-05-3.35187E-05-1.36976E-05-3.17663E-18 6.07481E-20
 -1      2249 1.07480E-04-3.09328E-05-3.28201E-05-1.25538E-05-2.89339E-18 2.84529E-20
 -1      2250 1.54171E-04-3.24131E-05-5.27827E-05-6.52222E-06 7.78783E-18-5.21645E-18
 -1      2251 1.53484E-04-4.10752E-05-4.83793E-05-4.27344E-06 5.70646E-18-4.84863E-18
 -1      2252 1.06538E-04-3.07344E-05-3.24630E-05-1.20307E-05-2.74007E-18 2.29266E-19
 -1      2253 1.04748E-04-2.98568E-05-3.20606E-05-1.11512E-05-2.62857E-18-6.34861E-20
 -1      2254 1.08559E-04-3.07368E-05-3.33285E-05-1.39109E-05-2.96327E-18-3.82053E-19
 -1      2255 1.03267E-04-2.87939E-05-3.19135E-05-1.00809E-05-2.50840E-18-1.27915E-19
 -1      2256 1.01670E-04-2.75976E-05-3.16838E-05-8.68349E-06-2.30263E-18-5.21794E-19
 -1      2257 1.06049E-04-2.92112E-05-3.29214E-05-1.22319E-05-2.73228E-18-4.91347E-19
 -1      2258 1.00237E-04-2.64337E-05-3.16264E-05-6.67208E-06-2.33011E-18-1.05075E-18
 -1      2259 9.91915E-05-2.55776E-05-3.14936E-05-4.60037E-06-2.37190E-18-1.51746E-18
 -1      2260 1.03068E-04-2.65581E-05-3.28103E-05-9.01375E-06-2.75768E-18-1.09704E-18
 -1      2261 9.84331E-05-2.50538E-05-3.14185E-05-1.86252E-06-2.22632E-18-2.03091E-18
 -1      2262 9.81984E-05-2.50395E-05-3.13317E-05 4.70736E-07-2.14859E-18-2.40501E-18
 -1      2263 1.00818E-04-2.45521E-05-3.27337E-05-3.93600E-06-2.79352E-18-2.00876E-18
 -1      2264 9.84139E-05-2.55215E-05-3.11817E-05 3.12037E-06-2.16319E-18-2.84121E-18
 -1      2265 9.89631E-05-2.63886E-05-3.11193E-05 5.01395E-06-1.73992E-18-3.19451E-18
 -1      2266 1.00295E-04-2.45676E-05-3.24999E-05 1.87244E-06-2.46783E-18-2.80320E-18
 -1      2267 9.98672E-05-2.76135E-05-3.09041E-05 6.69758E-06-1.55353E-18-3.62304E-18
 -1      2268 1.00868E-04-2.89301E-05-3.08672E-05 7.62541E-06-1.29798E-18-3.96915E-18
 -1      2269 1.01522E-04-2.67450E-05-3.20618E-05 6.50036E-06-1.97909E-18-4.03061E-18
 -1      2270 1.01830E-04-3.02522E-05-3.06381E-05 7.97536E-06-1.24857E-18-4.07411E-18
 -1      2271 1.02849E-04-3.14552E-05-3.06317E-05 7.86972E-06-9.95018E-19-3.88245E-18
 -1      2272 1.03517E-04-2.99634E-05-3.15044E-05 8.57615E-06-1.43815E-18-4.37313E-18
 -1      2273 1.03376E-04-3.23440E-05-3.04387E-05 7.13054E-06-6.82571E-19-3.79837E-18
 -1      2274 1.04102E-04-3.30825E-05-3.04565E-05 6.29852E-06-1.92847E-19-3.73087E-18
 -1      2275 1.05092E-04-3.27698E-05-3.09647E-05 8.03999E-06-8.85807E-19-4.02358E-18
 -1      2276 1.04063E-04-3.33717E-05-3.03197E-05 5.01233E-06 4.57563E-20-3.60263E-18
 -1      2277 1.04389E-04-3.35954E-05-3.03438E-05 3.87909E-06 1.44227E-19-3.52444E-18
 -1      2278 1.05604E-04-3.42941E-05-3.05385E-05 5.81627E-06-6.66335E-20-3.90607E-18
 -1      2279 1.03921E-04-3.34075E-05-3.02552E-05 2.53955E-06-2.72520E-19-3.25367E-18
 -1      2280 1.03889E-04-3.32536E-05-3.02660E-05 1.44674E-06-1.07876E-19-3.11518E-18
 -1      2281 1.05080E-04-3.44797E-05-3.02479E-05 3.03274E-06 2.45152E-20-3.18422E-18
 -1      2282 1.03209E-04-3.28098E-05-3.02056E-05 3.46576E-07-1.40758E-19-3.37932E-18
 -1      2283 1.02928E-04-3.24596E-05-3.01902E-05-5.16740E-07-2.36546E-19-3.33551E-18
 -1      2284 1.03901E-04-3.37562E-05-3.00633E-05 4.99535E-07-2.52990E-19-2.90776E-18
 -1      2285 1.02209E-04-3.19487E-05-3.01387E-05-1.27523E-06-4.72167E-19-3.39149E-18
 -1      2286 1.01787E-04-3.15441E-05-3.00935E-05-1.85166E-06-5.98498E-19-3.45774E-18
 -1      2287 1.02471E-04-3.26314E-05-2.99382E-05-1.40053E-06-5.14788E-19-3.38336E-18
 -1      2288 1.01127E-04-3.10785E-05-3.00390E-05-2.28395E-06-5.15734E-19-3.22911E-18
 -1      2289 1.00649E-04-3.07022E-05-2.99683E-05-2.59645E-06-4.83806E-19-2.87955E-18
 -1      2290 1.01069E-04-3.14770E-05-2.98334E-05-2.60022E-06-4.46538E-19-3.11795E-18
 -1      2291 1.00087E-04-3.03286E-05-2.99063E-05-2.76947E-06-9.77488E-19-2.75510E-18
 -1      2292 9.96081E-05-3.00163E-05-2.98183E-05-2.87633E-06-8.26959E-19-2.36842E-18
 -1      2293 9.98308E-05-3.04882E-05-2.97262E-05-3.19600E-06-6.20659E-19-2.61076E-18
 -1      2294 9.91494E-05-2.97410E-05-2.97497E-05-2.86792E-06-7.44569E-19-2.65241E-18
 -1      2295 9.87024E-05-2.94995E-05-2.96537E-05-2.83380E-06-4.18487E-19-2.98393E-18
 -1      2296 9.87997E-05-2.97297E-05-2.96083E-05-3.34106E-06-8.86076E-19-2.23022E-18
 -1      2297 9.83364E-05-2.93093E-05-2.95818E-05-2.71308E-06-6.28052E-19-3.29562E-18
 -1      2298 9.79390E-05-2.91317E-05-2.94856E-05-2.59444E-06-5.88406E-19-3.38228E-18
 -1      2299 9.79685E-05-2.91929E-05-2.94810E-05-3.18727E-06-8.71489E-19-3.11377E-18
 -1      2300 9.76506E-05-2.90075E-05-2.94145E-05-2.41492E-06 3.63066E-20-3.23582E-18
 -1      2301 9.73098E-05-2.88819E-05-2.93241E-05-2.25483E-06 7.11171E-19-2.79899E-18
 -1      2302 9.73108E-05-2.88385E-05-2.93501E-05-2.86027E-06-2.14628E-19-2.92285E-18
 -1      2303 9.70843E-05-2.88053E-05-2.92571E-05-2.05416E-06 8.00009E-19-2.93308E-18
 -1      2304 9.68003E-05-2.87193E-05-2.91762E-05-1.88234E-06 1.03921E-18-3.03605E-18
 -1      2305 9.67959E-05-2.86205E-05-2.92221E-05-2.45324E-06 6.19581E-19-2.41996E-18
 -1      2306 9.66251E-05-2.86753E-05-2.91156E-05-1.68476E-06 8.66315E-19-3.08440E-18
 -1      2307 9.63945E-05-2.86185E-05-2.90459E-05-1.51979E-06 9.19878E-19-2.85731E-18
 -1      2308 9.63958E-05-2.84978E-05-2.91026E-05-2.02944E-06 8.88564E-19-2.87948E-18
 -1      2309 9.62593E-05-2.85958E-05-2.89932E-05-1.33931E-06 9.84266E-19-2.67510E-18
 -1      2310 9.60764E-05-2.85596E-05-2.89351E-05-1.19148E-06 7.06671E-19-2.26849E-18
 -1      2311 9.60870E-05-2.84380E-05-2.89953E-05-1.62803E-06 1.16847E-18-2.43152E-18
 -1      2312 9.59728E-05-2.85502E-05-2.88905E-05-1.03490E-06 4.34568E-19-1.87317E-18
 -1      2313 9.58309E-05-2.85284E-05-2.88435E-05-9.08701E-07 4.47849E-19-2.08828E-18
 -1      2314 9.58505E-05-2.84175E-05-2.89023E-05-1.27036E-06 5.61625E-19-1.87485E-18
 -1      2315 9.57525E-05-2.85268E-05-2.88068E-05-7.78072E-07 2.61383E-19-2.59534E-18
 -1      2316 9.56448E-05-2.85147E-05-2.87697E-05-6.74322E-07 1.70635E-19-2.72766E-18
 -1      2317 9.56710E-05-2.84199E-05-2.88240E-05-9.65467E-07-3.29772E-20-2.32795E-18
 -1      2318 9.55861E-05-2.85173E-05-2.87403E-05-5.68774E-07 1.78232E-19-2.80399E-18
 -1      2319 9.55063E-05-2.85116E-05-2.87117E-05-4.86120E-07 3.02546E-19-2.75739E-18
 -1      2320 9.55364E-05-2.84343E-05-2.87598E-05-7.14512E-07-3.10119E-20-2.54526E-18
 -1      2321 9.54630E-05-2.85162E-05-2.86887E-05-4.03189E-07 3.68732E-19-3.14921E-18
 -1      2322 9.54053E-05-2.85145E-05-2.86673E-05-3.39161E-07 2.61596E-19-2.37167E-18
 -1      2323 9.54368E-05-2.84539E-05-2.87084E-05-5.13972E-07 7.97312E-20-3.06510E-18
 -1      2324 9.53740E-05-2.85199E-05-2.86496E-05-2.75669E-07 2.28874E-19-2.54549E-18
 -1      2325 9.53335E-05-2.85206E-05-2.86340E-05-2.27372E-07 4.51993E-19-2.35045E-18
 -1      2326 9.53643E-05-2.84746E-05-2.86682E-05-3.57923E-07 7.68407E-20-2.87550E-18
 -1      2327 9.53114E-05-2.85258E-05-2.86207E-05-1.79987E-07 1.83321E-19-1.79849E-18
 -1      2328 9.52839E-05-2.85278E-05-2.86096E-05-1.44523E-07-1.99764E-19-1.99260E-18
 -1      2329 9.53126E-05-2.84941E-05-2.86374E-05-2.39523E-07 2.55260E-19-2.30996E-18
 -1      2330 9.52687E-05-2.85325E-05-2.86000E-05-1.10087E-07-1.47965E-19-1.94226E-18
 -1      2331 9.52510E-05-2.85352E-05-2.85924E-05-8.47908E-08-6.20262E-20-1.82500E-18
 -1      2332 9.52767E-05-2.85114E-05-2.86144E-05-1.51948E-07-1.25022E-19-1.05423E-18
 -1      2333 9.52408E-05-2.85392E-05-2.85855E-05-6.04938E-08 2.89638E-19-1.03115E-18
 -1      2334 9.52301E-05-2.85421E-05-2.85805E-05-4.30429E-08 8.12661E-19-2.54660E-19
 -1      2335 9.52525E-05-2.85259E-05-2.85977E-05-8.89069E-08 7.35730E-19-8.01599E-20
 -1      2336 9.52237E-05-2.85454E-05-2.85758E-05-2.64907E-08 9.50784E-19-1.36641E-19
 -1      2337 9.52180E-05-2.85481E-05-2.85727E-05-1.49436E-08 1.19518E-18 9.40075E-19
 -1      2338 9.52370E-05-2.85377E-05-2.85858E-05-4.49069E-08 1.21996E-18 1.88532E-19
 -1      2339 9.52142E-05-2.85509E-05-2.85696E-05-4.16469E-09 7.32495E-19 5.96625E-19
 -1      2340 9.52119E-05-2.85533E-05-2.85679E-05 3.05220E-09 4.25439E-19 1.10904E-18
 -1      2341 9.52276E-05-2.85471E-05-2.85777E-05-1.53306E-08 8.79863E-19 1.39597E-19
 -1      2342 9.52100E-05-2.85554E-05-2.85660E-05 9.63606E-09-2.72933E-19 5.35200E-19
 -1      2343 9.52098E-05-2.85576E-05-2.85652E-05 1.37640E-08-9.53559E-19 3.85980E-19
 -1      2344 9.52225E-05-2.85543E-05-2.85723E-05 3.58348E-09-1.34930E-19 1.48951E-19
 -1      2345 9.52091E-05-2.85592E-05-2.85641E-05 1.73851E-08-9.65569E-19 1.08174E-18
 -1      2346 9.52103E-05-2.85611E-05-2.85639E-05 1.93792E-08-2.25369E-19 1.18884E-18
 -1      2347 9.52204E-05-2.85598E-05-2.85690E-05 1.48195E-08-9.81116E-19 3.61636E-19
 -1      2348 9.52104E-05-2.85623E-05-2.85634E-05 2.09775E-08-9.32323E-21 1.64330E-18
 -1      2349 9.52123E-05-2.85638E-05-2.85636E-05 2.15555E-08 9.09334E-19 2.81811E-18
 -1      2350 9.52202E-05-2.85638E-05-2.85671E-05 2.06888E-08 2.44562E-19 2.06370E-18
 -1      2351 9.52130E-05-2.85647E-05-2.85635E-05 2.18312E-08 4.20171E-19 2.24032E-18
 -1      2352 9.52152E-05-2.85659E-05-2.85640E-05 2.15192E-08 5.54667E-19 2.03599E-18
 -1      2353 9.52212E-05-2.85667E-05-2.85663E-05 2.29403E-08-1.61407E-19 2.68226E-18
 -1      2354 9.52161E-05-2.85666E-05-2.85641E-05 2.09815E-08 4.10422E-19 6.13345E-19
 -1      2355 9.52184E-05-2.85675E-05-2.85646E-05 2.01550E-08-3.03901E-19-3.36422E-20
 -1      2356 9.52228E-05-2.85688E-05-2.85661E-05 2.28670E-08-3.96301E-19 7.53165E-19
 -1      2357 9.52193E-05-2.85680E-05-2.85649E-05 1.91635E-08 4.58012E-19 2.09877E-19
 -1      2358 9.52215E-05-2.85688E-05-2.85655E-05 1.80819E-08 1.07733E-21 5.90228E-19
 -1      2359 9.52247E-05-2.85701E-05-2.85663E-05 2.14003E-08-3.15696E-20 2.85970E-19
 -1      2360 9.52225E-05-2.85691E-05-2.85658E-05 1.68823E-08-1.23034E-18 1.46096E-18
 -1      2361 9.52245E-05-2.85697E-05-2.85663E-05 1.57173E-08-1.50848E-18 1.23087E-18
 -1      2362 9.52267E-05-2.85710E-05-2.85667E-05 1.91914E-08-2.43129E-19 2.43507E-18
 -1      2363 9.52254E-05-2.85699E-05-2.85667E-05 1.44692E-08-1.85477E-18 1.51426E-18
 -1      2364 9.52271E-05-2.85703E-05-2.85672E-05 1.33276E-08-8.68291E-19 1.34179E-18
 -1      2365 9.52286E-05-2.85716E-05-2.85673E-05 1.66784E-08-1.15544E-18 2.59797E-18
 -1      2366 9.52279E-05-2.85705E-05-2.85675E-05 1.21277E-08-1.62196E-19 8.23289E-19
 -1      2367 9.52294E-05-2.85708E-05-2.85680E-05 1.10685E-08 7.37039E-19 4.19393E-19
 -1      2368 9.52304E-05-2.85719E-05-2.85679E-05 1.41404E-08-1.17718E-18 1.72701E-18
 -1      2369 9.52302E-05-2.85709E-05-2.85683E-05 9.96754E-09 1.38214E-18 2.91823E-19
 -1      2370 9.52314E-05-2.85712E-05-2.85687E-05 9.01540E-09 2.00932E-18-1.31685E-19
 -1      2371 9.52319E-05-2.85721E-05-2.85685E-05 1.17396E-08 6.99380E-20 9.02800E-19
 -1      2372 9.52320E-05-2.85712E-05-2.85689E-05 8.03119E-09 1.15460E-18-6.41953E-19
 -1      2373 9.52331E-05-2.85714E-05-2.85693E-05 7.18633E-09 6.28873E-19-8.37584E-19
 -1      2374 9.52332E-05-2.85722E-05-2.85690E-05 9.55428E-09 8.01275E-19 5.77614E-19
 -1      2375 9.52336E-05-2.85715E-05-2.85695E-05 6.31205E-09 7.11590E-19-1.44723E-18
 -1      2376 9.52344E-05-2.85717E-05-2.85697E-05 5.55404E-09-4.52476E-19-1.06646E-18
 -1      2377 9.52344E-05-2.85723E-05-2.85695E-05 7.60315E-09 5.74455E-19-2.68548E-19
 -1      2378 9.52349E-05-2.85718E-05-2.85699E-05 4.77663E-09-6.12299E-19-7.86816E-19
 -1      2379 9.52355E-05-2.85719E-05-2.85701E-05 4.08868E-09 4.40756E-20-5.79409E-19
 -1      2380 9.52353E-05-2.85724E-05-2.85698E-05 5.85492E-09-4.85561E-20-1.87693E-18
 -1      2381 1.23099E-04-2.91433E-05-4.03607E-05 1.68489E-05 3.63689E-18 3.33175E-18
 -1      2382 1.27003E-04-3.48367E-05-3.98775E-05 2.01585E-05 3.02608E-18 4.22939E-18
 -1      2383 1.18921E-04-2.28760E-05-4.14652E-05 2.71038E-06 5.28496E-18-1.85288E-22
 -1      2384 1.20485E-04-2.47777E-05-4.13957E-05 1.02108E-05 4.79399E-18 1.50372E-18
 -1      2385 1.27240E-04-2.58684E-05-4.38619E-05 1.51120E-05 5.25266E-18 2.16745E-18
 -1      2386 1.21373E-04-2.81821E-05-4.03820E-05-1.22351E-05 4.76403E-18-3.23360E-18
 -1      2387 1.19429E-04-2.42310E-05-4.09638E-05-6.30778E-06 5.37093E-18-2.09619E-18
 -1      2388 1.27149E-04-3.89754E-05-3.80768E-05-1.66430E-05 2.23220E-18-4.95790E-18
 -1      2389 1.24102E-04-3.35058E-05-3.88829E-05-1.61081E-05 3.55516E-18-4.26996E-18
 -1      2390 1.28250E-04-4.47236E-05-3.58704E-05-1.05261E-05-2.78376E-19-4.61279E-18
 -1      2391 1.26970E-04-4.23146E-05-3.63889E-05-1.37058E-05 8.45312E-19-5.13706E-18
 -1      2392 1.31639E-04-4.28694E-05-3.81985E-05-1.51097E-05 1.70436E-18-5.94784E-18
 -1      2393 1.24649E-04-4.38445E-05-3.45704E-05-1.59975E-06-1.22375E-18-3.98595E-18
 -1      2394 1.25391E-04-4.44052E-05-3.48373E-05-5.42579E-06-6.52665E-19-4.31245E-18
 -1      2395 1.28710E-04-4.73823E-05-3.49565E-05-6.31742E-06-5.14553E-19-4.89049E-18
 -1      2396 1.19201E-04-3.99592E-05-3.38903E-05 5.08797E-06-6.46160E-19-3.13791E-18
 -1      2397 1.20991E-04-4.16901E-05-3.40928E-05 2.34868E-06-8.66501E-19-3.67757E-18
 -1      2398 1.22027E-04-4.46213E-05-3.32680E-05 2.66677E-06-1.22206E-18-4.53713E-18
 -1      2399 1.14085E-04-3.60833E-05-3.33878E-05 8.52639E-06 3.76599E-20-2.21392E-18
 -1      2400 1.16135E-04-3.77774E-05-3.36518E-05 7.15121E-06-2.19659E-19-2.46485E-18
 -1      2401 1.15171E-04-3.94349E-05-3.25515E-05 8.32540E-06-7.68272E-19-3.07731E-18
 -1      2402 1.09933E-04-3.32316E-05-3.28540E-05 9.49818E-06 3.62358E-19-1.82145E-18
 -1      2403 1.11885E-04-3.45142E-05-3.31921E-05 9.15955E-06 5.07403E-19-1.89151E-18
 -1      2404 1.09852E-04-3.49116E-05-3.21836E-05 1.07257E-05 1.73150E-19-1.93112E-18
 -1      2405 1.06711E-04-3.14215E-05-3.22609E-05 9.01673E-06 9.98893E-20-8.60198E-19
 -1      2406 1.08429E-04-3.22871E-05-3.26364E-05 9.27769E-06 3.34647E-19-1.34699E-18
 -1      2407 1.06109E-04-3.18697E-05-3.18531E-05 1.09507E-05 1.37903E-19-1.72324E-18
 -1      2408 1.04195E-04-3.03396E-05-3.16508E-05 7.86736E-06-5.86471E-20-1.06016E-18
 -1      2409 1.05653E-04-3.09052E-05-3.20217E-05 8.39909E-06 2.69538E-19-5.75167E-19
 -1      2410 1.03521E-04-3.01269E-05-3.14724E-05 1.00096E-05 3.04934E-19-1.05417E-18
 -1      2411 1.02201E-04-2.96999E-05-3.10712E-05 6.52143E-06 4.92910E-19-1.09051E-18
 -1      2412 1.03408E-04-3.00715E-05-3.14090E-05 7.12367E-06 4.02660E-19-1.22936E-18
 -1      2413 1.01660E-04-2.92199E-05-3.10539E-05 8.58241E-06 4.09257E-19-7.32238E-19
 -1      2414 1.00605E-04-2.93123E-05-3.05533E-05 5.22576E-06-2.59518E-19-4.71798E-19
 -1      2415 1.01586E-04-2.95621E-05-3.08442E-05 5.79546E-06 1.45114E-19-1.02634E-18
 -1      2416 1.00250E-04-2.87841E-05-3.06330E-05 7.06046E-06 2.18773E-19-7.51466E-19
 -1      2417 9.93275E-05-2.90663E-05-3.01110E-05 4.08810E-06-1.04418E-18-4.10026E-19
 -1      2418 1.00111E-04-2.92389E-05-3.03519E-05 4.58223E-06-6.11070E-19-4.36708E-19
 -1      2419 9.91415E-05-2.85900E-05-3.02398E-05 5.64354E-06-4.01336E-19-5.79501E-19
 -1      2420 9.83117E-05-2.89021E-05-2.97458E-05 3.13973E-06-1.64411E-18-1.49432E-18
 -1      2421 9.89273E-05-2.90240E-05-2.99396E-05 3.54770E-06-1.27471E-18-1.21015E-18
 -1      2422 9.82517E-05-2.85111E-05-2.98921E-05 4.41530E-06-7.80590E-19-7.13684E-19
 -1      2423 9.75122E-05-2.87881E-05-2.94519E-05 2.37436E-06-1.33501E-18-2.02046E-18
 -1      2424 9.79888E-05-2.88751E-05-2.96044E-05 2.70098E-06-1.56555E-18-1.90463E-18
 -1      2425 9.75351E-05-2.84837E-05-2.95968E-05 3.39547E-06-1.27483E-18-1.55288E-18
 -1      2426 9.68906E-05-2.87072E-05-2.92201E-05 1.77007E-06 1.11283E-18-1.47942E-18
 -1      2427 9.72544E-05-2.87693E-05-2.93381E-05 2.02618E-06-3.37930E-19-1.68355E-18
 -1      2428 9.69616E-05-2.84779E-05-2.93534E-05 2.57233E-06-9.46126E-19-2.11439E-18
 -1      2429 9.64140E-05-2.86496E-05-2.90406E-05 1.30066E-06 9.82783E-19-1.70047E-19
 -1      2430 9.66877E-05-2.86936E-05-2.91303E-05 1.49838E-06 1.78163E-18-6.35291E-19
 -1      2431 9.65079E-05-2.84807E-05-2.91576E-05 1.92118E-06 6.40510E-19-1.27555E-18
 -1      2432 9.60540E-05-2.86093E-05-2.89038E-05 9.40832E-07-9.04704E-19-1.35671E-18
 -1      2433 9.62569E-05-2.86398E-05-2.89710E-05 1.09153E-06 4.72299E-19-4.53968E-19
 -1      2434 9.61544E-05-2.84868E-05-2.90031E-05 1.41406E-06 1.06489E-18 1.74910E-19
 -1      2435 9.57865E-05-2.85818E-05-2.88011E-05 6.68335E-07-4.93299E-19-2.19439E-18
 -1      2436 9.59344E-05-2.86024E-05-2.88507E-05 7.81820E-07-1.54162E-18-2.07072E-18
 -1      2437 9.58832E-05-2.84942E-05-2.88834E-05 1.02429E-06-5.77937E-19-1.62136E-18
 -1      2438 9.55913E-05-2.85639E-05-2.87252E-05 4.64462E-07 4.84435E-19-1.84820E-18
 -1      2439 9.56971E-05-2.85772E-05-2.87612E-05 5.48887E-07 5.10373E-19-2.02570E-18
 -1      2440 9.56788E-05-2.85021E-05-2.87920E-05 7.28416E-07-1.88751E-19-2.47423E-18
 -1      2441 9.54517E-05-2.85532E-05-2.86701E-05 3.13914E-07 7.26972E-20-7.06827E-19
 -1      2442 9.55257E-05-2.85612E-05-2.86957E-05 3.75883E-07 3.25245E-19-1.36058E-18
 -1      2443 9.55276E-05-2.85102E-05-2.87234E-05 5.06598E-07 2.60527E-19-1.40811E-18
 -1      2444 9.53542E-05-2.85476E-05-2.86309E-05 2.04376E-07-1.08361E-18-4.37975E-19
 -1      2445 9.54046E-05-2.85519E-05-2.86487E-05 2.49165E-07-6.84068E-19-8.74966E-19
 -1      2446 9.54181E-05-2.85182E-05-2.86727E-05 3.42529E-07-2.26698E-19-5.99386E-19
 -1      2447 9.52883E-05-2.85455E-05-2.86037E-05 1.26056E-07 1.25632E-18-1.23841E-18
 -1      2448 9.53213E-05-2.85472E-05-2.86157E-05 1.57834E-07-1.16904E-19-5.25463E-19
 -1      2449 9.53406E-05-2.85258E-05-2.86359E-05 2.23007E-07-4.65048E-19-1.65835E-18
 -1      2450 9.52455E-05-2.85457E-05-2.85853E-05 7.12336E-08 1.26960E-18-9.68271E-19
 -1      2451 9.52660E-05-2.85458E-05-2.85931E-05 9.32712E-08 1.97236E-18-6.70107E-19
 -1      2452 9.52874E-05-2.85330E-05-2.86098E-05 1.37473E-07 1.33287E-18-1.76173E-18
 -1      2453 9.52192E-05-2.85474E-05-2.85734E-05 3.38784E-08-4.35455E-19-1.94740E-18
 -1      2454 9.52310E-05-2.85465E-05-2.85782E-05 4.87170E-08 3.54584E-19-1.56806E-18
 -1      2455 9.52522E-05-2.85396E-05-2.85917E-05 7.75721E-08 1.05805E-18-2.05345E-18
 -1      2456 9.52046E-05-2.85500E-05-2.85661E-05 9.31837E-09-1.54872E-20-1.76751E-18
 -1      2457 9.52104E-05-2.85485E-05-2.85688E-05 1.89174E-08 9.78736E-21-1.34051E-18
 -1      2458 9.52301E-05-2.85455E-05-2.85796E-05 3.67489E-08-1.63115E-19-2.28747E-18
 -1      2459 9.51979E-05-2.85528E-05-2.85621E-05-6.02962E-09-3.83448E-19-1.76186E-18
 -1      2460 9.51997E-05-2.85511E-05-2.85633E-05-1.74884E-10-6.85565E-19-2.35440E-18
 -1      2461 9.52172E-05-2.85506E-05-2.85717E-05 9.91363E-09 3.19889E-20-1.81971E-18
 -1      2462 9.51965E-05-2.85557E-05-2.85603E-05-1.48838E-08-5.73552E-19-3.11957E-19
 -1      2463 9.51957E-05-2.85539E-05-2.85606E-05-1.16447E-08-5.30732E-19-7.14392E-19
 -1      2464 9.52108E-05-2.85550E-05-2.85670E-05-6.84583E-09-9.02636E-19-1.66510E-18
 -1      2465 9.51982E-05-2.85584E-05-2.85599E-05-1.92802E-08 6.55794E-19-5.91065E-19
 -1      2466 9.51960E-05-2.85567E-05-2.85596E-05-1.78161E-08 6.69965E-19 4.70664E-20
 -1      2467 9.52086E-05-2.85586E-05-2.85645E-05-1.65014E-08-5.33200E-20-1.00600E-18
 -1      2468 9.52018E-05-2.85609E-05-2.85604E-05-2.07216E-08 2.19311E-19-2.98081E-19
 -1      2469 9.51988E-05-2.85593E-05-2.85597E-05-2.04159E-08 1.43260E-19-2.96146E-20
 -1      2470 9.52092E-05-2.85616E-05-2.85633E-05-2.12811E-08 4.13334E-19 3.09417E-20
 -1      2471 9.52062E-05-2.85630E-05-2.85614E-05-2.02975E-08 1.15793E-18 1.88920E-20
 -1      2472 9.52030E-05-2.85617E-05-2.85606E-05-2.07064E-08 9.54764E-19-1.24561E-19
 -1      2473 9.52113E-05-2.85640E-05-2.85632E-05-2.28301E-08 1.04540E-18 3.64211E-19
 -1      2474 9.52109E-05-2.85648E-05-2.85626E-05-1.87817E-08-2.47833E-19 1.23132E-18
 -1      2475 9.52078E-05-2.85637E-05-2.85618E-05-1.95928E-08 5.35710E-19 5.31060E-19
 -1      2476 9.52143E-05-2.85659E-05-2.85636E-05-2.23415E-08 1.10602E-19 1.48078E-18
 -1      2477 9.52155E-05-2.85664E-05-2.85639E-05-1.67088E-08-1.57417E-18 5.11712E-19
 -1      2478 9.52126E-05-2.85654E-05-2.85631E-05-1.77088E-08-3.05464E-20 1.55269E-18
 -1      2479 9.52176E-05-2.85674E-05-2.85644E-05-2.06620E-08 3.62595E-19 2.36726E-18
 -1      2480 9.52197E-05-2.85676E-05-2.85652E-05-1.44346E-08-2.09728E-18-1.10992E-18
 -1      2481 9.52171E-05-2.85668E-05-2.85644E-05-1.54838E-08-2.37601E-18-7.78836E-19
 -1      2482 9.52209E-05-2.85686E-05-2.85653E-05-1.83762E-08-1.04831E-18 1.21915E-18
 -1      2483 9.52235E-05-2.85686E-05-2.85664E-05-1.21836E-08-1.82587E-18-2.07518E-18
 -1      2484 9.52212E-05-2.85680E-05-2.85657E-05-1.31963E-08-1.77511E-18-1.99581E-18
 -1      2485 9.52240E-05-2.85695E-05-2.85662E-05-1.58725E-08-1.18072E-18-1.17646E-18
 -1      2486 9.52267E-05-2.85694E-05-2.85674E-05-1.00842E-08-1.72963E-19-2.99044E-18
 -1      2487 9.52248E-05-2.85689E-05-2.85668E-05-1.10139E-08-1.41554E-18-2.91573E-18
 -1      2488 9.52268E-05-2.85701E-05-2.85671E-05-1.33949E-08-9.90458E-19-2.10679E-18
 -1      2489 9.52294E-05-2.85700E-05-2.85683E-05-8.19548E-09 2.50542E-18-2.94553E-18
 -1      2490 9.52278E-05-2.85696E-05-2.85678E-05-9.02420E-09 9.44471E-19-2.62769E-18
 -1      2491 9.52292E-05-2.85706E-05-2.85679E-05-1.10819E-08 3.77937E-19-3.43645E-18
 -1      2492 9.52316E-05-2.85706E-05-2.85690E-05-6.52628E-09 2.81730E-18-1.35719E-18
 -1      2493 9.52303E-05-2.85702E-05-2.85686E-05-7.25704E-09 2.83728E-18-2.83757E-18
 -1      2494 9.52312E-05-2.85710E-05-2.85686E-05-8.99664E-09 2.48190E-18-2.09802E-18
 -1      2495 9.52334E-05-2.85710E-05-2.85696E-05-5.05013E-09 1.77821E-19-2.40936E-19
 -1      2496 9.52324E-05-2.85707E-05-2.85693E-05-5.70069E-09 1.55132E-18-4.70464E-19
 -1      2497 9.52329E-05-2.85713E-05-2.85692E-05-7.14720E-09 2.22580E-18-1.17620E-18
 -1      2498 9.52349E-05-2.85714E-05-2.85701E-05-3.71434E-09 1.00085E-19-1.94829E-18
 -1      2499 9.52341E-05-2.85711E-05-2.85699E-05-4.31238E-09 8.41152E-19-1.40749E-18
 -1      2500 9.52343E-05-2.85716E-05-2.85697E-05-5.51113E-09 1.24945E-18-1.14061E-18
 -1      2501 9.52360E-05-2.85717E-05-2.85704E-05-2.48689E-09-1.13870E-19-1.16145E-18
 -1      2502 9.52354E-05-2.85715E-05-2.85703E-05-3.04554E-09-3.98722E-19-1.74201E-18
 -1      2503 9.52355E-05-2.85718E-05-2.85701E-05-4.02819E-09-5.34267E-19-2.50156E-18
 -1      2504 9.52364E-05-2.85718E-05-2.85706E-05-1.86449E-09-1.09278E-18 7.30524E-19
 -1      2505 9.52394E-05-2.85765E-05-2.85698E-05-3.31920E-09-6.33699E-20 2.96818E-18
 -1      2506 9.52390E-05-2.85759E-05-2.85699E-05-3.60634E-09-4.87911E-19-6.25826E-21
 -1      2507 9.52400E-05-2.85774E-05-2.85697E-05-2.35624E-09-3.79026E-19 2.41538E-18
 -1      2508 9.52397E-05-2.85770E-05-2.85697E-05-2.84082E-09-5.66036E-19 3.37886E-18
 -1      2509 9.52398E-05-2.85769E-05-2.85699E-05-3.55999E-09 1.01120E-18 2.68159E-18
 -1      2510 9.52377E-05-2.85741E-05-2.85701E-05-3.78144E-09-2.44283E-18-1.23999E-18
 -1      2511 9.52372E-05-2.85734E-05-2.85702E-05-3.58909E-09-3.09838E-18-1.20887E-18
 -1      2512 9.52386E-05-2.85753E-05-2.85699E-05-3.82282E-09-1.38003E-18-6.78621E-19
 -1      2513 9.52381E-05-2.85747E-05-2.85700E-05-3.86878E-09-1.44327E-18-9.83826E-19
 -1      2514 9.52379E-05-2.85744E-05-2.85700E-05-4.47831E-09-1.02079E-19-4.79744E-19
 -1      2515 9.52389E-05-2.85757E-05-2.85699E-05-4.31319E-09 8.99298E-19 6.34001E-19
 -1      2516 9.52404E-05-2.85779E-05-2.85696E-05-1.07896E-09 3.26859E-19 2.46872E-18
 -1      2517 9.52402E-05-2.85777E-05-2.85696E-05-1.69044E-09-3.18867E-19 1.68667E-18
 -1      2518 9.52405E-05-2.85777E-05-2.85698E-05-2.33335E-09 1.08501E-19 2.10257E-18
 -1      2519 9.52404E-05-2.85780E-05-2.85696E-05 3.39683E-10-6.30730E-19 3.11104E-18
 -1      2520 9.52404E-05-2.85780E-05-2.85696E-05-3.14702E-10-4.36928E-19 3.46624E-18
 -1      2521 9.52409E-05-2.85781E-05-2.85698E-05-8.02403E-10-1.25700E-19 2.79745E-18
 -1      2522 9.52402E-05-2.85777E-05-2.85696E-05 1.71262E-09-4.36244E-19-7.08222E-19
 -1      2523 9.52404E-05-2.85779E-05-2.85696E-05 1.10302E-09-1.00264E-18 1.04144E-18
 -1      2524 9.52408E-05-2.85781E-05-2.85698E-05 8.31420E-10-2.92843E-19 1.43418E-18
 -1      2525 9.52397E-05-2.85770E-05-2.85697E-05 2.84092E-09 1.29180E-18-6.11937E-19
 -1      2526 9.52400E-05-2.85774E-05-2.85697E-05 2.36554E-09 8.56101E-19-1.20251E-18
 -1      2527 9.52405E-05-2.85777E-05-2.85698E-05 2.34685E-09 1.20024E-18-1.76315E-19
 -1      2528 9.52390E-05-2.85759E-05-2.85699E-05 3.60600E-09 1.35511E-18-3.04841E-19
 -1      2529 9.52394E-05-2.85765E-05-2.85698E-05 3.31890E-09 9.65900E-19-1.44934E-18
 -1      2530 9.52398E-05-2.85769E-05-2.85699E-05 3.55961E-09 1.34335E-19-8.45190E-19
 -1      2531 9.52381E-05-2.85747E-05-2.85700E-05 3.85075E-09 1.26623E-18 2.16439E-19
 -1      2532 9.52386E-05-2.85753E-05-2.85699E-05 3.82463E-09 1.85291E-18 6.94112E-19
 -1      2533 9.52389E-05-2.85757E-05-2.85699E-05 4.32033E-09 5.39508E-19 2.69889E-19
 -1      2534 9.52372E-05-2.85734E-05-2.85702E-05 3.55848E-09 8.15014E-19 5.42706E-19
 -1      2535 9.52377E-05-2.85740E-05-2.85701E-05 3.79068E-09 5.32752E-19 3.24876E-19
 -1      2536 9.52379E-05-2.85744E-05-2.85701E-05 4.46366E-09 3.84928E-19-6.31661E-19
 -1      2537 2.40352E-05-1.73334E-05-2.77213E-06 1.80753E-05-9.23160E-19 6.68182E-18
 -1      2538 1.86122E-05-1.58215E-05-9.76193E-07 3.52049E-06-8.02590E-19 7.72452E-18
 -1      2539 5.81495E-05-3.31560E-05-1.05601E-05 3.96028E-05-2.01890E-18 4.93566E-18
 -1      2540 4.01423E-05-2.47007E-05-6.18049E-06 3.00545E-05-2.29821E-18 6.00440E-18
 -1      2541 1.51564E-04-5.14415E-05-4.34006E-05 6.20532E-06 3.77812E-18-3.88767E-18
 -1      2542 1.41958E-04-5.60410E-05-3.69238E-05 1.55048E-05 2.63470E-18-2.44115E-18
 -1      2543 1.29807E-04-3.99674E-05-3.85584E-05 2.00385E-05 2.58139E-18 4.98716E-18
 -1      2544 1.32723E-04-4.40101E-05-3.81756E-05 1.83739E-05 2.09985E-18 5.38245E-18
 -1      2545 1.34786E-04-4.69669E-05-3.76443E-05 1.62505E-05 1.84198E-18 4.65365E-18
 -1      2546 9.52367E-05-2.85724E-05-2.85705E-05 2.43689E-09 4.94947E-19 3.80218E-19
 -1      2547 9.53007E-05-5.04200E-05-1.92636E-05 4.08541E-05-1.01813E-18 2.03603E-18
 -1      2548 7.91074E-05-4.40094E-05-1.48083E-05 4.05055E-05-2.08751E-18 2.95419E-18
 -1      2549 3.26227E-05-2.39544E-05-3.58543E-06-3.08678E-05 2.15358E-18 8.77272E-18
 -1      2550 4.85564E-05-3.02950E-05-7.83311E-06-4.11150E-05 2.21541E-18 7.73299E-18
 -1      2551 1.82010E-05-1.58499E-05-8.35861E-07-8.51421E-06 6.92449E-19 8.44873E-18
 -1      2552 2.22925E-05-1.78511E-05-1.79741E-06-2.04763E-05 9.49630E-19 9.33473E-18
 -1      2553 1.45842E-04-2.51641E-05-5.20348E-05-9.96813E-08-7.13498E-18-4.65381E-18
 -1      2554 1.48621E-04-1.91286E-05-5.57840E-05 4.66966E-07-8.18954E-18-4.45243E-18
 -1      2555 1.29390E-05-1.33217E-06-4.73253E-06 9.09644E-06 1.28500E-18-1.22180E-17
 -1      2556 1.49038E-05-3.28302E-06-4.72986E-06-5.25685E-06 1.62175E-18-1.22940E-17
 -1      2557 7.52269E-05-1.38938E-05-2.64071E-05 1.67888E-05 3.43773E-18-5.57652E-18
 -1      2558 8.35310E-05-1.76712E-05-2.80954E-05 1.39134E-05 2.81130E-18-5.21837E-18
 -1      2559 9.08483E-05-2.38878E-05-2.87133E-05 1.29479E-05 2.52598E-18-4.52646E-18
 -1      2560 7.29969E-05-1.49789E-05-2.48082E-05 2.13738E-05 3.79995E-18-6.03046E-18
 -1      2561 1.30008E-04-5.55279E-05-3.18785E-05-1.57928E-05 2.53665E-18-2.16353E-18
 -1      2562 1.43177E-04-5.59183E-05-3.78642E-05-8.76906E-06 4.06152E-18-1.19114E-18
 -1      2563 1.51742E-04-1.83805E-05-5.76156E-05-3.13878E-06 1.01970E-17-3.70206E-18
 -1      2564 1.51610E-04-2.29132E-05-5.55124E-05-6.83585E-06 9.42049E-18-4.22564E-18
 -1      2565 1.50775E-04-1.71773E-05-5.76140E-05 8.70759E-06 9.94967E-18-1.31629E-18
 -1      2566 1.51525E-04-1.53240E-05-5.86956E-05 3.10257E-06 1.07560E-17-2.22619E-18
 -1      2567 1.54507E-04-3.11463E-05-5.30078E-05 1.37386E-05 8.58891E-18 1.82747E-19
 -1      2568 1.54110E-04-2.50694E-05-5.58113E-05 1.29036E-05 9.37073E-18-1.18585E-20
 -1      2569 1.41582E-04-3.75975E-05-4.49787E-05 6.26903E-06-6.54709E-18-1.54668E-18
 -1      2570 1.35135E-04-4.11948E-05-4.03870E-05 1.23673E-05-5.22693E-18-2.47524E-18
 -1      2571 1.50244E-04-4.98519E-05-4.30943E-05 2.98249E-06 5.11311E-18-8.85149E-20
 -1      2572 1.55728E-04-4.24474E-05-4.90892E-05 9.99310E-06 6.82994E-18 5.39136E-19
 -1      2573 9.11519E-05-4.43235E-05-2.00845E-05-3.13414E-05 1.15451E-18-6.45553E-18
 -1      2574 1.11384E-04-5.12302E-05-2.60846E-05-2.77024E-05 1.75315E-18-4.40007E-18
 -1      2575 5.45811E-05-2.61391E-05-1.20263E-05-3.09236E-05 9.52912E-21-9.18650E-18
 -1      2576 7.29911E-05-3.53935E-05-1.60942E-05-3.47166E-05 1.13778E-18-8.21770E-18
 -1      2577 8.87685E-05-4.02473E-05-2.04110E-05-2.94442E-05-1.17335E-18-5.64616E-18
 -1      2578 2.42124E-05-8.50378E-06-6.48616E-06-1.63222E-05 3.66765E-19-1.15624E-17
 -1      2579 3.64004E-05-1.51383E-05-8.90244E-06-2.60282E-05 8.32633E-19-1.08444E-17
 -1      2580 2.66317E-05-6.92790E-06-8.17735E-06 3.03011E-05 2.15739E-18-1.09019E-17
 -1      2581 1.81377E-05-3.66239E-06-5.91990E-06 2.06506E-05 2.38704E-18-1.17126E-17
 -1      2582 9.84144E-05-3.94961E-05-2.52119E-05 3.71701E-05-8.56562E-19-5.77613E-18
 -1      2583 8.42341E-05-3.49145E-05-2.09445E-05 3.90691E-05 5.74288E-19-6.41393E-18
 -1      2584 1.02320E-04-5.06838E-05-2.20934E-05-3.91287E-05 1.31417E-18 8.37927E-19
 -1      2585 1.17534E-04-5.26676E-05-2.79460E-05-3.49615E-05-1.95029E-19-9.25807E-19
 -1      2586 1.26919E-04-4.37301E-05-3.58503E-05 2.27223E-05-3.83113E-18-3.56559E-18
 -1      2587 1.11987E-04-4.29849E-05-2.96884E-05 2.89913E-05-1.87406E-18-4.17354E-18
 -1      2588 1.31005E-04-4.46511E-05-3.68912E-05 1.12637E-05-2.26200E-18-1.05350E-18
 -1      2589 1.42991E-04-9.81262E-06-5.73413E-05-3.72502E-06-1.00185E-17-3.11525E-18
 -1      2590 1.39289E-04-1.18135E-05-5.53189E-05-6.16208E-06-9.79594E-18-2.38842E-18
 -1      2591 1.47483E-04-1.39167E-05-5.75587E-05 1.47753E-07-8.97770E-18-4.06099E-18
 -1      2592 1.45700E-04-1.05947E-05-5.83733E-05-6.41997E-07-9.76841E-18-3.91933E-18
 -1      2593 1.38227E-04-1.48079E-05-5.29541E-05 4.30698E-06-8.13088E-18-5.04938E-18
 -1      2594 1.43089E-04-4.15292E-05-4.37299E-05-8.08450E-06-3.95795E-18-4.40521E-18
 -1      2595 1.45676E-04-3.59261E-05-4.75086E-05-3.45146E-06-5.12751E-18-5.00978E-18
 -1      2596 1.28978E-04-5.18378E-05-3.31879E-05-2.41768E-05-1.10030E-18-2.58387E-18
 -1      2597 1.39633E-04-4.79672E-05-3.95324E-05-1.72838E-05-2.81464E-18-3.47855E-18
 -1      2598 1.39161E-04-4.77939E-05-3.91176E-05-6.73613E-06-1.74744E-18-5.56119E-18
 -1      2599 6.92529E-05-3.99079E-05-1.23680E-05-4.38081E-05 3.13042E-18 5.21947E-18
 -1      2600 8.53337E-05-4.52945E-05-1.72104E-05-4.52388E-05 1.99582E-18 3.17063E-18
 -1      2601 1.09141E-04-2.62045E-05-3.56509E-05-1.68299E-05-3.91485E-18-9.75597E-19
 -1      2602 1.09068E-04-2.94760E-05-3.41460E-05-1.43553E-05-3.63731E-18-3.68682E-19
 -1      2603 1.09557E-04-2.94764E-05-3.42455E-05-1.52034E-05-3.20877E-18-7.90288E-19
 -1      2604 1.07565E-04-2.46459E-05-3.56054E-05-1.62920E-05-3.56287E-18-1.93419E-18
 -1      2605 1.28433E-04-3.93003E-05-3.83065E-05 5.97683E-06 2.41824E-18 4.57043E-18
 -1      2606 1.28282E-04-3.65082E-05-3.93649E-05 6.93560E-06 2.75533E-18 4.70207E-18
 -1      2607 1.22690E-04-3.32876E-05-3.84384E-05 7.08461E-06 2.87537E-18 3.09098E-18
 -1      2608 1.25600E-04-4.03462E-05-3.67066E-05 5.75958E-06 1.92054E-18 3.11467E-18
 -1      2609 1.30757E-04-5.80721E-05-3.13460E-05 2.74713E-05 1.62101E-18-1.15154E-18
 -1      2610 1.12812E-04-5.61872E-05-2.42774E-05 3.31553E-05-3.98105E-20 1.38066E-19
 -1      2611 1.38351E-04-5.97410E-05-3.35181E-05 1.47838E-05 3.02920E-19-3.81726E-18
 -1      2612 1.46381E-04-5.38143E-05-3.95829E-05 4.53414E-06 2.77896E-18 1.87703E-18
 -1      2613 1.06656E-04-2.80843E-05-3.36691E-05-6.69915E-06-6.18996E-19-3.34268E-18
 -1      2614 1.04349E-04-2.43950E-05-3.42678E-05-7.89448E-06-9.03715E-19-4.00987E-18
 -1      2615 1.05503E-04-2.43256E-05-3.49508E-05-1.10388E-05-1.81504E-18-3.71334E-18
 -1      2616 9.52362E-05-2.85721E-05-2.85704E-05 2.99345E-09 3.34225E-19 6.48495E-20
 -1      2617 9.52368E-05-2.85728E-05-2.85703E-05 3.38112E-09 5.54351E-19 3.56700E-19
 -1      2618 9.52368E-05-2.85731E-05-2.85701E-05 4.19607E-09 8.36680E-19 3.94417E-19
 -1      2619 9.52358E-05-2.85720E-05-2.85702E-05 3.58622E-09 2.00609E-19-1.31185E-20
 -1      2620 1.14645E-04-2.97261E-05-3.63724E-05 4.89137E-06 2.28893E-18 1.14343E-18
 -1      2621 1.10849E-04-4.38710E-05-2.85538E-05 2.76494E-05 9.61488E-19-3.17669E-18
 -1      2622 3.87926E-05-1.12443E-05-1.13243E-05 3.42628E-05 2.92142E-18-1.00656E-17
 -1      2623 3.57104E-05-5.10055E-06-1.26082E-05 3.00042E-05 3.55754E-18-9.92087E-18
 -1      2624 5.12495E-05-1.55453E-05-1.52445E-05 3.66666E-05 4.18275E-18-8.47520E-18
 -1      2625 1.48935E-04-4.81686E-05-4.32767E-05-4.25639E-06 3.68250E-18-5.83330E-18
 -1      2626 9.52360E-05-2.85725E-05-2.85701E-05 4.50503E-09 1.89212E-19-1.34060E-18
 -1      2627 5.29572E-05-1.98198E-05-1.37175E-05-2.70067E-05-9.95158E-19-9.21402E-18
 -1      2628 7.42903E-05-3.82090E-05-1.50473E-05 3.80978E-05-3.44467E-18 3.35764E-18
 -1      2629 1.24731E-04-2.13532E-05-4.47071E-05-1.83799E-06 6.60590E-18-1.57019E-18
 -1      2630 1.13832E-04-3.30375E-05-3.45185E-05 1.49270E-06 1.48862E-18 9.17628E-19
 -1      2631 1.28427E-04-3.04559E-05-4.22532E-05-1.57167E-05 4.90623E-18-4.95938E-18
 -1      2632 9.52364E-05-2.85721E-05-2.85704E-05-2.66447E-09-2.05534E-18-6.17131E-20
 -1      2633 9.52366E-05-2.85726E-05-2.85703E-05-3.07568E-09-2.66552E-18-4.70071E-19
 -1      2634 1.39924E-04-3.35364E-05-4.57744E-05-4.06726E-06-6.13135E-18-2.32299E-19
 -1      2635 2.49196E-05-1.25396E-05-4.76903E-06-2.43678E-06-4.63751E-20 7.58687E-18
 -1      2636 3.93002E-05-1.91865E-05-8.04132E-06 2.38241E-05-2.23236E-18 5.86104E-18
 -1      2637 1.49445E-04-3.81150E-05-4.79187E-05 1.63522E-05 6.18355E-18 2.55063E-18
 -1      2638 3.46692E-05-1.88656E-05-6.27878E-06-2.65495E-05 2.06909E-18 8.48303E-18
 -1      2639 1.43963E-04-2.02618E-05-5.32985E-05 1.28249E-05 8.86039E-18 2.88838E-19
 -1      2640 1.11429E-04-5.53474E-05-2.37528E-05 3.25218E-05-2.35920E-18-7.28051E-19
 -1      2641 6.41338E-05-3.48923E-05-1.21262E-05-4.20190E-05 3.78751E-18 5.47416E-18
 -1      2642 1.06799E-04-2.43647E-05-3.53536E-05-1.43596E-05-2.76717E-18-2.76123E-18
 -1      2643 1.26719E-04-5.52768E-05-3.04375E-05-2.45657E-05 1.12190E-18-3.18124E-18
 -1      2644 1.00194E-04-5.03195E-05-2.10844E-05-3.97972E-05 3.45547E-18 5.88450E-19
 -1      2645 1.40668E-04-3.08618E-05-4.71964E-05 4.27945E-06-5.12243E-18-6.10838E-18
 -1      2646 2.07403E-05 5.63371E-07-8.53069E-06 1.41823E-05 2.18159E-18-1.19732E-17
 -1      2647 2.56162E-05-2.89334E-06-9.14556E-06-1.01439E-05 5.50095E-19-1.17303E-17
 -1      2648 1.33670E-04-3.89022E-05-4.08088E-05 2.13434E-05 3.35684E-18 4.52766E-18
 -1      2649 1.37965E-04-1.53459E-05-5.29024E-05-8.87527E-06-9.15770E-18-1.88179E-18
 -1      2650 1.32914E-04-1.80995E-05-4.95115E-05-1.07511E-05-8.25476E-18-7.21460E-19
 -1      2651 1.27407E-04-1.05251E-05-5.05599E-05-9.84197E-06-8.60670E-18-1.56770E-18
 -1      2652 7.66055E-05-3.09791E-05-1.93500E-05 3.95744E-05 1.95538E-18-6.87537E-18
 -1      2653 6.94688E-05-2.46337E-05-1.83834E-05 3.91056E-05 3.30311E-18-7.21476E-18
 -1      2654 8.81018E-05-3.49620E-05-2.28323E-05 3.48364E-05 3.70799E-18-4.76848E-18
 -1      2655 1.45262E-04-2.76481E-05-5.04628E-05-1.16907E-05 7.51234E-18-5.45479E-18
 -1      2656 1.41334E-04-1.65879E-05-5.37905E-05-1.32209E-06 9.55432E-18-2.69965E-18
 -1      2657 1.23910E-04-5.46732E-05-2.94551E-05-1.70685E-05 2.19487E-19-1.44663E-18
 -1      2658 1.33144E-04-7.98986E-06-5.38732E-05-2.15314E-06-9.24515E-18-3.22554E-18
 -1      2659 9.52366E-05-2.85729E-05-2.85702E-05-3.91367E-09-1.99089E-18-4.89323E-19
 -1      2660 4.80497E-05-1.23481E-05-1.47930E-05-2.19815E-05-1.09447E-18-8.79305E-18
 -1      2661 6.52604E-05-2.35793E-05-1.76164E-05-2.76453E-05-1.34890E-18-7.10862E-18
 -1      2662 3.15318E-05 6.74140E-06-1.61318E-05 8.89352E-06 2.24430E-18-9.82728E-18
 -1      2663 3.45744E-05 5.00122E-06-1.65572E-05 1.61195E-05 3.28634E-18-9.50075E-18
 -1      2664 4.25761E-05-1.90358E-06-1.72569E-05 2.56089E-05 4.00988E-18-8.75419E-18
 -1      2665 5.50624E-05-8.68745E-06-1.93847E-05 2.82697E-05 4.41659E-18-7.71112E-18
 -1      2666 7.00836E-05-1.64289E-05-2.25684E-05-1.64308E-05-9.33377E-19-5.61930E-18
 -1      2667 5.47535E-05-8.31593E-06-1.97803E-05-1.56568E-05-5.89376E-19-7.26225E-18
 -1      2668 1.29127E-04-4.84096E-05-3.46828E-05 5.26220E-06 7.52668E-19 2.98106E-18
 -1      2669 1.26267E-04-4.52608E-05-3.44770E-05 2.72914E-06 3.95095E-19 2.50928E-18
 -1      2670 1.39166E-04-3.82794E-05-4.37257E-05-1.58958E-05 4.29065E-18-6.17720E-18
 -1      2671 1.35948E-04-2.87607E-05-4.63326E-05-1.29166E-05 6.28880E-18-5.08664E-18
 -1      2672 1.40623E-04-5.83217E-05-3.56078E-05 6.40574E-06 3.18617E-19-5.32995E-18
 -1      2673 1.32376E-04-5.96847E-05-3.10311E-05 1.55748E-05-1.17494E-18-4.32093E-18
 -1      2674 9.52367E-05-2.85732E-05-2.85701E-05 4.72087E-09 9.47146E-19 2.46014E-19
 -1      2675 9.52372E-05-2.85738E-05-2.85701E-05 4.91475E-09 1.03008E-18-4.00187E-19
 -1      2676 9.52364E-05-2.85731E-05-2.85700E-05 5.26394E-09 3.23797E-19-6.93919E-19
 -1      2677 1.15703E-04-3.68530E-05-3.37850E-05 8.62146E-07 9.89202E-19 9.24277E-19
 -1      2678 8.74416E-05-4.25646E-05-1.91329E-05 3.69461E-05-3.78963E-18 1.34170E-18
 -1      2679 6.91983E-05-3.16707E-05-1.56444E-05 3.44351E-05-3.84066E-18 2.83131E-18
 -1      2680 1.08767E-04-3.00589E-05-3.37658E-05-1.39212E-05-2.73093E-18-7.33622E-19
 -1      2681 1.07274E-04-2.84884E-05-3.37245E-05-1.28171E-05-2.87572E-18-8.83046E-19
 -1      2682 1.05711E-04-2.66102E-05-3.39507E-05-1.13094E-05-3.02511E-18-9.82222E-19
 -1      2683 1.04248E-04-2.48353E-05-3.39825E-05-9.17475E-06-3.13140E-18-1.40495E-18
 -1      2684 1.08437E-04-2.70969E-05-3.48381E-05-1.33648E-05-3.17342E-18-8.54544E-19
 -1      2685 1.02849E-04-2.33063E-05-3.41195E-05-6.15550E-06-3.17744E-18-1.90330E-18
 -1      2686 1.02076E-04-2.25319E-05-3.40748E-05-3.17855E-06-3.11144E-18-2.20666E-18
 -1      2687 1.05369E-04-2.30131E-05-3.53277E-05-8.76489E-06-3.42586E-18-1.52056E-18
 -1      2688 1.01836E-04-2.25666E-05-3.39458E-05 5.08352E-07-3.10697E-18-2.86785E-18
 -1      2689 1.02069E-04-2.34201E-05-3.37483E-05 3.38186E-06-2.89594E-18-3.33362E-18
 -1      2690 1.03669E-04-2.12472E-05-3.53828E-05-1.66438E-06-3.57788E-18-2.69437E-18
 -1      2691 1.03062E-04-2.51404E-05-3.33313E-05 6.21626E-06-2.50495E-18-3.94372E-18
 -1      2692 1.04009E-04-2.71752E-05-3.30080E-05 7.95783E-06-2.01904E-18-4.24577E-18
 -1      2693 1.04498E-04-2.34142E-05-3.47841E-05 5.24064E-06-3.15971E-18-3.87958E-18
 -1      2694 1.05320E-04-2.95327E-05-3.24247E-05 8.93767E-06-1.52582E-18-4.36361E-18
 -1      2695 1.06335E-04-3.16677E-05-3.20678E-05 9.18935E-06-1.16135E-18-4.43843E-18
 -1      2696 1.06947E-04-2.83863E-05-3.36518E-05 9.11044E-06-1.82913E-18-4.58443E-18
 -1      2697 1.07002E-04-3.34729E-05-3.14945E-05 8.45996E-06-8.38867E-19-3.97334E-18
 -1      2698 1.07574E-04-3.48718E-05-3.11901E-05 7.57740E-06-2.69623E-19-3.86808E-18
 -1      2699 1.09011E-04-3.34447E-05-3.23426E-05 9.10456E-06-8.67077E-19-4.06839E-18
 -1      2700 1.07291E-04-3.56043E-05-3.07393E-05 5.96105E-06-1.02853E-19-3.57442E-18
 -1      2701 1.07276E-04-3.60525E-05-3.05228E-05 4.57542E-06 1.86724E-19-3.46526E-18
 -1      2702 1.09388E-04-3.65317E-05-3.11946E-05 6.46519E-06 2.71752E-20-3.56722E-18
 -1      2703 1.06307E-04-3.58623E-05-3.02219E-05 2.86466E-06 1.03853E-19-3.32104E-18
 -1      2704 1.05843E-04-3.55919E-05-3.00861E-05 1.48491E-06 1.33764E-19-3.40229E-18
 -1      2705 1.08073E-04-3.72174E-05-3.03629E-05 2.97691E-06 4.82359E-20-3.58967E-18
 -1      2706 1.04599E-04-3.48810E-05-2.99102E-05 1.16177E-07-2.23753E-19-3.33967E-18
 -1      2707 1.03910E-04-3.42461E-05-2.98284E-05-9.81694E-07-2.97971E-19-3.26072E-18
 -1      2708 1.05801E-04-3.61973E-05-2.98452E-05-1.27426E-07-1.43605E-19-3.85687E-18
 -1      2709 1.02711E-04-3.33853E-05-2.97341E-05-1.88632E-06-2.84691E-19-2.99510E-18
 -1      2710 1.01977E-04-3.26677E-05-2.96788E-05-2.62354E-06-1.99303E-19-2.89064E-18
 -1      2711 1.03325E-04-3.44005E-05-2.95612E-05-2.34438E-06-1.58572E-19-2.68628E-18
 -1      2712 1.00976E-04-3.18788E-05-2.96277E-05-3.11144E-06-5.49102E-19-2.53218E-18
 -1      2713 1.00301E-04-3.12367E-05-2.95798E-05-3.51707E-06-5.37111E-19-2.66566E-18
 -1      2714 1.01115E-04-3.25241E-05-2.94175E-05-3.65740E-06-5.70701E-20-2.38165E-18
 -1      2715 9.95366E-05-3.06136E-05-2.95458E-05-3.69005E-06-5.62919E-19-2.69621E-18
 -1      2716 9.89629E-05-3.01090E-05-2.94956E-05-3.83654E-06-6.58753E-19-2.59961E-18
 -1      2717 9.93513E-05-3.09275E-05-2.93422E-05-4.24404E-06-6.26670E-19-2.29713E-18
 -1      2718 9.84118E-05-2.96660E-05-2.94647E-05-3.79732E-06-1.00163E-18-2.42801E-18
 -1      2719 9.79446E-05-2.93038E-05-2.94094E-05-3.76397E-06-9.48802E-19-2.52476E-18
 -1      2720 9.80421E-05-2.97289E-05-2.92902E-05-4.31792E-06-7.98743E-19-2.42392E-18
 -1      2721 9.75630E-05-2.90168E-05-2.93757E-05-3.59695E-06-9.72810E-19-2.35284E-18
 -1      2722 9.71916E-05-2.87761E-05-2.93166E-05-3.45289E-06-7.50842E-19-2.42613E-18
 -1      2723 9.71163E-05-2.89137E-05-2.92389E-05-4.06629E-06-1.00844E-18-2.25482E-18
 -1      2724 9.69344E-05-2.86085E-05-2.92792E-05-3.22047E-06-1.48382E-19-2.21160E-18
 -1      2725 9.66430E-05-2.84607E-05-2.92191E-05-3.01903E-06 4.28925E-19-1.93623E-18
 -1      2726 9.64830E-05-2.84111E-05-2.91800E-05-3.63285E-06-2.86749E-19-1.00505E-18
 -1      2727 9.64725E-05-2.83769E-05-2.91794E-05-2.76410E-06 3.05903E-19-1.45774E-18
 -1      2728 9.62456E-05-2.82950E-05-2.91214E-05-2.54294E-06 4.67123E-19-1.79483E-18
 -1      2729 9.60593E-05-2.81385E-05-2.91133E-05-3.11961E-06 4.12137E-19-1.07606E-18
 -1      2730 9.61337E-05-2.82657E-05-2.90814E-05-2.29297E-06 9.83573E-19-2.04949E-18
 -1      2731 9.59581E-05-2.82277E-05-2.90279E-05-2.07650E-06 8.72206E-19-2.04480E-18
 -1      2732 9.57799E-05-2.80222E-05-2.90421E-05-2.59439E-06 4.27385E-19-1.21094E-18
 -1      2733 9.58847E-05-2.82313E-05-2.89896E-05-1.84750E-06 1.08972E-18-1.62929E-18
 -1      2734 9.57498E-05-2.82208E-05-2.89420E-05-1.64996E-06 1.27015E-18-1.70083E-18
 -1      2735 9.55969E-05-2.80044E-05-2.89705E-05-2.09900E-06 1.27810E-18-1.95168E-18
 -1      2736 9.57015E-05-2.82421E-05-2.89069E-05-1.44992E-06 8.06789E-19-1.61027E-18
 -1      2737 9.55986E-05-2.82475E-05-2.88658E-05-1.27828E-06 3.08397E-19-1.24202E-18
 -1      2738 9.54771E-05-2.80430E-05-2.89020E-05-1.65641E-06 1.36214E-18-1.83974E-18
 -1      2739 9.55665E-05-2.82765E-05-2.88348E-05-1.10979E-06-3.77274E-19-2.01128E-18
 -1      2740 9.54888E-05-2.82902E-05-2.88004E-05-9.66164E-07-2.01307E-19-2.13936E-18
 -1      2741 9.53984E-05-2.81096E-05-2.88394E-05-1.27658E-06-4.22172E-19-1.56752E-18
 -1      2742 9.54672E-05-2.83208E-05-2.87738E-05-8.28450E-07-3.77004E-20-2.15545E-18
 -1      2743 9.54092E-05-2.83378E-05-2.87458E-05-7.11941E-07-1.67409E-19-2.33466E-18
 -1      2744 9.53463E-05-2.81858E-05-2.87842E-05-9.60942E-07-9.26292E-20-1.73247E-18
 -1      2745 9.53945E-05-2.83667E-05-2.87235E-05-6.02296E-07-1.36314E-19-1.99873E-18
 -1      2746 9.53518E-05-2.83840E-05-2.87012E-05-5.10318E-07 1.15696E-19-2.11688E-18
 -1      2747 9.53114E-05-2.82609E-05-2.87368E-05-7.05749E-07-1.09991E-19-1.78434E-18
 -1      2748 9.53416E-05-2.84095E-05-2.86831E-05-4.25103E-07 5.46629E-19-2.25268E-18
 -1      2749 9.53108E-05-2.84256E-05-2.86657E-05-3.54298E-07 4.03559E-19-1.79509E-18
 -1      2750 9.52877E-05-2.83289E-05-2.86974E-05-5.04452E-07 5.10776E-19-1.15917E-18
 -1      2751 9.53036E-05-2.84469E-05-2.86512E-05-2.89600E-07 4.87016E-19-1.61460E-18
 -1      2752 9.52819E-05-2.84609E-05-2.86380E-05-2.36421E-07 3.04306E-19-1.72951E-18
 -1      2753 9.52714E-05-2.83873E-05-2.86652E-05-3.49318E-07 5.44692E-19-1.02369E-18
 -1      2754 9.52768E-05-2.84782E-05-2.86267E-05-1.88454E-07 3.15552E-19-8.10286E-19
 -1      2755 9.52618E-05-2.84899E-05-2.86168E-05-1.49518E-07 7.31536E-19 4.62536E-19
 -1      2756 9.52600E-05-2.84354E-05-2.86396E-05-2.32480E-07 9.03587E-19-4.05321E-20
 -1      2757 9.52582E-05-2.85034E-05-2.86082E-05-1.14852E-07 8.01545E-19 4.85282E-19
 -1      2758 9.52483E-05-2.85130E-05-2.86011E-05-8.71303E-08 1.29308E-18 9.82242E-19
 -1      2759 9.52521E-05-2.84738E-05-2.86197E-05-1.46565E-07 8.92346E-19 7.88143E-19
 -1      2760 9.52457E-05-2.85233E-05-2.85946E-05-6.27918E-08 1.07787E-18 1.47493E-19
 -1      2761 9.52395E-05-2.85308E-05-2.85896E-05-4.36871E-08 1.12635E-18-2.42536E-20
 -1      2762 9.52466E-05-2.85036E-05-2.86045E-05-8.50204E-08 7.58760E-19 8.10417E-20
 -1      2763 9.52377E-05-2.85385E-05-2.85849E-05-2.71873E-08 7.41120E-19 2.20404E-19
 -1      2764 9.52340E-05-2.85443E-05-2.85814E-05-1.45495E-08 1.29385E-19-3.03411E-19
 -1      2765 9.52427E-05-2.85261E-05-2.85931E-05-4.22518E-08 9.57049E-19-5.30340E-19
 -1      2766 9.52328E-05-2.85498E-05-2.85781E-05-3.86341E-09-7.81463E-20-6.46835E-20
 -1      2767 9.52309E-05-2.85542E-05-2.85758E-05 4.03925E-09-5.99875E-19 6.61037E-20
 -1      2768 9.52401E-05-2.85427E-05-2.85848E-05-1.36270E-08 1.80420E-20-4.62618E-19
 -1      2769 9.52301E-05-2.85580E-05-2.85735E-05 1.05190E-08-7.89171E-19 5.70687E-19
 -1      2770 9.52295E-05-2.85612E-05-2.85721E-05 1.50469E-08-6.56545E-19 1.51184E-18
 -1      2771 9.52383E-05-2.85546E-05-2.85789E-05 4.58858E-09-1.68514E-19 3.43110E-19
 -1      2772 9.52289E-05-2.85639E-05-2.85706E-05 1.85677E-08-3.00713E-21 2.02136E-18
 -1      2773 9.52291E-05-2.85661E-05-2.85698E-05 2.07650E-08 3.54515E-19 2.49255E-18
 -1      2774 9.52372E-05-2.85629E-05-2.85748E-05 1.53361E-08 1.46323E-20 2.05836E-18
 -1      2775 9.52288E-05-2.85678E-05-2.85689E-05 2.22735E-08-3.19957E-19 1.47433E-18
 -1      2776 9.52294E-05-2.85694E-05-2.85685E-05 2.29235E-08-2.04247E-19 8.31987E-19
 -1      2777 9.52365E-05-2.85684E-05-2.85721E-05 2.08814E-08-3.80291E-19 7.75833E-19
 -1      2778 9.52292E-05-2.85704E-05-2.85680E-05 2.31226E-08-2.58675E-19 8.70342E-19
 -1      2779 9.52301E-05-2.85715E-05-2.85679E-05 2.27990E-08-5.88334E-19 5.31309E-19
 -1      2780 9.52361E-05-2.85719E-05-2.85704E-05 2.29321E-08-2.61791E-19 4.08279E-19
 -1      2781 9.52300E-05-2.85720E-05-2.85677E-05 2.21975E-08-1.31796E-19-3.73425E-20
 -1      2782 9.52309E-05-2.85727E-05-2.85678E-05 2.13096E-08 8.70785E-19 2.74866E-19
 -1      2783 9.52359E-05-2.85739E-05-2.85695E-05 2.27459E-08-4.17905E-21 2.09145E-19
 -1      2784 9.52309E-05-2.85730E-05-2.85677E-05 2.02658E-08 5.26069E-19 2.74594E-19
 -1      2785 9.52319E-05-2.85734E-05-2.85679E-05 1.90959E-08-5.65923E-19 8.99769E-19
 -1      2786 9.52359E-05-2.85750E-05-2.85690E-05 2.12263E-08 6.07864E-19-7.79851E-19
 -1      2787 9.52319E-05-2.85734E-05-2.85679E-05 1.78535E-08-1.34305E-18 2.17537E-20
 -1      2788 9.52328E-05-2.85736E-05-2.85682E-05 1.65883E-08-1.86026E-18-2.82381E-19
 -1      2789 9.52360E-05-2.85754E-05-2.85688E-05 1.90027E-08-1.19372E-18-2.29248E-18
 -1      2790 9.52329E-05-2.85735E-05-2.85683E-05 1.53048E-08-1.70116E-18 4.16764E-19
 -1      2791 9.52337E-05-2.85736E-05-2.85686E-05 1.40600E-08-9.91320E-19-2.28930E-19
 -1      2792 9.52361E-05-2.85753E-05-2.85689E-05 1.64967E-08-1.56244E-18-2.83058E-18
 -1      2793 9.52337E-05-2.85735E-05-2.85687E-05 1.28296E-08-1.04449E-18-2.46857E-19
 -1      2794 9.52344E-05-2.85735E-05-2.85690E-05 1.16692E-08-3.88937E-20-1.29394E-19
 -1      2795 9.52362E-05-2.85751E-05-2.85691E-05 1.39758E-08-8.79853E-19-8.46140E-19
 -1      2796 9.52345E-05-2.85733E-05-2.85691E-05 1.05406E-08 9.38740E-19 4.52081E-19
 -1      2797 9.52351E-05-2.85734E-05-2.85693E-05 9.49173E-09 6.73753E-19 3.84636E-19
 -1      2798 9.52364E-05-2.85747E-05-2.85693E-05 1.15927E-08 2.81860E-19-2.56680E-19
 -1      2799 9.52352E-05-2.85732E-05-2.85695E-05 8.48403E-09 5.95468E-20 8.68525E-19
 -1      2800 9.52358E-05-2.85732E-05-2.85697E-05 7.55333E-09-5.71730E-19-9.55657E-19
 -1      2801 9.52366E-05-2.85743E-05-2.85696E-05 9.42706E-09 1.17967E-19-6.89821E-19
 -1      2802 9.52359E-05-2.85731E-05-2.85697E-05 6.78182E-09-1.59114E-19-1.12385E-18
 -1      2803 9.52363E-05-2.85732E-05-2.85699E-05 5.93412E-09 3.24069E-20-9.48138E-19
 -1      2804 9.52370E-05-2.85738E-05-2.85699E-05 6.14974E-09 4.02401E-19 8.39974E-19
 -1      2805 9.52368E-05-2.85741E-05-2.85698E-05 7.63387E-09-3.48173E-19-1.46995E-19
 -1      2806 1.35110E-04-2.86966E-05-4.62689E-05-1.00898E-05-6.48107E-18 6.41627E-20
 -1      2807 1.33559E-04-3.59628E-05-4.19465E-05-6.02301E-06-4.44025E-18 6.19499E-19
 -1      2808 1.10179E-04-3.75055E-05-3.10258E-05 1.23657E-05-1.24396E-18-2.70932E-18
 -1      2809 1.13399E-04-4.05921E-05-3.12170E-05 1.07979E-05-1.55611E-18-3.26665E-18
 -1      2810 1.04873E-04-3.25929E-05-3.09268E-05 1.29264E-05-7.26062E-20-1.48077E-18
 -1      2811 1.07202E-04-3.47838E-05-3.10400E-05 1.25654E-05-4.19728E-19-2.00937E-18
 -1      2812 1.04479E-04-3.55303E-05-2.96878E-05 1.50686E-05-1.26759E-18-2.47157E-18
 -1      2813 1.01766E-04-2.97609E-05-3.08427E-05 1.19871E-05 1.23039E-19-8.92419E-19
 -1      2814 1.03345E-04-3.10313E-05-3.09775E-05 1.23236E-05 2.49935E-19-9.52708E-19
 -1      2815 1.00143E-04-3.05818E-05-2.98724E-05 1.41613E-05-1.17969E-19-1.03708E-18
 -1      2816 9.99496E-05-2.83626E-05-3.06793E-05 1.04466E-05 2.49962E-19-9.37689E-19
 -1      2817 1.01041E-04-2.90217E-05-3.08467E-05 1.11188E-05 1.92209E-19-9.54714E-19
 -1      2818 9.80148E-05-2.80288E-05-3.00188E-05 1.24992E-05 7.68734E-20-3.83832E-19
 -1      2819 9.88283E-05-2.77989E-05-3.04465E-05 8.74659E-06 1.80555E-19-6.37559E-19
 -1      2820 9.96252E-05-2.81031E-05-3.06314E-05 9.52503E-06 4.19825E-19-8.79883E-19
 -1      2821 9.70299E-05-2.69367E-05-3.00469E-05 1.06242E-05 2.77804E-19-7.68232E-19
 -1      2822 9.80628E-05-2.76621E-05-3.01786E-05 7.11932E-06 8.93355E-20-2.80631E-19
 -1      2823 9.86757E-05-2.77804E-05-3.03630E-05 7.87746E-06 2.20640E-19-2.70236E-19
 -1      2824 9.65845E-05-2.66534E-05-2.99705E-05 8.79449E-06 6.00097E-20-6.87470E-19
 -1      2825 9.74849E-05-2.77161E-05-2.99074E-05 5.67164E-06-3.23087E-19-4.75383E-19
 -1      2826 9.79724E-05-2.77454E-05-3.00780E-05 6.34884E-06-9.92592E-20-6.45375E-19
 -1      2827 9.63574E-05-2.67562E-05-2.98273E-05 7.12941E-06 2.57442E-19-2.86133E-19
 -1      2828 9.70185E-05-2.78381E-05-2.96540E-05 4.44025E-06-9.01142E-19-5.59190E-19
 -1      2829 9.74116E-05-2.78293E-05-2.98039E-05 5.01500E-06-3.70624E-19-1.94908E-19
 -1      2830 9.62030E-05-2.70089E-05-2.96533E-05 5.67892E-06-4.81933E-19-4.91908E-19
 -1      2831 9.66315E-05-2.79709E-05-2.94300E-05 3.42397E-06-1.17869E-18-8.94647E-19
 -1      2832 9.69482E-05-2.79484E-05-2.95567E-05 3.89586E-06-7.82667E-19-5.91438E-19
 -1      2833 9.60664E-05-2.72927E-05-2.94741E-05 4.45400E-06-7.91774E-19-1.18031E-19
 -1      2834 9.63100E-05-2.80914E-05-2.92395E-05 2.60337E-06-8.37815E-19-1.29520E-18
 -1      2835 9.65627E-05-2.80660E-05-2.93436E-05 2.98193E-06-1.25778E-18-1.33214E-18
 -1      2836 9.59334E-05-2.75552E-05-2.93055E-05 3.44357E-06-9.53380E-19-1.11426E-18
 -1      2837 9.60461E-05-2.81927E-05-2.90822E-05 1.95198E-06 5.45812E-19-1.00346E-18
 -1      2838 9.62451E-05-2.81688E-05-2.91657E-05 2.25038E-06-1.58517E-20-1.46612E-18
 -1      2839 9.58056E-05-2.77783E-05-2.91557E-05 2.62563E-06-3.81511E-19-1.61173E-18
 -1      2840 9.58336E-05-2.82749E-05-2.89552E-05 1.44224E-06 8.91873E-19-9.07032E-19
 -1      2841 9.59878E-05-2.82538E-05-2.90209E-05 1.67410E-06 9.78672E-19-6.38240E-19
 -1      2842 9.56878E-05-2.79598E-05-2.90277E-05 1.97391E-06 6.83148E-19-2.09122E-18
 -1      2843 9.56657E-05-2.83405E-05-2.88547E-05 1.04848E-06-4.79548E-20-1.53634E-18
 -1      2844 9.57833E-05-2.83224E-05-2.89056E-05 1.22634E-06 8.08818E-19-4.22078E-19
 -1      2845 9.55841E-05-2.81041E-05-2.89215E-05 1.46189E-06 7.85608E-19-1.89966E-19
 -1      2846 9.55361E-05-2.83926E-05-2.87765E-05 7.48116E-07 1.54029E-19-1.88252E-18
 -1      2847 9.56241E-05-2.83772E-05-2.88153E-05 8.82842E-07-3.39309E-19-2.13964E-18
 -1      2848 9.54965E-05-2.82172E-05-2.88354E-05 1.06490E-06-6.28121E-20-9.95083E-19
 -1      2849 9.54381E-05-2.84337E-05-2.87166E-05 5.21933E-07-6.03388E-19-1.12634E-18
 -1      2850 9.55027E-05-2.84207E-05-2.87457E-05 6.22669E-07-1.73589E-19-1.49873E-18
 -1      2851 9.54250E-05-2.83052E-05-2.87670E-05 7.61068E-07-3.53991E-19-8.13373E-19
 -1      2852 9.53658E-05-2.84662E-05-2.86716E-05 3.53978E-07-2.59224E-19-1.42174E-18
 -1      2853 9.54122E-05-2.84552E-05-2.86930E-05 4.28233E-07-1.66798E-20-1.10344E-18
 -1      2854 9.53687E-05-2.83732E-05-2.87135E-05 5.31646E-07-5.94041E-19-1.28409E-18
 -1      2855 9.53137E-05-2.84917E-05-2.86382E-05 2.31204E-07-2.45716E-20-2.17391E-18
 -1      2856 9.53462E-05-2.84826E-05-2.86537E-05 2.85056E-07-8.59885E-19-1.79082E-18
 -1      2857 9.53255E-05-2.84254E-05-2.86724E-05 3.60907E-07-2.06073E-19-1.63019E-18
 -1      2858 9.52773E-05-2.85117E-05-2.86139E-05 1.43076E-07 1.04793E-18-1.51166E-18
 -1      2859 9.52993E-05-2.85042E-05-2.86249E-05 1.81390E-07 9.57096E-19-1.63010E-18
 -1      2860 9.52933E-05-2.84653E-05-2.86413E-05 2.35878E-07-7.38650E-20-1.74425E-18
 -1      2861 9.52528E-05-2.85273E-05-2.85967E-05 8.11872E-08 7.60691E-19-1.54880E-18
 -1      2862 9.52670E-05-2.85211E-05-2.86043E-05 1.07815E-07 1.74264E-18-1.33930E-18
 -1      2863 9.52701E-05-2.84956E-05-2.86182E-05 1.46013E-07 9.52946E-19-1.11529E-18
 -1      2864 9.52369E-05-2.85393E-05-2.85847E-05 3.88974E-08-2.54972E-19-2.05815E-18
 -1      2865 9.52457E-05-2.85343E-05-2.85898E-05 5.68577E-08 1.28085E-19-1.75291E-18
 -1      2866 9.52538E-05-2.85183E-05-2.86014E-05 8.28428E-08 4.06361E-19-9.97976E-19
 -1      2867 9.52274E-05-2.85485E-05-2.85767E-05 1.10200E-08-1.82770E-19-2.06784E-18
 -1      2868 9.52322E-05-2.85445E-05-2.85799E-05 2.26552E-08-3.79022E-19-1.42683E-18
 -1      2869 9.52429E-05-2.85352E-05-2.85894E-05 3.96491E-08-5.52810E-19-1.50433E-18
 -1      2870 9.52223E-05-2.85555E-05-2.85715E-05-6.44977E-09-1.30133E-18-1.72546E-18
 -1      2871 9.52245E-05-2.85523E-05-2.85734E-05 6.56733E-10-4.90922E-19-1.93846E-18
 -1      2872 9.52360E-05-2.85476E-05-2.85810E-05 1.11645E-08-4.87385E-19-1.26608E-18
 -1      2873 9.52202E-05-2.85607E-05-2.85684E-05-1.65653E-08 1.38545E-20-1.60017E-18
 -1      2874 9.52206E-05-2.85582E-05-2.85694E-05-1.26269E-08-1.07625E-18-2.06784E-18
 -1      2875 9.52318E-05-2.85565E-05-2.85753E-05-6.68838E-09-9.81877E-19-2.15743E-18
 -1      2876 9.52200E-05-2.85644E-05-2.85667E-05-2.16224E-08 6.96285E-19-6.75122E-19
 -1      2877 9.52194E-05-2.85625E-05-2.85671E-05-1.98360E-08 5.44039E-19-9.03262E-19
 -1      2878 9.52297E-05-2.85628E-05-2.85717E-05-1.70245E-08-4.18188E-19-2.38944E-18
 -1      2879 9.52211E-05-2.85671E-05-2.85660E-05-2.33202E-08 4.23541E-19 1.10376E-18
 -1      2880 9.52198E-05-2.85657E-05-2.85660E-05-2.29394E-08 4.13896E-19 2.46198E-19
 -1      2881 9.52289E-05-2.85671E-05-2.85695E-05-2.21888E-08-3.44170E-19-4.95015E-19
 -1      2882 9.52227E-05-2.85690E-05-2.85659E-05-2.28931E-08 5.87401E-19 1.58650E-18
 -1      2883 9.52212E-05-2.85680E-05-2.85656E-05-2.33801E-08 9.05135E-19 1.93790E-18
 -1      2884 9.52290E-05-2.85699E-05-2.85682E-05-2.39182E-08 3.56566E-19 1.62928E-18
 -1      2885 9.52247E-05-2.85703E-05-2.85662E-05-2.12186E-08-1.19583E-19 1.53007E-18
 -1      2886 9.52231E-05-2.85695E-05-2.85658E-05-2.21949E-08 3.85420E-19 1.47295E-18
 -1      2887 9.52296E-05-2.85717E-05-2.85677E-05-2.34752E-08 4.58566E-19 8.81036E-19
 -1      2888 9.52267E-05-2.85711E-05-2.85667E-05-1.89032E-08-4.55443E-19 3.35486E-19
 -1      2889 9.52252E-05-2.85706E-05-2.85663E-05-2.01105E-08-2.30841E-19 1.08844E-18
 -1      2890 9.52304E-05-2.85728E-05-2.85676E-05-2.17572E-08-2.61008E-19 1.08440E-18
 -1      2891 9.52287E-05-2.85717E-05-2.85673E-05-1.63504E-08-6.40817E-20-1.50900E-18
 -1      2892 9.52272E-05-2.85713E-05-2.85669E-05-1.76200E-08-6.23307E-19 1.48604E-19
 -1      2893 9.52314E-05-2.85733E-05-2.85678E-05-1.93841E-08 9.55233E-20 5.19374E-19
 -1      2894 9.52304E-05-2.85720E-05-2.85679E-05-1.38137E-08-5.69632E-19-1.84938E-18
 -1      2895 9.52291E-05-2.85717E-05-2.85675E-05-1.50426E-08-2.16888E-21-1.68424E-18
 -1      2896 9.52324E-05-2.85735E-05-2.85681E-05-1.67677E-08 3.83118E-19-6.02528E-19
 -1      2897 9.52320E-05-2.85721E-05-2.85685E-05-1.14373E-08 1.24435E-18-2.11323E-18
 -1      2898 9.52309E-05-2.85719E-05-2.85681E-05-1.25703E-08-1.28968E-19-2.43932E-18
 -1      2899 9.52333E-05-2.85735E-05-2.85685E-05-1.41664E-08 7.07814E-20-1.49803E-18
 -1      2900 9.52333E-05-2.85722E-05-2.85690E-05-9.28800E-09 2.87861E-18-2.77703E-18
 -1      2901 9.52324E-05-2.85721E-05-2.85687E-05-1.03037E-08 2.46921E-18-3.37022E-18
 -1      2902 9.52342E-05-2.85734E-05-2.85689E-05-1.17269E-08 2.12283E-18-3.81757E-18
 -1      2903 9.52344E-05-2.85723E-05-2.85695E-05-7.37558E-09 1.74988E-18-1.65510E-18
 -1      2904 9.52337E-05-2.85722E-05-2.85692E-05-8.27701E-09 2.49558E-18-1.80613E-18
 -1      2905 9.52349E-05-2.85732E-05-2.85693E-05-9.51737E-09 1.91116E-18-1.94198E-18
 -1      2906 9.52354E-05-2.85724E-05-2.85699E-05-5.67609E-09 1.49657E-18-2.02273E-18
 -1      2907 9.52348E-05-2.85723E-05-2.85697E-05-6.47125E-09 1.62182E-18-5.39339E-19
 -1      2908 9.52356E-05-2.85731E-05-2.85696E-05-7.54877E-09 1.16507E-18-1.29130E-18
 -1      2909 9.52363E-05-2.85727E-05-2.85701E-05-4.41338E-09-9.31453E-19-1.08168E-18
 -1      2910 9.52358E-05-2.85726E-05-2.85700E-05-5.15702E-09 8.10035E-19-1.96859E-18
 -1      2911 9.52364E-05-2.85733E-05-2.85699E-05-6.05250E-09 1.05427E-18-3.51755E-19
 -1      2912 9.52370E-05-2.85736E-05-2.85700E-05-4.93531E-09-7.02584E-20 7.25178E-19
 -1      2913 9.52416E-05-2.85785E-05-2.85699E-05-4.80001E-10-5.11977E-19 2.76636E-18
 -1      2914 9.52415E-05-2.85784E-05-2.85699E-05-1.32787E-09 1.30134E-19 2.42562E-18
 -1      2915 9.52405E-05-2.85774E-05-2.85699E-05-3.76542E-09 4.95223E-19 1.71633E-18
 -1      2916 9.52401E-05-2.85769E-05-2.85699E-05-4.29770E-09 1.22471E-18 1.88402E-18
 -1      2917 9.52415E-05-2.85784E-05-2.85699E-05 1.36135E-09 2.23594E-21 1.51542E-18
 -1      2918 9.52416E-05-2.85785E-05-2.85699E-05 5.14863E-10-4.72341E-19 1.95063E-18
 -1      2919 9.52422E-05-2.85789E-05-2.85700E-05 2.02785E-11-1.25434E-18 1.99119E-18
 -1      2920 9.52413E-05-2.85781E-05-2.85699E-05-2.26376E-09 2.99765E-19 1.97081E-18
 -1      2921 9.52410E-05-2.85778E-05-2.85699E-05-3.00468E-09-1.34475E-19 2.52326E-18
 -1      2922 9.52413E-05-2.85779E-05-2.85700E-05-3.78038E-09-3.76212E-19 1.47221E-18
 -1      2923 9.52420E-05-2.85786E-05-2.85700E-05-2.00112E-09-1.42272E-19 2.57702E-18
 -1      2924 9.52410E-05-2.85778E-05-2.85699E-05 3.00663E-09 8.00768E-19-1.35421E-19
 -1      2925 9.52413E-05-2.85781E-05-2.85699E-05 2.27995E-09-1.41852E-20 1.63212E-18
 -1      2926 9.52420E-05-2.85786E-05-2.85700E-05 2.02238E-09 9.24511E-22 1.64973E-18
 -1      2927 9.52401E-05-2.85769E-05-2.85699E-05 4.30278E-09 3.86328E-19-1.02521E-18
 -1      2928 9.52405E-05-2.85774E-05-2.85699E-05 3.76646E-09 8.95033E-19-8.58027E-19
 -1      2929 9.52412E-05-2.85779E-05-2.85700E-05 3.78313E-09 4.66232E-19-2.99238E-19
 -1      2930 9.52389E-05-2.85756E-05-2.85700E-05 5.07216E-09-1.96176E-19-5.86952E-19
 -1      2931 9.52395E-05-2.85762E-05-2.85699E-05 4.77946E-09 8.97261E-19-9.15430E-19
 -1      2932 9.52401E-05-2.85768E-05-2.85700E-05 5.08919E-09 1.25985E-18-7.53435E-19
 -1      2933 9.52378E-05-2.85744E-05-2.85700E-05 5.00743E-09 4.66811E-19-7.36917E-19
 -1      2934 1.40781E-04-5.50183E-05-3.65671E-05 4.88670E-06 1.25885E-18 3.07579E-18
 -1      2935 1.44587E-04-5.11114E-05-4.06969E-05 1.26008E-05 2.91917E-18 3.74060E-18
 -1      2936 1.38032E-04-4.81766E-05-3.85344E-05 1.65123E-05 2.16774E-18 4.68364E-18
 -1      2937 1.36990E-04-5.10448E-05-3.69212E-05 1.18534E-05 1.25645E-18 4.23231E-18
 -1      2938 1.29884E-04-1.73945E-05-4.87393E-05 7.62313E-06-6.76525E-18-5.78809E-18
 -1      2939 1.28113E-04-1.23680E-05-5.02976E-05 4.97159E-06-7.65485E-18-5.10623E-18
 -1      2940 1.30490E-04-4.33989E-05-3.78663E-05 2.15419E-06-1.98539E-18 2.25734E-19
 -1      2941 1.24570E-04-4.49831E-05-3.41281E-05 9.93385E-06-5.73865E-20-4.51839E-19
 -1      2942 2.62444E-05 2.16680E-06-1.16922E-05 2.00268E-05 2.80331E-18-1.08947E-17
 -1      2943 2.20135E-05 4.37480E-06-1.08279E-05 7.93868E-06 2.18062E-18-1.12317E-17
 -1      2944 4.93796E-05-2.03890E-05-1.20951E-05 2.71746E-05-2.79034E-18 4.30208E-18
 -1      2945 3.62293E-05-1.33107E-05-9.10936E-06 1.53767E-05-1.62694E-18 5.47459E-18
 -1      2946 1.12348E-04-3.81155E-05-3.18938E-05-3.15195E-06 2.21880E-19 2.37381E-19
 -1      2947 1.35834E-04-4.54695E-05-3.89673E-05-1.28030E-05 1.90815E-18-6.25804E-18
 -1      2948 1.43263E-04-4.59879E-05-4.20552E-05-1.06915E-05 3.00951E-18-6.56218E-18
 -1      2949 1.43275E-04-5.53089E-05-3.78562E-05-2.38094E-06 8.59811E-19-6.06412E-18
 -1      2950 1.35779E-04-5.03038E-05-3.67961E-05-9.62142E-06 2.17899E-19-6.19377E-18
 -1      2951 1.18372E-04-4.44903E-05-3.15017E-05 9.07660E-06-1.84339E-18-4.07835E-18
 -1      2952 1.22254E-04-4.76578E-05-3.20352E-05 5.68308E-06-1.70958E-18-4.17554E-18
 -1      2953 1.12188E-04-4.28450E-05-2.98871E-05 1.37112E-05-2.20106E-18-3.45754E-18
 -1      2954 1.28265E-04-5.05966E-05-3.31631E-05 1.33289E-06-1.43671E-18-5.04514E-18
 -1      2955 1.31255E-04-5.11420E-05-3.44794E-05-3.52781E-06-5.69702E-19-5.39965E-18
 -1      2956 1.34488E-04-5.38309E-05-3.47215E-05-1.37054E-06-6.14847E-19-6.12601E-18
 -1      2957 1.23408E-04-5.07882E-05-3.12608E-05 8.54856E-06-2.16463E-18-4.47674E-18
 -1      2958 1.10247E-04-3.11757E-05-3.39488E-05-1.47572E-05-2.73751E-18-8.77442E-19
 -1      2959 1.09462E-04-3.08939E-05-3.36760E-05-1.41476E-05-2.66054E-18-8.34892E-19
 -1      2960 1.10828E-04-3.04991E-05-3.43775E-05-1.49651E-05-2.81789E-18-7.98828E-19
 -1      2961 1.18018E-04-4.48964E-05-3.14967E-05 1.81218E-05 8.79326E-19-1.24948E-18
 -1      2962 1.06413E-04-4.14968E-05-2.77194E-05 2.50297E-05 2.30139E-18-2.50518E-18
 -1      2963 1.20834E-04-4.38663E-05-3.28798E-05 8.52665E-06 1.15729E-18-6.55815E-19
 -1      2964 1.21257E-04-5.54371E-05-2.79442E-05-2.56917E-05 2.31992E-18-3.45028E-18
 -1      2965 1.30011E-04-5.52326E-05-3.24549E-05-1.71614E-05 9.54288E-19-5.25796E-18
 -1      2966 1.16325E-04-5.10477E-05-2.76634E-05-1.71368E-05-1.22534E-18-1.11700E-18
 -1      2967 1.31528E-04-5.63011E-05-3.26169E-05-8.11422E-06 2.79097E-19 1.10474E-18
 -1      2968 1.20753E-04-5.79695E-05-2.71172E-05 2.63452E-05-2.60325E-18-2.76224E-18
 -1      2969 1.05256E-04-5.14853E-05-2.27079E-05 3.22224E-05-3.69020E-18-1.27648E-18
 -1      2970 1.05301E-04-3.16223E-05-3.15145E-05 3.51186E-06 1.52997E-18-2.99572E-18
 -1      2971 1.08216E-04-3.22099E-05-3.26607E-05-1.33731E-06 5.30911E-19-2.93275E-18
 -1      2972 3.54820E-05-1.39675E-05-8.67555E-06-2.03831E-05 1.80466E-18 7.42255E-18
 -1      2973 4.47020E-05-2.00334E-05-1.02747E-05-3.16437E-05 2.81130E-18 7.11169E-18
 -1      2974 8.33476E-05-3.44670E-05-2.05932E-05-2.65756E-05-1.94182E-18-4.94937E-18
 -1      2975 9.98060E-05-4.38352E-05-2.40122E-05-2.50706E-05-1.40639E-18-3.33011E-18
 -1      2976 2.48774E-05 2.91036E-06-1.13869E-05-2.70994E-06 8.03120E-19-1.11302E-17
 -1      2977 3.33686E-05-2.59352E-06-1.28635E-05-1.43214E-05 1.37855E-19-1.02773E-17
 -1      2978 9.40677E-05-4.67214E-05-1.98370E-05-3.91397E-05 4.49457E-18 1.03852E-18
 -1      2979 1.07951E-04-5.24291E-05-2.40052E-05-3.48493E-05 3.44393E-18-1.12346E-18
 -1      2980 1.25497E-04-8.85232E-06-5.05467E-05 1.16536E-06-8.17175E-18-4.10006E-18
 -1      2981 1.22124E-04-8.02271E-06-4.96303E-05-3.95403E-06-8.24121E-18-2.96479E-18
 -1      2982 1.19850E-04-1.16413E-05-4.66929E-05 3.54342E-06-6.76081E-18-4.67470E-18
 -1      2983 2.94513E-05-1.04911E-05-7.74132E-06 3.79965E-06-6.54915E-19 6.20706E-18
 -1      2984 2.96546E-05-1.08735E-05-7.56014E-06-9.30874E-06 2.95747E-19 6.93127E-18
 -1      2985 1.34692E-04-3.51591E-05-4.28720E-05 6.38325E-06-3.52980E-18-6.82677E-18
 -1      2986 1.33412E-04-2.60188E-05-4.66693E-05 7.93912E-06-5.38427E-18-6.40389E-18
 -1      2987 1.26197E-04-2.28647E-05-4.45852E-05 9.38885E-06-5.08167E-18-6.17635E-18
 -1      2988 1.34488E-04-5.09324E-05-3.57926E-05-6.76596E-06 2.58610E-20-6.28382E-18
 -1      2989 1.35740E-04-4.52720E-05-3.93567E-05-7.49262E-09-1.46412E-18-6.69632E-18
 -1      2990 5.91543E-05-2.90125E-05-1.23804E-05-3.83206E-05 4.07666E-18 5.13058E-18
 -1      2991 7.70365E-05-3.89573E-05-1.62712E-05-4.23456E-05 4.40055E-18 2.89601E-18
 -1      2992 8.81970E-05-4.18576E-05-1.94797E-05-3.77608E-05 4.45592E-18 1.57638E-18
 -1      2993 1.08670E-04-2.75782E-05-3.47404E-05-1.36224E-05-2.49953E-18-2.32301E-18
 -1      2994 1.32666E-04-2.20903E-05-4.82264E-05-9.75008E-06 7.66597E-18-3.91231E-18
 -1      2995 1.09524E-04-3.12993E-05-3.34775E-05-6.09697E-06-1.74502E-19-2.69451E-18
 -1      2996 1.10156E-04-3.08738E-05-3.41474E-05-9.64494E-06-1.17020E-18-2.69676E-18
 -1      2997 1.12237E-04-3.44433E-05-3.33495E-05-4.85407E-06-1.74767E-20-2.04062E-18
 -1      2998 6.11263E-05-1.56607E-05-1.90556E-05 3.28064E-05 4.33443E-18-7.31434E-18
 -1      2999 6.72010E-05-1.48313E-05-2.25121E-05 2.69742E-05 4.49650E-18-5.95030E-18
 -1      3000 1.00854E-04-3.14290E-05-2.94112E-05-8.70326E-06-3.07049E-19-1.78911E-18
 -1      3001 8.74720E-05-2.50007E-05-2.67402E-05-1.23831E-05-7.85107E-19-3.10406E-18
 -1      3002 1.27216E-04-5.76978E-05-2.96188E-05 1.67414E-05-2.69272E-18-4.05004E-18
 -1      3003 1.41239E-04-4.69080E-05-4.06185E-05 1.75876E-05 2.77975E-18 4.46450E-18
 -1      3004 1.44918E-04-4.28277E-05-4.38716E-05 1.84162E-05 4.33310E-18 4.10303E-18
 -1      3005 1.43149E-04-3.47011E-05-4.72217E-05 1.95286E-05 6.07016E-18 3.55309E-18
 -1      3006 1.38058E-04-4.34646E-05-4.11130E-05 2.05177E-05 3.24533E-18 4.81835E-18
 -1      3007 6.70623E-05-2.17789E-05-1.90075E-05 3.54077E-05 4.22553E-18-6.99194E-18
 -1      3008 1.07212E-04-3.96760E-05-2.90943E-05 1.81158E-05 3.01382E-18-1.75021E-18
 -1      3009 9.99497E-05-3.82991E-05-2.61916E-05 2.77936E-05 2.97176E-18-3.48374E-18
 -1      3010 9.10002E-05-3.25393E-05-2.47571E-05 2.88236E-05 3.66659E-18-4.07968E-18
 -1      3011 9.95153E-05-4.61326E-05-2.25416E-05 3.09211E-05-4.16486E-18-9.49153E-19
 -1      3012 1.29265E-04-3.88169E-05-3.88550E-05-5.96477E-06-2.23001E-18 5.51948E-19
 -1      3013 1.31214E-04-2.05546E-05-4.78116E-05 1.25248E-05 7.16908E-18 1.20432E-18
 -1      3014 1.34238E-04-2.80623E-05-4.61179E-05 1.89890E-05 5.85787E-18 2.92459E-18
 -1      3015 9.52377E-05-2.85744E-05-2.85700E-05-5.05462E-09 1.21721E-18-3.79509E-19
 -1      3016 9.52375E-05-2.85742E-05-2.85700E-05-5.64924E-09 1.30461E-18-3.09552E-20
 -1      3017 9.52384E-05-2.85750E-05-2.85700E-05-5.11897E-09 1.27009E-18-3.12704E-19
 -1      3018 5.90434E-05-2.46556E-05-1.41338E-05-3.28181E-05 3.74553E-18 5.10613E-18
 -1      3019 4.61372E-05-6.45636E-06-1.64473E-05-1.55062E-05-4.72433E-19-8.92932E-18
 -1      3020 7.82772E-05-2.78945E-05-2.11911E-05-2.32339E-05-1.92615E-18-5.34435E-18
 -1      3021 1.31915E-04-4.02065E-05-3.94483E-05 5.56883E-06-1.75839E-18-6.86224E-18
 -1      3022 9.52382E-05-2.85750E-05-2.85700E-05 5.61752E-09-2.71669E-19-4.86220E-19
 -1      3023 1.34211E-04-5.39943E-05-3.44376E-05 1.45910E-06 4.50039E-19 2.65582E-18
 -1      3024 1.10321E-04-2.98289E-05-3.44301E-05-1.26645E-05-1.68455E-18-2.38935E-18
 -1      3025 1.10143E-04-2.97482E-05-3.45883E-05-1.49330E-05-2.81019E-18-1.63396E-18
 -1      3026 1.10298E-04-3.08241E-05-3.40777E-05-1.45647E-05-2.69360E-18-1.10817E-18
 -1      3027 1.12328E-04-3.22181E-05-3.43111E-05-1.21462E-05-1.46248E-18-1.82900E-18
 -1      3028 2.97346E-05 4.76602E-06-1.41124E-05 3.32492E-06 1.65895E-18-1.05987E-17
 -1      3029 1.32782E-04-5.13715E-05-3.49867E-05 5.41035E-06 5.29005E-19 3.15959E-18
 -1      3030 3.99409E-05-1.23022E-05-1.12014E-05-1.46078E-05 1.04887E-18 6.53189E-18
 -1      3031 9.96564E-05-3.15623E-05-2.91411E-05 1.35518E-05 2.80048E-18-3.24522E-18
 -1      3032 1.07347E-04-3.62243E-05-3.04412E-05 9.71485E-06 2.06545E-18-2.17989E-18
 -1      3033 6.25535E-05-2.53921E-05-1.53781E-05 3.04489E-05-3.13185E-18 3.24340E-18
 -1      3034 5.72777E-05-1.92363E-05-1.59444E-05 2.36425E-05-2.41748E-18 3.19490E-18
 -1      3035 7.49394E-05-2.99184E-05-1.90520E-05 2.95221E-05-3.90358E-18 1.73478E-18
 -1      3036 3.58291E-05-1.36628E-06-1.42417E-05 2.40739E-05 3.64208E-18-1.00851E-17
 -1      3037 1.30155E-04-5.28824E-05-3.31801E-05-9.77201E-06 1.09173E-18-5.99763E-18
 -1      3038 7.96266E-05-2.07835E-05-2.48084E-05 2.40898E-05 3.85242E-18-5.16551E-18
 -1      3039 1.28906E-04-2.31291E-05-4.57350E-05-1.31399E-05-6.40812E-18-1.05032E-19
 -1      3040 4.01187E-05-1.17793E-05-1.14698E-05 8.92108E-06-1.15623E-18 5.37654E-18
 -1      3041 1.12075E-04-4.15574E-05-3.02539E-05-7.79452E-06-6.83132E-19-9.00601E-20
 -1      3042 1.21970E-04-1.00261E-05-4.85136E-05-7.00081E-06-7.85316E-18-2.24001E-18
 -1      3043 1.20146E-04-1.18677E-05-4.67213E-05-1.03328E-05-7.50588E-18-1.51325E-18
 -1      3044 1.16137E-04-1.02144E-05-4.56963E-05-4.54413E-06-7.01057E-18-2.91974E-18
 -1      3045 1.11646E-04-3.12839E-05-3.43549E-05-1.48319E-05-2.30395E-18-1.10726E-18
 -1      3046 9.52395E-05-2.85763E-05-2.85699E-05-4.70820E-09 2.09643E-18 1.67632E-18
 -1      3047 9.52390E-05-2.85757E-05-2.85700E-05-4.96390E-09 1.09124E-18 4.89351E-19
 -1      3048 9.52389E-05-2.85757E-05-2.85700E-05-5.59686E-09 1.36894E-18 5.67137E-19
 -1      3049 9.52402E-05-2.85769E-05-2.85700E-05-5.00223E-09 1.46075E-18 1.29871E-18
 -1      3050 9.14313E-05-2.81237E-05-2.71898E-05 1.91671E-05 3.86871E-18-3.62880E-18
 -1      3051 1.11325E-04-4.62103E-05-2.75094E-05-1.59188E-05-1.72975E-18-1.24405E-18
 -1      3052 1.15334E-04-5.33882E-05-2.63244E-05-2.70318E-05 3.28966E-18-2.48345E-18
 -1      3053 4.20953E-05 9.94749E-07-1.80422E-05-8.08280E-06 2.87091E-19-8.76012E-18
 -1      3054 3.40698E-05 5.26758E-06-1.66564E-05-1.63777E-06 1.26739E-18-9.55316E-18
 -1      3055 1.33268E-04-1.59860E-05-5.09489E-05 2.21490E-06 8.53513E-18-1.43526E-18
 -1      3056 1.33626E-04-1.84620E-05-5.00347E-05-5.33972E-06 8.45529E-18-3.07049E-18
 -1      3057 1.34965E-04-3.46767E-05-4.30155E-05 2.16078E-05 4.40076E-18 4.36111E-18
 -1      3058 8.08294E-05-2.63291E-05-2.31882E-05-1.90956E-05-1.34202E-18-4.44608E-18
 -1      3059 1.38082E-04-5.59435E-05-3.52728E-05 4.70596E-07-3.48250E-19-6.19949E-18
 -1      3060 1.07889E-04-2.26450E-05-3.66836E-05-1.13265E-05-3.72450E-18-1.20218E-18
 -1      3061 1.06450E-04-2.02747E-05-3.69324E-05-8.32786E-06-3.88265E-18-1.55386E-18
 -1      3062 1.05311E-04-1.88331E-05-3.71360E-05-3.87145E-06-4.11232E-18-2.37993E-18
 -1      3063 1.05063E-04-1.89187E-05-3.70049E-05-5.82019E-08-4.29894E-18-2.92510E-18
 -1      3064 1.07993E-04-1.80410E-05-3.86026E-05-6.93993E-06-4.50523E-18-2.04724E-18
 -1      3065 1.05914E-04-2.05903E-05-3.65423E-05 4.40427E-06-4.01716E-18-3.55162E-18
 -1      3066 1.06965E-04-2.33145E-05-3.60083E-05 7.24054E-06-3.21471E-18-4.00711E-18
 -1      3067 1.07620E-04-1.81485E-05-3.84259E-05 2.46045E-06-4.57821E-18-3.23245E-18
 -1      3068 1.08849E-04-2.69846E-05-3.50345E-05 9.26609E-06-2.35987E-18-4.46752E-18
 -1      3069 1.10234E-04-3.05785E-05-3.42805E-05 1.00406E-05-1.62300E-18-4.68192E-18
 -1      3070 1.10575E-04-2.48002E-05-3.67872E-05 9.06031E-06-3.19920E-18-4.42007E-18
 -1      3071 1.11360E-04-3.38754E-05-3.31856E-05 9.33799E-06-9.60734E-19-4.51495E-18
 -1      3072 1.12091E-04-3.64831E-05-3.24655E-05 8.36781E-06-2.23568E-19-4.32156E-18
 -1      3073 1.13651E-04-3.31005E-05-3.44854E-05 1.00200E-05-1.18341E-18-5.01407E-18
 -1      3074 1.11639E-04-3.80528E-05-3.15630E-05 6.19390E-06-2.29344E-20-4.01842E-18
 -1      3075 1.11383E-04-3.90086E-05-3.10144E-05 4.45946E-06 3.33755E-19-3.99303E-18
 -1      3076 1.14296E-04-3.88917E-05-3.22964E-05 6.58526E-06-1.87629E-20-4.73283E-18
 -1      3077 1.09786E-04-3.89350E-05-3.04062E-05 2.24653E-06 1.03003E-19-3.89133E-18
 -1      3078 1.08825E-04-3.86156E-05-3.00513E-05 5.55763E-07 1.32946E-19-4.02571E-18
 -1      3079 1.12074E-04-4.05147E-05-3.06825E-05 1.94542E-06 1.82147E-19-4.11357E-18
 -1      3080 1.06833E-04-3.76016E-05-2.97052E-05-1.08126E-06 2.78803E-19-3.51787E-18
 -1      3081 1.05581E-04-3.66201E-05-2.95073E-05-2.34563E-06 2.94118E-19-3.37907E-18
 -1      3082 1.08387E-04-3.92200E-05-2.96837E-05-1.87386E-06 4.80580E-19-3.50544E-18
 -1      3083 1.03746E-04-3.53295E-05-2.93420E-05-3.28701E-06-2.01435E-20-2.45048E-18
 -1      3084 1.02535E-04-3.42035E-05-2.92444E-05-4.07289E-06 2.39949E-19-1.96422E-18
 -1      3085 1.04519E-04-3.65806E-05-2.91647E-05-4.28495E-06 8.59309E-19-2.55647E-18
 -1      3086 1.01087E-04-3.30135E-05-2.91832E-05-4.47787E-06 4.51442E-20-1.85896E-18
 -1      3087 1.00074E-04-3.20144E-05-2.91390E-05-4.86334E-06 1.18167E-20-1.97301E-18
 -1      3088 1.01251E-04-3.38104E-05-2.89472E-05-5.44253E-06 1.82266E-19-1.53134E-18
 -1      3089 9.90397E-05-3.10790E-05-2.91277E-05-4.91264E-06-4.47247E-19-2.11221E-18
 -1      3090 9.82655E-05-3.03082E-05-2.91055E-05-5.00815E-06-7.13153E-19-2.37941E-18
 -1      3091 9.88009E-05-3.14719E-05-2.88897E-05-5.74119E-06-4.33695E-19-1.87310E-18
 -1      3092 9.75835E-05-2.96512E-05-2.91115E-05-4.84651E-06-7.25469E-19-2.24640E-18
 -1      3093 9.70254E-05-2.91145E-05-2.90937E-05-4.75286E-06-7.79976E-19-1.99668E-18
 -1      3094 9.71179E-05-2.97398E-05-2.89005E-05-5.51572E-06-6.63623E-19-2.14538E-18
 -1      3095 9.66089E-05-2.86984E-05-2.91001E-05-4.48106E-06-5.91285E-19-1.95953E-18
 -1      3096 9.62224E-05-2.83589E-05-2.90791E-05-4.27692E-06-4.59881E-19-1.34677E-18
 -1      3097 9.60460E-05-2.85844E-05-2.89280E-05-5.00640E-06-5.15123E-19-1.58001E-18
 -1      3098 9.59900E-05-2.81272E-05-2.90789E-05-3.95998E-06-4.80505E-19-9.49735E-19
 -1      3099 9.57295E-05-2.79362E-05-2.90527E-05-3.70207E-06 1.85244E-19-5.00032E-19
 -1      3100 9.54155E-05-2.78947E-05-2.89474E-05-4.36902E-06-4.77585E-20-7.00961E-19
 -1      3101 9.56168E-05-2.78339E-05-2.90445E-05-3.38020E-06 5.17780E-19-4.92995E-19
 -1      3102 9.54442E-05-2.77461E-05-2.90141E-05-3.10711E-06 5.22735E-19-2.97825E-19
 -1      3103 9.50817E-05-2.75456E-05-2.89500E-05-3.69964E-06 2.99423E-19-4.97981E-20
 -1      3104 9.54041E-05-2.77276E-05-2.89992E-05-2.80396E-06 1.02500E-19-2.39507E-19
 -1      3105 9.52909E-05-2.77064E-05-2.89666E-05-2.54031E-06 3.68327E-19-5.14301E-19
 -1      3106 9.49351E-05-2.74266E-05-2.89357E-05-3.05535E-06 2.77266E-19 3.32783E-20
 -1      3107 9.52916E-05-2.77373E-05-2.89472E-05-2.26855E-06 6.99544E-19-1.15348E-18
 -1      3108 9.52174E-05-2.77556E-05-2.89146E-05-2.02865E-06 1.38046E-18-1.20929E-18
 -1      3109 9.48987E-05-2.74509E-05-2.89081E-05-2.46792E-06-5.51304E-20-1.84180E-19
 -1      3110 9.52383E-05-2.78119E-05-2.88928E-05-1.79378E-06 1.63263E-18-1.83226E-18
 -1      3111 9.51896E-05-2.78508E-05-2.88619E-05-1.58464E-06 9.86139E-19-1.89983E-18
 -1      3112 9.49211E-05-2.75553E-05-2.88721E-05-1.95268E-06 8.51740E-19-1.54098E-18
 -1      3113 9.52180E-05-2.79168E-05-2.88398E-05-1.38753E-06 2.61960E-19-1.64850E-18
 -1      3114 9.51858E-05-2.79639E-05-2.88116E-05-1.21127E-06-2.25950E-19-1.19418E-18
 -1      3115 9.49702E-05-2.76968E-05-2.88321E-05-1.51434E-06 1.01081E-18-2.17813E-18
 -1      3116 9.52148E-05-2.80298E-05-2.87905E-05-1.04997E-06-4.87722E-19-6.48375E-19
 -1      3117 9.51932E-05-2.80776E-05-2.87658E-05-9.05569E-07 2.04000E-19-8.58487E-19
 -1      3118 9.50271E-05-2.78477E-05-2.87916E-05-1.15091E-06-7.36830E-20-6.82945E-19
 -1      3119 9.52192E-05-2.81380E-05-2.87465E-05-7.76524E-07 8.18788E-19-9.46617E-19
 -1      3120 9.52045E-05-2.81822E-05-2.87254E-05-6.61138E-07 2.50312E-19-5.71031E-19
 -1      3121 9.50814E-05-2.79917E-05-2.87530E-05-8.56395E-07 3.86319E-19-3.67692E-19
 -1      3122 9.52260E-05-2.82345E-05-2.87085E-05-5.60070E-07-3.95004E-19-3.90607E-19
 -1      3123 9.52158E-05-2.82731E-05-2.86910E-05-4.69980E-07 4.14998E-19-3.61230E-19
 -1      3124 9.51282E-05-2.81201E-05-2.87180E-05-6.22727E-07 6.47089E-19-3.49099E-19
 -1      3125 9.52326E-05-2.83166E-05-2.86766E-05-3.92449E-07 9.63303E-19-3.61615E-19
 -1      3126 9.52254E-05-2.83488E-05-2.86624E-05-3.23669E-07 6.07867E-19 2.34983E-19
 -1      3127 9.51660E-05-2.82294E-05-2.86873E-05-4.41068E-07 6.72602E-19 1.41489E-19
 -1      3128 9.52379E-05-2.83838E-05-2.86504E-05-2.65434E-07 5.19331E-19 3.19185E-19
 -1      3129 9.52328E-05-2.84099E-05-2.86392E-05-2.14103E-07 1.14082E-18 1.01021E-18
 -1      3130 9.51948E-05-2.83190E-05-2.86613E-05-3.02676E-07 1.02827E-18 1.05231E-18
 -1      3131 9.52416E-05-2.84373E-05-2.86294E-05-1.71329E-07 8.05788E-19 1.04021E-18
 -1      3132 9.52381E-05-2.84577E-05-2.86207E-05-1.33936E-07 5.20745E-19 7.39835E-19
 -1      3133 9.52158E-05-2.83904E-05-2.86397E-05-1.99436E-07 7.88297E-19 8.60032E-19
 -1      3134 9.52439E-05-2.84786E-05-2.86130E-05-1.03286E-07-1.58748E-19 8.47785E-19
 -1      3135 9.52414E-05-2.84943E-05-2.86063E-05-7.67743E-08 4.35347E-21 3.94290E-19
 -1      3136 9.52303E-05-2.84457E-05-2.86221E-05-1.24142E-07-1.91066E-19 1.08511E-18
 -1      3137 9.52450E-05-2.85097E-05-2.86003E-05-5.54389E-08 6.61399E-19 2.17493E-19
 -1      3138 9.52432E-05-2.85215E-05-2.85953E-05-3.72376E-08 7.82851E-19-4.68128E-19
 -1      3139 9.52397E-05-2.84875E-05-2.86083E-05-7.06143E-08 4.63245E-20 5.31925E-20
 -1      3140 9.52453E-05-2.85326E-05-2.85907E-05-2.29094E-08 6.33490E-19-4.70921E-21
 -1      3141 9.52440E-05-2.85411E-05-2.85871E-05-1.09151E-08 2.78645E-20-1.58354E-19
 -1      3142 9.52454E-05-2.85183E-05-2.85975E-05-3.36997E-08 8.03024E-19-1.80561E-20
 -1      3143 9.52449E-05-2.85490E-05-2.85837E-05-1.74393E-09 1.34049E-19-2.67536E-19
 -1      3144 9.52441E-05-2.85550E-05-2.85811E-05 5.72261E-09 1.47818E-19 4.48076E-19
 -1      3145 9.52483E-05-2.85404E-05-2.85892E-05-9.20317E-09 5.30403E-19-2.69072E-19
 -1      3146 9.52442E-05-2.85603E-05-2.85786E-05 1.11897E-08-3.70880E-19 7.98525E-19
 -1      3147 9.52436E-05-2.85644E-05-2.85769E-05 1.54395E-08-4.24802E-20 6.18858E-19
 -1      3148 9.52494E-05-2.85558E-05-2.85831E-05 6.21608E-09 6.61938E-20-2.81032E-19
 -1      3149 9.52433E-05-2.85678E-05-2.85751E-05 1.83201E-08-6.13979E-19 4.55123E-19
 -1      3150 9.52430E-05-2.85705E-05-2.85739E-05 2.03548E-08-7.72504E-19 3.04637E-19
 -1      3151 9.52493E-05-2.85660E-05-2.85786E-05 1.51643E-08-8.09393E-19-2.99060E-19
 -1      3152 9.52424E-05-2.85726E-05-2.85727E-05 2.14913E-08-8.33842E-19 3.28748E-19
 -1      3153 9.52422E-05-2.85742E-05-2.85720E-05 2.20598E-08-7.78098E-19-6.85408E-19
 -1      3154 9.52484E-05-2.85725E-05-2.85754E-05 1.96340E-08-8.51740E-19 1.56060E-19
 -1      3155 9.52414E-05-2.85753E-05-2.85712E-05 2.20731E-08 1.75359E-19-4.15875E-19
 -1      3156 9.52414E-05-2.85763E-05-2.85707E-05 2.17222E-08 9.93912E-19-3.01376E-19
 -1      3157 9.52471E-05-2.85763E-05-2.85732E-05 2.11178E-08-2.08013E-19-2.49654E-19
 -1      3158 9.52406E-05-2.85767E-05-2.85702E-05 2.10593E-08 3.05579E-19-1.29179E-19
 -1      3159 9.52406E-05-2.85771E-05-2.85700E-05 2.01778E-08-4.70562E-19-1.47638E-18
 -1      3160 9.52457E-05-2.85783E-05-2.85718E-05 2.07085E-08 7.96477E-19-6.00962E-19
 -1      3161 9.52398E-05-2.85772E-05-2.85697E-05 1.91512E-08-1.25461E-18-8.62887E-19
 -1      3162 9.52399E-05-2.85773E-05-2.85697E-05 1.80068E-08-1.79867E-18-1.59507E-18
 -1      3163 9.52442E-05-2.85790E-05-2.85709E-05 1.91869E-08-7.63906E-19-4.88987E-19
 -1      3164 9.52392E-05-2.85771E-05-2.85695E-05 1.68269E-08-1.71740E-18-1.88970E-18
 -1      3165 9.52393E-05-2.85770E-05-2.85695E-05 1.55958E-08-1.18484E-18-1.35883E-18
 -1      3166 9.52429E-05-2.85789E-05-2.85703E-05 1.70933E-08-1.49316E-18 4.18493E-20
 -1      3167 9.52387E-05-2.85766E-05-2.85695E-05 1.43978E-08-1.11876E-18-2.38938E-18
 -1      3168 9.52388E-05-2.85764E-05-2.85696E-05 1.31885E-08-9.02354E-19-2.14731E-18
 -1      3169 9.52417E-05-2.85784E-05-2.85700E-05 1.47874E-08-1.67881E-18-2.48401E-18
 -1      3170 9.52383E-05-2.85761E-05-2.85695E-05 1.20533E-08 7.77667E-20-9.71732E-19
 -1      3171 9.52384E-05-2.85758E-05-2.85696E-05 1.09249E-08 7.88986E-19-8.84622E-19
 -1      3172 9.52407E-05-2.85776E-05-2.85699E-05 1.24963E-08-1.99885E-21-2.71492E-18
 -1      3173 9.52380E-05-2.85755E-05-2.85697E-05 9.87949E-09 6.58354E-19-3.48337E-19
 -1      3174 9.52381E-05-2.85753E-05-2.85698E-05 8.86865E-09 4.58878E-19-2.45999E-19
 -1      3175 9.52398E-05-2.85768E-05-2.85699E-05 1.03580E-08 1.36036E-18-1.40918E-18
 -1      3176 9.50145E-05-2.75530E-05-2.89043E-05 1.44824E-05-1.37828E-19-9.38399E-19
 -1      3177 9.65730E-05-2.93262E-05-2.87594E-05 1.53064E-05-6.55259E-19-1.45824E-18
 -1      3178 1.12875E-04-3.19842E-05-3.47541E-05-1.50178E-05-2.41346E-18-9.88548E-19
 -1      3179 1.12230E-04-3.06540E-05-3.49681E-05-1.48918E-05-2.77275E-18-8.29254E-19
 -1      3180 9.76947E-05-3.13235E-05-2.83497E-05 1.68875E-05-1.32350E-18-1.81867E-18
 -1      3181 1.00725E-04-3.47515E-05-2.82153E-05 1.73795E-05-1.74706E-18-2.07013E-18
 -1      3182 9.19972E-05-2.83077E-05-2.73273E-05 1.73686E-05-1.21238E-18-1.16180E-18
 -1      3183 9.40958E-05-2.53339E-05-2.94869E-05 1.00708E-05 4.61690E-19-1.04797E-18
 -1      3184 9.44161E-05-2.55851E-05-2.94739E-05 1.09970E-05 4.94175E-19-9.47996E-19
 -1      3185 9.43583E-05-2.54669E-05-2.95421E-05 8.23667E-06-1.37636E-20-1.23874E-18
 -1      3186 9.45022E-05-2.54433E-05-2.95791E-05 9.09509E-06 1.36485E-19-1.02769E-18
 -1      3187 9.19182E-05-2.41068E-05-2.90502E-05 9.46307E-06 3.28901E-19-9.35243E-19
 -1      3188 9.46675E-05-2.58614E-05-2.95035E-05 6.64959E-06 1.89484E-19-1.07590E-18
 -1      3189 9.47481E-05-2.57208E-05-2.95693E-05 7.41209E-06 4.69658E-19-9.72085E-19
 -1      3190 9.27253E-05-2.45391E-05-2.92101E-05 7.70911E-06 7.11663E-20-1.38914E-18
 -1      3191 9.49252E-05-2.63258E-05-2.94123E-05 5.29798E-06-1.08976E-18-5.11351E-19
 -1      3192 9.49893E-05-2.61513E-05-2.94904E-05 5.95388E-06-6.83486E-19-8.11988E-19
 -1      3193 9.34338E-05-2.51488E-05-2.92544E-05 6.22771E-06-5.04309E-19-1.46833E-18
 -1      3194 9.51071E-05-2.67685E-05-2.92980E-05 4.16555E-06-5.17344E-19-1.05121E-18
 -1      3195 9.51695E-05-2.65993E-05-2.93772E-05 4.71575E-06-3.60113E-19-2.77886E-19
 -1      3196 9.39929E-05-2.57746E-05-2.92286E-05 4.97644E-06-6.16371E-19-1.10492E-18
 -1      3197 9.52205E-05-2.71533E-05-2.91794E-05 3.23164E-06-6.54201E-19-1.92461E-18
 -1      3198 9.52828E-05-2.70050E-05-2.92533E-05 3.68377E-06-7.14620E-19-1.52075E-18
 -1      3199 9.44064E-05-2.63420E-05-2.91651E-05 3.92762E-06 1.84291E-21-1.73321E-18
 -1      3200 9.52823E-05-2.74721E-05-2.90675E-05 2.47303E-06 6.27060E-21-2.43050E-18
 -1      3201 9.53420E-05-2.73484E-05-2.91327E-05 2.83815E-06-6.06474E-19-2.36829E-18
 -1      3202 9.46989E-05-2.68252E-05-2.90853E-05 3.05896E-06-3.65586E-19-1.87995E-18
 -1      3203 9.53094E-05-2.77288E-05-2.89676E-05 1.86560E-06 1.06331E-19-1.39969E-18
 -1      3204 9.53638E-05-2.76286E-05-2.90232E-05 2.15599E-06-1.05755E-19-1.84740E-18
 -1      3205 9.48990E-05-2.72219E-05-2.90025E-05 2.34937E-06-3.96625E-19-1.71722E-18
 -1      3206 9.53154E-05-2.79319E-05-2.88820E-05 1.38585E-06-1.58031E-19-7.06910E-20
 -1      3207 9.53626E-05-2.78521E-05-2.89279E-05 1.61360E-06 7.35449E-19-9.91577E-19
 -1      3208 9.50322E-05-2.75402E-05-2.89241E-05 1.77790E-06-2.95550E-19-6.41347E-19
 -1      3209 9.53097E-05-2.80908E-05-2.88106E-05 1.01202E-06-3.48491E-20-1.10791E-18
 -1      3210 9.53492E-05-2.80279E-05-2.88478E-05 1.18825E-06 2.39601E-19-6.91855E-19
 -1      3211 9.51188E-05-2.77918E-05-2.88540E-05 1.32415E-06 3.47223E-19-8.44836E-19
 -1      3212 9.52989E-05-2.82140E-05-2.87525E-05 7.24648E-07-7.83125E-19-8.77569E-19
 -1      3213 9.53306E-05-2.81649E-05-2.87820E-05 8.59194E-07-5.92985E-19-1.02593E-18
 -1      3214 9.51737E-05-2.79884E-05-2.87936E-05 9.68957E-07 4.36415E-20-9.65508E-19
 -1      3215 9.52865E-05-2.83089E-05-2.87060E-05 5.06858E-07-1.72543E-19-1.54682E-18
 -1      3216 9.53113E-05-2.82707E-05-2.87291E-05 6.08137E-07-5.17486E-19-1.39758E-18
 -1      3217 9.52076E-05-2.81406E-05-2.87431E-05 6.94881E-07-1.98348E-19-1.41528E-18
 -1      3218 9.52748E-05-2.83813E-05-2.86696E-05 3.44299E-07-2.24414E-19-1.39102E-18
 -1      3219 9.52936E-05-2.83518E-05-2.86873E-05 4.19375E-07-3.68651E-20-1.46252E-18
 -1      3220 9.52278E-05-2.82575E-05-2.87018E-05 4.86539E-07 1.59194E-19-2.16962E-18
 -1      3221 9.52646E-05-2.84361E-05-2.86415E-05 2.24995E-07-3.78056E-19-1.41151E-18
 -1      3222 9.52785E-05-2.84136E-05-2.86548E-05 2.79699E-07-3.25544E-19-1.48571E-18
 -1      3223 9.52393E-05-2.83463E-05-2.86687E-05 3.30670E-07-2.15801E-19-1.68486E-18
 -1      3224 9.52564E-05-2.84772E-05-2.86201E-05 1.39110E-07 7.87111E-19-3.89087E-19
 -1      3225 9.52663E-05-2.84601E-05-2.86300E-05 1.78183E-07 2.53587E-19-1.61209E-18
 -1      3226 9.52453E-05-2.84132E-05-2.86426E-05 2.16081E-07-2.69748E-19-1.14937E-18
 -1      3227 9.52500E-05-2.85076E-05-2.86042E-05 7.86819E-08 3.30598E-19-1.01261E-18
 -1      3228 9.52568E-05-2.84948E-05-2.86114E-05 1.05927E-07 8.39488E-19-7.58211E-19
 -1      3229 9.52480E-05-2.84630E-05-2.86224E-05 1.33495E-07 6.85749E-19-9.29885E-19
 -1      3230 9.52452E-05-2.85297E-05-2.85925E-05 3.73497E-08-5.97576E-19-6.62793E-19
 -1      3231 9.52497E-05-2.85203E-05-2.85977E-05 5.57816E-08-2.34787E-19-7.27224E-19
 -1      3232 9.52487E-05-2.84995E-05-2.86070E-05 7.53485E-08 4.94480E-20-1.74896E-18
 -1      3233 9.52417E-05-2.85456E-05-2.85842E-05 1.01027E-08-8.69110E-19-1.02936E-18
 -1      3234 9.52445E-05-2.85388E-05-2.85877E-05 2.20784E-08-3.68908E-19-1.54305E-18
 -1      3235 9.52482E-05-2.85259E-05-2.85955E-05 3.55682E-08-3.52555E-19-2.07512E-18
 -1      3236 9.52394E-05-2.85568E-05-2.85783E-05-6.95316E-09-1.06941E-18-9.60840E-19
 -1      3237 9.52410E-05-2.85519E-05-2.85807E-05 3.86270E-10-1.14434E-18-7.33841E-19
 -1      3238 9.52472E-05-2.85446E-05-2.85870E-05 9.35103E-09-1.13543E-18-1.49422E-18
 -1      3239 9.52378E-05-2.85644E-05-2.85743E-05-1.68005E-08-4.86521E-20-5.58275E-19
 -1      3240 9.52386E-05-2.85610E-05-2.85759E-05-1.27123E-08-7.94915E-19-5.96230E-19
 -1      3241 9.52459E-05-2.85575E-05-2.85809E-05-7.04603E-09-7.10736E-19-2.73742E-21
 -1      3242 9.52368E-05-2.85694E-05-2.85718E-05-2.16888E-08-3.88974E-19 1.80336E-19
 -1      3243 9.52370E-05-2.85671E-05-2.85727E-05-1.98138E-08-2.04101E-21-1.45921E-19
 -1      3244 9.52446E-05-2.85661E-05-2.85766E-05-1.64953E-08-5.04045E-19 1.07854E-18
 -1      3245 9.52362E-05-2.85725E-05-2.85702E-05-2.32860E-08 4.54362E-20 2.79200E-19
 -1      3246 9.52361E-05-2.85711E-05-2.85707E-05-2.28597E-08-2.89089E-19-3.44960E-19
 -1      3247 9.52433E-05-2.85716E-05-2.85737E-05-2.11657E-08-1.09406E-19-1.30404E-19
 -1      3248 9.52360E-05-2.85743E-05-2.85693E-05-2.28049E-08 1.13771E-19 1.89050E-19
 -1      3249 9.52356E-05-2.85734E-05-2.85695E-05-2.32755E-08-5.17702E-20-2.71916E-19
 -1      3250 9.52421E-05-2.85748E-05-2.85718E-05-2.26664E-08-7.15535E-20-8.88873E-19
 -1      3251 9.52359E-05-2.85752E-05-2.85689E-05-2.11073E-08 2.54916E-19 2.34057E-20
 -1      3252 9.52355E-05-2.85747E-05-2.85689E-05-2.20860E-08 8.67595E-19 5.13332E-19
 -1      3253 9.52411E-05-2.85766E-05-2.85706E-05-2.21675E-08 3.77153E-19-5.09961E-19
 -1      3254 9.52360E-05-2.85754E-05-2.85688E-05-1.87880E-08 5.52790E-19-7.94977E-19
 -1      3255 9.52355E-05-2.85752E-05-2.85687E-05-2.00094E-08-1.65448E-19-4.04208E-19
 -1      3256 9.52402E-05-2.85772E-05-2.85699E-05-2.05004E-08 8.44048E-19-8.02427E-19
 -1      3257 9.52361E-05-2.85753E-05-2.85689E-05-1.62416E-08 4.39433E-19-7.31935E-19
 -1      3258 9.52356E-05-2.85753E-05-2.85687E-05-1.75325E-08 1.18819E-18-7.82584E-19
 -1      3259 9.52395E-05-2.85773E-05-2.85696E-05-1.82384E-08 1.01164E-18-8.78481E-19
 -1      3260 9.52362E-05-2.85750E-05-2.85691E-05-1.37147E-08 1.16760E-18-1.95727E-18
 -1      3261 9.52358E-05-2.85751E-05-2.85689E-05-1.49696E-08 2.89505E-19-1.71523E-18
 -1      3262 9.52389E-05-2.85769E-05-2.85695E-05-1.57611E-08 1.24884E-18-1.09510E-18
 -1      3263 9.52364E-05-2.85747E-05-2.85693E-05-1.13457E-08 2.50251E-18-3.26267E-18
 -1      3264 9.52360E-05-2.85748E-05-2.85691E-05-1.25080E-08 2.29399E-18-2.86253E-18
 -1      3265 9.52385E-05-2.85763E-05-2.85695E-05-1.33052E-08 2.22333E-18-1.75023E-18
 -1      3266 9.52366E-05-2.85743E-05-2.85696E-05-9.20202E-09 8.72060E-19-1.03858E-18
 -1      3267 9.52363E-05-2.85744E-05-2.85694E-05-1.02498E-08 1.48882E-18-1.80942E-18
 -1      3268 9.52381E-05-2.85757E-05-2.85696E-05-1.10040E-08 1.18513E-18-9.85263E-19
 -1      3269 9.52368E-05-2.85740E-05-2.85698E-05-7.29780E-09 8.58527E-19 3.06148E-20
 -1      3270 9.52365E-05-2.85741E-05-2.85697E-05-8.21629E-09 7.66330E-19-3.93267E-19
 -1      3271 9.52379E-05-2.85752E-05-2.85697E-05-8.92140E-09 7.56571E-19 3.42403E-20
 -1      3272 9.52374E-05-2.85742E-05-2.85699E-05-6.15195E-09 1.52400E-19 6.01406E-19
 -1      3273 9.52370E-05-2.85740E-05-2.85698E-05-6.75686E-09 4.69884E-19 2.32590E-19
 -1      3274 9.52380E-05-2.85749E-05-2.85699E-05-7.36604E-09 4.27991E-19 7.45921E-19
 -1      3275 9.52382E-05-2.85750E-05-2.85699E-05-6.25654E-09 7.67708E-19-2.68962E-19
 -1      3276 9.52402E-05-2.85768E-05-2.85700E-05 5.92478E-09 1.18500E-18 5.47763E-19
 -1      3277 9.52409E-05-2.85774E-05-2.85701E-05 5.40982E-09 5.78747E-19 9.24518E-20
 -1      3278 9.52431E-05-2.85794E-05-2.85702E-05 5.56454E-10-1.18630E-18 1.13843E-18
 -1      3279 9.52431E-05-2.85794E-05-2.85702E-05-5.08630E-10-1.05903E-18 1.92845E-18
 -1      3280 5.65594E-05-1.99663E-05-1.52159E-05-2.76038E-05 3.29048E-18 5.26770E-18
 -1      3281 6.87904E-05-2.87711E-05-1.70839E-05-3.45108E-05 3.93050E-18 3.45515E-18
 -1      3282 9.52379E-05-2.85747E-05-2.85700E-05 6.27842E-09 3.52934E-19 1.23975E-19
 -1      3283 9.52392E-05-2.85759E-05-2.85700E-05 6.32405E-09 3.13886E-19-1.43237E-19
 -1      3284 9.52401E-05-2.85767E-05-2.85700E-05 6.71280E-09 5.22345E-19-6.34854E-19
 -1      3285 9.52379E-05-2.85748E-05-2.85699E-05 6.98162E-09 4.41160E-19 9.15312E-19
 -1      3286 1.17273E-04-1.50496E-05-4.41281E-05 6.88329E-06-5.88518E-18-5.27204E-18
 -1      3287 1.14139E-04-1.18554E-05-4.42615E-05 2.11988E-06-6.31992E-18-4.32447E-18
 -1      3288 1.25084E-04-5.05613E-05-3.18245E-05-4.87728E-06-7.98461E-19 1.19772E-18
 -1      3289 1.28454E-04-4.32731E-05-3.64073E-05 5.04676E-06-4.96494E-19-6.55948E-18
 -1      3290 1.25993E-04-3.54951E-05-3.92761E-05 9.09325E-06-2.43226E-18-6.36672E-18
 -1      3291 1.11317E-04-4.36728E-05-2.88417E-05-1.18249E-05-1.20787E-18-4.30117E-19
 -1      3292 1.39604E-04-3.14223E-05-4.67346E-05 2.00009E-05 5.85162E-18 3.43959E-18
 -1      3293 9.52417E-05-2.85781E-05-2.85701E-05 4.61137E-09 2.78324E-20-1.23653E-18
 -1      3294 9.52422E-05-2.85786E-05-2.85701E-05 3.79067E-09 4.49936E-20 1.25539E-18
 -1      3295 9.52418E-05-2.85782E-05-2.85702E-05 5.52819E-09 2.04549E-19-3.36627E-19
 -1      3296 9.41320E-05-2.58220E-05-2.92880E-05 1.21598E-05 1.04039E-20-8.61929E-19
 -1      3297 9.48655E-05-2.66244E-05-2.92067E-05 1.30957E-05 1.89956E-19-7.30521E-19
 -1      3298 9.09181E-05-2.52614E-05-2.81511E-05 1.41584E-05-1.02591E-19-1.22678E-18
 -1      3299 9.11809E-05-2.41631E-05-2.87170E-05 1.15676E-05 2.16218E-19-1.36746E-18
 -1      3300 1.11457E-04-2.85493E-05-3.56405E-05-1.49629E-05-3.04914E-18-6.24098E-19
 -1      3301 1.09821E-04-2.56773E-05-3.60284E-05-1.36365E-05-3.31009E-18-7.19608E-19
 -1      3302 1.11157E-04-2.32993E-05-3.76136E-05-1.39062E-05-3.81201E-18-7.35966E-19
 -1      3303 1.08962E-04-4.91940E-05-2.56255E-05 2.54100E-05-3.91525E-18-2.24768E-18
 -1      3304 9.36080E-05-4.04258E-05-2.25629E-05 2.93864E-05-4.06952E-18-8.51268E-19
 -1      3305 4.17828E-05-1.02352E-05-1.31158E-05-7.19830E-06 2.41590E-19 5.29660E-18
 -1      3306 4.66027E-05-1.34443E-05-1.40146E-05-1.84055E-05 1.51224E-18 5.74288E-18
 -1      3307 1.33247E-04-5.68448E-05-3.27761E-05 6.27610E-06-1.48691E-18-5.54664E-18
 -1      3308 1.26639E-04-3.48623E-05-3.97989E-05-1.16759E-05-3.24674E-18 5.04196E-19
 -1      3309 1.24544E-04-3.96402E-05-3.64555E-05-5.58942E-06-1.19428E-18 4.07317E-19
 -1      3310 1.23273E-04-1.94517E-05-4.50667E-05-1.39928E-05-6.57806E-18-4.28916E-19
 -1      3311 1.25572E-04-2.73197E-05-4.22206E-05-1.46996E-05-4.83052E-18 6.14946E-19
 -1      3312 1.22836E-04-3.05050E-05-3.95916E-05-1.46382E-05-3.35383E-18 4.24999E-19
 -1      3313 9.78681E-05-3.69076E-05-2.59256E-05-1.80238E-05-1.46632E-18-2.62689E-18
 -1      3314 1.09554E-04-5.00538E-05-2.51072E-05-2.75046E-05 3.67835E-18-2.19724E-18
 -1      3315 1.19386E-04-5.36561E-05-2.84359E-05-2.03855E-05 2.61707E-18-3.79902E-18
 -1      3316 1.06019E-04-4.09273E-05-2.77063E-05 1.93242E-05-2.58013E-18-2.51338E-18
 -1      3317 1.11466E-04-4.60594E-05-2.79396E-05 1.87637E-05-3.02454E-18-2.71555E-18
 -1      3318 1.13049E-04-3.26080E-05-3.45875E-05-1.35603E-05-1.72033E-18-1.67656E-18
 -1      3319 1.12978E-04-3.23989E-05-3.45604E-05-1.40688E-05-2.02923E-18-1.17222E-18
 -1      3320 1.14171E-04-3.36176E-05-3.44264E-05-1.12322E-05-9.61470E-19-1.62615E-18
 -1      3321 1.25695E-04-5.34243E-05-3.07657E-05-1.23443E-05 1.83183E-18-5.68894E-18
 -1      3322 1.28217E-04-5.06833E-05-3.36577E-05-4.16930E-06 6.86990E-19-6.71004E-18
 -1      3323 1.20101E-04-5.16863E-05-2.92682E-05-1.43329E-05 2.21862E-18-4.78211E-18
 -1      3324 1.23442E-04-2.69776E-05-4.14956E-05 1.08897E-05-4.10949E-18-6.32879E-18
 -1      3325 1.19864E-04-1.99633E-05-4.32873E-05 9.25086E-06-5.13773E-18-5.63875E-18
 -1      3326 1.15389E-04-1.95690E-05-4.12397E-05 8.23192E-06-4.75069E-18-5.26410E-18
 -1      3327 9.52427E-05-2.85790E-05-2.85702E-05 2.73286E-09 2.72405E-19 1.92741E-18
 -1      3328 9.52430E-05-2.85792E-05-2.85702E-05 1.74908E-09-9.78447E-20 1.84906E-18
 -1      3329 9.52439E-05-2.85798E-05-2.85703E-05 1.26166E-09 4.80705E-19 1.98526E-18
 -1      3330 9.52432E-05-2.85793E-05-2.85703E-05 3.58911E-09 2.19691E-19 1.51300E-18
 -1      3331 8.20741E-05-3.61798E-05-1.91849E-05-3.52656E-05 4.37958E-18 1.92573E-18
 -1      3332 9.54874E-05-4.42902E-05-2.21499E-05-3.38544E-05 4.05766E-18 1.90953E-19
 -1      3333 4.76843E-05-1.28316E-05-1.46748E-05 1.31098E-05-1.78961E-18 3.98984E-18
 -1      3334 4.23467E-05-9.94163E-06-1.34154E-05 2.23710E-06-8.16510E-19 5.05223E-18
 -1      3335 4.93464E-05-1.10311E-05-1.59505E-05-2.08924E-06-3.63513E-19 4.40552E-18
 -1      3336 8.24900E-05-2.50432E-05-2.44490E-05 2.61563E-05 4.20046E-18-5.08522E-18
 -1      3337 1.15141E-04-3.31239E-05-3.51020E-05-1.41407E-05-1.91513E-18-9.19666E-19
 -1      3338 9.57971E-05-3.83155E-05-2.45130E-05 2.50499E-05-3.20840E-18-1.52731E-18
 -1      3339 8.62817E-05-3.50583E-05-2.16886E-05 2.92445E-05-3.69799E-18 1.21682E-19
 -1      3340 7.85696E-05-2.86752E-05-2.12345E-05 2.60491E-05-3.00969E-18 6.16693E-19
 -1      3341 1.24045E-04-5.48983E-05-2.95507E-05 1.50956E-05-2.74656E-18-4.12717E-18
 -1      3342 1.14737E-04-3.67433E-05-3.33198E-05-3.19822E-06 4.64528E-19-1.56330E-18
 -1      3343 1.14634E-04-3.54638E-05-3.40701E-05-7.55090E-06-5.72414E-19-1.62374E-18
 -1      3344 1.15977E-04-3.54930E-05-3.45428E-05-9.75162E-06-7.84180E-19-1.36403E-18
 -1      3345 1.25812E-04-1.87759E-05-4.63908E-05 2.61459E-06 7.42424E-18-6.07548E-19
 -1      3346 1.32705E-04-1.87858E-05-4.93332E-05 7.43101E-06 7.87465E-18-1.42143E-19
 -1      3347 1.14021E-04-2.96524E-05-3.60872E-05-1.57148E-05-2.91455E-18-3.18610E-19
 -1      3348 9.52379E-05-2.85750E-05-2.85698E-05 7.71109E-09 2.80393E-19-3.68082E-19
 -1      3349 9.52392E-05-2.85761E-05-2.85699E-05 8.15396E-09 2.55931E-19-6.93774E-19
 -1      3350 1.26180E-04-2.07087E-05-4.56130E-05-7.07355E-06 7.07156E-18-2.79743E-18
 -1      3351 1.20242E-04-3.69934E-05-3.56722E-05-9.28462E-06-9.70806E-19-1.74661E-19
 -1      3352 1.21231E-04-4.08732E-05-3.45502E-05-2.49796E-06 1.43326E-19-4.59277E-19
 -1      3353 9.72004E-05-3.63484E-05-2.60833E-05 2.18915E-05-2.32675E-18-1.55777E-18
 -1      3354 7.88556E-05-3.17390E-05-1.98335E-05-3.12839E-05 3.67967E-18 2.21489E-18
 -1      3355 9.52422E-05-2.85786E-05-2.85701E-05-3.78735E-09-8.12300E-19 2.40037E-18
 -1      3356 9.52417E-05-2.85781E-05-2.85701E-05-4.60546E-09-4.17154E-19 8.16088E-19
 -1      3357 9.52439E-05-2.85798E-05-2.85703E-05-1.21869E-09-1.60802E-18 5.49195E-19
 -1      3358 9.52430E-05-2.85792E-05-2.85702E-05-1.71384E-09-1.44666E-18 1.34709E-18
 -1      3359 9.52427E-05-2.85790E-05-2.85702E-05-2.71663E-09-7.51411E-19 1.72622E-18
 -1      3360 9.52419E-05-2.85783E-05-2.85702E-05-5.38381E-09 1.63290E-19-4.33004E-19
 -1      3361 9.52410E-05-2.85775E-05-2.85701E-05-5.27464E-09-2.38804E-19-9.66823E-19
 -1      3362 9.52404E-05-2.85770E-05-2.85700E-05-5.71795E-09 9.39105E-19 1.07207E-18
 -1      3363 1.25288E-04-4.58983E-05-3.40650E-05 1.32076E-06 4.10101E-19-6.25349E-18
 -1      3364 7.69203E-05-2.57293E-05-2.20006E-05 3.21856E-05 4.88982E-18-5.37924E-18
 -1      3365 1.17697E-04-5.11536E-05-2.83066E-05 1.82962E-05-3.48238E-18-3.05606E-18
 -1      3366 1.18405E-04-1.74457E-05-4.35108E-05-1.26435E-05-5.99133E-18-9.64771E-19
 -1      3367 6.53142E-05-2.00859E-05-1.93268E-05 2.10855E-05-2.55290E-18 2.26057E-18
 -1      3368 5.60870E-05-1.59311E-05-1.67313E-05 1.79157E-05-2.28270E-18 3.27987E-18
 -1      3369 5.70456E-05-1.39654E-05-1.82131E-05 1.22231E-05-1.72325E-18 3.05726E-18
 -1      3370 1.43041E-04-2.49294E-05-5.08847E-05 1.75639E-05 7.73532E-18 1.84971E-18
 -1      3371 1.39318E-04-1.81095E-05-5.25387E-05 1.16566E-05 8.73312E-18 1.41666E-19
 -1      3372 1.21176E-04-3.17972E-05-3.84030E-05 1.03708E-05-2.54348E-18-5.96473E-18
 -1      3373 5.71419E-05-1.72238E-05-1.66642E-05-2.11355E-05 2.24866E-18 4.36169E-18
 -1      3374 1.03136E-04-4.56528E-05-2.44445E-05-2.73125E-05 3.85347E-18-1.35862E-18
 -1      3375 1.19934E-04-4.16158E-05-3.37505E-05 2.54111E-06 6.89586E-19-4.43845E-19
 -1      3376 1.15892E-04-4.15741E-05-3.16261E-05 9.01622E-06 1.77633E-18-1.07851E-18
 -1      3377 1.09717E-04-3.85125E-05-3.03415E-05 1.18031E-05 2.29657E-18-1.83518E-18
 -1      3378 1.11460E-04-1.56405E-05-4.14047E-05-9.63338E-06-5.57403E-18-1.99097E-18
 -1      3379 1.10166E-04-1.35428E-05-4.16195E-05-5.00765E-06-5.74405E-18-2.63565E-18
 -1      3380 1.13644E-04-3.79944E-05-3.26295E-05 1.45831E-06 9.61429E-19-1.69952E-18
 -1      3381 1.16302E-04-3.85718E-05-3.33570E-05-1.47118E-06 4.71066E-19-1.17318E-18
 -1      3382 1.23249E-04-4.79549E-05-3.20990E-05-1.76441E-06 9.67312E-19-5.98847E-18
 -1      3383 1.22092E-04-4.22917E-05-3.43902E-05 5.65777E-06-8.73503E-20-5.64793E-18
 -1      3384 1.18812E-04-3.42146E-05-3.63552E-05-1.39417E-05-1.95059E-18-3.69512E-19
 -1      3385 1.17901E-04-3.10263E-05-3.73489E-05-1.44106E-05-2.81676E-18-2.50917E-19
 -1      3386 1.09214E-04-1.53046E-05-4.03414E-05 1.22897E-06-5.20883E-18-3.66804E-18
 -1      3387 1.11275E-04-1.30643E-05-4.24269E-05-1.63771E-06-5.83076E-18-3.33749E-18
 -1      3388 1.16594E-04-2.59869E-05-3.91512E-05-1.56951E-05-4.01224E-18-3.37371E-19
 -1      3389 1.14314E-04-2.10481E-05-4.01272E-05-1.38059E-05-4.81824E-18-7.65182E-19
 -1      3390 1.10253E-04-1.79857E-05-3.98478E-05 5.78497E-06-4.75686E-18-4.17497E-18
 -1      3391 1.12896E-04-2.17154E-05-3.91590E-05 8.77525E-06-4.21531E-18-4.87425E-18
 -1      3392 1.14981E-04-2.72001E-05-3.79227E-05 1.06087E-05-3.09597E-18-5.17133E-18
 -1      3393 1.17586E-04-3.33143E-05-3.61403E-05 9.92264E-06-1.72399E-18-5.52269E-18
 -1      3394 1.18939E-04-3.81400E-05-3.47269E-05 8.79737E-06-3.98079E-19-5.41873E-18
 -1      3395 1.17498E-04-4.07481E-05-3.29598E-05 5.63605E-06 1.48436E-19-5.20536E-18
 -1      3396 1.17160E-04-4.26748E-05-3.19157E-05 3.46809E-06 5.50565E-19-4.80813E-18
 -1      3397 1.14510E-04-4.28523E-05-3.07658E-05 2.26799E-07 5.23951E-19-4.23424E-18
 -1      3398 1.12959E-04-4.25569E-05-3.00902E-05-1.77945E-06 7.16610E-19-4.08152E-18
 -1      3399 1.17786E-04-4.51706E-05-3.12520E-05-7.66816E-07 8.84898E-19-5.00950E-18
 -1      3400 1.09764E-04-4.11155E-05-2.94674E-05-3.91875E-06 8.38108E-19-3.46149E-18
 -1      3401 1.07718E-04-3.96516E-05-2.91037E-05-5.27008E-06 1.02720E-18-3.25298E-18
 -1      3402 1.11890E-04-4.35097E-05-2.94120E-05-5.80627E-06 1.31586E-18-3.92482E-18
 -1      3403 1.05016E-04-3.77379E-05-2.88403E-05-6.10239E-06 1.18130E-18-2.82390E-18
 -1      3404 1.03131E-04-3.60717E-05-2.86789E-05-6.78402E-06 1.31122E-18-2.32568E-18
 -1      3405 1.05719E-04-3.93004E-05-2.85431E-05-8.15094E-06 1.35499E-18-2.89511E-18
 -1      3406 1.01115E-04-3.43498E-05-2.86098E-05-6.89824E-06 6.05041E-19-2.18964E-18
 -1      3407 9.96375E-05-3.28956E-05-2.85621E-05-7.09288E-06 3.98105E-19-1.83240E-18
 -1      3408 1.01016E-04-3.52782E-05-2.82404E-05-8.73482E-06 9.72089E-19-2.55866E-18
 -1      3409 9.83017E-05-3.15768E-05-2.85857E-05-6.81621E-06-1.04049E-19-1.78729E-18
 -1      3410 9.72451E-05-3.04739E-05-2.85907E-05-6.71699E-06-5.56839E-19-1.75816E-18
 -1      3411 9.77065E-05-3.19541E-05-2.82292E-05-8.24813E-06 1.77128E-19-2.33773E-18
 -1      3412 9.64411E-05-2.95683E-05-2.86476E-05-6.27125E-06-6.23495E-19-1.82917E-18
 -1      3413 9.57455E-05-2.88162E-05-2.86698E-05-6.01360E-06-5.87826E-19-1.71999E-18
 -1      3414 9.56170E-05-2.95682E-05-2.83394E-05-7.31446E-06-3.97722E-19-1.67261E-18
 -1      3415 9.53176E-05-2.82564E-05-2.87293E-05-5.52422E-06-6.59036E-19-1.07306E-18
 -1      3416 9.48931E-05-2.77933E-05-2.87504E-05-5.19414E-06-1.33082E-19-6.61272E-19
 -1      3417 9.44310E-05-2.80249E-05-2.84799E-05-6.24926E-06-3.15181E-19-1.07179E-18
 -1      3418 9.47125E-05-2.74931E-05-2.87989E-05-4.72114E-06 2.46159E-19-7.32092E-19
 -1      3419 9.44760E-05-2.72452E-05-2.88113E-05-4.37078E-06 3.24464E-19-3.15045E-19
 -1      3420 9.38572E-05-2.71349E-05-2.86068E-05-5.21261E-06 8.73762E-20 2.45910E-21
 -1      3421 9.44471E-05-2.71257E-05-2.88443E-05-3.94098E-06 3.06536E-19-4.06850E-19
 -1      3422 9.43326E-05-2.70262E-05-2.88465E-05-3.60099E-06 3.01906E-19-4.05401E-19
 -1      3423 9.36724E-05-2.67128E-05-2.87030E-05-4.27068E-06 4.58297E-19-8.46164E-19
 -1      3424 9.43887E-05-2.70232E-05-2.88647E-05-3.22444E-06 1.22000E-19-3.35848E-19
 -1      3425 9.43485E-05-2.70187E-05-2.88579E-05-2.91199E-06 9.25615E-20-7.06932E-19
 -1      3426 9.37168E-05-2.66036E-05-2.87655E-05-3.44642E-06-2.96883E-19-9.09609E-19
 -1      3427 9.44454E-05-2.70843E-05-2.88639E-05-2.59029E-06-2.94130E-19-6.78207E-19
 -1      3428 9.44467E-05-2.71350E-05-2.88508E-05-2.31395E-06-2.24564E-19-1.14594E-18
 -1      3429 9.38817E-05-2.66879E-05-2.87981E-05-2.74231E-06-2.87059E-19-4.81307E-19
 -1      3430 9.45568E-05-2.72355E-05-2.88478E-05-2.04454E-06 1.07991E-19-9.54679E-19
 -1      3431 9.45786E-05-2.73139E-05-2.88307E-05-1.80736E-06 7.19758E-19-1.59186E-18
 -1      3432 9.40971E-05-2.68793E-05-2.88073E-05-2.15163E-06-9.32180E-20-5.38084E-19
 -1      3433 9.46858E-05-2.74267E-05-2.88218E-05-1.58569E-06 1.12487E-18-1.53614E-18
 -1      3434 9.47154E-05-2.75147E-05-2.88031E-05-1.38723E-06 1.00495E-18-1.68963E-18
 -1      3435 9.43203E-05-2.71186E-05-2.88000E-05-1.66384E-06 6.52086E-19-6.40213E-19
 -1      3436 9.48110E-05-2.76258E-05-2.87908E-05-1.20784E-06 9.53694E-19-1.83044E-18
 -1      3437 9.48412E-05-2.77123E-05-2.87720E-05-1.04547E-06 6.89281E-19-7.28238E-19
 -1      3438 9.45274E-05-2.73674E-05-2.87820E-05-1.26698E-06 1.04394E-18-1.31151E-18
 -1      3439 9.49219E-05-2.78139E-05-2.87582E-05-9.02622E-07 1.52425E-19-1.00597E-18
 -1      3440 9.49489E-05-2.78926E-05-2.87405E-05-7.72501E-07 6.70396E-19-8.90825E-19
 -1      3441 9.47071E-05-2.76029E-05-2.87581E-05-9.48815E-07 6.07417E-19-1.29620E-18
 -1      3442 9.50140E-05-2.79808E-05-2.87266E-05-6.60573E-07 6.58223E-19-9.97069E-19
 -1      3443 9.50364E-05-2.80489E-05-2.87106E-05-5.58341E-07 7.44656E-19-9.28099E-19
 -1      3444 9.48554E-05-2.78126E-05-2.87320E-05-6.97506E-07 4.46287E-19-8.21133E-19
 -1      3445 9.50871E-05-2.81226E-05-2.86975E-05-4.72077E-07 6.29056E-19-1.01344E-18
 -1      3446 9.51046E-05-2.81794E-05-2.86835E-05-3.93311E-07 1.01890E-18-1.15328E-18
 -1      3447 9.49731E-05-2.79915E-05-2.87059E-05-5.02021E-07 5.04205E-19-1.15819E-18
 -1      3448 9.51427E-05-2.82391E-05-2.86717E-05-3.27964E-07 1.23815E-18-7.41633E-19
 -1      3449 9.51557E-05-2.82848E-05-2.86599E-05-2.68475E-07 1.08686E-18-1.44615E-19
 -1      3450 9.50634E-05-2.81391E-05-2.86815E-05-3.52375E-07 1.06351E-18-1.71509E-18
 -1      3451 9.51834E-05-2.83319E-05-2.86497E-05-2.19883E-07 1.32443E-18-2.48556E-19
 -1      3452 9.51927E-05-2.83679E-05-2.86399E-05-1.75890E-07 9.69544E-19-1.60377E-19
 -1      3453 9.51305E-05-2.82575E-05-2.86596E-05-2.39760E-07 1.36292E-18-1.19294E-18
 -1      3454 9.52121E-05-2.84041E-05-2.86313E-05-1.40492E-07-1.79568E-19 2.28976E-20
 -1      3455 9.52183E-05-2.84316E-05-2.86234E-05-1.08705E-07-6.61702E-19 1.53821E-20
 -1      3456 9.51786E-05-2.83499E-05-2.86407E-05-1.56578E-07 6.21633E-19-1.41144E-18
 -1      3457 9.52313E-05-2.84588E-05-2.86162E-05-8.35197E-08-5.40530E-19 4.18008E-20
 -1      3458 9.52352E-05-2.84794E-05-2.86100E-05-6.11590E-08 6.43166E-19 3.86460E-21
 -1      3459 9.52118E-05-2.84205E-05-2.86248E-05-9.64159E-08-6.46810E-19-3.65616E-19
 -1      3460 9.52435E-05-2.84992E-05-2.86043E-05-4.37401E-08 1.07264E-18-7.16297E-19
 -1      3461 9.52457E-05-2.85143E-05-2.85994E-05-2.85150E-08 1.07269E-18-7.14748E-19
 -1      3462 9.52338E-05-2.84730E-05-2.86117E-05-5.39577E-08 4.51400E-19-1.21853E-18
 -1      3463 9.52505E-05-2.85284E-05-2.85949E-05-1.68927E-08 8.20972E-19-1.30798E-18
 -1      3464 9.52515E-05-2.85390E-05-2.85912E-05-6.95739E-09 4.23883E-19-1.33678E-18
 -1      3465 9.52473E-05-2.85112E-05-2.86012E-05-2.48792E-08 8.83160E-19-2.73107E-18
 -1      3466 9.52539E-05-2.85488E-05-2.85877E-05 4.26532E-10 2.28702E-19-1.38176E-18
 -1      3467 9.52541E-05-2.85561E-05-2.85850E-05 6.52945E-09-3.11106E-19-1.30694E-18
 -1      3468 9.52549E-05-2.85382E-05-2.85929E-05-5.72357E-09 1.40192E-19-3.21649E-18
 -1      3469 9.52549E-05-2.85626E-05-2.85823E-05 1.08859E-08-6.37794E-19-8.98065E-19
 -1      3470 9.52546E-05-2.85674E-05-2.85803E-05 1.42842E-08-5.57883E-20-5.64809E-19
 -1      3471 9.52584E-05-2.85566E-05-2.85865E-05 6.22633E-09-1.19945E-19-2.90759E-18
 -1      3472 9.52543E-05-2.85714E-05-2.85783E-05 1.65377E-08-2.89724E-19-1.15137E-19
 -1      3473 9.52537E-05-2.85744E-05-2.85769E-05 1.80869E-08-1.16709E-18 4.58844E-19
 -1      3474 9.52590E-05-2.85686E-05-2.85817E-05 1.30692E-08-4.63951E-20-6.22749E-19
 -1      3475 9.52528E-05-2.85767E-05-2.85754E-05 1.89296E-08-1.19577E-18 6.53987E-19
 -1      3476 9.52521E-05-2.85784E-05-2.85745E-05 1.92653E-08 2.66919E-19 8.09608E-19
 -1      3477 9.52580E-05-2.85760E-05-2.85780E-05 1.63974E-08-8.05388E-19 3.46862E-19
 -1      3478 9.52509E-05-2.85795E-05-2.85734E-05 1.92052E-08 7.93313E-19 1.71648E-20
 -1      3479 9.52502E-05-2.85803E-05-2.85728E-05 1.87889E-08 2.93249E-19-1.14467E-19
 -1      3480 9.52561E-05-2.85802E-05-2.85754E-05 1.73962E-08-5.28221E-19 4.47564E-19
 -1      3481 9.52488E-05-2.85807E-05-2.85721E-05 1.81901E-08-4.62439E-19-7.93025E-19
 -1      3482 9.52481E-05-2.85809E-05-2.85716E-05 1.73478E-08-8.29418E-19-6.44514E-19
 -1      3483 9.52536E-05-2.85821E-05-2.85736E-05 1.69296E-08-3.97967E-20 1.38921E-19
 -1      3484 9.52468E-05-2.85807E-05-2.85712E-05 1.64636E-08-1.44716E-18-1.33467E-18
 -1      3485 9.52461E-05-2.85806E-05-2.85709E-05 1.54181E-08-2.13055E-18-1.37700E-18
 -1      3486 9.52510E-05-2.85825E-05-2.85723E-05 1.56115E-08-1.54050E-18-1.21455E-18
 -1      3487 9.52449E-05-2.85801E-05-2.85706E-05 1.44183E-08-2.26007E-18-1.28093E-18
 -1      3488 9.52443E-05-2.85798E-05-2.85705E-05 1.33152E-08-1.93535E-18-1.20258E-18
 -1      3489 9.52485E-05-2.85820E-05-2.85714E-05 1.38646E-08-1.99334E-18-1.14388E-18
 -1      3490 9.52432E-05-2.85792E-05-2.85703E-05 1.23077E-08-1.02754E-18-1.72621E-18
 -1      3491 9.52427E-05-2.85788E-05-2.85702E-05 1.12393E-08 9.88953E-19-1.23111E-18
 -1      3492 9.52462E-05-2.85810E-05-2.85708E-05 1.19689E-08-1.81516E-18 1.19531E-18
 -1      3493 9.52418E-05-2.85782E-05-2.85701E-05 1.02696E-08 1.51583E-18-2.16061E-18
 -1      3494 9.52414E-05-2.85778E-05-2.85701E-05 9.30925E-09 1.05585E-18-1.51408E-18
 -1      3495 9.52442E-05-2.85798E-05-2.85705E-05 1.00968E-08 8.01138E-19-1.90277E-19
 -1      3496 9.12213E-05-2.37552E-05-2.89365E-05 6.70721E-06 3.74579E-19-6.98058E-19
 -1      3497 9.08205E-05-2.34307E-05-2.88748E-05 7.45819E-06 3.25482E-19-3.77287E-19
 -1      3498 8.98910E-05-2.29916E-05-2.87003E-05 8.22312E-06 2.11351E-20-2.42760E-19
 -1      3499 8.94668E-05-2.27924E-05-2.85623E-05 9.11304E-06 2.02599E-19-1.55854E-19
 -1      3500 8.85713E-05-2.21686E-05-2.84317E-05 7.13263E-06 2.37595E-19 6.72726E-19
 -1      3501 9.31278E-05-2.53379E-05-2.90666E-05 4.36994E-06-3.16445E-19-8.78366E-19
 -1      3502 9.28781E-05-2.50098E-05-2.90826E-05 4.91440E-06-5.58629E-19-8.92932E-19
 -1      3503 9.37483E-05-2.60048E-05-2.90437E-05 3.46732E-06 2.12010E-19-8.13460E-19
 -1      3504 9.35684E-05-2.57190E-05-2.90746E-05 3.92547E-06 3.97087E-19-6.22760E-19
 -1      3505 9.25445E-05-2.49818E-05-2.89433E-05 3.86967E-06 2.69637E-19 3.32872E-20
 -1      3506 9.42021E-05-2.65638E-05-2.89963E-05 2.71371E-06-2.80313E-19-1.01645E-18
 -1      3507 9.40772E-05-2.63246E-05-2.90331E-05 3.09383E-06 1.55525E-19-8.21577E-19
 -1      3508 9.33013E-05-2.57260E-05-2.89522E-05 3.09115E-06 3.00577E-19-1.02122E-18
 -1      3509 9.45283E-05-2.70201E-05-2.89386E-05 2.09301E-06-4.75647E-19-8.84958E-19
 -1      3510 9.44441E-05-2.68251E-05-2.89761E-05 2.40363E-06-6.83168E-19-1.18570E-18
 -1      3511 9.38629E-05-2.63460E-05-2.89298E-05 2.43344E-06-5.60027E-19-1.07604E-18
 -1      3512 9.47597E-05-2.73862E-05-2.88794E-05 1.58930E-06 4.52515E-20-1.86620E-19
 -1      3513 9.47044E-05-2.72298E-05-2.89145E-05 1.83929E-06-1.54192E-19-5.87707E-20
 -1      3514 9.42747E-05-2.68517E-05-2.88914E-05 1.88595E-06-5.95317E-19-4.21489E-19
 -1      3515 9.49221E-05-2.76759E-05-2.88236E-05 1.18670E-06 1.07177E-18-1.13647E-18
 -1      3516 9.48867E-05-2.75522E-05-2.88548E-05 1.38490E-06 6.95535E-19-5.12936E-19
 -1      3517 9.45735E-05-2.72576E-05-2.88469E-05 1.43763E-06 6.51839E-19-3.74430E-19
 -1      3518 9.50349E-05-2.79028E-05-2.87738E-05 8.69806E-07-3.39445E-19-9.78604E-19
 -1      3519 9.50127E-05-2.78058E-05-2.88005E-05 1.02462E-06 4.58092E-19-8.72184E-19
 -1      3520 9.47883E-05-2.75795E-05-2.88019E-05 1.07666E-06 3.95976E-19-1.34724E-18
 -1      3521 9.51123E-05-2.80788E-05-2.87308E-05 6.24235E-07-8.17284E-20-9.02950E-19
 -1      3522 9.50989E-05-2.80035E-05-2.87531E-05 7.43342E-07-7.50184E-20-7.12319E-19
 -1      3523 9.49412E-05-2.78319E-05-2.87600E-05 7.90877E-07-9.16520E-20-1.00040E-18
 -1      3524 9.51647E-05-2.82139E-05-2.86948E-05 4.36963E-07 5.45817E-19-1.13095E-18
 -1      3525 9.51569E-05-2.81560E-05-2.87130E-05 5.27174E-07 3.80079E-19-9.31733E-19
 -1      3526 9.50488E-05-2.80278E-05-2.87226E-05 5.68406E-07 4.69204E-20-7.50149E-19
 -1      3527 9.51996E-05-2.83167E-05-2.86653E-05 2.96552E-07-5.63397E-19-1.08967E-18
 -1      3528 9.51954E-05-2.82726E-05-2.86798E-05 3.63741E-07 1.94304E-19-8.20233E-19
 -1      3529 9.51236E-05-2.81782E-05-2.86904E-05 3.98172E-07 1.19704E-19-5.29407E-19
 -1      3530 9.52222E-05-2.83939E-05-2.86415E-05 1.93202E-07 6.56116E-19-1.10951E-18
 -1      3531 9.52202E-05-2.83607E-05-2.86530E-05 2.42327E-07 1.04195E-19-1.11783E-18
 -1      3532 9.51745E-05-2.82925E-05-2.86635E-05 2.70224E-07 2.93366E-20-7.89689E-19
 -1      3533 9.52363E-05-2.84511E-05-2.86228E-05 1.18694E-07 4.62108E-19-1.02223E-18
 -1      3534 9.52356E-05-2.84265E-05-2.86317E-05 1.53861E-07 6.23066E-19-1.20671E-18
 -1      3535 9.52085E-05-2.83783E-05-2.86414E-05 1.75892E-07 6.93947E-19-1.68131E-18
 -1      3536 9.52446E-05-2.84930E-05-2.86083E-05 6.62683E-08 5.29241E-20-1.13145E-18
 -1      3537 9.52447E-05-2.84749E-05-2.86150E-05 9.08189E-08 4.05588E-19-8.27667E-19
 -1      3538 9.52303E-05-2.84417E-05-2.86236E-05 1.07821E-07 6.27342E-19-6.08741E-19
 -1      3539 9.52490E-05-2.85230E-05-2.85971E-05 3.04630E-08-4.05552E-19-1.40192E-18
 -1      3540 9.52495E-05-2.85100E-05-2.86022E-05 4.70736E-08 1.56894E-19-7.64336E-19
 -1      3541 9.52436E-05-2.84879E-05-2.86096E-05 5.99105E-08 1.33433E-20 3.38115E-19
 -1      3542 9.52508E-05-2.85440E-05-2.85888E-05 6.93891E-09-1.34892E-18-2.62827E-19
 -1      3543 9.52515E-05-2.85349E-05-2.85925E-05 1.77195E-08-1.21534E-18-6.83420E-19
 -1      3544 9.52511E-05-2.85208E-05-2.85987E-05 2.72008E-08-3.19724E-19 2.15807E-19
 -1      3545 9.52510E-05-2.85584E-05-2.85827E-05-7.69553E-09-6.63062E-19-2.78868E-19
 -1      3546 9.52518E-05-2.85522E-05-2.85853E-05-1.10689E-09-9.17010E-19-4.34608E-19
 -1      3547 9.52547E-05-2.85438E-05-2.85904E-05 5.73442E-09-1.14540E-18-3.58548E-20
 -1      3548 9.52503E-05-2.85678E-05-2.85782E-05-1.60477E-08-1.02167E-18 5.89224E-19
 -1      3549 9.52510E-05-2.85637E-05-2.85801E-05-1.23996E-08-4.63716E-19-2.42237E-19
 -1      3550 9.52557E-05-2.85593E-05-2.85842E-05-7.59048E-09-6.94455E-19-7.22385E-19
 -1      3551 9.52489E-05-2.85737E-05-2.85751E-05-2.00880E-08 1.04345E-18-7.60272E-20
 -1      3552 9.52496E-05-2.85711E-05-2.85764E-05-1.84402E-08-6.20971E-20 6.60765E-19
 -1      3553 9.52551E-05-2.85694E-05-2.85796E-05-1.51631E-08-8.36315E-20-9.71004E-19
 -1      3554 9.52474E-05-2.85771E-05-2.85730E-05-2.12779E-08-6.52852E-19-3.69766E-19
 -1      3555 9.52480E-05-2.85756E-05-2.85738E-05-2.09374E-08 5.60549E-19-2.75393E-19
 -1      3556 9.52535E-05-2.85756E-05-2.85763E-05-1.87905E-08 1.04120E-18-9.04984E-19
 -1      3557 9.52458E-05-2.85787E-05-2.85716E-05-2.06794E-08 3.31526E-19 5.68406E-19
 -1      3558 9.52463E-05-2.85780E-05-2.85721E-05-2.11457E-08-6.53933E-19 3.27639E-19
 -1      3559 9.52516E-05-2.85790E-05-2.85740E-05-1.98137E-08-9.04355E-19 1.13036E-18
 -1      3560 9.52443E-05-2.85792E-05-2.85707E-05-1.90456E-08 9.02389E-19 7.94580E-19
 -1      3561 9.52447E-05-2.85789E-05-2.85710E-05-1.99664E-08 1.42840E-18 8.88303E-19
 -1      3562 9.52494E-05-2.85805E-05-2.85724E-05-1.92068E-08 4.96165E-19 1.09753E-18
 -1      3563 9.52429E-05-2.85790E-05-2.85702E-05-1.68944E-08 1.54610E-18 5.38820E-19
 -1      3564 9.52432E-05-2.85790E-05-2.85704E-05-1.80300E-08 1.09220E-18 8.89075E-19
 -1      3565 9.52473E-05-2.85808E-05-2.85714E-05-1.76602E-08 1.25221E-18 2.91611E-18
 -1      3566 9.52416E-05-2.85783E-05-2.85700E-05-1.45667E-08 2.45048E-18-5.03952E-19
 -1      3567 9.52419E-05-2.85786E-05-2.85700E-05-1.57613E-08 1.51382E-18 2.43087E-19
 -1      3568 9.52454E-05-2.85804E-05-2.85707E-05-1.56481E-08 1.78081E-18 1.51112E-18
 -1      3569 9.52406E-05-2.85775E-05-2.85699E-05-1.22757E-08 1.69263E-18-1.69307E-19
 -1      3570 9.52408E-05-2.85779E-05-2.85699E-05-1.34344E-08 2.39540E-18 2.29512E-19
 -1      3571 9.52436E-05-2.85795E-05-2.85704E-05-1.34815E-08 2.21623E-18 1.40900E-18
 -1      3572 9.52398E-05-2.85767E-05-2.85699E-05-1.01528E-08 9.08055E-19 6.04546E-21
 -1      3573 9.52399E-05-2.85770E-05-2.85698E-05-1.12101E-08 1.58928E-18-7.53998E-19
 -1      3574 9.52422E-05-2.85785E-05-2.85701E-05-1.13546E-08 1.50050E-18-3.21992E-19
 -1      3575 9.52391E-05-2.85760E-05-2.85699E-05-8.20175E-09 5.08476E-19 1.10731E-19
 -1      3576 9.52392E-05-2.85763E-05-2.85698E-05-9.15470E-09 7.27494E-19 2.78662E-19
 -1      3577 9.52410E-05-2.85776E-05-2.85700E-05-9.37378E-09 8.25776E-19 6.57284E-19
 -1      3578 9.52432E-05-2.85793E-05-2.85703E-05-3.57339E-09-7.23233E-19 1.89431E-18
 -1      3579 9.52404E-05-2.85770E-05-2.85700E-05 7.80240E-09 5.44436E-19-4.16602E-19
 -1      3580 9.68940E-05-4.04699E-05-2.38424E-05-2.66596E-05 3.81723E-18-6.86203E-19
 -1      3581 1.07462E-04-4.66982E-05-2.62899E-05-2.20217E-05 3.27513E-18-2.42757E-18
 -1      3582 9.52422E-05-2.85784E-05-2.85702E-05 6.52808E-09 1.07467E-18-2.58711E-19
 -1      3583 9.52431E-05-2.85790E-05-2.85703E-05 5.65763E-09 6.97263E-19-9.11481E-19
 -1      3584 8.57828E-05-2.41470E-05-2.64497E-05 1.59787E-05-9.75395E-19-5.82231E-19
 -1      3585 8.68282E-05-2.61750E-05-2.59122E-05 1.78239E-05-1.33743E-18-4.78213E-19
 -1      3586 9.52397E-05-2.85763E-05-2.85700E-05-6.03707E-09 1.26957E-18 1.74590E-18
 -1      3587 9.52389E-05-2.85757E-05-2.85700E-05-6.21126E-09 1.19021E-18 5.84119E-19
 -1      3588 9.52389E-05-2.85757E-05-2.85700E-05-6.75645E-09 1.05635E-18 7.61962E-19
 -1      3589 9.52405E-05-2.85771E-05-2.85701E-05-6.39396E-09 6.13268E-19 1.29675E-18
 -1      3590 7.49985E-05-2.68767E-05-2.02908E-05-2.72357E-05 3.23422E-18 2.30295E-18
 -1      3591 8.51355E-05-3.41985E-05-2.20188E-05-2.89121E-05 3.52650E-18 7.71965E-19
 -1      3592 5.66896E-05-1.42264E-05-1.79426E-05-1.48203E-05 1.13375E-18 3.59513E-18
 -1      3593 6.47804E-05-2.05625E-05-1.89760E-05-2.36376E-05 2.32815E-18 3.39920E-18
 -1      3594 7.32265E-05-2.33690E-05-2.11438E-05-2.20662E-05 2.29599E-18 2.03656E-18
 -1      3595 1.15775E-04-4.93561E-05-2.81933E-05-1.55442E-05 2.73133E-18-4.49257E-18
 -1      3596 1.20011E-04-5.03182E-05-3.01682E-05-9.54750E-06 1.77071E-18-5.70955E-18
 -1      3597 9.22976E-05-2.45734E-05-2.90422E-05 5.44024E-06-6.34935E-19-3.54261E-19
 -1      3598 9.19685E-05-2.42224E-05-2.90295E-05 6.08039E-06-3.12601E-19-6.96961E-19
 -1      3599 9.15396E-05-2.41154E-05-2.88797E-05 4.78187E-06-2.72987E-19-9.93361E-20
 -1      3600 5.32491E-05-1.14027E-05-1.78002E-05 2.06270E-06-6.89482E-19 3.97036E-18
 -1      3601 5.27315E-05-1.15191E-05-1.74981E-05-6.90428E-06-2.32305E-19 3.83298E-18
 -1      3602 9.52416E-05-2.85779E-05-2.85701E-05 8.12870E-09 1.15481E-18-1.16023E-18
 -1      3603 1.19326E-04-4.71918E-05-3.08832E-05-4.01893E-06 1.44103E-18-5.24327E-18
 -1      3604 1.09419E-04-4.57045E-05-2.73068E-05-1.69210E-05 2.69705E-18-3.34939E-18
 -1      3605 6.03805E-05-1.41486E-05-1.95399E-05-1.03587E-05 5.21408E-19 2.77464E-18
 -1      3606 9.52434E-05-2.85792E-05-2.85703E-05 7.93981E-09 1.45475E-18-9.45893E-19
 -1      3607 9.02304E-05-2.31524E-05-2.87261E-05 5.85164E-06 1.76443E-19 2.03776E-19
 -1      3608 1.16297E-04-3.50069E-05-3.48899E-05-1.11819E-05-1.32992E-18-1.07986E-18
 -1      3609 8.68319E-05-2.26530E-05-2.75488E-05 1.25601E-05-3.34388E-20-6.01687E-19
 -1      3610 8.69037E-05-2.34003E-05-2.71611E-05 1.39419E-05-3.89791E-19-4.88252E-19
 -1      3611 8.17222E-05-2.12991E-05-2.58563E-05 1.40642E-05-8.30101E-19-2.25629E-19
 -1      3612 9.52450E-05-2.85806E-05-2.85705E-05-7.02675E-10-8.36727E-19 1.04126E-18
 -1      3613 9.52448E-05-2.85804E-05-2.85705E-05-1.96648E-09-1.33288E-18 1.31980E-18
 -1      3614 9.52444E-05-2.85801E-05-2.85704E-05-3.35749E-09-1.00117E-18 1.02712E-18
 -1      3615 9.52439E-05-2.85797E-05-2.85704E-05-4.48174E-09-2.77109E-19 1.23090E-18
 -1      3616 9.52456E-05-2.85809E-05-2.85706E-05-2.89815E-09-3.01292E-19 1.04367E-18
 -1      3617 9.52388E-05-2.85757E-05-2.85699E-05-7.33263E-09 8.13459E-19 9.81683E-19
 -1      3618 9.52448E-05-2.85804E-05-2.85705E-05 2.00645E-09 3.75816E-19 3.25144E-18
 -1      3619 9.52450E-05-2.85806E-05-2.85705E-05 7.55016E-10 2.56874E-20 2.26902E-18
 -1      3620 9.52460E-05-2.85812E-05-2.85706E-05 2.17778E-11-4.53853E-19 3.03307E-18
 -1      3621 9.52432E-05-2.85791E-05-2.85703E-05-5.47111E-09 4.52778E-19-4.50432E-19
 -1      3622 9.52424E-05-2.85786E-05-2.85702E-05-6.19816E-09 5.72329E-19-8.50719E-19
 -1      3623 9.52443E-05-2.85800E-05-2.85705E-05-5.33777E-09 4.57598E-19 1.19806E-19
 -1      3624 9.24358E-05-3.60709E-05-2.39917E-05-2.41307E-05 2.95554E-18-3.57736E-19
 -1      3625 8.83582E-05-2.24911E-05-2.82666E-05 1.00990E-05 1.12216E-19-4.40345E-19
 -1      3626 8.80399E-05-2.25991E-05-2.80193E-05 1.11888E-05 1.67639E-19-4.22465E-19
 -1      3627 8.41900E-05-2.08623E-05-2.71114E-05 1.08863E-05-5.14581E-20-2.58113E-19
 -1      3628 8.65362E-05-2.13104E-05-2.79258E-05 8.73351E-06 8.76692E-20 5.45329E-19
 -1      3629 9.52400E-05-2.85767E-05-2.85700E-05-7.55607E-09 7.64074E-19 1.45500E-18
 -1      3630 5.76379E-05-1.25845E-05-1.89910E-05 7.20676E-06-9.52191E-19 3.01676E-18
 -1      3631 6.04431E-05-1.27920E-05-2.02839E-05 2.95604E-06-3.27808E-19 2.99172E-18
 -1      3632 6.33980E-05-1.52142E-05-2.06204E-05 1.16625E-05-1.43235E-18 2.13593E-18
 -1      3633 9.52439E-05-2.85797E-05-2.85704E-05 4.49722E-09 1.36121E-19-9.16333E-21
 -1      3634 9.52444E-05-2.85801E-05-2.85704E-05 3.38519E-09 6.75216E-19 2.19998E-18
 -1      3635 9.52456E-05-2.85809E-05-2.85706E-05 2.93454E-09-2.44048E-19 2.66179E-18
 -1      3636 9.52442E-05-2.85799E-05-2.85704E-05 5.54007E-09 6.80820E-19-6.17547E-19
 -1      3637 7.97274E-05-2.34978E-05-2.39885E-05 1.90312E-05-1.64500E-18 2.71792E-19
 -1      3638 8.63084E-05-2.81462E-05-2.49331E-05 2.07831E-05-1.67397E-18-6.17619E-19
 -1      3639 1.05695E-04-4.00851E-05-2.80714E-05-1.06485E-05 1.43318E-18-3.36974E-18
 -1      3640 1.02817E-04-3.77405E-05-2.78179E-05-1.11792E-05 1.56168E-18-2.91863E-18
 -1      3641 1.00275E-04-3.53496E-05-2.77936E-05-1.06178E-05 1.39919E-18-2.70482E-18
 -1      3642 9.82227E-05-3.33288E-05-2.77580E-05-1.03660E-05 8.52898E-19-2.67882E-18
 -1      3643 9.91901E-05-3.57555E-05-2.72849E-05-1.31196E-05 1.44182E-18-2.83313E-18
 -1      3644 9.67407E-05-3.16786E-05-2.78580E-05-9.51580E-06 5.44154E-19-2.38147E-18
 -1      3645 9.53848E-05-3.02143E-05-2.79115E-05-9.00422E-06 1.10760E-19-2.40383E-18
 -1      3646 9.54392E-05-3.16267E-05-2.73984E-05-1.13410E-05 8.57582E-19-2.62647E-18
 -1      3647 9.46201E-05-2.91177E-05-2.80465E-05-8.09900E-06-2.71523E-19-1.47765E-18
 -1      3648 9.38081E-05-2.81635E-05-2.81273E-05-7.51293E-06-1.93217E-19-1.36398E-18
 -1      3649 9.32847E-05-2.87770E-05-2.76807E-05-9.26220E-06 4.09435E-19-1.69726E-18
 -1      3650 9.34913E-05-2.75138E-05-2.82562E-05-6.70793E-06-1.09378E-19-9.10818E-19
 -1      3651 9.30632E-05-2.69510E-05-2.83347E-05-6.14020E-06 1.63385E-19-3.28944E-19
 -1      3652 9.22872E-05-2.70578E-05-2.79741E-05-7.42206E-06 2.25622E-19-7.98304E-19
 -1      3653 9.30189E-05-2.66215E-05-2.84413E-05-5.45937E-06-8.28101E-20 2.66549E-21
 -1      3654 9.28403E-05-2.63401E-05-2.85045E-05-4.94714E-06 2.18151E-19-7.45795E-20
 -1      3655 9.19742E-05-2.61244E-05-2.82300E-05-5.86971E-06 1.73505E-19-8.23943E-19
 -1      3656 9.29505E-05-2.62292E-05-2.85843E-05-4.38745E-06-2.40854E-20-6.40037E-19
 -1      3657 9.29244E-05-2.61377E-05-2.86287E-05-3.94182E-06-3.47180E-19-1.16967E-18
 -1      3658 9.20682E-05-2.57371E-05-2.84303E-05-4.60281E-06-5.86815E-19-1.00949E-18
 -1      3659 9.31117E-05-2.61663E-05-2.86833E-05-3.48859E-06-2.45593E-19-1.19778E-18
 -1      3660 9.31706E-05-2.61945E-05-2.87102E-05-3.10925E-06-1.17290E-20-9.41132E-19
 -1      3661 9.23805E-05-2.57054E-05-2.85745E-05-3.58534E-06-4.50343E-19-1.60646E-18
 -1      3662 9.33858E-05-2.63043E-05-2.87438E-05-2.74542E-06-3.42218E-19-4.66569E-19
 -1      3663 9.34855E-05-2.64009E-05-2.87563E-05-2.42747E-06-3.74061E-19-6.89017E-19
 -1      3664 9.27896E-05-2.58885E-05-2.86697E-05-2.77477E-06 2.75354E-19-7.30156E-19
 -1      3665 9.36991E-05-2.65510E-05-2.87738E-05-2.13729E-06-5.28873E-19-4.86877E-19
 -1      3666 9.38117E-05-2.66807E-05-2.87757E-05-1.87429E-06 2.37231E-19-1.23160E-19
 -1      3667 9.32202E-05-2.61868E-05-2.87257E-05-2.13184E-06 2.19832E-20-2.97127E-19
 -1      3668 9.40074E-05-2.68438E-05-2.87815E-05-1.64438E-06 6.49419E-19-9.28690E-19
 -1      3669 9.41167E-05-2.69831E-05-2.87761E-05-1.42962E-06 4.24720E-19-6.98927E-19
 -1      3670 9.36286E-05-2.65326E-05-2.87524E-05-1.62391E-06 9.72741E-20-1.14150E-20
 -1      3671 9.42863E-05-2.71421E-05-2.87739E-05-1.24881E-06 4.76588E-19-5.11708E-19
 -1      3672 9.43839E-05-2.72766E-05-2.87641E-05-1.07569E-06 7.72603E-19-9.82488E-19
 -1      3673 9.39917E-05-2.68820E-05-2.87585E-05-1.22456E-06 4.70226E-19-5.85850E-19
 -1      3674 9.45252E-05-2.74216E-05-2.87570E-05-9.34710E-07 5.61687E-19-7.38336E-19
 -1      3675 9.46075E-05-2.75433E-05-2.87449E-05-7.97030E-07 4.92185E-19-8.57825E-19
 -1      3676 9.43000E-05-2.72087E-05-2.87510E-05-9.12518E-07 7.23457E-19-4.44242E-19
 -1      3677 9.47213E-05-2.76694E-05-2.87352E-05-6.88181E-07 3.34485E-19-1.05476E-18
 -1      3678 9.47877E-05-2.77747E-05-2.87224E-05-5.80209E-07 3.89764E-19-1.14106E-18
 -1      3679 9.45523E-05-2.74986E-05-2.87353E-05-6.70535E-07 4.15104E-19-8.51360E-19
 -1      3680 9.48767E-05-2.78806E-05-2.87116E-05-4.97104E-07 2.89412E-19-7.45604E-19
 -1      3681 9.49285E-05-2.79684E-05-2.86991E-05-4.13671E-07 7.14682E-19-1.13456E-18
 -1      3682 9.47525E-05-2.77461E-05-2.87154E-05-4.84590E-07 6.35536E-19-1.17116E-18
 -1      3683 9.49961E-05-2.80547E-05-2.86883E-05-3.51025E-07 4.19359E-19-1.10612E-18
 -1      3684 9.50352E-05-2.81259E-05-2.86769E-05-2.87561E-07 5.65179E-19-1.50234E-18
 -1      3685 9.49070E-05-2.79508E-05-2.86943E-05-3.43227E-07 5.25778E-19-1.15604E-18
 -1      3686 9.50852E-05-2.81945E-05-2.86668E-05-2.41016E-07 1.09172E-18-1.34735E-18
 -1      3687 9.51137E-05-2.82508E-05-2.86567E-05-1.93560E-07 1.40978E-18-1.60291E-18
 -1      3688 9.50231E-05-2.81158E-05-2.86736E-05-2.37088E-07 7.65707E-19-1.49621E-18
 -1      3689 9.51496E-05-2.83040E-05-2.86476E-05-1.59553E-07 1.14051E-18-2.06317E-18
 -1      3690 9.51696E-05-2.83474E-05-2.86389E-05-1.24734E-07 2.00824E-19-1.93892E-18
 -1      3691 9.51078E-05-2.82456E-05-2.86546E-05-1.58538E-07 7.47186E-19-1.85859E-18
 -1      3692 9.51946E-05-2.83878E-05-2.86311E-05-1.00371E-07-4.35561E-19-1.77181E-18
 -1      3693 9.52081E-05-2.84205E-05-2.86238E-05-7.53717E-08-3.21811E-19-1.13800E-18
 -1      3694 9.51677E-05-2.83454E-05-2.86377E-05-1.01378E-07 2.38043E-19-2.68267E-18
 -1      3695 9.52248E-05-2.84505E-05-2.86173E-05-5.83294E-08-3.42791E-19-1.56374E-18
 -1      3696 9.52334E-05-2.84746E-05-2.86113E-05-4.08362E-08-5.60861E-20-1.77847E-18
 -1      3697 9.52087E-05-2.84205E-05-2.86232E-05-6.06107E-08-6.83768E-19-2.58834E-18
 -1      3698 9.52439E-05-2.84962E-05-2.86059E-05-2.92665E-08 5.85595E-19-2.44744E-18
 -1      3699 9.52490E-05-2.85135E-05-2.86012E-05-1.74119E-08 5.47801E-19-2.79021E-18
 -1      3700 9.52354E-05-2.84756E-05-2.86111E-05-3.22397E-08-3.74299E-19-1.83246E-18
 -1      3701 9.52551E-05-2.85287E-05-2.85969E-05-9.86404E-09 2.98604E-19-2.81857E-18
 -1      3702 9.52577E-05-2.85407E-05-2.85932E-05-2.16445E-09 7.69211E-20-2.66279E-18
 -1      3703 9.52517E-05-2.85151E-05-2.86013E-05-1.31037E-08 8.78103E-20-2.96983E-18
 -1      3704 9.52607E-05-2.85510E-05-2.85897E-05 2.48585E-09 5.95341E-19-2.58980E-18
 -1      3705 9.52616E-05-2.85591E-05-2.85869E-05 7.18932E-09 6.26772E-19-1.88602E-18
 -1      3706 9.52606E-05-2.85426E-05-2.85934E-05-7.29401E-10 3.93939E-19-2.47292E-18
 -1      3707 9.52626E-05-2.85658E-05-2.85842E-05 9.80101E-09 6.78600E-19-6.96683E-19
 -1      3708 9.52624E-05-2.85710E-05-2.85821E-05 1.23983E-08 2.37880E-19-2.66013E-20
 -1      3709 9.52645E-05-2.85610E-05-2.85872E-05 6.79348E-09 1.39825E-18-9.82311E-19
 -1      3710 9.52620E-05-2.85751E-05-2.85801E-05 1.36174E-08-2.89396E-19 2.12476E-19
 -1      3711 9.52612E-05-2.85781E-05-2.85785E-05 1.47798E-08-7.97069E-20 7.81100E-19
 -1      3712 9.52650E-05-2.85728E-05-2.85824E-05 1.09197E-08 4.47220E-19 3.10731E-19
 -1      3713 9.52600E-05-2.85804E-05-2.85770E-05 1.50838E-08-9.40753E-19 1.49947E-18
 -1      3714 9.52589E-05-2.85820E-05-2.85758E-05 1.53077E-08-4.89330E-19 9.99214E-19
 -1      3715 9.52635E-05-2.85797E-05-2.85788E-05 1.27397E-08 1.55527E-19 7.90971E-19
 -1      3716 9.52573E-05-2.85829E-05-2.85747E-05 1.50424E-08 9.60561E-20 1.79712E-18
 -1      3717 9.52560E-05-2.85835E-05-2.85739E-05 1.46870E-08-5.46175E-19 1.12717E-18
 -1      3718 9.52609E-05-2.85833E-05-2.85761E-05 1.30564E-08-2.65763E-19 2.36974E-18
 -1      3719 9.52544E-05-2.85837E-05-2.85731E-05 1.40972E-08-1.46472E-18 1.01714E-18
 -1      3720 9.52531E-05-2.85837E-05-2.85726E-05 1.34157E-08-2.14256E-18 2.98005E-19
 -1      3721 9.52577E-05-2.85847E-05-2.85742E-05 1.24491E-08-7.98505E-19 1.38742E-18
 -1      3722 9.52514E-05-2.85833E-05-2.85720E-05 1.26682E-08-1.81288E-18 9.41281E-19
 -1      3723 9.52502E-05-2.85830E-05-2.85716E-05 1.18327E-08-1.85516E-18 1.76454E-18
 -1      3724 9.52544E-05-2.85846E-05-2.85728E-05 1.13254E-08-1.74265E-18 2.48510E-18
 -1      3725 9.52486E-05-2.85823E-05-2.85713E-05 1.10386E-08-2.21512E-18 2.24362E-18
 -1      3726 9.52475E-05-2.85818E-05-2.85710E-05 1.01629E-08-1.70385E-18 2.19963E-18
 -1      3727 9.52512E-05-2.85837E-05-2.85718E-05 9.96122E-09-1.83965E-18 2.38687E-18
 -1      3728 9.52462E-05-2.85810E-05-2.85708E-05 9.39355E-09-6.08756E-19 1.96470E-18
 -1      3729 9.52452E-05-2.85804E-05-2.85706E-05 8.56807E-09 9.85074E-19 7.64808E-19
 -1      3730 9.52483E-05-2.85824E-05-2.85712E-05 8.54132E-09-1.43245E-18 3.39985E-18
 -1      3731 9.52471E-05-2.85818E-05-2.85708E-05-2.43453E-09 6.47218E-19 2.23510E-18
 -1      3732 9.52466E-05-2.85815E-05-2.85708E-05-3.87098E-09 1.65600E-19 6.83606E-19
 -1      3733 9.10361E-05-3.15299E-05-2.53008E-05 2.17640E-05-1.99880E-18-1.08001E-18
 -1      3734 8.76714E-05-3.13914E-05-2.38878E-05-2.23214E-05 2.39891E-18-5.60365E-20
 -1      3735 9.62433E-05-3.75022E-05-2.53771E-05-2.09853E-05 2.64675E-18-1.15126E-18
 -1      3736 9.52409E-05-2.85774E-05-2.85701E-05-7.23707E-09 4.59677E-19 1.05628E-18
 -1      3737 9.29261E-05-2.55711E-05-2.88760E-05 2.57059E-06 5.52117E-19-4.75813E-19
 -1      3738 9.25946E-05-2.52184E-05-2.88766E-05 2.90338E-06 6.66585E-19-5.73786E-20
 -1      3739 9.20648E-05-2.47872E-05-2.88454E-05 3.18834E-06 4.12495E-19 1.21827E-19
 -1      3740 9.16206E-05-2.43704E-05-2.88239E-05 3.57382E-06 5.55348E-19 2.14346E-19
 -1      3741 9.17878E-05-2.46241E-05-2.87709E-05 2.63000E-06 7.01423E-19 1.71727E-20
 -1      3742 9.40530E-05-2.67538E-05-2.88484E-05 1.58821E-06-5.67405E-19-1.02025E-18
 -1      3743 9.38752E-05-2.65164E-05-2.88675E-05 1.82407E-06-1.29390E-18-1.42143E-18
 -1      3744 9.44076E-05-2.71816E-05-2.88158E-05 1.21528E-06 9.20346E-19-7.45982E-19
 -1      3745 9.42793E-05-2.69911E-05-2.88369E-05 1.40841E-06 4.09461E-19-3.58727E-19
 -1      3746 9.39195E-05-2.66687E-05-2.88166E-05 1.34787E-06-3.63258E-19-1.05899E-18
 -1      3747 9.46669E-05-2.75219E-05-2.87800E-05 9.12314E-07-1.53966E-19-2.96985E-19
 -1      3748 9.45752E-05-2.73707E-05-2.88008E-05 1.06757E-06 8.66617E-19-3.49966E-20
 -1      3749 9.43077E-05-2.71156E-05-2.87930E-05 1.03691E-06 5.07196E-20 3.93574E-19
 -1      3750 9.48547E-05-2.77895E-05-2.87450E-05 6.70867E-07 2.58576E-19-6.86443E-19
 -1      3751 9.47899E-05-2.76708E-05-2.87642E-05 7.93471E-07 2.38653E-20-1.28534E-19
 -1      3752 9.45944E-05-2.74719E-05-2.87641E-05 7.81453E-07 4.29271E-19 6.95874E-19
 -1      3753 9.49891E-05-2.79976E-05-2.87127E-05 4.82037E-07 1.60002E-19-7.68024E-19
 -1      3754 9.49438E-05-2.79055E-05-2.87297E-05 5.77157E-07 4.06501E-19-6.70097E-19
 -1      3755 9.48037E-05-2.77528E-05-2.87343E-05 5.76181E-07 4.15382E-19-1.86319E-19
 -1      3756 9.50840E-05-2.81577E-05-2.86843E-05 3.37110E-07-4.42934E-20-8.41603E-19
 -1      3757 9.50529E-05-2.80870E-05-2.86988E-05 4.09597E-07 1.97880E-19-1.14197E-18
 -1      3758 9.49547E-05-2.79715E-05-2.87058E-05 4.14674E-07 5.52809E-19-9.16874E-19
 -1      3759 9.51497E-05-2.82792E-05-2.86599E-05 2.28005E-07 3.48495E-19-1.49021E-18
 -1      3760 9.51288E-05-2.82256E-05-2.86720E-05 2.82220E-07 1.93591E-19-1.04107E-18
 -1      3761 9.50620E-05-2.81399E-05-2.86801E-05 2.90182E-07 4.36840E-19-1.69510E-18
 -1      3762 9.51942E-05-2.83704E-05-2.86396E-05 1.47536E-07-3.31164E-20-7.70051E-19
 -1      3763 9.51805E-05-2.83302E-05-2.86495E-05 1.87275E-07 3.70956E-19-1.57715E-18
 -1      3764 9.51368E-05-2.82677E-05-2.86576E-05 1.96185E-07 1.59210E-19-1.10969E-18
 -1      3765 9.52234E-05-2.84376E-05-2.86230E-05 8.95176E-08 5.65760E-19-5.01595E-20
 -1      3766 9.52148E-05-2.84081E-05-2.86310E-05 1.17994E-07 3.55395E-19-8.83024E-19
 -1      3767 9.51877E-05-2.83634E-05-2.86386E-05 1.26732E-07 3.14647E-19-6.07937E-19
 -1      3768 9.52416E-05-2.84864E-05-2.86098E-05 4.87690E-08-7.93361E-20-5.91633E-20
 -1      3769 9.52366E-05-2.84650E-05-2.86160E-05 6.86379E-08 1.88081E-19 6.10690E-20
 -1      3770 9.52211E-05-2.84340E-05-2.86229E-05 7.66109E-08 2.61265E-19-1.12122E-18
 -1      3771 9.52522E-05-2.85211E-05-2.85993E-05 2.10512E-08-5.18597E-19 4.33330E-19
 -1      3772 9.52496E-05-2.85059E-05-2.86041E-05 3.44644E-08 1.80923E-19 2.84261E-19
 -1      3773 9.52421E-05-2.84850E-05-2.86101E-05 4.14078E-08 9.54821E-20-6.59404E-19
 -1      3774 9.52575E-05-2.85451E-05-2.85912E-05 2.96758E-09-5.17581E-19 2.02847E-19
 -1      3775 9.52565E-05-2.85346E-05-2.85949E-05 1.16346E-08-4.68431E-19 1.54832E-19
 -1      3776 9.52543E-05-2.85211E-05-2.85999E-05 1.74826E-08 2.44619E-19 7.60775E-19
 -1      3777 9.52594E-05-2.85611E-05-2.85851E-05-8.15034E-09-4.68676E-19-5.43749E-19
 -1      3778 9.52594E-05-2.85541E-05-2.85878E-05-2.89546E-09-2.45661E-19-2.43966E-19
 -1      3779 9.52605E-05-2.85460E-05-2.85919E-05 1.90368E-09 3.76124E-20 7.79342E-19
 -1      3780 9.52591E-05-2.85714E-05-2.85805E-05-1.43599E-08 4.45420E-19-1.59768E-18
 -1      3781 9.52597E-05-2.85670E-05-2.85825E-05-1.14949E-08-5.94444E-19-1.34722E-18
 -1      3782 9.52627E-05-2.85625E-05-2.85858E-05-7.63979E-09 1.68744E-19-4.18274E-19
 -1      3783 9.52575E-05-2.85776E-05-2.85771E-05-1.72168E-08-1.75955E-19-1.67040E-19
 -1      3784 9.52584E-05-2.85749E-05-2.85786E-05-1.59729E-08 7.86605E-19-1.51493E-18
 -1      3785 9.52624E-05-2.85730E-05-2.85812E-05-1.29329E-08 2.14689E-19-1.89599E-18
 -1      3786 9.52552E-05-2.85808E-05-2.85747E-05-1.78741E-08-9.43974E-19-5.53074E-19
 -1      3787 9.52563E-05-2.85795E-05-2.85757E-05-1.76843E-08-9.49681E-19-2.57100E-20
 -1      3788 9.52605E-05-2.85792E-05-2.85778E-05-1.53267E-08-6.26715E-19-1.43254E-18
 -1      3789 9.52526E-05-2.85822E-05-2.85730E-05-1.71672E-08 6.85684E-19 7.77012E-19
 -1      3790 9.52537E-05-2.85816E-05-2.85737E-05-1.76230E-08-3.86277E-19-3.35271E-19
 -1      3791 9.52579E-05-2.85824E-05-2.85753E-05-1.58227E-08-6.66996E-19-1.55564E-18
 -1      3792 9.52500E-05-2.85823E-05-2.85719E-05-1.56867E-08 1.45486E-18 1.35228E-18
 -1      3793 9.52511E-05-2.85823E-05-2.85723E-05-1.65010E-08 1.66900E-18 1.49946E-18
 -1      3794 9.52549E-05-2.85835E-05-2.85735E-05-1.51460E-08 3.87820E-19 1.86689E-20
 -1      3795 9.52476E-05-2.85816E-05-2.85711E-05-1.38370E-08 2.42841E-18 1.14623E-18
 -1      3796 9.52485E-05-2.85819E-05-2.85714E-05-1.48152E-08 2.02235E-18 1.56954E-18
 -1      3797 9.52519E-05-2.85834E-05-2.85723E-05-1.38096E-08 2.07135E-18 9.43221E-19
 -1      3798 9.52454E-05-2.85805E-05-2.85707E-05-1.18779E-08 2.43182E-18 1.34944E-18
 -1      3799 9.52463E-05-2.85810E-05-2.85708E-05-1.28955E-08 2.49659E-18 1.11001E-18
 -1      3800 9.52491E-05-2.85826E-05-2.85714E-05-1.21632E-08 1.98244E-18 1.16604E-18
 -1      3801 9.52436E-05-2.85794E-05-2.85704E-05-9.95450E-09 6.46230E-19 5.21486E-19
 -1      3802 9.52442E-05-2.85799E-05-2.85704E-05-1.09479E-08 2.21676E-18 2.98403E-19
 -1      3803 9.52467E-05-2.85814E-05-2.85709E-05-1.04313E-08 2.24445E-18 1.99797E-18
 -1      3804 7.41371E-05-2.45727E-05-2.08770E-05 2.40393E-05-2.63742E-18 1.18248E-18
 -1      3805 7.11157E-05-2.11272E-05-2.13469E-05 1.97862E-05-1.86975E-18 1.57643E-18
 -1      3806 8.75197E-05-2.16614E-05-2.82539E-05 5.62971E-06 1.98564E-19 7.35464E-19
 -1      3807 8.65765E-05-2.11434E-05-2.80481E-05 6.24323E-06-4.06621E-20 5.16362E-19
 -1      3808 1.16434E-04-4.67273E-05-2.96403E-05-7.15662E-06 1.80189E-18-4.94663E-18
 -1      3809 8.94421E-05-2.28118E-05-2.85768E-05 4.69639E-06-2.88364E-19 7.54198E-19
 -1      3810 8.86855E-05-2.22900E-05-2.84603E-05 5.20763E-06 2.54373E-19 5.16946E-19
 -1      3811 8.69934E-05-2.13043E-05-2.81184E-05 4.38089E-06 1.95680E-19 3.88989E-19
 -1      3812 1.04178E-04-4.19827E-05-2.64088E-05-1.86227E-05 2.63634E-18-2.65185E-18
 -1      3813 1.10551E-04-4.56591E-05-2.80386E-05-1.38947E-05 2.25817E-18-4.35885E-18
 -1      3814 9.90405E-05-3.79336E-05-2.61464E-05-1.79507E-05 2.48524E-18-1.88055E-18
 -1      3815 8.36127E-05-2.90981E-05-2.32613E-05 2.35723E-05-2.38316E-18-1.75574E-19
 -1      3816 9.52421E-05-2.85783E-05-2.85702E-05-7.46498E-09 2.27300E-19 1.52454E-19
 -1      3817 1.11075E-04-4.42303E-05-2.86422E-05-1.00293E-05 1.91171E-18-4.11012E-18
 -1      3818 9.52451E-05-2.85804E-05-2.85706E-05 7.22055E-09 3.22283E-19 8.91811E-19
 -1      3819 7.11553E-05-1.99183E-05-2.17607E-05-1.75177E-05 1.39100E-18 1.99246E-18
 -1      3820 7.87167E-05-2.59460E-05-2.28048E-05-2.14122E-05 2.21868E-18 9.68013E-19
 -1      3821 9.09278E-05-2.38646E-05-2.87571E-05 3.89424E-06 2.07733E-19 6.26615E-20
 -1      3822 9.03419E-05-2.33874E-05-2.86988E-05 4.33673E-06-1.57680E-19 5.90759E-19
 -1      3823 9.05861E-05-2.36625E-05-2.86632E-05 3.16378E-06 3.42437E-19 4.52817E-19
 -1      3824 6.18167E-05-1.33463E-05-2.06814E-05-5.32606E-06 3.40964E-19 2.64797E-18
 -1      3825 6.49455E-05-1.59982E-05-2.10344E-05-1.26731E-05 1.04267E-18 1.97136E-18
 -1      3826 7.48267E-05-2.12108E-05-2.29130E-05 1.77178E-05-1.70791E-18 8.91860E-19
 -1      3827 6.80270E-05-1.70370E-05-2.15743E-05 1.47166E-05-1.34618E-18 1.66683E-18
 -1      3828 6.76607E-05-1.58679E-05-2.22063E-05 1.06679E-05-8.25698E-19 1.82672E-18
 -1      3829 7.57698E-05-1.97544E-05-2.40815E-05 1.48355E-05-1.07795E-18 5.42498E-19
 -1      3830 9.35723E-05-2.62223E-05-2.88718E-05 2.03826E-06-8.00235E-19-7.53690E-19
 -1      3831 9.33282E-05-2.59304E-05-2.88848E-05 2.32100E-06 3.44271E-19-7.98527E-19
 -1      3832 9.27044E-05-2.54384E-05-2.88184E-05 2.14601E-06 5.55997E-19 7.59706E-20
 -1      3833 8.47695E-05-2.79564E-05-2.42535E-05-1.88510E-05 1.73241E-18 3.97541E-19
 -1      3834 1.07635E-04-4.18352E-05-2.80769E-05-1.14085E-05 1.77510E-18-3.81889E-18
 -1      3835 9.52473E-05-2.85819E-05-2.85709E-05-4.79376E-09 1.19424E-18-1.46120E-19
 -1      3836 9.52459E-05-2.85810E-05-2.85707E-05-5.19622E-09 5.28349E-19-2.80660E-19
 -1      3837 9.52451E-05-2.85804E-05-2.85706E-05-6.18911E-09 9.58941E-19 7.34244E-20
 -1      3838 9.52473E-05-2.85820E-05-2.85709E-05-7.27574E-10-2.27863E-19 2.03296E-18
 -1      3839 9.52483E-05-2.85826E-05-2.85710E-05-1.71668E-09 3.88848E-19 1.92082E-18
 -1      3840 9.52473E-05-2.85820E-05-2.85709E-05 7.69009E-10-8.98767E-19 3.12702E-18
 -1      3841 9.52427E-05-2.85788E-05-2.85703E-05-8.31676E-09 2.68235E-19 4.20328E-19
 -1      3842 1.03687E-04-4.03503E-05-2.72240E-05-1.49037E-05 2.14093E-18-3.21057E-18
 -1      3843 7.85010E-05-1.97168E-05-2.51628E-05 1.27619E-05-1.00617E-18 9.51092E-20
 -1      3844 7.46473E-05-1.77602E-05-2.42631E-05 1.12855E-05-7.96530E-19 5.62933E-19
 -1      3845 7.97188E-05-1.94009E-05-2.59366E-05 1.10028E-05-3.70967E-19-1.11996E-19
 -1      3846 7.15173E-05-1.84683E-05-2.26252E-05-1.29687E-05 1.17382E-18 1.53357E-18
 -1      3847 9.52446E-05-2.85801E-05-2.85705E-05-7.91376E-09 6.49301E-19 1.38026E-18
 -1      3848 6.59572E-05-1.41165E-05-2.22285E-05 3.70973E-06-2.23375E-19 2.09663E-18
 -1      3849 6.31423E-05-1.31011E-05-2.12951E-05-1.03568E-06-1.88647E-20 2.80286E-18
 -1      3850 6.75400E-05-1.46486E-05-2.25946E-05-3.32077E-06 3.73164E-19 2.09214E-18
 -1      3851 9.52461E-05-2.85811E-05-2.85707E-05 6.01643E-09-6.47202E-19 9.95530E-19
 -1      3852 8.50758E-05-2.04992E-05-2.77157E-05 6.77133E-06 6.77428E-20 8.04889E-19
 -1      3853 8.39382E-05-2.00529E-05-2.73750E-05 7.55805E-06 3.76305E-19 5.39162E-19
 -1      3854 8.43701E-05-1.99591E-05-2.75592E-05 5.13724E-06 8.02936E-20 5.28707E-19
 -1      3855 8.90220E-05-2.25531E-05-2.84620E-05 3.74340E-06-2.33517E-20 4.09970E-19
 -1      3856 9.33983E-05-2.61150E-05-2.88285E-05 1.71752E-06-4.77391E-19-6.83424E-19
 -1      3857 9.34712E-05-3.08454E-05-2.68821E-05-1.27763E-05 1.22751E-18-2.17394E-18
 -1      3858 9.20601E-05-2.89916E-05-2.70346E-05-1.14393E-05 7.62194E-19-2.00677E-18
 -1      3859 9.16992E-05-2.79179E-05-2.73008E-05-1.00146E-05 5.62794E-19-1.55553E-18
 -1      3860 9.09565E-05-2.68841E-05-2.74691E-05-8.97255E-06 7.70782E-19-1.11215E-18
 -1      3861 8.95796E-05-2.71053E-05-2.68012E-05-1.12403E-05 1.04225E-18-1.03164E-18
 -1      3862 9.09594E-05-2.62588E-05-2.76997E-05-7.77821E-06 5.36750E-19-1.21976E-18
 -1      3863 9.06513E-05-2.56927E-05-2.78513E-05-6.90624E-06 3.88814E-19-1.01524E-18
 -1      3864 8.91901E-05-2.54189E-05-2.73393E-05-8.43725E-06 6.59733E-19-1.17160E-18
 -1      3865 9.08857E-05-2.54266E-05-2.80342E-05-5.98970E-06-1.46840E-19-1.21191E-18
 -1      3866 9.08465E-05-2.51770E-05-2.81566E-05-5.28502E-06-1.38758E-19-1.37071E-18
 -1      3867 8.94898E-05-2.46745E-05-2.77784E-05-6.27480E-06-2.96728E-20-1.54440E-18
 -1      3868 9.11839E-05-2.51364E-05-2.82931E-05-4.58729E-06-4.74464E-19-1.50554E-18
 -1      3869 9.12979E-05-2.50955E-05-2.83839E-05-4.02742E-06-8.08421E-19-1.94295E-18
 -1      3870 9.00867E-05-2.44789E-05-2.81136E-05-4.66419E-06-2.90846E-19-1.82721E-18
 -1      3871 9.16690E-05-2.51950E-05-2.84805E-05-3.50098E-06-8.06518E-19-1.49359E-18
 -1      3872 9.18585E-05-2.52815E-05-2.85429E-05-3.05937E-06-3.26719E-20-1.08060E-18
 -1      3873 9.08082E-05-2.46294E-05-2.83565E-05-3.45923E-06-2.84691E-19-1.35973E-18
 -1      3874 9.22219E-05-2.54591E-05-2.86073E-05-2.66279E-06 2.10067E-19-9.96756E-19
 -1      3875 9.24384E-05-2.56158E-05-2.86466E-05-2.31529E-06 5.18671E-19-7.97149E-19
 -1      3876 9.15474E-05-2.49776E-05-2.85237E-05-2.56350E-06 2.26436E-19-6.27221E-19
 -1      3877 9.27718E-05-2.58293E-05-2.86864E-05-2.01636E-06 3.45220E-19-8.26219E-19
 -1      3878 9.29862E-05-2.60173E-05-2.87079E-05-1.74337E-06 3.12691E-19-5.24446E-19
 -1      3879 9.22447E-05-2.54231E-05-2.86319E-05-1.89619E-06 5.31182E-19-5.75042E-19
 -1      3880 9.32785E-05-2.62384E-05-2.87294E-05-1.51812E-06 4.47710E-19-4.39640E-19
 -1      3881 9.34745E-05-2.64321E-05-2.87381E-05-1.30418E-06 2.02886E-19-3.76118E-19
 -1      3882 9.28690E-05-2.58995E-05-2.86958E-05-1.39841E-06 5.60061E-19-1.11568E-18
 -1      3883 9.37220E-05-2.66430E-05-2.87469E-05-1.13461E-06 5.91058E-20-2.06119E-19
 -1      3884 9.38917E-05-2.68266E-05-2.87468E-05-9.67567E-07 6.32201E-19-2.90373E-19
 -1      3885 9.34065E-05-2.63637E-05-2.87280E-05-1.02677E-06 2.40163E-19-2.58855E-19
 -1      3886 9.40952E-05-2.70171E-05-2.87470E-05-8.40174E-07 6.87054E-19-9.86145E-19
 -1      3887 9.42365E-05-2.71818E-05-2.87413E-05-7.10436E-07 7.13643E-19-7.00786E-19
 -1      3888 9.38547E-05-2.67899E-05-2.87382E-05-7.49243E-07 3.37025E-19-1.32916E-18
 -1      3889 9.43994E-05-2.73471E-05-2.87362E-05-6.15040E-07 2.48528E-19-8.85041E-19
 -1      3890 9.45132E-05-2.74892E-05-2.87274E-05-5.14980E-07 6.10352E-19-4.59908E-19
 -1      3891 9.42184E-05-2.71650E-05-2.87341E-05-5.42161E-07 5.12437E-19-2.12698E-18
 -1      3892 9.46406E-05-2.76281E-05-2.87193E-05-4.43896E-07 4.01787E-19-9.47577E-19
 -1      3893 9.47295E-05-2.77466E-05-2.87091E-05-3.67394E-07 5.10946E-19-1.07429E-18
 -1      3894 9.45063E-05-2.74841E-05-2.87214E-05-3.87978E-07 1.77062E-19-7.42622E-19
 -1      3895 9.48269E-05-2.78603E-05-2.86997E-05-3.14788E-07 5.56745E-19-1.24569E-18
 -1      3896 9.48945E-05-2.79567E-05-2.86893E-05-2.56909E-07 5.62220E-19-1.54289E-18
 -1      3897 9.47290E-05-2.77482E-05-2.87042E-05-2.73636E-07 2.56288E-19-1.18669E-18
 -1      3898 9.49672E-05-2.80475E-05-2.86797E-05-2.18330E-07 8.83460E-19-1.59798E-18
 -1      3899 9.50172E-05-2.81240E-05-2.86698E-05-1.75080E-07 8.84362E-19-1.82840E-18
 -1      3900 9.48974E-05-2.79616E-05-2.86853E-05-1.89351E-07 6.85127E-19-2.05753E-18
 -1      3901 9.50701E-05-2.81950E-05-2.86606E-05-1.47117E-07 5.92806E-19-1.04290E-18
 -1      3902 9.51060E-05-2.82544E-05-2.86516E-05-1.15266E-07 5.40153E-19-1.57909E-18
 -1      3903 9.50215E-05-2.81303E-05-2.86666E-05-1.27744E-07 1.35591E-18-1.85946E-18
 -1      3904 9.51435E-05-2.83087E-05-2.86434E-05-9.52973E-08 2.22772E-19-1.25576E-18
 -1      3905 9.51685E-05-2.83538E-05-2.86355E-05-7.22435E-08-1.47284E-19-1.57801E-18
 -1      3906 9.51108E-05-2.82609E-05-2.86492E-05-8.32181E-08 2.21573E-19-9.77997E-19
 -1      3907 9.51941E-05-2.83944E-05-2.86283E-05-5.82513E-08-9.16787E-19-1.49120E-18
 -1      3908 9.52108E-05-2.84280E-05-2.86217E-05-4.19087E-08-8.91432E-19-1.59366E-18
 -1      3909 9.51730E-05-2.83599E-05-2.86337E-05-5.15042E-08-6.84616E-19-1.41716E-18
 -1      3910 9.52275E-05-2.84577E-05-2.86155E-05-3.23421E-08-9.47424E-19-1.21544E-18
 -1      3911 9.52381E-05-2.84820E-05-2.86100E-05-2.10522E-08-7.05068E-19-1.62447E-18
 -1      3912 9.52149E-05-2.84333E-05-2.86203E-05-2.93393E-08-1.04879E-18-6.19830E-19
 -1      3913 9.52484E-05-2.85033E-05-2.86050E-05-1.47228E-08-3.25866E-19-1.57904E-18
 -1      3914 9.52545E-05-2.85204E-05-2.86005E-05-7.17944E-09-1.31009E-19-2.11981E-18
 -1      3915 9.52416E-05-2.84865E-05-2.86091E-05-1.42277E-08-8.01384E-19-6.33646E-19
 -1      3916 9.52603E-05-2.85351E-05-2.85964E-05-3.18208E-09 5.26266E-19-1.94815E-18
 -1      3917 9.52634E-05-2.85469E-05-2.85929E-05 1.63199E-09 1.26998E-18-1.37659E-18
 -1      3918 9.52575E-05-2.85241E-05-2.85999E-05-4.26448E-09 3.09546E-19-1.21586E-18
 -1      3919 9.52660E-05-2.85567E-05-2.85897E-05 3.98148E-09 2.06256E-18-1.19008E-18
 -1      3920 9.52670E-05-2.85644E-05-2.85869E-05 6.84867E-09 2.09776E-18-5.60211E-19
 -1      3921 9.52657E-05-2.85498E-05-2.85925E-05 1.99722E-09 1.83152E-18-1.19800E-18
 -1      3922 9.52676E-05-2.85706E-05-2.85844E-05 8.06198E-09 1.23809E-18-5.41516E-19
 -1      3923 9.52672E-05-2.85753E-05-2.85823E-05 9.57555E-09 1.44976E-19 1.42708E-19
 -1      3924 9.52688E-05-2.85667E-05-2.85866E-05 5.64861E-09 1.89905E-18-1.62324E-18
 -1      3925 9.52665E-05-2.85790E-05-2.85803E-05 1.00304E-08 2.11281E-19 4.79764E-19
 -1      3926 9.52654E-05-2.85816E-05-2.85788E-05 1.06331E-08 1.03074E-18 1.25088E-18
 -1      3927 9.52686E-05-2.85771E-05-2.85821E-05 7.50431E-09 7.14563E-19 4.12915E-19
 -1      3928 9.52639E-05-2.85835E-05-2.85773E-05 1.06039E-08 7.62589E-20 2.68739E-19
 -1      3929 9.52624E-05-2.85847E-05-2.85761E-05 1.06198E-08-6.51886E-20 8.24911E-19
 -1      3930 9.52665E-05-2.85829E-05-2.85787E-05 8.16467E-09 3.99982E-19-4.78978E-19
 -1      3931 9.52606E-05-2.85854E-05-2.85751E-05 1.03017E-08-1.68880E-19 4.82211E-19
 -1      3932 9.52589E-05-2.85857E-05-2.85742E-05 9.96346E-09-8.09119E-19 5.05545E-19
 -1      3933 9.52632E-05-2.85857E-05-2.85761E-05 8.06463E-09 1.72469E-19-5.94427E-19
 -1      3934 9.52570E-05-2.85856E-05-2.85734E-05 9.49364E-09-1.32305E-18 9.52312E-19
 -1      3935 9.52553E-05-2.85853E-05-2.85728E-05 8.96376E-09-1.76761E-18 1.94347E-18
 -1      3936 9.52595E-05-2.85864E-05-2.85742E-05 7.51372E-09-1.95882E-19 7.52879E-19
 -1      3937 9.52535E-05-2.85848E-05-2.85723E-05 8.42952E-09-1.77645E-18 2.11796E-18
 -1      3938 9.52519E-05-2.85842E-05-2.85719E-05 7.81934E-09-1.76947E-18 2.66436E-18
 -1      3939 9.52557E-05-2.85858E-05-2.85729E-05 6.72988E-09-1.05692E-18 1.72781E-18
 -1      3940 9.52502E-05-2.85834E-05-2.85715E-05 7.28017E-09-2.06996E-18 3.46296E-18
 -1      3941 9.52489E-05-2.85827E-05-2.85712E-05 6.64947E-09-1.59645E-18 2.83772E-18
 -1      3942 9.52522E-05-2.85845E-05-2.85719E-05 5.85843E-09-1.95438E-18 3.26158E-18
 -1      3943 8.20014E-05-2.45679E-05-2.44356E-05-1.62492E-05 1.28669E-18 2.88137E-19
 -1      3944 8.86777E-05-2.98745E-05-2.53424E-05-1.73675E-05 1.41194E-18-3.07228E-19
 -1      3945 9.42362E-05-2.71086E-05-2.87729E-05 8.15428E-07-2.39653E-19 1.04986E-19
 -1      3946 9.40680E-05-2.69039E-05-2.87853E-05 9.47060E-07-7.38064E-19-8.58942E-20
 -1      3947 9.38269E-05-2.66610E-05-2.87903E-05 1.05431E-06-6.58264E-19-2.37517E-19
 -1      3948 9.35999E-05-2.64073E-05-2.87983E-05 1.21081E-06-6.49234E-19-2.74107E-19
 -1      3949 9.37931E-05-2.66496E-05-2.87705E-05 8.17323E-07-1.02290E-18 5.76120E-20
 -1      3950 9.47656E-05-2.77498E-05-2.87234E-05 4.54967E-07 6.31241E-19 4.54724E-20
 -1      3951 9.46760E-05-2.76214E-05-2.87376E-05 5.41432E-07 7.82546E-19 5.50822E-19
 -1      3952 9.49287E-05-2.79706E-05-2.86981E-05 3.27164E-07 5.37972E-19-4.48660E-19
 -1      3953 9.48646E-05-2.78708E-05-2.87114E-05 3.94935E-07 7.96252E-19 5.46883E-20
 -1      3954 9.47520E-05-2.77449E-05-2.87153E-05 3.60041E-07 6.88385E-19-2.88862E-20
 -1      3955 9.50452E-05-2.81406E-05-2.86748E-05 2.28292E-07 8.70661E-19-7.20551E-19
 -1      3956 9.50002E-05-2.80640E-05-2.86867E-05 2.80299E-07 6.37573E-19-2.66091E-19
 -1      3957 9.49202E-05-2.79680E-05-2.86924E-05 2.59641E-07 9.04965E-19-7.77637E-20
 -1      3958 9.51269E-05-2.82697E-05-2.86541E-05 1.53518E-07 5.83568E-20-1.85778E-19
 -1      3959 9.50959E-05-2.82117E-05-2.86644E-05 1.92585E-07 4.76521E-19-3.68677E-19
 -1      3960 9.50406E-05-2.81398E-05-2.86708E-05 1.81422E-07 2.70140E-19 2.85741E-19
 -1      3961 9.51826E-05-2.83662E-05-2.86363E-05 9.82742E-08 1.09760E-18-1.91224E-18
 -1      3962 9.51619E-05-2.83230E-05-2.86450E-05 1.26971E-07 9.62442E-19-8.09071E-19
 -1      3963 9.51251E-05-2.82702E-05-2.86515E-05 1.21986E-07 5.69327E-19-7.38115E-19
 -1      3964 9.52194E-05-2.84371E-05-2.86215E-05 5.84771E-08 1.19105E-19-1.18752E-18
 -1      3965 9.52061E-05-2.84055E-05-2.86286E-05 7.90423E-08 2.58917E-19-1.06814E-18
 -1      3966 9.51828E-05-2.83675E-05-2.86347E-05 7.79432E-08 3.67183E-19-5.73117E-19
 -1      3967 9.52426E-05-2.84883E-05-2.86093E-05 3.06232E-08-1.27227E-19-4.52675E-19
 -1      3968 9.52345E-05-2.84655E-05-2.86151E-05 4.49450E-08 1.08054E-19-7.18220E-19
 -1      3969 9.52208E-05-2.84390E-05-2.86205E-05 4.61649E-08-2.32928E-19 7.31445E-20
 -1      3970 9.52561E-05-2.85243E-05-2.85996E-05 1.18004E-08 4.30591E-20 4.15294E-19
 -1      3971 9.52517E-05-2.85083E-05-2.86041E-05 2.14281E-08 1.80654E-20 1.21432E-19
 -1      3972 9.52446E-05-2.84903E-05-2.86088E-05 2.39156E-08-1.66896E-19 1.52741E-19
 -1      3973 9.52630E-05-2.85489E-05-2.85919E-05-3.46848E-10 2.71588E-19 1.34092E-19
 -1      3974 9.52610E-05-2.85381E-05-2.85954E-05 5.82801E-09 5.37157E-19 2.70178E-19
 -1      3975 9.52584E-05-2.85264E-05-2.85994E-05 8.89332E-09 3.14816E-19 5.18334E-19
 -1      3976 9.52654E-05-2.85651E-05-2.85859E-05-7.67977E-09 1.02809E-18-7.49524E-19
 -1      3977 9.52651E-05-2.85580E-05-2.85886E-05-3.98410E-09 7.43144E-19 9.66955E-20
 -1      3978 9.52653E-05-2.85509E-05-2.85919E-05-7.78636E-10 7.51639E-19-6.02870E-19
 -1      3979 9.52651E-05-2.85752E-05-2.85814E-05-1.16366E-08-2.77810E-19-1.08997E-18
 -1      3980 9.52657E-05-2.85709E-05-2.85834E-05-9.67209E-09 5.48268E-19-8.70978E-19
 -1      3981 9.52676E-05-2.85669E-05-2.85860E-05-6.59040E-09 7.42752E-19-5.33137E-19
 -1      3982 9.52630E-05-2.85810E-05-2.85780E-05-1.33048E-08-1.65255E-19-2.01098E-18
 -1      3983 9.52642E-05-2.85786E-05-2.85795E-05-1.25086E-08-1.31722E-19-8.01087E-19
 -1      3984 9.52671E-05-2.85768E-05-2.85816E-05-9.69685E-09-5.14129E-20-9.10305E-19
 -1      3985 9.52601E-05-2.85839E-05-2.85755E-05-1.34886E-08-9.03038E-19-6.80567E-19
 -1      3986 9.52616E-05-2.85827E-05-2.85766E-05-1.34462E-08-1.10977E-18-9.04541E-19
 -1      3987 9.52647E-05-2.85824E-05-2.85782E-05-1.09726E-08-7.65226E-19-1.23801E-18
 -1      3988 9.52568E-05-2.85847E-05-2.85737E-05-1.27671E-08 4.71614E-19 4.47042E-19
 -1      3989 9.52583E-05-2.85845E-05-2.85745E-05-1.31808E-08-2.45479E-19 1.86385E-19
 -1      3990 9.52615E-05-2.85850E-05-2.85757E-05-1.10638E-08-1.23436E-18-4.77511E-19
 -1      3991 9.52535E-05-2.85844E-05-2.85725E-05-1.15490E-08 1.25718E-18 1.32929E-18
 -1      3992 9.52550E-05-2.85846E-05-2.85730E-05-1.22096E-08 8.20588E-19 9.37444E-19
 -1      3993 9.52580E-05-2.85856E-05-2.85739E-05-1.04339E-08 3.33039E-19 9.09634E-19
 -1      3994 9.52504E-05-2.85833E-05-2.85716E-05-1.01133E-08 2.13428E-18 1.16498E-18
 -1      3995 9.52517E-05-2.85839E-05-2.85719E-05-1.08834E-08 2.11736E-18 1.53166E-18
 -1      3996 9.52544E-05-2.85851E-05-2.85726E-05-9.42456E-09 1.13817E-18 1.58062E-18
 -1      3997 9.52476E-05-2.85819E-05-2.85710E-05-8.64166E-09 1.40200E-18 1.91085E-18
 -1      3998 9.52488E-05-2.85826E-05-2.85712E-05-9.42419E-09 2.45993E-18 2.01223E-18
 -1      3999 9.52511E-05-2.85839E-05-2.85717E-05-8.25390E-09 1.88392E-18 1.14331E-19
 -1      4000 9.74390E-05-3.59645E-05-2.62953E-05-1.67913E-05 2.20206E-18-1.69112E-18
 -1      4001 9.25654E-05-2.54367E-05-2.87769E-05 1.64516E-06 4.99113E-19 5.57526E-19
 -1      4002 9.21622E-05-2.50625E-05-2.87614E-05 1.84763E-06 8.59271E-19 5.20204E-19
 -1      4003 9.45411E-05-2.74668E-05-2.87492E-05 6.16407E-07 6.57581E-19 4.07512E-19
 -1      4004 9.44177E-05-2.73037E-05-2.87634E-05 7.24339E-07 7.31607E-19 4.81402E-19
 -1      4005 9.42095E-05-2.70988E-05-2.87578E-05 6.38105E-07 1.39015E-20-2.50713E-19
 -1      4006 9.45213E-05-2.74594E-05-2.87380E-05 4.85584E-07 8.34933E-19 5.74404E-19
 -1      4007 8.25422E-05-1.96889E-05-2.69998E-05 8.48790E-06-8.42401E-20 4.02609E-19
 -1      4008 8.13035E-05-1.94770E-05-2.64777E-05 9.63565E-06-1.15580E-19 1.83389E-19
 -1      4009 7.86639E-05-1.81397E-05-2.58695E-05 8.32378E-06-2.80753E-19 8.84513E-19
 -1      4010 8.14684E-05-1.88039E-05-2.68110E-05 6.33024E-06 1.12238E-19 1.08000E-18
 -1      4011 8.88229E-05-2.25821E-05-2.84041E-05 2.66500E-06 3.01240E-19 4.22562E-19
 -1      4012 8.79192E-05-2.19949E-05-2.82676E-05 2.89902E-06 2.22605E-19 7.79201E-19
 -1      4013 7.10420E-05-1.67327E-05-2.31943E-05-8.80062E-06 1.02790E-18 1.44298E-18
 -1      4014 7.54976E-05-2.04254E-05-2.37451E-05-1.35336E-05 1.32404E-18 1.09234E-18
 -1      4015 9.16265E-05-2.46309E-05-2.87217E-05 1.98231E-06 7.21783E-19 3.71707E-19
 -1      4016 9.10952E-05-2.41870E-05-2.86817E-05 2.20129E-06 3.03250E-19 3.70484E-19
 -1      4017 9.15897E-05-2.46298E-05-2.86841E-05 1.45122E-06 3.64324E-19 4.45519E-19
 -1      4018 9.04048E-05-2.36808E-05-2.86078E-05 2.32851E-06 1.85254E-19 6.90036E-19
 -1      4019 8.97100E-05-2.31643E-05-2.85295E-05 2.55742E-06 4.75560E-19 4.96779E-19
 -1      4020 9.03844E-05-2.36916E-05-2.85651E-05 1.64238E-06 5.77584E-19 8.75171E-19
 -1      4021 9.52461E-05-2.85811E-05-2.85707E-05-7.80032E-09 6.45071E-19 1.08411E-18
 -1      4022 9.32828E-05-2.61087E-05-2.87949E-05 1.33247E-06-3.84455E-19 3.68905E-19
 -1      4023 9.29790E-05-2.57984E-05-2.87944E-05 1.51332E-06 2.80464E-19 9.99998E-19
 -1      4024 9.25237E-05-2.54283E-05-2.87455E-05 1.23594E-06 4.67882E-19 1.00486E-18
 -1      4025 9.32432E-05-2.60974E-05-2.87696E-05 1.01952E-06-8.61205E-20 6.94829E-19
 -1      4026 9.52478E-05-2.85822E-05-2.85710E-05 5.53613E-09-2.00220E-18 2.68488E-18
 -1      4027 9.52467E-05-2.85815E-05-2.85708E-05 3.77476E-09-1.14873E-18 2.55557E-18
 -1      4028 9.52472E-05-2.85818E-05-2.85708E-05 2.37090E-09-2.02329E-18 4.27355E-18
 -1      4029 9.52494E-05-2.85831E-05-2.85713E-05 4.31389E-09-2.98317E-18 3.75067E-18
 -1      4030 7.17110E-05-1.65576E-05-2.36224E-05 9.37630E-06-6.76491E-19 1.39289E-18
 -1      4031 6.82923E-05-1.47834E-05-2.27814E-05 6.48784E-06-4.04357E-19 1.85816E-18
 -1      4032 7.01087E-05-1.50739E-05-2.36087E-05 3.30893E-06-1.83780E-19 1.80510E-18
 -1      4033 7.43505E-05-1.68702E-05-2.47078E-05 7.89684E-06-5.16323E-19 1.28379E-18
 -1      4034 8.67805E-05-2.13407E-05-2.80664E-05 2.97122E-06 9.86562E-20 7.17088E-19
 -1      4035 8.55974E-05-2.06763E-05-2.78424E-05 3.21230E-06 1.79162E-19 7.55379E-19
 -1      4036 8.68497E-05-2.13825E-05-2.80252E-05 1.82862E-06 1.85543E-19 1.35637E-18
 -1      4037 9.51992E-05-3.34486E-05-2.63724E-05-1.55062E-05 1.56900E-18-1.69670E-18
 -1      4038 9.52484E-05-2.85827E-05-2.85710E-05 1.62839E-09-1.83062E-18 3.06987E-18
 -1      4039 8.04183E-05-2.24565E-05-2.48036E-05-1.28005E-05 1.23944E-18 8.75101E-19
 -1      4040 8.88351E-05-2.26083E-05-2.83593E-05 1.77967E-06 3.27207E-19 1.13547E-18
 -1      4041 9.52480E-05-2.85823E-05-2.85710E-05-6.86974E-09 1.72263E-18-5.53909E-19
 -1      4042 9.52499E-05-2.85835E-05-2.85713E-05-9.91065E-10 1.03064E-19 1.20350E-18
 -1      4043 9.52496E-05-2.85833E-05-2.85713E-05-2.71108E-09 7.01323E-19 7.38108E-19
 -1      4044 8.41328E-05-1.99799E-05-2.75268E-05 3.25676E-06 2.41820E-19 7.22030E-19
 -1      4045 8.25855E-05-1.92709E-05-2.71702E-05 3.48593E-06 3.60044E-19 1.09231E-18
 -1      4046 8.43231E-05-2.00091E-05-2.75030E-05 1.77282E-06 1.27762E-19 1.13839E-18
 -1      4047 7.06228E-05-1.57595E-05-2.34674E-05-5.67515E-06 7.02955E-19 1.36842E-18
 -1      4048 7.48028E-05-1.75728E-05-2.44861E-05-6.36062E-06 7.01416E-19 9.40521E-19
 -1      4049 7.13178E-05-1.55350E-05-2.39285E-05-1.80766E-06 7.28779E-20 1.35638E-18
 -1      4050 9.19342E-05-3.03095E-05-2.64043E-05-1.40231E-05 1.12298E-18-1.63949E-18
 -1      4051 9.52494E-05-2.85831E-05-2.85712E-05-4.16323E-09 1.18115E-18 3.68573E-19
 -1      4052 9.52486E-05-2.85826E-05-2.85711E-05-5.51502E-09 1.50870E-18-8.86557E-19
 -1      4053 9.52502E-05-2.85835E-05-2.85714E-05-6.22772E-09 1.58293E-18-8.16742E-19
 -1      4054 9.52510E-05-2.85840E-05-2.85716E-05-3.41449E-09 7.11751E-19 1.72094E-20
 -1      4055 8.73764E-05-2.42983E-05-2.70118E-05-8.46935E-06 4.86693E-19-8.24973E-19
 -1      4056 8.74022E-05-2.38419E-05-2.72690E-05-7.23328E-06 3.59867E-20-1.10727E-18
 -1      4057 8.81152E-05-2.37803E-05-2.75544E-05-6.12153E-06-1.62391E-19-9.91294E-19
 -1      4058 8.83470E-05-2.36595E-05-2.77560E-05-5.24369E-06-1.24793E-19-1.03687E-18
 -1      4059 8.63864E-05-2.27355E-05-2.72551E-05-6.08715E-06 1.33767E-19-4.66252E-19
 -1      4060 8.90455E-05-2.37645E-05-2.79635E-05-4.40880E-06-9.71400E-21-9.33949E-19
 -1      4061 8.93798E-05-2.38422E-05-2.81113E-05-3.76341E-06-6.50076E-20-7.61845E-19
 -1      4062 8.77221E-05-2.28608E-05-2.77560E-05-4.20583E-06-1.25342E-19-7.12152E-19
 -1      4063 9.00097E-05-2.40595E-05-2.82568E-05-3.18022E-06-2.57700E-20-7.19337E-19
 -1      4064 9.03806E-05-2.42476E-05-2.83606E-05-2.70484E-06 6.36103E-20-3.37357E-19
 -1      4065 8.90461E-05-2.33477E-05-2.81188E-05-2.91430E-06-7.57123E-20-6.05191E-19
 -1      4066 9.09334E-05-2.45190E-05-2.84592E-05-2.29208E-06 2.05146E-19-1.13737E-19
 -1      4067 9.12971E-05-2.47624E-05-2.85283E-05-1.94063E-06 4.70037E-19-1.15923E-19
 -1      4068 9.02121E-05-2.39496E-05-2.83688E-05-2.00852E-06 1.90233E-19 7.37618E-20
 -1      4069 9.17724E-05-2.50537E-05-2.85918E-05-1.65007E-06 5.29551E-19 1.06802E-20
 -1      4070 9.21069E-05-2.53161E-05-2.86347E-05-1.38949E-06 5.84985E-19-1.34046E-19
 -1      4071 9.12294E-05-2.45965E-05-2.85344E-05-1.37646E-06 4.88908E-19 9.31453E-19
 -1      4072 9.25067E-05-2.56027E-05-2.86726E-05-1.18615E-06 5.75108E-19-2.36245E-19
 -1      4073 9.28007E-05-2.58602E-05-2.86963E-05-9.92478E-07 5.27741E-19-2.45978E-19
 -1      4074 9.20972E-05-2.52354E-05-2.86378E-05-9.39132E-07 5.74702E-19 6.77437E-19
 -1      4075 9.31302E-05-2.61264E-05-2.87161E-05-8.50860E-07 4.28000E-19-3.88664E-19
 -1      4076 9.33794E-05-2.63644E-05-2.87263E-05-7.06579E-07 4.10253E-19-1.41201E-19
 -1      4077 9.28215E-05-2.58320E-05-2.86967E-05-6.38393E-07 4.99456E-19 2.14565E-19
 -1      4078 9.36457E-05-2.66015E-05-2.87338E-05-6.08325E-07-3.18786E-19-3.60568E-19
 -1      4079 9.38509E-05-2.68122E-05-2.87350E-05-5.00659E-07-3.99544E-19-1.05427E-18
 -1      4080 9.34138E-05-2.63668E-05-2.87246E-05-4.32483E-07-2.63533E-19 2.75148E-19
 -1      4081 9.40620E-05-2.70166E-05-2.87345E-05-4.32718E-07 3.82658E-19-1.92232E-18
 -1      4082 9.42266E-05-2.71970E-05-2.87300E-05-3.52328E-07 4.42858E-19-1.80489E-18
 -1      4083 9.38889E-05-2.68307E-05-2.87319E-05-2.91903E-07-8.06575E-19-2.29400E-20
 -1      4084 9.43908E-05-2.73684E-05-2.87246E-05-3.05500E-07 5.91923E-19-1.21393E-18
 -1      4085 9.45197E-05-2.75187E-05-2.87169E-05-2.45536E-07 3.77654E-19-1.28505E-18
 -1      4086 9.42627E-05-2.72225E-05-2.87261E-05-1.96072E-07 5.74051E-19-1.19556E-18
 -1      4087 9.46451E-05-2.76591E-05-2.87089E-05-2.13382E-07 2.84472E-19-7.96059E-19
 -1      4088 9.47437E-05-2.77813E-05-2.86998E-05-1.68785E-07 6.68455E-19-7.67733E-19
 -1      4089 9.45513E-05-2.75456E-05-2.87128E-05-1.30783E-07 6.77015E-19-4.16602E-19
 -1      4090 9.48375E-05-2.78938E-05-2.86907E-05-1.46819E-07 1.53417E-19-3.96326E-19
 -1      4091 9.49112E-05-2.79911E-05-2.86812E-05-1.13824E-07 4.75193E-19-3.47914E-19
 -1      4092 9.47699E-05-2.78067E-05-2.86957E-05-8.63109E-08 3.47550E-19 4.60823E-19
 -1      4093 9.49799E-05-2.80794E-05-2.86720E-05-9.89285E-08 1.72419E-18-8.38806E-19
 -1      4094 9.50336E-05-2.81553E-05-2.86629E-05-7.47040E-08 1.75332E-18-6.82797E-19
 -1      4095 9.49320E-05-2.80134E-05-2.86775E-05-5.60355E-08 6.29300E-19 1.21278E-18
 -1      4096 9.50827E-05-2.82233E-05-2.86543E-05-6.47149E-08 1.14987E-18-1.04379E-18
 -1      4097 9.51208E-05-2.82813E-05-2.86460E-05-4.71169E-08 4.68256E-19-7.64761E-19
 -1      4098 9.50496E-05-2.81740E-05-2.86597E-05-3.54661E-08 1.48929E-18-5.67411E-19
 -1      4099 9.51549E-05-2.83327E-05-2.86383E-05-4.05277E-08-6.32328E-19-7.73360E-19
 -1      4100 9.51810E-05-2.83760E-05-2.86311E-05-2.79201E-08-8.37870E-19-4.46945E-19
 -1      4101 9.51326E-05-2.82965E-05-2.86432E-05-2.15557E-08 4.94253E-19-7.42902E-19
 -1      4102 9.52038E-05-2.84141E-05-2.86243E-05-2.36802E-08-8.66657E-19-1.71591E-20
 -1      4103 9.52210E-05-2.84458E-05-2.86182E-05-1.48092E-08-9.55327E-19 3.55723E-19
 -1      4104 9.51895E-05-2.83880E-05-2.86287E-05-1.22301E-08-8.89614E-19-1.01624E-18
 -1      4105 9.52355E-05-2.84733E-05-2.86125E-05-1.21833E-08-9.98281E-19 1.75756E-19
 -1      4106 9.52462E-05-2.84960E-05-2.86074E-05-6.08641E-09-4.27730E-19 2.11393E-19
 -1      4107 9.52269E-05-2.84550E-05-2.86163E-05-6.06941E-09-7.76274E-19-7.83745E-19
 -1      4108 9.52548E-05-2.85153E-05-2.86027E-05-4.55845E-09 1.66016E-19 7.94512E-19
 -1      4109 9.52608E-05-2.85311E-05-2.85985E-05-4.97902E-10 8.04043E-19 7.89536E-19
 -1      4110 9.52501E-05-2.85028E-05-2.86059E-05-2.09439E-09 7.03243E-19 5.05007E-19
 -1      4111 9.52653E-05-2.85442E-05-2.85947E-05 2.94903E-10 1.26044E-18-1.43725E-20
 -1      4112 9.52681E-05-2.85548E-05-2.85914E-05 2.88237E-09 2.17375E-18 2.19375E-19
 -1      4113 9.52633E-05-2.85360E-05-2.85974E-05 3.75809E-10 8.04454E-19 1.48701E-18
 -1      4114 9.52698E-05-2.85634E-05-2.85884E-05 3.19468E-09 1.74240E-18-1.03879E-18
 -1      4115 9.52705E-05-2.85701E-05-2.85859E-05 4.73606E-09 8.04532E-19-1.07577E-18
 -1      4116 9.52695E-05-2.85583E-05-2.85905E-05 1.81806E-09 9.97895E-19 3.71300E-19
 -1      4117 9.52703E-05-2.85754E-05-2.85835E-05 4.74586E-09 5.92133E-19-1.07639E-18
 -1      4118 9.52697E-05-2.85794E-05-2.85815E-05 5.56169E-09 7.59100E-19-5.28247E-19
 -1      4119 9.52711E-05-2.85725E-05-2.85852E-05 2.56817E-09 9.97465E-19-6.32256E-19
 -1      4120 9.52685E-05-2.85824E-05-2.85798E-05 5.39226E-09 6.39050E-19-1.17016E-18
 -1      4121 9.52671E-05-2.85844E-05-2.85783E-05 5.71996E-09 6.97866E-19-7.22157E-19
 -1      4122 9.52699E-05-2.85810E-05-2.85811E-05 2.86324E-09-4.43053E-20-6.21339E-19
 -1      4123 9.52653E-05-2.85858E-05-2.85769E-05 5.45539E-09 5.70455E-19-1.43060E-18
 -1      4124 9.52635E-05-2.85866E-05-2.85758E-05 5.46758E-09 2.29192E-19-6.85011E-19
 -1      4125 9.52670E-05-2.85854E-05-2.85779E-05 2.87106E-09-1.98347E-19-1.32164E-18
 -1      4126 9.52615E-05-2.85869E-05-2.85748E-05 5.16233E-09-7.02717E-20-6.50556E-19
 -1      4127 9.52596E-05-2.85868E-05-2.85740E-05 4.98040E-09 4.04350E-19-3.72558E-19
 -1      4128 9.52632E-05-2.85871E-05-2.85756E-05 2.71194E-09 2.03765E-20-1.95657E-18
 -1      4129 9.52576E-05-2.85865E-05-2.85733E-05 4.66904E-09 2.94340E-19-2.89901E-19
 -1      4130 9.52557E-05-2.85860E-05-2.85727E-05 4.36467E-09-1.00306E-18 4.61142E-19
 -1      4131 9.52592E-05-2.85871E-05-2.85738E-05 2.48058E-09 3.86092E-19-1.63539E-18
 -1      4132 9.52538E-05-2.85853E-05-2.85722E-05 4.11910E-09-1.74934E-18 1.28863E-18
 -1      4133 9.52520E-05-2.85845E-05-2.85718E-05 3.79489E-09-2.07949E-18 1.47508E-18
 -1      4134 9.52553E-05-2.85860E-05-2.85726E-05 2.18210E-09-6.95969E-19-8.83650E-19
 -1      4135 7.89316E-05-2.02654E-05-2.50878E-05-9.83904E-06 8.36938E-19 5.47223E-19
 -1      4136 8.36852E-05-2.41440E-05-2.56238E-05-1.25162E-05 9.88717E-19 5.53533E-19
 -1      4137 9.49214E-05-2.79908E-05-2.86862E-05 1.81179E-07 7.70938E-19 3.42009E-19
 -1      4138 9.48510E-05-2.78911E-05-2.86972E-05 2.22627E-07 1.05624E-18 2.16415E-19
 -1      4139 9.47529E-05-2.77739E-05-2.87074E-05 2.51276E-07 6.21116E-19 3.96796E-19
 -1      4140 9.46552E-05-2.76458E-05-2.87187E-05 3.03028E-07 8.05110E-19 4.06533E-19
 -1      4141 9.47688E-05-2.77920E-05-2.87009E-05 1.71016E-07 9.19549E-19 1.07991E-18
 -1      4142 9.51273E-05-2.82844E-05-2.86478E-05 8.42023E-08 4.96416E-19 1.67684E-19
 -1      4143 9.50930E-05-2.82267E-05-2.86568E-05 1.08755E-07 7.20907E-19 4.64559E-19
 -1      4144 9.51852E-05-2.83788E-05-2.86320E-05 5.30893E-08-7.55786E-19 8.86637E-19
 -1      4145 9.51623E-05-2.83360E-05-2.86397E-05 7.12787E-08-1.56278E-19 1.91606E-19
 -1      4146 9.51342E-05-2.82938E-05-2.86449E-05 5.85768E-08-2.98698E-19-2.60004E-19
 -1      4147 9.52233E-05-2.84478E-05-2.86185E-05 3.06859E-08-2.08939E-19 5.35709E-19
 -1      4148 9.52086E-05-2.84166E-05-2.86250E-05 4.38043E-08-7.36020E-19 6.01818E-19
 -1      4149 9.51905E-05-2.83862E-05-2.86298E-05 3.70608E-08-8.02510E-19-2.08269E-19
 -1      4150 9.52470E-05-2.84971E-05-2.86074E-05 1.50752E-08-4.24424E-19 1.20771E-18
 -1      4151 9.52383E-05-2.84750E-05-2.86127E-05 2.42549E-08 3.39471E-21 1.17768E-18
 -1      4152 9.52273E-05-2.84537E-05-2.86169E-05 2.14689E-08-5.48602E-19 6.81246E-19
 -1      4153 9.52607E-05-2.85316E-05-2.85984E-05 4.62123E-09 1.22457E-18-6.33458E-19
 -1      4154 9.52560E-05-2.85163E-05-2.86026E-05 1.08153E-08 8.09958E-19 8.74914E-20
 -1      4155 9.52501E-05-2.85018E-05-2.86062E-05 1.05576E-08 8.06891E-19 2.11719E-19
 -1      4156 9.52673E-05-2.85548E-05-2.85912E-05-2.02073E-09 4.43153E-19-1.00974E-18
 -1      4157 9.52654E-05-2.85446E-05-2.85945E-05 1.96444E-09 7.74452E-19-5.65409E-19
 -1      4158 9.52629E-05-2.85352E-05-2.85976E-05 3.23025E-09 8.80747E-19-1.65983E-18
 -1      4159 9.52694E-05-2.85698E-05-2.85856E-05-5.92245E-09 5.19056E-19-6.53337E-19
 -1      4160 9.52692E-05-2.85633E-05-2.85882E-05-3.52980E-09 6.34538E-19-1.10194E-18
 -1      4161 9.52690E-05-2.85575E-05-2.85906E-05-1.43270E-09 4.48047E-19-1.05788E-18
 -1      4162 9.52685E-05-2.85789E-05-2.85813E-05-7.91540E-09-2.39169E-19-1.21127E-18
 -1      4163 9.52694E-05-2.85750E-05-2.85832E-05-6.63803E-09 1.37252E-19-6.97789E-19
 -1      4164 9.52705E-05-2.85719E-05-2.85852E-05-4.17355E-09 9.38916E-19-1.04674E-18
 -1      4165 9.52659E-05-2.85839E-05-2.85780E-05-8.62848E-09-1.38828E-18-8.98720E-19
 -1      4166 9.52674E-05-2.85818E-05-2.85795E-05-8.10547E-09-2.65182E-19-1.31880E-18
 -1      4167 9.52693E-05-2.85804E-05-2.85810E-05-5.57297E-09-7.42313E-19-1.57267E-18
 -1      4168 9.52625E-05-2.85860E-05-2.85756E-05-8.52509E-09-1.40862E-18-1.27303E-18
 -1      4169 9.52642E-05-2.85852E-05-2.85767E-05-8.49063E-09-1.74897E-18-1.84164E-18
 -1      4170 9.52664E-05-2.85849E-05-2.85779E-05-6.07305E-09-9.64709E-19-1.36153E-18
 -1      4171 9.52587E-05-2.85863E-05-2.85738E-05-7.93535E-09 6.37387E-19-6.53189E-19
 -1      4172 9.52605E-05-2.85863E-05-2.85746E-05-8.19969E-09-6.02310E-19-1.36179E-18
 -1      4173 9.52628E-05-2.85867E-05-2.85755E-05-6.00285E-09-1.01142E-18-3.05575E-18
 -1      4174 9.52549E-05-2.85855E-05-2.85726E-05-7.07729E-09 8.62238E-19-7.28708E-19
 -1      4175 9.52567E-05-2.85860E-05-2.85731E-05-7.49752E-09 1.11907E-18-8.31967E-19
 -1      4176 9.52589E-05-2.85868E-05-2.85738E-05-5.59001E-09 3.82295E-19-2.63553E-18
 -1      4177 9.52517E-05-2.85842E-05-2.85718E-05-6.40775E-09 1.82771E-18-1.33295E-18
 -1      4178 9.52533E-05-2.85849E-05-2.85721E-05-6.93536E-09 1.46105E-18-1.34796E-18
 -1      4179 9.52552E-05-2.85858E-05-2.85726E-05-5.13441E-09 1.26512E-18-2.48218E-18
 -1      4180 9.52522E-05-2.85846E-05-2.85718E-05-5.01889E-09 1.25090E-18-3.85346E-19
 -1      4181 9.52510E-05-2.85840E-05-2.85715E-05 9.97216E-10-7.28681E-19 9.43991E-19
 -1      4182 9.52524E-05-2.85848E-05-2.85718E-05-5.06818E-11-8.89521E-19 1.34604E-19
 -1      4183 8.71970E-05-2.17645E-05-2.80547E-05 7.19977E-07 2.18329E-19 1.35190E-18
 -1      4184 8.60489E-05-2.11494E-05-2.78446E-05 6.19982E-07-1.46732E-19 1.21633E-18
 -1      4185 9.52508E-05-2.85839E-05-2.85715E-05 2.64394E-09-1.71511E-18 1.99824E-18
 -1      4186 9.16624E-05-2.47851E-05-2.86690E-05 9.04693E-07 3.54163E-19 4.75182E-19
 -1      4187 9.11264E-05-2.43597E-05-2.86243E-05 9.69983E-07 6.80627E-19 5.27094E-19
 -1      4188 8.90546E-05-2.28968E-05-2.83636E-05 9.06867E-07 4.22349E-19 1.03138E-18
 -1      4189 8.81608E-05-2.23392E-05-2.82307E-05 8.82524E-07 4.44416E-19 1.49935E-18
 -1      4190 8.76424E-05-2.20224E-05-2.80696E-05-1.90063E-07 3.13214E-19 4.51707E-19
 -1      4191 9.50424E-05-2.81578E-05-2.86660E-05 1.26161E-07 1.08081E-19 4.64195E-19
 -1      4192 9.49926E-05-2.80814E-05-2.86762E-05 1.58471E-07 2.95512E-19 5.14543E-19
 -1      4193 9.49333E-05-2.80052E-05-2.86811E-05 1.24528E-07 5.57990E-19 7.89757E-19
 -1      4194 9.50514E-05-2.81694E-05-2.86621E-05 8.73272E-08 2.80747E-19-6.86176E-20
 -1      4195 9.05144E-05-2.39039E-05-2.85559E-05 9.52047E-07 8.91685E-19 5.00080E-19
 -1      4196 8.98213E-05-2.34124E-05-2.84758E-05 9.83396E-07 1.00862E-18 8.34175E-19
 -1      4197 9.07121E-05-2.40350E-05-2.85447E-05 3.95836E-07 1.04976E-18 1.10217E-18
 -1      4198 9.38010E-05-2.67129E-05-2.87563E-05 5.58139E-07-9.08075E-19 1.33417E-19
 -1      4199 9.35615E-05-2.64631E-05-2.87591E-05 6.39926E-07-7.01879E-19 3.40612E-19
 -1      4200 8.82612E-05-2.73632E-05-2.60020E-05-1.39578E-05 1.12789E-18-6.39975E-19
 -1      4201 8.60534E-05-2.49783E-05-2.61430E-05-1.16115E-05 1.21303E-18-5.17898E-20
 -1      4202 9.52541E-05-2.85855E-05-2.85722E-05 2.10337E-10-9.58232E-19-6.34875E-19
 -1      4203 9.52528E-05-2.85850E-05-2.85719E-05-1.90969E-09-1.12731E-19-7.75959E-19
 -1      4204 9.52526E-05-2.85848E-05-2.85719E-05-3.38863E-09 1.26177E-19-5.44232E-19
 -1      4205 9.52560E-05-2.85862E-05-2.85727E-05 3.27122E-10 6.40301E-20-8.79163E-19
 -1      4206 7.78701E-05-1.91071E-05-2.51701E-05-7.83940E-06 4.09961E-19 7.07964E-19
 -1      4207 8.13983E-05-2.08187E-05-2.59291E-05-7.82448E-06-6.00864E-21 4.26670E-19
 -1      4208 7.71966E-05-1.80577E-05-2.53475E-05-4.92979E-06 5.55965E-20 6.79876E-19
 -1      4209 9.25618E-05-2.55423E-05-2.87288E-05 8.05463E-07 6.64547E-21 9.05643E-19
 -1      4210 9.21490E-05-2.51804E-05-2.87075E-05 8.87235E-07 3.54860E-19 7.11831E-19
 -1      4211 9.17942E-05-2.48793E-05-2.86545E-05 4.67328E-07 5.85148E-21 7.59473E-19
 -1      4212 8.48195E-05-2.05085E-05-2.75771E-05 3.26613E-07-4.39343E-19 1.16330E-18
 -1      4213 8.32760E-05-1.97735E-05-2.72528E-05 2.03250E-07 1.05359E-19 9.29329E-19
 -1      4214 8.54584E-05-2.08951E-05-2.76229E-05-8.94596E-07-1.94504E-19 5.89267E-19
 -1      4215 7.81813E-05-1.76917E-05-2.59874E-05 5.63939E-06-3.86656E-19 1.53181E-18
 -1      4216 7.67056E-05-1.73555E-05-2.54295E-05 6.72379E-06-4.81836E-19 1.14878E-18
 -1      4217 7.45250E-05-1.62971E-05-2.48794E-05 4.85142E-06-4.18302E-19 1.54770E-18
 -1      4218 8.93525E-05-2.30801E-05-2.83609E-05 2.00465E-07 1.17983E-18 5.06889E-19
 -1      4219 9.45439E-05-2.75193E-05-2.87200E-05 2.26791E-07 7.98913E-19 1.22856E-18
 -1      4220 9.45225E-05-2.74966E-05-2.87281E-05 3.37832E-07 6.74299E-19 2.48281E-19
 -1      4221 9.43890E-05-2.73342E-05-2.87386E-05 4.00521E-07 7.41580E-19 3.28252E-19
 -1      4222 9.42125E-05-2.71470E-05-2.87458E-05 4.40890E-07 2.79947E-19 2.70885E-19
 -1      4223 9.40326E-05-2.69442E-05-2.87537E-05 5.14143E-07-4.76501E-19-3.32381E-19
 -1      4224 9.42421E-05-2.71760E-05-2.87358E-05 2.90307E-07 2.58944E-19 3.35049E-19
 -1      4225 8.08079E-05-1.83663E-05-2.66850E-05 1.59582E-06 3.61149E-19 1.78476E-18
 -1      4226 8.05842E-05-1.84037E-05-2.66836E-05 3.60078E-06 1.73139E-19 1.16911E-18
 -1      4227 9.33219E-05-2.62322E-05-2.87399E-05 4.20071E-07-2.86389E-19 9.78846E-19
 -1      4228 9.32615E-05-2.61818E-05-2.87536E-05 6.83527E-07-1.27082E-19 5.88156E-19
 -1      4229 9.29458E-05-2.58788E-05-2.87472E-05 7.69314E-07 2.70667E-19 8.29023E-19
 -1      4230 9.38428E-05-2.67507E-05-2.87444E-05 3.57443E-07-6.37277E-19 4.59066E-19
 -1      4231 8.58363E-05-2.40648E-05-2.64887E-05-9.92307E-06 9.16836E-19-9.87612E-20
 -1      4232 8.41533E-05-2.24263E-05-2.64368E-05-8.48785E-06 3.20387E-19-2.25702E-19
 -1      4233 7.34133E-05-1.60338E-05-2.45929E-05 2.94460E-06-2.27566E-19 1.53867E-18
 -1      4234 7.19191E-05-1.54683E-05-2.41244E-05 2.88637E-07-3.30624E-20 1.76401E-18
 -1      4235 7.45696E-05-1.65170E-05-2.48828E-05-1.62724E-06 2.06588E-19 1.20376E-18
 -1      4236 7.57341E-05-1.66959E-05-2.53232E-05 2.29166E-06-8.71948E-20 1.23498E-18
 -1      4237 7.91931E-05-1.79248E-05-2.62625E-05 4.26946E-06-2.46806E-19 1.41645E-18
 -1      4238 8.47409E-05-2.16651E-05-2.70182E-05-5.43201E-06 5.35178E-20-3.20676E-19
 -1      4239 8.54610E-05-2.17346E-05-2.73104E-05-4.40097E-06-1.50321E-20-4.02570E-19
 -1      4240 9.52259E-05-2.84544E-05-2.86167E-05 5.34389E-09-8.71841E-19-3.40066E-19
 -1      4241 9.52102E-05-2.84240E-05-2.86227E-05 1.07466E-08-1.10119E-18-6.58247E-19
 -1      4242 8.65189E-05-2.19630E-05-2.76813E-05-2.74521E-06-1.30634E-19-3.85838E-19
 -1      4243 8.72644E-05-2.22652E-05-2.78990E-05-2.06898E-06-4.84095E-20-4.32386E-19
 -1      4244 8.82230E-05-2.27591E-05-2.80820E-05-1.73121E-06 6.13999E-19-4.40972E-19
 -1      4245 8.88912E-05-2.30907E-05-2.82335E-05-1.24090E-06 4.00395E-19-2.11283E-19
 -1      4246 8.96673E-05-2.35618E-05-2.83531E-05-1.04241E-06 5.98845E-19 4.94063E-19
 -1      4247 9.02498E-05-2.39120E-05-2.84548E-05-7.03797E-07 1.08181E-18 9.18298E-19
 -1      4248 9.08730E-05-2.43450E-05-2.85296E-05-5.95871E-07 3.78973E-19 1.30924E-18
 -1      4249 9.13684E-05-2.46883E-05-2.85946E-05-3.66363E-07 3.94811E-19 1.22183E-18
 -1      4250 9.18655E-05-2.50751E-05-2.86383E-05-3.16375E-07 4.70868E-19 1.11280E-18
 -1      4251 9.22785E-05-2.53946E-05-2.86768E-05-1.62861E-07 2.81506E-19 6.18829E-19
 -1      4252 9.26717E-05-2.57316E-05-2.86993E-05-1.48449E-07 3.16884E-19 6.78886E-19
 -1      4253 9.30095E-05-2.60177E-05-2.87194E-05-4.69294E-08-4.14638E-20 7.24357E-19
 -1      4254 9.33173E-05-2.63050E-05-2.87279E-05-5.28356E-08-2.42734E-19 7.39837E-19
 -1      4255 9.35888E-05-2.65534E-05-2.87354E-05 1.36298E-08-5.63169E-19 6.05345E-19
 -1      4256 9.38269E-05-2.67933E-05-2.87350E-05-2.51442E-09-9.24068E-19 1.16956E-18
 -1      4257 9.40412E-05-2.70034E-05-2.87345E-05 4.06343E-08-4.43678E-19 9.27565E-19
 -1      4258 9.42231E-05-2.72003E-05-2.87289E-05 2.06040E-08 4.45603E-19 8.92293E-19
 -1      4259 9.43892E-05-2.73740E-05-2.87235E-05 4.84305E-08 8.22940E-19 7.29669E-19
 -1      4260 9.45261E-05-2.75327E-05-2.87151E-05 2.82621E-08 9.63785E-19 9.82386E-19
 -1      4261 9.46525E-05-2.76734E-05-2.87071E-05 4.61250E-08 9.99588E-19 1.21253E-18
 -1      4262 9.47540E-05-2.77992E-05-2.86975E-05 2.78188E-08 7.42245E-19 9.27719E-19
 -1      4263 9.48482E-05-2.79110E-05-2.86885E-05 3.92564E-08 7.96611E-19 1.43777E-18
 -1      4264 9.49221E-05-2.80091E-05-2.86789E-05 2.36934E-08 4.01678E-19 1.12553E-18
 -1      4265 9.49909E-05-2.80963E-05-2.86698E-05 3.10113E-08 4.57548E-19 5.18366E-19
 -1      4266 9.50435E-05-2.81715E-05-2.86607E-05 1.83966E-08 2.51963E-19 9.44327E-20
 -1      4267 9.50925E-05-2.82383E-05-2.86522E-05 2.30803E-08 8.18824E-19-6.32772E-19
 -1      4268 9.51290E-05-2.82950E-05-2.86441E-05 1.32432E-08 4.48035E-19-8.71204E-19
 -1      4269 9.51630E-05-2.83452E-05-2.86364E-05 1.62419E-08-5.42380E-19-9.53774E-19
 -1      4270 9.51875E-05-2.83871E-05-2.86293E-05 8.82959E-09-8.31619E-19-7.49572E-19
 -1      4271 9.52403E-05-2.84810E-05-2.86111E-05 6.56233E-09 2.71406E-19-1.22848E-19
 -1      4272 9.52498E-05-2.85024E-05-2.86062E-05 2.75996E-09 1.43329E-18-1.06260E-18
 -1      4273 9.52582E-05-2.85210E-05-2.86016E-05 3.52397E-09 1.32614E-18-9.57482E-20
 -1      4274 9.52633E-05-2.85357E-05-2.85976E-05 9.53856E-10 7.14363E-19 1.41087E-19
 -1      4275 9.52677E-05-2.85484E-05-2.85939E-05 1.42024E-09 6.00079E-19-2.06207E-19
 -1      4276 9.52698E-05-2.85581E-05-2.85908E-05-2.29762E-10 4.38700E-19-5.10722E-19
 -1      4277 9.52713E-05-2.85663E-05-2.85878E-05 4.09393E-11 7.40346E-19-5.78345E-19
 -1      4278 9.52715E-05-2.85723E-05-2.85853E-05-9.42699E-10 7.84203E-19-6.61601E-19
 -1      4279 9.52713E-05-2.85774E-05-2.85830E-05-8.00378E-10 8.39876E-19-3.03299E-19
 -1      4280 9.52703E-05-2.85808E-05-2.85812E-05-1.31715E-09-4.15617E-20-6.90527E-19
 -1      4281 9.52691E-05-2.85836E-05-2.85794E-05-1.25791E-09-8.12830E-19-4.58364E-19
 -1      4282 9.52674E-05-2.85853E-05-2.85780E-05-1.46071E-09-7.77040E-19-9.23599E-19
 -1      4283 9.52656E-05-2.85865E-05-2.85767E-05-1.45287E-09-3.92511E-19-9.74735E-19
 -1      4284 9.52636E-05-2.85870E-05-2.85756E-05-1.45878E-09-5.97740E-19-1.30482E-18
 -1      4285 9.52616E-05-2.85873E-05-2.85746E-05-1.48026E-09-1.84005E-19-1.32865E-18
 -1      4286 9.52596E-05-2.85871E-05-2.85739E-05-1.38891E-09 5.09765E-19-1.59648E-18
 -1      4287 9.52575E-05-2.85867E-05-2.85732E-05-1.40471E-09 5.77336E-19-1.17713E-18
 -1      4288 8.29473E-05-2.12583E-05-2.64778E-05-6.75969E-06-3.05213E-20-2.84682E-20
 -1      4289 9.52541E-05-2.85855E-05-2.85723E-05-3.43966E-09 4.00056E-19-1.91616E-18
 -1      4290 9.52558E-05-2.85862E-05-2.85727E-05-3.49407E-09 8.10608E-20-2.05747E-18
 -1      4291 7.77500E-05-1.72921E-05-2.58854E-05 2.70473E-06-1.99609E-19 9.99680E-19
 -1      4292 9.26504E-05-2.56107E-05-2.87140E-05 4.64156E-07 1.43438E-19 1.06386E-18
 -1      4293 8.22750E-05-1.98695E-05-2.67068E-05-3.39356E-06-1.90415E-19 4.75072E-19
 -1      4294 8.09738E-05-1.90835E-05-2.65386E-05-1.91056E-06 1.04547E-19 9.02515E-19
 -1      4295 7.90586E-05-1.83824E-05-2.60243E-05-2.39523E-06 1.81776E-19 9.88029E-19
 -1      4296 8.53881E-05-2.15037E-05-2.74132E-05-3.32887E-06-1.50282E-19-4.48745E-19
 -1      4297 7.64746E-05-1.71459E-05-2.54484E-05-1.06144E-06 2.85022E-19 9.22113E-19
 -1      4298 7.70596E-05-1.71293E-05-2.56449E-05 9.47730E-07 1.09262E-20 1.06284E-18
 -1      4299 8.41165E-05-2.06190E-05-2.72302E-05-2.55405E-06-3.68469E-19 4.19742E-19
 -1      4300 8.21864E-05-2.01706E-05-2.65794E-05-4.69682E-06-1.60427E-19 3.90386E-19
 -3
    1PSTEP                         4           1           1          
  100CL  101 1.000000000        4300                     0    1           1
 -4  ERROR       1    1
 -5  STR(%)      1    1    0    0
 -1         1 1.23731E+01
 -1         2 2.54499E+01
 -1         3 6.79702E-05
 -1         4 7.69472E-05
 -1         5 1.13952E+01
 -1         6 1.32716E+01
 -1         7 1.32716E+01
 -1         8 3.99295E+00
 -1         9 2.17614E+00
 -1        10 2.13752E+00
 -1        11 2.29077E+00
 -1        12 2.52636E+00
 -1        13 3.18211E+00
 -1        14 3.52940E+00
 -1        15 3.52940E+00
 -1        16 2.79649E+00
 -1        17 4.25772E+00
 -1        18 4.93297E+00
 -1        19 4.93297E+00
 -1        20 4.72295E+00
 -1        21 5.23516E+00
 -1        22 8.60709E+00
 -1        23 1.32716E+01
 -1        24 3.87876E+00
 -1        25 3.20607E+00
 -1        26 2.63427E+00
 -1        27 2.94541E+00
 -1        28 3.11947E+00
 -1        29 3.11947E+00
 -1        30 2.91502E+00
 -1        31 2.90993E+00
 -1        32 2.43027E+00
 -1        33 1.65407E+00
 -1        34 1.08008E+00
 -1        35 8.02852E-01
 -1        36 6.64932E-01
 -1        37 6.22329E-01
 -1        38 5.98342E-01
 -1        39 5.72384E-01
 -1        40 4.92803E-01
 -1        41 3.92813E-01
 -1        42 3.09119E-01
 -1        43 2.64471E-01
 -1        44 2.27194E-01
 -1        45 1.86662E-01
 -1        46 1.47681E-01
 -1        47 1.12917E-01
 -1        48 8.35248E-02
 -1        49 6.99434E-02
 -1        50 5.83612E-02
 -1        51 4.74017E-02
 -1        52 3.75921E-02
 -1        53 2.91583E-02
 -1        54 2.21329E-02
 -1        55 1.71832E-02
 -1        56 1.42347E-02
 -1        57 1.15299E-02
 -1        58 9.15036E-03
 -1        59 7.12282E-03
 -1        60 5.54245E-03
 -1        61 4.28748E-03
 -1        62 3.25166E-03
 -1        63 2.41326E-03
 -1        64 1.80966E-03
 -1        65 1.48634E-03
 -1        66 1.20202E-03
 -1        67 9.56351E-04
 -1        68 7.42557E-04
 -1        69 5.70695E-04
 -1        70 4.98177E-04
 -1        71 3.05711E-04
 -1        72 1.13952E+01
 -1        73 1.67833E+00
 -1        74 1.99892E+00
 -1        75 2.25936E+00
 -1        76 3.44265E+00
 -1        77 5.12405E+00
 -1        78 5.96746E+00
 -1        79 6.51227E+00
 -1        80 6.51227E+00
 -1        81 4.43353E+00
 -1        82 2.23753E+00
 -1        83 1.98500E+00
 -1        84 2.25932E+00
 -1        85 2.25932E+00
 -1        86 2.09169E+00
 -1        87 1.74633E+00
 -1        88 1.43874E+00
 -1        89 1.12682E+00
 -1        90 8.49004E-01
 -1        91 6.19563E-01
 -1        92 4.43715E-01
 -1        93 3.36292E-01
 -1        94 2.50030E-01
 -1        95 1.82554E-01
 -1        96 1.30810E-01
 -1        97 9.17761E-02
 -1        98 6.27737E-02
 -1        99 4.63225E-02
 -1       100 3.79661E-02
 -1       101 3.05727E-02
 -1       102 2.42148E-02
 -1       103 1.88721E-02
 -1       104 1.58333E-02
 -1       105 1.36571E-02
 -1       106 1.14831E-02
 -1       107 9.44705E-03
 -1       108 7.62236E-03
 -1       109 6.12612E-03
 -1       110 4.90390E-03
 -1       111 3.85505E-03
 -1       112 2.97613E-03
 -1       113 2.25357E-03
 -1       114 1.66830E-03
 -1       115 1.19969E-03
 -1       116 9.53877E-04
 -1       117 7.40150E-04
 -1       118 5.44817E-04
 -1       119 3.48654E-04
 -1       120 2.35021E-04
 -1       121 1.00349E-04
 -1       122 1.00349E-04
 -1       123 9.11244E-05
 -1       124 5.10333E-05
 -1       125 4.28342E-05
 -1       126 7.43287E-05
 -1       127 9.34580E-05
 -1       128 9.90945E-05
 -1       129 9.90945E-05
 -1       130 9.32376E-05
 -1       131 7.32929E-05
 -1       132 4.25803E-05
 -1       133 5.18775E-05
 -1       134 9.06556E-05
 -1       135 1.33501E-04
 -1       136 1.43279E-04
 -1       137 2.60575E+01
 -1       138 4.80674E+01
 -1       139 4.80674E+01
 -1       140 2.12265E+01
 -1       141 1.20579E+01
 -1       142 1.21828E+01
 -1       143 1.26873E+01
 -1       144 1.26873E+01
 -1       145 1.26186E+01
 -1       146 1.41411E+01
 -1       147 3.47531E+01
 -1       148 3.47531E+01
 -1       149 2.77500E+01
 -1       150 2.78593E+01
 -1       151 2.78593E+01
 -1       152 2.90939E+01
 -1       153 3.05912E+01
 -1       154 3.05912E+01
 -1       155 1.30832E+01
 -1       156 1.27903E+01
 -1       157 1.27903E+01
 -1       158 1.20632E+01
 -1       159 1.20632E+01
 -1       160 1.11962E+01
 -1       161 2.23697E+01
 -1       162 4.83688E+01
 -1       163 4.83688E+01
 -1       164 2.55196E+01
 -1       165 6.50095E+00
 -1       166 2.67304E+00
 -1       167 2.15638E+00
 -1       168 2.29077E+00
 -1       169 2.39619E+00
 -1       170 2.98899E+00
 -1       171 3.95008E+00
 -1       172 4.08492E+00
 -1       173 4.08492E+00
 -1       174 4.38946E+00
 -1       175 5.51525E+00
 -1       176 5.51525E+00
 -1       177 5.02977E+00
 -1       178 4.60403E+00
 -1       179 5.23516E+00
 -1       180 1.13952E+01
 -1       181 3.87876E+00
 -1       182 3.20607E+00
 -1       183 2.58407E+00
 -1       184 2.63427E+00
 -1       185 2.94541E+00
 -1       186 3.11947E+00
 -1       187 2.91502E+00
 -1       188 2.90993E+00
 -1       189 2.43027E+00
 -1       190 1.70214E+00
 -1       191 1.13301E+00
 -1       192 8.02852E-01
 -1       193 6.64932E-01
 -1       194 6.22329E-01
 -1       195 5.98342E-01
 -1       196 5.72384E-01
 -1       197 4.92803E-01
 -1       198 4.01679E-01
 -1       199 3.36281E-01
 -1       200 2.84615E-01
 -1       201 2.27905E-01
 -1       202 1.86662E-01
 -1       203 1.47681E-01
 -1       204 1.15916E-01
 -1       205 8.94073E-02
 -1       206 6.99434E-02
 -1       207 5.83612E-02
 -1       208 4.74017E-02
 -1       209 3.75921E-02
 -1       210 2.91583E-02
 -1       211 2.22564E-02
 -1       212 1.74459E-02
 -1       213 1.42347E-02
 -1       214 1.15299E-02
 -1       215 9.15036E-03
 -1       216 7.36779E-03
 -1       217 5.84929E-03
 -1       218 4.73284E-03
 -1       219 3.77971E-03
 -1       220 2.95648E-03
 -1       221 2.26308E-03
 -1       222 1.69082E-03
 -1       223 1.22661E-03
 -1       224 9.56351E-04
 -1       225 7.42557E-04
 -1       226 5.70695E-04
 -1       227 4.98177E-04
 -1       228 3.05711E-04
 -1       229 2.44744E+00
 -1       230 1.73567E+00
 -1       231 1.99892E+00
 -1       232 2.25936E+00
 -1       233 3.44265E+00
 -1       234 5.12405E+00
 -1       235 5.96746E+00
 -1       236 6.51227E+00
 -1       237 4.43353E+00
 -1       238 2.23753E+00
 -1       239 1.70238E+00
 -1       240 1.98500E+00
 -1       241 2.25932E+00
 -1       242 2.09169E+00
 -1       243 1.74633E+00
 -1       244 1.43874E+00
 -1       245 1.16363E+00
 -1       246 9.01922E-01
 -1       247 6.75938E-01
 -1       248 4.92343E-01
 -1       249 3.52794E-01
 -1       250 2.50030E-01
 -1       251 1.82554E-01
 -1       252 1.32414E-01
 -1       253 9.51505E-02
 -1       254 6.69796E-02
 -1       255 4.63225E-02
 -1       256 3.79661E-02
 -1       257 3.05727E-02
 -1       258 2.42148E-02
 -1       259 1.88721E-02
 -1       260 1.58333E-02
 -1       261 1.36571E-02
 -1       262 1.14831E-02
 -1       263 9.44705E-03
 -1       264 7.62236E-03
 -1       265 6.12612E-03
 -1       266 4.90390E-03
 -1       267 3.86482E-03
 -1       268 3.03784E-03
 -1       269 2.34207E-03
 -1       270 1.76745E-03
 -1       271 1.29955E-03
 -1       272 9.53877E-04
 -1       273 7.40150E-04
 -1       274 5.44817E-04
 -1       275 3.62573E-04
 -1       276 2.35021E-04
 -1       277 1.41877E-04
 -1       278 1.44619E-04
 -1       279 1.44619E-04
 -1       280 7.46103E-05
 -1       281 1.34427E-04
 -1       282 1.73983E-04
 -1       283 1.90136E-04
 -1       284 1.90136E-04
 -1       285 1.90031E-04
 -1       286 1.72849E-04
 -1       287 1.34842E-04
 -1       288 7.54587E-05
 -1       289 1.45667E-04
 -1       290 1.45667E-04
 -1       291 1.83655E-04
 -1       292 3.07303E+01
 -1       293 2.87349E+01
 -1       294 4.80674E+01
 -1       295 2.28830E+01
 -1       296 1.17480E+01
 -1       297 1.20579E+01
 -1       298 1.21828E+01
 -1       299 1.26873E+01
 -1       300 1.26186E+01
 -1       301 1.13644E+01
 -1       302 1.41411E+01
 -1       303 3.47531E+01
 -1       304 3.79255E+01
 -1       305 3.79255E+01
 -1       306 3.47134E+01
 -1       307 3.48751E+01
 -1       308 3.48751E+01
 -1       309 3.05912E+01
 -1       310 1.30832E+01
 -1       311 1.06513E+01
 -1       312 1.27903E+01
 -1       313 1.23731E+01
 -1       314 1.16148E+01
 -1       315 1.20632E+01
 -1       316 1.11962E+01
 -1       317 1.09606E+01
 -1       318 2.40625E+01
 -1       319 4.83688E+01
 -1       320 2.86697E+01
 -1       321 3.07303E+01
 -1       322 1.43737E+00
 -1       323 2.62352E+00
 -1       324 2.21578E+00
 -1       325 3.17554E+00
 -1       326 4.08110E+00
 -1       327 5.08544E+00
 -1       328 5.17901E+00
 -1       329 6.58361E+00
 -1       330 6.70093E+00
 -1       331 6.70093E+00
 -1       332 6.01906E+00
 -1       333 4.70893E+00
 -1       334 3.87942E+00
 -1       335 2.29402E+00
 -1       336 1.92668E+00
 -1       337 2.08231E+00
 -1       338 2.08285E+00
 -1       339 2.16574E+00
 -1       340 2.21492E+00
 -1       341 2.09808E+00
 -1       342 1.96658E+00
 -1       343 1.89290E+00
 -1       344 1.58028E+00
 -1       345 1.23381E+00
 -1       346 8.50953E-01
 -1       347 4.85559E-01
 -1       348 3.22843E-01
 -1       349 3.42927E-01
 -1       350 4.22274E-01
 -1       351 4.28239E-01
 -1       352 3.89780E-01
 -1       353 3.47238E-01
 -1       354 3.06147E-01
 -1       355 2.61139E-01
 -1       356 2.12149E-01
 -1       357 1.65141E-01
 -1       358 1.23452E-01
 -1       359 8.94073E-02
 -1       360 6.69267E-02
 -1       361 4.85820E-02
 -1       362 3.53770E-02
 -1       363 2.99148E-02
 -1       364 2.48080E-02
 -1       365 2.00988E-02
 -1       366 1.59407E-02
 -1       367 1.23894E-02
 -1       368 1.01706E-02
 -1       369 8.61626E-03
 -1       370 7.12087E-03
 -1       371 5.80140E-03
 -1       372 4.75287E-03
 -1       373 3.81868E-03
 -1       374 3.06848E-03
 -1       375 2.45125E-03
 -1       376 1.91375E-03
 -1       377 1.45782E-03
 -1       378 1.07988E-03
 -1       379 7.73778E-04
 -1       380 5.57420E-04
 -1       381 4.07140E-04
 -1       382 2.66382E-04
 -1       383 1.82439E+00
 -1       384 1.78045E+00
 -1       385 2.64381E+00
 -1       386 3.59527E+00
 -1       387 3.63698E+00
 -1       388 3.33661E+00
 -1       389 2.74183E+00
 -1       390 1.74913E+00
 -1       391 1.61260E+00
 -1       392 1.69194E+00
 -1       393 1.66223E+00
 -1       394 1.65611E+00
 -1       395 1.48176E+00
 -1       396 1.31062E+00
 -1       397 1.08592E+00
 -1       398 8.58790E-01
 -1       399 6.55778E-01
 -1       400 4.86898E-01
 -1       401 3.52794E-01
 -1       402 2.49700E-01
 -1       403 1.80976E-01
 -1       404 1.32414E-01
 -1       405 9.51505E-02
 -1       406 6.69796E-02
 -1       407 4.59863E-02
 -1       408 3.05748E-02
 -1       409 2.36309E-02
 -1       410 1.97237E-02
 -1       411 1.61199E-02
 -1       412 1.29275E-02
 -1       413 1.01845E-02
 -1       414 8.13876E-03
 -1       415 7.02609E-03
 -1       416 5.95210E-03
 -1       417 5.03286E-03
 -1       418 4.20430E-03
 -1       419 3.43629E-03
 -1       420 2.75267E-03
 -1       421 2.16208E-03
 -1       422 1.66346E-03
 -1       423 1.24994E-03
 -1       424 9.11931E-04
 -1       425 6.88629E-04
 -1       426 5.21901E-04
 -1       427 3.62573E-04
 -1       428 2.07676E-04
 -1       429 1.50357E-04
 -1       430 2.83218E-04
 -1       431 2.83218E-04
 -1       432 1.81791E-04
 -1       433 2.40414E-04
 -1       434 2.68254E-04
 -1       435 2.68254E-04
 -1       436 2.67311E-04
 -1       437 2.67311E-04
 -1       438 2.40674E-04
 -1       439 1.82972E-04
 -1       440 1.60521E-04
 -1       441 2.40149E-04
 -1       442 2.87349E+01
 -1       443 3.55465E+01
 -1       444 3.55465E+01
 -1       445 1.69198E+01
 -1       446 9.86525E+00
 -1       447 1.60636E+00
 -1       448 1.06027E+01
 -1       449 1.07737E+01
 -1       450 1.02402E+01
 -1       451 7.84811E+00
 -1       452 7.12822E+00
 -1       453 1.34086E+01
 -1       454 2.29892E+01
 -1       455 3.79255E+01
 -1       456 3.47134E+01
 -1       457 3.32766E+01
 -1       458 3.48751E+01
 -1       459 2.08750E+01
 -1       460 1.28022E+01
 -1       461 7.45072E+00
 -1       462 6.88778E+00
 -1       463 9.64715E+00
 -1       464 1.01848E+01
 -1       465 9.83050E+00
 -1       466 8.51037E+00
 -1       467 6.65853E+00
 -1       468 1.02338E+01
 -1       469 1.74866E+01
 -1       470 2.86697E+01
 -1       471 3.25893E+01
 -1       472 7.56378E+00
 -1       473 7.11815E+00
 -1       474 1.77212E+01
 -1       475 5.62612E+00
 -1       476 4.08656E+00
 -1       477 3.00425E+00
 -1       478 7.97318E+00
 -1       479 1.01612E+01
 -1       480 1.01577E+01
 -1       481 1.04870E+01
 -1       482 8.60925E+00
 -1       483 6.27524E+00
 -1       484 3.85856E+00
 -1       485 1.29614E+00
 -1       486 5.16831E+00
 -1       487 1.59217E+00
 -1       488 1.69121E+00
 -1       489 1.61754E+00
 -1       490 1.41798E+00
 -1       491 1.42837E+00
 -1       492 1.35284E+00
 -1       493 1.22613E+00
 -1       494 1.01308E+00
 -1       495 7.85883E-01
 -1       496 6.11209E-01
 -1       497 5.22912E-01
 -1       498 4.23724E-01
 -1       499 4.32674E-01
 -1       500 4.06207E-01
 -1       501 3.63131E-01
 -1       502 3.26748E-01
 -1       503 2.85799E-01
 -1       504 2.38866E-01
 -1       505 1.92121E-01
 -1       506 1.49288E-01
 -1       507 1.12237E-01
 -1       508 8.15713E-02
 -1       509 5.71022E-02
 -1       510 3.82033E-02
 -1       511 2.54211E-02
 -1       512 1.76963E-02
 -1       513 1.51357E-02
 -1       514 1.32139E-02
 -1       515 1.12034E-02
 -1       516 9.26568E-03
 -1       517 7.49549E-03
 -1       518 6.36241E-03
 -1       519 5.46437E-03
 -1       520 4.56802E-03
 -1       521 3.77192E-03
 -1       522 3.09175E-03
 -1       523 2.47627E-03
 -1       524 1.93815E-03
 -1       525 1.52694E-03
 -1       526 1.17666E-03
 -1       527 8.81723E-04
 -1       528 6.40166E-04
 -1       529 4.14866E-04
 -1       530 3.59527E+00
 -1       531 4.27151E+00
 -1       532 5.10404E+00
 -1       533 3.10795E+00
 -1       534 2.72335E+00
 -1       535 2.91661E+00
 -1       536 2.68063E+00
 -1       537 2.26595E+00
 -1       538 1.86617E+00
 -1       539 1.66178E+00
 -1       540 1.45147E+00
 -1       541 1.20293E+00
 -1       542 9.58719E-01
 -1       543 7.41618E-01
 -1       544 5.60101E-01
 -1       545 4.14379E-01
 -1       546 3.00703E-01
 -1       547 2.13940E-01
 -1       548 1.48902E-01
 -1       549 1.00941E-01
 -1       550 6.61429E-02
 -1       551 4.41657E-02
 -1       552 3.14270E-02
 -1       553 2.36309E-02
 -1       554 1.97237E-02
 -1       555 1.61199E-02
 -1       556 1.29275E-02
 -1       557 1.01845E-02
 -1       558 8.39791E-03
 -1       559 7.00287E-03
 -1       560 5.87139E-03
 -1       561 4.88486E-03
 -1       562 4.09884E-03
 -1       563 3.35916E-03
 -1       564 2.73759E-03
 -1       565 2.19228E-03
 -1       566 1.71569E-03
 -1       567 1.31017E-03
 -1       568 9.73294E-04
 -1       569 7.00399E-04
 -1       570 4.79244E-04
 -1       571 3.33425E-04
 -1       572 3.02220E-04
 -1       573 3.53255E-04
 -1       574 3.04838E-04
 -1       575 2.54248E-04
 -1       576 3.55079E-04
 -1       577 3.55079E-04
 -1       578 3.54602E-04
 -1       579 3.53039E-04
 -1       580 3.06322E-04
 -1       581 3.43353E-04
 -1       582 3.02043E-04
 -1       583 3.55465E+01
 -1       584 2.05001E+01
 -1       585 5.41959E+00
 -1       586 2.30869E+00
 -1       587 1.22762E+01
 -1       588 2.24877E+01
 -1       589 3.25893E+01
 -1       590 6.50826E+00
 -1       591 1.98503E+01
 -1       592 6.26727E+00
 -1       593 8.49732E+00
 -1       594 7.43176E+00
 -1       595 7.74939E+00
 -1       596 5.49888E+00
 -1       597 4.41232E+00
 -1       598 4.49184E+00
 -1       599 1.08457E+01
 -1       600 1.64855E+01
 -1       601 2.42629E+01
 -1       602 2.22556E+01
 -1       603 9.37326E+00
 -1       604 8.82495E+00
 -1       605 7.02349E+00
 -1       606 8.00237E+00
 -1       607 7.53814E+00
 -1       608 4.29410E+00
 -1       609 5.75708E+00
 -1       610 1.40213E+01
 -1       611 1.36648E+00
 -1       612 4.70893E+00
 -1       613 9.07721E+00
 -1       614 1.66256E+00
 -1       615 2.63736E-04
 -1       616 1.34879E+01
 -1       617 5.56156E+00
 -1       618 9.55032E+00
 -1       619 1.34901E+01
 -1       620 1.60676E+01
 -1       621 6.17673E+00
 -1       622 5.28869E+00
 -1       623 5.31773E-04
 -1       624 1.09263E+01
 -1       625 1.33162E+00
 -1       626 1.62455E+00
 -1       627 1.96227E+00
 -1       628 1.79462E+00
 -1       629 1.74501E+00
 -1       630 1.30039E+00
 -1       631 1.33541E+00
 -1       632 1.07042E+00
 -1       633 9.89190E-01
 -1       634 8.05805E-01
 -1       635 6.09946E-01
 -1       636 5.67358E-01
 -1       637 4.96949E-01
 -1       638 4.22164E-01
 -1       639 3.64671E-01
 -1       640 3.14052E-01
 -1       641 2.61039E-01
 -1       642 2.10552E-01
 -1       643 1.65307E-01
 -1       644 1.26501E-01
 -1       645 9.43436E-02
 -1       646 6.84604E-02
 -1       647 4.81635E-02
 -1       648 3.26365E-02
 -1       649 2.10500E-02
 -1       650 1.26291E-02
 -1       651 8.49612E-03
 -1       652 8.23539E-03
 -1       653 7.65576E-03
 -1       654 6.81605E-03
 -1       655 5.86980E-03
 -1       656 4.91817E-03
 -1       657 4.25721E-03
 -1       658 3.62644E-03
 -1       659 3.00753E-03
 -1       660 2.43443E-03
 -1       661 1.94571E-03
 -1       662 1.53239E-03
 -1       663 1.17666E-03
 -1       664 8.83322E-04
 -1       665 6.61861E-04
 -1       666 5.21374E-04
 -1       667 2.77585E+00
 -1       668 3.58788E+00
 -1       669 2.47408E+00
 -1       670 2.06141E+00
 -1       671 1.65758E+00
 -1       672 1.30474E+00
 -1       673 1.01530E+00
 -1       674 7.82113E-01
 -1       675 5.96198E-01
 -1       676 4.49377E-01
 -1       677 3.34535E-01
 -1       678 2.45631E-01
 -1       679 1.77561E-01
 -1       680 1.26045E-01
 -1       681 8.75382E-02
 -1       682 5.91429E-02
 -1       683 3.85207E-02
 -1       684 2.38065E-02
 -1       685 1.55294E-02
 -1       686 1.29560E-02
 -1       687 1.15676E-02
 -1       688 9.98861E-03
 -1       689 8.39791E-03
 -1       690 6.90208E-03
 -1       691 5.76786E-03
 -1       692 4.88486E-03
 -1       693 4.09884E-03
 -1       694 3.37123E-03
 -1       695 2.76410E-03
 -1       696 2.21470E-03
 -1       697 1.73396E-03
 -1       698 1.33413E-03
 -1       699 1.02771E-03
 -1       700 7.69314E-04
 -1       701 5.49591E-04
 -1       702 4.23774E-04
 -1       703 4.63172E-04
 -1       704 4.42726E-04
 -1       705 4.61057E-04
 -1       706 4.63172E-04
 -1       707 4.61057E-04
 -1       708 4.48588E-04
 -1       709 5.31773E-04
 -1       710 5.20242E+00
 -1       711 5.34582E+00
 -1       712 3.58784E+00
 -1       713 1.54968E+01
 -1       714 3.10795E+00
 -1       715 4.13056E+00
 -1       716 4.34312E+00
 -1       717 1.09667E+00
 -1       718 5.76811E+00
 -1       719 6.02814E+00
 -1       720 7.05358E+00
 -1       721 7.54543E+00
 -1       722 3.00425E+00
 -1       723 1.55278E+01
 -1       724 1.00133E+01
 -1       725 1.60495E+01
 -1       726 8.44257E+00
 -1       727 6.36990E+00
 -1       728 1.44270E+01
 -1       729 3.47544E+00
 -1       730 3.35706E+00
 -1       731 1.21550E+01
 -1       732 1.93767E+00
 -1       733 1.02438E+01
 -1       734 1.00133E+01
 -1       735 2.49636E+00
 -1       736 6.50363E+00
 -1       737 4.27151E+00
 -1       738 3.47471E-04
 -1       739 1.30805E+00
 -1       740 1.00993E+01
 -1       741 4.50296E+00
 -1       742 3.71925E-04
 -1       743 5.17579E+00
 -1       744 3.48805E+00
 -1       745 4.01227E+00
 -1       746 2.77823E+00
 -1       747 2.10631E+00
 -1       748 2.25177E+00
 -1       749 1.69618E+00
 -1       750 1.62250E+00
 -1       751 1.17712E+00
 -1       752 9.70629E-01
 -1       753 8.44690E-01
 -1       754 6.95985E-01
 -1       755 5.63571E-01
 -1       756 4.62156E-01
 -1       757 3.87103E-01
 -1       758 3.15310E-01
 -1       759 2.49799E-01
 -1       760 1.95763E-01
 -1       761 1.51098E-01
 -1       762 1.13590E-01
 -1       763 8.30820E-02
 -1       764 5.89476E-02
 -1       765 4.06363E-02
 -1       766 2.74075E-02
 -1       767 1.75772E-02
 -1       768 1.05420E-02
 -1       769 5.61051E-03
 -1       770 4.85721E-03
 -1       771 5.13863E-03
 -1       772 4.98223E-03
 -1       773 4.56776E-03
 -1       774 4.02191E-03
 -1       775 3.64653E-03
 -1       776 3.22031E-03
 -1       777 2.75184E-03
 -1       778 2.28687E-03
 -1       779 1.85278E-03
 -1       780 1.46382E-03
 -1       781 1.12525E-03
 -1       782 9.29042E-04
 -1       783 2.92056E+00
 -1       784 1.98888E+00
 -1       785 3.83747E+00
 -1       786 1.51682E+00
 -1       787 1.17197E+00
 -1       788 8.95767E-01
 -1       789 6.71957E-01
 -1       790 4.96038E-01
 -1       791 3.60696E-01
 -1       792 2.58183E-01
 -1       793 1.82519E-01
 -1       794 1.31223E-01
 -1       795 9.46672E-02
 -1       796 6.69138E-02
 -1       797 4.61171E-02
 -1       798 3.07671E-02
 -1       799 1.96330E-02
 -1       800 1.17211E-02
 -1       801 7.37201E-03
 -1       802 7.20244E-03
 -1       803 6.86221E-03
 -1       804 6.21370E-03
 -1       805 5.42251E-03
 -1       806 4.59615E-03
 -1       807 3.97973E-03
 -1       808 3.41161E-03
 -1       809 2.84636E-03
 -1       810 2.31785E-03
 -1       811 1.84403E-03
 -1       812 1.43213E-03
 -1       813 1.08275E-03
 -1       814 7.92908E-04
 -1       815 5.58820E-04
 -1       816 4.72649E-04
 -1       817 6.69955E-04
 -1       818 5.57971E-04
 -1       819 9.37559E+00
 -1       820 5.51165E-04
 -1       821 3.77398E+00
 -1       822 2.40758E+00
 -1       823 5.81486E-04
 -1       824 2.01032E+00
 -1       825 2.31065E+00
 -1       826 6.64146E+00
 -1       827 9.62124E+00
 -1       828 2.31065E+00
 -1       829 3.48805E+00
 -1       830 6.07151E+00
 -1       831 1.06609E+00
 -1       832 3.30608E+00
 -1       833 2.93164E+00
 -1       834 5.81486E-04
 -1       835 6.87059E+00
 -1       836 9.62124E+00
 -1       837 6.56217E+00
 -1       838 2.50012E+00
 -1       839 5.76207E-04
 -1       840 5.76207E-04
 -1       841 5.58335E-04
 -1       842 6.85745E+00
 -1       843 4.61359E+00
 -1       844 2.25177E+00
 -1       845 2.81860E+00
 -1       846 1.69855E+00
 -1       847 1.52793E+00
 -1       848 1.16802E+00
 -1       849 8.98050E-01
 -1       850 7.21285E-01
 -1       851 5.63571E-01
 -1       852 4.53866E-01
 -1       853 3.57108E-01
 -1       854 3.02220E-01
 -1       855 2.46872E-01
 -1       856 1.95763E-01
 -1       857 1.51098E-01
 -1       858 1.13590E-01
 -1       859 8.30820E-02
 -1       860 5.89476E-02
 -1       861 4.06363E-02
 -1       862 2.74075E-02
 -1       863 1.75772E-02
 -1       864 1.04590E-02
 -1       865 5.45522E-03
 -1       866 2.92951E-03
 -1       867 3.77936E-03
 -1       868 4.05366E-03
 -1       869 3.95940E-03
 -1       870 3.64653E-03
 -1       871 3.22031E-03
 -1       872 2.82689E-03
 -1       873 2.46713E-03
 -1       874 2.08673E-03
 -1       875 1.71713E-03
 -1       876 1.37703E-03
 -1       877 1.08526E-03
 -1       878 1.09858E+00
 -1       879 1.48993E+00
 -1       880 6.05137E-01
 -1       881 4.47473E-01
 -1       882 3.28576E-01
 -1       883 2.38850E-01
 -1       884 1.71384E-01
 -1       885 1.20973E-01
 -1       886 8.36785E-02
 -1       887 5.77828E-02
 -1       888 3.87548E-02
 -1       889 2.50308E-02
 -1       890 1.53930E-02
 -1       891 8.66796E-03
 -1       892 4.68738E-03
 -1       893 4.23045E-03
 -1       894 4.61688E-03
 -1       895 4.54885E-03
 -1       896 4.21305E-03
 -1       897 3.73781E-03
 -1       898 3.21988E-03
 -1       899 2.84066E-03
 -1       900 2.42598E-03
 -1       901 2.01535E-03
 -1       902 1.63232E-03
 -1       903 1.28875E-03
 -1       904 9.84615E-04
 -1       905 7.87581E-04
 -1       906 5.10988E+00
 -1       907 9.29042E-04
 -1       908 3.39811E+00
 -1       909 5.15069E-04
 -1       910 5.59672E+00
 -1       911 7.25080E+00
 -1       912 3.63077E+00
 -1       913 8.15654E-01
 -1       914 7.25080E+00
 -1       915 2.68972E+00
 -1       916 6.96544E-04
 -1       917 7.02443E-04
 -1       918 7.72162E-04
 -1       919 8.33956E-04
 -1       920 2.01032E+00
 -1       921 6.16302E+00
 -1       922 8.67431E-04
 -1       923 5.37732E+00
 -1       924 2.68330E+00
 -1       925 2.82141E+00
 -1       926 1.43366E+00
 -1       927 9.78584E-01
 -1       928 6.92806E-01
 -1       929 5.35976E-01
 -1       930 4.18628E-01
 -1       931 3.39834E-01
 -1       932 2.69970E-01
 -1       933 2.10521E-01
 -1       934 1.61259E-01
 -1       935 1.21283E-01
 -1       936 8.94372E-02
 -1       937 6.45092E-02
 -1       938 4.53348E-02
 -1       939 3.08518E-02
 -1       940 2.08158E-02
 -1       941 1.34973E-02
 -1       942 8.21304E-03
 -1       943 4.81457E-03
 -1       944 2.83766E-03
 -1       945 2.22835E-03
 -1       946 2.63144E-03
 -1       947 2.70595E-03
 -1       948 2.57612E-03
 -1       949 2.33033E-03
 -1       950 2.02946E-03
 -1       951 1.76849E-03
 -1       952 1.50153E-03
 -1       953 1.23882E-03
 -1       954 9.95020E-04
 -1       955 9.97438E-04
 -1       956 4.17104E+00
 -1       957 3.60152E-01
 -1       958 4.81324E-01
 -1       959 1.98069E-01
 -1       960 1.44496E-01
 -1       961 1.03778E-01
 -1       962 7.30811E-02
 -1       963 5.01929E-02
 -1       964 3.43309E-02
 -1       965 2.27256E-02
 -1       966 1.43303E-02
 -1       967 8.41355E-03
 -1       968 4.43450E-03
 -1       969 2.38623E-03
 -1       970 3.10365E-03
 -1       971 3.33273E-03
 -1       972 3.25409E-03
 -1       973 2.99530E-03
 -1       974 2.64424E-03
 -1       975 2.30737E-03
 -1       976 1.99770E-03
 -1       977 1.67820E-03
 -1       978 1.37269E-03
 -1       979 1.10008E-03
 -1       980 1.20362E+00
 -1       981 8.69862E-01
 -1       982 3.22679E+00
 -1       983 4.43751E+00
 -1       984 6.43600E-01
 -1       985 4.66567E+00
 -1       986 3.87722E+00
 -1       987 2.68235E-01
 -1       988 9.97438E-04
 -1       989 1.24211E-03
 -1       990 2.39333E+00
 -1       991 4.66567E+00
 -1       992 1.46037E+00
 -1       993 2.17633E+00
 -1       994 1.71943E+00
 -1       995 8.76005E-01
 -1       996 6.87028E-01
 -1       997 5.35976E-01
 -1       998 4.12152E-01
 -1       999 3.14301E-01
 -1      1000 2.37978E-01
 -1      1001 1.78613E-01
 -1      1002 1.32659E-01
 -1      1003 9.72921E-02
 -1      1004 7.02691E-02
 -1      1005 4.98038E-02
 -1      1006 3.44720E-02
 -1      1007 2.40814E-02
 -1      1008 1.69976E-02
 -1      1009 1.16678E-02
 -1      1010 7.68001E-03
 -1      1011 4.76675E-03
 -1      1012 2.69432E-03
 -1      1013 1.57405E-03
 -1      1014 1.95791E-03
 -1      1015 2.06404E-03
 -1      1016 1.99510E-03
 -1      1017 1.82434E-03
 -1      1018 1.60245E-03
 -1      1019 1.36309E-03
 -1      1020 1.13861E-03
 -1      1021 1.16777E-03
 -1      1022 3.61746E+00
 -1      1023 1.09850E-01
 -1      1024 1.48017E-01
 -1      1025 5.71527E-02
 -1      1026 3.97423E-02
 -1      1027 2.70976E-02
 -1      1028 1.82361E-02
 -1      1029 1.17324E-02
 -1      1030 7.35708E-03
 -1      1031 4.49585E-03
 -1      1032 2.48508E-03
 -1      1033 2.12864E-03
 -1      1034 2.45553E-03
 -1      1035 2.49281E-03
 -1      1036 2.35319E-03
 -1      1037 2.11565E-03
 -1      1038 1.83396E-03
 -1      1039 1.57201E-03
 -1      1040 1.32612E-03
 -1      1041 1.08466E-03
 -1      1042 2.57804E-01
 -1      1043 8.00834E-02
 -1      1044 1.64766E+00
 -1      1045 5.93384E-01
 -1      1046 3.61746E+00
 -1      1047 3.35624E-01
 -1      1048 4.40718E-01
 -1      1049 1.96499E-01
 -1      1050 1.24211E-03
 -1      1051 3.07605E+00
 -1      1052 7.92048E-01
 -1      1053 1.11331E-03
 -1      1054 1.25955E+00
 -1      1055 2.97806E+00
 -1      1056 9.97438E-04
 -1      1057 1.59781E+00
 -1      1058 8.76005E-01
 -1      1059 6.75167E-01
 -1      1060 4.75641E-01
 -1      1061 3.44756E-01
 -1      1062 2.50186E-01
 -1      1063 1.86086E-01
 -1      1064 1.45128E-01
 -1      1065 1.11969E-01
 -1      1066 8.43075E-02
 -1      1067 6.19079E-02
 -1      1068 4.46355E-02
 -1      1069 3.17270E-02
 -1      1070 2.18280E-02
 -1      1071 1.51287E-02
 -1      1072 1.01443E-02
 -1      1073 6.47951E-03
 -1      1074 3.84754E-03
 -1      1075 2.00870E-03
 -1      1076 1.28556E-03
 -1      1077 1.76624E-03
 -1      1078 1.94222E-03
 -1      1079 1.92264E-03
 -1      1080 1.78299E-03
 -1      1081 1.55372E-03
 -1      1082 1.17997E-03
 -1      1083 1.24211E-03
 -1      1084 2.29730E+00
 -1      1085 4.46355E-02
 -1      1086 6.19079E-02
 -1      1087 2.18280E-02
 -1      1088 1.44145E-02
 -1      1089 8.99644E-03
 -1      1090 5.14127E-03
 -1      1091 2.48508E-03
 -1      1092 1.51739E-03
 -1      1093 1.81557E-03
 -1      1094 1.94222E-03
 -1      1095 1.94222E-03
 -1      1096 1.92264E-03
 -1      1097 1.78299E-03
 -1      1098 1.55372E-03
 -1      1099 1.08207E-03
 -1      1100 6.73046E-01
 -1      1101 2.79428E-01
 -1      1102 4.89993E-01
 -1      1103 3.17270E-02
 -1      1104 3.68930E-01
 -1      1105 1.45128E-01
 -1      1106 1.00737E-03
 -1      1107 2.10333E+00
 -1      1108 2.25564E-01
 -1      1109 1.20562E+00
 -1      1110 1.65043E+00
 -1      1111 8.43075E-02
 -1      1112 1.11969E-01
 -1      1113 1.81060E+00
 -1      1114 1.83446E-01
 -1      1115 2.29210E+00
 -1      1116 1.38127E+00
 -1      1117 1.32716E+01
 -1      1118 8.63229E+00
 -1      1119 3.08454E+00
 -1      1120 2.15683E+00
 -1      1121 2.21415E+00
 -1      1122 2.40856E+00
 -1      1123 2.85423E+00
 -1      1124 3.35575E+00
 -1      1125 3.52940E+00
 -1      1126 3.16294E+00
 -1      1127 3.52710E+00
 -1      1128 4.59535E+00
 -1      1129 4.93297E+00
 -1      1130 4.82796E+00
 -1      1131 4.97905E+00
 -1      1132 6.92113E+00
 -1      1133 1.00012E+01
 -1      1134 1.32716E+01
 -1      1135 8.57520E+00
 -1      1136 3.54242E+00
 -1      1137 2.92017E+00
 -1      1138 2.78984E+00
 -1      1139 3.03244E+00
 -1      1140 3.11947E+00
 -1      1141 3.01725E+00
 -1      1142 2.91248E+00
 -1      1143 2.67010E+00
 -1      1144 2.04217E+00
 -1      1145 1.36708E+00
 -1      1146 9.41464E-01
 -1      1147 7.33892E-01
 -1      1148 6.43631E-01
 -1      1149 6.10335E-01
 -1      1150 5.85363E-01
 -1      1151 5.32593E-01
 -1      1152 4.42808E-01
 -1      1153 3.50966E-01
 -1      1154 2.86795E-01
 -1      1155 2.45832E-01
 -1      1156 2.06928E-01
 -1      1157 1.67171E-01
 -1      1158 1.30299E-01
 -1      1159 9.82211E-02
 -1      1160 7.67341E-02
 -1      1161 6.41523E-02
 -1      1162 5.28814E-02
 -1      1163 4.24969E-02
 -1      1164 3.33752E-02
 -1      1165 2.56456E-02
 -1      1166 1.96580E-02
 -1      1167 1.57089E-02
 -1      1168 1.28823E-02
 -1      1169 1.03401E-02
 -1      1170 8.13659E-03
 -1      1171 6.33263E-03
 -1      1172 4.91497E-03
 -1      1173 3.76957E-03
 -1      1174 2.83246E-03
 -1      1175 2.11146E-03
 -1      1176 1.64800E-03
 -1      1177 1.34418E-03
 -1      1178 1.07918E-03
 -1      1179 8.49454E-04
 -1      1180 6.56626E-04
 -1      1181 5.34436E-04
 -1      1182 4.01944E-04
 -1      1183 1.91329E-04
 -1      1184 1.13952E+01
 -1      1185 6.53677E+00
 -1      1186 1.83862E+00
 -1      1187 2.12914E+00
 -1      1188 2.85101E+00
 -1      1189 4.28335E+00
 -1      1190 5.54576E+00
 -1      1191 6.23987E+00
 -1      1192 6.51227E+00
 -1      1193 5.47290E+00
 -1      1194 3.33553E+00
 -1      1195 2.11127E+00
 -1      1196 2.12216E+00
 -1      1197 2.25932E+00
 -1      1198 2.17550E+00
 -1      1199 1.91901E+00
 -1      1200 1.59253E+00
 -1      1201 1.28278E+00
 -1      1202 9.87912E-01
 -1      1203 7.34283E-01
 -1      1204 5.31639E-01
 -1      1205 3.90003E-01
 -1      1206 2.93161E-01
 -1      1207 2.16292E-01
 -1      1208 1.56682E-01
 -1      1209 1.11293E-01
 -1      1210 7.72749E-02
 -1      1211 5.45481E-02
 -1      1212 4.21443E-02
 -1      1213 3.42694E-02
 -1      1214 2.73938E-02
 -1      1215 2.15435E-02
 -1      1216 1.73527E-02
 -1      1217 1.47452E-02
 -1      1218 1.25701E-02
 -1      1219 1.04651E-02
 -1      1220 8.53471E-03
 -1      1221 6.87424E-03
 -1      1222 5.51501E-03
 -1      1223 4.37947E-03
 -1      1224 3.41559E-03
 -1      1225 2.61485E-03
 -1      1226 1.96093E-03
 -1      1227 1.43399E-03
 -1      1228 1.07678E-03
 -1      1229 8.47014E-04
 -1      1230 6.42484E-04
 -1      1231 4.46736E-04
 -1      1232 2.91838E-04
 -1      1233 1.51496E-04
 -1      1234 8.41598E-05
 -1      1235 1.00349E-04
 -1      1236 9.57369E-05
 -1      1237 7.10788E-05
 -1      1238 4.69338E-05
 -1      1239 5.85815E-05
 -1      1240 8.38933E-05
 -1      1241 9.62763E-05
 -1      1242 9.90945E-05
 -1      1243 9.61661E-05
 -1      1244 8.32653E-05
 -1      1245 5.79366E-05
 -1      1246 4.72289E-05
 -1      1247 7.12665E-05
 -1      1248 1.12078E-04
 -1      1249 1.38390E-04
 -1      1250 1.10113E-04
 -1      1251 2.57537E+01
 -1      1252 3.70625E+01
 -1      1253 4.80674E+01
 -1      1254 3.46470E+01
 -1      1255 1.66422E+01
 -1      1256 1.21204E+01
 -1      1257 1.24350E+01
 -1      1258 1.26873E+01
 -1      1259 1.26529E+01
 -1      1260 1.33799E+01
 -1      1261 2.44471E+01
 -1      1262 3.47531E+01
 -1      1263 3.12515E+01
 -1      1264 2.78046E+01
 -1      1265 2.78593E+01
 -1      1266 2.84766E+01
 -1      1267 2.98426E+01
 -1      1268 3.05912E+01
 -1      1269 2.18372E+01
 -1      1270 1.29367E+01
 -1      1271 1.27903E+01
 -1      1272 1.25817E+01
 -1      1273 1.22181E+01
 -1      1274 1.20632E+01
 -1      1275 1.16297E+01
 -1      1276 1.67830E+01
 -1      1277 3.53693E+01
 -1      1278 4.83688E+01
 -1      1279 3.69442E+01
 -1      1280 2.54848E+01
 -1      1281 1.32716E+01
 -1      1282 5.24695E+00
 -1      1283 9.88630E+00
 -1      1284 2.42459E+00
 -1      1285 3.33299E+00
 -1      1286 4.58700E+00
 -1      1287 2.14695E+00
 -1      1288 2.16626E+00
 -1      1289 2.41471E+00
 -1      1290 2.29077E+00
 -1      1291 2.21415E+00
 -1      1292 2.22358E+00
 -1      1293 2.46128E+00
 -1      1294 2.34348E+00
 -1      1295 2.34348E+00
 -1      1296 3.08555E+00
 -1      1297 2.75767E+00
 -1      1298 2.69259E+00
 -1      1299 3.73974E+00
 -1      1300 3.56609E+00
 -1      1301 3.46953E+00
 -1      1302 3.80716E+00
 -1      1303 3.80716E+00
 -1      1304 4.01750E+00
 -1      1305 3.44070E+00
 -1      1306 3.80716E+00
 -1      1307 4.08492E+00
 -1      1308 4.32359E+00
 -1      1309 3.59297E+00
 -1      1310 4.23719E+00
 -1      1311 5.22411E+00
 -1      1312 4.88649E+00
 -1      1313 4.95236E+00
 -1      1314 5.22411E+00
 -1      1315 5.22411E+00
 -1      1316 5.51525E+00
 -1      1317 4.87636E+00
 -1      1318 4.98137E+00
 -1      1319 5.27251E+00
 -1      1320 4.91960E+00
 -1      1321 4.66349E+00
 -1      1322 4.81690E+00
 -1      1323 6.92113E+00
 -1      1324 5.23516E+00
 -1      1325 4.91960E+00
 -1      1326 1.13952E+01
 -1      1327 1.00012E+01
 -1      1328 8.31519E+00
 -1      1329 1.13952E+01
 -1      1330 8.57520E+00
 -1      1331 3.87876E+00
 -1      1332 3.54242E+00
 -1      1333 3.20607E+00
 -1      1334 3.54242E+00
 -1      1335 2.89507E+00
 -1      1336 2.60917E+00
 -1      1337 2.89507E+00
 -1      1338 2.63427E+00
 -1      1339 2.78984E+00
 -1      1340 2.60917E+00
 -1      1341 2.94541E+00
 -1      1342 3.03244E+00
 -1      1343 2.78984E+00
 -1      1344 3.11947E+00
 -1      1345 3.11947E+00
 -1      1346 3.03244E+00
 -1      1347 3.01725E+00
 -1      1348 2.91502E+00
 -1      1349 3.01725E+00
 -1      1350 2.91248E+00
 -1      1351 2.90993E+00
 -1      1352 2.91248E+00
 -1      1353 2.67010E+00
 -1      1354 2.43027E+00
 -1      1355 2.67010E+00
 -1      1356 2.06620E+00
 -1      1357 1.67811E+00
 -1      1358 2.06620E+00
 -1      1359 1.39354E+00
 -1      1360 1.10654E+00
 -1      1361 1.41758E+00
 -1      1362 9.41464E-01
 -1      1363 8.02852E-01
 -1      1364 9.67933E-01
 -1      1365 7.33892E-01
 -1      1366 6.64932E-01
 -1      1367 7.33892E-01
 -1      1368 6.43631E-01
 -1      1369 6.22329E-01
 -1      1370 6.43631E-01
 -1      1371 6.10335E-01
 -1      1372 5.98342E-01
 -1      1373 6.10335E-01
 -1      1374 5.85363E-01
 -1      1375 5.72384E-01
 -1      1376 5.85363E-01
 -1      1377 5.32593E-01
 -1      1378 4.92803E-01
 -1      1379 5.32593E-01
 -1      1380 4.47241E-01
 -1      1381 3.97246E-01
 -1      1382 4.47241E-01
 -1      1383 3.64547E-01
 -1      1384 3.22700E-01
 -1      1385 3.68980E-01
 -1      1386 2.96867E-01
 -1      1387 2.74543E-01
 -1      1388 3.10448E-01
 -1      1389 2.46188E-01
 -1      1390 2.27550E-01
 -1      1391 2.56260E-01
 -1      1392 2.06928E-01
 -1      1393 1.86662E-01
 -1      1394 2.07283E-01
 -1      1395 1.67171E-01
 -1      1396 1.47681E-01
 -1      1397 1.67171E-01
 -1      1398 1.31799E-01
 -1      1399 1.14417E-01
 -1      1400 1.31799E-01
 -1      1401 1.01162E-01
 -1      1402 8.64661E-02
 -1      1403 1.02662E-01
 -1      1404 7.67341E-02
 -1      1405 6.99434E-02
 -1      1406 7.96754E-02
 -1      1407 6.41523E-02
 -1      1408 5.83612E-02
 -1      1409 6.41523E-02
 -1      1410 5.28814E-02
 -1      1411 4.74017E-02
 -1      1412 5.28814E-02
 -1      1413 4.24969E-02
 -1      1414 3.75921E-02
 -1      1415 4.24969E-02
 -1      1416 3.33752E-02
 -1      1417 2.91583E-02
 -1      1418 3.33752E-02
 -1      1419 2.57073E-02
 -1      1420 2.21946E-02
 -1      1421 2.57073E-02
 -1      1422 1.97894E-02
 -1      1423 1.73145E-02
 -1      1424 1.98511E-02
 -1      1425 1.57089E-02
 -1      1426 1.42347E-02
 -1      1427 1.58403E-02
 -1      1428 1.28823E-02
 -1      1429 1.15299E-02
 -1      1430 1.28823E-02
 -1      1431 1.03401E-02
 -1      1432 9.15036E-03
 -1      1433 1.03401E-02
 -1      1434 8.25907E-03
 -1      1435 7.24530E-03
 -1      1436 8.25907E-03
 -1      1437 6.48606E-03
 -1      1438 5.69587E-03
 -1      1439 6.60854E-03
 -1      1440 5.13764E-03
 -1      1441 4.51016E-03
 -1      1442 5.29107E-03
 -1      1443 4.03360E-03
 -1      1444 3.51569E-03
 -1      1445 4.25627E-03
 -1      1446 3.10407E-03
 -1      1447 2.68487E-03
 -1      1448 3.36810E-03
 -1      1449 2.33817E-03
 -1      1450 2.03637E-03
 -1      1451 2.60978E-03
 -1      1452 1.75024E-03
 -1      1453 1.58858E-03
 -1      1454 1.97695E-03
 -1      1455 1.35648E-03
 -1      1456 1.21432E-03
 -1      1457 1.45872E-03
 -1      1458 1.07918E-03
 -1      1459 9.56351E-04
 -1      1460 1.09148E-03
 -1      1461 8.49454E-04
 -1      1462 7.42557E-04
 -1      1463 8.49454E-04
 -1      1464 6.56626E-04
 -1      1465 5.70695E-04
 -1      1466 6.56626E-04
 -1      1467 5.34436E-04
 -1      1468 4.98177E-04
 -1      1469 5.34436E-04
 -1      1470 4.01944E-04
 -1      1471 3.05711E-04
 -1      1472 4.01944E-04
 -1      1473 2.24495E-04
 -1      1474 2.24495E-04
 -1      1475 2.06288E+00
 -1      1476 6.92132E+00
 -1      1477 6.92132E+00
 -1      1478 1.86729E+00
 -1      1479 1.70700E+00
 -1      1480 2.09155E+00
 -1      1481 2.12914E+00
 -1      1482 1.99892E+00
 -1      1483 1.86729E+00
 -1      1484 2.85101E+00
 -1      1485 2.25936E+00
 -1      1486 2.12914E+00
 -1      1487 4.28335E+00
 -1      1488 3.44265E+00
 -1      1489 2.85101E+00
 -1      1490 5.54576E+00
 -1      1491 5.12405E+00
 -1      1492 4.28335E+00
 -1      1493 6.23987E+00
 -1      1494 5.96746E+00
 -1      1495 5.54576E+00
 -1      1496 6.51227E+00
 -1      1497 6.51227E+00
 -1      1498 6.23987E+00
 -1      1499 4.43353E+00
 -1      1500 5.47290E+00
 -1      1501 5.47290E+00
 -1      1502 2.23753E+00
 -1      1503 3.33553E+00
 -1      1504 3.33553E+00
 -1      1505 1.84369E+00
 -1      1506 1.96996E+00
 -1      1507 1.96996E+00
 -1      1508 2.12216E+00
 -1      1509 1.98500E+00
 -1      1510 1.84369E+00
 -1      1511 2.25932E+00
 -1      1512 2.25932E+00
 -1      1513 2.12216E+00
 -1      1514 2.09169E+00
 -1      1515 2.17550E+00
 -1      1516 2.17550E+00
 -1      1517 1.74633E+00
 -1      1518 1.91901E+00
 -1      1519 1.91901E+00
 -1      1520 1.43874E+00
 -1      1521 1.59253E+00
 -1      1522 1.59253E+00
 -1      1523 1.14523E+00
 -1      1524 1.30118E+00
 -1      1525 1.30118E+00
 -1      1526 8.75463E-01
 -1      1527 1.01437E+00
 -1      1528 1.03278E+00
 -1      1529 6.47750E-01
 -1      1530 7.62471E-01
 -1      1531 7.88930E-01
 -1      1532 4.68029E-01
 -1      1533 5.55953E-01
 -1      1534 5.84141E-01
 -1      1535 3.44543E-01
 -1      1536 3.98255E-01
 -1      1537 4.22569E-01
 -1      1538 2.50030E-01
 -1      1539 2.93161E-01
 -1      1540 3.01412E-01
 -1      1541 1.82554E-01
 -1      1542 2.16292E-01
 -1      1543 2.16292E-01
 -1      1544 1.31612E-01
 -1      1545 1.57484E-01
 -1      1546 1.57484E-01
 -1      1547 9.34633E-02
 -1      1548 1.12980E-01
 -1      1549 1.13782E-01
 -1      1550 6.48766E-02
 -1      1551 7.93778E-02
 -1      1552 8.10650E-02
 -1      1553 4.63225E-02
 -1      1554 5.45481E-02
 -1      1555 5.66511E-02
 -1      1556 3.79661E-02
 -1      1557 4.21443E-02
 -1      1558 4.21443E-02
 -1      1559 3.05727E-02
 -1      1560 3.42694E-02
 -1      1561 3.42694E-02
 -1      1562 2.42148E-02
 -1      1563 2.73938E-02
 -1      1564 2.73938E-02
 -1      1565 1.88721E-02
 -1      1566 2.15435E-02
 -1      1567 2.15435E-02
 -1      1568 1.58333E-02
 -1      1569 1.73527E-02
 -1      1570 1.73527E-02
 -1      1571 1.36571E-02
 -1      1572 1.47452E-02
 -1      1573 1.47452E-02
 -1      1574 1.14831E-02
 -1      1575 1.25701E-02
 -1      1576 1.25701E-02
 -1      1577 9.44705E-03
 -1      1578 1.04651E-02
 -1      1579 1.04651E-02
 -1      1580 7.62236E-03
 -1      1581 8.53471E-03
 -1      1582 8.53471E-03
 -1      1583 6.12612E-03
 -1      1584 6.87424E-03
 -1      1585 6.87424E-03
 -1      1586 4.90390E-03
 -1      1587 5.51501E-03
 -1      1588 5.51501E-03
 -1      1589 3.85994E-03
 -1      1590 4.38436E-03
 -1      1591 4.38436E-03
 -1      1592 3.00698E-03
 -1      1593 3.44645E-03
 -1      1594 3.45133E-03
 -1      1595 2.29782E-03
 -1      1596 2.65910E-03
 -1      1597 2.68996E-03
 -1      1598 1.71787E-03
 -1      1599 2.01051E-03
 -1      1600 2.05476E-03
 -1      1601 1.24962E-03
 -1      1602 1.48393E-03
 -1      1603 1.53350E-03
 -1      1604 9.53877E-04
 -1      1605 1.07678E-03
 -1      1606 1.12672E-03
 -1      1607 7.40150E-04
 -1      1608 8.47014E-04
 -1      1609 8.47014E-04
 -1      1610 5.44817E-04
 -1      1611 6.42484E-04
 -1      1612 6.42484E-04
 -1      1613 3.55613E-04
 -1      1614 4.53695E-04
 -1      1615 4.53695E-04
 -1      1616 2.35021E-04
 -1      1617 2.91838E-04
 -1      1618 2.98797E-04
 -1      1619 1.67685E-04
 -1      1620 1.21113E-04
 -1      1621 1.21113E-04
 -1      1622 1.17872E-04
 -1      1623 1.22484E-04
 -1      1624 1.43248E-04
 -1      1625 9.78262E-05
 -1      1626 1.17872E-04
 -1      1627 1.44619E-04
 -1      1628 5.87223E-05
 -1      1629 6.28218E-05
 -1      1630 1.09615E-04
 -1      1631 1.04378E-04
 -1      1632 8.86307E-05
 -1      1633 1.04519E-04
 -1      1634 1.33720E-04
 -1      1635 1.24156E-04
 -1      1636 1.54205E-04
 -1      1637 1.44615E-04
 -1      1638 1.41797E-04
 -1      1639 1.82059E-04
 -1      1640 1.44615E-04
 -1      1641 1.44615E-04
 -1      1642 1.90136E-04
 -1      1643 1.41635E-04
 -1      1644 1.44563E-04
 -1      1645 1.90084E-04
 -1      1646 1.23071E-04
 -1      1647 1.33043E-04
 -1      1648 1.81440E-04
 -1      1649 8.87113E-05
 -1      1650 1.04068E-04
 -1      1651 1.53846E-04
 -1      1652 6.36681E-05
 -1      1653 5.90195E-05
 -1      1654 1.05151E-04
 -1      1655 1.18161E-04
 -1      1656 9.87720E-05
 -1      1657 1.10563E-04
 -1      1658 1.39584E-04
 -1      1659 1.18161E-04
 -1      1660 1.45667E-04
 -1      1661 1.63467E-04
 -1      1662 1.58578E-04
 -1      1663 1.64661E-04
 -1      1664 2.44683E-04
 -1      1665 2.83939E+01
 -1      1666 2.80901E+01
 -1      1667 3.84011E+01
 -1      1668 2.73962E+01
 -1      1669 4.80674E+01
 -1      1670 4.80674E+01
 -1      1671 2.20547E+01
 -1      1672 3.54752E+01
 -1      1673 1.19030E+01
 -1      1674 1.64873E+01
 -1      1675 1.21204E+01
 -1      1676 1.20579E+01
 -1      1677 1.24350E+01
 -1      1678 1.21828E+01
 -1      1679 1.26873E+01
 -1      1680 1.26873E+01
 -1      1681 1.26186E+01
 -1      1682 1.26529E+01
 -1      1683 1.27528E+01
 -1      1684 1.19915E+01
 -1      1685 2.44471E+01
 -1      1686 1.41411E+01
 -1      1687 3.47531E+01
 -1      1688 3.47531E+01
 -1      1689 3.28377E+01
 -1      1690 3.63393E+01
 -1      1691 3.28924E+01
 -1      1692 3.28377E+01
 -1      1693 3.12864E+01
 -1      1694 3.12864E+01
 -1      1695 3.19845E+01
 -1      1696 3.13672E+01
 -1      1697 3.27332E+01
 -1      1698 3.19845E+01
 -1      1699 3.05912E+01
 -1      1700 3.05912E+01
 -1      1701 1.30832E+01
 -1      1702 2.18372E+01
 -1      1703 1.17208E+01
 -1      1704 1.18673E+01
 -1      1705 1.27903E+01
 -1      1706 1.27903E+01
 -1      1707 1.23731E+01
 -1      1708 1.25817E+01
 -1      1709 1.18390E+01
 -1      1710 1.19939E+01
 -1      1711 1.20632E+01
 -1      1712 1.20632E+01
 -1      1713 1.11962E+01
 -1      1714 1.16297E+01
 -1      1715 1.66652E+01
 -1      1716 1.10784E+01
 -1      1717 3.62157E+01
 -1      1718 2.32161E+01
 -1      1719 4.83688E+01
 -1      1720 4.83688E+01
 -1      1721 2.70947E+01
 -1      1722 3.85193E+01
 -1      1723 2.80901E+01
 -1      1724 2.81250E+01
 -1      1725 1.73155E+01
 -1      1726 3.54752E+01
 -1      1727 1.67685E-04
 -1      1728 1.88449E-04
 -1      1729 2.97326E+01
 -1      1730 3.84011E+01
 -1      1731 3.07303E+01
 -1      1732 1.19030E+01
 -1      1733 1.21204E+01
 -1      1734 1.24350E+01
 -1      1735 1.26529E+01
 -1      1736 1.19915E+01
 -1      1737 1.27528E+01
 -1      1738 2.44471E+01
 -1      1739 3.63393E+01
 -1      1740 3.79255E+01
 -1      1741 3.63195E+01
 -1      1742 3.47943E+01
 -1      1743 3.48751E+01
 -1      1744 3.27332E+01
 -1      1745 2.18372E+01
 -1      1746 1.18673E+01
 -1      1747 1.17208E+01
 -1      1748 1.25817E+01
 -1      1749 1.19939E+01
 -1      1750 1.18390E+01
 -1      1751 1.16297E+01
 -1      1752 1.10784E+01
 -1      1753 1.75116E+01
 -1      1754 3.62157E+01
 -1      1755 3.85193E+01
 -1      1756 2.97000E+01
 -1      1757 9.88630E+00
 -1      1758 1.79687E+00
 -1      1759 2.05521E+00
 -1      1760 2.64828E+00
 -1      1761 4.56223E+00
 -1      1762 2.03044E+00
 -1      1763 2.30598E+00
 -1      1764 2.25327E+00
 -1      1765 3.08226E+00
 -1      1766 2.78587E+00
 -1      1767 2.69566E+00
 -1      1768 4.01559E+00
 -1      1769 3.53504E+00
 -1      1770 3.62832E+00
 -1      1771 4.58518E+00
 -1      1772 4.51776E+00
 -1      1773 4.58327E+00
 -1      1774 4.63196E+00
 -1      1775 4.63196E+00
 -1      1776 5.13222E+00
 -1      1777 5.48653E+00
 -1      1778 5.33426E+00
 -1      1779 5.88131E+00
 -1      1780 6.10809E+00
 -1      1781 5.54520E+00
 -1      1782 6.64227E+00
 -1      1783 6.10809E+00
 -1      1784 6.10809E+00
 -1      1785 6.70093E+00
 -1      1786 5.52442E+00
 -1      1787 5.76716E+00
 -1      1788 6.36000E+00
 -1      1789 4.65648E+00
 -1      1790 4.86935E+00
 -1      1791 5.36400E+00
 -1      1792 4.55729E+00
 -1      1793 4.24173E+00
 -1      1794 4.29418E+00
 -1      1795 6.84462E+00
 -1      1796 3.76459E+00
 -1      1797 3.08672E+00
 -1      1798 2.37073E+00
 -1      1799 5.18986E+00
 -1      1800 1.83117E+00
 -1      1801 2.18706E+00
 -1      1802 2.11035E+00
 -1      1803 3.25114E+00
 -1      1804 2.64419E+00
 -1      1805 2.33319E+00
 -1      1806 2.33346E+00
 -1      1807 2.35856E+00
 -1      1808 2.08258E+00
 -1      1809 2.40000E+00
 -1      1810 2.55557E+00
 -1      1811 2.12430E+00
 -1      1812 2.58016E+00
 -1      1813 2.66719E+00
 -1      1814 2.19033E+00
 -1      1815 2.60878E+00
 -1      1816 2.50655E+00
 -1      1817 2.15650E+00
 -1      1818 2.44080E+00
 -1      1819 2.43826E+00
 -1      1820 2.03233E+00
 -1      1821 2.40142E+00
 -1      1822 2.16158E+00
 -1      1823 1.92974E+00
 -1      1824 2.00528E+00
 -1      1825 1.64121E+00
 -1      1826 1.73659E+00
 -1      1827 1.46797E+00
 -1      1828 1.18341E+00
 -1      1829 1.40705E+00
 -1      1830 9.91983E-01
 -1      1831 8.26903E-01
 -1      1832 1.04238E+00
 -1      1833 6.44206E-01
 -1      1834 5.75246E-01
 -1      1835 6.68256E-01
 -1      1836 4.93888E-01
 -1      1837 4.72586E-01
 -1      1838 4.04201E-01
 -1      1839 4.82628E-01
 -1      1840 4.70635E-01
 -1      1841 3.32885E-01
 -1      1842 5.10308E-01
 -1      1843 4.97329E-01
 -1      1844 3.82600E-01
 -1      1845 5.00311E-01
 -1      1846 4.60521E-01
 -1      1847 4.25257E-01
 -1      1848 4.41292E-01
 -1      1849 3.95729E-01
 -1      1850 4.09010E-01
 -1      1851 3.74458E-01
 -1      1852 3.41759E-01
 -1      1853 3.68509E-01
 -1      1854 3.21214E-01
 -1      1855 2.95381E-01
 -1      1856 3.26693E-01
 -1      1857 2.72877E-01
 -1      1858 2.44522E-01
 -1      1859 2.83643E-01
 -1      1860 2.20027E-01
 -1      1861 1.99405E-01
 -1      1862 2.36644E-01
 -1      1863 1.75901E-01
 -1      1864 1.56411E-01
 -1      1865 1.88645E-01
 -1      1866 1.35567E-01
 -1      1867 1.19684E-01
 -1      1868 1.44297E-01
 -1      1869 1.02662E-01
 -1      1870 8.94073E-02
 -1      1871 1.06430E-01
 -1      1872 7.81670E-02
 -1      1873 6.84351E-02
 -1      1874 7.81670E-02
 -1      1875 5.92627E-02
 -1      1876 5.34716E-02
 -1      1877 5.77544E-02
 -1      1878 4.68691E-02
 -1      1879 4.13894E-02
 -1      1880 4.19795E-02
 -1      1881 3.86583E-02
 -1      1882 3.37534E-02
 -1      1883 3.26459E-02
 -1      1884 3.12000E-02
 -1      1885 2.69831E-02
 -1      1886 2.73614E-02
 -1      1887 2.46286E-02
 -1      1888 2.11776E-02
 -1      1889 2.24534E-02
 -1      1890 1.90985E-02
 -1      1891 1.66933E-02
 -1      1892 1.80198E-02
 -1      1893 1.49176E-02
 -1      1894 1.33120E-02
 -1      1895 1.41650E-02
 -1      1896 1.22027E-02
 -1      1897 1.08503E-02
 -1      1898 1.12800E-02
 -1      1899 1.00731E-02
 -1      1900 8.88330E-03
 -1      1901 9.39344E-03
 -1      1902 8.13561E-03
 -1      1903 7.24433E-03
 -1      1904 7.86856E-03
 -1      1905 6.58460E-03
 -1      1906 5.82535E-03
 -1      1907 6.46113E-03
 -1      1908 5.30108E-03
 -1      1909 4.74285E-03
 -1      1910 5.27714E-03
 -1      1911 4.27576E-03
 -1      1912 3.79919E-03
 -1      1913 4.28578E-03
 -1      1914 3.42410E-03
 -1      1915 3.01248E-03
 -1      1916 3.44358E-03
 -1      1917 2.70386E-03
 -1      1918 2.35716E-03
 -1      1919 2.75987E-03
 -1      1920 2.08841E-03
 -1      1921 1.80228E-03
 -1      1922 2.18250E-03
 -1      1923 1.57432E-03
 -1      1924 1.34222E-03
 -1      1925 1.68578E-03
 -1      1926 1.15325E-03
 -1      1927 1.01812E-03
 -1      1928 1.26885E-03
 -1      1929 8.65064E-04
 -1      1930 7.58167E-04
 -1      1931 9.26830E-04
 -1      1932 6.49988E-04
 -1      1933 5.64057E-04
 -1      1934 6.65599E-04
 -1      1935 4.88917E-04
 -1      1936 4.52659E-04
 -1      1937 4.82280E-04
 -1      1938 3.82280E-04
 -1      1939 2.86047E-04
 -1      1940 2.25019E-04
 -1      1941 3.36761E-04
 -1      1942 1.91165E+00
 -1      1943 1.78003E+00
 -1      1944 1.87553E+00
 -1      1945 2.01991E+00
 -1      1946 1.88968E+00
 -1      1947 1.80242E+00
 -1      1948 3.04323E+00
 -1      1949 2.45159E+00
 -1      1950 2.21213E+00
 -1      1951 4.35966E+00
 -1      1952 3.51896E+00
 -1      1953 3.11954E+00
 -1      1954 4.80222E+00
 -1      1955 4.38052E+00
 -1      1956 3.61613E+00
 -1      1957 4.92444E+00
 -1      1958 4.65204E+00
 -1      1959 3.48680E+00
 -1      1960 3.58768E+00
 -1      1961 4.62705E+00
 -1      1962 3.03922E+00
 -1      1963 1.99333E+00
 -1      1964 3.09133E+00
 -1      1965 2.24548E+00
 -1      1966 1.65749E+00
 -1      1967 1.92507E+00
 -1      1968 1.68087E+00
 -1      1969 1.83847E+00
 -1      1970 1.69716E+00
 -1      1971 1.65227E+00
 -1      1972 1.96078E+00
 -1      1973 1.82362E+00
 -1      1974 1.67708E+00
 -1      1975 1.87390E+00
 -1      1976 1.95772E+00
 -1      1977 1.65917E+00
 -1      1978 1.61404E+00
 -1      1979 1.78672E+00
 -1      1980 1.56894E+00
 -1      1981 1.37468E+00
 -1      1982 1.52847E+00
 -1      1983 1.39619E+00
 -1      1984 1.12478E+00
 -1      1985 1.26233E+00
 -1      1986 1.19827E+00
 -1      1987 8.80356E-01
 -1      1988 1.01121E+00
 -1      1989 9.72356E-01
 -1      1990 6.65858E-01
 -1      1991 7.78850E-01
 -1      1992 7.57284E-01
 -1      1993 4.89621E-01
 -1      1994 5.81418E-01
 -1      1995 5.71338E-01
 -1      1996 3.52794E-01
 -1      1997 4.22569E-01
 -1      1998 4.19846E-01
 -1      1999 2.49865E-01
 -1      2000 3.01247E-01
 -1      2001 3.01247E-01
 -1      2002 1.81765E-01
 -1      2003 2.15503E-01
 -1      2004 2.15338E-01
 -1      2005 1.32414E-01
 -1      2006 1.57484E-01
 -1      2007 1.56695E-01
 -1      2008 9.51505E-02
 -1      2009 1.13782E-01
 -1      2010 1.13782E-01
 -1      2011 6.69796E-02
 -1      2012 8.10650E-02
 -1      2013 8.10650E-02
 -1      2014 4.61544E-02
 -1      2015 5.64829E-02
 -1      2016 5.64829E-02
 -1      2017 3.42704E-02
 -1      2018 3.84487E-02
 -1      2019 3.82806E-02
 -1      2020 2.71018E-02
 -1      2021 3.07985E-02
 -1      2022 2.71029E-02
 -1      2023 2.19693E-02
 -1      2024 2.51482E-02
 -1      2025 2.16773E-02
 -1      2026 1.74960E-02
 -1      2027 2.01674E-02
 -1      2028 1.79218E-02
 -1      2029 1.43804E-02
 -1      2030 1.58998E-02
 -1      2031 1.45237E-02
 -1      2032 1.19208E-02
 -1      2033 1.30089E-02
 -1      2034 1.15560E-02
 -1      2035 9.81093E-03
 -1      2036 1.08979E-02
 -1      2037 9.16161E-03
 -1      2038 8.23657E-03
 -1      2039 9.25459E-03
 -1      2040 7.58242E-03
 -1      2041 6.78723E-03
 -1      2042 7.69958E-03
 -1      2043 6.48909E-03
 -1      2044 5.57949E-03
 -1      2045 6.32761E-03
 -1      2046 5.49248E-03
 -1      2047 4.55410E-03
 -1      2048 5.16521E-03
 -1      2049 4.61858E-03
 -1      2050 3.65056E-03
 -1      2051 4.17009E-03
 -1      2052 3.82029E-03
 -1      2053 2.89525E-03
 -1      2054 3.30875E-03
 -1      2055 3.09448E-03
 -1      2056 2.25208E-03
 -1      2057 2.59996E-03
 -1      2058 2.45737E-03
 -1      2059 1.71545E-03
 -1      2060 2.00276E-03
 -1      2061 1.91277E-03
 -1      2062 1.27475E-03
 -1      2063 1.50870E-03
 -1      2064 1.45670E-03
 -1      2065 9.32904E-04
 -1      2066 1.10574E-03
 -1      2067 1.08094E-03
 -1      2068 7.14390E-04
 -1      2069 8.21253E-04
 -1      2070 8.00280E-04
 -1      2071 5.33359E-04
 -1      2072 6.31026E-04
 -1      2073 6.05265E-04
 -1      2074 3.62573E-04
 -1      2075 4.53695E-04
 -1      2076 4.42237E-04
 -1      2077 2.21349E-04
 -1      2078 2.85124E-04
 -1      2079 2.85124E-04
 -1      2080 1.74776E-04
 -1      2081 1.12484E-04
 -1      2082 1.47488E-04
 -1      2083 2.13919E-04
 -1      2084 2.13919E-04
 -1      2085 2.16787E-04
 -1      2086 2.13919E-04
 -1      2087 2.12547E-04
 -1      2088 2.45447E-04
 -1      2089 2.83218E-04
 -1      2090 1.58109E-04
 -1      2091 1.28201E-04
 -1      2092 1.66074E-04
 -1      2093 2.07199E-04
 -1      2094 1.87421E-04
 -1      2095 2.11103E-04
 -1      2096 2.29195E-04
 -1      2097 2.21118E-04
 -1      2098 2.54334E-04
 -1      2099 2.29195E-04
 -1      2100 2.29195E-04
 -1      2101 2.68254E-04
 -1      2102 2.28671E-04
 -1      2103 2.28723E-04
 -1      2104 2.67782E-04
 -1      2105 2.20080E-04
 -1      2106 2.28671E-04
 -1      2107 2.67311E-04
 -1      2108 1.87758E-04
 -1      2109 2.06762E-04
 -1      2110 2.53993E-04
 -1      2111 1.29215E-04
 -1      2112 1.58907E-04
 -1      2113 2.11823E-04
 -1      2114 1.53094E-04
 -1      2115 1.17990E-04
 -1      2116 1.71747E-04
 -1      2117 1.92908E-04
 -1      2118 1.92908E-04
 -1      2119 2.00335E-04
 -1      2120 3.84011E+01
 -1      2121 2.87349E+01
 -1      2122 3.31384E+01
 -1      2123 3.31384E+01
 -1      2124 3.21407E+01
 -1      2125 3.31384E+01
 -1      2126 1.99014E+01
 -1      2127 3.24936E+01
 -1      2128 2.28273E+01
 -1      2129 1.08066E+01
 -1      2130 1.63741E+01
 -1      2131 1.94857E+00
 -1      2132 1.88137E+00
 -1      2133 1.52187E+00
 -1      2134 1.91107E+00
 -1      2135 1.13927E+01
 -1      2136 1.13303E+01
 -1      2137 1.17305E+01
 -1      2138 1.14783E+01
 -1      2139 1.06882E+01
 -1      2140 1.14294E+01
 -1      2141 1.14637E+01
 -1      2142 9.60627E+00
 -1      2143 1.02334E+01
 -1      2144 9.04415E+00
 -1      2145 1.06347E+01
 -1      2146 9.24633E+00
 -1      2147 2.40808E+01
 -1      2148 1.37749E+01
 -1      2149 3.04573E+01
 -1      2150 2.88711E+01
 -1      2151 3.79255E+01
 -1      2152 3.79255E+01
 -1      2153 3.47134E+01
 -1      2154 3.63195E+01
 -1      2155 3.40759E+01
 -1      2156 3.39950E+01
 -1      2157 3.48751E+01
 -1      2158 3.48751E+01
 -1      2159 3.40759E+01
 -1      2160 2.57331E+01
 -1      2161 2.78751E+01
 -1      2162 1.29427E+01
 -1      2163 2.16967E+01
 -1      2164 1.68386E+01
 -1      2165 9.05103E+00
 -1      2166 1.02670E+01
 -1      2167 9.83902E+00
 -1      2168 8.76956E+00
 -1      2169 1.10101E+01
 -1      2170 1.12187E+01
 -1      2171 1.08998E+01
 -1      2172 1.12789E+01
 -1      2173 1.09468E+01
 -1      2174 1.07226E+01
 -1      2175 9.85327E+00
 -1      2176 1.02868E+01
 -1      2177 8.80957E+00
 -1      2178 8.92735E+00
 -1      2179 7.58445E+00
 -1      2180 1.71482E+01
 -1      2181 1.05972E+01
 -1      2182 3.29277E+01
 -1      2183 2.07746E+01
 -1      2184 2.86697E+01
 -1      2185 3.85193E+01
 -1      2186 3.16598E+01
 -1      2187 3.06295E+01
 -1      2188 3.40679E+01
 -1      2189 9.81084E+00
 -1      2190 9.65589E+00
 -1      2191 1.33925E+01
 -1      2192 2.91480E+00
 -1      2193 9.08322E+00
 -1      2194 2.35292E+00
 -1      2195 3.21407E+01
 -1      2196 3.55465E+01
 -1      2197 2.11902E-04
 -1      2198 8.71451E+00
 -1      2199 3.06295E+01
 -1      2200 2.30781E+01
 -1      2201 8.44618E+00
 -1      2202 9.17043E+00
 -1      2203 1.00076E+01
 -1      2204 9.91597E+00
 -1      2205 9.95420E+00
 -1      2206 7.00296E+00
 -1      2207 8.38265E+00
 -1      2208 1.01265E+01
 -1      2209 2.62982E+01
 -1      2210 2.62982E+01
 -1      2211 1.92981E+01
 -1      2212 3.39950E+01
 -1      2213 3.63195E+01
 -1      2214 3.04573E+01
 -1      2215 1.81989E+01
 -1      2216 7.48816E+00
 -1      2217 1.05070E+01
 -1      2218 1.02684E+01
 -1      2219 7.16925E+00
 -1      2220 1.38602E+01
 -1      2221 3.72525E+00
 -1      2222 3.77640E+00
 -1      2223 4.08383E+00
 -1      2224 3.63105E+00
 -1      2225 3.08990E+00
 -1      2226 2.61001E+00
 -1      2227 3.54540E+00
 -1      2228 6.57609E+00
 -1      2229 6.52931E+00
 -1      2230 8.37243E+00
 -1      2231 7.67012E+00
 -1      2232 9.06721E+00
 -1      2233 8.42934E+00
 -1      2234 8.37068E+00
 -1      2235 1.01595E+01
 -1      2236 8.59398E+00
 -1      2237 8.59398E+00
 -1      2238 1.03224E+01
 -1      2239 7.31416E+00
 -1      2240 7.65509E+00
 -1      2241 9.54814E+00
 -1      2242 5.49209E+00
 -1      2243 6.14715E+00
 -1      2244 7.44225E+00
 -1      2245 2.81951E+00
 -1      2246 2.84148E+00
 -1      2247 4.74234E+00
 -1      2248 1.68922E+00
 -1      2249 1.68949E+00
 -1      2250 7.88549E+00
 -1      2251 6.36604E+00
 -1      2252 1.83751E+00
 -1      2253 1.87895E+00
 -1      2254 1.44415E+00
 -1      2255 1.92848E+00
 -1      2256 1.95307E+00
 -1      2257 1.64169E+00
 -1      2258 1.91623E+00
 -1      2259 1.85781E+00
 -1      2260 1.65438E+00
 -1      2261 1.75803E+00
 -1      2262 1.69228E+00
 -1      2263 1.51776E+00
 -1      2264 1.69747E+00
 -1      2265 1.66063E+00
 -1      2266 1.42317E+00
 -1      2267 1.62287E+00
 -1      2268 1.46656E+00
 -1      2269 1.39061E+00
 -1      2270 1.40321E+00
 -1      2271 1.22997E+00
 -1      2272 1.28949E+00
 -1      2273 1.12344E+00
 -1      2274 9.32016E-01
 -1      2275 1.11960E+00
 -1      2276 8.18418E-01
 -1      2277 6.35721E-01
 -1      2278 8.99481E-01
 -1      2279 5.48384E-01
 -1      2280 4.67026E-01
 -1      2281 6.98546E-01
 -1      2282 4.22878E-01
 -1      2283 4.32919E-01
 -1      2284 5.67060E-01
 -1      2285 3.83325E-01
 -1      2286 4.22999E-01
 -1      2287 4.73318E-01
 -1      2288 4.27474E-01
 -1      2289 4.30457E-01
 -1      2290 4.28199E-01
 -1      2291 4.17223E-01
 -1      2292 3.97994E-01
 -1      2293 4.19441E-01
 -1      2294 3.76456E-01
 -1      2295 3.55185E-01
 -1      2296 3.84669E-01
 -1      2297 3.36993E-01
 -1      2298 3.16448E-01
 -1      2299 3.44940E-01
 -1      2300 2.95973E-01
 -1      2301 2.73469E-01
 -1      2302 3.06274E-01
 -1      2303 2.50003E-01
 -1      2304 2.25508E-01
 -1      2305 2.62333E-01
 -1      2306 2.02135E-01
 -1      2307 1.78631E-01
 -1      2308 2.15494E-01
 -1      2309 1.57215E-01
 -1      2310 1.36370E-01
 -1      2311 1.70705E-01
 -1      2312 1.17845E-01
 -1      2313 1.00822E-01
 -1      2314 1.30762E-01
 -1      2315 8.54893E-02
 -1      2316 7.42490E-02
 -1      2317 9.69040E-02
 -1      2318 6.20145E-02
 -1      2319 5.28421E-02
 -1      2320 6.93367E-02
 -1      2321 4.33926E-02
 -1      2322 3.67901E-02
 -1      2323 4.76527E-02
 -1      2324 3.03991E-02
 -1      2325 2.76680E-02
 -1      2326 3.18122E-02
 -1      2327 2.38055E-02
 -1      2328 2.12521E-02
 -1      2329 2.15587E-02
 -1      2330 1.99718E-02
 -1      2331 1.76172E-02
 -1      2332 1.64160E-02
 -1      2333 1.66564E-02
 -1      2334 1.45773E-02
 -1      2335 1.41748E-02
 -1      2336 1.35720E-02
 -1      2337 1.17964E-02
 -1      2338 1.22086E-02
 -1      2339 1.08275E-02
 -1      2340 9.71815E-03
 -1      2341 1.02345E-02
 -1      2342 8.83306E-03
 -1      2343 8.05587E-03
 -1      2344 8.38058E-03
 -1      2345 7.48934E-03
 -1      2346 6.74164E-03
 -1      2347 6.92895E-03
 -1      2348 6.29262E-03
 -1      2349 5.63289E-03
 -1      2350 5.91339E-03
 -1      2351 5.18471E-03
 -1      2352 4.66045E-03
 -1      2353 5.01620E-03
 -1      2354 4.26240E-03
 -1      2355 3.79530E-03
 -1      2356 4.16997E-03
 -1      2357 3.45522E-03
 -1      2358 3.08012E-03
 -1      2359 3.43184E-03
 -1      2360 2.77238E-03
 -1      2361 2.46376E-03
 -1      2362 2.78401E-03
 -1      2363 2.19470E-03
 -1      2364 1.92595E-03
 -1      2365 2.20721E-03
 -1      2366 1.72034E-03
 -1      2367 1.49238E-03
 -1      2368 1.73254E-03
 -1      2369 1.31724E-03
 -1      2370 1.12827E-03
 -1      2371 1.35180E-03
 -1      2372 9.80803E-04
 -1      2373 8.27750E-04
 -1      2374 1.02919E-03
 -1      2375 7.06972E-04
 -1      2376 5.98793E-04
 -1      2377 7.60945E-04
 -1      2378 4.86143E-04
 -1      2379 4.11003E-04
 -1      2380 5.27516E-04
 -1      2381 3.59527E+00
 -1      2382 3.11954E+00
 -1      2383 3.95425E+00
 -1      2384 3.93339E+00
 -1      2385 3.93339E+00
 -1      2386 4.22032E+00
 -1      2387 4.37051E+00
 -1      2388 2.92489E+00
 -1      2389 3.22228E+00
 -1      2390 2.23624E+00
 -1      2391 2.73259E+00
 -1      2392 2.91565E+00
 -1      2393 2.26461E+00
 -1      2394 2.33287E+00
 -1      2395 2.81998E+00
 -1      2396 2.18628E+00
 -1      2397 2.14662E+00
 -1      2398 2.79862E+00
 -1      2399 1.96409E+00
 -1      2400 1.97894E+00
 -1      2401 2.47329E+00
 -1      2402 1.76114E+00
 -1      2403 1.76420E+00
 -1      2404 2.06606E+00
 -1      2405 1.57177E+00
 -1      2406 1.65895E+00
 -1      2407 1.76397E+00
 -1      2408 1.38104E+00
 -1      2409 1.46661E+00
 -1      2410 1.55662E+00
 -1      2411 1.14443E+00
 -1      2412 1.25678E+00
 -1      2413 1.32720E+00
 -1      2414 9.08755E-01
 -1      2415 1.02232E+00
 -1      2416 1.08082E+00
 -1      2417 6.98698E-01
 -1      2418 8.00204E-01
 -1      2419 8.50169E-01
 -1      2420 5.23500E-01
 -1      2421 6.07939E-01
 -1      2422 6.50859E-01
 -1      2423 3.83587E-01
 -1      2424 4.50639E-01
 -1      2425 4.87240E-01
 -1      2426 2.75202E-01
 -1      2427 3.26749E-01
 -1      2428 3.57541E-01
 -1      2429 1.97458E-01
 -1      2430 2.31820E-01
 -1      2431 2.57322E-01
 -1      2432 1.40658E-01
 -1      2433 1.64939E-01
 -1      2434 1.81421E-01
 -1      2435 9.80460E-02
 -1      2436 1.16678E-01
 -1      2437 1.24922E-01
 -1      2438 6.65612E-02
 -1      2439 8.06467E-02
 -1      2440 8.35422E-02
 -1      2441 4.50760E-02
 -1      2442 5.55726E-02
 -1      2443 5.51543E-02
 -1      2444 3.10009E-02
 -1      2445 3.87067E-02
 -1      2446 3.77964E-02
 -1      2447 2.36309E-02
 -1      2448 2.71029E-02
 -1      2449 2.75290E-02
 -1      2450 1.97237E-02
 -1      2451 2.16773E-02
 -1      2452 2.16773E-02
 -1      2453 1.61199E-02
 -1      2454 1.79218E-02
 -1      2455 1.79218E-02
 -1      2456 1.29275E-02
 -1      2457 1.45237E-02
 -1      2458 1.45237E-02
 -1      2459 1.01845E-02
 -1      2460 1.15560E-02
 -1      2461 1.15560E-02
 -1      2462 8.26834E-03
 -1      2463 9.29119E-03
 -1      2464 9.29119E-03
 -1      2465 7.01448E-03
 -1      2466 7.57082E-03
 -1      2467 7.70039E-03
 -1      2468 5.91175E-03
 -1      2469 6.44874E-03
 -1      2470 6.43713E-03
 -1      2471 4.95886E-03
 -1      2472 5.41848E-03
 -1      2473 5.37813E-03
 -1      2474 4.15157E-03
 -1      2475 4.56585E-03
 -1      2476 4.49185E-03
 -1      2477 3.39772E-03
 -1      2478 3.78173E-03
 -1      2479 3.72900E-03
 -1      2480 2.74513E-03
 -1      2481 3.08694E-03
 -1      2482 3.04838E-03
 -1      2483 2.17718E-03
 -1      2484 2.47247E-03
 -1      2485 2.46493E-03
 -1      2486 1.68957E-03
 -1      2487 1.93888E-03
 -1      2488 1.95398E-03
 -1      2489 1.28006E-03
 -1      2490 1.48681E-03
 -1      2491 1.51293E-03
 -1      2492 9.42613E-04
 -1      2493 1.11162E-03
 -1      2494 1.14173E-03
 -1      2495 6.94514E-04
 -1      2496 8.06165E-04
 -1      2497 8.36847E-04
 -1      2498 5.00573E-04
 -1      2499 5.83937E-04
 -1      2500 5.89822E-04
 -1      2501 3.47999E-04
 -1      2502 4.27663E-04
 -1      2503 4.06335E-04
 -1      2504 3.22895E-04
 -1      2505 2.71317E-04
 -1      2506 2.42005E-04
 -1      2507 3.10754E-04
 -1      2508 2.96835E-04
 -1      2509 3.27737E-04
 -1      2510 2.27598E-04
 -1      2511 2.94028E-04
 -1      2512 2.18020E-04
 -1      2513 2.02303E-04
 -1      2514 2.79543E-04
 -1      2515 2.78234E-04
 -1      2516 3.11667E-04
 -1      2517 3.11667E-04
 -1      2518 3.54167E-04
 -1      2519 3.11195E-04
 -1      2520 3.11667E-04
 -1      2521 3.55079E-04
 -1      2522 3.10957E-04
 -1      2523 3.10957E-04
 -1      2524 3.54841E-04
 -1      2525 2.96856E-04
 -1      2526 3.10175E-04
 -1      2527 3.53820E-04
 -1      2528 2.44647E-04
 -1      2529 2.73498E-04
 -1      2530 3.29680E-04
 -1      2531 2.51937E-04
 -1      2532 2.63163E-04
 -1      2533 3.24838E-04
 -1      2534 2.71096E-04
 -1      2535 2.31282E-04
 -1      2536 3.22698E-04
 -1      2537 3.55465E+01
 -1      2538 3.55465E+01
 -1      2539 2.46175E+01
 -1      2540 2.80233E+01
 -1      2541 6.49168E+00
 -1      2542 7.64242E+00
 -1      2543 2.47625E+00
 -1      2544 2.04457E+00
 -1      2545 3.08363E+00
 -1      2546 2.53266E-04
 -1      2547 1.45980E+01
 -1      2548 2.05055E+01
 -1      2549 2.75385E+01
 -1      2550 2.55787E+01
 -1      2551 3.40679E+01
 -1      2552 3.25893E+01
 -1      2553 7.50931E+00
 -1      2554 8.16938E+00
 -1      2555 2.65635E+01
 -1      2556 2.72819E+01
 -1      2557 5.67635E+00
 -1      2558 5.17418E+00
 -1      2559 5.17691E+00
 -1      2560 7.12022E+00
 -1      2561 1.09529E+01
 -1      2562 7.81277E+00
 -1      2563 9.10274E+00
 -1      2564 9.01721E+00
 -1      2565 8.99479E+00
 -1      2566 9.26156E+00
 -1      2567 6.67350E+00
 -1      2568 7.86953E+00
 -1      2569 5.65005E+00
 -1      2570 5.93152E+00
 -1      2571 5.81003E+00
 -1      2572 6.16997E+00
 -1      2573 1.69174E+01
 -1      2574 1.21271E+01
 -1      2575 2.72055E+01
 -1      2576 1.97374E+01
 -1      2577 1.36656E+01
 -1      2578 2.94881E+01
 -1      2579 3.10942E+01
 -1      2580 2.85653E+01
 -1      2581 2.77661E+01
 -1      2582 1.10878E+01
 -1      2583 1.51241E+01
 -1      2584 1.31558E+01
 -1      2585 9.52939E+00
 -1      2586 7.23711E+00
 -1      2587 9.91287E+00
 -1      2588 5.71791E+00
 -1      2589 9.09357E+00
 -1      2590 8.82476E+00
 -1      2591 8.68432E+00
 -1      2592 8.86146E+00
 -1      2593 7.02320E+00
 -1      2594 5.47632E+00
 -1      2595 6.40224E+00
 -1      2596 7.99545E+00
 -1      2597 6.20780E+00
 -1      2598 5.02559E+00
 -1      2599 2.13455E+01
 -1      2600 1.57539E+01
 -1      2601 1.99500E+00
 -1      2602 1.72440E+00
 -1      2603 1.33131E+00
 -1      2604 1.40192E+00
 -1      2605 3.31780E+00
 -1      2606 3.50148E+00
 -1      2607 4.29418E+00
 -1      2608 5.16752E+00
 -1      2609 9.47123E+00
 -1      2610 1.29985E+01
 -1      2611 7.24840E+00
 -1      2612 6.49458E+00
 -1      2613 2.33341E+00
 -1      2614 1.93917E+00
 -1      2615 1.63446E+00
 -1      2616 2.65059E-04
 -1      2617 2.51943E-04
 -1      2618 2.82890E-04
 -1      2619 3.35438E-04
 -1      2620 4.70893E+00
 -1      2621 8.19838E+00
 -1      2622 2.41815E+01
 -1      2623 1.78717E+01
 -1      2624 1.56045E+01
 -1      2625 5.29395E+00
 -1      2626 3.39301E-04
 -1      2627 2.03742E+01
 -1      2628 1.63882E+01
 -1      2629 4.68777E+00
 -1      2630 5.49209E+00
 -1      2631 4.10600E+00
 -1      2632 3.08322E-04
 -1      2633 3.08322E-04
 -1      2634 5.76524E+00
 -1      2635 3.40679E+01
 -1      2636 2.80233E+01
 -1      2637 4.99536E+00
 -1      2638 2.75385E+01
 -1      2639 6.62414E+00
 -1      2640 1.06767E+01
 -1      2641 1.82545E+01
 -1      2642 1.48642E+00
 -1      2643 7.29102E+00
 -1      2644 1.14231E+01
 -1      2645 5.40118E+00
 -1      2646 2.10529E+01
 -1      2647 2.20566E+01
 -1      2648 2.95198E+00
 -1      2649 7.60436E+00
 -1      2650 6.33986E+00
 -1      2651 6.78197E+00
 -1      2652 1.52127E+01
 -1      2653 1.36358E+01
 -1      2654 9.46179E+00
 -1      2655 6.30003E+00
 -1      2656 7.59057E+00
 -1      2657 9.67149E+00
 -1      2658 7.77025E+00
 -1      2659 3.19132E-04
 -1      2660 1.88765E+01
 -1      2661 1.49878E+01
 -1      2662 1.31127E+01
 -1      2663 1.31144E+01
 -1      2664 1.18246E+01
 -1      2665 1.07305E+01
 -1      2666 1.10497E+01
 -1      2667 1.19885E+01
 -1      2668 5.01765E+00
 -1      2669 5.90142E+00
 -1      2670 4.13813E+00
 -1      2671 5.13617E+00
 -1      2672 5.35414E+00
 -1      2673 7.18295E+00
 -1      2674 3.97755E-04
 -1      2675 4.16908E-04
 -1      2676 4.73320E-04
 -1      2677 5.95068E+00
 -1      2678 1.16013E+01
 -1      2679 1.57132E+01
 -1      2680 1.46189E+00
 -1      2681 1.51141E+00
 -1      2682 1.65788E+00
 -1      2683 1.62105E+00
 -1      2684 1.47808E+00
 -1      2685 1.78991E+00
 -1      2686 1.69013E+00
 -1      2687 1.79341E+00
 -1      2688 1.60630E+00
 -1      2689 1.61149E+00
 -1      2690 1.87844E+00
 -1      2691 1.58669E+00
 -1      2692 1.54893E+00
 -1      2693 1.76981E+00
 -1      2694 1.32662E+00
 -1      2695 1.26326E+00
 -1      2696 1.52270E+00
 -1      2697 1.28077E+00
 -1      2698 1.17424E+00
 -1      2699 1.31790E+00
 -1      2700 1.04175E+00
 -1      2701 9.28150E-01
 -1      2702 1.20291E+00
 -1      2703 8.87536E-01
 -1      2704 8.00199E-01
 -1      2705 1.02980E+00
 -1      2706 7.08507E-01
 -1      2707 6.64358E-01
 -1      2708 8.97498E-01
 -1      2709 5.66429E-01
 -1      2710 5.16835E-01
 -1      2711 7.07875E-01
 -1      2712 4.95541E-01
 -1      2713 5.00016E-01
 -1      2714 5.88652E-01
 -1      2715 4.64812E-01
 -1      2716 4.51578E-01
 -1      2717 5.32154E-01
 -1      2718 4.14186E-01
 -1      2719 3.92648E-01
 -1      2720 4.59557E-01
 -1      2721 3.63901E-01
 -1      2722 3.45710E-01
 -1      2723 3.93418E-01
 -1      2724 3.20400E-01
 -1      2725 2.99926E-01
 -1      2726 3.39362E-01
 -1      2727 2.73419E-01
 -1      2728 2.49952E-01
 -1      2729 2.87546E-01
 -1      2730 2.24709E-01
 -1      2731 2.01336E-01
 -1      2732 2.35795E-01
 -1      2733 1.78714E-01
 -1      2734 1.57297E-01
 -1      2735 1.87929E-01
 -1      2736 1.37894E-01
 -1      2737 1.19369E-01
 -1      2738 1.45904E-01
 -1      2739 1.03290E-01
 -1      2740 8.79574E-02
 -1      2741 1.10422E-01
 -1      2742 7.50158E-02
 -1      2743 6.27813E-02
 -1      2744 8.14020E-02
 -1      2745 5.26328E-02
 -1      2746 4.31834E-02
 -1      2747 5.83120E-02
 -1      2748 3.54199E-02
 -1      2749 2.90288E-02
 -1      2750 4.04000E-02
 -1      2751 2.32356E-02
 -1      2752 1.93732E-02
 -1      2753 2.68433E-02
 -1      2754 1.51627E-02
 -1      2755 1.38824E-02
 -1      2756 1.68396E-02
 -1      2757 1.18159E-02
 -1      2758 1.08550E-02
 -1      2759 1.05626E-02
 -1      2760 1.07246E-02
 -1      2761 9.71940E-03
 -1      2762 8.36575E-03
 -1      2763 9.42958E-03
 -1      2764 8.46072E-03
 -1      2765 7.94557E-03
 -1      2766 8.04086E-03
 -1      2767 7.15577E-03
 -1      2768 7.23590E-03
 -1      2769 6.68265E-03
 -1      2770 6.11611E-03
 -1      2771 6.34293E-03
 -1      2772 5.64029E-03
 -1      2773 5.19127E-03
 -1      2774 5.39399E-03
 -1      2775 4.86079E-03
 -1      2776 4.41261E-03
 -1      2777 4.58769E-03
 -1      2778 4.09723E-03
 -1      2779 3.69918E-03
 -1      2780 3.94183E-03
 -1      2781 3.38972E-03
 -1      2782 3.04964E-03
 -1      2783 3.31699E-03
 -1      2784 2.76309E-03
 -1      2785 2.45535E-03
 -1      2786 2.72098E-03
 -1      2787 2.21099E-03
 -1      2788 1.94193E-03
 -1      2789 2.19007E-03
 -1      2790 1.73527E-03
 -1      2791 1.52966E-03
 -1      2792 1.73905E-03
 -1      2793 1.35180E-03
 -1      2794 1.17666E-03
 -1      2795 1.35452E-03
 -1      2796 1.02999E-03
 -1      2797 8.82523E-04
 -1      2798 1.02999E-03
 -1      2799 7.71792E-04
 -1      2800 6.51013E-04
 -1      2801 7.72591E-04
 -1      2802 5.80770E-04
 -1      2803 4.68120E-04
 -1      2804 5.26574E-04
 -1      2805 5.91617E-04
 -1      2806 4.94700E+00
 -1      2807 3.59409E+00
 -1      2808 2.92691E+00
 -1      2809 3.13425E+00
 -1      2810 2.17012E+00
 -1      2811 2.37001E+00
 -1      2812 3.03098E+00
 -1      2813 1.86159E+00
 -1      2814 1.96379E+00
 -1      2815 2.26774E+00
 -1      2816 1.55453E+00
 -1      2817 1.65968E+00
 -1      2818 1.85950E+00
 -1      2819 1.25383E+00
 -1      2820 1.37810E+00
 -1      2821 1.48116E+00
 -1      2822 9.87008E-01
 -1      2823 1.10911E+00
 -1      2824 1.16002E+00
 -1      2825 7.61866E-01
 -1      2826 8.70416E-01
 -1      2827 8.98705E-01
 -1      2828 5.78149E-01
 -1      2829 6.68908E-01
 -1      2830 6.89156E-01
 -1      2831 4.31878E-01
 -1      2832 5.04739E-01
 -1      2833 5.22788E-01
 -1      2834 3.17619E-01
 -1      2835 3.74457E-01
 -1      2836 3.91956E-01
 -1      2837 2.29785E-01
 -1      2838 2.73167E-01
 -1      2839 2.90083E-01
 -1      2840 1.63231E-01
 -1      2841 1.95750E-01
 -1      2842 2.11596E-01
 -1      2843 1.13493E-01
 -1      2844 1.37474E-01
 -1      2845 1.51803E-01
 -1      2846 7.68405E-02
 -1      2847 9.42398E-02
 -1      2848 1.06792E-01
 -1      2849 5.16543E-02
 -1      2850 6.26429E-02
 -1      2851 7.33406E-02
 -1      2852 3.49739E-02
 -1      2853 4.13432E-02
 -1      2854 4.88318E-02
 -1      2855 2.37187E-02
 -1      2856 2.76168E-02
 -1      2857 3.11636E-02
 -1      2858 1.76265E-02
 -1      2859 1.95802E-02
 -1      2860 1.96679E-02
 -1      2861 1.45380E-02
 -1      2862 1.63399E-02
 -1      2863 1.42427E-02
 -1      2864 1.22476E-02
 -1      2865 1.38438E-02
 -1      2866 1.22618E-02
 -1      2867 1.00865E-02
 -1      2868 1.14581E-02
 -1      2869 1.07781E-02
 -1      2870 8.39791E-03
 -1      2871 9.29119E-03
 -1      2872 9.19326E-03
 -1      2873 6.95248E-03
 -1      2874 7.65000E-03
 -1      2875 7.65000E-03
 -1      2876 5.81963E-03
 -1      2877 6.38537E-03
 -1      2878 6.33497E-03
 -1      2879 4.88486E-03
 -1      2880 5.37813E-03
 -1      2881 5.32636E-03
 -1      2882 4.09884E-03
 -1      2883 4.49185E-03
 -1      2884 4.49185E-03
 -1      2885 3.36519E-03
 -1      2886 3.73503E-03
 -1      2887 3.73503E-03
 -1      2888 2.75085E-03
 -1      2889 3.06163E-03
 -1      2890 3.06766E-03
 -1      2891 2.20349E-03
 -1      2892 2.47614E-03
 -1      2893 2.48940E-03
 -1      2894 1.72482E-03
 -1      2895 1.96312E-03
 -1      2896 1.97433E-03
 -1      2897 1.32215E-03
 -1      2898 1.52491E-03
 -1      2899 1.53404E-03
 -1      2900 1.00050E-03
 -1      2901 1.16894E-03
 -1      2902 1.18092E-03
 -1      2903 7.34857E-04
 -1      2904 8.71304E-04
 -1      2905 8.98513E-04
 -1      2906 5.14418E-04
 -1      2907 6.24995E-04
 -1      2908 6.59453E-04
 -1      2909 3.78600E-04
 -1      2910 4.51509E-04
 -1      2911 4.86683E-04
 -1      2912 3.64306E-04
 -1      2913 4.09126E-04
 -1      2914 4.09126E-04
 -1      2915 3.97991E-04
 -1      2916 3.72473E-04
 -1      2917 4.07830E-04
 -1      2918 4.08068E-04
 -1      2919 4.62114E-04
 -1      2920 4.09126E-04
 -1      2921 4.08213E-04
 -1      2922 4.52949E-04
 -1      2923 4.63172E-04
 -1      2924 4.07048E-04
 -1      2925 4.07830E-04
 -1      2926 4.61057E-04
 -1      2927 3.77455E-04
 -1      2928 4.00813E-04
 -1      2929 4.54823E-04
 -1      2930 4.37563E-04
 -1      2931 4.19048E-04
 -1      2932 4.90181E-04
 -1      2933 4.37563E-04
 -1      2934 6.84987E+00
 -1      2935 4.84713E+00
 -1      2936 3.75556E+00
 -1      2937 4.53049E+00
 -1      2938 5.92704E+00
 -1      2939 6.44198E+00
 -1      2940 4.00008E+00
 -1      2941 5.30567E+00
 -1      2942 1.91616E+01
 -1      2943 1.79589E+01
 -1      2944 1.79985E+01
 -1      2945 2.55216E+01
 -1      2946 6.22599E+00
 -1      2947 3.10795E+00
 -1      2948 4.13813E+00
 -1      2949 4.26377E+00
 -1      2950 2.91565E+00
 -1      2951 3.40559E+00
 -1      2952 3.52359E+00
 -1      2953 3.85922E+00
 -1      2954 3.62987E+00
 -1      2955 3.53324E+00
 -1      2956 3.72554E+00
 -1      2957 4.23684E+00
 -1      2958 1.19641E+00
 -1      2959 1.34442E+00
 -1      2960 1.21415E+00
 -1      2961 6.39580E+00
 -1      2962 7.57068E+00
 -1      2963 4.67797E+00
 -1      2964 7.42654E+00
 -1      2965 5.89261E+00
 -1      2966 8.94962E+00
 -1      2967 7.77545E+00
 -1      2968 8.31132E+00
 -1      2969 9.91080E+00
 -1      2970 3.54540E+00
 -1      2971 3.00425E+00
 -1      2972 2.40585E+01
 -1      2973 1.90077E+01
 -1      2974 1.32494E+01
 -1      2975 1.04295E+01
 -1      2976 1.79499E+01
 -1      2977 2.01562E+01
 -1      2978 1.12319E+01
 -1      2979 8.63376E+00
 -1      2980 6.95402E+00
 -1      2981 7.18614E+00
 -1      2982 5.85786E+00
 -1      2983 2.49867E+01
 -1      2984 2.35081E+01
 -1      2985 3.88477E+00
 -1      2986 4.99185E+00
 -1      2987 4.41063E+00
 -1      2988 4.55707E+00
 -1      2989 3.82558E+00
 -1      2990 1.73213E+01
 -1      2991 1.30882E+01
 -1      2992 1.02988E+01
 -1      2993 1.51452E+00
 -1      2994 6.26790E+00
 -1      2995 2.47096E+00
 -1      2996 1.80011E+00
 -1      2997 2.47096E+00
 -1      2998 1.18659E+01
 -1      2999 9.10851E+00
 -1      3000 8.14426E+00
 -1      3001 9.31126E+00
 -1      3002 6.41706E+00
 -1      3003 3.84939E+00
 -1      3004 3.49410E+00
 -1      3005 3.99762E+00
 -1      3006 2.40253E+00
 -1      3007 1.39825E+01
 -1      3008 6.13587E+00
 -1      3009 7.93845E+00
 -1      3010 8.02698E+00
 -1      3011 9.23588E+00
 -1      3012 3.18185E+00
 -1      3013 4.27151E+00
 -1      3014 3.93339E+00
 -1      3015 3.26155E-04
 -1      3016 3.85623E-04
 -1      3017 3.00860E-04
 -1      3018 1.38414E+01
 -1      3019 1.47698E+01
 -1      3020 1.17517E+01
 -1      3021 3.41625E+00
 -1      3022 5.31773E-04
 -1      3023 6.12800E+00
 -1      3024 1.48530E+00
 -1      3025 1.33727E+00
 -1      3026 1.30209E+00
 -1      3027 1.62286E+00
 -1      3028 1.60585E+01
 -1      3029 5.68958E+00
 -1      3030 1.49774E+01
 -1      3031 5.29509E+00
 -1      3032 4.75394E+00
 -1      3033 1.52997E+01
 -1      3034 1.27980E+01
 -1      3035 1.05128E+01
 -1      3036 1.47777E+01
 -1      3037 4.69260E+00
 -1      3038 8.25556E+00
 -1      3039 4.16870E+00
 -1      3040 1.49619E+01
 -1      3041 8.09500E+00
 -1      3042 6.25267E+00
 -1      3043 5.03226E+00
 -1      3044 5.43643E+00
 -1      3045 1.20236E+00
 -1      3046 3.37072E-04
 -1      3047 3.13087E-04
 -1      3048 3.59698E-04
 -1      3049 4.07326E-04
 -1      3050 6.38545E+00
 -1      3051 8.53343E+00
 -1      3052 7.23535E+00
 -1      3053 1.32683E+01
 -1      3054 1.31036E+01
 -1      3055 6.46259E+00
 -1      3056 6.30377E+00
 -1      3057 3.04582E+00
 -1      3058 1.17517E+01
 -1      3059 4.19832E+00
 -1      3060 2.55630E+00
 -1      3061 2.72516E+00
 -1      3062 2.98727E+00
 -1      3063 2.90344E+00
 -1      3064 3.75016E+00
 -1      3065 2.28642E+00
 -1      3066 2.26162E+00
 -1      3067 3.39525E+00
 -1      3068 1.92566E+00
 -1      3069 1.70335E+00
 -1      3070 2.44227E+00
 -1      3071 1.77608E+00
 -1      3072 1.79359E+00
 -1      3073 2.17904E+00
 -1      3074 1.51579E+00
 -1      3075 1.38330E+00
 -1      3076 1.97397E+00
 -1      3077 1.34646E+00
 -1      3078 1.30585E+00
 -1      3079 1.65934E+00
 -1      3080 1.08315E+00
 -1      3081 9.91461E-01
 -1      3082 1.39981E+00
 -1      3083 8.88217E-01
 -1      3084 7.90287E-01
 -1      3085 1.07387E+00
 -1      3086 7.27318E-01
 -1      3087 7.06024E-01
 -1      3088 9.07660E-01
 -1      3089 6.31671E-01
 -1      3090 5.96467E-01
 -1      3091 7.70337E-01
 -1      3092 5.30260E-01
 -1      3093 4.92868E-01
 -1      3094 6.29778E-01
 -1      3095 4.42160E-01
 -1      3096 4.13414E-01
 -1      3097 5.12864E-01
 -1      3098 3.75887E-01
 -1      3099 3.50578E-01
 -1      3100 4.24629E-01
 -1      3101 3.14681E-01
 -1      3102 2.88174E-01
 -1      3103 3.51206E-01
 -1      3104 2.55419E-01
 -1      3105 2.30175E-01
 -1      3106 2.82554E-01
 -1      3107 2.03157E-01
 -1      3108 1.80535E-01
 -1      3109 2.22781E-01
 -1      3110 1.58203E-01
 -1      3111 1.38799E-01
 -1      3112 1.73430E-01
 -1      3113 1.20045E-01
 -1      3114 1.03967E-01
 -1      3115 1.32344E-01
 -1      3116 8.87128E-02
 -1      3117 7.57712E-02
 -1      3118 9.83358E-02
 -1      3119 6.37040E-02
 -1      3120 5.35556E-02
 -1      3121 7.10148E-02
 -1      3122 4.43999E-02
 -1      3123 3.66364E-02
 -1      3124 4.97920E-02
 -1      3125 3.00220E-02
 -1      3126 2.42287E-02
 -1      3127 3.40219E-02
 -1      3128 1.93136E-02
 -1      3129 1.51032E-02
 -1      3130 2.24923E-02
 -1      3131 1.15856E-02
 -1      3132 9.51907E-03
 -1      3133 1.40596E-02
 -1      3134 7.05331E-03
 -1      3135 6.92295E-03
 -1      3136 8.07626E-03
 -1      3137 6.54630E-03
 -1      3138 6.25648E-03
 -1      3139 5.23386E-03
 -1      3140 6.39719E-03
 -1      3141 5.97734E-03
 -1      3142 4.99792E-03
 -1      3143 5.89914E-03
 -1      3144 5.42602E-03
 -1      3145 5.06043E-03
 -1      3146 5.21878E-03
 -1      3147 4.74297E-03
 -1      3148 4.77500E-03
 -1      3149 4.47004E-03
 -1      3150 4.13956E-03
 -1      3151 4.29484E-03
 -1      3152 3.95187E-03
 -1      3153 3.63649E-03
 -1      3154 3.83422E-03
 -1      3155 3.42338E-03
 -1      3156 3.11392E-03
 -1      3157 3.43342E-03
 -1      3158 2.87968E-03
 -1      3159 2.59314E-03
 -1      3160 2.98608E-03
 -1      3161 2.36065E-03
 -1      3162 2.11629E-03
 -1      3163 2.51936E-03
 -1      3164 1.89924E-03
 -1      3165 1.69258E-03
 -1      3166 2.06983E-03
 -1      3167 1.49810E-03
 -1      3168 1.32024E-03
 -1      3169 1.65830E-03
 -1      3170 1.15096E-03
 -1      3171 1.00429E-03
 -1      3172 1.29453E-03
 -1      3173 9.06182E-04
 -1      3174 7.95451E-04
 -1      3175 1.02715E-03
 -1      3176 2.49099E+00
 -1      3177 2.69732E+00
 -1      3178 1.54278E+00
 -1      3179 1.66025E+00
 -1      3180 3.15578E+00
 -1      3181 3.71268E+00
 -1      3182 3.37902E+00
 -1      3183 1.41078E+00
 -1      3184 1.58720E+00
 -1      3185 1.09364E+00
 -1      3186 1.23836E+00
 -1      3187 1.34440E+00
 -1      3188 8.38940E-01
 -1      3189 9.55531E-01
 -1      3190 1.03387E+00
 -1      3191 6.34078E-01
 -1      3192 7.27035E-01
 -1      3193 7.83862E-01
 -1      3194 4.72707E-01
 -1      3195 5.46118E-01
 -1      3196 5.83997E-01
 -1      3197 3.47615E-01
 -1      3198 4.05036E-01
 -1      3199 4.28367E-01
 -1      3200 2.51907E-01
 -1      3201 2.96359E-01
 -1      3202 3.09439E-01
 -1      3203 1.80040E-01
 -1      3204 2.14075E-01
 -1      3205 2.20351E-01
 -1      3206 1.28634E-01
 -1      3207 1.54392E-01
 -1      3208 1.56871E-01
 -1      3209 9.11027E-02
 -1      3210 1.10356E-01
 -1      3211 1.12945E-01
 -1      3212 6.30284E-02
 -1      3213 7.72260E-02
 -1      3214 8.07905E-02
 -1      3215 4.23189E-02
 -1      3216 5.26300E-02
 -1      3217 5.65155E-02
 -1      3218 2.72868E-02
 -1      3219 3.46439E-02
 -1      3220 3.84421E-02
 -1      3221 1.75812E-02
 -1      3222 2.17198E-02
 -1      3223 2.52000E-02
 -1      3224 1.23386E-02
 -1      3225 1.36252E-02
 -1      3226 1.56770E-02
 -1      3227 9.46980E-03
 -1      3228 1.01640E-02
 -1      3229 9.54654E-03
 -1      3230 8.59553E-03
 -1      3231 9.38502E-03
 -1      3232 7.28723E-03
 -1      3233 7.63006E-03
 -1      3234 8.42541E-03
 -1      3235 7.03233E-03
 -1      3236 6.55789E-03
 -1      3237 7.30580E-03
 -1      3238 6.53795E-03
 -1      3239 5.59519E-03
 -1      3240 6.16230E-03
 -1      3241 5.81810E-03
 -1      3242 4.74051E-03
 -1      3243 5.18201E-03
 -1      3244 5.00933E-03
 -1      3245 4.03928E-03
 -1      3246 4.43230E-03
 -1      3247 4.28794E-03
 -1      3248 3.39142E-03
 -1      3249 3.75522E-03
 -1      3250 3.69567E-03
 -1      3251 2.80523E-03
 -1      3252 3.10880E-03
 -1      3253 3.12899E-03
 -1      3254 2.26627E-03
 -1      3255 2.54097E-03
 -1      3256 2.58211E-03
 -1      3257 1.78899E-03
 -1      3258 2.02936E-03
 -1      3259 2.08094E-03
 -1      3260 1.38313E-03
 -1      3261 1.58304E-03
 -1      3262 1.63808E-03
 -1      3263 1.05523E-03
 -1      3264 1.20844E-03
 -1      3265 1.25744E-03
 -1      3266 7.81111E-04
 -1      3267 9.10309E-04
 -1      3268 9.37829E-04
 -1      3269 5.54206E-04
 -1      3270 6.64067E-04
 -1      3271 6.75864E-04
 -1      3272 4.48212E-04
 -1      3273 5.11120E-04
 -1      3274 5.15734E-04
 -1      3275 4.10060E-04
 -1      3276 6.00864E-04
 -1      3277 5.59272E-04
 -1      3278 5.09514E-04
 -1      3279 5.10571E-04
 -1      3280 1.24517E+01
 -1      3281 1.07653E+01
 -1      3282 5.41469E-04
 -1      3283 5.41469E-04
 -1      3284 6.10560E-04
 -1      3285 5.36270E-04
 -1      3286 4.55990E+00
 -1      3287 5.07194E+00
 -1      3288 6.61516E+00
 -1      3289 2.88232E+00
 -1      3290 2.94151E+00
 -1      3291 8.09500E+00
 -1      3292 3.38394E+00
 -1      3293 5.15037E-04
 -1      3294 5.21271E-04
 -1      3295 6.25720E-04
 -1      3296 1.83395E+00
 -1      3297 2.03587E+00
 -1      3298 2.46544E+00
 -1      3299 1.76357E+00
 -1      3300 1.82113E+00
 -1      3301 1.96760E+00
 -1      3302 2.89935E+00
 -1      3303 7.09344E+00
 -1      3304 8.78390E+00
 -1      3305 1.20241E+01
 -1      3306 1.25745E+01
 -1      3307 4.81591E+00
 -1      3308 2.54325E+00
 -1      3309 2.94924E+00
 -1      3310 4.52481E+00
 -1      3311 3.13195E+00
 -1      3312 2.89935E+00
 -1      3313 1.00133E+01
 -1      3314 7.25704E+00
 -1      3315 6.04983E+00
 -1      3316 5.11467E+00
 -1      3317 5.38601E+00
 -1      3318 1.18707E+00
 -1      3319 1.08138E+00
 -1      3320 1.50188E+00
 -1      3321 4.66711E+00
 -1      3322 3.33157E+00
 -1      3323 4.68880E+00
 -1      3324 3.20354E+00
 -1      3325 4.13873E+00
 -1      3326 3.35281E+00
 -1      3327 5.21271E-04
 -1      3328 5.21271E-04
 -1      3329 5.69728E-04
 -1      3330 5.81486E-04
 -1      3331 9.51279E+00
 -1      3332 7.65658E+00
 -1      3333 1.25590E+01
 -1      3334 1.20241E+01
 -1      3335 9.62124E+00
 -1      3336 7.90879E+00
 -1      3337 1.52749E+00
 -1      3338 6.60182E+00
 -1      3339 8.74426E+00
 -1      3340 8.33073E+00
 -1      3341 5.94428E+00
 -1      3342 2.75219E+00
 -1      3343 2.21889E+00
 -1      3344 1.78310E+00
 -1      3345 4.72365E+00
 -1      3346 4.72365E+00
 -1      3347 2.14976E+00
 -1      3348 6.06513E-04
 -1      3349 7.40103E-04
 -1      3350 5.13991E+00
 -1      3351 2.40538E+00
 -1      3352 3.04398E+00
 -1      3353 5.23947E+00
 -1      3354 8.12309E+00
 -1      3355 5.19689E-04
 -1      3356 5.09466E-04
 -1      3357 5.67089E-04
 -1      3358 5.19689E-04
 -1      3359 5.19689E-04
 -1      3360 5.67271E-04
 -1      3361 5.00531E-04
 -1      3362 4.65130E-04
 -1      3363 2.85683E+00
 -1      3364 9.89708E+00
 -1      3365 5.83800E+00
 -1      3366 3.99551E+00
 -1      3367 8.47837E+00
 -1      3368 1.11771E+01
 -1      3369 8.23934E+00
 -1      3370 4.88520E+00
 -1      3371 6.01045E+00
 -1      3372 2.66961E+00
 -1      3373 9.49841E+00
 -1      3374 6.47105E+00
 -1      3375 4.10072E+00
 -1      3376 5.19085E+00
 -1      3377 5.55861E+00
 -1      3378 3.99551E+00
 -1      3379 4.25762E+00
 -1      3380 3.80892E+00
 -1      3381 3.55686E+00
 -1      3382 2.77892E+00
 -1      3383 2.32967E+00
 -1      3384 2.14976E+00
 -1      3385 2.31065E+00
 -1      3386 3.89312E+00
 -1      3387 5.19108E+00
 -1      3388 2.89935E+00
 -1      3389 3.48805E+00
 -1      3390 3.27610E+00
 -1      3391 2.85494E+00
 -1      3392 2.51898E+00
 -1      3393 2.25694E+00
 -1      3394 2.32967E+00
 -1      3395 2.25177E+00
 -1      3396 1.97397E+00
 -1      3397 2.25739E+00
 -1      3398 2.22055E+00
 -1      3399 2.53519E+00
 -1      3400 1.66052E+00
 -1      3401 1.43783E+00
 -1      3402 2.25858E+00
 -1      3403 1.35252E+00
 -1      3404 1.24928E+00
 -1      3405 1.61324E+00
 -1      3406 1.06932E+00
 -1      3407 1.00636E+00
 -1      3408 1.34797E+00
 -1      3409 8.71370E-01
 -1      3410 7.97017E-01
 -1      3411 1.03303E+00
 -1      3412 7.08635E-01
 -1      3413 6.42428E-01
 -1      3414 8.09668E-01
 -1      3415 5.63571E-01
 -1      3416 5.12864E-01
 -1      3417 6.42428E-01
 -1      3418 4.58011E-01
 -1      3419 4.20484E-01
 -1      3420 5.08719E-01
 -1      3421 3.72105E-01
 -1      3422 3.36209E-01
 -1      3423 4.05487E-01
 -1      3424 3.08765E-01
 -1      3425 2.76009E-01
 -1      3426 3.29664E-01
 -1      3427 2.48336E-01
 -1      3428 2.21318E-01
 -1      3429 2.74546E-01
 -1      3430 1.95763E-01
 -1      3431 1.73430E-01
 -1      3432 2.21318E-01
 -1      3433 1.51098E-01
 -1      3434 1.32344E-01
 -1      3435 1.73430E-01
 -1      3436 1.13590E-01
 -1      3437 9.83358E-02
 -1      3438 1.32344E-01
 -1      3439 8.30820E-02
 -1      3440 7.10148E-02
 -1      3441 9.83358E-02
 -1      3442 5.89476E-02
 -1      3443 4.97920E-02
 -1      3444 7.10148E-02
 -1      3445 4.06363E-02
 -1      3446 3.40219E-02
 -1      3447 4.97920E-02
 -1      3448 2.74075E-02
 -1      3449 2.24923E-02
 -1      3450 3.40219E-02
 -1      3451 1.75772E-02
 -1      3452 1.40596E-02
 -1      3453 2.24923E-02
 -1      3454 1.05005E-02
 -1      3455 8.03474E-03
 -1      3456 1.40181E-02
 -1      3457 5.53286E-03
 -1      3458 5.15622E-03
 -1      3459 7.95709E-03
 -1      3460 3.89336E-03
 -1      3461 4.03407E-03
 -1      3462 4.19236E-03
 -1      3463 4.45900E-03
 -1      3464 4.38080E-03
 -1      3465 3.35444E-03
 -1      3466 4.51795E-03
 -1      3467 4.31071E-03
 -1      3468 3.91651E-03
 -1      3469 4.26358E-03
 -1      3470 3.99066E-03
 -1      3471 4.00653E-03
 -1      3472 3.83422E-03
 -1      3473 3.64653E-03
 -1      3474 3.80297E-03
 -1      3475 3.43342E-03
 -1      3476 3.22031E-03
 -1      3477 3.43342E-03
 -1      3478 3.02360E-03
 -1      3479 2.78936E-03
 -1      3480 3.02360E-03
 -1      3481 2.60949E-03
 -1      3482 2.37700E-03
 -1      3483 2.64701E-03
 -1      3484 2.18680E-03
 -1      3485 1.96976E-03
 -1      3486 2.27693E-03
 -1      3487 1.78495E-03
 -1      3488 1.59047E-03
 -1      3489 1.90193E-03
 -1      3490 1.42042E-03
 -1      3491 1.25114E-03
 -1      3492 1.54708E-03
 -1      3493 1.10526E-03
 -1      3494 1.00715E-03
 -1      3495 1.23115E-03
 -1      3496 9.97173E-01
 -1      3497 1.13528E+00
 -1      3498 1.33095E+00
 -1      3499 1.50338E+00
 -1      3500 1.29425E+00
 -1      3501 5.50587E-01
 -1      3502 6.38547E-01
 -1      3503 4.04084E-01
 -1      3504 4.71755E-01
 -1      3505 5.26305E-01
 -1      3506 2.93379E-01
 -1      3507 3.44636E-01
 -1      3508 3.88024E-01
 -1      3509 2.10685E-01
 -1      3510 2.48517E-01
 -1      3511 2.83713E-01
 -1      3512 1.51303E-01
 -1      3513 1.76951E-01
 -1      3514 2.05117E-01
 -1      3515 1.07820E-01
 -1      3516 1.26098E-01
 -1      3517 1.46178E-01
 -1      3518 7.52962E-02
 -1      3519 8.91729E-02
 -1      3520 1.02326E-01
 -1      3521 5.19500E-02
 -1      3522 6.23483E-02
 -1      3523 7.07306E-02
 -1      3524 3.47609E-02
 -1      3525 4.24360E-02
 -1      3526 4.82688E-02
 -1      3527 2.23319E-02
 -1      3528 2.78989E-02
 -1      3529 3.18928E-02
 -1      3530 1.35570E-02
 -1      3531 1.75130E-02
 -1      3532 2.02119E-02
 -1      3533 8.01998E-03
 -1      3534 1.01945E-02
 -1      3535 1.20305E-02
 -1      3536 5.94491E-03
 -1      3537 6.02969E-03
 -1      3538 6.67767E-03
 -1      3539 5.54633E-03
 -1      3540 5.71645E-03
 -1      3541 4.45891E-03
 -1      3542 5.41529E-03
 -1      3543 5.73955E-03
 -1      3544 4.42367E-03
 -1      3545 4.98568E-03
 -1      3546 5.38127E-03
 -1      3547 4.58287E-03
 -1      3548 4.40460E-03
 -1      3549 4.81778E-03
 -1      3550 4.38095E-03
 -1      3551 3.85877E-03
 -1      3552 4.16698E-03
 -1      3553 3.97543E-03
 -1      3554 3.31574E-03
 -1      3555 3.59980E-03
 -1      3556 3.47884E-03
 -1      3557 2.84351E-03
 -1      3558 3.12613E-03
 -1      3559 3.03027E-03
 -1      3560 2.37191E-03
 -1      3561 2.63617E-03
 -1      3562 2.63332E-03
 -1      3563 1.92969E-03
 -1      3564 2.16660E-03
 -1      3565 2.22067E-03
 -1      3566 1.53222E-03
 -1      3567 1.73817E-03
 -1      3568 1.82383E-03
 -1      3569 1.18575E-03
 -1      3570 1.36044E-03
 -1      3571 1.46053E-03
 -1      3572 8.88762E-04
 -1      3573 1.03368E-03
 -1      3574 1.13668E-03
 -1      3575 6.73201E-04
 -1      3576 7.90245E-04
 -1      3577 8.86098E-04
 -1      3578 5.76207E-04
 -1      3579 7.99499E-04
 -1      3580 5.99024E+00
 -1      3581 5.59070E+00
 -1      3582 7.99499E-04
 -1      3583 7.55264E-04
 -1      3584 3.15934E+00
 -1      3585 3.61779E+00
 -1      3586 4.43497E-04
 -1      3587 4.31270E-04
 -1      3588 4.93859E-04
 -1      3589 5.36702E-04
 -1      3590 7.48615E+00
 -1      3591 6.23366E+00
 -1      3592 8.43602E+00
 -1      3593 8.31319E+00
 -1      3594 6.42376E+00
 -1      3595 4.85114E+00
 -1      3596 3.46842E+00
 -1      3597 7.43805E-01
 -1      3598 8.55710E-01
 -1      3599 7.10395E-01
 -1      3600 8.43602E+00
 -1      3601 8.43602E+00
 -1      3602 9.29042E-04
 -1      3603 2.94127E+00
 -1      3604 4.37032E+00
 -1      3605 7.25080E+00
 -1      3606 1.00715E-03
 -1      3607 9.57117E-01
 -1      3608 2.24450E+00
 -1      3609 2.35002E+00
 -1      3610 2.80514E+00
 -1      3611 3.04392E+00
 -1      3612 6.27258E-04
 -1      3613 6.36375E-04
 -1      3614 6.39325E-04
 -1      3615 6.39325E-04
 -1      3616 6.99494E-04
 -1      3617 5.36944E-04
 -1      3618 6.76824E-04
 -1      3619 6.65067E-04
 -1      3620 7.34353E-04
 -1      3621 7.05081E-04
 -1      3622 6.96146E-04
 -1      3623 7.68200E-04
 -1      3624 5.35330E+00
 -1      3625 1.76357E+00
 -1      3626 2.01032E+00
 -1      3627 2.35002E+00
 -1      3628 1.75012E+00
 -1      3629 6.51325E-04
 -1      3630 7.89213E+00
 -1      3631 6.70691E+00
 -1      3632 6.51024E+00
 -1      3633 7.24458E-04
 -1      3634 7.24458E-04
 -1      3635 8.19797E-04
 -1      3636 8.98237E-04
 -1      3637 4.38772E+00
 -1      3638 4.60740E+00
 -1      3639 2.19092E+00
 -1      3640 2.10561E+00
 -1      3641 2.17467E+00
 -1      3642 1.99471E+00
 -1      3643 2.75235E+00
 -1      3644 1.30084E+00
 -1      3645 1.16585E+00
 -1      3646 2.12753E+00
 -1      3647 9.38317E-01
 -1      3648 8.49935E-01
 -1      3649 1.20612E+00
 -1      3650 7.07046E-01
 -1      3651 6.28189E-01
 -1      3652 8.35695E-01
 -1      3653 5.49774E-01
 -1      3654 4.94921E-01
 -1      3655 6.14391E-01
 -1      3656 4.36247E-01
 -1      3657 3.87868E-01
 -1      3658 4.77302E-01
 -1      3659 3.48471E-01
 -1      3660 3.21027E-01
 -1      3661 3.79231E-01
 -1      3662 2.86095E-01
 -1      3663 2.58421E-01
 -1      3664 3.04902E-01
 -1      3665 2.28697E-01
 -1      3666 2.03142E-01
 -1      3667 2.40246E-01
 -1      3668 1.78511E-01
 -1      3669 1.56178E-01
 -1      3670 1.85890E-01
 -1      3671 1.36190E-01
 -1      3672 1.17436E-01
 -1      3673 1.41271E-01
 -1      3674 1.01513E-01
 -1      3675 8.62596E-02
 -1      3676 1.05360E-01
 -1      3677 7.37956E-02
 -1      3678 6.17284E-02
 -1      3679 7.69732E-02
 -1      3680 5.21412E-02
 -1      3681 4.29856E-02
 -1      3682 5.49220E-02
 -1      3683 3.57441E-02
 -1      3684 2.91297E-02
 -1      3685 3.80933E-02
 -1      3686 2.41116E-02
 -1      3687 1.91965E-02
 -1      3688 2.58338E-02
 -1      3689 1.55372E-02
 -1      3690 1.19781E-02
 -1      3691 1.71566E-02
 -1      3692 9.33600E-03
 -1      3693 6.83413E-03
 -1      3694 1.08552E-02
 -1      3695 5.13490E-03
 -1      3696 3.87204E-03
 -1      3697 6.51381E-03
 -1      3698 2.88358E-03
 -1      3699 3.30851E-03
 -1      3700 3.82612E-03
 -1      3701 3.00386E-03
 -1      3702 3.14101E-03
 -1      3703 2.53300E-03
 -1      3704 3.34255E-03
 -1      3705 3.29542E-03
 -1      3706 2.42990E-03
 -1      3707 3.33268E-03
 -1      3708 3.17624E-03
 -1      3709 2.66870E-03
 -1      3710 3.11133E-03
 -1      3711 2.89821E-03
 -1      3712 2.64104E-03
 -1      3713 2.77532E-03
 -1      3714 2.57861E-03
 -1      3715 2.45322E-03
 -1      3716 2.42817E-03
 -1      3717 2.24829E-03
 -1      3718 2.17989E-03
 -1      3719 2.11781E-03
 -1      3720 1.92761E-03
 -1      3721 1.89897E-03
 -1      3722 1.79413E-03
 -1      3723 1.60933E-03
 -1      3724 1.63501E-03
 -1      3725 1.47797E-03
 -1      3726 1.30793E-03
 -1      3727 1.37017E-03
 -1      3728 1.18603E-03
 -1      3729 1.04014E-03
 -1      3730 1.11692E-03
 -1      3731 8.46991E-04
 -1      3732 8.49941E-04
 -1      3733 5.19982E+00
 -1      3734 4.88388E+00
 -1      3735 4.64046E+00
 -1      3736 6.72958E-04
 -1      3737 3.44364E-01
 -1      3738 4.03812E-01
 -1      3739 4.64398E-01
 -1      3740 5.43231E-01
 -1      3741 4.20738E-01
 -1      3742 1.84726E-01
 -1      3743 2.18460E-01
 -1      3744 1.32735E-01
 -1      3745 1.57940E-01
 -1      3746 1.71283E-01
 -1      3747 9.37283E-02
 -1      3748 1.12376E-01
 -1      3749 1.24137E-01
 -1      3750 6.54319E-02
 -1      3751 7.83798E-02
 -1      3752 8.84296E-02
 -1      3753 4.44739E-02
 -1      3754 5.39878E-02
 -1      3755 6.16370E-02
 -1      3756 2.96809E-02
 -1      3757 3.65429E-02
 -1      3758 4.22619E-02
 -1      3759 1.90593E-02
 -1      3760 2.38782E-02
 -1      3761 2.85283E-02
 -1      3762 1.14991E-02
 -1      3763 1.48616E-02
 -1      3764 1.85280E-02
 -1      3765 6.55047E-03
 -1      3766 8.54075E-03
 -1      3767 1.13719E-02
 -1      3768 4.33247E-03
 -1      3769 4.56094E-03
 -1      3770 6.42402E-03
 -1      3771 3.50156E-03
 -1      3772 3.30834E-03
 -1      3773 3.41036E-03
 -1      3774 3.82625E-03
 -1      3775 3.86027E-03
 -1      3776 2.74494E-03
 -1      3777 3.77289E-03
 -1      3778 3.94079E-03
 -1      3779 3.21819E-03
 -1      3780 3.49595E-03
 -1      3781 3.73357E-03
 -1      3782 3.29341E-03
 -1      3783 3.10759E-03
 -1      3784 3.36655E-03
 -1      3785 3.12469E-03
 -1      3786 2.74245E-03
 -1      3787 2.93206E-03
 -1      3788 2.81977E-03
 -1      3789 2.36667E-03
 -1      3790 2.57401E-03
 -1      3791 2.47580E-03
 -1      3792 2.00653E-03
 -1      3793 2.21184E-03
 -1      3794 2.15254E-03
 -1      3795 1.65526E-03
 -1      3796 1.84678E-03
 -1      3797 1.83795E-03
 -1      3798 1.33072E-03
 -1      3799 1.50250E-03
 -1      3800 1.52544E-03
 -1      3801 1.04235E-03
 -1      3802 1.19442E-03
 -1      3803 1.23638E-03
 -1      3804 7.73830E+00
 -1      3805 6.11738E+00
 -1      3806 1.15110E+00
 -1      3807 1.34677E+00
 -1      3808 3.22469E+00
 -1      3809 8.42758E-01
 -1      3810 9.84221E-01
 -1      3811 1.03674E+00
 -1      3812 4.16834E+00
 -1      3813 3.42878E+00
 -1      3814 3.69892E+00
 -1      3815 5.96975E+00
 -1      3816 8.10769E-04
 -1      3817 3.02270E+00
 -1      3818 9.62031E-04
 -1      3819 5.84415E+00
 -1      3820 5.01712E+00
 -1      3821 6.24369E-01
 -1      3822 7.29627E-01
 -1      3823 5.62462E-01
 -1      3824 5.95823E+00
 -1      3825 5.95823E+00
 -1      3826 4.62727E+00
 -1      3827 5.36733E+00
 -1      3828 5.02012E+00
 -1      3829 3.63767E+00
 -1      3830 2.53543E-01
 -1      3831 2.98405E-01
 -1      3832 3.14193E-01
 -1      3833 4.30427E+00
 -1      3834 2.46267E+00
 -1      3835 9.97438E-04
 -1      3836 8.49941E-04
 -1      3837 9.15697E-04
 -1      3838 9.69328E-04
 -1      3839 1.11977E-03
 -1      3840 1.00714E-03
 -1      3841 9.09286E-04
 -1      3842 2.95505E+00
 -1      3843 2.89572E+00
 -1      3844 3.13527E+00
 -1      3845 2.54153E+00
 -1      3846 4.55159E+00
 -1      3847 9.67019E-04
 -1      3848 5.41434E+00
 -1      3849 5.95823E+00
 -1      3850 4.66567E+00
 -1      3851 9.31225E-04
 -1      3852 1.47515E+00
 -1      3853 1.73534E+00
 -1      3854 1.33199E+00
 -1      3855 7.56731E-01
 -1      3856 2.33152E-01
 -1      3857 2.49887E+00
 -1      3858 1.80500E+00
 -1      3859 1.57654E+00
 -1      3860 1.34901E+00
 -1      3861 1.94788E+00
 -1      3862 9.27294E-01
 -1      3863 7.84405E-01
 -1      3864 1.29772E+00
 -1      3865 6.89917E-01
 -1      3866 6.11502E-01
 -1      3867 7.81516E-01
 -1      3868 5.35976E-01
 -1      3869 4.77302E-01
 -1      3870 6.11502E-01
 -1      3871 4.15390E-01
 -1      3872 3.75993E-01
 -1      3873 4.74064E-01
 -1      3874 3.27067E-01
 -1      3875 2.92135E-01
 -1      3876 3.63227E-01
 -1      3877 2.53974E-01
 -1      3878 2.24249E-01
 -1      3879 2.76139E-01
 -1      3880 1.94567E-01
 -1      3881 1.69936E-01
 -1      3882 2.08295E-01
 -1      3883 1.46959E-01
 -1      3884 1.26971E-01
 -1      3885 1.55636E-01
 -1      3886 1.09288E-01
 -1      3887 9.33646E-02
 -1      3888 1.14975E-01
 -1      3889 7.98532E-02
 -1      3890 6.73892E-02
 -1      3891 8.37806E-02
 -1      3892 5.71565E-02
 -1      3893 4.75693E-02
 -1      3894 6.00364E-02
 -1      3895 3.99034E-02
 -1      3896 3.26619E-02
 -1      3897 4.21379E-02
 -1      3898 2.74666E-02
 -1      3899 2.24486E-02
 -1      3900 2.92767E-02
 -1      3901 1.89067E-02
 -1      3902 1.52475E-02
 -1      3903 2.05395E-02
 -1      3904 1.25826E-02
 -1      3905 9.94044E-03
 -1      3906 1.43327E-02
 -1      3907 7.94652E-03
 -1      3908 6.24729E-03
 -1      3909 9.67392E-03
 -1      3910 4.79066E-03
 -1      3911 3.80220E-03
 -1      3912 6.22338E-03
 -1      3913 2.76599E-03
 -1      3914 2.46133E-03
 -1      3915 3.73053E-03
 -1      3916 1.90120E-03
 -1      3917 2.10274E-03
 -1      3918 2.13418E-03
 -1      3919 2.29468E-03
 -1      3920 2.33193E-03
 -1      3921 1.76598E-03
 -1      3922 2.38500E-03
 -1      3923 2.32008E-03
 -1      3924 2.01098E-03
 -1      3925 2.28561E-03
 -1      3926 2.16271E-03
 -1      3927 2.02957E-03
 -1      3928 2.07733E-03
 -1      3929 1.92690E-03
 -1      3930 1.90972E-03
 -1      3931 1.81596E-03
 -1      3932 1.68547E-03
 -1      3933 1.71340E-03
 -1      3934 1.56579E-03
 -1      3935 1.43231E-03
 -1      3936 1.48277E-03
 -1      3937 1.32007E-03
 -1      3938 1.18871E-03
 -1      3939 1.25085E-03
 -1      3940 1.20329E-03
 -1      3941 1.08139E-03
 -1      3942 1.15319E-03
 -1      3943 4.02748E+00
 -1      3944 3.89425E+00
 -1      3945 1.06814E-01
 -1      3946 1.27173E-01
 -1      3947 1.46257E-01
 -1      3948 1.73043E-01
 -1      3949 1.28934E-01
 -1      3950 5.36728E-02
 -1      3951 6.51169E-02
 -1      3952 3.70366E-02
 -1      3953 4.49676E-02
 -1      3954 4.84475E-02
 -1      3955 2.49116E-02
 -1      3956 3.07143E-02
 -1      3957 3.34199E-02
 -1      3958 1.62832E-02
 -1      3959 2.04809E-02
 -1      3960 2.26669E-02
 -1      3961 1.00730E-02
 -1      3962 1.30314E-02
 -1      3963 1.49843E-02
 -1      3964 5.89579E-03
 -1      3965 7.88532E-03
 -1      3966 9.54475E-03
 -1      3967 3.44104E-03
 -1      3968 4.46517E-03
 -1      3969 5.92647E-03
 -1      3970 2.79437E-03
 -1      3971 2.43566E-03
 -1      3972 3.49047E-03
 -1      3973 2.73068E-03
 -1      3974 2.61614E-03
 -1      3975 2.30686E-03
 -1      3976 2.85481E-03
 -1      3977 2.89413E-03
 -1      3978 2.29208E-03
 -1      3979 2.74405E-03
 -1      3980 2.87345E-03
 -1      3981 2.47417E-03
 -1      3982 2.49871E-03
 -1      3983 2.67424E-03
 -1      3984 2.42300E-03
 -1      3985 2.21151E-03
 -1      3986 2.37995E-03
 -1      3987 2.23442E-03
 -1      3988 1.91583E-03
 -1      3989 2.07066E-03
 -1      3990 1.97481E-03
 -1      3991 1.62511E-03
 -1      3992 1.78486E-03
 -1      3993 1.70299E-03
 -1      3994 1.34940E-03
 -1      3995 1.50216E-03
 -1      3996 1.44907E-03
 -1      3997 1.09237E-03
 -1      3998 1.22867E-03
 -1      3999 1.20539E-03
 -1      4000 3.42717E+00
 -1      4001 2.63019E-01
 -1      4002 3.08978E-01
 -1      4003 7.65823E-02
 -1      4004 9.19308E-02
 -1      4005 9.49668E-02
 -1      4006 6.86181E-02
 -1      4007 1.82899E+00
 -1      4008 2.16869E+00
 -1      4009 2.02049E+00
 -1      4010 1.55401E+00
 -1      4011 6.18492E-01
 -1      4012 7.31623E-01
 -1      4013 4.14156E+00
 -1      4014 4.02748E+00
 -1      4015 3.47888E-01
 -1      4016 4.08474E-01
 -1      4017 2.96714E-01
 -1      4018 4.61021E-01
 -1      4019 5.42159E-01
 -1      4020 3.88171E-01
 -1      4021 1.04876E-03
 -1      4022 1.97284E-01
 -1      4023 2.32367E-01
 -1      4024 2.27151E-01
 -1      4025 1.72258E-01
 -1      4026 1.11857E-03
 -1      4027 1.05477E-03
 -1      4028 1.00714E-03
 -1      4029 1.20494E-03
 -1      4030 3.47664E+00
 -1      4031 4.61954E+00
 -1      4032 3.87086E+00
 -1      4033 2.73469E+00
 -1      4034 8.30955E-01
 -1      4035 9.97833E-01
 -1      4036 6.92716E-01
 -1      4037 3.49622E+00
 -1      4038 1.24211E-03
 -1      4039 3.61746E+00
 -1      4040 5.17051E-01
 -1      4041 1.04105E-03
 -1      4042 1.17771E-03
 -1      4043 1.05538E-03
 -1      4044 1.23158E+00
 -1      4045 1.35996E+00
 -1      4046 1.02580E+00
 -1      4047 3.82186E+00
 -1      4048 3.29776E+00
 -1      4049 3.82186E+00
 -1      4050 3.21943E+00
 -1      4051 9.97438E-04
 -1      4052 9.97438E-04
 -1      4053 1.04105E-03
 -1      4054 1.05538E-03
 -1      4055 1.65862E+00
 -1      4056 1.23691E+00
 -1      4057 8.76005E-01
 -1      4058 7.81516E-01
 -1      4059 1.23691E+00
 -1      4060 6.81098E-01
 -1      4061 6.05572E-01
 -1      4062 7.75586E-01
 -1      4063 5.05809E-01
 -1      4064 4.43897E-01
 -1      4065 5.75404E-01
 -1      4066 3.78454E-01
 -1      4067 3.29528E-01
 -1      4068 4.10198E-01
 -1      4069 2.82244E-01
 -1      4070 2.44082E-01
 -1      4071 2.97471E-01
 -1      4072 2.12032E-01
 -1      4073 1.82350E-01
 -1      4074 2.18136E-01
 -1      4075 1.61871E-01
 -1      4076 1.38893E-01
 -1      4077 1.65607E-01
 -1      4078 1.22314E-01
 -1      4079 1.04631E-01
 -1      4080 1.28549E-01
 -1      4081 9.07998E-02
 -1      4082 7.72883E-02
 -1      4083 9.81384E-02
 -1      4084 6.60885E-02
 -1      4085 5.58559E-02
 -1      4086 7.31077E-02
 -1      4087 4.72196E-02
 -1      4088 3.95537E-02
 -1      4089 5.32717E-02
 -1      4090 3.30995E-02
 -1      4091 2.79042E-02
 -1      4092 3.81812E-02
 -1      4093 2.29547E-02
 -1      4094 1.94128E-02
 -1      4095 2.67775E-02
 -1      4096 1.60631E-02
 -1      4097 1.33983E-02
 -1      4098 1.84784E-02
 -1      4099 1.09061E-02
 -1      4100 8.91218E-03
 -1      4101 1.26365E-02
 -1      4102 7.07976E-03
 -1      4103 5.62313E-03
 -1      4104 8.31193E-03
 -1      4105 4.30714E-03
 -1      4106 3.27093E-03
 -1      4107 5.16352E-03
 -1      4108 2.35151E-03
 -1      4109 1.79137E-03
 -1      4110 2.92812E-03
 -1      4111 1.42980E-03
 -1      4112 1.62174E-03
 -1      4113 1.64713E-03
 -1      4114 1.86208E-03
 -1      4115 1.91514E-03
 -1      4116 1.52590E-03
 -1      4117 2.00313E-03
 -1      4118 1.96866E-03
 -1      4119 1.85423E-03
 -1      4120 1.95887E-03
 -1      4121 1.87349E-03
 -1      4122 1.93243E-03
 -1      4123 1.80367E-03
 -1      4124 1.69272E-03
 -1      4125 1.85282E-03
 -1      4126 1.57808E-03
 -1      4127 1.45841E-03
 -1      4128 1.66835E-03
 -1      4129 1.27153E-03
 -1      4130 1.15929E-03
 -1      4131 1.36685E-03
 -1      4132 1.19036E-03
 -1      4133 1.20494E-03
 -1      4134 1.21104E-03
 -1      4135 2.95738E+00
 -1      4136 2.95738E+00
 -1      4137 3.58665E-02
 -1      4138 4.21889E-02
 -1      4139 5.08251E-02
 -1      4140 5.95303E-02
 -1      4141 5.32717E-02
 -1      4142 1.67802E-02
 -1      4143 2.00321E-02
 -1      4144 1.08858E-02
 -1      4145 1.30734E-02
 -1      4146 1.81212E-02
 -1      4147 6.74614E-03
 -1      4148 8.17676E-03
 -1      4149 1.17055E-02
 -1      4150 3.81317E-03
 -1      4151 4.81856E-03
 -1      4152 7.06885E-03
 -1      4153 2.30686E-03
 -1      4154 2.48508E-03
 -1      4155 3.81317E-03
 -1      4156 1.98646E-03
 -1      4157 1.82301E-03
 -1      4158 2.00124E-03
 -1      4159 2.15419E-03
 -1      4160 2.13555E-03
 -1      4161 1.66648E-03
 -1      4162 2.14770E-03
 -1      4163 2.21752E-03
 -1      4164 1.87889E-03
 -1      4165 2.02894E-03
 -1      4166 2.14770E-03
 -1      4167 1.94222E-03
 -1      4168 1.87830E-03
 -1      4169 2.01915E-03
 -1      4170 1.93243E-03
 -1      4171 1.67750E-03
 -1      4172 1.80847E-03
 -1      4173 1.85282E-03
 -1      4174 1.43992E-03
 -1      4175 1.56287E-03
 -1      4176 1.66835E-03
 -1      4177 1.08336E-03
 -1      4178 1.20409E-03
 -1      4179 1.31789E-03
 -1      4180 1.03975E-03
 -1      4181 1.24211E-03
 -1      4182 1.17771E-03
 -1      4183 6.33215E-01
 -1      4184 7.32547E-01
 -1      4185 1.24211E-03
 -1      4186 2.68616E-01
 -1      4187 3.07526E-01
 -1      4188 4.65355E-01
 -1      4189 5.41688E-01
 -1      4190 5.81519E-01
 -1      4191 2.49816E-02
 -1      4192 2.94123E-02
 -1      4193 3.81812E-02
 -1      4194 2.67775E-02
 -1      4195 3.52277E-01
 -1      4196 4.04824E-01
 -1      4197 3.24179E-01
 -1      4198 1.27489E-01
 -1      4199 1.46573E-01
 -1      4200 2.89689E+00
 -1      4201 2.23681E+00
 -1      4202 1.12474E-03
 -1      4203 1.06034E-03
 -1      4204 1.00241E-03
 -1      4205 1.09367E-03
 -1      4206 2.86039E+00
 -1      4207 2.20031E+00
 -1      4208 2.54069E+00
 -1      4209 2.11032E-01
 -1      4210 2.41684E-01
 -1      4211 2.52496E-01
 -1      4212 9.98832E-01
 -1      4213 1.23258E+00
 -1      4214 9.39331E-01
 -1      4215 1.64905E+00
 -1      4216 2.02188E+00
 -1      4217 2.36324E+00
 -1      4218 4.29461E-01
 -1      4219 7.31077E-02
 -1      4220 7.07301E-02
 -1      4221 8.21955E-02
 -1      4222 9.60263E-02
 -1      4223 1.10910E-01
 -1      4224 9.81384E-02
 -1      4225 1.53508E+00
 -1      4226 1.63548E+00
 -1      4227 1.64287E-01
 -1      4228 1.65731E-01
 -1      4229 1.89972E-01
 -1      4230 1.28549E-01
 -1      4231 2.00836E+00
 -1      4232 1.94755E+00
 -1      4233 2.68408E+00
 -1      4234 3.47888E+00
 -1      4235 2.63508E+00
 -1      4236 1.97127E+00
 -1      4237 1.72913E+00
 -1      4238 1.48954E+00
 -1      4239 1.12864E+00
 -1      4240 5.81039E-03
 -1      4241 7.73798E-03
 -1      4242 7.74525E-01
 -1      4243 6.74107E-01
 -1      4244 5.82580E-01
 -1      4245 4.82817E-01
 -1      4246 4.22285E-01
 -1      4247 3.56843E-01
 -1      4248 3.12092E-01
 -1      4249 2.64807E-01
 -1      4250 2.37875E-01
 -1      4251 2.05825E-01
 -1      4252 1.84766E-01
 -1      4253 1.64287E-01
 -1      4254 1.45128E-01
 -1      4255 1.28549E-01
 -1      4256 1.11969E-01
 -1      4257 9.81384E-02
 -1      4258 8.43075E-02
 -1      4259 7.31077E-02
 -1      4260 6.19079E-02
 -1      4261 5.32717E-02
 -1      4262 4.46355E-02
 -1      4263 3.81812E-02
 -1      4264 3.17270E-02
 -1      4265 2.67775E-02
 -1      4266 2.18280E-02
 -1      4267 1.84784E-02
 -1      4268 1.47716E-02
 -1      4269 1.22794E-02
 -1      4270 9.57039E-03
 -1      4271 4.49440E-03
 -1      4272 3.16631E-03
 -1      4273 2.24689E-03
 -1      4274 1.76305E-03
 -1      4275 1.40147E-03
 -1      4276 1.55056E-03
 -1      4277 1.79090E-03
 -1      4278 1.85423E-03
 -1      4279 1.94222E-03
 -1      4280 1.94222E-03
 -1      4281 1.93243E-03
 -1      4282 1.92264E-03
 -1      4283 1.85282E-03
 -1      4284 1.78299E-03
 -1      4285 1.66835E-03
 -1      4286 1.55372E-03
 -1      4287 1.36685E-03
 -1      4288 1.85057E+00
 -1      4289 1.04472E-03
 -1      4290 1.28055E-03
 -1      4291 1.73052E+00
 -1      4292 2.04505E-01
 -1      4293 1.65447E+00
 -1      4294 1.68144E+00
 -1      4295 1.95697E+00
 -1      4296 1.04081E+00
 -1      4297 2.39433E+00
 -1      4298 2.05135E+00
 -1      4299 1.29344E+00
 -1      4300 1.74230E+00
 -3
 9999
