    1C
    1UUSER                                                              
    1UDATE              27.october.2022                                 
    1UTIME              00:27:31                                        
    1UHOST                                                              
    1UPGM               CalculiX                                        
    1UVERSION           Version 2.17                             
    1UCOMPILETIME       Thu Jul 23 21:43:50 CEST 2020                    
    1UDIR                                                               
    1UDBN                                                               
    1UMAT    1SOLIDMATERIAL                                             
    2C                          4324                                     1
 -1         1 1.88243E+01 3.18181E+01 0.00000E+00
 -1         2 3.21264E+01 2.87712E+01 0.00000E+00
 -1         3 1.50000E+02 0.00000E+00 0.00000E+00
 -1         4 1.50000E+02 5.00000E+01 0.00000E+00
 -1         5 0.00000E+00 0.00000E+00 0.00000E+00
 -1         6 0.00000E+00 5.00000E+01 0.00000E+00
 -1         7 0.00000E+00 4.70500E+01 0.00000E+00
 -1         8 0.00000E+00 4.41000E+01 0.00000E+00
 -1         9 0.00000E+00 4.11500E+01 0.00000E+00
 -1        10 0.00000E+00 3.82000E+01 0.00000E+00
 -1        11 0.00000E+00 3.52500E+01 0.00000E+00
 -1        12 0.00000E+00 3.23500E+01 0.00000E+00
 -1        13 0.00000E+00 2.94000E+01 0.00000E+00
 -1        14 0.00000E+00 2.64500E+01 0.00000E+00
 -1        15 0.00000E+00 2.35000E+01 0.00000E+00
 -1        16 0.00000E+00 2.05500E+01 0.00000E+00
 -1        17 0.00000E+00 1.76000E+01 0.00000E+00
 -1        18 0.00000E+00 1.47000E+01 0.00000E+00
 -1        19 0.00000E+00 1.17500E+01 0.00000E+00
 -1        20 0.00000E+00 8.80000E+00 0.00000E+00
 -1        21 0.00000E+00 5.85000E+00 0.00000E+00
 -1        22 0.00000E+00 2.90000E+00 0.00000E+00
 -1        23 3.15000E+00 5.00000E+01 0.00000E+00
 -1        24 6.15000E+00 5.00000E+01 0.00000E+00
 -1        25 9.15000E+00 5.00000E+01 0.00000E+00
 -1        26 1.21500E+01 5.00000E+01 0.00000E+00
 -1        27 1.51500E+01 5.00000E+01 0.00000E+00
 -1        28 1.81500E+01 5.00000E+01 0.00000E+00
 -1        29 2.11500E+01 5.00000E+01 0.00000E+00
 -1        30 2.41500E+01 5.00000E+01 0.00000E+00
 -1        31 2.71500E+01 5.00000E+01 0.00000E+00
 -1        32 3.01500E+01 5.00000E+01 0.00000E+00
 -1        33 3.31500E+01 5.00000E+01 0.00000E+00
 -1        34 3.61500E+01 5.00000E+01 0.00000E+00
 -1        35 3.91500E+01 5.00000E+01 0.00000E+00
 -1        36 4.21500E+01 5.00000E+01 0.00000E+00
 -1        37 4.51500E+01 5.00000E+01 0.00000E+00
 -1        38 4.81500E+01 5.00000E+01 0.00000E+00
 -1        39 5.11500E+01 5.00000E+01 0.00000E+00
 -1        40 5.41500E+01 5.00000E+01 0.00000E+00
 -1        41 5.71500E+01 5.00000E+01 0.00000E+00
 -1        42 6.01500E+01 5.00000E+01 0.00000E+00
 -1        43 6.31500E+01 5.00000E+01 0.00000E+00
 -1        44 6.61500E+01 5.00000E+01 0.00000E+00
 -1        45 6.91500E+01 5.00000E+01 0.00000E+00
 -1        46 7.21500E+01 5.00000E+01 0.00000E+00
 -1        47 7.51500E+01 5.00000E+01 0.00000E+00
 -1        48 7.81500E+01 5.00000E+01 0.00000E+00
 -1        49 8.11500E+01 5.00000E+01 0.00000E+00
 -1        50 8.41500E+01 5.00000E+01 0.00000E+00
 -1        51 8.71500E+01 5.00000E+01 0.00000E+00
 -1        52 9.01500E+01 5.00000E+01 0.00000E+00
 -1        53 9.31500E+01 5.00000E+01 0.00000E+00
 -1        54 9.61500E+01 5.00000E+01 0.00000E+00
 -1        55 9.91500E+01 5.00000E+01 0.00000E+00
 -1        56 1.02150E+02 5.00000E+01 0.00000E+00
 -1        57 1.05150E+02 5.00000E+01 0.00000E+00
 -1        58 1.08150E+02 5.00000E+01 0.00000E+00
 -1        59 1.11150E+02 5.00000E+01 0.00000E+00
 -1        60 1.14150E+02 5.00000E+01 0.00000E+00
 -1        61 1.17150E+02 5.00000E+01 0.00000E+00
 -1        62 1.20150E+02 5.00000E+01 0.00000E+00
 -1        63 1.23150E+02 5.00000E+01 0.00000E+00
 -1        64 1.26150E+02 5.00000E+01 0.00000E+00
 -1        65 1.29150E+02 5.00000E+01 0.00000E+00
 -1        66 1.32150E+02 5.00000E+01 0.00000E+00
 -1        67 1.35150E+02 5.00000E+01 0.00000E+00
 -1        68 1.38150E+02 5.00000E+01 0.00000E+00
 -1        69 1.41150E+02 5.00000E+01 0.00000E+00
 -1        70 1.44150E+02 5.00000E+01 0.00000E+00
 -1        71 1.47150E+02 5.00000E+01 0.00000E+00
 -1        72 3.15000E+00 0.00000E+00 0.00000E+00
 -1        73 6.15000E+00 0.00000E+00 0.00000E+00
 -1        74 9.15000E+00 0.00000E+00 0.00000E+00
 -1        75 1.21500E+01 0.00000E+00 0.00000E+00
 -1        76 1.51500E+01 0.00000E+00 0.00000E+00
 -1        77 1.81500E+01 0.00000E+00 0.00000E+00
 -1        78 2.11500E+01 0.00000E+00 0.00000E+00
 -1        79 2.41500E+01 0.00000E+00 0.00000E+00
 -1        80 2.71500E+01 0.00000E+00 0.00000E+00
 -1        81 3.01500E+01 0.00000E+00 0.00000E+00
 -1        82 3.31500E+01 0.00000E+00 0.00000E+00
 -1        83 3.61500E+01 0.00000E+00 0.00000E+00
 -1        84 3.91500E+01 0.00000E+00 0.00000E+00
 -1        85 4.21500E+01 0.00000E+00 0.00000E+00
 -1        86 4.51500E+01 0.00000E+00 0.00000E+00
 -1        87 4.81500E+01 0.00000E+00 0.00000E+00
 -1        88 5.11500E+01 0.00000E+00 0.00000E+00
 -1        89 5.41500E+01 0.00000E+00 0.00000E+00
 -1        90 5.71500E+01 0.00000E+00 0.00000E+00
 -1        91 6.01500E+01 0.00000E+00 0.00000E+00
 -1        92 6.31500E+01 0.00000E+00 0.00000E+00
 -1        93 6.61500E+01 0.00000E+00 0.00000E+00
 -1        94 6.91500E+01 0.00000E+00 0.00000E+00
 -1        95 7.21500E+01 0.00000E+00 0.00000E+00
 -1        96 7.51500E+01 0.00000E+00 0.00000E+00
 -1        97 7.81500E+01 0.00000E+00 0.00000E+00
 -1        98 8.11500E+01 0.00000E+00 0.00000E+00
 -1        99 8.41500E+01 0.00000E+00 0.00000E+00
 -1       100 8.71500E+01 0.00000E+00 0.00000E+00
 -1       101 9.01500E+01 0.00000E+00 0.00000E+00
 -1       102 9.31500E+01 0.00000E+00 0.00000E+00
 -1       103 9.61500E+01 0.00000E+00 0.00000E+00
 -1       104 9.91500E+01 0.00000E+00 0.00000E+00
 -1       105 1.02150E+02 0.00000E+00 0.00000E+00
 -1       106 1.05150E+02 0.00000E+00 0.00000E+00
 -1       107 1.08150E+02 0.00000E+00 0.00000E+00
 -1       108 1.11150E+02 0.00000E+00 0.00000E+00
 -1       109 1.14150E+02 0.00000E+00 0.00000E+00
 -1       110 1.17150E+02 0.00000E+00 0.00000E+00
 -1       111 1.20150E+02 0.00000E+00 0.00000E+00
 -1       112 1.23150E+02 0.00000E+00 0.00000E+00
 -1       113 1.26150E+02 0.00000E+00 0.00000E+00
 -1       114 1.29150E+02 0.00000E+00 0.00000E+00
 -1       115 1.32150E+02 0.00000E+00 0.00000E+00
 -1       116 1.35150E+02 0.00000E+00 0.00000E+00
 -1       117 1.38150E+02 0.00000E+00 0.00000E+00
 -1       118 1.41150E+02 0.00000E+00 0.00000E+00
 -1       119 1.44150E+02 0.00000E+00 0.00000E+00
 -1       120 1.47150E+02 0.00000E+00 0.00000E+00
 -1       121 1.50000E+02 2.95000E+00 0.00000E+00
 -1       122 1.50000E+02 5.90000E+00 0.00000E+00
 -1       123 1.50000E+02 8.85000E+00 0.00000E+00
 -1       124 1.50000E+02 1.18000E+01 0.00000E+00
 -1       125 1.50000E+02 1.47500E+01 0.00000E+00
 -1       126 1.50000E+02 1.76500E+01 0.00000E+00
 -1       127 1.50000E+02 2.06000E+01 0.00000E+00
 -1       128 1.50000E+02 2.35500E+01 0.00000E+00
 -1       129 1.50000E+02 2.65000E+01 0.00000E+00
 -1       130 1.50000E+02 2.94500E+01 0.00000E+00
 -1       131 1.50000E+02 3.24000E+01 0.00000E+00
 -1       132 1.50000E+02 3.53000E+01 0.00000E+00
 -1       133 1.50000E+02 3.82500E+01 0.00000E+00
 -1       134 1.50000E+02 4.12000E+01 0.00000E+00
 -1       135 1.50000E+02 4.41500E+01 0.00000E+00
 -1       136 1.50000E+02 4.71000E+01 0.00000E+00
 -1       137 3.19838E+01 2.73654E+01 0.00000E+00
 -1       138 3.15684E+01 2.60324E+01 0.00000E+00
 -1       139 3.08649E+01 2.47624E+01 0.00000E+00
 -1       140 2.99062E+01 2.36571E+01 0.00000E+00
 -1       141 2.87160E+01 2.27616E+01 0.00000E+00
 -1       142 2.73663E+01 2.21392E+01 0.00000E+00
 -1       143 2.58900E+01 2.18129E+01 0.00000E+00
 -1       144 2.44362E+01 2.18053E+01 0.00000E+00
 -1       145 2.28691E+01 2.21451E+01 0.00000E+00
 -1       146 2.15936E+01 2.27280E+01 0.00000E+00
 -1       147 2.03724E+01 2.36331E+01 0.00000E+00
 -1       148 1.94207E+01 2.47159E+01 0.00000E+00
 -1       149 1.86965E+01 2.60041E+01 0.00000E+00
 -1       150 1.82448E+01 2.74892E+01 0.00000E+00
 -1       151 1.81284E+01 2.89404E+01 0.00000E+00
 -1       152 1.83261E+01 3.04313E+01 0.00000E+00
 -1       153 1.95633E+01 3.30199E+01 0.00000E+00
 -1       154 2.06237E+01 3.41308E+01 0.00000E+00
 -1       155 2.18312E+01 3.49471E+01 0.00000E+00
 -1       156 2.31014E+01 3.54719E+01 0.00000E+00
 -1       157 2.45397E+01 3.57465E+01 0.00000E+00
 -1       158 2.60067E+01 3.57156E+01 0.00000E+00
 -1       159 2.74224E+01 3.53839E+01 0.00000E+00
 -1       160 2.87576E+01 3.47557E+01 0.00000E+00
 -1       161 2.99137E+01 3.38782E+01 0.00000E+00
 -1       162 3.08399E+01 3.28155E+01 0.00000E+00
 -1       163 3.15505E+01 3.15515E+01 0.00000E+00
 -1       164 3.19870E+01 3.01610E+01 0.00000E+00
 -1       165 2.59800E+00 4.55750E+01 0.00000E+00
 -1       166 2.59800E+00 4.26250E+01 0.00000E+00
 -1       167 2.59800E+00 3.96750E+01 0.00000E+00
 -1       168 2.59800E+00 3.67250E+01 0.00000E+00
 -1       169 2.59800E+00 3.38250E+01 0.00000E+00
 -1       170 2.59800E+00 3.08750E+01 0.00000E+00
 -1       171 2.59800E+00 2.79250E+01 0.00000E+00
 -1       172 2.59800E+00 2.49750E+01 0.00000E+00
 -1       173 2.59800E+00 2.20250E+01 0.00000E+00
 -1       174 2.59800E+00 1.90750E+01 0.00000E+00
 -1       175 2.59800E+00 1.61750E+01 0.00000E+00
 -1       176 2.59800E+00 1.32250E+01 0.00000E+00
 -1       177 2.59800E+00 1.02750E+01 0.00000E+00
 -1       178 2.59800E+00 7.32500E+00 0.00000E+00
 -1       179 2.59800E+00 4.37500E+00 0.00000E+00
 -1       180 2.87400E+00 2.18750E+00 0.00000E+00
 -1       181 4.65000E+00 4.74020E+01 0.00000E+00
 -1       182 7.65000E+00 4.74020E+01 0.00000E+00
 -1       183 1.06500E+01 4.74020E+01 0.00000E+00
 -1       184 1.36500E+01 4.74020E+01 0.00000E+00
 -1       185 1.66500E+01 4.74020E+01 0.00000E+00
 -1       186 1.96500E+01 4.74020E+01 0.00000E+00
 -1       187 2.26500E+01 4.74020E+01 0.00000E+00
 -1       188 2.56500E+01 4.74020E+01 0.00000E+00
 -1       189 2.86500E+01 4.74020E+01 0.00000E+00
 -1       190 3.16500E+01 4.74020E+01 0.00000E+00
 -1       191 3.46500E+01 4.74020E+01 0.00000E+00
 -1       192 3.76500E+01 4.74020E+01 0.00000E+00
 -1       193 4.06500E+01 4.74020E+01 0.00000E+00
 -1       194 4.36500E+01 4.74020E+01 0.00000E+00
 -1       195 4.66500E+01 4.74020E+01 0.00000E+00
 -1       196 4.96500E+01 4.74020E+01 0.00000E+00
 -1       197 5.26500E+01 4.74020E+01 0.00000E+00
 -1       198 5.56500E+01 4.74020E+01 0.00000E+00
 -1       199 5.86500E+01 4.74020E+01 0.00000E+00
 -1       200 6.16500E+01 4.74020E+01 0.00000E+00
 -1       201 6.46500E+01 4.74020E+01 0.00000E+00
 -1       202 6.76500E+01 4.74020E+01 0.00000E+00
 -1       203 7.06500E+01 4.74020E+01 0.00000E+00
 -1       204 7.36500E+01 4.74020E+01 0.00000E+00
 -1       205 7.66500E+01 4.74020E+01 0.00000E+00
 -1       206 7.96500E+01 4.74020E+01 0.00000E+00
 -1       207 8.26500E+01 4.74020E+01 0.00000E+00
 -1       208 8.56500E+01 4.74020E+01 0.00000E+00
 -1       209 8.86500E+01 4.74020E+01 0.00000E+00
 -1       210 9.16500E+01 4.74020E+01 0.00000E+00
 -1       211 9.46500E+01 4.74020E+01 0.00000E+00
 -1       212 9.76500E+01 4.74020E+01 0.00000E+00
 -1       213 1.00650E+02 4.74020E+01 0.00000E+00
 -1       214 1.03650E+02 4.74020E+01 0.00000E+00
 -1       215 1.06650E+02 4.74020E+01 0.00000E+00
 -1       216 1.09650E+02 4.74020E+01 0.00000E+00
 -1       217 1.12650E+02 4.74020E+01 0.00000E+00
 -1       218 1.15650E+02 4.74020E+01 0.00000E+00
 -1       219 1.18650E+02 4.74020E+01 0.00000E+00
 -1       220 1.21650E+02 4.74020E+01 0.00000E+00
 -1       221 1.24650E+02 4.74020E+01 0.00000E+00
 -1       222 1.27650E+02 4.74020E+01 0.00000E+00
 -1       223 1.30650E+02 4.74020E+01 0.00000E+00
 -1       224 1.33650E+02 4.74020E+01 0.00000E+00
 -1       225 1.36650E+02 4.74020E+01 0.00000E+00
 -1       226 1.39650E+02 4.74020E+01 0.00000E+00
 -1       227 1.42650E+02 4.74020E+01 0.00000E+00
 -1       228 1.45650E+02 4.74020E+01 0.00000E+00
 -1       229 5.87400E+00 2.18750E+00 0.00000E+00
 -1       230 8.87400E+00 2.18750E+00 0.00000E+00
 -1       231 1.18740E+01 2.18750E+00 0.00000E+00
 -1       232 1.48740E+01 2.18750E+00 0.00000E+00
 -1       233 1.78740E+01 2.18750E+00 0.00000E+00
 -1       234 2.08740E+01 2.18750E+00 0.00000E+00
 -1       235 2.38740E+01 2.18750E+00 0.00000E+00
 -1       236 2.68740E+01 2.18750E+00 0.00000E+00
 -1       237 2.98740E+01 2.18750E+00 0.00000E+00
 -1       238 3.28740E+01 2.18750E+00 0.00000E+00
 -1       239 3.58740E+01 2.18750E+00 0.00000E+00
 -1       240 3.88740E+01 2.18750E+00 0.00000E+00
 -1       241 4.18740E+01 2.18750E+00 0.00000E+00
 -1       242 4.48740E+01 2.18750E+00 0.00000E+00
 -1       243 4.78740E+01 2.18750E+00 0.00000E+00
 -1       244 5.08740E+01 2.18750E+00 0.00000E+00
 -1       245 5.38740E+01 2.18750E+00 0.00000E+00
 -1       246 5.68740E+01 2.18750E+00 0.00000E+00
 -1       247 5.98740E+01 2.18750E+00 0.00000E+00
 -1       248 6.28740E+01 2.18750E+00 0.00000E+00
 -1       249 6.58740E+01 2.18750E+00 0.00000E+00
 -1       250 6.88740E+01 2.18750E+00 0.00000E+00
 -1       251 7.18740E+01 2.18750E+00 0.00000E+00
 -1       252 7.48740E+01 2.18750E+00 0.00000E+00
 -1       253 7.78740E+01 2.18750E+00 0.00000E+00
 -1       254 8.08740E+01 2.18750E+00 0.00000E+00
 -1       255 8.38740E+01 2.18750E+00 0.00000E+00
 -1       256 8.68740E+01 2.18750E+00 0.00000E+00
 -1       257 8.98740E+01 2.18750E+00 0.00000E+00
 -1       258 9.28740E+01 2.18750E+00 0.00000E+00
 -1       259 9.58740E+01 2.18750E+00 0.00000E+00
 -1       260 9.88740E+01 2.18750E+00 0.00000E+00
 -1       261 1.01874E+02 2.18750E+00 0.00000E+00
 -1       262 1.04874E+02 2.18750E+00 0.00000E+00
 -1       263 1.07874E+02 2.18750E+00 0.00000E+00
 -1       264 1.10874E+02 2.18750E+00 0.00000E+00
 -1       265 1.13874E+02 2.18750E+00 0.00000E+00
 -1       266 1.16874E+02 2.18750E+00 0.00000E+00
 -1       267 1.19874E+02 2.18750E+00 0.00000E+00
 -1       268 1.22874E+02 2.18750E+00 0.00000E+00
 -1       269 1.25874E+02 2.18750E+00 0.00000E+00
 -1       270 1.28874E+02 2.18750E+00 0.00000E+00
 -1       271 1.31874E+02 2.18750E+00 0.00000E+00
 -1       272 1.34874E+02 2.18750E+00 0.00000E+00
 -1       273 1.37874E+02 2.18750E+00 0.00000E+00
 -1       274 1.40874E+02 2.18750E+00 0.00000E+00
 -1       275 1.43874E+02 2.18750E+00 0.00000E+00
 -1       276 1.46874E+02 2.18750E+00 0.00000E+00
 -1       277 1.47402E+02 4.42500E+00 0.00000E+00
 -1       278 1.47402E+02 7.37500E+00 0.00000E+00
 -1       279 1.47402E+02 1.03250E+01 0.00000E+00
 -1       280 1.47402E+02 1.32750E+01 0.00000E+00
 -1       281 1.47402E+02 1.61750E+01 0.00000E+00
 -1       282 1.47402E+02 1.91250E+01 0.00000E+00
 -1       283 1.47402E+02 2.20750E+01 0.00000E+00
 -1       284 1.47402E+02 2.50250E+01 0.00000E+00
 -1       285 1.47402E+02 2.79750E+01 0.00000E+00
 -1       286 1.47402E+02 3.09250E+01 0.00000E+00
 -1       287 1.47402E+02 3.38250E+01 0.00000E+00
 -1       288 1.47402E+02 3.67750E+01 0.00000E+00
 -1       289 1.47402E+02 3.97250E+01 0.00000E+00
 -1       290 1.47402E+02 4.26750E+01 0.00000E+00
 -1       291 1.46526E+02 4.50385E+01 0.00000E+00
 -1       292 3.34280E+01 2.79290E+01 0.00000E+00
 -1       293 3.29336E+01 2.63382E+01 0.00000E+00
 -1       294 3.23505E+01 2.47693E+01 0.00000E+00
 -1       295 3.13014E+01 2.34154E+01 0.00000E+00
 -1       296 3.00400E+01 2.22406E+01 0.00000E+00
 -1       297 2.85839E+01 2.12733E+01 0.00000E+00
 -1       298 2.69079E+01 2.07104E+01 0.00000E+00
 -1       299 2.51695E+01 2.05967E+01 0.00000E+00
 -1       300 2.33247E+01 2.04628E+01 0.00000E+00
 -1       301 2.17274E+01 2.13339E+01 0.00000E+00
 -1       302 2.01115E+01 2.20046E+01 0.00000E+00
 -1       303 1.89859E+01 2.33741E+01 0.00000E+00
 -1       304 1.80017E+01 2.47659E+01 0.00000E+00
 -1       305 1.69901E+01 2.62963E+01 0.00000E+00
 -1       306 1.68946E+01 2.81112E+01 0.00000E+00
 -1       307 1.68593E+01 2.98672E+01 0.00000E+00
 -1       308 1.73554E+01 3.15629E+01 0.00000E+00
 -1       309 1.81610E+01 3.30540E+01 0.00000E+00
 -1       310 1.90953E+01 3.45282E+01 0.00000E+00
 -1       311 2.05015E+01 3.56128E+01 0.00000E+00
 -1       312 2.20034E+01 3.63300E+01 0.00000E+00
 -1       313 2.35774E+01 3.68824E+01 0.00000E+00
 -1       314 2.53023E+01 3.71107E+01 0.00000E+00
 -1       315 2.70103E+01 3.68118E+01 0.00000E+00
 -1       316 2.86775E+01 3.63185E+01 0.00000E+00
 -1       317 3.01193E+01 3.53494E+01 0.00000E+00
 -1       318 3.12908E+01 3.41434E+01 0.00000E+00
 -1       319 3.23250E+01 3.28188E+01 0.00000E+00
 -1       320 3.29255E+01 3.12193E+01 0.00000E+00
 -1       321 3.33464E+01 2.95954E+01 0.00000E+00
 -1       322 5.19600E+00 4.11500E+01 0.00000E+00
 -1       323 5.19600E+00 4.41000E+01 0.00000E+00
 -1       324 5.19600E+00 3.52750E+01 0.00000E+00
 -1       325 5.19600E+00 3.23250E+01 0.00000E+00
 -1       326 5.19600E+00 2.93750E+01 0.00000E+00
 -1       327 5.19600E+00 2.64250E+01 0.00000E+00
 -1       328 5.19600E+00 2.34750E+01 0.00000E+00
 -1       329 5.19600E+00 2.05250E+01 0.00000E+00
 -1       330 5.19600E+00 1.76250E+01 0.00000E+00
 -1       331 5.19600E+00 1.46750E+01 0.00000E+00
 -1       332 5.19600E+00 1.17250E+01 0.00000E+00
 -1       333 5.19600E+00 8.77500E+00 0.00000E+00
 -1       334 5.19600E+00 5.82500E+00 0.00000E+00
 -1       335 5.53500E+00 4.00625E+00 0.00000E+00
 -1       336 8.53500E+00 4.00625E+00 0.00000E+00
 -1       337 9.15000E+00 4.48040E+01 0.00000E+00
 -1       338 1.21500E+01 4.48040E+01 0.00000E+00
 -1       339 1.51500E+01 4.48040E+01 0.00000E+00
 -1       340 1.81500E+01 4.48040E+01 0.00000E+00
 -1       341 2.11500E+01 4.48040E+01 0.00000E+00
 -1       342 2.41500E+01 4.48040E+01 0.00000E+00
 -1       343 2.71500E+01 4.48040E+01 0.00000E+00
 -1       344 3.01500E+01 4.48040E+01 0.00000E+00
 -1       345 3.31500E+01 4.48040E+01 0.00000E+00
 -1       346 3.61500E+01 4.48040E+01 0.00000E+00
 -1       347 3.91500E+01 4.48040E+01 0.00000E+00
 -1       348 4.21500E+01 4.48040E+01 0.00000E+00
 -1       349 4.51500E+01 4.48040E+01 0.00000E+00
 -1       350 4.81500E+01 4.48040E+01 0.00000E+00
 -1       351 5.11500E+01 4.48040E+01 0.00000E+00
 -1       352 5.41500E+01 4.48040E+01 0.00000E+00
 -1       353 5.71500E+01 4.48040E+01 0.00000E+00
 -1       354 6.01500E+01 4.48040E+01 0.00000E+00
 -1       355 6.31500E+01 4.48040E+01 0.00000E+00
 -1       356 6.61500E+01 4.48040E+01 0.00000E+00
 -1       357 6.91500E+01 4.48040E+01 0.00000E+00
 -1       358 7.21500E+01 4.48040E+01 0.00000E+00
 -1       359 7.51500E+01 4.48040E+01 0.00000E+00
 -1       360 7.81500E+01 4.48040E+01 0.00000E+00
 -1       361 8.11500E+01 4.48040E+01 0.00000E+00
 -1       362 8.41500E+01 4.48040E+01 0.00000E+00
 -1       363 8.71500E+01 4.48040E+01 0.00000E+00
 -1       364 9.01500E+01 4.48040E+01 0.00000E+00
 -1       365 9.31500E+01 4.48040E+01 0.00000E+00
 -1       366 9.61500E+01 4.48040E+01 0.00000E+00
 -1       367 9.91500E+01 4.48040E+01 0.00000E+00
 -1       368 1.02150E+02 4.48040E+01 0.00000E+00
 -1       369 1.05150E+02 4.48040E+01 0.00000E+00
 -1       370 1.08150E+02 4.48040E+01 0.00000E+00
 -1       371 1.11150E+02 4.48040E+01 0.00000E+00
 -1       372 1.14150E+02 4.48040E+01 0.00000E+00
 -1       373 1.17150E+02 4.48040E+01 0.00000E+00
 -1       374 1.20150E+02 4.48040E+01 0.00000E+00
 -1       375 1.23150E+02 4.48040E+01 0.00000E+00
 -1       376 1.26150E+02 4.48040E+01 0.00000E+00
 -1       377 1.29150E+02 4.48040E+01 0.00000E+00
 -1       378 1.32150E+02 4.48040E+01 0.00000E+00
 -1       379 1.35150E+02 4.48040E+01 0.00000E+00
 -1       380 1.38150E+02 4.48040E+01 0.00000E+00
 -1       381 1.41150E+02 4.48040E+01 0.00000E+00
 -1       382 1.43838E+02 4.49212E+01 0.00000E+00
 -1       383 1.15350E+01 4.00625E+00 0.00000E+00
 -1       384 1.45350E+01 4.00625E+00 0.00000E+00
 -1       385 1.75350E+01 4.00625E+00 0.00000E+00
 -1       386 2.05350E+01 4.00625E+00 0.00000E+00
 -1       387 2.35350E+01 4.00625E+00 0.00000E+00
 -1       388 2.65350E+01 4.00625E+00 0.00000E+00
 -1       389 2.95350E+01 4.00625E+00 0.00000E+00
 -1       390 3.25350E+01 4.00625E+00 0.00000E+00
 -1       391 3.55350E+01 4.00625E+00 0.00000E+00
 -1       392 3.85350E+01 4.00625E+00 0.00000E+00
 -1       393 4.15350E+01 4.00625E+00 0.00000E+00
 -1       394 4.45350E+01 4.00625E+00 0.00000E+00
 -1       395 4.75350E+01 4.00625E+00 0.00000E+00
 -1       396 5.05350E+01 4.00625E+00 0.00000E+00
 -1       397 5.35350E+01 4.00625E+00 0.00000E+00
 -1       398 5.65350E+01 4.00625E+00 0.00000E+00
 -1       399 5.95350E+01 4.00625E+00 0.00000E+00
 -1       400 6.25350E+01 4.00625E+00 0.00000E+00
 -1       401 6.55350E+01 4.00625E+00 0.00000E+00
 -1       402 6.85350E+01 4.00625E+00 0.00000E+00
 -1       403 7.15350E+01 4.00625E+00 0.00000E+00
 -1       404 7.45350E+01 4.00625E+00 0.00000E+00
 -1       405 7.75350E+01 4.00625E+00 0.00000E+00
 -1       406 8.05350E+01 4.00625E+00 0.00000E+00
 -1       407 8.35350E+01 4.00625E+00 0.00000E+00
 -1       408 8.65350E+01 4.00625E+00 0.00000E+00
 -1       409 8.95350E+01 4.00625E+00 0.00000E+00
 -1       410 9.25350E+01 4.00625E+00 0.00000E+00
 -1       411 9.55350E+01 4.00625E+00 0.00000E+00
 -1       412 9.85350E+01 4.00625E+00 0.00000E+00
 -1       413 1.01535E+02 4.00625E+00 0.00000E+00
 -1       414 1.04535E+02 4.00625E+00 0.00000E+00
 -1       415 1.07535E+02 4.00625E+00 0.00000E+00
 -1       416 1.10535E+02 4.00625E+00 0.00000E+00
 -1       417 1.13535E+02 4.00625E+00 0.00000E+00
 -1       418 1.16535E+02 4.00625E+00 0.00000E+00
 -1       419 1.19535E+02 4.00625E+00 0.00000E+00
 -1       420 1.22535E+02 4.00625E+00 0.00000E+00
 -1       421 1.25535E+02 4.00625E+00 0.00000E+00
 -1       422 1.28535E+02 4.00625E+00 0.00000E+00
 -1       423 1.31535E+02 4.00625E+00 0.00000E+00
 -1       424 1.34535E+02 4.00625E+00 0.00000E+00
 -1       425 1.37535E+02 4.00625E+00 0.00000E+00
 -1       426 1.40535E+02 4.00625E+00 0.00000E+00
 -1       427 1.43535E+02 4.00625E+00 0.00000E+00
 -1       428 1.45469E+02 4.21562E+00 0.00000E+00
 -1       429 1.44804E+02 1.18000E+01 0.00000E+00
 -1       430 1.44804E+02 8.85000E+00 0.00000E+00
 -1       431 1.45136E+02 6.53281E+00 0.00000E+00
 -1       432 1.44804E+02 1.47000E+01 0.00000E+00
 -1       433 1.44804E+02 1.76500E+01 0.00000E+00
 -1       434 1.44804E+02 2.06000E+01 0.00000E+00
 -1       435 1.44804E+02 2.35500E+01 0.00000E+00
 -1       436 1.44804E+02 2.65000E+01 0.00000E+00
 -1       437 1.44804E+02 2.94500E+01 0.00000E+00
 -1       438 1.44804E+02 3.23500E+01 0.00000E+00
 -1       439 1.44804E+02 3.53000E+01 0.00000E+00
 -1       440 1.44804E+02 3.82500E+01 0.00000E+00
 -1       441 1.44804E+02 4.12000E+01 0.00000E+00
 -1       442 3.39355E+01 2.50730E+01 0.00000E+00
 -1       443 3.49329E+01 2.88379E+01 0.00000E+00
 -1       444 3.44300E+01 2.66638E+01 0.00000E+00
 -1       445 3.31155E+01 2.30932E+01 0.00000E+00
 -1       446 3.18541E+01 2.19184E+01 0.00000E+00
 -1       447 5.19600E+00 3.82125E+01 0.00000E+00
 -1       448 2.81586E+01 1.97632E+01 0.00000E+00
 -1       449 2.61343E+01 1.91929E+01 0.00000E+00
 -1       450 2.42894E+01 1.90590E+01 0.00000E+00
 -1       451 2.18252E+01 1.96133E+01 0.00000E+00
 -1       452 2.02093E+01 2.02839E+01 0.00000E+00
 -1       453 1.83531E+01 2.17068E+01 0.00000E+00
 -1       454 1.73689E+01 2.30986E+01 0.00000E+00
 -1       455 1.63573E+01 2.46289E+01 0.00000E+00
 -1       456 1.53969E+01 2.71224E+01 0.00000E+00
 -1       457 1.53616E+01 2.88784E+01 0.00000E+00
 -1       458 1.56220E+01 3.11496E+01 0.00000E+00
 -1       459 1.66178E+01 3.29246E+01 0.00000E+00
 -1       460 1.73918E+01 3.45747E+01 0.00000E+00
 -1       461 1.90068E+01 3.60969E+01 0.00000E+00
 -1       462 2.06217E+01 3.72923E+01 0.00000E+00
 -1       463 2.23612E+01 3.78293E+01 0.00000E+00
 -1       464 2.42148E+01 3.86968E+01 0.00000E+00
 -1       465 2.64376E+01 3.85681E+01 0.00000E+00
 -1       466 2.81048E+01 3.80748E+01 0.00000E+00
 -1       467 3.03084E+01 3.71879E+01 0.00000E+00
 -1       468 3.16949E+01 3.57079E+01 0.00000E+00
 -1       469 3.30277E+01 3.44335E+01 0.00000E+00
 -1       470 3.39172E+01 3.25041E+01 0.00000E+00
 -1       471 3.44718E+01 3.07536E+01 0.00000E+00
 -1       472 3.01682E+01 2.04679E+01 0.00000E+00
 -1       473 2.27900E+01 1.82095E+01 0.00000E+00
 -1       474 1.47641E+01 2.54551E+01 0.00000E+00
 -1       475 1.00350E+01 6.60425E+00 0.00000E+00
 -1       476 7.79400E+00 3.08500E+01 0.00000E+00
 -1       477 7.79400E+00 3.38000E+01 0.00000E+00
 -1       478 7.79400E+00 2.49500E+01 0.00000E+00
 -1       479 7.79400E+00 2.20000E+01 0.00000E+00
 -1       480 7.79400E+00 1.91000E+01 0.00000E+00
 -1       481 7.79400E+00 1.61500E+01 0.00000E+00
 -1       482 7.79400E+00 1.32000E+01 0.00000E+00
 -1       483 7.79400E+00 1.02500E+01 0.00000E+00
 -1       484 1.30350E+01 6.60425E+00 0.00000E+00
 -1       485 1.06500E+01 4.22060E+01 0.00000E+00
 -1       486 1.36500E+01 4.22060E+01 0.00000E+00
 -1       487 1.66500E+01 4.22060E+01 0.00000E+00
 -1       488 1.96500E+01 4.22060E+01 0.00000E+00
 -1       489 2.26500E+01 4.22060E+01 0.00000E+00
 -1       490 2.56500E+01 4.22060E+01 0.00000E+00
 -1       491 2.86500E+01 4.22060E+01 0.00000E+00
 -1       492 3.16500E+01 4.22060E+01 0.00000E+00
 -1       493 3.46500E+01 4.22060E+01 0.00000E+00
 -1       494 3.76500E+01 4.22060E+01 0.00000E+00
 -1       495 4.06500E+01 4.22060E+01 0.00000E+00
 -1       496 4.36500E+01 4.22060E+01 0.00000E+00
 -1       497 4.66500E+01 4.22060E+01 0.00000E+00
 -1       498 4.96500E+01 4.22060E+01 0.00000E+00
 -1       499 5.26500E+01 4.22060E+01 0.00000E+00
 -1       500 5.56500E+01 4.22060E+01 0.00000E+00
 -1       501 5.86500E+01 4.22060E+01 0.00000E+00
 -1       502 6.16500E+01 4.22060E+01 0.00000E+00
 -1       503 6.46500E+01 4.22060E+01 0.00000E+00
 -1       504 6.76500E+01 4.22060E+01 0.00000E+00
 -1       505 7.06500E+01 4.22060E+01 0.00000E+00
 -1       506 7.36500E+01 4.22060E+01 0.00000E+00
 -1       507 7.66500E+01 4.22060E+01 0.00000E+00
 -1       508 7.96500E+01 4.22060E+01 0.00000E+00
 -1       509 8.26500E+01 4.22060E+01 0.00000E+00
 -1       510 8.56500E+01 4.22060E+01 0.00000E+00
 -1       511 8.86500E+01 4.22060E+01 0.00000E+00
 -1       512 9.16500E+01 4.22060E+01 0.00000E+00
 -1       513 9.46500E+01 4.22060E+01 0.00000E+00
 -1       514 9.76500E+01 4.22060E+01 0.00000E+00
 -1       515 1.00650E+02 4.22060E+01 0.00000E+00
 -1       516 1.03650E+02 4.22060E+01 0.00000E+00
 -1       517 1.06650E+02 4.22060E+01 0.00000E+00
 -1       518 1.09650E+02 4.22060E+01 0.00000E+00
 -1       519 1.12650E+02 4.22060E+01 0.00000E+00
 -1       520 1.15650E+02 4.22060E+01 0.00000E+00
 -1       521 1.18650E+02 4.22060E+01 0.00000E+00
 -1       522 1.21650E+02 4.22060E+01 0.00000E+00
 -1       523 1.24650E+02 4.22060E+01 0.00000E+00
 -1       524 1.27650E+02 4.22060E+01 0.00000E+00
 -1       525 1.30650E+02 4.22060E+01 0.00000E+00
 -1       526 1.33650E+02 4.22060E+01 0.00000E+00
 -1       527 1.36650E+02 4.22060E+01 0.00000E+00
 -1       528 1.39650E+02 4.22060E+01 0.00000E+00
 -1       529 3.58206E+01 2.53594E+01 0.00000E+00
 -1       530 1.90350E+01 6.60425E+00 0.00000E+00
 -1       531 2.20350E+01 6.60425E+00 0.00000E+00
 -1       532 2.50350E+01 6.60425E+00 0.00000E+00
 -1       533 2.80350E+01 6.60425E+00 0.00000E+00
 -1       534 3.10350E+01 6.60425E+00 0.00000E+00
 -1       535 3.40350E+01 6.60425E+00 0.00000E+00
 -1       536 3.70350E+01 6.60425E+00 0.00000E+00
 -1       537 4.00350E+01 6.60425E+00 0.00000E+00
 -1       538 4.30350E+01 6.60425E+00 0.00000E+00
 -1       539 4.60350E+01 6.60425E+00 0.00000E+00
 -1       540 4.90350E+01 6.60425E+00 0.00000E+00
 -1       541 5.20350E+01 6.60425E+00 0.00000E+00
 -1       542 5.50350E+01 6.60425E+00 0.00000E+00
 -1       543 5.80350E+01 6.60425E+00 0.00000E+00
 -1       544 6.10350E+01 6.60425E+00 0.00000E+00
 -1       545 6.40350E+01 6.60425E+00 0.00000E+00
 -1       546 6.70350E+01 6.60425E+00 0.00000E+00
 -1       547 7.00350E+01 6.60425E+00 0.00000E+00
 -1       548 7.30350E+01 6.60425E+00 0.00000E+00
 -1       549 7.60350E+01 6.60425E+00 0.00000E+00
 -1       550 7.90350E+01 6.60425E+00 0.00000E+00
 -1       551 8.20350E+01 6.60425E+00 0.00000E+00
 -1       552 8.50350E+01 6.60425E+00 0.00000E+00
 -1       553 8.80350E+01 6.60425E+00 0.00000E+00
 -1       554 9.10350E+01 6.60425E+00 0.00000E+00
 -1       555 9.40350E+01 6.60425E+00 0.00000E+00
 -1       556 9.70350E+01 6.60425E+00 0.00000E+00
 -1       557 1.00035E+02 6.60425E+00 0.00000E+00
 -1       558 1.03035E+02 6.60425E+00 0.00000E+00
 -1       559 1.06035E+02 6.60425E+00 0.00000E+00
 -1       560 1.09035E+02 6.60425E+00 0.00000E+00
 -1       561 1.12035E+02 6.60425E+00 0.00000E+00
 -1       562 1.15035E+02 6.60425E+00 0.00000E+00
 -1       563 1.18035E+02 6.60425E+00 0.00000E+00
 -1       564 1.21035E+02 6.60425E+00 0.00000E+00
 -1       565 1.24035E+02 6.60425E+00 0.00000E+00
 -1       566 1.27035E+02 6.60425E+00 0.00000E+00
 -1       567 1.30035E+02 6.60425E+00 0.00000E+00
 -1       568 1.33035E+02 6.60425E+00 0.00000E+00
 -1       569 1.36035E+02 6.60425E+00 0.00000E+00
 -1       570 1.39035E+02 6.60425E+00 0.00000E+00
 -1       571 1.42035E+02 6.60425E+00 0.00000E+00
 -1       572 1.42206E+02 1.61750E+01 0.00000E+00
 -1       573 1.42206E+02 1.91250E+01 0.00000E+00
 -1       574 1.42206E+02 1.03250E+01 0.00000E+00
 -1       575 1.42206E+02 1.32500E+01 0.00000E+00
 -1       576 1.42206E+02 2.20750E+01 0.00000E+00
 -1       577 1.42206E+02 2.50250E+01 0.00000E+00
 -1       578 1.42206E+02 2.79750E+01 0.00000E+00
 -1       579 1.42206E+02 3.08750E+01 0.00000E+00
 -1       580 1.42206E+02 3.38250E+01 0.00000E+00
 -1       581 1.42206E+02 3.67750E+01 0.00000E+00
 -1       582 1.42206E+02 3.97250E+01 0.00000E+00
 -1       583 3.62069E+01 3.01579E+01 0.00000E+00
 -1       584 1.60350E+01 6.60425E+00 0.00000E+00
 -1       585 3.50005E+01 2.33796E+01 0.00000E+00
 -1       586 3.36537E+01 2.12507E+01 0.00000E+00
 -1       587 7.92300E+00 4.16780E+01 0.00000E+00
 -1       588 3.56523E+01 3.19084E+01 0.00000E+00
 -1       589 2.54205E+01 4.02611E+01 0.00000E+00
 -1       590 7.79400E+00 2.79000E+01 0.00000E+00
 -1       591 2.97033E+01 1.85761E+01 0.00000E+00
 -1       592 1.46241E+01 3.28763E+01 0.00000E+00
 -1       593 2.53603E+01 1.70811E+01 0.00000E+00
 -1       594 2.76114E+01 1.78272E+01 0.00000E+00
 -1       595 2.04240E+01 1.85193E+01 0.00000E+00
 -1       596 1.55721E+01 2.30104E+01 0.00000E+00
 -1       597 1.65563E+01 2.16186E+01 0.00000E+00
 -1       598 1.82887E+01 1.97006E+01 0.00000E+00
 -1       599 1.37483E+01 2.79676E+01 0.00000E+00
 -1       600 3.23756E+01 3.77351E+01 0.00000E+00
 -1       601 1.37879E+01 3.02094E+01 0.00000E+00
 -1       602 1.53981E+01 3.45263E+01 0.00000E+00
 -1       603 1.71953E+01 3.64010E+01 0.00000E+00
 -1       604 1.88935E+01 3.79384E+01 0.00000E+00
 -1       605 2.10350E+01 3.90394E+01 0.00000E+00
 -1       606 2.28885E+01 3.99070E+01 0.00000E+00
 -1       607 2.77578E+01 3.99661E+01 0.00000E+00
 -1       608 2.98470E+01 3.92224E+01 0.00000E+00
 -1       609 3.37084E+01 3.64606E+01 0.00000E+00
 -1       610 3.48778E+01 3.41167E+01 0.00000E+00
 -1       611 3.63235E+01 2.75334E+01 0.00000E+00
 -1       612 7.61550E+00 6.21462E+00 0.00000E+00
 -1       613 3.19679E+01 1.98002E+01 0.00000E+00
 -1       614 7.79400E+00 3.67375E+01 0.00000E+00
 -1       615 1.41678E+02 4.22645E+01 0.00000E+00
 -1       616 1.39790E+01 2.38365E+01 0.00000E+00
 -1       617 1.31155E+01 2.63003E+01 0.00000E+00
 -1       618 1.03470E+01 2.05500E+01 0.00000E+00
 -1       619 1.03470E+01 2.35000E+01 0.00000E+00
 -1       620 1.03920E+01 1.46750E+01 0.00000E+00
 -1       621 1.03920E+01 1.17250E+01 0.00000E+00
 -1       622 1.15350E+01 9.20225E+00 0.00000E+00
 -1       623 1.25695E+01 3.20560E+01 0.00000E+00
 -1       624 3.76614E+01 2.60787E+01 0.00000E+00
 -1       625 3.75646E+01 3.15511E+01 0.00000E+00
 -1       626 3.59182E+01 2.13086E+01 0.00000E+00
 -1       627 1.51500E+01 3.96530E+01 0.00000E+00
 -1       628 3.31500E+01 3.98206E+01 0.00000E+00
 -1       629 3.61500E+01 3.98206E+01 0.00000E+00
 -1       630 3.91500E+01 3.98206E+01 0.00000E+00
 -1       631 4.21500E+01 3.98206E+01 0.00000E+00
 -1       632 4.51500E+01 3.98206E+01 0.00000E+00
 -1       633 4.81500E+01 3.98206E+01 0.00000E+00
 -1       634 5.11500E+01 3.98206E+01 0.00000E+00
 -1       635 5.41500E+01 3.98206E+01 0.00000E+00
 -1       636 5.71500E+01 3.98206E+01 0.00000E+00
 -1       637 6.01500E+01 3.98206E+01 0.00000E+00
 -1       638 6.31500E+01 3.98206E+01 0.00000E+00
 -1       639 6.61500E+01 3.98206E+01 0.00000E+00
 -1       640 6.91500E+01 3.98206E+01 0.00000E+00
 -1       641 7.21500E+01 3.98206E+01 0.00000E+00
 -1       642 7.51500E+01 3.98206E+01 0.00000E+00
 -1       643 7.81500E+01 3.98206E+01 0.00000E+00
 -1       644 8.11500E+01 3.98206E+01 0.00000E+00
 -1       645 8.41500E+01 3.98206E+01 0.00000E+00
 -1       646 8.71500E+01 3.98206E+01 0.00000E+00
 -1       647 9.01500E+01 3.98206E+01 0.00000E+00
 -1       648 9.31500E+01 3.98206E+01 0.00000E+00
 -1       649 9.61500E+01 3.98206E+01 0.00000E+00
 -1       650 9.91500E+01 3.98206E+01 0.00000E+00
 -1       651 1.02150E+02 3.98206E+01 0.00000E+00
 -1       652 1.05150E+02 3.98206E+01 0.00000E+00
 -1       653 1.08150E+02 3.98206E+01 0.00000E+00
 -1       654 1.11150E+02 3.98206E+01 0.00000E+00
 -1       655 1.14150E+02 3.98206E+01 0.00000E+00
 -1       656 1.17150E+02 3.98206E+01 0.00000E+00
 -1       657 1.20150E+02 3.98206E+01 0.00000E+00
 -1       658 1.23150E+02 3.98206E+01 0.00000E+00
 -1       659 1.26150E+02 3.98206E+01 0.00000E+00
 -1       660 1.29150E+02 3.98206E+01 0.00000E+00
 -1       661 1.32150E+02 3.98206E+01 0.00000E+00
 -1       662 1.35150E+02 3.98206E+01 0.00000E+00
 -1       663 1.38150E+02 3.98206E+01 0.00000E+00
 -1       664 1.90267E+01 4.03123E+01 0.00000E+00
 -1       665 3.69951E+01 2.37131E+01 0.00000E+00
 -1       666 2.05350E+01 9.20225E+00 0.00000E+00
 -1       667 2.95350E+01 9.20225E+00 0.00000E+00
 -1       668 3.25350E+01 9.20225E+00 0.00000E+00
 -1       669 3.55350E+01 9.20225E+00 0.00000E+00
 -1       670 3.85350E+01 9.20225E+00 0.00000E+00
 -1       671 4.15350E+01 9.20225E+00 0.00000E+00
 -1       672 4.45350E+01 9.20225E+00 0.00000E+00
 -1       673 4.75350E+01 9.20225E+00 0.00000E+00
 -1       674 5.05350E+01 9.20225E+00 0.00000E+00
 -1       675 5.35350E+01 9.20225E+00 0.00000E+00
 -1       676 5.65350E+01 9.20225E+00 0.00000E+00
 -1       677 5.95350E+01 9.20225E+00 0.00000E+00
 -1       678 6.25350E+01 9.20225E+00 0.00000E+00
 -1       679 6.55350E+01 9.20225E+00 0.00000E+00
 -1       680 6.85350E+01 9.20225E+00 0.00000E+00
 -1       681 7.15350E+01 9.20225E+00 0.00000E+00
 -1       682 7.45350E+01 9.20225E+00 0.00000E+00
 -1       683 7.75350E+01 9.20225E+00 0.00000E+00
 -1       684 8.05350E+01 9.20225E+00 0.00000E+00
 -1       685 8.35350E+01 9.20225E+00 0.00000E+00
 -1       686 8.65350E+01 9.20225E+00 0.00000E+00
 -1       687 8.95350E+01 9.20225E+00 0.00000E+00
 -1       688 9.25350E+01 9.20225E+00 0.00000E+00
 -1       689 9.55350E+01 9.20225E+00 0.00000E+00
 -1       690 9.85350E+01 9.20225E+00 0.00000E+00
 -1       691 1.01535E+02 9.20225E+00 0.00000E+00
 -1       692 1.04535E+02 9.20225E+00 0.00000E+00
 -1       693 1.07535E+02 9.20225E+00 0.00000E+00
 -1       694 1.10535E+02 9.20225E+00 0.00000E+00
 -1       695 1.13535E+02 9.20225E+00 0.00000E+00
 -1       696 1.16535E+02 9.20225E+00 0.00000E+00
 -1       697 1.19535E+02 9.20225E+00 0.00000E+00
 -1       698 1.22535E+02 9.20225E+00 0.00000E+00
 -1       699 1.25535E+02 9.20225E+00 0.00000E+00
 -1       700 1.28535E+02 9.20225E+00 0.00000E+00
 -1       701 1.31535E+02 9.20225E+00 0.00000E+00
 -1       702 1.34535E+02 9.20225E+00 0.00000E+00
 -1       703 1.37535E+02 9.20225E+00 0.00000E+00
 -1       704 1.39870E+02 9.76363E+00 0.00000E+00
 -1       705 1.39608E+02 2.35500E+01 0.00000E+00
 -1       706 1.17181E+01 2.91247E+01 0.00000E+00
 -1       707 1.39608E+02 1.76500E+01 0.00000E+00
 -1       708 1.39608E+02 2.65000E+01 0.00000E+00
 -1       709 1.39608E+02 2.06000E+01 0.00000E+00
 -1       710 1.39608E+02 2.94000E+01 0.00000E+00
 -1       711 1.39608E+02 3.23500E+01 0.00000E+00
 -1       712 1.39608E+02 3.53000E+01 0.00000E+00
 -1       713 1.75350E+01 9.20225E+00 0.00000E+00
 -1       714 3.16511E+01 1.76794E+01 0.00000E+00
 -1       715 1.07220E+01 3.94717E+01 0.00000E+00
 -1       716 1.40178E+02 3.96665E+01 0.00000E+00
 -1       717 2.33183E+01 1.59214E+01 0.00000E+00
 -1       718 1.46638E+01 2.13242E+01 0.00000E+00
 -1       719 2.65350E+01 9.20225E+00 0.00000E+00
 -1       720 2.35350E+01 9.20225E+00 0.00000E+00
 -1       721 1.03920E+01 1.76250E+01 0.00000E+00
 -1       722 3.81461E+01 2.89292E+01 0.00000E+00
 -1       723 1.45350E+01 9.20225E+00 0.00000E+00
 -1       724 1.01794E+01 3.23250E+01 0.00000E+00
 -1       725 3.61277E+01 3.62040E+01 0.00000E+00
 -1       726 2.70781E+01 1.56671E+01 0.00000E+00
 -1       727 1.67808E+01 3.85653E+01 0.00000E+00
 -1       728 3.67901E+01 3.37595E+01 0.00000E+00
 -1       729 1.83638E+01 1.73160E+01 0.00000E+00
 -1       730 1.61498E+01 1.95099E+01 0.00000E+00
 -1       731 1.34583E+01 3.44296E+01 0.00000E+00
 -1       732 2.93214E+01 4.10522E+01 0.00000E+00
 -1       733 1.49377E+01 3.67665E+01 0.00000E+00
 -1       734 2.09524E+01 1.62312E+01 0.00000E+00
 -1       735 3.42573E+01 1.88443E+01 0.00000E+00
 -1       736 3.43431E+01 3.84585E+01 0.00000E+00
 -1       737 2.91699E+01 1.64160E+01 0.00000E+00
 -1       738 1.01794E+01 3.52625E+01 0.00000E+00
 -1       739 1.03470E+01 2.64500E+01 0.00000E+00
 -1       740 1.00650E+01 2.98437E+01 0.00000E+00
 -1       741 2.11500E+01 4.03233E+01 0.00000E+00
 -1       742 1.39870E+02 1.26886E+01 0.00000E+00
 -1       743 2.50362E+01 1.45073E+01 0.00000E+00
 -1       744 1.38879E+02 3.75603E+01 0.00000E+00
 -1       745 1.39739E+02 1.51693E+01 0.00000E+00
 -1       746 1.29900E+01 1.32000E+01 0.00000E+00
 -1       747 2.88151E+01 1.41112E+01 0.00000E+00
 -1       748 1.37010E+02 2.79500E+01 0.00000E+00
 -1       749 3.15548E+01 4.07034E+01 0.00000E+00
 -1       750 4.06500E+01 3.72226E+01 0.00000E+00
 -1       751 4.36500E+01 3.72226E+01 0.00000E+00
 -1       752 4.66500E+01 3.72226E+01 0.00000E+00
 -1       753 4.96500E+01 3.72226E+01 0.00000E+00
 -1       754 5.26500E+01 3.72226E+01 0.00000E+00
 -1       755 5.56500E+01 3.72226E+01 0.00000E+00
 -1       756 5.86500E+01 3.72226E+01 0.00000E+00
 -1       757 6.16500E+01 3.72226E+01 0.00000E+00
 -1       758 6.46500E+01 3.72226E+01 0.00000E+00
 -1       759 6.76500E+01 3.72226E+01 0.00000E+00
 -1       760 7.06500E+01 3.72226E+01 0.00000E+00
 -1       761 7.36500E+01 3.72226E+01 0.00000E+00
 -1       762 7.66500E+01 3.72226E+01 0.00000E+00
 -1       763 7.96500E+01 3.72226E+01 0.00000E+00
 -1       764 8.26500E+01 3.72226E+01 0.00000E+00
 -1       765 8.56500E+01 3.72226E+01 0.00000E+00
 -1       766 8.86500E+01 3.72226E+01 0.00000E+00
 -1       767 9.16500E+01 3.72226E+01 0.00000E+00
 -1       768 9.46500E+01 3.72226E+01 0.00000E+00
 -1       769 9.76500E+01 3.72226E+01 0.00000E+00
 -1       770 1.00650E+02 3.72226E+01 0.00000E+00
 -1       771 1.03650E+02 3.72226E+01 0.00000E+00
 -1       772 1.06650E+02 3.72226E+01 0.00000E+00
 -1       773 1.09650E+02 3.72226E+01 0.00000E+00
 -1       774 1.12650E+02 3.72226E+01 0.00000E+00
 -1       775 1.15650E+02 3.72226E+01 0.00000E+00
 -1       776 1.18650E+02 3.72226E+01 0.00000E+00
 -1       777 1.21650E+02 3.72226E+01 0.00000E+00
 -1       778 1.24650E+02 3.72226E+01 0.00000E+00
 -1       779 1.27650E+02 3.72226E+01 0.00000E+00
 -1       780 1.30650E+02 3.72226E+01 0.00000E+00
 -1       781 1.33650E+02 3.72226E+01 0.00000E+00
 -1       782 1.36264E+02 3.73915E+01 0.00000E+00
 -1       783 3.87958E+01 3.32229E+01 0.00000E+00
 -1       784 3.10350E+01 1.17552E+01 0.00000E+00
 -1       785 4.00350E+01 1.18003E+01 0.00000E+00
 -1       786 4.30350E+01 1.18003E+01 0.00000E+00
 -1       787 4.60350E+01 1.18003E+01 0.00000E+00
 -1       788 4.90350E+01 1.18003E+01 0.00000E+00
 -1       789 5.20350E+01 1.18003E+01 0.00000E+00
 -1       790 5.50350E+01 1.18003E+01 0.00000E+00
 -1       791 5.80350E+01 1.18003E+01 0.00000E+00
 -1       792 6.10350E+01 1.18003E+01 0.00000E+00
 -1       793 6.40350E+01 1.18003E+01 0.00000E+00
 -1       794 6.70350E+01 1.18003E+01 0.00000E+00
 -1       795 7.00350E+01 1.18003E+01 0.00000E+00
 -1       796 7.30350E+01 1.18003E+01 0.00000E+00
 -1       797 7.60350E+01 1.18003E+01 0.00000E+00
 -1       798 7.90350E+01 1.18003E+01 0.00000E+00
 -1       799 8.20350E+01 1.18003E+01 0.00000E+00
 -1       800 8.50350E+01 1.18003E+01 0.00000E+00
 -1       801 8.80350E+01 1.18003E+01 0.00000E+00
 -1       802 9.10350E+01 1.18003E+01 0.00000E+00
 -1       803 9.40350E+01 1.18003E+01 0.00000E+00
 -1       804 9.70350E+01 1.18003E+01 0.00000E+00
 -1       805 1.00035E+02 1.18003E+01 0.00000E+00
 -1       806 1.03035E+02 1.18003E+01 0.00000E+00
 -1       807 1.06035E+02 1.18003E+01 0.00000E+00
 -1       808 1.09035E+02 1.18003E+01 0.00000E+00
 -1       809 1.12035E+02 1.18003E+01 0.00000E+00
 -1       810 1.15035E+02 1.18003E+01 0.00000E+00
 -1       811 1.18035E+02 1.18003E+01 0.00000E+00
 -1       812 1.21035E+02 1.18003E+01 0.00000E+00
 -1       813 1.24035E+02 1.18003E+01 0.00000E+00
 -1       814 1.27035E+02 1.18003E+01 0.00000E+00
 -1       815 1.30035E+02 1.18003E+01 0.00000E+00
 -1       816 1.33035E+02 1.18003E+01 0.00000E+00
 -1       817 1.36035E+02 1.18003E+01 0.00000E+00
 -1       818 1.37953E+02 1.22444E+01 0.00000E+00
 -1       819 3.97598E+01 2.71884E+01 0.00000E+00
 -1       820 1.37010E+02 3.38250E+01 0.00000E+00
 -1       821 1.17180E+01 2.67649E+01 0.00000E+00
 -1       822 3.81334E+01 3.56675E+01 0.00000E+00
 -1       823 1.37010E+02 2.50000E+01 0.00000E+00
 -1       824 3.12963E+01 1.53746E+01 0.00000E+00
 -1       825 1.90350E+01 1.18003E+01 0.00000E+00
 -1       826 1.37010E+02 3.08875E+01 0.00000E+00
 -1       827 3.70350E+01 1.18003E+01 0.00000E+00
 -1       828 3.40350E+01 1.18003E+01 0.00000E+00
 -1       829 3.96934E+01 3.06478E+01 0.00000E+00
 -1       830 1.25050E+01 2.20852E+01 0.00000E+00
 -1       831 3.21508E+01 4.02459E+01 0.00000E+00
 -1       832 1.29900E+01 1.61500E+01 0.00000E+00
 -1       833 3.89792E+01 2.44309E+01 0.00000E+00
 -1       834 3.71417E+01 3.77440E+01 0.00000E+00
 -1       835 1.21825E+01 3.68740E+01 0.00000E+00
 -1       836 1.88657E+01 1.48827E+01 0.00000E+00
 -1       837 3.38593E+01 1.62371E+01 0.00000E+00
 -1       838 2.20350E+01 1.18003E+01 0.00000E+00
 -1       839 1.18188E+01 3.48461E+01 0.00000E+00
 -1       840 3.81749E+01 2.17413E+01 0.00000E+00
 -1       841 1.37625E+01 1.12011E+01 0.00000E+00
 -1       842 3.69269E+01 1.88369E+01 0.00000E+00
 -1       843 1.56957E+01 1.68376E+01 0.00000E+00
 -1       844 1.39503E+01 1.92242E+01 0.00000E+00
 -1       845 2.18474E+01 1.38773E+01 0.00000E+00
 -1       846 1.37010E+02 2.20500E+01 0.00000E+00
 -1       847 1.37010E+02 1.91000E+01 0.00000E+00
 -1       848 1.63988E+01 1.15007E+01 0.00000E+00
 -1       849 2.53066E+01 1.24347E+01 0.00000E+00
 -1       850 4.13071E+01 2.89069E+01 0.00000E+00
 -1       851 1.37141E+02 1.66193E+01 0.00000E+00
 -1       852 1.61976E+01 1.44043E+01 0.00000E+00
 -1       853 3.65288E+01 1.62297E+01 0.00000E+00
 -1       854 1.36637E+02 3.56082E+01 0.00000E+00
 -1       855 1.37547E+02 1.44319E+01 0.00000E+00
 -1       856 4.21500E+01 3.46246E+01 0.00000E+00
 -1       857 4.51500E+01 3.46246E+01 0.00000E+00
 -1       858 4.81500E+01 3.46246E+01 0.00000E+00
 -1       859 5.11500E+01 3.46246E+01 0.00000E+00
 -1       860 5.41500E+01 3.46246E+01 0.00000E+00
 -1       861 5.71500E+01 3.46246E+01 0.00000E+00
 -1       862 6.01500E+01 3.46246E+01 0.00000E+00
 -1       863 6.31500E+01 3.46246E+01 0.00000E+00
 -1       864 6.61500E+01 3.46246E+01 0.00000E+00
 -1       865 6.91500E+01 3.46246E+01 0.00000E+00
 -1       866 7.21500E+01 3.46246E+01 0.00000E+00
 -1       867 7.51500E+01 3.46246E+01 0.00000E+00
 -1       868 7.81500E+01 3.46246E+01 0.00000E+00
 -1       869 8.11500E+01 3.46246E+01 0.00000E+00
 -1       870 8.41500E+01 3.46246E+01 0.00000E+00
 -1       871 8.71500E+01 3.46246E+01 0.00000E+00
 -1       872 9.01500E+01 3.46246E+01 0.00000E+00
 -1       873 9.31500E+01 3.46246E+01 0.00000E+00
 -1       874 9.61500E+01 3.46246E+01 0.00000E+00
 -1       875 9.91500E+01 3.46246E+01 0.00000E+00
 -1       876 1.02150E+02 3.46246E+01 0.00000E+00
 -1       877 1.05150E+02 3.46246E+01 0.00000E+00
 -1       878 1.08150E+02 3.46246E+01 0.00000E+00
 -1       879 1.11150E+02 3.46246E+01 0.00000E+00
 -1       880 1.14150E+02 3.46246E+01 0.00000E+00
 -1       881 1.17150E+02 3.46246E+01 0.00000E+00
 -1       882 1.20150E+02 3.46246E+01 0.00000E+00
 -1       883 1.23150E+02 3.46246E+01 0.00000E+00
 -1       884 1.26150E+02 3.46246E+01 0.00000E+00
 -1       885 1.29150E+02 3.46246E+01 0.00000E+00
 -1       886 1.32150E+02 3.46246E+01 0.00000E+00
 -1       887 4.75350E+01 1.43982E+01 0.00000E+00
 -1       888 4.45350E+01 1.43982E+01 0.00000E+00
 -1       889 4.15350E+01 1.43982E+01 0.00000E+00
 -1       890 5.05350E+01 1.43982E+01 0.00000E+00
 -1       891 5.35350E+01 1.43982E+01 0.00000E+00
 -1       892 5.65350E+01 1.43982E+01 0.00000E+00
 -1       893 5.95350E+01 1.43982E+01 0.00000E+00
 -1       894 6.25350E+01 1.43982E+01 0.00000E+00
 -1       895 6.55350E+01 1.43982E+01 0.00000E+00
 -1       896 6.85350E+01 1.43982E+01 0.00000E+00
 -1       897 7.15350E+01 1.43982E+01 0.00000E+00
 -1       898 7.45350E+01 1.43982E+01 0.00000E+00
 -1       899 7.75350E+01 1.43982E+01 0.00000E+00
 -1       900 8.05350E+01 1.43982E+01 0.00000E+00
 -1       901 8.35350E+01 1.43982E+01 0.00000E+00
 -1       902 8.65350E+01 1.43982E+01 0.00000E+00
 -1       903 8.95350E+01 1.43982E+01 0.00000E+00
 -1       904 9.25350E+01 1.43982E+01 0.00000E+00
 -1       905 9.55350E+01 1.43982E+01 0.00000E+00
 -1       906 9.85350E+01 1.43982E+01 0.00000E+00
 -1       907 1.01535E+02 1.43982E+01 0.00000E+00
 -1       908 1.04535E+02 1.43982E+01 0.00000E+00
 -1       909 1.07535E+02 1.43982E+01 0.00000E+00
 -1       910 1.10535E+02 1.43982E+01 0.00000E+00
 -1       911 1.13535E+02 1.43982E+01 0.00000E+00
 -1       912 1.16535E+02 1.43982E+01 0.00000E+00
 -1       913 1.19535E+02 1.43982E+01 0.00000E+00
 -1       914 1.22535E+02 1.43982E+01 0.00000E+00
 -1       915 1.25535E+02 1.43982E+01 0.00000E+00
 -1       916 1.28535E+02 1.43982E+01 0.00000E+00
 -1       917 1.31535E+02 1.43982E+01 0.00000E+00
 -1       918 1.34535E+02 1.43982E+01 0.00000E+00
 -1       919 1.34412E+02 2.64750E+01 0.00000E+00
 -1       920 4.07019E+01 2.24507E+01 0.00000E+00
 -1       921 4.14825E+01 2.52082E+01 0.00000E+00
 -1       922 3.90319E+01 1.53140E+01 0.00000E+00
 -1       923 3.95885E+01 1.94135E+01 0.00000E+00
 -1       924 4.30298E+01 2.69267E+01 0.00000E+00
 -1       925 4.22496E+01 3.13990E+01 0.00000E+00
 -1       926 1.34394E+02 3.51164E+01 0.00000E+00
 -1       927 1.34412E+02 2.94125E+01 0.00000E+00
 -1       928 1.34412E+02 2.05750E+01 0.00000E+00
 -1       929 1.34412E+02 2.35250E+01 0.00000E+00
 -1       930 1.34543E+02 1.80943E+01 0.00000E+00
 -1       931 3.93102E+01 1.73638E+01 0.00000E+00
 -1       932 1.34580E+02 3.27561E+01 0.00000E+00
 -1       933 4.39723E+01 2.94188E+01 0.00000E+00
 -1       934 4.60350E+01 1.69963E+01 0.00000E+00
 -1       935 4.66500E+01 3.20266E+01 0.00000E+00
 -1       936 4.96500E+01 3.20266E+01 0.00000E+00
 -1       937 5.26500E+01 3.20266E+01 0.00000E+00
 -1       938 5.56500E+01 3.20266E+01 0.00000E+00
 -1       939 5.86500E+01 3.20266E+01 0.00000E+00
 -1       940 6.16500E+01 3.20266E+01 0.00000E+00
 -1       941 6.46500E+01 3.20266E+01 0.00000E+00
 -1       942 6.76500E+01 3.20266E+01 0.00000E+00
 -1       943 7.06500E+01 3.20266E+01 0.00000E+00
 -1       944 7.36500E+01 3.20266E+01 0.00000E+00
 -1       945 7.66500E+01 3.20266E+01 0.00000E+00
 -1       946 7.96500E+01 3.20266E+01 0.00000E+00
 -1       947 8.26500E+01 3.20266E+01 0.00000E+00
 -1       948 8.56500E+01 3.20266E+01 0.00000E+00
 -1       949 8.86500E+01 3.20266E+01 0.00000E+00
 -1       950 9.16500E+01 3.20266E+01 0.00000E+00
 -1       951 9.46500E+01 3.20266E+01 0.00000E+00
 -1       952 9.76500E+01 3.20266E+01 0.00000E+00
 -1       953 1.00650E+02 3.20266E+01 0.00000E+00
 -1       954 1.03650E+02 3.20266E+01 0.00000E+00
 -1       955 1.06650E+02 3.20266E+01 0.00000E+00
 -1       956 1.09650E+02 3.20266E+01 0.00000E+00
 -1       957 1.12650E+02 3.20266E+01 0.00000E+00
 -1       958 1.15650E+02 3.20266E+01 0.00000E+00
 -1       959 1.18650E+02 3.20266E+01 0.00000E+00
 -1       960 1.21650E+02 3.20266E+01 0.00000E+00
 -1       961 1.24650E+02 3.20266E+01 0.00000E+00
 -1       962 1.27650E+02 3.20266E+01 0.00000E+00
 -1       963 1.30650E+02 3.20266E+01 0.00000E+00
 -1       964 5.20350E+01 1.69963E+01 0.00000E+00
 -1       965 4.90350E+01 1.69963E+01 0.00000E+00
 -1       966 4.30350E+01 1.69963E+01 0.00000E+00
 -1       967 5.50350E+01 1.69963E+01 0.00000E+00
 -1       968 5.80350E+01 1.69963E+01 0.00000E+00
 -1       969 6.10350E+01 1.69963E+01 0.00000E+00
 -1       970 6.40350E+01 1.69963E+01 0.00000E+00
 -1       971 6.70350E+01 1.69963E+01 0.00000E+00
 -1       972 7.00350E+01 1.69963E+01 0.00000E+00
 -1       973 7.30350E+01 1.69963E+01 0.00000E+00
 -1       974 7.60350E+01 1.69963E+01 0.00000E+00
 -1       975 7.90350E+01 1.69963E+01 0.00000E+00
 -1       976 8.20350E+01 1.69963E+01 0.00000E+00
 -1       977 8.50350E+01 1.69963E+01 0.00000E+00
 -1       978 8.80350E+01 1.69963E+01 0.00000E+00
 -1       979 9.10350E+01 1.69963E+01 0.00000E+00
 -1       980 9.40350E+01 1.69963E+01 0.00000E+00
 -1       981 9.70350E+01 1.69963E+01 0.00000E+00
 -1       982 1.00035E+02 1.69963E+01 0.00000E+00
 -1       983 1.03035E+02 1.69963E+01 0.00000E+00
 -1       984 1.06035E+02 1.69963E+01 0.00000E+00
 -1       985 1.09035E+02 1.69963E+01 0.00000E+00
 -1       986 1.12035E+02 1.69963E+01 0.00000E+00
 -1       987 1.15035E+02 1.69963E+01 0.00000E+00
 -1       988 1.18035E+02 1.69963E+01 0.00000E+00
 -1       989 1.21035E+02 1.69963E+01 0.00000E+00
 -1       990 1.24035E+02 1.69963E+01 0.00000E+00
 -1       991 1.27035E+02 1.69963E+01 0.00000E+00
 -1       992 1.30035E+02 1.69963E+01 0.00000E+00
 -1       993 4.33874E+01 2.31797E+01 0.00000E+00
 -1       994 4.45612E+01 3.20217E+01 0.00000E+00
 -1       995 4.25845E+01 2.00380E+01 0.00000E+00
 -1       996 1.31814E+02 2.20500E+01 0.00000E+00
 -1       997 1.33035E+02 1.69963E+01 0.00000E+00
 -1       998 1.31814E+02 2.50000E+01 0.00000E+00
 -1       999 1.31945E+02 1.95693E+01 0.00000E+00
 -1      1000 1.31814E+02 2.79375E+01 0.00000E+00
 -1      1001 4.49347E+01 2.48982E+01 0.00000E+00
 -1      1002 4.55845E+01 2.00380E+01 0.00000E+00
 -1      1003 5.11500E+01 2.94286E+01 0.00000E+00
 -1      1004 5.41500E+01 2.94286E+01 0.00000E+00
 -1      1005 5.71500E+01 2.94286E+01 0.00000E+00
 -1      1006 6.01500E+01 2.94286E+01 0.00000E+00
 -1      1007 6.31500E+01 2.94286E+01 0.00000E+00
 -1      1008 6.61500E+01 2.94286E+01 0.00000E+00
 -1      1009 6.91500E+01 2.94286E+01 0.00000E+00
 -1      1010 7.21500E+01 2.94286E+01 0.00000E+00
 -1      1011 7.51500E+01 2.94286E+01 0.00000E+00
 -1      1012 7.81500E+01 2.94286E+01 0.00000E+00
 -1      1013 8.11500E+01 2.94286E+01 0.00000E+00
 -1      1014 8.41500E+01 2.94286E+01 0.00000E+00
 -1      1015 8.71500E+01 2.94286E+01 0.00000E+00
 -1      1016 9.01500E+01 2.94286E+01 0.00000E+00
 -1      1017 9.31500E+01 2.94286E+01 0.00000E+00
 -1      1018 9.61500E+01 2.94286E+01 0.00000E+00
 -1      1019 9.91500E+01 2.94286E+01 0.00000E+00
 -1      1020 1.02150E+02 2.94286E+01 0.00000E+00
 -1      1021 1.05150E+02 2.94286E+01 0.00000E+00
 -1      1022 1.08150E+02 2.94286E+01 0.00000E+00
 -1      1023 1.11150E+02 2.94286E+01 0.00000E+00
 -1      1024 1.14150E+02 2.94286E+01 0.00000E+00
 -1      1025 1.17150E+02 2.94286E+01 0.00000E+00
 -1      1026 1.20150E+02 2.94286E+01 0.00000E+00
 -1      1027 1.23150E+02 2.94286E+01 0.00000E+00
 -1      1028 1.26150E+02 2.94286E+01 0.00000E+00
 -1      1029 1.29150E+02 2.94286E+01 0.00000E+00
 -1      1030 5.65350E+01 1.95942E+01 0.00000E+00
 -1      1031 5.95350E+01 1.95942E+01 0.00000E+00
 -1      1032 6.25350E+01 1.95942E+01 0.00000E+00
 -1      1033 6.55350E+01 1.95942E+01 0.00000E+00
 -1      1034 6.85350E+01 1.95942E+01 0.00000E+00
 -1      1035 7.15350E+01 1.95942E+01 0.00000E+00
 -1      1036 7.45350E+01 1.95942E+01 0.00000E+00
 -1      1037 7.75350E+01 1.95942E+01 0.00000E+00
 -1      1038 8.05350E+01 1.95942E+01 0.00000E+00
 -1      1039 8.35350E+01 1.95942E+01 0.00000E+00
 -1      1040 8.65350E+01 1.95942E+01 0.00000E+00
 -1      1041 8.95350E+01 1.95942E+01 0.00000E+00
 -1      1042 9.25350E+01 1.95942E+01 0.00000E+00
 -1      1043 9.55350E+01 1.95942E+01 0.00000E+00
 -1      1044 9.85350E+01 1.95942E+01 0.00000E+00
 -1      1045 1.01535E+02 1.95942E+01 0.00000E+00
 -1      1046 1.04535E+02 1.95942E+01 0.00000E+00
 -1      1047 1.07535E+02 1.95942E+01 0.00000E+00
 -1      1048 1.10535E+02 1.95942E+01 0.00000E+00
 -1      1049 1.13535E+02 1.95942E+01 0.00000E+00
 -1      1050 1.16535E+02 1.95942E+01 0.00000E+00
 -1      1051 1.19535E+02 1.95942E+01 0.00000E+00
 -1      1052 1.22535E+02 1.95942E+01 0.00000E+00
 -1      1053 1.25535E+02 1.95942E+01 0.00000E+00
 -1      1054 1.28535E+02 1.95942E+01 0.00000E+00
 -1      1055 4.60612E+01 2.94237E+01 0.00000E+00
 -1      1056 4.54979E+01 2.71610E+01 0.00000E+00
 -1      1057 5.35350E+01 1.95942E+01 0.00000E+00
 -1      1058 1.29216E+02 2.35250E+01 0.00000E+00
 -1      1059 4.86056E+01 2.94262E+01 0.00000E+00
 -1      1060 4.85845E+01 2.00380E+01 0.00000E+00
 -1      1061 5.10597E+01 1.98161E+01 0.00000E+00
 -1      1062 4.67596E+01 2.24681E+01 0.00000E+00
 -1      1063 1.29183E+02 2.64768E+01 0.00000E+00
 -1      1064 5.26500E+01 2.68306E+01 0.00000E+00
 -1      1065 5.56500E+01 2.68306E+01 0.00000E+00
 -1      1066 5.86500E+01 2.68306E+01 0.00000E+00
 -1      1067 6.16500E+01 2.68306E+01 0.00000E+00
 -1      1068 6.46500E+01 2.68306E+01 0.00000E+00
 -1      1069 6.76500E+01 2.68306E+01 0.00000E+00
 -1      1070 7.06500E+01 2.68306E+01 0.00000E+00
 -1      1071 7.36500E+01 2.68306E+01 0.00000E+00
 -1      1072 7.66500E+01 2.68306E+01 0.00000E+00
 -1      1073 7.96500E+01 2.68306E+01 0.00000E+00
 -1      1074 8.26500E+01 2.68306E+01 0.00000E+00
 -1      1075 8.56500E+01 2.68306E+01 0.00000E+00
 -1      1076 8.86500E+01 2.68306E+01 0.00000E+00
 -1      1077 9.16500E+01 2.68306E+01 0.00000E+00
 -1      1078 9.46500E+01 2.68306E+01 0.00000E+00
 -1      1079 9.76500E+01 2.68306E+01 0.00000E+00
 -1      1080 1.00650E+02 2.68306E+01 0.00000E+00
 -1      1081 1.03650E+02 2.68306E+01 0.00000E+00
 -1      1082 1.06650E+02 2.68306E+01 0.00000E+00
 -1      1083 1.09650E+02 2.68306E+01 0.00000E+00
 -1      1084 1.12650E+02 2.68306E+01 0.00000E+00
 -1      1085 1.15650E+02 2.68306E+01 0.00000E+00
 -1      1086 1.18650E+02 2.68306E+01 0.00000E+00
 -1      1087 1.21650E+02 2.68306E+01 0.00000E+00
 -1      1088 1.24650E+02 2.68306E+01 0.00000E+00
 -1      1089 1.26916E+02 2.66537E+01 0.00000E+00
 -1      1090 6.10350E+01 2.21922E+01 0.00000E+00
 -1      1091 5.80350E+01 2.21922E+01 0.00000E+00
 -1      1092 6.70350E+01 2.21922E+01 0.00000E+00
 -1      1093 7.00350E+01 2.21922E+01 0.00000E+00
 -1      1094 7.30350E+01 2.21922E+01 0.00000E+00
 -1      1095 7.60350E+01 2.21922E+01 0.00000E+00
 -1      1096 7.90350E+01 2.21922E+01 0.00000E+00
 -1      1097 8.20350E+01 2.21922E+01 0.00000E+00
 -1      1098 8.50350E+01 2.21922E+01 0.00000E+00
 -1      1099 8.80350E+01 2.21922E+01 0.00000E+00
 -1      1100 9.10350E+01 2.21922E+01 0.00000E+00
 -1      1101 9.40350E+01 2.21922E+01 0.00000E+00
 -1      1102 9.70350E+01 2.21922E+01 0.00000E+00
 -1      1103 1.00035E+02 2.21922E+01 0.00000E+00
 -1      1104 1.03035E+02 2.21922E+01 0.00000E+00
 -1      1105 1.06035E+02 2.21922E+01 0.00000E+00
 -1      1106 1.09035E+02 2.21922E+01 0.00000E+00
 -1      1107 1.12035E+02 2.21922E+01 0.00000E+00
 -1      1108 1.15035E+02 2.21922E+01 0.00000E+00
 -1      1109 1.18035E+02 2.21922E+01 0.00000E+00
 -1      1110 1.21035E+02 2.21922E+01 0.00000E+00
 -1      1111 1.24035E+02 2.21922E+01 0.00000E+00
 -1      1112 1.26626E+02 2.28586E+01 0.00000E+00
 -1      1113 5.50350E+01 2.21922E+01 0.00000E+00
 -1      1114 6.40350E+01 2.21922E+01 0.00000E+00
 -1      1115 4.80423E+01 2.71634E+01 0.00000E+00
 -1      1116 1.26771E+02 2.47562E+01 0.00000E+00
 -1      1117 5.25597E+01 2.24141E+01 0.00000E+00
 -1      1118 4.74791E+01 2.49007E+01 0.00000E+00
 -1      1119 5.03462E+01 2.69970E+01 0.00000E+00
 -1      1120 5.71500E+01 2.42326E+01 0.00000E+00
 -1      1121 4.93040E+01 2.24705E+01 0.00000E+00
 -1      1122 5.03010E+01 2.47888E+01 0.00000E+00
 -1      1123 0.00000E+00 4.85250E+01 0.00000E+00
 -1      1124 0.00000E+00 4.55750E+01 0.00000E+00
 -1      1125 0.00000E+00 4.26250E+01 0.00000E+00
 -1      1126 0.00000E+00 3.96750E+01 0.00000E+00
 -1      1127 0.00000E+00 3.67250E+01 0.00000E+00
 -1      1128 0.00000E+00 3.38000E+01 0.00000E+00
 -1      1129 0.00000E+00 3.08750E+01 0.00000E+00
 -1      1130 0.00000E+00 2.79250E+01 0.00000E+00
 -1      1131 0.00000E+00 2.49750E+01 0.00000E+00
 -1      1132 0.00000E+00 2.20250E+01 0.00000E+00
 -1      1133 0.00000E+00 1.90750E+01 0.00000E+00
 -1      1134 0.00000E+00 1.61500E+01 0.00000E+00
 -1      1135 0.00000E+00 1.32250E+01 0.00000E+00
 -1      1136 0.00000E+00 1.02750E+01 0.00000E+00
 -1      1137 0.00000E+00 7.32500E+00 0.00000E+00
 -1      1138 0.00000E+00 4.37500E+00 0.00000E+00
 -1      1139 0.00000E+00 1.45000E+00 0.00000E+00
 -1      1140 1.57500E+00 5.00000E+01 0.00000E+00
 -1      1141 4.65000E+00 5.00000E+01 0.00000E+00
 -1      1142 7.65000E+00 5.00000E+01 0.00000E+00
 -1      1143 1.06500E+01 5.00000E+01 0.00000E+00
 -1      1144 1.36500E+01 5.00000E+01 0.00000E+00
 -1      1145 1.66500E+01 5.00000E+01 0.00000E+00
 -1      1146 1.96500E+01 5.00000E+01 0.00000E+00
 -1      1147 2.26500E+01 5.00000E+01 0.00000E+00
 -1      1148 2.56500E+01 5.00000E+01 0.00000E+00
 -1      1149 2.86500E+01 5.00000E+01 0.00000E+00
 -1      1150 3.16500E+01 5.00000E+01 0.00000E+00
 -1      1151 3.46500E+01 5.00000E+01 0.00000E+00
 -1      1152 3.76500E+01 5.00000E+01 0.00000E+00
 -1      1153 4.06500E+01 5.00000E+01 0.00000E+00
 -1      1154 4.36500E+01 5.00000E+01 0.00000E+00
 -1      1155 4.66500E+01 5.00000E+01 0.00000E+00
 -1      1156 4.96500E+01 5.00000E+01 0.00000E+00
 -1      1157 5.26500E+01 5.00000E+01 0.00000E+00
 -1      1158 5.56500E+01 5.00000E+01 0.00000E+00
 -1      1159 5.86500E+01 5.00000E+01 0.00000E+00
 -1      1160 6.16500E+01 5.00000E+01 0.00000E+00
 -1      1161 6.46500E+01 5.00000E+01 0.00000E+00
 -1      1162 6.76500E+01 5.00000E+01 0.00000E+00
 -1      1163 7.06500E+01 5.00000E+01 0.00000E+00
 -1      1164 7.36500E+01 5.00000E+01 0.00000E+00
 -1      1165 7.66500E+01 5.00000E+01 0.00000E+00
 -1      1166 7.96500E+01 5.00000E+01 0.00000E+00
 -1      1167 8.26500E+01 5.00000E+01 0.00000E+00
 -1      1168 8.56500E+01 5.00000E+01 0.00000E+00
 -1      1169 8.86500E+01 5.00000E+01 0.00000E+00
 -1      1170 9.16500E+01 5.00000E+01 0.00000E+00
 -1      1171 9.46500E+01 5.00000E+01 0.00000E+00
 -1      1172 9.76500E+01 5.00000E+01 0.00000E+00
 -1      1173 1.00650E+02 5.00000E+01 0.00000E+00
 -1      1174 1.03650E+02 5.00000E+01 0.00000E+00
 -1      1175 1.06650E+02 5.00000E+01 0.00000E+00
 -1      1176 1.09650E+02 5.00000E+01 0.00000E+00
 -1      1177 1.12650E+02 5.00000E+01 0.00000E+00
 -1      1178 1.15650E+02 5.00000E+01 0.00000E+00
 -1      1179 1.18650E+02 5.00000E+01 0.00000E+00
 -1      1180 1.21650E+02 5.00000E+01 0.00000E+00
 -1      1181 1.24650E+02 5.00000E+01 0.00000E+00
 -1      1182 1.27650E+02 5.00000E+01 0.00000E+00
 -1      1183 1.30650E+02 5.00000E+01 0.00000E+00
 -1      1184 1.33650E+02 5.00000E+01 0.00000E+00
 -1      1185 1.36650E+02 5.00000E+01 0.00000E+00
 -1      1186 1.39650E+02 5.00000E+01 0.00000E+00
 -1      1187 1.42650E+02 5.00000E+01 0.00000E+00
 -1      1188 1.45650E+02 5.00000E+01 0.00000E+00
 -1      1189 1.48575E+02 5.00000E+01 0.00000E+00
 -1      1190 1.57500E+00 0.00000E+00 0.00000E+00
 -1      1191 4.65000E+00 0.00000E+00 0.00000E+00
 -1      1192 7.65000E+00 0.00000E+00 0.00000E+00
 -1      1193 1.06500E+01 0.00000E+00 0.00000E+00
 -1      1194 1.36500E+01 0.00000E+00 0.00000E+00
 -1      1195 1.66500E+01 0.00000E+00 0.00000E+00
 -1      1196 1.96500E+01 0.00000E+00 0.00000E+00
 -1      1197 2.26500E+01 0.00000E+00 0.00000E+00
 -1      1198 2.56500E+01 0.00000E+00 0.00000E+00
 -1      1199 2.86500E+01 0.00000E+00 0.00000E+00
 -1      1200 3.16500E+01 0.00000E+00 0.00000E+00
 -1      1201 3.46500E+01 0.00000E+00 0.00000E+00
 -1      1202 3.76500E+01 0.00000E+00 0.00000E+00
 -1      1203 4.06500E+01 0.00000E+00 0.00000E+00
 -1      1204 4.36500E+01 0.00000E+00 0.00000E+00
 -1      1205 4.66500E+01 0.00000E+00 0.00000E+00
 -1      1206 4.96500E+01 0.00000E+00 0.00000E+00
 -1      1207 5.26500E+01 0.00000E+00 0.00000E+00
 -1      1208 5.56500E+01 0.00000E+00 0.00000E+00
 -1      1209 5.86500E+01 0.00000E+00 0.00000E+00
 -1      1210 6.16500E+01 0.00000E+00 0.00000E+00
 -1      1211 6.46500E+01 0.00000E+00 0.00000E+00
 -1      1212 6.76500E+01 0.00000E+00 0.00000E+00
 -1      1213 7.06500E+01 0.00000E+00 0.00000E+00
 -1      1214 7.36500E+01 0.00000E+00 0.00000E+00
 -1      1215 7.66500E+01 0.00000E+00 0.00000E+00
 -1      1216 7.96500E+01 0.00000E+00 0.00000E+00
 -1      1217 8.26500E+01 0.00000E+00 0.00000E+00
 -1      1218 8.56500E+01 0.00000E+00 0.00000E+00
 -1      1219 8.86500E+01 0.00000E+00 0.00000E+00
 -1      1220 9.16500E+01 0.00000E+00 0.00000E+00
 -1      1221 9.46500E+01 0.00000E+00 0.00000E+00
 -1      1222 9.76500E+01 0.00000E+00 0.00000E+00
 -1      1223 1.00650E+02 0.00000E+00 0.00000E+00
 -1      1224 1.03650E+02 0.00000E+00 0.00000E+00
 -1      1225 1.06650E+02 0.00000E+00 0.00000E+00
 -1      1226 1.09650E+02 0.00000E+00 0.00000E+00
 -1      1227 1.12650E+02 0.00000E+00 0.00000E+00
 -1      1228 1.15650E+02 0.00000E+00 0.00000E+00
 -1      1229 1.18650E+02 0.00000E+00 0.00000E+00
 -1      1230 1.21650E+02 0.00000E+00 0.00000E+00
 -1      1231 1.24650E+02 0.00000E+00 0.00000E+00
 -1      1232 1.27650E+02 0.00000E+00 0.00000E+00
 -1      1233 1.30650E+02 0.00000E+00 0.00000E+00
 -1      1234 1.33650E+02 0.00000E+00 0.00000E+00
 -1      1235 1.36650E+02 0.00000E+00 0.00000E+00
 -1      1236 1.39650E+02 0.00000E+00 0.00000E+00
 -1      1237 1.42650E+02 0.00000E+00 0.00000E+00
 -1      1238 1.45650E+02 0.00000E+00 0.00000E+00
 -1      1239 1.48575E+02 0.00000E+00 0.00000E+00
 -1      1240 1.50000E+02 1.47500E+00 0.00000E+00
 -1      1241 1.50000E+02 4.42500E+00 0.00000E+00
 -1      1242 1.50000E+02 7.37500E+00 0.00000E+00
 -1      1243 1.50000E+02 1.03250E+01 0.00000E+00
 -1      1244 1.50000E+02 1.32750E+01 0.00000E+00
 -1      1245 1.50000E+02 1.62000E+01 0.00000E+00
 -1      1246 1.50000E+02 1.91250E+01 0.00000E+00
 -1      1247 1.50000E+02 2.20750E+01 0.00000E+00
 -1      1248 1.50000E+02 2.50250E+01 0.00000E+00
 -1      1249 1.50000E+02 2.79750E+01 0.00000E+00
 -1      1250 1.50000E+02 3.09250E+01 0.00000E+00
 -1      1251 1.50000E+02 3.38500E+01 0.00000E+00
 -1      1252 1.50000E+02 3.67750E+01 0.00000E+00
 -1      1253 1.50000E+02 3.97250E+01 0.00000E+00
 -1      1254 1.50000E+02 4.26750E+01 0.00000E+00
 -1      1255 1.50000E+02 4.56250E+01 0.00000E+00
 -1      1256 1.50000E+02 4.85500E+01 0.00000E+00
 -1      1257 3.20906E+01 2.80647E+01 0.00000E+00
 -1      1258 3.18094E+01 2.66885E+01 0.00000E+00
 -1      1259 3.12496E+01 2.53792E+01 0.00000E+00
 -1      1260 3.04145E+01 2.41847E+01 0.00000E+00
 -1      1261 2.93350E+01 2.31776E+01 0.00000E+00
 -1      1262 2.80577E+01 2.24145E+01 0.00000E+00
 -1      1263 2.66370E+01 2.19361E+01 0.00000E+00
 -1      1264 2.51633E+01 2.17713E+01 0.00000E+00
 -1      1265 2.36429E+01 2.19302E+01 0.00000E+00
 -1      1266 2.22167E+01 2.24046E+01 0.00000E+00
 -1      1267 2.09584E+01 2.31473E+01 0.00000E+00
 -1      1268 1.98686E+01 2.41499E+01 0.00000E+00
 -1      1269 1.90245E+01 2.53409E+01 0.00000E+00
 -1      1270 1.84294E+01 2.67341E+01 0.00000E+00
 -1      1271 1.81488E+01 2.82118E+01 0.00000E+00
 -1      1272 1.81871E+01 2.96912E+01 0.00000E+00
 -1      1273 1.85386E+01 3.11378E+01 0.00000E+00
 -1      1274 1.91634E+01 3.24377E+01 0.00000E+00
 -1      1275 2.00629E+01 3.36045E+01 0.00000E+00
 -1      1276 2.12061E+01 3.45704E+01 0.00000E+00
 -1      1277 2.24534E+01 3.52407E+01 0.00000E+00
 -1      1278 2.38134E+01 3.56469E+01 0.00000E+00
 -1      1279 2.52740E+01 3.57696E+01 0.00000E+00
 -1      1280 2.67232E+01 3.55866E+01 0.00000E+00
 -1      1281 2.81066E+01 3.51051E+01 0.00000E+00
 -1      1282 2.93584E+01 3.43470E+01 0.00000E+00
 -1      1283 3.04036E+01 3.33702E+01 0.00000E+00
 -1      1284 3.12280E+01 3.22019E+01 0.00000E+00
 -1      1285 3.18051E+01 3.08676E+01 0.00000E+00
 -1      1286 3.20915E+01 2.94695E+01 0.00000E+00
 -1      1287 1.57500E+00 4.85250E+01 0.00000E+00
 -1      1288 1.29900E+00 4.48375E+01 0.00000E+00
 -1      1289 1.29900E+00 4.63125E+01 0.00000E+00
 -1      1290 1.29900E+00 4.18875E+01 0.00000E+00
 -1      1291 1.29900E+00 4.33625E+01 0.00000E+00
 -1      1292 2.59800E+00 4.41000E+01 0.00000E+00
 -1      1293 1.29900E+00 3.89375E+01 0.00000E+00
 -1      1294 1.29900E+00 4.04125E+01 0.00000E+00
 -1      1295 2.59800E+00 4.11500E+01 0.00000E+00
 -1      1296 1.29900E+00 3.59875E+01 0.00000E+00
 -1      1297 1.29900E+00 3.74625E+01 0.00000E+00
 -1      1298 2.59800E+00 3.82000E+01 0.00000E+00
 -1      1299 1.29900E+00 3.30875E+01 0.00000E+00
 -1      1300 1.29900E+00 3.45375E+01 0.00000E+00
 -1      1301 2.59800E+00 3.52750E+01 0.00000E+00
 -1      1302 1.29900E+00 3.01375E+01 0.00000E+00
 -1      1303 1.29900E+00 3.16125E+01 0.00000E+00
 -1      1304 2.59800E+00 3.23500E+01 0.00000E+00
 -1      1305 1.29900E+00 2.71875E+01 0.00000E+00
 -1      1306 1.29900E+00 2.86625E+01 0.00000E+00
 -1      1307 2.59800E+00 2.94000E+01 0.00000E+00
 -1      1308 1.29900E+00 2.42375E+01 0.00000E+00
 -1      1309 1.29900E+00 2.57125E+01 0.00000E+00
 -1      1310 2.59800E+00 2.64500E+01 0.00000E+00
 -1      1311 1.29900E+00 2.12875E+01 0.00000E+00
 -1      1312 1.29900E+00 2.27625E+01 0.00000E+00
 -1      1313 2.59800E+00 2.35000E+01 0.00000E+00
 -1      1314 1.29900E+00 1.83375E+01 0.00000E+00
 -1      1315 1.29900E+00 1.98125E+01 0.00000E+00
 -1      1316 2.59800E+00 2.05500E+01 0.00000E+00
 -1      1317 1.29900E+00 1.54375E+01 0.00000E+00
 -1      1318 1.29900E+00 1.68875E+01 0.00000E+00
 -1      1319 2.59800E+00 1.76250E+01 0.00000E+00
 -1      1320 1.29900E+00 1.24875E+01 0.00000E+00
 -1      1321 1.29900E+00 1.39625E+01 0.00000E+00
 -1      1322 2.59800E+00 1.47000E+01 0.00000E+00
 -1      1323 1.29900E+00 9.53750E+00 0.00000E+00
 -1      1324 1.29900E+00 1.10125E+01 0.00000E+00
 -1      1325 2.59800E+00 1.17500E+01 0.00000E+00
 -1      1326 1.29900E+00 6.58750E+00 0.00000E+00
 -1      1327 1.29900E+00 8.06250E+00 0.00000E+00
 -1      1328 2.59800E+00 8.80000E+00 0.00000E+00
 -1      1329 1.29900E+00 3.63750E+00 0.00000E+00
 -1      1330 1.29900E+00 5.11250E+00 0.00000E+00
 -1      1331 2.59800E+00 5.85000E+00 0.00000E+00
 -1      1332 1.43700E+00 1.09375E+00 0.00000E+00
 -1      1333 1.43700E+00 2.54375E+00 0.00000E+00
 -1      1334 2.73600E+00 3.28125E+00 0.00000E+00
 -1      1335 3.01200E+00 1.09375E+00 0.00000E+00
 -1      1336 3.90000E+00 4.87010E+01 0.00000E+00
 -1      1337 5.40000E+00 4.87010E+01 0.00000E+00
 -1      1338 6.90000E+00 4.87010E+01 0.00000E+00
 -1      1339 8.40000E+00 4.87010E+01 0.00000E+00
 -1      1340 6.15000E+00 4.74020E+01 0.00000E+00
 -1      1341 9.90000E+00 4.87010E+01 0.00000E+00
 -1      1342 1.14000E+01 4.87010E+01 0.00000E+00
 -1      1343 9.15000E+00 4.74020E+01 0.00000E+00
 -1      1344 1.29000E+01 4.87010E+01 0.00000E+00
 -1      1345 1.44000E+01 4.87010E+01 0.00000E+00
 -1      1346 1.21500E+01 4.74020E+01 0.00000E+00
 -1      1347 1.59000E+01 4.87010E+01 0.00000E+00
 -1      1348 1.74000E+01 4.87010E+01 0.00000E+00
 -1      1349 1.51500E+01 4.74020E+01 0.00000E+00
 -1      1350 1.89000E+01 4.87010E+01 0.00000E+00
 -1      1351 2.04000E+01 4.87010E+01 0.00000E+00
 -1      1352 1.81500E+01 4.74020E+01 0.00000E+00
 -1      1353 2.19000E+01 4.87010E+01 0.00000E+00
 -1      1354 2.34000E+01 4.87010E+01 0.00000E+00
 -1      1355 2.11500E+01 4.74020E+01 0.00000E+00
 -1      1356 2.49000E+01 4.87010E+01 0.00000E+00
 -1      1357 2.64000E+01 4.87010E+01 0.00000E+00
 -1      1358 2.41500E+01 4.74020E+01 0.00000E+00
 -1      1359 2.79000E+01 4.87010E+01 0.00000E+00
 -1      1360 2.94000E+01 4.87010E+01 0.00000E+00
 -1      1361 2.71500E+01 4.74020E+01 0.00000E+00
 -1      1362 3.09000E+01 4.87010E+01 0.00000E+00
 -1      1363 3.24000E+01 4.87010E+01 0.00000E+00
 -1      1364 3.01500E+01 4.74020E+01 0.00000E+00
 -1      1365 3.39000E+01 4.87010E+01 0.00000E+00
 -1      1366 3.54000E+01 4.87010E+01 0.00000E+00
 -1      1367 3.31500E+01 4.74020E+01 0.00000E+00
 -1      1368 3.69000E+01 4.87010E+01 0.00000E+00
 -1      1369 3.84000E+01 4.87010E+01 0.00000E+00
 -1      1370 3.61500E+01 4.74020E+01 0.00000E+00
 -1      1371 3.99000E+01 4.87010E+01 0.00000E+00
 -1      1372 4.14000E+01 4.87010E+01 0.00000E+00
 -1      1373 3.91500E+01 4.74020E+01 0.00000E+00
 -1      1374 4.29000E+01 4.87010E+01 0.00000E+00
 -1      1375 4.44000E+01 4.87010E+01 0.00000E+00
 -1      1376 4.21500E+01 4.74020E+01 0.00000E+00
 -1      1377 4.59000E+01 4.87010E+01 0.00000E+00
 -1      1378 4.74000E+01 4.87010E+01 0.00000E+00
 -1      1379 4.51500E+01 4.74020E+01 0.00000E+00
 -1      1380 4.89000E+01 4.87010E+01 0.00000E+00
 -1      1381 5.04000E+01 4.87010E+01 0.00000E+00
 -1      1382 4.81500E+01 4.74020E+01 0.00000E+00
 -1      1383 5.19000E+01 4.87010E+01 0.00000E+00
 -1      1384 5.34000E+01 4.87010E+01 0.00000E+00
 -1      1385 5.11500E+01 4.74020E+01 0.00000E+00
 -1      1386 5.49000E+01 4.87010E+01 0.00000E+00
 -1      1387 5.64000E+01 4.87010E+01 0.00000E+00
 -1      1388 5.41500E+01 4.74020E+01 0.00000E+00
 -1      1389 5.79000E+01 4.87010E+01 0.00000E+00
 -1      1390 5.94000E+01 4.87010E+01 0.00000E+00
 -1      1391 5.71500E+01 4.74020E+01 0.00000E+00
 -1      1392 6.09000E+01 4.87010E+01 0.00000E+00
 -1      1393 6.24000E+01 4.87010E+01 0.00000E+00
 -1      1394 6.01500E+01 4.74020E+01 0.00000E+00
 -1      1395 6.39000E+01 4.87010E+01 0.00000E+00
 -1      1396 6.54000E+01 4.87010E+01 0.00000E+00
 -1      1397 6.31500E+01 4.74020E+01 0.00000E+00
 -1      1398 6.69000E+01 4.87010E+01 0.00000E+00
 -1      1399 6.84000E+01 4.87010E+01 0.00000E+00
 -1      1400 6.61500E+01 4.74020E+01 0.00000E+00
 -1      1401 6.99000E+01 4.87010E+01 0.00000E+00
 -1      1402 7.14000E+01 4.87010E+01 0.00000E+00
 -1      1403 6.91500E+01 4.74020E+01 0.00000E+00
 -1      1404 7.29000E+01 4.87010E+01 0.00000E+00
 -1      1405 7.44000E+01 4.87010E+01 0.00000E+00
 -1      1406 7.21500E+01 4.74020E+01 0.00000E+00
 -1      1407 7.59000E+01 4.87010E+01 0.00000E+00
 -1      1408 7.74000E+01 4.87010E+01 0.00000E+00
 -1      1409 7.51500E+01 4.74020E+01 0.00000E+00
 -1      1410 7.89000E+01 4.87010E+01 0.00000E+00
 -1      1411 8.04000E+01 4.87010E+01 0.00000E+00
 -1      1412 7.81500E+01 4.74020E+01 0.00000E+00
 -1      1413 8.19000E+01 4.87010E+01 0.00000E+00
 -1      1414 8.34000E+01 4.87010E+01 0.00000E+00
 -1      1415 8.11500E+01 4.74020E+01 0.00000E+00
 -1      1416 8.49000E+01 4.87010E+01 0.00000E+00
 -1      1417 8.64000E+01 4.87010E+01 0.00000E+00
 -1      1418 8.41500E+01 4.74020E+01 0.00000E+00
 -1      1419 8.79000E+01 4.87010E+01 0.00000E+00
 -1      1420 8.94000E+01 4.87010E+01 0.00000E+00
 -1      1421 8.71500E+01 4.74020E+01 0.00000E+00
 -1      1422 9.09000E+01 4.87010E+01 0.00000E+00
 -1      1423 9.24000E+01 4.87010E+01 0.00000E+00
 -1      1424 9.01500E+01 4.74020E+01 0.00000E+00
 -1      1425 9.39000E+01 4.87010E+01 0.00000E+00
 -1      1426 9.54000E+01 4.87010E+01 0.00000E+00
 -1      1427 9.31500E+01 4.74020E+01 0.00000E+00
 -1      1428 9.69000E+01 4.87010E+01 0.00000E+00
 -1      1429 9.84000E+01 4.87010E+01 0.00000E+00
 -1      1430 9.61500E+01 4.74020E+01 0.00000E+00
 -1      1431 9.99000E+01 4.87010E+01 0.00000E+00
 -1      1432 1.01400E+02 4.87010E+01 0.00000E+00
 -1      1433 9.91500E+01 4.74020E+01 0.00000E+00
 -1      1434 1.02900E+02 4.87010E+01 0.00000E+00
 -1      1435 1.04400E+02 4.87010E+01 0.00000E+00
 -1      1436 1.02150E+02 4.74020E+01 0.00000E+00
 -1      1437 1.05900E+02 4.87010E+01 0.00000E+00
 -1      1438 1.07400E+02 4.87010E+01 0.00000E+00
 -1      1439 1.05150E+02 4.74020E+01 0.00000E+00
 -1      1440 1.08900E+02 4.87010E+01 0.00000E+00
 -1      1441 1.10400E+02 4.87010E+01 0.00000E+00
 -1      1442 1.08150E+02 4.74020E+01 0.00000E+00
 -1      1443 1.11900E+02 4.87010E+01 0.00000E+00
 -1      1444 1.13400E+02 4.87010E+01 0.00000E+00
 -1      1445 1.11150E+02 4.74020E+01 0.00000E+00
 -1      1446 1.14900E+02 4.87010E+01 0.00000E+00
 -1      1447 1.16400E+02 4.87010E+01 0.00000E+00
 -1      1448 1.14150E+02 4.74020E+01 0.00000E+00
 -1      1449 1.17900E+02 4.87010E+01 0.00000E+00
 -1      1450 1.19400E+02 4.87010E+01 0.00000E+00
 -1      1451 1.17150E+02 4.74020E+01 0.00000E+00
 -1      1452 1.20900E+02 4.87010E+01 0.00000E+00
 -1      1453 1.22400E+02 4.87010E+01 0.00000E+00
 -1      1454 1.20150E+02 4.74020E+01 0.00000E+00
 -1      1455 1.23900E+02 4.87010E+01 0.00000E+00
 -1      1456 1.25400E+02 4.87010E+01 0.00000E+00
 -1      1457 1.23150E+02 4.74020E+01 0.00000E+00
 -1      1458 1.26900E+02 4.87010E+01 0.00000E+00
 -1      1459 1.28400E+02 4.87010E+01 0.00000E+00
 -1      1460 1.26150E+02 4.74020E+01 0.00000E+00
 -1      1461 1.29900E+02 4.87010E+01 0.00000E+00
 -1      1462 1.31400E+02 4.87010E+01 0.00000E+00
 -1      1463 1.29150E+02 4.74020E+01 0.00000E+00
 -1      1464 1.32900E+02 4.87010E+01 0.00000E+00
 -1      1465 1.34400E+02 4.87010E+01 0.00000E+00
 -1      1466 1.32150E+02 4.74020E+01 0.00000E+00
 -1      1467 1.35900E+02 4.87010E+01 0.00000E+00
 -1      1468 1.37400E+02 4.87010E+01 0.00000E+00
 -1      1469 1.35150E+02 4.74020E+01 0.00000E+00
 -1      1470 1.38900E+02 4.87010E+01 0.00000E+00
 -1      1471 1.40400E+02 4.87010E+01 0.00000E+00
 -1      1472 1.38150E+02 4.74020E+01 0.00000E+00
 -1      1473 1.41900E+02 4.87010E+01 0.00000E+00
 -1      1474 1.43400E+02 4.87010E+01 0.00000E+00
 -1      1475 1.41150E+02 4.74020E+01 0.00000E+00
 -1      1476 1.44900E+02 4.87010E+01 0.00000E+00
 -1      1477 1.46400E+02 4.87010E+01 0.00000E+00
 -1      1478 1.44150E+02 4.74020E+01 0.00000E+00
 -1      1479 1.48575E+02 4.85500E+01 0.00000E+00
 -1      1480 1.47825E+02 4.72510E+01 0.00000E+00
 -1      1481 6.01200E+00 1.09375E+00 0.00000E+00
 -1      1482 4.51200E+00 1.09375E+00 0.00000E+00
 -1      1483 4.37400E+00 2.18750E+00 0.00000E+00
 -1      1484 9.01200E+00 1.09375E+00 0.00000E+00
 -1      1485 7.51200E+00 1.09375E+00 0.00000E+00
 -1      1486 7.37400E+00 2.18750E+00 0.00000E+00
 -1      1487 1.20120E+01 1.09375E+00 0.00000E+00
 -1      1488 1.05120E+01 1.09375E+00 0.00000E+00
 -1      1489 1.03740E+01 2.18750E+00 0.00000E+00
 -1      1490 1.50120E+01 1.09375E+00 0.00000E+00
 -1      1491 1.35120E+01 1.09375E+00 0.00000E+00
 -1      1492 1.33740E+01 2.18750E+00 0.00000E+00
 -1      1493 1.80120E+01 1.09375E+00 0.00000E+00
 -1      1494 1.65120E+01 1.09375E+00 0.00000E+00
 -1      1495 1.63740E+01 2.18750E+00 0.00000E+00
 -1      1496 2.10120E+01 1.09375E+00 0.00000E+00
 -1      1497 1.95120E+01 1.09375E+00 0.00000E+00
 -1      1498 1.93740E+01 2.18750E+00 0.00000E+00
 -1      1499 2.40120E+01 1.09375E+00 0.00000E+00
 -1      1500 2.25120E+01 1.09375E+00 0.00000E+00
 -1      1501 2.23740E+01 2.18750E+00 0.00000E+00
 -1      1502 2.70120E+01 1.09375E+00 0.00000E+00
 -1      1503 2.55120E+01 1.09375E+00 0.00000E+00
 -1      1504 2.53740E+01 2.18750E+00 0.00000E+00
 -1      1505 3.00120E+01 1.09375E+00 0.00000E+00
 -1      1506 2.85120E+01 1.09375E+00 0.00000E+00
 -1      1507 2.83740E+01 2.18750E+00 0.00000E+00
 -1      1508 3.30120E+01 1.09375E+00 0.00000E+00
 -1      1509 3.15120E+01 1.09375E+00 0.00000E+00
 -1      1510 3.13740E+01 2.18750E+00 0.00000E+00
 -1      1511 3.60120E+01 1.09375E+00 0.00000E+00
 -1      1512 3.45120E+01 1.09375E+00 0.00000E+00
 -1      1513 3.43740E+01 2.18750E+00 0.00000E+00
 -1      1514 3.90120E+01 1.09375E+00 0.00000E+00
 -1      1515 3.75120E+01 1.09375E+00 0.00000E+00
 -1      1516 3.73740E+01 2.18750E+00 0.00000E+00
 -1      1517 4.20120E+01 1.09375E+00 0.00000E+00
 -1      1518 4.05120E+01 1.09375E+00 0.00000E+00
 -1      1519 4.03740E+01 2.18750E+00 0.00000E+00
 -1      1520 4.50120E+01 1.09375E+00 0.00000E+00
 -1      1521 4.35120E+01 1.09375E+00 0.00000E+00
 -1      1522 4.33740E+01 2.18750E+00 0.00000E+00
 -1      1523 4.80120E+01 1.09375E+00 0.00000E+00
 -1      1524 4.65120E+01 1.09375E+00 0.00000E+00
 -1      1525 4.63740E+01 2.18750E+00 0.00000E+00
 -1      1526 5.10120E+01 1.09375E+00 0.00000E+00
 -1      1527 4.95120E+01 1.09375E+00 0.00000E+00
 -1      1528 4.93740E+01 2.18750E+00 0.00000E+00
 -1      1529 5.40120E+01 1.09375E+00 0.00000E+00
 -1      1530 5.25120E+01 1.09375E+00 0.00000E+00
 -1      1531 5.23740E+01 2.18750E+00 0.00000E+00
 -1      1532 5.70120E+01 1.09375E+00 0.00000E+00
 -1      1533 5.55120E+01 1.09375E+00 0.00000E+00
 -1      1534 5.53740E+01 2.18750E+00 0.00000E+00
 -1      1535 6.00120E+01 1.09375E+00 0.00000E+00
 -1      1536 5.85120E+01 1.09375E+00 0.00000E+00
 -1      1537 5.83740E+01 2.18750E+00 0.00000E+00
 -1      1538 6.30120E+01 1.09375E+00 0.00000E+00
 -1      1539 6.15120E+01 1.09375E+00 0.00000E+00
 -1      1540 6.13740E+01 2.18750E+00 0.00000E+00
 -1      1541 6.60120E+01 1.09375E+00 0.00000E+00
 -1      1542 6.45120E+01 1.09375E+00 0.00000E+00
 -1      1543 6.43740E+01 2.18750E+00 0.00000E+00
 -1      1544 6.90120E+01 1.09375E+00 0.00000E+00
 -1      1545 6.75120E+01 1.09375E+00 0.00000E+00
 -1      1546 6.73740E+01 2.18750E+00 0.00000E+00
 -1      1547 7.20120E+01 1.09375E+00 0.00000E+00
 -1      1548 7.05120E+01 1.09375E+00 0.00000E+00
 -1      1549 7.03740E+01 2.18750E+00 0.00000E+00
 -1      1550 7.50120E+01 1.09375E+00 0.00000E+00
 -1      1551 7.35120E+01 1.09375E+00 0.00000E+00
 -1      1552 7.33740E+01 2.18750E+00 0.00000E+00
 -1      1553 7.80120E+01 1.09375E+00 0.00000E+00
 -1      1554 7.65120E+01 1.09375E+00 0.00000E+00
 -1      1555 7.63740E+01 2.18750E+00 0.00000E+00
 -1      1556 8.10120E+01 1.09375E+00 0.00000E+00
 -1      1557 7.95120E+01 1.09375E+00 0.00000E+00
 -1      1558 7.93740E+01 2.18750E+00 0.00000E+00
 -1      1559 8.40120E+01 1.09375E+00 0.00000E+00
 -1      1560 8.25120E+01 1.09375E+00 0.00000E+00
 -1      1561 8.23740E+01 2.18750E+00 0.00000E+00
 -1      1562 8.70120E+01 1.09375E+00 0.00000E+00
 -1      1563 8.55120E+01 1.09375E+00 0.00000E+00
 -1      1564 8.53740E+01 2.18750E+00 0.00000E+00
 -1      1565 9.00120E+01 1.09375E+00 0.00000E+00
 -1      1566 8.85120E+01 1.09375E+00 0.00000E+00
 -1      1567 8.83740E+01 2.18750E+00 0.00000E+00
 -1      1568 9.30120E+01 1.09375E+00 0.00000E+00
 -1      1569 9.15120E+01 1.09375E+00 0.00000E+00
 -1      1570 9.13740E+01 2.18750E+00 0.00000E+00
 -1      1571 9.60120E+01 1.09375E+00 0.00000E+00
 -1      1572 9.45120E+01 1.09375E+00 0.00000E+00
 -1      1573 9.43740E+01 2.18750E+00 0.00000E+00
 -1      1574 9.90120E+01 1.09375E+00 0.00000E+00
 -1      1575 9.75120E+01 1.09375E+00 0.00000E+00
 -1      1576 9.73740E+01 2.18750E+00 0.00000E+00
 -1      1577 1.02012E+02 1.09375E+00 0.00000E+00
 -1      1578 1.00512E+02 1.09375E+00 0.00000E+00
 -1      1579 1.00374E+02 2.18750E+00 0.00000E+00
 -1      1580 1.05012E+02 1.09375E+00 0.00000E+00
 -1      1581 1.03512E+02 1.09375E+00 0.00000E+00
 -1      1582 1.03374E+02 2.18750E+00 0.00000E+00
 -1      1583 1.08012E+02 1.09375E+00 0.00000E+00
 -1      1584 1.06512E+02 1.09375E+00 0.00000E+00
 -1      1585 1.06374E+02 2.18750E+00 0.00000E+00
 -1      1586 1.11012E+02 1.09375E+00 0.00000E+00
 -1      1587 1.09512E+02 1.09375E+00 0.00000E+00
 -1      1588 1.09374E+02 2.18750E+00 0.00000E+00
 -1      1589 1.14012E+02 1.09375E+00 0.00000E+00
 -1      1590 1.12512E+02 1.09375E+00 0.00000E+00
 -1      1591 1.12374E+02 2.18750E+00 0.00000E+00
 -1      1592 1.17012E+02 1.09375E+00 0.00000E+00
 -1      1593 1.15512E+02 1.09375E+00 0.00000E+00
 -1      1594 1.15374E+02 2.18750E+00 0.00000E+00
 -1      1595 1.20012E+02 1.09375E+00 0.00000E+00
 -1      1596 1.18512E+02 1.09375E+00 0.00000E+00
 -1      1597 1.18374E+02 2.18750E+00 0.00000E+00
 -1      1598 1.23012E+02 1.09375E+00 0.00000E+00
 -1      1599 1.21512E+02 1.09375E+00 0.00000E+00
 -1      1600 1.21374E+02 2.18750E+00 0.00000E+00
 -1      1601 1.26012E+02 1.09375E+00 0.00000E+00
 -1      1602 1.24512E+02 1.09375E+00 0.00000E+00
 -1      1603 1.24374E+02 2.18750E+00 0.00000E+00
 -1      1604 1.29012E+02 1.09375E+00 0.00000E+00
 -1      1605 1.27512E+02 1.09375E+00 0.00000E+00
 -1      1606 1.27374E+02 2.18750E+00 0.00000E+00
 -1      1607 1.32012E+02 1.09375E+00 0.00000E+00
 -1      1608 1.30512E+02 1.09375E+00 0.00000E+00
 -1      1609 1.30374E+02 2.18750E+00 0.00000E+00
 -1      1610 1.35012E+02 1.09375E+00 0.00000E+00
 -1      1611 1.33512E+02 1.09375E+00 0.00000E+00
 -1      1612 1.33374E+02 2.18750E+00 0.00000E+00
 -1      1613 1.38012E+02 1.09375E+00 0.00000E+00
 -1      1614 1.36512E+02 1.09375E+00 0.00000E+00
 -1      1615 1.36374E+02 2.18750E+00 0.00000E+00
 -1      1616 1.41012E+02 1.09375E+00 0.00000E+00
 -1      1617 1.39512E+02 1.09375E+00 0.00000E+00
 -1      1618 1.39374E+02 2.18750E+00 0.00000E+00
 -1      1619 1.44012E+02 1.09375E+00 0.00000E+00
 -1      1620 1.42512E+02 1.09375E+00 0.00000E+00
 -1      1621 1.42374E+02 2.18750E+00 0.00000E+00
 -1      1622 1.47012E+02 1.09375E+00 0.00000E+00
 -1      1623 1.45512E+02 1.09375E+00 0.00000E+00
 -1      1624 1.45374E+02 2.18750E+00 0.00000E+00
 -1      1625 1.48575E+02 1.47500E+00 0.00000E+00
 -1      1626 1.48701E+02 5.16250E+00 0.00000E+00
 -1      1627 1.48701E+02 3.68750E+00 0.00000E+00
 -1      1628 1.48701E+02 8.11250E+00 0.00000E+00
 -1      1629 1.48701E+02 6.63750E+00 0.00000E+00
 -1      1630 1.47402E+02 5.90000E+00 0.00000E+00
 -1      1631 1.48701E+02 1.10625E+01 0.00000E+00
 -1      1632 1.48701E+02 9.58750E+00 0.00000E+00
 -1      1633 1.47402E+02 8.85000E+00 0.00000E+00
 -1      1634 1.48701E+02 1.40125E+01 0.00000E+00
 -1      1635 1.48701E+02 1.25375E+01 0.00000E+00
 -1      1636 1.47402E+02 1.18000E+01 0.00000E+00
 -1      1637 1.48701E+02 1.69125E+01 0.00000E+00
 -1      1638 1.48701E+02 1.54625E+01 0.00000E+00
 -1      1639 1.47402E+02 1.47250E+01 0.00000E+00
 -1      1640 1.48701E+02 1.98625E+01 0.00000E+00
 -1      1641 1.48701E+02 1.83875E+01 0.00000E+00
 -1      1642 1.47402E+02 1.76500E+01 0.00000E+00
 -1      1643 1.48701E+02 2.28125E+01 0.00000E+00
 -1      1644 1.48701E+02 2.13375E+01 0.00000E+00
 -1      1645 1.47402E+02 2.06000E+01 0.00000E+00
 -1      1646 1.48701E+02 2.57625E+01 0.00000E+00
 -1      1647 1.48701E+02 2.42875E+01 0.00000E+00
 -1      1648 1.47402E+02 2.35500E+01 0.00000E+00
 -1      1649 1.48701E+02 2.87125E+01 0.00000E+00
 -1      1650 1.48701E+02 2.72375E+01 0.00000E+00
 -1      1651 1.47402E+02 2.65000E+01 0.00000E+00
 -1      1652 1.48701E+02 3.16625E+01 0.00000E+00
 -1      1653 1.48701E+02 3.01875E+01 0.00000E+00
 -1      1654 1.47402E+02 2.94500E+01 0.00000E+00
 -1      1655 1.48701E+02 3.45625E+01 0.00000E+00
 -1      1656 1.48701E+02 3.31125E+01 0.00000E+00
 -1      1657 1.47402E+02 3.23750E+01 0.00000E+00
 -1      1658 1.48701E+02 3.75125E+01 0.00000E+00
 -1      1659 1.48701E+02 3.60375E+01 0.00000E+00
 -1      1660 1.47402E+02 3.53000E+01 0.00000E+00
 -1      1661 1.48701E+02 4.04625E+01 0.00000E+00
 -1      1662 1.48701E+02 3.89875E+01 0.00000E+00
 -1      1663 1.47402E+02 3.82500E+01 0.00000E+00
 -1      1664 1.48701E+02 4.34125E+01 0.00000E+00
 -1      1665 1.48701E+02 4.19375E+01 0.00000E+00
 -1      1666 1.47402E+02 4.12000E+01 0.00000E+00
 -1      1667 1.48263E+02 4.60692E+01 0.00000E+00
 -1      1668 1.48263E+02 4.45942E+01 0.00000E+00
 -1      1669 1.46964E+02 4.38568E+01 0.00000E+00
 -1      1670 1.46088E+02 4.62202E+01 0.00000E+00
 -1      1671 3.27059E+01 2.76472E+01 0.00000E+00
 -1      1672 3.27772E+01 2.83501E+01 0.00000E+00
 -1      1673 3.22510E+01 2.61853E+01 0.00000E+00
 -1      1674 3.24587E+01 2.68518E+01 0.00000E+00
 -1      1675 3.16077E+01 2.47659E+01 0.00000E+00
 -1      1676 3.19594E+01 2.54009E+01 0.00000E+00
 -1      1677 3.06038E+01 2.35363E+01 0.00000E+00
 -1      1678 3.10832E+01 2.40889E+01 0.00000E+00
 -1      1679 2.93780E+01 2.25011E+01 0.00000E+00
 -1      1680 2.99731E+01 2.29488E+01 0.00000E+00
 -1      1681 2.79751E+01 2.17063E+01 0.00000E+00
 -1      1682 2.86500E+01 2.20175E+01 0.00000E+00
 -1      1683 2.63990E+01 2.12617E+01 0.00000E+00
 -1      1684 2.71371E+01 2.14248E+01 0.00000E+00
 -1      1685 2.48029E+01 2.12010E+01 0.00000E+00
 -1      1686 2.55298E+01 2.12048E+01 0.00000E+00
 -1      1687 2.30969E+01 2.13040E+01 0.00000E+00
 -1      1688 2.38804E+01 2.11340E+01 0.00000E+00
 -1      1689 2.16605E+01 2.20310E+01 0.00000E+00
 -1      1690 2.22982E+01 2.17395E+01 0.00000E+00
 -1      1691 2.02419E+01 2.28188E+01 0.00000E+00
 -1      1692 2.08525E+01 2.23663E+01 0.00000E+00
 -1      1693 1.92033E+01 2.40450E+01 0.00000E+00
 -1      1694 1.96792E+01 2.35036E+01 0.00000E+00
 -1      1695 1.83491E+01 2.53850E+01 0.00000E+00
 -1      1696 1.87112E+01 2.47409E+01 0.00000E+00
 -1      1697 1.76174E+01 2.68927E+01 0.00000E+00
 -1      1698 1.78433E+01 2.61502E+01 0.00000E+00
 -1      1699 1.75115E+01 2.85258E+01 0.00000E+00
 -1      1700 1.75697E+01 2.78002E+01 0.00000E+00
 -1      1701 1.75927E+01 3.01493E+01 0.00000E+00
 -1      1702 1.74939E+01 2.94038E+01 0.00000E+00
 -1      1703 1.80898E+01 3.16905E+01 0.00000E+00
 -1      1704 1.78407E+01 3.09971E+01 0.00000E+00
 -1      1705 1.88621E+01 3.30370E+01 0.00000E+00
 -1      1706 1.84927E+01 3.24361E+01 0.00000E+00
 -1      1707 1.98595E+01 3.43295E+01 0.00000E+00
 -1      1708 1.93293E+01 3.37740E+01 0.00000E+00
 -1      1709 2.11664E+01 3.52799E+01 0.00000E+00
 -1      1710 2.05626E+01 3.48718E+01 0.00000E+00
 -1      1711 2.25524E+01 3.59009E+01 0.00000E+00
 -1      1712 2.19173E+01 3.56385E+01 0.00000E+00
 -1      1713 2.40586E+01 3.63145E+01 0.00000E+00
 -1      1714 2.33394E+01 3.61771E+01 0.00000E+00
 -1      1715 2.56545E+01 3.64132E+01 0.00000E+00
 -1      1716 2.49210E+01 3.64286E+01 0.00000E+00
 -1      1717 2.72163E+01 3.60978E+01 0.00000E+00
 -1      1718 2.65085E+01 3.62637E+01 0.00000E+00
 -1      1719 2.87175E+01 3.55371E+01 0.00000E+00
 -1      1720 2.80500E+01 3.58512E+01 0.00000E+00
 -1      1721 3.00165E+01 3.46138E+01 0.00000E+00
 -1      1722 2.94384E+01 3.50526E+01 0.00000E+00
 -1      1723 3.10653E+01 3.34794E+01 0.00000E+00
 -1      1724 3.06022E+01 3.40108E+01 0.00000E+00
 -1      1725 3.19378E+01 3.21851E+01 0.00000E+00
 -1      1726 3.15824E+01 3.28171E+01 0.00000E+00
 -1      1727 3.24563E+01 3.06901E+01 0.00000E+00
 -1      1728 3.22380E+01 3.13854E+01 0.00000E+00
 -1      1729 3.27364E+01 2.91833E+01 0.00000E+00
 -1      1730 3.26667E+01 2.98782E+01 0.00000E+00
 -1      1731 3.06707E+01 2.28280E+01 0.00000E+00
 -1      1732 3.18260E+01 2.40924E+01 0.00000E+00
 -1      1733 1.48437E+02 2.56875E+00 0.00000E+00
 -1      1734 1.47138E+02 3.30625E+00 0.00000E+00
 -1      1735 3.31808E+01 2.71336E+01 0.00000E+00
 -1      1736 3.26420E+01 2.55538E+01 0.00000E+00
 -1      1737 3.33872E+01 2.87622E+01 0.00000E+00
 -1      1738 2.93120E+01 2.17570E+01 0.00000E+00
 -1      1739 2.77459E+01 2.09919E+01 0.00000E+00
 -1      1740 2.60387E+01 2.06536E+01 0.00000E+00
 -1      1741 2.42471E+01 2.05298E+01 0.00000E+00
 -1      1742 2.25260E+01 2.08983E+01 0.00000E+00
 -1      1743 2.09194E+01 2.16692E+01 0.00000E+00
 -1      1744 1.95487E+01 2.26893E+01 0.00000E+00
 -1      1745 1.84938E+01 2.40700E+01 0.00000E+00
 -1      1746 1.74959E+01 2.55311E+01 0.00000E+00
 -1      1747 1.69423E+01 2.72038E+01 0.00000E+00
 -1      1748 1.68769E+01 2.89892E+01 0.00000E+00
 -1      1749 1.71073E+01 3.07151E+01 0.00000E+00
 -1      1750 1.77582E+01 3.23085E+01 0.00000E+00
 -1      1751 1.86281E+01 3.37911E+01 0.00000E+00
 -1      1752 1.97984E+01 3.50705E+01 0.00000E+00
 -1      1753 2.12525E+01 3.59714E+01 0.00000E+00
 -1      1754 2.27904E+01 3.66062E+01 0.00000E+00
 -1      1755 2.44399E+01 3.69966E+01 0.00000E+00
 -1      1756 2.61563E+01 3.69612E+01 0.00000E+00
 -1      1757 2.78439E+01 3.65651E+01 0.00000E+00
 -1      1758 2.93984E+01 3.58339E+01 0.00000E+00
 -1      1759 3.07050E+01 3.47464E+01 0.00000E+00
 -1      1760 3.18079E+01 3.34811E+01 0.00000E+00
 -1      1761 3.26253E+01 3.20190E+01 0.00000E+00
 -1      1762 3.31360E+01 3.04074E+01 0.00000E+00
 -1      1763 2.87400E+00 4.77875E+01 0.00000E+00
 -1      1764 3.89700E+00 4.04125E+01 0.00000E+00
 -1      1765 3.89700E+00 4.18875E+01 0.00000E+00
 -1      1766 3.89700E+00 4.33625E+01 0.00000E+00
 -1      1767 3.89700E+00 4.48375E+01 0.00000E+00
 -1      1768 5.19600E+00 4.26250E+01 0.00000E+00
 -1      1769 3.89700E+00 3.45500E+01 0.00000E+00
 -1      1770 3.89700E+00 3.60000E+01 0.00000E+00
 -1      1771 3.89700E+00 3.16000E+01 0.00000E+00
 -1      1772 3.89700E+00 3.30750E+01 0.00000E+00
 -1      1773 5.19600E+00 3.38000E+01 0.00000E+00
 -1      1774 3.89700E+00 2.86500E+01 0.00000E+00
 -1      1775 3.89700E+00 3.01250E+01 0.00000E+00
 -1      1776 5.19600E+00 3.08500E+01 0.00000E+00
 -1      1777 3.89700E+00 2.57000E+01 0.00000E+00
 -1      1778 3.89700E+00 2.71750E+01 0.00000E+00
 -1      1779 5.19600E+00 2.79000E+01 0.00000E+00
 -1      1780 3.89700E+00 2.27500E+01 0.00000E+00
 -1      1781 3.89700E+00 2.42250E+01 0.00000E+00
 -1      1782 5.19600E+00 2.49500E+01 0.00000E+00
 -1      1783 3.89700E+00 1.98000E+01 0.00000E+00
 -1      1784 3.89700E+00 2.12750E+01 0.00000E+00
 -1      1785 5.19600E+00 2.20000E+01 0.00000E+00
 -1      1786 3.89700E+00 1.69000E+01 0.00000E+00
 -1      1787 3.89700E+00 1.83500E+01 0.00000E+00
 -1      1788 5.19600E+00 1.90750E+01 0.00000E+00
 -1      1789 3.89700E+00 1.39500E+01 0.00000E+00
 -1      1790 3.89700E+00 1.54250E+01 0.00000E+00
 -1      1791 5.19600E+00 1.61500E+01 0.00000E+00
 -1      1792 3.89700E+00 1.10000E+01 0.00000E+00
 -1      1793 3.89700E+00 1.24750E+01 0.00000E+00
 -1      1794 5.19600E+00 1.32000E+01 0.00000E+00
 -1      1795 3.89700E+00 8.05000E+00 0.00000E+00
 -1      1796 3.89700E+00 9.52500E+00 0.00000E+00
 -1      1797 5.19600E+00 1.02500E+01 0.00000E+00
 -1      1798 3.89700E+00 5.10000E+00 0.00000E+00
 -1      1799 3.89700E+00 6.57500E+00 0.00000E+00
 -1      1800 5.19600E+00 7.30000E+00 0.00000E+00
 -1      1801 4.20450E+00 3.09687E+00 0.00000E+00
 -1      1802 4.06650E+00 4.19063E+00 0.00000E+00
 -1      1803 5.36550E+00 4.91563E+00 0.00000E+00
 -1      1804 5.70450E+00 3.09687E+00 0.00000E+00
 -1      1805 3.62400E+00 4.64885E+01 0.00000E+00
 -1      1806 8.70450E+00 3.09687E+00 0.00000E+00
 -1      1807 7.20450E+00 3.09687E+00 0.00000E+00
 -1      1808 7.03500E+00 4.00625E+00 0.00000E+00
 -1      1809 4.92300E+00 4.57510E+01 0.00000E+00
 -1      1810 8.40000E+00 4.61030E+01 0.00000E+00
 -1      1811 9.90000E+00 4.61030E+01 0.00000E+00
 -1      1812 1.14000E+01 4.61030E+01 0.00000E+00
 -1      1813 1.29000E+01 4.61030E+01 0.00000E+00
 -1      1814 1.06500E+01 4.48040E+01 0.00000E+00
 -1      1815 1.44000E+01 4.61030E+01 0.00000E+00
 -1      1816 1.59000E+01 4.61030E+01 0.00000E+00
 -1      1817 1.36500E+01 4.48040E+01 0.00000E+00
 -1      1818 1.74000E+01 4.61030E+01 0.00000E+00
 -1      1819 1.89000E+01 4.61030E+01 0.00000E+00
 -1      1820 1.66500E+01 4.48040E+01 0.00000E+00
 -1      1821 2.04000E+01 4.61030E+01 0.00000E+00
 -1      1822 2.19000E+01 4.61030E+01 0.00000E+00
 -1      1823 1.96500E+01 4.48040E+01 0.00000E+00
 -1      1824 2.34000E+01 4.61030E+01 0.00000E+00
 -1      1825 2.49000E+01 4.61030E+01 0.00000E+00
 -1      1826 2.26500E+01 4.48040E+01 0.00000E+00
 -1      1827 2.64000E+01 4.61030E+01 0.00000E+00
 -1      1828 2.79000E+01 4.61030E+01 0.00000E+00
 -1      1829 2.56500E+01 4.48040E+01 0.00000E+00
 -1      1830 2.94000E+01 4.61030E+01 0.00000E+00
 -1      1831 3.09000E+01 4.61030E+01 0.00000E+00
 -1      1832 2.86500E+01 4.48040E+01 0.00000E+00
 -1      1833 3.24000E+01 4.61030E+01 0.00000E+00
 -1      1834 3.39000E+01 4.61030E+01 0.00000E+00
 -1      1835 3.16500E+01 4.48040E+01 0.00000E+00
 -1      1836 3.54000E+01 4.61030E+01 0.00000E+00
 -1      1837 3.69000E+01 4.61030E+01 0.00000E+00
 -1      1838 3.46500E+01 4.48040E+01 0.00000E+00
 -1      1839 3.84000E+01 4.61030E+01 0.00000E+00
 -1      1840 3.99000E+01 4.61030E+01 0.00000E+00
 -1      1841 3.76500E+01 4.48040E+01 0.00000E+00
 -1      1842 4.14000E+01 4.61030E+01 0.00000E+00
 -1      1843 4.29000E+01 4.61030E+01 0.00000E+00
 -1      1844 4.06500E+01 4.48040E+01 0.00000E+00
 -1      1845 4.44000E+01 4.61030E+01 0.00000E+00
 -1      1846 4.59000E+01 4.61030E+01 0.00000E+00
 -1      1847 4.36500E+01 4.48040E+01 0.00000E+00
 -1      1848 4.74000E+01 4.61030E+01 0.00000E+00
 -1      1849 4.89000E+01 4.61030E+01 0.00000E+00
 -1      1850 4.66500E+01 4.48040E+01 0.00000E+00
 -1      1851 5.04000E+01 4.61030E+01 0.00000E+00
 -1      1852 5.19000E+01 4.61030E+01 0.00000E+00
 -1      1853 4.96500E+01 4.48040E+01 0.00000E+00
 -1      1854 5.34000E+01 4.61030E+01 0.00000E+00
 -1      1855 5.49000E+01 4.61030E+01 0.00000E+00
 -1      1856 5.26500E+01 4.48040E+01 0.00000E+00
 -1      1857 5.64000E+01 4.61030E+01 0.00000E+00
 -1      1858 5.79000E+01 4.61030E+01 0.00000E+00
 -1      1859 5.56500E+01 4.48040E+01 0.00000E+00
 -1      1860 5.94000E+01 4.61030E+01 0.00000E+00
 -1      1861 6.09000E+01 4.61030E+01 0.00000E+00
 -1      1862 5.86500E+01 4.48040E+01 0.00000E+00
 -1      1863 6.24000E+01 4.61030E+01 0.00000E+00
 -1      1864 6.39000E+01 4.61030E+01 0.00000E+00
 -1      1865 6.16500E+01 4.48040E+01 0.00000E+00
 -1      1866 6.54000E+01 4.61030E+01 0.00000E+00
 -1      1867 6.69000E+01 4.61030E+01 0.00000E+00
 -1      1868 6.46500E+01 4.48040E+01 0.00000E+00
 -1      1869 6.84000E+01 4.61030E+01 0.00000E+00
 -1      1870 6.99000E+01 4.61030E+01 0.00000E+00
 -1      1871 6.76500E+01 4.48040E+01 0.00000E+00
 -1      1872 7.14000E+01 4.61030E+01 0.00000E+00
 -1      1873 7.29000E+01 4.61030E+01 0.00000E+00
 -1      1874 7.06500E+01 4.48040E+01 0.00000E+00
 -1      1875 7.44000E+01 4.61030E+01 0.00000E+00
 -1      1876 7.59000E+01 4.61030E+01 0.00000E+00
 -1      1877 7.36500E+01 4.48040E+01 0.00000E+00
 -1      1878 7.74000E+01 4.61030E+01 0.00000E+00
 -1      1879 7.89000E+01 4.61030E+01 0.00000E+00
 -1      1880 7.66500E+01 4.48040E+01 0.00000E+00
 -1      1881 8.04000E+01 4.61030E+01 0.00000E+00
 -1      1882 8.19000E+01 4.61030E+01 0.00000E+00
 -1      1883 7.96500E+01 4.48040E+01 0.00000E+00
 -1      1884 8.34000E+01 4.61030E+01 0.00000E+00
 -1      1885 8.49000E+01 4.61030E+01 0.00000E+00
 -1      1886 8.26500E+01 4.48040E+01 0.00000E+00
 -1      1887 8.64000E+01 4.61030E+01 0.00000E+00
 -1      1888 8.79000E+01 4.61030E+01 0.00000E+00
 -1      1889 8.56500E+01 4.48040E+01 0.00000E+00
 -1      1890 8.94000E+01 4.61030E+01 0.00000E+00
 -1      1891 9.09000E+01 4.61030E+01 0.00000E+00
 -1      1892 8.86500E+01 4.48040E+01 0.00000E+00
 -1      1893 9.24000E+01 4.61030E+01 0.00000E+00
 -1      1894 9.39000E+01 4.61030E+01 0.00000E+00
 -1      1895 9.16500E+01 4.48040E+01 0.00000E+00
 -1      1896 9.54000E+01 4.61030E+01 0.00000E+00
 -1      1897 9.69000E+01 4.61030E+01 0.00000E+00
 -1      1898 9.46500E+01 4.48040E+01 0.00000E+00
 -1      1899 9.84000E+01 4.61030E+01 0.00000E+00
 -1      1900 9.99000E+01 4.61030E+01 0.00000E+00
 -1      1901 9.76500E+01 4.48040E+01 0.00000E+00
 -1      1902 1.01400E+02 4.61030E+01 0.00000E+00
 -1      1903 1.02900E+02 4.61030E+01 0.00000E+00
 -1      1904 1.00650E+02 4.48040E+01 0.00000E+00
 -1      1905 1.04400E+02 4.61030E+01 0.00000E+00
 -1      1906 1.05900E+02 4.61030E+01 0.00000E+00
 -1      1907 1.03650E+02 4.48040E+01 0.00000E+00
 -1      1908 1.07400E+02 4.61030E+01 0.00000E+00
 -1      1909 1.08900E+02 4.61030E+01 0.00000E+00
 -1      1910 1.06650E+02 4.48040E+01 0.00000E+00
 -1      1911 1.10400E+02 4.61030E+01 0.00000E+00
 -1      1912 1.11900E+02 4.61030E+01 0.00000E+00
 -1      1913 1.09650E+02 4.48040E+01 0.00000E+00
 -1      1914 1.13400E+02 4.61030E+01 0.00000E+00
 -1      1915 1.14900E+02 4.61030E+01 0.00000E+00
 -1      1916 1.12650E+02 4.48040E+01 0.00000E+00
 -1      1917 1.16400E+02 4.61030E+01 0.00000E+00
 -1      1918 1.17900E+02 4.61030E+01 0.00000E+00
 -1      1919 1.15650E+02 4.48040E+01 0.00000E+00
 -1      1920 1.19400E+02 4.61030E+01 0.00000E+00
 -1      1921 1.20900E+02 4.61030E+01 0.00000E+00
 -1      1922 1.18650E+02 4.48040E+01 0.00000E+00
 -1      1923 1.22400E+02 4.61030E+01 0.00000E+00
 -1      1924 1.23900E+02 4.61030E+01 0.00000E+00
 -1      1925 1.21650E+02 4.48040E+01 0.00000E+00
 -1      1926 1.25400E+02 4.61030E+01 0.00000E+00
 -1      1927 1.26900E+02 4.61030E+01 0.00000E+00
 -1      1928 1.24650E+02 4.48040E+01 0.00000E+00
 -1      1929 1.28400E+02 4.61030E+01 0.00000E+00
 -1      1930 1.29900E+02 4.61030E+01 0.00000E+00
 -1      1931 1.27650E+02 4.48040E+01 0.00000E+00
 -1      1932 1.31400E+02 4.61030E+01 0.00000E+00
 -1      1933 1.32900E+02 4.61030E+01 0.00000E+00
 -1      1934 1.30650E+02 4.48040E+01 0.00000E+00
 -1      1935 1.34400E+02 4.61030E+01 0.00000E+00
 -1      1936 1.35900E+02 4.61030E+01 0.00000E+00
 -1      1937 1.33650E+02 4.48040E+01 0.00000E+00
 -1      1938 1.37400E+02 4.61030E+01 0.00000E+00
 -1      1939 1.38900E+02 4.61030E+01 0.00000E+00
 -1      1940 1.36650E+02 4.48040E+01 0.00000E+00
 -1      1941 1.40400E+02 4.61030E+01 0.00000E+00
 -1      1942 1.41900E+02 4.61030E+01 0.00000E+00
 -1      1943 1.39650E+02 4.48040E+01 0.00000E+00
 -1      1944 1.43244E+02 4.61616E+01 0.00000E+00
 -1      1945 1.44744E+02 4.61616E+01 0.00000E+00
 -1      1946 1.45182E+02 4.49799E+01 0.00000E+00
 -1      1947 1.42494E+02 4.48626E+01 0.00000E+00
 -1      1948 1.17045E+01 3.09687E+00 0.00000E+00
 -1      1949 1.02045E+01 3.09687E+00 0.00000E+00
 -1      1950 1.00350E+01 4.00625E+00 0.00000E+00
 -1      1951 1.47045E+01 3.09687E+00 0.00000E+00
 -1      1952 1.32045E+01 3.09687E+00 0.00000E+00
 -1      1953 1.30350E+01 4.00625E+00 0.00000E+00
 -1      1954 1.77045E+01 3.09687E+00 0.00000E+00
 -1      1955 1.62045E+01 3.09687E+00 0.00000E+00
 -1      1956 1.60350E+01 4.00625E+00 0.00000E+00
 -1      1957 2.07045E+01 3.09687E+00 0.00000E+00
 -1      1958 1.92045E+01 3.09687E+00 0.00000E+00
 -1      1959 1.90350E+01 4.00625E+00 0.00000E+00
 -1      1960 2.37045E+01 3.09687E+00 0.00000E+00
 -1      1961 2.22045E+01 3.09687E+00 0.00000E+00
 -1      1962 2.20350E+01 4.00625E+00 0.00000E+00
 -1      1963 2.67045E+01 3.09687E+00 0.00000E+00
 -1      1964 2.52045E+01 3.09687E+00 0.00000E+00
 -1      1965 2.50350E+01 4.00625E+00 0.00000E+00
 -1      1966 2.97045E+01 3.09687E+00 0.00000E+00
 -1      1967 2.82045E+01 3.09687E+00 0.00000E+00
 -1      1968 2.80350E+01 4.00625E+00 0.00000E+00
 -1      1969 3.27045E+01 3.09687E+00 0.00000E+00
 -1      1970 3.12045E+01 3.09687E+00 0.00000E+00
 -1      1971 3.10350E+01 4.00625E+00 0.00000E+00
 -1      1972 3.57045E+01 3.09687E+00 0.00000E+00
 -1      1973 3.42045E+01 3.09687E+00 0.00000E+00
 -1      1974 3.40350E+01 4.00625E+00 0.00000E+00
 -1      1975 3.87045E+01 3.09687E+00 0.00000E+00
 -1      1976 3.72045E+01 3.09687E+00 0.00000E+00
 -1      1977 3.70350E+01 4.00625E+00 0.00000E+00
 -1      1978 4.17045E+01 3.09687E+00 0.00000E+00
 -1      1979 4.02045E+01 3.09687E+00 0.00000E+00
 -1      1980 4.00350E+01 4.00625E+00 0.00000E+00
 -1      1981 4.47045E+01 3.09687E+00 0.00000E+00
 -1      1982 4.32045E+01 3.09687E+00 0.00000E+00
 -1      1983 4.30350E+01 4.00625E+00 0.00000E+00
 -1      1984 4.77045E+01 3.09687E+00 0.00000E+00
 -1      1985 4.62045E+01 3.09687E+00 0.00000E+00
 -1      1986 4.60350E+01 4.00625E+00 0.00000E+00
 -1      1987 5.07045E+01 3.09687E+00 0.00000E+00
 -1      1988 4.92045E+01 3.09687E+00 0.00000E+00
 -1      1989 4.90350E+01 4.00625E+00 0.00000E+00
 -1      1990 5.37045E+01 3.09687E+00 0.00000E+00
 -1      1991 5.22045E+01 3.09687E+00 0.00000E+00
 -1      1992 5.20350E+01 4.00625E+00 0.00000E+00
 -1      1993 5.67045E+01 3.09687E+00 0.00000E+00
 -1      1994 5.52045E+01 3.09687E+00 0.00000E+00
 -1      1995 5.50350E+01 4.00625E+00 0.00000E+00
 -1      1996 5.97045E+01 3.09687E+00 0.00000E+00
 -1      1997 5.82045E+01 3.09687E+00 0.00000E+00
 -1      1998 5.80350E+01 4.00625E+00 0.00000E+00
 -1      1999 6.27045E+01 3.09687E+00 0.00000E+00
 -1      2000 6.12045E+01 3.09687E+00 0.00000E+00
 -1      2001 6.10350E+01 4.00625E+00 0.00000E+00
 -1      2002 6.57045E+01 3.09687E+00 0.00000E+00
 -1      2003 6.42045E+01 3.09687E+00 0.00000E+00
 -1      2004 6.40350E+01 4.00625E+00 0.00000E+00
 -1      2005 6.87045E+01 3.09687E+00 0.00000E+00
 -1      2006 6.72045E+01 3.09687E+00 0.00000E+00
 -1      2007 6.70350E+01 4.00625E+00 0.00000E+00
 -1      2008 7.17045E+01 3.09687E+00 0.00000E+00
 -1      2009 7.02045E+01 3.09687E+00 0.00000E+00
 -1      2010 7.00350E+01 4.00625E+00 0.00000E+00
 -1      2011 7.47045E+01 3.09687E+00 0.00000E+00
 -1      2012 7.32045E+01 3.09687E+00 0.00000E+00
 -1      2013 7.30350E+01 4.00625E+00 0.00000E+00
 -1      2014 7.77045E+01 3.09687E+00 0.00000E+00
 -1      2015 7.62045E+01 3.09687E+00 0.00000E+00
 -1      2016 7.60350E+01 4.00625E+00 0.00000E+00
 -1      2017 8.07045E+01 3.09687E+00 0.00000E+00
 -1      2018 7.92045E+01 3.09687E+00 0.00000E+00
 -1      2019 7.90350E+01 4.00625E+00 0.00000E+00
 -1      2020 8.37045E+01 3.09687E+00 0.00000E+00
 -1      2021 8.22045E+01 3.09687E+00 0.00000E+00
 -1      2022 8.20350E+01 4.00625E+00 0.00000E+00
 -1      2023 8.67045E+01 3.09687E+00 0.00000E+00
 -1      2024 8.52045E+01 3.09687E+00 0.00000E+00
 -1      2025 8.50350E+01 4.00625E+00 0.00000E+00
 -1      2026 8.97045E+01 3.09687E+00 0.00000E+00
 -1      2027 8.82045E+01 3.09687E+00 0.00000E+00
 -1      2028 8.80350E+01 4.00625E+00 0.00000E+00
 -1      2029 9.27045E+01 3.09687E+00 0.00000E+00
 -1      2030 9.12045E+01 3.09687E+00 0.00000E+00
 -1      2031 9.10350E+01 4.00625E+00 0.00000E+00
 -1      2032 9.57045E+01 3.09687E+00 0.00000E+00
 -1      2033 9.42045E+01 3.09687E+00 0.00000E+00
 -1      2034 9.40350E+01 4.00625E+00 0.00000E+00
 -1      2035 9.87045E+01 3.09687E+00 0.00000E+00
 -1      2036 9.72045E+01 3.09687E+00 0.00000E+00
 -1      2037 9.70350E+01 4.00625E+00 0.00000E+00
 -1      2038 1.01704E+02 3.09687E+00 0.00000E+00
 -1      2039 1.00204E+02 3.09687E+00 0.00000E+00
 -1      2040 1.00035E+02 4.00625E+00 0.00000E+00
 -1      2041 1.04704E+02 3.09687E+00 0.00000E+00
 -1      2042 1.03204E+02 3.09687E+00 0.00000E+00
 -1      2043 1.03035E+02 4.00625E+00 0.00000E+00
 -1      2044 1.07704E+02 3.09687E+00 0.00000E+00
 -1      2045 1.06204E+02 3.09687E+00 0.00000E+00
 -1      2046 1.06035E+02 4.00625E+00 0.00000E+00
 -1      2047 1.10704E+02 3.09687E+00 0.00000E+00
 -1      2048 1.09204E+02 3.09687E+00 0.00000E+00
 -1      2049 1.09035E+02 4.00625E+00 0.00000E+00
 -1      2050 1.13704E+02 3.09687E+00 0.00000E+00
 -1      2051 1.12204E+02 3.09687E+00 0.00000E+00
 -1      2052 1.12035E+02 4.00625E+00 0.00000E+00
 -1      2053 1.16704E+02 3.09687E+00 0.00000E+00
 -1      2054 1.15204E+02 3.09687E+00 0.00000E+00
 -1      2055 1.15035E+02 4.00625E+00 0.00000E+00
 -1      2056 1.19704E+02 3.09687E+00 0.00000E+00
 -1      2057 1.18204E+02 3.09687E+00 0.00000E+00
 -1      2058 1.18035E+02 4.00625E+00 0.00000E+00
 -1      2059 1.22704E+02 3.09687E+00 0.00000E+00
 -1      2060 1.21204E+02 3.09687E+00 0.00000E+00
 -1      2061 1.21035E+02 4.00625E+00 0.00000E+00
 -1      2062 1.25704E+02 3.09687E+00 0.00000E+00
 -1      2063 1.24204E+02 3.09687E+00 0.00000E+00
 -1      2064 1.24035E+02 4.00625E+00 0.00000E+00
 -1      2065 1.28704E+02 3.09687E+00 0.00000E+00
 -1      2066 1.27204E+02 3.09687E+00 0.00000E+00
 -1      2067 1.27035E+02 4.00625E+00 0.00000E+00
 -1      2068 1.31704E+02 3.09687E+00 0.00000E+00
 -1      2069 1.30204E+02 3.09687E+00 0.00000E+00
 -1      2070 1.30035E+02 4.00625E+00 0.00000E+00
 -1      2071 1.34704E+02 3.09687E+00 0.00000E+00
 -1      2072 1.33204E+02 3.09687E+00 0.00000E+00
 -1      2073 1.33035E+02 4.00625E+00 0.00000E+00
 -1      2074 1.37704E+02 3.09687E+00 0.00000E+00
 -1      2075 1.36204E+02 3.09687E+00 0.00000E+00
 -1      2076 1.36035E+02 4.00625E+00 0.00000E+00
 -1      2077 1.40704E+02 3.09687E+00 0.00000E+00
 -1      2078 1.39204E+02 3.09687E+00 0.00000E+00
 -1      2079 1.39035E+02 4.00625E+00 0.00000E+00
 -1      2080 1.43704E+02 3.09687E+00 0.00000E+00
 -1      2081 1.42204E+02 3.09687E+00 0.00000E+00
 -1      2082 1.42035E+02 4.00625E+00 0.00000E+00
 -1      2083 1.46171E+02 3.20156E+00 0.00000E+00
 -1      2084 1.44671E+02 3.20156E+00 0.00000E+00
 -1      2085 1.44502E+02 4.11094E+00 0.00000E+00
 -1      2086 1.46435E+02 4.32031E+00 0.00000E+00
 -1      2087 1.46103E+02 1.25375E+01 0.00000E+00
 -1      2088 1.46103E+02 1.10625E+01 0.00000E+00
 -1      2089 1.46103E+02 9.58750E+00 0.00000E+00
 -1      2090 1.46103E+02 8.11250E+00 0.00000E+00
 -1      2091 1.44804E+02 1.03250E+01 0.00000E+00
 -1      2092 1.46269E+02 6.95391E+00 0.00000E+00
 -1      2093 1.46269E+02 5.47891E+00 0.00000E+00
 -1      2094 1.45302E+02 5.37422E+00 0.00000E+00
 -1      2095 1.44970E+02 7.69141E+00 0.00000E+00
 -1      2096 1.46103E+02 1.54375E+01 0.00000E+00
 -1      2097 1.46103E+02 1.39875E+01 0.00000E+00
 -1      2098 1.44804E+02 1.32500E+01 0.00000E+00
 -1      2099 1.46103E+02 1.83875E+01 0.00000E+00
 -1      2100 1.46103E+02 1.69125E+01 0.00000E+00
 -1      2101 1.44804E+02 1.61750E+01 0.00000E+00
 -1      2102 1.46103E+02 2.13375E+01 0.00000E+00
 -1      2103 1.46103E+02 1.98625E+01 0.00000E+00
 -1      2104 1.44804E+02 1.91250E+01 0.00000E+00
 -1      2105 1.46103E+02 2.42875E+01 0.00000E+00
 -1      2106 1.46103E+02 2.28125E+01 0.00000E+00
 -1      2107 1.44804E+02 2.20750E+01 0.00000E+00
 -1      2108 1.46103E+02 2.72375E+01 0.00000E+00
 -1      2109 1.46103E+02 2.57625E+01 0.00000E+00
 -1      2110 1.44804E+02 2.50250E+01 0.00000E+00
 -1      2111 1.46103E+02 3.01875E+01 0.00000E+00
 -1      2112 1.46103E+02 2.87125E+01 0.00000E+00
 -1      2113 1.44804E+02 2.79750E+01 0.00000E+00
 -1      2114 1.46103E+02 3.30875E+01 0.00000E+00
 -1      2115 1.46103E+02 3.16375E+01 0.00000E+00
 -1      2116 1.44804E+02 3.09000E+01 0.00000E+00
 -1      2117 1.46103E+02 3.60375E+01 0.00000E+00
 -1      2118 1.46103E+02 3.45625E+01 0.00000E+00
 -1      2119 1.44804E+02 3.38250E+01 0.00000E+00
 -1      2120 1.46103E+02 3.89875E+01 0.00000E+00
 -1      2121 1.46103E+02 3.75125E+01 0.00000E+00
 -1      2122 1.44804E+02 3.67750E+01 0.00000E+00
 -1      2123 1.46103E+02 4.19375E+01 0.00000E+00
 -1      2124 1.46103E+02 4.04625E+01 0.00000E+00
 -1      2125 1.44804E+02 3.97250E+01 0.00000E+00
 -1      2126 3.31430E+01 2.49212E+01 0.00000E+00
 -1      2127 3.34346E+01 2.57056E+01 0.00000E+00
 -1      2128 3.41805E+01 2.83834E+01 0.00000E+00
 -1      2129 3.41397E+01 2.92166E+01 0.00000E+00
 -1      2130 3.36818E+01 2.65010E+01 0.00000E+00
 -1      2131 3.39290E+01 2.72964E+01 0.00000E+00
 -1      2132 3.41828E+01 2.58684E+01 0.00000E+00
 -1      2133 3.22085E+01 2.32543E+01 0.00000E+00
 -1      2134 3.27330E+01 2.39313E+01 0.00000E+00
 -1      2135 3.09470E+01 2.20795E+01 0.00000E+00
 -1      2136 3.15778E+01 2.26669E+01 0.00000E+00
 -1      2137 3.24848E+01 2.25058E+01 0.00000E+00
 -1      2138 3.89700E+00 3.74688E+01 0.00000E+00
 -1      2139 3.89700E+00 3.89437E+01 0.00000E+00
 -1      2140 5.19600E+00 3.96813E+01 0.00000E+00
 -1      2141 5.19600E+00 3.67438E+01 0.00000E+00
 -1      2142 2.75332E+01 2.02368E+01 0.00000E+00
 -1      2143 2.83713E+01 2.05183E+01 0.00000E+00
 -1      2144 2.56519E+01 1.98948E+01 0.00000E+00
 -1      2145 2.65211E+01 1.99517E+01 0.00000E+00
 -1      2146 2.38070E+01 1.97609E+01 0.00000E+00
 -1      2147 2.47295E+01 1.98279E+01 0.00000E+00
 -1      2148 2.52118E+01 1.91260E+01 0.00000E+00
 -1      2149 2.17763E+01 2.04736E+01 0.00000E+00
 -1      2150 2.25750E+01 2.00380E+01 0.00000E+00
 -1      2151 2.01604E+01 2.11443E+01 0.00000E+00
 -1      2152 2.09683E+01 2.08089E+01 0.00000E+00
 -1      2153 2.10173E+01 1.99486E+01 0.00000E+00
 -1      2154 1.86695E+01 2.25404E+01 0.00000E+00
 -1      2155 1.92323E+01 2.18557E+01 0.00000E+00
 -1      2156 1.76853E+01 2.39322E+01 0.00000E+00
 -1      2157 1.81774E+01 2.32363E+01 0.00000E+00
 -1      2158 1.78610E+01 2.24027E+01 0.00000E+00
 -1      2159 1.66737E+01 2.54626E+01 0.00000E+00
 -1      2160 1.71795E+01 2.46974E+01 0.00000E+00
 -1      2161 1.68631E+01 2.38638E+01 0.00000E+00
 -1      2162 1.61457E+01 2.76168E+01 0.00000E+00
 -1      2163 1.61935E+01 2.67094E+01 0.00000E+00
 -1      2164 1.61104E+01 2.93728E+01 0.00000E+00
 -1      2165 1.61281E+01 2.84948E+01 0.00000E+00
 -1      2166 1.53793E+01 2.80004E+01 0.00000E+00
 -1      2167 1.64887E+01 3.13563E+01 0.00000E+00
 -1      2168 1.62406E+01 3.05084E+01 0.00000E+00
 -1      2169 1.73894E+01 3.29893E+01 0.00000E+00
 -1      2170 1.69866E+01 3.22438E+01 0.00000E+00
 -1      2171 1.82435E+01 3.45514E+01 0.00000E+00
 -1      2172 1.77764E+01 3.38144E+01 0.00000E+00
 -1      2173 1.97542E+01 3.58548E+01 0.00000E+00
 -1      2174 1.90510E+01 3.53125E+01 0.00000E+00
 -1      2175 2.13125E+01 3.68111E+01 0.00000E+00
 -1      2176 2.05616E+01 3.64525E+01 0.00000E+00
 -1      2177 2.29693E+01 3.73558E+01 0.00000E+00
 -1      2178 2.21823E+01 3.70796E+01 0.00000E+00
 -1      2179 2.47586E+01 3.79038E+01 0.00000E+00
 -1      2180 2.38961E+01 3.77896E+01 0.00000E+00
 -1      2181 2.67239E+01 3.76899E+01 0.00000E+00
 -1      2182 2.58699E+01 3.78394E+01 0.00000E+00
 -1      2183 2.83912E+01 3.71966E+01 0.00000E+00
 -1      2184 2.75575E+01 3.74433E+01 0.00000E+00
 -1      2185 2.72712E+01 3.83215E+01 0.00000E+00
 -1      2186 3.02138E+01 3.62686E+01 0.00000E+00
 -1      2187 2.94929E+01 3.67532E+01 0.00000E+00
 -1      2188 3.14928E+01 3.49257E+01 0.00000E+00
 -1      2189 3.09071E+01 3.55287E+01 0.00000E+00
 -1      2190 3.26764E+01 3.36261E+01 0.00000E+00
 -1      2191 3.21592E+01 3.42884E+01 0.00000E+00
 -1      2192 3.34214E+01 3.18617E+01 0.00000E+00
 -1      2193 3.31211E+01 3.26614E+01 0.00000E+00
 -1      2194 3.39091E+01 3.01745E+01 0.00000E+00
 -1      2195 3.36987E+01 3.09865E+01 0.00000E+00
 -1      2196 2.93761E+01 2.08706E+01 0.00000E+00
 -1      2197 3.01041E+01 2.13542E+01 0.00000E+00
 -1      2198 3.10112E+01 2.11931E+01 0.00000E+00
 -1      2199 6.42300E+00 4.57510E+01 0.00000E+00
 -1      2200 2.30573E+01 1.93361E+01 0.00000E+00
 -1      2201 2.35397E+01 1.86343E+01 0.00000E+00
 -1      2202 2.23076E+01 1.89114E+01 0.00000E+00
 -1      2203 2.91634E+01 2.01155E+01 0.00000E+00
 -1      2204 7.17300E+00 4.44520E+01 0.00000E+00
 -1      2205 3.46814E+01 2.77508E+01 0.00000E+00
 -1      2206 3.35255E+01 2.40831E+01 0.00000E+00
 -1      2207 1.45665E+02 4.31193E+01 0.00000E+00
 -1      2208 3.47024E+01 2.97957E+01 0.00000E+00
 -1      2209 3.41945E+01 3.16288E+01 0.00000E+00
 -1      2210 3.34724E+01 3.34688E+01 0.00000E+00
 -1      2211 3.23613E+01 3.50707E+01 0.00000E+00
 -1      2212 2.92066E+01 3.76314E+01 0.00000E+00
 -1      2213 2.53262E+01 3.86325E+01 0.00000E+00
 -1      2214 2.32880E+01 3.82630E+01 0.00000E+00
 -1      2215 2.14914E+01 3.75608E+01 0.00000E+00
 -1      2216 1.98142E+01 3.66946E+01 0.00000E+00
 -1      2217 1.81993E+01 3.53358E+01 0.00000E+00
 -1      2218 1.70048E+01 3.37497E+01 0.00000E+00
 -1      2219 1.54918E+01 3.00140E+01 0.00000E+00
 -1      2220 1.50805E+01 2.62888E+01 0.00000E+00
 -1      2221 1.58771E+01 2.58757E+01 0.00000E+00
 -1      2222 1.55607E+01 2.50420E+01 0.00000E+00
 -1      2223 1.92812E+01 2.09954E+01 0.00000E+00
 -1      2224 2.71464E+01 1.94781E+01 0.00000E+00
 -1      2225 1.61199E+01 3.20371E+01 0.00000E+00
 -1      2226 3.10016E+01 3.64479E+01 0.00000E+00
 -1      2227 1.07850E+01 5.30525E+00 0.00000E+00
 -1      2228 9.28500E+00 5.30525E+00 0.00000E+00
 -1      2229 6.49500E+00 3.01125E+01 0.00000E+00
 -1      2230 6.49500E+00 3.15875E+01 0.00000E+00
 -1      2231 6.49500E+00 3.30625E+01 0.00000E+00
 -1      2232 6.49500E+00 3.45375E+01 0.00000E+00
 -1      2233 7.79400E+00 3.23250E+01 0.00000E+00
 -1      2234 6.49500E+00 2.42125E+01 0.00000E+00
 -1      2235 6.49500E+00 2.56875E+01 0.00000E+00
 -1      2236 6.49500E+00 2.12625E+01 0.00000E+00
 -1      2237 6.49500E+00 2.27375E+01 0.00000E+00
 -1      2238 7.79400E+00 2.34750E+01 0.00000E+00
 -1      2239 6.49500E+00 1.83625E+01 0.00000E+00
 -1      2240 6.49500E+00 1.98125E+01 0.00000E+00
 -1      2241 7.79400E+00 2.05500E+01 0.00000E+00
 -1      2242 6.49500E+00 1.54125E+01 0.00000E+00
 -1      2243 6.49500E+00 1.68875E+01 0.00000E+00
 -1      2244 7.79400E+00 1.76250E+01 0.00000E+00
 -1      2245 6.49500E+00 1.24625E+01 0.00000E+00
 -1      2246 6.49500E+00 1.39375E+01 0.00000E+00
 -1      2247 7.79400E+00 1.46750E+01 0.00000E+00
 -1      2248 6.49500E+00 9.51250E+00 0.00000E+00
 -1      2249 6.49500E+00 1.09875E+01 0.00000E+00
 -1      2250 7.79400E+00 1.17250E+01 0.00000E+00
 -1      2251 1.37850E+01 5.30525E+00 0.00000E+00
 -1      2252 1.22850E+01 5.30525E+00 0.00000E+00
 -1      2253 1.15350E+01 6.60425E+00 0.00000E+00
 -1      2254 9.90000E+00 4.35050E+01 0.00000E+00
 -1      2255 1.14000E+01 4.35050E+01 0.00000E+00
 -1      2256 1.29000E+01 4.35050E+01 0.00000E+00
 -1      2257 1.44000E+01 4.35050E+01 0.00000E+00
 -1      2258 1.21500E+01 4.22060E+01 0.00000E+00
 -1      2259 1.59000E+01 4.35050E+01 0.00000E+00
 -1      2260 1.74000E+01 4.35050E+01 0.00000E+00
 -1      2261 1.51500E+01 4.22060E+01 0.00000E+00
 -1      2262 1.89000E+01 4.35050E+01 0.00000E+00
 -1      2263 2.04000E+01 4.35050E+01 0.00000E+00
 -1      2264 1.81500E+01 4.22060E+01 0.00000E+00
 -1      2265 2.19000E+01 4.35050E+01 0.00000E+00
 -1      2266 2.34000E+01 4.35050E+01 0.00000E+00
 -1      2267 2.11500E+01 4.22060E+01 0.00000E+00
 -1      2268 2.49000E+01 4.35050E+01 0.00000E+00
 -1      2269 2.64000E+01 4.35050E+01 0.00000E+00
 -1      2270 2.41500E+01 4.22060E+01 0.00000E+00
 -1      2271 2.79000E+01 4.35050E+01 0.00000E+00
 -1      2272 2.94000E+01 4.35050E+01 0.00000E+00
 -1      2273 2.71500E+01 4.22060E+01 0.00000E+00
 -1      2274 3.09000E+01 4.35050E+01 0.00000E+00
 -1      2275 3.24000E+01 4.35050E+01 0.00000E+00
 -1      2276 3.01500E+01 4.22060E+01 0.00000E+00
 -1      2277 3.39000E+01 4.35050E+01 0.00000E+00
 -1      2278 3.54000E+01 4.35050E+01 0.00000E+00
 -1      2279 3.31500E+01 4.22060E+01 0.00000E+00
 -1      2280 3.69000E+01 4.35050E+01 0.00000E+00
 -1      2281 3.84000E+01 4.35050E+01 0.00000E+00
 -1      2282 3.61500E+01 4.22060E+01 0.00000E+00
 -1      2283 3.99000E+01 4.35050E+01 0.00000E+00
 -1      2284 4.14000E+01 4.35050E+01 0.00000E+00
 -1      2285 3.91500E+01 4.22060E+01 0.00000E+00
 -1      2286 4.29000E+01 4.35050E+01 0.00000E+00
 -1      2287 4.44000E+01 4.35050E+01 0.00000E+00
 -1      2288 4.21500E+01 4.22060E+01 0.00000E+00
 -1      2289 4.59000E+01 4.35050E+01 0.00000E+00
 -1      2290 4.74000E+01 4.35050E+01 0.00000E+00
 -1      2291 4.51500E+01 4.22060E+01 0.00000E+00
 -1      2292 4.89000E+01 4.35050E+01 0.00000E+00
 -1      2293 5.04000E+01 4.35050E+01 0.00000E+00
 -1      2294 4.81500E+01 4.22060E+01 0.00000E+00
 -1      2295 5.19000E+01 4.35050E+01 0.00000E+00
 -1      2296 5.34000E+01 4.35050E+01 0.00000E+00
 -1      2297 5.11500E+01 4.22060E+01 0.00000E+00
 -1      2298 5.49000E+01 4.35050E+01 0.00000E+00
 -1      2299 5.64000E+01 4.35050E+01 0.00000E+00
 -1      2300 5.41500E+01 4.22060E+01 0.00000E+00
 -1      2301 5.79000E+01 4.35050E+01 0.00000E+00
 -1      2302 5.94000E+01 4.35050E+01 0.00000E+00
 -1      2303 5.71500E+01 4.22060E+01 0.00000E+00
 -1      2304 6.09000E+01 4.35050E+01 0.00000E+00
 -1      2305 6.24000E+01 4.35050E+01 0.00000E+00
 -1      2306 6.01500E+01 4.22060E+01 0.00000E+00
 -1      2307 6.39000E+01 4.35050E+01 0.00000E+00
 -1      2308 6.54000E+01 4.35050E+01 0.00000E+00
 -1      2309 6.31500E+01 4.22060E+01 0.00000E+00
 -1      2310 6.69000E+01 4.35050E+01 0.00000E+00
 -1      2311 6.84000E+01 4.35050E+01 0.00000E+00
 -1      2312 6.61500E+01 4.22060E+01 0.00000E+00
 -1      2313 6.99000E+01 4.35050E+01 0.00000E+00
 -1      2314 7.14000E+01 4.35050E+01 0.00000E+00
 -1      2315 6.91500E+01 4.22060E+01 0.00000E+00
 -1      2316 7.29000E+01 4.35050E+01 0.00000E+00
 -1      2317 7.44000E+01 4.35050E+01 0.00000E+00
 -1      2318 7.21500E+01 4.22060E+01 0.00000E+00
 -1      2319 7.59000E+01 4.35050E+01 0.00000E+00
 -1      2320 7.74000E+01 4.35050E+01 0.00000E+00
 -1      2321 7.51500E+01 4.22060E+01 0.00000E+00
 -1      2322 7.89000E+01 4.35050E+01 0.00000E+00
 -1      2323 8.04000E+01 4.35050E+01 0.00000E+00
 -1      2324 7.81500E+01 4.22060E+01 0.00000E+00
 -1      2325 8.19000E+01 4.35050E+01 0.00000E+00
 -1      2326 8.34000E+01 4.35050E+01 0.00000E+00
 -1      2327 8.11500E+01 4.22060E+01 0.00000E+00
 -1      2328 8.49000E+01 4.35050E+01 0.00000E+00
 -1      2329 8.64000E+01 4.35050E+01 0.00000E+00
 -1      2330 8.41500E+01 4.22060E+01 0.00000E+00
 -1      2331 8.79000E+01 4.35050E+01 0.00000E+00
 -1      2332 8.94000E+01 4.35050E+01 0.00000E+00
 -1      2333 8.71500E+01 4.22060E+01 0.00000E+00
 -1      2334 9.09000E+01 4.35050E+01 0.00000E+00
 -1      2335 9.24000E+01 4.35050E+01 0.00000E+00
 -1      2336 9.01500E+01 4.22060E+01 0.00000E+00
 -1      2337 9.39000E+01 4.35050E+01 0.00000E+00
 -1      2338 9.54000E+01 4.35050E+01 0.00000E+00
 -1      2339 9.31500E+01 4.22060E+01 0.00000E+00
 -1      2340 9.69000E+01 4.35050E+01 0.00000E+00
 -1      2341 9.84000E+01 4.35050E+01 0.00000E+00
 -1      2342 9.61500E+01 4.22060E+01 0.00000E+00
 -1      2343 9.99000E+01 4.35050E+01 0.00000E+00
 -1      2344 1.01400E+02 4.35050E+01 0.00000E+00
 -1      2345 9.91500E+01 4.22060E+01 0.00000E+00
 -1      2346 1.02900E+02 4.35050E+01 0.00000E+00
 -1      2347 1.04400E+02 4.35050E+01 0.00000E+00
 -1      2348 1.02150E+02 4.22060E+01 0.00000E+00
 -1      2349 1.05900E+02 4.35050E+01 0.00000E+00
 -1      2350 1.07400E+02 4.35050E+01 0.00000E+00
 -1      2351 1.05150E+02 4.22060E+01 0.00000E+00
 -1      2352 1.08900E+02 4.35050E+01 0.00000E+00
 -1      2353 1.10400E+02 4.35050E+01 0.00000E+00
 -1      2354 1.08150E+02 4.22060E+01 0.00000E+00
 -1      2355 1.11900E+02 4.35050E+01 0.00000E+00
 -1      2356 1.13400E+02 4.35050E+01 0.00000E+00
 -1      2357 1.11150E+02 4.22060E+01 0.00000E+00
 -1      2358 1.14900E+02 4.35050E+01 0.00000E+00
 -1      2359 1.16400E+02 4.35050E+01 0.00000E+00
 -1      2360 1.14150E+02 4.22060E+01 0.00000E+00
 -1      2361 1.17900E+02 4.35050E+01 0.00000E+00
 -1      2362 1.19400E+02 4.35050E+01 0.00000E+00
 -1      2363 1.17150E+02 4.22060E+01 0.00000E+00
 -1      2364 1.20900E+02 4.35050E+01 0.00000E+00
 -1      2365 1.22400E+02 4.35050E+01 0.00000E+00
 -1      2366 1.20150E+02 4.22060E+01 0.00000E+00
 -1      2367 1.23900E+02 4.35050E+01 0.00000E+00
 -1      2368 1.25400E+02 4.35050E+01 0.00000E+00
 -1      2369 1.23150E+02 4.22060E+01 0.00000E+00
 -1      2370 1.26900E+02 4.35050E+01 0.00000E+00
 -1      2371 1.28400E+02 4.35050E+01 0.00000E+00
 -1      2372 1.26150E+02 4.22060E+01 0.00000E+00
 -1      2373 1.29900E+02 4.35050E+01 0.00000E+00
 -1      2374 1.31400E+02 4.35050E+01 0.00000E+00
 -1      2375 1.29150E+02 4.22060E+01 0.00000E+00
 -1      2376 1.32900E+02 4.35050E+01 0.00000E+00
 -1      2377 1.34400E+02 4.35050E+01 0.00000E+00
 -1      2378 1.32150E+02 4.22060E+01 0.00000E+00
 -1      2379 1.35900E+02 4.35050E+01 0.00000E+00
 -1      2380 1.37400E+02 4.35050E+01 0.00000E+00
 -1      2381 1.35150E+02 4.22060E+01 0.00000E+00
 -1      2382 1.38900E+02 4.35050E+01 0.00000E+00
 -1      2383 1.40400E+02 4.35050E+01 0.00000E+00
 -1      2384 1.38150E+02 4.22060E+01 0.00000E+00
 -1      2385 3.48781E+01 2.52162E+01 0.00000E+00
 -1      2386 3.51253E+01 2.60116E+01 0.00000E+00
 -1      2387 1.97850E+01 5.30525E+00 0.00000E+00
 -1      2388 1.82850E+01 5.30525E+00 0.00000E+00
 -1      2389 2.27850E+01 5.30525E+00 0.00000E+00
 -1      2390 2.12850E+01 5.30525E+00 0.00000E+00
 -1      2391 2.05350E+01 6.60425E+00 0.00000E+00
 -1      2392 2.57850E+01 5.30525E+00 0.00000E+00
 -1      2393 2.42850E+01 5.30525E+00 0.00000E+00
 -1      2394 2.35350E+01 6.60425E+00 0.00000E+00
 -1      2395 2.87850E+01 5.30525E+00 0.00000E+00
 -1      2396 2.72850E+01 5.30525E+00 0.00000E+00
 -1      2397 2.65350E+01 6.60425E+00 0.00000E+00
 -1      2398 3.17850E+01 5.30525E+00 0.00000E+00
 -1      2399 3.02850E+01 5.30525E+00 0.00000E+00
 -1      2400 2.95350E+01 6.60425E+00 0.00000E+00
 -1      2401 3.47850E+01 5.30525E+00 0.00000E+00
 -1      2402 3.32850E+01 5.30525E+00 0.00000E+00
 -1      2403 3.25350E+01 6.60425E+00 0.00000E+00
 -1      2404 3.77850E+01 5.30525E+00 0.00000E+00
 -1      2405 3.62850E+01 5.30525E+00 0.00000E+00
 -1      2406 3.55350E+01 6.60425E+00 0.00000E+00
 -1      2407 4.07850E+01 5.30525E+00 0.00000E+00
 -1      2408 3.92850E+01 5.30525E+00 0.00000E+00
 -1      2409 3.85350E+01 6.60425E+00 0.00000E+00
 -1      2410 4.37850E+01 5.30525E+00 0.00000E+00
 -1      2411 4.22850E+01 5.30525E+00 0.00000E+00
 -1      2412 4.15350E+01 6.60425E+00 0.00000E+00
 -1      2413 4.67850E+01 5.30525E+00 0.00000E+00
 -1      2414 4.52850E+01 5.30525E+00 0.00000E+00
 -1      2415 4.45350E+01 6.60425E+00 0.00000E+00
 -1      2416 4.97850E+01 5.30525E+00 0.00000E+00
 -1      2417 4.82850E+01 5.30525E+00 0.00000E+00
 -1      2418 4.75350E+01 6.60425E+00 0.00000E+00
 -1      2419 5.27850E+01 5.30525E+00 0.00000E+00
 -1      2420 5.12850E+01 5.30525E+00 0.00000E+00
 -1      2421 5.05350E+01 6.60425E+00 0.00000E+00
 -1      2422 5.57850E+01 5.30525E+00 0.00000E+00
 -1      2423 5.42850E+01 5.30525E+00 0.00000E+00
 -1      2424 5.35350E+01 6.60425E+00 0.00000E+00
 -1      2425 5.87850E+01 5.30525E+00 0.00000E+00
 -1      2426 5.72850E+01 5.30525E+00 0.00000E+00
 -1      2427 5.65350E+01 6.60425E+00 0.00000E+00
 -1      2428 6.17850E+01 5.30525E+00 0.00000E+00
 -1      2429 6.02850E+01 5.30525E+00 0.00000E+00
 -1      2430 5.95350E+01 6.60425E+00 0.00000E+00
 -1      2431 6.47850E+01 5.30525E+00 0.00000E+00
 -1      2432 6.32850E+01 5.30525E+00 0.00000E+00
 -1      2433 6.25350E+01 6.60425E+00 0.00000E+00
 -1      2434 6.77850E+01 5.30525E+00 0.00000E+00
 -1      2435 6.62850E+01 5.30525E+00 0.00000E+00
 -1      2436 6.55350E+01 6.60425E+00 0.00000E+00
 -1      2437 7.07850E+01 5.30525E+00 0.00000E+00
 -1      2438 6.92850E+01 5.30525E+00 0.00000E+00
 -1      2439 6.85350E+01 6.60425E+00 0.00000E+00
 -1      2440 7.37850E+01 5.30525E+00 0.00000E+00
 -1      2441 7.22850E+01 5.30525E+00 0.00000E+00
 -1      2442 7.15350E+01 6.60425E+00 0.00000E+00
 -1      2443 7.67850E+01 5.30525E+00 0.00000E+00
 -1      2444 7.52850E+01 5.30525E+00 0.00000E+00
 -1      2445 7.45350E+01 6.60425E+00 0.00000E+00
 -1      2446 7.97850E+01 5.30525E+00 0.00000E+00
 -1      2447 7.82850E+01 5.30525E+00 0.00000E+00
 -1      2448 7.75350E+01 6.60425E+00 0.00000E+00
 -1      2449 8.27850E+01 5.30525E+00 0.00000E+00
 -1      2450 8.12850E+01 5.30525E+00 0.00000E+00
 -1      2451 8.05350E+01 6.60425E+00 0.00000E+00
 -1      2452 8.57850E+01 5.30525E+00 0.00000E+00
 -1      2453 8.42850E+01 5.30525E+00 0.00000E+00
 -1      2454 8.35350E+01 6.60425E+00 0.00000E+00
 -1      2455 8.87850E+01 5.30525E+00 0.00000E+00
 -1      2456 8.72850E+01 5.30525E+00 0.00000E+00
 -1      2457 8.65350E+01 6.60425E+00 0.00000E+00
 -1      2458 9.17850E+01 5.30525E+00 0.00000E+00
 -1      2459 9.02850E+01 5.30525E+00 0.00000E+00
 -1      2460 8.95350E+01 6.60425E+00 0.00000E+00
 -1      2461 9.47850E+01 5.30525E+00 0.00000E+00
 -1      2462 9.32850E+01 5.30525E+00 0.00000E+00
 -1      2463 9.25350E+01 6.60425E+00 0.00000E+00
 -1      2464 9.77850E+01 5.30525E+00 0.00000E+00
 -1      2465 9.62850E+01 5.30525E+00 0.00000E+00
 -1      2466 9.55350E+01 6.60425E+00 0.00000E+00
 -1      2467 1.00785E+02 5.30525E+00 0.00000E+00
 -1      2468 9.92850E+01 5.30525E+00 0.00000E+00
 -1      2469 9.85350E+01 6.60425E+00 0.00000E+00
 -1      2470 1.03785E+02 5.30525E+00 0.00000E+00
 -1      2471 1.02285E+02 5.30525E+00 0.00000E+00
 -1      2472 1.01535E+02 6.60425E+00 0.00000E+00
 -1      2473 1.06785E+02 5.30525E+00 0.00000E+00
 -1      2474 1.05285E+02 5.30525E+00 0.00000E+00
 -1      2475 1.04535E+02 6.60425E+00 0.00000E+00
 -1      2476 1.09785E+02 5.30525E+00 0.00000E+00
 -1      2477 1.08285E+02 5.30525E+00 0.00000E+00
 -1      2478 1.07535E+02 6.60425E+00 0.00000E+00
 -1      2479 1.12785E+02 5.30525E+00 0.00000E+00
 -1      2480 1.11285E+02 5.30525E+00 0.00000E+00
 -1      2481 1.10535E+02 6.60425E+00 0.00000E+00
 -1      2482 1.15785E+02 5.30525E+00 0.00000E+00
 -1      2483 1.14285E+02 5.30525E+00 0.00000E+00
 -1      2484 1.13535E+02 6.60425E+00 0.00000E+00
 -1      2485 1.18785E+02 5.30525E+00 0.00000E+00
 -1      2486 1.17285E+02 5.30525E+00 0.00000E+00
 -1      2487 1.16535E+02 6.60425E+00 0.00000E+00
 -1      2488 1.21785E+02 5.30525E+00 0.00000E+00
 -1      2489 1.20285E+02 5.30525E+00 0.00000E+00
 -1      2490 1.19535E+02 6.60425E+00 0.00000E+00
 -1      2491 1.24785E+02 5.30525E+00 0.00000E+00
 -1      2492 1.23285E+02 5.30525E+00 0.00000E+00
 -1      2493 1.22535E+02 6.60425E+00 0.00000E+00
 -1      2494 1.27785E+02 5.30525E+00 0.00000E+00
 -1      2495 1.26285E+02 5.30525E+00 0.00000E+00
 -1      2496 1.25535E+02 6.60425E+00 0.00000E+00
 -1      2497 1.30785E+02 5.30525E+00 0.00000E+00
 -1      2498 1.29285E+02 5.30525E+00 0.00000E+00
 -1      2499 1.28535E+02 6.60425E+00 0.00000E+00
 -1      2500 1.33785E+02 5.30525E+00 0.00000E+00
 -1      2501 1.32285E+02 5.30525E+00 0.00000E+00
 -1      2502 1.31535E+02 6.60425E+00 0.00000E+00
 -1      2503 1.36785E+02 5.30525E+00 0.00000E+00
 -1      2504 1.35285E+02 5.30525E+00 0.00000E+00
 -1      2505 1.34535E+02 6.60425E+00 0.00000E+00
 -1      2506 1.39785E+02 5.30525E+00 0.00000E+00
 -1      2507 1.38285E+02 5.30525E+00 0.00000E+00
 -1      2508 1.37535E+02 6.60425E+00 0.00000E+00
 -1      2509 1.42785E+02 5.30525E+00 0.00000E+00
 -1      2510 1.41285E+02 5.30525E+00 0.00000E+00
 -1      2511 1.40535E+02 6.60425E+00 0.00000E+00
 -1      2512 1.44336E+02 5.26953E+00 0.00000E+00
 -1      2513 1.43505E+02 1.69125E+01 0.00000E+00
 -1      2514 1.43505E+02 1.54375E+01 0.00000E+00
 -1      2515 1.43505E+02 1.98625E+01 0.00000E+00
 -1      2516 1.43505E+02 1.83875E+01 0.00000E+00
 -1      2517 1.42206E+02 1.76500E+01 0.00000E+00
 -1      2518 1.43505E+02 1.10625E+01 0.00000E+00
 -1      2519 1.43505E+02 9.58750E+00 0.00000E+00
 -1      2520 1.43505E+02 1.39750E+01 0.00000E+00
 -1      2521 1.43505E+02 1.25250E+01 0.00000E+00
 -1      2522 1.42206E+02 1.17875E+01 0.00000E+00
 -1      2523 1.42206E+02 1.47125E+01 0.00000E+00
 -1      2524 1.43505E+02 2.28125E+01 0.00000E+00
 -1      2525 1.43505E+02 2.13375E+01 0.00000E+00
 -1      2526 1.42206E+02 2.06000E+01 0.00000E+00
 -1      2527 1.43505E+02 2.57625E+01 0.00000E+00
 -1      2528 1.43505E+02 2.42875E+01 0.00000E+00
 -1      2529 1.42206E+02 2.35500E+01 0.00000E+00
 -1      2530 1.43505E+02 2.87125E+01 0.00000E+00
 -1      2531 1.43505E+02 2.72375E+01 0.00000E+00
 -1      2532 1.42206E+02 2.65000E+01 0.00000E+00
 -1      2533 1.43505E+02 3.16125E+01 0.00000E+00
 -1      2534 1.43505E+02 3.01625E+01 0.00000E+00
 -1      2535 1.42206E+02 2.94250E+01 0.00000E+00
 -1      2536 1.43505E+02 3.45625E+01 0.00000E+00
 -1      2537 1.43505E+02 3.30875E+01 0.00000E+00
 -1      2538 1.42206E+02 3.23500E+01 0.00000E+00
 -1      2539 1.43505E+02 3.75125E+01 0.00000E+00
 -1      2540 1.43505E+02 3.60375E+01 0.00000E+00
 -1      2541 1.42206E+02 3.53000E+01 0.00000E+00
 -1      2542 1.43505E+02 4.04625E+01 0.00000E+00
 -1      2543 1.43505E+02 3.89875E+01 0.00000E+00
 -1      2544 1.42206E+02 3.82500E+01 0.00000E+00
 -1      2545 1.44321E+02 4.30606E+01 0.00000E+00
 -1      2546 3.55699E+01 2.94979E+01 0.00000E+00
 -1      2547 3.53394E+01 3.04557E+01 0.00000E+00
 -1      2548 1.67850E+01 5.30525E+00 0.00000E+00
 -1      2549 1.52850E+01 5.30525E+00 0.00000E+00
 -1      2550 1.75350E+01 6.60425E+00 0.00000E+00
 -1      2551 3.40580E+01 2.32364E+01 0.00000E+00
 -1      2552 3.44680E+01 2.42263E+01 0.00000E+00
 -1      2553 3.54106E+01 2.43695E+01 0.00000E+00
 -1      2554 3.27539E+01 2.15846E+01 0.00000E+00
 -1      2555 3.33846E+01 2.21720E+01 0.00000E+00
 -1      2556 6.55950E+00 4.28890E+01 0.00000E+00
 -1      2557 8.53650E+00 4.32410E+01 0.00000E+00
 -1      2558 9.28650E+00 4.19420E+01 0.00000E+00
 -1      2559 6.55950E+00 4.14140E+01 0.00000E+00
 -1      2560 3.50621E+01 3.13310E+01 0.00000E+00
 -1      2561 3.47848E+01 3.22062E+01 0.00000E+00
 -1      2562 3.59296E+01 3.10331E+01 0.00000E+00
 -1      2563 2.59290E+01 3.94146E+01 0.00000E+00
 -1      2564 2.48176E+01 3.94790E+01 0.00000E+00
 -1      2565 6.49500E+00 2.71625E+01 0.00000E+00
 -1      2566 6.49500E+00 2.86375E+01 0.00000E+00
 -1      2567 7.79400E+00 2.93750E+01 0.00000E+00
 -1      2568 7.79400E+00 2.64250E+01 0.00000E+00
 -1      2569 2.89309E+01 1.91696E+01 0.00000E+00
 -1      2570 2.99357E+01 1.95220E+01 0.00000E+00
 -1      2571 1.56210E+01 3.29005E+01 0.00000E+00
 -1      2572 1.51231E+01 3.20129E+01 0.00000E+00
 -1      2573 2.48248E+01 1.80701E+01 0.00000E+00
 -1      2574 2.57473E+01 1.81370E+01 0.00000E+00
 -1      2575 2.68728E+01 1.85101E+01 0.00000E+00
 -1      2576 2.78850E+01 1.87952E+01 0.00000E+00
 -1      2577 2.03167E+01 1.94016E+01 0.00000E+00
 -1      2578 2.11246E+01 1.90663E+01 0.00000E+00
 -1      2579 1.59647E+01 2.38197E+01 0.00000E+00
 -1      2580 1.64705E+01 2.30545E+01 0.00000E+00
 -1      2581 1.69626E+01 2.23586E+01 0.00000E+00
 -1      2582 1.74547E+01 2.16627E+01 0.00000E+00
 -1      2583 1.60642E+01 2.23145E+01 0.00000E+00
 -1      2584 1.83209E+01 2.07037E+01 0.00000E+00
 -1      2585 1.92490E+01 1.99923E+01 0.00000E+00
 -1      2586 1.45550E+01 2.84230E+01 0.00000E+00
 -1      2587 1.45726E+01 2.75450E+01 0.00000E+00
 -1      2588 3.20352E+01 3.67215E+01 0.00000E+00
 -1      2589 3.13420E+01 3.74615E+01 0.00000E+00
 -1      2590 1.47050E+01 3.06795E+01 0.00000E+00
 -1      2591 1.45748E+01 2.95439E+01 0.00000E+00
 -1      2592 1.63949E+01 3.45505E+01 0.00000E+00
 -1      2593 1.60079E+01 3.37255E+01 0.00000E+00
 -1      2594 1.50111E+01 3.37013E+01 0.00000E+00
 -1      2595 1.81011E+01 3.62489E+01 0.00000E+00
 -1      2596 1.72935E+01 3.54878E+01 0.00000E+00
 -1      2597 1.97576E+01 3.76153E+01 0.00000E+00
 -1      2598 1.89501E+01 3.70176E+01 0.00000E+00
 -1      2599 2.16981E+01 3.84344E+01 0.00000E+00
 -1      2600 2.08283E+01 3.81659E+01 0.00000E+00
 -1      2601 2.35517E+01 3.93019E+01 0.00000E+00
 -1      2602 2.26249E+01 3.88681E+01 0.00000E+00
 -1      2603 2.19618E+01 3.94732E+01 0.00000E+00
 -1      2604 2.79313E+01 3.90205E+01 0.00000E+00
 -1      2605 2.70977E+01 3.92671E+01 0.00000E+00
 -1      2606 3.00777E+01 3.82051E+01 0.00000E+00
 -1      2607 2.89759E+01 3.86486E+01 0.00000E+00
 -1      2608 3.33680E+01 3.54470E+01 0.00000E+00
 -1      2609 3.27016E+01 3.60843E+01 0.00000E+00
 -1      2610 3.30420E+01 3.70978E+01 0.00000E+00
 -1      2611 3.43975E+01 3.33104E+01 0.00000E+00
 -1      2612 3.39527E+01 3.42751E+01 0.00000E+00
 -1      2613 3.53768E+01 2.70986E+01 0.00000E+00
 -1      2614 3.56282E+01 2.81856E+01 0.00000E+00
 -1      2615 3.60721E+01 2.64464E+01 0.00000E+00
 -1      2616 8.07525E+00 5.11044E+00 0.00000E+00
 -1      2617 6.57525E+00 5.11044E+00 0.00000E+00
 -1      2618 6.40575E+00 6.01981E+00 0.00000E+00
 -1      2619 8.82525E+00 6.40944E+00 0.00000E+00
 -1      2620 3.10681E+01 2.01341E+01 0.00000E+00
 -1      2621 3.19110E+01 2.08593E+01 0.00000E+00
 -1      2622 3.28108E+01 2.05255E+01 0.00000E+00
 -1      2623 3.08356E+01 1.91882E+01 0.00000E+00
 -1      2624 7.79400E+00 3.52687E+01 0.00000E+00
 -1      2625 6.49500E+00 3.60062E+01 0.00000E+00
 -1      2626 6.49500E+00 3.74750E+01 0.00000E+00
 -1      2627 1.45350E+01 6.60425E+00 0.00000E+00
 -1      2628 6.40575E+00 7.49481E+00 0.00000E+00
 -1      2629 2.16070E+01 1.83644E+01 0.00000E+00
 -1      2630 3.42931E+01 3.52887E+01 0.00000E+00
 -1      2631 2.40751E+01 1.76453E+01 0.00000E+00
 -1      2632 3.11113E+01 3.84787E+01 0.00000E+00
 -1      2633 2.41545E+01 4.00840E+01 0.00000E+00
 -1      2634 3.43271E+01 2.23152E+01 0.00000E+00
 -1      2635 1.43586E+02 6.56853E+00 0.00000E+00
 -1      2636 6.55950E+00 3.99453E+01 0.00000E+00
 -1      2637 1.43419E+02 7.72713E+00 0.00000E+00
 -1      2638 2.65891E+01 4.01136E+01 0.00000E+00
 -1      2639 1.42758E+02 4.35929E+01 0.00000E+00
 -1      2640 1.43241E+02 4.17323E+01 0.00000E+00
 -1      2641 1.41942E+02 4.09948E+01 0.00000E+00
 -1      2642 1.41414E+02 4.35342E+01 0.00000E+00
 -1      2643 1.99642E+01 3.84889E+01 0.00000E+00
 -1      2644 1.62967E+01 3.54636E+01 0.00000E+00
 -1      2645 3.62652E+01 2.88456E+01 0.00000E+00
 -1      2646 7.70475E+00 8.23231E+00 0.00000E+00
 -1      2647 1.42060E+01 3.15428E+01 0.00000E+00
 -1      2648 1.42120E+02 8.46463E+00 0.00000E+00
 -1      2649 1.37681E+01 2.90885E+01 0.00000E+00
 -1      2650 1.51681E+01 2.42327E+01 0.00000E+00
 -1      2651 1.47755E+01 2.34234E+01 0.00000E+00
 -1      2652 1.43715E+01 2.46458E+01 0.00000E+00
 -1      2653 1.93564E+01 1.91100E+01 0.00000E+00
 -1      2654 2.64859E+01 1.74541E+01 0.00000E+00
 -1      2655 1.42562E+01 2.67114E+01 0.00000E+00
 -1      2656 1.39398E+01 2.58777E+01 0.00000E+00
 -1      2657 1.34319E+01 2.71340E+01 0.00000E+00
 -1      2658 3.52651E+01 3.30126E+01 0.00000E+00
 -1      2659 2.86573E+01 1.82016E+01 0.00000E+00
 -1      2660 1.74225E+01 2.06596E+01 0.00000E+00
 -1      2661 1.80444E+01 3.71697E+01 0.00000E+00
 -1      2662 2.88024E+01 3.95943E+01 0.00000E+00
 -1      2663 1.40664E+02 4.22352E+01 0.00000E+00
 -1      2664 9.07048E+00 1.98250E+01 0.00000E+00
 -1      2665 9.07048E+00 2.12750E+01 0.00000E+00
 -1      2666 9.07048E+00 2.27500E+01 0.00000E+00
 -1      2667 9.07048E+00 2.42250E+01 0.00000E+00
 -1      2668 1.03470E+01 2.20250E+01 0.00000E+00
 -1      2669 9.09300E+00 1.39375E+01 0.00000E+00
 -1      2670 9.09300E+00 1.54125E+01 0.00000E+00
 -1      2671 9.09300E+00 1.09875E+01 0.00000E+00
 -1      2672 9.09300E+00 1.24625E+01 0.00000E+00
 -1      2673 1.03920E+01 1.32000E+01 0.00000E+00
 -1      2674 1.22850E+01 7.90325E+00 0.00000E+00
 -1      2675 1.07850E+01 7.90325E+00 0.00000E+00
 -1      2676 1.35968E+01 3.24661E+01 0.00000E+00
 -1      2677 1.31787E+01 3.11327E+01 0.00000E+00
 -1      2678 3.67410E+01 2.57190E+01 0.00000E+00
 -1      2679 3.69925E+01 2.68061E+01 0.00000E+00
 -1      2680 3.68858E+01 3.08545E+01 0.00000E+00
 -1      2681 3.66085E+01 3.17298E+01 0.00000E+00
 -1      2682 3.47859E+01 2.12797E+01 0.00000E+00
 -1      2683 3.54594E+01 2.23441E+01 0.00000E+00
 -1      2684 1.44000E+01 4.09295E+01 0.00000E+00
 -1      2685 1.59000E+01 4.09295E+01 0.00000E+00
 -1      2686 3.24000E+01 4.10133E+01 0.00000E+00
 -1      2687 3.39000E+01 4.10133E+01 0.00000E+00
 -1      2688 3.54000E+01 4.10133E+01 0.00000E+00
 -1      2689 3.69000E+01 4.10133E+01 0.00000E+00
 -1      2690 3.46500E+01 3.98206E+01 0.00000E+00
 -1      2691 3.84000E+01 4.10133E+01 0.00000E+00
 -1      2692 3.99000E+01 4.10133E+01 0.00000E+00
 -1      2693 3.76500E+01 3.98206E+01 0.00000E+00
 -1      2694 4.14000E+01 4.10133E+01 0.00000E+00
 -1      2695 4.29000E+01 4.10133E+01 0.00000E+00
 -1      2696 4.06500E+01 3.98206E+01 0.00000E+00
 -1      2697 4.44000E+01 4.10133E+01 0.00000E+00
 -1      2698 4.59000E+01 4.10133E+01 0.00000E+00
 -1      2699 4.36500E+01 3.98206E+01 0.00000E+00
 -1      2700 4.74000E+01 4.10133E+01 0.00000E+00
 -1      2701 4.89000E+01 4.10133E+01 0.00000E+00
 -1      2702 4.66500E+01 3.98206E+01 0.00000E+00
 -1      2703 5.04000E+01 4.10133E+01 0.00000E+00
 -1      2704 5.19000E+01 4.10133E+01 0.00000E+00
 -1      2705 4.96500E+01 3.98206E+01 0.00000E+00
 -1      2706 5.34000E+01 4.10133E+01 0.00000E+00
 -1      2707 5.49000E+01 4.10133E+01 0.00000E+00
 -1      2708 5.26500E+01 3.98206E+01 0.00000E+00
 -1      2709 5.64000E+01 4.10133E+01 0.00000E+00
 -1      2710 5.79000E+01 4.10133E+01 0.00000E+00
 -1      2711 5.56500E+01 3.98206E+01 0.00000E+00
 -1      2712 5.94000E+01 4.10133E+01 0.00000E+00
 -1      2713 6.09000E+01 4.10133E+01 0.00000E+00
 -1      2714 5.86500E+01 3.98206E+01 0.00000E+00
 -1      2715 6.24000E+01 4.10133E+01 0.00000E+00
 -1      2716 6.39000E+01 4.10133E+01 0.00000E+00
 -1      2717 6.16500E+01 3.98206E+01 0.00000E+00
 -1      2718 6.54000E+01 4.10133E+01 0.00000E+00
 -1      2719 6.69000E+01 4.10133E+01 0.00000E+00
 -1      2720 6.46500E+01 3.98206E+01 0.00000E+00
 -1      2721 6.84000E+01 4.10133E+01 0.00000E+00
 -1      2722 6.99000E+01 4.10133E+01 0.00000E+00
 -1      2723 6.76500E+01 3.98206E+01 0.00000E+00
 -1      2724 7.14000E+01 4.10133E+01 0.00000E+00
 -1      2725 7.29000E+01 4.10133E+01 0.00000E+00
 -1      2726 7.06500E+01 3.98206E+01 0.00000E+00
 -1      2727 7.44000E+01 4.10133E+01 0.00000E+00
 -1      2728 7.59000E+01 4.10133E+01 0.00000E+00
 -1      2729 7.36500E+01 3.98206E+01 0.00000E+00
 -1      2730 7.74000E+01 4.10133E+01 0.00000E+00
 -1      2731 7.89000E+01 4.10133E+01 0.00000E+00
 -1      2732 7.66500E+01 3.98206E+01 0.00000E+00
 -1      2733 8.04000E+01 4.10133E+01 0.00000E+00
 -1      2734 8.19000E+01 4.10133E+01 0.00000E+00
 -1      2735 7.96500E+01 3.98206E+01 0.00000E+00
 -1      2736 8.34000E+01 4.10133E+01 0.00000E+00
 -1      2737 8.49000E+01 4.10133E+01 0.00000E+00
 -1      2738 8.26500E+01 3.98206E+01 0.00000E+00
 -1      2739 8.64000E+01 4.10133E+01 0.00000E+00
 -1      2740 8.79000E+01 4.10133E+01 0.00000E+00
 -1      2741 8.56500E+01 3.98206E+01 0.00000E+00
 -1      2742 8.94000E+01 4.10133E+01 0.00000E+00
 -1      2743 9.09000E+01 4.10133E+01 0.00000E+00
 -1      2744 8.86500E+01 3.98206E+01 0.00000E+00
 -1      2745 9.24000E+01 4.10133E+01 0.00000E+00
 -1      2746 9.39000E+01 4.10133E+01 0.00000E+00
 -1      2747 9.16500E+01 3.98206E+01 0.00000E+00
 -1      2748 9.54000E+01 4.10133E+01 0.00000E+00
 -1      2749 9.69000E+01 4.10133E+01 0.00000E+00
 -1      2750 9.46500E+01 3.98206E+01 0.00000E+00
 -1      2751 9.84000E+01 4.10133E+01 0.00000E+00
 -1      2752 9.99000E+01 4.10133E+01 0.00000E+00
 -1      2753 9.76500E+01 3.98206E+01 0.00000E+00
 -1      2754 1.01400E+02 4.10133E+01 0.00000E+00
 -1      2755 1.02900E+02 4.10133E+01 0.00000E+00
 -1      2756 1.00650E+02 3.98206E+01 0.00000E+00
 -1      2757 1.04400E+02 4.10133E+01 0.00000E+00
 -1      2758 1.05900E+02 4.10133E+01 0.00000E+00
 -1      2759 1.03650E+02 3.98206E+01 0.00000E+00
 -1      2760 1.07400E+02 4.10133E+01 0.00000E+00
 -1      2761 1.08900E+02 4.10133E+01 0.00000E+00
 -1      2762 1.06650E+02 3.98206E+01 0.00000E+00
 -1      2763 1.10400E+02 4.10133E+01 0.00000E+00
 -1      2764 1.11900E+02 4.10133E+01 0.00000E+00
 -1      2765 1.09650E+02 3.98206E+01 0.00000E+00
 -1      2766 1.13400E+02 4.10133E+01 0.00000E+00
 -1      2767 1.14900E+02 4.10133E+01 0.00000E+00
 -1      2768 1.12650E+02 3.98206E+01 0.00000E+00
 -1      2769 1.16400E+02 4.10133E+01 0.00000E+00
 -1      2770 1.17900E+02 4.10133E+01 0.00000E+00
 -1      2771 1.15650E+02 3.98206E+01 0.00000E+00
 -1      2772 1.19400E+02 4.10133E+01 0.00000E+00
 -1      2773 1.20900E+02 4.10133E+01 0.00000E+00
 -1      2774 1.18650E+02 3.98206E+01 0.00000E+00
 -1      2775 1.22400E+02 4.10133E+01 0.00000E+00
 -1      2776 1.23900E+02 4.10133E+01 0.00000E+00
 -1      2777 1.21650E+02 3.98206E+01 0.00000E+00
 -1      2778 1.25400E+02 4.10133E+01 0.00000E+00
 -1      2779 1.26900E+02 4.10133E+01 0.00000E+00
 -1      2780 1.24650E+02 3.98206E+01 0.00000E+00
 -1      2781 1.28400E+02 4.10133E+01 0.00000E+00
 -1      2782 1.29900E+02 4.10133E+01 0.00000E+00
 -1      2783 1.27650E+02 3.98206E+01 0.00000E+00
 -1      2784 1.31400E+02 4.10133E+01 0.00000E+00
 -1      2785 1.32900E+02 4.10133E+01 0.00000E+00
 -1      2786 1.30650E+02 3.98206E+01 0.00000E+00
 -1      2787 1.34400E+02 4.10133E+01 0.00000E+00
 -1      2788 1.35900E+02 4.10133E+01 0.00000E+00
 -1      2789 1.33650E+02 3.98206E+01 0.00000E+00
 -1      2790 1.37400E+02 4.10133E+01 0.00000E+00
 -1      2791 1.38900E+02 4.10133E+01 0.00000E+00
 -1      2792 1.36650E+02 3.98206E+01 0.00000E+00
 -1      2793 2.00308E+01 3.96759E+01 0.00000E+00
 -1      2794 1.89601E+01 3.91253E+01 0.00000E+00
 -1      2795 3.59978E+01 2.35464E+01 0.00000E+00
 -1      2796 3.64079E+01 2.45362E+01 0.00000E+00
 -1      2797 2.12850E+01 7.90325E+00 0.00000E+00
 -1      2798 1.97850E+01 7.90325E+00 0.00000E+00
 -1      2799 3.02850E+01 7.90325E+00 0.00000E+00
 -1      2800 2.87850E+01 7.90325E+00 0.00000E+00
 -1      2801 3.32850E+01 7.90325E+00 0.00000E+00
 -1      2802 3.17850E+01 7.90325E+00 0.00000E+00
 -1      2803 3.10350E+01 9.20225E+00 0.00000E+00
 -1      2804 3.62850E+01 7.90325E+00 0.00000E+00
 -1      2805 3.47850E+01 7.90325E+00 0.00000E+00
 -1      2806 3.40350E+01 9.20225E+00 0.00000E+00
 -1      2807 3.92850E+01 7.90325E+00 0.00000E+00
 -1      2808 3.77850E+01 7.90325E+00 0.00000E+00
 -1      2809 3.70350E+01 9.20225E+00 0.00000E+00
 -1      2810 4.22850E+01 7.90325E+00 0.00000E+00
 -1      2811 4.07850E+01 7.90325E+00 0.00000E+00
 -1      2812 4.00350E+01 9.20225E+00 0.00000E+00
 -1      2813 4.52850E+01 7.90325E+00 0.00000E+00
 -1      2814 4.37850E+01 7.90325E+00 0.00000E+00
 -1      2815 4.30350E+01 9.20225E+00 0.00000E+00
 -1      2816 4.82850E+01 7.90325E+00 0.00000E+00
 -1      2817 4.67850E+01 7.90325E+00 0.00000E+00
 -1      2818 4.60350E+01 9.20225E+00 0.00000E+00
 -1      2819 5.12850E+01 7.90325E+00 0.00000E+00
 -1      2820 4.97850E+01 7.90325E+00 0.00000E+00
 -1      2821 4.90350E+01 9.20225E+00 0.00000E+00
 -1      2822 5.42850E+01 7.90325E+00 0.00000E+00
 -1      2823 5.27850E+01 7.90325E+00 0.00000E+00
 -1      2824 5.20350E+01 9.20225E+00 0.00000E+00
 -1      2825 5.72850E+01 7.90325E+00 0.00000E+00
 -1      2826 5.57850E+01 7.90325E+00 0.00000E+00
 -1      2827 5.50350E+01 9.20225E+00 0.00000E+00
 -1      2828 6.02850E+01 7.90325E+00 0.00000E+00
 -1      2829 5.87850E+01 7.90325E+00 0.00000E+00
 -1      2830 5.80350E+01 9.20225E+00 0.00000E+00
 -1      2831 6.32850E+01 7.90325E+00 0.00000E+00
 -1      2832 6.17850E+01 7.90325E+00 0.00000E+00
 -1      2833 6.10350E+01 9.20225E+00 0.00000E+00
 -1      2834 6.62850E+01 7.90325E+00 0.00000E+00
 -1      2835 6.47850E+01 7.90325E+00 0.00000E+00
 -1      2836 6.40350E+01 9.20225E+00 0.00000E+00
 -1      2837 6.92850E+01 7.90325E+00 0.00000E+00
 -1      2838 6.77850E+01 7.90325E+00 0.00000E+00
 -1      2839 6.70350E+01 9.20225E+00 0.00000E+00
 -1      2840 7.22850E+01 7.90325E+00 0.00000E+00
 -1      2841 7.07850E+01 7.90325E+00 0.00000E+00
 -1      2842 7.00350E+01 9.20225E+00 0.00000E+00
 -1      2843 7.52850E+01 7.90325E+00 0.00000E+00
 -1      2844 7.37850E+01 7.90325E+00 0.00000E+00
 -1      2845 7.30350E+01 9.20225E+00 0.00000E+00
 -1      2846 7.82850E+01 7.90325E+00 0.00000E+00
 -1      2847 7.67850E+01 7.90325E+00 0.00000E+00
 -1      2848 7.60350E+01 9.20225E+00 0.00000E+00
 -1      2849 8.12850E+01 7.90325E+00 0.00000E+00
 -1      2850 7.97850E+01 7.90325E+00 0.00000E+00
 -1      2851 7.90350E+01 9.20225E+00 0.00000E+00
 -1      2852 8.42850E+01 7.90325E+00 0.00000E+00
 -1      2853 8.27850E+01 7.90325E+00 0.00000E+00
 -1      2854 8.20350E+01 9.20225E+00 0.00000E+00
 -1      2855 8.72850E+01 7.90325E+00 0.00000E+00
 -1      2856 8.57850E+01 7.90325E+00 0.00000E+00
 -1      2857 8.50350E+01 9.20225E+00 0.00000E+00
 -1      2858 9.02850E+01 7.90325E+00 0.00000E+00
 -1      2859 8.87850E+01 7.90325E+00 0.00000E+00
 -1      2860 8.80350E+01 9.20225E+00 0.00000E+00
 -1      2861 9.32850E+01 7.90325E+00 0.00000E+00
 -1      2862 9.17850E+01 7.90325E+00 0.00000E+00
 -1      2863 9.10350E+01 9.20225E+00 0.00000E+00
 -1      2864 9.62850E+01 7.90325E+00 0.00000E+00
 -1      2865 9.47850E+01 7.90325E+00 0.00000E+00
 -1      2866 9.40350E+01 9.20225E+00 0.00000E+00
 -1      2867 9.92850E+01 7.90325E+00 0.00000E+00
 -1      2868 9.77850E+01 7.90325E+00 0.00000E+00
 -1      2869 9.70350E+01 9.20225E+00 0.00000E+00
 -1      2870 1.02285E+02 7.90325E+00 0.00000E+00
 -1      2871 1.00785E+02 7.90325E+00 0.00000E+00
 -1      2872 1.00035E+02 9.20225E+00 0.00000E+00
 -1      2873 1.05285E+02 7.90325E+00 0.00000E+00
 -1      2874 1.03785E+02 7.90325E+00 0.00000E+00
 -1      2875 1.03035E+02 9.20225E+00 0.00000E+00
 -1      2876 1.08285E+02 7.90325E+00 0.00000E+00
 -1      2877 1.06785E+02 7.90325E+00 0.00000E+00
 -1      2878 1.06035E+02 9.20225E+00 0.00000E+00
 -1      2879 1.11285E+02 7.90325E+00 0.00000E+00
 -1      2880 1.09785E+02 7.90325E+00 0.00000E+00
 -1      2881 1.09035E+02 9.20225E+00 0.00000E+00
 -1      2882 1.14285E+02 7.90325E+00 0.00000E+00
 -1      2883 1.12785E+02 7.90325E+00 0.00000E+00
 -1      2884 1.12035E+02 9.20225E+00 0.00000E+00
 -1      2885 1.17285E+02 7.90325E+00 0.00000E+00
 -1      2886 1.15785E+02 7.90325E+00 0.00000E+00
 -1      2887 1.15035E+02 9.20225E+00 0.00000E+00
 -1      2888 1.20285E+02 7.90325E+00 0.00000E+00
 -1      2889 1.18785E+02 7.90325E+00 0.00000E+00
 -1      2890 1.18035E+02 9.20225E+00 0.00000E+00
 -1      2891 1.23285E+02 7.90325E+00 0.00000E+00
 -1      2892 1.21785E+02 7.90325E+00 0.00000E+00
 -1      2893 1.21035E+02 9.20225E+00 0.00000E+00
 -1      2894 1.26285E+02 7.90325E+00 0.00000E+00
 -1      2895 1.24785E+02 7.90325E+00 0.00000E+00
 -1      2896 1.24035E+02 9.20225E+00 0.00000E+00
 -1      2897 1.29285E+02 7.90325E+00 0.00000E+00
 -1      2898 1.27785E+02 7.90325E+00 0.00000E+00
 -1      2899 1.27035E+02 9.20225E+00 0.00000E+00
 -1      2900 1.32285E+02 7.90325E+00 0.00000E+00
 -1      2901 1.30785E+02 7.90325E+00 0.00000E+00
 -1      2902 1.30035E+02 9.20225E+00 0.00000E+00
 -1      2903 1.35285E+02 7.90325E+00 0.00000E+00
 -1      2904 1.33785E+02 7.90325E+00 0.00000E+00
 -1      2905 1.33035E+02 9.20225E+00 0.00000E+00
 -1      2906 1.38285E+02 7.90325E+00 0.00000E+00
 -1      2907 1.36785E+02 7.90325E+00 0.00000E+00
 -1      2908 1.36035E+02 9.20225E+00 0.00000E+00
 -1      2909 1.40953E+02 8.18394E+00 0.00000E+00
 -1      2910 1.39453E+02 8.18394E+00 0.00000E+00
 -1      2911 1.38703E+02 9.48294E+00 0.00000E+00
 -1      2912 1.41038E+02 1.00443E+01 0.00000E+00
 -1      2913 7.85850E+00 3.92077E+01 0.00000E+00
 -1      2914 1.40907E+02 2.42875E+01 0.00000E+00
 -1      2915 1.40907E+02 2.28125E+01 0.00000E+00
 -1      2916 1.27530E+01 2.96671E+01 0.00000E+00
 -1      2917 1.27332E+01 2.85462E+01 0.00000E+00
 -1      2918 1.40907E+02 1.83875E+01 0.00000E+00
 -1      2919 1.40907E+02 1.69125E+01 0.00000E+00
 -1      2920 1.40907E+02 2.72375E+01 0.00000E+00
 -1      2921 1.40907E+02 2.57625E+01 0.00000E+00
 -1      2922 1.39608E+02 2.50250E+01 0.00000E+00
 -1      2923 1.40907E+02 2.13375E+01 0.00000E+00
 -1      2924 1.40907E+02 1.98625E+01 0.00000E+00
 -1      2925 1.39608E+02 1.91250E+01 0.00000E+00
 -1      2926 1.39608E+02 2.20750E+01 0.00000E+00
 -1      2927 1.40907E+02 3.01375E+01 0.00000E+00
 -1      2928 1.40907E+02 2.86875E+01 0.00000E+00
 -1      2929 1.39608E+02 2.79500E+01 0.00000E+00
 -1      2930 1.40907E+02 3.30875E+01 0.00000E+00
 -1      2931 1.40907E+02 3.16125E+01 0.00000E+00
 -1      2932 1.39608E+02 3.08750E+01 0.00000E+00
 -1      2933 1.40907E+02 3.60375E+01 0.00000E+00
 -1      2934 1.40907E+02 3.45625E+01 0.00000E+00
 -1      2935 1.39608E+02 3.38250E+01 0.00000E+00
 -1      2936 1.82850E+01 7.90325E+00 0.00000E+00
 -1      2937 1.67850E+01 7.90325E+00 0.00000E+00
 -1      2938 1.90350E+01 9.20225E+00 0.00000E+00
 -1      2939 2.67039E+01 4.10861E+01 0.00000E+00
 -1      2940 2.55352E+01 4.12335E+01 0.00000E+00
 -1      2941 3.06772E+01 1.81277E+01 0.00000E+00
 -1      2942 3.18095E+01 1.87398E+01 0.00000E+00
 -1      2943 9.32250E+00 4.05749E+01 0.00000E+00
 -1      2944 1.06860E+01 4.08389E+01 0.00000E+00
 -1      2945 1.21860E+01 4.08389E+01 0.00000E+00
 -1      2946 9.25800E+00 3.81046E+01 0.00000E+00
 -1      2947 1.40928E+02 4.09655E+01 0.00000E+00
 -1      2948 1.41192E+02 3.96958E+01 0.00000E+00
 -1      2949 1.39914E+02 4.09362E+01 0.00000E+00
 -1      2950 2.30541E+01 1.70654E+01 0.00000E+00
 -1      2951 2.43393E+01 1.65013E+01 0.00000E+00
 -1      2952 1.51180E+01 2.21673E+01 0.00000E+00
 -1      2953 1.56101E+01 2.14714E+01 0.00000E+00
 -1      2954 2.72850E+01 7.90325E+00 0.00000E+00
 -1      2955 2.57850E+01 7.90325E+00 0.00000E+00
 -1      2956 2.80350E+01 9.20225E+00 0.00000E+00
 -1      2957 2.42850E+01 7.90325E+00 0.00000E+00
 -1      2958 2.27850E+01 7.90325E+00 0.00000E+00
 -1      2959 2.50350E+01 9.20225E+00 0.00000E+00
 -1      2960 9.09300E+00 1.68875E+01 0.00000E+00
 -1      2961 9.09300E+00 1.83625E+01 0.00000E+00
 -1      2962 1.03920E+01 1.61500E+01 0.00000E+00
 -1      2963 3.72348E+01 2.82313E+01 0.00000E+00
 -1      2964 3.71765E+01 2.95435E+01 0.00000E+00
 -1      2965 1.52850E+01 7.90325E+00 0.00000E+00
 -1      2966 1.37850E+01 7.90325E+00 0.00000E+00
 -1      2967 1.30350E+01 9.20225E+00 0.00000E+00
 -1      2968 1.60350E+01 9.20225E+00 0.00000E+00
 -1      2969 8.98670E+00 3.15875E+01 0.00000E+00
 -1      2970 8.98670E+00 3.30625E+01 0.00000E+00
 -1      2971 3.55027E+01 3.51604E+01 0.00000E+00
 -1      2972 3.49180E+01 3.63323E+01 0.00000E+00
 -1      2973 2.62192E+01 1.63741E+01 0.00000E+00
 -1      2974 2.73448E+01 1.67471E+01 0.00000E+00
 -1      2975 1.78372E+01 3.82519E+01 0.00000E+00
 -1      2976 1.69881E+01 3.74831E+01 0.00000E+00
 -1      2977 3.62212E+01 3.28339E+01 0.00000E+00
 -1      2978 3.58340E+01 3.39381E+01 0.00000E+00
 -1      2979 3.71774E+01 3.26553E+01 0.00000E+00
 -1      2980 1.83263E+01 1.85083E+01 0.00000E+00
 -1      2981 1.93939E+01 1.79176E+01 0.00000E+00
 -1      2982 1.63530E+01 2.05643E+01 0.00000E+00
 -1      2983 1.72193E+01 1.96053E+01 0.00000E+00
 -1      2984 1.44282E+01 3.44780E+01 0.00000E+00
 -1      2985 1.40412E+01 3.36529E+01 0.00000E+00
 -1      2986 2.95842E+01 4.01373E+01 0.00000E+00
 -1      2987 2.85396E+01 4.05091E+01 0.00000E+00
 -1      2988 1.60665E+01 3.65837E+01 0.00000E+00
 -1      2989 1.51679E+01 3.56464E+01 0.00000E+00
 -1      2990 2.06882E+01 1.73752E+01 0.00000E+00
 -1      2991 2.18712E+01 1.72203E+01 0.00000E+00
 -1      2992 2.21354E+01 1.60763E+01 0.00000E+00
 -1      2993 3.31126E+01 1.93223E+01 0.00000E+00
 -1      2994 3.39555E+01 2.00475E+01 0.00000E+00
 -1      2995 3.40257E+01 3.74596E+01 0.00000E+00
 -1      2996 3.33593E+01 3.80968E+01 0.00000E+00
 -1      2997 2.83907E+01 1.71216E+01 0.00000E+00
 -1      2998 2.94366E+01 1.74960E+01 0.00000E+00
 -1      2999 2.81240E+01 1.60415E+01 0.00000E+00
 -1      3000 8.91450E+00 8.42712E+00 0.00000E+00
 -1      3001 8.98670E+00 3.45313E+01 0.00000E+00
 -1      3002 8.98670E+00 3.60000E+01 0.00000E+00
 -1      3003 1.01794E+01 3.37938E+01 0.00000E+00
 -1      3004 1.03470E+01 2.49750E+01 0.00000E+00
 -1      3005 9.07048E+00 2.57000E+01 0.00000E+00
 -1      3006 9.07048E+00 2.71750E+01 0.00000E+00
 -1      3007 8.92949E+00 3.03468E+01 0.00000E+00
 -1      3008 1.01222E+01 3.10843E+01 0.00000E+00
 -1      3009 1.21438E+01 3.05904E+01 0.00000E+00
 -1      3010 3.79037E+01 2.75040E+01 0.00000E+00
 -1      3011 3.52354E+01 3.73313E+01 0.00000E+00
 -1      3012 1.96581E+01 1.67736E+01 0.00000E+00
 -1      3013 1.58593E+01 3.76659E+01 0.00000E+00
 -1      3014 3.64566E+01 2.25109E+01 0.00000E+00
 -1      3015 3.78554E+01 3.02402E+01 0.00000E+00
 -1      3016 1.41980E+01 3.55981E+01 0.00000E+00
 -1      3017 1.54068E+01 2.04171E+01 0.00000E+00
 -1      3018 1.79038E+01 3.94388E+01 0.00000E+00
 -1      3019 1.78384E+01 4.12591E+01 0.00000E+00
 -1      3020 1.93384E+01 4.12591E+01 0.00000E+00
 -1      3021 2.04000E+01 4.12647E+01 0.00000E+00
 -1      3022 2.19000E+01 4.12647E+01 0.00000E+00
 -1      3023 2.82039E+01 4.10861E+01 0.00000E+00
 -1      3024 1.39164E+02 3.97436E+01 0.00000E+00
 -1      3025 3.73283E+01 2.48959E+01 0.00000E+00
 -1      3026 2.20350E+01 9.20225E+00 0.00000E+00
 -1      3027 1.41038E+02 1.15068E+01 0.00000E+00
 -1      3028 1.39870E+02 1.12261E+01 0.00000E+00
 -1      3029 1.41038E+02 1.29693E+01 0.00000E+00
 -1      3030 3.04105E+01 1.70477E+01 0.00000E+00
 -1      3031 2.51982E+01 1.57942E+01 0.00000E+00
 -1      3032 2.60572E+01 1.50872E+01 0.00000E+00
 -1      3033 2.41773E+01 1.52144E+01 0.00000E+00
 -1      3034 1.03695E+01 1.90875E+01 0.00000E+00
 -1      3035 1.41192E+02 3.82207E+01 0.00000E+00
 -1      3036 3.29542E+01 1.82618E+01 0.00000E+00
 -1      3037 1.29360E+01 3.95624E+01 0.00000E+00
 -1      3038 1.43214E+01 2.25804E+01 0.00000E+00
 -1      3039 3.50877E+01 2.00764E+01 0.00000E+00
 -1      3040 1.35472E+01 2.50684E+01 0.00000E+00
 -1      3041 1.39529E+02 3.86134E+01 0.00000E+00
 -1      3042 1.40542E+02 3.71677E+01 0.00000E+00
 -1      3043 1.39243E+02 3.64302E+01 0.00000E+00
 -1      3044 1.38514E+02 3.86905E+01 0.00000E+00
 -1      3045 8.92949E+00 2.88718E+01 0.00000E+00
 -1      3046 1.40973E+02 1.56722E+01 0.00000E+00
 -1      3047 1.40973E+02 1.42097E+01 0.00000E+00
 -1      3048 1.39805E+02 1.39290E+01 0.00000E+00
 -1      3049 1.39674E+02 1.64097E+01 0.00000E+00
 -1      3050 3.64589E+01 3.49817E+01 0.00000E+00
 -1      3051 9.66450E+00 9.72612E+00 0.00000E+00
 -1      3052 1.30139E+01 3.32428E+01 0.00000E+00
 -1      3053 1.09635E+01 1.04636E+01 0.00000E+00
 -1      3054 1.72568E+01 1.84130E+01 0.00000E+00
 -1      3055 2.20193E+01 4.01152E+01 0.00000E+00
 -1      3056 2.10925E+01 3.96814E+01 0.00000E+00
 -1      3057 2.27693E+01 4.10565E+01 0.00000E+00
 -1      3058 2.89857E+01 4.16291E+01 0.00000E+00
 -1      3059 2.00884E+01 4.03178E+01 0.00000E+00
 -1      3060 1.16910E+01 1.24625E+01 0.00000E+00
 -1      3061 1.16910E+01 1.39375E+01 0.00000E+00
 -1      3062 1.13172E+01 3.09498E+01 0.00000E+00
 -1      3063 1.08916E+01 2.94842E+01 0.00000E+00
 -1      3064 2.79466E+01 1.48891E+01 0.00000E+00
 -1      3065 2.89925E+01 1.52636E+01 0.00000E+00
 -1      3066 1.38309E+02 2.86750E+01 0.00000E+00
 -1      3067 1.38309E+02 2.72250E+01 0.00000E+00
 -1      3068 1.59654E+01 3.91092E+01 0.00000E+00
 -1      3069 1.50438E+01 3.82098E+01 0.00000E+00
 -1      3070 3.07009E+01 3.99629E+01 0.00000E+00
 -1      3071 3.04381E+01 4.08778E+01 0.00000E+00
 -1      3072 1.70884E+01 3.99827E+01 0.00000E+00
 -1      3073 1.13744E+01 3.21905E+01 0.00000E+00
 -1      3074 2.42693E+01 4.10565E+01 0.00000E+00
 -1      3075 3.01024E+01 4.14547E+01 0.00000E+00
 -1      3076 3.16024E+01 4.14547E+01 0.00000E+00
 -1      3077 3.99000E+01 3.85216E+01 0.00000E+00
 -1      3078 4.14000E+01 3.85216E+01 0.00000E+00
 -1      3079 4.29000E+01 3.85216E+01 0.00000E+00
 -1      3080 4.44000E+01 3.85216E+01 0.00000E+00
 -1      3081 4.21500E+01 3.72226E+01 0.00000E+00
 -1      3082 4.59000E+01 3.85216E+01 0.00000E+00
 -1      3083 4.74000E+01 3.85216E+01 0.00000E+00
 -1      3084 4.51500E+01 3.72226E+01 0.00000E+00
 -1      3085 4.89000E+01 3.85216E+01 0.00000E+00
 -1      3086 5.04000E+01 3.85216E+01 0.00000E+00
 -1      3087 4.81500E+01 3.72226E+01 0.00000E+00
 -1      3088 5.19000E+01 3.85216E+01 0.00000E+00
 -1      3089 5.34000E+01 3.85216E+01 0.00000E+00
 -1      3090 5.11500E+01 3.72226E+01 0.00000E+00
 -1      3091 5.49000E+01 3.85216E+01 0.00000E+00
 -1      3092 5.64000E+01 3.85216E+01 0.00000E+00
 -1      3093 5.41500E+01 3.72226E+01 0.00000E+00
 -1      3094 5.79000E+01 3.85216E+01 0.00000E+00
 -1      3095 5.94000E+01 3.85216E+01 0.00000E+00
 -1      3096 5.71500E+01 3.72226E+01 0.00000E+00
 -1      3097 6.09000E+01 3.85216E+01 0.00000E+00
 -1      3098 6.24000E+01 3.85216E+01 0.00000E+00
 -1      3099 6.01500E+01 3.72226E+01 0.00000E+00
 -1      3100 6.39000E+01 3.85216E+01 0.00000E+00
 -1      3101 6.54000E+01 3.85216E+01 0.00000E+00
 -1      3102 6.31500E+01 3.72226E+01 0.00000E+00
 -1      3103 6.69000E+01 3.85216E+01 0.00000E+00
 -1      3104 6.84000E+01 3.85216E+01 0.00000E+00
 -1      3105 6.61500E+01 3.72226E+01 0.00000E+00
 -1      3106 6.99000E+01 3.85216E+01 0.00000E+00
 -1      3107 7.14000E+01 3.85216E+01 0.00000E+00
 -1      3108 6.91500E+01 3.72226E+01 0.00000E+00
 -1      3109 7.29000E+01 3.85216E+01 0.00000E+00
 -1      3110 7.44000E+01 3.85216E+01 0.00000E+00
 -1      3111 7.21500E+01 3.72226E+01 0.00000E+00
 -1      3112 7.59000E+01 3.85216E+01 0.00000E+00
 -1      3113 7.74000E+01 3.85216E+01 0.00000E+00
 -1      3114 7.51500E+01 3.72226E+01 0.00000E+00
 -1      3115 7.89000E+01 3.85216E+01 0.00000E+00
 -1      3116 8.04000E+01 3.85216E+01 0.00000E+00
 -1      3117 7.81500E+01 3.72226E+01 0.00000E+00
 -1      3118 8.19000E+01 3.85216E+01 0.00000E+00
 -1      3119 8.34000E+01 3.85216E+01 0.00000E+00
 -1      3120 8.11500E+01 3.72226E+01 0.00000E+00
 -1      3121 8.49000E+01 3.85216E+01 0.00000E+00
 -1      3122 8.64000E+01 3.85216E+01 0.00000E+00
 -1      3123 8.41500E+01 3.72226E+01 0.00000E+00
 -1      3124 8.79000E+01 3.85216E+01 0.00000E+00
 -1      3125 8.94000E+01 3.85216E+01 0.00000E+00
 -1      3126 8.71500E+01 3.72226E+01 0.00000E+00
 -1      3127 9.09000E+01 3.85216E+01 0.00000E+00
 -1      3128 9.24000E+01 3.85216E+01 0.00000E+00
 -1      3129 9.01500E+01 3.72226E+01 0.00000E+00
 -1      3130 9.39000E+01 3.85216E+01 0.00000E+00
 -1      3131 9.54000E+01 3.85216E+01 0.00000E+00
 -1      3132 9.31500E+01 3.72226E+01 0.00000E+00
 -1      3133 9.69000E+01 3.85216E+01 0.00000E+00
 -1      3134 9.84000E+01 3.85216E+01 0.00000E+00
 -1      3135 9.61500E+01 3.72226E+01 0.00000E+00
 -1      3136 9.99000E+01 3.85216E+01 0.00000E+00
 -1      3137 1.01400E+02 3.85216E+01 0.00000E+00
 -1      3138 9.91500E+01 3.72226E+01 0.00000E+00
 -1      3139 1.02900E+02 3.85216E+01 0.00000E+00
 -1      3140 1.04400E+02 3.85216E+01 0.00000E+00
 -1      3141 1.02150E+02 3.72226E+01 0.00000E+00
 -1      3142 1.05900E+02 3.85216E+01 0.00000E+00
 -1      3143 1.07400E+02 3.85216E+01 0.00000E+00
 -1      3144 1.05150E+02 3.72226E+01 0.00000E+00
 -1      3145 1.08900E+02 3.85216E+01 0.00000E+00
 -1      3146 1.10400E+02 3.85216E+01 0.00000E+00
 -1      3147 1.08150E+02 3.72226E+01 0.00000E+00
 -1      3148 1.11900E+02 3.85216E+01 0.00000E+00
 -1      3149 1.13400E+02 3.85216E+01 0.00000E+00
 -1      3150 1.11150E+02 3.72226E+01 0.00000E+00
 -1      3151 1.14900E+02 3.85216E+01 0.00000E+00
 -1      3152 1.16400E+02 3.85216E+01 0.00000E+00
 -1      3153 1.14150E+02 3.72226E+01 0.00000E+00
 -1      3154 1.17900E+02 3.85216E+01 0.00000E+00
 -1      3155 1.19400E+02 3.85216E+01 0.00000E+00
 -1      3156 1.17150E+02 3.72226E+01 0.00000E+00
 -1      3157 1.20900E+02 3.85216E+01 0.00000E+00
 -1      3158 1.22400E+02 3.85216E+01 0.00000E+00
 -1      3159 1.20150E+02 3.72226E+01 0.00000E+00
 -1      3160 1.23900E+02 3.85216E+01 0.00000E+00
 -1      3161 1.25400E+02 3.85216E+01 0.00000E+00
 -1      3162 1.23150E+02 3.72226E+01 0.00000E+00
 -1      3163 1.26900E+02 3.85216E+01 0.00000E+00
 -1      3164 1.28400E+02 3.85216E+01 0.00000E+00
 -1      3165 1.26150E+02 3.72226E+01 0.00000E+00
 -1      3166 1.29900E+02 3.85216E+01 0.00000E+00
 -1      3167 1.31400E+02 3.85216E+01 0.00000E+00
 -1      3168 1.29150E+02 3.72226E+01 0.00000E+00
 -1      3169 1.32900E+02 3.85216E+01 0.00000E+00
 -1      3170 1.34400E+02 3.85216E+01 0.00000E+00
 -1      3171 1.32150E+02 3.72226E+01 0.00000E+00
 -1      3172 1.35707E+02 3.86060E+01 0.00000E+00
 -1      3173 1.37207E+02 3.86060E+01 0.00000E+00
 -1      3174 1.37572E+02 3.74759E+01 0.00000E+00
 -1      3175 1.34957E+02 3.73070E+01 0.00000E+00
 -1      3176 3.81802E+01 3.23870E+01 0.00000E+00
 -1      3177 3.77930E+01 3.34912E+01 0.00000E+00
 -1      3178 3.17850E+01 1.04787E+01 0.00000E+00
 -1      3179 3.02850E+01 1.04787E+01 0.00000E+00
 -1      3180 4.07850E+01 1.05013E+01 0.00000E+00
 -1      3181 3.92850E+01 1.05013E+01 0.00000E+00
 -1      3182 4.37850E+01 1.05013E+01 0.00000E+00
 -1      3183 4.22850E+01 1.05013E+01 0.00000E+00
 -1      3184 4.15350E+01 1.18003E+01 0.00000E+00
 -1      3185 4.67850E+01 1.05013E+01 0.00000E+00
 -1      3186 4.52850E+01 1.05013E+01 0.00000E+00
 -1      3187 4.45350E+01 1.18003E+01 0.00000E+00
 -1      3188 4.97850E+01 1.05013E+01 0.00000E+00
 -1      3189 4.82850E+01 1.05013E+01 0.00000E+00
 -1      3190 4.75350E+01 1.18003E+01 0.00000E+00
 -1      3191 5.27850E+01 1.05013E+01 0.00000E+00
 -1      3192 5.12850E+01 1.05013E+01 0.00000E+00
 -1      3193 5.05350E+01 1.18003E+01 0.00000E+00
 -1      3194 5.57850E+01 1.05013E+01 0.00000E+00
 -1      3195 5.42850E+01 1.05013E+01 0.00000E+00
 -1      3196 5.35350E+01 1.18003E+01 0.00000E+00
 -1      3197 5.87850E+01 1.05013E+01 0.00000E+00
 -1      3198 5.72850E+01 1.05013E+01 0.00000E+00
 -1      3199 5.65350E+01 1.18003E+01 0.00000E+00
 -1      3200 6.17850E+01 1.05013E+01 0.00000E+00
 -1      3201 6.02850E+01 1.05013E+01 0.00000E+00
 -1      3202 5.95350E+01 1.18003E+01 0.00000E+00
 -1      3203 6.47850E+01 1.05013E+01 0.00000E+00
 -1      3204 6.32850E+01 1.05013E+01 0.00000E+00
 -1      3205 6.25350E+01 1.18003E+01 0.00000E+00
 -1      3206 6.77850E+01 1.05013E+01 0.00000E+00
 -1      3207 6.62850E+01 1.05013E+01 0.00000E+00
 -1      3208 6.55350E+01 1.18003E+01 0.00000E+00
 -1      3209 7.07850E+01 1.05013E+01 0.00000E+00
 -1      3210 6.92850E+01 1.05013E+01 0.00000E+00
 -1      3211 6.85350E+01 1.18003E+01 0.00000E+00
 -1      3212 7.37850E+01 1.05013E+01 0.00000E+00
 -1      3213 7.22850E+01 1.05013E+01 0.00000E+00
 -1      3214 7.15350E+01 1.18003E+01 0.00000E+00
 -1      3215 7.67850E+01 1.05013E+01 0.00000E+00
 -1      3216 7.52850E+01 1.05013E+01 0.00000E+00
 -1      3217 7.45350E+01 1.18003E+01 0.00000E+00
 -1      3218 7.97850E+01 1.05013E+01 0.00000E+00
 -1      3219 7.82850E+01 1.05013E+01 0.00000E+00
 -1      3220 7.75350E+01 1.18003E+01 0.00000E+00
 -1      3221 8.27850E+01 1.05013E+01 0.00000E+00
 -1      3222 8.12850E+01 1.05013E+01 0.00000E+00
 -1      3223 8.05350E+01 1.18003E+01 0.00000E+00
 -1      3224 8.57850E+01 1.05013E+01 0.00000E+00
 -1      3225 8.42850E+01 1.05013E+01 0.00000E+00
 -1      3226 8.35350E+01 1.18003E+01 0.00000E+00
 -1      3227 8.87850E+01 1.05013E+01 0.00000E+00
 -1      3228 8.72850E+01 1.05013E+01 0.00000E+00
 -1      3229 8.65350E+01 1.18003E+01 0.00000E+00
 -1      3230 9.17850E+01 1.05013E+01 0.00000E+00
 -1      3231 9.02850E+01 1.05013E+01 0.00000E+00
 -1      3232 8.95350E+01 1.18003E+01 0.00000E+00
 -1      3233 9.47850E+01 1.05013E+01 0.00000E+00
 -1      3234 9.32850E+01 1.05013E+01 0.00000E+00
 -1      3235 9.25350E+01 1.18003E+01 0.00000E+00
 -1      3236 9.77850E+01 1.05013E+01 0.00000E+00
 -1      3237 9.62850E+01 1.05013E+01 0.00000E+00
 -1      3238 9.55350E+01 1.18003E+01 0.00000E+00
 -1      3239 1.00785E+02 1.05013E+01 0.00000E+00
 -1      3240 9.92850E+01 1.05013E+01 0.00000E+00
 -1      3241 9.85350E+01 1.18003E+01 0.00000E+00
 -1      3242 1.03785E+02 1.05013E+01 0.00000E+00
 -1      3243 1.02285E+02 1.05013E+01 0.00000E+00
 -1      3244 1.01535E+02 1.18003E+01 0.00000E+00
 -1      3245 1.06785E+02 1.05013E+01 0.00000E+00
 -1      3246 1.05285E+02 1.05013E+01 0.00000E+00
 -1      3247 1.04535E+02 1.18003E+01 0.00000E+00
 -1      3248 1.09785E+02 1.05013E+01 0.00000E+00
 -1      3249 1.08285E+02 1.05013E+01 0.00000E+00
 -1      3250 1.07535E+02 1.18003E+01 0.00000E+00
 -1      3251 1.12785E+02 1.05013E+01 0.00000E+00
 -1      3252 1.11285E+02 1.05013E+01 0.00000E+00
 -1      3253 1.10535E+02 1.18003E+01 0.00000E+00
 -1      3254 1.15785E+02 1.05013E+01 0.00000E+00
 -1      3255 1.14285E+02 1.05013E+01 0.00000E+00
 -1      3256 1.13535E+02 1.18003E+01 0.00000E+00
 -1      3257 1.18785E+02 1.05013E+01 0.00000E+00
 -1      3258 1.17285E+02 1.05013E+01 0.00000E+00
 -1      3259 1.16535E+02 1.18003E+01 0.00000E+00
 -1      3260 1.21785E+02 1.05013E+01 0.00000E+00
 -1      3261 1.20285E+02 1.05013E+01 0.00000E+00
 -1      3262 1.19535E+02 1.18003E+01 0.00000E+00
 -1      3263 1.24785E+02 1.05013E+01 0.00000E+00
 -1      3264 1.23285E+02 1.05013E+01 0.00000E+00
 -1      3265 1.22535E+02 1.18003E+01 0.00000E+00
 -1      3266 1.27785E+02 1.05013E+01 0.00000E+00
 -1      3267 1.26285E+02 1.05013E+01 0.00000E+00
 -1      3268 1.25535E+02 1.18003E+01 0.00000E+00
 -1      3269 1.30785E+02 1.05013E+01 0.00000E+00
 -1      3270 1.29285E+02 1.05013E+01 0.00000E+00
 -1      3271 1.28535E+02 1.18003E+01 0.00000E+00
 -1      3272 1.33785E+02 1.05013E+01 0.00000E+00
 -1      3273 1.32285E+02 1.05013E+01 0.00000E+00
 -1      3274 1.31535E+02 1.18003E+01 0.00000E+00
 -1      3275 1.36785E+02 1.05013E+01 0.00000E+00
 -1      3276 1.35285E+02 1.05013E+01 0.00000E+00
 -1      3277 1.34535E+02 1.18003E+01 0.00000E+00
 -1      3278 1.38912E+02 1.10040E+01 0.00000E+00
 -1      3279 1.37744E+02 1.07233E+01 0.00000E+00
 -1      3280 1.36994E+02 1.20223E+01 0.00000E+00
 -1      3281 1.38912E+02 1.24665E+01 0.00000E+00
 -1      3282 3.87106E+01 2.66335E+01 0.00000E+00
 -1      3283 3.89529E+01 2.80588E+01 0.00000E+00
 -1      3284 1.38309E+02 3.45625E+01 0.00000E+00
 -1      3285 1.38309E+02 3.30875E+01 0.00000E+00
 -1      3286 1.17181E+01 2.79448E+01 0.00000E+00
 -1      3287 1.27331E+01 2.73663E+01 0.00000E+00
 -1      3288 3.74618E+01 3.47135E+01 0.00000E+00
 -1      3289 3.71305E+01 3.59357E+01 0.00000E+00
 -1      3290 3.84646E+01 3.44452E+01 0.00000E+00
 -1      3291 1.38309E+02 2.57500E+01 0.00000E+00
 -1      3292 1.38309E+02 2.42750E+01 0.00000E+00
 -1      3293 1.37010E+02 2.64750E+01 0.00000E+00
 -1      3294 3.02331E+01 1.58953E+01 0.00000E+00
 -1      3295 3.14737E+01 1.65270E+01 0.00000E+00
 -1      3296 3.00557E+01 1.47429E+01 0.00000E+00
 -1      3297 1.97850E+01 1.05013E+01 0.00000E+00
 -1      3298 1.82850E+01 1.05013E+01 0.00000E+00
 -1      3299 2.91751E+01 1.16567E+01 0.00000E+00
 -1      3300 2.76751E+01 1.16567E+01 0.00000E+00
 -1      3301 1.04507E+01 3.73671E+01 0.00000E+00
 -1      3302 1.02060E+01 2.81468E+01 0.00000E+00
 -1      3303 1.38309E+02 3.16187E+01 0.00000E+00
 -1      3304 1.38309E+02 3.01437E+01 0.00000E+00
 -1      3305 1.37010E+02 2.94188E+01 0.00000E+00
 -1      3306 1.37010E+02 3.23563E+01 0.00000E+00
 -1      3307 3.77850E+01 1.05013E+01 0.00000E+00
 -1      3308 3.62850E+01 1.05013E+01 0.00000E+00
 -1      3309 3.85350E+01 1.18003E+01 0.00000E+00
 -1      3310 3.47850E+01 1.05013E+01 0.00000E+00
 -1      3311 3.32850E+01 1.05013E+01 0.00000E+00
 -1      3312 3.55350E+01 1.18003E+01 0.00000E+00
 -1      3313 3.89197E+01 2.97885E+01 0.00000E+00
 -1      3314 3.86290E+01 3.10995E+01 0.00000E+00
 -1      3315 3.37466E+01 3.91396E+01 0.00000E+00
 -1      3316 3.52466E+01 3.91396E+01 0.00000E+00
 -1      3317 1.32420E+01 2.29608E+01 0.00000E+00
 -1      3318 1.35844E+01 2.17047E+01 0.00000E+00
 -1      3319 1.24167E+01 2.65326E+01 0.00000E+00
 -1      3320 3.22632E+01 3.89905E+01 0.00000E+00
 -1      3321 3.09989E+01 3.97342E+01 0.00000E+00
 -1      3322 1.16910E+01 1.54125E+01 0.00000E+00
 -1      3323 1.16910E+01 1.68875E+01 0.00000E+00
 -1      3324 1.29900E+01 1.46750E+01 0.00000E+00
 -1      3325 1.17312E+01 2.49001E+01 0.00000E+00
 -1      3326 1.21630E+01 2.36682E+01 0.00000E+00
 -1      3327 3.79871E+01 2.40720E+01 0.00000E+00
 -1      3328 3.83203E+01 2.52548E+01 0.00000E+00
 -1      3329 3.66347E+01 3.69740E+01 0.00000E+00
 -1      3330 3.57424E+01 3.81013E+01 0.00000E+00
 -1      3331 3.66458E+01 3.87823E+01 0.00000E+00
 -1      3332 3.76375E+01 3.67057E+01 0.00000E+00
 -1      3333 1.35601E+01 3.68202E+01 0.00000E+00
 -1      3334 1.28204E+01 3.56518E+01 0.00000E+00
 -1      3335 1.86148E+01 1.60993E+01 0.00000E+00
 -1      3336 1.99091E+01 1.55569E+01 0.00000E+00
 -1      3337 3.27552E+01 1.69582E+01 0.00000E+00
 -1      3338 3.40583E+01 1.75407E+01 0.00000E+00
 -1      3339 2.27850E+01 1.05013E+01 0.00000E+00
 -1      3340 2.12850E+01 1.05013E+01 0.00000E+00
 -1      3341 2.05350E+01 1.18003E+01 0.00000E+00
 -1      3342 1.10326E+01 2.77874E+01 0.00000E+00
 -1      3343 1.36663E+01 3.82635E+01 0.00000E+00
 -1      3344 1.21941E+01 3.34510E+01 0.00000E+00
 -1      3345 1.09991E+01 3.35855E+01 0.00000E+00
 -1      3346 1.09991E+01 3.50543E+01 0.00000E+00
 -1      3347 1.26386E+01 3.46378E+01 0.00000E+00
 -1      3348 3.70465E+01 2.15249E+01 0.00000E+00
 -1      3349 3.75850E+01 2.27272E+01 0.00000E+00
 -1      3350 1.26488E+01 1.02017E+01 0.00000E+00
 -1      3351 1.20772E+01 1.14631E+01 0.00000E+00
 -1      3352 1.33763E+01 1.22006E+01 0.00000E+00
 -1      3353 1.41488E+01 1.02017E+01 0.00000E+00
 -1      3354 3.55921E+01 1.88406E+01 0.00000E+00
 -1      3355 3.64225E+01 2.00728E+01 0.00000E+00
 -1      3356 1.59228E+01 1.81738E+01 0.00000E+00
 -1      3357 1.70298E+01 1.70768E+01 0.00000E+00
 -1      3358 1.43071E+01 2.02742E+01 0.00000E+00
 -1      3359 1.50500E+01 1.93671E+01 0.00000E+00
 -1      3360 2.13999E+01 1.50542E+01 0.00000E+00
 -1      3361 2.25829E+01 1.48993E+01 0.00000E+00
 -1      3362 1.21711E+01 1.84246E+01 0.00000E+00
 -1      3363 1.21486E+01 1.98871E+01 0.00000E+00
 -1      3364 3.27628E+01 3.87778E+01 0.00000E+00
 -1      3365 3.85770E+01 2.30861E+01 0.00000E+00
 -1      3366 1.32277E+01 2.06547E+01 0.00000E+00
 -1      3367 3.25778E+01 1.58059E+01 0.00000E+00
 -1      3368 1.20007E+01 3.58600E+01 0.00000E+00
 -1      3369 3.81458E+01 3.87823E+01 0.00000E+00
 -1      3370 3.88958E+01 3.74833E+01 0.00000E+00
 -1      3371 1.37010E+02 2.35250E+01 0.00000E+00
 -1      3372 1.38309E+02 2.28000E+01 0.00000E+00
 -1      3373 1.38309E+02 2.13250E+01 0.00000E+00
 -1      3374 1.10325E+01 2.66075E+01 0.00000E+00
 -1      3375 1.14260E+01 2.27926E+01 0.00000E+00
 -1      3376 3.25350E+01 1.17777E+01 0.00000E+00
 -1      3377 3.93695E+01 2.58097E+01 0.00000E+00
 -1      3378 3.92446E+01 3.19354E+01 0.00000E+00
 -1      3379 1.38309E+02 1.98500E+01 0.00000E+00
 -1      3380 1.38309E+02 1.83750E+01 0.00000E+00
 -1      3381 1.37010E+02 2.05750E+01 0.00000E+00
 -1      3382 1.14260E+01 2.13176E+01 0.00000E+00
 -1      3383 2.34418E+01 1.41923E+01 0.00000E+00
 -1      3384 1.69669E+01 1.03515E+01 0.00000E+00
 -1      3385 1.54669E+01 1.03515E+01 0.00000E+00
 -1      3386 1.50806E+01 1.13509E+01 0.00000E+00
 -1      3387 1.77169E+01 1.16505E+01 0.00000E+00
 -1      3388 2.70608E+01 1.32729E+01 0.00000E+00
 -1      3389 2.59208E+01 1.08184E+01 0.00000E+00
 -1      3390 2.44208E+01 1.08184E+01 0.00000E+00
 -1      3391 2.61923E+01 1.40509E+01 0.00000E+00
 -1      3392 3.97266E+01 2.89181E+01 0.00000E+00
 -1      3393 4.05002E+01 2.97774E+01 0.00000E+00
 -1      3394 4.05335E+01 2.80477E+01 0.00000E+00
 -1      3395 1.37076E+02 1.78597E+01 0.00000E+00
 -1      3396 1.38375E+02 1.71347E+01 0.00000E+00
 -1      3397 1.38440E+02 1.58943E+01 0.00000E+00
 -1      3398 1.34701E+01 1.76871E+01 0.00000E+00
 -1      3399 3.26504E+01 4.00333E+01 0.00000E+00
 -1      3400 2.36708E+01 1.21175E+01 0.00000E+00
 -1      3401 1.72807E+01 1.58601E+01 0.00000E+00
 -1      3402 1.75317E+01 1.46435E+01 0.00000E+00
 -1      3403 1.59467E+01 1.56209E+01 0.00000E+00
 -1      3404 3.75509E+01 2.02891E+01 0.00000E+00
 -1      3405 2.03566E+01 1.43800E+01 0.00000E+00
 -1      3406 3.51940E+01 1.62334E+01 0.00000E+00
 -1      3407 3.53931E+01 1.75370E+01 0.00000E+00
 -1      3408 3.67278E+01 1.75333E+01 0.00000E+00
 -1      3409 1.37758E+02 3.65843E+01 0.00000E+00
 -1      3410 1.38123E+02 3.54541E+01 0.00000E+00
 -1      3411 1.36824E+02 3.47166E+01 0.00000E+00
 -1      3412 1.36451E+02 3.64998E+01 0.00000E+00
 -1      3413 1.48230E+01 1.80309E+01 0.00000E+00
 -1      3414 1.14523E+01 3.81729E+01 0.00000E+00
 -1      3415 1.38643E+02 1.48006E+01 0.00000E+00
 -1      3416 1.38709E+02 1.35603E+01 0.00000E+00
 -1      3417 1.37750E+02 1.33382E+01 0.00000E+00
 -1      3418 1.37344E+02 1.55256E+01 0.00000E+00
 -1      3419 1.45938E+01 1.38021E+01 0.00000E+00
 -1      3420 1.45938E+01 1.52771E+01 0.00000E+00
 -1      3421 2.99251E+01 1.29332E+01 0.00000E+00
 -1      3422 4.14000E+01 3.59236E+01 0.00000E+00
 -1      3423 4.29000E+01 3.59236E+01 0.00000E+00
 -1      3424 4.44000E+01 3.59236E+01 0.00000E+00
 -1      3425 4.59000E+01 3.59236E+01 0.00000E+00
 -1      3426 4.36500E+01 3.46246E+01 0.00000E+00
 -1      3427 4.74000E+01 3.59236E+01 0.00000E+00
 -1      3428 4.89000E+01 3.59236E+01 0.00000E+00
 -1      3429 4.66500E+01 3.46246E+01 0.00000E+00
 -1      3430 5.04000E+01 3.59236E+01 0.00000E+00
 -1      3431 5.19000E+01 3.59236E+01 0.00000E+00
 -1      3432 4.96500E+01 3.46246E+01 0.00000E+00
 -1      3433 5.34000E+01 3.59236E+01 0.00000E+00
 -1      3434 5.49000E+01 3.59236E+01 0.00000E+00
 -1      3435 5.26500E+01 3.46246E+01 0.00000E+00
 -1      3436 5.64000E+01 3.59236E+01 0.00000E+00
 -1      3437 5.79000E+01 3.59236E+01 0.00000E+00
 -1      3438 5.56500E+01 3.46246E+01 0.00000E+00
 -1      3439 5.94000E+01 3.59236E+01 0.00000E+00
 -1      3440 6.09000E+01 3.59236E+01 0.00000E+00
 -1      3441 5.86500E+01 3.46246E+01 0.00000E+00
 -1      3442 6.24000E+01 3.59236E+01 0.00000E+00
 -1      3443 6.39000E+01 3.59236E+01 0.00000E+00
 -1      3444 6.16500E+01 3.46246E+01 0.00000E+00
 -1      3445 6.54000E+01 3.59236E+01 0.00000E+00
 -1      3446 6.69000E+01 3.59236E+01 0.00000E+00
 -1      3447 6.46500E+01 3.46246E+01 0.00000E+00
 -1      3448 6.84000E+01 3.59236E+01 0.00000E+00
 -1      3449 6.99000E+01 3.59236E+01 0.00000E+00
 -1      3450 6.76500E+01 3.46246E+01 0.00000E+00
 -1      3451 7.14000E+01 3.59236E+01 0.00000E+00
 -1      3452 7.29000E+01 3.59236E+01 0.00000E+00
 -1      3453 7.06500E+01 3.46246E+01 0.00000E+00
 -1      3454 7.44000E+01 3.59236E+01 0.00000E+00
 -1      3455 7.59000E+01 3.59236E+01 0.00000E+00
 -1      3456 7.36500E+01 3.46246E+01 0.00000E+00
 -1      3457 7.74000E+01 3.59236E+01 0.00000E+00
 -1      3458 7.89000E+01 3.59236E+01 0.00000E+00
 -1      3459 7.66500E+01 3.46246E+01 0.00000E+00
 -1      3460 8.04000E+01 3.59236E+01 0.00000E+00
 -1      3461 8.19000E+01 3.59236E+01 0.00000E+00
 -1      3462 7.96500E+01 3.46246E+01 0.00000E+00
 -1      3463 8.34000E+01 3.59236E+01 0.00000E+00
 -1      3464 8.49000E+01 3.59236E+01 0.00000E+00
 -1      3465 8.26500E+01 3.46246E+01 0.00000E+00
 -1      3466 8.64000E+01 3.59236E+01 0.00000E+00
 -1      3467 8.79000E+01 3.59236E+01 0.00000E+00
 -1      3468 8.56500E+01 3.46246E+01 0.00000E+00
 -1      3469 8.94000E+01 3.59236E+01 0.00000E+00
 -1      3470 9.09000E+01 3.59236E+01 0.00000E+00
 -1      3471 8.86500E+01 3.46246E+01 0.00000E+00
 -1      3472 9.24000E+01 3.59236E+01 0.00000E+00
 -1      3473 9.39000E+01 3.59236E+01 0.00000E+00
 -1      3474 9.16500E+01 3.46246E+01 0.00000E+00
 -1      3475 9.54000E+01 3.59236E+01 0.00000E+00
 -1      3476 9.69000E+01 3.59236E+01 0.00000E+00
 -1      3477 9.46500E+01 3.46246E+01 0.00000E+00
 -1      3478 9.84000E+01 3.59236E+01 0.00000E+00
 -1      3479 9.99000E+01 3.59236E+01 0.00000E+00
 -1      3480 9.76500E+01 3.46246E+01 0.00000E+00
 -1      3481 1.01400E+02 3.59236E+01 0.00000E+00
 -1      3482 1.02900E+02 3.59236E+01 0.00000E+00
 -1      3483 1.00650E+02 3.46246E+01 0.00000E+00
 -1      3484 1.04400E+02 3.59236E+01 0.00000E+00
 -1      3485 1.05900E+02 3.59236E+01 0.00000E+00
 -1      3486 1.03650E+02 3.46246E+01 0.00000E+00
 -1      3487 1.07400E+02 3.59236E+01 0.00000E+00
 -1      3488 1.08900E+02 3.59236E+01 0.00000E+00
 -1      3489 1.06650E+02 3.46246E+01 0.00000E+00
 -1      3490 1.10400E+02 3.59236E+01 0.00000E+00
 -1      3491 1.11900E+02 3.59236E+01 0.00000E+00
 -1      3492 1.09650E+02 3.46246E+01 0.00000E+00
 -1      3493 1.13400E+02 3.59236E+01 0.00000E+00
 -1      3494 1.14900E+02 3.59236E+01 0.00000E+00
 -1      3495 1.12650E+02 3.46246E+01 0.00000E+00
 -1      3496 1.16400E+02 3.59236E+01 0.00000E+00
 -1      3497 1.17900E+02 3.59236E+01 0.00000E+00
 -1      3498 1.15650E+02 3.46246E+01 0.00000E+00
 -1      3499 1.19400E+02 3.59236E+01 0.00000E+00
 -1      3500 1.20900E+02 3.59236E+01 0.00000E+00
 -1      3501 1.18650E+02 3.46246E+01 0.00000E+00
 -1      3502 1.22400E+02 3.59236E+01 0.00000E+00
 -1      3503 1.23900E+02 3.59236E+01 0.00000E+00
 -1      3504 1.21650E+02 3.46246E+01 0.00000E+00
 -1      3505 1.25400E+02 3.59236E+01 0.00000E+00
 -1      3506 1.26900E+02 3.59236E+01 0.00000E+00
 -1      3507 1.24650E+02 3.46246E+01 0.00000E+00
 -1      3508 1.28400E+02 3.59236E+01 0.00000E+00
 -1      3509 1.29900E+02 3.59236E+01 0.00000E+00
 -1      3510 1.27650E+02 3.46246E+01 0.00000E+00
 -1      3511 1.31400E+02 3.59236E+01 0.00000E+00
 -1      3512 1.32900E+02 3.59236E+01 0.00000E+00
 -1      3513 1.30650E+02 3.46246E+01 0.00000E+00
 -1      3514 4.82850E+01 1.30992E+01 0.00000E+00
 -1      3515 4.67850E+01 1.30992E+01 0.00000E+00
 -1      3516 4.52850E+01 1.30992E+01 0.00000E+00
 -1      3517 4.37850E+01 1.30992E+01 0.00000E+00
 -1      3518 4.60350E+01 1.43982E+01 0.00000E+00
 -1      3519 3.93917E+01 3.64450E+01 0.00000E+00
 -1      3520 4.22850E+01 1.30992E+01 0.00000E+00
 -1      3521 4.07850E+01 1.30992E+01 0.00000E+00
 -1      3522 4.30350E+01 1.43982E+01 0.00000E+00
 -1      3523 5.12850E+01 1.30992E+01 0.00000E+00
 -1      3524 4.97850E+01 1.30992E+01 0.00000E+00
 -1      3525 4.90350E+01 1.43982E+01 0.00000E+00
 -1      3526 5.42850E+01 1.30992E+01 0.00000E+00
 -1      3527 5.27850E+01 1.30992E+01 0.00000E+00
 -1      3528 5.20350E+01 1.43982E+01 0.00000E+00
 -1      3529 5.72850E+01 1.30992E+01 0.00000E+00
 -1      3530 5.57850E+01 1.30992E+01 0.00000E+00
 -1      3531 5.50350E+01 1.43982E+01 0.00000E+00
 -1      3532 6.02850E+01 1.30992E+01 0.00000E+00
 -1      3533 5.87850E+01 1.30992E+01 0.00000E+00
 -1      3534 5.80350E+01 1.43982E+01 0.00000E+00
 -1      3535 6.32850E+01 1.30992E+01 0.00000E+00
 -1      3536 6.17850E+01 1.30992E+01 0.00000E+00
 -1      3537 6.10350E+01 1.43982E+01 0.00000E+00
 -1      3538 6.62850E+01 1.30992E+01 0.00000E+00
 -1      3539 6.47850E+01 1.30992E+01 0.00000E+00
 -1      3540 6.40350E+01 1.43982E+01 0.00000E+00
 -1      3541 6.92850E+01 1.30992E+01 0.00000E+00
 -1      3542 6.77850E+01 1.30992E+01 0.00000E+00
 -1      3543 6.70350E+01 1.43982E+01 0.00000E+00
 -1      3544 7.22850E+01 1.30992E+01 0.00000E+00
 -1      3545 7.07850E+01 1.30992E+01 0.00000E+00
 -1      3546 7.00350E+01 1.43982E+01 0.00000E+00
 -1      3547 7.52850E+01 1.30992E+01 0.00000E+00
 -1      3548 7.37850E+01 1.30992E+01 0.00000E+00
 -1      3549 7.30350E+01 1.43982E+01 0.00000E+00
 -1      3550 7.82850E+01 1.30992E+01 0.00000E+00
 -1      3551 7.67850E+01 1.30992E+01 0.00000E+00
 -1      3552 7.60350E+01 1.43982E+01 0.00000E+00
 -1      3553 8.12850E+01 1.30992E+01 0.00000E+00
 -1      3554 7.97850E+01 1.30992E+01 0.00000E+00
 -1      3555 7.90350E+01 1.43982E+01 0.00000E+00
 -1      3556 8.42850E+01 1.30992E+01 0.00000E+00
 -1      3557 8.27850E+01 1.30992E+01 0.00000E+00
 -1      3558 8.20350E+01 1.43982E+01 0.00000E+00
 -1      3559 8.72850E+01 1.30992E+01 0.00000E+00
 -1      3560 8.57850E+01 1.30992E+01 0.00000E+00
 -1      3561 8.50350E+01 1.43982E+01 0.00000E+00
 -1      3562 9.02850E+01 1.30992E+01 0.00000E+00
 -1      3563 8.87850E+01 1.30992E+01 0.00000E+00
 -1      3564 8.80350E+01 1.43982E+01 0.00000E+00
 -1      3565 9.32850E+01 1.30992E+01 0.00000E+00
 -1      3566 9.17850E+01 1.30992E+01 0.00000E+00
 -1      3567 9.10350E+01 1.43982E+01 0.00000E+00
 -1      3568 9.62850E+01 1.30992E+01 0.00000E+00
 -1      3569 9.47850E+01 1.30992E+01 0.00000E+00
 -1      3570 9.40350E+01 1.43982E+01 0.00000E+00
 -1      3571 9.92850E+01 1.30992E+01 0.00000E+00
 -1      3572 9.77850E+01 1.30992E+01 0.00000E+00
 -1      3573 9.70350E+01 1.43982E+01 0.00000E+00
 -1      3574 1.02285E+02 1.30992E+01 0.00000E+00
 -1      3575 1.00785E+02 1.30992E+01 0.00000E+00
 -1      3576 1.00035E+02 1.43982E+01 0.00000E+00
 -1      3577 1.05285E+02 1.30992E+01 0.00000E+00
 -1      3578 1.03785E+02 1.30992E+01 0.00000E+00
 -1      3579 1.03035E+02 1.43982E+01 0.00000E+00
 -1      3580 1.08285E+02 1.30992E+01 0.00000E+00
 -1      3581 1.06785E+02 1.30992E+01 0.00000E+00
 -1      3582 1.06035E+02 1.43982E+01 0.00000E+00
 -1      3583 1.11285E+02 1.30992E+01 0.00000E+00
 -1      3584 1.09785E+02 1.30992E+01 0.00000E+00
 -1      3585 1.09035E+02 1.43982E+01 0.00000E+00
 -1      3586 1.14285E+02 1.30992E+01 0.00000E+00
 -1      3587 1.12785E+02 1.30992E+01 0.00000E+00
 -1      3588 1.12035E+02 1.43982E+01 0.00000E+00
 -1      3589 1.17285E+02 1.30992E+01 0.00000E+00
 -1      3590 1.15785E+02 1.30992E+01 0.00000E+00
 -1      3591 1.15035E+02 1.43982E+01 0.00000E+00
 -1      3592 1.20285E+02 1.30992E+01 0.00000E+00
 -1      3593 1.18785E+02 1.30992E+01 0.00000E+00
 -1      3594 1.18035E+02 1.43982E+01 0.00000E+00
 -1      3595 1.23285E+02 1.30992E+01 0.00000E+00
 -1      3596 1.21785E+02 1.30992E+01 0.00000E+00
 -1      3597 1.21035E+02 1.43982E+01 0.00000E+00
 -1      3598 1.26285E+02 1.30992E+01 0.00000E+00
 -1      3599 1.24785E+02 1.30992E+01 0.00000E+00
 -1      3600 1.24035E+02 1.43982E+01 0.00000E+00
 -1      3601 1.29285E+02 1.30992E+01 0.00000E+00
 -1      3602 1.27785E+02 1.30992E+01 0.00000E+00
 -1      3603 1.27035E+02 1.43982E+01 0.00000E+00
 -1      3604 1.32285E+02 1.30992E+01 0.00000E+00
 -1      3605 1.30785E+02 1.30992E+01 0.00000E+00
 -1      3606 1.30035E+02 1.43982E+01 0.00000E+00
 -1      3607 1.35285E+02 1.30992E+01 0.00000E+00
 -1      3608 1.33785E+02 1.30992E+01 0.00000E+00
 -1      3609 1.33035E+02 1.43982E+01 0.00000E+00
 -1      3610 3.18528E+01 4.04746E+01 0.00000E+00
 -1      3611 4.04729E+01 3.39238E+01 0.00000E+00
 -1      3612 4.01417E+01 3.51460E+01 0.00000E+00
 -1      3613 1.35711E+02 2.72125E+01 0.00000E+00
 -1      3614 1.35711E+02 2.57375E+01 0.00000E+00
 -1      3615 3.11657E+01 1.35649E+01 0.00000E+00
 -1      3616 1.11809E+01 3.60682E+01 0.00000E+00
 -1      3617 3.26657E+01 1.35874E+01 0.00000E+00
 -1      3618 3.94384E+01 2.20960E+01 0.00000E+00
 -1      3619 3.98405E+01 2.34408E+01 0.00000E+00
 -1      3620 3.67819E+01 1.40150E+01 0.00000E+00
 -1      3621 3.52819E+01 1.40150E+01 0.00000E+00
 -1      3622 4.02308E+01 2.48195E+01 0.00000E+00
 -1      3623 4.06211E+01 2.61983E+01 0.00000E+00
 -1      3624 4.10922E+01 2.38294E+01 0.00000E+00
 -1      3625 1.10325E+01 2.51325E+01 0.00000E+00
 -1      3626 2.19412E+01 1.28388E+01 0.00000E+00
 -1      3627 2.04412E+01 1.28388E+01 0.00000E+00
 -1      3628 2.35770E+01 1.31560E+01 0.00000E+00
 -1      3629 1.89504E+01 1.33415E+01 0.00000E+00
 -1      3630 3.95335E+01 1.35571E+01 0.00000E+00
 -1      3631 3.80335E+01 1.35571E+01 0.00000E+00
 -1      3632 3.77804E+01 1.57719E+01 0.00000E+00
 -1      3633 4.02835E+01 1.48561E+01 0.00000E+00
 -1      3634 3.82577E+01 1.91252E+01 0.00000E+00
 -1      3635 3.88817E+01 2.05774E+01 0.00000E+00
 -1      3636 1.76163E+01 1.31023E+01 0.00000E+00
 -1      3637 4.22562E+01 2.60674E+01 0.00000E+00
 -1      3638 4.13948E+01 2.70575E+01 0.00000E+00
 -1      3639 4.21685E+01 2.79168E+01 0.00000E+00
 -1      3640 2.51714E+01 1.34710E+01 0.00000E+00
 -1      3641 4.17784E+01 3.01530E+01 0.00000E+00
 -1      3642 4.09715E+01 3.10234E+01 0.00000E+00
 -1      3643 1.43429E+01 1.64938E+01 0.00000E+00
 -1      3644 1.34022E+02 3.61695E+01 0.00000E+00
 -1      3645 1.35329E+02 3.62539E+01 0.00000E+00
 -1      3646 1.35515E+02 3.53623E+01 0.00000E+00
 -1      3647 1.33272E+02 3.48705E+01 0.00000E+00
 -1      3648 1.35711E+02 2.86812E+01 0.00000E+00
 -1      3649 1.34412E+02 2.79438E+01 0.00000E+00
 -1      3650 1.35711E+02 3.01500E+01 0.00000E+00
 -1      3651 1.36791E+02 1.31161E+01 0.00000E+00
 -1      3652 1.49801E+01 1.28027E+01 0.00000E+00
 -1      3653 1.35711E+02 2.13125E+01 0.00000E+00
 -1      3654 1.35711E+02 1.98375E+01 0.00000E+00
 -1      3655 4.09217E+01 3.26362E+01 0.00000E+00
 -1      3656 1.34412E+02 2.50000E+01 0.00000E+00
 -1      3657 1.35711E+02 2.42625E+01 0.00000E+00
 -1      3658 1.35711E+02 2.27875E+01 0.00000E+00
 -1      3659 4.01452E+01 2.09321E+01 0.00000E+00
 -1      3660 1.36041E+02 1.44151E+01 0.00000E+00
 -1      3661 1.35777E+02 1.85972E+01 0.00000E+00
 -1      3662 1.35842E+02 1.73568E+01 0.00000E+00
 -1      3663 1.34478E+02 1.93347E+01 0.00000E+00
 -1      3664 3.39471E+01 1.40187E+01 0.00000E+00
 -1      3665 3.19004E+01 4.12260E+01 0.00000E+00
 -1      3666 3.79195E+01 1.67967E+01 0.00000E+00
 -1      3667 3.81185E+01 1.81003E+01 0.00000E+00
 -1      3668 3.94494E+01 1.83886E+01 0.00000E+00
 -1      3669 3.91711E+01 1.63389E+01 0.00000E+00
 -1      3670 1.35702E+02 3.44707E+01 0.00000E+00
 -1      3671 1.34487E+02 3.39362E+01 0.00000E+00
 -1      3672 1.35795E+02 3.32905E+01 0.00000E+00
 -1      3673 1.35795E+02 3.18218E+01 0.00000E+00
 -1      3674 1.33365E+02 3.36903E+01 0.00000E+00
 -1      3675 4.26397E+01 2.91629E+01 0.00000E+00
 -1      3676 4.31110E+01 3.04089E+01 0.00000E+00
 -1      3677 4.35011E+01 2.81728E+01 0.00000E+00
 -1      3678 4.67850E+01 1.56973E+01 0.00000E+00
 -1      3679 4.52850E+01 1.56973E+01 0.00000E+00
 -1      3680 4.59000E+01 3.33256E+01 0.00000E+00
 -1      3681 4.74000E+01 3.33256E+01 0.00000E+00
 -1      3682 4.89000E+01 3.33256E+01 0.00000E+00
 -1      3683 5.04000E+01 3.33256E+01 0.00000E+00
 -1      3684 4.81500E+01 3.20266E+01 0.00000E+00
 -1      3685 5.19000E+01 3.33256E+01 0.00000E+00
 -1      3686 5.34000E+01 3.33256E+01 0.00000E+00
 -1      3687 5.11500E+01 3.20266E+01 0.00000E+00
 -1      3688 5.49000E+01 3.33256E+01 0.00000E+00
 -1      3689 5.64000E+01 3.33256E+01 0.00000E+00
 -1      3690 5.41500E+01 3.20266E+01 0.00000E+00
 -1      3691 5.79000E+01 3.33256E+01 0.00000E+00
 -1      3692 5.94000E+01 3.33256E+01 0.00000E+00
 -1      3693 5.71500E+01 3.20266E+01 0.00000E+00
 -1      3694 6.09000E+01 3.33256E+01 0.00000E+00
 -1      3695 6.24000E+01 3.33256E+01 0.00000E+00
 -1      3696 6.01500E+01 3.20266E+01 0.00000E+00
 -1      3697 6.39000E+01 3.33256E+01 0.00000E+00
 -1      3698 6.54000E+01 3.33256E+01 0.00000E+00
 -1      3699 6.31500E+01 3.20266E+01 0.00000E+00
 -1      3700 6.69000E+01 3.33256E+01 0.00000E+00
 -1      3701 6.84000E+01 3.33256E+01 0.00000E+00
 -1      3702 6.61500E+01 3.20266E+01 0.00000E+00
 -1      3703 6.99000E+01 3.33256E+01 0.00000E+00
 -1      3704 7.14000E+01 3.33256E+01 0.00000E+00
 -1      3705 6.91500E+01 3.20266E+01 0.00000E+00
 -1      3706 7.29000E+01 3.33256E+01 0.00000E+00
 -1      3707 7.44000E+01 3.33256E+01 0.00000E+00
 -1      3708 7.21500E+01 3.20266E+01 0.00000E+00
 -1      3709 7.59000E+01 3.33256E+01 0.00000E+00
 -1      3710 7.74000E+01 3.33256E+01 0.00000E+00
 -1      3711 7.51500E+01 3.20266E+01 0.00000E+00
 -1      3712 7.89000E+01 3.33256E+01 0.00000E+00
 -1      3713 8.04000E+01 3.33256E+01 0.00000E+00
 -1      3714 7.81500E+01 3.20266E+01 0.00000E+00
 -1      3715 8.19000E+01 3.33256E+01 0.00000E+00
 -1      3716 8.34000E+01 3.33256E+01 0.00000E+00
 -1      3717 8.11500E+01 3.20266E+01 0.00000E+00
 -1      3718 8.49000E+01 3.33256E+01 0.00000E+00
 -1      3719 8.64000E+01 3.33256E+01 0.00000E+00
 -1      3720 8.41500E+01 3.20266E+01 0.00000E+00
 -1      3721 8.79000E+01 3.33256E+01 0.00000E+00
 -1      3722 8.94000E+01 3.33256E+01 0.00000E+00
 -1      3723 8.71500E+01 3.20266E+01 0.00000E+00
 -1      3724 9.09000E+01 3.33256E+01 0.00000E+00
 -1      3725 9.24000E+01 3.33256E+01 0.00000E+00
 -1      3726 9.01500E+01 3.20266E+01 0.00000E+00
 -1      3727 9.39000E+01 3.33256E+01 0.00000E+00
 -1      3728 9.54000E+01 3.33256E+01 0.00000E+00
 -1      3729 9.31500E+01 3.20266E+01 0.00000E+00
 -1      3730 9.69000E+01 3.33256E+01 0.00000E+00
 -1      3731 9.84000E+01 3.33256E+01 0.00000E+00
 -1      3732 9.61500E+01 3.20266E+01 0.00000E+00
 -1      3733 9.99000E+01 3.33256E+01 0.00000E+00
 -1      3734 1.01400E+02 3.33256E+01 0.00000E+00
 -1      3735 9.91500E+01 3.20266E+01 0.00000E+00
 -1      3736 1.02900E+02 3.33256E+01 0.00000E+00
 -1      3737 1.04400E+02 3.33256E+01 0.00000E+00
 -1      3738 1.02150E+02 3.20266E+01 0.00000E+00
 -1      3739 1.05900E+02 3.33256E+01 0.00000E+00
 -1      3740 1.07400E+02 3.33256E+01 0.00000E+00
 -1      3741 1.05150E+02 3.20266E+01 0.00000E+00
 -1      3742 1.08900E+02 3.33256E+01 0.00000E+00
 -1      3743 1.10400E+02 3.33256E+01 0.00000E+00
 -1      3744 1.08150E+02 3.20266E+01 0.00000E+00
 -1      3745 1.11900E+02 3.33256E+01 0.00000E+00
 -1      3746 1.13400E+02 3.33256E+01 0.00000E+00
 -1      3747 1.11150E+02 3.20266E+01 0.00000E+00
 -1      3748 1.14900E+02 3.33256E+01 0.00000E+00
 -1      3749 1.16400E+02 3.33256E+01 0.00000E+00
 -1      3750 1.14150E+02 3.20266E+01 0.00000E+00
 -1      3751 1.17900E+02 3.33256E+01 0.00000E+00
 -1      3752 1.19400E+02 3.33256E+01 0.00000E+00
 -1      3753 1.17150E+02 3.20266E+01 0.00000E+00
 -1      3754 1.20900E+02 3.33256E+01 0.00000E+00
 -1      3755 1.22400E+02 3.33256E+01 0.00000E+00
 -1      3756 1.20150E+02 3.20266E+01 0.00000E+00
 -1      3757 1.23900E+02 3.33256E+01 0.00000E+00
 -1      3758 1.25400E+02 3.33256E+01 0.00000E+00
 -1      3759 1.23150E+02 3.20266E+01 0.00000E+00
 -1      3760 1.26900E+02 3.33256E+01 0.00000E+00
 -1      3761 1.28400E+02 3.33256E+01 0.00000E+00
 -1      3762 1.26150E+02 3.20266E+01 0.00000E+00
 -1      3763 1.29900E+02 3.33256E+01 0.00000E+00
 -1      3764 1.31400E+02 3.33256E+01 0.00000E+00
 -1      3765 1.29150E+02 3.20266E+01 0.00000E+00
 -1      3766 5.27850E+01 1.56973E+01 0.00000E+00
 -1      3767 5.12850E+01 1.56973E+01 0.00000E+00
 -1      3768 4.97850E+01 1.56973E+01 0.00000E+00
 -1      3769 4.82850E+01 1.56973E+01 0.00000E+00
 -1      3770 4.75350E+01 1.69963E+01 0.00000E+00
 -1      3771 5.05350E+01 1.69963E+01 0.00000E+00
 -1      3772 4.37850E+01 1.56973E+01 0.00000E+00
 -1      3773 4.22850E+01 1.56973E+01 0.00000E+00
 -1      3774 4.45350E+01 1.69963E+01 0.00000E+00
 -1      3775 5.57850E+01 1.56973E+01 0.00000E+00
 -1      3776 5.42850E+01 1.56973E+01 0.00000E+00
 -1      3777 5.35350E+01 1.69963E+01 0.00000E+00
 -1      3778 5.87850E+01 1.56973E+01 0.00000E+00
 -1      3779 5.72850E+01 1.56973E+01 0.00000E+00
 -1      3780 5.65350E+01 1.69963E+01 0.00000E+00
 -1      3781 6.17850E+01 1.56973E+01 0.00000E+00
 -1      3782 6.02850E+01 1.56973E+01 0.00000E+00
 -1      3783 5.95350E+01 1.69963E+01 0.00000E+00
 -1      3784 6.47850E+01 1.56973E+01 0.00000E+00
 -1      3785 6.32850E+01 1.56973E+01 0.00000E+00
 -1      3786 6.25350E+01 1.69963E+01 0.00000E+00
 -1      3787 6.77850E+01 1.56973E+01 0.00000E+00
 -1      3788 6.62850E+01 1.56973E+01 0.00000E+00
 -1      3789 6.55350E+01 1.69963E+01 0.00000E+00
 -1      3790 7.07850E+01 1.56973E+01 0.00000E+00
 -1      3791 6.92850E+01 1.56973E+01 0.00000E+00
 -1      3792 6.85350E+01 1.69963E+01 0.00000E+00
 -1      3793 7.37850E+01 1.56973E+01 0.00000E+00
 -1      3794 7.22850E+01 1.56973E+01 0.00000E+00
 -1      3795 7.15350E+01 1.69963E+01 0.00000E+00
 -1      3796 7.67850E+01 1.56973E+01 0.00000E+00
 -1      3797 7.52850E+01 1.56973E+01 0.00000E+00
 -1      3798 7.45350E+01 1.69963E+01 0.00000E+00
 -1      3799 7.97850E+01 1.56973E+01 0.00000E+00
 -1      3800 7.82850E+01 1.56973E+01 0.00000E+00
 -1      3801 7.75350E+01 1.69963E+01 0.00000E+00
 -1      3802 8.27850E+01 1.56973E+01 0.00000E+00
 -1      3803 8.12850E+01 1.56973E+01 0.00000E+00
 -1      3804 8.05350E+01 1.69963E+01 0.00000E+00
 -1      3805 8.57850E+01 1.56973E+01 0.00000E+00
 -1      3806 8.42850E+01 1.56973E+01 0.00000E+00
 -1      3807 8.35350E+01 1.69963E+01 0.00000E+00
 -1      3808 8.87850E+01 1.56973E+01 0.00000E+00
 -1      3809 8.72850E+01 1.56973E+01 0.00000E+00
 -1      3810 8.65350E+01 1.69963E+01 0.00000E+00
 -1      3811 9.17850E+01 1.56973E+01 0.00000E+00
 -1      3812 9.02850E+01 1.56973E+01 0.00000E+00
 -1      3813 8.95350E+01 1.69963E+01 0.00000E+00
 -1      3814 9.47850E+01 1.56973E+01 0.00000E+00
 -1      3815 9.32850E+01 1.56973E+01 0.00000E+00
 -1      3816 9.25350E+01 1.69963E+01 0.00000E+00
 -1      3817 9.77850E+01 1.56973E+01 0.00000E+00
 -1      3818 9.62850E+01 1.56973E+01 0.00000E+00
 -1      3819 9.55350E+01 1.69963E+01 0.00000E+00
 -1      3820 1.00785E+02 1.56973E+01 0.00000E+00
 -1      3821 9.92850E+01 1.56973E+01 0.00000E+00
 -1      3822 9.85350E+01 1.69963E+01 0.00000E+00
 -1      3823 1.03785E+02 1.56973E+01 0.00000E+00
 -1      3824 1.02285E+02 1.56973E+01 0.00000E+00
 -1      3825 1.01535E+02 1.69963E+01 0.00000E+00
 -1      3826 1.06785E+02 1.56973E+01 0.00000E+00
 -1      3827 1.05285E+02 1.56973E+01 0.00000E+00
 -1      3828 1.04535E+02 1.69963E+01 0.00000E+00
 -1      3829 1.09785E+02 1.56973E+01 0.00000E+00
 -1      3830 1.08285E+02 1.56973E+01 0.00000E+00
 -1      3831 1.07535E+02 1.69963E+01 0.00000E+00
 -1      3832 1.12785E+02 1.56973E+01 0.00000E+00
 -1      3833 1.11285E+02 1.56973E+01 0.00000E+00
 -1      3834 1.10535E+02 1.69963E+01 0.00000E+00
 -1      3835 1.15785E+02 1.56973E+01 0.00000E+00
 -1      3836 1.14285E+02 1.56973E+01 0.00000E+00
 -1      3837 1.13535E+02 1.69963E+01 0.00000E+00
 -1      3838 1.18785E+02 1.56973E+01 0.00000E+00
 -1      3839 1.17285E+02 1.56973E+01 0.00000E+00
 -1      3840 1.16535E+02 1.69963E+01 0.00000E+00
 -1      3841 1.21785E+02 1.56973E+01 0.00000E+00
 -1      3842 1.20285E+02 1.56973E+01 0.00000E+00
 -1      3843 1.19535E+02 1.69963E+01 0.00000E+00
 -1      3844 1.24785E+02 1.56973E+01 0.00000E+00
 -1      3845 1.23285E+02 1.56973E+01 0.00000E+00
 -1      3846 1.22535E+02 1.69963E+01 0.00000E+00
 -1      3847 1.27785E+02 1.56973E+01 0.00000E+00
 -1      3848 1.26285E+02 1.56973E+01 0.00000E+00
 -1      3849 1.25535E+02 1.69963E+01 0.00000E+00
 -1      3850 1.30785E+02 1.56973E+01 0.00000E+00
 -1      3851 1.29285E+02 1.56973E+01 0.00000E+00
 -1      3852 1.28535E+02 1.69963E+01 0.00000E+00
 -1      3853 1.34412E+02 2.20500E+01 0.00000E+00
 -1      3854 4.21998E+01 3.30118E+01 0.00000E+00
 -1      3855 1.62982E+01 1.29525E+01 0.00000E+00
 -1      3856 1.35838E+02 1.55088E+01 0.00000E+00
 -1      3857 4.20446E+01 2.28152E+01 0.00000E+00
 -1      3858 4.24349E+01 2.41939E+01 0.00000E+00
 -1      3859 4.34054E+01 3.17104E+01 0.00000E+00
 -1      3860 4.33556E+01 3.33232E+01 0.00000E+00
 -1      3861 4.48556E+01 3.33232E+01 0.00000E+00
 -1      3862 4.42667E+01 3.07202E+01 0.00000E+00
 -1      3863 4.10865E+01 1.97257E+01 0.00000E+00
 -1      3864 4.16432E+01 2.12443E+01 0.00000E+00
 -1      3865 1.34539E+02 1.62463E+01 0.00000E+00
 -1      3866 4.56056E+01 3.20242E+01 0.00000E+00
 -1      3867 1.32615E+02 3.23913E+01 0.00000E+00
 -1      3868 4.29859E+01 2.16088E+01 0.00000E+00
 -1      3869 4.10335E+01 1.61551E+01 0.00000E+00
 -1      3870 1.33113E+02 2.27875E+01 0.00000E+00
 -1      3871 1.33113E+02 2.13125E+01 0.00000E+00
 -1      3872 1.33785E+02 1.56973E+01 0.00000E+00
 -1      3873 1.32285E+02 1.56973E+01 0.00000E+00
 -1      3874 1.34496E+02 3.10843E+01 0.00000E+00
 -1      3875 1.33113E+02 2.57375E+01 0.00000E+00
 -1      3876 1.33113E+02 2.42625E+01 0.00000E+00
 -1      3877 1.31814E+02 2.35250E+01 0.00000E+00
 -1      3878 1.31880E+02 2.08097E+01 0.00000E+00
 -1      3879 1.33179E+02 2.00722E+01 0.00000E+00
 -1      3880 1.33244E+02 1.88318E+01 0.00000E+00
 -1      3881 4.13118E+01 1.82049E+01 0.00000E+00
 -1      3882 4.28097E+01 1.85171E+01 0.00000E+00
 -1      3883 1.33113E+02 2.86750E+01 0.00000E+00
 -1      3884 1.33113E+02 2.72062E+01 0.00000E+00
 -1      3885 1.31814E+02 2.64688E+01 0.00000E+00
 -1      3886 4.32086E+01 2.50532E+01 0.00000E+00
 -1      3887 4.39823E+01 2.59125E+01 0.00000E+00
 -1      3888 4.41610E+01 2.40389E+01 0.00000E+00
 -1      3889 1.31535E+02 1.69963E+01 0.00000E+00
 -1      3890 4.58097E+01 1.85171E+01 0.00000E+00
 -1      3891 4.43097E+01 1.85171E+01 0.00000E+00
 -1      3892 4.40845E+01 2.00380E+01 0.00000E+00
 -1      3893 1.33789E+02 1.75453E+01 0.00000E+00
 -1      3894 5.04000E+01 3.07276E+01 0.00000E+00
 -1      3895 5.19000E+01 3.07276E+01 0.00000E+00
 -1      3896 5.34000E+01 3.07276E+01 0.00000E+00
 -1      3897 5.49000E+01 3.07276E+01 0.00000E+00
 -1      3898 5.26500E+01 2.94286E+01 0.00000E+00
 -1      3899 5.64000E+01 3.07276E+01 0.00000E+00
 -1      3900 5.79000E+01 3.07276E+01 0.00000E+00
 -1      3901 5.56500E+01 2.94286E+01 0.00000E+00
 -1      3902 5.94000E+01 3.07276E+01 0.00000E+00
 -1      3903 6.09000E+01 3.07276E+01 0.00000E+00
 -1      3904 5.86500E+01 2.94286E+01 0.00000E+00
 -1      3905 6.24000E+01 3.07276E+01 0.00000E+00
 -1      3906 6.39000E+01 3.07276E+01 0.00000E+00
 -1      3907 6.16500E+01 2.94286E+01 0.00000E+00
 -1      3908 6.54000E+01 3.07276E+01 0.00000E+00
 -1      3909 6.69000E+01 3.07276E+01 0.00000E+00
 -1      3910 6.46500E+01 2.94286E+01 0.00000E+00
 -1      3911 6.84000E+01 3.07276E+01 0.00000E+00
 -1      3912 6.99000E+01 3.07276E+01 0.00000E+00
 -1      3913 6.76500E+01 2.94286E+01 0.00000E+00
 -1      3914 7.14000E+01 3.07276E+01 0.00000E+00
 -1      3915 7.29000E+01 3.07276E+01 0.00000E+00
 -1      3916 7.06500E+01 2.94286E+01 0.00000E+00
 -1      3917 7.44000E+01 3.07276E+01 0.00000E+00
 -1      3918 7.59000E+01 3.07276E+01 0.00000E+00
 -1      3919 7.36500E+01 2.94286E+01 0.00000E+00
 -1      3920 7.74000E+01 3.07276E+01 0.00000E+00
 -1      3921 7.89000E+01 3.07276E+01 0.00000E+00
 -1      3922 7.66500E+01 2.94286E+01 0.00000E+00
 -1      3923 8.04000E+01 3.07276E+01 0.00000E+00
 -1      3924 8.19000E+01 3.07276E+01 0.00000E+00
 -1      3925 7.96500E+01 2.94286E+01 0.00000E+00
 -1      3926 8.34000E+01 3.07276E+01 0.00000E+00
 -1      3927 8.49000E+01 3.07276E+01 0.00000E+00
 -1      3928 8.26500E+01 2.94286E+01 0.00000E+00
 -1      3929 8.64000E+01 3.07276E+01 0.00000E+00
 -1      3930 8.79000E+01 3.07276E+01 0.00000E+00
 -1      3931 8.56500E+01 2.94286E+01 0.00000E+00
 -1      3932 8.94000E+01 3.07276E+01 0.00000E+00
 -1      3933 9.09000E+01 3.07276E+01 0.00000E+00
 -1      3934 8.86500E+01 2.94286E+01 0.00000E+00
 -1      3935 9.24000E+01 3.07276E+01 0.00000E+00
 -1      3936 9.39000E+01 3.07276E+01 0.00000E+00
 -1      3937 9.16500E+01 2.94286E+01 0.00000E+00
 -1      3938 9.54000E+01 3.07276E+01 0.00000E+00
 -1      3939 9.69000E+01 3.07276E+01 0.00000E+00
 -1      3940 9.46500E+01 2.94286E+01 0.00000E+00
 -1      3941 9.84000E+01 3.07276E+01 0.00000E+00
 -1      3942 9.99000E+01 3.07276E+01 0.00000E+00
 -1      3943 9.76500E+01 2.94286E+01 0.00000E+00
 -1      3944 1.01400E+02 3.07276E+01 0.00000E+00
 -1      3945 1.02900E+02 3.07276E+01 0.00000E+00
 -1      3946 1.00650E+02 2.94286E+01 0.00000E+00
 -1      3947 1.04400E+02 3.07276E+01 0.00000E+00
 -1      3948 1.05900E+02 3.07276E+01 0.00000E+00
 -1      3949 1.03650E+02 2.94286E+01 0.00000E+00
 -1      3950 1.07400E+02 3.07276E+01 0.00000E+00
 -1      3951 1.08900E+02 3.07276E+01 0.00000E+00
 -1      3952 1.06650E+02 2.94286E+01 0.00000E+00
 -1      3953 1.10400E+02 3.07276E+01 0.00000E+00
 -1      3954 1.11900E+02 3.07276E+01 0.00000E+00
 -1      3955 1.09650E+02 2.94286E+01 0.00000E+00
 -1      3956 1.13400E+02 3.07276E+01 0.00000E+00
 -1      3957 1.14900E+02 3.07276E+01 0.00000E+00
 -1      3958 1.12650E+02 2.94286E+01 0.00000E+00
 -1      3959 1.16400E+02 3.07276E+01 0.00000E+00
 -1      3960 1.17900E+02 3.07276E+01 0.00000E+00
 -1      3961 1.15650E+02 2.94286E+01 0.00000E+00
 -1      3962 1.19400E+02 3.07276E+01 0.00000E+00
 -1      3963 1.20900E+02 3.07276E+01 0.00000E+00
 -1      3964 1.18650E+02 2.94286E+01 0.00000E+00
 -1      3965 1.22400E+02 3.07276E+01 0.00000E+00
 -1      3966 1.23900E+02 3.07276E+01 0.00000E+00
 -1      3967 1.21650E+02 2.94286E+01 0.00000E+00
 -1      3968 1.25400E+02 3.07276E+01 0.00000E+00
 -1      3969 1.26900E+02 3.07276E+01 0.00000E+00
 -1      3970 1.24650E+02 2.94286E+01 0.00000E+00
 -1      3971 1.28400E+02 3.07276E+01 0.00000E+00
 -1      3972 1.29900E+02 3.07276E+01 0.00000E+00
 -1      3973 1.27650E+02 2.94286E+01 0.00000E+00
 -1      3974 5.72850E+01 1.82952E+01 0.00000E+00
 -1      3975 5.57850E+01 1.82952E+01 0.00000E+00
 -1      3976 6.02850E+01 1.82952E+01 0.00000E+00
 -1      3977 5.87850E+01 1.82952E+01 0.00000E+00
 -1      3978 5.80350E+01 1.95942E+01 0.00000E+00
 -1      3979 6.32850E+01 1.82952E+01 0.00000E+00
 -1      3980 6.17850E+01 1.82952E+01 0.00000E+00
 -1      3981 6.10350E+01 1.95942E+01 0.00000E+00
 -1      3982 6.62850E+01 1.82952E+01 0.00000E+00
 -1      3983 6.47850E+01 1.82952E+01 0.00000E+00
 -1      3984 6.40350E+01 1.95942E+01 0.00000E+00
 -1      3985 6.92850E+01 1.82952E+01 0.00000E+00
 -1      3986 6.77850E+01 1.82952E+01 0.00000E+00
 -1      3987 6.70350E+01 1.95942E+01 0.00000E+00
 -1      3988 7.22850E+01 1.82952E+01 0.00000E+00
 -1      3989 7.07850E+01 1.82952E+01 0.00000E+00
 -1      3990 7.00350E+01 1.95942E+01 0.00000E+00
 -1      3991 7.52850E+01 1.82952E+01 0.00000E+00
 -1      3992 7.37850E+01 1.82952E+01 0.00000E+00
 -1      3993 7.30350E+01 1.95942E+01 0.00000E+00
 -1      3994 7.82850E+01 1.82952E+01 0.00000E+00
 -1      3995 7.67850E+01 1.82952E+01 0.00000E+00
 -1      3996 7.60350E+01 1.95942E+01 0.00000E+00
 -1      3997 8.12850E+01 1.82952E+01 0.00000E+00
 -1      3998 7.97850E+01 1.82952E+01 0.00000E+00
 -1      3999 7.90350E+01 1.95942E+01 0.00000E+00
 -1      4000 8.42850E+01 1.82952E+01 0.00000E+00
 -1      4001 8.27850E+01 1.82952E+01 0.00000E+00
 -1      4002 8.20350E+01 1.95942E+01 0.00000E+00
 -1      4003 8.72850E+01 1.82952E+01 0.00000E+00
 -1      4004 8.57850E+01 1.82952E+01 0.00000E+00
 -1      4005 8.50350E+01 1.95942E+01 0.00000E+00
 -1      4006 9.02850E+01 1.82952E+01 0.00000E+00
 -1      4007 8.87850E+01 1.82952E+01 0.00000E+00
 -1      4008 8.80350E+01 1.95942E+01 0.00000E+00
 -1      4009 9.32850E+01 1.82952E+01 0.00000E+00
 -1      4010 9.17850E+01 1.82952E+01 0.00000E+00
 -1      4011 9.10350E+01 1.95942E+01 0.00000E+00
 -1      4012 9.62850E+01 1.82952E+01 0.00000E+00
 -1      4013 9.47850E+01 1.82952E+01 0.00000E+00
 -1      4014 9.40350E+01 1.95942E+01 0.00000E+00
 -1      4015 9.92850E+01 1.82952E+01 0.00000E+00
 -1      4016 9.77850E+01 1.82952E+01 0.00000E+00
 -1      4017 9.70350E+01 1.95942E+01 0.00000E+00
 -1      4018 1.02285E+02 1.82952E+01 0.00000E+00
 -1      4019 1.00785E+02 1.82952E+01 0.00000E+00
 -1      4020 1.00035E+02 1.95942E+01 0.00000E+00
 -1      4021 1.05285E+02 1.82952E+01 0.00000E+00
 -1      4022 1.03785E+02 1.82952E+01 0.00000E+00
 -1      4023 1.03035E+02 1.95942E+01 0.00000E+00
 -1      4024 1.08285E+02 1.82952E+01 0.00000E+00
 -1      4025 1.06785E+02 1.82952E+01 0.00000E+00
 -1      4026 1.06035E+02 1.95942E+01 0.00000E+00
 -1      4027 1.11285E+02 1.82952E+01 0.00000E+00
 -1      4028 1.09785E+02 1.82952E+01 0.00000E+00
 -1      4029 1.09035E+02 1.95942E+01 0.00000E+00
 -1      4030 1.14285E+02 1.82952E+01 0.00000E+00
 -1      4031 1.12785E+02 1.82952E+01 0.00000E+00
 -1      4032 1.12035E+02 1.95942E+01 0.00000E+00
 -1      4033 1.17285E+02 1.82952E+01 0.00000E+00
 -1      4034 1.15785E+02 1.82952E+01 0.00000E+00
 -1      4035 1.15035E+02 1.95942E+01 0.00000E+00
 -1      4036 1.20285E+02 1.82952E+01 0.00000E+00
 -1      4037 1.18785E+02 1.82952E+01 0.00000E+00
 -1      4038 1.18035E+02 1.95942E+01 0.00000E+00
 -1      4039 1.23285E+02 1.82952E+01 0.00000E+00
 -1      4040 1.21785E+02 1.82952E+01 0.00000E+00
 -1      4041 1.21035E+02 1.95942E+01 0.00000E+00
 -1      4042 1.26285E+02 1.82952E+01 0.00000E+00
 -1      4043 1.24785E+02 1.82952E+01 0.00000E+00
 -1      4044 1.24035E+02 1.95942E+01 0.00000E+00
 -1      4045 1.29285E+02 1.82952E+01 0.00000E+00
 -1      4046 1.27785E+02 1.82952E+01 0.00000E+00
 -1      4047 1.27035E+02 1.95942E+01 0.00000E+00
 -1      4048 1.32531E+02 3.07196E+01 0.00000E+00
 -1      4049 4.11726E+01 1.71800E+01 0.00000E+00
 -1      4050 4.50167E+01 2.94212E+01 0.00000E+00
 -1      4051 4.53112E+01 3.07227E+01 0.00000E+00
 -1      4052 4.63556E+01 3.07252E+01 0.00000E+00
 -1      4053 1.32490E+02 1.82828E+01 0.00000E+00
 -1      4054 4.42639E+01 2.70438E+01 0.00000E+00
 -1      4055 4.47351E+01 2.82899E+01 0.00000E+00
 -1      4056 4.57795E+01 2.82923E+01 0.00000E+00
 -1      4057 4.52163E+01 2.60296E+01 0.00000E+00
 -1      4058 5.42850E+01 1.82952E+01 0.00000E+00
 -1      4059 5.27850E+01 1.82952E+01 0.00000E+00
 -1      4060 5.50350E+01 1.95942E+01 0.00000E+00
 -1      4061 1.30515E+02 2.42625E+01 0.00000E+00
 -1      4062 1.30515E+02 2.27875E+01 0.00000E+00
 -1      4063 4.76278E+01 3.07264E+01 0.00000E+00
 -1      4064 4.91278E+01 3.07264E+01 0.00000E+00
 -1      4065 4.98778E+01 2.94274E+01 0.00000E+00
 -1      4066 4.73334E+01 2.94249E+01 0.00000E+00
 -1      4067 4.44859E+01 2.16088E+01 0.00000E+00
 -1      4068 1.30990E+02 1.82828E+01 0.00000E+00
 -1      4069 1.31232E+02 2.99821E+01 0.00000E+00
 -1      4070 1.28876E+02 2.15596E+01 0.00000E+00
 -1      4071 1.30174E+02 2.08221E+01 0.00000E+00
 -1      4072 4.88097E+01 1.85171E+01 0.00000E+00
 -1      4073 4.73097E+01 1.85171E+01 0.00000E+00
 -1      4074 4.70845E+01 2.00380E+01 0.00000E+00
 -1      4075 1.30240E+02 1.95818E+01 0.00000E+00
 -1      4076 5.15474E+01 1.84062E+01 0.00000E+00
 -1      4077 5.00474E+01 1.84062E+01 0.00000E+00
 -1      4078 4.98221E+01 1.99270E+01 0.00000E+00
 -1      4079 5.22974E+01 1.97052E+01 0.00000E+00
 -1      4080 1.30482E+02 2.86831E+01 0.00000E+00
 -1      4081 4.61720E+01 2.12530E+01 0.00000E+00
 -1      4082 4.50735E+01 2.28239E+01 0.00000E+00
 -1      4083 4.58471E+01 2.36832E+01 0.00000E+00
 -1      4084 4.76720E+01 2.12530E+01 0.00000E+00
 -1      4085 1.30499E+02 2.72072E+01 0.00000E+00
 -1      4086 1.30499E+02 2.57384E+01 0.00000E+00
 -1      4087 1.29199E+02 2.50009E+01 0.00000E+00
 -1      4088 1.29167E+02 2.79527E+01 0.00000E+00
 -1      4089 5.19000E+01 2.81296E+01 0.00000E+00
 -1      4090 5.34000E+01 2.81296E+01 0.00000E+00
 -1      4091 5.49000E+01 2.81296E+01 0.00000E+00
 -1      4092 5.64000E+01 2.81296E+01 0.00000E+00
 -1      4093 5.41500E+01 2.68306E+01 0.00000E+00
 -1      4094 5.79000E+01 2.81296E+01 0.00000E+00
 -1      4095 5.94000E+01 2.81296E+01 0.00000E+00
 -1      4096 5.71500E+01 2.68306E+01 0.00000E+00
 -1      4097 6.09000E+01 2.81296E+01 0.00000E+00
 -1      4098 6.24000E+01 2.81296E+01 0.00000E+00
 -1      4099 6.01500E+01 2.68306E+01 0.00000E+00
 -1      4100 6.39000E+01 2.81296E+01 0.00000E+00
 -1      4101 6.54000E+01 2.81296E+01 0.00000E+00
 -1      4102 6.31500E+01 2.68306E+01 0.00000E+00
 -1      4103 6.69000E+01 2.81296E+01 0.00000E+00
 -1      4104 6.84000E+01 2.81296E+01 0.00000E+00
 -1      4105 6.61500E+01 2.68306E+01 0.00000E+00
 -1      4106 6.99000E+01 2.81296E+01 0.00000E+00
 -1      4107 7.14000E+01 2.81296E+01 0.00000E+00
 -1      4108 6.91500E+01 2.68306E+01 0.00000E+00
 -1      4109 7.29000E+01 2.81296E+01 0.00000E+00
 -1      4110 7.44000E+01 2.81296E+01 0.00000E+00
 -1      4111 7.21500E+01 2.68306E+01 0.00000E+00
 -1      4112 7.59000E+01 2.81296E+01 0.00000E+00
 -1      4113 7.74000E+01 2.81296E+01 0.00000E+00
 -1      4114 7.51500E+01 2.68306E+01 0.00000E+00
 -1      4115 7.89000E+01 2.81296E+01 0.00000E+00
 -1      4116 8.04000E+01 2.81296E+01 0.00000E+00
 -1      4117 7.81500E+01 2.68306E+01 0.00000E+00
 -1      4118 8.19000E+01 2.81296E+01 0.00000E+00
 -1      4119 8.34000E+01 2.81296E+01 0.00000E+00
 -1      4120 8.11500E+01 2.68306E+01 0.00000E+00
 -1      4121 8.49000E+01 2.81296E+01 0.00000E+00
 -1      4122 8.64000E+01 2.81296E+01 0.00000E+00
 -1      4123 8.41500E+01 2.68306E+01 0.00000E+00
 -1      4124 8.79000E+01 2.81296E+01 0.00000E+00
 -1      4125 8.94000E+01 2.81296E+01 0.00000E+00
 -1      4126 8.71500E+01 2.68306E+01 0.00000E+00
 -1      4127 9.09000E+01 2.81296E+01 0.00000E+00
 -1      4128 9.24000E+01 2.81296E+01 0.00000E+00
 -1      4129 9.01500E+01 2.68306E+01 0.00000E+00
 -1      4130 9.39000E+01 2.81296E+01 0.00000E+00
 -1      4131 9.54000E+01 2.81296E+01 0.00000E+00
 -1      4132 9.31500E+01 2.68306E+01 0.00000E+00
 -1      4133 9.69000E+01 2.81296E+01 0.00000E+00
 -1      4134 9.84000E+01 2.81296E+01 0.00000E+00
 -1      4135 9.61500E+01 2.68306E+01 0.00000E+00
 -1      4136 9.99000E+01 2.81296E+01 0.00000E+00
 -1      4137 1.01400E+02 2.81296E+01 0.00000E+00
 -1      4138 9.91500E+01 2.68306E+01 0.00000E+00
 -1      4139 1.02900E+02 2.81296E+01 0.00000E+00
 -1      4140 1.04400E+02 2.81296E+01 0.00000E+00
 -1      4141 1.02150E+02 2.68306E+01 0.00000E+00
 -1      4142 1.05900E+02 2.81296E+01 0.00000E+00
 -1      4143 1.07400E+02 2.81296E+01 0.00000E+00
 -1      4144 1.05150E+02 2.68306E+01 0.00000E+00
 -1      4145 1.08900E+02 2.81296E+01 0.00000E+00
 -1      4146 1.10400E+02 2.81296E+01 0.00000E+00
 -1      4147 1.08150E+02 2.68306E+01 0.00000E+00
 -1      4148 1.11900E+02 2.81296E+01 0.00000E+00
 -1      4149 1.13400E+02 2.81296E+01 0.00000E+00
 -1      4150 1.11150E+02 2.68306E+01 0.00000E+00
 -1      4151 1.14900E+02 2.81296E+01 0.00000E+00
 -1      4152 1.16400E+02 2.81296E+01 0.00000E+00
 -1      4153 1.14150E+02 2.68306E+01 0.00000E+00
 -1      4154 1.17900E+02 2.81296E+01 0.00000E+00
 -1      4155 1.19400E+02 2.81296E+01 0.00000E+00
 -1      4156 1.17150E+02 2.68306E+01 0.00000E+00
 -1      4157 1.20900E+02 2.81296E+01 0.00000E+00
 -1      4158 1.22400E+02 2.81296E+01 0.00000E+00
 -1      4159 1.20150E+02 2.68306E+01 0.00000E+00
 -1      4160 1.23900E+02 2.81296E+01 0.00000E+00
 -1      4161 1.25400E+02 2.81296E+01 0.00000E+00
 -1      4162 1.23150E+02 2.68306E+01 0.00000E+00
 -1      4163 1.26533E+02 2.80412E+01 0.00000E+00
 -1      4164 1.28033E+02 2.80412E+01 0.00000E+00
 -1      4165 1.28050E+02 2.65653E+01 0.00000E+00
 -1      4166 1.25783E+02 2.67422E+01 0.00000E+00
 -1      4167 6.17850E+01 2.08932E+01 0.00000E+00
 -1      4168 6.02850E+01 2.08932E+01 0.00000E+00
 -1      4169 5.87850E+01 2.08932E+01 0.00000E+00
 -1      4170 5.72850E+01 2.08932E+01 0.00000E+00
 -1      4171 5.95350E+01 2.21922E+01 0.00000E+00
 -1      4172 6.77850E+01 2.08932E+01 0.00000E+00
 -1      4173 6.62850E+01 2.08932E+01 0.00000E+00
 -1      4174 7.07850E+01 2.08932E+01 0.00000E+00
 -1      4175 6.92850E+01 2.08932E+01 0.00000E+00
 -1      4176 6.85350E+01 2.21922E+01 0.00000E+00
 -1      4177 7.37850E+01 2.08932E+01 0.00000E+00
 -1      4178 7.22850E+01 2.08932E+01 0.00000E+00
 -1      4179 7.15350E+01 2.21922E+01 0.00000E+00
 -1      4180 7.67850E+01 2.08932E+01 0.00000E+00
 -1      4181 7.52850E+01 2.08932E+01 0.00000E+00
 -1      4182 7.45350E+01 2.21922E+01 0.00000E+00
 -1      4183 7.97850E+01 2.08932E+01 0.00000E+00
 -1      4184 7.82850E+01 2.08932E+01 0.00000E+00
 -1      4185 7.75350E+01 2.21922E+01 0.00000E+00
 -1      4186 8.27850E+01 2.08932E+01 0.00000E+00
 -1      4187 8.12850E+01 2.08932E+01 0.00000E+00
 -1      4188 8.05350E+01 2.21922E+01 0.00000E+00
 -1      4189 8.57850E+01 2.08932E+01 0.00000E+00
 -1      4190 8.42850E+01 2.08932E+01 0.00000E+00
 -1      4191 8.35350E+01 2.21922E+01 0.00000E+00
 -1      4192 8.87850E+01 2.08932E+01 0.00000E+00
 -1      4193 8.72850E+01 2.08932E+01 0.00000E+00
 -1      4194 8.65350E+01 2.21922E+01 0.00000E+00
 -1      4195 9.17850E+01 2.08932E+01 0.00000E+00
 -1      4196 9.02850E+01 2.08932E+01 0.00000E+00
 -1      4197 8.95350E+01 2.21922E+01 0.00000E+00
 -1      4198 9.47850E+01 2.08932E+01 0.00000E+00
 -1      4199 9.32850E+01 2.08932E+01 0.00000E+00
 -1      4200 9.25350E+01 2.21922E+01 0.00000E+00
 -1      4201 9.77850E+01 2.08932E+01 0.00000E+00
 -1      4202 9.62850E+01 2.08932E+01 0.00000E+00
 -1      4203 9.55350E+01 2.21922E+01 0.00000E+00
 -1      4204 1.00785E+02 2.08932E+01 0.00000E+00
 -1      4205 9.92850E+01 2.08932E+01 0.00000E+00
 -1      4206 9.85350E+01 2.21922E+01 0.00000E+00
 -1      4207 1.03785E+02 2.08932E+01 0.00000E+00
 -1      4208 1.02285E+02 2.08932E+01 0.00000E+00
 -1      4209 1.01535E+02 2.21922E+01 0.00000E+00
 -1      4210 1.06785E+02 2.08932E+01 0.00000E+00
 -1      4211 1.05285E+02 2.08932E+01 0.00000E+00
 -1      4212 1.04535E+02 2.21922E+01 0.00000E+00
 -1      4213 1.09785E+02 2.08932E+01 0.00000E+00
 -1      4214 1.08285E+02 2.08932E+01 0.00000E+00
 -1      4215 1.07535E+02 2.21922E+01 0.00000E+00
 -1      4216 1.12785E+02 2.08932E+01 0.00000E+00
 -1      4217 1.11285E+02 2.08932E+01 0.00000E+00
 -1      4218 1.10535E+02 2.21922E+01 0.00000E+00
 -1      4219 1.15785E+02 2.08932E+01 0.00000E+00
 -1      4220 1.14285E+02 2.08932E+01 0.00000E+00
 -1      4221 1.13535E+02 2.21922E+01 0.00000E+00
 -1      4222 1.18785E+02 2.08932E+01 0.00000E+00
 -1      4223 1.17285E+02 2.08932E+01 0.00000E+00
 -1      4224 1.16535E+02 2.21922E+01 0.00000E+00
 -1      4225 1.21785E+02 2.08932E+01 0.00000E+00
 -1      4226 1.20285E+02 2.08932E+01 0.00000E+00
 -1      4227 1.19535E+02 2.21922E+01 0.00000E+00
 -1      4228 1.24785E+02 2.08932E+01 0.00000E+00
 -1      4229 1.23285E+02 2.08932E+01 0.00000E+00
 -1      4230 1.22535E+02 2.21922E+01 0.00000E+00
 -1      4231 1.27580E+02 2.12264E+01 0.00000E+00
 -1      4232 1.26080E+02 2.12264E+01 0.00000E+00
 -1      4233 1.25330E+02 2.25254E+01 0.00000E+00
 -1      4234 1.27921E+02 2.31918E+01 0.00000E+00
 -1      4235 5.57850E+01 2.08932E+01 0.00000E+00
 -1      4236 5.42850E+01 2.08932E+01 0.00000E+00
 -1      4237 5.65350E+01 2.21922E+01 0.00000E+00
 -1      4238 6.47850E+01 2.08932E+01 0.00000E+00
 -1      4239 6.32850E+01 2.08932E+01 0.00000E+00
 -1      4240 6.25350E+01 2.21922E+01 0.00000E+00
 -1      4241 6.55350E+01 2.21922E+01 0.00000E+00
 -1      4242 4.67701E+01 2.71622E+01 0.00000E+00
 -1      4243 4.70518E+01 2.82936E+01 0.00000E+00
 -1      4244 4.83240E+01 2.82948E+01 0.00000E+00
 -1      4245 1.27977E+02 2.56165E+01 0.00000E+00
 -1      4246 1.27993E+02 2.41406E+01 0.00000E+00
 -1      4247 1.26698E+02 2.38074E+01 0.00000E+00
 -1      4248 1.26844E+02 2.57049E+01 0.00000E+00
 -1      4249 5.37974E+01 2.23032E+01 0.00000E+00
 -1      4250 5.30474E+01 2.10042E+01 0.00000E+00
 -1      4251 5.18097E+01 2.11151E+01 0.00000E+00
 -1      4252 4.62069E+01 2.48994E+01 0.00000E+00
 -1      4253 4.64885E+01 2.60308E+01 0.00000E+00
 -1      4254 4.77607E+01 2.60320E+01 0.00000E+00
 -1      4255 4.94759E+01 2.82116E+01 0.00000E+00
 -1      4256 5.07481E+01 2.82128E+01 0.00000E+00
 -1      4257 5.14981E+01 2.69138E+01 0.00000E+00
 -1      4258 4.91943E+01 2.70802E+01 0.00000E+00
 -1      4259 4.71193E+01 2.36844E+01 0.00000E+00
 -1      4260 5.64000E+01 2.55316E+01 0.00000E+00
 -1      4261 5.79000E+01 2.55316E+01 0.00000E+00
 -1      4262 5.98425E+01 2.45114E+01 0.00000E+00
 -1      4263 6.13425E+01 2.45114E+01 0.00000E+00
 -1      4264 6.28425E+01 2.45114E+01 0.00000E+00
 -1      4265 6.43425E+01 2.45114E+01 0.00000E+00
 -1      4266 6.58425E+01 2.45114E+01 0.00000E+00
 -1      4267 6.73425E+01 2.45114E+01 0.00000E+00
 -1      4268 6.88425E+01 2.45114E+01 0.00000E+00
 -1      4269 7.03425E+01 2.45114E+01 0.00000E+00
 -1      4270 7.18425E+01 2.45114E+01 0.00000E+00
 -1      4271 7.33425E+01 2.45114E+01 0.00000E+00
 -1      4272 7.48425E+01 2.45114E+01 0.00000E+00
 -1      4273 7.63425E+01 2.45114E+01 0.00000E+00
 -1      4274 7.78425E+01 2.45114E+01 0.00000E+00
 -1      4275 7.93425E+01 2.45114E+01 0.00000E+00
 -1      4276 8.08425E+01 2.45114E+01 0.00000E+00
 -1      4277 8.23425E+01 2.45114E+01 0.00000E+00
 -1      4278 8.38425E+01 2.45114E+01 0.00000E+00
 -1      4279 8.53425E+01 2.45114E+01 0.00000E+00
 -1      4280 8.68425E+01 2.45114E+01 0.00000E+00
 -1      4281 8.83425E+01 2.45114E+01 0.00000E+00
 -1      4282 8.98425E+01 2.45114E+01 0.00000E+00
 -1      4283 9.13425E+01 2.45114E+01 0.00000E+00
 -1      4284 9.28425E+01 2.45114E+01 0.00000E+00
 -1      4285 9.43425E+01 2.45114E+01 0.00000E+00
 -1      4286 9.58425E+01 2.45114E+01 0.00000E+00
 -1      4287 9.73425E+01 2.45114E+01 0.00000E+00
 -1      4288 9.88425E+01 2.45114E+01 0.00000E+00
 -1      4289 1.00342E+02 2.45114E+01 0.00000E+00
 -1      4290 1.01842E+02 2.45114E+01 0.00000E+00
 -1      4291 1.03342E+02 2.45114E+01 0.00000E+00
 -1      4292 1.04842E+02 2.45114E+01 0.00000E+00
 -1      4293 1.06342E+02 2.45114E+01 0.00000E+00
 -1      4294 1.07842E+02 2.45114E+01 0.00000E+00
 -1      4295 1.09342E+02 2.45114E+01 0.00000E+00
 -1      4296 1.10842E+02 2.45114E+01 0.00000E+00
 -1      4297 1.12342E+02 2.45114E+01 0.00000E+00
 -1      4298 1.13842E+02 2.45114E+01 0.00000E+00
 -1      4299 1.15342E+02 2.45114E+01 0.00000E+00
 -1      4300 1.16842E+02 2.45114E+01 0.00000E+00
 -1      4301 1.18342E+02 2.45114E+01 0.00000E+00
 -1      4302 1.19842E+02 2.45114E+01 0.00000E+00
 -1      4303 1.21342E+02 2.45114E+01 0.00000E+00
 -1      4304 1.22842E+02 2.45114E+01 0.00000E+00
 -1      4305 1.24342E+02 2.45114E+01 0.00000E+00
 -1      4306 1.25638E+02 2.48446E+01 0.00000E+00
 -1      4307 5.75925E+01 2.32124E+01 0.00000E+00
 -1      4308 5.60925E+01 2.32124E+01 0.00000E+00
 -1      4309 4.80318E+01 2.24693E+01 0.00000E+00
 -1      4310 4.83916E+01 2.36856E+01 0.00000E+00
 -1      4311 4.89442E+01 2.12542E+01 0.00000E+00
 -1      4312 5.01819E+01 2.11433E+01 0.00000E+00
 -1      4313 5.26049E+01 2.46224E+01 0.00000E+00
 -1      4314 5.41049E+01 2.46224E+01 0.00000E+00
 -1      4315 5.09319E+01 2.24423E+01 0.00000E+00
 -1      4316 5.83425E+01 2.45114E+01 0.00000E+00
 -1      4317 4.98025E+01 2.36297E+01 0.00000E+00
 -1      4318 4.88901E+01 2.48447E+01 0.00000E+00
 -1      4319 4.91717E+01 2.59761E+01 0.00000E+00
 -1      4320 5.14304E+01 2.36014E+01 0.00000E+00
 -1      4321 5.48549E+01 2.33234E+01 0.00000E+00
 -1      4322 1.25711E+02 2.57934E+01 0.00000E+00
 -1      4323 5.03236E+01 2.58929E+01 0.00000E+00
 -1      4324 5.14755E+01 2.58097E+01 0.00000E+00
 -3
    3C                          2080                                     1
 -1       165    8    0    1
 -2         6         7        23      1123      1287      1140
 -1       166    8    0    1
 -2         7         8       165      1124      1288      1289
 -1       167    8    0    1
 -2         8         9       166      1125      1290      1291
 -1       168    8    0    1
 -2         8       166       165      1291      1292      1288
 -1       169    8    0    1
 -2         9        10       167      1126      1293      1294
 -1       170    8    0    1
 -2         9       167       166      1294      1295      1290
 -1       171    8    0    1
 -2        10        11       168      1127      1296      1297
 -1       172    8    0    1
 -2        10       168       167      1297      1298      1293
 -1       173    8    0    1
 -2        11        12       169      1128      1299      1300
 -1       174    8    0    1
 -2        11       169       168      1300      1301      1296
 -1       175    8    0    1
 -2        12        13       170      1129      1302      1303
 -1       176    8    0    1
 -2        12       170       169      1303      1304      1299
 -1       177    8    0    1
 -2        13        14       171      1130      1305      1306
 -1       178    8    0    1
 -2        13       171       170      1306      1307      1302
 -1       179    8    0    1
 -2        14        15       172      1131      1308      1309
 -1       180    8    0    1
 -2        14       172       171      1309      1310      1305
 -1       181    8    0    1
 -2        15        16       173      1132      1311      1312
 -1       182    8    0    1
 -2        15       173       172      1312      1313      1308
 -1       183    8    0    1
 -2        16        17       174      1133      1314      1315
 -1       184    8    0    1
 -2        16       174       173      1315      1316      1311
 -1       185    8    0    1
 -2        17        18       175      1134      1317      1318
 -1       186    8    0    1
 -2        17       175       174      1318      1319      1314
 -1       187    8    0    1
 -2        18        19       176      1135      1320      1321
 -1       188    8    0    1
 -2        18       176       175      1321      1322      1317
 -1       189    8    0    1
 -2        19        20       177      1136      1323      1324
 -1       190    8    0    1
 -2        19       177       176      1324      1325      1320
 -1       191    8    0    1
 -2        20        21       178      1137      1326      1327
 -1       192    8    0    1
 -2        20       178       177      1327      1328      1323
 -1       193    8    0    1
 -2        21        22       179      1138      1329      1330
 -1       194    8    0    1
 -2        21       179       178      1330      1331      1326
 -1       195    8    0    1
 -2        22         5       180      1139      1332      1333
 -1       196    8    0    1
 -2       179        22       180      1329      1333      1334
 -1       197    8    0    1
 -2         5        72       180      1190      1335      1332
 -1       198    8    0    1
 -2        24        23       181      1141      1336      1337
 -1       199    8    0    1
 -2        25        24       182      1142      1338      1339
 -1       200    8    0    1
 -2        24       181       182      1337      1340      1338
 -1       201    8    0    1
 -2        26        25       183      1143      1341      1342
 -1       202    8    0    1
 -2        25       182       183      1339      1343      1341
 -1       203    8    0    1
 -2        27        26       184      1144      1344      1345
 -1       204    8    0    1
 -2        26       183       184      1342      1346      1344
 -1       205    8    0    1
 -2        28        27       185      1145      1347      1348
 -1       206    8    0    1
 -2        27       184       185      1345      1349      1347
 -1       207    8    0    1
 -2        29        28       186      1146      1350      1351
 -1       208    8    0    1
 -2        28       185       186      1348      1352      1350
 -1       209    8    0    1
 -2        30        29       187      1147      1353      1354
 -1       210    8    0    1
 -2        29       186       187      1351      1355      1353
 -1       211    8    0    1
 -2        31        30       188      1148      1356      1357
 -1       212    8    0    1
 -2        30       187       188      1354      1358      1356
 -1       213    8    0    1
 -2        32        31       189      1149      1359      1360
 -1       214    8    0    1
 -2        31       188       189      1357      1361      1359
 -1       215    8    0    1
 -2        33        32       190      1150      1362      1363
 -1       216    8    0    1
 -2        32       189       190      1360      1364      1362
 -1       217    8    0    1
 -2        34        33       191      1151      1365      1366
 -1       218    8    0    1
 -2        33       190       191      1363      1367      1365
 -1       219    8    0    1
 -2        35        34       192      1152      1368      1369
 -1       220    8    0    1
 -2        34       191       192      1366      1370      1368
 -1       221    8    0    1
 -2        36        35       193      1153      1371      1372
 -1       222    8    0    1
 -2        35       192       193      1369      1373      1371
 -1       223    8    0    1
 -2        37        36       194      1154      1374      1375
 -1       224    8    0    1
 -2        36       193       194      1372      1376      1374
 -1       225    8    0    1
 -2        38        37       195      1155      1377      1378
 -1       226    8    0    1
 -2        37       194       195      1375      1379      1377
 -1       227    8    0    1
 -2        39        38       196      1156      1380      1381
 -1       228    8    0    1
 -2        38       195       196      1378      1382      1380
 -1       229    8    0    1
 -2        40        39       197      1157      1383      1384
 -1       230    8    0    1
 -2        39       196       197      1381      1385      1383
 -1       231    8    0    1
 -2        41        40       198      1158      1386      1387
 -1       232    8    0    1
 -2        40       197       198      1384      1388      1386
 -1       233    8    0    1
 -2        42        41       199      1159      1389      1390
 -1       234    8    0    1
 -2        41       198       199      1387      1391      1389
 -1       235    8    0    1
 -2        43        42       200      1160      1392      1393
 -1       236    8    0    1
 -2        42       199       200      1390      1394      1392
 -1       237    8    0    1
 -2        44        43       201      1161      1395      1396
 -1       238    8    0    1
 -2        43       200       201      1393      1397      1395
 -1       239    8    0    1
 -2        45        44       202      1162      1398      1399
 -1       240    8    0    1
 -2        44       201       202      1396      1400      1398
 -1       241    8    0    1
 -2        46        45       203      1163      1401      1402
 -1       242    8    0    1
 -2        45       202       203      1399      1403      1401
 -1       243    8    0    1
 -2        47        46       204      1164      1404      1405
 -1       244    8    0    1
 -2        46       203       204      1402      1406      1404
 -1       245    8    0    1
 -2        48        47       205      1165      1407      1408
 -1       246    8    0    1
 -2        47       204       205      1405      1409      1407
 -1       247    8    0    1
 -2        49        48       206      1166      1410      1411
 -1       248    8    0    1
 -2        48       205       206      1408      1412      1410
 -1       249    8    0    1
 -2        50        49       207      1167      1413      1414
 -1       250    8    0    1
 -2        49       206       207      1411      1415      1413
 -1       251    8    0    1
 -2        51        50       208      1168      1416      1417
 -1       252    8    0    1
 -2        50       207       208      1414      1418      1416
 -1       253    8    0    1
 -2        52        51       209      1169      1419      1420
 -1       254    8    0    1
 -2        51       208       209      1417      1421      1419
 -1       255    8    0    1
 -2        53        52       210      1170      1422      1423
 -1       256    8    0    1
 -2        52       209       210      1420      1424      1422
 -1       257    8    0    1
 -2        54        53       211      1171      1425      1426
 -1       258    8    0    1
 -2        53       210       211      1423      1427      1425
 -1       259    8    0    1
 -2        55        54       212      1172      1428      1429
 -1       260    8    0    1
 -2        54       211       212      1426      1430      1428
 -1       261    8    0    1
 -2        56        55       213      1173      1431      1432
 -1       262    8    0    1
 -2        55       212       213      1429      1433      1431
 -1       263    8    0    1
 -2        57        56       214      1174      1434      1435
 -1       264    8    0    1
 -2        56       213       214      1432      1436      1434
 -1       265    8    0    1
 -2        58        57       215      1175      1437      1438
 -1       266    8    0    1
 -2        57       214       215      1435      1439      1437
 -1       267    8    0    1
 -2        59        58       216      1176      1440      1441
 -1       268    8    0    1
 -2        58       215       216      1438      1442      1440
 -1       269    8    0    1
 -2        60        59       217      1177      1443      1444
 -1       270    8    0    1
 -2        59       216       217      1441      1445      1443
 -1       271    8    0    1
 -2        61        60       218      1178      1446      1447
 -1       272    8    0    1
 -2        60       217       218      1444      1448      1446
 -1       273    8    0    1
 -2        62        61       219      1179      1449      1450
 -1       274    8    0    1
 -2        61       218       219      1447      1451      1449
 -1       275    8    0    1
 -2        63        62       220      1180      1452      1453
 -1       276    8    0    1
 -2        62       219       220      1450      1454      1452
 -1       277    8    0    1
 -2        64        63       221      1181      1455      1456
 -1       278    8    0    1
 -2        63       220       221      1453      1457      1455
 -1       279    8    0    1
 -2        65        64       222      1182      1458      1459
 -1       280    8    0    1
 -2        64       221       222      1456      1460      1458
 -1       281    8    0    1
 -2        66        65       223      1183      1461      1462
 -1       282    8    0    1
 -2        65       222       223      1459      1463      1461
 -1       283    8    0    1
 -2        67        66       224      1184      1464      1465
 -1       284    8    0    1
 -2        66       223       224      1462      1466      1464
 -1       285    8    0    1
 -2        68        67       225      1185      1467      1468
 -1       286    8    0    1
 -2        67       224       225      1465      1469      1467
 -1       287    8    0    1
 -2        69        68       226      1186      1470      1471
 -1       288    8    0    1
 -2        68       225       226      1468      1472      1470
 -1       289    8    0    1
 -2        70        69       227      1187      1473      1474
 -1       290    8    0    1
 -2        69       226       227      1471      1475      1473
 -1       291    8    0    1
 -2        71        70       228      1188      1476      1477
 -1       292    8    0    1
 -2        70       227       228      1474      1478      1476
 -1       293    8    0    1
 -2         4        71       136      1189      1479      1256
 -1       294    8    0    1
 -2       136        71       228      1479      1477      1480
 -1       295    8    0    1
 -2        72        73       229      1191      1481      1482
 -1       296    8    0    1
 -2        72       229       180      1482      1483      1335
 -1       297    8    0    1
 -2        73        74       230      1192      1484      1485
 -1       298    8    0    1
 -2        73       230       229      1485      1486      1481
 -1       299    8    0    1
 -2        74        75       231      1193      1487      1488
 -1       300    8    0    1
 -2        74       231       230      1488      1489      1484
 -1       301    8    0    1
 -2        75        76       232      1194      1490      1491
 -1       302    8    0    1
 -2        75       232       231      1491      1492      1487
 -1       303    8    0    1
 -2        76        77       233      1195      1493      1494
 -1       304    8    0    1
 -2        76       233       232      1494      1495      1490
 -1       305    8    0    1
 -2        77        78       234      1196      1496      1497
 -1       306    8    0    1
 -2        77       234       233      1497      1498      1493
 -1       307    8    0    1
 -2        78        79       235      1197      1499      1500
 -1       308    8    0    1
 -2        78       235       234      1500      1501      1496
 -1       309    8    0    1
 -2        79        80       236      1198      1502      1503
 -1       310    8    0    1
 -2        79       236       235      1503      1504      1499
 -1       311    8    0    1
 -2        80        81       237      1199      1505      1506
 -1       312    8    0    1
 -2        80       237       236      1506      1507      1502
 -1       313    8    0    1
 -2        81        82       238      1200      1508      1509
 -1       314    8    0    1
 -2        81       238       237      1509      1510      1505
 -1       315    8    0    1
 -2        82        83       239      1201      1511      1512
 -1       316    8    0    1
 -2        82       239       238      1512      1513      1508
 -1       317    8    0    1
 -2        83        84       240      1202      1514      1515
 -1       318    8    0    1
 -2        83       240       239      1515      1516      1511
 -1       319    8    0    1
 -2        84        85       241      1203      1517      1518
 -1       320    8    0    1
 -2        84       241       240      1518      1519      1514
 -1       321    8    0    1
 -2        85        86       242      1204      1520      1521
 -1       322    8    0    1
 -2        85       242       241      1521      1522      1517
 -1       323    8    0    1
 -2        86        87       243      1205      1523      1524
 -1       324    8    0    1
 -2        86       243       242      1524      1525      1520
 -1       325    8    0    1
 -2        87        88       244      1206      1526      1527
 -1       326    8    0    1
 -2        87       244       243      1527      1528      1523
 -1       327    8    0    1
 -2        88        89       245      1207      1529      1530
 -1       328    8    0    1
 -2        88       245       244      1530      1531      1526
 -1       329    8    0    1
 -2        89        90       246      1208      1532      1533
 -1       330    8    0    1
 -2        89       246       245      1533      1534      1529
 -1       331    8    0    1
 -2        90        91       247      1209      1535      1536
 -1       332    8    0    1
 -2        90       247       246      1536      1537      1532
 -1       333    8    0    1
 -2        91        92       248      1210      1538      1539
 -1       334    8    0    1
 -2        91       248       247      1539      1540      1535
 -1       335    8    0    1
 -2        92        93       249      1211      1541      1542
 -1       336    8    0    1
 -2        92       249       248      1542      1543      1538
 -1       337    8    0    1
 -2        93        94       250      1212      1544      1545
 -1       338    8    0    1
 -2        93       250       249      1545      1546      1541
 -1       339    8    0    1
 -2        94        95       251      1213      1547      1548
 -1       340    8    0    1
 -2        94       251       250      1548      1549      1544
 -1       341    8    0    1
 -2        95        96       252      1214      1550      1551
 -1       342    8    0    1
 -2        95       252       251      1551      1552      1547
 -1       343    8    0    1
 -2        96        97       253      1215      1553      1554
 -1       344    8    0    1
 -2        96       253       252      1554      1555      1550
 -1       345    8    0    1
 -2        97        98       254      1216      1556      1557
 -1       346    8    0    1
 -2        97       254       253      1557      1558      1553
 -1       347    8    0    1
 -2        98        99       255      1217      1559      1560
 -1       348    8    0    1
 -2        98       255       254      1560      1561      1556
 -1       349    8    0    1
 -2        99       100       256      1218      1562      1563
 -1       350    8    0    1
 -2        99       256       255      1563      1564      1559
 -1       351    8    0    1
 -2       100       101       257      1219      1565      1566
 -1       352    8    0    1
 -2       100       257       256      1566      1567      1562
 -1       353    8    0    1
 -2       101       102       258      1220      1568      1569
 -1       354    8    0    1
 -2       101       258       257      1569      1570      1565
 -1       355    8    0    1
 -2       102       103       259      1221      1571      1572
 -1       356    8    0    1
 -2       102       259       258      1572      1573      1568
 -1       357    8    0    1
 -2       103       104       260      1222      1574      1575
 -1       358    8    0    1
 -2       103       260       259      1575      1576      1571
 -1       359    8    0    1
 -2       104       105       261      1223      1577      1578
 -1       360    8    0    1
 -2       104       261       260      1578      1579      1574
 -1       361    8    0    1
 -2       105       106       262      1224      1580      1581
 -1       362    8    0    1
 -2       105       262       261      1581      1582      1577
 -1       363    8    0    1
 -2       106       107       263      1225      1583      1584
 -1       364    8    0    1
 -2       106       263       262      1584      1585      1580
 -1       365    8    0    1
 -2       107       108       264      1226      1586      1587
 -1       366    8    0    1
 -2       107       264       263      1587      1588      1583
 -1       367    8    0    1
 -2       108       109       265      1227      1589      1590
 -1       368    8    0    1
 -2       108       265       264      1590      1591      1586
 -1       369    8    0    1
 -2       109       110       266      1228      1592      1593
 -1       370    8    0    1
 -2       109       266       265      1593      1594      1589
 -1       371    8    0    1
 -2       110       111       267      1229      1595      1596
 -1       372    8    0    1
 -2       110       267       266      1596      1597      1592
 -1       373    8    0    1
 -2       111       112       268      1230      1598      1599
 -1       374    8    0    1
 -2       111       268       267      1599      1600      1595
 -1       375    8    0    1
 -2       112       113       269      1231      1601      1602
 -1       376    8    0    1
 -2       112       269       268      1602      1603      1598
 -1       377    8    0    1
 -2       113       114       270      1232      1604      1605
 -1       378    8    0    1
 -2       113       270       269      1605      1606      1601
 -1       379    8    0    1
 -2       114       115       271      1233      1607      1608
 -1       380    8    0    1
 -2       114       271       270      1608      1609      1604
 -1       381    8    0    1
 -2       115       116       272      1234      1610      1611
 -1       382    8    0    1
 -2       115       272       271      1611      1612      1607
 -1       383    8    0    1
 -2       116       117       273      1235      1613      1614
 -1       384    8    0    1
 -2       116       273       272      1614      1615      1610
 -1       385    8    0    1
 -2       117       118       274      1236      1616      1617
 -1       386    8    0    1
 -2       117       274       273      1617      1618      1613
 -1       387    8    0    1
 -2       118       119       275      1237      1619      1620
 -1       388    8    0    1
 -2       118       275       274      1620      1621      1616
 -1       389    8    0    1
 -2       119       120       276      1238      1622      1623
 -1       390    8    0    1
 -2       119       276       275      1623      1624      1619
 -1       391    8    0    1
 -2       120         3       121      1239      1240      1625
 -1       392    8    0    1
 -2       121       122       277      1241      1626      1627
 -1       393    8    0    1
 -2       122       123       278      1242      1628      1629
 -1       394    8    0    1
 -2       122       278       277      1629      1630      1626
 -1       395    8    0    1
 -2       123       124       279      1243      1631      1632
 -1       396    8    0    1
 -2       123       279       278      1632      1633      1628
 -1       397    8    0    1
 -2       124       125       280      1244      1634      1635
 -1       398    8    0    1
 -2       124       280       279      1635      1636      1631
 -1       399    8    0    1
 -2       125       126       281      1245      1637      1638
 -1       400    8    0    1
 -2       125       281       280      1638      1639      1634
 -1       401    8    0    1
 -2       126       127       282      1246      1640      1641
 -1       402    8    0    1
 -2       126       282       281      1641      1642      1637
 -1       403    8    0    1
 -2       127       128       283      1247      1643      1644
 -1       404    8    0    1
 -2       127       283       282      1644      1645      1640
 -1       405    8    0    1
 -2       128       129       284      1248      1646      1647
 -1       406    8    0    1
 -2       128       284       283      1647      1648      1643
 -1       407    8    0    1
 -2       129       130       285      1249      1649      1650
 -1       408    8    0    1
 -2       129       285       284      1650      1651      1646
 -1       409    8    0    1
 -2       130       131       286      1250      1652      1653
 -1       410    8    0    1
 -2       130       286       285      1653      1654      1649
 -1       411    8    0    1
 -2       131       132       287      1251      1655      1656
 -1       412    8    0    1
 -2       131       287       286      1656      1657      1652
 -1       413    8    0    1
 -2       132       133       288      1252      1658      1659
 -1       414    8    0    1
 -2       132       288       287      1659      1660      1655
 -1       415    8    0    1
 -2       133       134       289      1253      1661      1662
 -1       416    8    0    1
 -2       133       289       288      1662      1663      1658
 -1       417    8    0    1
 -2       134       135       290      1254      1664      1665
 -1       418    8    0    1
 -2       134       290       289      1665      1666      1661
 -1       419    8    0    1
 -2       135       136       291      1255      1667      1668
 -1       420    8    0    1
 -2       290       135       291      1664      1668      1669
 -1       421    8    0    1
 -2       136       228       291      1480      1670      1667
 -1       422    8    0    1
 -2         2       137       292      1257      1671      1672
 -1       423    8    0    1
 -2       137       138       293      1258      1673      1674
 -1       424    8    0    1
 -2       138       139       294      1259      1675      1676
 -1       425    8    0    1
 -2       139       140       295      1260      1677      1678
 -1       426    8    0    1
 -2       140       141       296      1261      1679      1680
 -1       427    8    0    1
 -2       141       142       297      1262      1681      1682
 -1       428    8    0    1
 -2       142       143       298      1263      1683      1684
 -1       429    8    0    1
 -2       143       144       299      1264      1685      1686
 -1       430    8    0    1
 -2       144       145       300      1265      1687      1688
 -1       431    8    0    1
 -2       145       146       301      1266      1689      1690
 -1       432    8    0    1
 -2       146       147       302      1267      1691      1692
 -1       433    8    0    1
 -2       147       148       303      1268      1693      1694
 -1       434    8    0    1
 -2       148       149       304      1269      1695      1696
 -1       435    8    0    1
 -2       149       150       305      1270      1697      1698
 -1       436    8    0    1
 -2       150       151       306      1271      1699      1700
 -1       437    8    0    1
 -2       151       152       307      1272      1701      1702
 -1       438    8    0    1
 -2       152         1       308      1273      1703      1704
 -1       439    8    0    1
 -2         1       153       309      1274      1705      1706
 -1       440    8    0    1
 -2       153       154       310      1275      1707      1708
 -1       441    8    0    1
 -2       154       155       311      1276      1709      1710
 -1       442    8    0    1
 -2       155       156       312      1277      1711      1712
 -1       443    8    0    1
 -2       156       157       313      1278      1713      1714
 -1       444    8    0    1
 -2       157       158       314      1279      1715      1716
 -1       445    8    0    1
 -2       158       159       315      1280      1717      1718
 -1       446    8    0    1
 -2       159       160       316      1281      1719      1720
 -1       447    8    0    1
 -2       160       161       317      1282      1721      1722
 -1       448    8    0    1
 -2       161       162       318      1283      1723      1724
 -1       449    8    0    1
 -2       162       163       319      1284      1725      1726
 -1       450    8    0    1
 -2       163       164       320      1285      1727      1728
 -1       451    8    0    1
 -2       164         2       321      1286      1729      1730
 -1       452    8    0    1
 -2       295       140       296      1677      1680      1731
 -1       453    8    0    1
 -2       294       139       295      1675      1678      1732
 -1       454    8    0    1
 -2       120       121       276      1625      1733      1622
 -1       455    8    0    1
 -2       121       277       276      1627      1734      1733
 -1       456    8    0    1
 -2       292       137       293      1671      1674      1735
 -1       457    8    0    1
 -2       293       138       294      1673      1676      1736
 -1       458    8    0    1
 -2         2       292       321      1672      1737      1729
 -1       459    8    0    1
 -2       141       297       296      1682      1738      1679
 -1       460    8    0    1
 -2       142       298       297      1684      1739      1681
 -1       461    8    0    1
 -2       143       299       298      1686      1740      1683
 -1       462    8    0    1
 -2       144       300       299      1688      1741      1685
 -1       463    8    0    1
 -2       145       301       300      1690      1742      1687
 -1       464    8    0    1
 -2       146       302       301      1692      1743      1689
 -1       465    8    0    1
 -2       147       303       302      1694      1744      1691
 -1       466    8    0    1
 -2       148       304       303      1696      1745      1693
 -1       467    8    0    1
 -2       149       305       304      1698      1746      1695
 -1       468    8    0    1
 -2       150       306       305      1700      1747      1697
 -1       469    8    0    1
 -2       151       307       306      1702      1748      1699
 -1       470    8    0    1
 -2       152       308       307      1704      1749      1701
 -1       471    8    0    1
 -2         1       309       308      1706      1750      1703
 -1       472    8    0    1
 -2       153       310       309      1708      1751      1705
 -1       473    8    0    1
 -2       154       311       310      1710      1752      1707
 -1       474    8    0    1
 -2       155       312       311      1712      1753      1709
 -1       475    8    0    1
 -2       156       313       312      1714      1754      1711
 -1       476    8    0    1
 -2       157       314       313      1716      1755      1713
 -1       477    8    0    1
 -2       158       315       314      1718      1756      1715
 -1       478    8    0    1
 -2       159       316       315      1720      1757      1717
 -1       479    8    0    1
 -2       160       317       316      1722      1758      1719
 -1       480    8    0    1
 -2       161       318       317      1724      1759      1721
 -1       481    8    0    1
 -2       162       319       318      1726      1760      1723
 -1       482    8    0    1
 -2       163       320       319      1728      1761      1725
 -1       483    8    0    1
 -2       164       321       320      1730      1762      1727
 -1       484    8    0    1
 -2        23         7       165      1287      1289      1763
 -1       485    8    0    1
 -2       166       167       322      1295      1764      1765
 -1       486    8    0    1
 -2       165       166       323      1292      1766      1767
 -1       487    8    0    1
 -2       166       322       323      1765      1768      1766
 -1       488    8    0    1
 -2       168       169       324      1301      1769      1770
 -1       489    8    0    1
 -2       169       170       325      1304      1771      1772
 -1       490    8    0    1
 -2       169       325       324      1772      1773      1769
 -1       491    8    0    1
 -2       170       171       326      1307      1774      1775
 -1       492    8    0    1
 -2       170       326       325      1775      1776      1771
 -1       493    8    0    1
 -2       171       172       327      1310      1777      1778
 -1       494    8    0    1
 -2       171       327       326      1778      1779      1774
 -1       495    8    0    1
 -2       172       173       328      1313      1780      1781
 -1       496    8    0    1
 -2       172       328       327      1781      1782      1777
 -1       497    8    0    1
 -2       173       174       329      1316      1783      1784
 -1       498    8    0    1
 -2       173       329       328      1784      1785      1780
 -1       499    8    0    1
 -2       174       175       330      1319      1786      1787
 -1       500    8    0    1
 -2       174       330       329      1787      1788      1783
 -1       501    8    0    1
 -2       175       176       331      1322      1789      1790
 -1       502    8    0    1
 -2       175       331       330      1790      1791      1786
 -1       503    8    0    1
 -2       176       177       332      1325      1792      1793
 -1       504    8    0    1
 -2       176       332       331      1793      1794      1789
 -1       505    8    0    1
 -2       177       178       333      1328      1795      1796
 -1       506    8    0    1
 -2       177       333       332      1796      1797      1792
 -1       507    8    0    1
 -2       178       179       334      1331      1798      1799
 -1       508    8    0    1
 -2       178       334       333      1799      1800      1795
 -1       509    8    0    1
 -2       179       180       335      1334      1801      1802
 -1       510    8    0    1
 -2       334       179       335      1798      1802      1803
 -1       511    8    0    1
 -2       180       229       335      1483      1804      1801
 -1       512    8    0    1
 -2       181        23       165      1336      1763      1805
 -1       513    8    0    1
 -2       229       230       336      1486      1806      1807
 -1       514    8    0    1
 -2       229       336       335      1807      1808      1804
 -1       515    8    0    1
 -2       181       165       323      1805      1767      1809
 -1       516    8    0    1
 -2       183       182       337      1343      1810      1811
 -1       517    8    0    1
 -2       184       183       338      1346      1812      1813
 -1       518    8    0    1
 -2       183       337       338      1811      1814      1812
 -1       519    8    0    1
 -2       185       184       339      1349      1815      1816
 -1       520    8    0    1
 -2       184       338       339      1813      1817      1815
 -1       521    8    0    1
 -2       186       185       340      1352      1818      1819
 -1       522    8    0    1
 -2       185       339       340      1816      1820      1818
 -1       523    8    0    1
 -2       187       186       341      1355      1821      1822
 -1       524    8    0    1
 -2       186       340       341      1819      1823      1821
 -1       525    8    0    1
 -2       188       187       342      1358      1824      1825
 -1       526    8    0    1
 -2       187       341       342      1822      1826      1824
 -1       527    8    0    1
 -2       189       188       343      1361      1827      1828
 -1       528    8    0    1
 -2       188       342       343      1825      1829      1827
 -1       529    8    0    1
 -2       190       189       344      1364      1830      1831
 -1       530    8    0    1
 -2       189       343       344      1828      1832      1830
 -1       531    8    0    1
 -2       191       190       345      1367      1833      1834
 -1       532    8    0    1
 -2       190       344       345      1831      1835      1833
 -1       533    8    0    1
 -2       192       191       346      1370      1836      1837
 -1       534    8    0    1
 -2       191       345       346      1834      1838      1836
 -1       535    8    0    1
 -2       193       192       347      1373      1839      1840
 -1       536    8    0    1
 -2       192       346       347      1837      1841      1839
 -1       537    8    0    1
 -2       194       193       348      1376      1842      1843
 -1       538    8    0    1
 -2       193       347       348      1840      1844      1842
 -1       539    8    0    1
 -2       195       194       349      1379      1845      1846
 -1       540    8    0    1
 -2       194       348       349      1843      1847      1845
 -1       541    8    0    1
 -2       196       195       350      1382      1848      1849
 -1       542    8    0    1
 -2       195       349       350      1846      1850      1848
 -1       543    8    0    1
 -2       197       196       351      1385      1851      1852
 -1       544    8    0    1
 -2       196       350       351      1849      1853      1851
 -1       545    8    0    1
 -2       198       197       352      1388      1854      1855
 -1       546    8    0    1
 -2       197       351       352      1852      1856      1854
 -1       547    8    0    1
 -2       199       198       353      1391      1857      1858
 -1       548    8    0    1
 -2       198       352       353      1855      1859      1857
 -1       549    8    0    1
 -2       200       199       354      1394      1860      1861
 -1       550    8    0    1
 -2       199       353       354      1858      1862      1860
 -1       551    8    0    1
 -2       201       200       355      1397      1863      1864
 -1       552    8    0    1
 -2       200       354       355      1861      1865      1863
 -1       553    8    0    1
 -2       202       201       356      1400      1866      1867
 -1       554    8    0    1
 -2       201       355       356      1864      1868      1866
 -1       555    8    0    1
 -2       203       202       357      1403      1869      1870
 -1       556    8    0    1
 -2       202       356       357      1867      1871      1869
 -1       557    8    0    1
 -2       204       203       358      1406      1872      1873
 -1       558    8    0    1
 -2       203       357       358      1870      1874      1872
 -1       559    8    0    1
 -2       205       204       359      1409      1875      1876
 -1       560    8    0    1
 -2       204       358       359      1873      1877      1875
 -1       561    8    0    1
 -2       206       205       360      1412      1878      1879
 -1       562    8    0    1
 -2       205       359       360      1876      1880      1878
 -1       563    8    0    1
 -2       207       206       361      1415      1881      1882
 -1       564    8    0    1
 -2       206       360       361      1879      1883      1881
 -1       565    8    0    1
 -2       208       207       362      1418      1884      1885
 -1       566    8    0    1
 -2       207       361       362      1882      1886      1884
 -1       567    8    0    1
 -2       209       208       363      1421      1887      1888
 -1       568    8    0    1
 -2       208       362       363      1885      1889      1887
 -1       569    8    0    1
 -2       210       209       364      1424      1890      1891
 -1       570    8    0    1
 -2       209       363       364      1888      1892      1890
 -1       571    8    0    1
 -2       211       210       365      1427      1893      1894
 -1       572    8    0    1
 -2       210       364       365      1891      1895      1893
 -1       573    8    0    1
 -2       212       211       366      1430      1896      1897
 -1       574    8    0    1
 -2       211       365       366      1894      1898      1896
 -1       575    8    0    1
 -2       213       212       367      1433      1899      1900
 -1       576    8    0    1
 -2       212       366       367      1897      1901      1899
 -1       577    8    0    1
 -2       214       213       368      1436      1902      1903
 -1       578    8    0    1
 -2       213       367       368      1900      1904      1902
 -1       579    8    0    1
 -2       215       214       369      1439      1905      1906
 -1       580    8    0    1
 -2       214       368       369      1903      1907      1905
 -1       581    8    0    1
 -2       216       215       370      1442      1908      1909
 -1       582    8    0    1
 -2       215       369       370      1906      1910      1908
 -1       583    8    0    1
 -2       217       216       371      1445      1911      1912
 -1       584    8    0    1
 -2       216       370       371      1909      1913      1911
 -1       585    8    0    1
 -2       218       217       372      1448      1914      1915
 -1       586    8    0    1
 -2       217       371       372      1912      1916      1914
 -1       587    8    0    1
 -2       219       218       373      1451      1917      1918
 -1       588    8    0    1
 -2       218       372       373      1915      1919      1917
 -1       589    8    0    1
 -2       220       219       374      1454      1920      1921
 -1       590    8    0    1
 -2       219       373       374      1918      1922      1920
 -1       591    8    0    1
 -2       221       220       375      1457      1923      1924
 -1       592    8    0    1
 -2       220       374       375      1921      1925      1923
 -1       593    8    0    1
 -2       222       221       376      1460      1926      1927
 -1       594    8    0    1
 -2       221       375       376      1924      1928      1926
 -1       595    8    0    1
 -2       223       222       377      1463      1929      1930
 -1       596    8    0    1
 -2       222       376       377      1927      1931      1929
 -1       597    8    0    1
 -2       224       223       378      1466      1932      1933
 -1       598    8    0    1
 -2       223       377       378      1930      1934      1932
 -1       599    8    0    1
 -2       225       224       379      1469      1935      1936
 -1       600    8    0    1
 -2       224       378       379      1933      1937      1935
 -1       601    8    0    1
 -2       226       225       380      1472      1938      1939
 -1       602    8    0    1
 -2       225       379       380      1936      1940      1938
 -1       603    8    0    1
 -2       227       226       381      1475      1941      1942
 -1       604    8    0    1
 -2       226       380       381      1939      1943      1941
 -1       605    8    0    1
 -2       228       227       382      1478      1944      1945
 -1       606    8    0    1
 -2       291       228       382      1670      1945      1946
 -1       607    8    0    1
 -2       227       381       382      1942      1947      1944
 -1       608    8    0    1
 -2       230       231       383      1489      1948      1949
 -1       609    8    0    1
 -2       230       383       336      1949      1950      1806
 -1       610    8    0    1
 -2       231       232       384      1492      1951      1952
 -1       611    8    0    1
 -2       231       384       383      1952      1953      1948
 -1       612    8    0    1
 -2       232       233       385      1495      1954      1955
 -1       613    8    0    1
 -2       232       385       384      1955      1956      1951
 -1       614    8    0    1
 -2       233       234       386      1498      1957      1958
 -1       615    8    0    1
 -2       233       386       385      1958      1959      1954
 -1       616    8    0    1
 -2       234       235       387      1501      1960      1961
 -1       617    8    0    1
 -2       234       387       386      1961      1962      1957
 -1       618    8    0    1
 -2       235       236       388      1504      1963      1964
 -1       619    8    0    1
 -2       235       388       387      1964      1965      1960
 -1       620    8    0    1
 -2       236       237       389      1507      1966      1967
 -1       621    8    0    1
 -2       236       389       388      1967      1968      1963
 -1       622    8    0    1
 -2       237       238       390      1510      1969      1970
 -1       623    8    0    1
 -2       237       390       389      1970      1971      1966
 -1       624    8    0    1
 -2       238       239       391      1513      1972      1973
 -1       625    8    0    1
 -2       238       391       390      1973      1974      1969
 -1       626    8    0    1
 -2       239       240       392      1516      1975      1976
 -1       627    8    0    1
 -2       239       392       391      1976      1977      1972
 -1       628    8    0    1
 -2       240       241       393      1519      1978      1979
 -1       629    8    0    1
 -2       240       393       392      1979      1980      1975
 -1       630    8    0    1
 -2       241       242       394      1522      1981      1982
 -1       631    8    0    1
 -2       241       394       393      1982      1983      1978
 -1       632    8    0    1
 -2       242       243       395      1525      1984      1985
 -1       633    8    0    1
 -2       242       395       394      1985      1986      1981
 -1       634    8    0    1
 -2       243       244       396      1528      1987      1988
 -1       635    8    0    1
 -2       243       396       395      1988      1989      1984
 -1       636    8    0    1
 -2       244       245       397      1531      1990      1991
 -1       637    8    0    1
 -2       244       397       396      1991      1992      1987
 -1       638    8    0    1
 -2       245       246       398      1534      1993      1994
 -1       639    8    0    1
 -2       245       398       397      1994      1995      1990
 -1       640    8    0    1
 -2       246       247       399      1537      1996      1997
 -1       641    8    0    1
 -2       246       399       398      1997      1998      1993
 -1       642    8    0    1
 -2       247       248       400      1540      1999      2000
 -1       643    8    0    1
 -2       247       400       399      2000      2001      1996
 -1       644    8    0    1
 -2       248       249       401      1543      2002      2003
 -1       645    8    0    1
 -2       248       401       400      2003      2004      1999
 -1       646    8    0    1
 -2       249       250       402      1546      2005      2006
 -1       647    8    0    1
 -2       249       402       401      2006      2007      2002
 -1       648    8    0    1
 -2       250       251       403      1549      2008      2009
 -1       649    8    0    1
 -2       250       403       402      2009      2010      2005
 -1       650    8    0    1
 -2       251       252       404      1552      2011      2012
 -1       651    8    0    1
 -2       251       404       403      2012      2013      2008
 -1       652    8    0    1
 -2       252       253       405      1555      2014      2015
 -1       653    8    0    1
 -2       252       405       404      2015      2016      2011
 -1       654    8    0    1
 -2       253       254       406      1558      2017      2018
 -1       655    8    0    1
 -2       253       406       405      2018      2019      2014
 -1       656    8    0    1
 -2       254       255       407      1561      2020      2021
 -1       657    8    0    1
 -2       254       407       406      2021      2022      2017
 -1       658    8    0    1
 -2       255       256       408      1564      2023      2024
 -1       659    8    0    1
 -2       255       408       407      2024      2025      2020
 -1       660    8    0    1
 -2       256       257       409      1567      2026      2027
 -1       661    8    0    1
 -2       256       409       408      2027      2028      2023
 -1       662    8    0    1
 -2       257       258       410      1570      2029      2030
 -1       663    8    0    1
 -2       257       410       409      2030      2031      2026
 -1       664    8    0    1
 -2       258       259       411      1573      2032      2033
 -1       665    8    0    1
 -2       258       411       410      2033      2034      2029
 -1       666    8    0    1
 -2       259       260       412      1576      2035      2036
 -1       667    8    0    1
 -2       259       412       411      2036      2037      2032
 -1       668    8    0    1
 -2       260       261       413      1579      2038      2039
 -1       669    8    0    1
 -2       260       413       412      2039      2040      2035
 -1       670    8    0    1
 -2       261       262       414      1582      2041      2042
 -1       671    8    0    1
 -2       261       414       413      2042      2043      2038
 -1       672    8    0    1
 -2       262       263       415      1585      2044      2045
 -1       673    8    0    1
 -2       262       415       414      2045      2046      2041
 -1       674    8    0    1
 -2       263       264       416      1588      2047      2048
 -1       675    8    0    1
 -2       263       416       415      2048      2049      2044
 -1       676    8    0    1
 -2       264       265       417      1591      2050      2051
 -1       677    8    0    1
 -2       264       417       416      2051      2052      2047
 -1       678    8    0    1
 -2       265       266       418      1594      2053      2054
 -1       679    8    0    1
 -2       265       418       417      2054      2055      2050
 -1       680    8    0    1
 -2       266       267       419      1597      2056      2057
 -1       681    8    0    1
 -2       266       419       418      2057      2058      2053
 -1       682    8    0    1
 -2       267       268       420      1600      2059      2060
 -1       683    8    0    1
 -2       267       420       419      2060      2061      2056
 -1       684    8    0    1
 -2       268       269       421      1603      2062      2063
 -1       685    8    0    1
 -2       268       421       420      2063      2064      2059
 -1       686    8    0    1
 -2       269       270       422      1606      2065      2066
 -1       687    8    0    1
 -2       269       422       421      2066      2067      2062
 -1       688    8    0    1
 -2       270       271       423      1609      2068      2069
 -1       689    8    0    1
 -2       270       423       422      2069      2070      2065
 -1       690    8    0    1
 -2       271       272       424      1612      2071      2072
 -1       691    8    0    1
 -2       271       424       423      2072      2073      2068
 -1       692    8    0    1
 -2       272       273       425      1615      2074      2075
 -1       693    8    0    1
 -2       272       425       424      2075      2076      2071
 -1       694    8    0    1
 -2       273       274       426      1618      2077      2078
 -1       695    8    0    1
 -2       273       426       425      2078      2079      2074
 -1       696    8    0    1
 -2       274       275       427      1621      2080      2081
 -1       697    8    0    1
 -2       274       427       426      2081      2082      2077
 -1       698    8    0    1
 -2       275       276       428      1624      2083      2084
 -1       699    8    0    1
 -2       427       275       428      2080      2084      2085
 -1       700    8    0    1
 -2       276       277       428      1734      2086      2083
 -1       701    8    0    1
 -2       279       280       429      1636      2087      2088
 -1       702    8    0    1
 -2       278       279       430      1633      2089      2090
 -1       703    8    0    1
 -2       279       429       430      2088      2091      2089
 -1       704    8    0    1
 -2       277       278       431      1630      2092      2093
 -1       705    8    0    1
 -2       428       277       431      2086      2093      2094
 -1       706    8    0    1
 -2       278       430       431      2090      2095      2092
 -1       707    8    0    1
 -2       280       281       432      1639      2096      2097
 -1       708    8    0    1
 -2       280       432       429      2097      2098      2087
 -1       709    8    0    1
 -2       281       282       433      1642      2099      2100
 -1       710    8    0    1
 -2       281       433       432      2100      2101      2096
 -1       711    8    0    1
 -2       282       283       434      1645      2102      2103
 -1       712    8    0    1
 -2       282       434       433      2103      2104      2099
 -1       713    8    0    1
 -2       283       284       435      1648      2105      2106
 -1       714    8    0    1
 -2       283       435       434      2106      2107      2102
 -1       715    8    0    1
 -2       284       285       436      1651      2108      2109
 -1       716    8    0    1
 -2       284       436       435      2109      2110      2105
 -1       717    8    0    1
 -2       285       286       437      1654      2111      2112
 -1       718    8    0    1
 -2       285       437       436      2112      2113      2108
 -1       719    8    0    1
 -2       286       287       438      1657      2114      2115
 -1       720    8    0    1
 -2       286       438       437      2115      2116      2111
 -1       721    8    0    1
 -2       287       288       439      1660      2117      2118
 -1       722    8    0    1
 -2       287       439       438      2118      2119      2114
 -1       723    8    0    1
 -2       288       289       440      1663      2120      2121
 -1       724    8    0    1
 -2       288       440       439      2121      2122      2117
 -1       725    8    0    1
 -2       289       290       441      1666      2123      2124
 -1       726    8    0    1
 -2       289       441       440      2124      2125      2120
 -1       727    8    0    1
 -2       293       294       442      1736      2126      2127
 -1       728    8    0    1
 -2       321       292       443      1737      2128      2129
 -1       729    8    0    1
 -2       292       293       444      1735      2130      2131
 -1       730    8    0    1
 -2       293       442       444      2127      2132      2130
 -1       731    8    0    1
 -2       294       295       445      1732      2133      2134
 -1       732    8    0    1
 -2       295       296       446      1731      2135      2136
 -1       733    8    0    1
 -2       295       446       445      2136      2137      2133
 -1       734    8    0    1
 -2       167       168       447      1298      2138      2139
 -1       735    8    0    1
 -2       322       167       447      1764      2139      2140
 -1       736    8    0    1
 -2       168       324       447      1770      2141      2138
 -1       737    8    0    1
 -2       297       298       448      1739      2142      2143
 -1       738    8    0    1
 -2       298       299       449      1740      2144      2145
 -1       739    8    0    1
 -2       299       300       450      1741      2146      2147
 -1       740    8    0    1
 -2       299       450       449      2147      2148      2144
 -1       741    8    0    1
 -2       300       301       451      1742      2149      2150
 -1       742    8    0    1
 -2       301       302       452      1743      2151      2152
 -1       743    8    0    1
 -2       301       452       451      2152      2153      2149
 -1       744    8    0    1
 -2       302       303       453      1744      2154      2155
 -1       745    8    0    1
 -2       303       304       454      1745      2156      2157
 -1       746    8    0    1
 -2       303       454       453      2157      2158      2154
 -1       747    8    0    1
 -2       304       305       455      1746      2159      2160
 -1       748    8    0    1
 -2       304       455       454      2160      2161      2156
 -1       749    8    0    1
 -2       305       306       456      1747      2162      2163
 -1       750    8    0    1
 -2       306       307       457      1748      2164      2165
 -1       751    8    0    1
 -2       306       457       456      2165      2166      2162
 -1       752    8    0    1
 -2       307       308       458      1749      2167      2168
 -1       753    8    0    1
 -2       308       309       459      1750      2169      2170
 -1       754    8    0    1
 -2       309       310       460      1751      2171      2172
 -1       755    8    0    1
 -2       310       311       461      1752      2173      2174
 -1       756    8    0    1
 -2       311       312       462      1753      2175      2176
 -1       757    8    0    1
 -2       312       313       463      1754      2177      2178
 -1       758    8    0    1
 -2       313       314       464      1755      2179      2180
 -1       759    8    0    1
 -2       314       315       465      1756      2181      2182
 -1       760    8    0    1
 -2       315       316       466      1757      2183      2184
 -1       761    8    0    1
 -2       315       466       465      2184      2185      2181
 -1       762    8    0    1
 -2       316       317       467      1758      2186      2187
 -1       763    8    0    1
 -2       317       318       468      1759      2188      2189
 -1       764    8    0    1
 -2       318       319       469      1760      2190      2191
 -1       765    8    0    1
 -2       319       320       470      1761      2192      2193
 -1       766    8    0    1
 -2       320       321       471      1762      2194      2195
 -1       767    8    0    1
 -2       296       297       472      1738      2196      2197
 -1       768    8    0    1
 -2       446       296       472      2135      2197      2198
 -1       769    8    0    1
 -2       181       323       182      1809      2199      1340
 -1       770    8    0    1
 -2       450       300       473      2146      2200      2201
 -1       771    8    0    1
 -2       300       451       473      2150      2202      2200
 -1       772    8    0    1
 -2       297       448       472      2143      2203      2196
 -1       773    8    0    1
 -2       337       182       323      1810      2199      2204
 -1       774    8    0    1
 -2       443       292       444      2128      2131      2205
 -1       775    8    0    1
 -2       294       445       442      2134      2206      2126
 -1       776    8    0    1
 -2       441       290       291      2123      1669      2207
 -1       777    8    0    1
 -2       321       443       471      2129      2208      2194
 -1       778    8    0    1
 -2       470       320       471      2192      2195      2209
 -1       779    8    0    1
 -2       469       319       470      2190      2193      2210
 -1       780    8    0    1
 -2       468       318       469      2188      2191      2211
 -1       781    8    0    1
 -2       466       316       467      2183      2187      2212
 -1       782    8    0    1
 -2       464       314       465      2179      2182      2213
 -1       783    8    0    1
 -2       463       313       464      2177      2180      2214
 -1       784    8    0    1
 -2       462       312       463      2175      2178      2215
 -1       785    8    0    1
 -2       461       311       462      2173      2176      2216
 -1       786    8    0    1
 -2       460       310       461      2171      2174      2217
 -1       787    8    0    1
 -2       459       309       460      2169      2172      2218
 -1       788    8    0    1
 -2       457       307       458      2164      2168      2219
 -1       789    8    0    1
 -2       305       456       474      2163      2220      2221
 -1       790    8    0    1
 -2       305       474       455      2221      2222      2159
 -1       791    8    0    1
 -2       452       302       453      2151      2155      2223
 -1       792    8    0    1
 -2       448       298       449      2142      2145      2224
 -1       793    8    0    1
 -2       458       308       459      2167      2170      2225
 -1       794    8    0    1
 -2       467       317       468      2186      2189      2226
 -1       795    8    0    1
 -2       336       383       475      1950      2227      2228
 -1       796    8    0    1
 -2       325       326       476      1776      2229      2230
 -1       797    8    0    1
 -2       324       325       477      1773      2231      2232
 -1       798    8    0    1
 -2       325       476       477      2230      2233      2231
 -1       799    8    0    1
 -2       327       328       478      1782      2234      2235
 -1       800    8    0    1
 -2       328       329       479      1785      2236      2237
 -1       801    8    0    1
 -2       328       479       478      2237      2238      2234
 -1       802    8    0    1
 -2       329       330       480      1788      2239      2240
 -1       803    8    0    1
 -2       329       480       479      2240      2241      2236
 -1       804    8    0    1
 -2       330       331       481      1791      2242      2243
 -1       805    8    0    1
 -2       330       481       480      2243      2244      2239
 -1       806    8    0    1
 -2       331       332       482      1794      2245      2246
 -1       807    8    0    1
 -2       331       482       481      2246      2247      2242
 -1       808    8    0    1
 -2       332       333       483      1797      2248      2249
 -1       809    8    0    1
 -2       332       483       482      2249      2250      2245
 -1       810    8    0    1
 -2       383       384       484      1953      2251      2252
 -1       811    8    0    1
 -2       383       484       475      2252      2253      2227
 -1       812    8    0    1
 -2       338       337       485      1814      2254      2255
 -1       813    8    0    1
 -2       339       338       486      1817      2256      2257
 -1       814    8    0    1
 -2       338       485       486      2255      2258      2256
 -1       815    8    0    1
 -2       340       339       487      1820      2259      2260
 -1       816    8    0    1
 -2       339       486       487      2257      2261      2259
 -1       817    8    0    1
 -2       341       340       488      1823      2262      2263
 -1       818    8    0    1
 -2       340       487       488      2260      2264      2262
 -1       819    8    0    1
 -2       342       341       489      1826      2265      2266
 -1       820    8    0    1
 -2       341       488       489      2263      2267      2265
 -1       821    8    0    1
 -2       343       342       490      1829      2268      2269
 -1       822    8    0    1
 -2       342       489       490      2266      2270      2268
 -1       823    8    0    1
 -2       344       343       491      1832      2271      2272
 -1       824    8    0    1
 -2       343       490       491      2269      2273      2271
 -1       825    8    0    1
 -2       345       344       492      1835      2274      2275
 -1       826    8    0    1
 -2       344       491       492      2272      2276      2274
 -1       827    8    0    1
 -2       346       345       493      1838      2277      2278
 -1       828    8    0    1
 -2       345       492       493      2275      2279      2277
 -1       829    8    0    1
 -2       347       346       494      1841      2280      2281
 -1       830    8    0    1
 -2       346       493       494      2278      2282      2280
 -1       831    8    0    1
 -2       348       347       495      1844      2283      2284
 -1       832    8    0    1
 -2       347       494       495      2281      2285      2283
 -1       833    8    0    1
 -2       349       348       496      1847      2286      2287
 -1       834    8    0    1
 -2       348       495       496      2284      2288      2286
 -1       835    8    0    1
 -2       350       349       497      1850      2289      2290
 -1       836    8    0    1
 -2       349       496       497      2287      2291      2289
 -1       837    8    0    1
 -2       351       350       498      1853      2292      2293
 -1       838    8    0    1
 -2       350       497       498      2290      2294      2292
 -1       839    8    0    1
 -2       352       351       499      1856      2295      2296
 -1       840    8    0    1
 -2       351       498       499      2293      2297      2295
 -1       841    8    0    1
 -2       353       352       500      1859      2298      2299
 -1       842    8    0    1
 -2       352       499       500      2296      2300      2298
 -1       843    8    0    1
 -2       354       353       501      1862      2301      2302
 -1       844    8    0    1
 -2       353       500       501      2299      2303      2301
 -1       845    8    0    1
 -2       355       354       502      1865      2304      2305
 -1       846    8    0    1
 -2       354       501       502      2302      2306      2304
 -1       847    8    0    1
 -2       356       355       503      1868      2307      2308
 -1       848    8    0    1
 -2       355       502       503      2305      2309      2307
 -1       849    8    0    1
 -2       357       356       504      1871      2310      2311
 -1       850    8    0    1
 -2       356       503       504      2308      2312      2310
 -1       851    8    0    1
 -2       358       357       505      1874      2313      2314
 -1       852    8    0    1
 -2       357       504       505      2311      2315      2313
 -1       853    8    0    1
 -2       359       358       506      1877      2316      2317
 -1       854    8    0    1
 -2       358       505       506      2314      2318      2316
 -1       855    8    0    1
 -2       360       359       507      1880      2319      2320
 -1       856    8    0    1
 -2       359       506       507      2317      2321      2319
 -1       857    8    0    1
 -2       361       360       508      1883      2322      2323
 -1       858    8    0    1
 -2       360       507       508      2320      2324      2322
 -1       859    8    0    1
 -2       362       361       509      1886      2325      2326
 -1       860    8    0    1
 -2       361       508       509      2323      2327      2325
 -1       861    8    0    1
 -2       363       362       510      1889      2328      2329
 -1       862    8    0    1
 -2       362       509       510      2326      2330      2328
 -1       863    8    0    1
 -2       364       363       511      1892      2331      2332
 -1       864    8    0    1
 -2       363       510       511      2329      2333      2331
 -1       865    8    0    1
 -2       365       364       512      1895      2334      2335
 -1       866    8    0    1
 -2       364       511       512      2332      2336      2334
 -1       867    8    0    1
 -2       366       365       513      1898      2337      2338
 -1       868    8    0    1
 -2       365       512       513      2335      2339      2337
 -1       869    8    0    1
 -2       367       366       514      1901      2340      2341
 -1       870    8    0    1
 -2       366       513       514      2338      2342      2340
 -1       871    8    0    1
 -2       368       367       515      1904      2343      2344
 -1       872    8    0    1
 -2       367       514       515      2341      2345      2343
 -1       873    8    0    1
 -2       369       368       516      1907      2346      2347
 -1       874    8    0    1
 -2       368       515       516      2344      2348      2346
 -1       875    8    0    1
 -2       370       369       517      1910      2349      2350
 -1       876    8    0    1
 -2       369       516       517      2347      2351      2349
 -1       877    8    0    1
 -2       371       370       518      1913      2352      2353
 -1       878    8    0    1
 -2       370       517       518      2350      2354      2352
 -1       879    8    0    1
 -2       372       371       519      1916      2355      2356
 -1       880    8    0    1
 -2       371       518       519      2353      2357      2355
 -1       881    8    0    1
 -2       373       372       520      1919      2358      2359
 -1       882    8    0    1
 -2       372       519       520      2356      2360      2358
 -1       883    8    0    1
 -2       374       373       521      1922      2361      2362
 -1       884    8    0    1
 -2       373       520       521      2359      2363      2361
 -1       885    8    0    1
 -2       375       374       522      1925      2364      2365
 -1       886    8    0    1
 -2       374       521       522      2362      2366      2364
 -1       887    8    0    1
 -2       376       375       523      1928      2367      2368
 -1       888    8    0    1
 -2       375       522       523      2365      2369      2367
 -1       889    8    0    1
 -2       377       376       524      1931      2370      2371
 -1       890    8    0    1
 -2       376       523       524      2368      2372      2370
 -1       891    8    0    1
 -2       378       377       525      1934      2373      2374
 -1       892    8    0    1
 -2       377       524       525      2371      2375      2373
 -1       893    8    0    1
 -2       379       378       526      1937      2376      2377
 -1       894    8    0    1
 -2       378       525       526      2374      2378      2376
 -1       895    8    0    1
 -2       380       379       527      1940      2379      2380
 -1       896    8    0    1
 -2       379       526       527      2377      2381      2379
 -1       897    8    0    1
 -2       381       380       528      1943      2382      2383
 -1       898    8    0    1
 -2       380       527       528      2380      2384      2382
 -1       899    8    0    1
 -2       444       442       529      2132      2385      2386
 -1       900    8    0    1
 -2       385       386       530      1959      2387      2388
 -1       901    8    0    1
 -2       386       387       531      1962      2389      2390
 -1       902    8    0    1
 -2       386       531       530      2390      2391      2387
 -1       903    8    0    1
 -2       387       388       532      1965      2392      2393
 -1       904    8    0    1
 -2       387       532       531      2393      2394      2389
 -1       905    8    0    1
 -2       388       389       533      1968      2395      2396
 -1       906    8    0    1
 -2       388       533       532      2396      2397      2392
 -1       907    8    0    1
 -2       389       390       534      1971      2398      2399
 -1       908    8    0    1
 -2       389       534       533      2399      2400      2395
 -1       909    8    0    1
 -2       390       391       535      1974      2401      2402
 -1       910    8    0    1
 -2       390       535       534      2402      2403      2398
 -1       911    8    0    1
 -2       391       392       536      1977      2404      2405
 -1       912    8    0    1
 -2       391       536       535      2405      2406      2401
 -1       913    8    0    1
 -2       392       393       537      1980      2407      2408
 -1       914    8    0    1
 -2       392       537       536      2408      2409      2404
 -1       915    8    0    1
 -2       393       394       538      1983      2410      2411
 -1       916    8    0    1
 -2       393       538       537      2411      2412      2407
 -1       917    8    0    1
 -2       394       395       539      1986      2413      2414
 -1       918    8    0    1
 -2       394       539       538      2414      2415      2410
 -1       919    8    0    1
 -2       395       396       540      1989      2416      2417
 -1       920    8    0    1
 -2       395       540       539      2417      2418      2413
 -1       921    8    0    1
 -2       396       397       541      1992      2419      2420
 -1       922    8    0    1
 -2       396       541       540      2420      2421      2416
 -1       923    8    0    1
 -2       397       398       542      1995      2422      2423
 -1       924    8    0    1
 -2       397       542       541      2423      2424      2419
 -1       925    8    0    1
 -2       398       399       543      1998      2425      2426
 -1       926    8    0    1
 -2       398       543       542      2426      2427      2422
 -1       927    8    0    1
 -2       399       400       544      2001      2428      2429
 -1       928    8    0    1
 -2       399       544       543      2429      2430      2425
 -1       929    8    0    1
 -2       400       401       545      2004      2431      2432
 -1       930    8    0    1
 -2       400       545       544      2432      2433      2428
 -1       931    8    0    1
 -2       401       402       546      2007      2434      2435
 -1       932    8    0    1
 -2       401       546       545      2435      2436      2431
 -1       933    8    0    1
 -2       402       403       547      2010      2437      2438
 -1       934    8    0    1
 -2       402       547       546      2438      2439      2434
 -1       935    8    0    1
 -2       403       404       548      2013      2440      2441
 -1       936    8    0    1
 -2       403       548       547      2441      2442      2437
 -1       937    8    0    1
 -2       404       405       549      2016      2443      2444
 -1       938    8    0    1
 -2       404       549       548      2444      2445      2440
 -1       939    8    0    1
 -2       405       406       550      2019      2446      2447
 -1       940    8    0    1
 -2       405       550       549      2447      2448      2443
 -1       941    8    0    1
 -2       406       407       551      2022      2449      2450
 -1       942    8    0    1
 -2       406       551       550      2450      2451      2446
 -1       943    8    0    1
 -2       407       408       552      2025      2452      2453
 -1       944    8    0    1
 -2       407       552       551      2453      2454      2449
 -1       945    8    0    1
 -2       408       409       553      2028      2455      2456
 -1       946    8    0    1
 -2       408       553       552      2456      2457      2452
 -1       947    8    0    1
 -2       409       410       554      2031      2458      2459
 -1       948    8    0    1
 -2       409       554       553      2459      2460      2455
 -1       949    8    0    1
 -2       410       411       555      2034      2461      2462
 -1       950    8    0    1
 -2       410       555       554      2462      2463      2458
 -1       951    8    0    1
 -2       411       412       556      2037      2464      2465
 -1       952    8    0    1
 -2       411       556       555      2465      2466      2461
 -1       953    8    0    1
 -2       412       413       557      2040      2467      2468
 -1       954    8    0    1
 -2       412       557       556      2468      2469      2464
 -1       955    8    0    1
 -2       413       414       558      2043      2470      2471
 -1       956    8    0    1
 -2       413       558       557      2471      2472      2467
 -1       957    8    0    1
 -2       414       415       559      2046      2473      2474
 -1       958    8    0    1
 -2       414       559       558      2474      2475      2470
 -1       959    8    0    1
 -2       415       416       560      2049      2476      2477
 -1       960    8    0    1
 -2       415       560       559      2477      2478      2473
 -1       961    8    0    1
 -2       416       417       561      2052      2479      2480
 -1       962    8    0    1
 -2       416       561       560      2480      2481      2476
 -1       963    8    0    1
 -2       417       418       562      2055      2482      2483
 -1       964    8    0    1
 -2       417       562       561      2483      2484      2479
 -1       965    8    0    1
 -2       418       419       563      2058      2485      2486
 -1       966    8    0    1
 -2       418       563       562      2486      2487      2482
 -1       967    8    0    1
 -2       419       420       564      2061      2488      2489
 -1       968    8    0    1
 -2       419       564       563      2489      2490      2485
 -1       969    8    0    1
 -2       420       421       565      2064      2491      2492
 -1       970    8    0    1
 -2       420       565       564      2492      2493      2488
 -1       971    8    0    1
 -2       421       422       566      2067      2494      2495
 -1       972    8    0    1
 -2       421       566       565      2495      2496      2491
 -1       973    8    0    1
 -2       422       423       567      2070      2497      2498
 -1       974    8    0    1
 -2       422       567       566      2498      2499      2494
 -1       975    8    0    1
 -2       423       424       568      2073      2500      2501
 -1       976    8    0    1
 -2       423       568       567      2501      2502      2497
 -1       977    8    0    1
 -2       424       425       569      2076      2503      2504
 -1       978    8    0    1
 -2       424       569       568      2504      2505      2500
 -1       979    8    0    1
 -2       425       426       570      2079      2506      2507
 -1       980    8    0    1
 -2       425       570       569      2507      2508      2503
 -1       981    8    0    1
 -2       426       427       571      2082      2509      2510
 -1       982    8    0    1
 -2       426       571       570      2510      2511      2506
 -1       983    8    0    1
 -2       427       428       431      2085      2094      2512
 -1       984    8    0    1
 -2       432       433       572      2101      2513      2514
 -1       985    8    0    1
 -2       433       434       573      2104      2515      2516
 -1       986    8    0    1
 -2       433       573       572      2516      2517      2513
 -1       987    8    0    1
 -2       430       429       574      2091      2518      2519
 -1       988    8    0    1
 -2       429       432       575      2098      2520      2521
 -1       989    8    0    1
 -2       574       429       575      2518      2521      2522
 -1       990    8    0    1
 -2       432       572       575      2514      2523      2520
 -1       991    8    0    1
 -2       434       435       576      2107      2524      2525
 -1       992    8    0    1
 -2       434       576       573      2525      2526      2515
 -1       993    8    0    1
 -2       435       436       577      2110      2527      2528
 -1       994    8    0    1
 -2       435       577       576      2528      2529      2524
 -1       995    8    0    1
 -2       436       437       578      2113      2530      2531
 -1       996    8    0    1
 -2       436       578       577      2531      2532      2527
 -1       997    8    0    1
 -2       437       438       579      2116      2533      2534
 -1       998    8    0    1
 -2       437       579       578      2534      2535      2530
 -1       999    8    0    1
 -2       438       439       580      2119      2536      2537
 -1      1000    8    0    1
 -2       438       580       579      2537      2538      2533
 -1      1001    8    0    1
 -2       439       440       581      2122      2539      2540
 -1      1002    8    0    1
 -2       439       581       580      2540      2541      2536
 -1      1003    8    0    1
 -2       440       441       582      2125      2542      2543
 -1      1004    8    0    1
 -2       440       582       581      2543      2544      2539
 -1      1005    8    0    1
 -2       441       291       382      2207      1946      2545
 -1      1006    8    0    1
 -2       471       443       583      2208      2546      2547
 -1      1007    8    0    1
 -2       384       385       584      1956      2548      2549
 -1      1008    8    0    1
 -2       385       530       584      2388      2550      2548
 -1      1009    8    0    1
 -2       442       445       585      2206      2551      2552
 -1      1010    8    0    1
 -2       442       585       529      2552      2553      2385
 -1      1011    8    0    1
 -2       445       446       586      2137      2554      2555
 -1      1012    8    0    1
 -2       337       323       587      2204      2556      2557
 -1      1013    8    0    1
 -2       485       337       587      2254      2557      2558
 -1      1014    8    0    1
 -2       323       322       587      1768      2559      2556
 -1      1015    8    0    1
 -2       470       471       588      2209      2560      2561
 -1      1016    8    0    1
 -2       471       583       588      2547      2562      2560
 -1      1017    8    0    1
 -2       464       465       589      2213      2563      2564
 -1      1018    8    0    1
 -2       326       327       590      1779      2565      2566
 -1      1019    8    0    1
 -2       476       326       590      2229      2566      2567
 -1      1020    8    0    1
 -2       327       478       590      2235      2568      2565
 -1      1021    8    0    1
 -2       472       448       591      2203      2569      2570
 -1      1022    8    0    1
 -2       458       459       592      2225      2571      2572
 -1      1023    8    0    1
 -2       449       450       593      2148      2573      2574
 -1      1024    8    0    1
 -2       448       449       594      2224      2575      2576
 -1      1025    8    0    1
 -2       451       452       595      2153      2577      2578
 -1      1026    8    0    1
 -2       454       455       596      2161      2579      2580
 -1      1027    8    0    1
 -2       453       454       597      2158      2581      2582
 -1      1028    8    0    1
 -2       454       596       597      2580      2583      2581
 -1      1029    8    0    1
 -2       452       453       598      2223      2584      2585
 -1      1030    8    0    1
 -2       456       457       599      2166      2586      2587
 -1      1031    8    0    1
 -2       467       468       600      2226      2588      2589
 -1      1032    8    0    1
 -2       457       458       601      2219      2590      2591
 -1      1033    8    0    1
 -2       459       460       602      2218      2592      2593
 -1      1034    8    0    1
 -2       459       602       592      2593      2594      2571
 -1      1035    8    0    1
 -2       460       461       603      2217      2595      2596
 -1      1036    8    0    1
 -2       461       462       604      2216      2597      2598
 -1      1037    8    0    1
 -2       462       463       605      2215      2599      2600
 -1      1038    8    0    1
 -2       463       464       606      2214      2601      2602
 -1      1039    8    0    1
 -2       463       606       605      2602      2603      2599
 -1      1040    8    0    1
 -2       465       466       607      2185      2604      2605
 -1      1041    8    0    1
 -2       466       467       608      2212      2606      2607
 -1      1042    8    0    1
 -2       468       469       609      2211      2608      2609
 -1      1043    8    0    1
 -2       468       609       600      2609      2610      2588
 -1      1044    8    0    1
 -2       469       470       610      2210      2611      2612
 -1      1045    8    0    1
 -2       443       444       611      2205      2613      2614
 -1      1046    8    0    1
 -2       444       529       611      2386      2615      2613
 -1      1047    8    0    1
 -2       335       336       612      1808      2616      2617
 -1      1048    8    0    1
 -2       334       335       612      1803      2617      2618
 -1      1049    8    0    1
 -2       336       475       612      2228      2619      2616
 -1      1050    8    0    1
 -2       446       472       613      2198      2620      2621
 -1      1051    8    0    1
 -2       446       613       586      2621      2622      2554
 -1      1052    8    0    1
 -2       472       591       613      2570      2623      2620
 -1      1053    8    0    1
 -2       324       477       614      2232      2624      2625
 -1      1054    8    0    1
 -2       324       614       447      2625      2626      2141
 -1      1055    8    0    1
 -2       484       384       584      2251      2549      2627
 -1      1056    8    0    1
 -2       333       334       612      1800      2618      2628
 -1      1057    8    0    1
 -2       473       451       595      2202      2578      2629
 -1      1058    8    0    1
 -2       609       469       610      2608      2612      2630
 -1      1059    8    0    1
 -2       450       473       593      2201      2631      2573
 -1      1060    8    0    1
 -2       608       467       600      2606      2589      2632
 -1      1061    8    0    1
 -2       606       464       589      2601      2564      2633
 -1      1062    8    0    1
 -2       445       586       585      2555      2634      2551
 -1      1063    8    0    1
 -2       427       431       571      2512      2635      2509
 -1      1064    8    0    1
 -2       587       322       447      2559      2140      2636
 -1      1065    8    0    1
 -2       431       430       571      2095      2637      2635
 -1      1066    8    0    1
 -2       465       607       589      2605      2638      2563
 -1      1067    8    0    1
 -2       441       382       615      2545      2639      2640
 -1      1068    8    0    1
 -2       582       441       615      2542      2640      2641
 -1      1069    8    0    1
 -2       382       381       615      1947      2642      2639
 -1      1070    8    0    1
 -2       604       462       605      2597      2600      2643
 -1      1071    8    0    1
 -2       602       460       603      2592      2596      2644
 -1      1072    8    0    1
 -2       583       443       611      2546      2614      2645
 -1      1073    8    0    1
 -2       333       612       483      2628      2646      2248
 -1      1074    8    0    1
 -2       601       458       592      2590      2572      2647
 -1      1075    8    0    1
 -2       571       430       574      2637      2519      2648
 -1      1076    8    0    1
 -2       599       457       601      2586      2591      2649
 -1      1077    8    0    1
 -2       596       455       616      2579      2650      2651
 -1      1078    8    0    1
 -2       455       474       616      2222      2652      2650
 -1      1079    8    0    1
 -2       595       452       598      2577      2585      2653
 -1      1080    8    0    1
 -2       594       449       593      2575      2574      2654
 -1      1081    8    0    1
 -2       474       456       617      2220      2655      2656
 -1      1082    8    0    1
 -2       456       599       617      2587      2657      2655
 -1      1083    8    0    1
 -2       470       588       610      2561      2658      2611
 -1      1084    8    0    1
 -2       448       594       591      2576      2659      2569
 -1      1085    8    0    1
 -2       453       597       598      2582      2660      2584
 -1      1086    8    0    1
 -2       603       461       604      2595      2598      2661
 -1      1087    8    0    1
 -2       607       466       608      2604      2607      2662
 -1      1088    8    0    1
 -2       615       381       528      2642      2383      2663
 -1      1089    8    0    1
 -2       479       480       618      2241      2664      2665
 -1      1090    8    0    1
 -2       478       479       619      2238      2666      2667
 -1      1091    8    0    1
 -2       479       618       619      2665      2668      2666
 -1      1092    8    0    1
 -2       481       482       620      2247      2669      2670
 -1      1093    8    0    1
 -2       482       483       621      2250      2671      2672
 -1      1094    8    0    1
 -2       482       621       620      2672      2673      2669
 -1      1095    8    0    1
 -2       475       484       622      2253      2674      2675
 -1      1096    8    0    1
 -2       601       592       623      2647      2676      2677
 -1      1097    8    0    1
 -2       611       529       624      2615      2678      2679
 -1      1098    8    0    1
 -2       588       583       625      2562      2680      2681
 -1      1099    8    0    1
 -2       585       586       626      2634      2682      2683
 -1      1100    8    0    1
 -2       487       486       627      2261      2684      2685
 -1      1101    8    0    1
 -2       493       492       628      2279      2686      2687
 -1      1102    8    0    1
 -2       494       493       629      2282      2688      2689
 -1      1103    8    0    1
 -2       493       628       629      2687      2690      2688
 -1      1104    8    0    1
 -2       495       494       630      2285      2691      2692
 -1      1105    8    0    1
 -2       494       629       630      2689      2693      2691
 -1      1106    8    0    1
 -2       496       495       631      2288      2694      2695
 -1      1107    8    0    1
 -2       495       630       631      2692      2696      2694
 -1      1108    8    0    1
 -2       497       496       632      2291      2697      2698
 -1      1109    8    0    1
 -2       496       631       632      2695      2699      2697
 -1      1110    8    0    1
 -2       498       497       633      2294      2700      2701
 -1      1111    8    0    1
 -2       497       632       633      2698      2702      2700
 -1      1112    8    0    1
 -2       499       498       634      2297      2703      2704
 -1      1113    8    0    1
 -2       498       633       634      2701      2705      2703
 -1      1114    8    0    1
 -2       500       499       635      2300      2706      2707
 -1      1115    8    0    1
 -2       499       634       635      2704      2708      2706
 -1      1116    8    0    1
 -2       501       500       636      2303      2709      2710
 -1      1117    8    0    1
 -2       500       635       636      2707      2711      2709
 -1      1118    8    0    1
 -2       502       501       637      2306      2712      2713
 -1      1119    8    0    1
 -2       501       636       637      2710      2714      2712
 -1      1120    8    0    1
 -2       503       502       638      2309      2715      2716
 -1      1121    8    0    1
 -2       502       637       638      2713      2717      2715
 -1      1122    8    0    1
 -2       504       503       639      2312      2718      2719
 -1      1123    8    0    1
 -2       503       638       639      2716      2720      2718
 -1      1124    8    0    1
 -2       505       504       640      2315      2721      2722
 -1      1125    8    0    1
 -2       504       639       640      2719      2723      2721
 -1      1126    8    0    1
 -2       506       505       641      2318      2724      2725
 -1      1127    8    0    1
 -2       505       640       641      2722      2726      2724
 -1      1128    8    0    1
 -2       507       506       642      2321      2727      2728
 -1      1129    8    0    1
 -2       506       641       642      2725      2729      2727
 -1      1130    8    0    1
 -2       508       507       643      2324      2730      2731
 -1      1131    8    0    1
 -2       507       642       643      2728      2732      2730
 -1      1132    8    0    1
 -2       509       508       644      2327      2733      2734
 -1      1133    8    0    1
 -2       508       643       644      2731      2735      2733
 -1      1134    8    0    1
 -2       510       509       645      2330      2736      2737
 -1      1135    8    0    1
 -2       509       644       645      2734      2738      2736
 -1      1136    8    0    1
 -2       511       510       646      2333      2739      2740
 -1      1137    8    0    1
 -2       510       645       646      2737      2741      2739
 -1      1138    8    0    1
 -2       512       511       647      2336      2742      2743
 -1      1139    8    0    1
 -2       511       646       647      2740      2744      2742
 -1      1140    8    0    1
 -2       513       512       648      2339      2745      2746
 -1      1141    8    0    1
 -2       512       647       648      2743      2747      2745
 -1      1142    8    0    1
 -2       514       513       649      2342      2748      2749
 -1      1143    8    0    1
 -2       513       648       649      2746      2750      2748
 -1      1144    8    0    1
 -2       515       514       650      2345      2751      2752
 -1      1145    8    0    1
 -2       514       649       650      2749      2753      2751
 -1      1146    8    0    1
 -2       516       515       651      2348      2754      2755
 -1      1147    8    0    1
 -2       515       650       651      2752      2756      2754
 -1      1148    8    0    1
 -2       517       516       652      2351      2757      2758
 -1      1149    8    0    1
 -2       516       651       652      2755      2759      2757
 -1      1150    8    0    1
 -2       518       517       653      2354      2760      2761
 -1      1151    8    0    1
 -2       517       652       653      2758      2762      2760
 -1      1152    8    0    1
 -2       519       518       654      2357      2763      2764
 -1      1153    8    0    1
 -2       518       653       654      2761      2765      2763
 -1      1154    8    0    1
 -2       520       519       655      2360      2766      2767
 -1      1155    8    0    1
 -2       519       654       655      2764      2768      2766
 -1      1156    8    0    1
 -2       521       520       656      2363      2769      2770
 -1      1157    8    0    1
 -2       520       655       656      2767      2771      2769
 -1      1158    8    0    1
 -2       522       521       657      2366      2772      2773
 -1      1159    8    0    1
 -2       521       656       657      2770      2774      2772
 -1      1160    8    0    1
 -2       523       522       658      2369      2775      2776
 -1      1161    8    0    1
 -2       522       657       658      2773      2777      2775
 -1      1162    8    0    1
 -2       524       523       659      2372      2778      2779
 -1      1163    8    0    1
 -2       523       658       659      2776      2780      2778
 -1      1164    8    0    1
 -2       525       524       660      2375      2781      2782
 -1      1165    8    0    1
 -2       524       659       660      2779      2783      2781
 -1      1166    8    0    1
 -2       526       525       661      2378      2784      2785
 -1      1167    8    0    1
 -2       525       660       661      2782      2786      2784
 -1      1168    8    0    1
 -2       527       526       662      2381      2787      2788
 -1      1169    8    0    1
 -2       526       661       662      2785      2789      2787
 -1      1170    8    0    1
 -2       528       527       663      2384      2790      2791
 -1      1171    8    0    1
 -2       527       662       663      2788      2792      2790
 -1      1172    8    0    1
 -2       604       605       664      2643      2793      2794
 -1      1173    8    0    1
 -2       529       585       665      2553      2795      2796
 -1      1174    8    0    1
 -2       530       531       666      2391      2797      2798
 -1      1175    8    0    1
 -2       533       534       667      2400      2799      2800
 -1      1176    8    0    1
 -2       534       535       668      2403      2801      2802
 -1      1177    8    0    1
 -2       534       668       667      2802      2803      2799
 -1      1178    8    0    1
 -2       535       536       669      2406      2804      2805
 -1      1179    8    0    1
 -2       535       669       668      2805      2806      2801
 -1      1180    8    0    1
 -2       536       537       670      2409      2807      2808
 -1      1181    8    0    1
 -2       536       670       669      2808      2809      2804
 -1      1182    8    0    1
 -2       537       538       671      2412      2810      2811
 -1      1183    8    0    1
 -2       537       671       670      2811      2812      2807
 -1      1184    8    0    1
 -2       538       539       672      2415      2813      2814
 -1      1185    8    0    1
 -2       538       672       671      2814      2815      2810
 -1      1186    8    0    1
 -2       539       540       673      2418      2816      2817
 -1      1187    8    0    1
 -2       539       673       672      2817      2818      2813
 -1      1188    8    0    1
 -2       540       541       674      2421      2819      2820
 -1      1189    8    0    1
 -2       540       674       673      2820      2821      2816
 -1      1190    8    0    1
 -2       541       542       675      2424      2822      2823
 -1      1191    8    0    1
 -2       541       675       674      2823      2824      2819
 -1      1192    8    0    1
 -2       542       543       676      2427      2825      2826
 -1      1193    8    0    1
 -2       542       676       675      2826      2827      2822
 -1      1194    8    0    1
 -2       543       544       677      2430      2828      2829
 -1      1195    8    0    1
 -2       543       677       676      2829      2830      2825
 -1      1196    8    0    1
 -2       544       545       678      2433      2831      2832
 -1      1197    8    0    1
 -2       544       678       677      2832      2833      2828
 -1      1198    8    0    1
 -2       545       546       679      2436      2834      2835
 -1      1199    8    0    1
 -2       545       679       678      2835      2836      2831
 -1      1200    8    0    1
 -2       546       547       680      2439      2837      2838
 -1      1201    8    0    1
 -2       546       680       679      2838      2839      2834
 -1      1202    8    0    1
 -2       547       548       681      2442      2840      2841
 -1      1203    8    0    1
 -2       547       681       680      2841      2842      2837
 -1      1204    8    0    1
 -2       548       549       682      2445      2843      2844
 -1      1205    8    0    1
 -2       548       682       681      2844      2845      2840
 -1      1206    8    0    1
 -2       549       550       683      2448      2846      2847
 -1      1207    8    0    1
 -2       549       683       682      2847      2848      2843
 -1      1208    8    0    1
 -2       550       551       684      2451      2849      2850
 -1      1209    8    0    1
 -2       550       684       683      2850      2851      2846
 -1      1210    8    0    1
 -2       551       552       685      2454      2852      2853
 -1      1211    8    0    1
 -2       551       685       684      2853      2854      2849
 -1      1212    8    0    1
 -2       552       553       686      2457      2855      2856
 -1      1213    8    0    1
 -2       552       686       685      2856      2857      2852
 -1      1214    8    0    1
 -2       553       554       687      2460      2858      2859
 -1      1215    8    0    1
 -2       553       687       686      2859      2860      2855
 -1      1216    8    0    1
 -2       554       555       688      2463      2861      2862
 -1      1217    8    0    1
 -2       554       688       687      2862      2863      2858
 -1      1218    8    0    1
 -2       555       556       689      2466      2864      2865
 -1      1219    8    0    1
 -2       555       689       688      2865      2866      2861
 -1      1220    8    0    1
 -2       556       557       690      2469      2867      2868
 -1      1221    8    0    1
 -2       556       690       689      2868      2869      2864
 -1      1222    8    0    1
 -2       557       558       691      2472      2870      2871
 -1      1223    8    0    1
 -2       557       691       690      2871      2872      2867
 -1      1224    8    0    1
 -2       558       559       692      2475      2873      2874
 -1      1225    8    0    1
 -2       558       692       691      2874      2875      2870
 -1      1226    8    0    1
 -2       559       560       693      2478      2876      2877
 -1      1227    8    0    1
 -2       559       693       692      2877      2878      2873
 -1      1228    8    0    1
 -2       560       561       694      2481      2879      2880
 -1      1229    8    0    1
 -2       560       694       693      2880      2881      2876
 -1      1230    8    0    1
 -2       561       562       695      2484      2882      2883
 -1      1231    8    0    1
 -2       561       695       694      2883      2884      2879
 -1      1232    8    0    1
 -2       562       563       696      2487      2885      2886
 -1      1233    8    0    1
 -2       562       696       695      2886      2887      2882
 -1      1234    8    0    1
 -2       563       564       697      2490      2888      2889
 -1      1235    8    0    1
 -2       563       697       696      2889      2890      2885
 -1      1236    8    0    1
 -2       564       565       698      2493      2891      2892
 -1      1237    8    0    1
 -2       564       698       697      2892      2893      2888
 -1      1238    8    0    1
 -2       565       566       699      2496      2894      2895
 -1      1239    8    0    1
 -2       565       699       698      2895      2896      2891
 -1      1240    8    0    1
 -2       566       567       700      2499      2897      2898
 -1      1241    8    0    1
 -2       566       700       699      2898      2899      2894
 -1      1242    8    0    1
 -2       567       568       701      2502      2900      2901
 -1      1243    8    0    1
 -2       567       701       700      2901      2902      2897
 -1      1244    8    0    1
 -2       568       569       702      2505      2903      2904
 -1      1245    8    0    1
 -2       568       702       701      2904      2905      2900
 -1      1246    8    0    1
 -2       569       570       703      2508      2906      2907
 -1      1247    8    0    1
 -2       569       703       702      2907      2908      2903
 -1      1248    8    0    1
 -2       570       571       704      2511      2909      2910
 -1      1249    8    0    1
 -2       703       570       704      2906      2910      2911
 -1      1250    8    0    1
 -2       571       574       704      2648      2912      2909
 -1      1251    8    0    1
 -2       587       447       614      2636      2626      2913
 -1      1252    8    0    1
 -2       576       577       705      2529      2914      2915
 -1      1253    8    0    1
 -2       599       601       706      2649      2916      2917
 -1      1254    8    0    1
 -2       572       573       707      2517      2918      2919
 -1      1255    8    0    1
 -2       577       578       708      2532      2920      2921
 -1      1256    8    0    1
 -2       577       708       705      2921      2922      2914
 -1      1257    8    0    1
 -2       573       576       709      2526      2923      2924
 -1      1258    8    0    1
 -2       707       573       709      2918      2924      2925
 -1      1259    8    0    1
 -2       576       705       709      2915      2926      2923
 -1      1260    8    0    1
 -2       578       579       710      2535      2927      2928
 -1      1261    8    0    1
 -2       578       710       708      2928      2929      2920
 -1      1262    8    0    1
 -2       579       580       711      2538      2930      2931
 -1      1263    8    0    1
 -2       579       711       710      2931      2932      2927
 -1      1264    8    0    1
 -2       580       581       712      2541      2933      2934
 -1      1265    8    0    1
 -2       580       712       711      2934      2935      2930
 -1      1266    8    0    1
 -2       584       530       713      2550      2936      2937
 -1      1267    8    0    1
 -2       530       666       713      2798      2938      2936
 -1      1268    8    0    1
 -2       589       607       490      2638      2939      2940
 -1      1269    8    0    1
 -2       613       591       714      2623      2941      2942
 -1      1270    8    0    1
 -2       485       587       715      2558      2943      2944
 -1      1271    8    0    1
 -2       486       485       715      2258      2944      2945
 -1      1272    8    0    1
 -2       587       614       715      2913      2946      2943
 -1      1273    8    0    1
 -2       582       615       716      2641      2947      2948
 -1      1274    8    0    1
 -2       615       528       716      2663      2949      2947
 -1      1275    8    0    1
 -2       593       473       717      2631      2950      2951
 -1      1276    8    0    1
 -2       597       596       718      2583      2952      2953
 -1      1277    8    0    1
 -2       532       533       719      2397      2954      2955
 -1      1278    8    0    1
 -2       533       667       719      2800      2956      2954
 -1      1279    8    0    1
 -2       531       532       720      2394      2957      2958
 -1      1280    8    0    1
 -2       532       719       720      2955      2959      2957
 -1      1281    8    0    1
 -2       480       481       721      2244      2960      2961
 -1      1282    8    0    1
 -2       481       620       721      2670      2962      2960
 -1      1283    8    0    1
 -2       583       611       722      2645      2963      2964
 -1      1284    8    0    1
 -2       484       584       723      2627      2965      2966
 -1      1285    8    0    1
 -2       622       484       723      2674      2966      2967
 -1      1286    8    0    1
 -2       584       713       723      2937      2968      2965
 -1      1287    8    0    1
 -2       477       476       724      2233      2969      2970
 -1      1288    8    0    1
 -2       609       610       725      2630      2971      2972
 -1      1289    8    0    1
 -2       594       593       726      2654      2973      2974
 -1      1290    8    0    1
 -2       603       604       727      2661      2975      2976
 -1      1291    8    0    1
 -2       610       588       728      2658      2977      2978
 -1      1292    8    0    1
 -2       588       625       728      2681      2979      2977
 -1      1293    8    0    1
 -2       595       598       729      2653      2980      2981
 -1      1294    8    0    1
 -2       598       597       730      2660      2982      2983
 -1      1295    8    0    1
 -2       592       602       731      2594      2984      2985
 -1      1296    8    0    1
 -2       607       608       732      2662      2986      2987
 -1      1297    8    0    1
 -2       602       603       733      2644      2988      2989
 -1      1298    8    0    1
 -2       473       595       734      2629      2990      2991
 -1      1299    8    0    1
 -2       473       734       717      2991      2992      2950
 -1      1300    8    0    1
 -2       586       613       735      2622      2993      2994
 -1      1301    8    0    1
 -2       600       609       736      2610      2995      2996
 -1      1302    8    0    1
 -2       591       594       737      2659      2997      2998
 -1      1303    8    0    1
 -2       594       726       737      2974      2999      2997
 -1      1304    8    0    1
 -2       483       612       475      2646      2619      3000
 -1      1305    8    0    1
 -2       614       477       738      2624      3001      3002
 -1      1306    8    0    1
 -2       477       724       738      2970      3003      3001
 -1      1307    8    0    1
 -2       478       619       739      2667      3004      3005
 -1      1308    8    0    1
 -2       478       739       590      3005      3006      2568
 -1      1309    8    0    1
 -2       724       476       740      2969      3007      3008
 -1      1310    8    0    1
 -2       601       623       706      2677      3009      2916
 -1      1311    8    0    1
 -2       611       624       722      2679      3010      2963
 -1      1312    8    0    1
 -2       736       609       725      2995      2972      3011
 -1      1313    8    0    1
 -2       595       729       734      2981      3012      2990
 -1      1314    8    0    1
 -2       733       603       727      2988      2976      3013
 -1      1315    8    0    1
 -2       585       626       665      2683      3014      2795
 -1      1316    8    0    1
 -2       583       722       625      2964      3015      2680
 -1      1317    8    0    1
 -2       731       602       733      2984      2989      3016
 -1      1318    8    0    1
 -2       730       597       718      2982      2953      3017
 -1      1319    8    0    1
 -2       604       664       727      2794      3018      2975
 -1      1320    8    0    1
 -2       488       487       664      2264      3019      3020
 -1      1321    8    0    1
 -2       489       488       741      2267      3021      3022
 -1      1322    8    0    1
 -2       491       490       607      2273      2939      3023
 -1      1323    8    0    1
 -2       528       663       716      2791      3024      2949
 -1      1324    8    0    1
 -2       529       665       624      2796      3025      2678
 -1      1325    8    0    1
 -2       531       720       666      2958      3026      2797
 -1      1326    8    0    1
 -2       704       574       742      2912      3027      3028
 -1      1327    8    0    1
 -2       574       575       742      2522      3029      3027
 -1      1328    8    0    1
 -2       714       591       737      2941      2998      3030
 -1      1329    8    0    1
 -2       726       593       743      2973      3031      3032
 -1      1330    8    0    1
 -2       593       717       743      2951      3033      3031
 -1      1331    8    0    1
 -2       618       480       721      2664      2961      3034
 -1      1332    8    0    1
 -2       581       582       716      2544      2948      3035
 -1      1333    8    0    1
 -2       613       714       735      2942      3036      2993
 -1      1334    8    0    1
 -2       486       715       627      2945      3037      2684
 -1      1335    8    0    1
 -2       718       596       616      2952      2651      3038
 -1      1336    8    0    1
 -2       586       735       626      2994      3039      2682
 -1      1337    8    0    1
 -2       616       474       617      2652      2656      3040
 -1      1338    8    0    1
 -2       581       716       744      3035      3041      3042
 -1      1339    8    0    1
 -2       712       581       744      2933      3042      3043
 -1      1340    8    0    1
 -2       716       663       744      3024      3044      3041
 -1      1341    8    0    1
 -2       476       590       740      2567      3045      3007
 -1      1342    8    0    1
 -2       575       572       745      2523      3046      3047
 -1      1343    8    0    1
 -2       742       575       745      3029      3047      3048
 -1      1344    8    0    1
 -2       572       707       745      2919      3049      3046
 -1      1345    8    0    1
 -2       725       610       728      2971      2978      3050
 -1      1346    8    0    1
 -2       483       475       622      3000      2675      3051
 -1      1347    8    0    1
 -2       623       592       731      2676      2985      3052
 -1      1348    8    0    1
 -2       483       622       621      3051      3053      2671
 -1      1349    8    0    1
 -2       729       598       730      2980      2983      3054
 -1      1350    8    0    1
 -2       605       606       741      2603      3055      3056
 -1      1351    8    0    1
 -2       489       741       606      3022      3055      3057
 -1      1352    8    0    1
 -2       491       607       732      3023      2987      3058
 -1      1353    8    0    1
 -2       605       741       664      3056      3059      2793
 -1      1354    8    0    1
 -2       620       621       746      2673      3060      3061
 -1      1355    8    0    1
 -2       706       623       740      3009      3062      3063
 -1      1356    8    0    1
 -2       737       726       747      2999      3064      3065
 -1      1357    8    0    1
 -2       708       710       748      2929      3066      3067
 -1      1358    8    0    1
 -2       733       727       627      3013      3068      3069
 -1      1359    8    0    1
 -2       732       608       749      2986      3070      3071
 -1      1360    8    0    1
 -2       741       488       664      3021      3020      3059
 -1      1361    8    0    1
 -2       487       627       664      2685      3072      3019
 -1      1362    8    0    1
 -2       740       623       724      3062      3073      3008
 -1      1363    8    0    1
 -2       490       489       606      2270      3057      3074
 -1      1364    8    0    1
 -2       492       491       749      2276      3075      3076
 -1      1365    8    0    1
 -2       631       630       750      2696      3077      3078
 -1      1366    8    0    1
 -2       632       631       751      2699      3079      3080
 -1      1367    8    0    1
 -2       631       750       751      3078      3081      3079
 -1      1368    8    0    1
 -2       633       632       752      2702      3082      3083
 -1      1369    8    0    1
 -2       632       751       752      3080      3084      3082
 -1      1370    8    0    1
 -2       634       633       753      2705      3085      3086
 -1      1371    8    0    1
 -2       633       752       753      3083      3087      3085
 -1      1372    8    0    1
 -2       635       634       754      2708      3088      3089
 -1      1373    8    0    1
 -2       634       753       754      3086      3090      3088
 -1      1374    8    0    1
 -2       636       635       755      2711      3091      3092
 -1      1375    8    0    1
 -2       635       754       755      3089      3093      3091
 -1      1376    8    0    1
 -2       637       636       756      2714      3094      3095
 -1      1377    8    0    1
 -2       636       755       756      3092      3096      3094
 -1      1378    8    0    1
 -2       638       637       757      2717      3097      3098
 -1      1379    8    0    1
 -2       637       756       757      3095      3099      3097
 -1      1380    8    0    1
 -2       639       638       758      2720      3100      3101
 -1      1381    8    0    1
 -2       638       757       758      3098      3102      3100
 -1      1382    8    0    1
 -2       640       639       759      2723      3103      3104
 -1      1383    8    0    1
 -2       639       758       759      3101      3105      3103
 -1      1384    8    0    1
 -2       641       640       760      2726      3106      3107
 -1      1385    8    0    1
 -2       640       759       760      3104      3108      3106
 -1      1386    8    0    1
 -2       642       641       761      2729      3109      3110
 -1      1387    8    0    1
 -2       641       760       761      3107      3111      3109
 -1      1388    8    0    1
 -2       643       642       762      2732      3112      3113
 -1      1389    8    0    1
 -2       642       761       762      3110      3114      3112
 -1      1390    8    0    1
 -2       644       643       763      2735      3115      3116
 -1      1391    8    0    1
 -2       643       762       763      3113      3117      3115
 -1      1392    8    0    1
 -2       645       644       764      2738      3118      3119
 -1      1393    8    0    1
 -2       644       763       764      3116      3120      3118
 -1      1394    8    0    1
 -2       646       645       765      2741      3121      3122
 -1      1395    8    0    1
 -2       645       764       765      3119      3123      3121
 -1      1396    8    0    1
 -2       647       646       766      2744      3124      3125
 -1      1397    8    0    1
 -2       646       765       766      3122      3126      3124
 -1      1398    8    0    1
 -2       648       647       767      2747      3127      3128
 -1      1399    8    0    1
 -2       647       766       767      3125      3129      3127
 -1      1400    8    0    1
 -2       649       648       768      2750      3130      3131
 -1      1401    8    0    1
 -2       648       767       768      3128      3132      3130
 -1      1402    8    0    1
 -2       650       649       769      2753      3133      3134
 -1      1403    8    0    1
 -2       649       768       769      3131      3135      3133
 -1      1404    8    0    1
 -2       651       650       770      2756      3136      3137
 -1      1405    8    0    1
 -2       650       769       770      3134      3138      3136
 -1      1406    8    0    1
 -2       652       651       771      2759      3139      3140
 -1      1407    8    0    1
 -2       651       770       771      3137      3141      3139
 -1      1408    8    0    1
 -2       653       652       772      2762      3142      3143
 -1      1409    8    0    1
 -2       652       771       772      3140      3144      3142
 -1      1410    8    0    1
 -2       654       653       773      2765      3145      3146
 -1      1411    8    0    1
 -2       653       772       773      3143      3147      3145
 -1      1412    8    0    1
 -2       655       654       774      2768      3148      3149
 -1      1413    8    0    1
 -2       654       773       774      3146      3150      3148
 -1      1414    8    0    1
 -2       656       655       775      2771      3151      3152
 -1      1415    8    0    1
 -2       655       774       775      3149      3153      3151
 -1      1416    8    0    1
 -2       657       656       776      2774      3154      3155
 -1      1417    8    0    1
 -2       656       775       776      3152      3156      3154
 -1      1418    8    0    1
 -2       658       657       777      2777      3157      3158
 -1      1419    8    0    1
 -2       657       776       777      3155      3159      3157
 -1      1420    8    0    1
 -2       659       658       778      2780      3160      3161
 -1      1421    8    0    1
 -2       658       777       778      3158      3162      3160
 -1      1422    8    0    1
 -2       660       659       779      2783      3163      3164
 -1      1423    8    0    1
 -2       659       778       779      3161      3165      3163
 -1      1424    8    0    1
 -2       661       660       780      2786      3166      3167
 -1      1425    8    0    1
 -2       660       779       780      3164      3168      3166
 -1      1426    8    0    1
 -2       662       661       781      2789      3169      3170
 -1      1427    8    0    1
 -2       661       780       781      3167      3171      3169
 -1      1428    8    0    1
 -2       663       662       782      2792      3172      3173
 -1      1429    8    0    1
 -2       744       663       782      3044      3173      3174
 -1      1430    8    0    1
 -2       662       781       782      3170      3175      3172
 -1      1431    8    0    1
 -2       728       625       783      2979      3176      3177
 -1      1432    8    0    1
 -2       589       490       606      2940      3074      2633
 -1      1433    8    0    1
 -2       667       668       784      2803      3178      3179
 -1      1434    8    0    1
 -2       670       671       785      2812      3180      3181
 -1      1435    8    0    1
 -2       671       672       786      2815      3182      3183
 -1      1436    8    0    1
 -2       671       786       785      3183      3184      3180
 -1      1437    8    0    1
 -2       672       673       787      2818      3185      3186
 -1      1438    8    0    1
 -2       672       787       786      3186      3187      3182
 -1      1439    8    0    1
 -2       673       674       788      2821      3188      3189
 -1      1440    8    0    1
 -2       673       788       787      3189      3190      3185
 -1      1441    8    0    1
 -2       674       675       789      2824      3191      3192
 -1      1442    8    0    1
 -2       674       789       788      3192      3193      3188
 -1      1443    8    0    1
 -2       675       676       790      2827      3194      3195
 -1      1444    8    0    1
 -2       675       790       789      3195      3196      3191
 -1      1445    8    0    1
 -2       676       677       791      2830      3197      3198
 -1      1446    8    0    1
 -2       676       791       790      3198      3199      3194
 -1      1447    8    0    1
 -2       677       678       792      2833      3200      3201
 -1      1448    8    0    1
 -2       677       792       791      3201      3202      3197
 -1      1449    8    0    1
 -2       678       679       793      2836      3203      3204
 -1      1450    8    0    1
 -2       678       793       792      3204      3205      3200
 -1      1451    8    0    1
 -2       679       680       794      2839      3206      3207
 -1      1452    8    0    1
 -2       679       794       793      3207      3208      3203
 -1      1453    8    0    1
 -2       680       681       795      2842      3209      3210
 -1      1454    8    0    1
 -2       680       795       794      3210      3211      3206
 -1      1455    8    0    1
 -2       681       682       796      2845      3212      3213
 -1      1456    8    0    1
 -2       681       796       795      3213      3214      3209
 -1      1457    8    0    1
 -2       682       683       797      2848      3215      3216
 -1      1458    8    0    1
 -2       682       797       796      3216      3217      3212
 -1      1459    8    0    1
 -2       683       684       798      2851      3218      3219
 -1      1460    8    0    1
 -2       683       798       797      3219      3220      3215
 -1      1461    8    0    1
 -2       684       685       799      2854      3221      3222
 -1      1462    8    0    1
 -2       684       799       798      3222      3223      3218
 -1      1463    8    0    1
 -2       685       686       800      2857      3224      3225
 -1      1464    8    0    1
 -2       685       800       799      3225      3226      3221
 -1      1465    8    0    1
 -2       686       687       801      2860      3227      3228
 -1      1466    8    0    1
 -2       686       801       800      3228      3229      3224
 -1      1467    8    0    1
 -2       687       688       802      2863      3230      3231
 -1      1468    8    0    1
 -2       687       802       801      3231      3232      3227
 -1      1469    8    0    1
 -2       688       689       803      2866      3233      3234
 -1      1470    8    0    1
 -2       688       803       802      3234      3235      3230
 -1      1471    8    0    1
 -2       689       690       804      2869      3236      3237
 -1      1472    8    0    1
 -2       689       804       803      3237      3238      3233
 -1      1473    8    0    1
 -2       690       691       805      2872      3239      3240
 -1      1474    8    0    1
 -2       690       805       804      3240      3241      3236
 -1      1475    8    0    1
 -2       691       692       806      2875      3242      3243
 -1      1476    8    0    1
 -2       691       806       805      3243      3244      3239
 -1      1477    8    0    1
 -2       692       693       807      2878      3245      3246
 -1      1478    8    0    1
 -2       692       807       806      3246      3247      3242
 -1      1479    8    0    1
 -2       693       694       808      2881      3248      3249
 -1      1480    8    0    1
 -2       693       808       807      3249      3250      3245
 -1      1481    8    0    1
 -2       694       695       809      2884      3251      3252
 -1      1482    8    0    1
 -2       694       809       808      3252      3253      3248
 -1      1483    8    0    1
 -2       695       696       810      2887      3254      3255
 -1      1484    8    0    1
 -2       695       810       809      3255      3256      3251
 -1      1485    8    0    1
 -2       696       697       811      2890      3257      3258
 -1      1486    8    0    1
 -2       696       811       810      3258      3259      3254
 -1      1487    8    0    1
 -2       697       698       812      2893      3260      3261
 -1      1488    8    0    1
 -2       697       812       811      3261      3262      3257
 -1      1489    8    0    1
 -2       698       699       813      2896      3263      3264
 -1      1490    8    0    1
 -2       698       813       812      3264      3265      3260
 -1      1491    8    0    1
 -2       699       700       814      2899      3266      3267
 -1      1492    8    0    1
 -2       699       814       813      3267      3268      3263
 -1      1493    8    0    1
 -2       700       701       815      2902      3269      3270
 -1      1494    8    0    1
 -2       700       815       814      3270      3271      3266
 -1      1495    8    0    1
 -2       701       702       816      2905      3272      3273
 -1      1496    8    0    1
 -2       701       816       815      3273      3274      3269
 -1      1497    8    0    1
 -2       702       703       817      2908      3275      3276
 -1      1498    8    0    1
 -2       702       817       816      3276      3277      3272
 -1      1499    8    0    1
 -2       703       704       818      2911      3278      3279
 -1      1500    8    0    1
 -2       817       703       818      3275      3279      3280
 -1      1501    8    0    1
 -2       704       742       818      3028      3281      3278
 -1      1502    8    0    1
 -2       722       624       819      3010      3282      3283
 -1      1503    8    0    1
 -2       711       712       820      2935      3284      3285
 -1      1504    8    0    1
 -2       599       706       821      2917      3286      3287
 -1      1505    8    0    1
 -2       725       728       822      3050      3288      3289
 -1      1506    8    0    1
 -2       728       783       822      3177      3290      3288
 -1      1507    8    0    1
 -2       705       708       823      2922      3291      3292
 -1      1508    8    0    1
 -2       708       748       823      3067      3293      3291
 -1      1509    8    0    1
 -2       714       737       824      3030      3294      3295
 -1      1510    8    0    1
 -2       737       747       824      3065      3296      3294
 -1      1511    8    0    1
 -2       713       666       825      2938      3297      3298
 -1      1512    8    0    1
 -2       719       667       747      2956      3299      3300
 -1      1513    8    0    1
 -2       715       614       738      2946      3002      3301
 -1      1514    8    0    1
 -2       740       590       739      3045      3006      3302
 -1      1515    8    0    1
 -2       710       711       826      2932      3303      3304
 -1      1516    8    0    1
 -2       748       710       826      3066      3304      3305
 -1      1517    8    0    1
 -2       711       820       826      3285      3306      3303
 -1      1518    8    0    1
 -2       669       670       827      2809      3307      3308
 -1      1519    8    0    1
 -2       670       785       827      3181      3309      3307
 -1      1520    8    0    1
 -2       668       669       828      2806      3310      3311
 -1      1521    8    0    1
 -2       669       827       828      3308      3312      3310
 -1      1522    8    0    1
 -2       625       722       829      3015      3313      3314
 -1      1523    8    0    1
 -2       629       628       736      2690      3315      3316
 -1      1524    8    0    1
 -2       718       616       830      3038      3317      3318
 -1      1525    8    0    1
 -2       617       599       821      2657      3287      3319
 -1      1526    8    0    1
 -2       608       600       831      2632      3320      3321
 -1      1527    8    0    1
 -2       721       620       832      2962      3322      3323
 -1      1528    8    0    1
 -2       620       746       832      3061      3324      3322
 -1      1529    8    0    1
 -2       616       617       619      3040      3325      3326
 -1      1530    8    0    1
 -2       624       665       833      3025      3327      3328
 -1      1531    8    0    1
 -2       736       725       834      3011      3329      3330
 -1      1532    8    0    1
 -2       629       736       834      3316      3330      3331
 -1      1533    8    0    1
 -2       725       822       834      3289      3332      3329
 -1      1534    8    0    1
 -2       731       733       835      3016      3333      3334
 -1      1535    8    0    1
 -2       734       729       836      3012      3335      3336
 -1      1536    8    0    1
 -2       735       714       837      3036      3337      3338
 -1      1537    8    0    1
 -2       666       720       838      3026      3339      3340
 -1      1538    8    0    1
 -2       666       838       825      3340      3341      3297
 -1      1539    8    0    1
 -2       706       740       739      3063      3302      3342
 -1      1540    8    0    1
 -2       733       627       835      3069      3343      3333
 -1      1541    8    0    1
 -2       724       623       839      3073      3344      3345
 -1      1542    8    0    1
 -2       738       724       839      3003      3345      3346
 -1      1543    8    0    1
 -2       623       731       839      3052      3347      3344
 -1      1544    8    0    1
 -2       665       626       840      3014      3348      3349
 -1      1545    8    0    1
 -2       621       622       841      3053      3350      3351
 -1      1546    8    0    1
 -2       746       621       841      3060      3351      3352
 -1      1547    8    0    1
 -2       622       723       841      2967      3353      3350
 -1      1548    8    0    1
 -2       626       735       842      3039      3354      3355
 -1      1549    8    0    1
 -2       729       730       843      3054      3356      3357
 -1      1550    8    0    1
 -2       730       718       844      3017      3358      3359
 -1      1551    8    0    1
 -2       717       734       845      2992      3360      3361
 -1      1552    8    0    1
 -2       618       721       844      3034      3362      3363
 -1      1553    8    0    1
 -2       600       736       628      2996      3315      3364
 -1      1554    8    0    1
 -2       665       840       833      3349      3365      3327
 -1      1555    8    0    1
 -2       844       718       830      3358      3318      3366
 -1      1556    8    0    1
 -2       714       824       837      3295      3367      3337
 -1      1557    8    0    1
 -2       839       731       835      3347      3334      3368
 -1      1558    8    0    1
 -2       750       630       834      3077      3369      3370
 -1      1559    8    0    1
 -2       630       629       834      2693      3331      3369
 -1      1560    8    0    1
 -2       705       823       846      3292      3371      3372
 -1      1561    8    0    1
 -2       705       846       709      3372      3373      2926
 -1      1562    8    0    1
 -2       821       706       739      3286      3342      3374
 -1      1563    8    0    1
 -2       616       619       830      3326      3375      3317
 -1      1564    8    0    1
 -2       668       828       784      3311      3376      3178
 -1      1565    8    0    1
 -2       819       624       833      3282      3328      3377
 -1      1566    8    0    1
 -2       625       829       783      3314      3378      3176
 -1      1567    8    0    1
 -2       707       709       847      2925      3379      3380
 -1      1568    8    0    1
 -2       709       846       847      3373      3381      3379
 -1      1569    8    0    1
 -2       830       619       618      3375      2668      3382
 -1      1570    8    0    1
 -2       743       717       845      3033      3361      3383
 -1      1571    8    0    1
 -2       723       713       848      2968      3384      3385
 -1      1572    8    0    1
 -2       841       723       848      3353      3385      3386
 -1      1573    8    0    1
 -2       713       825       848      3298      3387      3384
 -1      1574    8    0    1
 -2       719       747       849      3300      3388      3389
 -1      1575    8    0    1
 -2       720       719       849      2959      3389      3390
 -1      1576    8    0    1
 -2       747       726       849      3064      3391      3388
 -1      1577    8    0    1
 -2       829       722       850      3313      3392      3393
 -1      1578    8    0    1
 -2       722       819       850      3283      3394      3392
 -1      1579    8    0    1
 -2       707       847       851      3380      3395      3396
 -1      1580    8    0    1
 -2       707       851       745      3396      3397      3049
 -1      1581    8    0    1
 -2       844       721       832      3362      3323      3398
 -1      1582    8    0    1
 -2       831       600       628      3320      3364      3399
 -1      1583    8    0    1
 -2       720       849       838      3390      3400      3339
 -1      1584    8    0    1
 -2       830       618       844      3382      3363      3366
 -1      1585    8    0    1
 -2       836       729       852      3335      3401      3402
 -1      1586    8    0    1
 -2       729       843       852      3357      3403      3401
 -1      1587    8    0    1
 -2       626       842       840      3355      3404      3348
 -1      1588    8    0    1
 -2       734       836       845      3336      3405      3360
 -1      1589    8    0    1
 -2       735       837       853      3338      3406      3407
 -1      1590    8    0    1
 -2       735       853       842      3407      3408      3354
 -1      1591    8    0    1
 -2       712       744       854      3043      3409      3410
 -1      1592    8    0    1
 -2       820       712       854      3284      3410      3411
 -1      1593    8    0    1
 -2       744       782       854      3174      3412      3409
 -1      1594    8    0    1
 -2       843       730       844      3356      3359      3413
 -1      1595    8    0    1
 -2       627       715       835      3037      3414      3343
 -1      1596    8    0    1
 -2       742       745       855      3048      3415      3416
 -1      1597    8    0    1
 -2       818       742       855      3281      3416      3417
 -1      1598    8    0    1
 -2       745       851       855      3397      3418      3415
 -1      1599    8    0    1
 -2       832       746       852      3324      3419      3420
 -1      1600    8    0    1
 -2       747       667       784      3299      3179      3421
 -1      1601    8    0    1
 -2       751       750       856      3081      3422      3423
 -1      1602    8    0    1
 -2       749       491       732      3075      3058      3071
 -1      1603    8    0    1
 -2       752       751       857      3084      3424      3425
 -1      1604    8    0    1
 -2       751       856       857      3423      3426      3424
 -1      1605    8    0    1
 -2       753       752       858      3087      3427      3428
 -1      1606    8    0    1
 -2       752       857       858      3425      3429      3427
 -1      1607    8    0    1
 -2       754       753       859      3090      3430      3431
 -1      1608    8    0    1
 -2       753       858       859      3428      3432      3430
 -1      1609    8    0    1
 -2       755       754       860      3093      3433      3434
 -1      1610    8    0    1
 -2       754       859       860      3431      3435      3433
 -1      1611    8    0    1
 -2       756       755       861      3096      3436      3437
 -1      1612    8    0    1
 -2       755       860       861      3434      3438      3436
 -1      1613    8    0    1
 -2       757       756       862      3099      3439      3440
 -1      1614    8    0    1
 -2       756       861       862      3437      3441      3439
 -1      1615    8    0    1
 -2       758       757       863      3102      3442      3443
 -1      1616    8    0    1
 -2       757       862       863      3440      3444      3442
 -1      1617    8    0    1
 -2       759       758       864      3105      3445      3446
 -1      1618    8    0    1
 -2       758       863       864      3443      3447      3445
 -1      1619    8    0    1
 -2       760       759       865      3108      3448      3449
 -1      1620    8    0    1
 -2       759       864       865      3446      3450      3448
 -1      1621    8    0    1
 -2       761       760       866      3111      3451      3452
 -1      1622    8    0    1
 -2       760       865       866      3449      3453      3451
 -1      1623    8    0    1
 -2       762       761       867      3114      3454      3455
 -1      1624    8    0    1
 -2       761       866       867      3452      3456      3454
 -1      1625    8    0    1
 -2       763       762       868      3117      3457      3458
 -1      1626    8    0    1
 -2       762       867       868      3455      3459      3457
 -1      1627    8    0    1
 -2       764       763       869      3120      3460      3461
 -1      1628    8    0    1
 -2       763       868       869      3458      3462      3460
 -1      1629    8    0    1
 -2       765       764       870      3123      3463      3464
 -1      1630    8    0    1
 -2       764       869       870      3461      3465      3463
 -1      1631    8    0    1
 -2       766       765       871      3126      3466      3467
 -1      1632    8    0    1
 -2       765       870       871      3464      3468      3466
 -1      1633    8    0    1
 -2       767       766       872      3129      3469      3470
 -1      1634    8    0    1
 -2       766       871       872      3467      3471      3469
 -1      1635    8    0    1
 -2       768       767       873      3132      3472      3473
 -1      1636    8    0    1
 -2       767       872       873      3470      3474      3472
 -1      1637    8    0    1
 -2       769       768       874      3135      3475      3476
 -1      1638    8    0    1
 -2       768       873       874      3473      3477      3475
 -1      1639    8    0    1
 -2       770       769       875      3138      3478      3479
 -1      1640    8    0    1
 -2       769       874       875      3476      3480      3478
 -1      1641    8    0    1
 -2       771       770       876      3141      3481      3482
 -1      1642    8    0    1
 -2       770       875       876      3479      3483      3481
 -1      1643    8    0    1
 -2       772       771       877      3144      3484      3485
 -1      1644    8    0    1
 -2       771       876       877      3482      3486      3484
 -1      1645    8    0    1
 -2       773       772       878      3147      3487      3488
 -1      1646    8    0    1
 -2       772       877       878      3485      3489      3487
 -1      1647    8    0    1
 -2       774       773       879      3150      3490      3491
 -1      1648    8    0    1
 -2       773       878       879      3488      3492      3490
 -1      1649    8    0    1
 -2       775       774       880      3153      3493      3494
 -1      1650    8    0    1
 -2       774       879       880      3491      3495      3493
 -1      1651    8    0    1
 -2       776       775       881      3156      3496      3497
 -1      1652    8    0    1
 -2       775       880       881      3494      3498      3496
 -1      1653    8    0    1
 -2       777       776       882      3159      3499      3500
 -1      1654    8    0    1
 -2       776       881       882      3497      3501      3499
 -1      1655    8    0    1
 -2       778       777       883      3162      3502      3503
 -1      1656    8    0    1
 -2       777       882       883      3500      3504      3502
 -1      1657    8    0    1
 -2       779       778       884      3165      3505      3506
 -1      1658    8    0    1
 -2       778       883       884      3503      3507      3505
 -1      1659    8    0    1
 -2       780       779       885      3168      3508      3509
 -1      1660    8    0    1
 -2       779       884       885      3506      3510      3508
 -1      1661    8    0    1
 -2       781       780       886      3171      3511      3512
 -1      1662    8    0    1
 -2       780       885       886      3509      3513      3511
 -1      1663    8    0    1
 -2       787       788       887      3190      3514      3515
 -1      1664    8    0    1
 -2       786       787       888      3187      3516      3517
 -1      1665    8    0    1
 -2       787       887       888      3515      3518      3516
 -1      1666    8    0    1
 -2       834       822       750      3332      3519      3370
 -1      1667    8    0    1
 -2       785       786       889      3184      3520      3521
 -1      1668    8    0    1
 -2       786       888       889      3517      3522      3520
 -1      1669    8    0    1
 -2       788       789       890      3193      3523      3524
 -1      1670    8    0    1
 -2       788       890       887      3524      3525      3514
 -1      1671    8    0    1
 -2       789       790       891      3196      3526      3527
 -1      1672    8    0    1
 -2       789       891       890      3527      3528      3523
 -1      1673    8    0    1
 -2       790       791       892      3199      3529      3530
 -1      1674    8    0    1
 -2       790       892       891      3530      3531      3526
 -1      1675    8    0    1
 -2       791       792       893      3202      3532      3533
 -1      1676    8    0    1
 -2       791       893       892      3533      3534      3529
 -1      1677    8    0    1
 -2       792       793       894      3205      3535      3536
 -1      1678    8    0    1
 -2       792       894       893      3536      3537      3532
 -1      1679    8    0    1
 -2       793       794       895      3208      3538      3539
 -1      1680    8    0    1
 -2       793       895       894      3539      3540      3535
 -1      1681    8    0    1
 -2       794       795       896      3211      3541      3542
 -1      1682    8    0    1
 -2       794       896       895      3542      3543      3538
 -1      1683    8    0    1
 -2       795       796       897      3214      3544      3545
 -1      1684    8    0    1
 -2       795       897       896      3545      3546      3541
 -1      1685    8    0    1
 -2       796       797       898      3217      3547      3548
 -1      1686    8    0    1
 -2       796       898       897      3548      3549      3544
 -1      1687    8    0    1
 -2       797       798       899      3220      3550      3551
 -1      1688    8    0    1
 -2       797       899       898      3551      3552      3547
 -1      1689    8    0    1
 -2       798       799       900      3223      3553      3554
 -1      1690    8    0    1
 -2       798       900       899      3554      3555      3550
 -1      1691    8    0    1
 -2       799       800       901      3226      3556      3557
 -1      1692    8    0    1
 -2       799       901       900      3557      3558      3553
 -1      1693    8    0    1
 -2       800       801       902      3229      3559      3560
 -1      1694    8    0    1
 -2       800       902       901      3560      3561      3556
 -1      1695    8    0    1
 -2       801       802       903      3232      3562      3563
 -1      1696    8    0    1
 -2       801       903       902      3563      3564      3559
 -1      1697    8    0    1
 -2       802       803       904      3235      3565      3566
 -1      1698    8    0    1
 -2       802       904       903      3566      3567      3562
 -1      1699    8    0    1
 -2       803       804       905      3238      3568      3569
 -1      1700    8    0    1
 -2       803       905       904      3569      3570      3565
 -1      1701    8    0    1
 -2       804       805       906      3241      3571      3572
 -1      1702    8    0    1
 -2       804       906       905      3572      3573      3568
 -1      1703    8    0    1
 -2       805       806       907      3244      3574      3575
 -1      1704    8    0    1
 -2       805       907       906      3575      3576      3571
 -1      1705    8    0    1
 -2       806       807       908      3247      3577      3578
 -1      1706    8    0    1
 -2       806       908       907      3578      3579      3574
 -1      1707    8    0    1
 -2       807       808       909      3250      3580      3581
 -1      1708    8    0    1
 -2       807       909       908      3581      3582      3577
 -1      1709    8    0    1
 -2       808       809       910      3253      3583      3584
 -1      1710    8    0    1
 -2       808       910       909      3584      3585      3580
 -1      1711    8    0    1
 -2       809       810       911      3256      3586      3587
 -1      1712    8    0    1
 -2       809       911       910      3587      3588      3583
 -1      1713    8    0    1
 -2       810       811       912      3259      3589      3590
 -1      1714    8    0    1
 -2       810       912       911      3590      3591      3586
 -1      1715    8    0    1
 -2       811       812       913      3262      3592      3593
 -1      1716    8    0    1
 -2       811       913       912      3593      3594      3589
 -1      1717    8    0    1
 -2       812       813       914      3265      3595      3596
 -1      1718    8    0    1
 -2       812       914       913      3596      3597      3592
 -1      1719    8    0    1
 -2       813       814       915      3268      3598      3599
 -1      1720    8    0    1
 -2       813       915       914      3599      3600      3595
 -1      1721    8    0    1
 -2       814       815       916      3271      3601      3602
 -1      1722    8    0    1
 -2       814       916       915      3602      3603      3598
 -1      1723    8    0    1
 -2       815       816       917      3274      3604      3605
 -1      1724    8    0    1
 -2       815       917       916      3605      3606      3601
 -1      1725    8    0    1
 -2       816       817       918      3277      3607      3608
 -1      1726    8    0    1
 -2       816       918       917      3608      3609      3604
 -1      1727    8    0    1
 -2       608       831       749      3321      3610      3070
 -1      1728    8    0    1
 -2       822       783       856      3290      3611      3612
 -1      1729    8    0    1
 -2       823       748       919      3293      3613      3614
 -1      1730    8    0    1
 -2       824       747       784      3296      3421      3615
 -1      1731    8    0    1
 -2       715       738       835      3301      3616      3414
 -1      1732    8    0    1
 -2       784       828       824      3376      3617      3615
 -1      1733    8    0    1
 -2       833       840       920      3365      3618      3619
 -1      1734    8    0    1
 -2       828       827       853      3312      3620      3621
 -1      1735    8    0    1
 -2       738       839       835      3346      3368      3616
 -1      1736    8    0    1
 -2       819       833       921      3377      3622      3623
 -1      1737    8    0    1
 -2       833       920       921      3619      3624      3622
 -1      1738    8    0    1
 -2       727       664       627      3018      3072      3068
 -1      1739    8    0    1
 -2       617       821       619      3319      3625      3325
 -1      1740    8    0    1
 -2       825       838       845      3341      3626      3627
 -1      1741    8    0    1
 -2       750       822       856      3519      3612      3422
 -1      1742    8    0    1
 -2       845       838       849      3626      3400      3628
 -1      1743    8    0    1
 -2       825       845       836      3627      3405      3629
 -1      1744    8    0    1
 -2       619       821       739      3625      3374      3004
 -1      1745    8    0    1
 -2       827       785       922      3309      3630      3631
 -1      1746    8    0    1
 -2       853       827       922      3620      3631      3632
 -1      1747    8    0    1
 -2       785       889       922      3521      3633      3630
 -1      1748    8    0    1
 -2       840       842       923      3404      3634      3635
 -1      1749    8    0    1
 -2       825       836       852      3629      3402      3636
 -1      1750    8    0    1
 -2       819       921       924      3623      3637      3638
 -1      1751    8    0    1
 -2       819       924       850      3638      3639      3394
 -1      1752    8    0    1
 -2       849       726       743      3391      3032      3640
 -1      1753    8    0    1
 -2       829       850       925      3393      3641      3642
 -1      1754    8    0    1
 -2       843       844       832      3413      3398      3643
 -1      1755    8    0    1
 -2       782       781       926      3175      3644      3645
 -1      1756    8    0    1
 -2       854       782       926      3412      3645      3646
 -1      1757    8    0    1
 -2       781       886       926      3512      3647      3644
 -1      1758    8    0    1
 -2       919       748       927      3613      3648      3649
 -1      1759    8    0    1
 -2       748       826       927      3305      3650      3648
 -1      1760    8    0    1
 -2       817       818       855      3280      3417      3651
 -1      1761    8    0    1
 -2       852       746       841      3419      3352      3652
 -1      1762    8    0    1
 -2       847       846       928      3381      3653      3654
 -1      1763    8    0    1
 -2       856       783       829      3611      3378      3655
 -1      1764    8    0    1
 -2       823       919       929      3614      3656      3657
 -1      1765    8    0    1
 -2       823       929       846      3657      3658      3371
 -1      1766    8    0    1
 -2       840       923       920      3635      3659      3618
 -1      1767    8    0    1
 -2       817       855       918      3651      3660      3607
 -1      1768    8    0    1
 -2       851       847       930      3395      3661      3662
 -1      1769    8    0    1
 -2       847       928       930      3654      3663      3661
 -1      1770    8    0    1
 -2       832       852       843      3420      3403      3643
 -1      1771    8    0    1
 -2       837       824       828      3367      3617      3664
 -1      1772    8    0    1
 -2       628       492       831      2686      3665      3399
 -1      1773    8    0    1
 -2       849       743       845      3640      3383      3628
 -1      1774    8    0    1
 -2       837       828       853      3664      3621      3406
 -1      1775    8    0    1
 -2       842       853       931      3408      3666      3667
 -1      1776    8    0    1
 -2       923       842       931      3634      3667      3668
 -1      1777    8    0    1
 -2       853       922       931      3632      3669      3666
 -1      1778    8    0    1
 -2       820       854       926      3411      3646      3670
 -1      1779    8    0    1
 -2       831       492       749      3665      3076      3610
 -1      1780    8    0    1
 -2       820       926       932      3670      3671      3672
 -1      1781    8    0    1
 -2       826       820       932      3306      3672      3673
 -1      1782    8    0    1
 -2       926       886       932      3647      3674      3671
 -1      1783    8    0    1
 -2       925       850       933      3641      3675      3676
 -1      1784    8    0    1
 -2       850       924       933      3639      3677      3675
 -1      1785    8    0    1
 -2       888       887       934      3518      3678      3679
 -1      1786    8    0    1
 -2       858       857       935      3429      3680      3681
 -1      1787    8    0    1
 -2       859       858       936      3432      3682      3683
 -1      1788    8    0    1
 -2       858       935       936      3681      3684      3682
 -1      1789    8    0    1
 -2       860       859       937      3435      3685      3686
 -1      1790    8    0    1
 -2       859       936       937      3683      3687      3685
 -1      1791    8    0    1
 -2       861       860       938      3438      3688      3689
 -1      1792    8    0    1
 -2       860       937       938      3686      3690      3688
 -1      1793    8    0    1
 -2       862       861       939      3441      3691      3692
 -1      1794    8    0    1
 -2       861       938       939      3689      3693      3691
 -1      1795    8    0    1
 -2       863       862       940      3444      3694      3695
 -1      1796    8    0    1
 -2       862       939       940      3692      3696      3694
 -1      1797    8    0    1
 -2       864       863       941      3447      3697      3698
 -1      1798    8    0    1
 -2       863       940       941      3695      3699      3697
 -1      1799    8    0    1
 -2       865       864       942      3450      3700      3701
 -1      1800    8    0    1
 -2       864       941       942      3698      3702      3700
 -1      1801    8    0    1
 -2       866       865       943      3453      3703      3704
 -1      1802    8    0    1
 -2       865       942       943      3701      3705      3703
 -1      1803    8    0    1
 -2       867       866       944      3456      3706      3707
 -1      1804    8    0    1
 -2       866       943       944      3704      3708      3706
 -1      1805    8    0    1
 -2       868       867       945      3459      3709      3710
 -1      1806    8    0    1
 -2       867       944       945      3707      3711      3709
 -1      1807    8    0    1
 -2       869       868       946      3462      3712      3713
 -1      1808    8    0    1
 -2       868       945       946      3710      3714      3712
 -1      1809    8    0    1
 -2       870       869       947      3465      3715      3716
 -1      1810    8    0    1
 -2       869       946       947      3713      3717      3715
 -1      1811    8    0    1
 -2       871       870       948      3468      3718      3719
 -1      1812    8    0    1
 -2       870       947       948      3716      3720      3718
 -1      1813    8    0    1
 -2       872       871       949      3471      3721      3722
 -1      1814    8    0    1
 -2       871       948       949      3719      3723      3721
 -1      1815    8    0    1
 -2       873       872       950      3474      3724      3725
 -1      1816    8    0    1
 -2       872       949       950      3722      3726      3724
 -1      1817    8    0    1
 -2       874       873       951      3477      3727      3728
 -1      1818    8    0    1
 -2       873       950       951      3725      3729      3727
 -1      1819    8    0    1
 -2       875       874       952      3480      3730      3731
 -1      1820    8    0    1
 -2       874       951       952      3728      3732      3730
 -1      1821    8    0    1
 -2       876       875       953      3483      3733      3734
 -1      1822    8    0    1
 -2       875       952       953      3731      3735      3733
 -1      1823    8    0    1
 -2       877       876       954      3486      3736      3737
 -1      1824    8    0    1
 -2       876       953       954      3734      3738      3736
 -1      1825    8    0    1
 -2       878       877       955      3489      3739      3740
 -1      1826    8    0    1
 -2       877       954       955      3737      3741      3739
 -1      1827    8    0    1
 -2       879       878       956      3492      3742      3743
 -1      1828    8    0    1
 -2       878       955       956      3740      3744      3742
 -1      1829    8    0    1
 -2       880       879       957      3495      3745      3746
 -1      1830    8    0    1
 -2       879       956       957      3743      3747      3745
 -1      1831    8    0    1
 -2       881       880       958      3498      3748      3749
 -1      1832    8    0    1
 -2       880       957       958      3746      3750      3748
 -1      1833    8    0    1
 -2       882       881       959      3501      3751      3752
 -1      1834    8    0    1
 -2       881       958       959      3749      3753      3751
 -1      1835    8    0    1
 -2       883       882       960      3504      3754      3755
 -1      1836    8    0    1
 -2       882       959       960      3752      3756      3754
 -1      1837    8    0    1
 -2       884       883       961      3507      3757      3758
 -1      1838    8    0    1
 -2       883       960       961      3755      3759      3757
 -1      1839    8    0    1
 -2       885       884       962      3510      3760      3761
 -1      1840    8    0    1
 -2       884       961       962      3758      3762      3760
 -1      1841    8    0    1
 -2       886       885       963      3513      3763      3764
 -1      1842    8    0    1
 -2       885       962       963      3761      3765      3763
 -1      1843    8    0    1
 -2       890       891       964      3528      3766      3767
 -1      1844    8    0    1
 -2       887       890       965      3525      3768      3769
 -1      1845    8    0    1
 -2       934       887       965      3678      3769      3770
 -1      1846    8    0    1
 -2       890       964       965      3767      3771      3768
 -1      1847    8    0    1
 -2       889       888       966      3522      3772      3773
 -1      1848    8    0    1
 -2       888       934       966      3679      3774      3772
 -1      1849    8    0    1
 -2       891       892       967      3531      3775      3776
 -1      1850    8    0    1
 -2       891       967       964      3776      3777      3766
 -1      1851    8    0    1
 -2       892       893       968      3534      3778      3779
 -1      1852    8    0    1
 -2       892       968       967      3779      3780      3775
 -1      1853    8    0    1
 -2       893       894       969      3537      3781      3782
 -1      1854    8    0    1
 -2       893       969       968      3782      3783      3778
 -1      1855    8    0    1
 -2       894       895       970      3540      3784      3785
 -1      1856    8    0    1
 -2       894       970       969      3785      3786      3781
 -1      1857    8    0    1
 -2       895       896       971      3543      3787      3788
 -1      1858    8    0    1
 -2       895       971       970      3788      3789      3784
 -1      1859    8    0    1
 -2       896       897       972      3546      3790      3791
 -1      1860    8    0    1
 -2       896       972       971      3791      3792      3787
 -1      1861    8    0    1
 -2       897       898       973      3549      3793      3794
 -1      1862    8    0    1
 -2       897       973       972      3794      3795      3790
 -1      1863    8    0    1
 -2       898       899       974      3552      3796      3797
 -1      1864    8    0    1
 -2       898       974       973      3797      3798      3793
 -1      1865    8    0    1
 -2       899       900       975      3555      3799      3800
 -1      1866    8    0    1
 -2       899       975       974      3800      3801      3796
 -1      1867    8    0    1
 -2       900       901       976      3558      3802      3803
 -1      1868    8    0    1
 -2       900       976       975      3803      3804      3799
 -1      1869    8    0    1
 -2       901       902       977      3561      3805      3806
 -1      1870    8    0    1
 -2       901       977       976      3806      3807      3802
 -1      1871    8    0    1
 -2       902       903       978      3564      3808      3809
 -1      1872    8    0    1
 -2       902       978       977      3809      3810      3805
 -1      1873    8    0    1
 -2       903       904       979      3567      3811      3812
 -1      1874    8    0    1
 -2       903       979       978      3812      3813      3808
 -1      1875    8    0    1
 -2       904       905       980      3570      3814      3815
 -1      1876    8    0    1
 -2       904       980       979      3815      3816      3811
 -1      1877    8    0    1
 -2       905       906       981      3573      3817      3818
 -1      1878    8    0    1
 -2       905       981       980      3818      3819      3814
 -1      1879    8    0    1
 -2       906       907       982      3576      3820      3821
 -1      1880    8    0    1
 -2       906       982       981      3821      3822      3817
 -1      1881    8    0    1
 -2       907       908       983      3579      3823      3824
 -1      1882    8    0    1
 -2       907       983       982      3824      3825      3820
 -1      1883    8    0    1
 -2       908       909       984      3582      3826      3827
 -1      1884    8    0    1
 -2       908       984       983      3827      3828      3823
 -1      1885    8    0    1
 -2       909       910       985      3585      3829      3830
 -1      1886    8    0    1
 -2       909       985       984      3830      3831      3826
 -1      1887    8    0    1
 -2       910       911       986      3588      3832      3833
 -1      1888    8    0    1
 -2       910       986       985      3833      3834      3829
 -1      1889    8    0    1
 -2       911       912       987      3591      3835      3836
 -1      1890    8    0    1
 -2       911       987       986      3836      3837      3832
 -1      1891    8    0    1
 -2       912       913       988      3594      3838      3839
 -1      1892    8    0    1
 -2       912       988       987      3839      3840      3835
 -1      1893    8    0    1
 -2       913       914       989      3597      3841      3842
 -1      1894    8    0    1
 -2       913       989       988      3842      3843      3838
 -1      1895    8    0    1
 -2       914       915       990      3600      3844      3845
 -1      1896    8    0    1
 -2       914       990       989      3845      3846      3841
 -1      1897    8    0    1
 -2       915       916       991      3603      3847      3848
 -1      1898    8    0    1
 -2       915       991       990      3848      3849      3844
 -1      1899    8    0    1
 -2       916       917       992      3606      3850      3851
 -1      1900    8    0    1
 -2       916       992       991      3851      3852      3847
 -1      1901    8    0    1
 -2       928       846       929      3653      3658      3853
 -1      1902    8    0    1
 -2       856       829       925      3655      3642      3854
 -1      1903    8    0    1
 -2       848       825       852      3387      3636      3855
 -1      1904    8    0    1
 -2       918       855       851      3660      3418      3856
 -1      1905    8    0    1
 -2       921       920       993      3624      3857      3858
 -1      1906    8    0    1
 -2       856       925       994      3854      3859      3860
 -1      1907    8    0    1
 -2       857       856       994      3426      3860      3861
 -1      1908    8    0    1
 -2       925       933       994      3676      3862      3859
 -1      1909    8    0    1
 -2       920       923       995      3659      3863      3864
 -1      1910    8    0    1
 -2       918       851       930      3856      3662      3865
 -1      1911    8    0    1
 -2       841       848       852      3386      3855      3652
 -1      1912    8    0    1
 -2       935       857       994      3680      3861      3866
 -1      1913    8    0    1
 -2       886       963       932      3764      3867      3674
 -1      1914    8    0    1
 -2       920       995       993      3864      3868      3857
 -1      1915    8    0    1
 -2       889       966       922      3773      3869      3633
 -1      1916    8    0    1
 -2       928       929       996      3853      3870      3871
 -1      1917    8    0    1
 -2       917       918       997      3609      3872      3873
 -1      1918    8    0    1
 -2       826       932       927      3673      3874      3650
 -1      1919    8    0    1
 -2       929       919       998      3656      3875      3876
 -1      1920    8    0    1
 -2       929       998       996      3876      3877      3870
 -1      1921    8    0    1
 -2       928       996       999      3871      3878      3879
 -1      1922    8    0    1
 -2       928       999       930      3879      3880      3663
 -1      1923    8    0    1
 -2       995       923       966      3863      3881      3882
 -1      1924    8    0    1
 -2       919       927      1000      3649      3883      3884
 -1      1925    8    0    1
 -2       919      1000       998      3884      3885      3875
 -1      1926    8    0    1
 -2       924       921      1001      3637      3886      3887
 -1      1927    8    0    1
 -2       921       993      1001      3858      3888      3886
 -1      1928    8    0    1
 -2       917       997       992      3873      3889      3850
 -1      1929    8    0    1
 -2       966       934      1002      3774      3890      3891
 -1      1930    8    0    1
 -2       966      1002       995      3891      3892      3882
 -1      1931    8    0    1
 -2       997       918       930      3872      3865      3893
 -1      1932    8    0    1
 -2       937       936      1003      3687      3894      3895
 -1      1933    8    0    1
 -2       938       937      1004      3690      3896      3897
 -1      1934    8    0    1
 -2       937      1003      1004      3895      3898      3896
 -1      1935    8    0    1
 -2       939       938      1005      3693      3899      3900
 -1      1936    8    0    1
 -2       938      1004      1005      3897      3901      3899
 -1      1937    8    0    1
 -2       940       939      1006      3696      3902      3903
 -1      1938    8    0    1
 -2       939      1005      1006      3900      3904      3902
 -1      1939    8    0    1
 -2       941       940      1007      3699      3905      3906
 -1      1940    8    0    1
 -2       940      1006      1007      3903      3907      3905
 -1      1941    8    0    1
 -2       942       941      1008      3702      3908      3909
 -1      1942    8    0    1
 -2       941      1007      1008      3906      3910      3908
 -1      1943    8    0    1
 -2       943       942      1009      3705      3911      3912
 -1      1944    8    0    1
 -2       942      1008      1009      3909      3913      3911
 -1      1945    8    0    1
 -2       944       943      1010      3708      3914      3915
 -1      1946    8    0    1
 -2       943      1009      1010      3912      3916      3914
 -1      1947    8    0    1
 -2       945       944      1011      3711      3917      3918
 -1      1948    8    0    1
 -2       944      1010      1011      3915      3919      3917
 -1      1949    8    0    1
 -2       946       945      1012      3714      3920      3921
 -1      1950    8    0    1
 -2       945      1011      1012      3918      3922      3920
 -1      1951    8    0    1
 -2       947       946      1013      3717      3923      3924
 -1      1952    8    0    1
 -2       946      1012      1013      3921      3925      3923
 -1      1953    8    0    1
 -2       948       947      1014      3720      3926      3927
 -1      1954    8    0    1
 -2       947      1013      1014      3924      3928      3926
 -1      1955    8    0    1
 -2       949       948      1015      3723      3929      3930
 -1      1956    8    0    1
 -2       948      1014      1015      3927      3931      3929
 -1      1957    8    0    1
 -2       950       949      1016      3726      3932      3933
 -1      1958    8    0    1
 -2       949      1015      1016      3930      3934      3932
 -1      1959    8    0    1
 -2       951       950      1017      3729      3935      3936
 -1      1960    8    0    1
 -2       950      1016      1017      3933      3937      3935
 -1      1961    8    0    1
 -2       952       951      1018      3732      3938      3939
 -1      1962    8    0    1
 -2       951      1017      1018      3936      3940      3938
 -1      1963    8    0    1
 -2       953       952      1019      3735      3941      3942
 -1      1964    8    0    1
 -2       952      1018      1019      3939      3943      3941
 -1      1965    8    0    1
 -2       954       953      1020      3738      3944      3945
 -1      1966    8    0    1
 -2       953      1019      1020      3942      3946      3944
 -1      1967    8    0    1
 -2       955       954      1021      3741      3947      3948
 -1      1968    8    0    1
 -2       954      1020      1021      3945      3949      3947
 -1      1969    8    0    1
 -2       956       955      1022      3744      3950      3951
 -1      1970    8    0    1
 -2       955      1021      1022      3948      3952      3950
 -1      1971    8    0    1
 -2       957       956      1023      3747      3953      3954
 -1      1972    8    0    1
 -2       956      1022      1023      3951      3955      3953
 -1      1973    8    0    1
 -2       958       957      1024      3750      3956      3957
 -1      1974    8    0    1
 -2       957      1023      1024      3954      3958      3956
 -1      1975    8    0    1
 -2       959       958      1025      3753      3959      3960
 -1      1976    8    0    1
 -2       958      1024      1025      3957      3961      3959
 -1      1977    8    0    1
 -2       960       959      1026      3756      3962      3963
 -1      1978    8    0    1
 -2       959      1025      1026      3960      3964      3962
 -1      1979    8    0    1
 -2       961       960      1027      3759      3965      3966
 -1      1980    8    0    1
 -2       960      1026      1027      3963      3967      3965
 -1      1981    8    0    1
 -2       962       961      1028      3762      3968      3969
 -1      1982    8    0    1
 -2       961      1027      1028      3966      3970      3968
 -1      1983    8    0    1
 -2       963       962      1029      3765      3971      3972
 -1      1984    8    0    1
 -2       962      1028      1029      3969      3973      3971
 -1      1985    8    0    1
 -2       967       968      1030      3780      3974      3975
 -1      1986    8    0    1
 -2       968       969      1031      3783      3976      3977
 -1      1987    8    0    1
 -2       968      1031      1030      3977      3978      3974
 -1      1988    8    0    1
 -2       969       970      1032      3786      3979      3980
 -1      1989    8    0    1
 -2       969      1032      1031      3980      3981      3976
 -1      1990    8    0    1
 -2       970       971      1033      3789      3982      3983
 -1      1991    8    0    1
 -2       970      1033      1032      3983      3984      3979
 -1      1992    8    0    1
 -2       971       972      1034      3792      3985      3986
 -1      1993    8    0    1
 -2       971      1034      1033      3986      3987      3982
 -1      1994    8    0    1
 -2       972       973      1035      3795      3988      3989
 -1      1995    8    0    1
 -2       972      1035      1034      3989      3990      3985
 -1      1996    8    0    1
 -2       973       974      1036      3798      3991      3992
 -1      1997    8    0    1
 -2       973      1036      1035      3992      3993      3988
 -1      1998    8    0    1
 -2       974       975      1037      3801      3994      3995
 -1      1999    8    0    1
 -2       974      1037      1036      3995      3996      3991
 -1      2000    8    0    1
 -2       975       976      1038      3804      3997      3998
 -1      2001    8    0    1
 -2       975      1038      1037      3998      3999      3994
 -1      2002    8    0    1
 -2       976       977      1039      3807      4000      4001
 -1      2003    8    0    1
 -2       976      1039      1038      4001      4002      3997
 -1      2004    8    0    1
 -2       977       978      1040      3810      4003      4004
 -1      2005    8    0    1
 -2       977      1040      1039      4004      4005      4000
 -1      2006    8    0    1
 -2       978       979      1041      3813      4006      4007
 -1      2007    8    0    1
 -2       978      1041      1040      4007      4008      4003
 -1      2008    8    0    1
 -2       979       980      1042      3816      4009      4010
 -1      2009    8    0    1
 -2       979      1042      1041      4010      4011      4006
 -1      2010    8    0    1
 -2       980       981      1043      3819      4012      4013
 -1      2011    8    0    1
 -2       980      1043      1042      4013      4014      4009
 -1      2012    8    0    1
 -2       981       982      1044      3822      4015      4016
 -1      2013    8    0    1
 -2       981      1044      1043      4016      4017      4012
 -1      2014    8    0    1
 -2       982       983      1045      3825      4018      4019
 -1      2015    8    0    1
 -2       982      1045      1044      4019      4020      4015
 -1      2016    8    0    1
 -2       983       984      1046      3828      4021      4022
 -1      2017    8    0    1
 -2       983      1046      1045      4022      4023      4018
 -1      2018    8    0    1
 -2       984       985      1047      3831      4024      4025
 -1      2019    8    0    1
 -2       984      1047      1046      4025      4026      4021
 -1      2020    8    0    1
 -2       985       986      1048      3834      4027      4028
 -1      2021    8    0    1
 -2       985      1048      1047      4028      4029      4024
 -1      2022    8    0    1
 -2       986       987      1049      3837      4030      4031
 -1      2023    8    0    1
 -2       986      1049      1048      4031      4032      4027
 -1      2024    8    0    1
 -2       987       988      1050      3840      4033      4034
 -1      2025    8    0    1
 -2       987      1050      1049      4034      4035      4030
 -1      2026    8    0    1
 -2       988       989      1051      3843      4036      4037
 -1      2027    8    0    1
 -2       988      1051      1050      4037      4038      4033
 -1      2028    8    0    1
 -2       989       990      1052      3846      4039      4040
 -1      2029    8    0    1
 -2       989      1052      1051      4040      4041      4036
 -1      2030    8    0    1
 -2       990       991      1053      3849      4042      4043
 -1      2031    8    0    1
 -2       990      1053      1052      4043      4044      4039
 -1      2032    8    0    1
 -2       991       992      1054      3852      4045      4046
 -1      2033    8    0    1
 -2       991      1054      1053      4046      4047      4042
 -1      2034    8    0    1
 -2       927       932       963      3874      3867      4048
 -1      2035    8    0    1
 -2       966       923       931      3881      3668      4049
 -1      2036    8    0    1
 -2       994       933      1055      3862      4050      4051
 -1      2037    8    0    1
 -2       994      1055       935      4051      4052      3866
 -1      2038    8    0    1
 -2       997       930       999      3893      3880      4053
 -1      2039    8    0    1
 -2       933       924      1056      3677      4054      4055
 -1      2040    8    0    1
 -2      1055       933      1056      4050      4055      4056
 -1      2041    8    0    1
 -2       924      1001      1056      3887      4057      4054
 -1      2042    8    0    1
 -2       964       967      1057      3777      4058      4059
 -1      2043    8    0    1
 -2       967      1030      1057      3975      4060      4058
 -1      2044    8    0    1
 -2       996       998      1058      3877      4061      4062
 -1      2045    8    0    1
 -2       936       935      1059      3684      4063      4064
 -1      2046    8    0    1
 -2      1003       936      1059      3894      4064      4065
 -1      2047    8    0    1
 -2       935      1055      1059      4052      4066      4063
 -1      2048    8    0    1
 -2       993       995      1002      3868      3892      4067
 -1      2049    8    0    1
 -2       992       997       999      3889      4053      4068
 -1      2050    8    0    1
 -2       927       963      1000      4048      4069      3883
 -1      2051    8    0    1
 -2       996      1058      1054      4062      4070      4071
 -1      2052    8    0    1
 -2       934       965      1060      3770      4072      4073
 -1      2053    8    0    1
 -2       934      1060      1002      4073      4074      3890
 -1      2054    8    0    1
 -2      1054       992       999      4045      4068      4075
 -1      2055    8    0    1
 -2       999       996      1054      3878      4071      4075
 -1      2056    8    0    1
 -2       922       966       931      3869      4049      3669
 -1      2057    8    0    1
 -2       965       964      1061      3771      4076      4077
 -1      2058    8    0    1
 -2      1060       965      1061      4072      4077      4078
 -1      2059    8    0    1
 -2       964      1057      1061      4059      4079      4076
 -1      2060    8    0    1
 -2       963      1029      1000      3972      4080      4069
 -1      2061    8    0    1
 -2       993      1002      1062      4067      4081      4082
 -1      2062    8    0    1
 -2      1001       993      1062      3888      4082      4083
 -1      2063    8    0    1
 -2      1002      1060      1062      4074      4084      4081
 -1      2064    8    0    1
 -2       998      1000      1063      3885      4085      4086
 -1      2065    8    0    1
 -2      1058       998      1063      4061      4086      4087
 -1      2066    8    0    1
 -2      1000      1029      1063      4080      4088      4085
 -1      2067    8    0    1
 -2      1004      1003      1064      3898      4089      4090
 -1      2068    8    0    1
 -2      1005      1004      1065      3901      4091      4092
 -1      2069    8    0    1
 -2      1004      1064      1065      4090      4093      4091
 -1      2070    8    0    1
 -2      1006      1005      1066      3904      4094      4095
 -1      2071    8    0    1
 -2      1005      1065      1066      4092      4096      4094
 -1      2072    8    0    1
 -2      1007      1006      1067      3907      4097      4098
 -1      2073    8    0    1
 -2      1006      1066      1067      4095      4099      4097
 -1      2074    8    0    1
 -2      1008      1007      1068      3910      4100      4101
 -1      2075    8    0    1
 -2      1007      1067      1068      4098      4102      4100
 -1      2076    8    0    1
 -2      1009      1008      1069      3913      4103      4104
 -1      2077    8    0    1
 -2      1008      1068      1069      4101      4105      4103
 -1      2078    8    0    1
 -2      1010      1009      1070      3916      4106      4107
 -1      2079    8    0    1
 -2      1009      1069      1070      4104      4108      4106
 -1      2080    8    0    1
 -2      1011      1010      1071      3919      4109      4110
 -1      2081    8    0    1
 -2      1010      1070      1071      4107      4111      4109
 -1      2082    8    0    1
 -2      1012      1011      1072      3922      4112      4113
 -1      2083    8    0    1
 -2      1011      1071      1072      4110      4114      4112
 -1      2084    8    0    1
 -2      1013      1012      1073      3925      4115      4116
 -1      2085    8    0    1
 -2      1012      1072      1073      4113      4117      4115
 -1      2086    8    0    1
 -2      1014      1013      1074      3928      4118      4119
 -1      2087    8    0    1
 -2      1013      1073      1074      4116      4120      4118
 -1      2088    8    0    1
 -2      1015      1014      1075      3931      4121      4122
 -1      2089    8    0    1
 -2      1014      1074      1075      4119      4123      4121
 -1      2090    8    0    1
 -2      1016      1015      1076      3934      4124      4125
 -1      2091    8    0    1
 -2      1015      1075      1076      4122      4126      4124
 -1      2092    8    0    1
 -2      1017      1016      1077      3937      4127      4128
 -1      2093    8    0    1
 -2      1016      1076      1077      4125      4129      4127
 -1      2094    8    0    1
 -2      1018      1017      1078      3940      4130      4131
 -1      2095    8    0    1
 -2      1017      1077      1078      4128      4132      4130
 -1      2096    8    0    1
 -2      1019      1018      1079      3943      4133      4134
 -1      2097    8    0    1
 -2      1018      1078      1079      4131      4135      4133
 -1      2098    8    0    1
 -2      1020      1019      1080      3946      4136      4137
 -1      2099    8    0    1
 -2      1019      1079      1080      4134      4138      4136
 -1      2100    8    0    1
 -2      1021      1020      1081      3949      4139      4140
 -1      2101    8    0    1
 -2      1020      1080      1081      4137      4141      4139
 -1      2102    8    0    1
 -2      1022      1021      1082      3952      4142      4143
 -1      2103    8    0    1
 -2      1021      1081      1082      4140      4144      4142
 -1      2104    8    0    1
 -2      1023      1022      1083      3955      4145      4146
 -1      2105    8    0    1
 -2      1022      1082      1083      4143      4147      4145
 -1      2106    8    0    1
 -2      1024      1023      1084      3958      4148      4149
 -1      2107    8    0    1
 -2      1023      1083      1084      4146      4150      4148
 -1      2108    8    0    1
 -2      1025      1024      1085      3961      4151      4152
 -1      2109    8    0    1
 -2      1024      1084      1085      4149      4153      4151
 -1      2110    8    0    1
 -2      1026      1025      1086      3964      4154      4155
 -1      2111    8    0    1
 -2      1025      1085      1086      4152      4156      4154
 -1      2112    8    0    1
 -2      1027      1026      1087      3967      4157      4158
 -1      2113    8    0    1
 -2      1026      1086      1087      4155      4159      4157
 -1      2114    8    0    1
 -2      1028      1027      1088      3970      4160      4161
 -1      2115    8    0    1
 -2      1027      1087      1088      4158      4162      4160
 -1      2116    8    0    1
 -2      1029      1028      1089      3973      4163      4164
 -1      2117    8    0    1
 -2      1063      1029      1089      4088      4164      4165
 -1      2118    8    0    1
 -2      1028      1088      1089      4161      4166      4163
 -1      2119    8    0    1
 -2      1031      1032      1090      3981      4167      4168
 -1      2120    8    0    1
 -2      1030      1031      1091      3978      4169      4170
 -1      2121    8    0    1
 -2      1031      1090      1091      4168      4171      4169
 -1      2122    8    0    1
 -2      1033      1034      1092      3987      4172      4173
 -1      2123    8    0    1
 -2      1034      1035      1093      3990      4174      4175
 -1      2124    8    0    1
 -2      1034      1093      1092      4175      4176      4172
 -1      2125    8    0    1
 -2      1035      1036      1094      3993      4177      4178
 -1      2126    8    0    1
 -2      1035      1094      1093      4178      4179      4174
 -1      2127    8    0    1
 -2      1036      1037      1095      3996      4180      4181
 -1      2128    8    0    1
 -2      1036      1095      1094      4181      4182      4177
 -1      2129    8    0    1
 -2      1037      1038      1096      3999      4183      4184
 -1      2130    8    0    1
 -2      1037      1096      1095      4184      4185      4180
 -1      2131    8    0    1
 -2      1038      1039      1097      4002      4186      4187
 -1      2132    8    0    1
 -2      1038      1097      1096      4187      4188      4183
 -1      2133    8    0    1
 -2      1039      1040      1098      4005      4189      4190
 -1      2134    8    0    1
 -2      1039      1098      1097      4190      4191      4186
 -1      2135    8    0    1
 -2      1040      1041      1099      4008      4192      4193
 -1      2136    8    0    1
 -2      1040      1099      1098      4193      4194      4189
 -1      2137    8    0    1
 -2      1041      1042      1100      4011      4195      4196
 -1      2138    8    0    1
 -2      1041      1100      1099      4196      4197      4192
 -1      2139    8    0    1
 -2      1042      1043      1101      4014      4198      4199
 -1      2140    8    0    1
 -2      1042      1101      1100      4199      4200      4195
 -1      2141    8    0    1
 -2      1043      1044      1102      4017      4201      4202
 -1      2142    8    0    1
 -2      1043      1102      1101      4202      4203      4198
 -1      2143    8    0    1
 -2      1044      1045      1103      4020      4204      4205
 -1      2144    8    0    1
 -2      1044      1103      1102      4205      4206      4201
 -1      2145    8    0    1
 -2      1045      1046      1104      4023      4207      4208
 -1      2146    8    0    1
 -2      1045      1104      1103      4208      4209      4204
 -1      2147    8    0    1
 -2      1046      1047      1105      4026      4210      4211
 -1      2148    8    0    1
 -2      1046      1105      1104      4211      4212      4207
 -1      2149    8    0    1
 -2      1047      1048      1106      4029      4213      4214
 -1      2150    8    0    1
 -2      1047      1106      1105      4214      4215      4210
 -1      2151    8    0    1
 -2      1048      1049      1107      4032      4216      4217
 -1      2152    8    0    1
 -2      1048      1107      1106      4217      4218      4213
 -1      2153    8    0    1
 -2      1049      1050      1108      4035      4219      4220
 -1      2154    8    0    1
 -2      1049      1108      1107      4220      4221      4216
 -1      2155    8    0    1
 -2      1050      1051      1109      4038      4222      4223
 -1      2156    8    0    1
 -2      1050      1109      1108      4223      4224      4219
 -1      2157    8    0    1
 -2      1051      1052      1110      4041      4225      4226
 -1      2158    8    0    1
 -2      1051      1110      1109      4226      4227      4222
 -1      2159    8    0    1
 -2      1052      1053      1111      4044      4228      4229
 -1      2160    8    0    1
 -2      1052      1111      1110      4229      4230      4225
 -1      2161    8    0    1
 -2      1053      1054      1112      4047      4231      4232
 -1      2162    8    0    1
 -2      1111      1053      1112      4228      4232      4233
 -1      2163    8    0    1
 -2      1054      1058      1112      4070      4234      4231
 -1      2164    8    0    1
 -2      1057      1030      1113      4060      4235      4236
 -1      2165    8    0    1
 -2      1030      1091      1113      4170      4237      4235
 -1      2166    8    0    1
 -2      1032      1033      1114      3984      4238      4239
 -1      2167    8    0    1
 -2      1090      1032      1114      4167      4239      4240
 -1      2168    8    0    1
 -2      1033      1092      1114      4173      4241      4238
 -1      2169    8    0    1
 -2      1055      1056      1115      4056      4242      4243
 -1      2170    8    0    1
 -2      1055      1115      1059      4243      4244      4066
 -1      2171    8    0    1
 -2      1058      1063      1116      4087      4245      4246
 -1      2172    8    0    1
 -2      1112      1058      1116      4234      4246      4247
 -1      2173    8    0    1
 -2      1063      1089      1116      4165      4248      4245
 -1      2174    8    0    1
 -2      1057      1113      1117      4236      4249      4250
 -1      2175    8    0    1
 -2      1057      1117      1061      4250      4251      4079
 -1      2176    8    0    1
 -2      1056      1001      1118      4057      4252      4253
 -1      2177    8    0    1
 -2      1056      1118      1115      4253      4254      4242
 -1      2178    8    0    1
 -2      1003      1059      1119      4065      4255      4256
 -1      2179    8    0    1
 -2      1064      1003      1119      4089      4256      4257
 -1      2180    8    0    1
 -2      1059      1115      1119      4244      4258      4255
 -1      2181    8    0    1
 -2      1001      1062      1118      4083      4259      4252
 -1      2182    8    0    1
 -2      1066      1065      1120      4096      4260      4261
 -1      2183    8    0    1
 -2      1067      1066      1090      4099      4262      4263
 -1      2184    8    0    1
 -2      1068      1067      1114      4102      4264      4265
 -1      2185    8    0    1
 -2      1069      1068      1092      4105      4266      4267
 -1      2186    8    0    1
 -2      1070      1069      1093      4108      4268      4269
 -1      2187    8    0    1
 -2      1071      1070      1094      4111      4270      4271
 -1      2188    8    0    1
 -2      1072      1071      1095      4114      4272      4273
 -1      2189    8    0    1
 -2      1073      1072      1096      4117      4274      4275
 -1      2190    8    0    1
 -2      1074      1073      1097      4120      4276      4277
 -1      2191    8    0    1
 -2      1075      1074      1098      4123      4278      4279
 -1      2192    8    0    1
 -2      1076      1075      1099      4126      4280      4281
 -1      2193    8    0    1
 -2      1077      1076      1100      4129      4282      4283
 -1      2194    8    0    1
 -2      1078      1077      1101      4132      4284      4285
 -1      2195    8    0    1
 -2      1079      1078      1102      4135      4286      4287
 -1      2196    8    0    1
 -2      1080      1079      1103      4138      4288      4289
 -1      2197    8    0    1
 -2      1081      1080      1104      4141      4290      4291
 -1      2198    8    0    1
 -2      1082      1081      1105      4144      4292      4293
 -1      2199    8    0    1
 -2      1083      1082      1106      4147      4294      4295
 -1      2200    8    0    1
 -2      1084      1083      1107      4150      4296      4297
 -1      2201    8    0    1
 -2      1085      1084      1108      4153      4298      4299
 -1      2202    8    0    1
 -2      1086      1085      1109      4156      4300      4301
 -1      2203    8    0    1
 -2      1087      1086      1110      4159      4302      4303
 -1      2204    8    0    1
 -2      1088      1087      1111      4162      4304      4305
 -1      2205    8    0    1
 -2      1093      1094      1070      4179      4270      4269
 -1      2206    8    0    1
 -2      1103      1079      1102      4288      4287      4206
 -1      2207    8    0    1
 -2      1092      1093      1069      4176      4268      4267
 -1      2208    8    0    1
 -2      1095      1096      1072      4185      4274      4273
 -1      2209    8    0    1
 -2      1096      1097      1073      4188      4276      4275
 -1      2210    8    0    1
 -2      1097      1098      1074      4191      4278      4277
 -1      2211    8    0    1
 -2      1098      1099      1075      4194      4280      4279
 -1      2212    8    0    1
 -2      1099      1100      1076      4197      4282      4281
 -1      2213    8    0    1
 -2      1100      1101      1077      4200      4284      4283
 -1      2214    8    0    1
 -2      1101      1102      1078      4203      4286      4285
 -1      2215    8    0    1
 -2      1103      1104      1080      4209      4290      4289
 -1      2216    8    0    1
 -2      1104      1105      1081      4212      4292      4291
 -1      2217    8    0    1
 -2      1105      1106      1082      4215      4294      4293
 -1      2218    8    0    1
 -2      1106      1107      1083      4218      4296      4295
 -1      2219    8    0    1
 -2      1107      1108      1084      4221      4298      4297
 -1      2220    8    0    1
 -2      1108      1109      1085      4224      4300      4299
 -1      2221    8    0    1
 -2      1109      1110      1086      4227      4302      4301
 -1      2222    8    0    1
 -2      1110      1111      1087      4230      4304      4303
 -1      2223    8    0    1
 -2      1111      1112      1088      4233      4306      4305
 -1      2224    8    0    1
 -2      1113      1091      1120      4237      4307      4308
 -1      2225    8    0    1
 -2      1118      1062      1121      4259      4309      4310
 -1      2226    8    0    1
 -2      1062      1060      1121      4084      4311      4309
 -1      2227    8    0    1
 -2      1060      1061      1121      4078      4312      4311
 -1      2228    8    0    1
 -2      1094      1095      1071      4182      4272      4271
 -1      2229    8    0    1
 -2      1065      1064      1117      4093      4313      4314
 -1      2230    8    0    1
 -2      1092      1068      1114      4266      4265      4241
 -1      2231    8    0    1
 -2      1061      1117      1121      4251      4315      4312
 -1      2232    8    0    1
 -2      1067      1090      1114      4263      4240      4264
 -1      2233    8    0    1
 -2      1091      1090      1066      4171      4262      4316
 -1      2234    8    0    1
 -2      1118      1121      1122      4310      4317      4318
 -1      2235    8    0    1
 -2      1115      1118      1122      4254      4318      4319
 -1      2236    8    0    1
 -2      1121      1117      1122      4315      4320      4317
 -1      2237    8    0    1
 -2      1065      1117      1120      4314      4321      4260
 -1      2238    8    0    1
 -2      1089      1088      1116      4166      4322      4248
 -1      2239    8    0    1
 -2      1119      1115      1122      4258      4319      4323
 -1      2240    8    0    1
 -2      1064      1119      1122      4257      4323      4324
 -1      2241    8    0    1
 -2      1117      1064      1122      4313      4324      4320
 -1      2242    8    0    1
 -2      1088      1112      1116      4306      4247      4322
 -1      2243    8    0    1
 -2      1091      1066      1120      4316      4261      4307
 -1      2244    8    0    1
 -2      1113      1120      1117      4308      4321      4249
 -3
    1PSTEP                         1           1           1          
  100CL  101 1.000000000        4324                     0    1           1
 -4  DISP        4    1
 -5  D1          1    2    1    0
 -5  D2          1    2    2    0
 -5  D3          1    2    3    0
 -5  ALL         1    2    0    0    1ALL
 -1         1 9.03884E-04-4.94994E-04-2.37402E-15
 -1         2 5.04128E-03-3.47950E-04-8.06798E-15
 -1         3 1.47545E-02-1.50698E-03-1.55019E-13
 -1         4 1.56434E-02-2.93582E-03-1.49952E-13
 -1         5 0.00000E+00 0.00000E+00 0.00000E+00
 -1         6 0.00000E+00 0.00000E+00 0.00000E+00
 -1         7 0.00000E+00 0.00000E+00 0.00000E+00
 -1         8 0.00000E+00 0.00000E+00 0.00000E+00
 -1         9 0.00000E+00 0.00000E+00 0.00000E+00
 -1        10 0.00000E+00 0.00000E+00 0.00000E+00
 -1        11 0.00000E+00 0.00000E+00 0.00000E+00
 -1        12 0.00000E+00 0.00000E+00 0.00000E+00
 -1        13 0.00000E+00 0.00000E+00 0.00000E+00
 -1        14 0.00000E+00 0.00000E+00 0.00000E+00
 -1        15 0.00000E+00 0.00000E+00 0.00000E+00
 -1        16 0.00000E+00 0.00000E+00 0.00000E+00
 -1        17 0.00000E+00 0.00000E+00 0.00000E+00
 -1        18 0.00000E+00 0.00000E+00 0.00000E+00
 -1        19 0.00000E+00 0.00000E+00 0.00000E+00
 -1        20 0.00000E+00 0.00000E+00 0.00000E+00
 -1        21 0.00000E+00 0.00000E+00 0.00000E+00
 -1        22 0.00000E+00 0.00000E+00 0.00000E+00
 -1        23 5.19053E-04-2.81041E-04 5.86215E-17
 -1        24 9.27640E-04-4.42989E-04-2.35678E-17
 -1        25 1.32671E-03-5.98172E-04-2.48276E-16
 -1        26 1.72018E-03-7.67998E-04-6.20570E-16
 -1        27 2.09716E-03-9.58027E-04-1.14565E-15
 -1        28 2.44245E-03-1.15582E-03-1.82752E-15
 -1        29 2.74578E-03-1.33155E-03-2.67762E-15
 -1        30 3.01281E-03-1.44760E-03-3.70321E-15
 -1        31 3.26785E-03-1.47930E-03-4.91519E-15
 -1        32 3.54185E-03-1.43186E-03-6.31103E-15
 -1        33 3.85424E-03-1.33732E-03-7.88051E-15
 -1        34 4.20478E-03-1.23487E-03-9.60389E-15
 -1        35 4.57948E-03-1.15285E-03-1.14793E-14
 -1        36 4.96151E-03-1.10344E-03-1.34977E-14
 -1        37 5.33817E-03-1.08676E-03-1.56467E-14
 -1        38 5.70266E-03-1.09704E-03-1.79204E-14
 -1        39 6.05276E-03-1.12710E-03-2.03036E-14
 -1        40 6.38902E-03-1.17055E-03-2.27907E-14
 -1        41 6.71322E-03-1.22246E-03-2.53844E-14
 -1        42 7.02755E-03-1.27931E-03-2.80821E-14
 -1        43 7.33406E-03-1.33874E-03-3.08875E-14
 -1        44 7.63458E-03-1.39923E-03-3.38038E-14
 -1        45 7.93057E-03-1.45983E-03-3.68329E-14
 -1        46 8.22322E-03-1.52002E-03-3.99968E-14
 -1        47 8.51344E-03-1.57950E-03-4.32829E-14
 -1        48 8.80193E-03-1.63815E-03-4.66812E-14
 -1        49 9.08921E-03-1.69597E-03-5.01754E-14
 -1        50 9.37566E-03-1.75301E-03-5.37670E-14
 -1        51 9.66158E-03-1.80933E-03-5.74577E-14
 -1        52 9.94716E-03-1.86504E-03-6.12471E-14
 -1        53 1.02326E-02-1.92023E-03-6.51268E-14
 -1        54 1.05179E-02-1.97498E-03-6.90900E-14
 -1        55 1.08031E-02-2.02938E-03-7.31372E-14
 -1        56 1.10884E-02-2.08351E-03-7.72614E-14
 -1        57 1.13737E-02-2.13741E-03-8.14654E-14
 -1        58 1.16591E-02-2.19115E-03-8.57408E-14
 -1        59 1.19445E-02-2.24476E-03-9.00799E-14
 -1        60 1.22299E-02-2.29828E-03-9.44859E-14
 -1        61 1.25154E-02-2.35173E-03-9.89549E-14
 -1        62 1.28010E-02-2.40512E-03-1.03481E-13
 -1        63 1.30866E-02-2.45849E-03-1.08060E-13
 -1        64 1.33722E-02-2.51184E-03-1.12672E-13
 -1        65 1.36578E-02-2.56517E-03-1.17319E-13
 -1        66 1.39435E-02-2.61849E-03-1.21979E-13
 -1        67 1.42292E-02-2.67182E-03-1.26652E-13
 -1        68 1.45149E-02-2.72514E-03-1.31327E-13
 -1        69 1.48006E-02-2.77847E-03-1.36014E-13
 -1        70 1.50863E-02-2.83181E-03-1.40717E-13
 -1        71 1.53720E-02-2.88515E-03-1.45440E-13
 -1        72 4.81519E-04 2.91614E-04 4.83419E-17
 -1        73 8.29661E-04 4.57753E-04-6.41915E-17
 -1        74 1.15654E-03 5.88357E-04-3.33789E-16
 -1        75 1.46895E-03 7.02354E-04-7.62851E-16
 -1        76 1.76574E-03 8.02812E-04-1.35478E-15
 -1        77 2.04495E-03 8.85126E-04-2.11014E-15
 -1        78 2.30728E-03 9.40516E-04-3.03136E-15
 -1        79 2.55785E-03 9.60150E-04-4.12165E-15
 -1        80 2.80558E-03 9.39445E-04-5.38097E-15
 -1        81 3.06055E-03 8.80712E-04-6.80706E-15
 -1        82 3.33044E-03 7.92791E-04-8.39387E-15
 -1        83 3.61837E-03 6.88044E-04-1.01360E-14
 -1        84 3.92277E-03 5.78543E-04-1.20278E-14
 -1        85 4.23907E-03 4.73346E-04-1.40655E-14
 -1        86 4.56174E-03 3.77598E-04-1.62523E-14
 -1        87 4.88586E-03 2.93043E-04-1.85842E-14
 -1        88 5.20790E-03 2.19135E-04-2.10499E-14
 -1        89 5.52572E-03 1.54135E-04-2.36431E-14
 -1        90 5.83841E-03 9.59216E-05-2.63622E-14
 -1        91 6.14585E-03 4.24649E-05-2.92042E-14
 -1        92 6.44847E-03-7.94398E-06-3.21652E-14
 -1        93 6.74689E-03-5.66275E-05-3.52390E-14
 -1        94 7.04184E-03-1.04542E-04-3.84217E-14
 -1        95 7.33404E-03-1.52337E-04-4.17101E-14
 -1        96 7.62412E-03-2.00420E-04-4.51003E-14
 -1        97 7.91261E-03-2.49021E-04-4.85954E-14
 -1        98 8.19995E-03-2.98244E-04-5.22136E-14
 -1        99 8.48649E-03-3.48114E-04-5.59314E-14
 -1       100 8.77248E-03-3.98599E-04-5.97424E-14
 -1       101 9.05812E-03-4.49643E-04-6.36479E-14
 -1       102 9.34355E-03-5.01171E-04-6.76356E-14
 -1       103 9.62888E-03-5.53111E-04-7.17088E-14
 -1       104 9.91417E-03-6.05388E-04-7.58616E-14
 -1       105 1.01995E-02-6.57937E-04-8.00996E-14
 -1       106 1.04848E-02-7.10702E-04-8.44404E-14
 -1       107 1.07701E-02-7.63633E-04-8.88774E-14
 -1       108 1.10556E-02-8.16691E-04-9.33854E-14
 -1       109 1.13410E-02-8.69842E-04-9.79530E-14
 -1       110 1.16265E-02-9.23063E-04-1.02577E-13
 -1       111 1.19121E-02-9.76331E-04-1.07239E-13
 -1       112 1.21977E-02-1.02963E-03-1.11943E-13
 -1       113 1.24833E-02-1.08296E-03-1.16681E-13
 -1       114 1.27689E-02-1.13629E-03-1.21452E-13
 -1       115 1.30546E-02-1.18964E-03-1.26249E-13
 -1       116 1.33403E-02-1.24298E-03-1.31047E-13
 -1       117 1.36260E-02-1.29633E-03-1.35859E-13
 -1       118 1.39117E-02-1.34966E-03-1.40699E-13
 -1       119 1.41974E-02-1.40300E-03-1.45549E-13
 -1       120 1.44831E-02-1.45632E-03-1.50403E-13
 -1       121 1.48070E-02-1.59127E-03-1.54817E-13
 -1       122 1.48594E-02-1.67555E-03-1.54615E-13
 -1       123 1.49118E-02-1.75984E-03-1.54398E-13
 -1       124 1.49642E-02-1.84414E-03-1.54180E-13
 -1       125 1.50167E-02-1.92844E-03-1.53943E-13
 -1       126 1.50682E-02-2.01132E-03-1.53686E-13
 -1       127 1.51206E-02-2.09564E-03-1.53428E-13
 -1       128 1.51731E-02-2.17996E-03-1.53173E-13
 -1       129 1.52255E-02-2.26428E-03-1.52893E-13
 -1       130 1.52780E-02-2.34860E-03-1.52563E-13
 -1       131 1.53304E-02-2.43292E-03-1.52213E-13
 -1       132 1.53820E-02-2.51580E-03-1.51852E-13
 -1       133 1.54345E-02-2.60010E-03-1.51469E-13
 -1       134 1.54869E-02-2.68439E-03-1.51083E-13
 -1       135 1.55394E-02-2.76868E-03-1.50708E-13
 -1       136 1.55919E-02-2.85297E-03-1.50327E-13
 -1       137 4.97724E-03-1.91629E-04-8.02480E-15
 -1       138 4.83032E-03-3.99899E-05-7.83529E-15
 -1       139 4.59544E-03 1.06274E-04-7.49662E-15
 -1       140 4.28435E-03 2.37237E-04-7.03336E-15
 -1       141 3.90394E-03 3.46605E-04-6.46580E-15
 -1       142 3.47818E-03 4.25868E-04-5.84042E-15
 -1       143 3.01715E-03 4.71161E-04-5.18483E-15
 -1       144 2.56540E-03 4.78808E-04-4.56781E-15
 -1       145 2.08967E-03 4.46904E-04-3.93364E-15
 -1       146 1.70346E-03 3.89310E-04-3.44142E-15
 -1       147 1.34247E-03 3.00255E-04-2.99052E-15
 -1       148 1.06455E-03 1.97406E-04-2.65069E-15
 -1       149 8.56858E-04 7.71176E-05-2.39714E-15
 -1       150 7.28720E-04-5.76377E-05-2.23649E-15
 -1       151 6.96880E-04-1.94987E-04-2.18469E-15
 -1       152 7.55693E-04-3.43195E-04-2.23084E-15
 -1       153 1.12786E-03-6.42073E-04-2.59987E-15
 -1       154 1.45621E-03-7.95330E-04-2.94379E-15
 -1       155 1.83758E-03-9.24671E-04-3.35996E-15
 -1       156 2.24529E-03-1.02134E-03-3.82530E-15
 -1       157 2.70991E-03-1.08760E-03-4.38645E-15
 -1       158 3.18267E-03-1.10951E-03-4.99844E-15
 -1       159 3.63731E-03-1.08627E-03-5.62712E-15
 -1       160 4.05869E-03-1.02039E-03-6.25568E-15
 -1       161 4.41679E-03-9.21718E-04-6.83328E-15
 -1       162 4.69577E-03-8.00798E-04-7.32207E-15
 -1       163 4.90146E-03-6.58582E-04-7.71333E-15
 -1       164 5.01790E-03-5.02711E-04-7.96720E-15
 -1       165 2.98586E-04-1.05804E-04-1.26039E-17
 -1       166 2.59060E-04-5.95923E-05-3.47148E-17
 -1       167 2.26679E-04-2.92979E-05-4.78574E-17
 -1       168 1.96145E-04-1.15879E-05-5.61820E-17
 -1       169 1.69865E-04-6.52061E-06-6.13929E-17
 -1       170 1.51741E-04-1.21487E-05-6.44457E-17
 -1       171 1.46527E-04-2.31117E-05-6.61567E-17
 -1       172 1.54701E-04-3.15655E-05-6.68411E-17
 -1       173 1.72272E-04-3.11066E-05-6.67022E-17
 -1       174 1.93230E-04-1.95137E-05-6.58992E-17
 -1       175 2.12423E-04 1.05217E-06-6.42661E-17
 -1       176 2.28453E-04 2.79281E-05-6.09356E-17
 -1       177 2.41624E-04 5.81428E-05-5.50775E-17
 -1       178 2.55102E-04 9.15634E-05-4.39508E-17
 -1       179 2.76395E-04 1.33401E-04-2.30054E-17
 -1       180 3.47242E-04 2.02116E-04-5.28549E-19
 -1       181 6.04054E-04-2.62691E-04-4.24804E-17
 -1       182 1.00065E-03-4.17433E-04-2.25541E-16
 -1       183 1.38634E-03-5.79005E-04-5.45381E-16
 -1       184 1.76398E-03-7.62448E-04-1.00961E-15
 -1       185 2.12902E-03-9.65477E-04-1.62539E-15
 -1       186 2.47503E-03-1.16612E-03-2.40298E-15
 -1       187 2.79963E-03-1.32510E-03-3.35328E-15
 -1       188 3.11013E-03-1.40339E-03-4.48327E-15
 -1       189 3.42186E-03-1.38830E-03-5.79731E-15
 -1       190 3.74844E-03-1.30352E-03-7.28897E-15
 -1       191 4.09356E-03-1.19256E-03-8.94563E-15
 -1       192 4.45170E-03-1.09350E-03-1.07547E-14
 -1       193 4.81397E-03-1.02657E-03-1.27108E-14
 -1       194 5.17279E-03-9.95892E-04-1.48005E-14
 -1       195 5.52355E-03-9.96636E-04-1.70169E-14
 -1       196 5.86428E-03-1.02103E-03-1.93486E-14
 -1       197 6.19481E-03-1.06163E-03-2.17869E-14
 -1       198 6.51599E-03-1.11254E-03-2.43311E-14
 -1       199 6.82913E-03-1.16950E-03-2.69829E-14
 -1       200 7.13561E-03-1.22965E-03-2.97390E-14
 -1       201 7.43676E-03-1.29113E-03-3.26087E-14
 -1       202 7.73373E-03-1.35282E-03-3.55908E-14
 -1       203 8.02747E-03-1.41404E-03-3.86951E-14
 -1       204 8.31879E-03-1.47448E-03-4.19259E-14
 -1       205 8.60829E-03-1.53397E-03-4.52680E-14
 -1       206 8.89648E-03-1.59250E-03-4.87155E-14
 -1       207 9.18371E-03-1.65012E-03-5.22607E-14
 -1       208 9.47028E-03-1.70693E-03-5.59066E-14
 -1       209 9.75640E-03-1.76302E-03-5.96480E-14
 -1       210 1.00422E-02-1.81851E-03-6.34857E-14
 -1       211 1.03279E-02-1.87350E-03-6.74084E-14
 -1       212 1.06134E-02-1.92808E-03-7.14150E-14
 -1       213 1.08989E-02-1.98234E-03-7.54989E-14
 -1       214 1.11843E-02-2.03634E-03-7.96627E-14
 -1       215 1.14698E-02-2.09015E-03-8.39083E-14
 -1       216 1.17553E-02-2.14381E-03-8.82204E-14
 -1       217 1.20408E-02-2.19736E-03-9.25923E-14
 -1       218 1.23264E-02-2.25083E-03-9.70271E-14
 -1       219 1.26119E-02-2.30424E-03-1.01527E-13
 -1       220 1.28975E-02-2.35761E-03-1.06077E-13
 -1       221 1.31832E-02-2.41096E-03-1.10674E-13
 -1       222 1.34688E-02-2.46429E-03-1.15301E-13
 -1       223 1.37545E-02-2.51761E-03-1.19950E-13
 -1       224 1.40401E-02-2.57093E-03-1.24617E-13
 -1       225 1.43258E-02-2.62425E-03-1.29296E-13
 -1       226 1.46115E-02-2.67758E-03-1.33987E-13
 -1       227 1.48972E-02-2.73091E-03-1.38690E-13
 -1       228 1.51829E-02-2.78425E-03-1.43407E-13
 -1       229 7.07583E-04 3.70208E-04-1.29474E-16
 -1       230 1.04725E-03 5.05846E-04-4.05044E-16
 -1       231 1.37073E-03 6.24133E-04-8.33907E-16
 -1       232 1.68026E-03 7.29359E-04-1.42119E-15
 -1       233 1.97621E-03 8.17289E-04-2.16972E-15
 -1       234 2.25981E-03 8.78665E-04-3.08320E-15
 -1       235 2.53459E-03 9.03580E-04-4.16436E-15
 -1       236 2.80641E-03 8.86332E-04-5.41297E-15
 -1       237 3.08186E-03 8.28675E-04-6.82674E-15
 -1       238 3.36612E-03 7.39695E-04-8.40182E-15
 -1       239 3.66148E-03 6.32597E-04-1.01331E-14
 -1       240 3.96716E-03 5.20408E-04-1.20135E-14
 -1       241 4.28037E-03 4.12890E-04-1.40399E-14
 -1       242 4.59757E-03 3.15532E-04-1.62094E-14
 -1       243 4.91550E-03 2.30124E-04-1.85213E-14
 -1       244 5.23171E-03 1.56001E-04-2.09670E-14
 -1       245 5.54467E-03 9.12438E-05-2.35418E-14
 -1       246 5.85362E-03 3.35517E-05-2.62404E-14
 -1       247 6.15843E-03-1.92478E-05-2.90595E-14
 -1       248 6.45934E-03-6.89655E-05-3.20010E-14
 -1       249 6.75678E-03-1.16989E-04-3.50557E-14
 -1       250 7.05130E-03-1.64313E-04-3.82205E-14
 -1       251 7.34343E-03-2.11600E-04-4.14894E-14
 -1       252 7.63366E-03-2.59262E-04-4.48628E-14
 -1       253 7.92245E-03-3.07524E-04-4.83470E-14
 -1       254 8.21014E-03-3.56482E-04-5.19459E-14
 -1       255 8.49705E-03-4.06148E-04-5.56443E-14
 -1       256 8.78340E-03-4.56482E-04-5.94351E-14
 -1       257 9.06936E-03-5.07414E-04-6.33182E-14
 -1       258 9.35508E-03-5.58864E-04-6.72898E-14
 -1       259 9.64065E-03-6.10749E-04-7.13456E-14
 -1       260 9.92614E-03-6.62991E-04-7.54845E-14
 -1       261 1.02116E-02-7.15518E-04-7.97129E-14
 -1       262 1.04970E-02-7.68270E-04-8.40356E-14
 -1       263 1.07825E-02-8.21196E-04-8.84471E-14
 -1       264 1.10680E-02-8.74252E-04-9.29318E-14
 -1       265 1.13535E-02-9.27405E-04-9.74789E-14
 -1       266 1.16391E-02-9.80627E-04-1.02081E-13
 -1       267 1.19246E-02-1.03390E-03-1.06725E-13
 -1       268 1.22102E-02-1.08721E-03-1.11414E-13
 -1       269 1.24959E-02-1.14053E-03-1.16141E-13
 -1       270 1.27815E-02-1.19387E-03-1.20902E-13
 -1       271 1.30672E-02-1.24722E-03-1.25685E-13
 -1       272 1.33529E-02-1.30057E-03-1.30474E-13
 -1       273 1.36386E-02-1.35391E-03-1.35278E-13
 -1       274 1.39243E-02-1.40726E-03-1.40110E-13
 -1       275 1.42100E-02-1.46059E-03-1.44958E-13
 -1       276 1.44957E-02-1.51392E-03-1.49811E-13
 -1       277 1.45857E-02-1.58723E-03-1.50514E-13
 -1       278 1.46382E-02-1.67152E-03-1.50308E-13
 -1       279 1.46906E-02-1.75582E-03-1.50089E-13
 -1       280 1.47430E-02-1.84012E-03-1.49862E-13
 -1       281 1.47945E-02-1.92299E-03-1.49625E-13
 -1       282 1.48470E-02-2.00730E-03-1.49378E-13
 -1       283 1.48994E-02-2.09161E-03-1.49122E-13
 -1       284 1.49518E-02-2.17593E-03-1.48849E-13
 -1       285 1.50043E-02-2.26025E-03-1.48552E-13
 -1       286 1.50567E-02-2.34456E-03-1.48228E-13
 -1       287 1.51083E-02-2.42744E-03-1.47887E-13
 -1       288 1.51608E-02-2.51175E-03-1.47525E-13
 -1       289 1.52133E-02-2.59604E-03-1.47152E-13
 -1       290 1.52657E-02-2.68034E-03-1.46774E-13
 -1       291 1.52243E-02-2.73229E-03-1.45089E-13
 -1       292 5.04117E-03-3.26366E-04-8.93154E-15
 -1       293 4.89604E-03-2.27126E-04-8.67082E-15
 -1       294 4.64346E-03-1.12298E-04-8.37723E-15
 -1       295 4.31550E-03 4.73833E-05-7.82166E-15
 -1       296 3.93690E-03 2.19564E-04-7.17593E-15
 -1       297 3.53759E-03 3.82246E-04-6.46009E-15
 -1       298 3.15133E-03 5.05325E-04-5.67537E-15
 -1       299 2.78207E-03 5.52283E-04-4.90959E-15
 -1       300 2.41150E-03 5.29160E-04-4.16762E-15
 -1       301 2.02381E-03 4.20804E-04-3.55210E-15
 -1       302 1.67677E-03 2.79474E-04-2.99842E-15
 -1       303 1.31101E-03 1.44881E-04-2.61371E-15
 -1       304 1.01555E-03 2.36068E-05-2.30401E-15
 -1       305 7.94683E-04-8.68253E-05-2.02872E-15
 -1       306 6.82649E-04-1.48416E-04-1.96820E-15
 -1       307 6.99215E-04-2.12197E-04-1.94827E-15
 -1       308 8.44861E-04-3.01670E-04-2.05870E-15
 -1       309 1.09039E-03-4.29771E-04-2.26179E-15
 -1       310 1.43709E-03-5.85059E-04-2.52516E-15
 -1       311 1.82133E-03-7.89638E-04-2.94409E-15
 -1       312 2.19590E-03-9.74439E-04-3.43786E-15
 -1       313 2.57949E-03-1.11645E-03-4.00611E-15
 -1       314 2.95746E-03-1.18825E-03-4.68869E-15
 -1       315 3.33037E-03-1.16014E-03-5.43176E-15
 -1       316 3.70453E-03-1.05595E-03-6.21958E-15
 -1       317 4.08871E-03-9.03770E-04-6.95708E-15
 -1       318 4.44562E-03-7.50009E-04-7.59618E-15
 -1       319 4.74218E-03-6.04560E-04-8.19473E-15
 -1       320 4.96252E-03-4.94343E-04-8.56258E-15
 -1       321 5.06447E-03-4.02817E-04-8.84393E-15
 -1       322 5.02083E-04-1.16118E-04-1.69847E-16
 -1       323 5.74485E-04-1.85325E-04-1.33093E-16
 -1       324 3.67952E-04-3.84725E-05-2.09600E-16
 -1       325 3.14592E-04-3.17781E-05-2.19930E-16
 -1       326 2.87024E-04-4.09732E-05-2.26608E-16
 -1       327 2.92585E-04-5.30900E-05-2.30342E-16
 -1       328 3.26168E-04-5.40980E-05-2.32392E-16
 -1       329 3.73543E-04-3.63118E-05-2.32588E-16
 -1       330 4.19659E-04-1.17003E-06-2.30803E-16
 -1       331 4.58327E-04 4.70468E-05-2.25785E-16
 -1       332 4.88174E-04 1.02343E-04-2.15478E-16
 -1       333 5.14194E-04 1.62408E-04-1.96651E-16
 -1       334 5.47189E-04 2.30388E-04-1.63430E-16
 -1       335 6.17643E-04 2.96144E-04-1.54011E-16
 -1       336 9.58447E-04 4.32085E-04-4.29869E-16
 -1       337 1.07746E-03-3.96037E-04-4.55561E-16
 -1       338 1.45047E-03-5.63748E-04-8.64197E-16
 -1       339 1.82622E-03-7.59063E-04-1.41623E-15
 -1       340 2.19982E-03-9.73060E-04-2.12139E-15
 -1       341 2.56223E-03-1.17307E-03-2.99264E-15
 -1       342 2.90905E-03-1.30715E-03-4.04124E-15
 -1       343 3.24919E-03-1.33602E-03-5.27420E-15
 -1       344 3.59720E-03-1.26787E-03-6.69056E-15
 -1       345 3.95793E-03-1.15137E-03-8.27973E-15
 -1       346 4.32382E-03-1.03728E-03-1.00261E-14
 -1       347 4.68500E-03-9.54514E-04-1.19190E-14
 -1       348 5.03598E-03-9.10709E-04-1.39526E-14
 -1       349 5.37562E-03-9.01795E-04-1.61136E-14
 -1       350 5.70496E-03-9.19699E-04-1.83928E-14
 -1       351 6.02559E-03-9.56356E-04-2.07823E-14
 -1       352 6.33900E-03-1.00519E-03-2.32772E-14
 -1       353 6.64647E-03-1.06137E-03-2.58788E-14
 -1       354 6.94908E-03-1.12155E-03-2.85898E-14
 -1       355 7.24775E-03-1.18354E-03-3.14097E-14
 -1       356 7.54325E-03-1.24597E-03-3.43425E-14
 -1       357 7.83623E-03-1.30804E-03-3.73939E-14
 -1       358 8.12724E-03-1.36930E-03-4.05680E-14
 -1       359 8.41673E-03-1.42957E-03-4.38585E-14
 -1       360 8.70508E-03-1.48879E-03-4.72555E-14
 -1       361 8.99257E-03-1.54701E-03-5.07547E-14
 -1       362 9.27943E-03-1.60431E-03-5.43528E-14
 -1       363 9.56584E-03-1.66082E-03-5.80521E-14
 -1       364 9.85194E-03-1.71663E-03-6.18430E-14
 -1       365 1.01378E-02-1.77188E-03-6.57241E-14
 -1       366 1.04236E-02-1.82667E-03-6.96901E-14
 -1       367 1.07092E-02-1.88108E-03-7.37370E-14
 -1       368 1.09948E-02-1.93520E-03-7.78641E-14
 -1       369 1.12804E-02-1.98909E-03-8.20725E-14
 -1       370 1.15660E-02-2.04282E-03-8.63507E-14
 -1       371 1.18516E-02-2.09641E-03-9.06956E-14
 -1       372 1.21372E-02-2.14991E-03-9.51034E-14
 -1       373 1.24228E-02-2.20334E-03-9.95713E-14
 -1       374 1.27084E-02-2.25672E-03-1.04097E-13
 -1       375 1.29941E-02-2.31008E-03-1.08677E-13
 -1       376 1.32797E-02-2.36341E-03-1.13291E-13
 -1       377 1.35654E-02-2.41673E-03-1.17929E-13
 -1       378 1.38511E-02-2.47005E-03-1.22584E-13
 -1       379 1.41368E-02-2.52337E-03-1.27257E-13
 -1       380 1.44225E-02-2.57669E-03-1.31947E-13
 -1       381 1.47082E-02-2.63002E-03-1.36651E-13
 -1       382 1.49663E-02-2.68115E-03-1.40865E-13
 -1       383 1.28891E-03 5.52757E-04-8.53633E-16
 -1       384 1.60854E-03 6.61721E-04-1.43164E-15
 -1       385 1.91708E-03 7.54995E-04-2.16884E-15
 -1       386 2.21497E-03 8.22943E-04-3.06913E-15
 -1       387 2.50455E-03 8.54414E-04-4.13590E-15
 -1       388 2.79052E-03 8.42133E-04-5.37000E-15
 -1       389 3.07848E-03 7.86926E-04-6.76915E-15
 -1       390 3.37289E-03 6.97960E-04-8.32954E-15
 -1       391 3.67546E-03 5.89358E-04-1.00458E-14
 -1       392 3.98519E-03 4.75157E-04-1.19122E-14
 -1       393 4.29952E-03 3.65814E-04-1.39232E-14
 -1       394 4.61554E-03 2.67121E-04-1.60757E-14
 -1       395 4.93086E-03 1.80911E-04-1.83691E-14
 -1       396 5.24383E-03 1.06441E-04-2.07941E-14
 -1       397 5.55351E-03 4.16734E-05-2.33490E-14
 -1       398 5.85955E-03-1.58033E-05-2.60260E-14
 -1       399 6.16197E-03-6.82549E-05-2.88242E-14
 -1       400 6.46105E-03-1.17563E-04-3.17437E-14
 -1       401 6.75719E-03-1.65164E-04-3.47800E-14
 -1       402 7.05084E-03-2.12084E-04-3.79255E-14
 -1       403 7.34244E-03-2.59007E-04-4.11759E-14
 -1       404 7.63242E-03-3.06352E-04-4.45323E-14
 -1       405 7.92112E-03-3.54346E-04-4.79999E-14
 -1       406 8.20885E-03-4.03085E-04-5.15798E-14
 -1       407 8.49586E-03-4.52574E-04-5.52590E-14
 -1       408 8.78235E-03-5.02769E-04-5.90300E-14
 -1       409 9.06847E-03-5.53595E-04-6.28957E-14
 -1       410 9.35434E-03-6.04965E-04-6.68500E-14
 -1       411 9.64006E-03-6.56792E-04-7.08882E-14
 -1       412 9.92567E-03-7.08991E-04-7.50118E-14
 -1       413 1.02112E-02-7.61488E-04-7.92233E-14
 -1       414 1.04968E-02-8.14220E-04-8.35294E-14
 -1       415 1.07823E-02-8.67133E-04-8.79198E-14
 -1       416 1.10679E-02-9.20181E-04-9.23861E-14
 -1       417 1.13534E-02-9.73330E-04-9.69162E-14
 -1       418 1.16390E-02-1.02655E-03-1.01498E-13
 -1       419 1.19246E-02-1.07982E-03-1.06129E-13
 -1       420 1.22103E-02-1.13313E-03-1.10803E-13
 -1       421 1.24959E-02-1.18646E-03-1.15518E-13
 -1       422 1.27816E-02-1.23980E-03-1.20265E-13
 -1       423 1.30672E-02-1.29315E-03-1.25038E-13
 -1       424 1.33529E-02-1.34650E-03-1.29820E-13
 -1       425 1.36386E-02-1.39985E-03-1.34620E-13
 -1       426 1.39243E-02-1.45319E-03-1.39446E-13
 -1       427 1.42100E-02-1.50653E-03-1.44287E-13
 -1       428 1.43979E-02-1.54688E-03-1.47400E-13
 -1       429 1.44694E-02-1.75178E-03-1.45784E-13
 -1       430 1.44170E-02-1.66749E-03-1.46003E-13
 -1       431 1.44074E-02-1.60718E-03-1.46704E-13
 -1       432 1.45209E-02-1.83466E-03-1.45559E-13
 -1       433 1.45733E-02-1.91896E-03-1.45316E-13
 -1       434 1.46257E-02-2.00327E-03-1.45066E-13
 -1       435 1.46782E-02-2.08759E-03-1.44803E-13
 -1       436 1.47306E-02-2.17190E-03-1.44525E-13
 -1       437 1.47831E-02-2.25621E-03-1.44226E-13
 -1       438 1.48347E-02-2.33909E-03-1.43907E-13
 -1       439 1.48871E-02-2.42340E-03-1.43566E-13
 -1       440 1.49396E-02-2.50770E-03-1.43210E-13
 -1       441 1.49921E-02-2.59200E-03-1.42849E-13
 -1       442 4.77150E-03-2.45735E-04-9.33898E-15
 -1       443 5.08894E-03-3.81324E-04-9.87545E-15
 -1       444 4.96935E-03-3.18573E-04-9.60517E-15
 -1       445 4.41953E-03-1.09834E-04-8.89649E-15
 -1       446 4.10015E-03 4.93974E-05-8.19178E-15
 -1       447 4.33626E-04-6.67283E-05-1.93737E-16
 -1       448 3.28352E-03 4.58577E-04-6.29661E-15
 -1       449 2.92359E-03 5.71012E-04-5.36850E-15
 -1       450 2.62878E-03 5.85219E-04-4.58988E-15
 -1       451 2.21704E-03 4.78349E-04-3.64560E-15
 -1       452 1.91933E-03 3.47336E-04-3.09055E-15
 -1       453 1.50653E-03 1.52793E-04-2.50822E-15
 -1       454 1.21729E-03 3.26973E-05-2.21484E-15
 -1       455 9.49532E-04-6.63139E-05-1.94137E-15
 -1       456 7.00885E-04-1.38916E-04-1.69559E-15
 -1       457 6.59384E-04-1.59916E-04-1.66881E-15
 -1       458 7.60655E-04-1.98448E-04-1.71012E-15
 -1       459 9.88956E-04-2.92299E-04-1.91857E-15
 -1       460 1.28622E-03-4.13708E-04-2.10349E-15
 -1       461 1.70648E-03-6.41075E-04-2.52095E-15
 -1       462 2.10578E-03-8.69921E-04-2.99295E-15
 -1       463 2.44234E-03-1.05754E-03-3.56266E-15
 -1       464 2.79619E-03-1.19603E-03-4.23889E-15
 -1       465 3.15194E-03-1.22119E-03-5.15904E-15
 -1       466 3.43875E-03-1.14984E-03-5.92683E-15
 -1       467 3.85683E-03-9.64235E-04-7.04232E-15
 -1       468 4.23124E-03-7.80376E-04-7.81634E-15
 -1       469 4.55580E-03-6.24091E-04-8.60342E-15
 -1       470 4.86554E-03-4.97347E-04-9.16857E-15
 -1       471 5.03608E-03-4.27260E-04-9.54326E-15
 -1       472 3.66634E-03 2.70144E-04-7.30319E-15
 -1       473 2.42037E-03 5.57235E-04-4.03068E-15
 -1       474 7.91650E-04-1.16880E-04-1.59804E-15
 -1       475 1.07350E-03 4.09054E-04-6.97193E-16
 -1       476 4.34600E-04-6.43482E-05-4.74626E-16
 -1       477 5.08586E-04-7.01896E-05-4.60325E-16
 -1       478 4.55844E-04-7.74473E-05-4.91140E-16
 -1       479 5.32626E-04-5.64269E-05-4.95443E-16
 -1       480 6.14532E-04-9.46445E-06-4.96504E-16
 -1       481 6.84506E-04 5.73093E-05-4.93136E-16
 -1       482 7.36160E-04 1.33851E-04-4.82490E-16
 -1       483 7.75212E-04 2.14544E-04-4.60603E-16
 -1       484 1.40531E-03 5.23624E-04-1.21100E-15
 -1       485 1.14588E-03-3.74454E-04-7.13744E-16
 -1       486 1.51281E-03-5.45234E-04-1.20482E-15
 -1       487 1.89740E-03-7.52252E-04-1.83860E-15
 -1       488 2.29160E-03-9.83862E-04-2.62882E-15
 -1       489 2.67773E-03-1.18588E-03-3.59199E-15
 -1       490 3.05000E-03-1.28085E-03-4.74139E-15
 -1       491 3.42392E-03-1.23854E-03-6.08069E-15
 -1       492 3.81005E-03-1.11106E-03-7.60191E-15
 -1       493 4.19790E-03-9.76209E-04-9.28851E-15
 -1       494 4.57076E-03-8.77938E-04-1.11246E-14
 -1       495 4.92197E-03-8.24513E-04-1.31007E-14
 -1       496 5.25372E-03-8.09319E-04-1.52078E-14
 -1       497 5.57129E-03-8.22667E-04-1.74352E-14
 -1       498 5.87951E-03-8.55916E-04-1.97753E-14
 -1       499 6.18171E-03-9.02341E-04-2.22219E-14
 -1       500 6.47992E-03-9.56991E-04-2.47752E-14
 -1       501 6.77532E-03-1.01637E-03-2.74376E-14
 -1       502 7.06861E-03-1.07811E-03-3.02084E-14
 -1       503 7.36023E-03-1.14067E-03-3.30897E-14
 -1       504 7.65052E-03-1.20309E-03-3.60880E-14
 -1       505 7.93973E-03-1.26483E-03-3.92085E-14
 -1       506 8.22806E-03-1.32561E-03-4.24464E-14
 -1       507 8.51570E-03-1.38534E-03-4.57952E-14
 -1       508 8.80280E-03-1.44403E-03-4.92476E-14
 -1       509 9.08947E-03-1.50175E-03-5.28014E-14
 -1       510 9.37583E-03-1.55861E-03-5.64528E-14
 -1       511 9.66196E-03-1.61472E-03-6.02010E-14
 -1       512 9.94793E-03-1.67022E-03-6.40377E-14
 -1       513 1.02338E-02-1.72520E-03-6.79622E-14
 -1       514 1.05195E-02-1.77977E-03-7.19711E-14
 -1       515 1.08053E-02-1.83401E-03-7.60617E-14
 -1       516 1.10909E-02-1.88799E-03-8.02325E-14
 -1       517 1.13766E-02-1.94178E-03-8.44796E-14
 -1       518 1.16623E-02-1.99543E-03-8.87953E-14
 -1       519 1.19479E-02-2.04896E-03-9.31756E-14
 -1       520 1.22336E-02-2.10242E-03-9.76171E-14
 -1       521 1.25193E-02-2.15582E-03-1.02115E-13
 -1       522 1.28049E-02-2.20918E-03-1.06671E-13
 -1       523 1.30906E-02-2.26252E-03-1.11273E-13
 -1       524 1.33763E-02-2.31585E-03-1.15900E-13
 -1       525 1.36620E-02-2.36917E-03-1.20547E-13
 -1       526 1.39477E-02-2.42248E-03-1.25212E-13
 -1       527 1.42334E-02-2.47580E-03-1.29894E-13
 -1       528 1.45191E-02-2.52912E-03-1.34600E-13
 -1       529 4.90123E-03-3.21438E-04-1.05244E-14
 -1       530 2.04957E-03 7.17603E-04-2.70251E-15
 -1       531 2.35822E-03 7.74512E-04-3.69166E-15
 -1       532 2.66013E-03 7.87176E-04-4.84776E-15
 -1       533 2.96087E-03 7.50572E-04-6.16962E-15
 -1       534 3.26604E-03 6.71109E-04-7.65616E-15
 -1       535 3.57819E-03 5.64084E-04-9.30107E-15
 -1       536 3.89593E-03 4.46612E-04-1.10981E-14
 -1       537 4.21590E-03 3.32073E-04-1.30406E-14
 -1       538 4.53478E-03 2.28081E-04-1.51251E-14
 -1       539 4.85042E-03 1.37330E-04-1.73483E-14
 -1       540 5.16187E-03 5.93560E-05-1.97040E-14
 -1       541 5.46900E-03-7.88227E-06-2.21873E-14
 -1       542 5.77214E-03-6.69294E-05-2.47939E-14
 -1       543 6.07180E-03-1.20227E-04-2.75225E-14
 -1       544 6.36850E-03-1.69835E-04-3.03721E-14
 -1       545 6.66274E-03-2.17355E-04-3.33409E-14
 -1       546 6.95499E-03-2.63949E-04-3.64213E-14
 -1       547 7.24562E-03-3.10407E-04-3.96122E-14
 -1       548 7.53497E-03-3.57227E-04-4.29075E-14
 -1       549 7.82332E-03-4.04693E-04-4.63115E-14
 -1       550 8.11090E-03-4.52932E-04-4.98260E-14
 -1       551 8.39789E-03-5.01973E-04-5.34471E-14
 -1       552 8.68445E-03-5.51778E-04-5.71619E-14
 -1       553 8.97069E-03-6.02275E-04-6.09701E-14
 -1       554 9.25671E-03-6.53374E-04-6.48730E-14
 -1       555 9.54257E-03-7.04982E-04-6.88577E-14
 -1       556 9.82833E-03-7.57008E-04-7.29268E-14
 -1       557 1.01140E-02-8.09372E-04-7.70861E-14
 -1       558 1.03997E-02-8.62003E-04-8.13357E-14
 -1       559 1.06853E-02-9.14840E-04-8.56738E-14
 -1       560 1.09709E-02-9.67833E-04-9.00896E-14
 -1       561 1.12566E-02-1.02094E-03-9.45743E-14
 -1       562 1.15422E-02-1.07414E-03-9.91148E-14
 -1       563 1.18279E-02-1.12739E-03-1.03710E-13
 -1       564 1.21135E-02-1.18069E-03-1.08352E-13
 -1       565 1.23992E-02-1.23401E-03-1.13033E-13
 -1       566 1.26849E-02-1.28735E-03-1.17747E-13
 -1       567 1.29705E-02-1.34070E-03-1.22499E-13
 -1       568 1.32562E-02-1.39405E-03-1.27269E-13
 -1       569 1.35419E-02-1.44740E-03-1.32051E-13
 -1       570 1.38276E-02-1.50075E-03-1.36859E-13
 -1       571 1.41133E-02-1.55409E-03-1.41693E-13
 -1       572 1.42997E-02-1.83062E-03-1.41261E-13
 -1       573 1.43521E-02-1.91493E-03-1.41017E-13
 -1       574 1.41957E-02-1.66345E-03-1.41708E-13
 -1       575 1.42477E-02-1.74703E-03-1.41491E-13
 -1       576 1.44045E-02-1.99924E-03-1.40765E-13
 -1       577 1.44570E-02-2.08356E-03-1.40498E-13
 -1       578 1.45094E-02-2.16787E-03-1.40214E-13
 -1       579 1.45610E-02-2.25075E-03-1.39917E-13
 -1       580 1.46135E-02-2.33506E-03-1.39593E-13
 -1       581 1.46659E-02-2.41936E-03-1.39260E-13
 -1       582 1.47184E-02-2.50366E-03-1.38916E-13
 -1       583 5.10627E-03-4.12101E-04-1.06707E-14
 -1       584 1.73163E-03 6.29425E-04-1.87724E-15
 -1       585 4.62587E-03-2.24727E-04-1.00451E-14
 -1       586 4.22396E-03-4.83621E-05-9.25932E-15
 -1       587 8.10325E-04-2.30671E-04-3.92823E-16
 -1       588 5.00316E-03-4.48082E-04-1.02731E-14
 -1       589 3.00134E-03-1.24942E-03-4.69773E-15
 -1       590 4.15675E-04-7.44546E-05-4.84272E-16
 -1       591 3.42312E-03 3.80663E-04-7.10123E-15
 -1       592 8.73932E-04-2.00517E-04-1.51542E-15
 -1       593 2.77386E-03 6.07607E-04-5.07892E-15
 -1       594 3.09138E-03 5.32555E-04-6.07781E-15
 -1       595 2.07556E-03 4.25940E-04-3.20439E-15
 -1       596 1.07245E-03-3.58595E-05-1.80625E-15
 -1       597 1.31240E-03 5.74028E-05-2.05714E-15
 -1       598 1.70441E-03 2.42345E-04-2.54210E-15
 -1       599 6.38603E-04-1.38910E-04-1.37854E-15
 -1       600 4.10646E-03-8.48325E-04-8.16002E-15
 -1       601 6.61627E-04-1.45689E-04-1.37033E-15
 -1       602 1.10296E-03-2.84395E-04-1.66555E-15
 -1       603 1.51757E-03-4.90602E-04-2.06050E-15
 -1       604 1.91893E-03-7.25963E-04-2.48895E-15
 -1       605 2.32663E-03-9.80293E-04-3.11316E-15
 -1       606 2.64091E-03-1.14909E-03-3.72846E-15
 -1       607 3.32589E-03-1.21332E-03-5.72932E-15
 -1       608 3.64746E-03-1.08568E-03-6.76363E-15
 -1       609 4.39504E-03-7.01999E-04-8.96577E-15
 -1       610 4.75817E-03-5.37449E-04-9.73389E-15
 -1       611 5.07928E-03-3.75961E-04-1.08037E-14
 -1       612 8.10317E-04 3.23995E-04-3.82395E-16
 -1       613 3.84554E-03 1.49572E-04-8.30475E-15
 -1       614 6.13158E-04-1.05277E-04-4.39488E-16
 -1       615 1.47133E-02-2.56684E-03-1.37783E-13
 -1       616 8.76709E-04-8.76231E-05-1.46660E-15
 -1       617 6.73880E-04-1.26723E-04-1.28002E-15
 -1       618 7.87102E-04-2.48440E-05-8.47667E-16
 -1       619 6.56431E-04-8.30795E-05-8.38647E-16
 -1       620 9.84501E-04 1.56735E-04-8.52556E-16
 -1       621 1.03866E-03 2.55165E-04-8.33236E-16
 -1       622 1.20206E-03 3.80094E-04-9.90808E-16
 -1       623 7.07664E-04-1.36782E-04-1.14761E-15
 -1       624 5.04995E-03-3.68149E-04-1.17112E-14
 -1       625 5.11295E-03-4.44258E-04-1.15238E-14
 -1       626 4.48305E-03-1.60443E-04-1.06487E-14
 -1       627 1.55338E-03-5.18698E-04-1.56212E-15
 -1       628 4.08500E-03-9.22461E-04-8.53066E-15
 -1       629 4.47486E-03-8.02023E-04-1.03144E-14
 -1       630 4.82836E-03-7.40904E-04-1.22352E-14
 -1       631 5.15257E-03-7.23263E-04-1.42864E-14
 -1       632 5.45759E-03-7.35101E-04-1.64621E-14
 -1       633 5.75205E-03-7.66474E-04-1.87517E-14
 -1       634 6.04136E-03-8.10808E-04-2.11508E-14
 -1       635 6.32847E-03-8.63528E-04-2.36549E-14
 -1       636 6.61482E-03-9.21381E-04-2.62676E-14
 -1       637 6.90101E-03-9.82064E-04-2.89888E-14
 -1       638 7.18723E-03-1.04399E-03-3.18198E-14
 -1       639 7.47351E-03-1.10613E-03-3.47661E-14
 -1       640 7.75980E-03-1.16782E-03-3.78315E-14
 -1       641 8.04606E-03-1.22872E-03-4.10160E-14
 -1       642 8.33226E-03-1.28865E-03-4.43152E-14
 -1       643 8.61839E-03-1.34758E-03-4.77213E-14
 -1       644 8.90444E-03-1.40556E-03-5.12276E-14
 -1       645 9.19042E-03-1.46266E-03-5.48325E-14
 -1       646 9.47633E-03-1.51900E-03-5.85350E-14
 -1       647 9.76219E-03-1.57468E-03-6.23304E-14
 -1       648 1.00480E-02-1.62983E-03-6.62143E-14
 -1       649 1.03338E-02-1.68453E-03-7.01817E-14
 -1       650 1.06195E-02-1.73888E-03-7.42355E-14
 -1       651 1.09053E-02-1.79295E-03-7.83690E-14
 -1       652 1.11910E-02-1.84680E-03-8.25826E-14
 -1       653 1.14767E-02-1.90049E-03-8.68694E-14
 -1       654 1.17624E-02-1.95406E-03-9.12232E-14
 -1       655 1.20481E-02-2.00755E-03-9.56394E-14
 -1       656 1.23339E-02-2.06097E-03-1.00112E-13
 -1       657 1.26196E-02-2.11435E-03-1.04642E-13
 -1       658 1.29053E-02-2.16769E-03-1.09223E-13
 -1       659 1.31910E-02-2.22103E-03-1.13841E-13
 -1       660 1.34767E-02-2.27435E-03-1.18478E-13
 -1       661 1.37624E-02-2.32766E-03-1.23135E-13
 -1       662 1.40481E-02-2.38098E-03-1.27812E-13
 -1       663 1.43338E-02-2.43430E-03-1.32512E-13
 -1       664 2.11776E-03-8.55091E-04-2.49549E-15
 -1       665 4.81841E-03-2.94683E-04-1.13119E-14
 -1       666 2.20126E-03 6.81050E-04-3.24773E-15
 -1       667 3.14527E-03 6.45771E-04-6.97922E-15
 -1       668 3.46828E-03 5.38843E-04-8.55412E-15
 -1       669 3.79768E-03 4.15686E-04-1.02832E-14
 -1       670 4.12830E-03 2.94606E-04-1.21606E-14
 -1       671 4.45490E-03 1.85455E-04-1.41791E-14
 -1       672 4.77465E-03 9.12366E-05-1.63356E-14
 -1       673 5.08700E-03 1.10879E-05-1.86240E-14
 -1       674 5.39274E-03-5.74879E-05-2.10386E-14
 -1       675 5.69316E-03-1.17340E-04-2.35772E-14
 -1       676 5.98956E-03-1.71077E-04-2.62371E-14
 -1       677 6.28300E-03-2.20858E-04-2.90178E-14
 -1       678 6.57431E-03-2.68348E-04-3.19181E-14
 -1       679 6.86409E-03-3.14763E-04-3.49334E-14
 -1       680 7.15274E-03-3.60944E-04-3.80608E-14
 -1       681 7.44059E-03-4.07429E-04-4.12959E-14
 -1       682 7.72784E-03-4.54537E-04-4.46359E-14
 -1       683 8.01465E-03-5.02423E-04-4.80884E-14
 -1       684 8.30114E-03-5.51130E-04-5.16489E-14
 -1       685 8.58739E-03-6.00634E-04-5.53064E-14
 -1       686 8.87346E-03-6.50867E-04-5.90595E-14
 -1       687 9.15941E-03-7.01741E-04-6.29046E-14
 -1       688 9.44527E-03-7.53162E-04-6.68415E-14
 -1       689 9.73107E-03-8.05036E-04-7.08602E-14
 -1       690 1.00168E-02-8.57279E-04-7.49660E-14
 -1       691 1.03025E-02-9.09813E-04-7.91612E-14
 -1       692 1.05883E-02-9.62576E-04-8.34445E-14
 -1       693 1.08739E-02-1.01551E-03-8.78109E-14
 -1       694 1.11596E-02-1.06858E-03-9.22487E-14
 -1       695 1.14453E-02-1.12175E-03-9.67488E-14
 -1       696 1.17310E-02-1.17498E-03-1.01306E-13
 -1       697 1.20167E-02-1.22826E-03-1.05912E-13
 -1       698 1.23024E-02-1.28158E-03-1.10560E-13
 -1       699 1.25881E-02-1.33491E-03-1.15247E-13
 -1       700 1.28738E-02-1.38826E-03-1.19969E-13
 -1       701 1.31595E-02-1.44161E-03-1.24719E-13
 -1       702 1.34452E-02-1.49496E-03-1.29491E-13
 -1       703 1.37309E-02-1.54831E-03-1.34282E-13
 -1       704 1.39633E-02-1.60588E-03-1.37990E-13
 -1       705 1.41833E-02-1.99521E-03-1.36481E-13
 -1       706 5.77998E-04-1.15677E-04-1.02403E-15
 -1       707 1.40784E-02-1.82658E-03-1.36984E-13
 -1       708 1.42357E-02-2.07953E-03-1.36208E-13
 -1       709 1.41309E-02-1.91090E-03-1.36739E-13
 -1       710 1.42873E-02-2.16241E-03-1.35924E-13
 -1       711 1.43398E-02-2.24672E-03-1.35622E-13
 -1       712 1.43923E-02-2.33103E-03-1.35308E-13
 -1       713 1.87428E-03 5.96299E-04-2.33815E-15
 -1       714 3.63340E-03 2.75465E-04-8.15551E-15
 -1       715 1.02083E-03-2.74905E-04-7.77786E-16
 -1       716 1.45242E-02-2.46594E-03-1.35721E-13
 -1       717 2.51398E-03 6.05123E-04-4.27121E-15
 -1       718 1.14223E-03 7.87047E-06-1.63649E-15
 -1       719 2.83090E-03 7.13078E-04-5.56818E-15
 -1       720 2.51852E-03 7.25231E-04-4.32384E-15
 -1       721 9.03554E-04 5.99077E-05-8.58136E-16
 -1       722 5.17808E-03-4.12547E-04-1.19764E-14
 -1       723 1.53936E-03 4.91048E-04-1.58806E-15
 -1       724 5.99409E-04-9.85973E-05-7.72575E-16
 -1       725 4.69262E-03-6.13095E-04-1.04525E-14
 -1       726 2.96586E-03 5.86267E-04-5.85913E-15
 -1       727 1.68365E-03-5.78410E-04-1.94459E-15
 -1       728 4.93888E-03-5.01017E-04-1.09540E-14
 -1       729 1.85042E-03 3.51956E-04-2.60267E-15
 -1       730 1.44585E-03 1.40779E-04-1.99475E-15
 -1       731 9.37270E-04-2.04531E-04-1.28936E-15
 -1       732 3.52325E-03-1.17783E-03-6.44784E-15
 -1       733 1.29411E-03-3.60608E-04-1.55711E-15
 -1       734 2.21628E-03 5.19739E-04-3.41728E-15
 -1       735 4.06036E-03 5.04936E-05-9.64672E-15
 -1       736 4.31863E-03-7.91208E-04-9.27745E-15
 -1       737 3.24580E-03 4.79167E-04-6.85868E-15
 -1       738 7.40370E-04-1.35474E-04-7.51061E-16
 -1       739 5.53034E-04-1.04016E-04-8.26247E-16
 -1       740 5.24566E-04-9.43461E-05-7.69702E-16
 -1       741 2.41467E-03-1.03444E-03-3.13162E-15
 -1       742 1.40153E-02-1.68946E-03-1.37786E-13
 -1       743 2.71170E-03 6.35993E-04-4.97233E-15
 -1       744 1.43630E-02-2.38267E-03-1.33911E-13
 -1       745 1.40469E-02-1.75802E-03-1.37391E-13
 -1       746 1.30655E-03 2.91056E-04-1.31006E-15
 -1       747 3.14152E-03 5.50927E-04-6.69127E-15
 -1       748 1.40141E-02-2.07478E-03-1.31943E-13
 -1       749 3.83413E-03-1.05023E-03-7.61332E-15
 -1       750 5.08939E-03-6.27183E-04-1.33822E-14
 -1       751 5.37207E-03-6.43018E-04-1.55022E-14
 -1       752 5.64556E-03-6.75866E-04-1.77409E-14
 -1       753 5.91684E-03-7.19513E-04-2.00916E-14
 -1       754 6.18896E-03-7.70454E-04-2.25484E-14
 -1       755 6.46317E-03-8.26242E-04-2.51111E-14
 -1       756 6.73972E-03-8.85032E-04-2.77812E-14
 -1       757 7.01842E-03-9.45431E-04-3.05621E-14
 -1       758 7.29893E-03-1.00643E-03-3.34591E-14
 -1       759 7.58087E-03-1.06734E-03-3.64744E-14
 -1       760 7.86391E-03-1.12774E-03-3.96069E-14
 -1       761 8.14775E-03-1.18738E-03-4.28525E-14
 -1       762 8.43219E-03-1.24617E-03-4.62116E-14
 -1       763 8.71705E-03-1.30410E-03-4.96723E-14
 -1       764 9.00221E-03-1.36121E-03-5.32305E-14
 -1       765 9.28758E-03-1.41760E-03-5.68877E-14
 -1       766 9.57310E-03-1.47335E-03-6.06408E-14
 -1       767 9.85872E-03-1.52856E-03-6.44845E-14
 -1       768 1.01444E-02-1.58332E-03-6.84130E-14
 -1       769 1.04301E-02-1.63773E-03-7.24253E-14
 -1       770 1.07158E-02-1.69185E-03-7.65237E-14
 -1       771 1.10016E-02-1.74575E-03-8.06991E-14
 -1       772 1.12874E-02-1.79948E-03-8.49543E-14
 -1       773 1.15731E-02-1.85308E-03-8.92839E-14
 -1       774 1.18589E-02-1.90659E-03-9.36785E-14
 -1       775 1.21446E-02-1.96003E-03-9.81286E-14
 -1       776 1.24304E-02-2.01342E-03-1.02632E-13
 -1       777 1.27161E-02-2.06678E-03-1.07191E-13
 -1       778 1.30018E-02-2.12012E-03-1.11792E-13
 -1       779 1.32876E-02-2.17344E-03-1.16417E-13
 -1       780 1.35733E-02-2.22676E-03-1.21068E-13
 -1       781 1.38590E-02-2.28008E-03-1.25743E-13
 -1       782 1.41110E-02-2.33137E-03-1.29815E-13
 -1       783 5.11293E-03-4.90495E-04-1.22888E-14
 -1       784 3.35069E-03 5.20273E-04-7.80319E-15
 -1       785 4.37886E-03 1.36953E-04-1.32372E-14
 -1       786 4.70530E-03 3.99985E-05-1.53304E-14
 -1       787 5.01999E-03-4.05385E-05-1.75535E-14
 -1       788 5.32481E-03-1.08612E-04-1.99022E-14
 -1       789 5.62234E-03-1.67820E-04-2.23735E-14
 -1       790 5.91489E-03-2.21047E-04-2.49662E-14
 -1       791 6.20426E-03-2.70489E-04-2.76789E-14
 -1       792 6.49170E-03-3.17766E-04-3.05125E-14
 -1       793 6.77806E-03-3.64032E-04-3.34616E-14
 -1       794 7.06386E-03-4.10085E-04-3.65255E-14
 -1       795 7.34939E-03-4.56442E-04-3.96978E-14
 -1       796 7.63484E-03-5.03412E-04-4.29780E-14
 -1       797 7.92030E-03-5.51151E-04-4.63653E-14
 -1       798 8.20580E-03-5.99707E-04-4.98646E-14
 -1       799 8.49135E-03-6.49063E-04-5.34675E-14
 -1       800 8.77696E-03-6.99156E-04-5.71624E-14
 -1       801 9.06261E-03-7.49902E-04-6.09534E-14
 -1       802 9.34830E-03-8.01208E-04-6.48365E-14
 -1       803 9.63401E-03-8.52983E-04-6.88061E-14
 -1       804 9.91973E-03-9.05141E-04-7.28603E-14
 -1       805 1.02055E-02-9.57606E-04-7.70034E-14
 -1       806 1.04912E-02-1.01031E-03-8.12328E-14
 -1       807 1.07769E-02-1.06320E-03-8.55489E-14
 -1       808 1.10627E-02-1.11624E-03-8.99434E-14
 -1       809 1.13484E-02-1.16937E-03-9.44016E-14
 -1       810 1.16342E-02-1.22259E-03-9.89190E-14
 -1       811 1.19199E-02-1.27585E-03-1.03488E-13
 -1       812 1.22056E-02-1.32915E-03-1.08101E-13
 -1       813 1.24913E-02-1.38248E-03-1.12755E-13
 -1       814 1.27771E-02-1.43582E-03-1.17449E-13
 -1       815 1.30628E-02-1.48917E-03-1.22177E-13
 -1       816 1.33485E-02-1.54252E-03-1.26935E-13
 -1       817 1.36342E-02-1.59587E-03-1.31713E-13
 -1       818 1.38248E-02-1.64267E-03-1.34747E-13
 -1       819 5.20868E-03-4.07230E-04-1.31049E-14
 -1       820 1.41186E-02-2.24270E-03-1.31363E-13
 -1       821 6.02529E-04-1.17238E-04-1.03801E-15
 -1       822 4.92659E-03-5.69065E-04-1.17604E-14
 -1       823 1.39616E-02-1.99047E-03-1.32217E-13
 -1       824 3.47778E-03 3.89894E-04-7.97178E-15
 -1       825 2.02839E-03 5.67311E-04-2.81088E-15
 -1       826 1.40663E-02-2.15874E-03-1.31658E-13
 -1       827 4.04079E-03 2.52838E-04-1.12821E-14
 -1       828 3.69534E-03 3.84828E-04-9.46800E-15
 -1       829 5.24428E-03-4.49538E-04-1.29771E-14
 -1       830 8.90338E-04-5.12734E-05-1.20529E-15
 -1       831 3.93120E-03-9.96451E-04-7.95473E-15
 -1       832 1.23338E-03 1.76981E-04-1.31999E-15
 -1       833 5.01670E-03-3.46868E-04-1.26166E-14
 -1       834 4.70067E-03-6.72348E-04-1.10334E-14
 -1       835 1.01559E-03-2.39463E-04-1.04310E-15
 -1       836 1.97806E-03 4.65467E-04-2.76816E-15
 -1       837 3.83953E-03 2.06074E-04-9.41585E-15
 -1       838 2.36534E-03 6.50550E-04-3.80343E-15
 -1       839 8.42932E-04-1.67830E-04-1.00362E-15
 -1       840 4.74426E-03-2.44276E-04-1.21030E-14
 -1       841 1.42745E-03 3.92419E-04-1.45053E-15
 -1       842 4.38214E-03-7.16706E-05-1.12990E-14
 -1       843 1.53018E-03 2.45314E-04-1.90967E-15
 -1       844 1.20905E-03 7.80262E-05-1.50580E-15
 -1       845 2.34381E-03 6.03570E-04-3.74327E-15
 -1       846 1.39092E-02-1.90615E-03-1.32480E-13
 -1       847 1.38568E-02-1.82183E-03-1.32726E-13
 -1       848 1.72753E-03 4.81025E-04-2.07096E-15
 -1       849 2.72559E-03 6.63760E-04-5.08485E-15
 -1       850 5.33023E-03-4.44696E-04-1.41395E-14
 -1       851 1.38252E-02-1.75327E-03-1.33130E-13
 -1       852 1.66118E-03 3.67064E-04-2.03737E-15
 -1       853 4.16869E-03 7.51233E-05-1.10356E-14
 -1       854 1.41148E-02-2.28704E-03-1.30591E-13
 -1       855 1.38250E-02-1.69797E-03-1.33943E-13
 -1       856 5.31275E-03-5.56448E-04-1.45455E-14
 -1       857 5.55603E-03-5.92245E-04-1.67315E-14
 -1       858 5.80413E-03-6.35812E-04-1.90304E-14
 -1       859 6.05846E-03-6.84770E-04-2.14384E-14
 -1       860 6.31884E-03-7.37849E-04-2.39536E-14
 -1       861 6.58455E-03-7.93889E-04-2.65733E-14
 -1       862 6.85477E-03-8.51841E-04-2.93033E-14
 -1       863 7.12867E-03-9.10822E-04-3.21502E-14
 -1       864 7.40550E-03-9.70154E-04-3.51152E-14
 -1       865 7.68463E-03-1.02936E-03-3.81973E-14
 -1       866 7.96553E-03-1.08813E-03-4.13937E-14
 -1       867 8.24777E-03-1.14631E-03-4.47003E-14
 -1       868 8.53103E-03-1.20381E-03-4.81133E-14
 -1       869 8.81504E-03-1.26063E-03-5.16241E-14
 -1       870 9.09961E-03-1.31683E-03-5.52376E-14
 -1       871 9.38458E-03-1.37246E-03-5.89468E-14
 -1       872 9.66983E-03-1.42760E-03-6.27503E-14
 -1       873 9.95528E-03-1.48234E-03-6.66396E-14
 -1       874 1.02409E-02-1.53673E-03-7.06115E-14
 -1       875 1.05265E-02-1.59085E-03-7.46711E-14
 -1       876 1.08123E-02-1.64476E-03-7.88140E-14
 -1       877 1.10980E-02-1.69850E-03-8.30329E-14
 -1       878 1.13838E-02-1.75211E-03-8.73327E-14
 -1       879 1.16696E-02-1.80563E-03-9.17039E-14
 -1       880 1.19554E-02-1.85908E-03-9.61357E-14
 -1       881 1.22411E-02-1.91248E-03-1.00618E-13
 -1       882 1.25269E-02-1.96585E-03-1.05149E-13
 -1       883 1.28127E-02-2.01920E-03-1.09731E-13
 -1       884 1.30984E-02-2.07253E-03-1.14345E-13
 -1       885 1.33842E-02-2.12585E-03-1.18987E-13
 -1       886 1.36699E-02-2.17917E-03-1.23661E-13
 -1       887 5.26705E-03-1.62456E-04-1.87774E-14
 -1       888 4.96430E-03-9.72774E-05-1.64909E-14
 -1       889 4.64787E-03-1.86822E-05-1.43298E-14
 -1       890 5.56037E-03-2.19047E-04-2.11843E-14
 -1       891 5.84783E-03-2.70384E-04-2.37126E-14
 -1       892 6.13198E-03-3.18657E-04-2.63585E-14
 -1       893 6.41455E-03-3.65322E-04-2.91246E-14
 -1       894 6.69658E-03-4.11343E-04-3.20084E-14
 -1       895 6.97870E-03-4.57363E-04-3.50081E-14
 -1       896 7.26122E-03-5.03790E-04-3.81178E-14
 -1       897 7.54426E-03-5.50867E-04-4.13346E-14
 -1       898 7.82784E-03-5.98711E-04-4.46594E-14
 -1       899 8.11192E-03-6.47354E-04-4.80965E-14
 -1       900 8.39642E-03-6.96771E-04-5.16416E-14
 -1       901 8.68127E-03-7.46901E-04-5.52823E-14
 -1       902 8.96640E-03-7.97662E-04-5.90161E-14
 -1       903 9.25174E-03-8.48969E-04-6.28443E-14
 -1       904 9.53723E-03-9.00733E-04-6.67628E-14
 -1       905 9.82283E-03-9.52874E-04-7.07704E-14
 -1       906 1.01085E-02-1.00532E-03-7.48595E-14
 -1       907 1.03942E-02-1.05800E-03-7.90371E-14
 -1       908 1.06800E-02-1.11087E-03-8.33028E-14
 -1       909 1.09657E-02-1.16389E-03-8.76526E-14
 -1       910 1.12515E-02-1.21700E-03-9.20699E-14
 -1       911 1.15373E-02-1.27020E-03-9.65476E-14
 -1       912 1.18230E-02-1.32346E-03-1.01080E-13
 -1       913 1.21088E-02-1.37675E-03-1.05657E-13
 -1       914 1.23946E-02-1.43007E-03-1.10276E-13
 -1       915 1.26803E-02-1.48340E-03-1.14939E-13
 -1       916 1.29660E-02-1.53674E-03-1.19642E-13
 -1       917 1.32518E-02-1.59009E-03-1.24384E-13
 -1       918 1.35375E-02-1.64344E-03-1.29148E-13
 -1       919 1.37404E-02-1.98644E-03-1.27976E-13
 -1       920 5.01565E-03-3.12307E-04-1.38105E-14
 -1       921 5.22824E-03-3.90343E-04-1.43316E-14
 -1       922 4.41336E-03 2.14283E-05-1.26404E-14
 -1       923 4.71078E-03-1.78562E-04-1.30506E-14
 -1       924 5.39284E-03-4.35241E-04-1.54079E-14
 -1       925 5.38631E-03-4.90790E-04-1.47355E-14
 -1       926 1.38924E-02-2.23310E-03-1.27121E-13
 -1       927 1.37926E-02-2.07040E-03-1.27709E-13
 -1       928 1.36355E-02-1.81780E-03-1.28478E-13
 -1       929 1.36879E-02-1.90212E-03-1.28231E-13
 -1       930 1.36039E-02-1.74923E-03-1.28885E-13
 -1       931 4.55347E-03-8.05170E-05-1.28511E-14
 -1       932 1.38681E-02-2.16896E-03-1.27651E-13
 -1       933 5.49898E-03-4.82696E-04-1.60394E-14
 -1       934 5.22306E-03-2.19460E-04-1.76623E-14
 -1       935 5.69591E-03-5.61589E-04-1.79699E-14
 -1       936 5.93089E-03-6.07350E-04-2.03262E-14
 -1       937 6.17696E-03-6.56713E-04-2.27927E-14
 -1       938 6.43174E-03-7.09057E-04-2.53641E-14
 -1       939 6.69345E-03-7.63660E-04-2.80465E-14
 -1       940 6.96064E-03-8.19770E-04-3.08411E-14
 -1       941 7.23220E-03-8.76739E-04-3.37565E-14
 -1       942 7.50720E-03-9.34053E-04-3.67880E-14
 -1       943 7.78490E-03-9.91347E-04-3.99341E-14
 -1       944 8.06470E-03-1.04838E-03-4.31891E-14
 -1       945 8.34612E-03-1.10502E-03-4.65549E-14
 -1       946 8.62876E-03-1.16121E-03-5.00199E-14
 -1       947 8.91233E-03-1.21694E-03-5.35859E-14
 -1       948 9.19658E-03-1.27223E-03-5.72524E-14
 -1       949 9.48134E-03-1.32712E-03-6.10126E-14
 -1       950 9.76646E-03-1.38169E-03-6.48655E-14
 -1       951 1.00518E-02-1.43596E-03-6.87997E-14
 -1       952 1.03374E-02-1.49000E-03-7.28201E-14
 -1       953 1.06230E-02-1.54386E-03-7.69253E-14
 -1       954 1.09088E-02-1.59757E-03-8.11100E-14
 -1       955 1.11945E-02-1.65117E-03-8.53739E-14
 -1       956 1.14803E-02-1.70468E-03-8.97214E-14
 -1       957 1.17661E-02-1.75813E-03-9.41306E-14
 -1       958 1.20519E-02-1.81154E-03-9.85946E-14
 -1       959 1.23377E-02-1.86491E-03-1.03109E-13
 -1       960 1.26235E-02-1.91826E-03-1.07666E-13
 -1       961 1.29093E-02-1.97160E-03-1.12264E-13
 -1       962 1.31951E-02-2.02493E-03-1.16899E-13
 -1       963 1.34808E-02-2.07825E-03-1.21567E-13
 -1       964 5.78877E-03-3.18998E-04-2.24714E-14
 -1       965 5.50888E-03-2.71152E-04-2.00071E-14
 -1       966 4.92633E-03-1.59897E-04-1.54369E-14
 -1       967 6.06593E-03-3.65125E-04-2.50527E-14
 -1       968 6.34231E-03-4.10689E-04-2.77523E-14
 -1       969 6.61905E-03-4.56310E-04-3.05711E-14
 -1       970 6.89674E-03-5.02359E-04-3.35041E-14
 -1       971 7.17562E-03-5.49052E-04-3.65527E-14
 -1       972 7.45575E-03-5.96497E-04-3.97084E-14
 -1       973 7.73703E-03-6.44731E-04-4.29708E-14
 -1       974 8.01934E-03-6.93739E-04-4.63443E-14
 -1       975 8.30251E-03-7.43471E-04-4.98291E-14
 -1       976 8.58637E-03-7.93859E-04-5.34148E-14
 -1       977 8.87078E-03-8.44825E-04-5.70953E-14
 -1       978 9.15562E-03-8.96285E-04-6.08691E-14
 -1       979 9.44077E-03-9.48161E-04-6.47335E-14
 -1       980 9.72615E-03-1.00038E-03-6.86875E-14
 -1       981 1.00117E-02-1.05288E-03-7.27301E-14
 -1       982 1.02973E-02-1.10559E-03-7.68565E-14
 -1       983 1.05831E-02-1.15848E-03-8.10707E-14
 -1       984 1.08688E-02-1.21150E-03-8.53702E-14
 -1       985 1.11546E-02-1.26462E-03-8.97482E-14
 -1       986 1.14404E-02-1.31782E-03-9.41847E-14
 -1       987 1.17262E-02-1.37106E-03-9.86808E-14
 -1       988 1.20120E-02-1.42435E-03-1.03227E-13
 -1       989 1.22978E-02-1.47766E-03-1.07814E-13
 -1       990 1.25835E-02-1.53099E-03-1.12442E-13
 -1       991 1.28693E-02-1.58433E-03-1.17116E-13
 -1       992 1.31550E-02-1.63767E-03-1.21827E-13
 -1       993 5.27172E-03-3.64822E-04-1.57123E-14
 -1       994 5.54066E-03-5.32130E-04-1.63946E-14
 -1       995 5.03965E-03-2.61264E-04-1.51367E-14
 -1       996 1.34143E-02-1.81376E-03-1.24246E-13
 -1       997 1.34408E-02-1.69102E-03-1.26575E-13
 -1       998 1.34667E-02-1.89809E-03-1.24009E-13
 -1       999 1.33827E-02-1.74519E-03-1.24653E-13
 -1      1000 1.35189E-02-1.98206E-03-1.23762E-13
 -1      1001 5.46029E-03-4.19371E-04-1.68372E-14
 -1      1002 5.31306E-03-3.07223E-04-1.73441E-14
 -1      1003 6.03056E-03-5.82512E-04-2.16318E-14
 -1      1004 6.27614E-03-6.30209E-04-2.41551E-14
 -1      1005 6.53062E-03-6.80680E-04-2.67888E-14
 -1      1006 6.79202E-03-7.33220E-04-2.95324E-14
 -1      1007 7.05889E-03-7.87169E-04-3.23958E-14
 -1      1008 7.33012E-03-8.41981E-04-3.53750E-14
 -1      1009 7.60481E-03-8.97237E-04-3.84710E-14
 -1      1010 7.88223E-03-9.52638E-04-4.16803E-14
 -1      1011 8.16179E-03-1.00799E-03-4.49953E-14
 -1      1012 8.44302E-03-1.06317E-03-4.84141E-14
 -1      1013 8.72552E-03-1.11811E-03-5.19355E-14
 -1      1014 9.00899E-03-1.17281E-03-5.55569E-14
 -1      1015 9.29318E-03-1.22726E-03-5.92745E-14
 -1      1016 9.57790E-03-1.28149E-03-6.30851E-14
 -1      1017 9.86300E-03-1.33552E-03-6.69846E-14
 -1      1018 1.01484E-02-1.38939E-03-7.09671E-14
 -1      1019 1.04339E-02-1.44313E-03-7.50339E-14
 -1      1020 1.07196E-02-1.49675E-03-7.91859E-14
 -1      1021 1.10053E-02-1.55030E-03-8.34193E-14
 -1      1022 1.12911E-02-1.60378E-03-8.77338E-14
 -1      1023 1.15769E-02-1.65721E-03-9.21181E-14
 -1      1024 1.18627E-02-1.71060E-03-9.65588E-14
 -1      1025 1.21486E-02-1.76397E-03-1.01054E-13
 -1      1026 1.24344E-02-1.81733E-03-1.05596E-13
 -1      1027 1.27202E-02-1.87067E-03-1.10179E-13
 -1      1028 1.30059E-02-1.92400E-03-1.14801E-13
 -1      1029 1.32917E-02-1.97733E-03-1.19463E-13
 -1      1030 6.27415E-03-4.53352E-04-2.63966E-14
 -1      1031 6.54454E-03-4.98494E-04-2.91489E-14
 -1      1032 6.81709E-03-5.44677E-04-3.20158E-14
 -1      1033 7.09185E-03-5.91856E-04-3.49995E-14
 -1      1034 7.36870E-03-6.39956E-04-3.80959E-14
 -1      1035 7.64742E-03-6.88892E-04-4.12996E-14
 -1      1036 7.92773E-03-7.38573E-04-4.46117E-14
 -1      1037 8.20937E-03-7.88909E-04-4.80330E-14
 -1      1038 8.49209E-03-8.39814E-04-5.15617E-14
 -1      1039 8.77566E-03-8.91204E-04-5.51887E-14
 -1      1040 9.05989E-03-9.43003E-04-5.89072E-14
 -1      1041 9.34461E-03-9.95143E-04-6.27219E-14
 -1      1042 9.62970E-03-1.04756E-03-6.66254E-14
 -1      1043 9.91505E-03-1.10020E-03-7.06167E-14
 -1      1044 1.02006E-02-1.15302E-03-7.46902E-14
 -1      1045 1.04862E-02-1.20598E-03-7.88517E-14
 -1      1046 1.07720E-02-1.25905E-03-8.31011E-14
 -1      1047 1.10577E-02-1.31220E-03-8.74317E-14
 -1      1048 1.13435E-02-1.36541E-03-9.18342E-14
 -1      1049 1.16294E-02-1.41867E-03-9.62918E-14
 -1      1050 1.19152E-02-1.47195E-03-1.00803E-13
 -1      1051 1.22010E-02-1.52526E-03-1.05363E-13
 -1      1052 1.24868E-02-1.57859E-03-1.09961E-13
 -1      1053 1.27725E-02-1.63192E-03-1.14603E-13
 -1      1054 1.30583E-02-1.68526E-03-1.19284E-13
 -1      1055 5.64282E-03-5.09455E-04-1.76010E-14
 -1      1056 5.56646E-03-4.66239E-04-1.72254E-14
 -1      1057 6.00559E-03-4.09267E-04-2.37626E-14
 -1      1058 1.31930E-02-1.80974E-03-1.20051E-13
 -1      1059 5.83124E-03-5.44646E-04-1.95769E-14
 -1      1060 5.58021E-03-3.49836E-04-1.96708E-14
 -1      1061 5.79204E-03-3.79158E-04-2.16773E-14
 -1      1062 5.51438E-03-3.87320E-04-1.82402E-14
 -1      1063 1.32423E-02-1.89353E-03-1.19765E-13
 -1      1064 6.11154E-03-5.55764E-04-2.29443E-14
 -1      1065 6.36156E-03-6.01709E-04-2.55279E-14
 -1      1066 6.61945E-03-6.50398E-04-2.82231E-14
 -1      1067 6.88305E-03-7.00990E-04-3.10346E-14
 -1      1068 7.15151E-03-7.52899E-04-3.39622E-14
 -1      1069 7.42386E-03-8.05710E-04-3.70064E-14
 -1      1070 7.69934E-03-8.59081E-04-4.01654E-14
 -1      1071 7.97733E-03-9.12765E-04-4.34355E-14
 -1      1072 8.25730E-03-9.66596E-04-4.68051E-14
 -1      1073 8.53883E-03-1.02047E-03-5.02807E-14
 -1      1074 8.82156E-03-1.07432E-03-5.38598E-14
 -1      1075 9.10519E-03-1.12811E-03-5.75360E-14
 -1      1076 9.38951E-03-1.18184E-03-6.13055E-14
 -1      1077 9.67432E-03-1.23549E-03-6.51658E-14
 -1      1078 9.95949E-03-1.28908E-03-6.91140E-14
 -1      1079 1.02449E-02-1.34260E-03-7.31433E-14
 -1      1080 1.05305E-02-1.39608E-03-7.72593E-14
 -1      1081 1.08162E-02-1.44952E-03-8.14591E-14
 -1      1082 1.11020E-02-1.50293E-03-8.57430E-14
 -1      1083 1.13878E-02-1.55632E-03-9.00971E-14
 -1      1084 1.16736E-02-1.60969E-03-9.45169E-14
 -1      1085 1.19594E-02-1.66304E-03-9.89938E-14
 -1      1086 1.22452E-02-1.71639E-03-1.03521E-13
 -1      1087 1.25310E-02-1.76973E-03-1.08086E-13
 -1      1088 1.28168E-02-1.82306E-03-1.12697E-13
 -1      1089 1.30296E-02-1.85830E-03-1.16220E-13
 -1      1090 6.73845E-03-5.83935E-04-3.05436E-14
 -1      1091 6.47160E-03-5.37377E-04-2.77423E-14
 -1      1092 7.28222E-03-6.80981E-04-3.64950E-14
 -1      1093 7.55827E-03-7.30958E-04-3.96398E-14
 -1      1094 7.83653E-03-7.81643E-04-4.28940E-14
 -1      1095 8.11661E-03-8.32892E-04-4.62558E-14
 -1      1096 8.39814E-03-8.84591E-04-4.97222E-14
 -1      1097 8.68083E-03-9.36649E-04-5.32905E-14
 -1      1098 8.96441E-03-9.88994E-04-5.69580E-14
 -1      1099 9.24867E-03-1.04157E-03-6.07215E-14
 -1      1100 9.53343E-03-1.09432E-03-6.45752E-14
 -1      1101 9.81856E-03-1.14722E-03-6.85137E-14
 -1      1102 1.01039E-02-1.20023E-03-7.25385E-14
 -1      1103 1.03895E-02-1.25333E-03-7.66478E-14
 -1      1104 1.06752E-02-1.30650E-03-8.08453E-14
 -1      1105 1.09609E-02-1.35971E-03-8.51261E-14
 -1      1106 1.12467E-02-1.41297E-03-8.94865E-14
 -1      1107 1.15326E-02-1.46625E-03-9.39054E-14
 -1      1108 1.18184E-02-1.51955E-03-9.83857E-14
 -1      1109 1.21042E-02-1.57287E-03-1.02912E-13
 -1      1110 1.23900E-02-1.62619E-03-1.07486E-13
 -1      1111 1.26758E-02-1.67953E-03-1.12100E-13
 -1      1112 1.29344E-02-1.74463E-03-1.16064E-13
 -1      1113 6.20843E-03-4.92509E-04-2.50574E-14
 -1      1114 7.00880E-03-6.31897E-04-3.34602E-14
 -1      1115 5.75329E-03-4.97692E-04-1.91848E-14
 -1      1116 1.29820E-02-1.80147E-03-1.16146E-13
 -1      1117 6.00074E-03-4.62255E-04-2.29279E-14
 -1      1118 5.65410E-03-4.48662E-04-1.87795E-14
 -1      1119 5.92872E-03-5.25726E-04-2.10327E-14
 -1      1120 6.43922E-03-5.69836E-04-2.69127E-14
 -1      1121 5.72650E-03-4.19509E-04-2.02439E-14
 -1      1122 5.87535E-03-4.82341E-04-2.10324E-14
 -1      1123 0.00000E+00 0.00000E+00 0.00000E+00
 -1      1124 0.00000E+00 0.00000E+00 0.00000E+00
 -1      1125 0.00000E+00 0.00000E+00 0.00000E+00
 -1      1126 0.00000E+00 0.00000E+00 0.00000E+00
 -1      1127 0.00000E+00 0.00000E+00 0.00000E+00
 -1      1128 0.00000E+00 0.00000E+00 0.00000E+00
 -1      1129 0.00000E+00 0.00000E+00 0.00000E+00
 -1      1130 0.00000E+00 0.00000E+00 0.00000E+00
 -1      1131 0.00000E+00 0.00000E+00 0.00000E+00
 -1      1132 0.00000E+00 0.00000E+00 0.00000E+00
 -1      1133 0.00000E+00 0.00000E+00 0.00000E+00
 -1      1134 0.00000E+00 0.00000E+00 0.00000E+00
 -1      1135 0.00000E+00 0.00000E+00 0.00000E+00
 -1      1136 0.00000E+00 0.00000E+00 0.00000E+00
 -1      1137 0.00000E+00 0.00000E+00 0.00000E+00
 -1      1138 0.00000E+00 0.00000E+00 0.00000E+00
 -1      1139 0.00000E+00 0.00000E+00 0.00000E+00
 -1      1140 2.62308E-04-1.59058E-04 2.66172E-17
 -1      1141 7.15800E-04-3.57179E-04-1.61275E-18
 -1      1142 1.12148E-03-5.15789E-04-1.53347E-16
 -1      1143 1.52026E-03-6.77283E-04-4.53833E-16
 -1      1144 1.90727E-03-8.59945E-04-9.05255E-16
 -1      1145 2.26992E-03-1.06141E-03-1.51089E-15
 -1      1146 2.59525E-03-1.25892E-03-2.27846E-15
 -1      1147 2.88020E-03-1.41419E-03-3.21569E-15
 -1      1148 3.13988E-03-1.49090E-03-4.33360E-15
 -1      1149 3.40322E-03-1.47746E-03-5.63725E-15
 -1      1150 3.69640E-03-1.39553E-03-7.12061E-15
 -1      1151 4.02870E-03-1.28597E-03-8.76640E-15
 -1      1152 4.39206E-03-1.18628E-03-1.05626E-14
 -1      1153 4.77058E-03-1.11747E-03-1.25078E-14
 -1      1154 5.14964E-03-1.08452E-03-1.45907E-14
 -1      1155 5.51983E-03-1.08302E-03-1.68009E-14
 -1      1156 5.87684E-03-1.10535E-03-1.91284E-14
 -1      1157 6.21989E-03-1.14410E-03-2.15618E-14
 -1      1158 6.55013E-03-1.19337E-03-2.41033E-14
 -1      1159 6.86949E-03-1.24894E-03-2.67518E-14
 -1      1160 7.18004E-03-1.30791E-03-2.95032E-14
 -1      1161 7.48369E-03-1.36843E-03-3.23652E-14
 -1      1162 7.78207E-03-1.42933E-03-3.53367E-14
 -1      1163 8.07650E-03-1.48995E-03-3.84306E-14
 -1      1164 8.36803E-03-1.54991E-03-4.16570E-14
 -1      1165 8.65746E-03-1.60904E-03-4.49996E-14
 -1      1166 8.94540E-03-1.66730E-03-4.84444E-14
 -1      1167 9.23231E-03-1.72473E-03-5.19841E-14
 -1      1168 9.51854E-03-1.78139E-03-5.56272E-14
 -1      1169 9.80431E-03-1.83738E-03-5.93677E-14
 -1      1170 1.00898E-02-1.89280E-03-6.31982E-14
 -1      1171 1.03752E-02-1.94775E-03-6.71178E-14
 -1      1172 1.06605E-02-2.00230E-03-7.11233E-14
 -1      1173 1.09457E-02-2.05654E-03-7.52105E-14
 -1      1174 1.12310E-02-2.11054E-03-7.93763E-14
 -1      1175 1.15164E-02-2.16434E-03-8.36136E-14
 -1      1176 1.18018E-02-2.21800E-03-8.79165E-14
 -1      1177 1.20872E-02-2.27155E-03-9.22886E-14
 -1      1178 1.23727E-02-2.32503E-03-9.67279E-14
 -1      1179 1.26582E-02-2.37844E-03-1.01224E-13
 -1      1180 1.29438E-02-2.43182E-03-1.05776E-13
 -1      1181 1.32294E-02-2.48517E-03-1.10375E-13
 -1      1182 1.35150E-02-2.53851E-03-1.15003E-13
 -1      1183 1.38007E-02-2.59183E-03-1.19655E-13
 -1      1184 1.40863E-02-2.64516E-03-1.24321E-13
 -1      1185 1.43720E-02-2.69848E-03-1.28989E-13
 -1      1186 1.46577E-02-2.75180E-03-1.33668E-13
 -1      1187 1.49434E-02-2.80514E-03-1.38368E-13
 -1      1188 1.52291E-02-2.85847E-03-1.43082E-13
 -1      1189 1.55077E-02-2.91049E-03-1.47702E-13
 -1      1190 2.63899E-04 1.78262E-04 2.51806E-17
 -1      1191 6.49671E-04 3.80701E-04-2.64681E-17
 -1      1192 9.87935E-04 5.28554E-04-2.18020E-16
 -1      1193 1.30954E-03 6.50842E-04-5.69409E-16
 -1      1194 1.61550E-03 7.59114E-04-1.08191E-15
 -1      1195 1.90433E-03 8.52855E-04-1.75642E-15
 -1      1196 2.17560E-03 9.24549E-04-2.59523E-15
 -1      1197 2.43232E-03 9.64142E-04-3.60003E-15
 -1      1198 2.68160E-03 9.63869E-04-4.77483E-15
 -1      1199 2.93304E-03 9.22243E-04-6.11735E-15
 -1      1200 3.19559E-03 8.45354E-04-7.62305E-15
 -1      1201 3.47465E-03 7.44856E-04-9.28634E-15
 -1      1202 3.77092E-03 6.34021E-04-1.11027E-14
 -1      1203 4.08126E-03 5.24041E-04-1.30679E-14
 -1      1204 4.40063E-03 4.22145E-04-1.51793E-14
 -1      1205 4.72385E-03 3.31567E-04-1.74395E-14
 -1      1206 5.04674E-03 2.52566E-04-1.98368E-14
 -1      1207 5.36652E-03 1.83685E-04-2.23665E-14
 -1      1208 5.68168E-03 1.22761E-04-2.50221E-14
 -1      1209 5.99171E-03 6.75797E-05-2.78016E-14
 -1      1210 6.29674E-03 1.62024E-05-3.07012E-14
 -1      1211 6.59728E-03-3.29080E-05-3.37182E-14
 -1      1212 6.89402E-03-8.08868E-05-3.68447E-14
 -1      1213 7.18765E-03-1.28520E-04-4.00802E-14
 -1      1214 7.47884E-03-1.76316E-04-4.34246E-14
 -1      1215 7.76818E-03-2.24573E-04-4.68638E-14
 -1      1216 8.05614E-03-2.73444E-04-5.04172E-14
 -1      1217 8.34311E-03-3.22977E-04-5.40861E-14
 -1      1218 8.62940E-03-3.73160E-04-5.78517E-14
 -1      1219 8.91524E-03-4.23940E-04-6.17099E-14
 -1      1220 9.20080E-03-4.75248E-04-6.56552E-14
 -1      1221 9.48619E-03-5.27005E-04-6.96877E-14
 -1      1222 9.77151E-03-5.79136E-04-7.37992E-14
 -1      1223 1.00568E-02-6.31571E-04-7.79925E-14
 -1      1224 1.03421E-02-6.84247E-04-8.22794E-14
 -1      1225 1.06275E-02-7.37111E-04-8.66671E-14
 -1      1226 1.09129E-02-7.90118E-04-9.11391E-14
 -1      1227 1.11983E-02-8.43234E-04-9.56769E-14
 -1      1228 1.14838E-02-8.96429E-04-1.00274E-13
 -1      1229 1.17693E-02-9.49680E-04-1.04915E-13
 -1      1230 1.20549E-02-1.00297E-03-1.09596E-13
 -1      1231 1.23405E-02-1.05629E-03-1.14319E-13
 -1      1232 1.26261E-02-1.10962E-03-1.19069E-13
 -1      1233 1.29118E-02-1.16296E-03-1.23850E-13
 -1      1234 1.31974E-02-1.21631E-03-1.28648E-13
 -1      1235 1.34831E-02-1.26965E-03-1.33459E-13
 -1      1236 1.37688E-02-1.32300E-03-1.38283E-13
 -1      1237 1.40545E-02-1.37633E-03-1.43129E-13
 -1      1238 1.43402E-02-1.42966E-03-1.47974E-13
 -1      1239 1.46188E-02-1.48165E-03-1.52711E-13
 -1      1240 1.47807E-02-1.54913E-03-1.54918E-13
 -1      1241 1.48332E-02-1.63341E-03-1.54718E-13
 -1      1242 1.48856E-02-1.71770E-03-1.54505E-13
 -1      1243 1.49380E-02-1.80199E-03-1.54286E-13
 -1      1244 1.49904E-02-1.88629E-03-1.54068E-13
 -1      1245 1.50424E-02-1.96988E-03-1.53817E-13
 -1      1246 1.50944E-02-2.05348E-03-1.53551E-13
 -1      1247 1.51468E-02-2.13780E-03-1.53296E-13
 -1      1248 1.51993E-02-2.22212E-03-1.53041E-13
 -1      1249 1.52517E-02-2.30644E-03-1.52733E-13
 -1      1250 1.53042E-02-2.39076E-03-1.52384E-13
 -1      1251 1.53562E-02-2.47436E-03-1.52030E-13
 -1      1252 1.54082E-02-2.55795E-03-1.51658E-13
 -1      1253 1.54607E-02-2.64225E-03-1.51275E-13
 -1      1254 1.55132E-02-2.72654E-03-1.50895E-13
 -1      1255 1.55656E-02-2.81083E-03-1.50522E-13
 -1      1256 1.56176E-02-2.89440E-03-1.50147E-13
 -1      1257 5.05815E-03-2.82304E-04-8.07582E-15
 -1      1258 4.93823E-03-1.47675E-04-7.96436E-15
 -1      1259 4.72358E-03-6.36273E-06-7.70808E-15
 -1      1260 4.42516E-03 1.39730E-04-7.31624E-15
 -1      1261 4.06228E-03 2.80607E-04-6.81017E-15
 -1      1262 3.65614E-03 4.00807E-04-6.22077E-15
 -1      1263 3.22499E-03 4.84476E-04-5.58519E-15
 -1      1264 2.79073E-03 5.19095E-04-4.94949E-15
 -1      1265 2.34793E-03 4.98055E-04-4.31724E-15
 -1      1266 1.92929E-03 4.31766E-04-3.74543E-15
 -1      1267 1.55180E-03 3.32759E-04-3.25938E-15
 -1      1268 1.21622E-03 2.17425E-04-2.85232E-15
 -1      1269 9.48781E-04 9.93475E-05-2.54302E-15
 -1      1270 7.56860E-04-2.00378E-05-2.32531E-15
 -1      1271 6.63937E-04-1.36145E-04-2.21530E-15
 -1      1272 6.77769E-04-2.54389E-04-2.21121E-15
 -1      1273 7.96097E-04-3.84853E-04-2.31039E-15
 -1      1274 1.00613E-03-5.27442E-04-2.50428E-15
 -1      1275 1.30600E-03-6.86723E-04-2.79903E-15
 -1      1276 1.67853E-03-8.51052E-04-3.19437E-15
 -1      1277 2.07533E-03-9.91204E-04-3.64810E-15
 -1      1278 2.49803E-03-1.09447E-03-4.17009E-15
 -1      1279 2.94441E-03-1.14626E-03-4.76455E-15
 -1      1280 3.38629E-03-1.13641E-03-5.38743E-15
 -1      1281 3.81287E-03-1.06822E-03-6.01103E-15
 -1      1282 4.20653E-03-9.58286E-04-6.60450E-15
 -1      1283 4.54261E-03-8.27794E-04-7.12855E-15
 -1      1284 4.81106E-03-6.89144E-04-7.56201E-15
 -1      1285 4.99693E-03-5.48807E-04-7.87645E-15
 -1      1286 5.07942E-03-4.13829E-04-8.04578E-15
 -1      1287 2.12754E-04-1.08764E-04 6.20706E-18
 -1      1288 1.37271E-04-3.75402E-05-2.06405E-17
 -1      1289 1.47903E-04-5.37475E-05-1.34577E-17
 -1      1290 1.21021E-04-1.58757E-05-3.25396E-17
 -1      1291 1.29002E-04-2.52532E-05-2.86365E-17
 -1      1292 2.72240E-04-7.11625E-05-6.81692E-17
 -1      1293 1.06536E-04-2.41003E-06-3.96005E-17
 -1      1294 1.13910E-04-8.26435E-06-3.72830E-17
 -1      1295 2.39302E-04-3.31931E-05-8.98261E-17
 -1      1296 9.28561E-05 3.78388E-06-4.43032E-17
 -1      1297 9.96315E-05 1.31814E-06-4.28395E-17
 -1      1298 2.08654E-04-9.54553E-06-1.03460E-16
 -1      1299 8.16599E-05 2.71800E-06-4.72170E-17
 -1      1300 8.68936E-05 3.54071E-06-4.63903E-17
 -1      1301 1.80207E-04 3.45117E-07-1.12418E-16
 -1      1302 7.47307E-05-4.23322E-06-4.89382E-17
 -1      1303 7.75167E-05-1.04080E-06-4.84503E-17
 -1      1304 1.57587E-04-2.92215E-06-1.18097E-16
 -1      1305 7.38489E-05-1.32939E-05-5.00224E-17
 -1      1306 7.35245E-05-9.71450E-06-4.98191E-17
 -1      1307 1.45698E-04-1.56127E-05-1.21661E-16
 -1      1308 7.87226E-05-1.96644E-05-5.06458E-17
 -1      1309 7.56995E-05-1.78352E-05-5.06865E-17
 -1      1310 1.47485E-04-2.98486E-05-1.24019E-16
 -1      1311 8.72746E-05-1.99582E-05-5.07407E-17
 -1      1312 8.27273E-05-2.11229E-05-5.09575E-17
 -1      1313 1.61067E-04-3.71333E-05-1.25293E-16
 -1      1314 9.68873E-05-1.34858E-05-5.04832E-17
 -1      1315 9.20908E-05-1.76237E-05-5.07678E-17
 -1      1316 1.81027E-04-3.25170E-05-1.25429E-16
 -1      1317 1.05464E-04-2.01552E-06-4.93854E-17
 -1      1318 1.01302E-04-8.14105E-06-4.99004E-17
 -1      1319 2.01407E-04-1.62341E-05-1.24344E-16
 -1      1320 1.12608E-04 1.26261E-05-4.70950E-17
 -1      1321 1.09129E-04 5.25364E-06-4.80708E-17
 -1      1322 2.18843E-04 8.41461E-06-1.21254E-16
 -1      1323 1.18569E-04 2.86722E-05-4.29073E-17
 -1      1324 1.15478E-04 2.06984E-05-4.46556E-17
 -1      1325 2.32733E-04 3.79407E-05-1.15129E-16
 -1      1326 1.24861E-04 4.62310E-05-3.51417E-17
 -1      1327 1.21176E-04 3.72613E-05-3.86654E-17
 -1      1328 2.44591E-04 7.01734E-05-1.04029E-16
 -1      1329 1.35236E-04 6.93481E-05-2.10471E-17
 -1      1330 1.28540E-04 5.66230E-05-2.80673E-17
 -1      1331 2.58746E-04 1.07123E-04-8.47168E-17
 -1      1332 1.83472E-04 1.19749E-04 2.88669E-18
 -1      1333 1.57902E-04 9.10989E-05-1.26581E-17
 -1      1334 2.97582E-04 1.60130E-04-6.00648E-17
 -1      1335 3.91478E-04 2.41222E-04-2.14808E-17
 -1      1336 5.46451E-04-2.63002E-04-2.40286E-17
 -1      1337 7.53247E-04-3.46851E-04-7.21401E-17
 -1      1338 9.55683E-04-4.25368E-04-1.57128E-16
 -1      1339 1.15511E-03-5.02724E-04-2.77352E-16
 -1      1340 7.96261E-04-3.34434E-04-1.54133E-16
 -1      1341 1.35179E-03-5.83653E-04-4.32692E-16
 -1      1342 1.54560E-03-6.69384E-04-6.24677E-16
 -1      1343 1.18945E-03-4.91393E-04-4.06562E-16
 -1      1344 1.73620E-03-7.61851E-04-8.53945E-16
 -1      1345 1.92254E-03-8.60127E-04-1.12191E-15
 -1      1346 1.57260E-03-6.64588E-04-8.00114E-16
 -1      1347 2.10377E-03-9.63186E-04-1.42796E-15
 -1      1348 2.27868E-03-1.06787E-03-1.77351E-15
 -1      1349 1.94504E-03-8.63025E-04-1.34215E-15
 -1      1350 2.44659E-03-1.17002E-03-2.16018E-15
 -1      1351 2.60714E-03-1.26438E-03-2.58936E-15
 -1      1352 2.30176E-03-1.07492E-03-2.03975E-15
 -1      1353 2.76075E-03-1.34515E-03-3.06179E-15
 -1      1354 2.90894E-03-1.40723E-03-3.57831E-15
 -1      1355 2.63784E-03-1.26661E-03-2.90410E-15
 -1      1356 3.05347E-03-1.44665E-03-4.14092E-15
 -1      1357 3.19741E-03-1.46174E-03-4.74909E-15
 -1      1358 2.95501E-03-1.39281E-03-3.94459E-15
 -1      1359 3.34299E-03-1.45332E-03-5.40323E-15
 -1      1360 3.49297E-03-1.42445E-03-6.10243E-15
 -1      1361 3.26524E-03-1.42280E-03-5.16656E-15
 -1      1362 3.64870E-03-1.38023E-03-6.84437E-15
 -1      1363 3.81107E-03-1.32626E-03-7.63013E-15
 -1      1364 3.58425E-03-1.36295E-03-6.56845E-15
 -1      1365 3.97999E-03-1.26850E-03-8.45514E-15
 -1      1366 4.15459E-03-1.21192E-03-9.31742E-15
 -1      1367 3.92084E-03-1.25255E-03-8.14140E-15
 -1      1368 4.33377E-03-1.16044E-03-1.02193E-14
 -1      1369 4.51596E-03-1.11670E-03-1.11573E-14
 -1      1370 4.27315E-03-1.13782E-03-9.87314E-15
 -1      1371 4.69988E-03-1.08195E-03-1.21321E-14
 -1      1372 4.88410E-03-1.05685E-03-1.31417E-14
 -1      1373 4.63336E-03-1.04991E-03-1.17553E-14
 -1      1374 5.06764E-03-1.04087E-03-1.41841E-14
 -1      1375 5.24956E-03-1.03355E-03-1.52584E-14
 -1      1376 4.99342E-03-1.00014E-03-1.37766E-14
 -1      1377 5.42930E-03-1.03368E-03-1.63639E-14
 -1      1378 5.60642E-03-1.04042E-03-1.75004E-14
 -1      1379 5.34761E-03-9.86444E-04-1.59277E-14
 -1      1380 5.78073E-03-1.05256E-03-1.86640E-14
 -1      1381 5.95210E-03-1.06924E-03-1.98550E-14
 -1      1382 5.69293E-03-1.00111E-03-1.81999E-14
 -1      1383 6.12059E-03-1.08953E-03-2.10729E-14
 -1      1384 6.28629E-03-1.11271E-03-2.23170E-14
 -1      1385 6.02836E-03-1.03572E-03-2.05837E-14
 -1      1386 6.44935E-03-1.13814E-03-2.35897E-14
 -1      1387 6.60996E-03-1.16527E-03-2.48888E-14
 -1      1388 6.35421E-03-1.08325E-03-2.30755E-14
 -1      1389 6.76832E-03-1.19370E-03-2.62124E-14
 -1      1390 6.92464E-03-1.22303E-03-2.75633E-14
 -1      1391 6.67147E-03-1.13854E-03-2.56737E-14
 -1      1392 7.07913E-03-1.25303E-03-2.89417E-14
 -1      1393 7.23199E-03-1.28341E-03-3.03468E-14
 -1      1394 6.98144E-03-1.19807E-03-2.83788E-14
 -1      1395 7.38339E-03-1.31407E-03-3.17788E-14
 -1      1396 7.53352E-03-1.34480E-03-3.32396E-14
 -1      1397 7.28542E-03-1.25956E-03-3.11923E-14
 -1      1398 7.68253E-03-1.37556E-03-3.47304E-14
 -1      1399 7.83056E-03-1.40621E-03-3.62478E-14
 -1      1400 7.58464E-03-1.32160E-03-3.41192E-14
 -1      1401 7.97775E-03-1.43674E-03-3.77976E-14
 -1      1402 8.12420E-03-1.46707E-03-3.93802E-14
 -1      1403 7.88013E-03-1.38334E-03-3.71631E-14
 -1      1404 8.27002E-03-1.49721E-03-4.09923E-14
 -1      1405 8.41530E-03-1.52711E-03-4.26354E-14
 -1      1406 8.17277E-03-1.44434E-03-4.03291E-14
 -1      1407 8.56012E-03-1.55680E-03-4.43061E-14
 -1      1408 8.70454E-03-1.58623E-03-4.60038E-14
 -1      1409 8.46327E-03-1.50439E-03-4.36143E-14
 -1      1410 8.84864E-03-1.61544E-03-4.77259E-14
 -1      1411 8.99246E-03-1.64442E-03-4.94724E-14
 -1      1412 8.75219E-03-1.56345E-03-4.70080E-14
 -1      1413 9.13605E-03-1.67319E-03-5.12437E-14
 -1      1414 9.27944E-03-1.70175E-03-5.30409E-14
 -1      1415 9.03995E-03-1.62154E-03-5.05032E-14
 -1      1416 9.42268E-03-1.73012E-03-5.48626E-14
 -1      1417 9.56578E-03-1.75830E-03-5.67097E-14
 -1      1418 9.32690E-03-1.67875E-03-5.40978E-14
 -1      1419 9.70878E-03-1.78632E-03-5.85806E-14
 -1      1420 9.85170E-03-1.81418E-03-6.04733E-14
 -1      1421 9.61327E-03-1.73518E-03-5.77917E-14
 -1      1422 9.99455E-03-1.84190E-03-6.23905E-14
 -1      1423 1.01374E-02-1.86950E-03-6.43287E-14
 -1      1424 9.89927E-03-1.79094E-03-6.15798E-14
 -1      1425 1.02801E-02-1.89697E-03-6.62900E-14
 -1      1426 1.04228E-02-1.92435E-03-6.82715E-14
 -1      1427 1.01850E-02-1.84616E-03-6.54602E-14
 -1      1428 1.05656E-02-1.95163E-03-7.02727E-14
 -1      1429 1.07083E-02-1.97882E-03-7.22948E-14
 -1      1430 1.04706E-02-1.90092E-03-6.94227E-14
 -1      1431 1.08510E-02-2.00594E-03-7.43383E-14
 -1      1432 1.09937E-02-2.03299E-03-7.64031E-14
 -1      1433 1.07561E-02-1.95531E-03-7.34679E-14
 -1      1434 1.11363E-02-2.05999E-03-7.84860E-14
 -1      1435 1.12790E-02-2.08693E-03-8.05878E-14
 -1      1436 1.10416E-02-2.00942E-03-7.75949E-14
 -1      1437 1.14217E-02-2.11383E-03-8.27060E-14
 -1      1438 1.15645E-02-2.14069E-03-8.48402E-14
 -1      1439 1.13271E-02-2.06331E-03-8.17968E-14
 -1      1440 1.17072E-02-2.16752E-03-8.69940E-14
 -1      1441 1.18499E-02-2.19432E-03-8.91646E-14
 -1      1442 1.16126E-02-2.11703E-03-8.60714E-14
 -1      1443 1.19926E-02-2.22109E-03-9.13513E-14
 -1      1444 1.21354E-02-2.24784E-03-9.35555E-14
 -1      1445 1.18981E-02-2.17062E-03-9.04131E-14
 -1      1446 1.22782E-02-2.27458E-03-9.57737E-14
 -1      1447 1.24209E-02-2.30129E-03-9.80062E-14
 -1      1448 1.21836E-02-2.22412E-03-9.48176E-14
 -1      1449 1.25637E-02-2.32800E-03-1.00254E-13
 -1      1450 1.27065E-02-2.35469E-03-1.02516E-13
 -1      1451 1.24691E-02-2.27755E-03-9.92845E-14
 -1      1452 1.28493E-02-2.38138E-03-1.04791E-13
 -1      1453 1.29921E-02-2.40806E-03-1.07081E-13
 -1      1454 1.27547E-02-2.33094E-03-1.03807E-13
 -1      1455 1.31349E-02-2.43473E-03-1.09378E-13
 -1      1456 1.32777E-02-2.46140E-03-1.11684E-13
 -1      1457 1.30403E-02-2.38430E-03-1.08383E-13
 -1      1458 1.34205E-02-2.48807E-03-1.13997E-13
 -1      1459 1.35633E-02-2.51473E-03-1.16316E-13
 -1      1460 1.33260E-02-2.43763E-03-1.12993E-13
 -1      1461 1.37062E-02-2.54139E-03-1.18643E-13
 -1      1462 1.38490E-02-2.56806E-03-1.20971E-13
 -1      1463 1.36116E-02-2.49096E-03-1.17631E-13
 -1      1464 1.39918E-02-2.59472E-03-1.23303E-13
 -1      1465 1.41347E-02-2.62138E-03-1.25640E-13
 -1      1466 1.38973E-02-2.54428E-03-1.22288E-13
 -1      1467 1.42775E-02-2.64804E-03-1.27977E-13
 -1      1468 1.44204E-02-2.67470E-03-1.30312E-13
 -1      1469 1.41830E-02-2.59759E-03-1.26960E-13
 -1      1470 1.45632E-02-2.70136E-03-1.32654E-13
 -1      1471 1.47061E-02-2.72802E-03-1.35003E-13
 -1      1472 1.44687E-02-2.65092E-03-1.31641E-13
 -1      1473 1.48489E-02-2.75469E-03-1.37355E-13
 -1      1474 1.49918E-02-2.78136E-03-1.39708E-13
 -1      1475 1.47544E-02-2.70424E-03-1.36338E-13
 -1      1476 1.51346E-02-2.80803E-03-1.42067E-13
 -1      1477 1.52775E-02-2.83470E-03-1.44432E-13
 -1      1478 1.50401E-02-2.75758E-03-1.41051E-13
 -1      1479 1.54819E-02-2.86906E-03-1.47889E-13
 -1      1480 1.53874E-02-2.81861E-03-1.46869E-13
 -1      1481 7.55738E-04 4.15981E-04-1.39076E-16
 -1      1482 5.77767E-04 3.34922E-04-6.04307E-17
 -1      1483 5.20065E-04 2.90074E-04-8.88775E-17
 -1      1484 1.09371E-03 5.50642E-04-4.13854E-16
 -1      1485 9.27316E-04 4.86250E-04-2.57254E-16
 -1      1486 8.72037E-04 4.42980E-04-2.88574E-16
 -1      1487 1.41355E-03 6.67447E-04-8.45081E-16
 -1      1488 1.25561E-03 6.10803E-04-6.09471E-16
 -1      1489 1.20566E-03 5.69866E-04-6.42363E-16
 -1      1490 1.71754E-03 7.71544E-04-1.43574E-15
 -1      1491 1.56746E-03 7.21329E-04-1.12016E-15
 -1      1492 1.52343E-03 6.82650E-04-1.15163E-15
 -1      1493 2.00609E-03 8.58443E-04-2.18865E-15
 -1      1494 1.86369E-03 8.17723E-04-1.79154E-15
 -1      1495 1.82689E-03 7.81592E-04-1.82005E-15
 -1      1496 2.28075E-03 9.18483E-04-3.10635E-15
 -1      1497 2.14497E-03 8.92444E-04-2.62675E-15
 -1      1498 2.11718E-03 8.59208E-04-2.65116E-15
 -1      1499 2.54580E-03 9.41569E-04-4.19144E-15
 -1      1500 2.41409E-03 9.35023E-04-3.62789E-15
 -1      1501 2.39679E-03 9.04698E-04-3.64823E-15
 -1      1502 2.80805E-03 9.22111E-04-5.44471E-15
 -1      1503 2.67676E-03 9.37081E-04-4.79677E-15
 -1      1504 2.67047E-03 9.09119E-04-4.81243E-15
 -1      1505 3.07513E-03 8.62164E-04-6.86364E-15
 -1      1506 2.94051E-03 8.96646E-04-6.13409E-15
 -1      1507 2.94444E-03 8.70029E-04-6.14332E-15
 -1      1508 3.35300E-03 7.71166E-04-8.44279E-15
 -1      1509 3.21242E-03 8.19703E-04-7.63354E-15
 -1      1510 3.22458E-03 7.93281E-04-7.63743E-15
 -1      1511 3.64429E-03 6.62559E-04-1.01776E-14
 -1      1512 3.49692E-03 7.18200E-04-9.29058E-15
 -1      1513 3.51457E-03 6.91077E-04-9.28906E-15
 -1      1514 3.94819E-03 5.49472E-04-1.20626E-14
 -1      1515 3.79481E-03 6.05911E-04-1.11017E-14
 -1      1516 3.81512E-03 5.77633E-04-1.10941E-14
 -1      1517 4.26147E-03 4.41598E-04-1.40949E-14
 -1      1518 4.10391E-03 4.94498E-04-1.30609E-14
 -1      1519 4.12443E-03 4.65028E-04-1.30477E-14
 -1      1520 4.58001E-03 3.44275E-04-1.62730E-14
 -1      1521 4.42035E-03 3.91483E-04-1.51653E-14
 -1      1522 4.43937E-03 3.61050E-04-1.51455E-14
 -1      1523 4.89996E-03 2.59111E-04-1.85919E-14
 -1      1524 4.74004E-03 3.00207E-04-1.74150E-14
 -1      1525 4.75663E-03 2.69144E-04-1.73861E-14
 -1      1526 5.21839E-03 1.85289E-04-2.10462E-14
 -1      1527 5.05953E-03 2.20903E-04-1.98031E-14
 -1      1528 5.07344E-03 1.89541E-04-1.97639E-14
 -1      1529 5.53344E-03 1.20795E-04-2.36303E-14
 -1      1530 5.37643E-03 1.52025E-04-2.23221E-14
 -1      1531 5.38783E-03 1.20629E-04-2.22745E-14
 -1      1532 5.84418E-03 6.32824E-05-2.63375E-14
 -1      1533 5.68938E-03 9.13078E-05-2.49688E-14
 -1      1534 5.69867E-03 6.00644E-05-2.49106E-14
 -1      1535 6.15041E-03 1.05704E-05-2.91676E-14
 -1      1536 5.99786E-03 3.64455E-05-2.77375E-14
 -1      1537 6.00552E-03 5.46421E-06-2.76692E-14
 -1      1538 6.45237E-03-3.91404E-05-3.21159E-14
 -1      1539 6.30190E-03-1.45681E-05-3.06270E-14
 -1      1540 6.30839E-03-4.52368E-05-3.05484E-14
 -1      1541 6.75054E-03-8.72171E-05-3.51794E-14
 -1      1542 6.60189E-03-6.33164E-05-3.36337E-14
 -1      1543 6.60761E-03-9.36642E-05-3.35459E-14
 -1      1544 7.04551E-03-1.34632E-04-3.83498E-14
 -1      1545 6.89838E-03-1.10962E-04-3.67516E-14
 -1      1546 6.90365E-03-1.41007E-04-3.66538E-14
 -1      1547 7.33790E-03-1.82030E-04-4.16304E-14
 -1      1548 7.19199E-03-1.58304E-04-3.99770E-14
 -1      1549 7.19704E-03-1.88080E-04-3.98707E-14
 -1      1550 7.62825E-03-2.29810E-04-4.50174E-14
 -1      1551 7.48330E-03-2.05856E-04-4.33109E-14
 -1      1552 7.48829E-03-2.35402E-04-4.31948E-14
 -1      1553 7.91705E-03-2.78186E-04-4.85050E-14
 -1      1554 7.77282E-03-2.53915E-04-4.67467E-14
 -1      1555 7.77785E-03-2.83271E-04-4.66235E-14
 -1      1556 8.20471E-03-3.27248E-04-5.21071E-14
 -1      1557 8.06100E-03-3.02629E-04-5.02922E-14
 -1      1558 8.06614E-03-3.31833E-04-5.01630E-14
 -1      1559 8.49153E-03-3.77006E-04-5.58150E-14
 -1      1560 8.34820E-03-3.52042E-04-5.39484E-14
 -1      1561 8.35348E-03-3.81126E-04-5.38090E-14
 -1      1562 8.77777E-03-4.27418E-04-5.96161E-14
 -1      1563 8.63471E-03-4.02134E-04-5.77040E-14
 -1      1564 8.64014E-03-4.31127E-04-5.75529E-14
 -1      1565 9.06364E-03-4.78415E-04-6.35081E-14
 -1      1566 8.92074E-03-4.52848E-04-6.15515E-14
 -1      1567 8.92632E-03-4.81773E-04-6.13910E-14
 -1      1568 9.34926E-03-5.29917E-04-6.74893E-14
 -1      1569 9.20647E-03-5.04108E-04-6.54874E-14
 -1      1570 9.21218E-03-5.32983E-04-6.53177E-14
 -1      1571 9.63474E-03-5.81844E-04-7.15537E-14
 -1      1572 9.49201E-03-5.55832E-04-6.95114E-14
 -1      1573 9.49784E-03-5.84672E-04-6.93326E-14
 -1      1574 9.92014E-03-6.34117E-04-7.56980E-14
 -1      1575 9.77744E-03-6.07941E-04-7.36156E-14
 -1      1576 9.78338E-03-6.36758E-04-7.34298E-14
 -1      1577 1.02055E-02-6.86669E-04-7.99343E-14
 -1      1578 1.00628E-02-6.60362E-04-7.78042E-14
 -1      1579 1.00689E-02-6.89163E-04-7.76122E-14
 -1      1580 1.04909E-02-7.39439E-04-8.42609E-14
 -1      1581 1.03482E-02-7.13030E-04-8.20853E-14
 -1      1582 1.03543E-02-7.41821E-04-8.18866E-14
 -1      1583 1.07763E-02-7.92378E-04-8.86813E-14
 -1      1584 1.06336E-02-7.65890E-04-8.64610E-14
 -1      1585 1.06398E-02-7.94675E-04-8.62516E-14
 -1      1586 1.10618E-02-8.45443E-04-9.31765E-14
 -1      1587 1.09191E-02-8.18897E-04-9.09202E-14
 -1      1588 1.09253E-02-8.47679E-04-9.06992E-14
 -1      1589 1.13473E-02-8.98602E-04-9.77314E-14
 -1      1590 1.12045E-02-8.72013E-04-9.54457E-14
 -1      1591 1.12108E-02-9.00794E-04-9.52151E-14
 -1      1592 1.16328E-02-9.51829E-04-1.02343E-13
 -1      1593 1.14900E-02-9.25209E-04-1.00032E-13
 -1      1594 1.14963E-02-9.53991E-04-9.97881E-14
 -1      1595 1.19184E-02-1.00510E-03-1.06994E-13
 -1      1596 1.17756E-02-9.78462E-04-1.04665E-13
 -1      1597 1.17819E-02-1.00725E-03-1.04412E-13
 -1      1598 1.22040E-02-1.05841E-03-1.11691E-13
 -1      1599 1.20612E-02-1.03175E-03-1.09337E-13
 -1      1600 1.20674E-02-1.06054E-03-1.09078E-13
 -1      1601 1.24896E-02-1.11174E-03-1.16424E-13
 -1      1602 1.23468E-02-1.08507E-03-1.14052E-13
 -1      1603 1.23531E-02-1.11386E-03-1.13786E-13
 -1      1604 1.27752E-02-1.16508E-03-1.21180E-13
 -1      1605 1.26324E-02-1.13841E-03-1.18798E-13
 -1      1606 1.26387E-02-1.16720E-03-1.18525E-13
 -1      1607 1.30609E-02-1.21843E-03-1.25965E-13
 -1      1608 1.29181E-02-1.19175E-03-1.23572E-13
 -1      1609 1.29244E-02-1.22054E-03-1.23293E-13
 -1      1610 1.33466E-02-1.27177E-03-1.30767E-13
 -1      1611 1.32037E-02-1.24510E-03-1.28365E-13
 -1      1612 1.32100E-02-1.27389E-03-1.28081E-13
 -1      1613 1.36323E-02-1.32512E-03-1.35579E-13
 -1      1614 1.34894E-02-1.29845E-03-1.33171E-13
 -1      1615 1.34957E-02-1.32724E-03-1.32882E-13
 -1      1616 1.39180E-02-1.37846E-03-1.40412E-13
 -1      1617 1.37751E-02-1.35179E-03-1.37993E-13
 -1      1618 1.37814E-02-1.38059E-03-1.37701E-13
 -1      1619 1.42037E-02-1.43180E-03-1.45256E-13
 -1      1620 1.40608E-02-1.40513E-03-1.42832E-13
 -1      1621 1.40671E-02-1.43393E-03-1.42538E-13
 -1      1622 1.44894E-02-1.48512E-03-1.50103E-13
 -1      1623 1.43465E-02-1.45846E-03-1.47679E-13
 -1      1624 1.43528E-02-1.48726E-03-1.47383E-13
 -1      1625 1.46450E-02-1.52380E-03-1.52611E-13
 -1      1626 1.47226E-02-1.63139E-03-1.52562E-13
 -1      1627 1.46964E-02-1.58925E-03-1.52664E-13
 -1      1628 1.47750E-02-1.71568E-03-1.52348E-13
 -1      1629 1.47488E-02-1.67354E-03-1.52458E-13
 -1      1630 1.46120E-02-1.62938E-03-1.50407E-13
 -1      1631 1.48274E-02-1.79998E-03-1.52132E-13
 -1      1632 1.48012E-02-1.75783E-03-1.52240E-13
 -1      1633 1.46644E-02-1.71367E-03-1.50195E-13
 -1      1634 1.48798E-02-1.88428E-03-1.51905E-13
 -1      1635 1.48536E-02-1.84213E-03-1.52021E-13
 -1      1636 1.47168E-02-1.79797E-03-1.49977E-13
 -1      1637 1.49314E-02-1.96716E-03-1.51658E-13
 -1      1638 1.49056E-02-1.92572E-03-1.51784E-13
 -1      1639 1.47688E-02-1.88155E-03-1.49746E-13
 -1      1640 1.49838E-02-2.05147E-03-1.51396E-13
 -1      1641 1.49576E-02-2.00931E-03-1.51527E-13
 -1      1642 1.48208E-02-1.96515E-03-1.49500E-13
 -1      1643 1.50362E-02-2.13579E-03-1.51140E-13
 -1      1644 1.50100E-02-2.09363E-03-1.51267E-13
 -1      1645 1.48732E-02-2.04946E-03-1.49242E-13
 -1      1646 1.50887E-02-2.22010E-03-1.50869E-13
 -1      1647 1.50624E-02-2.17794E-03-1.51008E-13
 -1      1648 1.49256E-02-2.13377E-03-1.48980E-13
 -1      1649 1.51411E-02-2.30442E-03-1.50552E-13
 -1      1650 1.51149E-02-2.26226E-03-1.50718E-13
 -1      1651 1.49781E-02-2.21809E-03-1.48698E-13
 -1      1652 1.51936E-02-2.38874E-03-1.50216E-13
 -1      1653 1.51673E-02-2.34658E-03-1.50385E-13
 -1      1654 1.50305E-02-2.30240E-03-1.48384E-13
 -1      1655 1.52452E-02-2.47162E-03-1.49864E-13
 -1      1656 1.52194E-02-2.43018E-03-1.50044E-13
 -1      1657 1.50825E-02-2.38600E-03-1.48050E-13
 -1      1658 1.52976E-02-2.55592E-03-1.49495E-13
 -1      1659 1.52714E-02-2.51377E-03-1.49681E-13
 -1      1660 1.51346E-02-2.46959E-03-1.47702E-13
 -1      1661 1.53501E-02-2.64022E-03-1.49119E-13
 -1      1662 1.53239E-02-2.59807E-03-1.49308E-13
 -1      1663 1.51870E-02-2.55389E-03-1.47336E-13
 -1      1664 1.54026E-02-2.72451E-03-1.48744E-13
 -1      1665 1.53763E-02-2.68236E-03-1.48931E-13
 -1      1666 1.52395E-02-2.63819E-03-1.46966E-13
 -1      1667 1.54081E-02-2.79263E-03-1.47712E-13
 -1      1668 1.53819E-02-2.75049E-03-1.47898E-13
 -1      1669 1.52450E-02-2.70631E-03-1.45937E-13
 -1      1670 1.52036E-02-2.75827E-03-1.44255E-13
 -1      1671 5.04793E-03-2.95938E-04-8.49184E-15
 -1      1672 5.08744E-03-3.34723E-04-8.51355E-15
 -1      1673 4.87979E-03-1.88887E-04-8.26986E-15
 -1      1674 4.97100E-03-2.38487E-04-8.36694E-15
 -1      1675 4.60437E-03-6.20676E-05-7.96138E-15
 -1      1676 4.74294E-03-1.26664E-04-8.13309E-15
 -1      1677 4.26077E-03 1.02769E-04-7.46367E-15
 -1      1678 4.42813E-03 2.61696E-05-7.69786E-15
 -1      1679 3.87203E-03 2.75314E-04-6.86871E-15
 -1      1680 4.05528E-03 1.95054E-04-7.15481E-15
 -1      1681 3.46960E-03 4.29472E-04-6.21020E-15
 -1      1682 3.65158E-03 3.61446E-04-6.52421E-15
 -1      1683 3.07642E-03 5.35471E-04-5.49918E-15
 -1      1684 3.25642E-03 4.94559E-04-5.82742E-15
 -1      1685 2.70088E-03 5.63807E-04-4.81207E-15
 -1      1686 2.87199E-03 5.59610E-04-5.11974E-15
 -1      1687 2.31421E-03 5.16925E-04-4.12268E-15
 -1      1688 2.49575E-03 5.53303E-04-4.43650E-15
 -1      1689 1.92779E-03 4.02896E-04-3.56141E-15
 -1      1690 2.09338E-03 4.57959E-04-3.80587E-15
 -1      1691 1.56799E-03 2.54184E-04-3.05054E-15
 -1      1692 1.74070E-03 3.24738E-04-3.27054E-15
 -1      1693 1.21301E-03 1.22653E-04-2.67643E-15
 -1      1694 1.36287E-03 1.84642E-04-2.84329E-15
 -1      1695 9.28469E-04 4.24417E-06-2.38362E-15
 -1      1696 1.05218E-03 5.60911E-05-2.50785E-15
 -1      1697 7.27404E-04-1.00612E-04-2.15840E-15
 -1      1698 8.10221E-04-6.26097E-05-2.23563E-15
 -1      1699 6.44006E-04-1.67007E-04-2.09529E-15
 -1      1700 6.65790E-04-1.35707E-04-2.12069E-15
 -1      1701 6.90183E-04-2.40327E-04-2.10723E-15
 -1      1702 6.52489E-04-2.05309E-04-2.08555E-15
 -1      1703 8.60249E-04-3.41747E-04-2.23664E-15
 -1      1704 7.67487E-04-2.92539E-04-2.16777E-15
 -1      1705 1.12375E-03-4.79235E-04-2.45831E-15
 -1      1706 9.91517E-04-4.13387E-04-2.34822E-15
 -1      1707 1.48984E-03-6.50707E-04-2.77183E-15
 -1      1708 1.31349E-03-5.61250E-04-2.60450E-15
 -1      1709 1.87984E-03-8.52515E-04-3.20211E-15
 -1      1710 1.69797E-03-7.61492E-04-2.99763E-15
 -1      1711 2.25789E-03-1.02657E-03-3.69217E-15
 -1      1712 2.08390E-03-9.51907E-04-3.46262E-15
 -1      1713 2.64984E-03-1.15304E-03-4.26457E-15
 -1      1714 2.47003E-03-1.10239E-03-3.98539E-15
 -1      1715 3.03657E-03-1.20059E-03-4.91745E-15
 -1      1716 2.86174E-03-1.19101E-03-4.61079E-15
 -1      1717 3.42166E-03-1.15344E-03-5.60164E-15
 -1      1718 3.24553E-03-1.18519E-03-5.28641E-15
 -1      1719 3.80748E-03-1.03260E-03-6.30268E-15
 -1      1720 3.62840E-03-1.09644E-03-5.98640E-15
 -1      1721 4.19504E-03-8.75953E-04-6.94842E-15
 -1      1722 4.02181E-03-9.51008E-04-6.65762E-15
 -1      1723 4.54407E-03-7.22980E-04-7.49975E-15
 -1      1724 4.39160E-03-7.93444E-04-7.25251E-15
 -1      1725 4.82935E-03-5.80345E-04-7.98458E-15
 -1      1726 4.70446E-03-6.41408E-04-7.78569E-15
 -1      1727 5.02688E-03-4.70923E-04-8.28526E-15
 -1      1728 4.95009E-03-5.20053E-04-8.15694E-15
 -1      1729 5.09981E-03-3.79641E-04-8.46939E-15
 -1      1730 5.08177E-03-4.18154E-04-8.41864E-15
 -1      1731 4.09715E-03 1.06068E-04-7.53729E-15
 -1      1732 4.47352E-03-7.53091E-05-8.12705E-15
 -1      1733 1.46513E-02-1.55259E-03-1.52313E-13
 -1      1734 1.45407E-02-1.55058E-03-1.50160E-13
 -1      1735 5.01032E-03-3.04177E-04-8.81551E-15
 -1      1736 4.79095E-03-2.10739E-04-8.54413E-15
 -1      1737 5.10283E-03-3.63949E-04-8.90064E-15
 -1      1738 3.69597E-03 2.98800E-04-6.86707E-15
 -1      1739 3.31067E-03 4.68958E-04-6.12485E-15
 -1      1740 2.95495E-03 5.70773E-04-5.35512E-15
 -1      1741 2.60208E-03 5.83605E-04-4.60003E-15
 -1      1742 2.25672E-03 4.98381E-04-3.91963E-15
 -1      1743 1.88564E-03 3.47976E-04-3.32541E-15
 -1      1744 1.52281E-03 1.83817E-04-2.85022E-15
 -1      1745 1.16762E-03 4.28738E-05-2.49207E-15
 -1      1746 8.82781E-04-7.46416E-05-2.18950E-15
 -1      1747 6.95167E-04-1.38464E-04-2.01830E-15
 -1      1748 6.40701E-04-1.79019E-04-1.97489E-15
 -1      1749 7.30256E-04-2.28638E-04-2.02137E-15
 -1      1750 9.46765E-04-3.22211E-04-2.18276E-15
 -1      1751 1.26983E-03-4.64433E-04-2.42552E-15
 -1      1752 1.65754E-03-6.60982E-04-2.77484E-15
 -1      1753 2.04720E-03-8.83559E-04-3.24193E-15
 -1      1754 2.42151E-03-1.07407E-03-3.78113E-15
 -1      1755 2.78138E-03-1.19785E-03-4.41051E-15
 -1      1756 3.12656E-03-1.21910E-03-5.12435E-15
 -1      1757 3.48298E-03-1.13456E-03-5.88494E-15
 -1      1758 3.85442E-03-9.76027E-04-6.64030E-15
 -1      1759 4.23770E-03-7.96988E-04-7.31799E-15
 -1      1760 4.58900E-03-6.32368E-04-7.92584E-15
 -1      1761 4.87587E-03-5.07395E-04-8.40143E-15
 -1      1762 5.05758E-03-4.22251E-04-8.71843E-15
 -1      1763 3.68053E-04-1.65632E-04-2.78775E-17
 -1      1764 3.54377E-04-5.62209E-05-1.45581E-16
 -1      1765 3.79135E-04-7.89538E-05-1.33316E-16
 -1      1766 4.04861E-04-1.06639E-04-1.18896E-16
 -1      1767 4.33319E-04-1.39405E-04-9.91096E-17
 -1      1768 5.32397E-04-1.39279E-04-1.94519E-16
 -1      1769 2.61148E-04-1.08177E-05-1.74624E-16
 -1      1770 2.82272E-04-1.49701E-05-1.69366E-16
 -1      1771 2.27350E-04-1.53433E-05-1.81983E-16
 -1      1772 2.42052E-04-1.11514E-05-1.78636E-16
 -1      1773 3.34361E-04-2.50410E-05-2.61211E-16
 -1      1774 2.13446E-04-3.09782E-05-1.86835E-16
 -1      1775 2.17476E-04-2.25798E-05-1.84653E-16
 -1      1776 2.91955E-04-3.10560E-05-2.70454E-16
 -1      1777 2.22536E-04-4.57457E-05-1.89857E-16
 -1      1778 2.15412E-04-3.93741E-05-1.88475E-16
 -1      1779 2.80855E-04-4.79227E-05-2.76566E-16
 -1      1780 2.49203E-04-4.85445E-05-1.91389E-16
 -1      1781 2.34489E-04-4.91700E-05-1.90860E-16
 -1      1782 3.02506E-04-5.97290E-05-2.80456E-16
 -1      1783 2.83300E-04-3.43930E-05-1.91443E-16
 -1      1784 2.66213E-04-4.35534E-05-1.91565E-16
 -1      1785 3.45912E-04-5.39219E-05-2.82408E-16
 -1      1786 3.15099E-04-5.77307E-06-1.89532E-16
 -1      1787 2.99939E-04-2.15490E-05-1.90914E-16
 -1      1788 3.94843E-04-2.73709E-05-2.82353E-16
 -1      1789 3.41298E-04 3.32300E-05-1.84314E-16
 -1      1790 3.29088E-04 1.29184E-05-1.87486E-16
 -1      1791 4.37982E-04 1.56895E-05-2.79318E-16
 -1      1792 3.61601E-04 7.76584E-05-1.74082E-16
 -1      1793 3.51960E-04 5.50634E-05-1.80154E-16
 -1      1794 4.71538E-04 6.91734E-05-2.71240E-16
 -1      1795 3.80141E-04 1.26278E-04-1.55569E-16
 -1      1796 3.70571E-04 1.01523E-04-1.66303E-16
 -1      1797 4.97517E-04 1.28159E-04-2.55479E-16
 -1      1798 4.05895E-04 1.83729E-04-1.23613E-16
 -1      1799 3.91271E-04 1.53628E-04-1.41895E-16
 -1      1800 5.23603E-04 1.92750E-04-2.27425E-16
 -1      1801 4.74881E-04 2.51790E-04-1.03040E-16
 -1      1802 4.37874E-04 2.14263E-04-1.17595E-16
 -1      1803 5.72943E-04 2.60841E-04-2.02570E-16
 -1      1804 6.51137E-04 3.32494E-04-1.83976E-16
 -1      1805 4.33798E-04-1.69516E-04-6.37104E-17
 -1      1806 9.95302E-04 4.71078E-04-4.61586E-16
 -1      1807 8.24802E-04 4.04656E-04-3.04119E-16
 -1      1808 7.82206E-04 3.66951E-04-3.15760E-16
 -1      1809 5.79179E-04-2.12946E-04-1.27638E-16
 -1      1810 1.03446E-03-4.00884E-04-3.76001E-16
 -1      1811 1.22505E-03-4.80922E-04-5.42142E-16
 -1      1812 1.41503E-03-5.66958E-04-7.43153E-16
 -1      1813 1.60337E-03-6.59767E-04-9.80254E-16
 -1      1814 1.26087E-03-4.71262E-04-6.84064E-16
 -1      1815 1.79143E-03-7.59701E-04-1.25400E-15
 -1      1816 1.97663E-03-8.65228E-04-1.56637E-15
 -1      1817 1.63762E-03-6.55356E-04-1.16514E-15
 -1      1818 2.16007E-03-9.73795E-04-1.91764E-15
 -1      1819 2.33930E-03-1.08091E-03-2.30978E-15
 -1      1820 2.01537E-03-8.67591E-04-1.79421E-15
 -1      1821 2.51411E-03-1.18126E-03-2.74412E-15
 -1      1822 2.68474E-03-1.26745E-03-3.22182E-15
 -1      1823 2.38591E-03-1.08739E-03-2.58284E-15
 -1      1824 2.84951E-03-1.33408E-03-3.74519E-15
 -1      1825 3.01354E-03-1.37548E-03-4.31331E-15
 -1      1826 2.73952E-03-1.26746E-03-3.54308E-15
 -1      1827 3.17438E-03-1.38990E-03-4.92717E-15
 -1      1828 3.33890E-03-1.37845E-03-5.58649E-15
 -1      1829 3.07807E-03-1.35321E-03-4.68492E-15
 -1      1830 3.50470E-03-1.34451E-03-6.28994E-15
 -1      1831 3.67563E-03-1.29491E-03-7.03758E-15
 -1      1832 3.41792E-03-1.32576E-03-6.00882E-15
 -1      1833 3.85024E-03-1.23573E-03-7.82734E-15
 -1      1834 4.02760E-03-1.17396E-03-8.65685E-15
 -1      1835 3.77232E-03-1.21922E-03-7.51063E-15
 -1      1836 4.20777E-03-1.11484E-03-9.52583E-15
 -1      1837 4.38770E-03-1.06206E-03-1.04328E-14
 -1      1838 4.13821E-03-1.09174E-03-9.17655E-15
 -1      1839 4.56849E-03-1.01829E-03-1.13764E-14
 -1      1840 4.74718E-03-9.84290E-04-1.23552E-14
 -1      1841 4.50396E-03-9.86662E-04-1.09961E-14
 -1      1842 4.92510E-03-9.60506E-04-1.33672E-14
 -1      1843 5.10027E-03-9.46201E-04-1.44130E-14
 -1      1844 4.86089E-03-9.21422E-04-1.29576E-14
 -1      1845 5.27373E-03-9.40604E-04-1.54909E-14
 -1      1846 5.44448E-03-9.42598E-04-1.65987E-14
 -1      1847 5.20612E-03-8.95827E-04-1.50529E-14
 -1      1848 5.61311E-03-9.51016E-04-1.77357E-14
 -1      1849 5.77930E-03-9.64859E-04-1.89007E-14
 -1      1850 5.54020E-03-9.02206E-04-1.72717E-14
 -1      1851 5.94331E-03-9.83025E-04-2.00946E-14
 -1      1852 6.10521E-03-1.00475E-03-2.13140E-14
 -1      1853 5.86481E-03-9.31563E-04-1.96046E-14
 -1      1854 6.26507E-03-1.02919E-03-2.25602E-14
 -1      1855 6.42314E-03-1.05578E-03-2.38342E-14
 -1      1856 6.18161E-03-9.76156E-04-2.20461E-14
 -1      1857 6.57939E-03-1.08395E-03-2.51348E-14
 -1      1858 6.73416E-03-1.11330E-03-2.64615E-14
 -1      1859 6.49198E-03-1.03014E-03-2.45943E-14
 -1      1860 6.88740E-03-1.14347E-03-2.78155E-14
 -1      1861 7.03942E-03-1.17419E-03-2.91968E-14
 -1      1862 6.79704E-03-1.08943E-03-2.72522E-14
 -1      1863 7.19018E-03-1.20525E-03-3.06060E-14
 -1      1864 7.33996E-03-1.23646E-03-3.20419E-14
 -1      1865 7.09776E-03-1.15131E-03-3.00175E-14
 -1      1866 7.48873E-03-1.26772E-03-3.35073E-14
 -1      1867 7.63672E-03-1.29889E-03-3.50025E-14
 -1      1868 7.39494E-03-1.21407E-03-3.28955E-14
 -1      1869 7.78393E-03-1.32994E-03-3.65261E-14
 -1      1870 7.93052E-03-1.36079E-03-3.80800E-14
 -1      1871 7.68927E-03-1.27669E-03-3.58871E-14
 -1      1872 8.07651E-03-1.39143E-03-3.96648E-14
 -1      1873 8.22203E-03-1.42181E-03-4.12787E-14
 -1      1874 7.98136E-03-1.33859E-03-3.89993E-14
 -1      1875 8.36709E-03-1.45193E-03-4.29217E-14
 -1      1876 8.51180E-03-1.48179E-03-4.45927E-14
 -1      1877 8.27169E-03-1.39950E-03-4.22300E-14
 -1      1878 8.65617E-03-1.51139E-03-4.62915E-14
 -1      1879 8.80027E-03-1.54072E-03-4.80136E-14
 -1      1880 8.56068E-03-1.45932E-03-4.55729E-14
 -1      1881 8.94413E-03-1.56982E-03-4.97625E-14
 -1      1882 9.08779E-03-1.59867E-03-5.15352E-14
 -1      1883 8.84865E-03-1.51808E-03-4.90210E-14
 -1      1884 9.23127E-03-1.62731E-03-5.33336E-14
 -1      1885 9.37462E-03-1.65574E-03-5.51570E-14
 -1      1886 9.13587E-03-1.57585E-03-5.25696E-14
 -1      1887 9.51784E-03-1.68398E-03-5.70047E-14
 -1      1888 9.66097E-03-1.71203E-03-5.88764E-14
 -1      1889 9.42254E-03-1.63275E-03-5.62174E-14
 -1      1890 9.80401E-03-1.73993E-03-6.07705E-14
 -1      1891 9.94699E-03-1.76768E-03-6.26874E-14
 -1      1892 9.70882E-03-1.68889E-03-5.99614E-14
 -1      1893 1.00899E-02-1.79530E-03-6.46280E-14
 -1      1894 1.02328E-02-1.82279E-03-6.65901E-14
 -1      1895 9.99483E-03-1.74441E-03-6.37957E-14
 -1      1896 1.03756E-02-1.85017E-03-6.85724E-14
 -1      1897 1.05185E-02-1.87746E-03-7.05738E-14
 -1      1898 1.02807E-02-1.79940E-03-6.77198E-14
 -1      1899 1.06613E-02-1.90466E-03-7.25970E-14
 -1      1900 1.08040E-02-1.93178E-03-7.46403E-14
 -1      1901 1.05664E-02-1.85398E-03-7.17259E-14
 -1      1902 1.09468E-02-1.95883E-03-7.67022E-14
 -1      1903 1.10896E-02-1.98583E-03-7.87869E-14
 -1      1904 1.08520E-02-1.90823E-03-7.58125E-14
 -1      1905 1.12324E-02-2.01277E-03-8.08902E-14
 -1      1906 1.13751E-02-2.03967E-03-8.30085E-14
 -1      1907 1.11376E-02-1.96222E-03-7.99788E-14
 -1      1908 1.15179E-02-2.06653E-03-8.51470E-14
 -1      1909 1.16607E-02-2.09335E-03-8.73025E-14
 -1      1910 1.14232E-02-2.01601E-03-8.42223E-14
 -1      1911 1.18034E-02-2.12014E-03-8.94730E-14
 -1      1912 1.19462E-02-2.14691E-03-9.16610E-14
 -1      1913 1.17088E-02-2.06965E-03-8.85336E-14
 -1      1914 1.20890E-02-2.17366E-03-9.38630E-14
 -1      1915 1.22318E-02-2.20039E-03-9.60812E-14
 -1      1916 1.19944E-02-2.12319E-03-9.29072E-14
 -1      1917 1.23746E-02-2.22710E-03-9.83160E-14
 -1      1918 1.25174E-02-2.25380E-03-1.00563E-13
 -1      1919 1.22800E-02-2.17665E-03-9.73465E-14
 -1      1920 1.26602E-02-2.28050E-03-1.02826E-13
 -1      1921 1.28030E-02-2.30718E-03-1.05101E-13
 -1      1922 1.25656E-02-2.23005E-03-1.01843E-13
 -1      1923 1.29458E-02-2.33386E-03-1.07387E-13
 -1      1924 1.30886E-02-2.36053E-03-1.09685E-13
 -1      1925 1.28513E-02-2.28341E-03-1.06393E-13
 -1      1926 1.32314E-02-2.38719E-03-1.11990E-13
 -1      1927 1.33743E-02-2.41386E-03-1.14301E-13
 -1      1928 1.31369E-02-2.33675E-03-1.10985E-13
 -1      1929 1.35171E-02-2.44052E-03-1.16621E-13
 -1      1930 1.36599E-02-2.46718E-03-1.18945E-13
 -1      1931 1.34226E-02-2.39008E-03-1.15610E-13
 -1      1932 1.38028E-02-2.49384E-03-1.21273E-13
 -1      1933 1.39456E-02-2.52049E-03-1.23605E-13
 -1      1934 1.37082E-02-2.44340E-03-1.20257E-13
 -1      1935 1.40885E-02-2.54715E-03-1.25940E-13
 -1      1936 1.42313E-02-2.57381E-03-1.28279E-13
 -1      1937 1.39939E-02-2.49671E-03-1.24922E-13
 -1      1938 1.43742E-02-2.60047E-03-1.30624E-13
 -1      1939 1.45170E-02-2.62713E-03-1.32969E-13
 -1      1940 1.42796E-02-2.55003E-03-1.29599E-13
 -1      1941 1.46599E-02-2.65380E-03-1.35321E-13
 -1      1942 1.48027E-02-2.68046E-03-1.37677E-13
 -1      1943 1.45653E-02-2.60335E-03-1.34301E-13
 -1      1944 1.49317E-02-2.70603E-03-1.39779E-13
 -1      1945 1.50746E-02-2.73270E-03-1.42142E-13
 -1      1946 1.50953E-02-2.70672E-03-1.42978E-13
 -1      1947 1.48372E-02-2.65558E-03-1.38760E-13
 -1      1948 1.32466E-03 5.91873E-04-8.89737E-16
 -1      1949 1.16161E-03 5.33197E-04-6.56240E-16
 -1      1950 1.12019E-03 4.96053E-04-6.66052E-16
 -1      1951 1.64049E-03 7.00408E-04-1.47346E-15
 -1      1952 1.48420E-03 6.47830E-04-1.16193E-15
 -1      1953 1.44688E-03 6.12302E-04-1.16771E-15
 -1      1954 1.94369E-03 7.92724E-04-2.21706E-15
 -1      1955 1.79364E-03 7.49136E-04-1.82501E-15
 -1      1956 1.76200E-03 7.15972E-04-1.82569E-15
 -1      1957 2.23556E-03 8.58929E-04-3.12439E-15
 -1      1958 2.09088E-03 8.29749E-04-2.64994E-15
 -1      1959 2.06583E-03 7.99714E-04-2.64427E-15
 -1      1960 2.51910E-03 8.87909E-04-4.19795E-15
 -1      1961 2.37799E-03 8.78527E-04-3.64010E-15
 -1      1962 2.35976E-03 8.51988E-04-3.62752E-15
 -1      1963 2.79940E-03 8.72809E-04-5.43803E-15
 -1      1964 2.65913E-03 8.85864E-04-4.79732E-15
 -1      1965 2.64741E-03 8.62399E-04-4.77739E-15
 -1      1966 3.08223E-03 8.14927E-04-6.84361E-15
 -1      1967 2.94000E-03 8.48708E-04-6.12001E-15
 -1      1968 2.93419E-03 8.27205E-04-6.09292E-15
 -1      1969 3.37214E-03 7.23771E-04-8.41006E-15
 -1      1970 3.22600E-03 7.72681E-04-7.60710E-15
 -1      1971 3.22536E-03 7.51812E-04-7.57193E-15
 -1      1972 3.67105E-03 6.13537E-04-1.01317E-14
 -1      1973 3.52042E-03 6.70187E-04-9.25156E-15
 -1      1974 3.52407E-03 6.48928E-04-9.20982E-15
 -1      1975 3.97817E-03 4.98266E-04-1.20040E-14
 -1      1976 3.82373E-03 5.55888E-04-1.10493E-14
 -1      1977 3.83049E-03 5.33746E-04-1.10006E-14
 -1      1978 4.29107E-03 3.88342E-04-1.40224E-14
 -1      1979 4.13414E-03 4.42278E-04-1.29948E-14
 -1      1980 4.14268E-03 4.19200E-04-1.29386E-14
 -1      1981 4.60678E-03 2.89469E-04-1.61837E-14
 -1      1982 4.44883E-03 3.37416E-04-1.50852E-14
 -1      1983 4.45784E-03 3.13582E-04-1.50206E-14
 -1      1984 4.92266E-03 2.03354E-04-1.84829E-14
 -1      1985 4.76491E-03 2.44869E-04-1.73166E-14
 -1      1986 4.77337E-03 2.20526E-04-1.72438E-14
 -1      1987 5.23674E-03 1.29123E-04-2.09185E-14
 -1      1988 5.08007E-03 1.64882E-04-1.96842E-14
 -1      1989 5.08732E-03 1.40261E-04-1.96018E-14
 -1      1990 5.54777E-03 6.46375E-05-2.34822E-14
 -1      1991 5.39272E-03 9.58111E-05-2.21848E-14
 -1      1992 5.39847E-03 7.10951E-05-2.20924E-14
 -1      1993 5.85518E-03 7.41629E-06-2.61684E-14
 -1      1994 5.70196E-03 3.52562E-05-2.48096E-14
 -1      1995 5.70620E-03 1.05773E-05-2.47068E-14
 -1      1996 6.15884E-03-4.48415E-05-2.89780E-14
 -1      1997 6.00748E-03-1.92211E-05-2.75587E-14
 -1      1998 6.01037E-03-4.37759E-05-2.74448E-14
 -1      1999 6.45896E-03-9.40269E-05-3.19062E-14
 -1      2000 6.30932E-03-6.97343E-05-3.04273E-14
 -1      2001 6.31110E-03-9.41149E-05-3.03035E-14
 -1      2002 6.75593E-03-1.41571E-04-3.49497E-14
 -1      2003 6.60781E-03-1.17945E-04-3.34143E-14
 -1      2004 6.60873E-03-1.42130E-04-3.32812E-14
 -1      2005 7.05019E-03-1.88486E-04-3.81028E-14
 -1      2006 6.90336E-03-1.65069E-04-3.65129E-14
 -1      2007 6.90366E-03-1.89056E-04-3.63695E-14
 -1      2008 7.34223E-03-2.35441E-04-4.13643E-14
 -1      2009 7.19645E-03-2.11936E-04-3.97207E-14
 -1      2010 7.19634E-03-2.35736E-04-3.95689E-14
 -1      2011 7.63249E-03-2.82841E-04-4.47323E-14
 -1      2012 7.48755E-03-2.59073E-04-4.30338E-14
 -1      2013 7.48718E-03-2.82706E-04-4.28732E-14
 -1      2014 7.92136E-03-3.30902E-04-4.82068E-14
 -1      2015 7.77707E-03-3.06784E-04-4.64553E-14
 -1      2016 7.77657E-03-3.30273E-04-4.62845E-14
 -1      2017 8.20919E-03-3.79712E-04-5.17906E-14
 -1      2018 8.06538E-03-3.55214E-04-4.99857E-14
 -1      2019 8.06482E-03-3.78580E-04-4.98061E-14
 -1      2020 8.49623E-03-4.29270E-04-5.54780E-14
 -1      2021 8.35279E-03-4.04401E-04-5.36225E-14
 -1      2022 8.35223E-03-4.27667E-04-5.34337E-14
 -1      2023 8.78272E-03-4.79528E-04-5.92599E-14
 -1      2024 8.63953E-03-4.54317E-04-5.73568E-14
 -1      2025 8.63901E-03-4.77504E-04-5.71589E-14
 -1      2026 9.06881E-03-5.30410E-04-6.31324E-14
 -1      2027 8.92580E-03-5.04897E-04-6.11852E-14
 -1      2028 8.92534E-03-5.28021E-04-6.09779E-14
 -1      2029 9.35465E-03-5.81828E-04-6.70957E-14
 -1      2030 9.21175E-03-5.56057E-04-6.51025E-14
 -1      2031 9.21136E-03-5.79134E-04-6.48866E-14
 -1      2032 9.64032E-03-6.33694E-04-7.11436E-14
 -1      2033 9.49750E-03-6.07710E-04-6.91093E-14
 -1      2034 9.49717E-03-6.30750E-04-6.88845E-14
 -1      2035 9.92589E-03-6.85925E-04-7.52741E-14
 -1      2036 9.78311E-03-6.59768E-04-7.31986E-14
 -1      2037 9.78285E-03-6.82783E-04-7.29651E-14
 -1      2038 1.02114E-02-7.38449E-04-7.94961E-14
 -1      2039 1.00687E-02-7.12154E-04-7.73732E-14
 -1      2040 1.00684E-02-7.35150E-04-7.71329E-14
 -1      2041 1.04969E-02-7.91201E-04-8.38061E-14
 -1      2042 1.03542E-02-7.64799E-04-8.16402E-14
 -1      2043 1.03540E-02-7.87782E-04-8.13914E-14
 -1      2044 1.07824E-02-8.44129E-04-8.82049E-14
 -1      2045 1.06397E-02-8.17645E-04-8.59964E-14
 -1      2046 1.06395E-02-8.40619E-04-8.57381E-14
 -1      2047 1.10679E-02-8.97189E-04-9.26777E-14
 -1      2048 1.09252E-02-8.70644E-04-9.04306E-14
 -1      2049 1.09251E-02-8.93612E-04-9.01638E-14
 -1      2050 1.13535E-02-9.50346E-04-9.72117E-14
 -1      2051 1.12107E-02-9.23757E-04-9.49385E-14
 -1      2052 1.12107E-02-9.46721E-04-9.46605E-14
 -1      2053 1.16391E-02-1.00357E-03-1.01804E-13
 -1      2054 1.14963E-02-9.76952E-04-9.95008E-14
 -1      2055 1.14962E-02-9.99915E-04-9.92141E-14
 -1      2056 1.19246E-02-1.05685E-03-1.06441E-13
 -1      2057 1.17818E-02-1.03021E-03-1.04119E-13
 -1      2058 1.17818E-02-1.05317E-03-1.03824E-13
 -1      2059 1.22103E-02-1.11016E-03-1.11122E-13
 -1      2060 1.20674E-02-1.08350E-03-1.08776E-13
 -1      2061 1.20674E-02-1.10646E-03-1.08475E-13
 -1      2062 1.24959E-02-1.16349E-03-1.15841E-13
 -1      2063 1.23531E-02-1.13682E-03-1.13476E-13
 -1      2064 1.23531E-02-1.15979E-03-1.13168E-13
 -1      2065 1.27815E-02-1.21683E-03-1.20589E-13
 -1      2066 1.26387E-02-1.19016E-03-1.18212E-13
 -1      2067 1.26387E-02-1.21312E-03-1.17895E-13
 -1      2068 1.30672E-02-1.27018E-03-1.25361E-13
 -1      2069 1.29244E-02-1.24351E-03-1.22973E-13
 -1      2070 1.29244E-02-1.26647E-03-1.22654E-13
 -1      2071 1.33529E-02-1.32353E-03-1.30152E-13
 -1      2072 1.32101E-02-1.29686E-03-1.27755E-13
 -1      2073 1.32101E-02-1.31982E-03-1.27430E-13
 -1      2074 1.36386E-02-1.37688E-03-1.34958E-13
 -1      2075 1.34957E-02-1.35021E-03-1.32552E-13
 -1      2076 1.34958E-02-1.37317E-03-1.32222E-13
 -1      2077 1.39243E-02-1.43022E-03-1.39786E-13
 -1      2078 1.37814E-02-1.40355E-03-1.37369E-13
 -1      2079 1.37815E-02-1.42652E-03-1.37036E-13
 -1      2080 1.42100E-02-1.48356E-03-1.44625E-13
 -1      2081 1.40671E-02-1.45689E-03-1.42205E-13
 -1      2082 1.40672E-02-1.47986E-03-1.41871E-13
 -1      2083 1.44468E-02-1.53040E-03-1.48603E-13
 -1      2084 1.43039E-02-1.50374E-03-1.46179E-13
 -1      2085 1.43040E-02-1.52671E-03-1.45845E-13
 -1      2086 1.44918E-02-1.56706E-03-1.48955E-13
 -1      2087 1.46062E-02-1.79595E-03-1.47826E-13
 -1      2088 1.45800E-02-1.75380E-03-1.47937E-13
 -1      2089 1.45538E-02-1.71165E-03-1.48045E-13
 -1      2090 1.45276E-02-1.66951E-03-1.48152E-13
 -1      2091 1.44432E-02-1.70964E-03-1.45896E-13
 -1      2092 1.45228E-02-1.63936E-03-1.48502E-13
 -1      2093 1.44966E-02-1.59721E-03-1.48606E-13
 -1      2094 1.44027E-02-1.57703E-03-1.47051E-13
 -1      2095 1.44122E-02-1.63734E-03-1.46353E-13
 -1      2096 1.46577E-02-1.87883E-03-1.47593E-13
 -1      2097 1.46320E-02-1.83739E-03-1.47710E-13
 -1      2098 1.44951E-02-1.79322E-03-1.45675E-13
 -1      2099 1.47101E-02-1.96313E-03-1.47345E-13
 -1      2100 1.46839E-02-1.92098E-03-1.47473E-13
 -1      2101 1.45471E-02-1.87681E-03-1.45440E-13
 -1      2102 1.47626E-02-2.04744E-03-1.47090E-13
 -1      2103 1.47364E-02-2.00529E-03-1.47219E-13
 -1      2104 1.45995E-02-1.96112E-03-1.45194E-13
 -1      2105 1.48150E-02-2.13176E-03-1.46825E-13
 -1      2106 1.47888E-02-2.08960E-03-1.46957E-13
 -1      2107 1.46520E-02-2.04543E-03-1.44937E-13
 -1      2108 1.48675E-02-2.21607E-03-1.46536E-13
 -1      2109 1.48412E-02-2.17392E-03-1.46683E-13
 -1      2110 1.47044E-02-2.12974E-03-1.44666E-13
 -1      2111 1.49199E-02-2.30038E-03-1.46222E-13
 -1      2112 1.48937E-02-2.25823E-03-1.46382E-13
 -1      2113 1.47568E-02-2.21406E-03-1.44375E-13
 -1      2114 1.49715E-02-2.38327E-03-1.45896E-13
 -1      2115 1.49457E-02-2.34183E-03-1.46061E-13
 -1      2116 1.48089E-02-2.29765E-03-1.44066E-13
 -1      2117 1.50240E-02-2.46757E-03-1.45546E-13
 -1      2118 1.49977E-02-2.42542E-03-1.45722E-13
 -1      2119 1.48609E-02-2.38125E-03-1.43738E-13
 -1      2120 1.50764E-02-2.55187E-03-1.45183E-13
 -1      2121 1.50502E-02-2.50972E-03-1.45363E-13
 -1      2122 1.49134E-02-2.46555E-03-1.43390E-13
 -1      2123 1.51289E-02-2.63617E-03-1.44817E-13
 -1      2124 1.51027E-02-2.59402E-03-1.45001E-13
 -1      2125 1.49658E-02-2.54985E-03-1.43032E-13
 -1      2126 4.71026E-03-2.30361E-04-8.88065E-15
 -1      2127 4.84693E-03-2.75376E-04-9.03016E-15
 -1      2128 5.10109E-03-3.67556E-04-9.42118E-15
 -1      2129 5.11234E-03-3.78971E-04-9.37712E-15
 -1      2130 4.95567E-03-3.12414E-04-9.15797E-15
 -1      2131 5.03812E-03-3.39138E-04-9.28932E-15
 -1      2132 4.89628E-03-3.15148E-04-9.49693E-15
 -1      2133 4.34094E-03-8.10061E-05-8.38939E-15
 -1      2134 4.51396E-03-1.59145E-04-8.67039E-15
 -1      2135 3.97971E-03 1.05755E-04-7.72167E-15
 -1      2136 4.16575E-03 8.52239E-06-8.04988E-15
 -1      2137 4.24151E-03-6.55162E-05-8.57753E-15
 -1      2138 3.05611E-04-2.40434E-05-1.63145E-16
 -1      2139 3.29636E-04-3.77238E-05-1.54919E-16
 -1      2140 4.63577E-04-7.92955E-05-2.26178E-16
 -1      2141 3.95793E-04-4.04484E-05-2.47117E-16
 -1      2142 3.19258E-03 5.09323E-04-6.04697E-15
 -1      2143 3.35676E-03 4.33267E-04-6.43967E-15
 -1      2144 2.85684E-03 6.02227E-04-5.20591E-15
 -1      2145 3.00285E-03 5.72373E-04-5.58825E-15
 -1      2146 2.55084E-03 5.90902E-04-4.44433E-15
 -1      2147 2.69899E-03 6.08693E-04-4.81641E-15
 -1      2148 2.77335E-03 6.16914E-04-5.03474E-15
 -1      2149 2.17634E-03 4.60153E-04-3.66322E-15
 -1      2150 2.33770E-03 5.28803E-04-3.96577E-15
 -1      2151 1.85232E-03 2.98903E-04-3.10158E-15
 -1      2152 2.01385E-03 3.85481E-04-3.37580E-15
 -1      2153 2.10276E-03 4.20537E-04-3.41911E-15
 -1      2154 1.45103E-03 1.09911E-04-2.61041E-15
 -1      2155 1.62699E-03 1.88890E-04-2.79654E-15
 -1      2156 1.13172E-03-1.73465E-05-2.29976E-15
 -1      2157 1.28806E-03 4.34868E-05-2.45185E-15
 -1      2158 1.38107E-03 5.94476E-05-2.40254E-15
 -1      2159 8.57700E-04-1.12079E-04-2.01670E-15
 -1      2160 9.84669E-04-7.15832E-05-2.15335E-15
 -1      2161 1.08018E-03-5.70809E-05-2.11142E-15
 -1      2162 6.60512E-04-1.56304E-04-1.85696E-15
 -1      2163 7.20191E-04-1.47343E-04-1.88563E-15
 -1      2164 6.42701E-04-1.71012E-04-1.83042E-15
 -1      2165 6.35453E-04-1.65955E-04-1.84080E-15
 -1      2166 6.40504E-04-1.58416E-04-1.70825E-15
 -1      2167 7.80361E-04-2.09280E-04-1.90678E-15
 -1      2168 6.99163E-04-1.88148E-04-1.85364E-15
 -1      2169 1.03899E-03-3.09661E-04-2.11678E-15
 -1      2170 9.04034E-04-2.58271E-04-2.01740E-15
 -1      2171 1.38403E-03-4.53189E-04-2.34701E-15
 -1      2172 1.20550E-03-3.74161E-04-2.21948E-15
 -1      2173 1.80470E-03-6.91681E-04-2.77656E-15
 -1      2174 1.61301E-03-5.77913E-04-2.56963E-15
 -1      2175 2.19367E-03-9.27459E-04-3.26833E-15
 -1      2176 2.02190E-03-8.18354E-04-3.02453E-15
 -1      2177 2.53412E-03-1.11770E-03-3.84493E-15
 -1      2178 2.37286E-03-1.03257E-03-3.56372E-15
 -1      2179 2.86922E-03-1.23453E-03-4.52893E-15
 -1      2180 2.72295E-03-1.19396E-03-4.18949E-15
 -1      2181 3.20142E-03-1.22678E-03-5.36273E-15
 -1      2182 3.05705E-03-1.24690E-03-4.98990E-15
 -1      2183 3.51276E-03-1.11722E-03-6.13696E-15
 -1      2184 3.35567E-03-1.18403E-03-5.74364E-15
 -1      2185 3.26987E-03-1.21874E-03-5.59787E-15
 -1      2186 3.91076E-03-9.15714E-04-7.05700E-15
 -1      2187 3.73721E-03-1.00913E-03-6.68419E-15
 -1      2188 4.29601E-03-7.24712E-04-7.75173E-15
 -1      2189 4.11993E-03-8.12883E-04-7.42970E-15
 -1      2190 4.63323E-03-5.65347E-04-8.43583E-15
 -1      2191 4.47512E-03-6.35913E-04-8.13266E-15
 -1      2192 4.92879E-03-4.56822E-04-8.89282E-15
 -1      2193 4.80775E-03-4.98105E-04-8.70614E-15
 -1      2194 5.08434E-03-3.99883E-04-9.21376E-15
 -1      2195 5.02511E-03-4.21194E-04-9.07252E-15
 -1      2196 3.55992E-03 3.27248E-04-6.93128E-15
 -1      2197 3.74111E-03 2.28216E-04-7.29219E-15
 -1      2198 3.84781E-03 1.44066E-04-7.78574E-15
 -1      2199 7.69310E-04-2.87433E-04-2.18494E-16
 -1      2200 2.44802E-03 5.70953E-04-4.16534E-15
 -1      2201 2.53371E-03 6.00025E-04-4.36641E-15
 -1      2202 2.35335E-03 5.38539E-04-3.89679E-15
 -1      2203 3.43969E-03 3.76033E-04-6.84408E-15
 -1      2204 8.17180E-04-2.78733E-04-3.08645E-16
 -1      2205 5.07761E-03-3.65574E-04-9.76193E-15
 -1      2206 4.60168E-03-2.18789E-04-9.14630E-15
 -1      2207 1.51082E-02-2.66215E-03-1.43975E-13
 -1      2208 5.10746E-03-3.89902E-04-9.73055E-15
 -1      2209 4.98121E-03-4.28814E-04-9.37993E-15
 -1      2210 4.71929E-03-5.17541E-04-8.91558E-15
 -1      2211 4.37606E-03-6.64973E-04-8.24510E-15
 -1      2212 3.61138E-03-1.07127E-03-6.52882E-15
 -1      2213 2.97086E-03-1.25532E-03-4.74837E-15
 -1      2214 2.64796E-03-1.16358E-03-3.95430E-15
 -1      2215 2.30848E-03-9.77637E-04-3.32701E-15
 -1      2216 1.94178E-03-7.43355E-04-2.80049E-15
 -1      2217 1.51190E-03-4.91182E-04-2.34699E-15
 -1      2218 1.13353E-03-3.11241E-04-2.04302E-15
 -1      2219 6.62345E-04-1.64495E-04-1.71399E-15
 -1      2220 7.23707E-04-1.49370E-04-1.67862E-15
 -1      2221 7.83817E-04-1.39606E-04-1.84252E-15
 -1      2222 8.55442E-04-1.28025E-04-1.79916E-15
 -1      2223 1.74447E-03 2.34379E-04-2.84107E-15
 -1      2224 3.07834E-03 5.49013E-04-5.88443E-15
 -1      2225 8.44698E-04-2.07850E-04-1.83975E-15
 -1      2226 4.00586E-03-8.55640E-04-7.47332E-15
 -1      2227 1.17621E-03 4.82880E-04-8.20470E-16
 -1      2228 1.00893E-03 4.22361E-04-6.03833E-16
 -1      2229 3.51763E-04-4.80962E-05-3.85874E-16
 -1      2230 3.70752E-04-4.20019E-05-3.80799E-16
 -1      2231 4.00452E-04-4.02112E-05-3.74998E-16
 -1      2232 4.37024E-04-4.50299E-05-3.67667E-16
 -1      2233 4.57977E-04-5.70152E-05-5.12069E-16
 -1      2234 3.89023E-04-7.13370E-05-3.98349E-16
 -1      2235 3.64930E-04-7.09792E-05-3.96059E-16
 -1      2236 4.52834E-04-5.31864E-05-4.01345E-16
 -1      2237 4.19911E-04-6.54992E-05-4.00382E-16
 -1      2238 4.86023E-04-7.76240E-05-5.40366E-16
 -1      2239 5.16852E-04-1.15956E-05-4.01494E-16
 -1      2240 4.85994E-04-3.47861E-05-4.01968E-16
 -1      2241 5.71167E-04-4.38364E-05-5.44703E-16
 -1      2242 5.70373E-04 4.74316E-05-3.96764E-16
 -1      2243 5.45607E-04 1.65688E-05-3.99949E-16
 -1      2244 6.50137E-04 1.52280E-05-5.44676E-16
 -1      2245 6.09818E-04 1.15248E-04-3.84851E-16
 -1      2246 5.91640E-04 8.07658E-05-3.91939E-16
 -1      2247 7.11087E-04 8.96718E-05-5.37995E-16
 -1      2248 6.40911E-04 1.87736E-04-3.61920E-16
 -1      2249 6.25859E-04 1.51067E-04-3.75148E-16
 -1      2250 7.54500E-04 1.70497E-04-5.21284E-16
 -1      2251 1.50462E-03 5.97205E-04-1.36704E-15
 -1      2252 1.34154E-03 5.41346E-04-1.07453E-15
 -1      2253 1.23727E-03 4.68890E-04-9.80539E-16
 -1      2254 1.11150E-03-3.78784E-04-6.22671E-16
 -1      2255 1.29540E-03-4.60312E-04-8.31881E-16
 -1      2256 1.48316E-03-5.49857E-04-1.07482E-15
 -1      2257 1.67269E-03-6.48499E-04-1.35417E-15
 -1      2258 1.32722E-03-4.47676E-04-9.84862E-16
 -1      2259 1.86596E-03-7.55212E-04-1.67063E-15
 -1      2260 2.05867E-03-8.68239E-04-2.02593E-15
 -1      2261 1.70806E-03-6.40584E-04-1.54766E-15
 -1      2262 2.25128E-03-9.83941E-04-2.42196E-15
 -1      2263 2.44011E-03-1.09450E-03-2.85919E-15
 -1      2264 2.10387E-03-8.70512E-04-2.26063E-15
 -1      2265 2.62327E-03-1.19415E-03-3.34115E-15
 -1      2266 2.80269E-03-1.26957E-03-3.86820E-15
 -1      2267 2.49587E-03-1.10657E-03-3.13828E-15
 -1      2268 2.97509E-03-1.31599E-03-4.44092E-15
 -1      2269 3.15003E-03-1.32885E-03-5.06065E-15
 -1      2270 2.86808E-03-1.27191E-03-4.19506E-15
 -1      2271 3.32379E-03-1.30918E-03-5.72535E-15
 -1      2272 3.50436E-03-1.26515E-03-6.43585E-15
 -1      2273 3.22910E-03-1.29482E-03-5.43890E-15
 -1      2274 3.68881E-03-1.20244E-03-7.19018E-15
 -1      2275 3.87669E-03-1.13443E-03-7.98728E-15
 -1      2276 3.60464E-03-1.19016E-03-6.86726E-15
 -1      2277 4.06704E-03-1.06630E-03-8.82477E-15
 -1      2278 4.25502E-03-1.00452E-03-9.70095E-15
 -1      2279 3.99531E-03-1.04131E-03-8.47015E-15
 -1      2280 4.44174E-03-9.52481E-04-1.06147E-14
 -1      2281 4.62332E-03-9.10897E-04-1.15641E-14
 -1      2282 4.38129E-03-9.16412E-04-1.02315E-14
 -1      2283 4.80168E-03-8.80943E-04-1.25478E-14
 -1      2284 4.97492E-03-8.61015E-04-1.35649E-14
 -1      2285 4.74664E-03-8.38678E-04-1.21365E-14
 -1      2286 5.14479E-03-8.50997E-04-1.46132E-14
 -1      2287 5.31070E-03-8.48974E-04-1.56950E-14
 -1      2288 5.08909E-03-8.05526E-04-1.41748E-14
 -1      2289 5.47383E-03-8.54243E-04-1.68067E-14
 -1      2290 5.63419E-03-8.65321E-04-1.79459E-14
 -1      2291 5.41354E-03-8.06739E-04-1.63399E-14
 -1      2292 5.79243E-03-8.81339E-04-1.91137E-14
 -1      2293 5.94879E-03-9.01298E-04-2.03094E-14
 -1      2294 5.72590E-03-8.32204E-04-1.86223E-14
 -1      2295 6.10352E-03-9.24397E-04-2.15308E-14
 -1      2296 6.25692E-03-9.49992E-04-2.27788E-14
 -1      2297 6.03065E-03-8.73927E-04-2.10150E-14
 -1      2298 6.40904E-03-9.77452E-04-2.40554E-14
 -1      2299 6.56018E-03-1.00637E-03-2.53586E-14
 -1      2300 6.33055E-03-9.25992E-04-2.35150E-14
 -1      2301 6.71030E-03-1.03628E-03-2.66879E-14
 -1      2302 6.85965E-03-1.06694E-03-2.80451E-14
 -1      2303 6.62720E-03-9.84185E-04-2.61238E-14
 -1      2304 7.00817E-03-1.09805E-03-2.94289E-14
 -1      2305 7.15608E-03-1.12943E-03-3.08411E-14
 -1      2306 6.92149E-03-1.04562E-03-2.88401E-14
 -1      2307 7.30331E-03-1.16091E-03-3.22824E-14
 -1      2308 7.45005E-03-1.19239E-03-3.37504E-14
 -1      2309 7.21396E-03-1.10839E-03-3.16669E-14
 -1      2310 7.59625E-03-1.22377E-03-3.52491E-14
 -1      2311 7.74205E-03-1.25498E-03-3.67769E-14
 -1      2312 7.50496E-03-1.17132E-03-3.46089E-14
 -1      2313 7.88741E-03-1.28597E-03-3.83345E-14
 -1      2314 8.03246E-03-1.31672E-03-3.99221E-14
 -1      2315 7.79477E-03-1.23369E-03-3.76686E-14
 -1      2316 8.17717E-03-1.34721E-03-4.15379E-14
 -1      2317 8.32162E-03-1.37741E-03-4.31819E-14
 -1      2318 8.08360E-03-1.29514E-03-4.08453E-14
 -1      2319 8.46581E-03-1.40734E-03-4.48544E-14
 -1      2320 8.60981E-03-1.43699E-03-4.65547E-14
 -1      2321 8.37164E-03-1.35552E-03-4.41364E-14
 -1      2322 8.75361E-03-1.46639E-03-4.82791E-14
 -1      2323 8.89726E-03-1.49552E-03-5.00293E-14
 -1      2324 8.65905E-03-1.41479E-03-4.75369E-14
 -1      2325 9.04076E-03-1.52441E-03-5.18038E-14
 -1      2326 9.18415E-03-1.55307E-03-5.36040E-14
 -1      2327 8.94598E-03-1.47303E-03-5.10386E-14
 -1      2328 9.32742E-03-1.58152E-03-5.54292E-14
 -1      2329 9.47062E-03-1.60977E-03-5.72782E-14
 -1      2330 9.23254E-03-1.53033E-03-5.46398E-14
 -1      2331 9.61374E-03-1.63784E-03-5.91508E-14
 -1      2332 9.75680E-03-1.66575E-03-6.10457E-14
 -1      2333 9.51881E-03-1.58681E-03-5.83394E-14
 -1      2334 9.89981E-03-1.69350E-03-6.29641E-14
 -1      2335 1.00428E-02-1.72112E-03-6.49048E-14
 -1      2336 9.80488E-03-1.64261E-03-6.21314E-14
 -1      2337 1.01857E-02-1.74862E-03-6.68655E-14
 -1      2338 1.03286E-02-1.77600E-03-6.88483E-14
 -1      2339 1.00908E-02-1.69783E-03-6.60120E-14
 -1      2340 1.04715E-02-1.80329E-03-7.08532E-14
 -1      2341 1.06143E-02-1.83048E-03-7.28771E-14
 -1      2342 1.03766E-02-1.75259E-03-6.99784E-14
 -1      2343 1.07572E-02-1.85760E-03-7.49206E-14
 -1      2344 1.09000E-02-1.88466E-03-7.69846E-14
 -1      2345 1.06624E-02-1.80697E-03-7.40282E-14
 -1      2346 1.10429E-02-1.91165E-03-7.90692E-14
 -1      2347 1.11857E-02-1.93859E-03-8.11734E-14
 -1      2348 1.09481E-02-1.86107E-03-7.81579E-14
 -1      2349 1.13285E-02-1.96548E-03-8.32951E-14
 -1      2350 1.14713E-02-1.99234E-03-8.54335E-14
 -1      2351 1.12338E-02-1.91494E-03-8.23661E-14
 -1      2352 1.16141E-02-2.01916E-03-8.75911E-14
 -1      2353 1.17569E-02-2.04595E-03-8.97628E-14
 -1      2354 1.15194E-02-1.96865E-03-8.66465E-14
 -1      2355 1.18998E-02-2.07271E-03-9.19530E-14
 -1      2356 1.20426E-02-2.09946E-03-9.41580E-14
 -1      2357 1.18051E-02-2.02223E-03-9.09960E-14
 -1      2358 1.21854E-02-2.12618E-03-9.63759E-14
 -1      2359 1.23282E-02-2.15290E-03-9.86095E-14
 -1      2360 1.20908E-02-2.07571E-03-9.54066E-14
 -1      2361 1.24710E-02-2.17959E-03-1.00859E-13
 -1      2362 1.26139E-02-2.20628E-03-1.03123E-13
 -1      2363 1.23764E-02-2.12914E-03-9.98748E-14
 -1      2364 1.27567E-02-2.23296E-03-1.05398E-13
 -1      2365 1.28995E-02-2.25964E-03-1.07684E-13
 -1      2366 1.26621E-02-2.18251E-03-1.04401E-13
 -1      2367 1.30424E-02-2.28631E-03-1.09980E-13
 -1      2368 1.31852E-02-2.31297E-03-1.12286E-13
 -1      2369 1.29478E-02-2.23586E-03-1.08976E-13
 -1      2370 1.33280E-02-2.33964E-03-1.14598E-13
 -1      2371 1.34709E-02-2.36630E-03-1.16917E-13
 -1      2372 1.32335E-02-2.28919E-03-1.13586E-13
 -1      2373 1.36137E-02-2.39295E-03-1.19240E-13
 -1      2374 1.37566E-02-2.41961E-03-1.21569E-13
 -1      2375 1.35192E-02-2.34251E-03-1.18220E-13
 -1      2376 1.38994E-02-2.44627E-03-1.23903E-13
 -1      2377 1.40422E-02-2.47293E-03-1.26237E-13
 -1      2378 1.38049E-02-2.39583E-03-1.22880E-13
 -1      2379 1.41851E-02-2.49959E-03-1.28578E-13
 -1      2380 1.43279E-02-2.52625E-03-1.30925E-13
 -1      2381 1.40906E-02-2.44914E-03-1.27554E-13
 -1      2382 1.44708E-02-2.55291E-03-1.33275E-13
 -1      2383 1.46136E-02-2.57957E-03-1.35633E-13
 -1      2384 1.43763E-02-2.50246E-03-1.32250E-13
 -1      2385 4.84858E-03-3.20357E-04-9.95528E-15
 -1      2386 4.95088E-03-3.45618E-04-1.00920E-14
 -1      2387 2.13279E-03 7.79278E-04-2.93275E-15
 -1      2388 1.97951E-03 7.42835E-04-2.48084E-15
 -1      2389 2.43256E-03 8.24407E-04-3.96040E-15
 -1      2390 2.28349E-03 8.07053E-04-3.42577E-15
 -1      2391 2.20509E-03 7.58366E-04-3.22354E-15
 -1      2392 2.72687E-03 8.24116E-04-5.15450E-15
 -1      2393 2.57979E-03 8.30321E-04-4.53669E-15
 -1      2394 2.50961E-03 7.95547E-04-4.29546E-15
 -1      2395 3.02153E-03 7.76570E-04-6.51371E-15
 -1      2396 2.87356E-03 8.05944E-04-5.81359E-15
 -1      2397 2.80963E-03 7.83294E-04-5.53351E-15
 -1      2398 3.32148E-03 6.90129E-04-8.03653E-15
 -1      2399 3.17048E-03 7.37361E-04-7.25478E-15
 -1      2400 3.11158E-03 7.22443E-04-6.93693E-15
 -1      2401 3.62873E-03 5.79965E-04-9.71531E-15
 -1      2402 3.47421E-03 6.36968E-04-8.85696E-15
 -1      2403 3.42013E-03 6.24782E-04-8.50258E-15
 -1      2404 3.94198E-03 4.62082E-04-1.15452E-14
 -1      2405 3.78484E-03 5.21135E-04-1.06114E-14
 -1      2406 3.73565E-03 5.08153E-04-1.02227E-14
 -1      2407 4.25838E-03 3.48565E-04-1.35213E-14
 -1      2408 4.10011E-03 4.04246E-04-1.25154E-14
 -1      2409 4.05527E-03 3.88804E-04-1.20920E-14
 -1      2410 4.57501E-03 2.46209E-04-1.56394E-14
 -1      2411 4.41694E-03 2.95777E-04-1.45624E-14
 -1      2412 4.37526E-03 2.77526E-04-1.41054E-14
 -1      2413 4.88977E-03 1.57220E-04-1.78948E-14
 -1      2414 4.73281E-03 2.00038E-04-1.67504E-14
 -1      2415 4.69278E-03 1.79292E-04-1.62587E-14
 -1      2416 5.20145E-03 8.08726E-05-2.02840E-14
 -1      2417 5.04610E-03 1.17569E-04-1.90726E-14
 -1      2418 5.00635E-03 9.48451E-05-1.85470E-14
 -1      2419 5.50957E-03 1.50043E-05-2.28017E-14
 -1      2420 5.35600E-03 4.67742E-05-2.15271E-14
 -1      2421 5.31554E-03 2.25998E-05-2.09655E-14
 -1      2422 5.81406E-03-4.29829E-05-2.54425E-14
 -1      2423 5.66227E-03-1.48290E-05-2.41074E-14
 -1      2424 5.62055E-03-3.99824E-05-2.35106E-14
 -1      2425 6.11516E-03-9.55307E-05-2.82067E-14
 -1      2426 5.96502E-03-6.98106E-05-2.68090E-14
 -1      2427 5.92183E-03-9.55543E-05-2.61787E-14
 -1      2428 6.41321E-03-1.44668E-04-3.10903E-14
 -1      2429 6.26453E-03-1.20425E-04-2.96340E-14
 -1      2430 6.21993E-03-1.46455E-04-2.89677E-14
 -1      2431 6.70861E-03-1.91945E-04-3.40913E-14
 -1      2432 6.56120E-03-1.68464E-04-3.25766E-14
 -1      2433 6.51536E-03-1.94555E-04-3.18764E-14
 -1      2434 7.00178E-03-2.38469E-04-3.72022E-14
 -1      2435 6.85544E-03-2.15249E-04-3.56326E-14
 -1      2436 6.80860E-03-2.41247E-04-3.49003E-14
 -1      2437 7.29311E-03-2.84979E-04-4.04235E-14
 -1      2438 7.14764E-03-2.61691E-04-3.87991E-14
 -1      2439 7.10005E-03-2.87500E-04-3.80342E-14
 -1      2440 7.58297E-03-3.31928E-04-4.37508E-14
 -1      2441 7.43820E-03-3.08377E-04-4.20734E-14
 -1      2442 7.39007E-03-3.33946E-04-4.12779E-14
 -1      2443 7.87167E-03-3.79566E-04-4.71861E-14
 -1      2444 7.72744E-03-3.55649E-04-4.54543E-14
 -1      2445 7.67895E-03-3.80960E-04-4.46277E-14
 -1      2446 8.15946E-03-4.27994E-04-5.07306E-14
 -1      2447 8.01566E-03-4.03676E-04-4.89458E-14
 -1      2448 7.96695E-03-4.28733E-04-4.80875E-14
 -1      2449 8.44657E-03-4.77222E-04-5.43772E-14
 -1      2450 8.30309E-03-4.52507E-04-5.25411E-14
 -1      2451 8.25426E-03-4.77329E-04-5.16535E-14
 -1      2452 8.73319E-03-5.27202E-04-5.81210E-14
 -1      2453 8.58993E-03-5.02120E-04-5.62371E-14
 -1      2454 8.54107E-03-5.26733E-04-5.53202E-14
 -1      2455 9.01944E-03-5.77856E-04-6.19577E-14
 -1      2456 8.87635E-03-5.52448E-04-6.00284E-14
 -1      2457 8.82749E-03-5.76881E-04-5.90817E-14
 -1      2458 9.30543E-03-6.29091E-04-6.58847E-14
 -1      2459 9.16246E-03-6.03405E-04-6.39089E-14
 -1      2460 9.11364E-03-6.27687E-04-6.29363E-14
 -1      2461 9.59126E-03-6.80813E-04-6.98961E-14
 -1      2462 9.44836E-03-6.54895E-04-6.78794E-14
 -1      2463 9.39959E-03-6.79054E-04-6.68801E-14
 -1      2464 9.87697E-03-7.32934E-04-7.39933E-14
 -1      2465 9.73412E-03-7.06828E-04-7.19338E-14
 -1      2466 9.68542E-03-7.30887E-04-7.09068E-14
 -1      2467 1.01626E-02-7.85374E-04-7.81815E-14
 -1      2468 1.00198E-02-7.59118E-04-7.60759E-14
 -1      2469 9.97115E-03-7.83100E-04-7.50228E-14
 -1      2470 1.04482E-02-8.38064E-04-8.24565E-14
 -1      2471 1.03054E-02-8.11691E-04-8.03083E-14
 -1      2472 1.02568E-02-8.35613E-04-7.92285E-14
 -1      2473 1.07338E-02-8.90947E-04-8.68180E-14
 -1      2474 1.05910E-02-8.64484E-04-8.46255E-14
 -1      2475 1.05425E-02-8.88361E-04-8.35203E-14
 -1      2476 1.10194E-02-9.43976E-04-9.12542E-14
 -1      2477 1.08766E-02-9.17446E-04-8.90275E-14
 -1      2478 1.08281E-02-9.41289E-04-8.78948E-14
 -1      2479 1.13050E-02-9.97112E-04-9.57585E-14
 -1      2480 1.11622E-02-9.70532E-04-9.34993E-14
 -1      2481 1.11138E-02-9.94351E-04-9.23427E-14
 -1      2482 1.15906E-02-1.05033E-03-1.00318E-13
 -1      2483 1.14478E-02-1.02371E-03-9.80314E-14
 -1      2484 1.13994E-02-1.04751E-03-9.68537E-14
 -1      2485 1.18763E-02-1.10359E-03-1.04933E-13
 -1      2486 1.17334E-02-1.07695E-03-1.02619E-13
 -1      2487 1.16850E-02-1.10074E-03-1.01420E-13
 -1      2488 1.21619E-02-1.15690E-03-1.09588E-13
 -1      2489 1.20191E-02-1.13024E-03-1.07255E-13
 -1      2490 1.19707E-02-1.15402E-03-1.06039E-13
 -1      2491 1.24475E-02-1.21023E-03-1.14284E-13
 -1      2492 1.23047E-02-1.18356E-03-1.11932E-13
 -1      2493 1.22563E-02-1.20734E-03-1.10699E-13
 -1      2494 1.27332E-02-1.26357E-03-1.19014E-13
 -1      2495 1.25904E-02-1.23690E-03-1.16645E-13
 -1      2496 1.25420E-02-1.26067E-03-1.15397E-13
 -1      2497 1.30189E-02-1.31692E-03-1.23769E-13
 -1      2498 1.28760E-02-1.29025E-03-1.21389E-13
 -1      2499 1.28277E-02-1.31402E-03-1.20128E-13
 -1      2500 1.33046E-02-1.37027E-03-1.28547E-13
 -1      2501 1.31617E-02-1.34360E-03-1.26156E-13
 -1      2502 1.31134E-02-1.36737E-03-1.24886E-13
 -1      2503 1.35903E-02-1.42362E-03-1.33342E-13
 -1      2504 1.34474E-02-1.39695E-03-1.30941E-13
 -1      2505 1.33991E-02-1.42073E-03-1.29662E-13
 -1      2506 1.38760E-02-1.47697E-03-1.38161E-13
 -1      2507 1.37331E-02-1.45030E-03-1.35748E-13
 -1      2508 1.36848E-02-1.47408E-03-1.34461E-13
 -1      2509 1.41617E-02-1.53031E-03-1.42991E-13
 -1      2510 1.40188E-02-1.50364E-03-1.40574E-13
 -1      2511 1.39705E-02-1.52742E-03-1.39279E-13
 -1      2512 1.43087E-02-1.55686E-03-1.45497E-13
 -1      2513 1.44365E-02-1.87479E-03-1.43291E-13
 -1      2514 1.44103E-02-1.83264E-03-1.43413E-13
 -1      2515 1.44889E-02-1.95910E-03-1.43043E-13
 -1      2516 1.44627E-02-1.91695E-03-1.43168E-13
 -1      2517 1.43259E-02-1.87278E-03-1.41147E-13
 -1      2518 1.43325E-02-1.70762E-03-1.43747E-13
 -1      2519 1.43063E-02-1.66547E-03-1.43853E-13
 -1      2520 1.43843E-02-1.79085E-03-1.43524E-13
 -1      2521 1.43585E-02-1.74941E-03-1.43636E-13
 -1      2522 1.42217E-02-1.70524E-03-1.41600E-13
 -1      2523 1.42737E-02-1.78883E-03-1.41380E-13
 -1      2524 1.45413E-02-2.04341E-03-1.42784E-13
 -1      2525 1.45151E-02-2.00126E-03-1.42915E-13
 -1      2526 1.43783E-02-1.95709E-03-1.40897E-13
 -1      2527 1.45938E-02-2.12773E-03-1.42513E-13
 -1      2528 1.45676E-02-2.08557E-03-1.42652E-13
 -1      2529 1.44307E-02-2.04140E-03-1.40637E-13
 -1      2530 1.46462E-02-2.21204E-03-1.42218E-13
 -1      2531 1.46200E-02-2.16988E-03-1.42367E-13
 -1      2532 1.44832E-02-2.12571E-03-1.40362E-13
 -1      2533 1.46978E-02-2.29492E-03-1.41912E-13
 -1      2534 1.46720E-02-2.25348E-03-1.42067E-13
 -1      2535 1.45352E-02-2.20931E-03-1.40067E-13
 -1      2536 1.47503E-02-2.37923E-03-1.41583E-13
 -1      2537 1.47241E-02-2.33708E-03-1.41750E-13
 -1      2538 1.45872E-02-2.29291E-03-1.39759E-13
 -1      2539 1.48028E-02-2.46353E-03-1.41239E-13
 -1      2540 1.47765E-02-2.42138E-03-1.41413E-13
 -1      2541 1.46397E-02-2.37721E-03-1.39433E-13
 -1      2542 1.48552E-02-2.54783E-03-1.40887E-13
 -1      2543 1.48290E-02-2.50568E-03-1.41062E-13
 -1      2544 1.46922E-02-2.46151E-03-1.39094E-13
 -1      2545 1.49792E-02-2.63657E-03-1.41859E-13
 -1      2546 5.12813E-03-3.92705E-04-1.02960E-14
 -1      2547 5.09711E-03-3.98581E-04-1.01281E-14
 -1      2548 1.82379E-03 6.99206E-04-2.06940E-15
 -1      2549 1.66549E-03 6.50293E-04-1.69844E-15
 -1      2550 1.89151E-03 6.82108E-04-2.31671E-15
 -1      2551 4.51803E-03-2.07871E-04-9.49708E-15
 -1      2552 4.69526E-03-2.71135E-04-9.72357E-15
 -1      2553 4.77956E-03-3.04895E-04-1.03141E-14
 -1      2554 4.13539E-03-3.20471E-05-8.76126E-15
 -1      2555 4.29635E-03-1.12011E-04-9.11694E-15
 -1      2556 6.92870E-04-2.00934E-04-2.88520E-16
 -1      2557 9.36361E-04-3.01502E-04-4.68389E-16
 -1      2558 9.72719E-04-2.90489E-04-5.82989E-16
 -1      2559 6.48637E-04-1.60358E-04-3.11478E-16
 -1      2560 5.03874E-03-4.13551E-04-9.93415E-15
 -1      2561 4.95102E-03-4.35210E-04-9.74418E-15
 -1      2562 5.08574E-03-4.09927E-04-1.04978E-14
 -1      2563 3.06051E-03-1.26867E-03-4.98741E-15
 -1      2564 2.91022E-03-1.25695E-03-4.52706E-15
 -1      2565 3.48920E-04-6.52513E-05-3.93105E-16
 -1      2566 3.44391E-04-5.70944E-05-3.89750E-16
 -1      2567 4.08411E-04-6.67311E-05-5.24239E-16
 -1      2568 4.21539E-04-8.16963E-05-5.33258E-16
 -1      2569 3.32402E-03 4.30796E-04-6.75087E-15
 -1      2570 3.49819E-03 3.27920E-04-7.25464E-15
 -1      2571 9.22070E-04-2.07312E-04-1.74430E-15
 -1      2572 7.99976E-04-1.73547E-04-1.64401E-15
 -1      2573 2.71314E-03 6.27269E-04-4.89517E-15
 -1      2574 2.83406E-03 6.19830E-04-5.28584E-15
 -1      2575 2.99764E-03 5.80151E-04-5.78013E-15
 -1      2576 3.14960E-03 5.17288E-04-6.24715E-15
 -1      2577 2.03909E-03 3.87832E-04-3.20502E-15
 -1      2578 2.17508E-03 4.60428E-04-3.47969E-15
 -1      2579 1.01576E-03-8.51352E-05-1.91219E-15
 -1      2580 1.15312E-03-4.03249E-05-2.04550E-15
 -1      2581 1.28776E-03 1.18735E-05-2.17992E-15
 -1      2582 1.42944E-03 7.40340E-05-2.32212E-15
 -1      2583 1.19861E-03-1.98754E-05-1.97060E-15
 -1      2584 1.64472E-03 1.77832E-04-2.57737E-15
 -1      2585 1.84129E-03 2.83030E-04-2.86190E-15
 -1      2586 6.22175E-04-1.50878E-04-1.55161E-15
 -1      2587 6.43034E-04-1.54488E-04-1.56457E-15
 -1      2588 4.12415E-03-7.90627E-04-8.03735E-15
 -1      2589 3.95098E-03-8.90744E-04-7.64279E-15
 -1      2590 6.83659E-04-1.50068E-04-1.56624E-15
 -1      2591 6.31865E-04-1.49783E-04-1.54681E-15
 -1      2592 1.19948E-03-3.07474E-04-1.91478E-15
 -1      2593 1.05123E-03-2.51324E-04-1.82680E-15
 -1      2594 9.75345E-04-2.09935E-04-1.62454E-15
 -1      2595 1.63704E-03-5.35322E-04-2.32847E-15
 -1      2596 1.42603E-03-4.18731E-04-2.12426E-15
 -1      2597 2.04456E-03-7.89064E-04-2.78546E-15
 -1      2598 1.85536E-03-6.65481E-04-2.55590E-15
 -1      2599 2.41346E-03-1.03332E-03-3.39157E-15
 -1      2600 2.26043E-03-9.30912E-04-3.10853E-15
 -1      2601 2.72789E-03-1.20193E-03-4.03979E-15
 -1      2602 2.57896E-03-1.12805E-03-3.70746E-15
 -1      2603 2.51015E-03-1.08890E-03-3.46801E-15
 -1      2604 3.34813E-03-1.20380E-03-5.88863E-15
 -1      2605 3.22632E-03-1.24540E-03-5.50100E-15
 -1      2606 3.70492E-03-1.02740E-03-6.95888E-15
 -1      2607 3.51569E-03-1.13041E-03-6.39750E-15
 -1      2608 4.44799E-03-6.28316E-04-8.82596E-15
 -1      2609 4.28578E-03-7.06555E-04-8.42716E-15
 -1      2610 4.22968E-03-7.53531E-04-8.60156E-15
 -1      2611 4.81073E-03-4.80567E-04-9.48402E-15
 -1      2612 4.65368E-03-5.38091E-04-9.19653E-15
 -1      2613 5.05145E-03-3.69962E-04-1.02260E-14
 -1      2614 5.11397E-03-3.81633E-04-1.03624E-14
 -1      2615 5.02395E-03-3.69017E-04-1.06914E-14
 -1      2616 8.76745E-04 3.77761E-04-4.51706E-16
 -1      2617 7.06775E-04 3.11407E-04-3.01544E-16
 -1      2618 6.72821E-04 2.77184E-04-3.05094E-16
 -1      2619 9.37631E-04 3.67412E-04-5.72350E-16
 -1      2620 3.72270E-03 1.97110E-04-7.84540E-15
 -1      2621 3.92832E-03 7.86432E-05-8.29539E-15
 -1      2622 4.01236E-03 3.00583E-05-8.81703E-15
 -1      2623 3.60270E-03 2.65851E-04-7.73883E-15
 -1      2624 5.52969E-04-7.38775E-05-4.94586E-16
 -1      2625 4.79176E-04-5.70273E-05-3.58979E-16
 -1      2626 5.22662E-04-7.59875E-05-3.47961E-16
 -1      2627 1.56818E-03 5.81595E-04-1.57074E-15
 -1      2628 6.53422E-04 2.36833E-04-3.29408E-16
 -1      2629 2.27095E-03 5.11576E-04-3.66035E-15
 -1      2630 4.57232E-03-5.84948E-04-9.38321E-15
 -1      2631 2.61456E-03 6.21414E-04-4.59677E-15
 -1      2632 3.84570E-03-9.66339E-04-7.49468E-15
 -1      2633 2.83004E-03-1.24031E-03-4.25362E-15
 -1      2634 4.42091E-03-1.69851E-04-9.68350E-15
 -1      2635 1.42604E-02-1.58064E-03-1.44195E-13
 -1      2636 6.04025E-04-1.25243E-04-3.30153E-16
 -1      2637 1.42651E-02-1.61079E-03-1.43847E-13
 -1      2638 3.15253E-03-1.26928E-03-5.25537E-15
 -1      2639 1.48398E-02-2.62400E-03-1.39327E-13
 -1      2640 1.48527E-02-2.57942E-03-1.40316E-13
 -1      2641 1.47159E-02-2.53525E-03-1.38351E-13
 -1      2642 1.47107E-02-2.59843E-03-1.37221E-13
 -1      2643 2.15334E-03-8.56402E-04-2.84119E-15
 -1      2644 1.30949E-03-3.49704E-04-1.89536E-15
 -1      2645 5.13966E-03-3.92983E-04-1.07636E-14
 -1      2646 7.86793E-04 2.66967E-04-4.72211E-16
 -1      2647 7.27610E-04-1.47375E-04-1.47376E-15
 -1      2648 1.41545E-02-1.60877E-03-1.41701E-13
 -1      2649 6.11889E-04-1.40160E-04-1.40608E-15
 -1      2650 9.14668E-04-1.12760E-04-1.73571E-15
 -1      2651 9.67670E-04-9.18846E-05-1.67067E-15
 -1      2652 8.26280E-04-1.26764E-04-1.56971E-15
 -1      2653 1.91804E-03 3.32617E-04-2.91470E-15
 -1      2654 2.91812E-03 6.04388E-04-5.62254E-15
 -1      2655 6.72457E-04-1.50616E-04-1.51683E-15
 -1      2656 7.13101E-04-1.44597E-04-1.47038E-15
 -1      2657 6.31420E-04-1.43676E-04-1.36372E-15
 -1      2658 4.90127E-03-4.58635E-04-1.00323E-14
 -1      2659 3.23019E-03 4.77911E-04-6.63277E-15
 -1      2660 1.52921E-03 1.27556E-04-2.33890E-15
 -1      2661 1.74136E-03-5.87643E-04-2.31394E-15
 -1      2662 3.46068E-03-1.17178E-03-6.28940E-15
 -1      2663 1.46162E-02-2.54798E-03-1.36194E-13
 -1      2664 7.01708E-04-2.57282E-05-7.09190E-16
 -1      2665 6.49497E-04-5.56482E-05-7.06900E-16
 -1      2666 5.93930E-04-7.86746E-05-7.02997E-16
 -1      2667 5.42625E-04-9.23929E-05-6.98660E-16
 -1      2668 7.17632E-04-6.94719E-05-8.89053E-16
 -1      2669 8.59908E-04 1.41669E-04-7.03376E-16
 -1      2670 8.30530E-04 9.66839E-05-7.09393E-16
 -1      2671 9.04959E-04 2.33555E-04-6.81164E-16
 -1      2672 8.84108E-04 1.87658E-04-6.94391E-16
 -1      2673 1.01437E-03 2.02615E-04-8.92773E-16
 -1      2674 1.30246E-03 4.53467E-04-1.14633E-15
 -1      2675 1.13447E-03 3.96040E-04-8.86389E-16
 -1      2676 7.71880E-04-1.43734E-04-1.36070E-15
 -1      2677 6.64713E-04-1.28196E-04-1.29189E-15
 -1      2678 4.99374E-03-3.66067E-04-1.11419E-14
 -1      2679 5.08414E-03-3.83791E-04-1.12836E-14
 -1      2680 5.12926E-03-4.15091E-04-1.11241E-14
 -1      2681 5.07496E-03-4.24373E-04-1.09222E-14
 -1      2682 4.34545E-03-1.32987E-04-9.98314E-15
 -1      2683 4.54240E-03-2.18769E-04-1.03840E-14
 -1      2684 1.54302E-03-5.24496E-04-1.42540E-15
 -1      2685 1.73908E-03-6.29838E-04-1.74382E-15
 -1      2686 3.92472E-03-1.01978E-03-8.10783E-15
 -1      2687 4.12597E-03-9.44578E-04-8.95548E-15
 -1      2688 4.32398E-03-8.81913E-04-9.83991E-15
 -1      2689 4.51319E-03-8.32607E-04-1.07613E-14
 -1      2690 4.27241E-03-8.46529E-04-9.44835E-15
 -1      2691 4.69584E-03-7.98247E-04-1.17169E-14
 -1      2692 4.86982E-03-7.74906E-04-1.27067E-14
 -1      2693 4.65112E-03-7.55077E-04-1.12983E-14
 -1      2694 5.03775E-03-7.62921E-04-1.37295E-14
 -1      2695 5.19978E-03-7.59063E-04-1.47818E-14
 -1      2696 4.99264E-03-7.18548E-04-1.32830E-14
 -1      2697 5.35757E-03-7.63017E-04-1.58663E-14
 -1      2698 5.51189E-03-7.72620E-04-1.69809E-14
 -1      2699 5.30730E-03-7.18945E-04-1.53944E-14
 -1      2700 5.66365E-03-7.87364E-04-1.81231E-14
 -1      2701 5.81354E-03-8.05989E-04-1.92933E-14
 -1      2702 5.60637E-03-7.43199E-04-1.76244E-14
 -1      2703 5.96197E-03-8.27915E-04-2.04909E-14
 -1      2704 6.10945E-03-8.52405E-04-2.17152E-14
 -1      2705 5.89755E-03-7.83069E-04-1.99675E-14
 -1      2706 6.25609E-03-8.78926E-04-2.29666E-14
 -1      2707 6.40226E-03-9.07035E-04-2.42460E-14
 -1      2708 6.18522E-03-8.33149E-04-2.24194E-14
 -1      2709 6.54791E-03-9.36303E-04-2.55505E-14
 -1      2710 6.69331E-03-9.66460E-04-2.68821E-14
 -1      2711 6.47160E-03-8.89628E-04-2.49775E-14
 -1      2712 6.83837E-03-9.97190E-04-2.82427E-14
 -1      2713 6.98327E-03-1.02833E-03-2.96291E-14
 -1      2714 6.75768E-03-9.49797E-04-2.76445E-14
 -1      2715 7.12790E-03-1.05966E-03-3.10444E-14
 -1      2716 7.27242E-03-1.09109E-03-3.24881E-14
 -1      2717 7.04379E-03-1.01177E-03-3.04221E-14
 -1      2718 7.41673E-03-1.12247E-03-3.39602E-14
 -1      2719 7.56093E-03-1.15376E-03-3.54625E-14
 -1      2720 7.33002E-03-1.07428E-03-3.33122E-14
 -1      2721 7.70495E-03-1.18486E-03-3.69936E-14
 -1      2722 7.84888E-03-1.21576E-03-3.85542E-14
 -1      2723 7.61632E-03-1.13653E-03-3.63195E-14
 -1      2724 7.99266E-03-1.24642E-03-4.01442E-14
 -1      2725 8.13636E-03-1.27681E-03-4.17620E-14
 -1      2726 7.90263E-03-1.19806E-03-3.94429E-14
 -1      2727 8.27993E-03-1.30693E-03-4.34083E-14
 -1      2728 8.42343E-03-1.33679E-03-4.50830E-14
 -1      2729 8.18890E-03-1.25862E-03-4.26816E-14
 -1      2730 8.56683E-03-1.36637E-03-4.67844E-14
 -1      2731 8.71017E-03-1.39570E-03-4.85115E-14
 -1      2732 8.47511E-03-1.31815E-03-4.60332E-14
 -1      2733 8.85343E-03-1.42478E-03-5.02634E-14
 -1      2734 8.99664E-03-1.45361E-03-5.20395E-14
 -1      2735 8.76124E-03-1.37666E-03-4.94880E-14
 -1      2736 9.13978E-03-1.48223E-03-5.38424E-14
 -1      2737 9.28289E-03-1.51064E-03-5.56685E-14
 -1      2738 9.04729E-03-1.43422E-03-5.30437E-14
 -1      2739 9.42595E-03-1.53885E-03-5.75180E-14
 -1      2740 9.56897E-03-1.56689E-03-5.93916E-14
 -1      2741 9.33326E-03-1.49095E-03-5.66971E-14
 -1      2742 9.71197E-03-1.59476E-03-6.12884E-14
 -1      2743 9.85493E-03-1.62249E-03-6.32074E-14
 -1      2744 9.61917E-03-1.54696E-03-6.04456E-14
 -1      2745 9.99788E-03-1.65009E-03-6.51481E-14
 -1      2746 1.01408E-02-1.67756E-03-6.71100E-14
 -1      2747 9.90503E-03-1.60236E-03-6.42842E-14
 -1      2748 1.02837E-02-1.70492E-03-6.90936E-14
 -1      2749 1.04266E-02-1.73219E-03-7.10984E-14
 -1      2750 1.01908E-02-1.65727E-03-6.82099E-14
 -1      2751 1.05695E-02-1.75938E-03-7.31235E-14
 -1      2752 1.07124E-02-1.78648E-03-7.51697E-14
 -1      2753 1.04766E-02-1.71178E-03-7.22189E-14
 -1      2754 1.08552E-02-1.81353E-03-7.72356E-14
 -1      2755 1.09981E-02-1.84051E-03-7.93216E-14
 -1      2756 1.07624E-02-1.76598E-03-7.63141E-14
 -1      2757 1.11409E-02-1.86744E-03-8.14257E-14
 -1      2758 1.12838E-02-1.89432E-03-8.35490E-14
 -1      2759 1.10481E-02-1.81993E-03-8.04852E-14
 -1      2760 1.14266E-02-1.92117E-03-8.56910E-14
 -1      2761 1.15695E-02-1.94799E-03-8.78500E-14
 -1      2762 1.13338E-02-1.87369E-03-8.47348E-14
 -1      2763 1.17123E-02-1.97477E-03-9.00248E-14
 -1      2764 1.18552E-02-2.00153E-03-9.22175E-14
 -1      2765 1.16196E-02-1.92731E-03-8.90540E-14
 -1      2766 1.19980E-02-2.02828E-03-9.44234E-14
 -1      2767 1.21409E-02-2.05500E-03-9.66431E-14
 -1      2768 1.19053E-02-1.98083E-03-9.34389E-14
 -1      2769 1.22837E-02-2.08171E-03-9.88777E-14
 -1      2770 1.24266E-02-2.10841E-03-1.01128E-13
 -1      2771 1.21910E-02-2.03428E-03-9.78818E-14
 -1      2772 1.25694E-02-2.13510E-03-1.03393E-13
 -1      2773 1.27123E-02-2.16177E-03-1.05669E-13
 -1      2774 1.24767E-02-2.08767E-03-1.02381E-13
 -1      2775 1.28551E-02-2.18845E-03-1.07957E-13
 -1      2776 1.29980E-02-2.21512E-03-1.10254E-13
 -1      2777 1.27624E-02-2.14103E-03-1.06936E-13
 -1      2778 1.31408E-02-2.24178E-03-1.12559E-13
 -1      2779 1.32837E-02-2.26844E-03-1.14871E-13
 -1      2780 1.30481E-02-2.19437E-03-1.11532E-13
 -1      2781 1.34265E-02-2.29510E-03-1.17192E-13
 -1      2782 1.35694E-02-2.32176E-03-1.19515E-13
 -1      2783 1.33338E-02-2.24769E-03-1.16159E-13
 -1      2784 1.37122E-02-2.34842E-03-1.21842E-13
 -1      2785 1.38551E-02-2.37508E-03-1.24176E-13
 -1      2786 1.36195E-02-2.30101E-03-1.20805E-13
 -1      2787 1.39979E-02-2.40173E-03-1.26515E-13
 -1      2788 1.41408E-02-2.42839E-03-1.28859E-13
 -1      2789 1.39053E-02-2.35432E-03-1.25474E-13
 -1      2790 1.42836E-02-2.45505E-03-1.31208E-13
 -1      2791 1.44265E-02-2.48171E-03-1.33562E-13
 -1      2792 1.41910E-02-2.40764E-03-1.30163E-13
 -1      2793 2.24412E-03-9.20221E-04-2.84732E-15
 -1      2794 2.05322E-03-7.88090E-04-2.54535E-15
 -1      2795 4.72772E-03-2.88985E-04-1.07039E-14
 -1      2796 4.86584E-03-3.31399E-04-1.09491E-14
 -1      2797 2.28230E-03 7.37902E-04-3.51715E-15
 -1      2798 2.12460E-03 7.06135E-04-3.02183E-15
 -1      2799 3.20486E-03 6.64862E-04-7.36335E-15
 -1      2800 3.04913E-03 7.08187E-04-6.61896E-15
 -1      2801 3.52218E-03 5.55386E-04-8.97161E-15
 -1      2802 3.36244E-03 6.12810E-04-8.14764E-15
 -1      2803 3.30250E-03 6.02007E-04-7.79231E-15
 -1      2804 3.84582E-03 4.33040E-04-1.07322E-14
 -1      2805 3.68354E-03 4.94620E-04-9.83312E-15
 -1      2806 3.62922E-03 4.81425E-04-9.44328E-15
 -1      2807 4.17121E-03 3.13579E-04-1.26415E-14
 -1      2808 4.00877E-03 3.72196E-04-1.16688E-14
 -1      2809 3.96075E-03 3.54988E-04-1.12459E-14
 -1      2810 4.49390E-03 2.05916E-04-1.46917E-14
 -1      2811 4.33324E-03 2.58028E-04-1.36491E-14
 -1      2812 4.29077E-03 2.37388E-04-1.31932E-14
 -1      2813 4.81145E-03 1.12793E-04-1.68793E-14
 -1      2814 4.65351E-03 1.57571E-04-1.57682E-14
 -1      2815 4.61481E-03 1.34734E-04-1.52801E-14
 -1      2816 5.12319E-03 3.34326E-05-1.91990E-14
 -1      2817 4.96812E-03 7.15434E-05-1.80229E-14
 -1      2818 4.93123E-03 4.74687E-05-1.75010E-14
 -1      2819 5.42951E-03-3.44996E-05-2.16467E-14
 -1      2820 5.27703E-03-1.77151E-06-2.04074E-14
 -1      2821 5.24032E-03-2.65194E-05-1.98519E-14
 -1      2822 5.73125E-03-9.38029E-05-2.42193E-14
 -1      2823 5.58092E-03-6.50539E-05-2.29182E-14
 -1      2824 5.54328E-03-9.01650E-05-2.23282E-14
 -1      2825 6.02930E-03-1.47081E-04-2.69132E-14
 -1      2826 5.88069E-03-1.21049E-04-2.55512E-14
 -1      2827 5.84153E-03-1.46359E-04-2.49275E-14
 -1      2828 6.32446E-03-1.96504E-04-2.97289E-14
 -1      2829 6.17719E-03-1.72162E-04-2.83058E-14
 -1      2830 6.13631E-03-1.97563E-04-2.76477E-14
 -1      2831 6.61736E-03-2.43743E-04-3.26609E-14
 -1      2832 6.47115E-03-2.20314E-04-3.11806E-14
 -1      2833 6.42857E-03-2.45725E-04-3.04885E-14
 -1      2834 6.90853E-03-2.90010E-04-3.57078E-14
 -1      2835 6.76313E-03-2.66941E-04-3.41704E-14
 -1      2836 6.71905E-03-2.92297E-04-3.34453E-14
 -1      2837 7.19833E-03-3.36131E-04-3.88655E-14
 -1      2838 7.05357E-03-3.13052E-04-3.72728E-14
 -1      2839 7.00823E-03-3.38303E-04-3.65158E-14
 -1      2840 7.48708E-03-3.82628E-04-4.21317E-14
 -1      2841 7.34281E-03-3.59310E-04-4.04849E-14
 -1      2842 7.29647E-03-3.84422E-04-3.96967E-14
 -1      2843 7.77502E-03-4.29795E-04-4.55045E-14
 -1      2844 7.63113E-03-4.06116E-04-4.38047E-14
 -1      2845 7.58403E-03-4.31070E-04-4.29847E-14
 -1      2846 8.06234E-03-4.77771E-04-4.89872E-14
 -1      2847 7.91874E-03-4.53677E-04-4.72310E-14
 -1      2848 7.87107E-03-4.78468E-04-4.63799E-14
 -1      2849 8.34918E-03-5.26585E-04-5.25736E-14
 -1      2850 8.20580E-03-5.02073E-04-5.07682E-14
 -1      2851 8.15775E-03-5.26704E-04-4.98854E-14
 -1      2852 8.63567E-03-5.76199E-04-5.62594E-14
 -1      2853 8.49246E-03-5.51295E-04-5.44048E-14
 -1      2854 8.44414E-03-5.75777E-04-5.34941E-14
 -1      2855 8.92189E-03-6.26540E-04-6.00411E-14
 -1      2856 8.77881E-03-6.01283E-04-5.81387E-14
 -1      2857 8.73032E-03-6.25632E-04-5.71985E-14
 -1      2858 9.20793E-03-6.77514E-04-6.39129E-14
 -1      2859 9.06493E-03-6.51953E-04-6.19655E-14
 -1      2860 9.01636E-03-6.76185E-04-6.09979E-14
 -1      2861 9.49383E-03-7.29023E-04-6.78723E-14
 -1      2862 9.35089E-03-7.03207E-04-6.58821E-14
 -1      2863 9.30228E-03-7.27340E-04-6.48874E-14
 -1      2864 9.77964E-03-7.80974E-04-7.19180E-14
 -1      2865 9.63674E-03-7.54948E-04-6.98842E-14
 -1      2866 9.58812E-03-7.78999E-04-6.88646E-14
 -1      2867 1.00654E-02-8.33280E-04-7.60520E-14
 -1      2868 9.92252E-03-8.07086E-04-7.39736E-14
 -1      2869 9.87391E-03-8.31070E-04-7.29285E-14
 -1      2870 1.03511E-02-8.85867E-04-8.02745E-14
 -1      2871 1.02082E-02-8.59542E-04-7.81520E-14
 -1      2872 1.01597E-02-8.83473E-04-7.70801E-14
 -1      2873 1.06368E-02-9.38673E-04-8.45817E-14
 -1      2874 1.04939E-02-9.12246E-04-8.24185E-14
 -1      2875 1.04454E-02-9.36135E-04-8.13194E-14
 -1      2876 1.09224E-02-9.91644E-04-8.89695E-14
 -1      2877 1.07796E-02-9.65140E-04-8.67661E-14
 -1      2878 1.07311E-02-9.88997E-04-8.56428E-14
 -1      2879 1.12081E-02-1.04474E-03-9.34274E-14
 -1      2880 1.10653E-02-1.01818E-03-9.11908E-14
 -1      2881 1.10168E-02-1.04201E-03-9.00427E-14
 -1      2882 1.14938E-02-1.09792E-03-9.79446E-14
 -1      2883 1.13509E-02-1.07132E-03-9.56786E-14
 -1      2884 1.13025E-02-1.09513E-03-9.45091E-14
 -1      2885 1.17794E-02-1.15117E-03-1.02519E-13
 -1      2886 1.16366E-02-1.12454E-03-1.00226E-13
 -1      2887 1.15882E-02-1.14834E-03-9.90356E-14
 -1      2888 1.20651E-02-1.20446E-03-1.07141E-13
 -1      2889 1.19223E-02-1.17781E-03-1.04824E-13
 -1      2890 1.18739E-02-1.20160E-03-1.03614E-13
 -1      2891 1.23508E-02-1.25778E-03-1.11805E-13
 -1      2892 1.22080E-02-1.23112E-03-1.09468E-13
 -1      2893 1.21596E-02-1.25491E-03-1.08240E-13
 -1      2894 1.26365E-02-1.31112E-03-1.16505E-13
 -1      2895 1.24936E-02-1.28445E-03-1.14151E-13
 -1      2896 1.24453E-02-1.30823E-03-1.12908E-13
 -1      2897 1.29222E-02-1.36447E-03-1.21237E-13
 -1      2898 1.27793E-02-1.33780E-03-1.18869E-13
 -1      2899 1.27310E-02-1.36158E-03-1.17610E-13
 -1      2900 1.32079E-02-1.41783E-03-1.25998E-13
 -1      2901 1.30650E-02-1.39115E-03-1.23615E-13
 -1      2902 1.30167E-02-1.41493E-03-1.22347E-13
 -1      2903 1.34936E-02-1.47118E-03-1.30777E-13
 -1      2904 1.33507E-02-1.44450E-03-1.28385E-13
 -1      2905 1.33024E-02-1.46828E-03-1.27110E-13
 -1      2906 1.37793E-02-1.52453E-03-1.35579E-13
 -1      2907 1.36364E-02-1.49785E-03-1.33175E-13
 -1      2908 1.35881E-02-1.52163E-03-1.31891E-13
 -1      2909 1.40383E-02-1.57999E-03-1.39841E-13
 -1      2910 1.38955E-02-1.55331E-03-1.37432E-13
 -1      2911 1.38471E-02-1.57710E-03-1.36140E-13
 -1      2912 1.40795E-02-1.63466E-03-1.39850E-13
 -1      2913 7.07926E-04-1.49634E-04-4.64039E-16
 -1      2914 1.43201E-02-2.03938E-03-1.38492E-13
 -1      2915 1.42939E-02-1.99723E-03-1.38624E-13
 -1      2916 5.97501E-04-1.23417E-04-1.22705E-15
 -1      2917 5.86713E-04-1.31085E-04-1.23106E-15
 -1      2918 1.42153E-02-1.87076E-03-1.39005E-13
 -1      2919 1.41891E-02-1.82860E-03-1.39125E-13
 -1      2920 1.43726E-02-2.12370E-03-1.38212E-13
 -1      2921 1.43463E-02-2.08154E-03-1.38356E-13
 -1      2922 1.42095E-02-2.03737E-03-1.36351E-13
 -1      2923 1.42677E-02-1.95507E-03-1.38752E-13
 -1      2924 1.42415E-02-1.91291E-03-1.38880E-13
 -1      2925 1.41046E-02-1.86874E-03-1.36866E-13
 -1      2926 1.41571E-02-1.95305E-03-1.36615E-13
 -1      2927 1.44241E-02-2.20658E-03-1.37923E-13
 -1      2928 1.43984E-02-2.16514E-03-1.38071E-13
 -1      2929 1.42615E-02-2.12097E-03-1.36075E-13
 -1      2930 1.44766E-02-2.29089E-03-1.37615E-13
 -1      2931 1.44504E-02-2.24874E-03-1.37769E-13
 -1      2932 1.43135E-02-2.20457E-03-1.35783E-13
 -1      2933 1.45291E-02-2.37520E-03-1.37289E-13
 -1      2934 1.45029E-02-2.33305E-03-1.37451E-13
 -1      2935 1.43660E-02-2.28888E-03-1.35473E-13
 -1      2936 1.96449E-03 6.64996E-04-2.56765E-15
 -1      2937 1.80172E-03 6.17515E-04-2.15363E-15
 -1      2938 2.04102E-03 6.48953E-04-2.82119E-15
 -1      2939 3.16720E-03-1.28167E-03-5.27931E-15
 -1      2940 3.02425E-03-1.29008E-03-4.77762E-15
 -1      2941 3.50443E-03 3.28228E-04-7.67085E-15
 -1      2942 3.70419E-03 2.08589E-04-8.27818E-15
 -1      2943 9.18571E-04-2.43944E-04-6.12574E-16
 -1      2944 1.08476E-03-3.14477E-04-7.90573E-16
 -1      2945 1.26131E-03-3.90044E-04-1.02246E-15
 -1      2946 7.99679E-04-1.65824E-04-6.40791E-16
 -1      2947 1.46188E-02-2.51639E-03-1.36757E-13
 -1      2948 1.46213E-02-2.48480E-03-1.37322E-13
 -1      2949 1.45217E-02-2.49753E-03-1.35166E-13
 -1      2950 2.48751E-03 6.02869E-04-4.21034E-15
 -1      2951 2.64342E-03 6.34396E-04-4.72170E-15
 -1      2952 1.11824E-03-3.93682E-05-1.76354E-15
 -1      2953 1.23662E-03 5.84818E-06-1.88471E-15
 -1      2954 2.89595E-03 7.40647E-04-5.91500E-15
 -1      2955 2.74294E-03 7.60482E-04-5.25333E-15
 -1      2956 2.98498E-03 6.94719E-04-6.29982E-15
 -1      2957 2.59082E-03 7.66579E-04-4.63271E-15
 -1      2958 2.43720E-03 7.58853E-04-4.05402E-15
 -1      2959 2.67468E-03 7.36374E-04-4.97241E-15
 -1      2960 7.94845E-04 5.26107E-05-7.12497E-16
 -1      2961 7.52455E-04 1.17627E-05-7.13486E-16
 -1      2962 9.48834E-04 1.01573E-04-9.04807E-16
 -1      2963 5.15434E-03-3.99632E-04-1.14133E-14
 -1      2964 5.16679E-03-4.04948E-04-1.13455E-14
 -1      2965 1.63669E-03 5.65134E-04-1.77905E-15
 -1      2966 1.47015E-03 5.10168E-04-1.44371E-15
 -1      2967 1.37053E-03 4.36982E-04-1.31769E-15
 -1      2968 1.70884E-03 5.48816E-04-1.99156E-15
 -1      2969 5.01337E-04-7.17356E-05-6.57779E-16
 -1      2970 5.49482E-04-7.49401E-05-6.49390E-16
 -1      2971 4.71301E-03-5.47528E-04-1.01291E-14
 -1      2972 4.53909E-03-6.26595E-04-9.73563E-15
 -1      2973 2.86835E-03 6.21406E-04-5.51956E-15
 -1      2974 3.00941E-03 5.79845E-04-6.02586E-15
 -1      2975 1.82130E-03-6.35724E-04-2.25477E-15
 -1      2976 1.62848E-03-5.15616E-04-2.04884E-15
 -1      2977 4.97897E-03-4.49734E-04-1.06449E-14
 -1      2978 4.85536E-03-4.87935E-04-1.03710E-14
 -1      2979 5.04877E-03-4.49561E-04-1.12692E-14
 -1      2980 1.81047E-03 2.92877E-04-2.62641E-15
 -1      2981 1.98434E-03 3.88081E-04-2.94937E-15
 -1      2982 1.40389E-03 7.88550E-05-2.07362E-15
 -1      2983 1.59226E-03 1.73879E-04-2.30829E-15
 -1      2984 1.01477E-03-2.14639E-04-1.50913E-15
 -1      2985 9.00994E-04-1.77630E-04-1.43796E-15
 -1      2986 3.55672E-03-1.14409E-03-6.65958E-15
 -1      2987 3.40953E-03-1.21288E-03-6.13747E-15
 -1      2988 1.41631E-03-3.96200E-04-1.84148E-15
 -1      2989 1.20909E-03-2.95387E-04-1.65224E-15
 -1      2990 2.17649E-03 4.84127E-04-3.36790E-15
 -1      2991 2.33380E-03 5.53382E-04-3.77525E-15
 -1      2992 2.37832E-03 5.84668E-04-3.88472E-15
 -1      2993 3.93159E-03 8.22551E-05-9.01120E-15
 -1      2994 4.11367E-03-1.66984E-05-9.49678E-15
 -1      2995 4.33284E-03-7.27677E-04-9.16544E-15
 -1      2996 4.19355E-03-8.01251E-04-8.75705E-15
 -1      2997 3.15233E-03 5.21382E-04-6.51891E-15
 -1      2998 3.30238E-03 4.42569E-04-7.03337E-15
 -1      2999 3.08995E-03 5.54870E-04-6.40079E-15
 -1      3000 9.18103E-04 3.07318E-04-6.23010E-16
 -1      3001 6.10444E-04-8.70642E-05-6.40194E-16
 -1      3002 6.76259E-04-1.09041E-04-6.28133E-16
 -1      3003 6.56050E-04-1.00728E-04-8.04004E-16
 -1      3004 5.87841E-04-1.06570E-04-8.75439E-16
 -1      3005 4.98398E-04-9.66106E-05-6.92934E-16
 -1      3006 4.70770E-04-9.38595E-05-6.87499E-16
 -1      3007 4.70313E-04-7.50165E-05-6.56240E-16
 -1      3008 5.40783E-04-8.72658E-05-8.12074E-16
 -1      3009 6.07030E-04-1.13677E-04-1.12172E-15
 -1      3010 5.15158E-03-3.99244E-04-1.18729E-14
 -1      3011 4.49837E-03-6.77732E-04-9.89679E-15
 -1      3012 2.05438E-03 4.46050E-04-3.04643E-15
 -1      3013 1.49663E-03-4.45875E-04-1.78738E-15
 -1      3014 4.65658E-03-2.54089E-04-1.10138E-14
 -1      3015 5.18107E-03-4.18088E-04-1.17794E-14
 -1      3016 1.10683E-03-2.51568E-04-1.45944E-15
 -1      3017 1.30276E-03 5.23004E-05-1.85544E-15
 -1      3018 1.92163E-03-7.10087E-04-2.25700E-15
 -1      3019 2.02004E-03-8.00168E-04-2.20452E-15
 -1      3020 2.22389E-03-9.26066E-04-2.61279E-15
 -1      3021 2.36774E-03-1.01717E-03-2.92817E-15
 -1      3022 2.56646E-03-1.13232E-03-3.41131E-15
 -1      3023 3.36003E-03-1.24275E-03-5.96058E-15
 -1      3024 1.44290E-02-2.45012E-03-1.34122E-13
 -1      3025 4.95604E-03-3.53039E-04-1.15419E-14
 -1      3026 2.36248E-03 7.18253E-04-3.81330E-15
 -1      3027 1.41055E-02-1.67646E-03-1.39745E-13
 -1      3028 1.39893E-02-1.64767E-03-1.37890E-13
 -1      3029 1.41315E-02-1.71825E-03-1.39636E-13
 -1      3030 3.41410E-03 3.89817E-04-7.54091E-15
 -1      3031 2.74051E-03 6.41550E-04-5.08457E-15
 -1      3032 2.83180E-03 6.35504E-04-5.45881E-15
 -1      3033 2.61948E-03 6.43684E-04-4.66939E-15
 -1      3034 8.48317E-04 5.71251E-06-9.01053E-16
 -1      3035 1.45951E-02-2.44265E-03-1.37495E-13
 -1      3036 3.82790E-03 1.54202E-04-8.93009E-15
 -1      3037 1.27968E-03-3.72212E-04-1.17698E-15
 -1      3038 1.00637E-03-6.69020E-05-1.59126E-15
 -1      3039 4.25973E-03-7.57617E-05-1.01825E-14
 -1      3040 7.50192E-04-1.31999E-04-1.40853E-15
 -1      3041 1.44436E-02-2.42430E-03-1.34823E-13
 -1      3042 1.45145E-02-2.40101E-03-1.36587E-13
 -1      3043 1.43776E-02-2.35685E-03-1.34614E-13
 -1      3044 1.43484E-02-2.40848E-03-1.33217E-13
 -1      3045 4.55825E-04-8.22646E-05-6.62549E-16
 -1      3046 1.41733E-02-1.79432E-03-1.39329E-13
 -1      3047 1.41473E-02-1.75253E-03-1.39439E-13
 -1      3048 1.40311E-02-1.72374E-03-1.37591E-13
 -1      3049 1.40627E-02-1.79230E-03-1.37192E-13
 -1      3050 4.82085E-03-5.29982E-04-1.07372E-14
 -1      3051 9.84781E-04 2.93714E-04-7.46704E-16
 -1      3052 8.00758E-04-1.45128E-04-1.25473E-15
 -1      3053 1.12009E-03 3.15781E-04-9.59139E-16
 -1      3054 1.67028E-03 2.37946E-04-2.33605E-15
 -1      3055 2.54365E-03-1.11207E-03-3.47747E-15
 -1      3056 2.39703E-03-1.01901E-03-3.17690E-15
 -1      3057 2.67312E-03-1.18686E-03-3.71875E-15
 -1      3058 3.45798E-03-1.22382E-03-6.31429E-15
 -1      3059 2.28421E-03-9.52693E-04-2.85361E-15
 -1      3060 1.17327E-03 2.70897E-04-1.10673E-15
 -1      3061 1.14590E-03 2.16978E-04-1.11696E-15
 -1      3062 5.88440E-04-1.01252E-04-9.88799E-16
 -1      3063 5.36295E-04-1.02585E-04-9.31885E-16
 -1      3064 3.04629E-03 5.83687E-04-6.32292E-15
 -1      3065 3.17628E-03 5.28468E-04-6.82885E-15
 -1      3066 1.41507E-02-2.11860E-03-1.33942E-13
 -1      3067 1.41249E-02-2.07715E-03-1.34080E-13
 -1      3068 1.63126E-03-5.35072E-04-1.79342E-15
 -1      3069 1.43954E-03-4.22134E-04-1.60517E-15
 -1      3070 3.71828E-03-1.06966E-03-7.23458E-15
 -1      3071 3.66040E-03-1.12471E-03-7.06614E-15
 -1      3072 1.84384E-03-6.72550E-04-2.04296E-15
 -1      3073 6.43061E-04-1.04978E-04-9.90480E-16
 -1      3074 2.86571E-03-1.25734E-03-4.27501E-15
 -1      3075 3.60641E-03-1.16470E-03-6.87254E-15
 -1      3076 3.80538E-03-1.08474E-03-7.65455E-15
 -1      3077 4.96154E-03-6.68409E-04-1.28442E-14
 -1      3078 5.11711E-03-6.65948E-04-1.38712E-14
 -1      3079 5.26696E-03-6.71418E-04-1.49297E-14
 -1      3080 5.41304E-03-6.81800E-04-1.60169E-14
 -1      3081 5.23469E-03-6.23234E-04-1.44641E-14
 -1      3082 5.55614E-03-6.96958E-04-1.71320E-14
 -1      3083 5.69777E-03-7.15385E-04-1.82773E-14
 -1      3084 5.51164E-03-6.51538E-04-1.66415E-14
 -1      3085 5.83817E-03-7.36816E-04-1.94503E-14
 -1      3086 5.97821E-03-7.60538E-04-2.06504E-14
 -1      3087 5.78300E-03-6.92065E-04-1.89330E-14
 -1      3088 6.11791E-03-7.86174E-04-2.18780E-14
 -1      3089 6.25778E-03-8.13347E-04-2.31321E-14
 -1      3090 6.05389E-03-7.40916E-04-2.13360E-14
 -1      3091 6.39772E-03-8.41688E-04-2.44117E-14
 -1      3092 6.53801E-03-8.70988E-04-2.57184E-14
 -1      3093 6.32650E-03-7.95419E-04-2.38453E-14
 -1      3094 6.67851E-03-9.00935E-04-2.70545E-14
 -1      3095 6.81938E-03-9.31404E-04-2.84160E-14
 -1      3096 6.60153E-03-8.53566E-04-2.64630E-14
 -1      3097 6.96047E-03-9.62156E-04-2.98060E-14
 -1      3098 7.10189E-03-9.93117E-04-3.12249E-14
 -1      3099 6.87895E-03-9.13811E-04-2.91904E-14
 -1      3100 7.24350E-03-1.02412E-03-3.26718E-14
 -1      3101 7.38537E-03-1.05512E-03-3.41482E-14
 -1      3102 7.15845E-03-9.74994E-04-3.20304E-14
 -1      3103 7.52738E-03-1.08600E-03-3.56539E-14
 -1      3104 7.66959E-03-1.11676E-03-3.71885E-14
 -1      3105 7.43963E-03-1.03630E-03-3.49874E-14
 -1      3106 7.81190E-03-1.14731E-03-3.87516E-14
 -1      3107 7.95435E-03-1.17766E-03-4.03440E-14
 -1      3108 7.72211E-03-1.09721E-03-3.80605E-14
 -1      3109 8.09687E-03-1.20776E-03-4.19665E-14
 -1      3110 8.23948E-03-1.23763E-03-4.36151E-14
 -1      3111 8.00557E-03-1.15740E-03-4.12492E-14
 -1      3112 8.38214E-03-1.26725E-03-4.52911E-14
 -1      3113 8.52486E-03-1.29663E-03-4.69945E-14
 -1      3114 8.28974E-03-1.21673E-03-4.45497E-14
 -1      3115 8.66761E-03-1.32577E-03-4.87229E-14
 -1      3116 8.81041E-03-1.35468E-03-5.04764E-14
 -1      3117 8.57442E-03-1.27516E-03-4.79570E-14
 -1      3118 8.95322E-03-1.38337E-03-5.22548E-14
 -1      3119 9.09605E-03-1.41185E-03-5.40588E-14
 -1      3120 8.85946E-03-1.33272E-03-5.14654E-14
 -1      3121 9.23889E-03-1.44015E-03-5.58859E-14
 -1      3122 9.38175E-03-1.46826E-03-5.77367E-14
 -1      3123 9.14476E-03-1.38949E-03-5.50731E-14
 -1      3124 9.52462E-03-1.49621E-03-5.96107E-14
 -1      3125 9.66749E-03-1.52401E-03-6.15089E-14
 -1      3126 9.43023E-03-1.44556E-03-5.87763E-14
 -1      3127 9.81037E-03-1.55167E-03-6.34306E-14
 -1      3128 9.95325E-03-1.57920E-03-6.53731E-14
 -1      3129 9.71582E-03-1.50104E-03-6.25746E-14
 -1      3130 1.00961E-02-1.60663E-03-6.73363E-14
 -1      3131 1.02390E-02-1.63395E-03-6.93203E-14
 -1      3132 1.00015E-02-1.55602E-03-6.64620E-14
 -1      3133 1.03819E-02-1.66118E-03-7.13261E-14
 -1      3134 1.05248E-02-1.68833E-03-7.33533E-14
 -1      3135 1.02872E-02-1.61060E-03-7.04319E-14
 -1      3136 1.06676E-02-1.71541E-03-7.53999E-14
 -1      3137 1.08105E-02-1.74242E-03-7.74683E-14
 -1      3138 1.05729E-02-1.66485E-03-7.44866E-14
 -1      3139 1.09534E-02-1.76939E-03-7.95559E-14
 -1      3140 1.10963E-02-1.79630E-03-8.16619E-14
 -1      3141 1.08587E-02-1.71886E-03-7.86233E-14
 -1      3142 1.12392E-02-1.82317E-03-8.37853E-14
 -1      3143 1.13820E-02-1.85001E-03-8.59300E-14
 -1      3144 1.11445E-02-1.77266E-03-8.28371E-14
 -1      3145 1.15249E-02-1.87682E-03-8.80916E-14
 -1      3146 1.16678E-02-1.90359E-03-9.02712E-14
 -1      3147 1.14302E-02-1.82632E-03-8.71272E-14
 -1      3148 1.18106E-02-1.93035E-03-9.24653E-14
 -1      3149 1.19535E-02-1.95709E-03-9.46743E-14
 -1      3150 1.17160E-02-1.87986E-03-9.14883E-14
 -1      3151 1.20964E-02-1.98381E-03-9.68954E-14
 -1      3152 1.22392E-02-2.01051E-03-9.91320E-14
 -1      3153 1.20017E-02-1.93333E-03-9.59086E-14
 -1      3154 1.23821E-02-2.03721E-03-1.01384E-13
 -1      3155 1.25250E-02-2.06389E-03-1.03649E-13
 -1      3156 1.22875E-02-1.98674E-03-1.00383E-13
 -1      3157 1.26678E-02-2.09057E-03-1.05927E-13
 -1      3158 1.28107E-02-2.11725E-03-1.08216E-13
 -1      3159 1.25732E-02-2.04011E-03-1.04914E-13
 -1      3160 1.29535E-02-2.14391E-03-1.10512E-13
 -1      3161 1.30964E-02-2.17058E-03-1.12817E-13
 -1      3162 1.28590E-02-2.09346E-03-1.09490E-13
 -1      3163 1.32393E-02-2.19724E-03-1.15132E-13
 -1      3164 1.33821E-02-2.22390E-03-1.17452E-13
 -1      3165 1.31447E-02-2.14679E-03-1.14103E-13
 -1      3166 1.35250E-02-2.25056E-03-1.19776E-13
 -1      3167 1.36678E-02-2.27722E-03-1.22105E-13
 -1      3168 1.34304E-02-2.20011E-03-1.18741E-13
 -1      3169 1.38107E-02-2.30387E-03-1.24439E-13
 -1      3170 1.39536E-02-2.33053E-03-1.26782E-13
 -1      3171 1.37162E-02-2.25342E-03-1.23405E-13
 -1      3172 1.40796E-02-2.35618E-03-1.28820E-13
 -1      3173 1.42224E-02-2.38284E-03-1.31173E-13
 -1      3174 1.42370E-02-2.35702E-03-1.31868E-13
 -1      3175 1.39850E-02-2.30573E-03-1.27783E-13
 -1      3176 5.12403E-03-4.51997E-04-1.19371E-14
 -1      3177 5.03733E-03-4.75153E-04-1.16476E-14
 -1      3178 3.40479E-03 5.34036E-04-8.22454E-15
 -1      3179 3.23961E-03 5.93436E-04-7.43561E-15
 -1      3180 4.41428E-03 1.60298E-04-1.37488E-14
 -1      3181 4.24895E-03 2.14925E-04-1.27383E-14
 -1      3182 4.73801E-03 6.41770E-05-1.58710E-14
 -1      3183 4.57753E-03 1.10214E-04-1.47932E-14
 -1      3184 4.54179E-03 8.39079E-05-1.43072E-14
 -1      3185 5.05196E-03-1.64867E-05-1.81237E-14
 -1      3186 4.89624E-03 2.21607E-05-1.69810E-14
 -1      3187 4.86320E-03-4.57230E-06-1.64636E-14
 -1      3188 5.35748E-03-8.48640E-05-2.05050E-14
 -1      3189 5.20569E-03-5.19389E-05-1.92992E-14
 -1      3190 5.17320E-03-7.82543E-05-1.87488E-14
 -1      3191 5.65659E-03-1.44298E-04-2.30098E-14
 -1      3192 5.50773E-03-1.15482E-04-2.17418E-14
 -1      3193 5.47429E-03-1.41169E-04-2.11590E-14
 -1      3194 5.95116E-03-1.97591E-04-2.56350E-14
 -1      3195 5.80435E-03-1.71547E-04-2.43071E-14
 -1      3196 5.76913E-03-1.96714E-04-2.36911E-14
 -1      3197 6.24264E-03-2.46968E-04-2.83824E-14
 -1      3198 6.09720E-03-2.22649E-04-2.69940E-14
 -1      3199 6.05988E-03-2.47467E-04-2.63440E-14
 -1      3200 6.53210E-03-2.94106E-04-3.12477E-14
 -1      3201 6.38756E-03-2.70732E-04-2.98001E-14
 -1      3202 6.34811E-03-2.95345E-04-2.91170E-14
 -1      3203 6.82026E-03-3.40217E-04-3.42294E-14
 -1      3204 6.67630E-03-3.17233E-04-3.27247E-14
 -1      3205 6.63488E-03-3.41731E-04-3.20080E-14
 -1      3206 7.10759E-03-3.86130E-04-3.73229E-14
 -1      3207 6.96399E-03-3.63161E-04-3.57621E-14
 -1      3208 6.92087E-03-3.87594E-04-3.50136E-14
 -1      3209 7.39438E-03-4.32381E-04-4.05274E-14
 -1      3210 7.25103E-03-4.09191E-04-3.89121E-14
 -1      3211 7.20648E-03-4.33578E-04-3.81312E-14
 -1      3212 7.68083E-03-4.79283E-04-4.38375E-14
 -1      3213 7.53763E-03-4.55739E-04-4.21684E-14
 -1      3214 7.49196E-03-4.80082E-04-4.13569E-14
 -1      3215 7.96706E-03-5.26988E-04-4.72571E-14
 -1      3216 7.82396E-03-5.03031E-04-4.55346E-14
 -1      3217 7.77741E-03-5.27327E-04-4.46907E-14
 -1      3218 8.25313E-03-5.75541E-04-5.07850E-14
 -1      3219 8.11010E-03-5.51159E-04-4.90082E-14
 -1      3220 8.06289E-03-5.75404E-04-4.81342E-14
 -1      3221 8.53911E-03-6.24914E-04-5.44120E-14
 -1      3222 8.39613E-03-6.00128E-04-5.25862E-14
 -1      3223 8.34844E-03-6.24318E-04-5.16836E-14
 -1      3224 8.82501E-03-6.75037E-04-5.81378E-14
 -1      3225 8.68206E-03-6.49886E-04-5.62630E-14
 -1      3226 8.63404E-03-6.74020E-04-5.53315E-14
 -1      3227 9.11086E-03-7.25821E-04-6.19547E-14
 -1      3228 8.96794E-03-7.00352E-04-6.00349E-14
 -1      3229 8.91969E-03-7.24432E-04-5.90755E-14
 -1      3230 9.39667E-03-7.77168E-04-6.58609E-14
 -1      3231 9.25377E-03-7.51430E-04-6.38963E-14
 -1      3232 9.20537E-03-7.75459E-04-6.29102E-14
 -1      3233 9.68246E-03-8.28984E-04-6.98559E-14
 -1      3234 9.53957E-03-8.03023E-04-6.78474E-14
 -1      3235 9.49109E-03-8.27006E-04-6.68348E-14
 -1      3236 9.96822E-03-8.81180E-04-7.39392E-14
 -1      3237 9.82534E-03-8.55039E-04-7.18869E-14
 -1      3238 9.77682E-03-8.78982E-04-7.08480E-14
 -1      3239 1.02540E-02-9.33680E-04-7.81086E-14
 -1      3240 1.01111E-02-9.07396E-04-7.60129E-14
 -1      3241 1.00626E-02-9.31305E-04-7.49488E-14
 -1      3242 1.05397E-02-9.86416E-04-8.23621E-14
 -1      3243 1.03968E-02-9.60022E-04-8.02237E-14
 -1      3244 1.03483E-02-9.83901E-04-7.91334E-14
 -1      3245 1.08254E-02-1.03933E-03-8.67000E-14
 -1      3246 1.06826E-02-1.01285E-03-8.45215E-14
 -1      3247 1.06341E-02-1.03671E-03-8.34041E-14
 -1      3248 1.11112E-02-1.09239E-03-9.11138E-14
 -1      3249 1.09683E-02-1.06585E-03-8.88985E-14
 -1      3250 1.09198E-02-1.08968E-03-8.77586E-14
 -1      3251 1.13969E-02-1.14554E-03-9.55878E-14
 -1      3252 1.12540E-02-1.11895E-03-9.33433E-14
 -1      3253 1.12055E-02-1.14278E-03-9.21822E-14
 -1      3254 1.16826E-02-1.19877E-03-1.00125E-13
 -1      3255 1.15397E-02-1.17215E-03-9.78489E-14
 -1      3256 1.14913E-02-1.19596E-03-9.66673E-14
 -1      3257 1.19683E-02-1.25204E-03-1.04708E-13
 -1      3258 1.18254E-02-1.22540E-03-1.02410E-13
 -1      3259 1.17770E-02-1.24920E-03-1.01209E-13
 -1      3260 1.22540E-02-1.30536E-03-1.09339E-13
 -1      3261 1.21112E-02-1.27870E-03-1.07018E-13
 -1      3262 1.20627E-02-1.30249E-03-1.05800E-13
 -1      3263 1.25397E-02-1.35869E-03-1.14009E-13
 -1      3264 1.23969E-02-1.33202E-03-1.11669E-13
 -1      3265 1.23485E-02-1.35581E-03-1.10434E-13
 -1      3266 1.28254E-02-1.41203E-03-1.18715E-13
 -1      3267 1.26826E-02-1.38536E-03-1.16357E-13
 -1      3268 1.26342E-02-1.40915E-03-1.15107E-13
 -1      3269 1.31112E-02-1.46539E-03-1.23454E-13
 -1      3270 1.29683E-02-1.43871E-03-1.21081E-13
 -1      3271 1.29199E-02-1.46249E-03-1.19817E-13
 -1      3272 1.33969E-02-1.51874E-03-1.28218E-13
 -1      3273 1.32540E-02-1.49206E-03-1.25832E-13
 -1      3274 1.32056E-02-1.51584E-03-1.24559E-13
 -1      3275 1.36826E-02-1.57209E-03-1.33002E-13
 -1      3276 1.35397E-02-1.54541E-03-1.30607E-13
 -1      3277 1.34914E-02-1.56920E-03-1.29325E-13
 -1      3278 1.38940E-02-1.62427E-03-1.36369E-13
 -1      3279 1.37778E-02-1.59549E-03-1.34521E-13
 -1      3280 1.37295E-02-1.61927E-03-1.33232E-13
 -1      3281 1.39200E-02-1.66607E-03-1.36266E-13
 -1      3282 5.14732E-03-3.97481E-04-1.24311E-14
 -1      3283 5.21272E-03-4.12215E-04-1.25659E-14
 -1      3284 1.42554E-02-2.28687E-03-1.33339E-13
 -1      3285 1.42292E-02-2.24471E-03-1.33496E-13
 -1      3286 5.63133E-04-1.21225E-04-1.06897E-15
 -1      3287 6.03736E-04-1.35588E-04-1.24005E-15
 -1      3288 4.93116E-03-5.15029E-04-1.13915E-14
 -1      3289 4.81317E-03-5.68268E-04-1.11344E-14
 -1      3290 5.03142E-03-5.10090E-04-1.20594E-14
 -1      3291 1.40987E-02-2.03500E-03-1.34217E-13
 -1      3292 1.40725E-02-1.99284E-03-1.34352E-13
 -1      3293 1.39878E-02-2.03263E-03-1.32091E-13
 -1      3294 3.34721E-03 4.41675E-04-7.45636E-15
 -1      3295 3.53008E-03 3.37646E-04-8.11294E-15
 -1      3296 3.29318E-03 4.85771E-04-7.36602E-15
 -1      3297 2.12121E-03 6.34396E-04-3.07714E-15
 -1      3298 1.95395E-03 5.86617E-04-2.62210E-15
 -1      3299 3.13473E-03 6.04391E-04-6.89902E-15
 -1      3300 2.97065E-03 6.50325E-04-6.17861E-15
 -1      3301 8.76157E-04-1.83208E-04-8.10224E-16
 -1      3302 5.08276E-04-1.01874E-04-8.38752E-16
 -1      3303 1.42030E-02-2.20273E-03-1.33648E-13
 -1      3304 1.41768E-02-2.16058E-03-1.33796E-13
 -1      3305 1.40402E-02-2.11676E-03-1.31812E-13
 -1      3306 1.40924E-02-2.20072E-03-1.31520E-13
 -1      3307 4.08106E-03 2.73840E-04-1.17629E-14
 -1      3308 3.91224E-03 3.36494E-04-1.08228E-14
 -1      3309 4.20788E-03 1.90976E-04-1.22843E-14
 -1      3310 3.74200E-03 4.02331E-04-9.91964E-15
 -1      3311 3.57296E-03 4.68555E-04-9.05348E-15
 -1      3312 3.86347E-03 3.17921E-04-1.04006E-14
 -1      3313 5.22996E-03-4.26396E-04-1.25035E-14
 -1      3314 5.19562E-03-4.35123E-04-1.22739E-14
 -1      3315 4.18469E-03-8.46315E-04-8.94495E-15
 -1      3316 4.38422E-03-7.83096E-04-9.83434E-15
 -1      3317 8.86229E-04-8.90799E-05-1.37585E-15
 -1      3318 1.01207E-03-4.54081E-05-1.45555E-15
 -1      3319 6.20934E-04-1.33953E-04-1.19386E-15
 -1      3320 3.98357E-03-9.17578E-04-8.10621E-15
 -1      3321 3.76884E-03-1.03961E-03-7.39876E-15
 -1      3322 1.11149E-03 1.61227E-04-1.12243E-15
 -1      3323 1.06716E-03 1.05759E-04-1.12428E-15
 -1      3324 1.27875E-03 2.30785E-04-1.36553E-15
 -1      3325 6.64087E-04-1.18945E-04-1.09242E-15
 -1      3326 7.61435E-04-1.06067E-04-1.17525E-15
 -1      3327 4.92910E-03-3.39681E-04-1.19890E-14
 -1      3328 5.04379E-03-3.71408E-04-1.21927E-14
 -1      3329 4.68851E-03-6.24710E-04-1.07794E-14
 -1      3330 4.50785E-03-7.07820E-04-1.01797E-14
 -1      3331 4.58050E-03-7.22281E-04-1.07122E-14
 -1      3332 4.81496E-03-6.00997E-04-1.14323E-14
 -1      3333 1.15301E-03-2.76540E-04-1.32831E-15
 -1      3334 9.81356E-04-2.02438E-04-1.20531E-15
 -1      3335 1.93643E-03 4.13943E-04-2.73861E-15
 -1      3336 2.10956E-03 4.99044E-04-3.13706E-15
 -1      3337 3.71957E-03 2.34868E-04-8.82431E-15
 -1      3338 3.92622E-03 1.23987E-04-9.57737E-15
 -1      3339 2.44601E-03 7.00402E-04-4.11143E-15
 -1      3340 2.28481E-03 6.74002E-04-3.57348E-15
 -1      3341 2.20261E-03 6.22730E-04-3.33570E-15
 -1      3342 5.41393E-04-1.12851E-04-9.62697E-16
 -1      3343 1.27728E-03-3.49905E-04-1.33144E-15
 -1      3344 7.64535E-04-1.32874E-04-1.11412E-15
 -1      3345 6.98334E-04-1.12306E-04-9.25075E-16
 -1      3346 7.86437E-04-1.36951E-04-9.13962E-16
 -1      3347 8.84705E-04-1.66516E-04-1.18156E-15
 -1      3348 4.61552E-03-2.24117E-04-1.14039E-14
 -1      3349 4.77936E-03-2.87954E-04-1.17412E-14
 -1      3350 1.31455E-03 3.87028E-04-1.25846E-15
 -1      3351 1.23232E-03 3.20826E-04-1.16721E-15
 -1      3352 1.37079E-03 3.40906E-04-1.42848E-15
 -1      3353 1.48553E-03 4.43527E-04-1.56749E-15
 -1      3354 4.21434E-03-2.83381E-05-1.05009E-14
 -1      3355 4.41694E-03-1.31588E-04-1.10147E-14
 -1      3356 1.51112E-03 1.84419E-04-2.00275E-15
 -1      3357 1.70195E-03 2.90938E-04-2.29185E-15
 -1      3358 1.18856E-03 2.64995E-05-1.61703E-15
 -1      3359 1.33549E-03 9.20635E-05-1.78842E-15
 -1      3360 2.29670E-03 5.76454E-04-3.63418E-15
 -1      3361 2.43509E-03 6.19219E-04-4.05822E-15
 -1      3362 1.06056E-03 5.70148E-05-1.20845E-15
 -1      3363 9.87254E-04 2.37770E-06-1.19884E-15
 -1      3364 4.06640E-03-8.75319E-04-8.39486E-15
 -1      3365 4.89238E-03-3.15079E-04-1.23932E-14
 -1      3366 1.04947E-03-9.82751E-06-1.39573E-15
 -1      3367 3.64319E-03 2.99666E-04-8.72532E-15
 -1      3368 9.24413E-04-1.84462E-04-1.06475E-15
 -1      3369 4.75672E-03-6.94451E-04-1.16691E-14
 -1      3370 4.90207E-03-6.28061E-04-1.22230E-14
 -1      3371 1.39354E-02-1.94831E-03-1.32353E-13
 -1      3372 1.40462E-02-1.95068E-03-1.34482E-13
 -1      3373 1.40200E-02-1.90852E-03-1.34610E-13
 -1      3374 5.64504E-04-1.18037E-04-9.69602E-16
 -1      3375 7.61263E-04-8.67264E-05-1.05712E-15
 -1      3376 3.51547E-03 4.58250E-04-8.66230E-15
 -1      3377 5.13735E-03-3.89789E-04-1.28914E-14
 -1      3378 5.20188E-03-4.55388E-04-1.26648E-14
 -1      3379 1.39938E-02-1.86636E-03-1.34732E-13
 -1      3380 1.39676E-02-1.82421E-03-1.34854E-13
 -1      3381 1.38830E-02-1.86399E-03-1.32604E-13
 -1      3382 8.41743E-04-5.16528E-05-1.06511E-15
 -1      3383 2.53085E-03 6.46145E-04-4.38510E-15
 -1      3384 1.80565E-03 5.44053E-04-2.25312E-15
 -1      3385 1.63483E-03 4.88314E-04-1.87244E-15
 -1      3386 1.57992E-03 4.37851E-04-1.79449E-15
 -1      3387 1.88261E-03 5.29405E-04-2.47476E-15
 -1      3388 2.92316E-03 6.36486E-04-5.90927E-15
 -1      3389 2.77790E-03 6.98892E-04-5.37938E-15
 -1      3390 2.61961E-03 7.06483E-04-4.75227E-15
 -1      3391 2.83496E-03 6.45022E-04-5.52211E-15
 -1      3392 5.26322E-03-4.27383E-04-1.30743E-14
 -1      3393 5.30452E-03-4.43237E-04-1.35861E-14
 -1      3394 5.28651E-03-4.27732E-04-1.36503E-14
 -1      3395 1.38410E-02-1.78755E-03-1.32928E-13
 -1      3396 1.39518E-02-1.78992E-03-1.35059E-13
 -1      3397 1.39360E-02-1.75564E-03-1.35260E-13
 -1      3398 1.23686E-03 1.19521E-04-1.46144E-15
 -1      3399 3.99104E-03-9.55337E-04-8.28574E-15
 -1      3400 2.54678E-03 6.79971E-04-4.46884E-15
 -1      3401 1.77267E-03 3.56788E-04-2.36661E-15
 -1      3402 1.82859E-03 4.17623E-04-2.43777E-15
 -1      3403 1.61032E-03 3.04590E-04-2.02362E-15
 -1      3404 4.56051E-03-1.77089E-04-1.17375E-14
 -1      3405 2.17491E-03 5.51065E-04-3.28595E-15
 -1      3406 3.99542E-03 1.33150E-04-1.02552E-14
 -1      3407 4.09640E-03 5.29856E-05-1.03797E-14
 -1      3408 4.26188E-03-6.39599E-06-1.12100E-14
 -1      3409 1.42389E-02-2.33485E-03-1.32255E-13
 -1      3410 1.42535E-02-2.30903E-03-1.32950E-13
 -1      3411 1.41167E-02-2.26487E-03-1.30984E-13
 -1      3412 1.41129E-02-2.30921E-03-1.30211E-13
 -1      3413 1.38122E-03 1.48884E-04-1.74870E-15
 -1      3414 1.02426E-03-2.44448E-04-9.50032E-16
 -1      3415 1.39359E-02-1.72799E-03-1.35669E-13
 -1      3416 1.39201E-02-1.69371E-03-1.35862E-13
 -1      3417 1.38249E-02-1.67032E-03-1.34348E-13
 -1      3418 1.38251E-02-1.72561E-03-1.33538E-13
 -1      3419 1.48711E-03 3.25455E-04-1.70254E-15
 -1      3420 1.45331E-03 2.64825E-04-1.70617E-15
 -1      3421 3.23928E-03 5.42759E-04-7.29011E-15
 -1      3422 5.21180E-03-5.76469E-04-1.39985E-14
 -1      3423 5.34317E-03-5.90732E-04-1.50601E-14
 -1      3424 5.47257E-03-6.08144E-04-1.61505E-14
 -1      3425 5.60210E-03-6.27703E-04-1.72681E-14
 -1      3426 5.43874E-03-5.66401E-04-1.56586E-14
 -1      3427 5.73137E-03-6.49389E-04-1.84156E-14
 -1      3428 5.86158E-03-6.72824E-04-1.95908E-14
 -1      3429 5.68295E-03-6.08782E-04-1.78993E-14
 -1      3430 5.99239E-03-6.97689E-04-2.07936E-14
 -1      3431 6.12438E-03-7.23868E-04-2.20240E-14
 -1      3432 5.93303E-03-6.56513E-04-2.02512E-14
 -1      3433 6.25725E-03-7.51026E-04-2.32789E-14
 -1      3434 6.39127E-03-7.79127E-04-2.45610E-14
 -1      3435 6.18961E-03-7.08542E-04-2.27121E-14
 -1      3436 6.52618E-03-8.07859E-04-2.58721E-14
 -1      3437 6.66209E-03-8.37198E-04-2.72096E-14
 -1      3438 6.45214E-03-7.63850E-04-2.52804E-14
 -1      3439 6.79880E-03-8.66884E-04-2.85743E-14
 -1      3440 6.93635E-03-8.96902E-04-2.99674E-14
 -1      3441 6.71979E-03-8.21422E-04-2.79585E-14
 -1      3442 7.07456E-03-9.27048E-04-3.13893E-14
 -1      3443 7.21345E-03-9.57316E-04-3.28409E-14
 -1      3444 6.99165E-03-8.80331E-04-3.07475E-14
 -1      3445 7.35285E-03-9.87559E-04-3.43197E-14
 -1      3446 7.49279E-03-1.01778E-03-3.58302E-14
 -1      3447 7.26691E-03-9.39824E-04-3.36540E-14
 -1      3448 7.63312E-03-1.04787E-03-3.73678E-14
 -1      3449 7.77387E-03-1.07784E-03-3.89347E-14
 -1      3450 7.54484E-03-9.99342E-04-3.66754E-14
 -1      3451 7.91491E-03-1.10763E-03-4.05314E-14
 -1      3452 8.05626E-03-1.13725E-03-4.21557E-14
 -1      3453 7.82484E-03-1.05851E-03-3.98129E-14
 -1      3454 8.19784E-03-1.16667E-03-4.38073E-14
 -1      3455 8.33965E-03-1.19589E-03-4.54849E-14
 -1      3456 8.10642E-03-1.11711E-03-4.30638E-14
 -1      3457 8.48162E-03-1.22490E-03-4.71903E-14
 -1      3458 8.62375E-03-1.25371E-03-4.89198E-14
 -1      3459 8.38919E-03-1.17502E-03-4.64233E-14
 -1      3460 8.76601E-03-1.28233E-03-5.06760E-14
 -1      3461 8.90839E-03-1.31077E-03-5.24557E-14
 -1      3462 8.67285E-03-1.23224E-03-4.98858E-14
 -1      3463 9.05085E-03-1.33903E-03-5.42602E-14
 -1      3464 9.19340E-03-1.36712E-03-5.60895E-14
 -1      3465 8.95717E-03-1.28878E-03-5.34468E-14
 -1      3466 9.33601E-03-1.39506E-03-5.79422E-14
 -1      3467 9.47868E-03-1.42285E-03-5.98181E-14
 -1      3468 9.24196E-03-1.34471E-03-5.71073E-14
 -1      3469 9.62140E-03-1.45051E-03-6.17166E-14
 -1      3470 9.76415E-03-1.47806E-03-6.36409E-14
 -1      3471 9.52709E-03-1.40010E-03-6.08608E-14
 -1      3472 9.90693E-03-1.50549E-03-6.55839E-14
 -1      3473 1.00497E-02-1.53282E-03-6.75476E-14
 -1      3474 9.81247E-03-1.45504E-03-6.47060E-14
 -1      3475 1.01926E-02-1.56007E-03-6.95369E-14
 -1      3476 1.03354E-02-1.58723E-03-7.15439E-14
 -1      3477 1.00980E-02-1.50959E-03-6.86383E-14
 -1      3478 1.04783E-02-1.61433E-03-7.35706E-14
 -1      3479 1.06211E-02-1.64136E-03-7.56201E-14
 -1      3480 1.03836E-02-1.56384E-03-7.26554E-14
 -1      3481 1.07640E-02-1.66834E-03-7.76897E-14
 -1      3482 1.09069E-02-1.69527E-03-7.97785E-14
 -1      3483 1.06694E-02-1.61785E-03-7.67554E-14
 -1      3484 1.10498E-02-1.72215E-03-8.18879E-14
 -1      3485 1.11927E-02-1.74900E-03-8.40138E-14
 -1      3486 1.09551E-02-1.67166E-03-8.09353E-14
 -1      3487 1.13356E-02-1.77582E-03-8.61599E-14
 -1      3488 1.14784E-02-1.80261E-03-8.83267E-14
 -1      3489 1.12409E-02-1.72533E-03-8.51931E-14
 -1      3490 1.16213E-02-1.82938E-03-9.05089E-14
 -1      3491 1.17642E-02-1.85612E-03-9.27071E-14
 -1      3492 1.15267E-02-1.77889E-03-8.95268E-14
 -1      3493 1.19071E-02-1.88285E-03-9.49202E-14
 -1      3494 1.20500E-02-1.90957E-03-9.71451E-14
 -1      3495 1.18125E-02-1.83237E-03-9.39264E-14
 -1      3496 1.21929E-02-1.93627E-03-9.93832E-14
 -1      3497 1.23357E-02-1.96296E-03-1.01637E-13
 -1      3498 1.20982E-02-1.88580E-03-9.83824E-14
 -1      3499 1.24786E-02-1.98965E-03-1.03902E-13
 -1      3500 1.26215E-02-2.01632E-03-1.06180E-13
 -1      3501 1.23840E-02-1.93918E-03-1.02888E-13
 -1      3502 1.27644E-02-2.04300E-03-1.08468E-13
 -1      3503 1.29073E-02-2.06966E-03-1.10764E-13
 -1      3504 1.26698E-02-1.99253E-03-1.07442E-13
 -1      3505 1.30501E-02-2.09633E-03-1.13071E-13
 -1      3506 1.31930E-02-2.12299E-03-1.15386E-13
 -1      3507 1.29556E-02-2.04587E-03-1.12039E-13
 -1      3508 1.33359E-02-2.14965E-03-1.17708E-13
 -1      3509 1.34787E-02-2.17631E-03-1.20035E-13
 -1      3510 1.32413E-02-2.09919E-03-1.16668E-13
 -1      3511 1.36216E-02-2.20297E-03-1.22366E-13
 -1      3512 1.37645E-02-2.22963E-03-1.24706E-13
 -1      3513 1.35270E-02-2.15251E-03-1.21327E-13
 -1      3514 5.29447E-03-1.37609E-04-1.93747E-14
 -1      3515 5.14352E-03-1.05597E-04-1.82004E-14
 -1      3516 4.98990E-03-7.11215E-05-1.70580E-14
 -1      3517 4.83329E-03-3.30698E-05-1.59475E-14
 -1      3518 5.11689E-03-1.34254E-04-1.76557E-14
 -1      3519 5.00507E-03-5.84025E-04-1.25996E-14
 -1      3520 4.67292E-03 8.69995E-06-1.48689E-14
 -1      3521 4.50894E-03 5.54157E-05-1.38222E-14
 -1      3522 4.80676E-03-6.34550E-05-1.54332E-14
 -1      3523 5.59034E-03-1.95316E-04-2.18142E-14
 -1      3524 5.44329E-03-1.67281E-04-2.05794E-14
 -1      3525 5.41486E-03-1.94008E-04-2.00021E-14
 -1      3526 5.88058E-03-2.47371E-04-2.43727E-14
 -1      3527 5.73600E-03-2.21865E-04-2.30781E-14
 -1      3528 5.70500E-03-2.47109E-04-2.24691E-14
 -1      3529 6.16746E-03-2.95985E-04-2.70538E-14
 -1      3530 6.02431E-03-2.71986E-04-2.56985E-14
 -1      3531 5.99052E-03-2.96259E-04-2.50564E-14
 -1      3532 6.45253E-03-3.42712E-04-2.98522E-14
 -1      3533 6.31013E-03-3.19505E-04-2.84385E-14
 -1      3534 6.27363E-03-3.43228E-04-2.77632E-14
 -1      3535 6.73677E-03-3.88627E-04-3.27680E-14
 -1      3536 6.59470E-03-3.65720E-04-3.12952E-14
 -1      3537 6.55573E-03-3.89189E-04-3.05875E-14
 -1      3538 7.02077E-03-4.34459E-04-3.57975E-14
 -1      3539 6.87877E-03-4.11523E-04-3.42685E-14
 -1      3540 6.83766E-03-4.34920E-04-3.35276E-14
 -1      3541 7.30485E-03-4.80676E-04-3.89374E-14
 -1      3542 7.16278E-03-4.57502E-04-3.73535E-14
 -1      3543 7.11989E-03-4.80928E-04-3.65816E-14
 -1      3544 7.58915E-03-5.27553E-04-4.21861E-14
 -1      3545 7.44695E-03-5.04023E-04-4.05492E-14
 -1      3546 7.40261E-03-5.27524E-04-3.97445E-14
 -1      3547 7.87372E-03-5.75226E-04-4.55440E-14
 -1      3548 7.73139E-03-5.51288E-04-4.38505E-14
 -1      3549 7.68590E-03-5.74875E-04-4.30160E-14
 -1      3550 8.15856E-03-6.23734E-04-4.90107E-14
 -1      3551 8.01610E-03-5.99377E-04-4.72635E-14
 -1      3552 7.96972E-03-6.23044E-04-4.63965E-14
 -1      3553 8.44364E-03-6.73050E-04-5.25799E-14
 -1      3554 8.30107E-03-6.48295E-04-5.07833E-14
 -1      3555 8.25402E-03-6.72028E-04-4.98864E-14
 -1      3556 8.72892E-03-7.23109E-04-5.62499E-14
 -1      3557 8.58625E-03-6.97992E-04-5.44032E-14
 -1      3558 8.53871E-03-7.21774E-04-5.34784E-14
 -1      3559 9.01435E-03-7.73826E-04-6.00105E-14
 -1      3560 8.87161E-03-7.48391E-04-5.81182E-14
 -1      3561 8.82372E-03-7.72207E-04-5.71660E-14
 -1      3562 9.29989E-03-8.25106E-04-6.38636E-14
 -1      3563 9.15711E-03-7.99401E-04-6.19270E-14
 -1      3564 9.10897E-03-8.23238E-04-6.09462E-14
 -1      3565 9.58552E-03-8.76859E-04-6.78085E-14
 -1      3566 9.44270E-03-8.50929E-04-6.58254E-14
 -1      3567 9.39440E-03-8.74776E-04-6.48189E-14
 -1      3568 9.87121E-03-9.28998E-04-7.18396E-14
 -1      3569 9.72836E-03-9.02885E-04-6.98123E-14
 -1      3570 9.67996E-03-9.26735E-04-6.87819E-14
 -1      3571 1.01569E-02-9.81447E-04-7.59562E-14
 -1      3572 1.00141E-02-9.55188E-04-7.38871E-14
 -1      3573 9.96561E-03-9.79035E-04-7.28292E-14
 -1      3574 1.04427E-02-1.03414E-03-8.01593E-14
 -1      3575 1.02998E-02-1.00777E-03-7.80486E-14
 -1      3576 1.02513E-02-1.03161E-03-7.69633E-14
 -1      3577 1.07284E-02-1.08702E-03-8.44484E-14
 -1      3578 1.05856E-02-1.06056E-03-8.22935E-14
 -1      3579 1.05371E-02-1.08439E-03-8.11863E-14
 -1      3580 1.10142E-02-1.14004E-03-8.88147E-14
 -1      3581 1.08713E-02-1.11352E-03-8.66203E-14
 -1      3582 1.08228E-02-1.13734E-03-8.54884E-14
 -1      3583 1.12999E-02-1.19317E-03-9.32509E-14
 -1      3584 1.11571E-02-1.16660E-03-9.10265E-14
 -1      3585 1.11086E-02-1.19042E-03-8.98702E-14
 -1      3586 1.15857E-02-1.24638E-03-9.77447E-14
 -1      3587 1.14428E-02-1.21977E-03-9.54902E-14
 -1      3588 1.13944E-02-1.24358E-03-9.43172E-14
 -1      3589 1.18715E-02-1.29964E-03-1.02292E-13
 -1      3590 1.17286E-02-1.27301E-03-1.00012E-13
 -1      3591 1.16801E-02-1.29681E-03-9.88184E-14
 -1      3592 1.21572E-02-1.35294E-03-1.06888E-13
 -1      3593 1.20143E-02-1.32629E-03-1.04585E-13
 -1      3594 1.19659E-02-1.35009E-03-1.03374E-13
 -1      3595 1.24429E-02-1.40627E-03-1.11526E-13
 -1      3596 1.23001E-02-1.37960E-03-1.09203E-13
 -1      3597 1.22517E-02-1.40340E-03-1.07974E-13
 -1      3598 1.27287E-02-1.45961E-03-1.16204E-13
 -1      3599 1.25858E-02-1.43293E-03-1.13859E-13
 -1      3600 1.25374E-02-1.45673E-03-1.12615E-13
 -1      3601 1.30144E-02-1.51295E-03-1.20918E-13
 -1      3602 1.28715E-02-1.48628E-03-1.18556E-13
 -1      3603 1.28232E-02-1.51007E-03-1.17298E-13
 -1      3604 1.33001E-02-1.56631E-03-1.25663E-13
 -1      3605 1.31573E-02-1.53963E-03-1.23287E-13
 -1      3606 1.31089E-02-1.56342E-03-1.22016E-13
 -1      3607 1.35859E-02-1.61966E-03-1.30431E-13
 -1      3608 1.34430E-02-1.59298E-03-1.28043E-13
 -1      3609 1.33946E-02-1.61677E-03-1.26765E-13
 -1      3610 3.86491E-03-1.02393E-03-7.82793E-15
 -1      3611 5.21265E-03-5.10819E-04-1.34365E-14
 -1      3612 5.13357E-03-5.42052E-04-1.31622E-14
 -1      3613 1.38772E-02-2.03061E-03-1.29966E-13
 -1      3614 1.38510E-02-1.98845E-03-1.30097E-13
 -1      3615 3.39598E-03 4.63947E-04-7.94188E-15
 -1      3616 8.66797E-04-1.67004E-04-9.32983E-16
 -1      3617 3.57560E-03 3.86441E-04-8.76172E-15
 -1      3618 4.88722E-03-2.93643E-04-1.29812E-14
 -1      3619 5.01830E-03-3.41502E-04-1.32432E-14
 -1      3620 4.08730E-03 1.65321E-04-1.12101E-14
 -1      3621 3.90822E-03 2.34435E-04-1.02876E-14
 -1      3622 5.13370E-03-3.78917E-04-1.34958E-14
 -1      3623 5.22901E-03-4.05312E-04-1.37455E-14
 -1      3624 5.13572E-03-3.63290E-04-1.41054E-14
 -1      3625 6.17413E-04-1.13927E-04-9.78980E-16
 -1      3626 2.36075E-03 6.38273E-04-3.82669E-15
 -1      3627 2.19106E-03 5.94523E-04-3.31235E-15
 -1      3628 2.54267E-03 6.62116E-04-4.43783E-15
 -1      3629 2.01589E-03 5.23580E-04-2.84451E-15
 -1      3630 4.38736E-03 7.79947E-05-1.29838E-14
 -1      3631 4.21576E-03 1.34604E-04-1.19984E-14
 -1      3632 4.28639E-03 4.14079E-05-1.18684E-14
 -1      3633 4.52845E-03-3.67456E-06-1.35144E-14
 -1      3634 4.54738E-03-1.40739E-04-1.22003E-14
 -1      3635 4.72104E-03-2.23641E-04-1.26127E-14
 -1      3636 1.85874E-03 4.76306E-04-2.45755E-15
 -1      3637 5.32346E-03-4.17589E-04-1.48994E-14
 -1      3638 5.30653E-03-4.24221E-04-1.42714E-14
 -1      3639 5.37399E-03-4.41573E-04-1.48030E-14
 -1      3640 2.71816E-03 6.64972E-04-5.08269E-15
 -1      3641 5.37493E-03-4.63673E-04-1.44719E-14
 -1      3642 5.32275E-03-4.63764E-04-1.38794E-14
 -1      3643 1.38712E-03 2.01993E-04-1.64955E-15
 -1      3644 1.38757E-02-2.25659E-03-1.26435E-13
 -1      3645 1.40017E-02-2.28224E-03-1.28477E-13
 -1      3646 1.40036E-02-2.26007E-03-1.28861E-13
 -1      3647 1.37811E-02-2.20614E-03-1.25394E-13
 -1      3648 1.39033E-02-2.07259E-03-1.29830E-13
 -1      3649 1.37665E-02-2.02842E-03-1.27847E-13
 -1      3650 1.39295E-02-2.11457E-03-1.29689E-13
 -1      3651 1.37296E-02-1.64692E-03-1.32832E-13
 -1      3652 1.54996E-03 3.79764E-04-1.78498E-15
 -1      3653 1.37723E-02-1.86197E-03-1.30481E-13
 -1      3654 1.37461E-02-1.81981E-03-1.30599E-13
 -1      3655 5.28668E-03-4.89643E-04-1.37926E-14
 -1      3656 1.37142E-02-1.94428E-03-1.28108E-13
 -1      3657 1.38248E-02-1.94629E-03-1.30229E-13
 -1      3658 1.37986E-02-1.90413E-03-1.30357E-13
 -1      3659 4.86863E-03-2.60820E-04-1.34662E-14
 -1      3660 1.36812E-02-1.67070E-03-1.31543E-13
 -1      3661 1.37303E-02-1.78553E-03-1.30802E-13
 -1      3662 1.37146E-02-1.75124E-03-1.31006E-13
 -1      3663 1.36197E-02-1.78351E-03-1.28682E-13
 -1      3664 3.74521E-03 3.00572E-04-9.49722E-15
 -1      3665 3.85086E-03-1.05710E-03-7.82451E-15
 -1      3666 4.35866E-03-1.37895E-05-1.19684E-14
 -1      3667 4.46141E-03-8.63903E-05-1.21061E-14
 -1      3668 4.62843E-03-1.38568E-04-1.29896E-14
 -1      3669 4.47750E-03-3.54546E-05-1.27861E-14
 -1      3670 1.40055E-02-2.23790E-03-1.29245E-13
 -1      3671 1.38802E-02-2.20103E-03-1.27391E-13
 -1      3672 1.39933E-02-2.20583E-03-1.29511E-13
 -1      3673 1.39672E-02-2.16385E-03-1.29658E-13
 -1      3674 1.37690E-02-2.17407E-03-1.25656E-13
 -1      3675 5.42160E-03-4.61907E-04-1.51114E-14
 -1      3676 5.45597E-03-4.83366E-04-1.54182E-14
 -1      3677 5.46023E-03-4.59351E-04-1.57584E-14
 -1      3678 5.24339E-03-1.93708E-04-1.82545E-14
 -1      3679 5.09442E-03-1.63987E-04-1.71122E-14
 -1      3680 5.63611E-03-5.71044E-04-1.73821E-14
 -1      3681 5.75414E-03-5.94030E-04-1.85310E-14
 -1      3682 5.87447E-03-6.17734E-04-1.97082E-14
 -1      3683 5.99749E-03-6.42573E-04-2.09132E-14
 -1      3684 5.81596E-03-5.81389E-04-1.91659E-14
 -1      3685 6.12254E-03-6.68103E-04-2.21443E-14
 -1      3686 6.24973E-03-6.94571E-04-2.34019E-14
 -1      3687 6.05544E-03-6.29733E-04-2.15763E-14
 -1      3688 6.37864E-03-7.21609E-04-2.46877E-14
 -1      3689 6.50926E-03-7.49344E-04-2.60016E-14
 -1      3690 6.30518E-03-6.81142E-04-2.40958E-14
 -1      3691 6.64131E-03-7.77478E-04-2.73407E-14
 -1      3692 6.77472E-03-8.06076E-04-2.87090E-14
 -1      3693 6.56299E-03-7.35057E-04-2.67238E-14
 -1      3694 6.90928E-03-8.34902E-04-3.01061E-14
 -1      3695 7.04493E-03-8.63990E-04-3.15320E-14
 -1      3696 6.82716E-03-7.90770E-04-2.94636E-14
 -1      3697 7.18149E-03-8.93163E-04-3.29872E-14
 -1      3698 7.31890E-03-9.22440E-04-3.44707E-14
 -1      3699 7.09637E-03-8.47592E-04-3.23198E-14
 -1      3700 7.45703E-03-9.51695E-04-3.59838E-14
 -1      3701 7.59584E-03-9.80943E-04-3.75252E-14
 -1      3702 7.36955E-03-9.04953E-04-3.52913E-14
 -1      3703 7.73519E-03-1.01010E-03-3.90961E-14
 -1      3704 7.87506E-03-1.03917E-03-4.06957E-14
 -1      3705 7.64586E-03-9.62422E-04-3.83796E-14
 -1      3706 8.01536E-03-1.06811E-03-4.23225E-14
 -1      3707 8.15606E-03-1.09693E-03-4.39765E-14
 -1      3708 7.92459E-03-1.01971E-03-4.15800E-14
 -1      3709 8.29707E-03-1.12559E-03-4.56563E-14
 -1      3710 8.43839E-03-1.15412E-03-4.73624E-14
 -1      3711 8.20520E-03-1.07663E-03-4.48898E-14
 -1      3712 8.57994E-03-1.18248E-03-4.90942E-14
 -1      3713 8.72173E-03-1.21071E-03-5.08513E-14
 -1      3714 8.48725E-03-1.13310E-03-4.83037E-14
 -1      3715 8.86368E-03-1.23879E-03-5.26331E-14
 -1      3716 9.00581E-03-1.26674E-03-5.44405E-14
 -1      3717 8.77037E-03-1.18909E-03-5.18190E-14
 -1      3718 9.14807E-03-1.29455E-03-5.62714E-14
 -1      3719 9.29044E-03-1.32225E-03-5.81255E-14
 -1      3720 9.05431E-03-1.24462E-03-5.54354E-14
 -1      3721 9.43291E-03-1.34983E-03-6.00061E-14
 -1      3722 9.57547E-03-1.37731E-03-6.19068E-14
 -1      3723 9.33884E-03-1.29972E-03-5.91476E-14
 -1      3724 9.71809E-03-1.40469E-03-6.38289E-14
 -1      3725 9.86077E-03-1.43198E-03-6.57740E-14
 -1      3726 9.62380E-03-1.35445E-03-6.29529E-14
 -1      3727 1.00035E-02-1.45919E-03-6.77410E-14
 -1      3728 1.01463E-02-1.48633E-03-6.97315E-14
 -1      3729 9.90906E-03-1.40887E-03-6.68454E-14
 -1      3730 1.02891E-02-1.51340E-03-7.17398E-14
 -1      3731 1.04319E-02-1.54042E-03-7.37680E-14
 -1      3732 1.01945E-02-1.46302E-03-7.08225E-14
 -1      3733 1.05747E-02-1.56739E-03-7.58215E-14
 -1      3734 1.07176E-02-1.59431E-03-7.78929E-14
 -1      3735 1.04801E-02-1.51697E-03-7.48865E-14
 -1      3736 1.08605E-02-1.62119E-03-7.99833E-14
 -1      3737 1.10034E-02-1.64804E-03-8.20946E-14
 -1      3738 1.07659E-02-1.57075E-03-7.90321E-14
 -1      3739 1.11462E-02-1.67486E-03-8.42255E-14
 -1      3740 1.12891E-02-1.70165E-03-8.63752E-14
 -1      3741 1.10516E-02-1.62440E-03-8.32565E-14
 -1      3742 1.14320E-02-1.72842E-03-8.85441E-14
 -1      3743 1.15749E-02-1.75517E-03-9.07312E-14
 -1      3744 1.13374E-02-1.67795E-03-8.75609E-14
 -1      3745 1.17178E-02-1.78190E-03-9.29309E-14
 -1      3746 1.18607E-02-1.80862E-03-9.51476E-14
 -1      3747 1.16232E-02-1.73143E-03-9.19354E-14
 -1      3748 1.20036E-02-1.83532E-03-9.73758E-14
 -1      3749 1.21465E-02-1.86202E-03-9.96176E-14
 -1      3750 1.19090E-02-1.78485E-03-9.63683E-14
 -1      3751 1.22894E-02-1.88871E-03-1.01871E-13
 -1      3752 1.24323E-02-1.91539E-03-1.04138E-13
 -1      3753 1.21948E-02-1.83824E-03-1.00852E-13
 -1      3754 1.25752E-02-1.94206E-03-1.06418E-13
 -1      3755 1.27181E-02-1.96874E-03-1.08704E-13
 -1      3756 1.24806E-02-1.89160E-03-1.05389E-13
 -1      3757 1.28610E-02-1.99540E-03-1.11005E-13
 -1      3758 1.30039E-02-2.02207E-03-1.13313E-13
 -1      3759 1.27664E-02-1.94494E-03-1.09969E-13
 -1      3760 1.31467E-02-2.04873E-03-1.15628E-13
 -1      3761 1.32896E-02-2.07539E-03-1.17954E-13
 -1      3762 1.30522E-02-1.99827E-03-1.14588E-13
 -1      3763 1.34325E-02-2.10206E-03-1.20283E-13
 -1      3764 1.35754E-02-2.12872E-03-1.22618E-13
 -1      3765 1.33379E-02-2.05159E-03-1.19237E-13
 -1      3766 5.81786E-03-2.96561E-04-2.31251E-14
 -1      3767 5.67635E-03-2.72300E-04-2.18630E-14
 -1      3768 5.53377E-03-2.47350E-04-2.06309E-14
 -1      3769 5.38955E-03-2.21149E-04-1.94277E-14
 -1      3770 5.36765E-03-2.48880E-04-1.88563E-14
 -1      3771 5.65015E-03-2.97513E-04-2.12603E-14
 -1      3772 4.94226E-03-1.31994E-04-1.60009E-14
 -1      3773 4.78579E-03-9.58383E-05-1.49212E-14
 -1      3774 5.07663E-03-1.95125E-04-1.65714E-14
 -1      3775 6.09869E-03-3.43436E-04-2.57404E-14
 -1      3776 5.95851E-03-3.20174E-04-2.44177E-14
 -1      3777 5.92831E-03-3.43765E-04-2.37831E-14
 -1      3778 6.37821E-03-3.89269E-04-2.84725E-14
 -1      3779 6.23850E-03-3.66421E-04-2.70910E-14
 -1      3780 6.20474E-03-3.89085E-04-2.64233E-14
 -1      3781 6.65759E-03-4.34847E-04-3.13217E-14
 -1      3782 6.51785E-03-4.12055E-04-2.98828E-14
 -1      3783 6.48102E-03-4.34302E-04-2.91817E-14
 -1      3784 6.93748E-03-4.80673E-04-3.42878E-14
 -1      3785 6.79744E-03-4.57711E-04-3.27909E-14
 -1      3786 6.75804E-03-4.79868E-04-3.20567E-14
 -1      3787 7.21818E-03-5.27055E-04-3.73647E-14
 -1      3788 7.07771E-03-5.03786E-04-3.58124E-14
 -1      3789 7.03619E-03-5.26043E-04-3.50474E-14
 -1      3790 7.49976E-03-5.74167E-04-4.05514E-14
 -1      3791 7.35885E-03-5.50518E-04-3.89439E-14
 -1      3792 7.31561E-03-5.72971E-04-3.81487E-14
 -1      3793 7.78220E-03-6.22084E-04-4.38462E-14
 -1      3794 7.64087E-03-5.98028E-04-4.21861E-14
 -1      3795 7.59626E-03-6.20712E-04-4.13592E-14
 -1      3796 8.06541E-03-6.70812E-04-4.72519E-14
 -1      3797 7.92371E-03-6.46352E-04-4.55352E-14
 -1      3798 7.87804E-03-6.69266E-04-4.46784E-14
 -1      3799 8.34927E-03-7.20309E-04-5.07621E-14
 -1      3800 8.20726E-03-6.95470E-04-4.89939E-14
 -1      3801 8.16077E-03-7.18592E-04-4.81055E-14
 -1      3802 8.63365E-03-7.70509E-04-5.43762E-14
 -1      3803 8.49140E-03-7.45328E-04-5.25564E-14
 -1      3804 8.44429E-03-7.68626E-04-5.16397E-14
 -1      3805 8.91845E-03-8.21328E-04-5.80824E-14
 -1      3806 8.77600E-03-7.95847E-04-5.62186E-14
 -1      3807 8.72844E-03-8.19289E-04-5.52728E-14
 -1      3808 9.20356E-03-8.72678E-04-6.18812E-14
 -1      3809 9.06097E-03-8.46942E-04-5.99700E-14
 -1      3810 9.01309E-03-8.70496E-04-5.89987E-14
 -1      3811 9.48890E-03-9.24475E-04-6.57739E-14
 -1      3812 9.34620E-03-8.98526E-04-6.38170E-14
 -1      3813 9.29810E-03-9.22164E-04-6.28184E-14
 -1      3814 9.77441E-03-9.76639E-04-6.97528E-14
 -1      3815 9.63164E-03-9.50516E-04-6.77520E-14
 -1      3816 9.58338E-03-9.74215E-04-6.67279E-14
 -1      3817 1.00600E-02-1.02910E-03-7.38191E-14
 -1      3818 9.91721E-03-1.00284E-03-7.17755E-14
 -1      3819 9.86885E-03-1.02658E-03-7.07244E-14
 -1      3820 1.03457E-02-1.08179E-03-7.79711E-14
 -1      3821 1.02029E-02-1.05542E-03-7.58831E-14
 -1      3822 1.01545E-02-1.07919E-03-7.48075E-14
 -1      3823 1.06315E-02-1.13467E-03-8.22111E-14
 -1      3824 1.04886E-02-1.10821E-03-8.00809E-14
 -1      3825 1.04402E-02-1.13200E-03-7.89781E-14
 -1      3826 1.09172E-02-1.18768E-03-8.65300E-14
 -1      3827 1.07744E-02-1.16116E-03-8.43622E-14
 -1      3828 1.07259E-02-1.18496E-03-8.32350E-14
 -1      3829 1.12030E-02-1.24080E-03-9.09233E-14
 -1      3830 1.10601E-02-1.21423E-03-8.87161E-14
 -1      3831 1.10117E-02-1.23804E-03-8.75701E-14
 -1      3832 1.14888E-02-1.29400E-03-9.53791E-14
 -1      3833 1.13459E-02-1.26739E-03-9.31450E-14
 -1      3834 1.12975E-02-1.29120E-03-9.19731E-14
 -1      3835 1.17746E-02-1.34725E-03-9.98898E-14
 -1      3836 1.16317E-02-1.32062E-03-9.76290E-14
 -1      3837 1.15833E-02-1.34442E-03-9.64404E-14
 -1      3838 1.20604E-02-1.40054E-03-1.04451E-13
 -1      3839 1.19175E-02-1.37389E-03-1.02164E-13
 -1      3840 1.18691E-02-1.39770E-03-1.00958E-13
 -1      3841 1.23461E-02-1.45386E-03-1.09056E-13
 -1      3842 1.22033E-02-1.42720E-03-1.06747E-13
 -1      3843 1.21549E-02-1.45100E-03-1.05526E-13
 -1      3844 1.26319E-02-1.50719E-03-1.13702E-13
 -1      3845 1.24890E-02-1.48052E-03-1.11375E-13
 -1      3846 1.24406E-02-1.50432E-03-1.10136E-13
 -1      3847 1.29177E-02-1.56053E-03-1.18389E-13
 -1      3848 1.27748E-02-1.53386E-03-1.16040E-13
 -1      3849 1.27264E-02-1.55766E-03-1.14787E-13
 -1      3850 1.32034E-02-1.61388E-03-1.23113E-13
 -1      3851 1.30605E-02-1.58721E-03-1.20746E-13
 -1      3852 1.30122E-02-1.61100E-03-1.19478E-13
 -1      3853 1.36617E-02-1.85996E-03-1.28359E-13
 -1      3854 5.36525E-03-5.13520E-04-1.46798E-14
 -1      3855 1.70403E-03 4.27182E-04-2.10666E-15
 -1      3856 1.36813E-02-1.69835E-03-1.31140E-13
 -1      3857 5.15104E-03-3.47261E-04-1.47848E-14
 -1      3858 5.25382E-03-3.84102E-04-1.50512E-14
 -1      3859 5.46928E-03-5.06543E-04-1.55908E-14
 -1      3860 5.44266E-03-5.34275E-04-1.54976E-14
 -1      3861 5.55597E-03-5.55794E-04-1.65988E-14
 -1      3862 5.53162E-03-5.03462E-04-1.62531E-14
 -1      3863 4.88003E-03-2.31593E-04-1.41156E-14
 -1      3864 5.02550E-03-2.95121E-04-1.45061E-14
 -1      3865 1.35707E-02-1.69633E-03-1.29019E-13
 -1      3866 5.62306E-03-5.42934E-04-1.72085E-14
 -1      3867 1.36745E-02-2.12361E-03-1.24609E-13
 -1      3868 5.16305E-03-3.23373E-04-1.54631E-14
 -1      3869 4.67368E-03-8.19521E-05-1.40500E-14
 -1      3870 1.35511E-02-1.85794E-03-1.26247E-13
 -1      3871 1.35249E-02-1.81578E-03-1.26366E-13
 -1      3872 1.34891E-02-1.66723E-03-1.27862E-13
 -1      3873 1.33463E-02-1.64056E-03-1.25484E-13
 -1      3874 1.38304E-02-2.11968E-03-1.27685E-13
 -1      3875 1.36035E-02-1.94227E-03-1.25997E-13
 -1      3876 1.35773E-02-1.90010E-03-1.26124E-13
 -1      3877 1.34405E-02-1.85593E-03-1.24140E-13
 -1      3878 1.33985E-02-1.77948E-03-1.24459E-13
 -1      3879 1.35091E-02-1.78149E-03-1.26567E-13
 -1      3880 1.34933E-02-1.74721E-03-1.26769E-13
 -1      3881 4.81319E-03-1.75842E-04-1.42650E-14
 -1      3882 4.98097E-03-2.17602E-04-1.53278E-14
 -1      3883 1.36558E-02-2.02623E-03-1.25739E-13
 -1      3884 1.36297E-02-1.98425E-03-1.25868E-13
 -1      3885 1.34928E-02-1.94008E-03-1.23893E-13
 -1      3886 5.34766E-03-4.08759E-04-1.55987E-14
 -1      3887 5.43315E-03-4.30811E-04-1.61524E-14
 -1      3888 5.37461E-03-3.97353E-04-1.63068E-14
 -1      3889 1.32979E-02-1.66435E-03-1.24203E-13
 -1      3890 5.26808E-03-2.68282E-04-1.75424E-14
 -1      3891 5.12603E-03-2.43651E-04-1.64201E-14
 -1      3892 5.17929E-03-2.90496E-04-1.62621E-14
 -1      3893 1.35224E-02-1.72012E-03-1.27730E-13
 -1      3894 5.98680E-03-5.93332E-04-2.10095E-14
 -1      3895 6.10745E-03-6.17568E-04-2.22423E-14
 -1      3896 6.23073E-03-6.42345E-04-2.35032E-14
 -1      3897 6.35639E-03-6.67969E-04-2.47916E-14
 -1      3898 6.15460E-03-6.05145E-04-2.29113E-14
 -1      3899 6.48408E-03-6.94071E-04-2.61070E-14
 -1      3900 6.61362E-03-7.20806E-04-2.74502E-14
 -1      3901 6.40408E-03-6.54458E-04-2.54896E-14
 -1      3902 6.74475E-03-7.47885E-04-2.88226E-14
 -1      3903 6.87732E-03-7.75383E-04-3.02235E-14
 -1      3904 6.66166E-03-7.06197E-04-2.81809E-14
 -1      3905 7.01115E-03-8.03092E-04-3.16524E-14
 -1      3906 7.14613E-03-8.31056E-04-3.31110E-14
 -1      3907 6.92556E-03-7.59633E-04-3.09849E-14
 -1      3908 7.28210E-03-8.59117E-04-3.45980E-14
 -1      3909 7.41897E-03-8.87304E-04-3.61150E-14
 -1      3910 7.19446E-03-8.14175E-04-3.39050E-14
 -1      3911 7.55662E-03-9.15503E-04-3.76608E-14
 -1      3912 7.69498E-03-9.43735E-04-3.92347E-14
 -1      3913 7.46733E-03-8.69338E-04-3.69417E-14
 -1      3914 7.83395E-03-9.71922E-04-4.08369E-14
 -1      3915 7.97348E-03-1.00008E-03-4.24669E-14
 -1      3916 7.74334E-03-9.24766E-04-4.00927E-14
 -1      3917 8.11348E-03-1.02816E-03-4.41228E-14
 -1      3918 8.25390E-03-1.05618E-03-4.58039E-14
 -1      3919 8.02181E-03-9.80214E-04-4.33547E-14
 -1      3920 8.39469E-03-1.08411E-03-4.75132E-14
 -1      3921 8.53580E-03-1.11195E-03-4.92472E-14
 -1      3922 8.30221E-03-1.03553E-03-4.67213E-14
 -1      3923 8.67719E-03-1.13969E-03-5.10054E-14
 -1      3924 8.81882E-03-1.16735E-03-5.27901E-14
 -1      3925 8.58409E-03-1.09062E-03-5.01917E-14
 -1      3926 8.96066E-03-1.19491E-03-5.45975E-14
 -1      3927 9.10268E-03-1.22239E-03-5.64307E-14
 -1      3928 8.86710E-03-1.14547E-03-5.37605E-14
 -1      3929 9.24485E-03-1.24979E-03-5.82883E-14
 -1      3930 9.38716E-03-1.27711E-03-6.01697E-14
 -1      3931 9.15095E-03-1.20005E-03-5.74302E-14
 -1      3932 9.52958E-03-1.30435E-03-6.20751E-14
 -1      3933 9.67209E-03-1.33153E-03-6.39992E-14
 -1      3934 9.43542E-03-1.25440E-03-6.11940E-14
 -1      3935 9.81468E-03-1.35865E-03-6.59468E-14
 -1      3936 9.95733E-03-1.38571E-03-6.79174E-14
 -1      3937 9.72035E-03-1.30853E-03-6.50501E-14
 -1      3938 1.01000E-02-1.41271E-03-6.99061E-14
 -1      3939 1.02428E-02-1.43968E-03-7.19173E-14
 -1      3940 1.00056E-02-1.36248E-03-6.89897E-14
 -1      3941 1.03856E-02-1.46660E-03-7.39503E-14
 -1      3942 1.05284E-02-1.49348E-03-7.60048E-14
 -1      3943 1.02911E-02-1.41628E-03-7.30148E-14
 -1      3944 1.06713E-02-1.52034E-03-7.80795E-14
 -1      3945 1.08141E-02-1.54716E-03-8.01734E-14
 -1      3946 1.05767E-02-1.46996E-03-7.71255E-14
 -1      3947 1.09570E-02-1.57396E-03-8.22863E-14
 -1      3948 1.10999E-02-1.60073E-03-8.44216E-14
 -1      3949 1.08624E-02-1.52354E-03-8.13168E-14
 -1      3950 1.12428E-02-1.62749E-03-8.65753E-14
 -1      3951 1.13857E-02-1.65423E-03-8.87464E-14
 -1      3952 1.11482E-02-1.57705E-03-8.55883E-14
 -1      3953 1.15286E-02-1.68096E-03-9.09343E-14
 -1      3954 1.16715E-02-1.70767E-03-9.31387E-14
 -1      3955 1.14340E-02-1.63050E-03-8.99332E-14
 -1      3956 1.18144E-02-1.73438E-03-9.53592E-14
 -1      3957 1.19573E-02-1.76108E-03-9.75900E-14
 -1      3958 1.17198E-02-1.68391E-03-9.43445E-14
 -1      3959 1.21002E-02-1.78776E-03-9.98340E-14
 -1      3960 1.22431E-02-1.81445E-03-1.02090E-13
 -1      3961 1.20056E-02-1.73730E-03-9.88127E-14
 -1      3962 1.23860E-02-1.84113E-03-1.04359E-13
 -1      3963 1.25289E-02-1.86780E-03-1.06641E-13
 -1      3964 1.22915E-02-1.79065E-03-1.03330E-13
 -1      3965 1.26718E-02-1.89447E-03-1.08932E-13
 -1      3966 1.28147E-02-1.92114E-03-1.11233E-13
 -1      3967 1.25773E-02-1.84400E-03-1.07893E-13
 -1      3968 1.29576E-02-1.94780E-03-1.13543E-13
 -1      3969 1.31005E-02-1.97447E-03-1.15863E-13
 -1      3970 1.28630E-02-1.89734E-03-1.12497E-13
 -1      3971 1.32434E-02-2.00113E-03-1.18188E-13
 -1      3972 1.33863E-02-2.02779E-03-1.20521E-13
 -1      3973 1.31488E-02-1.95067E-03-1.17137E-13
 -1      3974 6.30852E-03-4.33359E-04-2.71080E-14
 -1      3975 6.17218E-03-4.11061E-04-2.57600E-14
 -1      3976 6.58200E-03-4.78460E-04-2.98916E-14
 -1      3977 6.44506E-03-4.55822E-04-2.84853E-14
 -1      3978 6.40988E-03-4.76583E-04-2.77926E-14
 -1      3979 6.85702E-03-5.24358E-04-3.27925E-14
 -1      3980 6.71928E-03-5.01312E-04-3.13279E-14
 -1      3981 6.68108E-03-5.22010E-04-3.06024E-14
 -1      3982 7.13377E-03-5.71116E-04-3.58072E-14
 -1      3983 6.99517E-03-5.47635E-04-3.42861E-14
 -1      3984 6.95456E-03-5.68530E-04-3.35275E-14
 -1      3985 7.41219E-03-6.18744E-04-3.89320E-14
 -1      3986 7.27277E-03-5.94829E-04-3.73558E-14
 -1      3987 7.23025E-03-6.16059E-04-3.65668E-14
 -1      3988 7.69214E-03-6.67210E-04-4.21672E-14
 -1      3989 7.55198E-03-6.42881E-04-4.05359E-14
 -1      3990 7.50795E-03-6.64503E-04-3.97167E-14
 -1      3991 7.97343E-03-7.16458E-04-4.55097E-14
 -1      3992 7.83263E-03-6.91745E-04-4.38249E-14
 -1      3993 7.78743E-03-7.13760E-04-4.29750E-14
 -1      3994 8.25582E-03-7.66415E-04-4.89594E-14
 -1      3995 8.11449E-03-7.41356E-04-4.72215E-14
 -1      3996 8.06839E-03-7.63736E-04-4.63411E-14
 -1      3997 8.53911E-03-8.17000E-04-5.25149E-14
 -1      3998 8.39736E-03-7.91637E-04-5.07243E-14
 -1      3999 8.35057E-03-8.14336E-04-4.98140E-14
 -1      4000 8.82310E-03-8.68130E-04-5.61687E-14
 -1      4001 8.68103E-03-8.42504E-04-5.43302E-14
 -1      4002 8.63373E-03-8.65472E-04-5.33906E-14
 -1      4003 9.10765E-03-9.19723E-04-5.99139E-14
 -1      4004 8.96532E-03-8.93875E-04-5.80302E-14
 -1      4005 8.91764E-03-9.17062E-04-5.70635E-14
 -1      4006 9.39260E-03-9.71704E-04-6.37532E-14
 -1      4007 9.25008E-03-9.45670E-04-6.18215E-14
 -1      4008 9.20213E-03-9.69031E-04-6.08304E-14
 -1      4009 9.67784E-03-1.02400E-03-6.76807E-14
 -1      4010 9.53519E-03-9.97817E-04-6.57062E-14
 -1      4011 9.48706E-03-1.02131E-03-6.46880E-14
 -1      4012 9.96330E-03-1.07656E-03-7.16960E-14
 -1      4013 9.82055E-03-1.05025E-03-6.96774E-14
 -1      4014 9.77229E-03-1.07384E-03-6.86362E-14
 -1      4015 1.02489E-02-1.12931E-03-7.57962E-14
 -1      4016 1.01061E-02-1.10291E-03-7.37361E-14
 -1      4017 1.00578E-02-1.12658E-03-7.26677E-14
 -1      4018 1.05346E-02-1.18223E-03-7.99853E-14
 -1      4019 1.03917E-02-1.15576E-03-7.78797E-14
 -1      4020 1.03434E-02-1.17947E-03-7.67855E-14
 -1      4021 1.08204E-02-1.23527E-03-8.42582E-14
 -1      4022 1.06775E-02-1.20874E-03-8.21115E-14
 -1      4023 1.06291E-02-1.23249E-03-8.09904E-14
 -1      4024 1.11061E-02-1.28841E-03-8.86069E-14
 -1      4025 1.09632E-02-1.26183E-03-8.64248E-14
 -1      4026 1.09148E-02-1.28561E-03-8.52799E-14
 -1      4027 1.13919E-02-1.34161E-03-9.30224E-14
 -1      4028 1.12490E-02-1.31500E-03-9.08055E-14
 -1      4029 1.12006E-02-1.33879E-03-8.96428E-14
 -1      4030 1.16778E-02-1.39486E-03-9.74989E-14
 -1      4031 1.15349E-02-1.36823E-03-9.52537E-14
 -1      4032 1.14864E-02-1.39203E-03-9.40683E-14
 -1      4033 1.19636E-02-1.44815E-03-1.02023E-13
 -1      4034 1.18207E-02-1.42150E-03-9.97544E-14
 -1      4035 1.17722E-02-1.44530E-03-9.85532E-14
 -1      4036 1.22493E-02-1.50146E-03-1.06597E-13
 -1      4037 1.21065E-02-1.47480E-03-1.04306E-13
 -1      4038 1.20581E-02-1.49860E-03-1.03088E-13
 -1      4039 1.25351E-02-1.55479E-03-1.11213E-13
 -1      4040 1.23922E-02-1.52812E-03-1.08899E-13
 -1      4041 1.23439E-02-1.55192E-03-1.07665E-13
 -1      4042 1.28209E-02-1.60812E-03-1.15869E-13
 -1      4043 1.26780E-02-1.58145E-03-1.13537E-13
 -1      4044 1.26296E-02-1.60525E-03-1.12287E-13
 -1      4045 1.31067E-02-1.66147E-03-1.20563E-13
 -1      4046 1.29638E-02-1.63479E-03-1.18212E-13
 -1      4047 1.29154E-02-1.65859E-03-1.16948E-13
 -1      4048 1.36367E-02-2.07433E-03-1.24636E-13
 -1      4049 4.74185E-03-1.29570E-04-1.41589E-14
 -1      4050 5.57661E-03-4.94488E-04-1.68462E-14
 -1      4051 5.60367E-03-5.17558E-04-1.70295E-14
 -1      4052 5.67837E-03-5.32579E-04-1.78189E-14
 -1      4053 1.34117E-02-1.71810E-03-1.25617E-13
 -1      4054 5.48541E-03-4.51710E-04-1.63406E-14
 -1      4055 5.54295E-03-4.74777E-04-1.66649E-14
 -1      4056 5.61435E-03-4.87676E-04-1.74474E-14
 -1      4057 5.52305E-03-4.45530E-04-1.70671E-14
 -1      4058 6.03607E-03-3.88897E-04-2.44416E-14
 -1      4059 5.89986E-03-3.66783E-04-2.31516E-14
 -1      4060 6.14077E-03-4.32324E-04-2.51003E-14
 -1      4061 1.33299E-02-1.85391E-03-1.22037E-13
 -1      4062 1.33036E-02-1.81175E-03-1.22155E-13
 -1      4063 5.77232E-03-5.50827E-04-1.88014E-14
 -1      4064 5.88690E-03-5.73626E-04-1.99847E-14
 -1      4065 5.93333E-03-5.62231E-04-2.06261E-14
 -1      4066 5.74061E-03-5.25500E-04-1.86105E-14
 -1      4067 5.29134E-03-3.41710E-04-1.65592E-14
 -1      4068 1.32689E-02-1.69143E-03-1.23249E-13
 -1      4069 1.34999E-02-2.03016E-03-1.22670E-13
 -1      4070 1.31256E-02-1.74750E-03-1.19680E-13
 -1      4071 1.32363E-02-1.74951E-03-1.21775E-13
 -1      4072 5.54552E-03-3.14080E-04-1.98780E-14
 -1      4073 5.40750E-03-2.91478E-04-1.86946E-14
 -1      4074 5.44905E-03-3.32134E-04-1.85280E-14
 -1      4075 1.32205E-02-1.71522E-03-1.21970E-13
 -1      4076 5.79106E-03-3.51504E-04-2.21105E-14
 -1      4077 5.65448E-03-3.29363E-04-2.08753E-14
 -1      4078 5.68767E-03-3.66710E-04-2.06994E-14
 -1      4079 5.89998E-03-3.95740E-04-2.27451E-14
 -1      4080 1.34053E-02-1.97970E-03-1.21612E-13
 -1      4081 5.41941E-03-3.52776E-04-1.78289E-14
 -1      4082 5.39470E-03-3.79633E-04-1.69937E-14
 -1      4083 5.49071E-03-4.07163E-04-1.75714E-14
 -1      4084 5.54829E-03-3.71733E-04-1.89881E-14
 -1      4085 1.33806E-02-1.93780E-03-1.21766E-13
 -1      4086 1.33545E-02-1.89581E-03-1.21891E-13
 -1      4087 1.32177E-02-1.85164E-03-1.19917E-13
 -1      4088 1.32670E-02-1.93543E-03-1.19620E-13
 -1      4089 6.07553E-03-5.69114E-04-2.23186E-14
 -1      4090 6.19760E-03-5.92227E-04-2.35813E-14
 -1      4091 6.32208E-03-6.15909E-04-2.48716E-14
 -1      4092 6.44873E-03-6.40469E-04-2.61902E-14
 -1      4093 6.23761E-03-5.78396E-04-2.42542E-14
 -1      4094 6.57726E-03-6.65510E-04-2.75379E-14
 -1      4095 6.70745E-03-6.91116E-04-2.89135E-14
 -1      4096 6.49110E-03-6.25679E-04-2.68945E-14
 -1      4097 6.83912E-03-7.17080E-04-3.03178E-14
 -1      4098 6.97212E-03-7.43456E-04-3.17507E-14
 -1      4099 6.75154E-03-6.75363E-04-2.96493E-14
 -1      4100 7.10630E-03-7.70044E-04-3.32135E-14
 -1      4101 7.24154E-03-7.96902E-04-3.47036E-14
 -1      4102 7.01737E-03-7.26675E-04-3.25201E-14
 -1      4103 7.37773E-03-8.23882E-04-3.62230E-14
 -1      4104 7.51477E-03-8.51022E-04-3.77718E-14
 -1      4105 7.28764E-03-7.79106E-04-3.55046E-14
 -1      4106 7.65256E-03-8.78215E-04-3.93490E-14
 -1      4107 7.79102E-03-9.05490E-04-4.09545E-14
 -1      4108 7.56148E-03-8.32256E-04-3.86054E-14
 -1      4109 7.93008E-03-9.32770E-04-4.25865E-14
 -1      4110 8.06967E-03-9.60080E-04-4.42444E-14
 -1      4111 7.83817E-03-8.85830E-04-4.18181E-14
 -1      4112 8.20972E-03-9.87366E-04-4.59294E-14
 -1      4113 8.35019E-03-1.01465E-03-4.76397E-14
 -1      4114 8.11714E-03-9.39623E-04-4.51376E-14
 -1      4115 8.49101E-03-1.04189E-03-4.93771E-14
 -1      4116 8.63215E-03-1.06911E-03-5.11393E-14
 -1      4117 8.39789E-03-9.93500E-04-4.85616E-14
 -1      4118 8.77357E-03-1.09629E-03-5.29253E-14
 -1      4119 8.91522E-03-1.12343E-03-5.47356E-14
 -1      4120 8.68003E-03-1.04738E-03-5.20884E-14
 -1      4121 9.05708E-03-1.15052E-03-5.65710E-14
 -1      4122 9.19912E-03-1.17759E-03-5.84316E-14
 -1      4123 8.96323E-03-1.10121E-03-5.57129E-14
 -1      4124 9.34131E-03-1.20460E-03-6.03159E-14
 -1      4125 9.48363E-03-1.23159E-03-6.22226E-14
 -1      4126 9.24723E-03-1.15498E-03-5.94363E-14
 -1      4127 9.62606E-03-1.25854E-03-6.41508E-14
 -1      4128 9.76859E-03-1.28545E-03-6.61005E-14
 -1      4129 9.53181E-03-1.20867E-03-6.32512E-14
 -1      4130 9.91120E-03-1.31234E-03-6.80730E-14
 -1      4131 1.00539E-02-1.33920E-03-7.00655E-14
 -1      4132 9.81682E-03-1.26229E-03-6.71546E-14
 -1      4133 1.01966E-02-1.36603E-03-7.20790E-14
 -1      4134 1.03394E-02-1.39284E-03-7.41134E-14
 -1      4135 1.01021E-02-1.31585E-03-7.11437E-14
 -1      4136 1.04822E-02-1.41963E-03-7.61707E-14
 -1      4137 1.06250E-02-1.44640E-03-7.82493E-14
 -1      4138 1.03876E-02-1.36935E-03-7.52160E-14
 -1      4139 1.07679E-02-1.47316E-03-8.03461E-14
 -1      4140 1.09107E-02-1.49990E-03-8.24631E-14
 -1      4141 1.06733E-02-1.42281E-03-7.93737E-14
 -1      4142 1.10536E-02-1.52663E-03-8.46012E-14
 -1      4143 1.11965E-02-1.55335E-03-8.67586E-14
 -1      4144 1.09590E-02-1.47623E-03-8.36135E-14
 -1      4145 1.13394E-02-1.58006E-03-8.89328E-14
 -1      4146 1.14823E-02-1.60676E-03-9.11237E-14
 -1      4147 1.12448E-02-1.52963E-03-8.79306E-14
 -1      4148 1.16252E-02-1.63346E-03-9.33306E-14
 -1      4149 1.17681E-02-1.66014E-03-9.55527E-14
 -1      4150 1.15307E-02-1.58301E-03-9.23177E-14
 -1      4151 1.19111E-02-1.68683E-03-9.77879E-14
 -1      4152 1.20540E-02-1.71351E-03-1.00036E-13
 -1      4153 1.18165E-02-1.63637E-03-9.67607E-14
 -1      4154 1.21969E-02-1.74018E-03-1.02297E-13
 -1      4155 1.23398E-02-1.76686E-03-1.04568E-13
 -1      4156 1.21023E-02-1.68972E-03-1.01262E-13
 -1      4157 1.24827E-02-1.79353E-03-1.06853E-13
 -1      4158 1.26256E-02-1.82020E-03-1.09146E-13
 -1      4159 1.23881E-02-1.74306E-03-1.05810E-13
 -1      4160 1.27685E-02-1.84687E-03-1.11448E-13
 -1      4161 1.29114E-02-1.87353E-03-1.13762E-13
 -1      4162 1.26739E-02-1.79640E-03-1.10399E-13
 -1      4163 1.30178E-02-1.89115E-03-1.15522E-13
 -1      4164 1.31606E-02-1.91782E-03-1.17849E-13
 -1      4165 1.31360E-02-1.87592E-03-1.17997E-13
 -1      4166 1.29232E-02-1.84068E-03-1.14466E-13
 -1      4167 6.77832E-03-5.65112E-04-3.13129E-14
 -1      4168 6.64317E-03-5.41878E-04-2.98810E-14
 -1      4169 6.50883E-03-5.18962E-04-2.84779E-14
 -1      4170 6.37518E-03-4.96436E-04-2.71047E-14
 -1      4171 6.60540E-03-5.60870E-04-2.91641E-14
 -1      4172 7.32568E-03-6.60967E-04-3.73257E-14
 -1      4173 7.18787E-03-6.36622E-04-3.57803E-14
 -1      4174 7.60295E-03-7.10317E-04-4.05013E-14
 -1      4175 7.46405E-03-6.85545E-04-3.88994E-14
 -1      4176 7.42016E-03-7.05985E-04-3.80864E-14
 -1      4177 7.88216E-03-7.60414E-04-4.37841E-14
 -1      4178 7.74233E-03-7.35284E-04-4.21292E-14
 -1      4179 7.69726E-03-7.56295E-04-4.12858E-14
 -1      4180 8.16297E-03-8.11137E-04-4.71734E-14
 -1      4181 8.02238E-03-7.85707E-04-4.54653E-14
 -1      4182 7.97641E-03-8.07250E-04-4.45931E-14
 -1      4183 8.44506E-03-8.62382E-04-5.06688E-14
 -1      4184 8.30387E-03-8.36702E-04-4.89088E-14
 -1      4185 8.25720E-03-8.58718E-04-4.80060E-14
 -1      4186 8.72817E-03-9.14061E-04-5.42662E-14
 -1      4187 8.58650E-03-8.88174E-04-5.24551E-14
 -1      4188 8.53932E-03-9.10594E-04-5.15238E-14
 -1      4189 9.01207E-03-9.66098E-04-5.79605E-14
 -1      4190 8.87003E-03-9.40040E-04-5.61022E-14
 -1      4191 8.82247E-03-9.62796E-04-5.51413E-14
 -1      4192 9.29656E-03-1.01843E-03-6.17452E-14
 -1      4193 9.15425E-03-9.92230E-04-5.98407E-14
 -1      4194 9.10641E-03-1.01526E-03-5.88557E-14
 -1      4195 9.58149E-03-1.07099E-03-6.56239E-14
 -1      4196 9.43898E-03-1.04468E-03-6.36726E-14
 -1      4197 9.39094E-03-1.06792E-03-6.26606E-14
 -1      4198 9.86674E-03-1.12375E-03-6.95880E-14
 -1      4199 9.72408E-03-1.09735E-03-6.75952E-14
 -1      4200 9.67590E-03-1.12075E-03-6.65568E-14
 -1      4201 1.01522E-02-1.17665E-03-7.36365E-14
 -1      4202 1.00094E-02-1.15018E-03-7.16019E-14
 -1      4203 9.96118E-03-1.17371E-03-7.05387E-14
 -1      4204 1.04378E-02-1.22967E-03-7.77733E-14
 -1      4205 1.02950E-02-1.20315E-03-7.56951E-14
 -1      4206 1.02467E-02-1.22677E-03-7.46057E-14
 -1      4207 1.07235E-02-1.28278E-03-8.19959E-14
 -1      4208 1.05807E-02-1.25621E-03-7.98734E-14
 -1      4209 1.05323E-02-1.27990E-03-7.87607E-14
 -1      4210 1.10093E-02-1.33596E-03-8.62992E-14
 -1      4211 1.08664E-02-1.30936E-03-8.41378E-14
 -1      4212 1.08180E-02-1.33309E-03-8.29992E-14
 -1      4213 1.12951E-02-1.38919E-03-9.06736E-14
 -1      4214 1.11522E-02-1.36257E-03-8.84792E-14
 -1      4215 1.11038E-02-1.38633E-03-8.73172E-14
 -1      4216 1.15809E-02-1.44246E-03-9.51126E-14
 -1      4217 1.14380E-02-1.41582E-03-9.28849E-14
 -1      4218 1.13896E-02-1.43960E-03-9.17047E-14
 -1      4219 1.18668E-02-1.49575E-03-9.96045E-14
 -1      4220 1.17238E-02-1.46910E-03-9.73528E-14
 -1      4221 1.16754E-02-1.49289E-03-9.61532E-14
 -1      4222 1.21526E-02-1.54906E-03-1.04146E-13
 -1      4223 1.20097E-02-1.52240E-03-1.01869E-13
 -1      4224 1.19613E-02-1.54621E-03-1.00653E-13
 -1      4225 1.24384E-02-1.60239E-03-1.08731E-13
 -1      4226 1.22955E-02-1.57572E-03-1.06433E-13
 -1      4227 1.22471E-02-1.59953E-03-1.05202E-13
 -1      4228 1.27242E-02-1.65572E-03-1.13360E-13
 -1      4229 1.25813E-02-1.62905E-03-1.11041E-13
 -1      4230 1.25329E-02-1.65286E-03-1.09796E-13
 -1      4231 1.29963E-02-1.71495E-03-1.17680E-13
 -1      4232 1.28535E-02-1.68828E-03-1.15345E-13
 -1      4233 1.28051E-02-1.71208E-03-1.14086E-13
 -1      4234 1.30637E-02-1.77718E-03-1.18062E-13
 -1      4235 6.24234E-03-4.74307E-04-2.57596E-14
 -1      4236 6.11019E-03-4.52660E-04-2.44448E-14
 -1      4237 6.34077E-03-5.15392E-04-2.64198E-14
 -1      4238 7.05069E-03-6.12508E-04-3.42634E-14
 -1      4239 6.91414E-03-5.88672E-04-3.27736E-14
 -1      4240 6.87378E-03-6.08030E-04-3.20232E-14
 -1      4241 7.14551E-03-6.56491E-04-3.49976E-14
 -1      4242 5.66367E-03-4.82057E-04-1.82280E-14
 -1      4243 5.70513E-03-5.03612E-04-1.84202E-14
 -1      4244 5.79910E-03-5.20761E-04-1.94148E-14
 -1      4245 1.31122E-02-1.84750E-03-1.17960E-13
 -1      4246 1.30875E-02-1.80560E-03-1.18104E-13
 -1      4247 1.29582E-02-1.77305E-03-1.16113E-13
 -1      4248 1.30058E-02-1.82988E-03-1.16193E-13
 -1      4249 6.10575E-03-4.78138E-04-2.40159E-14
 -1      4250 6.00495E-03-4.37722E-04-2.33798E-14
 -1      4251 5.90038E-03-4.23185E-04-2.23353E-14
 -1      4252 5.56093E-03-4.35919E-04-1.78322E-14
 -1      4253 5.61561E-03-4.59481E-04-1.80318E-14
 -1      4254 5.71070E-03-4.74694E-04-1.90172E-14
 -1      4255 5.88560E-03-5.35165E-04-2.03336E-14
 -1      4256 5.98491E-03-5.53597E-04-2.13650E-14
 -1      4257 6.02217E-03-5.40524E-04-2.20119E-14
 -1      4258 5.84384E-03-5.11590E-04-2.01322E-14
 -1      4259 5.59101E-03-4.21540E-04-1.85471E-14
 -1      4260 6.40259E-03-5.86322E-04-2.62509E-14
 -1      4261 6.53164E-03-6.10026E-04-2.76017E-14
 -1      4262 6.68131E-03-6.18586E-04-2.94142E-14
 -1      4263 6.81395E-03-6.42932E-04-3.08324E-14
 -1      4264 6.94773E-03-6.67587E-04-3.22794E-14
 -1      4265 7.08248E-03-6.92632E-04-3.37554E-14
 -1      4266 7.21818E-03-7.17894E-04-3.52583E-14
 -1      4267 7.35470E-03-7.43438E-04-3.67918E-14
 -1      4268 7.49200E-03-7.69134E-04-3.83548E-14
 -1      4269 7.62997E-03-7.95030E-04-3.99438E-14
 -1      4270 7.76857E-03-8.21030E-04-4.15620E-14
 -1      4271 7.90772E-03-8.47171E-04-4.32042E-14
 -1      4272 8.04738E-03-8.73382E-04-4.48734E-14
 -1      4273 8.18747E-03-8.99691E-04-4.65702E-14
 -1      4274 8.32797E-03-9.26047E-04-4.82923E-14
 -1      4275 8.46881E-03-9.52471E-04-5.00414E-14
 -1      4276 8.60996E-03-9.78925E-04-5.18142E-14
 -1      4277 8.75138E-03-1.00543E-03-5.36109E-14
 -1      4278 8.89303E-03-1.03195E-03-5.54356E-14
 -1      4279 9.03489E-03-1.05850E-03-5.72833E-14
 -1      4280 9.17692E-03-1.08507E-03-5.91520E-14
 -1      4281 9.31911E-03-1.11166E-03-6.10483E-14
 -1      4282 9.46143E-03-1.13826E-03-6.29642E-14
 -1      4283 9.60386E-03-1.16487E-03-6.49022E-14
 -1      4284 9.74638E-03-1.19149E-03-6.68630E-14
 -1      4285 9.88899E-03-1.21812E-03-6.88456E-14
 -1      4286 1.00317E-02-1.24476E-03-7.08482E-14
 -1      4287 1.01744E-02-1.27140E-03-7.28716E-14
 -1      4288 1.03171E-02-1.29804E-03-7.49189E-14
 -1      4289 1.04600E-02-1.32469E-03-7.69865E-14
 -1      4290 1.06028E-02-1.35134E-03-7.90738E-14
 -1      4291 1.07456E-02-1.37800E-03-8.11834E-14
 -1      4292 1.08885E-02-1.40466E-03-8.33145E-14
 -1      4293 1.10314E-02-1.43131E-03-8.54629E-14
 -1      4294 1.11743E-02-1.45797E-03-8.76311E-14
 -1      4295 1.13172E-02-1.48464E-03-8.98153E-14
 -1      4296 1.14601E-02-1.51130E-03-9.20176E-14
 -1      4297 1.16030E-02-1.53796E-03-9.42333E-14
 -1      4298 1.17459E-02-1.56463E-03-9.64632E-14
 -1      4299 1.18889E-02-1.59129E-03-9.87074E-14
 -1      4300 1.20318E-02-1.61796E-03-1.00963E-13
 -1      4301 1.21747E-02-1.64463E-03-1.03231E-13
 -1      4302 1.23176E-02-1.67129E-03-1.05509E-13
 -1      4303 1.24605E-02-1.69796E-03-1.07802E-13
 -1      4304 1.26034E-02-1.72463E-03-1.10104E-13
 -1      4305 1.27463E-02-1.75129E-03-1.12414E-13
 -1      4306 1.28756E-02-1.78385E-03-1.14390E-13
 -1      4307 6.45683E-03-5.54297E-04-2.73614E-14
 -1      4308 6.32626E-03-5.31719E-04-2.60141E-14
 -1      4309 5.62304E-03-4.05580E-04-1.92674E-14
 -1      4310 5.69309E-03-4.36612E-04-1.95426E-14
 -1      4311 5.65744E-03-3.88145E-04-1.99933E-14
 -1      4312 5.76039E-03-4.01811E-04-2.09929E-14
 -1      4313 6.06295E-03-5.11045E-04-2.29762E-14
 -1      4314 6.18860E-03-5.32744E-04-2.42549E-14
 -1      4315 5.86516E-03-4.41977E-04-2.16021E-14
 -1      4316 6.54982E-03-5.94779E-04-2.80259E-14
 -1      4317 5.80601E-03-4.53096E-04-2.06719E-14
 -1      4318 5.76704E-03-4.66363E-04-1.99266E-14
 -1      4319 5.81808E-03-4.91273E-04-2.01346E-14
 -1      4320 5.93986E-03-4.73779E-04-2.20056E-14
 -1      4321 6.22211E-03-5.15906E-04-2.49223E-14
 -1      4322 1.28994E-02-1.81226E-03-1.14429E-13
 -1      4323 5.90684E-03-5.04911E-04-2.10660E-14
 -1      4324 5.99748E-03-5.19152E-04-2.20145E-14
 -3
    1PSTEP                         2           1           1          
  100CL  101 1.000000000        4324                     0    1           1
 -4  STRESS      6    1
 -5  SXX         1    4    1    1
 -5  SYY         1    4    2    2
 -5  SZZ         1    4    3    3
 -5  SXY         1    4    1    2
 -5  SYZ         1    4    2    3
 -5  SZX         1    4    3    1
 -1         1-1.40098E+00-6.87572E+00-2.34514E+00-2.52490E+00-3.24157E-12-1.58312E-12
 -1         2-7.44111E-01-2.33170E+01-3.32897E+00-1.98099E-02-8.32320E-15 1.48912E-13
 -1         3 1.99998E+01 1.34367E-05-4.61227E-05 1.35481E-05-3.88486E-13-3.76726E-13
 -1         4 1.99998E+01 1.24154E-05-4.72129E-05-1.27734E-05 3.55703E-13-6.26803E-14
 -1         5 3.77730E+01 7.10965E+00 3.08462E+00 6.93974E+00-3.56659E-14 2.94788E-12
 -1         6 4.29573E+01 1.45850E+01 5.65914E+00-9.56219E+00-1.53447E-13 3.13542E-12
 -1         7 2.64705E+01 7.67756E+00 7.14594E-02-4.21126E+00-1.85685E-14 8.96793E-13
 -1         8 2.33874E+01 7.03229E+00 1.51395E-01-1.90140E+00-3.60129E-14 1.52349E-13
 -1         9 2.07573E+01 6.26054E+00 9.51894E-02-7.09949E-01-2.98095E-14-2.88612E-13
 -1        10 1.82917E+01 5.52461E+00 3.74134E-02-1.82485E-03-2.04281E-14-5.43909E-13
 -1        11 1.60323E+01 4.85208E+00-3.93600E-02 2.52555E-01-1.47382E-14-7.03972E-13
 -1        12 1.42955E+01 4.33422E+00-1.11798E-01 6.90500E-02-1.26912E-14-7.88815E-13
 -1        13 1.33654E+01 4.05645E+00-1.47874E-01-4.29207E-01-9.30506E-15-8.30536E-13
 -1        14 1.34539E+01 4.07973E+00-1.25598E-01-9.76128E-01-6.30745E-15-8.47458E-13
 -1        15 1.44304E+01 4.36572E+00-5.57720E-02-1.28539E+00-4.71151E-15-8.36668E-13
 -1        16 1.59226E+01 4.80508E+00 2.74603E-02-1.18889E+00-1.55431E-15-8.08168E-13
 -1        17 1.75199E+01 5.27722E+00 9.18116E-02-6.87611E-01 2.45637E-15-7.73681E-13
 -1        18 1.89275E+01 5.69781E+00 1.23333E-01 8.47574E-02 6.24500E-15-7.15635E-13
 -1        19 2.01173E+01 6.05779E+00 1.25308E-01 1.02061E+00 1.75970E-14-6.11791E-13
 -1        20 2.11634E+01 6.38057E+00 1.07381E-01 2.02498E+00 2.95389E-14-4.27180E-13
 -1        21 2.23511E+01 6.75342E+00 8.98081E-02 3.13922E+00 3.78655E-14-3.53094E-14
 -1        22 2.45607E+01 7.36528E+00 1.90948E-01 4.74560E+00 7.35523E-15 8.28896E-13
 -1        23 3.07694E+01-1.78172E+00-1.11310E+00-4.95093E-01-1.06339E-13 2.59555E-12
 -1        24 2.80903E+01-8.11854E-02-2.62881E-01 1.28589E-01-3.13725E-14 2.11523E-12
 -1        25 2.78356E+01-1.52475E-02 2.56937E-02 7.09934E-02-1.91289E-14 1.64565E-12
 -1        26 2.71296E+01 2.93604E-02 1.15505E-01-1.94372E-02-6.98009E-15 1.25419E-12
 -1        27 2.54479E+01 3.15518E-02 1.15269E-01-1.13229E-01-1.00146E-14 1.08623E-12
 -1        28 2.27612E+01 1.91417E-03 3.27681E-02-1.90965E-01-5.38350E-15 1.07657E-12
 -1        29 1.98070E+01-4.70622E-02-1.14229E-01-1.84048E-01 3.38527E-14 1.05407E-12
 -1        30 1.79464E+01-8.21095E-02-2.26607E-01-5.90193E-02-4.50594E-15 8.12990E-13
 -1        31 1.82228E+01-7.45959E-02-2.05536E-01 1.10798E-01-4.88238E-15 4.65045E-13
 -1        32 2.04324E+01-2.94591E-02-7.10729E-02 2.06826E-01-5.60647E-14 6.65579E-14
 -1        33 2.33065E+01 2.04938E-02 6.38668E-02 1.87031E-01 8.40946E-14 8.23439E-14
 -1        34 2.55607E+01 4.74085E-02 1.20814E-01 1.04899E-01-1.04248E-14 1.18433E-13
 -1        35 2.66340E+01 4.77400E-02 1.06859E-01 2.68413E-02 1.09279E-14-3.76938E-14
 -1        36 2.66396E+01 3.33698E-02 6.45888E-02-1.91658E-02-1.51294E-14-1.31819E-13
 -1        37 2.59721E+01 1.66589E-02 2.58434E-02-3.60907E-02-2.96473E-14-2.42329E-13
 -1        38 2.50101E+01 3.86190E-03 1.39866E-03-3.62549E-02-1.63245E-14-2.86365E-13
 -1        39 2.40071E+01-3.81041E-03-1.02580E-02-2.97149E-02 5.56337E-15-2.09431E-13
 -1        40 2.30964E+01-7.41650E-03-1.39231E-02-2.19643E-02-8.60016E-14-3.64851E-13
 -1        41 2.23295E+01-8.44488E-03-1.35970E-02-1.52344E-02 4.04450E-14-3.85228E-13
 -1        42 2.17131E+01-8.08514E-03-1.17015E-02-1.00835E-02-1.22098E-14-5.73951E-14
 -1        43 2.12330E+01-7.10477E-03-9.45343E-03-6.39354E-03 8.85473E-15 2.15960E-13
 -1        44 2.08676E+01-5.93791E-03-7.36857E-03-3.85382E-03 2.37599E-14 4.96343E-13
 -1        45 2.05947E+01-4.80358E-03-5.61517E-03-2.15487E-03-3.59539E-14 3.80311E-13
 -1        46 2.03945E+01-3.79680E-03-4.20981E-03-1.04701E-03-2.44838E-14-1.26685E-13
 -1        47 2.02503E+01-2.94698E-03-3.11285E-03-3.45587E-04 2.39937E-14 2.93133E-14
 -1        48 2.01484E+01-2.25173E-03-2.27046E-03 8.04569E-05 3.98436E-14 1.23766E-13
 -1        49 2.00782E+01-1.69508E-03-1.63111E-03 3.22356E-04 1.24797E-14 2.63658E-13
 -1        50 2.00313E+01-1.25671E-03-1.15080E-03 4.43063E-04 1.57147E-14-7.83058E-15
 -1        51 2.00012E+01-9.16328E-04-7.93718E-04 4.85836E-04-1.46305E-15-1.22569E-13
 -1        52 1.99831E+01-6.55513E-04-5.31402E-04 4.80286E-04-2.95647E-14-1.09857E-13
 -1        53 1.99733E+01-4.58340E-04-3.41439E-04 4.46552E-04 2.05631E-15-4.17894E-13
 -1        54 1.99692E+01-3.11421E-04-2.06280E-04 3.98167E-04 2.86450E-14-5.34961E-13
 -1        55 1.99686E+01-2.03710E-04-1.12236E-04 3.44036E-04-6.50156E-14-3.57128E-13
 -1        56 1.99703E+01-1.26213E-04-4.86820E-05 2.89829E-04-2.07531E-14-3.96320E-13
 -1        57 1.99732E+01-7.17018E-05-7.41439E-06 2.38959E-04 6.62771E-14-3.22700E-14
 -1        58 1.99767E+01-3.44265E-05 1.78469E-05 1.93287E-04-1.33070E-14 1.25189E-13
 -1        59 1.99802E+01-9.86794E-06 3.18627E-05 1.53631E-04-9.69977E-15-2.86188E-13
 -1        60 1.99837E+01 5.48532E-06 3.81989E-05 1.20129E-04-4.45002E-14-6.39644E-13
 -1        61 1.99868E+01 1.43288E-05 3.94898E-05 9.24986E-05 8.08537E-14-6.90622E-13
 -1        62 1.99896E+01 1.87072E-05 3.76527E-05 7.02183E-05-4.40268E-14-1.03792E-12
 -1        63 1.99919E+01 2.01546E-05 3.40648E-05 5.26530E-05 2.73736E-15-1.17012E-12
 -1        64 1.99939E+01 1.98132E-05 2.97116E-05 3.91302E-05-2.79222E-15-6.88709E-13
 -1        65 1.99955E+01 1.85326E-05 2.53226E-05 2.89770E-05-8.39958E-14-2.92460E-13
 -1        66 1.99969E+01 1.69498E-05 2.15085E-05 2.15143E-05-1.58796E-14-2.14517E-14
 -1        67 1.99979E+01 1.55417E-05 1.89075E-05 1.59943E-05 2.13608E-13 3.56849E-13
 -1        68 1.99988E+01 1.46228E-05 1.82547E-05 1.14220E-05-1.87765E-14 1.12962E-12
 -1        69 1.99994E+01 1.41195E-05 1.98204E-05 6.15323E-06 4.58001E-14 2.45426E-13
 -1        70 1.99997E+01 1.17509E-05 1.98128E-05-3.79705E-06-6.38946E-14 8.66801E-14
 -1        71 1.99999E+01-2.15727E-06-3.00585E-07-1.70987E-05-1.06998E-13-5.48302E-14
 -1        72 2.50930E+01-4.55224E-01-1.08957E+00-4.21323E-01 5.10599E-14 2.60297E-12
 -1        73 2.34057E+01-5.71845E-02-2.79349E-01-8.32426E-02 3.34498E-14 1.84725E-12
 -1        74 2.23801E+01-7.80762E-03-2.30414E-02-2.41559E-02 1.23412E-14 1.27414E-12
 -1        75 2.13519E+01-2.14175E-03 2.90565E-02 5.36312E-03 4.55755E-15 9.63445E-13
 -1        76 2.01599E+01-7.24620E-03 1.81615E-02 3.32790E-02 1.81715E-15 8.09727E-13
 -1        77 1.89008E+01-1.60679E-02-1.36274E-02 5.25078E-02 8.07796E-15 6.69307E-13
 -1        78 1.78490E+01-2.27592E-02-4.73832E-02 5.33726E-02-5.83778E-15 5.86659E-13
 -1        79 1.73205E+01-2.30811E-02-6.66592E-02 3.22989E-02 1.64213E-15 3.94085E-13
 -1        80 1.75014E+01-1.65101E-02-6.14936E-02-2.61285E-03-3.36580E-15 1.50227E-13
 -1        81 1.83365E+01-6.01054E-03-3.50419E-02-3.60392E-02 6.04345E-15 6.16937E-14
 -1        82 1.95547E+01 3.98663E-03-1.09905E-03-5.48001E-02 3.07703E-14-5.68712E-14
 -1        83 2.08055E+01 1.04846E-02 2.52287E-02-5.53543E-02 3.09360E-14-2.21743E-13
 -1        84 2.18107E+01 1.27077E-02 3.70448E-02-4.32501E-02 8.51630E-15-3.83377E-13
 -1        85 2.24385E+01 1.15925E-02 3.58256E-02-2.66827E-02 1.49542E-14-5.02855E-13
 -1        86 2.26901E+01 8.71669E-03 2.73741E-02-1.17520E-02 1.38338E-14-7.85349E-13
 -1        87 2.26447E+01 5.43333E-03 1.70982E-02-1.09779E-03-4.01649E-14-7.23973E-13
 -1        88 2.24056E+01 2.56626E-03 8.20089E-03 5.13685E-03 3.99436E-15-7.62226E-13
 -1        89 2.20661E+01 4.46655E-04 1.86823E-03 7.93658E-03 4.74337E-14-7.59049E-13
 -1        90 2.16961E+01-9.15072E-04-1.97420E-03 8.50350E-03-3.70007E-14-6.97992E-13
 -1        91 2.13405E+01-1.65570E-03-3.90257E-03 7.83395E-03 9.02888E-15-6.16408E-13
 -1        92 2.10240E+01-1.95046E-03-4.55757E-03 6.61329E-03-1.38224E-14-7.47074E-13
 -1        93 2.07570E+01-1.95772E-03-4.46191E-03 5.25565E-03-1.29076E-14-7.28031E-13
 -1        94 2.05409E+01-1.79976E-03-3.98175E-03 3.98172E-03-3.07553E-15-9.46761E-13
 -1        95 2.03719E+01-1.56211E-03-3.34891E-03 2.88980E-03-8.96542E-15-8.38065E-13
 -1        96 2.02437E+01-1.29995E-03-2.69797E-03 2.00764E-03-2.89655E-14-3.32341E-13
 -1        97 2.01493E+01-1.04606E-03-2.09945E-03 1.32601E-03 7.18606E-14-5.29977E-13
 -1        98 2.00820E+01-8.17831E-04-1.58438E-03 8.18946E-04 3.78803E-14-1.05242E-12
 -1        99 2.00357E+01-6.22669E-04-1.16084E-03 4.55162E-04-5.38639E-14-1.22902E-12
 -1       100 2.00053E+01-4.61900E-04-8.24564E-04 2.04069E-04-5.28729E-14-8.53541E-13
 -1       101 1.99864E+01-3.33422E-04-5.65341E-04 3.85685E-05 1.64297E-14-7.87956E-13
 -1       102 1.99759E+01-2.33438E-04-3.70874E-04-6.39521E-05 1.08815E-14-8.00742E-13
 -1       103 1.99710E+01-1.57531E-04-2.28876E-04-1.21585E-04 1.04952E-14-1.86884E-13
 -1       104 1.99699E+01-1.01306E-04-1.28151E-04-1.48336E-04-6.64603E-15-1.29395E-13
 -1       105 1.99712E+01-6.07319E-05-5.90604E-05-1.54732E-04 3.71165E-14-2.00212E-13
 -1       106 1.99738E+01-3.23021E-05-1.36266E-05-1.48478E-04-4.93691E-14-6.58385E-13
 -1       107 1.99771E+01-1.30786E-05 1.45512E-05-1.35047E-04-3.56664E-14-1.06071E-12
 -1       108 1.99805E+01-6.71680E-07 3.04783E-05-1.18208E-04 5.86254E-14-1.12762E-12
 -1       109 1.99839E+01 6.81508E-06 3.79793E-05-1.00457E-04-8.81880E-14-1.03421E-12
 -1       110 1.99869E+01 1.08559E-05 3.99144E-05-8.33648E-05 3.15743E-15-7.42105E-13
 -1       111 1.99897E+01 1.25767E-05 3.83797E-05-6.78503E-05-2.62000E-14-8.42507E-13
 -1       112 1.99920E+01 1.28256E-05 3.48847E-05-5.43857E-05-1.17183E-13-8.15882E-13
 -1       113 1.99940E+01 1.22375E-05 3.05093E-05-4.31505E-05 6.66998E-14-5.84163E-13
 -1       114 1.99956E+01 1.12901E-05 2.60471E-05-3.41377E-05-1.18201E-13-9.69595E-13
 -1       115 1.99969E+01 1.03470E-05 2.21547E-05-2.72120E-05 6.31862E-14-1.46630E-12
 -1       116 1.99980E+01 9.66003E-06 1.95119E-05-2.20872E-05 1.03176E-14-1.25731E-12
 -1       117 1.99988E+01 9.37836E-06 1.89135E-05-1.82121E-05 1.39246E-13-1.25228E-12
 -1       118 1.99994E+01 9.32790E-06 2.06428E-05-1.44244E-05-8.68456E-14-8.63192E-13
 -1       119 1.99997E+01 7.55541E-06 2.04765E-05-6.56159E-06-6.91451E-14-2.57994E-13
 -1       120 1.99998E+01-8.11773E-06-2.23939E-06 1.21967E-05 2.15766E-13-3.44422E-13
 -1       121 1.99998E+01 3.84941E-05-1.77442E-07 1.86161E-05-4.77847E-13 9.76561E-14
 -1       122 1.99998E+01-7.09279E-05 2.02053E-05-1.39041E-06 2.20614E-13 3.73301E-14
 -1       123 1.99998E+01-4.26889E-04 1.49832E-05-1.34668E-05 2.78538E-13-4.42517E-14
 -1       124 1.99998E+01-9.29697E-04 5.14899E-06-1.84676E-05-2.10485E-13-5.44078E-14
 -1       125 1.99998E+01-1.47700E-03-3.89039E-06-1.84724E-05 6.38229E-13 7.66774E-14
 -1       126 1.99998E+01-1.96891E-03-1.08396E-05-1.54595E-05 8.01205E-13-1.10395E-13
 -1       127 1.99998E+01-2.34648E-03-1.55188E-05-1.01028E-05-7.59233E-14-5.72578E-14
 -1       128 1.99998E+01-2.54799E-03-1.78972E-05-3.46404E-06-5.72651E-13-2.98692E-14
 -1       129 1.99998E+01-2.54625E-03-1.78796E-05 3.58884E-06 6.09531E-13 3.91924E-13
 -1       130 1.99998E+01-2.34144E-03-1.54700E-05 1.02011E-05 1.22602E-12-6.98462E-14
 -1       131 1.99998E+01-1.96130E-03-1.06658E-05 1.56713E-05 9.48138E-13 4.44738E-14
 -1       132 1.99998E+01-1.46793E-03-3.79261E-06 1.85350E-05 1.04908E-12 2.52503E-13
 -1       133 1.99998E+01-9.20358E-04 5.22237E-06 1.83692E-05 8.02747E-13-5.44021E-14
 -1       134 1.99998E+01-4.17325E-04 1.59966E-05 1.47444E-05 3.18649E-13 1.23129E-13
 -1       135 1.99998E+01-7.17230E-05 1.78488E-05 1.92651E-06 1.74986E-13-1.18064E-14
 -1       136 1.99998E+01 3.44666E-05-8.71516E-07-3.15965E-05 8.79831E-15 8.81226E-14
 -1       137-1.22297E+00-1.88775E+01-3.02684E+00-3.26113E+00 1.97539E-12 3.42611E-13
 -1       138-1.39282E+00-8.36436E+00-2.25915E+00-2.79764E+00 2.88664E-12 1.30554E-12
 -1       139 2.58252E+00 3.31457E+00-1.11833E+00 3.24930E+00 3.43298E-12 2.40274E-12
 -1       140 1.37711E+01 1.06215E+01 2.63991E-01 1.20261E+01 3.02752E-12 3.27866E-12
 -1       141 3.19424E+01 1.07690E+01 1.66006E+00 1.80805E+01 1.92341E-12 3.20022E-12
 -1       142 5.10288E+01 6.06340E+00 2.76090E+00 1.64710E+01 8.64753E-13 2.41179E-12
 -1       143 6.34834E+01 1.49964E+00 3.36279E+00 6.83108E+00 1.33530E-13 7.30485E-13
 -1       144 6.31377E+01 1.49704E+00 3.28063E+00-6.27577E+00 1.99687E-13-1.22502E-12
 -1       145 4.99341E+01 5.75865E+00 2.53125E+00-1.57939E+01 1.07442E-12-3.06594E-12
 -1       146 3.15205E+01 1.01900E+01 1.40508E+00-1.74965E+01 2.25517E-12-3.78308E-12
 -1       147 1.38724E+01 1.01541E+01 8.87639E-02-1.18032E+01 3.25845E-12-3.50542E-12
 -1       148 2.91055E+00 4.13067E+00-1.12244E+00-3.72421E+00 3.66385E-12-2.62906E-12
 -1       149-9.67802E-01-6.46346E+00-2.06873E+00 1.80494E+00 3.11362E-12-1.36169E-12
 -1       150-1.09182E+00-1.61664E+01-2.68326E+00 2.67357E+00 1.66514E-12-3.90766E-13
 -1       151-6.79548E-01-2.00929E+01-2.97011E+00-5.58424E-01-1.54329E-13-6.07292E-14
 -1       152-1.42035E+00-1.63271E+01-2.87706E+00-3.49720E+00-1.97337E-12-5.48440E-13
 -1       153 2.98756E+00 3.30394E+00-1.35960E+00 3.48988E+00-3.60717E-12-2.82735E-12
 -1       154 1.59643E+01 9.67824E+00 9.50202E-02 1.23855E+01-3.17718E-12-3.75588E-12
 -1       155 3.50517E+01 9.43220E+00 1.64772E+00 1.77156E+01-2.08286E-12-3.84859E-12
 -1       156 5.40284E+01 5.13247E+00 2.93832E+00 1.53914E+01-1.01205E-12-3.07532E-12
 -1       157 6.64382E+01 1.38849E+00 3.72856E+00 5.18456E+00-2.37015E-13-1.53588E-12
 -1       158 6.55717E+01 1.92235E+00 3.70398E+00-7.82834E+00-1.60828E-13 4.85917E-13
 -1       159 5.18136E+01 6.48268E+00 2.90063E+00-1.71042E+01-9.56263E-13 2.47280E-12
 -1       160 3.15566E+01 1.06936E+01 1.56998E+00-1.78729E+01-2.11431E-12 3.43031E-12
 -1       161 1.31898E+01 9.86880E+00 4.24081E-02-1.13797E+01-3.00293E-12 3.21149E-12
 -1       162 2.19148E+00 2.35678E+00-1.35567E+00-2.65612E+00-3.38263E-12 2.34274E-12
 -1       163-1.68183E+00-9.39099E+00-2.46085E+00 3.31774E+00-3.35054E-12 1.44454E-12
 -1       164-1.30965E+00-1.98693E+01-3.15943E+00 3.56602E+00-2.14631E-12 5.13003E-13
 -1       165 2.62369E+01 3.87966E+00-5.80152E-02-2.71850E+00-3.63789E-13 4.87103E-13
 -1       166 2.30399E+01 4.24469E+00-5.01160E-02-1.51746E+00-3.32626E-13 7.76115E-15
 -1       167 2.01618E+01 4.33814E+00-3.64147E-02-6.08702E-01-2.54546E-13-3.00010E-13
 -1       168 1.73955E+01 4.44072E+00-2.69603E-02-4.23508E-02-1.82514E-13-5.05456E-13
 -1       169 1.49849E+01 4.62469E+00-1.96122E-02 7.39824E-02-1.35884E-13-6.22911E-13
 -1       170 1.33112E+01 4.77698E+00-1.65862E-02-2.39240E-01-1.18920E-13-7.07778E-13
 -1       171 1.28396E+01 4.74690E+00-1.52580E-02-7.77535E-01-1.07867E-13-7.35143E-13
 -1       172 1.36213E+01 4.50534E+00-1.51532E-02-1.20194E+00-1.02236E-13-7.30436E-13
 -1       173 1.52689E+01 4.18446E+00-1.65089E-02-1.24539E+00-8.14522E-14-6.95705E-13
 -1       174 1.72065E+01 3.95902E+00-1.87538E-02-8.44054E-01-2.46591E-14-6.55078E-13
 -1       175 1.89513E+01 3.91605E+00-2.28600E-02-1.23181E-01 4.86911E-14-5.99246E-13
 -1       176 2.03805E+01 4.02577E+00-2.92623E-02 7.82526E-01 1.48536E-13-5.12215E-13
 -1       177 2.15277E+01 4.18273E+00-4.08296E-02 1.74480E+00 2.64291E-13-3.76716E-13
 -1       178 2.26762E+01 4.21448E+00-5.75446E-02 2.71628E+00 3.68615E-13-1.24584E-13
 -1       179 2.44214E+01 3.68184E+00-7.07429E-02 3.65171E+00 4.02662E-13 3.63577E-13
 -1       180 2.62484E+01 1.17217E+00-3.79155E-01 3.14833E+00 3.34299E-13 1.07782E-12
 -1       181 2.86603E+01 7.32480E-01-3.38654E-03-1.36583E+00-3.09211E-13 1.03513E-12
 -1       182 2.74057E+01-3.05544E-02-1.25011E-02-4.74287E-01-2.62321E-13 8.86146E-13
 -1       183 2.66924E+01-2.08947E-01 9.33834E-03-5.98293E-01-2.01389E-13 7.89384E-13
 -1       184 2.59666E+01-3.18078E-01 8.45998E-03-1.18235E+00-1.25242E-13 7.12301E-13
 -1       185 2.48899E+01-2.39105E-01 4.57374E-03-1.83084E+00-3.45162E-14 6.73353E-13
 -1       186 2.35071E+01 9.49143E-02-2.83062E-03-2.00941E+00-6.08107E-14 6.08872E-13
 -1       187 2.22712E+01 5.21746E-01-1.34448E-02-1.27706E+00-1.97155E-13 4.27219E-13
 -1       188 2.18197E+01 6.75739E-01-1.77219E-02 1.67382E-01-2.56602E-13 2.41824E-13
 -1       189 2.23829E+01 4.07692E-01-1.13547E-02 1.46844E+00-2.51546E-13 1.24680E-13
 -1       190 2.35355E+01-3.37806E-02-2.52913E-03 1.89915E+00-8.68576E-14 7.12971E-15
 -1       191 2.46017E+01-3.14793E-01-1.03268E-04 1.46567E+00-5.65849E-14-2.94331E-13
 -1       192 2.51730E+01-3.53968E-01-2.39871E-03 6.62082E-01-4.38972E-14-3.27482E-13
 -1       193 2.51938E+01-2.55561E-01-5.03306E-03-6.39630E-02-6.16330E-14-3.53541E-13
 -1       194 2.48041E+01-1.32727E-01-5.39903E-03-5.26174E-01-5.32599E-14-2.67192E-13
 -1       195 2.41863E+01-3.99270E-02-3.86091E-03-7.32312E-01-6.31071E-15-1.89955E-13
 -1       196 2.34900E+01 1.39308E-02-1.77285E-03-7.62884E-01 5.45790E-14-2.10577E-13
 -1       197 2.28128E+01 3.83813E-02-5.01662E-05-6.98101E-01-5.84799E-14-2.10453E-13
 -1       198 2.22068E+01 4.52391E-02 1.02573E-03-5.93973E-01-4.35123E-15-1.57681E-13
 -1       199 2.16929E+01 4.32048E-02 1.52918E-03-4.82778E-01 1.56260E-13-7.37138E-14
 -1       200 2.12728E+01 3.75004E-02 1.64434E-03-3.80313E-01 1.17687E-13 1.27518E-14
 -1       201 2.09387E+01 3.08726E-02 1.54233E-03-2.92693E-01 1.52111E-13 7.06561E-17
 -1       202 2.06787E+01 2.45954E-02 1.34266E-03-2.20994E-01-6.53467E-14-6.78081E-14
 -1       203 2.04800E+01 1.91577E-02 1.11614E-03-1.63985E-01-9.73373E-14 1.19670E-13
 -1       204 2.03308E+01 1.46666E-02 8.99380E-04-1.19585E-01 3.39953E-14 1.60521E-13
 -1       205 2.02206E+01 1.10622E-02 7.08330E-04-8.55737E-02 1.27714E-14 1.26369E-13
 -1       206 2.01407E+01 8.22432E-03 5.47706E-04-5.99048E-02-1.78137E-14 2.33135E-14
 -1       207 2.00840E+01 6.02231E-03 4.16695E-04-4.08135E-02-1.31180E-13-2.44128E-13
 -1       208 2.00446E+01 4.33498E-03 3.12112E-04-2.68344E-02-1.19337E-13-2.16900E-13
 -1       209 2.00182E+01 3.05764E-03 2.30024E-04-1.67779E-02-5.35552E-14-1.98822E-13
 -1       210 2.00012E+01 2.10301E-03 1.66530E-04-9.69358E-03-2.27958E-13-2.11234E-13
 -1       211 1.99909E+01 1.39974E-03 1.18101E-04-4.83111E-03-1.22659E-13-2.23553E-13
 -1       212 1.99853E+01 8.90221E-04 8.16858E-05-1.60498E-03 7.86287E-14-2.83457E-13
 -1       213 1.99829E+01 5.28390E-04 5.47234E-05 4.36721E-04-7.81919E-14-4.27493E-13
 -1       214 1.99825E+01 2.77746E-04 3.51040E-05 1.63867E-03 2.75887E-13-3.77362E-13
 -1       215 1.99834E+01 1.09627E-04 2.11148E-05 2.26032E-03-3.09441E-14-3.66463E-13
 -1       216 1.99850E+01 1.74451E-06 1.13828E-05 2.49412E-03-2.12372E-13-4.86533E-13
 -1       217 1.99869E+01-6.30370E-05 4.82000E-06 2.48033E-03-1.33262E-13-5.83637E-13
 -1       218 1.99889E+01-9.77366E-05 5.74262E-07 2.31908E-03-9.29346E-15-4.95730E-13
 -1       219 1.99909E+01-1.12120E-04-2.01491E-06 2.08003E-03-2.53463E-13-6.15001E-13
 -1       220 1.99926E+01-1.13420E-04-3.45432E-06 1.80993E-03-1.44596E-13-7.81956E-13
 -1       221 1.99942E+01-1.06942E-04-4.12946E-06 1.53858E-03 2.99386E-13-5.98353E-13
 -1       222 1.99955E+01-9.65769E-05-4.33076E-06 1.28324E-03 2.84974E-13-4.91759E-13
 -1       223 1.99967E+01-8.52371E-05-4.26877E-06 1.05191E-03 2.39634E-13-1.15143E-13
 -1       224 1.99976E+01-7.52276E-05-4.06803E-06 8.45547E-04 3.75449E-13 3.31331E-13
 -1       225 1.99984E+01-6.85535E-05-3.74332E-06 6.59552E-04 2.48910E-13 1.70850E-13
 -1       226 1.99989E+01-6.70142E-05-3.17758E-06 4.84796E-04-4.47637E-13-1.98570E-13
 -1       227 1.99994E+01-7.14941E-05-2.64641E-06 3.10175E-04-1.85803E-14-1.42680E-13
 -1       228 1.99996E+01-7.71236E-05-1.91404E-06 1.31558E-04 1.08486E-14 3.62775E-14
 -1       229 2.46240E+01 2.10175E-01-5.49488E-02 1.30596E+00 3.44436E-13 9.48264E-13
 -1       230 2.31988E+01 3.56791E-02 1.15289E-02 7.95941E-01 2.54160E-13 7.14511E-13
 -1       231 2.21469E+01-2.87728E-02 1.61337E-02 7.60143E-01 1.42163E-13 5.55977E-13
 -1       232 2.11771E+01-2.20632E-02 9.61291E-03 8.16755E-01 8.87694E-14 4.39031E-13
 -1       233 2.02611E+01 3.08194E-02 3.73146E-03 7.87832E-01 8.82139E-14 3.44432E-13
 -1       234 1.95147E+01 1.01177E-01-4.93805E-04 5.79405E-01 5.96784E-14 2.49877E-13
 -1       235 1.91053E+01 1.50629E-01-2.66160E-03 1.96784E-01 1.05640E-13 1.15515E-13
 -1       236 1.91424E+01 1.48986E-01-2.30874E-03-2.50826E-01 1.32385E-13 2.91672E-14
 -1       237 1.95977E+01 9.65637E-02-5.12894E-05-6.11612E-01 7.05573E-14-1.28734E-13
 -1       238 2.03120E+01 2.02882E-02 2.35764E-03-7.76248E-01 6.64669E-14-1.99041E-13
 -1       239 2.10694E+01-4.43545E-02 3.18572E-03-7.30901E-01 1.11182E-13-2.60849E-13
 -1       240 2.16920E+01-7.82009E-02 2.39277E-03-5.42100E-01 8.69495E-14-3.16235E-13
 -1       241 2.20869E+01-8.18845E-02 8.26197E-04-3.01180E-01 1.12422E-13-4.68295E-13
 -1       242 2.22427E+01-6.68126E-02-5.10104E-04-7.98056E-02 6.63644E-14-4.19311E-13
 -1       243 2.22001E+01-4.50652E-02-1.21032E-03 8.56199E-02-2.86446E-14-3.55083E-13
 -1       244 2.20202E+01-2.45554E-02-1.32700E-03 1.87869E-01 3.80310E-14-5.09050E-13
 -1       245 2.17631E+01-8.78505E-03-1.07434E-03 2.36147E-01 1.53883E-14-5.29324E-13
 -1       246 2.14768E+01 1.66606E-03-6.83264E-04 2.45458E-01-8.50069E-14-4.12998E-13
 -1       247 2.11947E+01 7.62890E-03-3.05861E-04 2.30358E-01-3.18699E-14-3.70731E-13
 -1       248 2.09371E+01 1.03377E-02-1.24142E-05 2.02347E-01 3.06432E-14-4.06442E-13
 -1       249 2.07141E+01 1.09358E-02 1.81594E-04 1.69423E-01 3.46843E-14-3.79204E-13
 -1       250 2.05287E+01 1.03058E-02 2.88696E-04 1.36592E-01 4.41296E-14-4.39635E-13
 -1       251 2.03797E+01 9.05978E-03 3.30964E-04 1.06636E-01-8.97338E-14-5.39052E-13
 -1       252 2.02634E+01 7.58950E-03 3.30215E-04 8.08369E-02-1.38576E-13-6.19041E-13
 -1       253 2.01751E+01 6.12673E-03 3.04094E-04 5.95335E-02 1.28765E-13-4.78829E-13
 -1       254 2.01098E+01 4.79520E-03 2.65356E-04 4.25250E-02 1.39236E-13-3.18971E-13
 -1       255 2.00629E+01 3.64977E-03 2.22469E-04 2.93347E-02-8.82075E-14-2.03487E-13
 -1       256 2.00303E+01 2.70377E-03 1.80617E-04 1.93778E-02-2.16170E-13-1.41731E-13
 -1       257 2.00085E+01 1.94731E-03 1.42650E-04 1.20609E-02-5.42137E-14-1.46647E-13
 -1       258 1.99947E+01 1.35895E-03 1.09864E-04 6.83593E-03-7.17215E-14-8.51539E-14
 -1       259 1.99867E+01 9.12896E-04 8.25763E-05 3.22533E-03-2.31381E-13 5.38306E-14
 -1       260 1.99827E+01 5.83183E-04 6.05338E-05 8.29650E-04 3.25537E-14-1.12904E-13
 -1       261 1.99814E+01 3.45890E-04 4.31833E-05-6.74549E-04 1.14027E-13-1.93465E-13
 -1       262 1.99818E+01 1.80192E-04 2.98478E-05-1.54225E-03 8.17313E-14-1.46830E-13
 -1       263 1.99832E+01 6.86609E-05 1.98335E-05-1.96963E-03 2.51940E-13-2.22992E-13
 -1       264 1.99851E+01-2.85160E-06 1.24907E-05-2.10412E-03-5.92189E-14-4.16999E-13
 -1       265 1.99872E+01-4.55402E-05 7.24356E-06-2.05389E-03-1.45143E-13-2.48039E-13
 -1       266 1.99893E+01-6.80685E-05 3.60160E-06-1.89626E-03-1.48797E-14-4.58094E-13
 -1       267 1.99913E+01-7.70102E-05 1.15893E-06-1.68475E-03 2.45660E-15-1.22530E-13
 -1       268 1.99931E+01-7.72697E-05-4.12808E-07-1.45494E-03-5.85843E-14-1.06956E-13
 -1       269 1.99946E+01-7.24646E-05-1.37354E-06-1.22900E-03 2.34625E-14-1.69189E-13
 -1       270 1.99959E+01-6.52674E-05-1.92045E-06-1.01920E-03 1.47821E-13 2.21891E-14
 -1       271 1.99970E+01-5.77176E-05-2.18335E-06-8.30405E-04 4.18513E-13-3.73364E-13
 -1       272 1.99979E+01-5.15094E-05-2.19692E-06-6.61765E-04-1.20665E-13-6.45460E-13
 -1       273 1.99986E+01-4.80783E-05-1.82199E-06-5.07715E-04-8.46068E-14-3.48580E-13
 -1       274 1.99992E+01-4.87408E-05-8.66398E-07-3.59364E-04-2.25636E-13-1.40659E-13
 -1       275 1.99995E+01-5.50978E-05-8.61075E-07-2.06177E-04-2.01568E-13 7.57451E-14
 -1       276 1.99997E+01-4.86755E-05-3.14493E-06-5.39242E-05 1.52822E-13-1.55691E-13
 -1       277 1.99997E+01-1.69062E-04-1.79623E-06-1.40425E-04 8.55489E-14 5.23487E-13
 -1       278 1.99997E+01-4.23976E-04-5.96488E-07-2.94208E-04 5.62191E-15-1.67085E-14
 -1       279 1.99998E+01-7.68578E-04-2.33433E-07-3.96728E-04 2.08741E-13-8.65485E-14
 -1       280 1.99998E+01-1.15680E-03 2.14849E-07-4.26600E-04 3.14137E-13 1.91221E-13
 -1       281 1.99998E+01-1.52751E-03 1.00839E-06-3.88534E-04-2.64886E-13-8.95819E-14
 -1       282 1.99998E+01-1.84101E-03 1.72590E-06-2.92798E-04 3.75026E-14-3.11563E-13
 -1       283 1.99999E+01-2.04694E-03 2.23425E-06-1.56229E-04 1.89756E-13-2.49949E-13
 -1       284 1.99999E+01-2.11795E-03 2.41158E-06 1.33223E-06 3.86441E-13 4.53002E-13
 -1       285 1.99999E+01-2.04464E-03 2.23322E-06 1.58728E-04 7.72752E-14 2.49970E-13
 -1       286 1.99998E+01-1.83663E-03 1.72422E-06 2.94860E-04 2.98362E-13-3.53877E-14
 -1       287 1.99998E+01-1.52793E-03 9.61917E-07 3.88757E-04 5.57163E-13 6.95505E-14
 -1       288 1.99998E+01-1.15022E-03 2.18160E-07 4.26857E-04 6.13464E-13-3.00194E-13
 -1       289 1.99998E+01-7.61956E-04-2.73322E-07 3.95371E-04 4.43730E-13-1.96915E-13
 -1       290 1.99997E+01-4.22728E-04-1.66837E-06 2.91111E-04 2.59643E-13-1.18042E-13
 -1       291 1.99997E+01-2.36057E-04-1.86887E-06 2.36814E-04-1.81350E-14-4.13133E-13
 -1       292-5.19758E-01-8.90890E+00-7.96609E-01 1.59147E+00 1.59248E-13 1.05277E-12
 -1       293 2.48710E+00-7.89521E+00-7.98617E-01 3.45857E+00 8.09769E-13 8.74759E-13
 -1       294 8.98359E+00-4.59826E+00-4.75009E-01 5.84895E+00 1.01724E-12 1.14843E-12
 -1       295 1.72682E+01-7.23320E-01-1.42748E-01 7.36494E+00 1.32433E-12 1.28572E-12
 -1       296 2.73804E+01 2.72427E+00 2.94883E-01 8.07899E+00 1.25977E-12 1.13259E-12
 -1       297 3.67937E+01 4.86092E+00 6.17240E-01 6.56999E+00 1.02421E-12 7.91034E-13
 -1       298 4.33531E+01 6.35850E+00 8.62357E-01 3.88017E+00 9.51225E-13 3.09669E-13
 -1       299 4.63326E+01 6.61781E+00 9.98166E-01 3.62150E-01 9.50934E-13-2.47691E-13
 -1       300 4.10961E+01 6.42374E+00 5.68510E-01-2.28309E+00 1.19663E-12-6.20448E-13
 -1       301 3.65409E+01 4.80538E+00 5.60390E-01-6.57619E+00 1.28170E-12-1.37354E-12
 -1       302 2.76078E+01 1.93543E+00 1.55441E-01-6.84981E+00 1.22385E-12-1.33293E-12
 -1       303 1.70290E+01 2.79244E-01-1.62010E-01-7.38074E+00 1.50918E-12-1.53544E-12
 -1       304 8.40704E+00-2.81994E+00-4.90522E-01-5.60453E+00 1.30851E-12-1.34567E-12
 -1       305 3.26220E+00-4.82157E+00-4.54104E-01-4.41695E+00 5.46813E-13-1.12667E-12
 -1       306-5.75022E-01-7.22539E+00-7.47142E-01-1.44828E+00 1.91694E-13-9.89486E-13
 -1       307-4.21924E-01-6.99117E+00-7.34031E-01 9.59112E-01-3.93609E-13-1.02782E-12
 -1       308 2.95984E+00-6.14868E+00-7.36490E-01 3.17116E+00-9.32004E-13-1.15408E-12
 -1       309 9.17545E+00-3.72399E+00-5.77084E-01 5.18738E+00-1.36605E-12-1.42368E-12
 -1       310 1.93995E+01-1.33468E+00-1.84991E-01 6.65362E+00-1.28997E-12-1.42120E-12
 -1       311 2.97251E+01 1.79938E+00 2.26662E-01 6.67608E+00-1.31525E-12-1.42847E-12
 -1       312 3.90970E+01 4.41677E+00 6.85725E-01 5.64630E+00-1.14493E-12-1.26965E-12
 -1       313 4.50138E+01 6.14762E+00 9.27710E-01 2.53250E+00-1.03020E-12-8.25201E-13
 -1       314 4.61110E+01 7.13172E+00 9.34197E-01-6.35723E-01-1.04813E-12-3.55262E-13
 -1       315 4.43594E+01 6.18174E+00 8.90916E-01-3.70933E+00-1.20573E-12 2.36089E-13
 -1       316 3.73420E+01 4.10147E+00 5.58822E-01-5.65616E+00-1.12538E-12 7.13180E-13
 -1       317 2.79932E+01 1.47799E+00 2.16843E-01-7.37506E+00-1.13964E-12 1.18344E-12
 -1       318 1.73627E+01-1.45508E+00-2.15616E-01-7.05737E+00-1.24703E-12 1.31256E-12
 -1       319 8.87962E+00-5.15060E+00-5.43329E-01-5.50290E+00-1.21225E-12 9.63070E-13
 -1       320 2.15723E+00-8.36653E+00-8.68851E-01-2.98883E+00-9.71029E-13 1.06123E-12
 -1       321-7.51168E-01-9.56260E+00-8.91952E-01-8.94608E-01-3.31006E-13 1.22696E-12
 -1       322 2.23298E+01 2.45228E+00-2.83633E-02-7.30668E-01-3.02565E-13-3.87364E-15
 -1       323 2.52641E+01 1.79275E+00-2.78052E-02-1.42438E+00-3.59742E-13 2.97658E-13
 -1       324 1.62497E+01 3.69262E+00-5.79471E-03 4.82647E-01-1.39673E-13-4.31630E-13
 -1       325 1.36376E+01 4.40340E+00 3.04714E-03 2.81233E-01-1.21667E-13-5.72115E-13
 -1       326 1.22746E+01 4.75582E+00 7.07228E-03-4.94695E-01-1.34630E-13-6.38351E-13
 -1       327 1.26091E+01 4.50832E+00 6.50004E-03-1.36915E+00-1.52617E-13-6.42745E-13
 -1       328 1.43493E+01 3.80662E+00-1.06013E-03-1.77142E+00-1.59687E-13-5.95778E-13
 -1       329 1.66981E+01 3.05495E+00-9.51710E-03-1.47902E+00-1.06876E-13-5.18096E-13
 -1       330 1.88703E+01 2.57262E+00-1.67486E-02-6.76721E-01-1.34105E-14-4.49947E-13
 -1       331 2.05902E+01 2.39845E+00-2.17118E-02 3.50461E-01 1.05155E-13-3.47982E-13
 -1       332 2.18321E+01 2.39655E+00-2.70073E-02 1.34330E+00 2.34665E-13-2.56620E-13
 -1       333 2.28359E+01 2.32697E+00-3.23233E-02 2.14712E+00 3.63102E-13-8.73173E-14
 -1       334 2.38577E+01 1.85103E+00-4.18429E-02 2.53989E+00 4.41188E-13 1.85357E-13
 -1       335 2.44821E+01 1.02364E+00-3.38159E-02 2.14598E+00 4.23122E-13 4.74346E-13
 -1       336 2.36027E+01 2.09220E-01 4.87057E-03 1.45689E+00 3.27589E-13 4.03988E-13
 -1       337 2.59863E+01-1.74959E-01 3.59950E-03-7.88711E-01-2.40233E-13 4.26018E-13
 -1       338 2.60229E+01-8.63788E-01-5.67598E-03-1.14991E+00-1.62579E-13 4.74383E-13
 -1       339 2.60732E+01-1.02596E+00-6.02980E-03-2.02843E+00-1.05403E-13 5.16226E-13
 -1       340 2.58011E+01-3.76116E-01-1.69330E-02-2.83688E+00-7.70451E-14 4.75397E-13
 -1       341 2.50962E+01 1.05952E+00-3.17686E-02-2.63520E+00-2.73347E-13 3.39314E-13
 -1       342 2.44240E+01 2.26494E+00-4.31903E-02-9.49814E-01-4.24622E-13 1.31343E-13
 -1       343 2.44438E+01 2.01756E+00-4.09294E-02 1.28846E+00-3.61764E-13-5.98217E-14
 -1       344 2.50073E+01 5.63547E-01-2.77894E-02 2.54225E+00-2.84410E-13-1.51392E-13
 -1       345 2.53692E+01-7.63881E-01-1.59106E-02 2.27011E+00-2.64904E-13-2.81921E-13
 -1       346 2.51986E+01-1.25532E+00-1.03109E-02 1.15291E+00-9.59688E-14-3.02692E-13
 -1       347 2.46428E+01-1.07615E+00-9.48498E-03 4.16538E-03-7.04536E-14-2.90737E-13
 -1       348 2.39623E+01-6.58984E-01-7.94454E-03-7.90664E-01 2.53931E-14-2.44355E-13
 -1       349 2.33038E+01-2.79141E-01-4.97287E-03-1.19192E+00 3.84183E-14-1.98549E-13
 -1       350 2.27165E+01-2.65821E-02-2.05236E-03-1.30076E+00-1.85198E-15-2.23190E-13
 -1       351 2.22064E+01 1.08108E-01-1.24695E-05-1.23530E+00 1.90315E-14-1.50368E-13
 -1       352 2.17686E+01 1.62585E-01 1.11419E-03-1.08546E+00 1.45288E-14-1.17007E-13
 -1       353 2.13975E+01 1.71194E-01 1.57790E-03-9.08058E-01 1.34238E-13-2.89086E-14
 -1       354 2.10877E+01 1.57344E-01 1.63988E-03-7.34393E-01 1.54196E-13-1.47396E-13
 -1       355 2.08332E+01 1.34762E-01 1.49817E-03-5.79230E-01 6.86259E-14-1.46877E-13
 -1       356 2.06278E+01 1.10645E-01 1.27634E-03-4.47748E-01 1.48008E-14-2.13610E-13
 -1       357 2.04648E+01 8.83351E-02 1.04168E-03-3.40087E-01 1.14264E-15-1.53868E-13
 -1       358 2.03374E+01 6.90960E-02 8.25954E-04-2.54048E-01-4.23041E-14-1.56828E-13
 -1       359 2.02396E+01 5.31605E-02 6.41112E-04-1.86573E-01-6.31706E-14-1.78585E-13
 -1       360 2.01656E+01 4.02977E-02 4.89082E-04-1.34497E-01-1.01053E-13-3.28497E-13
 -1       361 2.01107E+01 3.01044E-02 3.67302E-04-9.48984E-02-1.34802E-13-3.52299E-13
 -1       362 2.00707E+01 2.21443E-02 2.71583E-04-6.52322E-02-3.48412E-14-2.21161E-13
 -1       363 2.00421E+01 1.60089E-02 1.97480E-04-4.33560E-02-1.87399E-13-2.50657E-13
 -1       364 2.00223E+01 1.13402E-02 1.40886E-04-2.75073E-02-6.74380E-14-3.36553E-13
 -1       365 2.00089E+01 7.83517E-03 9.82417E-05-1.62601E-02-1.53144E-13-1.48434E-13
 -1       366 2.00003E+01 5.24252E-03 6.65631E-05-8.47652E-03-1.21420E-13-1.61017E-13
 -1       367 1.99951E+01 3.35712E-03 4.34034E-05-3.26041E-03-1.44817E-13-2.26385E-13
 -1       368 1.99923E+01 2.01334E-03 2.67836E-05 8.55216E-05-1.52829E-14-3.34749E-13
 -1       369 1.99911E+01 1.07893E-03 1.51221E-05 2.09676E-03 2.04708E-13-4.17227E-13
 -1       370 1.99909E+01 4.49349E-04 7.16775E-06 3.17888E-03-1.55669E-13-2.90216E-13
 -1       371 1.99914E+01 4.29465E-05 1.94164E-06 3.63434E-03-2.61184E-13-2.05782E-13
 -1       372 1.99923E+01-2.03344E-04-1.31427E-06 3.68478E-03 1.56136E-13-2.27197E-13
 -1       373 1.99933E+01-3.37622E-04-3.18034E-06 3.48929E-03-1.00771E-13-2.16893E-13
 -1       374 1.99943E+01-3.96115E-04-4.09603E-06 3.15910E-03-1.77689E-13-2.28282E-14
 -1       375 1.99953E+01-4.05799E-04-4.39129E-06 2.76931E-03 4.03509E-14 1.31328E-13
 -1       376 1.99962E+01-3.86603E-04-4.31224E-06 2.36801E-03 2.26378E-13-7.18358E-14
 -1       377 1.99971E+01-3.53272E-04-4.04301E-06 1.98330E-03 3.01156E-13-1.63384E-13
 -1       378 1.99977E+01-3.16921E-04-3.71630E-06 1.62839E-03 4.72508E-13-7.48459E-14
 -1       379 1.99983E+01-2.86119E-04-3.40392E-06 1.30550E-03-2.91891E-15-5.51936E-13
 -1       380 1.99988E+01-2.67371E-04-3.14234E-06 1.00915E-03-3.63041E-13-7.01129E-13
 -1       381 1.99992E+01-2.64682E-04-3.42680E-06 7.29317E-04-7.40156E-14-2.43275E-13
 -1       382 1.99995E+01-2.54196E-04-2.51454E-06 4.76252E-04 1.55238E-14-2.49099E-13
 -1       383 2.27739E+01-4.73062E-02 8.92039E-03 1.30676E+00 2.19955E-13 3.48132E-13
 -1       384 2.19930E+01-4.86300E-02 5.26874E-03 1.33437E+00 1.55184E-13 2.68787E-13
 -1       385 2.12534E+01 1.03919E-01 3.92227E-03 1.27384E+00 1.40945E-13 2.01474E-13
 -1       386 2.06196E+01 3.22223E-01 4.43960E-03 9.62254E-01 1.27720E-13 9.41970E-14
 -1       387 2.02226E+01 4.84505E-01 5.15272E-03 3.83364E-01 1.50737E-13-1.61400E-14
 -1       388 2.01694E+01 4.86607E-01 4.98385E-03-3.10210E-01 2.02786E-13-5.12318E-14
 -1       389 2.04476E+01 3.24761E-01 4.29306E-03-8.83660E-01 1.58662E-13-1.80819E-13
 -1       390 2.09279E+01 7.86330E-02 2.76953E-03-1.15866E+00 8.56954E-14-2.27469E-13
 -1       391 2.14278E+01-1.35252E-01 3.08696E-04-1.10569E+00 1.42770E-13-2.70876E-13
 -1       392 2.18108E+01-2.51730E-01-2.01066E-03-8.24658E-01 1.43562E-13-3.19591E-13
 -1       393 2.20177E+01-2.69313E-01-3.51129E-03-4.56585E-01 1.98810E-13-3.42346E-13
 -1       394 2.20534E+01-2.23384E-01-3.74401E-03-1.13435E-01 1.27624E-14-3.09063E-13
 -1       395 2.19554E+01-1.53197E-01-3.12639E-03 1.46712E-01-1.57784E-14-2.29398E-13
 -1       396 2.17698E+01-8.53034E-02-2.17133E-03 3.10489E-01 6.09143E-14-2.69269E-13
 -1       397 2.15381E+01-3.20602E-02-1.19685E-03 3.90247E-01 4.84355E-14-3.02562E-13
 -1       398 2.12921E+01 3.92021E-03-4.07146E-04 4.08058E-01-1.46359E-14-2.48425E-13
 -1       399 2.10541E+01 2.49443E-02 1.39485E-04 3.86053E-01-4.22258E-14-3.72701E-13
 -1       400 2.08373E+01 3.48916E-02 4.63564E-04 3.42189E-01 6.51392E-14-3.63894E-13
 -1       401 2.06486E+01 3.75035E-02 6.16164E-04 2.89289E-01-3.79514E-14-4.58912E-13
 -1       402 2.04901E+01 3.57442E-02 6.52093E-04 2.35617E-01 7.63597E-14-4.23503E-13
 -1       403 2.03610E+01 3.17140E-02 6.17335E-04 1.85949E-01-1.04630E-14-4.20230E-13
 -1       404 2.02585E+01 2.67855E-02 5.45674E-04 1.42631E-01-1.12629E-13-4.87682E-13
 -1       405 2.01792E+01 2.17893E-02 4.59638E-04 1.06438E-01-1.00857E-13-3.54612E-13
 -1       406 2.01192E+01 1.71824E-02 3.73030E-04 7.72063E-02 7.48645E-14-1.65858E-13
 -1       407 2.00750E+01 1.31790E-02 2.93478E-04 5.42717E-02-8.71927E-14 1.24425E-13
 -1       408 2.00433E+01 9.84370E-03 2.24536E-04 3.67465E-02-2.01142E-13 5.55294E-14
 -1       409 2.00212E+01 7.15540E-03 1.67234E-04 2.36952E-02-2.60081E-14 7.83734E-14
 -1       410 2.00065E+01 5.04846E-03 1.21151E-04 1.42321E-02-1.35787E-13 1.79187E-13
 -1       411 1.99971E+01 3.43875E-03 8.51175E-05 7.57139E-03-1.09740E-13 9.17627E-15
 -1       412 1.99916E+01 2.23910E-03 5.76585E-05 3.04597E-03 1.90192E-13-5.29593E-14
 -1       413 1.99888E+01 1.36780E-03 3.72540E-05 1.08374E-04 3.65489E-14-1.35176E-13
 -1       414 1.99878E+01 7.52807E-04 2.24856E-05-1.67830E-03 5.83803E-14-8.84750E-14
 -1       415 1.99880E+01 3.33208E-04 1.21061E-05-2.65426E-03 1.19780E-13 2.55474E-14
 -1       416 1.99889E+01 5.91229E-05 5.06295E-06-3.07832E-03 8.62237E-14 3.34367E-13
 -1       417 1.99901E+01-1.09232E-04 4.95857E-07-3.14289E-03-1.42237E-13 6.89186E-14
 -1       418 1.99915E+01-2.02877E-04-2.28091E-06-2.98751E-03 2.11265E-13-2.02933E-13
 -1       419 1.99929E+01-2.45522E-04-3.80242E-06-2.71050E-03-3.74424E-13-2.81890E-13
 -1       420 1.99942E+01-2.54983E-04-4.47924E-06-2.37869E-03-8.13660E-14 2.48881E-13
 -1       421 1.99954E+01-2.44479E-04-4.62246E-06-2.03519E-03-3.06178E-14 1.27234E-13
 -1       422 1.99964E+01-2.23792E-04-4.46465E-06-1.70545E-03 1.22190E-13 2.33671E-13
 -1       423 1.99973E+01-2.00276E-04-4.17114E-06-1.40173E-03 5.45652E-13 2.12288E-13
 -1       424 1.99980E+01-1.79729E-04-3.84458E-06-1.12645E-03 1.83325E-13 2.10166E-13
 -1       425 1.99986E+01-1.66781E-04-3.48991E-06-8.74435E-04-1.83526E-13-9.26610E-14
 -1       426 1.99991E+01-1.63832E-04-2.92690E-06-6.36105E-04-2.96931E-13 5.09610E-14
 -1       427 1.99994E+01-1.69136E-04-2.32658E-06-4.02675E-04-2.59363E-13 3.43231E-13
 -1       428 1.99996E+01-1.80007E-04-1.63406E-06-2.70465E-04 1.81550E-13 3.12987E-13
 -1       429 1.99998E+01-9.59577E-04-5.68611E-07-7.35740E-04 2.11043E-13-6.53811E-14
 -1       430 1.99996E+01-6.29678E-04-1.79669E-06-6.45108E-04-6.85860E-14 1.76263E-13
 -1       431 1.99996E+01-3.86877E-04-2.35992E-06-4.72445E-04-1.16827E-13 2.68009E-14
 -1       432 1.99999E+01-1.27842E-03 5.36372E-07-7.15709E-04 5.25876E-15-4.94368E-13
 -1       433 2.00000E+01-1.56163E-03 1.40296E-06-5.93184E-04 8.21995E-14 1.23789E-13
 -1       434 2.00000E+01-1.77046E-03 2.03244E-06-3.89382E-04 9.02523E-14-1.93322E-13
 -1       435 2.00001E+01-1.88088E-03 2.37420E-06-1.34168E-04-1.01137E-13 1.49778E-13
 -1       436 2.00001E+01-1.88007E-03 2.37465E-06 1.38472E-04-1.87074E-13 7.02191E-14
 -1       437 2.00000E+01-1.76807E-03 2.02953E-06 3.93211E-04-2.27908E-13 1.70616E-13
 -1       438 2.00000E+01-1.56225E-03 1.37853E-06 5.93256E-04 6.28641E-15 2.18377E-13
 -1       439 1.99999E+01-1.27914E-03 5.48276E-07 7.16146E-04-6.79898E-14 1.83725E-13
 -1       440 1.99998E+01-9.54429E-04-4.51172E-07 7.35834E-04 1.56878E-13-2.39683E-13
 -1       441 1.99996E+01-6.22817E-04-1.73423E-06 6.45383E-04 9.07166E-14-5.39420E-13
 -1       442 9.51637E+00-4.85131E+00-5.45547E-02 6.93411E+00 1.12146E-13 8.33771E-13
 -1       443 1.75688E+00-3.20295E+00 5.73916E-04 1.90449E-01-8.02925E-14 1.29238E-12
 -1       444 4.07302E+00-4.30853E+00-6.51366E-02 4.77749E+00-2.20102E-14 9.45868E-13
 -1       445 1.86126E+01-4.86547E+00 1.56378E-02 7.02817E+00 1.00225E-13 4.17211E-13
 -1       446 2.47551E+01-3.37196E+00-2.11289E-02 5.37645E+00 3.39062E-13 1.56652E-13
 -1       447 1.93419E+01 2.99435E+00-1.78174E-02 4.91020E-02-2.10940E-13-2.69448E-13
 -1       448 3.47445E+01 4.96184E+00 7.81701E-02 8.96064E-01 8.89608E-13-1.53488E-13
 -1       449 3.54613E+01 7.79686E+00 5.90482E-02 1.81715E-01 1.06903E-12-2.53526E-13
 -1       450 3.47700E+01 7.88289E+00-1.85062E-03 4.17183E-01 1.18047E-12-1.90271E-13
 -1       451 3.34809E+01 4.33312E+00-2.48886E-02-1.62994E-01 1.05642E-12-9.61176E-14
 -1       452 3.09661E+01 9.47774E-01 8.64081E-03-1.70596E+00 7.30368E-13-2.09194E-13
 -1       453 2.46625E+01-2.40389E+00-3.31238E-02-4.86590E+00 3.88842E-13-4.83530E-13
 -1       454 1.80409E+01-3.15234E+00-1.44774E-02-6.71391E+00 2.54602E-13-7.30194E-13
 -1       455 1.10175E+01-2.91574E+00 2.71372E-03-6.91044E+00 6.53366E-14-8.95284E-13
 -1       456 3.53042E+00-1.31831E+00 4.84552E-02-3.95278E+00-1.15484E-13-1.14717E-12
 -1       457 1.56153E+00-1.34672E+00 1.05805E-02-4.97244E-01-8.69582E-14-1.16726E-12
 -1       458 4.42933E+00-2.16681E+00 4.17248E-04 3.90625E+00-8.35443E-14-1.09442E-12
 -1       459 1.03788E+01-3.87507E+00-7.43956E-02 6.03499E+00-2.66037E-13-9.53813E-13
 -1       460 1.85503E+01-4.35621E+00-5.65888E-02 6.00769E+00-2.58682E-13-7.16493E-13
 -1       461 2.73005E+01-2.78473E+00-1.18722E-02 3.79270E+00-6.01907E-13-4.67501E-13
 -1       462 3.29794E+01 5.97170E-01 2.88505E-02 8.10471E-01-7.36265E-13-1.60594E-13
 -1       463 3.61338E+01 4.58926E+00 8.39617E-02-3.95340E-01-8.80920E-13-2.00187E-13
 -1       464 3.49994E+01 7.38652E+00-3.10612E-02-9.50772E-01-1.01535E-12-1.03355E-13
 -1       465 3.52719E+01 7.20546E+00-1.42748E-02 3.01271E-01-1.14486E-12-3.36751E-13
 -1       466 3.51439E+01 4.49873E+00 2.38578E-02 3.24811E-01-1.04990E-12-4.34250E-13
 -1       467 3.17162E+01-7.31900E-01-2.30470E-02-1.49041E+00-5.43142E-13-2.03990E-13
 -1       468 2.58731E+01-3.80623E+00-2.23483E-02-4.90613E+00-2.19436E-13 3.39326E-13
 -1       469 1.86908E+01-5.30224E+00-1.32472E-02-6.72600E+00-1.00642E-13 2.42008E-13
 -1       470 9.35157E+00-5.09765E+00-7.46923E-02-6.50919E+00-1.67102E-13 5.95697E-13
 -1       471 3.60166E+00-4.32130E+00-6.61209E-02-3.96298E+00-5.54001E-14 1.18731E-12
 -1       472 3.10235E+01 3.51385E-01 7.64185E-03 2.33341E+00 5.76202E-13-1.33171E-13
 -1       473 3.11356E+01 5.98878E+00-1.17773E-01 1.54761E+00 1.02263E-12 2.38976E-14
 -1       474 8.78292E+00-8.80406E-01 1.12485E-01-5.98800E+00-2.86840E-13-9.34655E-13
 -1       475 2.34591E+01 1.58370E-01-2.10809E-04 1.86890E+00 2.67455E-13 1.34368E-13
 -1       476 1.17990E+01 4.09106E+00 2.69726E-02 3.89127E-01-7.00767E-14-6.61972E-13
 -1       477 1.45910E+01 3.06532E+00 1.79358E-02 1.32355E+00-3.03300E-14-4.99611E-13
 -1       478 1.28614E+01 3.46039E+00 1.97262E-02-2.45200E+00-2.32610E-13-6.56953E-13
 -1       479 1.58509E+01 2.26725E+00 1.02491E-02-2.54148E+00-2.18314E-13-5.26632E-13
 -1       480 1.87082E+01 1.37845E+00-2.62906E-03-1.64214E+00-1.34371E-13-3.94723E-13
 -1       481 2.08351E+01 9.99006E-01-6.24404E-03-3.35136E-01 6.24685E-15-2.92224E-13
 -1       482 2.21685E+01 9.64483E-01-9.02047E-03 8.70617E-01 1.39410E-13-2.05065E-13
 -1       483 2.30089E+01 9.77971E-01-9.17728E-03 1.74525E+00 2.61526E-13-8.83885E-14
 -1       484 2.30823E+01-9.82601E-02 2.85771E-03 1.84644E+00 2.06777E-13 1.19898E-13
 -1       485 2.47521E+01-7.96653E-01-7.92359E-03-4.18186E-01-1.22255E-13 2.21365E-13
 -1       486 2.59403E+01-1.88051E+00-2.24222E-03-1.01246E+00-5.48252E-14 3.42200E-13
 -1       487 2.70194E+01-1.80302E+00-3.15607E-02-2.20325E+00-5.85434E-14 4.43888E-13
 -1       488 2.75398E+01 2.23403E-01-7.07098E-02-3.21297E+00-2.68514E-13 4.33891E-13
 -1       489 2.73313E+01 3.29682E+00-1.15095E-01-2.48377E+00-5.46955E-13 2.16755E-13
 -1       490 2.68728E+01 4.70967E+00-1.64190E-01 2.09471E-01-6.76952E-13-4.53292E-14
 -1       491 2.72709E+01 2.40352E+00-9.91595E-02 2.50289E+00-4.82357E-13-3.97864E-13
 -1       492 2.71656E+01-6.62583E-01-5.81087E-02 2.53433E+00-3.45264E-13-5.77741E-13
 -1       493 2.61851E+01-2.31368E+00-1.78742E-02 1.12497E+00-8.39180E-14-5.11514E-13
 -1       494 2.47519E+01-2.27202E+00-3.86813E-03-3.30458E-01 6.48342E-14-2.72455E-13
 -1       495 2.34213E+01-1.51938E+00-3.53622E-03-1.25570E+00 3.41185E-14 5.30034E-15
 -1       496 2.24461E+01-7.36384E-01-2.80668E-03-1.67590E+00-3.46921E-14-2.81185E-14
 -1       497 2.17983E+01-1.74405E-01-1.33888E-03-1.75903E+00-6.03462E-14-1.80338E-13
 -1       498 2.13746E+01 1.50598E-01-2.14626E-04-1.65507E+00 2.83736E-14-1.00656E-13
 -1       499 2.10839E+01 3.02115E-01 4.14562E-04-1.46221E+00 1.91948E-14-5.17207E-14
 -1       500 2.08689E+01 3.47041E-01 6.92967E-04-1.23922E+00 1.53069E-13-1.36681E-14
 -1       501 2.06987E+01 3.34823E-01 7.51786E-04-1.01916E+00 6.38803E-14 4.94234E-14
 -1       502 2.05584E+01 2.96586E-01 6.98711E-04-8.18858E-01 3.64906E-15-1.38139E-13
 -1       503 2.04410E+01 2.49929E-01 6.00206E-04-6.45312E-01-2.71719E-14-3.17865E-13
 -1       504 2.03431E+01 2.03876E-01 4.92208E-04-4.99920E-01 1.61651E-14-2.94492E-13
 -1       505 2.02625E+01 1.62493E-01 3.91543E-04-3.81101E-01-2.14455E-14-1.81435E-13
 -1       506 2.01971E+01 1.27176E-01 3.04739E-04-2.85895E-01-4.94662E-14-1.68569E-13
 -1       507 2.01450E+01 9.79920E-02 2.33076E-04-2.10884E-01-1.94746E-13-1.45369E-13
 -1       508 2.01043E+01 7.44059E-02 1.75520E-04-1.52683E-01-1.04590E-13-1.29566E-13
 -1       509 2.00730E+01 5.56658E-02 1.30181E-04-1.08191E-01-1.20725E-14-1.85673E-13
 -1       510 2.00494E+01 4.09890E-02 9.50056E-05-7.46927E-02-1.89599E-13-3.34395E-13
 -1       511 2.00321E+01 2.96472E-02 6.80786E-05-4.98778E-02-4.70246E-14-2.18862E-13
 -1       512 2.00195E+01 2.09990E-02 4.77346E-05-3.18247E-02-1.41243E-13-2.07302E-13
 -1       513 2.00107E+01 1.44970E-02 3.25751E-05-1.89625E-02-8.32715E-14-2.77572E-13
 -1       514 2.00047E+01 9.68380E-03 2.14512E-05-1.00263E-02-3.07646E-13-4.13420E-13
 -1       515 2.00008E+01 6.18323E-03 1.34326E-05-4.01219E-03-2.03751E-13-5.00400E-13
 -1       516 1.99984E+01 3.68963E-03 7.77487E-06-1.34307E-04 7.01210E-14-4.95056E-13
 -1       517 1.99970E+01 1.95782E-03 3.88795E-06 2.21399E-03 2.20741E-14-5.22419E-13
 -1       518 1.99964E+01 7.93430E-04 1.30932E-06 3.49403E-03-1.23701E-13-4.46320E-13
 -1       519 1.99962E+01 4.42304E-05-3.19873E-07 4.05097E-03-4.96355E-14-1.92710E-13
 -1       520 1.99964E+01-4.07518E-04-1.27489E-06 4.13842E-03 1.85869E-13 3.47837E-14
 -1       521 1.99967E+01-6.51730E-04-1.76441E-06 3.93877E-03-7.02396E-14 2.01305E-13
 -1       522 1.99971E+01-7.56221E-04-1.94481E-06 3.57973E-03-1.49184E-16 2.83732E-13
 -1       523 1.99975E+01-7.71581E-04-1.93339E-06 3.14755E-03-2.43499E-14 1.91414E-13
 -1       524 1.99979E+01-7.35283E-04-1.81667E-06 2.69750E-03 2.21175E-13 2.20839E-13
 -1       525 1.99983E+01-6.75124E-04-1.66462E-06 2.26184E-03 1.23306E-13-8.55218E-14
 -1       526 1.99987E+01-6.11980E-04-1.53451E-06 1.85594E-03-1.12704E-14-5.89095E-13
 -1       527 1.99990E+01-5.60592E-04-1.40298E-06 1.48311E-03-1.64464E-13-3.76199E-13
 -1       528 1.99992E+01-5.31580E-04-1.49659E-06 1.13916E-03-1.53444E-14-2.54690E-13
 -1       529 9.93713E+00-2.71862E+00 1.47524E-01 6.21695E+00-2.67418E-13 7.99465E-13
 -1       530 2.20944E+01 5.33874E-01 2.41400E-03 1.65361E+00 2.27812E-13 4.67935E-14
 -1       531 2.16188E+01 1.02800E+00 3.44527E-03 1.03149E+00 2.49147E-13-3.03211E-14
 -1       532 2.13688E+01 1.24335E+00 2.84783E-03 8.78198E-02 2.20648E-13-1.65203E-13
 -1       533 2.14425E+01 1.01366E+00 1.13607E-03-8.35907E-01 2.51469E-13-1.93294E-13
 -1       534 2.17395E+01 4.59089E-01 9.21465E-04-1.41600E+00 2.06953E-13-3.19901E-13
 -1       535 2.20499E+01-1.25974E-01 5.15730E-04-1.49311E+00 1.49355E-13-3.61626E-13
 -1       536 2.22180E+01-5.17335E-01-7.33697E-04-1.18259E+00 1.93993E-13-3.88646E-13
 -1       537 2.22032E+01-6.51834E-01-2.40985E-03-6.93615E-01 1.64840E-13-3.56145E-13
 -1       538 2.20490E+01-5.93307E-01-2.74597E-03-2.07695E-01 1.43426E-14-2.73042E-13
 -1       539 2.18192E+01-4.40939E-01-2.31393E-03 1.76447E-01-6.40087E-14-1.21252E-13
 -1       540 2.15638E+01-2.71672E-01-1.69347E-03 4.29673E-01-2.82468E-14-6.90354E-14
 -1       541 2.13134E+01-1.27511E-01-9.85108E-04 5.63367E-01 6.90941E-14 1.32050E-14
 -1       542 2.10830E+01-2.29948E-02-3.98523E-04 6.05522E-01 6.56705E-14 3.29030E-14
 -1       543 2.08785E+01 4.31829E-02 1.38597E-05 5.86102E-01-3.12412E-14-1.03002E-13
 -1       544 2.07015E+01 7.88365E-02 2.65881E-04 5.30485E-01-1.13918E-13-1.09968E-13
 -1       545 2.05513E+01 9.29643E-02 3.92249E-04 4.57578E-01 1.01602E-13-1.03202E-14
 -1       546 2.04260E+01 9.33573E-02 4.31509E-04 3.80181E-01 6.73048E-14-3.87258E-14
 -1       547 2.03233E+01 8.58985E-02 4.16772E-04 3.06186E-01 2.79337E-14-6.25775E-14
 -1       548 2.02406E+01 7.46526E-02 3.72911E-04 2.39898E-01-5.23075E-14-8.71037E-14
 -1       549 2.01752E+01 6.22298E-02 3.16670E-04 1.83181E-01-9.60702E-14-2.25012E-13
 -1       550 2.01243E+01 5.01799E-02 2.58480E-04 1.36344E-01-1.17163E-13-2.11462E-13
 -1       551 2.00856E+01 3.93276E-02 2.04231E-04 9.87886E-02-8.10599E-14-1.63708E-13
 -1       552 2.00566E+01 3.00281E-02 1.56781E-04 6.94514E-02-1.13089E-13-2.13227E-13
 -1       553 2.00354E+01 2.23497E-02 1.17098E-04 4.70882E-02-1.42939E-13-3.39332E-13
 -1       554 2.00203E+01 1.61980E-02 8.50419E-05 3.04513E-02-1.52074E-13-2.90937E-13
 -1       555 2.00098E+01 1.13974E-02 5.98916E-05 1.83881E-02-5.39073E-14-3.01772E-13
 -1       556 2.00029E+01 7.74150E-03 4.06736E-05 9.88865E-03-6.90618E-14-2.38747E-13
 -1       557 1.99985E+01 5.02403E-03 2.63594E-05 4.10214E-03 4.98574E-14-1.13669E-13
 -1       558 1.99959E+01 3.05488E-03 1.59766E-05 3.32982E-04 2.14620E-14 6.01403E-14
 -1       559 1.99946E+01 1.66810E-03 8.66335E-06-1.97277E-03 7.91470E-14 1.36203E-13
 -1       560 1.99941E+01 7.24235E-04 3.68896E-06-3.24611E-03-8.81590E-15-2.61926E-15
 -1       561 1.99942E+01 1.09541E-04 4.54177E-07-3.81495E-03 1.00459E-13 1.97720E-14
 -1       562 1.99947E+01-2.66493E-04-1.51948E-06-3.92316E-03 5.11243E-14 2.40050E-14
 -1       563 1.99953E+01-4.74352E-04-2.60561E-06-3.74775E-03 1.11928E-13 2.16465E-13
 -1       564 1.99959E+01-5.67918E-04-3.09010E-06-3.41353E-03-2.79516E-13-1.73658E-13
 -1       565 1.99966E+01-5.87737E-04-3.18870E-06-3.00532E-03-9.28031E-14-1.96143E-13
 -1       566 1.99972E+01-5.63992E-04-3.06286E-06-2.57778E-03 8.79097E-14-1.47238E-13
 -1       567 1.99978E+01-5.19117E-04-2.83050E-06-2.16304E-03 3.39405E-13-1.20192E-13
 -1       568 1.99983E+01-4.69937E-04-2.56369E-06-1.77659E-03 2.76261E-13 2.83419E-13
 -1       569 1.99987E+01-4.29098E-04-2.44110E-06-1.42213E-03 1.54033E-14 2.83696E-13
 -1       570 1.99991E+01-4.06422E-04-2.80603E-06-1.09632E-03-2.08106E-13 4.40436E-13
 -1       571 1.99994E+01-4.00003E-04-2.56236E-06-7.88237E-04-2.05140E-13 2.40039E-13
 -1       572 2.00000E+01-1.40206E-03 6.93850E-07-9.04761E-04 4.01543E-13-1.90225E-13
 -1       573 2.00002E+01-1.62985E-03 8.02661E-07-6.73787E-04 6.83207E-14-2.31725E-13
 -1       574 1.99996E+01-7.99367E-04-2.85039E-07-9.94756E-04-2.68300E-14 2.29794E-13
 -1       575 1.99998E+01-1.11714E-03 2.25774E-07-1.01782E-03 4.81519E-14-2.52723E-13
 -1       576 2.00003E+01-1.77538E-03 1.00181E-06-3.57735E-04-1.07350E-13-3.00196E-14
 -1       577 2.00003E+01-1.82503E-03 1.07967E-06 2.75881E-06-5.67268E-14-7.66175E-14
 -1       578 2.00003E+01-1.77420E-03 9.93561E-07 3.62984E-04-3.53141E-14 1.89318E-13
 -1       579 2.00002E+01-1.63108E-03 7.64589E-07 6.73534E-04 1.01357E-14 4.48598E-13
 -1       580 2.00000E+01-1.40365E-03 5.25642E-07 9.04728E-04-1.20320E-13-1.28959E-13
 -1       581 1.99998E+01-1.11504E-03 2.86995E-07 1.01823E-03-2.52352E-13 9.46127E-16
 -1       582 1.99996E+01-7.95767E-04-7.32693E-07 9.91131E-04-1.01156E-13-2.73879E-13
 -1       583 5.50646E+00-1.21975E+00 1.65220E-01-2.50164E+00 1.33844E-13 1.19271E-12
 -1       584 2.26231E+01 7.15999E-02 2.11030E-03 1.87083E+00 2.08798E-13 7.71294E-14
 -1       585 1.63493E+01-4.51284E+00 8.15938E-02 7.01240E+00-2.71991E-13 3.23689E-13
 -1       586 2.37862E+01-4.92413E+00 2.50940E-02 4.85650E+00-2.17590E-13-2.58973E-13
 -1       587 2.36385E+01 5.81820E-01-5.77228E-03-3.92151E-01-2.27230E-13 9.24751E-14
 -1       588 8.81044E+00-2.75496E+00 1.32194E-01-5.50788E+00 2.80373E-13 6.25000E-13
 -1       589 3.04293E+01 6.41185E+00-1.82826E-01-7.10935E-02-8.66862E-13-1.67394E-13
 -1       590 1.11239E+01 4.26517E+00 2.48014E-02-1.24090E+00-1.63062E-13-7.01638E-13
 -1       591 3.02924E+01 1.78916E+00-1.03393E-01-8.63529E-01 5.24955E-13-5.35794E-13
 -1       592 1.10487E+01-1.48132E+00 1.44465E-01 5.31601E+00 1.58110E-13-7.87169E-13
 -1       593 2.88526E+01 7.17664E+00-1.97087E-01 1.16648E-01 9.83380E-13-2.25871E-13
 -1       594 3.01812E+01 5.63954E+00-1.62402E-01-1.20265E+00 7.75852E-13-4.13003E-13
 -1       595 2.99687E+01 1.77956E+00-1.12255E-01 1.25145E+00 6.94347E-13 2.04094E-13
 -1       596 1.69430E+01-2.80636E+00 7.85041E-02-6.30266E+00-2.71887E-13-5.12975E-13
 -1       597 2.21496E+01-3.45055E+00 1.54453E-02-4.92509E+00-1.27884E-13-2.84633E-13
 -1       598 2.77469E+01-1.91799E+00-4.76564E-02-1.31154E+00 1.99868E-13 1.01537E-13
 -1       599 5.04954E+00 1.36571E+00 1.80357E-01-2.19243E+00-1.65002E-13-1.07389E-12
 -1       600 2.83531E+01-4.01932E+00-6.17006E-02-1.37369E+00-7.38697E-14-3.28806E-13
 -1       601 5.35733E+00 1.09137E+00 1.61998E-01 1.80072E+00 1.31423E-14-1.05241E-12
 -1       602 1.69427E+01-3.44835E+00 7.50143E-02 5.59475E+00 2.02505E-13-5.13239E-13
 -1       603 2.48043E+01-4.45447E+00 1.22177E-02 3.51015E+00 2.12330E-14-1.29664E-13
 -1       604 2.97458E+01-2.48118E+00-5.13049E-02 5.38193E-02-3.26880E-13 2.38531E-13
 -1       605 3.17113E+01 1.71499E+00-1.02688E-01-2.16502E+00-6.33493E-13 1.68872E-13
 -1       606 3.09140E+01 5.12733E+00-1.44257E-01-2.35220E+00-7.79390E-13 1.37002E-13
 -1       607 3.05510E+01 4.61994E+00-1.63020E-01 1.89592E+00-8.77062E-13-5.10730E-13
 -1       608 3.08467E+01 7.33713E-01-1.21329E-01 1.77583E+00-5.88585E-13-6.66071E-13
 -1       609 2.45799E+01-5.27659E+00 4.57910E-02-4.25075E+00 1.95330E-13 1.86275E-14
 -1       610 1.63196E+01-4.71788E+00 8.76777E-02-6.70120E+00 2.56226E-13 9.96390E-14
 -1       611 5.55598E+00-1.06747E+00 1.73439E-01 2.85840E+00-1.89650E-13 1.04168E-12
 -1       612 2.36910E+01 7.72368E-01-6.99743E-03 2.06245E+00 3.77180E-13 1.58957E-13
 -1       613 2.81329E+01-2.87410E+00-5.32530E-02 1.75099E+00 1.09314E-13-5.26336E-13
 -1       614 1.82966E+01 1.85309E+00 6.96053E-03 1.14258E+00-6.35605E-14-3.26097E-13
 -1       615 1.99994E+01-5.19435E-04-1.65602E-06 9.12514E-04-8.73086E-14-2.94702E-13
 -1       616 1.39382E+01-1.16897E+00 1.24931E-01-6.11987E+00-3.99014E-13-6.41230E-13
 -1       617 8.33711E+00 1.23494E+00 1.48063E-01-4.37085E+00-3.18114E-13-9.59031E-13
 -1       618 1.83925E+01 1.83811E-01 2.67683E-02-3.00474E+00-2.73822E-13-3.63455E-13
 -1       619 1.43061E+01 1.53407E+00 5.36322E-02-3.95859E+00-3.48574E-13-5.94570E-13
 -1       620 2.27394E+01-2.71460E-01-8.92479E-04 3.76603E-01 3.32076E-14-1.48918E-13
 -1       621 2.33299E+01-3.31501E-02-5.90154E-03 1.44229E+00 1.59598E-13-5.79350E-14
 -1       622 2.35758E+01-1.05426E-01 2.67204E-03 1.92515E+00 2.20475E-13 3.95130E-14
 -1       623 1.00257E+01 1.19178E+00 1.17198E-01 3.35595E+00 1.45061E-13-7.92193E-13
 -1       624 9.89607E+00-7.77522E-01 1.37823E-01 4.37589E+00-2.59837E-13 7.41511E-13
 -1       625 9.91741E+00-7.77398E-01 1.32459E-01-3.98129E+00 4.34958E-13 6.89705E-13
 -1       626 2.09952E+01-4.48216E+00 4.48445E-02 5.23584E+00-4.68226E-13-2.92252E-13
 -1       627 2.61343E+01-3.21130E+00 5.46752E-04 1.38976E-01 6.70826E-14 2.75903E-13
 -1       628 2.77354E+01-3.11712E+00-3.67684E-02 4.95008E-01-5.06201E-14-8.25937E-13
 -1       629 2.50692E+01-3.60233E+00 1.96381E-03-1.26977E+00 3.08567E-13-3.86529E-13
 -1       630 2.29206E+01-2.50717E+00 5.70195E-03-2.13168E+00 2.74522E-13-1.99761E-13
 -1       631 2.15366E+01-1.28447E+00-2.26206E-04-2.34037E+00 3.50723E-14-5.21344E-14
 -1       632 2.07861E+01-3.80817E-01-6.13988E-05-2.22630E+00-1.04232E-13 8.04516E-15
 -1       633 2.04255E+01 1.60041E-01 6.93359E-05-1.99030E+00 4.16624E-14 6.01395E-14
 -1       634 2.02714E+01 4.30393E-01 2.19080E-04-1.71999E+00 9.06012E-15 6.74516E-14
 -1       635 2.02124E+01 5.28712E-01 3.21894E-04-1.45132E+00 9.27485E-14-5.79955E-15
 -1       636 2.01896E+01 5.29708E-01 3.39217E-04-1.20089E+00 8.21027E-14-7.79421E-14
 -1       637 2.01760E+01 4.82317E-01 3.09419E-04-9.76453E-01-1.79263E-13-2.96402E-13
 -1       638 2.01616E+01 4.15628E-01 2.61974E-04-7.81160E-01-1.95568E-13-3.76690E-13
 -1       639 2.01441E+01 3.45593E-01 2.12947E-04-6.15302E-01 7.52626E-14-2.46709E-13
 -1       640 2.01245E+01 2.80163E-01 1.68530E-04-4.77346E-01 2.01327E-13-2.44694E-14
 -1       641 2.01042E+01 2.22711E-01 1.30941E-04-3.64687E-01 3.09688E-14 3.05952E-14
 -1       642 2.00848E+01 1.74147E-01 1.00190E-04-2.74210E-01-1.45302E-14-4.44750E-15
 -1       643 2.00673E+01 1.34145E-01 7.55840E-05-2.02674E-01-1.45530E-13-4.42699E-14
 -1       644 2.00521E+01 1.01828E-01 5.62152E-05-1.46964E-01-7.22706E-14-4.61721E-14
 -1       645 2.00394E+01 7.61326E-02 4.11736E-05-1.04234E-01-1.34280E-13-5.01898E-14
 -1       646 2.00290E+01 5.59908E-02 2.96369E-05-7.19739E-02-1.77429E-13 1.28603E-13
 -1       647 2.00209E+01 4.04169E-02 2.08977E-05-4.80261E-02-1.14431E-13-5.40524E-14
 -1       648 2.00146E+01 2.85414E-02 1.43648E-05-3.05799E-02-9.67291E-14 2.05214E-13
 -1       649 2.00098E+01 1.96192E-02 9.55286E-06-1.81418E-02-3.20743E-13-1.31240E-14
 -1       650 2.00063E+01 1.30241E-02 6.06846E-06-9.50101E-03-2.23170E-13 1.21993E-13
 -1       651 2.00037E+01 8.23850E-03 3.59613E-06-3.69106E-03-9.59711E-14 2.81280E-13
 -1       652 2.00020E+01 4.84085E-03 1.88546E-06 4.77089E-05-4.12716E-14 1.12582E-13
 -1       653 2.00007E+01 2.49205E-03 7.39629E-07 2.30333E-03-7.63766E-14-1.63537E-13
 -1       654 2.00000E+01 9.22960E-04 5.63107E-09 3.52373E-03 5.45009E-14-1.15146E-13
 -1       655 1.99995E+01-7.72616E-05-4.34130E-07 4.04437E-03 1.67819E-13-1.21805E-13
 -1       656 1.99992E+01-6.71648E-04-6.68856E-07 4.11166E-03 2.23634E-13-1.85580E-13
 -1       657 1.99991E+01-9.84635E-04-7.65304E-07 3.90264E-03-2.15205E-14-1.16914E-13
 -1       658 1.99991E+01-1.11002E-03-7.72497E-07 3.54097E-03-5.59850E-14-3.73630E-14
 -1       659 1.99991E+01-1.11776E-03-7.30540E-07 3.10986E-03 2.49159E-14 7.47667E-14
 -1       660 1.99992E+01-1.05963E-03-6.66274E-07 2.66232E-03 1.49423E-14-2.11154E-15
 -1       661 1.99993E+01-9.73974E-04-5.88102E-07 2.22912E-03-2.90278E-13 3.86998E-14
 -1       662 1.99994E+01-8.89083E-04-6.09299E-07 1.82467E-03-8.38468E-14-1.68329E-13
 -1       663 1.99995E+01-8.23921E-04-5.47522E-07 1.45172E-03-9.51004E-14-3.77365E-13
 -1       664 2.90255E+01-1.10689E+00-6.62725E-02-2.50977E+00-2.26347E-13 3.78048E-13
 -1       665 1.49068E+01-2.83392E+00 9.99639E-02 6.14251E+00-4.78631E-13 3.33740E-13
 -1       666 2.29306E+01 1.37408E+00-3.86439E-03 1.80515E+00 2.93617E-13 6.85498E-14
 -1       667 2.26779E+01 1.27365E+00 4.29811E-03-1.46241E+00 3.33267E-13-3.34707E-13
 -1       668 2.29366E+01 1.57979E-01-3.20984E-03-1.72730E+00 2.10901E-13-3.72504E-13
 -1       669 2.29869E+01-7.21450E-01-1.90869E-04-1.40702E+00 1.40633E-13-3.49521E-13
 -1       670 2.27437E+01-1.11076E+00-1.86831E-03-7.93807E-01 8.65177E-14-2.60392E-13
 -1       671 2.23292E+01-1.09569E+00-1.59820E-03-1.80252E-01 1.76495E-14-8.01552E-14
 -1       672 2.18713E+01-8.61612E-01-8.84871E-04 2.93501E-01-1.48006E-13-2.65566E-14
 -1       673 2.14539E+01-5.64619E-01-8.10469E-04 5.96199E-01-7.36303E-14 4.41484E-15
 -1       674 2.11117E+01-2.95478E-01-4.91841E-04 7.49957E-01 1.30640E-14-8.64969E-14
 -1       675 2.08466E+01-9.09738E-02-2.27091E-04 7.93942E-01 3.64767E-14-2.27735E-14
 -1       676 2.06460E+01 4.52810E-02-5.26777E-05 7.65603E-01 5.58133E-14 9.01559E-14
 -1       677 2.04948E+01 1.24314E-01 5.67353E-05 6.94892E-01-1.60439E-15 7.00486E-14
 -1       678 2.03801E+01 1.61181E-01 1.16939E-04 6.03625E-01-8.71681E-14 9.31856E-15
 -1       679 2.02920E+01 1.69862E-01 1.41871E-04 5.06573E-01 2.57261E-14 1.39271E-13
 -1       680 2.02236E+01 1.61425E-01 1.43664E-04 4.13024E-01-4.22104E-15 2.35746E-13
 -1       681 2.01701E+01 1.43847E-01 1.32519E-04 3.28259E-01 9.43025E-14 2.89893E-13
 -1       682 2.01281E+01 1.22484E-01 1.15057E-04 2.54769E-01-3.87622E-14 1.86716E-13
 -1       683 2.00953E+01 1.00684E-01 9.56095E-05 1.93204E-01-7.13106E-14 1.42037E-13
 -1       684 2.00698E+01 8.03710E-02 7.67341E-05 1.43076E-01-1.11350E-13-6.58004E-15
 -1       685 2.00501E+01 6.25043E-02 5.97772E-05 1.03272E-01-3.23651E-14-2.40382E-14
 -1       686 2.00351E+01 4.74258E-02 4.53066E-05 7.23881E-02-6.48346E-14-7.88549E-14
 -1       687 2.00239E+01 3.51066E-02 3.34209E-05 4.89602E-02 4.69136E-16-2.02420E-13
 -1       688 2.00155E+01 2.53132E-02 2.39567E-05 3.15924E-02-2.99067E-14-2.29576E-13
 -1       689 2.00095E+01 1.77169E-02 1.66226E-05 1.90318E-02-1.06634E-13-1.68243E-13
 -1       690 2.00053E+01 1.19614E-02 1.10823E-05 1.01993E-02-1.17238E-13-1.19278E-13
 -1       691 2.00024E+01 7.70269E-03 7.00271E-06 4.19533E-03-3.59796E-14-1.81686E-13
 -1       692 2.00004E+01 4.63049E-03 4.07969E-06 2.89608E-04 6.14666E-15-9.55661E-14
 -1       693 1.99992E+01 2.47718E-03 2.04988E-06-2.09667E-03 1.24855E-13-1.37036E-14
 -1       694 1.99985E+01 1.01978E-03 6.93604E-07-3.41241E-03 7.92693E-14 5.49919E-14
 -1       695 1.99982E+01 7.74685E-05-1.67009E-07-3.99834E-03 7.25553E-14 1.04228E-13
 -1       696 1.99981E+01-4.93024E-04-6.72536E-07-4.10742E-03-5.44086E-14 1.09010E-14
 -1       697 1.99982E+01-8.02946E-04-9.31998E-07-3.92295E-03-1.09339E-14 1.78470E-13
 -1       698 1.99983E+01-9.37190E-04-1.02713E-06-3.57392E-03 8.89136E-15 2.67836E-14
 -1       699 1.99985E+01-9.59600E-04-1.01997E-06-3.14774E-03 1.24090E-13-1.68104E-13
 -1       700 1.99987E+01-9.17708E-04-9.58705E-07-2.70054E-03 1.64176E-13-2.41503E-13
 -1       701 1.99989E+01-8.46783E-04-8.73675E-07-2.26514E-03 7.41912E-14-9.05893E-14
 -1       702 1.99991E+01-7.72977E-04-8.48584E-07-1.85780E-03-9.09390E-14 2.26952E-13
 -1       703 1.99993E+01-7.16634E-04-1.08972E-06-1.48340E-03-1.37400E-13 5.22835E-13
 -1       704 1.99995E+01-7.51478E-04-7.58421E-07-1.23806E-03-2.08117E-13 4.30682E-13
 -1       705 2.00007E+01-1.84685E-03 3.51557E-07-2.23642E-04 3.99502E-14 3.41579E-13
 -1       706 7.60643E+00 2.98424E+00 1.33984E-01-4.06977E-01-8.51496E-14-9.24087E-13
 -1       707 2.00004E+01-1.56041E-03 1.89278E-07-1.00160E-03 4.45383E-14-3.95278E-13
 -1       708 2.00007E+01-1.84646E-03 3.40215E-07 2.29972E-04 2.49797E-13-3.76674E-14
 -1       709 2.00006E+01-1.74897E-03 3.31792E-07-6.51210E-04 3.30601E-14-4.17573E-13
 -1       710 2.00006E+01-1.75049E-03 2.28288E-07 6.50174E-04 1.36691E-13 1.85117E-13
 -1       711 2.00004E+01-1.56289E-03 2.70674E-07 1.00180E-03-1.68589E-13-1.25850E-13
 -1       712 2.00001E+01-1.29848E-03 3.36523E-07 1.23084E-03-1.12521E-13-9.69437E-14
 -1       713 2.33678E+01 4.17973E-01-1.91824E-03 2.19378E+00 2.18592E-13 6.43777E-14
 -1       714 2.79775E+01-1.13086E+00-7.44270E-02-7.64148E-01 1.52595E-13-6.41914E-13
 -1       715 2.27514E+01-8.97269E-01 1.96608E-02 8.70841E-01-5.27117E-15 1.21250E-14
 -1       716 1.99996E+01-8.15391E-04-5.04715E-07 1.22109E-03 1.45472E-13-3.70703E-13
 -1       717 2.70735E+01 5.52752E+00-1.39928E-01 1.63391E+00 8.58605E-13-5.26315E-14
 -1       718 2.04759E+01-2.66484E+00 5.64461E-02-4.65258E+00-3.15817E-13-2.56050E-13
 -1       719 2.23709E+01 2.14125E+00-1.21707E-02-4.68192E-01 3.20249E-13-1.98439E-13
 -1       720 2.25173E+01 2.13576E+00 4.00926E-06 8.09433E-01 4.02287E-13-5.32061E-14
 -1       721 2.12581E+01-3.77404E-01 3.75361E-03-1.26475E+00-1.14691E-13-2.09460E-13
 -1       722 8.05037E+00 4.36974E-01 1.59376E-01 5.49240E-02-3.94437E-14 9.44536E-13
 -1       723 2.35824E+01-1.57418E-01-9.34471E-04 2.11100E+00 2.22626E-13 3.44547E-14
 -1       724 1.20482E+01 2.54580E+00 5.66038E-02 2.06602E+00 6.21465E-14-6.54386E-13
 -1       725 2.10798E+01-4.37914E+00 5.64174E-02-4.83453E+00 4.09985E-13-8.49485E-14
 -1       726 2.66560E+01 5.27710E+00-1.20828E-01-1.16008E+00 6.70505E-13-4.78648E-13
 -1       727 2.72287E+01-3.75227E+00-3.16112E-02 5.11237E-01 2.86923E-14 2.53429E-13
 -1       728 1.47979E+01-2.85181E+00 1.09261E-01-5.81067E+00 3.78916E-13 1.65177E-13
 -1       729 2.74999E+01-5.65152E-01-6.24815E-02 1.34769E+00 2.69112E-13 2.28043E-13
 -1       730 2.49851E+01-2.91107E+00-1.09228E-02-2.11143E+00-1.22770E-13 4.22440E-14
 -1       731 1.58110E+01-1.43171E+00 9.93999E-02 4.56855E+00 2.59980E-13-4.56205E-13
 -1       732 2.85415E+01 2.01941E+00-9.02914E-02 2.59394E+00-5.25108E-13-6.25035E-13
 -1       733 2.24816E+01-3.61142E+00 4.40092E-02 3.35231E+00 2.31763E-13-5.93406E-14
 -1       734 2.74392E+01 2.98355E+00-1.06105E-01 2.45968E+00 6.26513E-13 1.47778E-13
 -1       735 2.57606E+01-4.07812E+00-1.52021E-02 1.97406E+00-2.35940E-13-5.81294E-13
 -1       736 2.61468E+01-4.46670E+00-9.13772E-03-1.80500E+00 2.85043E-13-3.16797E-13
 -1       737 2.76627E+01 2.94431E+00-1.18562E-01-1.94113E+00 4.91482E-13-5.85941E-13
 -1       738 1.67096E+01 8.91445E-01 3.49099E-02 2.51549E+00 8.40959E-14-3.67324E-13
 -1       739 1.03125E+01 3.07563E+00 7.88843E-02-2.85772E+00-2.69720E-13-8.07510E-13
 -1       740 9.62009E+00 3.62157E+00 8.40719E-02 1.86635E-01-6.90160E-14-7.87311E-13
 -1       741 2.97681E+01 2.06359E+00-1.18510E-01-2.95835E+00-5.61190E-13 2.71429E-13
 -1       742 1.99998E+01-1.08181E-03 2.30824E-07-1.27583E-03-1.54788E-13 1.52782E-13
 -1       743 2.54829E+01 5.16502E+00-1.04004E-01 3.86285E-01 7.18547E-13-2.64720E-13
 -1       744 1.99998E+01-1.07400E-03-2.21878E-08 1.38714E-03-9.02303E-14 2.53391E-13
 -1       745 2.00001E+01-1.33994E-03 2.77086E-07-1.19231E-03 7.78970E-14-2.63601E-14
 -1       746 2.39892E+01-7.02411E-01-1.35502E-03 1.33568E+00 8.81240E-14 1.62197E-14
 -1       747 2.52695E+01 3.00325E+00-6.77549E-02-1.79734E+00 4.52036E-13-4.11232E-13
 -1       748 2.00011E+01-1.90979E-03 4.12620E-08 5.34348E-04-2.33634E-15-1.84897E-13
 -1       749 2.83900E+01-1.27285E+00-8.83125E-02 2.04755E+00-2.81258E-13-8.31717E-13
 -1       750 1.98336E+01-1.70311E+00 2.05656E-02-3.38887E+00 2.53089E-13-8.84642E-14
 -1       751 1.91955E+01-4.76370E-01 3.14017E-03-2.81091E+00 1.84562E-14 1.85341E-14
 -1       752 1.90747E+01 2.37622E-01 1.33259E-03-2.28185E+00-3.97355E-15 1.28739E-13
 -1       753 1.91612E+01 6.02888E-01 1.53721E-04-1.86818E+00-3.78819E-14-5.80827E-14
 -1       754 1.93246E+01 7.44593E-01 8.34637E-05-1.53664E+00 1.52956E-14-6.71460E-14
 -1       755 1.94942E+01 7.56767E-01 9.77693E-05-1.26389E+00 3.97708E-14-1.95669E-13
 -1       756 1.96411E+01 7.00949E-01 9.57411E-05-1.03377E+00-2.19825E-13-2.81762E-13
 -1       757 1.97572E+01 6.14766E-01 7.89341E-05-8.37492E-01-1.76302E-13-1.19672E-13
 -1       758 1.98436E+01 5.20029E-01 6.13067E-05-6.70372E-01 1.43528E-13 1.11813E-13
 -1       759 1.99049E+01 4.28537E-01 4.59715E-05-5.29402E-01 2.53267E-13 1.43202E-13
 -1       760 1.99468E+01 3.45998E-01 3.44090E-05-4.12057E-01 1.01336E-13 1.34633E-13
 -1       761 1.99744E+01 2.74601E-01 2.57382E-05-3.15828E-01-3.83228E-14 4.70025E-14
 -1       762 1.99917E+01 2.14597E-01 1.91748E-05-2.38129E-01-8.72955E-14 6.45407E-14
 -1       763 2.00020E+01 1.65245E-01 1.41687E-05-1.76367E-01-1.11530E-13 2.24933E-13
 -1       764 2.00077E+01 1.25361E-01 1.03441E-05-1.28042E-01-1.20694E-13 1.51265E-13
 -1       765 2.00103E+01 9.36208E-02 7.43281E-06-9.08353E-02-6.88398E-14 7.90170E-14
 -1       766 2.00110E+01 6.87235E-02 5.23375E-06-6.26647E-02-1.24501E-13 1.12337E-13
 -1       767 2.00106E+01 4.94689E-02 3.59084E-06-4.17148E-02 8.79695E-14 1.35160E-13
 -1       768 2.00096E+01 3.47943E-02 2.38046E-06-2.64397E-02-2.46147E-13 3.01158E-13
 -1       769 2.00084E+01 2.37832E-02 1.50389E-06-1.55511E-02-3.19447E-13 2.88778E-13
 -1       770 2.00070E+01 1.56614E-02 8.82212E-07-7.99590E-03-5.01698E-14 3.37179E-13
 -1       771 2.00058E+01 9.78662E-03 4.52687E-07-2.92867E-03-2.27566E-13 4.21939E-13
 -1       772 2.00046E+01 5.63363E-03 1.65813E-07 3.17989E-04-1.99040E-13 4.27125E-13
 -1       773 2.00036E+01 2.77952E-03-1.70565E-08 2.26199E-03-1.00492E-13 2.07534E-13
 -1       774 2.00028E+01 8.88413E-04-1.25709E-07 3.29839E-03 3.74450E-14 2.69013E-14
 -1       775 2.00021E+01-3.02797E-04-1.82585E-07 3.72308E-03 2.62679E-13-1.20201E-13
 -1       776 2.00015E+01-9.97375E-04-2.03761E-07 3.75323E-03 1.56444E-13-3.70251E-13
 -1       777 2.00010E+01-1.35030E-03-2.00447E-07 3.54456E-03 4.06945E-14-2.79911E-13
 -1       778 2.00007E+01-1.47825E-03-1.80300E-07 3.20547E-03-4.74866E-14-1.38640E-13
 -1       779 2.00004E+01-1.46806E-03-1.62105E-07 2.80858E-03-2.61155E-13-4.56226E-13
 -1       780 2.00002E+01-1.38378E-03-1.24576E-07 2.39965E-03-9.93706E-14-4.51876E-13
 -1       781 2.00000E+01-1.27227E-03-2.19850E-08 2.00635E-03-1.18920E-13-3.63815E-13
 -1       782 1.99999E+01-1.16112E-03-3.43484E-07 1.68734E-03-8.49514E-14-4.68395E-15
 -1       783 1.41085E+01-1.15033E+00 8.36078E-02-4.40175E+00 4.06350E-13 3.15224E-13
 -1       784 2.39599E+01 9.02486E-01-2.30268E-02-1.89005E+00 2.65410E-13-3.16630E-13
 -1       785 2.28225E+01-1.69922E+00-5.66588E-04 3.06516E-02-8.43323E-14-1.45752E-13
 -1       786 2.20398E+01-1.38889E+00 8.01970E-04 5.92605E-01-7.27977E-14-5.29184E-14
 -1       787 2.13857E+01-9.36945E-01-4.85689E-04 8.96030E-01-1.02552E-13-1.59001E-14
 -1       788 2.09032E+01-5.15064E-01-2.35148E-04 1.01465E+00-4.35369E-14-8.90887E-14
 -1       789 2.05730E+01-1.88028E-01-4.57044E-05 1.01562E+00-2.82160E-14 1.51403E-13
 -1       790 2.03591E+01 3.55088E-02 6.31101E-06 9.47992E-01-5.59397E-14 1.25362E-13
 -1       791 2.02260E+01 1.70425E-01 2.64471E-05 8.44791E-01-2.64492E-14 1.34156E-13
 -1       792 2.01455E+01 2.38545E-01 3.96659E-05 7.27412E-01-5.26655E-14 9.81234E-14
 -1       793 2.00977E+01 2.60769E-01 4.57347E-05 6.09174E-01-1.41174E-13 1.21224E-13
 -1       794 2.00693E+01 2.54036E-01 4.42864E-05 4.98024E-01-1.39440E-13 1.99520E-13
 -1       795 2.00521E+01 2.30882E-01 4.01281E-05 3.98336E-01-3.89020E-15 3.15553E-13
 -1       796 2.00411E+01 1.99993E-01 3.45121E-05 3.12057E-01 6.67967E-14 3.41760E-13
 -1       797 2.00335E+01 1.67018E-01 2.85403E-05 2.39520E-01 3.01830E-14 1.59322E-13
 -1       798 2.00278E+01 1.35368E-01 2.28646E-05 1.80043E-01-5.62653E-14 1.08585E-13
 -1       799 2.00231E+01 1.06892E-01 1.78161E-05 1.32357E-01-5.41403E-14 6.86859E-15
 -1       800 2.00192E+01 8.23986E-02 1.35258E-05 9.49231E-02-5.28730E-14-3.22325E-15
 -1       801 2.00158E+01 6.20443E-02 1.00056E-05 6.61328E-02-1.08992E-13 8.74886E-14
 -1       802 2.00128E+01 4.56028E-02 7.20034E-06 4.44450E-02-1.77482E-14 2.37653E-13
 -1       803 2.00102E+01 3.26481E-02 5.02212E-06 2.84609E-02-8.12883E-14 2.59943E-14
 -1       804 2.00080E+01 2.26739E-02 3.37191E-06 1.69607E-02-1.63839E-13-2.39658E-14
 -1       805 2.00062E+01 1.51662E-02 2.15232E-06 8.91409E-03-3.89492E-14 1.18716E-13
 -1       806 2.00047E+01 9.64582E-03 1.27454E-06 3.47314E-03 5.47110E-14 1.47709E-14
 -1       807 2.00035E+01 5.68909E-03 6.61562E-07-4.39047E-05 1.32938E-13-1.98613E-13
 -1       808 2.00025E+01 2.93572E-03 2.48974E-07-2.17373E-03-1.97524E-13-1.70754E-13
 -1       809 2.00017E+01 1.08840E-03-1.55525E-08-3.33028E-03-1.02225E-13 1.98137E-13
 -1       810 2.00011E+01-9.22172E-05-1.73517E-07-3.82634E-03-1.57541E-13 3.57099E-13
 -1       811 2.00007E+01-7.94691E-04-2.57191E-07-3.89319E-03-1.73055E-13 3.21246E-13
 -1       812 2.00004E+01-1.16483E-03-2.91887E-07-3.69774E-03 1.02449E-13 7.34322E-14
 -1       813 2.00001E+01-1.31354E-03-2.91097E-07-3.35689E-03 1.40965E-13-1.93071E-13
 -1       814 2.00000E+01-1.32399E-03-2.70430E-07-2.94944E-03-4.52911E-14-6.66211E-14
 -1       815 1.99998E+01-1.25797E-03-2.41721E-07-2.52565E-03 5.23900E-14-1.42927E-14
 -1       816 1.99998E+01-1.16100E-03-2.98192E-07-2.11455E-03-2.44990E-13 7.21440E-14
 -1       817 1.99997E+01-1.06717E-03-1.73340E-07-1.73084E-03-3.07602E-13 2.23418E-13
 -1       818 1.99998E+01-1.06919E-03 3.84036E-07-1.49642E-03-1.37202E-13 1.08836E-13
 -1       819 1.09273E+01 5.66011E-01 8.36311E-02 2.15086E+00-2.00337E-13 7.39915E-13
 -1       820 2.00005E+01-1.51971E-03 2.86364E-07 1.36943E-03 1.20974E-13-2.45265E-14
 -1       821 8.96194E+00 2.42403E+00 1.02213E-01-3.17684E+00-2.70266E-13-8.91502E-13
 -1       822 1.86041E+01-2.74923E+00 4.63704E-02-4.66893E+00 3.85423E-13-1.20246E-13
 -1       823 2.00011E+01-1.96020E-03 1.32545E-07-1.31689E-06-4.67827E-14 3.23338E-14
 -1       824 2.63780E+01 2.92953E-01-5.69969E-02-1.83284E+00 2.97547E-13-5.81373E-13
 -1       825 2.43299E+01 1.12389E+00-2.02526E-02 2.43369E+00 2.99906E-13 1.32192E-13
 -1       826 2.00008E+01-1.76000E-03 1.24122E-07 1.00894E-03-1.35640E-13 3.59303E-14
 -1       827 2.36137E+01-1.59288E+00 1.87860E-05-7.76073E-01-1.56693E-14-2.67221E-13
 -1       828 2.40897E+01-7.70494E-01-4.76365E-03-1.60284E+00 1.35390E-13-3.39325E-13
 -1       829 1.10767E+01 5.61546E-01 7.33988E-02-2.07484E+00 1.63468E-13 5.67831E-13
 -1       830 1.72319E+01-8.68861E-01 3.30369E-02-4.56318E+00-3.83322E-13-4.29941E-13
 -1       831 2.82260E+01-1.90976E+00-4.49890E-02 1.46411E+00-2.51580E-13-9.51426E-13
 -1       832 2.37160E+01-1.39017E+00-1.29921E-02-4.40306E-02-6.51449E-14-2.71367E-14
 -1       833 1.38081E+01-1.13853E+00 7.17779E-02 4.74874E+00-4.01830E-13 3.25670E-13
 -1       834 2.24875E+01-3.72668E+00 3.25723E-02-3.39292E+00 4.13863E-13-1.44830E-13
 -1       835 2.02394E+01-1.43991E+00 3.27937E-02 2.66600E+00 1.89940E-13-1.72837E-13
 -1       836 2.60334E+01 8.89144E-01-5.06935E-02 2.42622E+00 3.25724E-13 2.18560E-13
 -1       837 2.59099E+01-2.27117E+00-3.05645E-02-4.34608E-01 2.10387E-14-5.56413E-13
 -1       838 2.39191E+01 2.72895E+00-3.15814E-02 1.77358E+00 4.48580E-13 2.08097E-14
 -1       839 1.62655E+01-1.29706E-01 6.45990E-02 3.51467E+00 1.85067E-13-3.97751E-13
 -1       840 1.86164E+01-3.03186E+00 4.62716E-02 5.03446E+00-4.62770E-13-1.66320E-13
 -1       841 2.39841E+01-4.28956E-01 1.19465E-03 1.93175E+00 1.79602E-13 8.15533E-14
 -1       842 2.31058E+01-3.84718E+00 1.84720E-02 3.00333E+00-3.62963E-13-4.12543E-13
 -1       843 2.54426E+01-1.70443E+00-8.32938E-03 3.30785E-01-2.15401E-14 1.57605E-13
 -1       844 2.27299E+01-2.29234E+00 1.62914E-02-2.44904E+00-2.53038E-13-5.68766E-14
 -1       845 2.52122E+01 3.46249E+00-6.86511E-02 2.15996E+00 5.80378E-13 5.56261E-14
 -1       846 2.00011E+01-1.90757E-03 1.30109E-07-5.36272E-04 1.65907E-13 1.38808E-13
 -1       847 2.00008E+01-1.75525E-03 1.22692E-07-1.01257E-03 5.24949E-14-3.64222E-13
 -1       848 2.42574E+01 3.39439E-02-5.23234E-03 2.27307E+00 2.09472E-13 1.55419E-13
 -1       849 2.38791E+01 3.93606E+00-6.03701E-02 1.30035E-01 5.32809E-13-1.63295E-13
 -1       850 1.20641E+01 1.08771E+00 4.91090E-02 7.34112E-02 3.23341E-14 5.60428E-13
 -1       851 2.00005E+01-1.55289E-03-4.44300E-07-1.31246E-03-1.23211E-13-2.90201E-13
 -1       852 2.53044E+01-7.35438E-01-9.56480E-03 1.80812E+00 1.26852E-13 1.50339E-13
 -1       853 2.44604E+01-3.12364E+00-3.13687E-03 8.12404E-01-1.43610E-13-3.79247E-13
 -1       854 2.00002E+01-1.35192E-03-1.02409E-06 1.55666E-03 1.33454E-13 1.03362E-13
 -1       855 2.00001E+01-1.32196E-03-1.53092E-07-1.45815E-03-8.18062E-14 1.49162E-15
 -1       856 1.67218E+01-2.34480E-01 1.62467E-02-3.28948E+00 1.45811E-13 1.01135E-13
 -1       857 1.72581E+01 4.61665E-01 1.11545E-03-2.37236E+00 4.13224E-14 1.22052E-13
 -1       858 1.78039E+01 8.41941E-01 3.04677E-04-1.80225E+00-1.08886E-13 9.12363E-14
 -1       859 1.82924E+01 9.79303E-01-1.54781E-04-1.42694E+00-1.42799E-13 1.04589E-13
 -1       860 1.87014E+01 9.84691E-01-9.88404E-05-1.15910E+00-9.44938E-14-1.38671E-13
 -1       861 1.90312E+01 9.17172E-01-9.34390E-06-9.51917E-01-8.13954E-14-1.26125E-13
 -1       862 1.92896E+01 8.14291E-01 1.60835E-05-7.81693E-01-9.94438E-15-9.25523E-15
 -1       863 1.94879E+01 6.98973E-01 1.77344E-05-6.37252E-01 1.07143E-13 1.80964E-13
 -1       864 1.96373E+01 5.84895E-01 1.07840E-05-5.13546E-01 1.04242E-13 1.57329E-13
 -1       865 1.97481E+01 4.79457E-01 6.01478E-06-4.08100E-01 2.15507E-13 9.17368E-15
 -1       866 1.98291E+01 3.86159E-01 3.37007E-06-3.19328E-01 4.38935E-14 3.89229E-14
 -1       867 1.98874E+01 3.06105E-01 1.90857E-06-2.45760E-01-3.32865E-15 1.05547E-13
 -1       868 1.99287E+01 2.39011E-01 1.05867E-06-1.85820E-01-7.33002E-14 5.52779E-14
 -1       869 1.99574E+01 1.83851E-01 5.40964E-07-1.37829E-01-2.11526E-13 8.30965E-14
 -1       870 1.99770E+01 1.39259E-01 2.18616E-07-1.00073E-01-2.42505E-14 2.14492E-13
 -1       871 1.99900E+01 1.03762E-01 1.86060E-08-7.08930E-02-1.80636E-13 2.57448E-13
 -1       872 1.99983E+01 7.59227E-02-1.01544E-07-4.87499E-02-1.19867E-13 6.79334E-14
 -1       873 2.00033E+01 5.44116E-02-1.68345E-07-3.22684E-02-8.43634E-14-2.16808E-13
 -1       874 2.00060E+01 3.80444E-02-1.99328E-07-2.02577E-02-1.20418E-13-1.91059E-13
 -1       875 2.00072E+01 2.57945E-02-2.06620E-07-1.17125E-02-1.40422E-13 3.10144E-13
 -1       876 2.00074E+01 1.67910E-02-1.98838E-07-5.80442E-03-1.79641E-13 1.56461E-13
 -1       877 2.00071E+01 1.03091E-02-1.82165E-07-1.86435E-03-2.22287E-13 1.97967E-13
 -1       878 2.00064E+01 5.75532E-03-1.61050E-07 6.37572E-04-2.26758E-13 8.12926E-14
 -1       879 2.00056E+01 2.65163E-03-1.38732E-07 2.11322E-03-1.83524E-13 1.89420E-13
 -1       880 2.00047E+01 6.18592E-04-1.17497E-07 2.87680E-03-7.03527E-14 2.35390E-13
 -1       881 2.00038E+01-6.40547E-04-9.79926E-08 3.16333E-03 1.10251E-13 3.89490E-14
 -1       882 2.00030E+01-1.35462E-03-7.71976E-08 3.14494E-03 2.39540E-13-4.17770E-14
 -1       883 2.00023E+01-1.69777E-03-5.16538E-08 2.94456E-03-1.56195E-13-1.45628E-13
 -1       884 2.00018E+01-1.80063E-03-1.58154E-08 2.64722E-03-2.12324E-13-4.35428E-13
 -1       885 2.00013E+01-1.76006E-03-1.32559E-07 2.31001E-03-2.14263E-13-2.96946E-13
 -1       886 2.00008E+01-1.64892E-03-1.86680E-07 1.96590E-03-1.08637E-14-5.27334E-14
 -1       887 2.06025E+01-7.41336E-01 1.24477E-04 1.40875E+00-1.16416E-13-4.21845E-14
 -1       888 2.12412E+01-1.34181E+00 1.48537E-04 1.40340E+00-1.20809E-13-7.45139E-14
 -1       889 2.21733E+01-2.00263E+00-9.87496E-04 1.19326E+00-1.86106E-13-1.83311E-13
 -1       890 2.02099E+01-2.80324E-01 2.70149E-04 1.30224E+00-1.36312E-13-6.23361E-14
 -1       891 1.99911E+01 3.48823E-02 1.17650E-04 1.15045E+00-5.46419E-14-2.25458E-14
 -1       892 1.98850E+01 2.28062E-01 3.41574E-05 9.87089E-01 6.47961E-16 4.33897E-15
 -1       893 1.98474E+01 3.28794E-01 1.49521E-05 8.28954E-01-8.76961E-14 8.93173E-14
 -1       894 1.98475E+01 3.65546E-01 1.35620E-05 6.83678E-01-1.26212E-13 2.27562E-13
 -1       895 1.98663E+01 3.61094E-01 7.54584E-06 5.54458E-01-1.08885E-13 1.92004E-13
 -1       896 1.98921E+01 3.32404E-01 5.17757E-06 4.42344E-01-1.25418E-13-8.52754E-15
 -1       897 1.99185E+01 2.91486E-01 3.70894E-06 3.47146E-01-3.18817E-14 3.48462E-14
 -1       898 1.99421E+01 2.46381E-01 2.69583E-06 2.67883E-01 1.18143E-13 3.81828E-14
 -1       899 1.99616E+01 2.02125E-01 1.97078E-06 2.03094E-01-4.65169E-14-9.93665E-14
 -1       900 1.99769E+01 1.61597E-01 1.43437E-06 1.51073E-01-2.85189E-15-1.25339E-13
 -1       901 1.99881E+01 1.26197E-01 1.03108E-06 1.10032E-01-1.24361E-13 2.11749E-14
 -1       902 1.99960E+01 9.63599E-02 7.27808E-07 7.82201E-02-9.36930E-14 1.61531E-13
 -1       903 2.00012E+01 7.19317E-02 5.01828E-07 5.40060E-02-1.17814E-13 5.26066E-14
 -1       904 2.00044E+01 5.24262E-02 3.35752E-07 3.59253E-02 6.16746E-14 2.40116E-13
 -1       905 2.00061E+01 3.72030E-02 2.15729E-07 2.27044E-02-1.08906E-13 1.79974E-13
 -1       906 2.00067E+01 2.55790E-02 1.30690E-07 1.32637E-02-8.17105E-14-9.71289E-15
 -1       907 2.00067E+01 1.68969E-02 7.18747E-08 6.70948E-03 9.59355E-15-3.25174E-15
 -1       908 2.00062E+01 1.05617E-02 3.24288E-08 2.31695E-03 6.00873E-14 1.06076E-13
 -1       909 2.00055E+01 6.05814E-03 7.03685E-09-4.90208E-04-5.43754E-14 1.37205E-13
 -1       910 2.00047E+01 2.95370E-03-8.43859E-09-2.16173E-03-2.53041E-13 1.62631E-13
 -1       911 2.00039E+01 8.95281E-04-1.73441E-08-3.04199E-03-2.50972E-13 2.94440E-13
 -1       912 2.00032E+01-3.99095E-04-2.26592E-08-3.38954E-03-7.29643E-14-1.08226E-13
 -1       913 2.00025E+01-1.15012E-03-2.72656E-08-3.39443E-03 3.64734E-14-2.02395E-13
 -1       914 2.00019E+01-1.52758E-03-3.47032E-08-3.19303E-03 2.86320E-13-6.10870E-14
 -1       915 2.00014E+01-1.66015E-03-2.63537E-08-2.88010E-03 1.27811E-14-3.10605E-15
 -1       916 2.00010E+01-1.64356E-03-5.53226E-09-2.51885E-03 6.10525E-16 3.37560E-14
 -1       917 2.00006E+01-1.54931E-03-2.58073E-07-2.15043E-03-2.03399E-13 1.12563E-13
 -1       918 2.00004E+01-1.43145E-03-8.80405E-07-1.79761E-03-4.22941E-13 2.03019E-13
 -1       919 2.00016E+01-2.08268E-03 2.18266E-07 3.16134E-04-3.36788E-13 1.78827E-13
 -1       920 1.69813E+01-1.39703E+00 2.35066E-02 4.13418E+00-4.24626E-13-3.80685E-14
 -1       921 1.40501E+01 1.61801E-01 3.32804E-02 3.03825E+00-2.39528E-13 2.98712E-13
 -1       922 2.30896E+01-2.63216E+00 4.13413E-04 1.14359E+00-2.16356E-13-3.10398E-13
 -1       923 2.07379E+01-2.79402E+00 1.97411E-02 3.45960E+00-3.16203E-13-3.42183E-13
 -1       924 1.38708E+01 9.71218E-01 2.28957E-02 1.46258E+00-1.00092E-13 4.26979E-13
 -1       925 1.39004E+01 8.38519E-01 4.85905E-02-1.88245E+00 1.53546E-13 4.21485E-13
 -1       926 2.00005E+01-1.49318E-03-3.30323E-07 1.76421E-03 1.85118E-13-2.38461E-13
 -1       927 2.00014E+01-1.98067E-03-2.42772E-07 9.17116E-04 1.25882E-13-2.60746E-13
 -1       928 2.00014E+01-1.97171E-03-2.72497E-08-9.24162E-04 2.00340E-13-7.93986E-14
 -1       929 2.00016E+01-2.08149E-03-4.56824E-09-3.20356E-04-1.48146E-13-1.89235E-13
 -1       930 2.00011E+01-1.79353E-03 3.56534E-07-1.35138E-03 1.55828E-13-1.26543E-13
 -1       931 2.22606E+01-2.91795E+00-9.59158E-04 2.30346E+00-3.01297E-13-1.98822E-13
 -1       932 2.00009E+01-1.72318E-03 7.22422E-07 1.46745E-03 9.15284E-14 4.13897E-14
 -1       933 1.41621E+01 1.25370E+00 1.23391E-02-3.02630E-01 2.29224E-14 4.35903E-13
 -1       934 2.00499E+01-9.13754E-01-1.47018E-03 1.96737E+00-1.29771E-13-1.10788E-13
 -1       935 1.62651E+01 1.12820E+00 4.65115E-03-1.33780E+00-9.85704E-14 3.21894E-13
 -1       936 1.71912E+01 1.20133E+00-1.32877E-03-1.03396E+00-1.20710E-13 2.54742E-13
 -1       937 1.78835E+01 1.18297E+00-5.07097E-04-8.41179E-01-2.30622E-13 1.22424E-13
 -1       938 1.84090E+01 1.10068E+00-2.05095E-04-7.04988E-01-1.02474E-13 1.74873E-14
 -1       939 1.88103E+01 9.87033E-01-4.83353E-05-5.96661E-01 3.19731E-14 9.13207E-14
 -1       940 1.91178E+01 8.59129E-01-4.67448E-06-5.02587E-01 1.01614E-13 6.95172E-14
 -1       941 1.93527E+01 7.30151E-01-1.01676E-05-4.18307E-01 1.08985E-13-1.12265E-14
 -1       942 1.95311E+01 6.07958E-01-1.18837E-05-3.42599E-01 1.24010E-13 5.07225E-14
 -1       943 1.96656E+01 4.97148E-01-1.10356E-05-2.75640E-01 5.32190E-14-1.25188E-13
 -1       944 1.97660E+01 3.99873E-01-9.40098E-06-2.17648E-01 2.50287E-14-6.04822E-14
 -1       945 1.98401E+01 3.16633E-01-7.70040E-06-1.68556E-01-6.21148E-14 2.23688E-14
 -1       946 1.98941E+01 2.46902E-01-6.16145E-06-1.27932E-01-8.91957E-14 4.41337E-15
 -1       947 1.99328E+01 1.89564E-01-4.83213E-06-9.50451E-02-5.96083E-14 6.68775E-14
 -1       948 1.99601E+01 1.43208E-01-3.71554E-06-6.89755E-02-1.25593E-14-9.53504E-14
 -1       949 1.99788E+01 1.06325E-01-2.80004E-06-4.87314E-02-2.20564E-13 2.92194E-13
 -1       950 1.99914E+01 7.74323E-02-2.06605E-06-3.33322E-02-2.53952E-13 2.64004E-13
 -1       951 1.99994E+01 5.51529E-02-1.48985E-06-2.18661E-02-1.21675E-13 1.98383E-13
 -1       952 2.00042E+01 3.82507E-02-1.04657E-06-1.35229E-02 1.26372E-14 3.47541E-14
 -1       953 2.00068E+01 2.56499E-02-7.12352E-07-7.60778E-03-1.97095E-13-7.36110E-14
 -1       954 2.00079E+01 1.64352E-02-4.65633E-07-3.54165E-03-1.47141E-13 1.11659E-13
 -1       955 2.00080E+01 9.84397E-03-2.87774E-07-8.54070E-04 1.27881E-14 3.73862E-13
 -1       956 2.00076E+01 5.25189E-03-1.63379E-07 8.28841E-04-1.10848E-13 5.82707E-13
 -1       957 2.00068E+01 2.15659E-03-8.04675E-08 1.79798E-03-5.83512E-14 5.49694E-13
 -1       958 2.00059E+01 1.60140E-04-2.99366E-08 2.27507E-03-1.18367E-13 3.35491E-13
 -1       959 2.00049E+01-1.04781E-03-1.80326E-09 2.42554E-03 1.46073E-14-1.71503E-13
 -1       960 2.00040E+01-1.70580E-03 1.53864E-08 2.37018E-03 1.23908E-13-4.26552E-13
 -1       961 2.00031E+01-1.99514E-03 4.04309E-08 2.19474E-03-3.22084E-13-1.33458E-13
 -1       962 2.00024E+01-2.05007E-03-8.19305E-09 1.95816E-03-5.94839E-14-3.39762E-14
 -1       963 2.00017E+01-1.97556E-03-1.23719E-07 1.69832E-03 1.23529E-13 4.62914E-14
 -1       964 1.94883E+01 7.86437E-02 2.51460E-05 1.37094E+00-8.60861E-14-6.40529E-14
 -1       965 1.96573E+01-3.17835E-01-3.65775E-04 1.66350E+00-1.61764E-13-1.11289E-13
 -1       966 2.08161E+01-1.73797E+00 1.91350E-03 2.19958E+00-2.38773E-13-1.99889E-13
 -1       967 1.94473E+01 3.18545E-01 5.66156E-05 1.11619E+00-7.00517E-14 7.67972E-15
 -1       968 1.94775E+01 4.42520E-01-4.05015E-05 9.01522E-01-1.87127E-13 1.02111E-13
 -1       969 1.95425E+01 4.87800E-01-2.48709E-05 7.22777E-01-1.66856E-13 1.24840E-13
 -1       970 1.96198E+01 4.82163E-01-3.44082E-05 5.74763E-01-4.41289E-14 3.96089E-14
 -1       971 1.96969E+01 4.45895E-01-3.04695E-05 4.52729E-01-4.06097E-14 4.10435E-14
 -1       972 1.97669E+01 3.93620E-01-2.51628E-05 3.52783E-01-1.23618E-13 1.40798E-14
 -1       973 1.98268E+01 3.35362E-01-2.02073E-05 2.71571E-01-5.61600E-15-9.42095E-14
 -1       974 1.98759E+01 2.77563E-01-1.58510E-05 2.06207E-01 7.72844E-14-1.80497E-14
 -1       975 1.99145E+01 2.24045E-01-1.21696E-05 1.54181E-01 1.95761E-14-5.40839E-14
 -1       976 1.99441E+01 1.76788E-01-9.14224E-06 1.13280E-01-1.43587E-13-4.53180E-14
 -1       977 1.99659E+01 1.36526E-01-6.70675E-06 8.15586E-02-1.57706E-13-2.75174E-14
 -1       978 1.99816E+01 1.03205E-01-4.78698E-06 5.73171E-02-1.89463E-13 7.77809E-14
 -1       979 1.99923E+01 7.63072E-02-3.30485E-06 3.90875E-02-1.89008E-13 2.84435E-14
 -1       980 1.99994E+01 5.50758E-02-2.18562E-06 2.56214E-02-8.42131E-14 3.59361E-13
 -1       981 2.00037E+01 3.86694E-02-1.36067E-06 1.58735E-02 5.01711E-14 4.41529E-13
 -1       982 2.00061E+01 2.62551E-02-7.69092E-07 8.98272E-03-3.49141E-14 4.71181E-13
 -1       983 2.00072E+01 1.70637E-02-3.58474E-07 4.25072E-03 8.85127E-15 2.98101E-13
 -1       984 2.00073E+01 1.04175E-02-8.49660E-08 1.12041E-03 6.67624E-14 3.87102E-13
 -1       985 2.00069E+01 5.73995E-03 8.71435E-08-8.45606E-04-2.34019E-13 1.31490E-13
 -1       986 2.00062E+01 2.55381E-03 1.86061E-07-1.98508E-03-2.31179E-13-1.48544E-13
 -1       987 2.00054E+01 4.73471E-04 2.33044E-07-2.55429E-03 6.53009E-14-1.19906E-13
 -1       988 2.00045E+01-8.06342E-04 2.42640E-07-2.74404E-03-7.24353E-14 7.85970E-14
 -1       989 2.00037E+01-1.52271E-03 2.10719E-07-2.69351E-03 8.32518E-14-8.58833E-14
 -1       990 2.00029E+01-1.85731E-03 1.77101E-07-2.50209E-03 1.69614E-14-7.56423E-15
 -1       991 2.00022E+01-1.94702E-03 8.33104E-08-2.23730E-03-1.19190E-13 3.27491E-13
 -1       992 2.00016E+01-1.89399E-03-1.85109E-07-1.94441E-03 8.28982E-15 4.48361E-13
 -1       993 1.64995E+01-2.01132E-01 9.61684E-03 2.96277E+00-2.89281E-13-6.21573E-14
 -1       994 1.53961E+01 9.89337E-01 9.10581E-03-1.66646E+00 7.82937E-14 4.08950E-13
 -1       995 1.90826E+01-1.43781E+00 5.45598E-03 3.13348E+00-3.25529E-13-1.29514E-13
 -1       996 2.00021E+01-2.17524E-03 2.41816E-07-7.26241E-04-2.24817E-13-6.37933E-13
 -1       997 2.00011E+01-1.76648E-03 1.99861E-06-1.65097E-03-5.70423E-14 1.38402E-13
 -1       998 2.00023E+01-2.23167E-03 2.63230E-07-4.16853E-06-4.35999E-13-7.22986E-14
 -1       999 2.00018E+01-2.02927E-03-4.68264E-07-1.27649E-03 1.00967E-13-5.75144E-14
 -1      1000 2.00021E+01-2.18076E-03-6.99513E-07 7.17715E-04-2.86226E-13 2.55608E-13
 -1      1001 1.57955E+01 6.27467E-01 8.96938E-03 1.98648E+00-2.24508E-13 1.42411E-13
 -1      1002 1.86885E+01-5.60710E-01-1.07384E-04 2.45330E+00-1.83041E-13-1.05773E-13
 -1      1003 1.71735E+01 1.28412E+00-7.67131E-04-2.67130E-01-2.41781E-13 1.98045E-13
 -1      1004 1.78693E+01 1.20575E+00-2.40642E-04-2.75295E-01-1.67721E-13 2.59329E-13
 -1      1005 1.83875E+01 1.09904E+00-1.59763E-04-2.75535E-01-4.39632E-14 2.36549E-13
 -1      1006 1.87859E+01 9.72475E-01-4.00044E-05-2.62282E-01 1.05873E-14 1.25585E-13
 -1      1007 1.90900E+01 8.42467E-01-1.24317E-04-2.40055E-01 6.15916E-14 2.18322E-13
 -1      1008 1.93253E+01 7.14119E-01-9.59667E-05-2.11595E-01-8.43935E-16 3.60265E-14
 -1      1009 1.95059E+01 5.93881E-01-8.02287E-05-1.80516E-01 1.74668E-15-1.98962E-13
 -1      1010 1.96438E+01 4.85263E-01-6.56208E-05-1.49452E-01 6.58060E-14-1.87603E-13
 -1      1011 1.97481E+01 3.89946E-01-5.31835E-05-1.20376E-01-6.58623E-14-1.03854E-13
 -1      1012 1.98260E+01 3.08326E-01-4.27432E-05-9.44844E-02-1.36253E-13-4.16770E-14
 -1      1013 1.98836E+01 2.39909E-01-3.39741E-05-7.23238E-02-8.25539E-14-5.05388E-14
 -1      1014 1.99253E+01 1.83647E-01-2.66472E-05-5.39727E-02-7.56380E-14-5.99196E-14
 -1      1015 1.99550E+01 1.38191E-01-2.05928E-05-3.92067E-02 4.99900E-14-2.44386E-13
 -1      1016 1.99757E+01 1.02081E-01-1.56601E-05-2.76317E-02-1.87058E-13-2.18679E-13
 -1      1017 1.99896E+01 7.38637E-02-1.17028E-05-1.87806E-02-2.33497E-13 3.66639E-15
 -1      1018 1.99986E+01 5.21781E-02-8.57833E-06-1.21778E-02-7.09534E-14-1.69665E-14
 -1      1019 2.00040E+01 3.57982E-02-6.15170E-06-7.37871E-03-1.30785E-13-1.45849E-14
 -1      1020 2.00071E+01 2.36534E-02-4.29885E-06-3.98980E-03-5.11997E-14 7.00511E-14
 -1      1021 2.00084E+01 1.48324E-02-2.90947E-06-1.67720E-03 1.30663E-14 1.89412E-13
 -1      1022 2.00086E+01 8.57636E-03-1.88821E-06-1.66552E-04-5.08680E-14-4.05902E-14
 -1      1023 2.00082E+01 4.26531E-03-1.15508E-06 7.61449E-04-5.70002E-14-1.33940E-13
 -1      1024 2.00074E+01 1.40165E-03-6.45268E-07 1.27782E-03-3.42303E-13-9.57660E-14
 -1      1025 2.00064E+01-4.07385E-04-3.06414E-07 1.51281E-03-1.62671E-13 2.22774E-14
 -1      1026 2.00054E+01-1.46687E-03-6.68679E-08 1.56315E-03 3.51306E-14 1.77187E-13
 -1      1027 2.00044E+01-2.00944E-03 9.30865E-08 1.49928E-03 6.63851E-14 1.22593E-13
 -1      1028 2.00034E+01-2.21071E-03 9.19988E-07 1.37219E-03-8.63947E-14 4.46227E-13
 -1      1029 2.00026E+01-2.20953E-03 1.67108E-06 1.21685E-03-1.08512E-13 5.17560E-13
 -1      1030 1.90249E+01 5.93394E-01-2.87324E-04 9.24508E-01-1.66185E-13 2.05478E-13
 -1      1031 1.91841E+01 6.32284E-01-1.07236E-04 7.11803E-01-1.14970E-13 2.92736E-14
 -1      1032 1.93366E+01 6.17493E-01-1.52310E-04 5.48027E-01-5.27310E-14-5.02566E-14
 -1      1033 1.94753E+01 5.68964E-01-1.17932E-04 4.20815E-01-5.36250E-14 1.78995E-15
 -1      1034 1.95954E+01 5.02728E-01-9.58923E-05 3.21780E-01 2.84625E-14-1.25923E-13
 -1      1035 1.96958E+01 4.29910E-01-7.94796E-05 2.44461E-01-1.02710E-14-1.25987E-13
 -1      1036 1.97773E+01 3.57775E-01-6.55475E-05 1.84108E-01-1.73582E-13-6.51444E-14
 -1      1037 1.98417E+01 2.90755E-01-5.33355E-05 1.37145E-01-4.44769E-14 7.40522E-14
 -1      1038 1.98913E+01 2.31232E-01-4.26750E-05 1.00808E-01-8.04036E-14 1.51376E-13
 -1      1039 1.99287E+01 1.80163E-01-3.35242E-05 7.29129E-02-5.03680E-14 2.75460E-14
 -1      1040 1.99560E+01 1.37566E-01-2.58301E-05 5.17103E-02-2.31839E-13 6.45233E-14
 -1      1041 1.99755E+01 1.02888E-01-1.94972E-05 3.57849E-02-2.11175E-13 1.59883E-13
 -1      1042 1.99889E+01 7.52683E-02-1.43936E-05 2.39898E-02-3.25677E-13 2.19128E-13
 -1      1043 1.99978E+01 5.37165E-02-1.03655E-05 1.53968E-02-1.95160E-13 2.83352E-13
 -1      1044 2.00033E+01 3.72343E-02-7.25156E-06 9.25867E-03 8.94846E-14 2.70202E-13
 -1      1045 2.00064E+01 2.48852E-02-4.89495E-06 4.97827E-03 5.80399E-14 1.74306E-13
 -1      1046 2.00078E+01 1.58325E-02-3.15103E-06 2.08303E-03 3.68096E-15 2.40137E-13
 -1      1047 2.00082E+01 9.35606E-03-1.89185E-06 2.03100E-04 1.41882E-13 3.93081E-13
 -1      1048 2.00079E+01 4.85325E-03-1.00787E-06-9.47394E-04-3.64819E-14 1.99330E-13
 -1      1049 2.00071E+01 1.83190E-03-4.07924E-07-1.58631E-03-7.58616E-14 3.66500E-14
 -1      1050 2.00062E+01-1.01589E-04-1.80686E-08-1.87705E-03-4.81098E-14-8.49823E-15
 -1      1051 2.00052E+01-1.25609E-03 2.35517E-07-1.93978E-03 2.36166E-13-1.12428E-13
 -1      1052 2.00043E+01-1.86850E-03 4.37924E-07-1.86056E-03 4.99316E-15 6.99973E-15
 -1      1053 2.00034E+01-2.11897E-03 6.07851E-07-1.70435E-03-1.46760E-13-8.62878E-14
 -1      1054 2.00026E+01-2.15484E-03 1.41674E-07-1.50784E-03-1.54163E-13-3.52390E-13
 -1      1055 1.53263E+01 1.30768E+00 5.06112E-03-2.61863E-01-1.32977E-13 2.48741E-13
 -1      1056 1.51705E+01 1.13921E+00 5.10159E-03 9.04622E-01-2.20209E-13 3.60134E-13
 -1      1057 1.88827E+01 4.63051E-01-9.79302E-05 1.20631E+00-2.13806E-13 8.26517E-14
 -1      1058 2.00029E+01-2.31453E-03-1.49683E-06-4.26371E-04-2.69161E-13-5.33671E-13
 -1      1059 1.63863E+01 1.31747E+00 4.76541E-04-2.53134E-01-1.56020E-13 2.12546E-13
 -1      1060 1.86052E+01 2.32733E-02 3.91159E-04 1.87025E+00-2.15091E-13-4.35170E-14
 -1      1061 1.87330E+01 2.94391E-01-1.02177E-04 1.49396E+00-1.79589E-13 1.56819E-15
 -1      1062 1.74542E+01 2.45205E-01 4.04071E-03 2.08467E+00-2.45637E-13-1.21212E-14
 -1      1063 2.00029E+01-2.31398E-03-1.29688E-06 4.14764E-04-2.81170E-13 2.71520E-13
 -1      1064 1.75430E+01 1.17078E+00 3.03194E-03 3.17512E-01-1.70281E-13 2.56250E-13
 -1      1065 1.81041E+01 1.11210E+00 1.13866E-03 1.67793E-01-9.65632E-14 1.93401E-13
 -1      1066 1.85434E+01 1.01474E+00 5.05125E-04 7.75897E-02-6.74127E-14 1.20457E-13
 -1      1067 1.88895E+01 9.00708E-01-1.02575E-04 1.94297E-02-7.38135E-14 1.24699E-13
 -1      1068 1.91599E+01 7.81247E-01-1.83291E-04-1.64100E-02-9.14784E-14 7.52695E-14
 -1      1069 1.93717E+01 6.63487E-01-1.31703E-04-3.39447E-02-9.39580E-14 1.23057E-13
 -1      1070 1.95368E+01 5.52312E-01-8.71388E-05-4.00926E-02-3.74624E-14 1.92181E-14
 -1      1071 1.96645E+01 4.51263E-01-5.57402E-05-3.95374E-02-9.17456E-14-1.93701E-13
 -1      1072 1.97621E+01 3.62235E-01-3.40843E-05-3.54251E-02-2.59878E-14-3.33890E-13
 -1      1073 1.98357E+01 2.85826E-01-1.92629E-05-2.97892E-02-1.81610E-14-1.78458E-13
 -1      1074 1.98903E+01 2.21728E-01-9.29957E-06-2.38700E-02-2.28757E-13-1.07765E-13
 -1      1075 1.99301E+01 1.69042E-01-2.80659E-06-1.83614E-02-8.87996E-14-2.61588E-13
 -1      1076 1.99584E+01 1.26545E-01 1.22642E-06-1.35965E-02-5.77081E-14-3.54476E-13
 -1      1077 1.99781E+01 9.28737E-02 3.54474E-06-9.68346E-03-1.16020E-13-2.81663E-13
 -1      1078 1.99914E+01 6.66573E-02 4.69658E-06-6.59986E-03-9.57977E-14-1.63042E-13
 -1      1079 1.99999E+01 4.66022E-02 5.08080E-06-4.25576E-03-7.12521E-14-3.12351E-14
 -1      1080 2.00050E+01 3.15394E-02 4.98319E-06-2.53380E-03-2.24800E-13-5.96384E-14
 -1      1081 2.00077E+01 2.04481E-02 4.60445E-06-1.31299E-03 1.70205E-14-1.77999E-13
 -1      1082 2.00089E+01 1.24601E-02 4.08214E-06-4.81626E-04 9.91754E-14-8.22455E-14
 -1      1083 2.00090E+01 6.85436E-03 3.50759E-06 5.66954E-05-3.14775E-14 2.43985E-13
 -1      1084 2.00084E+01 3.04386E-03 2.93941E-06 3.81366E-04 1.13221E-13 1.29816E-13
 -1      1085 2.00075E+01 5.59324E-04 2.41659E-06 5.55440E-04-2.10302E-14 4.11218E-13
 -1      1086 2.00065E+01-9.67885E-04 1.97985E-06 6.27622E-04 1.04282E-13 3.21528E-13
 -1      1087 2.00054E+01-1.82268E-03 1.59006E-06 6.35098E-04 6.61021E-14 3.93727E-13
 -1      1088 2.00043E+01-2.22431E-03-2.74501E-06 5.99769E-04 1.64343E-13 4.90864E-13
 -1      1089 2.00036E+01-2.31170E-03-1.61362E-06 5.06839E-04 6.69284E-14 5.46532E-13
 -1      1090 1.90227E+01 7.66641E-01 1.54872E-05 4.63860E-01 8.92415E-15-2.66865E-13
 -1      1091 1.87812E+01 8.00829E-01 1.35874E-03 6.30971E-01-6.73608E-14-1.91087E-13
 -1      1092 1.94121E+01 6.15975E-01 1.44804E-04 2.50283E-01 6.85410E-14-1.88436E-13
 -1      1093 1.95566E+01 5.26848E-01 1.12793E-04 1.83749E-01-1.24730E-14-1.29796E-13
 -1      1094 1.96725E+01 4.39616E-01 8.30074E-05 1.34530E-01-2.51729E-13 1.05604E-13
 -1      1095 1.97637E+01 3.58838E-01 6.01236E-05 9.80165E-02-1.76404E-13 1.65011E-13
 -1      1096 1.98342E+01 2.87016E-01 4.34168E-05 7.08909E-02-7.78549E-14 1.80017E-13
 -1      1097 1.98876E+01 2.25172E-01 3.13152E-05 5.07504E-02-1.40421E-14 4.71461E-16
 -1      1098 1.99272E+01 1.73322E-01 2.25024E-05 3.58364E-02-2.37566E-13 1.55200E-13
 -1      1099 1.99558E+01 1.30848E-01 1.60411E-05 2.48481E-02-2.99913E-13 2.05034E-13
 -1      1100 1.99760E+01 9.67785E-02 1.12861E-05 1.68138E-02-1.72592E-13 1.91282E-14
 -1      1101 1.99897E+01 6.99834E-02 7.78870E-06 1.10012E-02-1.34651E-13-9.92947E-14
 -1      1102 1.99987E+01 4.93104E-02 5.22941E-06 6.85408E-03-4.17272E-14-2.34923E-13
 -1      1103 2.00042E+01 3.36673E-02 3.37459E-06 3.94864E-03-5.51550E-14-1.25955E-13
 -1      1104 2.00072E+01 2.20692E-02 2.04950E-06 1.96108E-03-1.21522E-14 3.83612E-14
 -1      1105 2.00085E+01 1.36599E-02 1.12139E-06 6.44366E-04 6.58826E-14-1.97232E-14
 -1      1106 2.00088E+01 7.71669E-03 4.88742E-07-1.89169E-04 1.15542E-13-3.45559E-14
 -1      1107 2.00083E+01 3.64399E-03 7.48901E-08-6.81181E-04 3.92839E-14-1.18947E-13
 -1      1108 2.00075E+01 9.61336E-04-1.74825E-07-9.37602E-04 9.85091E-14-2.98017E-13
 -1      1109 2.00065E+01-7.11628E-04-2.98743E-07-1.03682E-03 1.20877E-13-2.66594E-13
 -1      1110 2.00054E+01-1.67148E-03-3.86454E-07-1.03635E-03 3.93557E-14-3.54007E-13
 -1      1111 2.00044E+01-2.14586E-03 2.30911E-08-9.75001E-04 1.21505E-14-4.18896E-13
 -1      1112 2.00036E+01-2.30291E-03-1.20428E-06-6.99187E-04 1.24491E-13-6.31459E-13
 -1      1113 1.85045E+01 7.90468E-01 3.85311E-03 8.48611E-01-2.44537E-13-1.33552E-13
 -1      1114 1.92352E+01 6.99696E-01 1.54604E-04 3.40576E-01-2.38476E-14-1.62306E-13
 -1      1115 1.62337E+01 1.20037E+00 1.06542E-03 5.99591E-01-1.37988E-13 3.31077E-13
 -1      1116 2.00037E+01-2.32045E-03 5.90198E-06-6.85508E-05-7.76365E-14-1.21496E-13
 -1      1117 1.81524E+01 7.54440E-01-1.12817E-03 1.09378E+00-2.07650E-13-7.24086E-14
 -1      1118 1.65752E+01 8.49091E-01 1.14250E-03 1.41655E+00-2.32757E-13 1.06792E-13
 -1      1119 1.69827E+01 1.18947E+00 2.46934E-03 4.40899E-01-2.25087E-13 2.39743E-13
 -1      1120 1.84606E+01 9.37166E-01-6.40259E-03 4.66690E-01-1.29695E-13-1.53671E-13
 -1      1121 1.77744E+01 5.36405E-01 6.49959E-04 1.56273E+00-2.19769E-13-4.25111E-14
 -1      1122 1.72793E+01 9.66308E-01-3.59241E-03 9.94439E-01-1.98434E-13 5.36576E-14
 -1      1123 3.44448E+01 1.11550E+01 2.73841E+00-6.98301E+00-3.74145E-14 1.98730E-12
 -1      1124 2.52633E+01 7.70085E+00 4.06095E-01-2.90132E+00-2.45914E-14 5.98188E-13
 -1      1125 2.21161E+01 6.68394E+00 1.63652E-01-1.27206E+00-1.99285E-14-5.07129E-14
 -1      1126 1.95222E+01 5.87812E+00 7.15557E-02-3.31264E-01-1.45439E-14-3.99786E-13
 -1      1127 1.71440E+01 5.13959E+00-1.20999E-02 1.52160E-01-9.38138E-15-6.07753E-13
 -1      1128 1.51455E+01 4.51506E+00-9.52736E-02 1.84520E-01-6.91114E-15-7.34978E-13
 -1      1129 1.38182E+01 4.10000E+00-1.51491E-01-1.68801E-01-5.12090E-15-7.94581E-13
 -1      1130 1.33992E+01 3.97227E+00-1.58260E-01-7.09325E-01-3.25781E-15-8.23923E-13
 -1      1131 1.39273E+01 4.14532E+00-1.09601E-01-1.15206E+00-2.04003E-15-8.27513E-13
 -1      1132 1.51582E+01 4.53932E+00-2.71233E-02-1.26326E+00 3.88578E-16-8.08876E-13
 -1      1133 1.67069E+01 5.02894E+00 5.61900E-02-9.59847E-01 7.77156E-16-7.75427E-13
 -1      1134 1.82193E+01 5.50007E+00 1.14236E-01-3.13579E-01 3.10862E-15-7.28627E-13
 -1      1135 1.95284E+01 5.90005E+00 1.38406E-01 5.48553E-01 7.29972E-15-6.44472E-13
 -1      1136 2.06580E+01 6.23854E+00 1.37127E-01 1.52242E+00 1.25733E-14-4.99115E-13
 -1      1137 2.17990E+01 6.58007E+00 1.34521E-01 2.57680E+00 2.00950E-14-2.11844E-13
 -1      1138 2.35021E+01 7.11860E+00 2.26501E-01 3.89805E+00 2.60347E-14 4.04680E-13
 -1      1139 2.92461E+01 9.27423E+00 1.66786E+00 6.35632E+00 6.36158E-14 1.79115E-12
 -1      1140 3.61168E+01 4.05323E+00 1.26208E+00-4.46867E+00-1.79662E-13 2.88525E-12
 -1      1141 2.83797E+01-1.92339E-01-6.47485E-01 3.16908E-02-6.97220E-14 2.46833E-12
 -1      1142 2.79043E+01-4.19130E-02-1.29883E-01 9.69193E-02-2.30354E-14 1.89261E-12
 -1      1143 2.75911E+01 4.22762E-02 1.02555E-01 1.78067E-02-2.21646E-14 1.45909E-12
 -1      1144 2.64600E+01 8.10993E-02 1.65964E-01-6.86972E-02-1.20372E-14 1.14878E-12
 -1      1145 2.42216E+01 6.12007E-02 1.11817E-01-1.54158E-01-8.72045E-15 1.13001E-12
 -1      1146 2.12137E+01-3.07778E-02-5.92296E-02-1.90273E-01 1.35343E-14 1.07231E-12
 -1      1147 1.85833E+01-1.49053E-01-2.60779E-01-1.23775E-01 1.63931E-15 9.84463E-13
 -1      1148 1.77127E+01-1.91175E-01-3.32102E-01 2.62494E-02 5.84081E-15 6.23588E-13
 -1      1149 1.90946E+01-1.15599E-01-2.08719E-01 1.61213E-01-2.34431E-14 2.80165E-13
 -1      1150 2.18729E+01 9.05851E-03 1.41596E-03 1.99138E-01 1.01151E-14-6.80012E-15
 -1      1151 2.46020E+01 8.95615E-02 1.46188E-01 1.47367E-01 2.25401E-14 1.89959E-13
 -1      1152 2.63014E+01 1.03216E-01 1.75622E-01 6.71627E-02-8.40994E-15 3.97599E-14
 -1      1153 2.67926E+01 7.69301E-02 1.31334E-01 5.21745E-03 4.31773E-15-1.31841E-13
 -1      1154 2.63917E+01 4.17386E-02 6.96409E-02-2.65249E-02-1.59278E-14-1.49422E-13
 -1      1155 2.55203E+01 1.36641E-02 2.14676E-02-3.56031E-02-7.55776E-15-3.09155E-13
 -1      1156 2.45031E+01-3.67602E-03-6.62180E-03-3.29242E-02-2.21823E-14-2.41772E-13
 -1      1157 2.35295E+01-1.22514E-02-1.91318E-02-2.61146E-02-1.37644E-14-2.14342E-13
 -1      1158 2.26852E+01-1.51818E-02-2.23847E-02-1.90300E-02-2.10136E-14-4.62751E-13
 -1      1159 2.19940E+01-1.50130E-02-2.11041E-02-1.31195E-02 7.35046E-15-1.77868E-13
 -1      1160 2.14490E+01-1.34048E-02-1.80713E-02-8.66055E-03 8.35248E-15 6.55292E-14
 -1      1161 2.10302E+01-1.13047E-02-1.46902E-02-5.47920E-03 2.84285E-14 3.43315E-13
 -1      1162 2.07150E+01-9.19735E-03-1.15712E-02-3.28849E-03-4.05806E-15 6.23826E-13
 -1      1163 2.04820E+01-7.29926E-03-8.92256E-03-1.82002E-03-2.71028E-14 7.58733E-14
 -1      1164 2.03127E+01-5.68439E-03-6.76912E-03-8.60727E-04 5.09217E-15-6.21497E-14
 -1      1165 2.01920E+01-4.35690E-03-5.06275E-03-2.53262E-04-2.16445E-14 5.39151E-14
 -1      1166 2.01078E+01-3.29047E-03-3.73348E-03 1.14612E-04 3.84304E-14 2.66990E-13
 -1      1167 2.00507E+01-2.44831E-03-2.71135E-03 3.21605E-04-3.76533E-15 1.29858E-13
 -1      1168 2.00133E+01-1.79265E-03-1.93441E-03 4.22456E-04-1.91611E-15-8.08756E-14
 -1      1169 1.99901E+01-1.28885E-03-1.35064E-03 4.55053E-04 4.32965E-14-1.32713E-13
 -1      1170 1.99768E+01-9.06789E-04-9.17529E-04 4.45477E-04-5.86426E-14-1.90277E-13
 -1      1171 1.99703E+01-6.21073E-04-6.00857E-04 4.11530E-04 5.55186E-14-4.90901E-13
 -1      1172 1.99683E+01-4.10710E-04-3.73308E-04 3.65189E-04-3.55277E-14-4.60176E-13
 -1      1173 1.99691E+01-2.58586E-04-2.13245E-04 3.14325E-04 3.27840E-14-4.31657E-13
 -1      1174 1.99715E+01-1.50907E-04-1.03652E-04 2.63925E-04-2.98545E-14-2.53741E-13
 -1      1175 1.99748E+01-7.66826E-05-3.12597E-05 2.16965E-04 4.69596E-14 8.44886E-14
 -1      1176 1.99784E+01-2.72519E-05 1.41842E-05 1.75035E-04-2.37775E-14-5.60964E-14
 -1      1177 1.99820E+01 4.13303E-06 4.05155E-05 1.38800E-04-3.35881E-14-5.25944E-13
 -1      1178 1.99853E+01 2.26663E-05 5.36499E-05 1.08322E-04 8.96840E-14-6.85406E-13
 -1      1179 1.99882E+01 3.22963E-05 5.79955E-05 8.32952E-05-1.64133E-14-8.71983E-13
 -1      1180 1.99908E+01 3.59894E-05 5.67950E-05 6.32095E-05-4.94125E-15-1.16049E-12
 -1      1181 1.99930E+01 3.59511E-05 5.24117E-05 4.74552E-05 1.41370E-14-9.13243E-13
 -1      1182 1.99948E+01 3.38142E-05 4.65752E-05 3.53873E-05-2.40915E-14-6.11311E-13
 -1      1183 1.99963E+01 3.07948E-05 4.06054E-05 2.63447E-05-3.61653E-14 2.02692E-14
 -1      1184 1.99975E+01 2.78136E-05 3.56219E-05 1.96207E-05 2.60444E-14 3.32423E-14
 -1      1185 1.99984E+01 2.55639E-05 3.26993E-05 1.43513E-05 1.74027E-13 8.38037E-13
 -1      1186 1.99991E+01 2.44693E-05 3.26090E-05 9.26168E-06-7.47729E-14 7.35701E-13
 -1      1187 1.99996E+01 2.39500E-05 3.38263E-05 2.07137E-06-3.08651E-14 2.69152E-13
 -1      1188 1.99998E+01 2.50293E-05 2.50065E-05-1.16407E-05 2.40113E-14-1.19725E-13
 -1      1189 1.99998E+01-1.19947E-05-2.60235E-05-1.18578E-05 4.64474E-14-5.18184E-14
 -1      1190 3.23239E+01 6.12906E-01 3.86045E-01 2.16621E+00-2.89907E-14 2.98050E-12
 -1      1191 2.41987E+01-4.46171E-02-5.93804E-01 1.05118E-01 2.27804E-14 2.26422E-12
 -1      1192 2.28541E+01-9.04830E-03-1.46047E-01-1.20192E-03 2.27396E-14 1.56665E-12
 -1      1193 2.18851E+01 8.71726E-03 1.17083E-02-2.79152E-03 1.38331E-14 1.12210E-12
 -1      1194 2.07920E+01 4.13132E-03 3.28425E-02 1.40577E-02-9.52580E-16 8.93577E-13
 -1      1195 1.95466E+01-1.39579E-02 3.43445E-03 3.60752E-02 9.06420E-15 7.35766E-13
 -1      1196 1.83468E+01-3.53522E-02-4.28779E-02 5.14131E-02-1.01013E-14 6.47947E-13
 -1      1197 1.75093E+01-4.80722E-02-8.18579E-02 5.03880E-02-4.57880E-15 5.23147E-13
 -1      1198 1.73091E+01-4.51150E-02-9.38929E-02 3.07496E-02 1.42646E-14 2.67529E-13
 -1      1199 1.78236E+01-2.87763E-02-7.36542E-02 1.46670E-04 1.29285E-14 1.06783E-13
 -1      1200 1.88834E+01-7.77808E-03-3.26930E-02-2.84894E-02 1.43279E-14-1.38917E-14
 -1      1201 2.01594E+01 8.91905E-03 8.97060E-03-4.49040E-02 2.41234E-14-1.31214E-13
 -1      1202 2.13205E+01 1.75993E-02 3.62583E-02-4.66201E-02 1.85015E-14-2.91815E-13
 -1      1203 2.21548E+01 1.90140E-02 4.53422E-02-3.78747E-02-8.59209E-15-4.20844E-13
 -1      1204 2.25983E+01 1.60252E-02 4.08095E-02-2.48979E-02 2.87346E-14-6.65423E-13
 -1      1205 2.26968E+01 1.13325E-02 2.98359E-02-1.25396E-02-3.09778E-15-7.93320E-13
 -1      1206 2.25466E+01 6.69494E-03 1.79934E-02-3.16096E-03-9.42410E-15-7.34510E-13
 -1      1207 2.22492E+01 2.95029E-03 8.23285E-03 2.80392E-03 2.82591E-14-7.71234E-13
 -1      1208 2.18878E+01 3.07812E-04 1.43810E-03 5.90882E-03 1.84984E-14-7.29894E-13
 -1      1209 2.15203E+01-1.34102E-03-2.65160E-03 7.00740E-03-2.73869E-16-6.63391E-13
 -1      1210 2.11812E+01-2.22060E-03-4.70471E-03 6.88189E-03-2.14892E-15-6.77853E-13
 -1      1211 2.08877E+01-2.56260E-03-5.40467E-03 6.11667E-03-1.12711E-14-7.26188E-13
 -1      1212 2.06454E+01-2.56086E-03-5.29706E-03 5.09603E-03-5.51263E-16-8.62430E-13
 -1      1213 2.04527E+01-2.36063E-03-4.76485E-03 4.04733E-03 1.84000E-14-9.17909E-13
 -1      1214 2.03042E+01-2.06276E-03-4.05441E-03 3.08997E-03-6.12020E-14-7.11050E-13
 -1      1215 2.01933E+01-1.73284E-03-3.31273E-03 2.27539E-03 9.60904E-15-3.12806E-13
 -1      1216 2.01130E+01-1.41060E-03-2.62005E-03 1.61545E-03 6.46124E-14-7.79287E-13
 -1      1217 2.00567E+01-1.11781E-03-2.01428E-03 1.10091E-03 5.74034E-15-1.19285E-12
 -1      1218 2.00187E+01-8.64418E-04-1.50787E-03 7.12831E-04-3.47146E-14-1.01302E-12
 -1      1219 1.99944E+01-6.52943E-04-1.09879E-03 4.29254E-04-1.20744E-14-8.51634E-13
 -1      1220 1.99801E+01-4.81556E-04-7.77657E-04 2.28773E-04 5.04982E-14-7.92503E-13
 -1      1221 1.99726E+01-3.46138E-04-5.31933E-04 9.22971E-05-3.47315E-15-5.81918E-13
 -1      1222 1.99699E+01-2.41606E-04-3.48498E-04 3.72255E-06-2.17459E-14-1.30459E-13
 -1      1223 1.99702E+01-1.62722E-04-2.14999E-04-5.00108E-05-1.68010E-14-1.63503E-13
 -1      1224 1.99722E+01-1.04562E-04-1.20526E-04-7.91638E-05 1.62618E-14-3.93427E-13
 -1      1225 1.99753E+01-6.27549E-05-5.58430E-05-9.15816E-05-2.07889E-15-8.84398E-13
 -1      1226 1.99787E+01-3.35664E-05-1.33867E-05-9.31115E-05 4.28348E-14-1.22121E-12
 -1      1227 1.99821E+01-1.39055E-05 1.28786E-05-8.80019E-05 1.13393E-14-1.07643E-12
 -1      1228 1.99854E+01-1.27348E-06 2.76612E-05-7.92581E-05-6.00120E-14-9.02317E-13
 -1      1229 1.99883E+01 6.31139E-06 3.45627E-05-6.89430E-05-9.21609E-15-7.89262E-13
 -1      1230 1.99908E+01 1.03998E-05 3.62951E-05-5.84240E-05-6.40517E-14-8.56868E-13
 -1      1231 1.99930E+01 1.21998E-05 3.48831E-05-4.85705E-05-3.73681E-14-6.20846E-13
 -1      1232 1.99948E+01 1.26638E-05 3.18554E-05-3.99052E-05-2.20668E-15-7.70395E-13
 -1      1233 1.99963E+01 1.25717E-05 2.84346E-05-3.27149E-05-8.47188E-15-1.18465E-12
 -1      1234 1.99975E+01 1.25950E-05 2.57352E-05-2.71016E-05-5.50181E-15-1.35766E-12
 -1      1235 1.99984E+01 1.32779E-05 2.48969E-05-2.29490E-05 1.04471E-13-1.27194E-12
 -1      1236 1.99991E+01 1.50378E-05 2.68718E-05-1.97354E-05 3.63227E-14-1.10034E-12
 -1      1237 1.99996E+01 1.69556E-05 2.99976E-05-1.54112E-05-8.22046E-14-5.56185E-13
 -1      1238 1.99998E+01 1.19100E-05 2.12442E-05-4.28174E-06 6.06508E-14-2.21072E-13
 -1      1239 1.99998E+01-1.04068E-05-2.65181E-05 1.06823E-05-1.17162E-14-4.25845E-13
 -1      1240 1.99998E+01 3.11523E-05-2.44734E-05 1.04938E-05-4.61797E-13-6.84811E-14
 -1      1241 1.99998E+01 2.95025E-05 2.39301E-05 9.60989E-06-2.41695E-13 5.93001E-14
 -1      1242 1.99998E+01-2.14889E-04 2.78681E-05-7.61985E-06 3.52378E-13-1.01830E-13
 -1      1243 1.99998E+01-6.60949E-04 1.52013E-05-1.59119E-05 2.08968E-14-7.93462E-14
 -1      1244 1.99998E+01-1.20460E-03 1.33675E-08-1.83480E-05 1.67255E-13-4.28064E-14
 -1      1245 1.99998E+01-1.74032E-03-1.30687E-05-1.67201E-05 8.46763E-13 2.03612E-14
 -1      1246 1.99998E+01-2.18754E-03-2.27181E-05-1.27228E-05 4.47342E-13-1.39389E-13
 -1      1247 1.99998E+01-2.48506E-03-2.87822E-05-6.74804E-06-4.01730E-13-1.22022E-13
 -1      1248 1.99998E+01-2.58761E-03-3.08051E-05 6.21122E-08-7.58957E-14 1.55449E-13
 -1      1249 1.99998E+01-2.48159E-03-2.87178E-05 6.87025E-06 1.10711E-12 1.46184E-13
 -1      1250 1.99998E+01-2.18105E-03-2.25612E-05 1.28101E-05 1.02597E-12-7.29106E-14
 -1      1251 1.99998E+01-1.73146E-03-1.28181E-05 1.70108E-05 1.04291E-12 1.09568E-13
 -1      1252 1.99998E+01-1.19504E-03 2.04232E-07 1.83622E-05 1.00522E-12 4.34168E-14
 -1      1253 1.99998E+01-6.51697E-04 1.55754E-05 1.60818E-05 5.85121E-13-2.96627E-14
 -1      1254 1.99998E+01-2.01438E-04 2.97971E-05 9.15943E-06 1.21893E-13 1.89560E-14
 -1      1255 1.99998E+01 2.04770E-05 2.11085E-05-1.80609E-05 2.73584E-13-6.14658E-14
 -1      1256 1.99998E+01 3.53128E-05-2.45792E-05-1.22022E-05 1.51831E-13 7.03944E-14
 -1      1257-1.16217E+00-2.27317E+01-3.67412E+00-1.88458E+00 1.12271E-12 2.59244E-13
 -1      1258-1.57319E+00-1.48479E+01-3.05150E+00-3.67934E+00 2.50266E-12 8.73746E-13
 -1      1259 8.99756E-02-2.78689E+00-1.88971E+00-3.18239E-01 3.27516E-12 1.92613E-12
 -1      1260 7.68768E+00 7.41707E+00-4.32812E-01 7.52336E+00 3.35976E-12 2.96718E-12
 -1      1261 2.30077E+01 1.14972E+01 1.23415E+00 1.55914E+01 2.53697E-12 3.37375E-12
 -1      1262 4.25953E+01 9.07949E+00 2.70641E+00 1.80990E+01 1.39178E-12 2.90057E-12
 -1      1263 5.92678E+01 4.07056E+00 3.69487E+00 1.22734E+01 4.74606E-13 1.64235E-12
 -1      1264 6.60038E+01 1.48675E+00 4.07421E+00 2.69662E-01 1.08441E-13-2.35617E-13
 -1      1265 5.83658E+01 4.08967E+00 3.52599E+00-1.16087E+01 6.12760E-13-2.20213E-12
 -1      1266 4.19676E+01 8.61785E+00 2.50976E+00-1.75955E+01 1.70919E-12-3.61888E-12
 -1      1267 2.27576E+01 1.09425E+01 9.82208E-01-1.50440E+01 2.81575E-12-3.77365E-12
 -1      1268 7.98425E+00 7.63044E+00-4.78046E-01-7.69072E+00 3.59002E-12-3.19544E-12
 -1      1269 4.29500E-01-1.54626E+00-1.85274E+00-3.47566E-01 3.50120E-12-2.08067E-12
 -1      1270-1.36209E+00-1.23053E+01-2.72552E+00 2.75535E+00 2.47413E-12-9.20736E-13
 -1      1271-8.85694E-01-1.98707E+01-3.30328E+00 1.31029E+00 7.87925E-13-2.24067E-13
 -1      1272-1.15127E+00-1.97630E+01-3.36913E+00-2.30708E+00-1.09185E-12-3.05513E-13
 -1      1273-1.75436E+00-1.27076E+01-3.00501E+00-3.64811E+00-2.69906E-12-1.11394E-12
 -1      1274 2.31502E-01-2.10373E+00-2.08524E+00-1.28205E-01-3.52918E-12-2.26796E-12
 -1      1275 8.93558E+00 6.94159E+00-6.42442E-01 7.83060E+00-3.52207E-12-3.42926E-12
 -1      1276 2.56392E+01 1.02943E+01 1.11051E+00 1.55748E+01-2.68807E-12-3.95461E-12
 -1      1277 4.57475E+01 7.88587E+00 2.80509E+00 1.73987E+01-1.56142E-12-3.61799E-12
 -1      1278 6.25648E+01 3.56892E+00 4.06919E+00 1.09206E+01-5.93109E-13-2.38920E-12
 -1      1279 6.86866E+01 1.93879E+00 4.54187E+00-1.38347E+00-1.54668E-13-5.75762E-13
 -1      1280 6.10666E+01 4.54266E+00 4.05920E+00-1.32465E+01-5.08316E-13 1.57785E-12
 -1      1281 4.27859E+01 9.37090E+00 2.76179E+00-1.83464E+01-1.58340E-12 3.12661E-12
 -1      1282 2.24678E+01 1.11385E+01 1.08513E+00-1.51136E+01-2.68074E-12 3.46390E-12
 -1      1283 7.16188E+00 6.51510E+00-6.84359E-01-6.86182E+00-3.21387E-12 2.83662E-12
 -1      1284-2.92744E-01-3.83039E+00-2.13665E+00 9.03305E-01-3.47145E-12 2.00917E-12
 -1      1285-1.73361E+00-1.58857E+01-3.20879E+00 4.10807E+00-2.92699E-12 1.00242E-12
 -1      1286-1.13055E+00-2.33636E+01-3.76021E+00 1.99356E+00-1.16196E-12 3.33084E-13
 -1      1287 2.89082E+01 2.19447E+00-7.89229E-01-2.45534E+00-6.27554E-14 1.72107E-12
 -1      1288 2.47822E+01 5.25497E+00-3.59117E-02-2.19728E+00-1.92152E-13 3.03459E-13
 -1      1289 2.62893E+01 5.59347E+00-4.90034E-02-3.39630E+00-2.38976E-13 6.38184E-13
 -1      1290 2.18315E+01 5.22970E+00-1.92891E-02-1.10170E+00-1.86490E-13-1.92693E-13
 -1      1291 2.32290E+01 5.63810E+00 4.59071E-02-1.70006E+00-2.13635E-13 2.75405E-14
 -1      1292 2.46768E+01 4.10257E+00-1.49137E-02-1.98747E+00-3.25101E-13 2.84314E-13
 -1      1293 1.91707E+01 4.92097E+00-2.87963E-02-2.96303E-01-1.42525E-13-4.78430E-13
 -1      1294 2.05019E+01 5.32123E+00 4.23350E-02-6.62899E-01-1.66339E-13-3.46143E-13
 -1      1295 2.16035E+01 4.31424E+00-2.98254E-02-1.04481E+00-2.81157E-13-1.35017E-13
 -1      1296 1.66630E+01 4.65098E+00-5.32287E-02 1.14377E-01-1.02973E-13-6.60529E-13
 -1      1297 1.79031E+01 5.02084E+00 2.97279E-02-3.74125E-02-1.17323E-13-5.76789E-13
 -1      1298 1.87650E+01 4.36402E+00-3.72410E-02-3.06622E-01-2.04850E-13-3.95205E-13
 -1      1299 1.46077E+01 4.50618E+00-7.18983E-02 8.30031E-02-7.92838E-14-7.67165E-13
 -1      1300 1.55755E+01 4.79475E+00 3.49741E-03 1.39892E-01-8.74301E-14-7.16777E-13
 -1      1301 1.61711E+01 4.48870E+00-3.38629E-02 3.81567E-02-1.49807E-13-5.54711E-13
 -1      1302 1.33407E+01 4.46488E+00-7.05108E-02-3.17451E-01-6.65093E-14-8.25769E-13
 -1      1303 1.38551E+01 4.61843E+00-3.28871E-02-1.07916E-01-7.43294E-14-8.02747E-13
 -1      1304 1.41297E+01 4.65441E+00-2.62337E-02-6.48739E-02-1.21902E-13-6.65242E-13
 -1      1305 1.31877E+01 4.47290E+00-4.34046E-02-8.54194E-01-5.86892E-14-8.50272E-13
 -1      1306 1.31189E+01 4.45518E+00-6.34881E-02-6.20044E-01-6.55032E-14-8.37722E-13
 -1      1307 1.30591E+01 4.71840E+00-2.14061E-02-5.05702E-01-1.08950E-13-7.13894E-13
 -1      1308 1.40878E+01 4.48896E+00-4.09664E-03-1.21961E+00-5.42483E-14-8.41139E-13
 -1      1309 1.35153E+01 4.32320E+00-7.09996E-02-1.09881E+00-6.22349E-14-8.45625E-13
 -1      1310 1.32130E+01 4.58257E+00-2.22184E-02-1.00392E+00-1.02120E-13-7.33218E-13
 -1      1311 1.56534E+01 4.52807E+00 2.90535E-02-1.19920E+00-3.87190E-14-8.12416E-13
 -1      1312 1.48045E+01 4.28046E+00-5.20037E-02-1.27048E+00-4.83780E-14-8.25479E-13
 -1      1313 1.44263E+01 4.30252E+00-2.61951E-02-1.24565E+00-8.84223E-14-7.07379E-13
 -1      1314 1.73994E+01 4.62821E+00 4.59089E-02-7.58928E-01-4.78784E-15-7.75352E-13
 -1      1315 1.65176E+01 4.36895E+00-1.88380E-02-1.01921E+00-1.56264E-14-7.92446E-13
 -1      1316 1.62237E+01 4.03889E+00-2.74856E-02-1.06384E+00-4.91031E-14-6.71591E-13
 -1      1317 1.89526E+01 4.80093E+00 4.70098E-02-2.15350E-02 3.68455E-14-7.17183E-13
 -1      1318 1.81993E+01 4.57510E+00 1.06710E-02-4.05891E-01 2.35090E-14-7.46542E-13
 -1      1319 1.80747E+01 3.92369E+00-2.46136E-02-4.94223E-01 1.07553E-14-6.20691E-13
 -1      1320 2.02473E+01 5.03256E+00 3.83174E-02 8.94005E-01 1.00100E-13-6.19910E-13
 -1      1321 1.96295E+01 4.84160E+00 2.56225E-02 4.32862E-01 7.41629E-14-6.72219E-13
 -1      1322 1.96712E+01 3.97606E+00-2.20625E-02 3.25647E-01 9.03236E-14-5.46764E-13
 -1      1323 2.13405E+01 5.28215E+00 2.41924E-02 1.87668E+00 1.73930E-13-4.60465E-13
 -1      1324 2.08021E+01 5.10725E+00 2.19195E-02 1.37956E+00 1.42220E-13-5.54893E-13
 -1      1325 2.09656E+01 4.12663E+00-2.27011E-02 1.26265E+00 1.97783E-13-4.37407E-13
 -1      1326 2.25139E+01 5.50359E+00 1.26177E-02 2.92387E+00 2.37532E-13-1.39506E-13
 -1      1327 2.18863E+01 5.29446E+00-1.10192E-03 2.36134E+00 1.99230E-13-3.32234E-13
 -1      1328 2.21164E+01 4.24483E+00-2.54349E-02 2.22634E+00 3.02126E-13-2.35000E-13
 -1      1329 2.44114E+01 5.47813E+00 1.40511E-02 4.21806E+00 2.29178E-13 5.20445E-13
 -1      1330 2.33152E+01 5.23406E+00-3.97993E-02 3.39402E+00 2.17631E-13 1.08046E-13
 -1      1331 2.35446E+01 4.07655E+00-2.09399E-02 3.17515E+00 3.76383E-13 1.30534E-13
 -1      1332 3.15946E+01 3.62071E+00 1.04217E+00 5.00081E+00 1.28994E-13 1.91164E-12
 -1      1333 2.56310E+01 3.95946E+00-2.00341E-01 4.09037E+00 1.23873E-13 9.34475E-13
 -1      1334 2.57126E+01 2.74611E+00-2.84900E-02 3.60223E+00 3.91093E-13 7.45737E-13
 -1      1335 2.53289E+01 3.56883E-01-8.47198E-01 1.16898E+00 2.30545E-13 1.81155E-12
 -1      1336 2.92623E+01 3.02223E-02-4.37263E-01-8.92241E-01-1.92957E-13 1.78377E-12
 -1      1337 2.83546E+01 2.30479E-01-1.51433E-01-4.70158E-01-1.87524E-13 1.55365E-12
 -1      1338 2.78918E+01 7.02206E-02-5.93564E-02-2.16411E-01-1.37539E-13 1.47017E-12
 -1      1339 2.75861E+01-1.49161E-02 1.74506E-03-2.01613E-01-1.47818E-13 1.25737E-12
 -1      1340 2.78078E+01 1.87094E-01-1.03211E-01-8.03981E-01-3.06928E-13 9.85935E-13
 -1      1341 2.72634E+01-6.85985E-02 2.65666E-02-2.64450E-01-1.14199E-13 1.19624E-12
 -1      1342 2.68470E+01-1.05951E-01 3.32911E-02-3.28400E-01-1.09373E-13 1.01456E-12
 -1      1343 2.69812E+01-9.26924E-02-9.26223E-03-5.02272E-01-2.45217E-13 8.50469E-13
 -1      1344 2.64708E+01-1.38595E-01 4.52103E-02-5.78026E-01-5.91246E-14 9.61280E-13
 -1      1345 2.56522E+01-1.34009E-01 3.37033E-02-6.68644E-01-7.10473E-14 8.71907E-13
 -1      1346 2.63766E+01-2.32715E-01 3.08005E-02-8.77398E-01-1.66322E-13 7.53286E-13
 -1      1347 2.50741E+01-1.31005E-01 3.77890E-02-9.40686E-01-1.00709E-14 8.58619E-13
 -1      1348 2.38426E+01-6.76508E-02 1.68911E-02-1.01262E+00-2.56201E-14 8.57550E-13
 -1      1349 2.54942E+01-2.34906E-01 3.73968E-02-1.51712E+00-7.51673E-14 6.90741E-13
 -1      1350 2.30901E+01-6.68673E-03 6.21336E-03-1.08227E+00-3.18096E-14 8.16347E-13
 -1      1351 2.17779E+01 1.00477E-01-2.01153E-02-1.06167E+00-2.82552E-14 7.93157E-13
 -1      1352 2.42136E+01-5.09981E-02 1.12569E-02-1.96384E+00-5.74597E-14 6.79765E-13
 -1      1353 2.11038E+01 1.89036E-01-4.03717E-02-7.50473E-01-5.37036E-14 7.29888E-13
 -1      1354 2.02892E+01 2.68989E-01-5.85549E-02-6.06606E-01-1.08889E-13 6.23696E-13
 -1      1355 2.27967E+01 2.67563E-01-4.50295E-02-1.70007E+00-1.05298E-13 5.24442E-13
 -1      1356 2.00460E+01 3.02317E-01-6.68333E-02-2.31334E-03-1.18398E-13 5.08864E-13
 -1      1357 2.01601E+01 2.86171E-01-6.38400E-02 1.86863E-01-1.20844E-13 3.47306E-13
 -1      1358 2.18666E+01 5.00312E-01-9.27009E-02-5.75437E-01-2.46650E-13 3.53679E-13
 -1      1359 2.04758E+01 2.29270E-01-5.07066E-02 7.32437E-01-1.21386E-13 2.81879E-13
 -1      1360 2.14335E+01 1.30314E-01-2.95953E-02 8.43492E-01-1.41947E-13 1.08871E-13
 -1      1361 2.19419E+01 4.55501E-01-8.29335E-02 8.53741E-01-2.36904E-13 1.59634E-13
 -1      1362 2.20745E+01 4.14049E-02-1.11440E-02 1.02974E+00-8.96752E-14 3.90382E-14
 -1      1363 2.33450E+01-6.25896E-02 1.24971E-02 1.01498E+00 3.98406E-15-9.15934E-15
 -1      1364 2.29090E+01 1.69518E-01-2.57942E-02 1.74221E+00-1.86517E-13 7.55229E-14
 -1      1365 2.39402E+01-1.09717E-01 1.71439E-02 8.38185E-01 4.51375E-15-9.22040E-14
 -1      1366 2.49662E+01-1.62553E-01 3.16860E-02 7.47914E-01-3.34784E-14-1.10925E-13
 -1      1367 2.41255E+01-1.35942E-01 2.49651E-02 1.71893E+00-6.49506E-14-1.56101E-13
 -1      1368 2.52913E+01-1.56486E-01 2.24872E-02 4.11213E-01-4.86729E-14-9.44730E-14
 -1      1369 2.58048E+01-1.58280E-01 2.74480E-02 3.15156E-01-4.29899E-14-1.70142E-13
 -1      1370 2.49921E+01-2.79368E-01 4.25900E-02 1.06949E+00-5.68642E-14-3.17463E-13
 -1      1371 2.58302E+01-1.27735E-01 1.45287E-02 7.86838E-03-2.10248E-15-1.93311E-13
 -1      1372 2.58567E+01-1.04634E-01 1.41843E-02-5.80204E-02-3.18912E-14-2.45573E-13
 -1      1373 2.52812E+01-2.60563E-01 3.48651E-02 2.87743E-01-3.85195E-14-3.58249E-13
 -1      1374 2.56601E+01-7.50517E-02 5.08278E-03-2.54910E-01-4.25476E-14-1.93233E-13
 -1      1375 2.53642E+01-4.86620E-02 3.19199E-03-2.86906E-01-4.38738E-14-2.65895E-13
 -1      1376 2.50645E+01-1.68303E-01 1.93472E-02-3.09405E-01-7.84459E-14-2.95805E-13
 -1      1377 2.50455E+01-2.97183E-02-5.18688E-04-3.75422E-01-1.65232E-14-2.41113E-13
 -1      1378 2.45984E+01-9.48351E-03-2.37140E-03-3.83372E-01-5.39326E-15-2.68167E-13
 -1      1379 2.45266E+01-7.62905E-02 6.33902E-03-6.40234E-01-3.05398E-14-2.41597E-13
 -1      1380 2.42382E+01-7.68873E-04-2.28402E-03-3.97281E-01 1.01089E-14-2.54265E-13
 -1      1381 2.37612E+01 1.19171E-02-3.85614E-03-3.92074E-01 2.35252E-14-2.34736E-13
 -1      1382 2.38440E+01-1.33397E-02-1.52213E-03-7.54219E-01 5.46980E-15-2.21583E-13
 -1      1383 2.34116E+01 1.39673E-02-1.96637E-03-3.65406E-01-1.28012E-14-1.84774E-13
 -1      1384 2.29716E+01 2.08016E-02-3.36799E-03-3.54674E-01-8.60147E-14-2.67904E-13
 -1      1385 2.31417E+01 2.02532E-02-5.20317E-03-7.33784E-01 2.32564E-14-1.90879E-13
 -1      1386 2.26599E+01 1.94368E-02-1.01227E-03-3.11249E-01-4.56432E-14-3.09823E-13
 -1      1387 2.22852E+01 2.25202E-02-2.31185E-03-2.99299E-01 4.28227E-14-2.70473E-13
 -1      1388 2.24926E+01 3.36458E-02-6.33732E-03-6.47284E-01-8.30152E-14-2.33770E-13
 -1      1389 2.20218E+01 1.98296E-02-1.43180E-04-2.52835E-01 1.17304E-13-2.49922E-13
 -1      1390 2.17181E+01 2.07744E-02-1.33228E-03-2.41722E-01 8.14344E-14-9.38156E-14
 -1      1391 2.19305E+01 3.57295E-02-6.17430E-03-5.38532E-01 1.02088E-13-1.23653E-13
 -1      1392 2.15036E+01 1.78692E-02 4.24854E-04-1.98913E-01 5.43842E-14-5.47323E-14
 -1      1393 2.12654E+01 1.77107E-02-6.19777E-04-1.89415E-01 3.21863E-14 6.28616E-14
 -1      1394 2.14642E+01 3.25126E-02-5.46333E-03-4.31198E-01 1.44953E-13-6.02372E-15
 -1      1395 2.10954E+01 1.50865E-02 7.09959E-04-1.52842E-01 8.75253E-14 1.17030E-13
 -1      1396 2.09131E+01 1.44266E-02-1.66829E-04-1.45100E-01 9.49243E-14 2.08547E-13
 -1      1397 2.10892E+01 2.74032E-02-4.59291E-03-3.35971E-01 1.07810E-13-3.70044E-15
 -1      1398 2.07812E+01 1.22480E-02 7.98210E-04-1.15209E-01-4.27913E-15 1.92968E-13
 -1      1399 2.06445E+01 1.14128E-02 9.17962E-05-1.09080E-01-5.42992E-14 1.23363E-13
 -1      1400 2.07947E+01 2.20962E-02-3.74285E-03-2.56285E-01 5.95943E-14-1.13998E-14
 -1      1401 2.05440E+01 9.68798E-03 7.71693E-04-8.53444E-02-1.00350E-13 1.69307E-13
 -1      1402 2.04432E+01 8.84294E-03 2.21791E-04-8.05927E-02-1.05448E-13-1.66500E-14
 -1      1403 2.05679E+01 1.73177E-02-2.98565E-03-1.91976E-01-8.58515E-14 3.99101E-14
 -1      1404 2.03679E+01 7.51755E-03 6.88849E-04-6.21311E-02 1.94629E-14 3.78686E-14
 -1      1405 2.02950E+01 6.73950E-03 2.73009E-04-5.85055E-02 7.85973E-14 1.11108E-13
 -1      1406 2.03963E+01 1.33007E-02-2.34258E-03-1.41342E-01-4.66992E-14 1.51112E-13
 -1      1407 2.02396E+01 5.74211E-03 5.85564E-04-4.43824E-02 1.97544E-14 7.10540E-14
 -1      1408 2.01878E+01 5.06119E-03 2.79021E-04-4.16551E-02 9.19458E-15 1.34145E-13
 -1      1409 2.02686E+01 1.00512E-02-1.81187E-03-1.02211E-01 3.98158E-14 1.26725E-13
 -1      1410 2.01478E+01 4.32298E-03 4.81589E-04-3.10101E-02 5.86618E-14 6.82087E-14
 -1      1411 2.01118E+01 3.74564E-03 2.61000E-04-2.89873E-02 1.30059E-14 1.33141E-13
 -1      1412 2.01752E+01 7.48459E-03-1.38242E-03-7.24397E-02 6.56333E-15 1.10927E-13
 -1      1413 2.00835E+01 3.20744E-03 3.86569E-04-2.10805E-02-7.98165E-14-3.17148E-14
 -1      1414 2.00593E+01 2.72870E-03 2.31734E-04-1.96029E-02-9.18151E-14-1.12736E-13
 -1      1415 2.01082E+01 5.49099E-03-1.04018E-03-5.01195E-02-9.72979E-14-1.27648E-13
 -1      1416 2.00398E+01 2.34241E-03 3.04333E-04-1.38214E-02-2.63569E-14-1.59795E-13
 -1      1417 2.00241E+01 1.95233E-03 1.98669E-04-1.27606E-02-5.54420E-14-1.99028E-13
 -1      1418 2.00612E+01 3.96288E-03-7.71029E-04-3.36349E-02-1.11967E-13-2.22441E-13
 -1      1419 2.00111E+01 1.67996E-03 2.35596E-04-8.60769E-03-5.97594E-14-1.61624E-13
 -1      1420 2.00015E+01 1.36692E-03 1.65959E-04-7.86176E-03-4.99581E-14-1.95172E-13
 -1      1421 2.00291E+01 2.80566E-03-5.61988E-04-2.16588E-02-1.06296E-13-2.16173E-13
 -1      1422 1.99931E+01 1.17902E-03 1.79540E-04-4.94125E-03-1.30207E-13-1.71780E-13
 -1      1423 1.99878E+01 9.31332E-04 1.35770E-04-4.43023E-03-1.36737E-13-2.75599E-13
 -1      1424 2.00081E+01 1.94004E-03-4.01685E-04-1.31224E-02-8.94652E-14-2.57181E-13
 -1      1425 1.99828E+01 8.05310E-04 1.34688E-04-2.42984E-03-5.85615E-14-3.08517E-13
 -1      1426 1.99804E+01 6.12061E-04 1.09091E-04-2.09152E-03-4.98654E-14-3.61264E-13
 -1      1427 1.99949E+01 1.30128E-03-2.80404E-04-7.17625E-03-2.18503E-13-1.56768E-13
 -1      1428 1.99777E+01 5.30757E-04 9.93761E-05-7.67870E-04 6.78924E-14-4.00764E-13
 -1      1429 1.99772E+01 3.82135E-04 8.62235E-05-5.54383E-04 1.03149E-14-3.47221E-13
 -1      1430 1.99873E+01 8.37243E-04-1.89997E-04-3.15359E-03-2.40445E-14-2.44283E-13
 -1      1431 1.99761E+01 3.32616E-04 7.19821E-05 2.80126E-04-7.57343E-14-3.73541E-13
 -1      1432 1.99767E+01 2.20047E-04 6.70798E-05 4.05228E-04-3.62025E-14-4.48693E-13
 -1      1433 1.99836E+01 5.06413E-04-1.23725E-04-5.36649E-04-1.89449E-15-3.59708E-13
 -1      1434 1.99766E+01 1.92657E-04 5.10347E-05 8.93502E-04 7.65900E-14-3.51276E-13
 -1      1435 1.99779E+01 1.08802E-04 5.13662E-05 9.57610E-04 1.69826E-13-1.98061E-13
 -1      1436 1.99824E+01 2.75962E-04-7.60841E-05 1.07201E-03 4.65769E-14-4.83415E-13
 -1      1437 1.99784E+01 9.64114E-05 3.52523E-05 1.20710E-03 5.17622E-14-2.17229E-13
 -1      1438 1.99800E+01 3.50963E-05 3.86908E-05 1.23050E-03 1.21430E-14-1.77065E-13
 -1      1439 1.99828E+01 1.20157E-04-4.26306E-05 1.97375E-03 1.70762E-13-3.45713E-13
 -1      1440 1.99809E+01 3.25098E-05 2.35475E-05 1.32079E-03-1.12014E-13-2.30750E-13
 -1      1441 1.99826E+01-1.13742E-05 2.86295E-05 1.31827E-03-1.17004E-13-3.64251E-13
 -1      1442 1.99841E+01 1.90060E-05-1.98207E-05 2.39389E-03-1.29339E-13-4.91652E-13
 -1      1443 1.99836E+01-7.88251E-06 1.50164E-05 1.30731E-03-3.44933E-14-4.02087E-13
 -1      1444 1.99853E+01-3.85033E-05 2.07651E-05 1.28940E-03-6.59152E-14-5.58419E-13
 -1      1445 1.99859E+01-4.28678E-05-4.86151E-06 2.49827E-03-1.82390E-13-5.36503E-13
 -1      1446 1.99863E+01-3.15512E-05 8.91837E-06 1.21848E-03-5.73725E-14-4.71804E-13
 -1      1447 1.99878E+01-5.22619E-05 1.47090E-05 1.19253E-03 4.10080E-14-6.07523E-13
 -1      1448 1.99879E+01-7.71592E-05 4.41973E-06 2.40667E-03-9.07270E-14-5.12849E-13
 -1      1449 1.99888E+01-4.36445E-05 4.65567E-06 1.09032E-03-9.62512E-14-7.04630E-13
 -1      1450 1.99902E+01-5.71087E-05 1.01119E-05 1.06125E-03-1.52135E-13-8.72536E-13
 -1      1451 1.99899E+01-9.26526E-05 9.69166E-06 2.20362E-03-9.43886E-14-6.07191E-13
 -1      1452 1.99911E+01-4.80207E-05 1.75176E-06 9.46959E-04-1.11625E-13-9.04603E-13
 -1      1453 1.99922E+01-5.63316E-05 6.66846E-06 9.17928E-04-8.60278E-14-1.04723E-12
 -1      1454 1.99918E+01-9.58628E-05 1.22188E-05 1.94706E-03-2.12270E-13-6.62807E-13
 -1      1455 1.99930E+01-4.75424E-05-1.67139E-07 8.03742E-04 1.32618E-13-8.46821E-13
 -1      1456 1.99940E+01-5.23328E-05 4.11934E-06 7.76605E-04 1.72462E-13-6.83837E-13
 -1      1457 1.99935E+01-9.15667E-05 1.29472E-05 1.67503E-03 7.03534E-14-7.24811E-13
 -1      1458 1.99947E+01-4.43263E-05-1.38554E-06 6.69545E-04 1.23571E-13-5.76496E-13
 -1      1459 1.99955E+01-4.68686E-05 2.25595E-06 6.45208E-04 1.18852E-13-4.32358E-13
 -1      1460 1.99949E+01-8.32500E-05 1.25785E-05 1.41090E-03 2.68276E-13-5.55014E-13
 -1      1461 1.99961E+01-3.99592E-05-2.10035E-06 5.48468E-04 6.88760E-14-1.83868E-13
 -1      1462 1.99967E+01-4.12508E-05 9.39619E-07 5.27129E-04 1.35005E-13-1.50202E-14
 -1      1463 1.99962E+01-7.34893E-05 1.16345E-05 1.16718E-03 2.88169E-13-3.36719E-13
 -1      1464 1.99972E+01-3.56798E-05-2.39913E-06 4.40991E-04 1.17537E-13 9.49208E-14
 -1      1465 1.99978E+01-3.65078E-05 1.43519E-07 4.22281E-04 2.24383E-13 3.34426E-13
 -1      1466 1.99972E+01-6.42780E-05 1.05204E-05 9.48267E-04 3.15858E-13 9.79399E-14
 -1      1467 1.99981E+01-3.25304E-05-2.20970E-06 3.44706E-04 3.12819E-13 2.68543E-13
 -1      1468 1.99985E+01-3.35045E-05-8.49532E-09 3.27742E-04 1.74589E-13 5.43072E-13
 -1      1469 1.99980E+01-5.73107E-05 9.57843E-06 7.52282E-04 3.29322E-13 3.62975E-13
 -1      1470 1.99988E+01-3.14175E-05-1.26735E-06 2.54784E-04-2.77973E-13 4.25520E-13
 -1      1471 1.99991E+01-3.28138E-05 6.36739E-07 2.38154E-04-2.56908E-13 2.86570E-14
 -1      1472 1.99987E+01-5.42117E-05 9.08404E-06 5.72346E-04-8.16238E-14-5.68647E-14
 -1      1473 1.99993E+01-3.26519E-05 5.55749E-07 1.65200E-04 2.51274E-14 2.03130E-14
 -1      1474 1.99995E+01-3.38308E-05 1.23267E-06 1.47026E-04-6.32842E-14 4.89043E-14
 -1      1475 1.99992E+01-5.61295E-05 8.88218E-06 3.98092E-04-2.76718E-13-2.01341E-13
 -1      1476 1.99997E+01-3.81807E-05 9.26330E-07 7.12566E-05-2.12963E-14 7.53724E-14
 -1      1477 1.99997E+01-3.09192E-05-2.72124E-06 5.11582E-05-3.61210E-14 2.81892E-14
 -1      1478 1.99995E+01-6.20211E-05 8.02969E-06 2.22379E-04 3.41154E-14-1.96437E-15
 -1      1479 1.99998E+01-1.49130E-06-7.86071E-06-1.37053E-05-9.94848E-14 7.63800E-14
 -1      1480 1.99997E+01-3.66798E-05 1.38509E-06 4.29760E-05-4.22232E-14 2.58480E-14
 -1      1481 2.41178E+01 4.74246E-02-1.49895E-01 5.46970E-01 2.03781E-13 1.38518E-12
 -1      1482 2.54663E+01 1.97589E-01-2.49476E-01 7.69429E-01 1.71196E-13 1.70762E-12
 -1      1483 2.54713E+01 8.96324E-01-9.36938E-02 2.19460E+00 3.36627E-13 1.10817E-12
 -1      1484 2.28180E+01-6.27692E-04-5.03546E-03 3.77453E-01 1.40355E-13 9.88740E-13
 -1      1485 2.34400E+01 6.67979E-02-6.13617E-02 3.90175E-01 1.47184E-13 1.23149E-12
 -1      1486 2.38213E+01 1.18883E-01-4.71518E-02 1.02538E+00 3.03688E-13 8.51233E-13
 -1      1487 2.17497E+01-1.30468E-02 2.02829E-02 3.85992E-01 7.65282E-14 7.56091E-13
 -1      1488 2.22852E+01-2.98132E-03 7.82621E-03 3.69007E-01 8.03517E-14 8.94101E-13
 -1      1489 2.26567E+01-4.44195E-03 4.45692E-03 7.75057E-01 1.99949E-13 6.47779E-13
 -1      1490 2.06672E+01-5.00716E-03 1.24883E-02 4.27384E-01 4.21629E-14 6.26384E-13
 -1      1491 2.12491E+01-1.59673E-02 1.55322E-02 4.06660E-01 3.30716E-14 6.93002E-13
 -1      1492 2.16688E+01-2.61837E-02 1.30819E-02 7.88731E-01 9.92069E-14 5.02859E-13
 -1      1493 1.95918E+01 1.64423E-02-3.50043E-03 4.14153E-01 4.56532E-14 4.92453E-13
 -1      1494 2.01887E+01 4.06865E-03 7.36844E-03 4.09748E-01 4.54727E-14 5.59133E-13
 -1      1495 2.07236E+01 1.40627E-03 6.34830E-03 8.06455E-01 1.02483E-13 3.93467E-13
 -1      1496 1.87094E+01 4.04887E-02-1.92679E-02 2.99774E-01 2.77313E-14 4.12521E-13
 -1      1497 1.92009E+01 4.09143E-02-2.54857E-03 3.24218E-01 2.81580E-14 4.52138E-13
 -1      1498 1.98733E+01 5.65272E-02-5.06560E-03 6.91683E-01 5.97057E-14 3.06520E-13
 -1      1499 1.82520E+01 5.38359E-02-2.80032E-02 9.10416E-02 3.91649E-14 2.55024E-13
 -1      1500 1.84975E+01 7.45925E-02-9.71987E-03 1.43035E-01 4.22743E-14 3.33098E-13
 -1      1501 1.92716E+01 1.11177E-01-1.54864E-02 3.97424E-01 8.47794E-14 1.91903E-13
 -1      1502 1.83610E+01 4.83212E-02-2.51086E-02-1.50092E-01 6.62812E-14 9.02299E-14
 -1      1503 1.82780E+01 8.60519E-02-1.13775E-02-8.67531E-02 8.57786E-14 1.94983E-13
 -1      1504 1.90700E+01 1.34081E-01-2.02397E-02-2.01079E-02 1.30881E-13 8.26982E-14
 -1      1505 1.89946E+01 2.68785E-02-1.21194E-02-3.40632E-01 3.40522E-14-3.25746E-14
 -1      1506 1.86091E+01 6.90893E-02-7.03955E-03-2.87642E-01 2.55872E-14 1.89085E-14
 -1      1507 1.93158E+01 1.09775E-01-1.79740E-02-4.28406E-01 9.04572E-14-3.92932E-14
 -1      1508 1.99435E+01 4.30248E-04 4.13632E-03-4.23010E-01 5.74959E-14-1.25969E-13
 -1      1509 1.93790E+01 3.29916E-02 7.30862E-04-3.95688E-01 3.95621E-14-8.00887E-14
 -1      1510 1.99137E+01 4.98723E-02-1.08533E-02-6.94600E-01 8.00549E-14-1.80264E-13
 -1      1511 2.09320E+01-1.95724E-02 1.59106E-02-3.92280E-01 7.87532E-14-2.53766E-13
 -1      1512 2.03489E+01-4.58034E-03 7.69891E-03-3.92568E-01 6.10428E-14-1.63647E-13
 -1      1513 2.06686E+01-1.65618E-02-3.20881E-03-7.55437E-01 8.03656E-14-2.19191E-13
 -1      1514 2.17365E+01-2.83047E-02 2.00316E-02-2.86568E-01 4.93407E-14-3.44131E-13
 -1      1515 2.12640E+01-3.00384E-02 1.09105E-02-3.05829E-01 6.04707E-14-2.84543E-13
 -1      1516 2.13765E+01-6.23903E-02 2.19110E-03-6.38007E-01 1.10532E-13-2.91730E-13
 -1      1517 2.22450E+01-2.73718E-02 1.77347E-02-1.55847E-01 3.26865E-14-4.68927E-13
 -1      1518 2.19464E+01-3.96339E-02 1.02138E-02-1.82533E-01 4.09959E-14-4.27536E-13
 -1      1519 2.18975E+01-7.86346E-02 4.65262E-03-4.22383E-01 1.07355E-13-3.84850E-13
 -1      1520 2.24505E+01-2.11030E-02 1.23783E-02-3.81049E-02 3.67163E-14-5.96211E-13
 -1      1521 2.23280E+01-3.69995E-02 7.19941E-03-6.33212E-02 5.25699E-14-4.87436E-13
 -1      1522 2.21788E+01-7.14062E-02 4.92838E-03-1.90722E-01 7.90817E-14-4.45307E-13
 -1      1523 2.24106E+01-1.34391E-02 6.77726E-03 4.82756E-02-4.04937E-14-5.53963E-13
 -1      1524 2.24291E+01-2.81171E-02 3.75925E-03 2.90054E-02-2.38178E-15-5.62728E-13
 -1      1525 2.22363E+01-5.25008E-02 4.07931E-03 2.85766E-03 2.71727E-14-3.78593E-13
 -1      1526 2.22055E+01-6.70380E-03 2.38559E-03 1.00513E-01 4.05687E-15-6.32803E-13
 -1      1527 2.23176E+01-1.78524E-02 1.02373E-03 8.81632E-02 2.93645E-15-6.01487E-13
 -1      1528 2.21229E+01-3.16717E-02 2.87747E-03 1.36703E-01 2.10660E-14-4.45493E-13
 -1      1529 2.19110E+01-1.76979E-03-4.26905E-04 1.24237E-01 3.14167E-14-6.46509E-13
 -1      1530 2.20727E+01-8.95124E-03-6.61068E-04 1.17869E-01 5.12307E-15-6.45690E-13
 -1      1531 2.19010E+01-1.42606E-02 1.75983E-03 2.11942E-01-7.53521E-16-5.28538E-13
 -1      1532 2.15857E+01 1.35429E-03-1.89728E-03 1.27774E-01-8.59157E-14-5.59563E-13
 -1      1533 2.17635E+01-2.41506E-03-1.42173E-03 1.25779E-01-4.99941E-15-5.91239E-13
 -1      1534 2.16257E+01-2.00124E-03 8.93766E-04 2.40740E-01 2.06820E-14-4.56159E-13
 -1      1535 2.12686E+01 3.03416E-03-2.44058E-03 1.18929E-01 8.36581E-15-4.73782E-13
 -1      1536 2.14408E+01 1.78006E-03-1.56533E-03 1.19737E-01-2.87220E-14-4.91055E-13
 -1      1537 2.13386E+01 5.43194E-03 2.91419E-04 2.37885E-01-9.65534E-14-3.88475E-13
 -1      1538 2.09826E+01 3.70775E-03-2.43553E-03 1.03734E-01 6.97180E-15-5.64650E-13
 -1      1539 2.11367E+01 4.09503E-03-1.37956E-03 1.06098E-01 2.83831E-14-4.80583E-13
 -1      1540 2.10665E+01 9.16339E-03-9.22586E-05 2.16385E-01 2.07275E-14-3.77924E-13
 -1      1541 2.07380E+01 3.75195E-03-2.15615E-03 8.63012E-02 1.09474E-14-5.31187E-13
 -1      1542 2.08687E+01 5.07839E-03-1.06695E-03 8.93466E-02-3.25044E-15-5.27202E-13
 -1      1543 2.08248E+01 1.03994E-02-3.13978E-04 1.85972E-01 1.46257E-14-3.77764E-13
 -1      1544 2.05373E+01 3.44563E-03-1.77423E-03 6.91541E-02 2.84397E-14-6.68241E-13
 -1      1545 2.06436E+01 5.20841E-03-7.44518E-04 7.23232E-02 3.54670E-14-5.81576E-13
 -1      1546 2.06197E+01 1.01308E-02-4.23559E-04 1.53137E-01 6.84390E-14-4.15816E-13
 -1      1547 2.03781E+01 2.97624E-03-1.38559E-03 5.36603E-02-4.88454E-14-6.39085E-13
 -1      1548 2.04617E+01 4.84631E-03-4.67188E-04 5.66315E-02-4.52580E-14-7.23374E-13
 -1      1549 2.04521E+01 9.06830E-03-4.59351E-04 1.21770E-01-1.26237E-14-4.96742E-13
 -1      1550 2.02556E+01 2.46032E-03-1.03690E-03 4.04200E-02-1.04323E-13-5.15983E-13
 -1      1551 2.03192E+01 4.24114E-03-2.52553E-04 4.30327E-02-1.17957E-13-6.81993E-13
 -1      1552 2.03194E+01 7.67609E-03-4.49163E-04 9.39024E-02-1.28519E-13-5.48715E-13
 -1      1553 2.01639E+01 1.96459E-03-7.45992E-04 2.95610E-02 1.41747E-13-5.09175E-13
 -1      1554 2.02110E+01 3.55261E-03-9.90364E-05 3.17575E-02 8.86420E-14-4.08200E-13
 -1      1555 2.02171E+01 6.23386E-03-4.12502E-04 7.03489E-02-3.29428E-14-6.08214E-13
 -1      1556 2.00973E+01 1.52290E-03-5.15096E-04 2.09456E-02 9.82869E-14-6.61455E-13
 -1      1557 2.01311E+01 2.87571E-03 2.95772E-06 2.27292E-02 1.04387E-13-4.23999E-13
 -1      1558 2.01405E+01 4.89468E-03-3.62671E-04 5.11822E-02 1.43483E-13-3.46787E-13
 -1      1559 2.00504E+01 1.14864E-03-3.38842E-04 1.43051E-02-7.08645E-14-7.00109E-13
 -1      1560 2.00738E+01 2.26142E-03 6.50800E-05 1.57120E-02 5.58050E-15-6.49934E-13
 -1      1561 2.00847E+01 3.73024E-03-3.08427E-04 3.60668E-02 6.03741E-14-2.91588E-13
 -1      1562 2.00186E+01 8.43141E-04-2.08842E-04 9.32401E-03-1.45382E-13-4.92130E-13
 -1      1563 2.00342E+01 1.73238E-03 9.82192E-05 1.04052E-02-1.37865E-13-6.89344E-13
 -1      1564 2.00452E+01 2.76284E-03-2.55261E-04 2.44748E-02-1.80257E-13-1.60579E-13
 -1      1565 1.99981E+01 6.01232E-04-1.16141E-04 5.68865E-03-1.01961E-14-4.36008E-13
 -1      1566 2.00078E+01 1.29390E-03 1.11430E-04 6.49899E-03-4.41264E-14-4.79686E-13
 -1      1567 2.00183E+01 1.98689E-03-2.06355E-04 1.58191E-02-1.32271E-13-1.29999E-13
 -1      1568 1.99858E+01 4.14733E-04-5.24297E-05 3.11301E-03 1.67794E-15-4.07666E-13
 -1      1569 1.99914E+01 9.41495E-04 1.11733E-04 3.70505E-03-8.97150E-16-4.38261E-13
 -1      1570 2.00007E+01 1.38265E-03-1.63307E-04 9.53035E-03-5.30227E-14-1.91897E-13
 -1      1571 1.99792E+01 2.74536E-04-1.05577E-05 1.35019E-03-1.29728E-13-7.31450E-14
 -1      1572 1.99819E+01 6.65667E-04 1.04299E-04 1.77088E-03-1.53224E-13-4.12287E-13
 -1      1573 1.99900E+01 9.24592E-04-1.26663E-04 5.09646E-03-1.55399E-13-5.16959E-14
 -1      1574 1.99766E+01 1.71802E-04 1.53371E-05 1.95309E-04 2.63130E-14-1.04917E-13
 -1      1575 1.99773E+01 4.54990E-04 9.27736E-05 4.84704E-04 1.83087E-14-5.89928E-14
 -1      1576 1.99842E+01 5.86382E-04-9.63142E-05 2.07929E-03-9.44961E-14 4.92675E-14
 -1      1577 1.99765E+01 9.85641E-05 2.98902E-05-5.16483E-04 7.37645E-14-2.08879E-13
 -1      1578 1.99760E+01 2.97888E-04 7.96122E-05-3.25324E-04 4.44815E-14-1.49858E-13
 -1      1579 1.99817E+01 3.43474E-04-7.17657E-05 1.17514E-04 6.31809E-14-1.72030E-13
 -1      1580 1.99779E+01 4.79925E-05 3.66606E-05-9.14339E-04 1.79023E-14-3.97407E-13
 -1      1581 1.99768E+01 1.83636E-04 6.63858E-05-7.94904E-04 7.92235E-14-1.92110E-13
 -1      1582 1.99813E+01 1.74376E-04-5.23317E-05-1.07817E-03 8.33461E-14-1.56034E-13
 -1      1583 1.99802E+01 1.44338E-05 3.83091E-05-1.09704E-03 8.42940E-14-5.67663E-13
 -1      1584 1.99787E+01 1.02829E-04 5.40276E-05-1.02857E-03 8.80132E-14-4.30743E-13
 -1      1585 1.99823E+01 6.10567E-05-3.72591E-05-1.73353E-03 1.54299E-13-1.79436E-13
 -1      1586 1.99828E+01-6.65832E-06 3.67731E-05-1.13838E-03 1.60475E-14-7.49051E-13
 -1      1587 1.99812E+01 4.75360E-05 4.30283E-05-1.10500E-03-7.90744E-15-7.34882E-13
 -1      1588 1.99840E+01-1.11309E-05-2.58070E-05-2.02062E-03 1.44202E-13-3.60785E-13
 -1      1589 1.99856E+01-1.88532E-05 3.34255E-05-1.09216E-03-1.01820E-13-6.33822E-13
 -1      1590 1.99840E+01 1.12709E-05 3.35833E-05-1.08196E-03-6.82626E-14-6.79348E-13
 -1      1591 1.99861E+01-5.37693E-05-1.72913E-05-2.06749E-03-1.42113E-13-3.29355E-13
 -1      1592 1.99881E+01-2.48941E-05 2.92086E-05-9.96522E-04-3.02986E-14-5.44932E-13
 -1      1593 1.99867E+01-1.11429E-05 2.56997E-05-1.00082E-03-9.60452E-14-6.83082E-13
 -1      1594 1.99882E+01-7.58053E-05-1.11077E-05-1.96713E-03-4.48184E-14-3.43908E-13
 -1      1595 1.99905E+01-2.68495E-05 2.47457E-05-8.77664E-04 1.19729E-14-4.54000E-13
 -1      1596 1.99892E+01-2.37515E-05 1.92730E-05-8.90272E-04 3.77487E-14-4.49535E-13
 -1      1597 1.99903E+01-8.40035E-05-6.73795E-06-1.78521E-03 2.17232E-15-3.42665E-13
 -1      1598 1.99925E+01-2.62556E-05 2.04304E-05-7.52769E-04-6.22383E-14-4.98034E-13
 -1      1599 1.99914E+01-2.96638E-05 1.41395E-05-7.69425E-04 5.87355E-15-5.11272E-13
 -1      1600 1.99922E+01-8.33792E-05-3.74682E-06-1.56646E-03 1.35801E-14-1.14193E-13
 -1      1601 1.99943E+01-2.42428E-05 1.64987E-05-6.32350E-04 5.89378E-14-3.74728E-13
 -1      1602 1.99933E+01-3.12423E-05 1.01115E-05-6.50273E-04-1.05378E-13-5.41791E-13
 -1      1603 1.99939E+01-7.75891E-05-1.77170E-06-1.33995E-03-1.10863E-13-1.95110E-13
 -1      1604 1.99958E+01-2.16493E-05 1.30924E-05-5.22003E-04 5.97176E-16-5.18741E-13
 -1      1605 1.99950E+01-3.02829E-05 7.00347E-06-5.39540E-04 1.22650E-13-3.49427E-13
 -1      1606 1.99953E+01-6.92747E-05-5.05455E-07-1.12305E-03 1.35027E-13-1.26035E-14
 -1      1607 1.99970E+01-1.91224E-05 1.03266E-05-4.23647E-04 2.58303E-13-8.87911E-13
 -1      1608 1.99963E+01-2.81864E-05 4.65794E-06-4.40043E-04 1.43364E-13-6.81432E-13
 -1      1609 1.99965E+01-6.03634E-05 3.30809E-07-9.24490E-04 2.61898E-13-1.84013E-13
 -1      1610 1.99979E+01-1.72085E-05 8.37673E-06-3.36311E-04-1.31561E-13-9.65650E-13
 -1      1611 1.99974E+01-2.61217E-05 2.98514E-06-3.51594E-04-8.06557E-14-1.09196E-12
 -1      1612 1.99975E+01-5.23410E-05 1.02982E-06-7.46420E-04 1.66218E-13-4.92650E-13
 -1      1613 1.99987E+01-1.63422E-05 7.54307E-06-2.56614E-04 4.35197E-14-7.40818E-13
 -1      1614 1.99983E+01-2.51147E-05 2.03290E-06-2.71548E-04-2.02229E-14-8.36759E-13
 -1      1615 1.99983E+01-4.64633E-05 1.94829E-06-5.85775E-04-1.40150E-13-5.58217E-13
 -1      1616 1.99993E+01-1.68817E-05 7.89816E-06-1.79336E-04-1.66268E-13-4.95547E-13
 -1      1617 1.99990E+01-2.60494E-05 1.95496E-06-1.95415E-04-1.21705E-14-6.68245E-13
 -1      1618 1.99989E+01-4.38198E-05 3.45209E-06-4.35422E-04-7.14396E-14-2.29865E-13
 -1      1619 1.99996E+01-1.88323E-05 7.38053E-06-9.79514E-05-1.38925E-13-1.31638E-13
 -1      1620 1.99994E+01-2.94355E-05 2.32888E-06-1.17937E-04-1.94900E-13-3.55149E-13
 -1      1621 1.99993E+01-4.57730E-05 5.11562E-06-2.86085E-04-2.81670E-13-1.66701E-14
 -1      1622 1.99998E+01-1.85781E-05-3.24403E-06-1.80850E-05 1.35485E-13-2.50157E-13
 -1      1623 1.99997E+01-2.96691E-05 5.85735E-07-3.89303E-05 6.95828E-14-2.00670E-13
 -1      1624 1.99996E+01-4.65831E-05 5.03203E-06-1.31551E-04 7.08306E-14 1.19472E-14
 -1      1625 1.99998E+01-2.04466E-06-8.28551E-06 9.76588E-06-1.11599E-13-1.25017E-13
 -1      1626 1.99998E+01-1.37070E-04 4.40412E-06-7.66235E-05 8.62638E-14 3.32449E-13
 -1      1627 1.99998E+01-6.87894E-05-2.68036E-06-5.58697E-05-2.30596E-13 2.79445E-13
 -1      1628 1.99998E+01-4.36743E-04 3.39626E-06-1.57497E-04 1.55513E-13-5.22526E-14
 -1      1629 1.99998E+01-2.66227E-04 3.02649E-06-1.42735E-04 1.19166E-13-1.34414E-14
 -1      1630 1.99997E+01-2.77402E-04 5.77911E-06-2.17974E-04-3.65501E-15 2.69304E-13
 -1      1631 1.99998E+01-8.50168E-04 1.45214E-06-2.07769E-04 2.05004E-14-1.23892E-13
 -1      1632 1.99998E+01-6.12906E-04 2.34340E-06-2.00587E-04 2.26752E-13-3.49199E-14
 -1      1633 1.99998E+01-5.82183E-04 5.37358E-06-3.48990E-04 1.45940E-13-3.02779E-14
 -1      1634 1.99998E+01-1.30907E-03 1.07318E-07-2.20016E-04 4.44914E-13 1.73267E-13
 -1      1635 1.99998E+01-1.05055E-03 1.00658E-06-2.20693E-04 8.10871E-14 1.54012E-13
 -1      1636 1.99998E+01-9.58888E-04 1.44788E-06-4.15407E-04 2.52380E-13 1.40247E-14
 -1      1637 1.99998E+01-1.73346E-03-4.48490E-07-1.97267E-04 2.31499E-13-5.18975E-14
 -1      1638 1.99998E+01-1.50066E-03 2.15178E-07-2.04324E-04 1.84158E-13 3.68384E-14
 -1      1639 1.99998E+01-1.35027E-03-2.54104E-06-4.10698E-04 5.26314E-14 1.46004E-15
 -1      1640 1.99998E+01-2.07489E-03-6.37520E-07-1.45266E-04-1.44367E-15-1.66503E-13
 -1      1641 1.99998E+01-1.89590E-03-2.27426E-07-1.57498E-04 3.57364E-13-1.63983E-13
 -1      1642 1.99998E+01-1.70279E-03-5.75730E-06-3.43259E-04-1.14767E-13-1.71548E-13
 -1      1643 1.99998E+01-2.27714E-03-6.19782E-07-7.30934E-05-9.80562E-14-1.20384E-13
 -1      1644 1.99998E+01-2.18152E-03-4.12529E-07-8.84360E-05 6.92883E-15-1.76328E-13
 -1      1645 1.99998E+01-1.97005E-03-8.05365E-06-2.26118E-04 4.86709E-14-3.80347E-13
 -1      1646 1.99998E+01-2.31309E-03-5.31520E-07 8.88604E-06 4.79063E-13 4.90960E-13
 -1      1647 1.99998E+01-2.31391E-03-5.34569E-07-7.50402E-06-4.37265E-14 2.51514E-13
 -1      1648 1.99998E+01-2.11250E-03-9.22544E-06-7.79889E-05 3.02776E-13 1.72980E-13
 -1      1649 1.99998E+01-2.17792E-03-3.94531E-07 8.97127E-05 6.20673E-13 1.46614E-13
 -1      1650 1.99998E+01-2.27513E-03-6.23399E-07 7.44095E-05 3.34604E-13 3.40191E-13
 -1      1651 1.99998E+01-2.11132E-03-9.21539E-06 8.05942E-05 1.97196E-13 3.59289E-13
 -1      1652 1.99998E+01-1.88998E-03-1.68016E-07 1.58487E-04 6.38925E-13-2.07449E-14
 -1      1653 1.99998E+01-2.07027E-03-6.75429E-07 1.46367E-04 6.45998E-13-7.85865E-14
 -1      1654 1.99998E+01-1.96668E-03-8.00845E-06 2.28424E-04 1.30856E-13 4.65593E-14
 -1      1655 1.99998E+01-1.49679E-03 1.84670E-07 2.04513E-04 8.33400E-13 1.67824E-13
 -1      1656 1.99998E+01-1.73017E-03-4.76359E-07 1.97560E-04 8.01122E-13-2.81408E-14
 -1      1657 1.99998E+01-1.70043E-03-5.77884E-06 3.44304E-04 4.63345E-13 1.42938E-14
 -1      1658 1.99998E+01-1.04270E-03 9.85717E-07 2.20711E-04 6.68741E-13-2.21240E-13
 -1      1659 1.99998E+01-1.30136E-03 1.16418E-07 2.20176E-04 7.93672E-13 6.07611E-14
 -1      1660 1.99998E+01-1.34708E-03-2.48646E-06 4.11121E-04 5.99159E-13 5.68040E-14
 -1      1661 1.99998E+01-6.05549E-04 2.53938E-06 2.00239E-04 3.49435E-13-5.87038E-14
 -1      1662 1.99998E+01-8.42515E-04 1.42117E-06 2.07206E-04 5.09849E-13-6.58591E-14
 -1      1663 1.99998E+01-9.52183E-04 1.49186E-06 4.14950E-04 4.88826E-13-3.06220E-13
 -1      1664 1.99998E+01-2.65831E-04 9.62927E-07 1.42547E-04 1.56439E-13 3.03069E-14
 -1      1665 1.99998E+01-4.31981E-04 3.47131E-06 1.57762E-04 2.79893E-13-3.17613E-14
 -1      1666 1.99998E+01-5.77435E-04 5.29302E-06 3.47114E-04 3.85377E-13-3.32778E-13
 -1      1667 1.99997E+01-1.05483E-04-4.26315E-06 9.06035E-05-3.04725E-14-2.16112E-13
 -1      1668 1.99998E+01-1.77487E-04 3.01868E-06 1.20280E-04 1.50553E-13-2.01502E-13
 -1      1669 1.99997E+01-3.18876E-04 3.43014E-06 2.64415E-04 1.68380E-13-1.19875E-13
 -1      1670 1.99997E+01-1.56220E-04-2.43613E-06 1.85956E-04-3.90342E-14-2.73749E-13
 -1      1671-3.81876E-01-1.32985E+01-1.56787E+00-5.01310E-01 1.02085E-12 6.54088E-13
 -1      1672-4.46005E-01-1.51858E+01-1.73562E+00 5.42460E-01 1.23318E-13 6.33826E-13
 -1      1673 1.11512E+00-7.87456E+00-1.24828E+00 4.51711E-01 1.81177E-12 1.01799E-12
 -1      1674 5.46205E-01-1.25460E+01-1.70449E+00 6.99450E-02 1.38201E-12 6.23973E-13
 -1      1675 6.32298E+00-6.38977E-01-5.82125E-01 4.39882E+00 2.20401E-12 1.65001E-12
 -1      1676 3.64747E+00-5.94901E+00-1.29031E+00 1.82960E+00 1.91258E-12 1.24184E-12
 -1      1677 1.55406E+01 5.09290E+00 1.54551E-01 9.32192E+00 2.19624E-12 2.20068E-12
 -1      1678 9.71364E+00 1.39640E+00-7.13040E-01 5.67035E+00 2.30393E-12 1.87383E-12
 -1      1679 2.90335E+01 6.90025E+00 8.77340E-01 1.27509E+01 1.65135E-12 2.12230E-12
 -1      1680 2.04455E+01 6.18983E+00 4.52345E-02 1.03385E+01 2.06823E-12 2.18914E-12
 -1      1681 4.28373E+01 5.54673E+00 1.42738E+00 1.13710E+01 9.74831E-13 1.61304E-12
 -1      1682 3.42103E+01 6.94680E+00 7.85340E-01 1.22049E+01 1.38622E-12 1.95000E-12
 -1      1683 5.22589E+01 3.86756E+00 1.76060E+00 5.60939E+00 5.92720E-13 5.52003E-13
 -1      1684 4.66859E+01 5.41798E+00 1.39336E+00 9.78084E+00 8.85576E-13 1.30163E-12
 -1      1685 5.37554E+01 3.54514E+00 1.68445E+00-2.55247E+00 5.52780E-13-6.79790E-13
 -1      1686 5.40241E+01 3.64006E+00 1.78116E+00 3.14193E+00 5.23082E-13 1.76942E-13
 -1      1687 4.51319E+01 5.30247E+00 1.14305E+00-8.58190E+00 1.07366E-12-1.73916E-12
 -1      1688 5.08323E+01 3.93752E+00 1.53852E+00-4.49317E+00 7.41879E-13-9.61509E-13
 -1      1689 3.36984E+01 6.84796E+00 6.49878E-01-1.20316E+01 1.67338E-12-2.54063E-12
 -1      1690 4.21207E+01 5.38144E+00 1.26967E+00-1.11145E+01 1.21722E-12-2.23821E-12
 -1      1691 2.09054E+01 5.44586E+00-7.07795E-02-9.60433E+00 2.11831E-12-2.37388E-12
 -1      1692 2.90996E+01 6.03592E+00 6.88833E-01-1.16804E+01 1.77158E-12-2.47413E-12
 -1      1693 9.68533E+00 2.26547E+00-7.46809E-01-5.86494E+00 2.52232E-12-2.09199E-12
 -1      1694 1.53399E+01 5.29029E+00 3.82158E-04-9.22235E+00 2.41052E-12-2.44693E-12
 -1      1695 3.51737E+00-4.02019E+00-1.18431E+00-2.08157E+00 2.17737E-12-1.35536E-12
 -1      1696 6.09456E+00 7.97210E-01-5.90534E-01-4.50731E+00 2.48446E-12-1.90975E-12
 -1      1697 1.02012E+00-9.58159E+00-1.33226E+00-9.28911E-01 1.09823E-12-7.91950E-13
 -1      1698 1.80554E+00-5.50287E+00-9.66230E-01-1.48057E+00 1.76625E-12-1.17097E-12
 -1      1699-4.83347E-01-1.29221E+01-1.59345E+00-7.36973E-01 3.75394E-14-5.11480E-13
 -1      1700-4.26472E-01-1.11525E+01-1.41225E+00 3.56592E-01 8.90565E-13-6.36685E-13
 -1      1701-4.14984E-01-1.11215E+01-1.47462E+00-9.40143E-01-1.13731E-12-7.51343E-13
 -1      1702-3.90506E-01-1.27448E+01-1.56762E+00-1.53127E-02-3.00510E-13-5.49033E-13
 -1      1703 1.41586E+00-6.27211E+00-1.24499E+00 4.55855E-01-2.04736E-12-1.30373E-12
 -1      1704 6.91942E-01-1.03937E+01-1.59951E+00-1.50430E-01-1.44051E-12-8.66765E-13
 -1      1705 6.49593E+00-9.86818E-02-7.66966E-01 4.17204E+00-2.47602E-12-2.02638E-12
 -1      1706 3.66705E+00-4.75847E+00-1.39589E+00 1.58072E+00-2.26308E-12-1.49902E-12
 -1      1707 1.77457E+01 4.10736E+00 1.61161E-02 9.07916E+00-2.24532E-12-2.47380E-12
 -1      1708 1.12249E+01 9.71178E-01-8.22876E-01 5.54327E+00-2.35401E-12-2.14317E-12
 -1      1709 3.18147E+01 5.75835E+00 8.56422E-01 1.18111E+01-1.74427E-12-2.56684E-12
 -1      1710 2.28577E+01 5.25553E+00-3.51983E-02 9.80232E+00-2.13929E-12-2.56040E-12
 -1      1711 4.54613E+01 4.87574E+00 1.54461E+00 1.04398E+01-1.13476E-12-2.13518E-12
 -1      1712 3.68272E+01 6.16519E+00 8.23153E-01 1.15936E+01-1.54893E-12-2.50000E-12
 -1      1713 5.43349E+01 3.60457E+00 1.87677E+00 4.20590E+00-6.64496E-13-1.19971E-12
 -1      1714 4.89618E+01 4.88788E+00 1.50712E+00 8.59183E+00-9.72167E-13-1.87428E-12
 -1      1715 5.47682E+01 3.95473E+00 1.81290E+00-3.69753E+00-6.07348E-13-2.71450E-14
 -1      1716 5.51464E+01 3.76301E+00 1.83249E+00 1.74062E+00-6.25444E-13-8.86374E-13
 -1      1717 4.74913E+01 5.52000E+00 1.43885E+00-1.00462E+01-1.02006E-12 1.27931E-12
 -1      1718 5.36108E+01 3.97014E+00 1.87957E+00-6.03264E+00-7.09599E-13 4.14335E-13
 -1      1719 3.43095E+01 6.47144E+00 6.92694E-01-1.16742E+01-1.50358E-12 2.01394E-12
 -1      1720 4.34091E+01 5.34880E+00 1.44042E+00-1.11575E+01-1.09382E-12 1.58040E-12
 -1      1721 2.05018E+01 5.19356E+00-9.23432E-02-9.68387E+00-2.02183E-12 2.15694E-12
 -1      1722 2.91181E+01 6.16656E+00 7.75125E-01-1.22097E+01-1.67022E-12 2.22311E-12
 -1      1723 9.57272E+00 5.90158E-01-8.50966E-01-5.22555E+00-2.24176E-12 1.82265E-12
 -1      1724 1.53087E+01 4.30542E+00 8.89220E-04-8.83830E+00-2.11320E-12 2.19669E-12
 -1      1725 3.44972E+00-6.68915E+00-1.41259E+00-1.40423E+00-2.17715E-12 1.23568E-12
 -1      1726 6.11349E+00-1.37822E+00-7.20126E-01-3.95283E+00-2.29661E-12 1.57729E-12
 -1      1727 3.31984E-01-1.32870E+01-1.80900E+00 3.44235E-01-1.53055E-12 8.26568E-13
 -1      1728 8.38384E-01-8.62510E+00-1.37476E+00 2.98971E-02-2.13440E-12 1.15635E-12
 -1      1729-5.32827E-01-1.55679E+01-1.78609E+00-1.95153E-01-2.15133E-13 6.52561E-13
 -1      1730-5.73700E-01-1.41261E+01-1.69614E+00 1.00494E+00-1.16990E-12 8.03413E-13
 -1      1731 2.25416E+01 1.23628E+00 2.08795E-01 7.85716E+00 1.35492E-12 1.26288E-12
 -1      1732 1.29647E+01-2.89108E+00-4.03981E-01 6.51342E+00 1.21836E-12 1.29324E-12
 -1      1733 1.99998E+01-1.67371E-05-3.16298E-07-1.45181E-05-1.62110E-13-8.04161E-14
 -1      1734 1.99997E+01-1.06210E-04 1.58835E-07-9.48631E-05 7.60129E-14 1.35144E-13
 -1      1735 5.34619E-01-9.29195E+00-1.15427E+00 2.41791E+00 5.20972E-13 9.67337E-13
 -1      1736 5.37631E+00-6.69664E+00-8.55339E-01 4.60010E+00 9.67115E-13 1.07139E-12
 -1      1737-1.13121E+00-1.01116E+01-1.22214E+00 3.52779E-01-7.31429E-14 1.20759E-12
 -1      1738 3.28692E+01 4.28124E+00 8.03114E-01 7.51207E+00 1.16107E-12 1.00975E-12
 -1      1739 4.11464E+01 6.19041E+00 1.19684E+00 5.40095E+00 1.00045E-12 6.08069E-13
 -1      1740 4.61624E+01 7.16653E+00 1.48359E+00 2.21001E+00 9.45577E-13 5.10147E-14
 -1      1741 4.48433E+01 7.15452E+00 1.26170E+00-1.11268E+00 1.09335E-12-4.83502E-13
 -1      1742 4.02279E+01 6.11570E+00 1.05874E+00-4.67188E+00 1.25092E-12-1.04794E-12
 -1      1743 3.24560E+01 3.80539E+00 6.13820E-01-6.74023E+00 1.28672E-12-1.42486E-12
 -1      1744 2.27445E+01 1.38006E+00 1.76118E-01-7.39734E+00 1.41204E-12-1.51323E-12
 -1      1745 1.25168E+01-1.39572E+00-4.06608E-01-6.46440E+00 1.46749E-12-1.51112E-12
 -1      1746 5.38665E+00-4.61796E+00-7.75475E-01-4.75563E+00 9.46132E-13-1.25130E-12
 -1      1747 8.69534E-01-6.58477E+00-8.73880E-01-2.89450E+00 4.47309E-13-1.09895E-12
 -1      1748-9.59610E-01-7.98560E+00-1.09892E+00-2.44656E-01-1.19828E-13-1.03850E-12
 -1      1749 8.20690E-01-7.34533E+00-1.06283E+00 1.97496E+00-6.75349E-13-1.13087E-12
 -1      1750 5.67584E+00-5.49720E+00-9.03519E-01 4.02738E+00-1.19360E-12-1.31271E-12
 -1      1751 1.42150E+01-2.58875E+00-4.22935E-01 6.04071E+00-1.37568E-12-1.52328E-12
 -1      1752 2.47477E+01 3.38723E-01 1.16262E-01 6.68775E+00-1.34648E-12-1.47882E-12
 -1      1753 3.49922E+01 3.55527E+00 7.51350E-01 6.25863E+00-1.26804E-12-1.44218E-12
 -1      1754 4.33663E+01 5.84582E+00 1.32384E+00 4.28218E+00-1.08188E-12-1.09768E-12
 -1      1755 4.70171E+01 7.45616E+00 1.56346E+00 9.46235E-01-1.02907E-12-5.85421E-13
 -1      1756 4.67917E+01 7.44387E+00 1.56315E+00-2.23578E+00-1.13765E-12-7.07490E-14
 -1      1757 4.19797E+01 5.81349E+00 1.23110E+00-4.81956E+00-1.20562E-12 5.56666E-13
 -1      1758 3.34669E+01 3.25262E+00 7.41544E-01-6.69960E+00-1.14198E-12 1.00420E-12
 -1      1759 2.29317E+01 2.40361E-01 1.35596E-01-7.39483E+00-1.23235E-12 1.32960E-12
 -1      1760 1.29304E+01-3.56148E+00-4.88220E-01-6.17492E+00-1.31950E-12 1.17339E-12
 -1      1761 5.14737E+00-7.23557E+00-9.33800E-01-4.18721E+00-1.14497E-12 1.04166E-12
 -1      1762 2.18982E-01-9.86359E+00-1.24890E+00-1.84517E+00-6.75571E-13 1.20620E-12
 -1      1763 2.94999E+01 2.10194E+00-9.78093E-03-2.20808E+00-2.34767E-13 1.45989E-12
 -1      1764 2.12299E+01 3.37298E+00-4.47162E-02-6.80704E-01-2.68650E-13-1.10585E-13
 -1      1765 2.26864E+01 3.31297E+00-3.73256E-02-1.12100E+00-3.29767E-13 4.01346E-14
 -1      1766 2.41381E+01 2.97930E+00-5.57672E-02-1.48215E+00-3.33719E-13 2.12975E-13
 -1      1767 2.54430E+01 2.69279E+00-1.46645E-01-1.93061E+00-3.64590E-13 4.31974E-13
 -1      1768 2.37730E+01 2.19141E+00-1.97764E-02-1.07189E+00-3.34201E-13 1.61336E-13
 -1      1769 1.55546E+01 4.14698E+00-3.88373E-02 2.73794E-01-1.38301E-13-4.72443E-13
 -1      1770 1.68929E+01 4.11220E+00 1.70936E-02 1.86199E-01-1.66853E-13-4.15480E-13
 -1      1771 1.34336E+01 4.58161E+00-2.77123E-02 1.55284E-02-1.21952E-13-5.85316E-13
 -1      1772 1.43804E+01 4.55622E+00 2.01089E-02 1.52353E-01-1.31267E-13-5.39672E-13
 -1      1773 1.49302E+01 4.02110E+00-4.38305E-03 4.17074E-01-1.27592E-13-5.02880E-13
 -1      1774 1.25691E+01 4.76298E+00-4.62145E-03-6.33642E-01-1.24970E-13-6.28303E-13
 -1      1775 1.28209E+01 4.78702E+00 3.03932E-03-3.76039E-01-1.24730E-13-6.17628E-13
 -1      1776 1.29592E+01 4.57756E+00 1.74089E-02-8.63854E-02-1.20707E-13-6.13564E-13
 -1      1777 1.31772E+01 4.54383E+00 1.85172E-02-1.26589E+00-1.26005E-13-6.27051E-13
 -1      1778 1.26950E+01 4.62423E+00-1.98113E-02-1.06922E+00-1.30999E-13-6.29860E-13
 -1      1779 1.24522E+01 4.63600E+00 2.35687E-02-9.43030E-01-1.48256E-13-6.45392E-13
 -1      1780 1.48857E+01 4.04588E+00 2.58883E-02-1.47886E+00-1.20891E-13-5.81388E-13
 -1      1781 1.39228E+01 4.14453E+00-3.32037E-02-1.48103E+00-1.27672E-13-6.01580E-13
 -1      1782 1.34728E+01 4.13711E+00 4.26032E-03-1.60360E+00-1.49129E-13-6.26067E-13
 -1      1783 1.70089E+01 3.54943E+00 1.65017E-02-1.13564E+00-6.44155E-14-5.24882E-13
 -1      1784 1.59252E+01 3.61324E+00-3.27732E-02-1.36116E+00-9.24105E-14-5.48457E-13
 -1      1785 1.55018E+01 3.38744E+00-1.98813E-02-1.65764E+00-1.33418E-13-5.61062E-13
 -1      1786 1.89361E+01 3.26627E+00-1.33478E-03-3.85706E-01 1.88131E-14-4.67341E-13
 -1      1787 1.80053E+01 3.26689E+00-2.60131E-02-7.59338E-01-2.09832E-14-4.91815E-13
 -1      1788 1.77632E+01 2.77344E+00-3.11163E-02-1.09362E+00-5.62415E-14-4.83018E-13
 -1      1789 2.04853E+01 3.21144E+00-1.93813E-02 5.68951E-01 1.30585E-13-3.77674E-13
 -1      1790 1.97605E+01 3.15929E+00-2.26856E-02 1.15802E-01 7.17881E-14-4.16153E-13
 -1      1791 1.97227E+01 2.46818E+00-2.89633E-02-1.65037E-01 4.09499E-14-3.97930E-13
 -1      1792 2.16631E+01 3.26451E+00-3.84115E-02 1.53758E+00 2.52503E-13-2.63858E-13
 -1      1793 2.11081E+01 3.20641E+00-2.70929E-02 1.06905E+00 1.86878E-13-3.25490E-13
 -1      1794 2.12172E+01 2.41330E+00-2.11429E-02 8.52916E-01 1.67475E-13-3.00551E-13
 -1      1795 2.27087E+01 3.20187E+00-6.58156E-02 2.40600E+00 3.71883E-13-5.91124E-14
 -1      1796 2.21769E+01 3.23026E+00-4.29396E-02 1.95627E+00 3.05082E-13-1.72026E-13
 -1      1797 2.23473E+01 2.41607E+00-1.10844E-02 1.75802E+00 2.98882E-13-1.63737E-13
 -1      1798 2.40987E+01 2.62920E+00-7.76739E-02 3.00840E+00 4.21370E-13 3.15262E-13
 -1      1799 2.33216E+01 2.96259E+00-5.68214E-02 2.67129E+00 3.93968E-13 8.38496E-14
 -1      1800 2.34283E+01 2.18107E+00 5.40101E-03 2.37485E+00 3.97168E-13 5.34815E-14
 -1      1801 2.53149E+01 1.16320E+00-1.45812E-01 2.48694E+00 3.83922E-13 8.24077E-13
 -1      1802 2.46389E+01 2.28395E+00-7.56649E-04 2.90868E+00 4.03268E-13 4.87027E-13
 -1      1803 2.41789E+01 1.47020E+00-3.27711E-02 2.36160E+00 4.37043E-13 3.25195E-13
 -1      1804 2.44598E+01 6.67058E-01-7.27477E-02 1.71155E+00 3.91069E-13 7.16566E-13
 -1      1805 2.77403E+01 2.49427E+00 8.89863E-02-2.33566E+00-3.11902E-13 8.15681E-13
 -1      1806 2.33588E+01 1.10916E-01-1.33792E-02 1.10895E+00 3.00839E-13 5.72353E-13
 -1      1807 2.40732E+01 2.65911E-01-2.08882E-02 1.35886E+00 3.25164E-13 6.70792E-13
 -1      1808 2.40635E+01 6.31034E-01 3.86056E-03 1.78555E+00 3.70069E-13 4.47453E-13
 -1      1809 2.71169E+01 1.51711E+00 8.36468E-02-1.57743E+00-3.26704E-13 6.65426E-13
 -1      1810 2.67738E+01-3.55532E-05 4.00824E-02-6.52496E-01-2.35334E-13 6.49467E-13
 -1      1811 2.63295E+01-2.83893E-01-2.57777E-02-6.82435E-01-2.13251E-13 5.98696E-13
 -1      1812 2.63865E+01-4.73631E-01 3.00501E-02-8.82839E-01-1.69901E-13 6.35495E-13
 -1      1813 2.59770E+01-6.29238E-01-2.27962E-02-1.17963E+00-1.45627E-13 5.93685E-13
 -1      1814 2.59578E+01-5.41023E-01-1.39961E-02-9.30813E-01-2.06969E-13 4.54513E-13
 -1      1815 2.60140E+01-6.69619E-01 1.16567E-02-1.59741E+00-1.08215E-13 6.28148E-13
 -1      1816 2.54712E+01-5.99373E-01-1.14913E-02-1.94423E+00-7.44873E-14 6.04019E-13
 -1      1817 2.60320E+01-9.45783E-01-4.96029E-03-1.57448E+00-1.37731E-13 4.90714E-13
 -1      1818 2.53204E+01-3.91595E-01-1.75094E-02-2.30768E+00-5.23355E-14 5.93515E-13
 -1      1819 2.46825E+01-1.37809E-02 1.03535E-02-2.41719E+00-7.47839E-14 5.58107E-13
 -1      1820 2.59628E+01-6.82465E-01 6.57575E-03-2.46045E+00-9.36516E-14 5.07893E-13
 -1      1821 2.42851E+01 4.40583E-01-3.93205E-02-2.30661E+00-1.52829E-13 4.77521E-13
 -1      1822 2.37465E+01 9.38238E-01 1.80409E-02-1.91922E+00-2.43056E-13 3.71540E-13
 -1      1823 2.54750E+01 3.53062E-01-1.38150E-02-2.81563E+00-1.85466E-13 4.24437E-13
 -1      1824 2.33719E+01 1.31706E+00-3.15191E-02-1.13911E+00-3.17447E-13 2.56680E-13
 -1      1825 2.31779E+01 1.49720E+00-8.26535E-03-3.44247E-01-3.41338E-13 1.91225E-13
 -1      1826 2.47435E+01 1.65941E+00-4.98496E-02-1.87157E+00-3.41976E-13 2.35104E-13
 -1      1827 2.31950E+01 1.41961E+00 1.58690E-03 6.79294E-01-3.16754E-13 9.00031E-14
 -1      1828 2.34205E+01 1.10224E+00-3.90936E-02 1.39006E+00-2.86139E-13 5.16288E-14
 -1      1829 2.43976E+01 2.11164E+00-6.98760E-02 1.85386E-01-4.06897E-13 3.66170E-14
 -1      1830 2.37462E+01 6.45954E-01 1.80845E-02 1.97842E+00-2.91614E-13 1.38743E-14
 -1      1831 2.42396E+01 1.29087E-01-3.97982E-02 2.19392E+00-1.79001E-13-3.90903E-14
 -1      1832 2.47262E+01 1.29717E+00-3.78874E-02 2.00681E+00-3.08260E-13-1.03650E-13
 -1      1833 2.44601E+01-2.91438E-01 5.61780E-04 2.08929E+00-1.70182E-13-1.18081E-13
 -1      1834 2.49474E+01-6.12449E-01-1.99885E-02 1.83742E+00-1.33692E-13-2.33884E-13
 -1      1835 2.52315E+01-8.10686E-02-3.44075E-03 2.47296E+00-2.92977E-13-2.37100E-13
 -1      1836 2.48713E+01-7.70100E-01-2.37030E-02 1.33077E+00-8.63042E-14-2.97823E-13
 -1      1837 2.51600E+01-8.07458E-01-2.34066E-03 8.90155E-01-2.55369E-14-3.16664E-13
 -1      1838 2.53282E+01-9.90368E-01 9.14790E-03 1.72828E+00-1.83676E-13-3.09595E-13
 -1      1839 2.48684E+01-7.55126E-01-3.36892E-02 3.55232E-01-5.21597E-14-3.17143E-13
 -1      1840 2.49064E+01-6.34453E-01 3.58799E-03-3.65623E-02-7.55750E-14-3.42240E-13
 -1      1841 2.49422E+01-1.15726E+00 1.84842E-03 5.63972E-01-7.30613E-14-2.79027E-13
 -1      1842 2.45456E+01-5.07454E-01-2.89096E-02-4.11136E-01-3.91631E-14-3.33363E-13
 -1      1843 2.43800E+01-3.60070E-01 3.07046E-03-6.59477E-01 1.22125E-14-2.37620E-13
 -1      1844 2.43074E+01-8.65962E-01-5.72436E-03-4.14435E-01-3.03715E-14-3.20367E-13
 -1      1845 2.40344E+01-2.44107E-01-1.78582E-02-8.50071E-01 5.59448E-16-2.32495E-13
 -1      1846 2.37467E+01-1.32382E-01 1.56502E-03-9.60434E-01 3.36497E-14-1.55420E-13
 -1      1847 2.36300E+01-4.70192E-01-7.77814E-03-1.00834E+00 3.48185E-14-2.31708E-13
 -1      1848 2.34437E+01-5.51172E-02-7.19779E-03-1.01360E+00-2.52829E-14-1.67392E-13
 -1      1849 2.31078E+01 1.04799E-02 8.54935E-04-1.02875E+00 3.36287E-14-1.89404E-13
 -1      1850 2.30034E+01-1.55622E-01-6.73374E-03-1.25707E+00-1.17866E-14-2.09917E-13
 -1      1851 2.28490E+01 5.20244E-02 3.19499E-04-1.00028E+00 3.83210E-14-1.61719E-13
 -1      1852 2.25157E+01 8.22113E-02 8.61587E-04-9.62946E-01-6.54468E-15-1.67796E-13
 -1      1853 2.24522E+01 3.67176E-02-5.18135E-03-1.27366E+00 4.45864E-14-2.12185E-13
 -1      1854 2.22965E+01 9.95295E-02 4.56104E-03-8.95296E-01-5.11288E-14-1.67857E-13
 -1      1855 2.19945E+01 1.07996E-01 1.14243E-03-8.35775E-01-1.89341E-14-1.24743E-13
 -1      1856 2.19766E+01 1.30455E-01-4.05202E-03-1.16269E+00-1.86603E-14-1.52981E-13
 -1      1857 2.18103E+01 1.11467E-01 6.36454E-03-7.55512E-01 5.90873E-14-6.25281E-14
 -1      1858 2.15519E+01 1.08607E-01 1.39906E-03-6.91626E-01 1.23437E-13-5.06630E-14
 -1      1859 2.15713E+01 1.61679E-01-3.35235E-03-9.97166E-01 1.03752E-13-4.38830E-14
 -1      1860 2.13990E+01 1.05252E-01 6.65357E-03-6.13207E-01 1.15749E-13-3.35940E-14
 -1      1861 2.11865E+01 9.75184E-02 1.52061E-03-5.53917E-01 1.31747E-13-1.40896E-14
 -1      1862 2.12308E+01 1.59173E-01-2.90198E-03-8.20677E-01 1.34684E-13-1.46285E-13
 -1      1863 2.10613E+01 9.14382E-02 6.14140E-03-4.84052E-01 1.08489E-13-2.00740E-14
 -1      1864 2.08915E+01 8.23590E-02 1.50796E-03-4.32978E-01 9.90425E-14-6.01550E-14
 -1      1865 2.09494E+01 1.41362E-01-2.55726E-03-6.55872E-01 1.25622E-13-1.87966E-13
 -1      1866 2.07906E+01 7.57004E-02 5.29044E-03-3.73951E-01 8.06540E-14-1.11225E-13
 -1      1867 2.06579E+01 6.69889E-02 1.40085E-03-3.31862E-01-4.64945E-14-8.11305E-14
 -1      1868 2.07206E+01 1.18572E-01-2.24482E-03-5.12460E-01 4.62270E-14-1.60581E-13
 -1      1869 2.05779E+01 6.07562E-02 4.36418E-03-2.83665E-01-3.32327E-14-6.06472E-14
 -1      1870 2.04763E+01 5.31164E-02 1.24159E-03-2.49978E-01 1.12319E-14 2.13833E-14
 -1      1871 2.05377E+01 9.59697E-02-1.94105E-03-3.92947E-01-9.65916E-16-1.80398E-13
 -1      1872 2.04138E+01 4.77003E-02 3.49494E-03-2.11562E-01-3.44311E-14 3.69058E-15
 -1      1873 2.03372E+01 4.13215E-02 1.06258E-03-1.85162E-01-2.33654E-14-5.14589E-15
 -1      1874 2.03939E+01 7.57927E-02-1.64652E-03-2.96216E-01-2.74791E-14-1.52049E-13
 -1      1875 2.02893E+01 3.68078E-02 2.73786E-03-1.55109E-01-1.74146E-14-2.09293E-14
 -1      1876 2.02326E+01 3.16404E-02 8.84911E-04-1.34767E-01-1.46614E-14-1.49888E-14
 -1      1877 2.02826E+01 5.87526E-02-1.36939E-03-2.19594E-01-3.31445E-14-1.77823E-13
 -1      1878 2.01964E+01 2.79768E-02 2.10678E-03-1.11626E-01-4.74425E-14-1.17827E-13
 -1      1879 2.01551E+01 2.38763E-02 7.20662E-04-9.61860E-02-6.79017E-14-1.62552E-13
 -1      1880 2.01978E+01 4.48331E-02-1.11752E-03-1.59948E-01-9.78849E-14-2.56416E-13
 -1      1881 2.01282E+01 2.09575E-02 1.59558E-03-7.86283E-02-1.37434E-13-1.79033E-13
 -1      1882 2.00988E+01 1.77544E-02 5.75681E-04-6.70796E-02-1.34737E-13-3.00349E-13
 -1      1883 2.01344E+01 3.37128E-02-8.95768E-04-1.14226E-01-1.10775E-13-3.32408E-13
 -1      1884 2.00792E+01 1.54629E-02 1.18990E-03-5.39548E-02-7.20209E-14-2.12096E-13
 -1      1885 2.00588E+01 1.29942E-02 4.51865E-04-4.54487E-02-1.23315E-13-1.62447E-13
 -1      1886 2.00877E+01 2.49744E-02-7.05845E-04-7.96921E-02-7.82961E-14-2.75166E-13
 -1      1887 2.00448E+01 1.12186E-02 8.73132E-04-3.57924E-02-1.42182E-13-1.53859E-13
 -1      1888 2.00310E+01 9.34013E-03 3.48786E-04-2.96341E-02-6.70634E-14-1.77860E-13
 -1      1889 2.00541E+01 1.82021E-02-5.46982E-04-5.40029E-02-1.10140E-13-2.23135E-13
 -1      1890 2.00213E+01 7.98145E-03 6.29287E-04-2.26556E-02-3.23317E-14-2.75719E-13
 -1      1891 2.00124E+01 6.57089E-03 2.64755E-04-1.82859E-02-1.27753E-13-3.21442E-13
 -1      1892 2.00305E+01 1.30203E-02-4.16821E-04-3.52075E-02-1.53925E-13-2.91781E-13
 -1      1893 2.00059E+01 5.54494E-03 4.44113E-04-1.33472E-02-2.32833E-13-2.12743E-13
 -1      1894 2.00004E+01 4.50091E-03 1.97502E-04-1.03218E-02-1.43995E-13-1.26845E-13
 -1      1895 2.00143E+01 9.10685E-03-3.12143E-04-2.17134E-02-7.86333E-14-2.91958E-13
 -1      1896 1.99962E+01 3.73731E-03 3.05452E-04-6.91551E-03-8.36128E-14-1.70188E-13
 -1      1897 1.99931E+01 2.97721E-03 1.44585E-04-4.88561E-03-1.91671E-14-1.07876E-13
 -1      1898 2.00037E+01 6.19245E-03-2.29405E-04-1.22407E-02-1.52870E-13-1.13963E-13
 -1      1899 1.99906E+01 2.41812E-03 2.03196E-04-2.61269E-03-8.33088E-14-2.26452E-13
 -1      1900 1.99892E+01 1.87537E-03 1.03629E-04-1.30774E-03-8.92998E-14-2.45806E-13
 -1      1901 1.99971E+01 4.05609E-03-1.65093E-04-5.77446E-03-1.47835E-13-1.76482E-13
 -1      1902 1.99879E+01 1.47380E-03 1.29085E-04 1.41535E-04-5.45503E-14-3.61589E-13
 -1      1903 1.99875E+01 1.09537E-03 7.24545E-05 9.28941E-04 1.41454E-13-3.66018E-13
 -1      1904 1.99933E+01 2.51862E-03-1.15932E-04-1.51945E-03-9.16302E-14-2.81898E-13
 -1      1905 1.99870E+01 8.13534E-04 7.64617E-05 1.79197E-03 2.94553E-13-4.36258E-13
 -1      1906 1.99873E+01 5.57555E-04 4.91383E-05 2.21877E-03 1.14508E-13-3.48533E-13
 -1      1907 1.99914E+01 1.43644E-03-7.89976E-05 1.13926E-03 1.27522E-13-4.40969E-13
 -1      1908 1.99873E+01 3.65439E-04 4.00218E-05 2.67499E-03-1.92838E-13-3.15273E-13
 -1      1909 1.99880E+01 1.99234E-04 3.20295E-05 2.85818E-03-2.22047E-13-3.50235E-13
 -1      1910 1.99908E+01 6.95614E-04-5.17613E-05 2.67095E-03 3.75114E-14-3.42064E-13
 -1      1911 1.99883E+01 7.32390E-05 1.55875E-05 3.04116E-03-2.66316E-13-3.59738E-13
 -1      1912 1.99892E+01-2.84128E-05 1.97431E-05 3.06650E-03-2.67835E-13-4.24837E-13
 -1      1913 1.99911E+01 2.06726E-04-3.20888E-05 3.42862E-03-2.31785E-13-2.21977E-13
 -1      1914 1.99896E+01-1.06615E-04-9.43865E-08 3.07389E-03 2.87255E-15-3.97384E-13
 -1      1915 1.99906E+01-1.62943E-04 1.11375E-05 3.00301E-03 1.41114E-13-3.81301E-13
 -1      1916 1.99918E+01-9.96239E-05-1.82169E-05 3.67349E-03-4.04692E-14-2.22342E-13
 -1      1917 1.99911E+01-2.07415E-04-9.52617E-06 2.90473E-03-4.83891E-14-3.54623E-13
 -1      1918 1.99921E+01-2.32894E-04 5.28532E-06 2.78083E-03-1.74160E-13-3.69539E-13
 -1      1919 1.99927E+01-2.76658E-04-8.71554E-06 3.59522E-03 1.30800E-14-1.86651E-13
 -1      1920 1.99926E+01-2.54295E-04-1.46078E-05 2.62560E-03-2.27163E-13-2.33854E-13
 -1      1921 1.99935E+01-2.59683E-04 1.44067E-06 2.47797E-03-1.26125E-13-2.69781E-13
 -1      1922 1.99938E+01-3.64686E-04-2.44352E-06 3.32841E-03-1.19574E-13-2.05549E-13
 -1      1923 1.99940E+01-2.66001E-04-1.67614E-05 2.29857E-03-3.29834E-14-2.40657E-13
 -1      1924 1.99947E+01-2.59211E-04-9.93125E-07 2.14615E-03 2.30326E-13-2.02540E-13
 -1      1925 1.99948E+01-3.93875E-04 1.49494E-06 2.96579E-03-1.09484E-13 8.32172E-14
 -1      1926 1.99952E+01-2.56389E-04-1.70336E-05 1.96346E-03 2.24875E-13-2.64027E-13
 -1      1927 1.99959E+01-2.43217E-04-2.49430E-06 1.81750E-03 2.33294E-13-2.24072E-13
 -1      1928 1.99958E+01-3.86581E-04 3.79097E-06 2.56861E-03 1.76984E-13-4.30247E-15
 -1      1929 1.99963E+01-2.35689E-04-1.61774E-05 1.64356E-03 3.35508E-13-3.23096E-13
 -1      1930 1.99968E+01-2.20427E-04-3.44649E-06 1.50964E-03 3.19441E-13-9.67521E-14
 -1      1931 1.99967E+01-3.59315E-04 4.96665E-06 2.17472E-03 2.37392E-13-1.58958E-13
 -1      1932 1.99972E+01-2.11566E-04-1.47105E-05 1.34996E-03 3.14241E-13 7.60264E-15
 -1      1933 1.99977E+01-1.97481E-04-4.13728E-06 1.22936E-03 4.46337E-13 1.71125E-13
 -1      1934 1.99974E+01-3.24398E-04 5.40508E-06 1.80459E-03 4.31874E-13-6.46972E-14
 -1      1935 1.99980E+01-1.89926E-04-1.29408E-05 1.08456E-03 2.45015E-13-2.84431E-14
 -1      1936 1.99983E+01-1.79585E-04-4.72907E-06 9.75283E-04 5.76089E-14-1.42142E-13
 -1      1937 1.99981E+01-2.91226E-04 5.38720E-06 1.46578E-03 2.51826E-13-2.42777E-13
 -1      1938 1.99986E+01-1.75414E-04-1.09764E-05 8.42499E-04-1.08612E-13-3.22476E-13
 -1      1939 1.99989E+01-1.70749E-04-5.21819E-06 7.40112E-04-3.37118E-13-4.31690E-13
 -1      1940 1.99986E+01-2.67127E-04 5.06848E-06 1.15651E-03-1.68663E-13-7.72590E-13
 -1      1941 1.99991E+01-1.70887E-04-8.68212E-06 6.14419E-04-2.35207E-13-2.45656E-13
 -1      1942 1.99993E+01-1.71557E-04-5.39184E-06 5.13509E-04-7.93233E-14-1.68975E-13
 -1      1943 1.99990E+01-2.57191E-04 4.32511E-06 8.68959E-04-1.89702E-13-4.66493E-13
 -1      1944 1.99994E+01-1.69825E-04-6.72651E-06 3.97551E-04 4.09768E-14-2.50403E-13
 -1      1945 1.99995E+01-1.69780E-04-5.82208E-06 2.99527E-04 8.27327E-14-2.18239E-13
 -1      1946 1.99996E+01-2.31916E-04 3.60148E-06 3.55810E-04-1.99374E-15-3.33192E-13
 -1      1947 1.99993E+01-2.50669E-04 5.53760E-06 6.00900E-04-5.13783E-14-2.08753E-13
 -1      1948 2.24429E+01-3.53185E-02 6.36405E-03 1.03135E+00 1.92760E-13 4.47638E-13
 -1      1949 2.29807E+01 8.09445E-03 1.17605E-02 1.04918E+00 2.29547E-13 5.27951E-13
 -1      1950 2.31723E+01 8.32605E-02 3.76476E-03 1.37079E+00 2.80897E-13 3.90955E-13
 -1      1951 2.15819E+01-2.51571E-02 7.82869E-03 1.07663E+00 1.32270E-13 3.50073E-13
 -1      1952 2.20617E+01-4.36007E-02 1.06025E-02 1.04272E+00 1.36651E-13 4.13384E-13
 -1      1953 2.23704E+01-4.23326E-02 5.49221E-03 1.32047E+00 1.83357E-13 3.20165E-13
 -1      1954 2.07642E+01 8.17746E-02 7.48197E-03 1.02771E+00 1.23313E-13 2.75381E-13
 -1      1955 2.12083E+01 2.80249E-02 7.42090E-03 1.04296E+00 1.26868E-13 3.12686E-13
 -1      1956 2.16133E+01 2.96428E-02 2.95881E-03 1.31254E+00 1.59194E-13 2.35427E-13
 -1      1957 2.00788E+01 2.23846E-01 5.65497E-03 7.59970E-01 9.03565E-14 1.71597E-13
 -1      1958 2.04413E+01 1.66743E-01 7.96285E-03 8.80314E-01 9.68583E-14 2.35573E-13
 -1      1959 2.09176E+01 2.06419E-01-2.18472E-03 1.13165E+00 1.27900E-13 1.59775E-13
 -1      1960 1.96728E+01 3.20878E-01 1.81095E-03 2.73128E-01 1.34307E-13 5.79237E-14
 -1      1961 1.98805E+01 2.96560E-01 1.06698E-02 4.95359E-01 1.07627E-13 1.17155E-13
 -1      1962 2.03890E+01 3.86638E-01-7.83908E-03 6.84191E-01 1.39683E-13 3.73716E-14
 -1      1963 1.96582E+01 3.11314E-01-1.66344E-03-2.98101E-01 1.54377E-13-4.37237E-15
 -1      1964 1.96579E+01 3.39087E-01 1.24463E-02-3.89145E-02 1.59751E-13 4.07729E-14
 -1      1965 2.01572E+01 4.64057E-01-1.06222E-02 3.82197E-02 1.75950E-13-2.99187E-14
 -1      1966 2.00208E+01 1.98300E-01-1.98547E-03-7.60872E-01 1.01730E-13-1.53755E-13
 -1      1967 1.98181E+01 2.66234E-01 1.11430E-02-5.51467E-01 1.24569E-13-8.07774E-14
 -1      1968 2.02752E+01 3.89116E-01-8.12042E-03-6.04734E-01 1.79164E-13-1.22959E-13
 -1      1969 2.06195E+01 3.83020E-02 9.09707E-04-9.74305E-01 5.57750E-14-2.16140E-13
 -1      1970 2.02818E+01 1.14225E-01 6.72880E-03-8.75802E-01 9.19911E-14-2.02028E-13
 -1      1971 2.06692E+01 1.96689E-01-2.01316E-03-1.03371E+00 1.31885E-13-2.07887E-13
 -1      1972 2.12531E+01-9.55827E-02 4.17948E-03-9.19293E-01 1.20951E-13-2.62336E-13
 -1      1973 2.08813E+01-4.26121E-02 7.24263E-04-9.37170E-01 9.77475E-14-2.44844E-13
 -1      1974 2.11739E+01-2.47925E-02 2.09546E-03-1.14188E+00 1.07130E-13-2.23085E-13
 -1      1975 2.17603E+01-1.65180E-01 5.73620E-03-6.80442E-01 9.97904E-14-3.18308E-13
 -1      1976 2.14439E+01-1.46067E-01-4.44673E-03-7.77412E-01 1.21460E-13-2.84150E-13
 -1      1977 2.16251E+01-1.86146E-01 3.05003E-03-9.69130E-01 1.50913E-13-2.98747E-13
 -1      1978 2.20625E+01-1.72440E-01 5.15394E-03-3.74024E-01 1.89846E-13-3.93630E-13
 -1      1979 2.18534E+01-1.80644E-01-7.34355E-03-5.00581E-01 1.46065E-13-3.22891E-13
 -1      1980 2.19244E+01-2.53689E-01 1.79513E-03-6.39614E-01 1.67165E-13-3.41462E-13
 -1      1981 2.21568E+01-1.40911E-01 3.47264E-03-9.14599E-02 2.74060E-14-3.59685E-13
 -1      1982 2.20659E+01-1.63144E-01-7.82477E-03-2.09195E-01 6.66116E-14-3.91395E-13
 -1      1983 2.20464E+01-2.41456E-01 3.36218E-04-2.81488E-01 1.03778E-13-2.98884E-13
 -1      1984 2.20837E+01-9.53677E-02 1.66912E-03 1.20592E-01-5.26853E-14-2.93245E-13
 -1      1985 2.20941E+01-1.20267E-01-6.62363E-03 3.13836E-02 7.69003E-15-3.26586E-13
 -1      1986 2.20139E+01-1.85392E-01-4.70940E-04 2.06098E-02 1.31119E-14-2.80496E-13
 -1      1987 2.18980E+01-5.21533E-02 2.87380E-04 2.52403E-01 5.96164E-14-3.83837E-13
 -1      1988 2.19804E+01-7.32467E-02-4.68339E-03 1.96116E-01 1.88985E-14-3.21416E-13
 -1      1989 2.18698E+01-1.17909E-01-7.22347E-04 2.31914E-01 1.63814E-14-2.73776E-13
 -1      1990 2.16513E+01-1.86409E-02-5.10117E-04 3.15162E-01-7.36954E-15-4.32137E-13
 -1      1991 2.17756E+01-3.36594E-02-2.68728E-03 2.87469E-01 1.34948E-14-3.89969E-13
 -1      1992 2.16585E+01-5.83888E-02-6.67724E-04 3.52672E-01 6.63740E-14-2.81667E-13
 -1      1993 2.13837E+01 3.80407E-03-8.31820E-04 3.27645E-01-3.31205E-14-3.18937E-13
 -1      1994 2.15252E+01-5.35114E-03-1.01346E-03 3.20973E-01 3.26723E-14-3.88906E-13
 -1      1995 2.14172E+01-1.44574E-02-5.30088E-04 4.00517E-01 3.04235E-14-2.74505E-13
 -1      1996 2.11229E+01 1.67854E-02-8.50562E-04 3.08286E-01-6.30920E-14-4.21823E-13
 -1      1997 2.12639E+01 1.22372E-02 1.96201E-04 3.15101E-01-8.78076E-14-3.81317E-13
 -1      1998 2.11732E+01 1.36234E-02-4.25889E-04 3.97709E-01-5.14396E-14-2.90817E-13
 -1      1999 2.08855E+01 2.28118E-02-7.16355E-04 2.71815E-01 4.40780E-14-4.49474E-13
 -1      2000 2.10153E+01 2.14380E-02 9.55720E-04 2.86036E-01 2.82196E-14-4.09020E-13
 -1      2001 2.09443E+01 2.88717E-02-3.77184E-04 3.64306E-01 3.54113E-14-3.65810E-13
 -1      2002 2.06797E+01 2.42596E-02-5.30398E-04 2.28598E-01-3.93869E-15-4.57961E-13
 -1      2003 2.07927E+01 2.48385E-02 1.34973E-03 2.45905E-01-3.12367E-14-4.76163E-13
 -1      2004 2.07406E+01 3.50476E-02-3.67371E-04 3.15649E-01-8.76675E-15-4.41688E-13
 -1      2005 2.05080E+01 2.29960E-02-3.49056E-04 1.85213E-01 3.31144E-14-4.49680E-13
 -1      2006 2.06023E+01 2.46241E-02 1.48076E-03 2.02830E-01 8.17827E-14-4.47560E-13
 -1      2007 2.05666E+01 3.54668E-02-3.72917E-04 2.62225E-01 4.33527E-14-4.50555E-13
 -1      2008 2.03692E+01 2.03376E-02-1.97591E-04 1.45384E-01-4.56128E-14-4.89592E-13
 -1      2009 2.04453E+01 2.24074E-02 1.44182E-03 1.61712E-01-1.13150E-14-4.63116E-13
 -1      2010 2.04226E+01 3.26316E-02-3.76509E-04 2.10505E-01 1.56123E-14-4.18869E-13
 -1      2011 2.02601E+01 1.71416E-02-8.30334E-05 1.10880E-01-9.60243E-14-5.65951E-13
 -1      2012 2.03196E+01 1.92770E-02 1.30583E-03 1.25134E-01-1.38788E-13-5.37652E-13
 -1      2013 2.03069E+01 2.82538E-02-3.69624E-04 1.64012E-01-7.46795E-14-4.31298E-13
 -1      2014 2.01765E+01 1.39247E-02-3.25133E-06 8.22261E-02-5.07670E-14-4.33660E-13
 -1      2015 2.02218E+01 1.59139E-02 1.12463E-03 9.41435E-02-9.21853E-14-5.38125E-13
 -1      2016 2.02163E+01 2.34147E-02-3.50516E-04 1.24284E-01-8.97800E-14-3.93203E-13
 -1      2017 2.01140E+01 1.09697E-02 4.76476E-05 5.92166E-02 6.49883E-14-2.44933E-13
 -1      2018 2.01477E+01 1.27100E-02 9.32149E-04 6.88483E-02 8.29980E-14-2.85472E-13
 -1      2019 2.01469E+01 1.87433E-02-3.21256E-04 9.16098E-02 1.66514E-14-2.86066E-13
 -1      2020 2.00686E+01 8.40770E-03 7.64113E-05 4.12658E-02-1.09316E-13-1.89190E-14
 -1      2021 2.00929E+01 9.86436E-03 7.48686E-04 4.88288E-02 2.02073E-14-1.07541E-13
 -1      2022 2.00952E+01 1.45649E-02-2.85393E-04 6.55674E-02-7.25922E-15-4.35609E-14
 -1      2023 2.00366E+01 6.27646E-03 8.92616E-05 2.76289E-02-2.06117E-13-1.92004E-14
 -1      2024 2.00535E+01 7.45460E-03 5.84988E-04 3.34137E-02-1.76769E-13-1.27672E-14
 -1      2025 2.00576E+01 1.10122E-02-2.46548E-04 4.53754E-02-1.50797E-13 1.34348E-13
 -1      2026 2.00148E+01 4.56037E-03 9.13589E-05 1.75371E-02-5.64828E-14-3.89587E-14
 -1      2027 2.00261E+01 5.48616E-03 4.45492E-04 2.18503E-02-1.27082E-13 1.39595E-14
 -1      2028 2.00310E+01 8.10348E-03-2.07722E-04 3.01199E-02-1.18246E-13 4.52872E-14
 -1      2029 2.00006E+01 3.21636E-03 8.67030E-05 1.02717E-02-9.95144E-14 4.67091E-14
 -1      2030 2.00078E+01 3.92512E-03 3.30739E-04 1.34039E-02-1.11680E-13-4.06766E-14
 -1      2031 2.00129E+01 5.79399E-03-1.71078E-04 1.88898E-02-9.59580E-14 5.73717E-14
 -1      2032 1.99919E+01 2.19009E-03 7.82350E-05 5.20093E-03-1.83178E-13 4.87227E-14
 -1      2033 1.99962E+01 2.71919E-03 2.39055E-04 7.41003E-03-1.77240E-13 1.16785E-14
 -1      2034 2.00011E+01 4.00899E-03-1.37966E-04 1.08495E-02-1.17199E-13 1.13537E-13
 -1      2035 1.99872E+01 1.42557E-03 6.80167E-05 1.79261E-03 8.63903E-14-1.54252E-13
 -1      2036 1.99894E+01 1.81041E-03 1.67669E-04 3.29766E-03-4.70672E-15-3.29648E-14
 -1      2037 1.99938E+01 2.66388E-03-1.09067E-04 5.27310E-03 4.98726E-14-1.06547E-13
 -1      2038 1.99851E+01 8.70499E-04 5.74203E-05-3.87244E-04 1.09108E-13-2.27647E-13
 -1      2039 1.99859E+01 1.14250E-03 1.13421E-04 5.93667E-04 3.45607E-14-1.78935E-13
 -1      2040 1.99898E+01 1.67574E-03-8.45625E-05 1.55410E-03 9.80527E-14-3.85266E-14
 -1      2041 1.99849E+01 4.78840E-04 4.73015E-05-1.68287E-03 2.23870E-14-1.66643E-13
 -1      2042 1.99847E+01 6.64692E-04 7.31839E-05-1.08243E-03 4.10099E-14-1.42474E-13
 -1      2043 1.99880E+01 9.69453E-04-6.42969E-05-7.98915E-04 6.72151E-14-1.11799E-13
 -1      2044 1.99856E+01 2.11706E-04 3.81440E-05-2.36079E-03 1.95189E-13-1.05104E-13
 -1      2045 1.99850E+01 3.33318E-04 4.40970E-05-2.02885E-03 9.44586E-14-1.15781E-13
 -1      2046 1.99877E+01 4.80271E-04-4.79082E-05-2.17378E-03 8.44490E-14-9.31135E-14
 -1      2047 1.99870E+01 3.72810E-05 3.01736E-05-2.62260E-03-2.31771E-14-6.90033E-14
 -1      2048 1.99861E+01 1.12164E-04 2.36701E-05-2.47387E-03 1.97199E-13 3.86212E-14
 -1      2049 1.99883E+01 1.54426E-04-3.49280E-05-2.86937E-03 1.33169E-13 2.75536E-13
 -1      2050 1.99887E+01-6.97997E-05 2.34448E-05-2.61726E-03-2.23345E-13-7.65899E-14
 -1      2051 1.99877E+01-2.79818E-05 9.81513E-06-2.58824E-03-1.77486E-13-1.85926E-13
 -1      2052 1.99894E+01-5.14622E-05-2.48516E-05-3.11081E-03-8.72423E-15 1.56058E-13
 -1      2053 1.99905E+01-1.29311E-04 1.79040E-05-2.45203E-03 1.09547E-13-3.09567E-13
 -1      2054 1.99894E+01-1.10125E-04 8.30726E-07-2.49661E-03 3.52176E-14-1.61109E-13
 -1      2055 1.99908E+01-1.71546E-04-1.71841E-05-3.06363E-03-5.93432E-15-5.93457E-14
 -1      2056 1.99921E+01-1.56370E-04 1.34332E-05-2.20191E-03-2.33868E-13-1.57502E-13
 -1      2057 1.99911E+01-1.52008E-04-4.63645E-06-2.28752E-03-1.36848E-13-4.20002E-13
 -1      2058 1.99922E+01-2.32145E-04-1.14688E-05-2.84646E-03-3.86061E-14-2.71666E-13
 -1      2059 1.99937E+01-1.62342E-04 9.87948E-06-1.91733E-03-5.15395E-14 1.90059E-13
 -1      2060 1.99928E+01-1.67070E-04-7.64129E-06-2.02179E-03-1.90851E-14 7.76086E-14
 -1      2061 1.99936E+01-2.53165E-04-7.30061E-06-2.54162E-03-2.64453E-13-5.62885E-14
 -1      2062 1.99950E+01-1.55678E-04 7.07261E-06-1.63032E-03-4.01157E-14 1.61441E-14
 -1      2063 1.99943E+01-1.65347E-04-8.99178E-06-1.73930E-03-1.70889E-13-6.28266E-14
 -1      2064 1.99948E+01-2.49432E-04-4.33173E-06-2.20393E-03-5.04486E-14 1.90446E-13
 -1      2065 1.99962E+01-1.42652E-04 4.83759E-06-1.35924E-03 1.34436E-13 1.96683E-13
 -1      2066 1.99955E+01-1.54281E-04-9.29645E-06-1.46432E-03 1.30693E-13 9.32594E-14
 -1      2067 1.99959E+01-2.31894E-04-2.27070E-06-1.86753E-03 3.35963E-14 2.10090E-13
 -1      2068 1.99972E+01-1.28026E-04 3.00944E-06-1.11227E-03 4.72999E-13-1.27100E-13
 -1      2069 1.99966E+01-1.39444E-04-9.00036E-06-1.20953E-03 3.61868E-13 1.44549E-13
 -1      2070 1.99969E+01-2.08682E-04-8.74603E-07-1.55122E-03 3.69010E-13 2.07021E-13
 -1      2071 1.99980E+01-1.15598E-04 1.46304E-06-8.89858E-04 9.54922E-14-1.82372E-13
 -1      2072 1.99975E+01-1.25159E-04-8.40674E-06-9.78879E-04 2.91638E-13-2.66471E-14
 -1      2073 1.99977E+01-1.86012E-04 6.33158E-08-1.26232E-03 3.77842E-13 2.30154E-13
 -1      2074 1.99986E+01-1.08373E-04 2.37982E-07-6.86332E-04-2.16539E-13-2.44125E-13
 -1      2075 1.99983E+01-1.14945E-04-7.66386E-06-7.69677E-04-1.44667E-13-3.59732E-13
 -1      2076 1.99983E+01-1.68865E-04 7.32838E-07-9.99467E-04-4.41631E-14 2.74899E-15
 -1      2077 1.99991E+01-1.08060E-04-4.72567E-07-4.92490E-04-2.86645E-13-2.38134E-14
 -1      2078 1.99989E+01-1.11030E-04-6.67203E-06-5.74540E-04-1.28336E-13-1.75023E-13
 -1      2079 1.99989E+01-1.60280E-04 1.46134E-06-7.55093E-04-1.93902E-13-1.15758E-13
 -1      2080 1.99995E+01-1.14478E-04-2.20388E-06-2.99936E-04-2.13235E-13 2.00571E-13
 -1      2081 1.99993E+01-1.13233E-04-5.04953E-06-3.84637E-04-2.80578E-13 1.08807E-13
 -1      2082 1.99993E+01-1.61999E-04 1.86530E-06-5.19928E-04-3.48658E-13 2.90699E-13
 -1      2083 1.99997E+01-1.16050E-04-4.07156E-06-1.57370E-04 2.01903E-13 1.26232E-13
 -1      2084 1.99995E+01-1.21871E-04-3.57288E-06-2.39938E-04 9.63493E-15 1.55576E-13
 -1      2085 1.99995E+01-1.71514E-04 1.88788E-06-3.36210E-04-2.32319E-14 3.14624E-13
 -1      2086 1.99997E+01-1.71569E-04-2.87822E-08-2.03961E-04 1.67591E-13 4.38980E-13
 -1      2087 1.99998E+01-1.05437E-03 2.33212E-06-5.79545E-04 3.03803E-13-2.54686E-14
 -1      2088 1.99998E+01-8.69001E-04-3.31223E-06-5.63684E-04 1.97186E-13-4.64558E-14
 -1      2089 1.99997E+01-6.98606E-04 5.38317E-07-5.22394E-04 9.67073E-14 6.98626E-15
 -1      2090 1.99997E+01-5.32324E-04-4.26289E-06-4.64085E-04-9.28225E-15 1.04107E-13
 -1      2091 1.99997E+01-7.91903E-04 1.11244E-07-6.96919E-04 3.00900E-14 6.13549E-14
 -1      2092 1.99997E+01-4.08199E-04-8.59465E-07-3.83877E-04-9.13228E-14 8.12911E-15
 -1      2093 1.99997E+01-2.77514E-04-3.76829E-06-2.99395E-04 1.96547E-14 3.28238E-13
 -1      2094 1.99996E+01-2.81601E-04-2.52614E-06-3.69853E-04 4.28931E-14 2.09001E-13
 -1      2095 1.99996E+01-5.04453E-04 1.68005E-06-5.58165E-04-1.33234E-13 1.53291E-13
 -1      2096 1.99999E+01-1.39524E-03 4.21377E-06-5.48096E-04-1.24071E-13-3.39129E-13
 -1      2097 1.99998E+01-1.21780E-03-6.48004E-07-5.71129E-04 1.00185E-13-1.66665E-13
 -1      2098 1.99998E+01-1.12341E-03-1.63917E-06-7.30783E-04 1.15943E-13-3.22157E-13
 -1      2099 1.99999E+01-1.69029E-03 5.80007E-06-4.37077E-04 2.25899E-14-1.46594E-13
 -1      2100 1.99999E+01-1.54024E-03 2.04804E-06-4.93646E-04-1.37596E-13 1.03581E-15
 -1      2101 1.99999E+01-1.43157E-03-3.46029E-06-6.58900E-04 1.14401E-13-1.86142E-13
 -1      2102 1.99999E+01-1.89581E-03 6.71840E-06-2.65800E-04 1.09640E-13-2.30048E-13
 -1      2103 1.99999E+01-1.79705E-03 4.40972E-06-3.46082E-04 7.25558E-14-2.24171E-13
 -1      2104 2.00000E+01-1.68360E-03-5.09418E-06-4.94428E-04 8.47589E-14-1.10372E-13
 -1      2105 2.00000E+01-1.98631E-03 6.82689E-06-5.91973E-05 1.42948E-13 2.62672E-13
 -1      2106 2.00000E+01-1.95223E-03 6.05338E-06-1.51738E-04 1.31962E-13-3.27512E-14
 -1      2107 2.00000E+01-1.84721E-03-6.14969E-06-2.63403E-04 5.31551E-14-9.74703E-14
 -1      2108 2.00000E+01-1.95070E-03 6.05311E-06 1.55127E-04-1.52534E-14 1.53224E-13
 -1      2109 2.00000E+01-1.98590E-03 6.82562E-06 6.26818E-05 1.12457E-13 1.80233E-13
 -1      2110 2.00000E+01-1.90339E-03-6.50516E-06 2.17020E-06-1.92945E-13 1.79213E-13
 -1      2111 1.99999E+01-1.79368E-03 4.45582E-06 3.48957E-04 1.65168E-14 6.07579E-14
 -1      2112 1.99999E+01-1.89356E-03 6.66582E-06 2.68995E-04-1.04696E-13 2.22522E-13
 -1      2113 2.00000E+01-1.84564E-03-6.12131E-06 2.67510E-04-2.41994E-13 1.24051E-13
 -1      2114 1.99999E+01-1.54058E-03 2.07277E-06 4.93660E-04 2.24188E-13 1.35138E-13
 -1      2115 1.99999E+01-1.68848E-03 5.75807E-06 4.38246E-04 1.44282E-13 2.06935E-13
 -1      2116 2.00000E+01-1.68251E-03-5.15767E-06 4.96307E-04-4.25450E-14 1.99077E-13
 -1      2117 1.99998E+01-1.21506E-03-7.17876E-07 5.71493E-04 3.00794E-13-7.96661E-16
 -1      2118 1.99999E+01-1.39568E-03 4.23116E-06 5.48335E-04 2.41833E-13 2.46599E-13
 -1      2119 1.99999E+01-1.43222E-03-3.46065E-06 6.59104E-04-3.34261E-14 1.74339E-13
 -1      2120 1.99998E+01-8.62818E-04-3.32434E-06 5.63049E-04 3.75955E-13-1.88025E-13
 -1      2121 1.99998E+01-1.04850E-03 2.38834E-06 5.79602E-04 4.49272E-13-2.92275E-13
 -1      2122 1.99998E+01-1.12095E-03-1.41742E-06 7.31119E-04 7.78957E-14-9.11004E-14
 -1      2123 1.99997E+01-5.18886E-04-1.55008E-06 4.63685E-04 2.07476E-13-3.36250E-13
 -1      2124 1.99997E+01-6.92555E-04 7.13159E-07 5.20633E-04 3.49869E-13-3.52608E-13
 -1      2125 1.99997E+01-7.87570E-04 6.79399E-08 6.94720E-04 1.06456E-13-3.91487E-13
 -1      2126 9.36009E+00-4.62617E+00-1.70093E-01 6.48073E+00 5.79536E-13 9.39790E-13
 -1      2127 5.96955E+00-6.18674E+00-4.28432E-01 5.14434E+00 4.12947E-13 8.51375E-13
 -1      2128 7.33783E-01-5.77994E+00-3.00123E-01 1.08019E+00 3.40283E-14 1.13509E-12
 -1      2129 6.61773E-01-6.09097E+00-3.45354E-01-5.67774E-01-2.16757E-13 1.26005E-12
 -1      2130 3.55569E+00-5.97913E+00-3.21789E-01 4.32785E+00 3.82694E-13 8.60895E-13
 -1      2131 1.76939E+00-6.32601E+00-3.73062E-01 3.07091E+00 5.30687E-14 9.42357E-13
 -1      2132 6.67293E+00-4.83952E+00-1.62963E-01 5.84903E+00 5.27356E-14 9.06275E-13
 -1      2133 1.81459E+01-2.91202E+00 1.51651E-02 7.20044E+00 7.05547E-13 8.04856E-13
 -1      2134 1.38645E+01-4.69094E+00-2.66562E-01 6.50190E+00 5.15588E-13 8.15653E-13
 -1      2135 2.58018E+01-3.97242E-01 1.13557E-01 6.62711E+00 8.03302E-13 6.01075E-13
 -1      2136 2.09366E+01-2.28527E+00-2.09176E-01 6.30842E+00 7.72937E-13 6.96998E-13
 -1      2137 2.17862E+01-4.16281E+00 3.77103E-02 6.14440E+00 2.31482E-13 3.12333E-13
 -1      2138 1.83137E+01 3.71091E+00-4.17126E-02 7.07662E-04-1.92547E-13-3.34248E-13
 -1      2139 1.97887E+01 3.68334E+00-5.74278E-03-3.05624E-01-2.39874E-13-2.30113E-13
 -1      2140 2.08533E+01 2.71601E+00-2.10492E-02-3.37410E-01-2.43255E-13-1.37033E-13
 -1      2141 1.77579E+01 3.30638E+00-2.83955E-02 2.89253E-01-1.70296E-13-3.49960E-13
 -1      2142 3.85628E+01 5.65722E+00 3.63223E-01 2.58415E+00 9.14463E-13 9.17599E-14
 -1      2143 3.55339E+01 4.61015E+00 1.72279E-01 3.49040E+00 9.29756E-13 2.76168E-13
 -1      2144 4.03682E+01 7.04109E+00 3.51850E-01 6.09190E-01 1.02779E-12-2.25021E-13
 -1      2145 3.90522E+01 6.82085E+00 2.74472E-01 1.68769E+00 9.86600E-13-1.22125E-14
 -1      2146 3.76657E+01 6.95271E+00 1.43348E-01-7.68919E-01 1.18017E-12-3.63598E-13
 -1      2147 4.03433E+01 7.26920E+00 4.70621E-01 3.60732E-02 1.08530E-12-2.39836E-13
 -1      2148 3.57262E+01 8.25253E+00 3.05806E-01 3.31506E-01 1.13082E-12-2.39347E-13
 -1      2149 3.51198E+01 4.27849E+00 1.88599E-01-3.00252E+00 1.15488E-12-6.99329E-13
 -1      2150 3.67440E+01 5.34415E+00 1.45964E-01-1.32005E+00 1.12768E-12-3.72702E-13
 -1      2151 2.91322E+01 1.24467E+00-6.36062E-02-4.10755E+00 9.36570E-13-7.62279E-13
 -1      2152 3.34222E+01 2.79794E+00 2.32800E-01-4.08425E+00 1.03442E-12-7.59670E-13
 -1      2153 3.26256E+01 2.94204E+00 1.86037E-01-8.92745E-01 9.02556E-13-1.90070E-13
 -1      2154 2.09863E+01-1.33612E+00-1.85845E-01-6.09344E+00 8.79019E-13-9.85989E-13
 -1      2155 2.58047E+01-2.43973E-01 2.02656E-02-5.86038E+00 8.33111E-13-8.71081E-13
 -1      2156 1.32260E+01-2.92982E+00-3.02779E-01-6.26583E+00 7.38076E-13-1.03040E-12
 -1      2157 1.76716E+01-1.47360E+00-1.93584E-02-7.04343E+00 8.80462E-13-1.07220E-12
 -1      2158 2.15302E+01-2.73153E+00 4.10586E-02-5.86093E+00 3.52274E-13-6.47649E-13
 -1      2159 7.12523E+00-3.49192E+00-1.60099E-01-5.71694E+00 3.58158E-13-1.00353E-12
 -1      2160 9.99934E+00-2.85684E+00-1.32579E-01-6.42265E+00 7.00551E-13-1.10005E-12
 -1      2161 1.43410E+01-3.26966E+00-1.03524E-01-6.81466E+00 1.73528E-13-8.65473E-13
 -1      2162 1.47962E+00-4.14462E+00-3.37365E-01-2.55981E+00 1.55431E-14-1.07292E-12
 -1      2163 3.35949E+00-3.02967E+00-1.79823E-01-4.24233E+00 1.79967E-13-1.08624E-12
 -1      2164 6.48402E-01-3.90398E+00-2.67724E-01 4.00038E-01-2.42723E-13-1.06060E-12
 -1      2165 6.25129E-01-4.05778E+00-2.86361E-01-1.16964E+00 4.63102E-14-1.06237E-12
 -1      2166 2.37888E+00-1.62308E+00-7.96474E-02-2.24912E+00-8.90121E-14-1.19083E-12
 -1      2167 3.98325E+00-4.01530E+00-2.43546E-01 3.75963E+00-5.12923E-13-1.10129E-12
 -1      2168 2.01233E+00-4.26730E+00-3.11357E-01 2.33640E+00-2.24987E-13-1.04838E-12
 -1      2169 9.99679E+00-3.76178E+00-2.24614E-01 5.69567E+00-8.30114E-13-1.13731E-12
 -1      2170 6.55071E+00-4.79388E+00-4.12903E-01 4.56034E+00-5.93248E-13-1.04183E-12
 -1      2171 1.89469E+01-2.84859E+00-7.72608E-02 6.35274E+00-7.93365E-13-1.01810E-12
 -1      2172 1.39298E+01-4.08092E+00-3.72576E-01 5.62867E+00-7.53064E-13-1.08921E-12
 -1      2173 2.83552E+01-4.73365E-01 1.14764E-01 5.26150E+00-9.99922E-13-8.96394E-13
 -1      2174 2.32423E+01-2.12704E+00-1.96991E-01 5.14500E+00-9.17877E-13-9.44966E-13
 -1      2175 3.56871E+01 2.47947E+00 3.10268E-01 3.22720E+00-9.57526E-13-6.99218E-13
 -1      2176 3.13268E+01 8.90553E-01-2.25037E-02 3.56529E+00-9.73444E-13-7.81930E-13
 -1      2177 3.99424E+01 5.23567E+00 3.20310E-01 1.21272E+00-9.70002E-13-5.23803E-13
 -1      2178 3.74016E+01 4.21012E+00 2.17324E-01 2.36221E+00-9.65422E-13-7.16205E-13
 -1      2179 3.98574E+01 7.08499E+00 2.31457E-01-4.71963E-01-1.03284E-12-2.38004E-13
 -1      2180 3.95957E+01 6.57336E+00 2.82840E-01 3.41056E-01-1.02529E-12-4.23883E-13
 -1      2181 3.93685E+01 6.39799E+00 2.27984E-01-1.30752E+00-1.16251E-12-1.17184E-13
 -1      2182 4.00046E+01 7.05100E+00 2.51272E-01-4.17914E-01-1.10711E-12-3.21881E-13
 -1      2183 3.60361E+01 4.05099E+00 1.07825E-01-2.38226E+00-1.08094E-12 1.15907E-13
 -1      2184 3.92028E+01 5.25399E+00 3.23372E-01-1.80792E+00-1.15877E-12-1.00531E-13
 -1      2185 3.58092E+01 6.24056E+00 2.85583E-01 3.11542E-01-1.11544E-12-3.91909E-13
 -1      2186 2.99091E+01-1.95150E-02-4.71846E-02-4.20296E+00-7.79515E-13 4.72067E-13
 -1      2187 3.40623E+01 1.60029E+00 1.77115E-01-3.59132E+00-8.52263E-13 2.26985E-13
 -1      2188 2.15583E+01-2.80059E+00-2.37359E-01-5.94908E+00-6.72018E-13 7.77600E-13
 -1      2189 2.66862E+01-1.15917E+00 8.03173E-02-6.09661E+00-6.93334E-13 7.60725E-13
 -1      2190 1.38188E+01-5.15797E+00-3.12555E-01-6.16528E+00-6.35880E-13 6.01630E-13
 -1      2191 1.82304E+01-3.46166E+00-2.78957E-02-6.91318E+00-6.87561E-13 7.25253E-13
 -1      2192 5.73795E+00-6.49937E+00-4.58975E-01-4.71360E+00-5.56888E-13 8.16847E-13
 -1      2193 9.25048E+00-5.02417E+00-2.11579E-01-6.10839E+00-7.04770E-13 7.44689E-13
 -1      2194 1.42667E+00-6.61358E+00-4.09620E-01-2.31698E+00-2.08805E-13 1.21908E-12
 -1      2195 3.11722E+00-6.18462E+00-3.47541E-01-3.70704E+00-5.17697E-13 1.08646E-12
 -1      2196 3.34530E+01 2.58160E+00 2.36695E-01 4.45118E+00 8.16708E-13 2.91767E-13
 -1      2197 2.92786E+01 1.10372E+00 3.84770E-03 4.96898E+00 8.38607E-13 4.75620E-13
 -1      2198 2.83654E+01-1.38439E+00 1.47303E-01 3.96123E+00 4.84779E-13 4.93494E-14
 -1      2199 2.64683E+01 7.26124E-01-4.04868E-02-1.00640E+00-3.05971E-13 5.85735E-13
 -1      2200 3.55368E+01 6.15684E+00 1.30426E-01-1.34485E-01 1.11453E-12-2.37643E-13
 -1      2201 3.28024E+01 6.88384E+00-1.12259E-01 1.01698E+00 1.10467E-12-7.20951E-14
 -1      2202 3.24804E+01 5.29691E+00 6.57390E-03 7.24210E-01 1.04508E-12 3.33067E-16
 -1      2203 3.33151E+01 2.91419E+00 2.32211E-01 1.59434E+00 7.35828E-13-1.09690E-13
 -1      2204 2.56417E+01 6.90103E-01-2.51013E-02-1.05948E+00-3.03584E-13 3.78909E-13
 -1      2205 2.63774E+00-4.09901E+00-1.45343E-01 2.49062E+00-6.56974E-14 1.14470E-12
 -1      2206 1.40694E+01-4.98834E+00-4.46967E-02 7.12903E+00 1.43219E-13 6.81948E-13
 -1      2207 1.99996E+01-4.24118E-04-2.59831E-06 4.42083E-04 8.57047E-14-4.14425E-13
 -1      2208 2.44161E+00-4.07651E+00-1.60023E-01-1.85877E+00-5.87308E-14 1.31467E-12
 -1      2209 6.27995E+00-4.98142E+00-1.79746E-01-5.26561E+00-1.27232E-13 9.13769E-13
 -1      2210 1.40206E+01-5.35206E+00-7.06622E-02-6.74951E+00-1.65701E-13 4.47333E-13
 -1      2211 2.23912E+01-4.62068E+00 1.64930E-02-5.75820E+00-1.66644E-13 3.38701E-13
 -1      2212 3.39925E+01 2.10011E+00 1.86786E-01-5.43079E-01-8.05800E-13-2.69451E-13
 -1      2213 3.58657E+01 7.71144E+00 2.58435E-01-3.24604E-01-1.09479E-12-2.25348E-13
 -1      2214 3.63116E+01 6.35311E+00 3.01928E-01-7.02101E-01-9.62452E-13-1.47937E-13
 -1      2215 3.50018E+01 2.87314E+00 2.66834E-01 1.88376E-01-8.20399E-13-2.19602E-13
 -1      2216 3.05637E+01-1.01807E+00 1.27402E-01 2.34797E+00-6.87644E-13-3.52274E-13
 -1      2217 2.30673E+01-3.66663E+00 6.61352E-03 4.94319E+00-4.39426E-13-6.32688E-13
 -1      2218 1.44975E+01-4.19254E+00-8.05264E-02 6.11241E+00-2.97706E-13-8.82129E-13
 -1      2219 2.72679E+00-2.03826E+00-9.69766E-02 1.71921E+00-9.19542E-14-1.16718E-12
 -1      2220 6.30529E+00-1.04564E+00 1.24826E-01-5.12822E+00-1.47465E-13-1.05471E-12
 -1      2221 6.33778E+00-2.66736E+00-9.76709E-02-5.35123E+00 7.90479E-14-1.05063E-12
 -1      2222 9.68808E+00-2.09739E+00-3.93019E-02-6.35567E+00-1.64313E-13-9.02195E-13
 -1      2223 2.82358E+01-6.95545E-01 1.03537E-01-3.37473E+00 5.72820E-13-3.93241E-13
 -1      2224 3.58333E+01 6.73489E+00 3.29121E-01 5.67460E-01 9.81326E-13-1.74027E-13
 -1      2225 7.20598E+00-3.33702E+00-1.41624E-01 4.92692E+00-1.71030E-13-1.06204E-12
 -1      2226 2.92990E+01-2.12828E+00 1.36391E-01-3.36135E+00-4.22495E-13 1.29730E-13
 -1      2227 2.31241E+01 3.76334E-02-4.00545E-03 1.58969E+00 2.46174E-13 2.30212E-13
 -1      2228 2.35563E+01 2.28112E-01 1.95454E-02 1.68504E+00 2.91617E-13 2.70902E-13
 -1      2229 1.19960E+01 4.39138E+00-1.20295E-02-6.84013E-02-1.05800E-13-6.52761E-13
 -1      2230 1.28075E+01 4.27596E+00 3.81486E-02 3.27189E-01-9.45928E-14-6.23974E-13
 -1      2231 1.40111E+01 3.70207E+00-3.11867E-02 7.88935E-01-7.66396E-14-5.39502E-13
 -1      2232 1.55303E+01 3.43019E+00 4.48308E-02 8.72307E-01-8.81344E-14-4.65915E-13
 -1      2233 1.31768E+01 3.57712E+00 2.91801E-02 9.13021E-01-4.52294E-14-5.89868E-13
 -1      2234 1.37232E+01 3.68044E+00 4.76225E-02-2.08537E+00-1.94289E-13-6.28764E-13
 -1      2235 1.26472E+01 3.94954E+00-2.42967E-02-1.88976E+00-1.90440E-13-6.51493E-13
 -1      2236 1.63703E+01 2.71714E+00 3.95285E-02-1.97389E+00-1.61019E-13-5.25237E-13
 -1      2237 1.49967E+01 3.01186E+00-3.03492E-02-2.15290E+00-1.91555E-13-5.68347E-13
 -1      2238 1.43443E+01 2.82398E+00 7.34559E-03-2.56039E+00-2.19749E-13-5.99897E-13
 -1      2239 1.88268E+01 2.01120E+00 1.22280E-02-1.13813E+00-6.87345E-14-4.29181E-13
 -1      2240 1.76463E+01 2.21817E+00-1.86290E-02-1.56742E+00-1.26462E-13-4.61262E-13
 -1      2241 1.72476E+01 1.76454E+00-2.26165E-02-2.12580E+00-1.73550E-13-4.61476E-13
 -1      2242 2.07046E+01 1.70141E+00-1.15896E-02 9.59561E-03 5.74046E-14-3.24567E-13
 -1      2243 1.98471E+01 1.79661E+00-7.43640E-03-5.14235E-01-1.49884E-14-3.75967E-13
 -1      2244 1.97541E+01 1.15400E+00-2.41075E-02-9.89515E-01-6.20766E-14-3.45909E-13
 -1      2245 2.19625E+01 1.65381E+00-3.07594E-02 1.09368E+00 1.92276E-13-2.41890E-13
 -1      2246 2.14017E+01 1.68701E+00-5.87086E-03 6.08816E-01 1.15000E-13-2.75419E-13
 -1      2247 2.15053E+01 9.85995E-01-1.10611E-02 2.81951E-01 7.28538E-14-2.40552E-13
 -1      2248 2.28355E+01 1.60817E+00-4.97510E-02 1.91284E+00 3.23407E-13-9.45424E-14
 -1      2249 2.24411E+01 1.68427E+00-9.89131E-03 1.53526E+00 2.41372E-13-1.71592E-13
 -1      2250 2.25916E+01 1.02178E+00 3.52878E-03 1.31289E+00 2.02315E-13-1.42416E-13
 -1      2251 2.25528E+01-6.70462E-02 2.56519E-03 1.59008E+00 1.82952E-13 1.90395E-13
 -1      2252 2.29480E+01-5.94042E-02 1.50455E-02 1.58426E+00 2.00712E-13 2.40754E-13
 -1      2253 2.32492E+01 3.32793E-02 3.05814E-03 1.84585E+00 2.40934E-13 1.30034E-13
 -1      2254 2.54225E+01-3.92640E-01 3.56224E-02-6.42610E-01-1.72538E-13 3.17718E-13
 -1      2255 2.53991E+01-9.38229E-01-4.11205E-02-7.54854E-01-1.46360E-13 3.42159E-13
 -1      2256 2.60306E+01-1.26416E+00 4.19004E-02-1.13506E+00-1.09855E-13 4.17366E-13
 -1      2257 2.59943E+01-1.44502E+00-2.37455E-02-1.52232E+00-9.40107E-14 4.27816E-13
 -1      2258 2.52597E+01-1.45151E+00-4.72339E-02-6.55135E-01-1.02134E-13 2.83540E-13
 -1      2259 2.65549E+01-1.41050E+00-9.19014E-03-2.11930E+00-7.51478E-14 4.86173E-13
 -1      2260 2.64521E+01-9.90212E-01-1.53914E-02-2.53732E+00-8.46042E-14 4.54017E-13
 -1      2261 2.64112E+01-1.80293E+00-2.12303E-02-1.59433E+00-6.09044E-14 4.06189E-13
 -1      2262 2.66157E+01-2.27177E-01-7.94870E-02-2.99499E+00-1.56347E-13 4.43645E-13
 -1      2263 2.63442E+01 8.50408E-01-1.73286E-02-2.92960E+00-2.90386E-13 3.91555E-13
 -1      2264 2.73534E+01-8.52708E-01-2.67242E-02-2.76171E+00-1.47177E-13 4.36061E-13
 -1      2265 2.61164E+01 1.98521E+00-1.17003E-01-2.52373E+00-3.88758E-13 2.73372E-13
 -1      2266 2.58566E+01 2.95922E+00-4.07846E-02-1.71737E+00-4.81545E-13 1.81972E-13
 -1      2267 2.75194E+01 1.77753E+00-7.28351E-02-2.94714E+00-4.18443E-13 3.32692E-13
 -1      2268 2.56240E+01 3.38107E+00-1.06731E-01-3.55024E-01-5.53127E-13 4.57048E-14
 -1      2269 2.56379E+01 3.18310E+00-1.15601E-01 7.40266E-01-5.18530E-13-5.55159E-14
 -1      2270 2.72150E+01 4.18563E+00-9.58344E-02-1.24025E+00-6.09651E-13 8.14730E-14
 -1      2271 2.58266E+01 2.42990E+00-2.85643E-02 1.88745E+00-4.26145E-13-2.15650E-13
 -1      2272 2.60452E+01 1.28272E+00-1.05695E-01 2.47998E+00-3.39090E-13-2.88073E-13
 -1      2273 2.71788E+01 3.64913E+00-9.43873E-02 1.45604E+00-5.83811E-13-2.13274E-13
 -1      2274 2.60629E+01 1.12080E-01-2.27872E-02 2.53695E+00-3.21312E-13-3.52906E-13
 -1      2275 2.62111E+01-8.47505E-01-5.71376E-02 2.37083E+00-3.16219E-13-3.92764E-13
 -1      2276 2.72535E+01 8.45402E-01-7.44435E-02 2.60501E+00-3.86323E-13-5.14824E-13
 -1      2277 2.57764E+01-1.48884E+00-2.66496E-02 1.70512E+00-1.94405E-13-3.85318E-13
 -1      2278 2.56922E+01-1.78476E+00-5.03708E-03 1.14022E+00-5.90803E-14-3.72026E-13
 -1      2279 2.67073E+01-1.54930E+00-2.17106E-02 1.85740E+00-2.70464E-13-5.57433E-13
 -1      2280 2.49723E+01-1.79798E+00-2.98450E-02 4.13240E-01-2.64424E-14-2.60927E-13
 -1      2281 2.47281E+01-1.61866E+00 1.99101E-02-1.41961E-01 9.42258E-15-2.38250E-13
 -1      2282 2.54278E+01-2.31798E+00-1.75039E-02 3.77316E-01 2.75517E-14-4.08508E-13
 -1      2283 2.40334E+01-1.35305E+00-2.52961E-02-6.28667E-01-7.52957E-15-1.30470E-13
 -1      2284 2.37285E+01-1.03185E+00 2.01202E-02-1.00349E+00 3.90939E-14-7.98454E-14
 -1      2285 2.40156E+01-1.92584E+00-2.59014E-02-8.21974E-01 2.80466E-14-1.24033E-13
 -1      2286 2.32080E+01-7.41823E-01-1.55153E-02-1.23613E+00-4.73059E-15-1.09516E-13
 -1      2287 2.29021E+01-4.66272E-01 1.33833E-02-1.42091E+00 3.24311E-14-1.23942E-13
 -1      2288 2.28758E+01-1.14990E+00-2.37750E-02-1.48543E+00-4.18502E-17 5.75061E-16
 -1      2289 2.25551E+01-2.53827E-01-6.44886E-03-1.47735E+00-2.78150E-14-1.80588E-13
 -1      2290 2.22740E+01-7.57840E-02 7.24080E-03-1.52263E+00-2.52970E-14-1.84701E-13
 -1      2291 2.20854E+01-4.67241E-01-1.58854E-02-1.72857E+00-6.33074E-14-1.46676E-13
 -1      2292 2.20495E+01 4.87071E-02-2.66879E-04-1.47951E+00 2.01525E-14-1.66648E-13
 -1      2293 2.17998E+01 1.41963E-01 3.25361E-03-1.44128E+00 3.98121E-14-1.23765E-13
 -1      2294 2.15661E+01-1.79897E-02-8.91364E-03-1.71265E+00 1.47745E-14-1.22931E-13
 -1      2295 2.16494E+01 2.00866E-01 3.26603E-03-1.35067E+00-6.34139E-15-6.96785E-14
 -1      2296 2.14316E+01 2.37466E-01 1.11136E-03-1.27157E+00 6.81031E-15-6.18571E-14
 -1      2297 2.12183E+01 2.22927E-01-4.61394E-03-1.56102E+00 9.32652E-15-9.49678E-14
 -1      2298 2.13234E+01 2.55870E-01 4.94073E-03-1.16469E+00 9.79357E-14-8.57443E-14
 -1      2299 2.11366E+01 2.60076E-01 1.47878E-04-1.07208E+00 1.53429E-13-2.37658E-14
 -1      2300 2.09697E+01 3.22206E-01-2.40025E-03-1.35123E+00 7.79742E-14-3.02745E-14
 -1      2301 2.10532E+01 2.56770E-01 5.42539E-03-9.66233E-01 9.83406E-14-1.16512E-14
 -1      2302 2.08958E+01 2.44994E-01-1.88327E-04-8.75518E-01 1.15038E-13-4.81777E-14
 -1      2303 2.07788E+01 3.38884E-01-1.43381E-03-1.12871E+00 1.16298E-13-8.83989E-15
 -1      2304 2.08281E+01 2.31802E-01 5.22136E-03-7.79303E-01 1.10493E-13-1.64933E-13
 -1      2305 2.06980E+01 2.13754E-01-2.35799E-04-6.97929E-01 5.09769E-14-2.21149E-13
 -1      2306 2.06241E+01 3.13745E-01-1.08273E-03-9.18067E-01 2.99387E-14-2.28136E-14
 -1      2307 2.06420E+01 1.97320E-01 4.67182E-03-6.14823E-01-1.18840E-14-2.06090E-13
 -1      2308 2.05364E+01 1.78181E-01-1.75898E-04-5.45523E-01-5.13044E-15-2.59679E-13
 -1      2309 2.04954E+01 2.71366E-01-9.76632E-04-7.30983E-01 4.90222E-15-2.41551E-13
 -1      2310 2.04899E+01 1.61885E-01 3.99106E-03-4.76142E-01 8.38273E-15-2.41836E-13
 -1      2311 2.04058E+01 1.44122E-01-9.40000E-05-4.19104E-01-5.56510E-15-2.54462E-13
 -1      2312 2.03880E+01 2.25126E-01-9.35863E-04-5.71525E-01 1.13215E-14-3.00207E-13
 -1      2313 2.03675E+01 1.29472E-01 3.30179E-03-3.62602E-01-2.01574E-14-2.30739E-13
 -1      2314 2.03015E+01 1.14059E-01-2.41933E-05-3.16791E-01-1.51423E-14-2.46572E-13
 -1      2315 2.02991E+01 1.81573E-01-8.89776E-04-4.39515E-01-1.71914E-14-2.06363E-13
 -1      2316 2.02706E+01 1.01568E-01 2.66692E-03-2.71668E-01-5.16606E-14-1.54059E-13
 -1      2317 2.02197E+01 8.87120E-02 2.42930E-05-2.35568E-01-6.30015E-14-1.40996E-13
 -1      2318 2.02264E+01 1.43419E-01-8.20409E-04-3.32632E-01-1.15116E-14-1.96291E-13
 -1      2319 2.01951E+01 7.84034E-02 2.11323E-03-2.00126E-01-1.68787E-13-2.11361E-13
 -1      2320 2.01565E+01 6.79550E-02 5.26817E-05-1.72138E-01-1.45246E-13-2.46583E-13
 -1      2321 2.01682E+01 1.11377E-01-7.31221E-04-2.47660E-01-1.32353E-13-2.05387E-13
 -1      2322 2.01372E+01 5.96341E-02 1.64709E-03-1.44718E-01-1.19026E-13-2.49755E-13
 -1      2323 2.01084E+01 5.13011E-02 6.56351E-05-1.23342E-01-1.00555E-13-2.82626E-13
 -1      2324 2.01222E+01 8.51936E-02-6.31711E-04-1.81182E-01-1.34932E-13-1.03768E-13
 -1      2325 2.00937E+01 4.46968E-02 1.26437E-03-1.02440E-01-6.18612E-14-3.38311E-13
 -1      2326 2.00726E+01 3.81510E-02 6.81244E-05-8.63547E-02-3.36517E-15-2.43640E-13
 -1      2327 2.00866E+01 6.42169E-02-5.30989E-04-1.29950E-01-6.28582E-14-1.63359E-13
 -1      2328 2.00615E+01 3.29832E-02 9.56117E-04-7.06608E-02-5.89867E-14-3.44841E-13
 -1      2329 2.00464E+01 2.79106E-02 6.42694E-05-5.87460E-02-1.73662E-13-3.65310E-13
 -1      2330 2.00596E+01 4.76733E-02-4.35711E-04-9.10544E-02-1.13541E-13-2.59035E-13
 -1      2331 2.00382E+01 2.39198E-02 7.11812E-04-4.71531E-02-1.40363E-13-3.19748E-13
 -1      2332 2.00276E+01 2.00401E-02 5.70849E-05-3.84794E-02-5.68790E-14-1.96946E-13
 -1      2333 2.00395E+01 3.48051E-02-3.49909E-04-6.19811E-02-1.08736E-13-3.21055E-13
 -1      2334 2.00217E+01 1.69987E-02 5.20972E-04-3.00710E-02-9.27684E-14-2.61746E-13
 -1      2335 2.00146E+01 1.40717E-02 4.85934E-05-2.38822E-02-1.08073E-13-2.46019E-13
 -1      2336 2.00248E+01 2.49279E-02-2.75481E-04-4.06159E-02-9.64996E-14-1.12427E-13
 -1      2337 2.00104E+01 1.17861E-02 3.73965E-04-1.79119E-02-1.28963E-13-2.42846E-13
 -1      2338 2.00058E+01 9.61034E-03 4.00475E-05-1.36015E-02-1.28061E-13-2.88477E-13
 -1      2339 2.00144E+01 1.74488E-02-2.12817E-04-2.52140E-02-1.41598E-13-2.59269E-13
 -1      2340 2.00030E+01 7.91894E-03 2.62323E-04-9.47037E-03-1.92562E-13-3.18659E-13
 -1      2341 2.00001E+01 6.32855E-03 3.21514E-05-6.55827E-03-1.74397E-13-2.96740E-13
 -1      2342 2.00071E+01 1.18682E-02-1.61350E-04-1.43594E-02-1.51697E-13-3.53941E-13
 -1      2343 1.99983E+01 5.09878E-03 1.78812E-04-3.79238E-03-1.52614E-13-3.83900E-13
 -1      2344 1.99967E+01 3.95878E-03 2.52437E-05-1.90354E-03-1.25307E-13-3.95688E-13
 -1      2345 2.00023E+01 7.77176E-03-1.19984E-04-6.91949E-03-2.66428E-13-4.32631E-13
 -1      2346 1.99956E+01 3.08302E-03 1.17376E-04-1.32795E-04 3.18315E-14-4.57635E-13
 -1      2347 1.99948E+01 2.28495E-03 1.94322E-05 1.02201E-03 1.32902E-13-4.43683E-13
 -1      2348 1.99993E+01 4.82136E-03-8.73818E-05-2.00094E-03-1.12219E-13-5.23898E-13
 -1      2349 1.99942E+01 1.67694E-03 7.30338E-05 2.08251E-03 4.45472E-14-3.89802E-13
 -1      2350 1.99940E+01 1.13467E-03 1.46891E-05 2.72318E-03-2.99906E-14-4.35492E-13
 -1      2351 1.99975E+01 2.74408E-03-6.21604E-05 1.09110E-03 8.16719E-14-4.45902E-13
 -1      2352 1.99938E+01 7.26030E-04 4.17416E-05 3.28959E-03-1.26322E-13-3.71855E-13
 -1      2353 1.99939E+01 3.71918E-04 1.09132E-05 3.58078E-03-1.97851E-13-2.62600E-13
 -1      2354 1.99965E+01 1.32237E-03-4.30036E-05 2.88936E-03-4.22014E-14-4.93190E-13
 -1      2355 1.99939E+01 1.09146E-04 2.02637E-05 3.81440E-03-1.15251E-13-1.59264E-13
 -1      2356 1.99943E+01-1.09258E-04 7.96993E-06 3.87732E-03 1.13587E-14-1.96049E-13
 -1      2357 1.99962E+01 3.84845E-04-2.87245E-05 3.79604E-03-1.06086E-13-3.58512E-13
 -1      2358 1.99943E+01-2.67555E-04 6.04512E-06 3.89634E-03 8.45339E-14-1.13097E-13
 -1      2359 1.99948E+01-3.90421E-04 5.71398E-06 3.81840E-03 2.17085E-14-6.84997E-14
 -1      2360 1.99962E+01-2.01865E-04-1.82930E-05 4.10963E-03 8.02617E-14-1.46556E-13
 -1      2361 1.99950E+01-4.75846E-04-2.90427E-06 3.70757E-03-7.59958E-14-5.29380E-14
 -1      2362 1.99955E+01-5.33550E-04 4.00241E-06 3.55023E-03-1.11066E-13-5.81199E-15
 -1      2363 1.99965E+01-5.40266E-04-1.08402E-05 4.04741E-03 5.41360E-14 1.84672E-13
 -1      2364 1.99957E+01-5.69941E-04-8.11137E-06 3.36866E-03-9.01542E-14 6.72923E-14
 -1      2365 1.99962E+01-5.85181E-04 2.70014E-06 3.17374E-03 2.24547E-14 1.61485E-13
 -1      2366 1.99969E+01-7.08159E-04-5.65097E-06 3.76383E-03-2.12814E-14 2.11147E-13
 -1      2367 1.99964E+01-5.90331E-04-1.07291E-05 2.96116E-03-3.14460E-15 1.33059E-13
 -1      2368 1.99969E+01-5.79909E-04 1.68184E-06 2.75575E-03 1.14899E-13 2.40512E-14
 -1      2369 1.99973E+01-7.63900E-04-2.15020E-06 3.36543E-03 2.03153E-14 2.93162E-13
 -1      2370 1.99971E+01-5.67018E-04-1.16096E-05 2.53742E-03 2.13406E-13 2.45397E-14
 -1      2371 1.99975E+01-5.43346E-04 8.32530E-07 2.33765E-03 1.94033E-13 2.23579E-14
 -1      2372 1.99977E+01-7.50866E-04 1.11448E-07 2.92259E-03 3.19118E-14 1.82120E-13
 -1      2373 1.99977E+01-5.22246E-04-1.13678E-05 2.12810E-03 2.30383E-13-9.09798E-14
 -1      2374 1.99980E+01-4.94581E-04 4.78344E-08 1.94198E-03 3.91931E-13-2.36056E-13
 -1      2375 1.99981E+01-7.01193E-04 1.47164E-06 2.47880E-03 1.90327E-13 1.89422E-13
 -1      2376 1.99982E+01-4.72729E-04-1.04364E-05 1.74784E-03 2.20428E-13-4.42651E-13
 -1      2377 1.99985E+01-4.47991E-04-7.18866E-07 1.57740E-03-6.37815E-14-5.70718E-13
 -1      2378 1.99985E+01-6.38854E-04 2.16309E-06 2.05768E-03 6.11727E-14-4.22461E-13
 -1      2379 1.99986E+01-4.30832E-04-9.07215E-06 1.39959E-03-5.24908E-14-4.84887E-13
 -1      2380 1.99989E+01-4.14052E-04-1.51722E-06 1.24287E-03-2.31220E-13-5.53868E-13
 -1      2381 1.99988E+01-5.81473E-04 2.39360E-06 1.66826E-03-6.72068E-14-4.63752E-13
 -1      2382 1.99990E+01-4.05003E-04-7.35741E-06 1.07849E-03-1.72563E-13-4.02186E-13
 -1      2383 1.99992E+01-3.99174E-04-3.01832E-06 9.31211E-04-7.93273E-15-2.05440E-13
 -1      2384 1.99991E+01-5.41567E-04 2.25677E-06 1.31016E-03-1.03603E-13-3.44780E-13
 -1      2385 9.66690E+00-3.77666E+00 3.51369E-02 6.64892E+00-8.40439E-14 7.91339E-13
 -1      2386 7.12891E+00-3.36796E+00 6.87793E-02 5.44844E+00-1.52767E-13 8.75522E-13
 -1      2387 2.13897E+01 4.71575E-01 1.80518E-02 1.29300E+00 1.81001E-13 5.62727E-14
 -1      2388 2.16817E+01 2.85641E-01-1.38823E-03 1.46107E+00 1.71286E-13 1.18222E-13
 -1      2389 2.09551E+01 7.82702E-01 1.78091E-02 6.87079E-01 1.93913E-13-3.75715E-14
 -1      2390 2.11364E+01 6.45232E-01 1.89157E-03 9.97186E-01 1.96664E-13 1.29801E-14
 -1      2391 2.18362E+01 7.73150E-01-5.33137E-03 1.36367E+00 2.49108E-13 9.98027E-15
 -1      2392 2.07935E+01 8.52516E-01 8.16352E-03-1.26976E-01 2.01562E-13-1.11282E-13
 -1      2393 2.08265E+01 8.58188E-01 1.03223E-02 2.43390E-01 1.80620E-13-9.74175E-14
 -1      2394 2.14611E+01 1.11703E+00-1.30681E-02 5.70647E-01 2.31179E-13-1.03743E-13
 -1      2395 2.09478E+01 6.28213E-01-3.06432E-03-8.65408E-01 2.10560E-13-1.95362E-13
 -1      2396 2.08405E+01 7.76105E-01 1.69264E-02-5.63029E-01 2.43303E-13-1.24452E-13
 -1      2397 2.13773E+01 1.10954E+00-1.30992E-02-3.86150E-01 2.44550E-13-1.71342E-13
 -1      2398 2.13210E+01 2.19607E-01-8.22873E-03-1.28125E+00 1.36446E-13-2.87974E-13
 -1      2399 2.11181E+01 4.36673E-01 1.68879E-02-1.14277E+00 1.95555E-13-2.50812E-13
 -1      2400 2.15782E+01 7.34782E-01-4.16555E-03-1.15104E+00 2.34306E-13-2.65301E-13
 -1      2401 2.17177E+01-1.66193E-01-7.81318E-03-1.29039E+00 1.41187E-13-3.00655E-13
 -1      2402 2.14947E+01 1.50117E-02 8.73309E-03-1.32363E+00 1.27763E-13-2.69392E-13
 -1      2403 2.19046E+01 1.72347E-01 5.38749E-03-1.47716E+00 1.59403E-13-3.39755E-13
 -1      2404 2.19938E+01-3.98547E-01-4.50710E-03-9.96835E-01 1.81092E-13-3.48851E-13
 -1      2405 2.18123E+01-3.04931E-01-1.56231E-03-1.14640E+00 1.80051E-13-3.10692E-13
 -1      2406 2.21537E+01-3.10107E-01 9.80028E-03-1.35118E+00 1.83618E-13-3.56845E-13
 -1      2407 2.20947E+01-4.57268E-01-1.60111E-03-5.71874E-01 1.81562E-13-3.79793E-13
 -1      2408 2.19878E+01-4.48139E-01-9.20872E-03-7.63338E-01 1.79829E-13-3.38141E-13
 -1      2409 2.22288E+01-5.76010E-01 7.04675E-03-9.40986E-01 1.82615E-13-3.81626E-13
 -1      2410 2.20413E+01-3.96145E-01 3.50888E-04-1.59919E-01 6.96275E-15-2.99036E-13
 -1      2411 2.20131E+01-4.38866E-01-1.19627E-02-3.36569E-01 1.14248E-13-3.09187E-13
 -1      2412 2.21381E+01-6.17307E-01 2.96066E-03-4.47220E-01 1.03264E-13-3.11947E-13
 -1      2413 2.18825E+01-2.82789E-01 1.21410E-03 1.60957E-01-1.97919E-14-1.73264E-13
 -1      2414 2.19197E+01-3.44081E-01-1.09418E-02 2.77393E-02-1.35829E-14-2.03066E-13
 -1      2415 2.19403E+01-5.14633E-01 1.15828E-04-9.81208E-03-3.39824E-14-1.97547E-13
 -1      2416 2.16656E+01-1.65996E-01 1.33258E-03 3.69043E-01-8.27528E-15-1.62314E-13
 -1      2417 2.17483E+01-2.24179E-01-8.16559E-03 2.85483E-01-1.06685E-16-1.34602E-13
 -1      2418 2.16935E+01-3.55786E-01-1.42696E-03 3.08853E-01-3.45863E-14-1.24253E-13
 -1      2419 2.14270E+01-7.04973E-02 1.20576E-03 4.75725E-01 8.44740E-14-1.43359E-13
 -1      2420 2.15354E+01-1.15788E-01-5.02886E-03 4.35335E-01 5.30136E-14-6.33627E-14
 -1      2421 2.14379E+01-2.00159E-01-1.94160E-03 5.01195E-01-8.65649E-15-7.65691E-15
 -1      2422 2.11902E+01-3.43844E-03 1.02598E-03 5.05761E-01 7.01929E-15-1.53058E-13
 -1      2423 2.13084E+01-3.39666E-02-2.30763E-03 4.97259E-01 7.93704E-14-1.12958E-13
 -1      2424 2.11958E+01-7.64753E-02-1.92879E-03 5.87739E-01 8.20118E-14 3.84635E-14
 -1      2425 2.09697E+01 3.75889E-02 8.72530E-04 4.85100E-01-3.02048E-14-2.34458E-13
 -1      2426 2.10861E+01 1.97785E-02-2.99801E-04 4.97198E-01-3.23708E-14-1.89766E-13
 -1      2427 2.09774E+01 8.48183E-03-1.75036E-03 5.97873E-01 1.45372E-14-5.73831E-14
 -1      2428 2.07731E+01 5.85536E-02 7.57358E-04 4.35396E-01-4.46068E-14-1.72618E-13
 -1      2429 2.08804E+01 5.01864E-02 9.99423E-04 4.58889E-01-6.14002E-14-2.22452E-13
 -1      2430 2.07861E+01 5.91907E-02-1.55412E-03 5.59400E-01-7.52636E-14-1.37342E-13
 -1      2431 2.06035E+01 6.57325E-02 6.68347E-04 3.72529E-01 1.91811E-14-2.04250E-13
 -1      2432 2.06979E+01 6.36610E-02 1.71749E-03 4.00793E-01 6.49284E-14-1.46297E-13
 -1      2433 2.06222E+01 8.40146E-02-1.38145E-03 4.94470E-01-8.31176E-16-5.05364E-14
 -1      2434 2.04614E+01 6.43469E-02 5.92367E-04 3.07044E-01 7.33243E-14-2.69192E-13
 -1      2435 2.05412E+01 6.60613E-02 2.01240E-03 3.35768E-01 3.25584E-14-2.45678E-13
 -1      2436 2.04844E+01 9.13171E-02-1.23193E-03 4.18889E-01 8.82679E-14-2.93681E-14
 -1      2437 2.03450E+01 5.82378E-02 5.21602E-04 2.45279E-01-3.83715E-15-2.77609E-13
 -1      2438 2.04105E+01 6.19409E-02 2.02817E-03 2.71941E-01 4.01810E-14-2.65381E-13
 -1      2439 2.03706E+01 8.79061E-02-1.09516E-03 3.42943E-01 4.99978E-14-8.86634E-14
 -1      2440 2.02520E+01 5.00038E-02 4.53260E-04 1.90557E-01-7.33375E-14-3.15903E-13
 -1      2441 2.03043E+01 5.45059E-02 1.87843E-03 2.13894E-01-5.02467E-14-2.75099E-13
 -1      2442 2.02782E+01 7.87271E-02-9.63635E-04 2.72678E-01-3.41667E-14-5.39501E-14
 -1      2443 2.01792E+01 4.12782E-02 3.87369E-04 1.44190E-01-1.41112E-13-2.62306E-13
 -1      2444 2.02199E+01 4.58486E-02 1.64482E-03 1.63767E-01-1.31018E-13-3.17746E-13
 -1      2445 2.02046E+01 6.70924E-02-8.35202E-04 2.11133E-01-7.70406E-14-9.96427E-14
 -1      2446 2.01234E+01 3.30054E-02 3.25156E-04 1.06246E-01 5.12692E-15-1.92097E-13
 -1      2447 2.01543E+01 3.72347E-02 1.38182E-03 1.22125E-01-6.52930E-14-2.81347E-13
 -1      2448 2.01469E+01 5.50620E-02-7.11245E-04 1.59364E-01-7.97510E-14-2.58959E-13
 -1      2449 2.00816E+01 2.56666E-02 2.67994E-04 7.60894E-02-1.10105E-13-1.02855E-13
 -1      2450 2.01045E+01 2.93582E-02 1.12301E-03 8.86048E-02-6.95201E-15-1.63158E-13
 -1      2451 2.01026E+01 4.38090E-02-5.94516E-04 1.17203E-01-7.81057E-14-1.23576E-13
 -1      2452 2.00509E+01 1.94484E-02 2.16913E-04 5.27393E-02-1.59321E-13-1.22122E-13
 -1      2453 2.00675E+01 2.25389E-02 8.87105E-04 6.23503E-02-1.05426E-13-4.94769E-14
 -1      2454 2.00692E+01 3.39141E-02-4.87694E-04 8.38056E-02-1.04617E-13-2.11054E-13
 -1      2455 2.00290E+01 1.43612E-02 1.72448E-04 3.51041E-02-6.13817E-14-1.19826E-13
 -1      2456 2.00406E+01 1.68649E-02 6.82832E-04 4.23011E-02-1.62230E-13-1.56451E-13
 -1      2457 2.00445E+01 2.55844E-02-3.92676E-04 5.80073E-02-1.18949E-13-2.54613E-13
 -1      2458 2.00139E+01 1.03180E-02 1.34666E-04 2.21163E-02-2.03254E-13-2.88421E-14
 -1      2459 2.00217E+01 1.22909E-02 5.12569E-04 2.73677E-02-1.31529E-13-8.88729E-14
 -1      2460 2.00266E+01 1.88051E-02-3.10372E-04 3.85570E-02-1.54086E-13-3.38742E-13
 -1      2461 2.00039E+01 7.18630E-03 1.03270E-04 1.28064E-02-2.43215E-14-1.28357E-13
 -1      2462 2.00089E+01 8.70224E-03 3.74955E-04 1.65309E-02-9.15264E-14-1.45997E-14
 -1      2463 2.00141E+01 1.34415E-02-2.40799E-04 2.42516E-02-1.11439E-13-2.52219E-13
 -1      2464 1.99975E+01 4.81887E-03 7.77141E-05 6.33670E-03 9.86408E-14-1.16687E-13
 -1      2465 2.00005E+01 5.95572E-03 2.66652E-04 8.89163E-03-1.33074E-14-1.15595E-13
 -1      2466 2.00057E+01 9.30450E-03-1.83293E-04 1.40087E-02-5.76987E-14-2.64178E-13
 -1      2467 1.99938E+01 3.07255E-03 5.73182E-05 2.00889E-03 4.20852E-14-6.02387E-14
 -1      2468 1.99954E+01 3.90406E-03 1.83478E-04 3.68924E-03 1.63141E-13 2.34374E-14
 -1      2469 2.00002E+01 6.19019E-03-1.36744E-04 6.89765E-03-1.48753E-14-2.28621E-13
 -1      2470 1.99920E+01 1.81778E-03 4.13496E-05-7.42130E-04 7.52847E-14 3.12224E-14
 -1      2471 1.99926E+01 2.40957E-03 1.21108E-04 3.00257E-04 2.12107E-14-1.54128E-14
 -1      2472 1.99968E+01 3.90308E-03-9.98068E-05 2.14558E-03 3.95883E-14-1.07423E-14
 -1      2473 1.99914E+01 9.42851E-04 2.90853E-05-2.36227E-03 3.80202E-14 3.42767E-14
 -1      2474 1.99914E+01 1.35079E-03 7.54783E-05-1.77267E-03 8.25407E-14 2.36542E-14
 -1      2475 1.99950E+01 2.26788E-03-7.10593E-05-8.71563E-04 6.79974E-14 1.29798E-13
 -1      2476 1.99915E+01 3.54760E-04 1.98506E-05-3.19535E-03 3.60819E-14 1.70783E-13
 -1      2477 1.99912E+01 6.24919E-04 4.29861E-05-2.91689E-03 1.38893E-14 7.55093E-14
 -1      2478 1.99942E+01 1.13443E-03-4.91168E-05-2.64546E-03 1.80921E-14 1.01223E-13
 -1      2479 1.99922E+01-2.17318E-05 1.30405E-05-3.50052E-03 1.95859E-14 7.66929E-14
 -1      2480 1.99916E+01 1.47610E-04 2.05668E-05-3.42732E-03 8.72883E-14 1.85054E-13
 -1      2481 1.99941E+01 3.78373E-04-3.27026E-05-3.55474E-03 7.15988E-14-7.33228E-14
 -1      2482 1.99931E+01-2.46079E-04 8.12843E-06-3.46861E-03 1.10346E-13-1.46787E-13
 -1      2483 1.99924E+01-1.48554E-04 5.69611E-06-3.52341E-03 2.95332E-14 1.08839E-13
 -1      2484 1.99944E+01-1.00501E-04-2.06859E-05-3.88457E-03 1.14493E-13 6.93988E-14
 -1      2485 1.99941E+01-3.64300E-04 4.66531E-06-3.23655E-03-1.64767E-13-2.21879E-14
 -1      2486 1.99934E+01-3.16292E-04-3.65111E-06-3.36449E-03 1.79860E-13-2.43652E-14
 -1      2487 1.99949E+01-3.81082E-04-1.20969E-05-3.84473E-03 7.22316E-14 1.34973E-13
 -1      2488 1.99951E+01-4.11380E-04 2.27303E-06-2.89952E-03-2.79296E-13-3.34222E-14
 -1      2489 1.99944E+01-3.96033E-04-9.06181E-06-3.06299E-03-4.16527E-13-2.02640E-13
 -1      2490 1.99956E+01-5.24245E-04-6.12604E-06-3.58557E-03-1.38121E-13 3.92913E-14
 -1      2491 1.99960E+01-4.13540E-04 6.34730E-07-2.52101E-03 2.06670E-14 3.51954E-14
 -1      2492 1.99954E+01-4.18282E-04-1.17528E-05-2.69542E-03-1.15231E-13 8.41087E-15
 -1      2493 1.99963E+01-5.76160E-04-2.11268E-06-3.21146E-03-1.99564E-13-2.37558E-13
 -1      2494 1.99968E+01-3.90271E-04-5.14618E-07-2.14062E-03 6.15224E-14-1.18802E-14
 -1      2495 1.99963E+01-4.05778E-04-1.26361E-05-2.31117E-03 1.09982E-13 3.92639E-14
 -1      2496 1.99969E+01-5.71374E-04 4.67765E-07-2.79178E-03 4.77012E-14-9.42969E-14
 -1      2497 1.99975E+01-3.56113E-04-1.38973E-06-1.78024E-03 4.24746E-13 7.20880E-14
 -1      2498 1.99971E+01-3.75423E-04-1.23758E-05-1.93941E-03 2.56055E-13 5.26906E-14
 -1      2499 1.99975E+01-5.35572E-04 2.01939E-06-2.36965E-03 1.75520E-13-1.83359E-13
 -1      2500 1.99981E+01-3.22089E-04-2.13524E-06-1.44856E-03 2.83089E-13 2.92780E-13
 -1      2501 1.99978E+01-3.39903E-04-1.14304E-05-1.59429E-03 3.76427E-13 2.79334E-13
 -1      2502 1.99981E+01-4.87922E-04 2.84489E-06-1.96867E-03 2.91771E-13 1.67562E-14
 -1      2503 1.99987E+01-2.96789E-04-2.91994E-06-1.14465E-03-5.71167E-14 5.95908E-14
 -1      2504 1.99984E+01-3.09035E-04-1.01316E-05-1.27895E-03 5.42748E-14 2.42478E-13
 -1      2505 1.99985E+01-4.42828E-04 3.14624E-06-1.59816E-03 1.75101E-13 4.37457E-13
 -1      2506 1.99991E+01-2.84946E-04-3.24648E-06-8.60383E-04-2.52357E-13 2.09483E-13
 -1      2507 1.99988E+01-2.90337E-04-8.67372E-06-9.88161E-04-1.45422E-13 2.52300E-13
 -1      2508 1.99989E+01-4.10574E-04 3.39721E-06-1.25830E-03-1.28550E-13 3.03010E-13
 -1      2509 1.99994E+01-2.85869E-04-3.62706E-06-5.89723E-04-3.25426E-13 2.64001E-13
 -1      2510 1.99992E+01-2.84364E-04-7.04980E-06-7.13605E-04-3.19494E-13 1.63342E-13
 -1      2511 1.99992E+01-3.94041E-04 4.55394E-06-9.39984E-04-1.95597E-13 3.31514E-13
 -1      2512 1.99995E+01-2.79170E-04-4.64125E-06-4.40113E-04-1.47612E-13 7.29580E-14
 -1      2513 2.00000E+01-1.47237E-03 6.38579E-06-7.43875E-04 2.94642E-13 1.52969E-14
 -1      2514 1.99999E+01-1.33994E-03-1.27068E-06-8.10455E-04 2.56171E-13-3.19076E-13
 -1      2515 2.00001E+01-1.68951E-03 6.60597E-06-5.25938E-04 9.24703E-14-2.80694E-13
 -1      2516 2.00001E+01-1.59230E-03 9.56337E-07-6.35433E-04 1.03925E-13 3.15275E-14
 -1      2517 2.00001E+01-1.52849E-03-4.09336E-06-7.93832E-04 2.09072E-13-1.59192E-13
 -1      2518 1.99997E+01-8.74545E-04 4.24579E-06-8.60490E-04 6.18178E-14 1.27034E-13
 -1      2519 1.99996E+01-7.19734E-04-5.47135E-06-8.19808E-04-2.95347E-14 2.26804E-13
 -1      2520 1.99999E+01-1.19035E-03 5.43106E-06-8.62039E-04-3.10365E-14-4.37918E-13
 -1      2521 1.99998E+01-1.04059E-03-3.52287E-06-8.75491E-04 1.13583E-13-1.75078E-13
 -1      2522 1.99997E+01-9.64265E-04-3.39063E-06-1.01093E-03 2.51566E-14 3.78801E-14
 -1      2523 1.99999E+01-1.26906E-03-3.49692E-06-9.66534E-04 2.16397E-13-2.36998E-13
 -1      2524 2.00002E+01-1.81776E-03 6.10470E-06-2.40391E-04-5.72014E-14 1.45351E-14
 -1      2525 2.00002E+01-1.76638E-03 3.14640E-06-3.77222E-04-6.37877E-14-7.67262E-14
 -1      2526 2.00002E+01-1.71803E-03-5.33238E-06-5.18793E-04-7.10560E-14-2.03502E-13
 -1      2527 2.00002E+01-1.84360E-03 4.93575E-06 7.54950E-05-1.56138E-13 7.32808E-14
 -1      2528 2.00002E+01-1.84400E-03 4.93735E-06-7.05874E-05-1.60816E-13 1.48593E-13
 -1      2529 2.00003E+01-1.81734E-03-5.89467E-06-1.78493E-04-5.99918E-15-3.39898E-14
 -1      2530 2.00002E+01-1.76455E-03 3.21665E-06 3.81702E-04-1.39041E-13 1.50977E-13
 -1      2531 2.00002E+01-1.81683E-03 6.06506E-06 2.45183E-04-2.08046E-13 1.07121E-13
 -1      2532 2.00003E+01-1.81682E-03-5.88344E-06 1.83934E-04-7.79978E-14 4.77473E-14
 -1      2533 2.00001E+01-1.59321E-03 9.44019E-07 6.35368E-04 9.39491E-14 3.34696E-13
 -1      2534 2.00001E+01-1.68887E-03 6.56944E-06 5.27805E-04-1.09857E-13 3.23290E-13
 -1      2535 2.00002E+01-1.71788E-03-5.41604E-06 5.21159E-04-2.72563E-14 3.36359E-13
 -1      2536 1.99999E+01-1.34147E-03-1.46709E-06 8.10467E-04-4.56154E-14 1.35058E-14
 -1      2537 2.00000E+01-1.47312E-03 6.41806E-06 7.43839E-04 5.60796E-15 5.73938E-14
 -1      2538 2.00001E+01-1.52969E-03-4.27497E-06 7.93943E-04 3.19843E-14 9.61893E-14
 -1      2539 1.99998E+01-1.03700E-03-3.41804E-06 8.74522E-04-7.27615E-14-9.87883E-14
 -1      2540 1.99999E+01-1.18963E-03 5.33640E-06 8.62926E-04-2.01708E-13 1.00060E-13
 -1      2541 1.99999E+01-1.26767E-03-2.42525E-06 9.67221E-04-2.40738E-13-5.83316E-14
 -1      2542 1.99996E+01-7.12538E-04-4.67758E-06 8.13601E-04-6.88646E-14-4.47756E-13
 -1      2543 1.99997E+01-8.70578E-04 3.27496E-06 8.61763E-04-4.62085E-14-2.23812E-13
 -1      2544 1.99997E+01-9.57596E-04 3.45496E-07 1.00977E-03-8.62591E-14-1.51172E-13
 -1      2545 1.99995E+01-4.38542E-04-4.08291E-06 5.68642E-04 3.31586E-14-2.96595E-13
 -1      2546 3.59502E+00-2.14863E+00 7.30020E-02-1.13338E+00 1.88322E-14 1.25921E-12
 -1      2547 4.63947E+00-2.73447E+00 6.48020E-02-3.30023E+00 3.55271E-14 1.20703E-12
 -1      2548 2.19610E+01 1.22122E-01 1.11200E-02 1.56630E+00 1.83172E-13 1.31234E-13
 -1      2549 2.23159E+01-3.64152E-03 3.72871E-03 1.60273E+00 1.83699E-13 1.70605E-13
 -1      2550 2.23514E+01 3.03046E-01 1.83803E-03 1.78051E+00 2.12630E-13 5.91240E-14
 -1      2551 1.72052E+01-4.76829E+00-2.08807E-02 7.07257E+00-8.04912E-14 3.26177E-13
 -1      2552 1.31175E+01-4.56181E+00 5.34727E-02 6.92881E+00-8.79297E-14 6.02157E-13
 -1      2553 1.31834E+01-3.66390E+00 1.32524E-01 6.66901E+00-2.52770E-13 6.24875E-13
 -1      2554 2.41219E+01-4.27081E+00-4.80920E-02 5.20582E+00 7.50233E-14-5.12923E-14
 -1      2555 2.13182E+01-4.77568E+00 4.67804E-02 5.82965E+00-6.92779E-14 7.00412E-14
 -1      2556 2.44254E+01 1.20877E+00-3.02775E-03-8.83470E-01-2.84471E-13 1.88013E-13
 -1      2557 2.47871E+01 1.54229E-01-2.91315E-02-6.10616E-01-2.41040E-13 2.53439E-13
 -1      2558 2.41847E+01-5.42008E-02 9.02836E-03-4.21828E-01-1.65100E-13 1.54047E-13
 -1      2559 2.29781E+01 1.54721E+00-2.78938E-03-5.60540E-01-2.64519E-13 5.32907E-14
 -1      2560 6.28791E+00-3.43867E+00 4.96603E-02-4.64528E+00 1.28897E-13 8.65696E-13
 -1      2561 8.93139E+00-3.94214E+00 9.13647E-04-6.07635E+00 7.02771E-14 5.85615E-13
 -1      2562 7.20072E+00-2.06301E+00 1.50021E-01-3.97813E+00 2.18908E-13 9.44578E-13
 -1      2563 3.27391E+01 6.76392E+00-1.28650E-01 2.69953E-01-9.87543E-13-2.64705E-13
 -1      2564 3.25806E+01 6.91750E+00-1.24768E-01-6.76318E-01-9.28313E-13-1.26864E-13
 -1      2565 1.19355E+01 4.39335E+00 2.45428E-02-1.30694E+00-1.63226E-13-6.71455E-13
 -1      2566 1.16992E+01 4.50544E+00 5.27477E-03-8.47451E-01-1.51024E-13-6.66031E-13
 -1      2567 1.14579E+01 4.21390E+00 5.31868E-02-4.02560E-01-1.20173E-13-6.88831E-13
 -1      2568 1.20299E+01 3.87222E+00 4.74577E-02-1.88902E+00-1.97164E-13-6.86479E-13
 -1      2569 3.21916E+01 3.22168E+00-9.90071E-02 9.89673E-02 7.12569E-13-3.42476E-13
 -1      2570 3.06483E+01 1.16328E+00-5.47224E-02 6.01635E-01 5.33212E-13-3.54050E-13
 -1      2571 1.07872E+01-2.71246E+00 4.38680E-02 5.73788E+00-4.55469E-14-8.57203E-13
 -1      2572 7.76260E+00-1.72817E+00 7.39524E-02 4.61563E+00 4.73233E-14-9.22873E-13
 -1      2573 3.16641E+01 7.45110E+00-1.57333E-01 4.92291E-01 1.06548E-12-2.12885E-13
 -1      2574 3.18897E+01 7.40075E+00-1.31165E-01-3.35558E-02 1.01363E-12-2.53131E-13
 -1      2575 3.24838E+01 6.62617E+00-1.51657E-01-4.29018E-01 9.09606E-13-3.15956E-13
 -1      2576 3.23611E+01 5.27193E+00-8.67856E-02-3.60181E-01 8.36164E-13-3.22214E-13
 -1      2577 3.04928E+01 1.43735E+00-4.29701E-02-8.23108E-02 6.90517E-13 3.15303E-14
 -1      2578 3.16038E+01 2.95273E+00-1.06489E-01 3.49349E-01 8.78853E-13 6.00908E-14
 -1      2579 1.40159E+01-2.75206E+00 4.67342E-02-6.61087E+00-1.06026E-13-6.95527E-13
 -1      2580 1.74113E+01-3.00873E+00 3.18499E-02-6.56772E+00 1.25455E-14-6.18063E-13
 -1      2581 2.01814E+01-3.24982E+00 1.59482E-02-5.70001E+00 4.92384E-14-4.97324E-13
 -1      2582 2.31095E+01-3.05004E+00-9.31203E-02-4.97843E+00 1.46189E-13-3.74145E-13
 -1      2583 1.96418E+01-3.14468E+00 8.38382E-02-5.64806E+00-1.81383E-13-4.32642E-13
 -1      2584 2.64078E+01-2.04356E+00 9.98224E-03-2.98887E+00 2.72476E-13-1.77441E-13
 -1      2585 2.90340E+01-6.74637E-01-1.20876E-01-1.62053E+00 4.78857E-13-4.34375E-14
 -1      2586 3.37760E+00 4.79163E-02 1.02223E-01-1.28800E+00-1.42570E-13-1.10706E-12
 -1      2587 4.24790E+00 2.89450E-02 1.03117E-01-3.08901E+00-1.45411E-13-1.09690E-12
 -1      2588 2.72746E+01-3.90084E+00-2.42187E-02-3.01704E+00-1.13215E-13-4.39648E-14
 -1      2589 2.96656E+01-2.60862E+00-1.54135E-01-1.54308E+00-2.99247E-13-2.88047E-13
 -1      2590 4.86488E+00-4.86946E-01 8.51008E-02 2.89581E+00-4.65877E-14-1.05649E-12
 -1      2591 3.46696E+00-7.04198E-02 8.11175E-02 6.10142E-01-2.71172E-14-1.09934E-12
 -1      2592 1.75531E+01-3.96088E+00-3.21669E-02 5.89206E+00-3.56382E-14-6.01817E-13
 -1      2593 1.38213E+01-3.55718E+00 1.83612E-02 5.77858E+00-1.63758E-15-7.14553E-13
 -1      2594 1.41002E+01-2.50175E+00 1.24456E-01 5.43819E+00 1.69781E-13-6.69687E-13
 -1      2595 2.57866E+01-3.79734E+00-8.64509E-02 3.73648E+00-2.91545E-13-2.96430E-13
 -1      2596 2.17741E+01-4.27287E+00 5.01182E-03 4.68368E+00-1.06637E-13-4.06897E-13
 -1      2597 3.10249E+01-1.13209E+00-1.19053E-01 5.51351E-01-5.39886E-13 4.72955E-14
 -1      2598 2.86752E+01-2.55502E+00-6.44293E-03 1.76873E+00-4.34527E-13-1.05305E-13
 -1      2599 3.36117E+01 2.98542E+00-1.02781E-01-1.18817E+00-7.66165E-13-4.91274E-15
 -1      2600 3.22938E+01 1.25594E+00-5.27304E-02-8.60019E-01-6.69811E-13 3.95239E-14
 -1      2601 3.26192E+01 6.01110E+00-2.19898E-01-1.52651E+00-8.83904E-13 2.28012E-14
 -1      2602 3.35087E+01 4.75773E+00-6.37128E-02-1.55785E+00-8.38690E-13 1.32117E-14
 -1      2603 3.15891E+01 3.53221E+00-3.84834E-02-2.29450E+00-7.23116E-13 1.35947E-13
 -1      2604 3.27168E+01 4.51435E+00-1.06392E-01 1.24890E+00-9.43745E-13-4.96214E-13
 -1      2605 3.26058E+01 5.72432E+00-1.91246E-01 9.58832E-01-1.00175E-12-4.14627E-13
 -1      2606 3.13703E+01 1.79563E-01-4.53705E-02 3.36945E-01-5.77274E-13-4.80060E-13
 -1      2607 3.26669E+01 2.46002E+00-1.47500E-01 9.25288E-01-8.19039E-13-5.48867E-13
 -1      2608 2.18546E+01-5.19992E+00 4.62911E-02-5.37113E+00 7.29139E-14 1.10759E-13
 -1      2609 2.50410E+01-4.69927E+00-4.10841E-02-4.60735E+00 2.58127E-15 1.52073E-13
 -1      2610 2.66075E+01-4.59488E+00 5.78606E-02-2.79536E+00 7.74936E-14-1.45564E-13
 -1      2611 1.30220E+01-4.78874E+00 5.54753E-02-6.52822E+00 8.91509E-14 3.34538E-13
 -1      2612 1.72018E+01-5.11352E+00-4.77418E-02-6.76811E+00 8.54317E-14 1.45672E-13
 -1      2613 4.78527E+00-2.65988E+00 5.07924E-02 3.89087E+00-7.53841E-14 9.93039E-13
 -1      2614 3.68063E+00-2.05209E+00 9.98798E-02 1.49739E+00-1.40422E-13 1.12887E-12
 -1      2615 7.72484E+00-1.96623E+00 1.60866E-01 4.59144E+00-2.08139E-13 9.32476E-13
 -1      2616 2.36312E+01 4.64625E-01-1.79370E-02 1.74414E+00 3.53249E-13 2.71048E-13
 -1      2617 2.40706E+01 9.13723E-01-1.39025E-02 2.08884E+00 3.90021E-13 3.04277E-13
 -1      2618 2.37383E+01 1.30208E+00-2.93672E-02 2.27808E+00 4.09305E-13 1.71321E-13
 -1      2619 2.35372E+01 4.48302E-01-1.76115E-02 1.93786E+00 3.35418E-13 1.59770E-13
 -1      2620 2.92930E+01-1.41627E+00-1.07875E-01 2.14425E+00 3.65354E-13-3.50109E-13
 -1      2621 2.66437E+01-3.05461E+00-2.22803E-02 3.48360E+00 1.96745E-13-1.99868E-13
 -1      2622 2.61606E+01-3.92995E+00 3.58152E-02 3.27150E+00-6.12288E-14-3.65874E-13
 -1      2623 2.94980E+01-5.46710E-01-1.56947E-02 4.10750E-01 3.24511E-13-5.08149E-13
 -1      2624 1.64032E+01 2.42190E+00-4.41251E-03 1.27996E+00-4.64316E-14-4.10323E-13
 -1      2625 1.71837E+01 2.76873E+00-2.41883E-02 8.05444E-01-9.65228E-14-3.78917E-13
 -1      2626 1.88681E+01 2.45181E+00 1.33882E-02 5.55129E-01-1.46416E-13-3.03008E-13
 -1      2627 2.28476E+01-1.40106E-02 4.00869E-03 1.86415E+00 2.16461E-13 1.08893E-13
 -1      2628 2.33460E+01 1.53319E+00-1.23254E-02 2.15846E+00 3.61273E-13 3.28279E-14
 -1      2629 3.07370E+01 3.91918E+00-7.14296E-02 1.46789E+00 8.71164E-13 9.07607E-14
 -1      2630 2.06311E+01-5.10578E+00 8.15624E-02-5.63913E+00 2.01228E-13 1.00276E-13
 -1      2631 3.02531E+01 6.82589E+00-1.00642E-01 7.95044E-01 1.00012E-12-1.12681E-13
 -1      2632 3.00068E+01-1.66628E+00-1.80927E-02 2.52142E-01-3.51958E-13-4.88526E-13
 -1      2633 3.09385E+01 6.07936E+00-3.76787E-02-1.32058E+00-8.19511E-13 1.01308E-15
 -1      2634 2.01986E+01-4.81709E+00 7.89045E-02 6.06938E+00-2.51937E-13 2.78284E-14
 -1      2635 1.99995E+01-3.93515E-04-1.24251E-06-6.28432E-04-1.65713E-13 7.11882E-14
 -1      2636 2.15043E+01 1.78431E+00-1.50730E-02-1.46852E-01-2.09383E-13-8.65592E-14
 -1      2637 1.99995E+01-5.12566E-04 1.49751E-07-7.17805E-04-9.99709E-14 2.05437E-13
 -1      2638 3.07086E+01 5.77651E+00-6.94808E-02 1.02964E+00-8.74634E-13-3.50608E-13
 -1      2639 1.99994E+01-3.90020E-04-5.23553E-06 6.91913E-04-5.98060E-14-2.43958E-13
 -1      2640 1.99995E+01-5.66809E-04 3.04329E-06 7.77963E-04-1.61774E-14-4.62152E-13
 -1      2641 1.99995E+01-6.59017E-04-2.47632E-06 9.55640E-04-1.06764E-13-3.01241E-13
 -1      2642 1.99993E+01-3.97262E-04-7.57869E-06 8.23011E-04-9.20332E-14-2.32609E-13
 -1      2643 3.10191E+01-3.37272E-01-3.20112E-03-1.13669E+00-4.77937E-13 2.00506E-13
 -1      2644 2.09689E+01-4.03931E+00 8.86855E-02 4.64075E+00 1.11855E-13-3.59358E-13
 -1      2645 5.35706E+00-1.16366E+00 1.72045E-01 1.83387E-01-6.88997E-14 1.17029E-12
 -1      2646 2.33992E+01 9.64907E-01 1.58195E-02 1.97528E+00 3.19289E-13 3.91388E-14
 -1      2647 8.02028E+00-2.32129E-01 1.54077E-01 3.64499E+00 8.85680E-14-9.55652E-13
 -1      2648 1.99995E+01-6.01905E-04-3.55924E-06-9.01552E-04-8.68489E-14 3.31113E-13
 -1      2649 5.16886E+00 1.16244E+00 1.73866E-01-2.28347E-01-7.63209E-14-1.08638E-12
 -1      2650 1.26920E+01-2.11732E+00 8.01617E-02-6.46796E+00-2.09666E-13-7.58477E-13
 -1      2651 1.52317E+01-2.17850E+00 2.29454E-03-6.21365E+00-3.53273E-13-5.65603E-13
 -1      2652 1.14337E+01-8.78747E-01 1.80964E-01-6.02670E+00-3.38035E-13-7.67636E-13
 -1      2653 2.91070E+01-7.00981E-02-1.76057E-02 6.92997E-03 4.37372E-13 1.28786E-13
 -1      2654 2.98030E+01 6.61005E+00-7.22195E-02-5.33490E-01 8.89927E-13-3.19897E-13
 -1      2655 6.18978E+00 4.20798E-02 1.42956E-01-4.15409E+00-2.15702E-13-1.06387E-12
 -1      2656 8.32767E+00 1.10509E-01 6.60782E-02-5.12286E+00-2.91017E-13-9.39637E-13
 -1      2657 6.80845E+00 1.32560E+00 2.05852E-01-3.33364E+00-2.13801E-13-1.03570E-12
 -1      2658 1.25396E+01-3.74728E+00 1.36757E-01-6.21869E+00 2.71644E-13 3.54744E-13
 -1      2659 3.05267E+01 3.86716E+00-2.94095E-02-1.07861E+00 6.58862E-13-4.60243E-13
 -1      2660 2.52171E+01-2.74771E+00 3.25367E-02-3.21639E+00 3.83166E-14-1.20043E-13
 -1      2661 2.75559E+01-3.48751E+00 4.55190E-02 1.82029E+00-1.56222E-13 2.92821E-14
 -1      2662 3.09596E+01 2.80731E+00-6.30421E-02 1.85142E+00-7.42267E-13-5.83589E-13
 -1      2663 1.99993E+01-5.17581E-04 3.98687E-06 1.02324E-03-5.73587E-14-2.25157E-13
 -1      2664 1.86321E+01 8.36161E-01 4.24080E-02-2.28057E+00-1.99668E-13-3.84031E-13
 -1      2665 1.70122E+01 1.20648E+00-1.35160E-02-2.77036E+00-2.52261E-13-4.43118E-13
 -1      2666 1.52150E+01 1.96225E+00 8.49182E-02-3.16381E+00-2.82357E-13-5.60916E-13
 -1      2667 1.33667E+01 2.46789E+00-1.65398E-02-3.15254E+00-2.89886E-13-6.26301E-13
 -1      2668 1.63445E+01 7.61901E-01 1.44874E-02-3.51717E+00-2.99896E-13-4.80765E-13
 -1      2669 2.23939E+01 3.17687E-01-2.50845E-02 6.06426E-01 8.54147E-14-1.85433E-13
 -1      2670 2.18286E+01 3.82428E-01 1.69341E-02 1.64290E-02 2.04674E-14-2.16436E-13
 -1      2671 2.31045E+01 4.24151E-01-3.06490E-02 1.54930E+00 2.01837E-13-9.20514E-14
 -1      2672 2.28098E+01 4.76555E-01 1.19713E-02 1.16919E+00 1.47618E-13-1.32641E-13
 -1      2673 2.30645E+01-1.02652E-01 9.56147E-03 9.43980E-01 9.98694E-14-9.14216E-14
 -1      2674 2.33210E+01-1.10731E-01-1.03640E-02 1.87892E+00 2.19725E-13 7.16454E-14
 -1      2675 2.35232E+01 4.00609E-02 5.99929E-03 1.89611E+00 2.26849E-13 9.18758E-14
 -1      2676 1.04629E+01-1.69556E-01 1.11766E-01 4.35193E+00 1.39305E-13-7.92366E-13
 -1      2677 7.70324E+00 1.15939E+00 1.33786E-01 2.58531E+00 8.71248E-14-9.13852E-13
 -1      2678 9.76503E+00-1.82001E+00 7.78427E-02 5.31059E+00-2.41057E-13 7.85483E-13
 -1      2679 7.80477E+00-9.08783E-01 1.53369E-01 3.58093E+00-2.33563E-13 9.03833E-13
 -1      2680 7.73942E+00-9.96192E-01 1.27017E-01-3.22140E+00 3.06949E-13 8.74800E-13
 -1      2681 9.34240E+00-1.79285E+00 1.00714E-01-4.75850E+00 3.39909E-13 6.77486E-13
 -1      2682 2.20537E+01-4.87151E+00-7.84883E-02 5.11884E+00-3.46445E-13-2.86673E-13
 -1      2683 1.89104E+01-4.34906E+00 1.38507E-01 6.03140E+00-4.08826E-13-1.30312E-14
 -1      2684 2.61083E+01-2.43518E+00 4.25459E-02-5.13634E-01 2.43520E-14 2.96183E-13
 -1      2685 2.66392E+01-2.45794E+00-1.73799E-02-1.09941E+00-1.42316E-14 3.52413E-13
 -1      2686 2.75243E+01-1.83767E+00-5.40643E-02 1.54526E+00-2.48523E-13-7.80646E-13
 -1      2687 2.69561E+01-2.71854E+00-1.38611E-02 8.30574E-01-8.55852E-14-6.70908E-13
 -1      2688 2.56812E+01-3.00932E+00-2.87086E-02-7.75850E-02 9.13124E-14-4.66417E-13
 -1      2689 2.49967E+01-2.85634E+00 3.75362E-02-7.54921E-01 1.98855E-13-3.61752E-13
 -1      2690 2.63064E+01-3.45036E+00-2.49166E-02-4.05634E-01 1.29421E-13-5.71890E-13
 -1      2691 2.38621E+01-2.44680E+00-1.32415E-02-1.25590E+00 1.74286E-13-2.31765E-13
 -1      2692 2.32492E+01-1.92941E+00 4.18670E-02-1.64845E+00 1.37207E-13-1.21953E-13
 -1      2693 2.38538E+01-3.07040E+00-3.17208E-02-1.73386E+00 3.02880E-13-2.67054E-13
 -1      2694 2.25022E+01-1.44185E+00-5.05832E-03-1.82035E+00 2.55820E-14-5.11314E-14
 -1      2695 2.20402E+01-9.57515E-01 2.41017E-02-1.98220E+00-1.36503E-14-4.77398E-14
 -1      2696 2.21109E+01-1.95281E+00-4.27480E-02-2.26214E+00 1.37376E-13-1.16944E-13
 -1      2697 2.16345E+01-5.77003E-01 1.76255E-03-1.96178E+00-7.41208E-14-3.39604E-14
 -1      2698 2.13174E+01-2.50281E-01 1.12558E-02-1.97902E+00-7.07816E-14-9.37832E-14
 -1      2699 2.10893E+01-8.57774E-01-2.68190E-02-2.29021E+00-4.87412E-14-5.36038E-14
 -1      2700 2.11236E+01-1.46231E-02 4.01454E-03-1.87821E+00-4.17776E-15-6.53231E-14
 -1      2701 2.09111E+01 1.67354E-01 3.85856E-03-1.81614E+00 4.46581E-14 3.56438E-15
 -1      2702 2.05714E+01-1.19741E-01-1.31387E-02-2.11039E+00-2.78986E-14 5.09579E-14
 -1      2703 2.08300E+01 2.88532E-01 4.50667E-03-1.68798E+00 2.14153E-14-2.47564E-14
 -1      2704 2.06811E+01 3.70090E-01 8.69232E-05-1.58808E+00 4.36402E-14-6.98795E-16
 -1      2705 2.03355E+01 2.92267E-01-5.42942E-03-1.85556E+00 3.22679E-14 6.06653E-14
 -1      2706 2.06527E+01 4.16510E-01 4.48736E-03-1.45619E+00 7.68615E-14-6.38226E-14
 -1      2707 2.05405E+01 4.37476E-01-1.57994E-03-1.34382E+00 1.31864E-13-3.21450E-15
 -1      2708 2.02389E+01 4.79513E-01-1.45509E-03-1.58526E+00 1.95896E-14 4.31052E-14
 -1      2709 2.05327E+01 4.41209E-01 4.26954E-03-1.21946E+00 1.34154E-13-4.33461E-15
 -1      2710 2.04426E+01 4.29865E-01-2.13591E-03-1.10919E+00 7.60249E-14-1.99653E-14
 -1      2711 2.02018E+01 5.30042E-01 2.29770E-04-1.32529E+00 1.02812E-13-4.21814E-14
 -1      2712 2.04404E+01 4.12308E-01 3.94141E-03-9.97543E-01-1.97408E-14-1.12607E-13
 -1      2713 2.03655E+01 3.86286E-01-2.14150E-03-8.97031E-01-6.63987E-14-1.66431E-13
 -1      2714 2.01845E+01 5.06850E-01 7.15761E-04-1.08764E+00-5.39147E-14-1.84085E-13
 -1      2715 2.03629E+01 3.60179E-01 3.54104E-03-8.00108E-01-9.06081E-14-1.99298E-13
 -1      2716 2.02998E+01 3.29509E-01-1.90573E-03-7.12674E-01-6.84966E-14-3.38178E-13
 -1      2717 2.01701E+01 4.49518E-01 6.72637E-04-8.77693E-01-1.98381E-13-3.54606E-13
 -1      2718 2.02953E+01 3.01785E-01 3.10025E-03-6.30684E-01 2.04342E-14-3.33903E-13
 -1      2719 2.02424E+01 2.71691E-01-1.59078E-03-5.57078E-01 6.62973E-14-2.94376E-13
 -1      2720 2.01534E+01 3.80831E-01 4.54370E-04-6.97125E-01-3.50806E-14-3.34452E-13
 -1      2721 2.02363E+01 2.45759E-01 2.65051E-03-4.89178E-01 1.39767E-13-1.96187E-13
 -1      2722 2.01926E+01 2.18652E-01-1.27674E-03-4.28725E-01 8.24684E-14-6.46448E-14
 -1      2723 2.01342E+01 3.12837E-01 2.22811E-04-5.45288E-01 1.48912E-13-1.06361E-13
 -1      2724 2.01856E+01 1.95931E-01 2.21810E-03-3.73513E-01-1.57815E-14-2.07721E-14
 -1      2725 2.01500E+01 1.72674E-01-9.97968E-04-3.24841E-01-5.31058E-15-3.88906E-14
 -1      2726 2.01138E+01 2.51223E-01 3.90053E-05-4.20087E-01 7.77385E-14 3.17010E-15
 -1      2727 2.01429E+01 1.53532E-01 1.82106E-03-2.80678E-01-5.03311E-14-8.00710E-14
 -1      2728 2.01145E+01 1.34192E-01-7.65242E-04-2.42154E-01-7.55026E-14-3.37745E-14
 -1      2729 2.00937E+01 1.98120E-01-8.46975E-05-3.18640E-01 1.98643E-14 9.32032E-15
 -1      2730 2.01078E+01 1.18483E-01 1.46937E-03-2.07366E-01-1.54848E-13-2.85889E-14
 -1      2731 2.00855E+01 1.02751E-01-5.77930E-04-1.77346E-01-1.06902E-13-2.64631E-14
 -1      2732 2.00751E+01 1.53800E-01-1.55736E-04-2.37756E-01-6.49845E-14-4.85211E-14
 -1      2733 2.00796E+01 9.01056E-02 1.16664E-03-1.50349E-01-1.08794E-13-3.74471E-14
 -1      2734 2.00624E+01 7.75288E-02-4.30677E-04-1.27305E-01-4.11192E-14-3.02890E-14
 -1      2735 2.00588E+01 1.17643E-01-1.87304E-04-1.74249E-01-1.38260E-13-2.96365E-14
 -1      2736 2.00573E+01 6.75078E-02 9.12092E-04-1.06667E-01-8.55160E-14-9.48944E-14
 -1      2737 2.00443E+01 5.76004E-02-3.16786E-04-8.92449E-02-2.11808E-13-1.37609E-13
 -1      2738 2.00449E+01 8.86624E-02-1.92289E-04-1.25135E-01-7.28154E-14-8.38868E-14
 -1      2739 2.00402E+01 4.97698E-02 7.02253E-04-7.37145E-02-2.26566E-13-5.34516E-14
 -1      2740 2.00305E+01 4.20717E-02-2.29784E-04-6.07545E-02-1.10362E-13-9.12595E-14
 -1      2741 2.00334E+01 6.57816E-02-1.81110E-04-8.77316E-02-1.88681E-13 7.55556E-14
 -1      2742 2.00272E+01 3.60346E-02 5.32270E-04-4.92646E-02-9.32875E-14-1.60118E-13
 -1      2743 2.00202E+01 3.01341E-02-1.64027E-04-3.97940E-02-1.31731E-13-1.13171E-13
 -1      2744 2.00243E+01 4.79657E-02-1.61356E-04-5.97056E-02-1.08537E-13 5.58086E-15
 -1      2745 2.00176E+01 2.55434E-02 3.96765E-04-3.14534E-02-1.17907E-13-6.46908E-14
 -1      2746 2.00126E+01 2.10846E-02-1.14837E-04-2.46725E-02-9.59696E-14-4.55082E-14
 -1      2747 2.00172E+01 3.42825E-02-1.38145E-04-3.90740E-02-9.41944E-14 4.51932E-14
 -1      2748 2.00107E+01 1.76449E-02 2.90390E-04-1.87501E-02-1.82209E-13-1.20023E-13
 -1      2749 2.00073E+01 1.43274E-02-7.84444E-05-1.40115E-02-3.55483E-13-2.75900E-13
 -1      2750 2.00117E+01 2.39217E-02-1.14688E-04-2.41854E-02-2.23523E-13 1.53187E-13
 -1      2751 2.00058E+01 1.17918E-02 2.08141E-04-9.91699E-03-2.81364E-13-2.41145E-13
 -1      2752 2.00035E+01 9.36599E-03-5.18566E-05-6.70458E-03-1.90198E-13-2.71003E-13
 -1      2753 2.00077E+01 1.61964E-02-9.28340E-05-1.36892E-02-2.45614E-13-2.92758E-14
 -1      2754 2.00025E+01 7.53159E-03 1.45530E-04-3.96832E-03-1.25732E-13-1.83645E-13
 -1      2755 2.00011E+01 5.79323E-03-3.27217E-05-1.87637E-03-2.93725E-14-1.45964E-13
 -1      2756 2.00047E+01 1.05343E-02-7.35066E-05-6.49811E-03-1.75463E-13 2.28530E-13
 -1      2757 2.00003E+01 4.49520E-03 9.86476E-05-1.30488E-04 3.20801E-14-2.21252E-13
 -1      2758 1.99995E+01 3.27942E-03-1.92023E-05 1.15538E-03 3.58669E-14-2.65451E-13
 -1      2759 2.00026E+01 6.46601E-03-5.70385E-05-1.75057E-03-5.22824E-14 2.26041E-13
 -1      2760 1.99990E+01 2.38569E-03 6.41711E-05 2.19478E-03 1.33537E-14-3.73946E-13
 -1      2761 1.99986E+01 1.56103E-03-9.87154E-06 2.91453E-03-6.74796E-14-2.93541E-13
 -1      2762 2.00012E+01 3.61159E-03-4.34045E-05 1.22598E-03-7.39084E-14-7.29379E-14
 -1      2763 1.99982E+01 9.67088E-04 3.93313E-05 3.46310E-03-6.56386E-15-3.45912E-13
 -1      2764 1.99981E+01 4.30047E-04-3.62896E-06 3.79696E-03 2.51981E-14-1.33971E-13
 -1      2765 2.00002E+01 1.66750E-03-3.23809E-05 2.94835E-03-1.64455E-14-1.52596E-13
 -1      2766 1.99979E+01 5.42264E-05 2.18624E-05 4.01570E-03 5.45545E-14-1.55127E-13
 -1      2767 1.99979E+01-2.75598E-04 3.67147E-07 4.09661E-03 1.91510E-13-6.13622E-14
 -1      2768 1.99996E+01 3.94358E-04-2.36492E-05 3.80725E-03 8.12127E-14-8.92168E-14
 -1      2769 1.99978E+01-4.96300E-04 9.94155E-06 4.10343E-03 2.23300E-13-6.03691E-14
 -1      2770 1.99980E+01-6.80581E-04 2.75309E-06 4.02743E-03 5.05973E-14 3.09251E-14
 -1      2771 1.99993E+01-3.94173E-04-1.68617E-05 4.09274E-03 2.15821E-13-1.84564E-13
 -1      2772 1.99979E+01-7.94144E-04 2.12668E-06 3.90670E-03-3.36657E-14 4.72677E-14
 -1      2773 1.99981E+01-8.79588E-04 4.00321E-06 3.74141E-03 4.00290E-15 5.03553E-14
 -1      2774 1.99991E+01-8.41296E-04-1.16799E-05 4.01585E-03 9.65880E-14-1.15646E-13
 -1      2775 1.99981E+01-9.22110E-04-2.70340E-06 3.55181E-03-4.09197E-14 8.30566E-14
 -1      2776 1.99983E+01-9.43674E-04 4.46475E-06 3.34322E-03 4.50501E-15 6.29137E-14
 -1      2777 1.99991E+01-1.05566E-03-7.79632E-06 3.72636E-03-1.37417E-14-9.17975E-14
 -1      2778 1.99983E+01-9.42039E-04-5.40680E-06 3.12400E-03-1.18608E-14 5.71277E-14
 -1      2779 1.99985E+01-9.25662E-04 4.38681E-06 2.90187E-03 1.21952E-13 1.20265E-13
 -1      2780 1.99991E+01-1.11876E-03-4.94723E-06 3.32723E-03-4.34815E-14 2.94885E-15
 -1      2781 1.99986E+01-8.99784E-04-6.62178E-06 2.67779E-03 2.06471E-13 5.61035E-14
 -1      2782 1.99988E+01-8.64661E-04 3.94295E-06 2.45985E-03 4.35835E-14 4.32734E-14
 -1      2783 1.99991E+01-1.09115E-03-2.92076E-06 2.88622E-03 5.11299E-14 6.08130E-14
 -1      2784 1.99988E+01-8.29330E-04-6.82146E-06 2.24500E-03-1.60997E-13-4.73631E-14
 -1      2785 1.99990E+01-7.89736E-04 3.25918E-06 2.04015E-03-9.94895E-14-2.22360E-13
 -1      2786 1.99992E+01-1.01762E-03-1.54780E-06 2.44493E-03-1.88461E-13 3.04401E-14
 -1      2787 1.99990E+01-7.56407E-04-6.51117E-06 1.84076E-03 8.53747E-15-3.35245E-13
 -1      2788 1.99992E+01-7.22193E-04 2.26786E-06 1.65118E-03-1.33739E-13-3.40761E-13
 -1      2789 1.99993E+01-9.31380E-04-7.38145E-07 2.02573E-03-1.38530E-13-4.54488E-14
 -1      2790 1.99992E+01-6.97462E-04-5.45083E-06 1.46858E-03-1.56022E-13-3.86747E-13
 -1      2791 1.99994E+01-6.77577E-04 1.36821E-07 1.29357E-03-3.94174E-14-3.57127E-13
 -1      2792 1.99994E+01-8.54347E-04 7.71437E-07 1.63659E-03-1.18948E-13-3.33295E-13
 -1      2793 3.01151E+01 1.13062E-01-1.67467E-01-2.26148E+00-4.19040E-13 2.52479E-13
 -1      2794 2.95014E+01-1.58388E+00-1.37819E-02-1.40923E+00-2.65711E-13 3.19300E-13
 -1      2795 1.53631E+01-3.76333E+00-8.43435E-04 6.61461E+00-3.60156E-13 3.20466E-13
 -1      2796 1.25739E+01-2.70377E+00 1.58656E-01 6.10809E+00-3.62307E-13 5.79953E-13
 -1      2797 2.23001E+01 1.25952E+00 1.96074E-02 1.40661E+00 2.74625E-13 3.01291E-14
 -1      2798 2.24957E+01 8.95135E-01-1.63183E-02 1.71941E+00 2.59680E-13 6.72799E-14
 -1      2799 2.21764E+01 8.02986E-01-2.32624E-02-1.42483E+00 2.70993E-13-3.12939E-13
 -1      2800 2.20835E+01 1.23201E+00 2.38600E-02-1.14133E+00 2.93298E-13-2.73648E-13
 -1      2801 2.24640E+01-4.18285E-02-1.95931E-02-1.59227E+00 1.59595E-13-3.82805E-13
 -1      2802 2.23519E+01 3.74800E-01 1.45785E-02-1.56609E+00 2.14562E-13-3.38926E-13
 -1      2803 2.28250E+01 7.23722E-01 1.49587E-03-1.62946E+00 2.66245E-13-3.63591E-13
 -1      2804 2.25847E+01-6.44921E-01-8.01063E-03-1.28256E+00 1.64004E-13-3.98725E-13
 -1      2805 2.25180E+01-3.80570E-01 4.66571E-03-1.45248E+00 1.75902E-13-3.91430E-13
 -1      2806 2.29861E+01-2.61565E-01 1.23708E-02-1.59021E+00 1.79303E-13-3.56204E-13
 -1      2807 2.24695E+01-8.80081E-01 3.31503E-04-7.40237E-01 1.18898E-13-2.89008E-13
 -1      2808 2.24726E+01-8.04928E-01-6.85235E-03-9.91263E-01 1.36341E-13-3.44622E-13
 -1      2809 2.28780E+01-9.13768E-01 5.89019E-03-1.10239E+00 1.05219E-13-3.19126E-13
 -1      2810 2.21941E+01-8.28799E-01 5.54779E-03-1.96225E-01 1.34070E-14-1.70200E-13
 -1      2811 2.22570E+01-8.84407E-01-1.13838E-02-4.39480E-01 9.53283E-14-2.10775E-13
 -1      2812 2.25351E+01-1.10631E+00-5.58332E-04-4.81151E-01 6.55712E-14-1.81406E-13
 -1      2813 2.18541E+01-6.31534E-01 7.27564E-03 2.30498E-01-1.11143E-13-9.62951E-14
 -1      2814 2.19531E+01-7.45089E-01-1.07056E-02 4.10970E-02-6.77336E-14-1.44403E-13
 -1      2815 2.20897E+01-9.83677E-01-4.08313E-03 6.48402E-02-6.35121E-14-4.53987E-14
 -1      2816 2.15178E+01-4.00278E-01 6.40292E-03 5.08469E-01-4.76115E-14-5.59558E-14
 -1      2817 2.16322E+01-5.19818E-01-8.08850E-03 3.85289E-01-6.49806E-14-5.24325E-14
 -1      2818 2.16487E+01-7.19599E-01-5.90885E-03 4.52402E-01-1.06498E-13-3.41657E-14
 -1      2819 2.12199E+01-1.97851E-01 4.81896E-03 6.53014E-01 2.94468E-14-7.75166E-14
 -1      2820 2.13357E+01-2.96891E-01-5.08641E-03 5.89334E-01-2.03298E-14-5.72091E-14
 -1      2821 2.12699E+01-4.35454E-01-5.67855E-03 6.78858E-01-2.84242E-14-1.03931E-14
 -1      2822 2.09702E+01-4.77008E-02 3.22304E-03 6.96995E-01 3.47848E-14 4.16446E-14
 -1      2823 2.10796E+01-1.18260E-01-2.50017E-03 6.78581E-01 5.92048E-14-3.58978E-14
 -1      2824 2.09689E+01-1.97335E-01-4.53454E-03 7.75887E-01 3.80080E-14-1.06827E-13
 -1      2825 2.07661E+01 4.99028E-02 1.93959E-03 6.73855E-01 2.11229E-14 5.29274E-14
 -1      2826 2.08652E+01 5.87510E-03-6.10525E-04 6.85846E-01 6.91367E-14 6.61534E-14
 -1      2827 2.07387E+01-2.58562E-02-3.34323E-03 7.82206E-01 3.40760E-14 4.56756E-14
 -1      2828 2.06009E+01 1.04584E-01 1.03616E-03 6.11222E-01-7.39442E-14-6.04730E-14
 -1      2829 2.06881E+01 8.13481E-02 6.37115E-04 6.41081E-01-2.45304E-14-2.92319E-14
 -1      2830 2.05648E+01 8.25746E-02-2.39069E-03 7.31557E-01 5.05285E-14 7.71338E-14
 -1      2831 2.04676E+01 1.28280E-01 4.57563E-04 5.29499E-01-1.09065E-14-2.46399E-14
 -1      2832 2.05428E+01 1.19604E-01 1.37084E-03 5.67862E-01-1.01298E-13-8.54437E-14
 -1      2833 2.04332E+01 1.41040E-01-1.71511E-03 6.49788E-01-4.92731E-14 2.41980E-14
 -1      2834 2.03604E+01 1.31690E-01 1.17357E-04 4.42522E-01 4.36763E-14 7.03576E-14
 -1      2835 2.04239E+01 1.32275E-01 1.72525E-03 4.83020E-01 8.57261E-14 3.06051E-14
 -1      2836 2.03327E+01 1.64144E-01-1.26686E-03 5.55123E-01-2.66134E-14 6.94793E-14
 -1      2837 2.02745E+01 1.23100E-01-6.33014E-05 3.58926E-01 3.86938E-14 1.26404E-13
 -1      2838 2.03271E+01 1.28964E-01 1.81899E-03 3.97601E-01 2.91052E-14 1.33876E-13
 -1      2839 2.02550E+01 1.64486E-01-9.75439E-04 4.59519E-01 7.44341E-15 1.81117E-13
 -1      2840 2.02062E+01 1.08376E-01-1.44032E-04 2.83531E-01 2.59942E-14 6.57247E-14
 -1      2841 2.02489E+01 1.16762E-01 1.74674E-03 3.18206E-01 6.54549E-14 1.59679E-13
 -1      2842 2.01944E+01 1.51643E-01-7.80938E-04 3.70202E-01 4.45120E-14 2.76277E-13
 -1      2843 2.01523E+01 9.13801E-02-1.66555E-04 2.18530E-01-3.57285E-15-4.24831E-14
 -1      2844 2.01864E+01 1.00511E-01 1.57940E-03 2.48254E-01 5.62172E-15 5.97968E-14
 -1      2845 2.01470E+01 1.32308E-01-6.42927E-04 2.91013E-01 2.17352E-14 2.44928E-13
 -1      2846 2.01104E+01 7.44784E-02-1.58086E-04 1.64413E-01-1.46502E-13-1.00076E-13
 -1      2847 2.01370E+01 8.32925E-02 1.36722E-03 1.89018E-01-2.46096E-14-8.64623E-14
 -1      2848 2.01099E+01 1.10847E-01-5.37141E-04 2.23486E-01-3.74241E-14 2.09101E-13
 -1      2849 2.00781E+01 5.89864E-02-1.35434E-04 1.20642E-01-7.94022E-14-3.61948E-14
 -1      2850 2.00986E+01 6.69160E-02 1.14378E-03 1.40426E-01-1.25487E-13-8.34559E-14
 -1      2851 2.00810E+01 8.99011E-02-4.50261E-04 1.67676E-01-1.25115E-13 2.40261E-14
 -1      2852 2.00537E+01 4.55238E-02-1.08375E-04 8.61306E-02-5.59077E-14-8.87181E-14
 -1      2853 2.00691E+01 5.23236E-02 9.29912E-04 1.01634E-01-2.02307E-14-5.54615E-14
 -1      2854 2.00586E+01 7.09132E-02-3.75668E-04 1.22766E-01-3.99512E-14 3.86913E-15
 -1      2855 2.00355E+01 3.42727E-02-8.21628E-05 5.95566E-02-1.20890E-13-1.69422E-13
 -1      2856 2.00469E+01 3.98968E-02 7.37191E-04 7.14165E-02-8.30799E-14-1.40418E-13
 -1      2857 2.00415E+01 5.45329E-02-3.10396E-04 8.74836E-02-5.78040E-14-1.09820E-13
 -1      2858 2.00223E+01 2.51580E-02-5.92774E-05 3.95651E-02-3.45942E-14-3.65787E-13
 -1      2859 2.00305E+01 2.96744E-02 5.70859E-04 4.84235E-02-7.68822E-14-3.10628E-13
 -1      2860 2.00286E+01 4.09161E-02-2.53229E-04 6.03892E-02-1.93511E-14-5.46780E-14
 -1      2861 2.00129E+01 1.79685E-02-4.05791E-05 2.48830E-02-4.08358E-14-3.13988E-13
 -1      2862 2.00186E+01 2.15029E-02 4.32042E-04 3.13362E-02-2.21789E-14-2.89914E-13
 -1      2863 2.00190E+01 2.99311E-02-2.03639E-04 4.00477E-02-3.18245E-14-2.46118E-13
 -1      2864 2.00063E+01 1.24338E-02-2.60452E-05 1.43799E-02-1.10278E-13-2.13895E-13
 -1      2865 2.00102E+01 1.51341E-02 3.19376E-04 1.89523E-02-6.71827E-14-2.77299E-13
 -1      2866 2.00120E+01 2.12968E-02-1.61249E-04 2.51330E-02-6.44370E-14-2.42532E-13
 -1      2867 2.00020E+01 8.27257E-03-1.52217E-05 7.09183E-03-5.56441E-14-2.05553E-13
 -1      2868 2.00045E+01 1.02872E-02 2.30154E-04 1.02270E-02-8.45220E-14-2.04300E-13
 -1      2869 2.00070E+01 1.46714E-02-1.25623E-04 1.44783E-02-9.77479E-14-1.24083E-13
 -1      2870 1.99992E+01 5.21882E-03-7.48819E-06 2.22192E-03-1.02633E-14-1.12590E-13
 -1      2871 2.00007E+01 6.68508E-03 1.61088E-04 4.28396E-03-1.27634E-14-1.52124E-13
 -1      2872 2.00035E+01 9.70543E-03-9.62028E-05 7.09439E-03-9.10906E-14-1.39987E-13
 -1      2873 1.99976E+01 3.03629E-03-2.20592E-06-8.71056E-04 6.45245E-14 3.22424E-14
 -1      2874 1.99984E+01 4.07437E-03 1.08800E-04 4.08865E-04 3.91692E-14-2.59943E-14
 -1      2875 2.00011E+01 6.07296E-03-7.23336E-05 2.16706E-03-8.69836E-15-1.61436E-13
 -1      2876 1.99967E+01 1.52352E-03 1.20694E-06-2.69127E-03 6.05713E-14 2.70008E-14
 -1      2877 1.99970E+01 2.23480E-03 7.01039E-05-1.96623E-03 1.26806E-13 9.79549E-14
 -1      2878 1.99997E+01 3.48613E-03-5.33051E-05-9.57383E-04 5.52825E-14-2.36176E-14
 -1      2879 1.99964E+01 5.14157E-04 3.24321E-06-3.62649E-03 9.09719E-14-1.09297E-14
 -1      2880 1.99964E+01 9.81618E-04 4.21604E-05-3.28277E-03 6.67283E-14 4.31304E-14
 -1      2881 1.99988E+01 1.70079E-03-3.83995E-05-2.79186E-03 1.09983E-13 2.74703E-14
 -1      2882 1.99965E+01-1.25626E-04 4.29896E-06-3.96846E-03 8.47470E-14 2.73909E-14
 -1      2883 1.99963E+01 1.64273E-04 2.25384E-05-3.87645E-03 1.43316E-13 7.95900E-14
 -1      2884 1.99983E+01 5.16088E-04-2.69290E-05-3.73030E-03 8.02183E-14 9.35809E-14
 -1      2885 1.99967E+01-5.01115E-04 4.67825E-06-3.93171E-03 6.36635E-14 6.52663E-14
 -1      2886 1.99964E+01-3.37001E-04 9.22060E-06-3.99688E-03-1.00015E-14 2.56872E-14
 -1      2887 1.99981E+01-2.29061E-04-1.82622E-05-4.06871E-03-1.49925E-14 6.60471E-14
 -1      2888 1.99971E+01-6.93553E-04 4.60387E-06-3.66989E-03-7.09087E-14 2.79120E-14
 -1      2889 1.99967E+01-6.15516E-04 5.77224E-07-3.82525E-03 6.30278E-14 1.58484E-13
 -1      2890 1.99981E+01-6.61085E-04-1.18404E-05-4.02453E-03-6.09786E-14 7.45357E-14
 -1      2891 1.99975E+01-7.64595E-04 4.23129E-06-3.28963E-03-4.08348E-14-9.59326E-14
 -1      2892 1.99971E+01-7.42664E-04-4.67594E-06-3.48928E-03-5.94622E-14-2.53940E-14
 -1      2893 1.99982E+01-8.77359E-04-7.18334E-06-3.75329E-03-5.99530E-16 1.71449E-13
 -1      2894 1.99979E+01-7.60416E-04 3.66173E-06-2.86171E-03 8.20629E-14-1.98461E-13
 -1      2895 1.99976E+01-7.72249E-04-7.52820E-06-3.07580E-03 3.49024E-14-1.95970E-13
 -1      2896 1.99984E+01-9.51672E-04-3.88932E-06-3.36272E-03 8.47157E-14-6.14960E-14
 -1      2897 1.99983E+01-7.15353E-04 2.95672E-06-2.43007E-03 2.37168E-13-2.25487E-13
 -1      2898 1.99980E+01-7.44387E-04-8.72293E-06-2.64070E-03 9.96535E-14-2.33344E-13
 -1      2899 1.99986E+01-9.39256E-04-1.63852E-06-2.92420E-03 1.02099E-13-2.02415E-13
 -1      2900 1.99986E+01-6.54928E-04 2.17956E-06-2.01876E-03 1.80230E-13-1.02209E-14
 -1      2901 1.99983E+01-6.88893E-04-8.80132E-06-2.21689E-03 2.73619E-13-1.24924E-13
 -1      2902 1.99988E+01-8.81158E-04-1.83767E-07-2.48192E-03 1.61504E-13-1.86290E-13
 -1      2903 1.99989E+01-5.98492E-04 1.03802E-06-1.63759E-03 1.06229E-15 3.31015E-13
 -1      2904 1.99987E+01-6.28063E-04-8.16440E-06-1.82036E-03 4.26532E-14 2.55190E-13
 -1      2905 1.99990E+01-8.07741E-04 6.77086E-07-2.06005E-03-5.43072E-14-3.60393E-14
 -1      2906 1.99992E+01-5.60114E-04-1.84836E-06-1.28597E-03-2.16664E-13 4.35598E-13
 -1      2907 1.99990E+01-5.78148E-04-7.36301E-06-1.45378E-03-1.03045E-13 4.17836E-13
 -1      2908 1.99992E+01-7.41231E-04 1.75301E-06-1.66891E-03-9.94433E-14 4.59733E-13
 -1      2909 1.99994E+01-5.76708E-04-3.33582E-06-1.01179E-03-1.55921E-13 3.93512E-13
 -1      2910 1.99993E+01-5.84959E-04-7.11759E-06-1.17327E-03-1.35151E-13 3.98693E-13
 -1      2911 1.99994E+01-7.24910E-04 6.57364E-06-1.35762E-03-1.04234E-13 4.20587E-13
 -1      2912 1.99996E+01-7.64152E-04 6.89480E-06-1.11453E-03-1.91147E-13 2.88882E-13
 -1      2913 2.10057E+01 1.13521E+00-2.41084E-02 3.85974E-01-1.44674E-13-1.02788E-13
 -1      2914 2.00005E+01-1.82789E-03 4.26682E-06-1.06285E-04-1.51646E-14-2.23397E-14
 -1      2915 2.00005E+01-1.80551E-03 2.29503E-06-2.93763E-04 2.75542E-14 2.10080E-13
 -1      2916 6.55003E+00 2.02134E+00 1.33148E-01 7.17588E-01-5.09523E-14-9.77080E-13
 -1      2917 6.32762E+00 2.19848E+00 1.43921E-01-1.29961E+00-1.18176E-13-9.90263E-13
 -1      2918 2.00003E+01-1.58510E-03 6.41111E-06-8.32999E-04 6.21691E-14-3.00215E-13
 -1      2919 2.00002E+01-1.48014E-03-1.09534E-06-9.52721E-04 2.38923E-13-2.89693E-13
 -1      2920 2.00005E+01-1.80463E-03 2.37376E-06 2.99519E-04 8.34985E-14 9.82642E-14
 -1      2921 2.00005E+01-1.82779E-03 4.22179E-06 1.12162E-04 1.29165E-13-8.08119E-14
 -1      2922 2.00007E+01-1.86052E-03-5.72365E-06 3.17642E-06 1.05707E-13 7.54933E-14
 -1      2923 2.00005E+01-1.75255E-03 5.79323E-06-4.99610E-04-1.06404E-13-2.72896E-13
 -1      2924 2.00004E+01-1.68666E-03 1.52941E-07-6.64167E-04 6.78105E-14-3.97835E-13
 -1      2925 2.00005E+01-1.66657E-03-4.56995E-06-8.31465E-04 5.02681E-14-4.28019E-13
 -1      2926 2.00006E+01-1.81115E-03-5.44632E-06-4.39841E-04 4.64494E-14 7.90796E-14
 -1      2927 2.00004E+01-1.68795E-03 1.10362E-07 6.63505E-04 3.52294E-14 3.00371E-13
 -1      2928 2.00005E+01-1.75261E-03 5.72301E-06 5.01770E-04 9.21538E-14 2.34534E-13
 -1      2929 2.00006E+01-1.81153E-03-5.57769E-06 4.42349E-04 1.56433E-13 1.19149E-13
 -1      2930 2.00002E+01-1.48348E-03-1.96705E-06 9.53390E-04-2.01223E-13-1.46276E-13
 -1      2931 2.00003E+01-1.58665E-03 6.74768E-06 8.32454E-04-8.10547E-14 1.19844E-13
 -1      2932 2.00005E+01-1.66843E-03-4.83833E-06 8.30619E-04-2.04478E-14 3.78221E-14
 -1      2933 1.99999E+01-1.20722E-03-1.60311E-06 1.12126E-03-2.59983E-13-7.98930E-14
 -1      2934 2.00001E+01-1.34213E-03 6.39207E-06 1.06438E-03-1.77550E-13-1.32231E-13
 -1      2935 2.00002E+01-1.44102E-03-3.21319E-06 1.12413E-03-1.15705E-13-1.67617E-13
 -1      2936 2.27473E+01 5.35169E-01 1.36280E-02 1.91928E+00 2.18718E-13 6.82720E-14
 -1      2937 2.29806E+01 2.06852E-01-1.06733E-02 2.02435E+00 1.93802E-13 6.39161E-14
 -1      2938 2.31604E+01 9.04611E-01 1.41724E-03 2.03012E+00 2.50977E-13 8.46148E-14
 -1      2939 2.87336E+01 4.94960E+00-1.07879E-01 1.08630E+00-7.69301E-13-2.45956E-13
 -1      2940 2.84055E+01 5.31638E+00-3.02877E-01 7.37936E-02-7.71272E-13-1.01027E-13
 -1      2941 2.89121E+01 1.21893E-01-1.82021E-01-7.25658E-01 3.41380E-13-5.88987E-13
 -1      2942 2.81280E+01-1.80613E+00-1.00579E-02 3.97622E-01 1.35982E-13-5.78163E-13
 -1      2943 2.31857E+01-1.01148E-01 1.73932E-02 2.01264E-01-1.20757E-13 4.24053E-14
 -1      2944 2.38028E+01-7.78643E-01 2.68324E-02 1.68493E-01-6.67105E-14 1.35454E-13
 -1      2945 2.43752E+01-1.54385E+00-1.85212E-02 2.02308E-02-1.99875E-14 1.66455E-13
 -1      2946 2.04601E+01 4.57042E-01-6.68160E-03 1.04169E+00-2.62685E-14-1.56642E-13
 -1      2947 1.99995E+01-6.68576E-04-9.78525E-07 1.06834E-03 3.54965E-14-2.89712E-13
 -1      2948 1.99996E+01-8.05455E-04-5.87327E-07 1.10590E-03 1.00784E-13-2.64318E-13
 -1      2949 1.99994E+01-6.79795E-04-5.08460E-06 1.18343E-03 1.21434E-14-3.08553E-13
 -1      2950 2.90583E+01 5.77992E+00-1.27123E-01 1.61863E+00 9.27841E-13-3.45279E-14
 -1      2951 2.79358E+01 6.41067E+00-1.70834E-01 9.28856E-01 9.31422E-13-1.49457E-13
 -1      2952 1.89149E+01-2.64790E+00 1.30935E-01-5.42426E+00-3.03632E-13-3.91442E-13
 -1      2953 2.10554E+01-3.15233E+00-5.04315E-02-4.83876E+00-2.11817E-13-2.67140E-13
 -1      2954 2.18982E+01 1.50516E+00-2.60347E-02-6.35796E-01 2.61869E-13-1.99774E-13
 -1      2955 2.19225E+01 1.68731E+00 8.33802E-03-1.75329E-01 2.75365E-13-1.84620E-13
 -1      2956 2.25208E+01 1.75797E+00 2.96217E-03-1.01323E+00 3.31296E-13-2.83091E-13
 -1      2957 2.19575E+01 1.70322E+00 8.40411E-03 4.38751E-01 3.20994E-13-1.01160E-13
 -1      2958 2.20673E+01 1.54190E+00-7.01366E-03 9.23638E-01 3.18807E-13-1.77323E-14
 -1      2959 2.24861E+01 2.11604E+00-3.41684E-03 1.55281E-01 3.64635E-13-1.38087E-13
 -1      2960 2.10275E+01 3.25477E-01-2.57189E-03-7.92334E-01-5.06713E-14-2.59741E-13
 -1      2961 1.99643E+01 5.22631E-01 5.39614E-03-1.46115E+00-1.31636E-13-3.01628E-13
 -1      2962 2.20124E+01-3.10785E-01-2.29924E-03-4.15540E-01-2.90974E-14-1.67176E-13
 -1      2963 6.68518E+00-3.10707E-01 1.31591E-01 1.43058E+00-1.39930E-13 1.04861E-12
 -1      2964 6.73999E+00-3.58048E-01 1.56130E-01-1.21706E+00 2.76168E-14 1.05971E-12
 -1      2965 2.31141E+01-1.80662E-02 1.39697E-03 1.99164E+00 2.19569E-13 6.10042E-14
 -1      2966 2.33282E+01-1.32025E-01-9.21752E-05 1.98055E+00 2.01631E-13 7.58134E-14
 -1      2967 2.35854E+01-1.33262E-01 8.05856E-03 2.01161E+00 2.23647E-13 3.76001E-14
 -1      2968 2.34901E+01 1.20580E-01 2.60113E-03 2.16476E+00 2.26106E-13 4.05795E-14
 -1      2969 1.17810E+01 3.27496E+00-1.66315E-02 1.20928E+00-4.41314E-15-6.49567E-13
 -1      2970 1.35159E+01 2.87128E+00 9.31492E-02 1.65779E+00 1.95486E-14-5.72750E-13
 -1      2971 1.90342E+01-4.41599E+00 1.54499E-01-5.64952E+00 3.28321E-13 4.46865E-15
 -1      2972 2.24680E+01-5.00596E+00-6.57045E-02-4.61117E+00 2.86049E-13-1.14934E-14
 -1      2973 2.76459E+01 6.20507E+00-1.82687E-01-5.34336E-01 8.41660E-13-3.24796E-13
 -1      2974 2.84183E+01 5.42364E+00-1.38995E-01-1.22093E+00 7.24809E-13-4.28810E-13
 -1      2975 2.81809E+01-3.26348E+00-1.34653E-01 3.92199E-01-1.59456E-13 2.48634E-13
 -1      2976 2.61724E+01-3.95217E+00 3.69462E-02 1.82864E+00 3.20716E-14 1.03223E-13
 -1      2977 1.19166E+01-2.73573E+00 1.42914E-01-5.64152E+00 3.36037E-13 3.64764E-13
 -1      2978 1.52803E+01-3.86713E+00 6.86737E-03-6.28055E+00 3.02147E-13 1.28147E-13
 -1      2979 1.23663E+01-1.80698E+00 1.51305E-01-4.92736E+00 4.18970E-13 4.19845E-13
 -1      2980 2.77910E+01-1.01580E+00 2.57290E-02 1.77540E-01 2.27960E-13 1.73792E-13
 -1      2981 2.84675E+01 4.21073E-01-1.81190E-01 1.20144E+00 4.90670E-13 2.03060E-13
 -1      2982 2.37757E+01-3.01356E+00 8.11346E-02-3.43388E+00-1.36030E-13-1.07678E-13
 -1      2983 2.60498E+01-2.62865E+00-1.50283E-01-1.81207E+00 4.97241E-14 7.02910E-14
 -1      2984 1.61993E+01-2.49755E+00 2.38706E-02 5.11950E+00 2.15522E-13-4.84862E-13
 -1      2985 1.35070E+01-1.40444E+00 1.27991E-01 4.81963E+00 2.20560E-13-6.07792E-13
 -1      2986 2.96703E+01 1.54515E+00-8.17133E-02 2.22163E+00-5.65908E-13-6.45164E-13
 -1      2987 2.95131E+01 3.14495E+00-1.49595E-01 2.23532E+00-7.14845E-13-5.78676E-13
 -1      2988 2.33524E+01-4.16938E+00-6.06605E-02 3.50843E+00 1.25219E-13-9.87006E-14
 -1      2989 1.98418E+01-3.45404E+00 8.63533E-02 4.43814E+00 2.23419E-13-2.73618E-13
 -1      2990 2.86606E+01 2.55556E+00-8.30872E-02 1.95496E+00 6.77250E-13 1.84602E-13
 -1      2991 2.90330E+01 4.30488E+00-1.74990E-01 1.91048E+00 8.21260E-13 5.62050E-14
 -1      2992 2.73823E+01 4.27624E+00-8.88834E-02 2.07540E+00 7.34302E-13 4.13211E-14
 -1      2993 2.66575E+01-3.67776E+00-1.29053E-01 1.98969E+00-6.82787E-14-5.51420E-13
 -1      2994 2.49724E+01-4.32104E+00 7.46326E-02 3.26528E+00-2.49065E-13-4.71206E-13
 -1      2995 2.55078E+01-4.72170E+00 7.39834E-02-2.84767E+00 2.49127E-13-1.42185E-13
 -1      2996 2.69687E+01-4.26261E+00-9.04522E-02-1.67811E+00 7.60988E-14-3.10668E-13
 -1      2997 2.87394E+01 4.15184E+00-1.98081E-01-1.48418E+00 6.22752E-13-4.59105E-13
 -1      2998 2.89989E+01 2.52518E+00-7.04894E-02-1.51338E+00 5.19307E-13-5.65298E-13
 -1      2999 2.72908E+01 4.10289E+00-1.00504E-01-1.52868E+00 5.68823E-13-5.14762E-13
 -1      3000 2.33122E+01 5.55744E-01-4.50473E-03 1.86075E+00 2.65480E-13 2.64641E-14
 -1      3001 1.54697E+01 1.97197E+00-2.13216E-02 1.89928E+00 3.48810E-14-4.34989E-13
 -1      3002 1.76415E+01 1.45107E+00 7.28024E-02 1.79564E+00 1.19973E-14-3.64583E-13
 -1      3003 1.42924E+01 1.68065E+00 2.22388E-02 2.34717E+00 7.87981E-14-5.10592E-13
 -1      3004 1.22373E+01 2.22488E+00 3.52170E-02-3.45846E+00-3.08774E-13-7.10446E-13
 -1      3005 1.17528E+01 3.26929E+00 6.73242E-02-2.61620E+00-2.56937E-13-7.23310E-13
 -1      3006 1.06633E+01 3.68082E+00 3.19261E-02-2.01215E+00-2.11558E-13-7.49553E-13
 -1      3007 1.08682E+01 3.87950E+00 8.48237E-02 2.48159E-01-6.52178E-14-7.11608E-13
 -1      3008 1.07574E+01 3.06672E+00 5.34964E-02 1.18615E+00-9.24261E-15-7.22603E-13
 -1      3009 8.69804E+00 2.12974E+00 1.48510E-01 1.50112E+00 2.83107E-14-8.78395E-13
 -1      3010 8.82709E+00-1.11895E-01 1.75132E-01 2.25691E+00-1.70277E-13 8.84126E-13
 -1      3011 2.37046E+01-4.56494E+00 1.39909E-02-3.38337E+00 3.63556E-13-1.58608E-13
 -1      3012 2.76213E+01 1.20591E+00-6.79536E-02 1.95055E+00 4.57773E-13 1.97592E-13
 -1      3013 2.50863E+01-3.61797E+00 9.13488E-02 1.83984E+00 1.38417E-13 9.56873E-14
 -1      3014 1.80626E+01-3.67542E+00 1.11562E-01 5.77895E+00-4.94479E-13-1.89848E-14
 -1      3015 8.88388E+00-1.44153E-01 1.67061E-01-1.99424E+00 1.94088E-13 8.28754E-13
 -1      3016 1.92347E+01-2.58383E+00 9.87776E-02 4.07825E+00 2.53311E-13-2.83464E-13
 -1      3017 2.28674E+01-2.81176E+00 6.19647E-02-3.38679E+00-2.18318E-13-1.23169E-13
 -1      3018 2.83103E+01-2.41260E+00-1.92654E-02-1.01371E+00-1.16396E-13 3.19342E-13
 -1      3019 2.79356E+01-1.63047E+00-7.54924E-02-2.27359E+00-1.19689E-13 4.03892E-13
 -1      3020 2.82298E+01-2.26756E-01-3.61526E-02-2.81836E+00-2.75856E-13 4.07153E-13
 -1      3021 2.85535E+01 9.34538E-01-1.55831E-01-3.04489E+00-3.99833E-13 3.52232E-13
 -1      3022 2.85322E+01 2.86279E+00-9.55951E-02-2.70219E+00-5.71335E-13 2.44381E-13
 -1      3023 2.87351E+01 3.31904E+00-1.82832E-01 2.12867E+00-6.80317E-13-4.46705E-13
 -1      3024 1.99995E+01-8.16400E-04 2.38532E-06 1.33443E-03-1.56588E-14-3.72654E-13
 -1      3025 1.24452E+01-1.79163E+00 1.54710E-01 5.32725E+00-3.46112E-13 6.04752E-13
 -1      3026 2.27247E+01 1.75518E+00-7.00286E-03 1.33773E+00 3.53966E-13 8.27767E-15
 -1      3027 1.99997E+01-9.42090E-04-2.39780E-06-1.13354E-03-5.75191E-14 1.63310E-13
 -1      3028 1.99996E+01-9.26752E-04-6.38099E-06-1.26283E-03-2.34431E-13 3.48778E-13
 -1      3029 1.99998E+01-1.08977E-03 6.62562E-06-1.14351E-03-1.40919E-14-4.21349E-14
 -1      3030 2.79833E+01 9.38531E-01-7.64573E-02-1.40884E+00 3.36446E-13-6.23543E-13
 -1      3031 2.71378E+01 6.00004E+00-1.47054E-01 2.09470E-01 8.48557E-13-2.45812E-13
 -1      3032 2.61384E+01 5.26908E+00-8.32326E-02-4.12069E-01 6.94292E-13-3.99182E-13
 -1      3033 2.62455E+01 5.48224E+00-9.69472E-02 9.61802E-01 8.03677E-13-1.43323E-13
 -1      3034 1.97820E+01-1.41090E-01-1.57314E-02-2.15001E+00-1.81889E-13-2.90315E-13
 -1      3035 1.99997E+01-9.64589E-04-4.62150E-07 1.12138E-03 4.70813E-14-2.53387E-13
 -1      3036 2.69861E+01-2.68949E+00-1.84018E-02 5.73907E-01-4.67911E-14-5.72861E-13
 -1      3037 2.41128E+01-2.15058E+00-5.37275E-02 6.61604E-01 2.65152E-14 1.29438E-13
 -1      3038 1.72055E+01-1.95539E+00 8.30727E-02-5.51301E+00-3.42115E-13-4.57911E-13
 -1      3039 2.35886E+01-4.34754E+00 4.47063E-02 3.66375E+00-3.55257E-13-4.39385E-13
 -1      3040 1.09933E+01 2.39560E-03 1.30579E-01-5.27864E+00-3.64805E-13-8.20968E-13
 -1      3041 1.99997E+01-9.44056E-04 9.68996E-07 1.30124E-03 3.36360E-14-1.68948E-13
 -1      3042 1.99998E+01-1.09155E-03 1.87238E-06 1.20003E-03-1.15109E-13 1.40798E-13
 -1      3043 1.99999E+01-1.18977E-03-3.15104E-06 1.31129E-03-1.42541E-13 2.01226E-13
 -1      3044 1.99996E+01-9.54912E-04-4.34460E-06 1.42074E-03-1.05611E-13-1.40852E-13
 -1      3045 1.03187E+01 3.89616E+00 1.55928E-02-5.58725E-01-1.18509E-13-7.40026E-13
 -1      3046 2.00001E+01-1.36125E-03 6.63027E-06-1.04448E-03 2.62532E-13-6.62514E-14
 -1      3047 2.00000E+01-1.22927E-03-1.28127E-06-1.10422E-03 7.35691E-14-9.58887E-14
 -1      3048 2.00000E+01-1.22027E-03-4.95135E-06-1.23828E-03-8.15303E-14 1.24183E-14
 -1      3049 2.00002E+01-1.45972E-03-4.53382E-06-1.10199E-03 1.13265E-13-2.50889E-13
 -1      3050 1.81151E+01-3.62055E+00 1.23545E-01-5.40266E+00 3.83013E-13 2.72282E-14
 -1      3051 2.33368E+01 4.00753E-01 4.50982E-03 1.83234E+00 2.38207E-13-8.58168E-15
 -1      3052 1.29215E+01-1.29857E-01 1.29709E-01 4.04442E+00 2.02088E-13-6.42791E-13
 -1      3053 2.34531E+01-3.71985E-02 1.42890E-03 1.69976E+00 1.99166E-13-1.08919E-14
 -1      3054 2.65078E+01-1.78483E+00-6.92452E-03-3.66330E-01 6.92363E-14 1.20931E-13
 -1      3055 3.03301E+01 3.60273E+00-1.20776E-01-2.66534E+00-6.77042E-13 1.88766E-13
 -1      3056 3.07541E+01 1.93469E+00-9.01440E-02-2.57777E+00-6.04655E-13 2.13801E-13
 -1      3057 2.89696E+01 4.03150E+00-1.91109E-01-2.34487E+00-6.56586E-13 1.65347E-13
 -1      3058 2.79418E+01 2.24731E+00-7.26448E-02 2.50017E+00-5.11979E-13-4.92890E-13
 -1      3059 2.94248E+01 4.40950E-01-8.08305E-02-2.75606E+00-3.97418E-13 3.15525E-13
 -1      3060 2.35997E+01-4.24876E-01-3.07991E-02 1.35987E+00 1.13624E-13-2.10092E-14
 -1      3061 2.34637E+01-4.88969E-01 2.43740E-02 8.81779E-01 4.27776E-14-6.11834E-14
 -1      3062 9.61042E+00 2.45955E+00 7.01861E-02 1.64627E+00 3.56035E-14-7.89174E-13
 -1      3063 8.74656E+00 3.35355E+00 1.60323E-01-8.91410E-02-7.33268E-14-8.59091E-13
 -1      3064 2.58708E+01 4.06728E+00-1.37846E-01-1.43771E+00 5.42066E-13-4.54092E-13
 -1      3065 2.65352E+01 3.00915E+00-5.95598E-02-1.90201E+00 4.53942E-13-5.41796E-13
 -1      3066 2.00008E+01-1.82750E-03-3.19914E-08 5.93699E-04 3.84075E-14-7.78094E-15
 -1      3067 2.00009E+01-1.87003E-03 4.57700E-06 3.78217E-04 1.28634E-13-3.78378E-14
 -1      3068 2.66023E+01-3.55932E+00-5.60568E-02 3.32443E-01 6.31439E-14 2.52680E-13
 -1      3069 2.45291E+01-3.25090E+00 8.13595E-02 1.65356E+00 1.28859E-13 1.39144E-13
 -1      3070 2.94783E+01-4.18123E-01-1.12536E-01 1.86516E+00-4.03927E-13-6.89004E-13
 -1      3071 2.85523E+01 2.89606E-01-9.87385E-02 2.36406E+00-3.87787E-13-6.96998E-13
 -1      3072 2.76297E+01-2.39542E+00-4.12212E-02-1.21714E+00-5.65715E-14 3.48645E-13
 -1      3073 1.12795E+01 1.96396E+00 1.52518E-01 2.62926E+00 1.03313E-13-7.14331E-13
 -1      3074 2.88939E+01 5.19648E+00-1.25978E-01-1.08908E+00-7.19286E-13 2.17187E-14
 -1      3075 2.79765E+01 7.02393E-01-7.92876E-02 2.39288E+00-3.95836E-13-6.45900E-13
 -1      3076 2.77026E+01-9.39938E-01-9.59039E-02 2.27227E+00-2.88464E-13-7.33177E-13
 -1      3077 2.13969E+01-2.16837E+00 4.24299E-03-2.82432E+00 2.79049E-13-1.87716E-13
 -1      3078 2.07843E+01-1.43641E+00 4.12221E-02-2.81810E+00 1.83380E-13-4.60769E-14
 -1      3079 2.04188E+01-8.89769E-01 1.90066E-02-2.59889E+00 2.92873E-14-2.49264E-14
 -1      3080 2.00342E+01-4.18306E-01 1.14300E-02-2.50181E+00-4.27184E-14 3.27671E-14
 -1      3081 1.94363E+01-1.15274E+00-3.07306E-02-3.10598E+00 1.24525E-13-2.98702E-14
 -1      3082 1.99586E+01-6.29326E-02 1.60000E-02-2.26277E+00-6.01541E-14 1.02935E-13
 -1      3083 1.97639E+01 1.97953E-01 1.04197E-03-2.13234E+00 9.21070E-15 9.53392E-14
 -1      3084 1.91004E+01-1.25458E-01-1.08326E-02-2.53566E+00 2.58172E-14 1.14754E-13
 -1      3085 1.98049E+01 3.88206E-01 9.45330E-03-1.93233E+00 1.52130E-14-9.64883E-15
 -1      3086 1.97186E+01 5.11912E-01-2.85318E-03-1.79496E+00 7.30197E-15-1.98636E-14
 -1      3087 1.91104E+01 4.20314E-01-3.22820E-03-2.07093E+00-5.00260E-14 4.92455E-14
 -1      3088 1.98016E+01 5.92525E-01 5.88829E-03-1.62870E+00-1.31559E-14-1.94616E-14
 -1      3089 1.97659E+01 6.31044E-01-3.94533E-03-1.49646E+00 2.55559E-14 5.00706E-15
 -1      3090 1.92481E+01 6.77373E-01 1.02600E-03-1.69947E+00 4.05649E-15-1.30258E-13
 -1      3091 1.98536E+01 6.46611E-01 3.90966E-03-1.35709E+00 6.73424E-14-3.52613E-14
 -1      3092 1.98378E+01 6.37734E-01-3.97095E-03-1.23507E+00 6.43643E-14-1.43070E-13
 -1      3093 1.94186E+01 7.54913E-01 2.71929E-03-1.39832E+00 1.18085E-14-6.13897E-14
 -1      3094 1.99147E+01 6.18711E-01 2.88225E-03-1.11675E+00-8.60431E-14-1.77909E-13
 -1      3095 1.99045E+01 5.86524E-01-3.59100E-03-1.00746E+00-2.39052E-13-2.85117E-13
 -1      3096 1.95769E+01 7.32705E-01 3.01115E-03-1.14737E+00-8.63774E-14-2.84029E-13
 -1      3097 1.99661E+01 5.51768E-01 2.34153E-03-9.06638E-01-1.89961E-13-2.61204E-13
 -1      3098 1.99560E+01 5.10587E-01-3.07827E-03-8.11200E-01-2.05366E-13-3.08747E-13
 -1      3099 1.97069E+01 6.60936E-01 2.66357E-03-9.34405E-01-1.96391E-13-1.94465E-13
 -1      3100 2.00025E+01 4.70971E-01 2.01791E-03-7.25722E-01-4.57636E-14-1.39777E-13
 -1      3101 1.99912E+01 4.28745E-01-2.55012E-03-6.44250E-01 1.31839E-13-6.24134E-14
 -1      3102 1.98063E+01 5.69684E-01 2.11364E-03-7.52829E-01-2.89725E-14-7.48129E-15
 -1      3103 2.00249E+01 3.90074E-01 1.77558E-03-5.72544E-01 1.55740E-13 6.55731E-15
 -1      3104 2.00127E+01 3.50836E-01-2.06226E-03-5.04399E-01 2.37494E-13 1.19143E-13
 -1      3105 1.98784E+01 4.75880E-01 1.56314E-03-5.98877E-01 1.92609E-13 1.01037E-13
 -1      3106 2.00363E+01 3.15878E-01 1.55802E-03-4.45048E-01 1.55863E-13 9.35586E-14
 -1      3107 2.00241E+01 2.81375E-01-1.63686E-03-3.89094E-01 9.49035E-14 9.36139E-14
 -1      3108 1.99286E+01 3.88325E-01 1.09635E-03-4.69812E-01 1.83473E-13 1.38311E-13
 -1      3109 2.00401E+01 2.51178E-01 1.34781E-03-3.40683E-01 1.03828E-14 1.85102E-14
 -1      3110 2.00286E+01 2.21890E-01-1.27957E-03-2.95515E-01-1.50676E-14 6.98493E-15
 -1      3111 1.99623E+01 3.10959E-01 7.33264E-04-3.63124E-01 6.40067E-15 1.08287E-13
 -1      3112 2.00392E+01 1.96582E-01 1.14463E-03-2.56617E-01-8.20948E-14-3.49911E-14
 -1      3113 2.00288E+01 1.72333E-01-9.87103E-04-2.20734E-01-1.02826E-13-4.67889E-14
 -1      3114 1.99840E+01 2.44979E-01 4.66461E-04-2.76265E-01-7.91019E-14 1.38529E-14
 -1      3115 2.00355E+01 1.51584E-01 9.53462E-04-1.89952E-01-1.16259E-13 3.44227E-14
 -1      3116 2.00266E+01 1.31889E-01-7.52124E-04-1.61882E-01-7.74205E-14 6.87603E-14
 -1      3117 1.99974E+01 1.90113E-01 2.78840E-04-2.06640E-01-8.01219E-14 1.80107E-13
 -1      3118 2.00307E+01 1.15174E-01 7.79323E-04-1.37896E-01-6.77771E-14-2.76429E-14
 -1      3119 2.00232E+01 9.94334E-02-5.66034E-04-1.16275E-01-5.70105E-14 1.64063E-14
 -1      3120 2.00050E+01 1.45374E-01 1.51880E-04-1.51696E-01-1.47479E-13 2.35749E-13
 -1      3121 2.00255E+01 8.61720E-02 6.25483E-04-9.78786E-02-7.55346E-14-2.99514E-14
 -1      3122 2.00195E+01 7.37735E-02-4.20425E-04-8.14860E-02-1.18583E-13 9.47577E-14
 -1      3123 2.00090E+01 1.09489E-01 6.92181E-05-1.09021E-01-8.40115E-14 1.11677E-13
 -1      3124 2.00206E+01 6.33999E-02 4.93230E-04-6.76103E-02-1.54064E-13 1.22034E-13
 -1      3125 2.00158E+01 5.37700E-02-3.07737E-04-5.53902E-02-1.15546E-13 7.27992E-14
 -1      3126 2.00105E+01 8.11291E-02 1.77486E-05-7.64134E-02-1.16346E-13 9.40379E-14
 -1      3127 2.00162E+01 4.57680E-02 3.82229E-04-4.51106E-02-2.71928E-15 7.83200E-14
 -1      3128 2.00125E+01 3.83940E-02-2.21469E-04-3.61682E-02 1.28792E-14 2.58362E-13
 -1      3129 2.00106E+01 5.90331E-02-1.24244E-05-5.19229E-02-1.86533E-14 9.35131E-14
 -1      3130 2.00125E+01 3.23099E-02 2.91032E-04-2.87035E-02-1.70755E-13 3.31427E-13
 -1      3131 2.00097E+01 2.67471E-02-1.56176E-04-2.22965E-02-2.53534E-13 2.80688E-13
 -1      3132 2.00099E+01 4.20617E-02-2.84823E-05-3.38692E-02-9.36797E-14 2.00760E-13
 -1      3133 2.00094E+01 2.21923E-02 2.17548E-04-1.69997E-02-2.44446E-13 1.66403E-13
 -1      3134 2.00073E+01 1.80639E-02-1.07376E-04-1.25227E-02-2.25531E-13 2.76038E-13
 -1      3135 2.00088E+01 2.92200E-02-3.54847E-05-2.08359E-02-3.05787E-13 3.20215E-13
 -1      3136 2.00069E+01 1.47119E-02 1.59404E-04-8.86739E-03-1.39299E-13 3.26339E-13
 -1      3137 2.00054E+01 1.17036E-02-7.14178E-05-5.83502E-03-7.78962E-14 3.74932E-13
 -1      3138 2.00075E+01 1.96591E-02-3.69103E-05-1.16534E-02-1.74948E-13 2.47904E-13
 -1      3139 2.00050E+01 9.28479E-03 1.14198E-04-3.40049E-03-1.63222E-13 3.94859E-13
 -1      3140 2.00039E+01 7.13916E-03-4.53587E-05-1.42961E-03-1.13094E-13 3.59764E-13
 -1      3141 2.00063E+01 1.26685E-02-3.50971E-05-5.37350E-03-1.49757E-13 4.02366E-13
 -1      3142 2.00034E+01 5.43379E-03 7.96642E-05 1.15108E-04-2.07342E-13 2.45546E-13
 -1      3143 2.00027E+01 3.94250E-03-2.68459E-05 1.32224E-03-1.51392E-13 6.41466E-14
 -1      3144 2.00051E+01 7.66287E-03-3.15801E-05-1.24107E-03-2.51830E-13 4.19055E-13
 -1      3145 2.00023E+01 2.77423E-03 5.37574E-05 2.23305E-03-5.95157E-14 4.84364E-14
 -1      3146 2.00018E+01 1.77119E-03-1.40154E-05 2.90410E-03-3.91885E-14 2.96777E-14
 -1      3147 2.00040E+01 4.16744E-03-2.73384E-05 1.33540E-03-1.10121E-13 3.39589E-13
 -1      3148 2.00014E+01 1.00029E-03 3.46989E-05 3.37555E-03 1.29692E-15-5.69591E-14
 -1      3149 2.00011E+01 3.54860E-04-5.40462E-06 3.68168E-03 1.17367E-13-9.88885E-15
 -1      3150 2.00031E+01 1.80228E-03-2.29737E-05 2.81135E-03-1.01227E-13 8.34623E-14
 -1      3151 2.00008E+01-1.27867E-04 2.09834E-05 3.85899E-03 2.38840E-13-9.03602E-14
 -1      3152 2.00007E+01-5.17069E-04 1.21895E-07 3.92642E-03 2.14372E-13-1.63458E-13
 -1      3153 2.00024E+01 2.67665E-04-1.88350E-05 3.53131E-03 1.89512E-13 3.79180E-14
 -1      3154 2.00004E+01-7.95839E-04 1.13686E-05 3.91581E-03 1.85225E-13-2.79232E-13
 -1      3155 2.00003E+01-1.00644E-03 3.43423E-06 3.83564E-03 4.14950E-14-2.43524E-13
 -1      3156 2.00017E+01-6.69641E-04-1.51072E-05 3.75105E-03 1.85526E-13-2.69569E-13
 -1      3157 2.00001E+01-1.14536E-03 4.85111E-06 3.71291E-03 3.37826E-14-2.58453E-13
 -1      3158 2.00001E+01-1.23605E-03 5.19156E-06 3.54912E-03 4.39469E-14-1.01113E-13
 -1      3159 2.00012E+01-1.18874E-03-1.18712E-05 3.65636E-03 8.99780E-14-3.44579E-13
 -1      3160 1.99999E+01-1.28330E-03 6.36309E-07 3.36680E-03-5.48561E-14-1.03173E-13
 -1      3161 1.99999E+01-1.29792E-03 5.88445E-06 3.16276E-03 2.07068E-14-5.09954E-14
 -1      3162 2.00008E+01-1.42539E-03-9.14286E-06 3.37877E-03-2.94731E-14-1.48864E-13
 -1      3163 1.99998E+01-1.28938E-03-1.89921E-06 2.95577E-03-1.09781E-13-1.91098E-13
 -1      3164 1.99998E+01-1.26040E-03 5.86287E-06 2.73942E-03-1.78175E-13-2.23901E-13
 -1      3165 2.00005E+01-1.48124E-03-6.91224E-06 3.00836E-03-1.40817E-13-2.97530E-13
 -1      3166 1.99997E+01-1.22255E-03-3.20195E-06 2.52958E-03-9.21353E-14-2.27345E-13
 -1      3167 1.99997E+01-1.17382E-03 5.45589E-06 2.31743E-03-1.88352E-13-9.66136E-14
 -1      3168 2.00003E+01-1.43182E-03-5.18628E-06 2.60402E-03-1.65647E-13-4.55674E-13
 -1      3169 1.99996E+01-1.12680E-03-3.72328E-06 2.11747E-03-2.23836E-13-1.16054E-13
 -1      3170 1.99997E+01-1.07605E-03 4.07992E-06 1.91738E-03-1.42770E-13-1.10311E-13
 -1      3171 2.00001E+01-1.33258E-03-3.98156E-06 2.20206E-03-1.26215E-13-4.02385E-13
 -1      3172 1.99996E+01-1.02981E-03-4.07951E-06 1.75710E-03-1.13092E-13-8.36609E-14
 -1      3173 1.99997E+01-9.89180E-04 2.19198E-06 1.56969E-03-1.16391E-13-1.18518E-13
 -1      3174 1.99998E+01-1.11386E-03 1.48955E-06 1.53526E-03-1.03887E-13 1.72852E-13
 -1      3175 1.99999E+01-1.21755E-03-1.66408E-06 1.84598E-03-1.13504E-13-1.38312E-13
 -1      3176 1.20040E+01-9.72708E-01 8.86931E-02-4.13739E+00 4.58050E-13 5.02390E-13
 -1      3177 1.42585E+01-2.07468E+00 2.85599E-02-5.12759E+00 3.75859E-13 2.62818E-13
 -1      3178 2.34302E+01 4.30005E-01-4.09139E-02-1.78333E+00 2.28913E-13-3.55258E-13
 -1      3179 2.33442E+01 1.12218E+00 8.11405E-03-1.62549E+00 3.10257E-13-3.21847E-13
 -1      3180 2.25824E+01-1.37021E+00 1.15491E-02-7.59131E-02-5.64160E-14-1.04475E-13
 -1      3181 2.27670E+01-1.42463E+00-1.46529E-02-3.66107E-01-3.86124E-15-1.94573E-13
 -1      3182 2.19750E+01-1.09499E+00 1.40623E-02 4.31569E-01-1.33983E-13 1.45229E-16
 -1      3183 2.21827E+01-1.26425E+00-1.00134E-02 2.09306E-01-4.88388E-14-4.21761E-14
 -1      3184 2.23856E+01-1.56386E+00-1.33142E-02 3.23512E-01-8.60720E-14-1.22765E-13
 -1      3185 2.14385E+01-7.26199E-01 1.12615E-02 7.36376E-01-1.10994E-13-1.42949E-14
 -1      3186 2.16314E+01-9.18588E-01-6.30387E-03 5.98408E-01-1.18607E-13-3.65289E-15
 -1      3187 2.16763E+01-1.17943E+00-1.29891E-02 7.54424E-01-7.71033E-14-2.13135E-14
 -1      3188 2.10217E+01-3.87897E-01 8.00094E-03 8.75283E-01 1.50441E-15-6.67043E-14
 -1      3189 2.11829E+01-5.53238E-01-2.97786E-03 8.08600E-01-5.32364E-14-3.81314E-14
 -1      3190 2.11148E+01-7.37911E-01-1.13931E-02 9.61768E-01-8.16064E-14-6.40051E-14
 -1      3191 2.07194E+01-1.28385E-01 5.04698E-03 9.00167E-01 1.46884E-14 5.06445E-14
 -1      3192 2.08466E+01-2.50039E-01-7.38773E-04 8.85075E-01 1.31364E-14 2.57312E-14
 -1      3193 2.07170E+01-3.59677E-01-8.32325E-03 1.01896E+00-3.30528E-14 2.54027E-14
 -1      3194 2.05085E+01 4.68203E-02 2.77481E-03 8.53961E-01-2.15231E-15 9.47060E-14
 -1      3195 2.06063E+01-3.22246E-02 5.22391E-04 8.72529E-01 1.37344E-14 7.70661E-14
 -1      3196 2.04523E+01-8.14149E-02-5.57352E-03 9.83908E-01-3.18741E-14 1.58389E-13
 -1      3197 2.03638E+01 1.50543E-01 1.22197E-03 7.68195E-01-7.56172E-15 1.26197E-13
 -1      3198 2.04388E+01 1.06003E-01 1.18950E-03 8.06289E-01 2.53780E-14 1.10878E-13
 -1      3199 2.02841E+01 9.98534E-02-3.53007E-03 8.97377E-01-4.14862E-14 1.05899E-13
 -1      3200 2.02646E+01 2.00916E-01 2.53608E-04 6.64608E-01-6.30160E-14 6.81950E-14
 -1      3201 2.03225E+01 1.81332E-01 1.51305E-03 7.11979E-01-1.86628E-14 1.36389E-13
 -1      3202 2.01808E+01 2.02683E-01-2.12640E-03 7.86380E-01-4.17453E-14 1.07795E-13
 -1      3203 2.01956E+01 2.15070E-01-2.96581E-04 5.57391E-01-6.46257E-14 1.31642E-13
 -1      3204 2.02409E+01 2.11977E-01 1.62754E-03 6.07099E-01-8.77072E-14 1.01677E-13
 -1      3205 2.01188E+01 2.48625E-01-1.23591E-03 6.68141E-01-9.89539E-14 9.07276E-14
 -1      3206 2.01467E+01 2.06756E-01-5.69219E-04 4.55280E-01-6.48208E-14 2.01094E-13
 -1      3207 2.01824E+01 2.13582E-01 1.61168E-03 5.02941E-01-3.31127E-14 2.16602E-13
 -1      3208 2.00819E+01 2.56796E-01-7.06598E-04 5.53196E-01-1.31295E-13 1.37472E-13
 -1      3209 2.01111E+01 1.86045E-01-6.65870E-04 3.63177E-01 6.95518E-14 2.99990E-13
 -1      3210 2.01395E+01 1.98084E-01 1.51376E-03 4.06289E-01 6.04500E-15 2.44868E-13
 -1      3211 2.00597E+01 2.42077E-01-4.07507E-04 4.47648E-01-7.13150E-14 2.27859E-13
 -1      3212 2.00845E+01 1.59819E-01-6.58801E-04 2.83352E-01-3.89890E-14 2.49524E-13
 -1      3213 2.01071E+01 1.73917E-01 1.36675E-03 3.20735E-01 7.79722E-14 3.43686E-13
 -1      3214 2.00459E+01 2.15167E-01-2.47178E-04 3.54619E-01 4.76697E-14 3.63579E-13
 -1      3215 2.00642E+01 1.32482E-01-5.96392E-04 2.16327E-01-1.04308E-14 2.06123E-13
 -1      3216 2.00821E+01 1.46663E-01 1.19504E-03 2.47682E-01-3.95334E-14 2.24560E-13
 -1      3217 2.00367E+01 1.83288E-01-1.65898E-04 2.75221E-01 2.09457E-14 2.32684E-13
 -1      3218 2.00486E+01 1.06633E-01-5.09670E-04 1.61534E-01-1.06284E-13-2.18483E-14
 -1      3219 2.00627E+01 1.19763E-01 1.01667E-03 1.87111E-01-7.04063E-15 1.14994E-13
 -1      3220 2.00302E+01 1.51001E-01-1.26552E-04 2.09257E-01 3.03840E-14 1.63979E-13
 -1      3221 2.00365E+01 8.36307E-02-4.17461E-04 1.17791E-01-8.60418E-14-4.61210E-15
 -1      3222 2.00475E+01 9.51499E-02 8.44226E-04 1.38149E-01-9.45555E-14 7.89019E-15
 -1      3223 2.00250E+01 1.20954E-01-1.07534E-04 1.55736E-01-8.32287E-14-2.80334E-14
 -1      3224 2.00271E+01 6.40222E-02-3.30353E-04 8.36313E-02-9.28215E-14-1.17673E-13
 -1      3225 2.00355E+01 7.37376E-02 6.85704E-04 9.94705E-02-6.32026E-14-4.44234E-14
 -1      3226 2.00208E+01 9.44826E-02-9.70943E-05 1.13243E-01-3.76349E-14 1.84741E-14
 -1      3227 2.00198E+01 4.78544E-02-2.53597E-04 5.75216E-02-4.44595E-14 1.89148E-15
 -1      3228 2.00262E+01 5.57962E-02 5.45511E-04 6.95755E-02-5.83953E-14-2.37586E-14
 -1      3229 2.00171E+01 7.20730E-02-8.93806E-05 8.01978E-02-7.89670E-14 3.61010E-15
 -1      3230 2.00142E+01 3.48882E-02-1.89123E-04 3.79940E-02-8.63515E-14 1.50367E-14
 -1      3231 2.00189E+01 4.12099E-02 4.25364E-04 4.69629E-02-3.91413E-14 3.50584E-14
 -1      3232 2.00139E+01 5.36907E-02-8.18615E-05 5.50209E-02-5.05609E-14 2.09976E-13
 -1      3233 2.00099E+01 2.47427E-02-1.36918E-04 2.37227E-02-1.10157E-13-9.30562E-14
 -1      3234 2.00133E+01 2.96553E-02 3.25107E-04 3.02375E-02-3.72335E-14-7.00483E-14
 -1      3235 2.00112E+01 3.90091E-02-7.37508E-05 3.62402E-02-4.08231E-14 1.30106E-13
 -1      3236 2.00067E+01 1.69857E-02-9.59236E-05 1.35583E-02-1.28010E-13-4.39270E-14
 -1      3237 2.00091E+01 2.07167E-02 2.43394E-04 1.81638E-02-1.18773E-13-1.29220E-14
 -1      3238 2.00089E+01 2.75613E-02-6.50851E-05 2.25454E-02-1.36386E-13-3.43440E-14
 -1      3239 2.00043E+01 1.11897E-02-6.46099E-05 6.53535E-03-4.00744E-14 3.54201E-14
 -1      3240 2.00060E+01 1.39584E-02 1.78212E-04 9.68739E-03-1.06284E-13 6.20797E-14
 -1      3241 2.00069E+01 1.88363E-02-5.62141E-05 1.28114E-02-1.36391E-13 4.03048E-15
 -1      3242 2.00026E+01 6.96220E-03-4.13208E-05 1.86460E-03 1.11181E-14-8.68085E-14
 -1      3243 2.00037E+01 8.96663E-03 1.27266E-04 3.93423E-03 5.58659E-14-5.94827E-14
 -1      3244 2.00053E+01 1.23371E-02-4.75396E-05 6.09961E-03 4.06352E-14 1.26258E-13
 -1      3245 2.00014E+01 3.96027E-03-2.44727E-05-1.08446E-03 1.24097E-13-1.64413E-13
 -1      3246 2.00021E+01 5.37138E-03 8.82351E-05 1.97865E-04 9.16914E-14-1.92256E-13
 -1      3247 2.00039E+01 7.61184E-03-3.93976E-05 1.64606E-03 6.92225E-14-9.82640E-14
 -1      3248 2.00005E+01 1.89496E-03-1.26540E-05-2.80476E-03-4.73599E-14-1.82292E-15
 -1      3249 2.00010E+01 2.85553E-03 5.89375E-05-2.08012E-03-1.80625E-14-1.54701E-13
 -1      3250 2.00028E+01 4.26833E-03-3.20190E-05-1.15756E-03-5.32352E-14-2.88679E-13
 -1      3251 2.00000E+01 5.29709E-04-4.66563E-06-3.67374E-03-1.40389E-14 1.60260E-13
 -1      3252 2.00002E+01 1.15576E-03 3.74187E-05-3.33185E-03 2.59933E-14 8.54493E-14
 -1      3253 2.00020E+01 1.97778E-03-2.55297E-05-2.78563E-03-1.24294E-13 5.20666E-14
 -1      3254 1.99996E+01-3.24580E-04 4.74647E-07-3.97433E-03-7.84336E-14 1.17753E-13
 -1      3255 1.99997E+01 5.91099E-05 2.19923E-05-3.88482E-03-4.22367E-14 1.59240E-13
 -1      3256 2.00014E+01 4.71939E-04-1.99688E-05-3.60064E-03-1.28145E-13 3.18936E-13
 -1      3257 1.99994E+01-8.15941E-04 3.54696E-06-3.91380E-03-1.35103E-13 1.85731E-13
 -1      3258 1.99994E+01-6.02879E-04 1.12462E-05-3.98180E-03-1.35188E-13 1.87225E-13
 -1      3259 2.00009E+01-4.62987E-04-1.53118E-05-3.87385E-03-1.48039E-13 3.79567E-13
 -1      3260 1.99994E+01-1.05819E-03 5.15405E-06-3.64011E-03 3.03987E-14-3.75756E-14
 -1      3261 1.99993E+01-9.60884E-04 4.02957E-06-3.79848E-03 3.25465E-14 9.22397E-14
 -1      3262 2.00005E+01-9.94006E-04-1.14959E-05-3.80369E-03-5.05597E-14 2.22716E-13
 -1      3263 1.99993E+01-1.13746E-03 5.75446E-06-3.25540E-03 1.30776E-13-1.50168E-13
 -1      3264 1.99992E+01-1.11458E-03-5.70626E-07-3.45832E-03 4.92167E-14-1.02038E-13
 -1      3265 2.00002E+01-1.24929E-03-8.43552E-06-3.53151E-03 1.31746E-13-4.50225E-14
 -1      3266 1.99993E+01-1.11814E-03 5.68370E-06-2.82708E-03 4.76512E-14-9.33329E-14
 -1      3267 1.99992E+01-1.13890E-03-3.26838E-06-3.04484E-03 5.26893E-14-9.79408E-14
 -1      3268 2.00000E+01-1.32568E-03-6.02764E-06-3.15472E-03 4.69314E-14-1.96413E-13
 -1      3269 1.99994E+01-1.04800E-03 5.18280E-06-2.39670E-03 3.85998E-14 1.16612E-14
 -1      3270 1.99993E+01-1.08961E-03-4.60727E-06-2.61154E-03 1.76385E-13-1.46339E-13
 -1      3271 1.99999E+01-1.29550E-03-4.20022E-06-2.73748E-03 8.79899E-15-7.53613E-14
 -1      3272 1.99994E+01-9.62452E-04 4.22995E-06-1.98683E-03-1.39168E-13 1.22655E-13
 -1      3273 1.99993E+01-1.00807E-03-5.01324E-06-2.18962E-03-1.20779E-13 2.52704E-14
 -1      3274 1.99998E+01-1.21230E-03-2.87756E-06-2.31910E-03-9.26719E-14 3.42167E-14
 -1      3275 1.99995E+01-8.90254E-04 8.20879E-07-1.60835E-03-1.84626E-13 3.87482E-13
 -1      3276 1.99994E+01-9.24040E-04-4.87979E-06-1.79364E-03-2.00672E-13 3.16437E-13
 -1      3277 1.99997E+01-1.11521E-03-1.58308E-06-1.92128E-03-2.82971E-13 1.41571E-13
 -1      3278 1.99996E+01-9.11056E-04-1.89050E-06-1.36745E-03-1.91028E-13 3.38171E-13
 -1      3279 1.99995E+01-9.00409E-04-5.56540E-06-1.49689E-03-1.02983E-13 2.96037E-13
 -1      3280 1.99998E+01-1.06751E-03 1.32702E-06-1.61155E-03-1.91733E-13 1.41264E-13
 -1      3281 1.99998E+01-1.06692E-03 6.43469E-06-1.38275E-03-1.63397E-13 1.32478E-13
 -1      3282 1.02868E+01-9.71946E-02 8.49236E-02 3.23617E+00-2.24869E-13 7.27474E-13
 -1      3283 9.46672E+00 4.89704E-01 1.03502E-01 1.16962E+00-1.05452E-13 8.30280E-13
 -1      3284 2.00002E+01-1.40956E-03-1.38458E-06 1.29927E-03 7.71129E-14-1.36199E-13
 -1      3285 2.00004E+01-1.53084E-03 6.86722E-06 1.18313E-03-8.49926E-15-1.27668E-13
 -1      3286 8.15558E+00 2.70631E+00 1.04874E-01-1.76215E+00-1.79570E-13-9.22012E-13
 -1      3287 7.10366E+00 1.87809E+00 1.34022E-01-2.63293E+00-2.28647E-13-9.84268E-13
 -1      3288 1.69761E+01-2.70256E+00 1.54105E-01-5.18381E+00 3.96919E-13 1.29896E-14
 -1      3289 1.95971E+01-3.66981E+00-3.97526E-02-4.76716E+00 3.83277E-13-1.21195E-13
 -1      3290 1.63805E+01-1.97175E+00 7.11001E-02-4.66777E+00 3.75505E-13 8.37039E-14
 -1      3291 2.00009E+01-1.89788E-03 2.56157E-06 1.17277E-04 1.62247E-13-6.96862E-14
 -1      3292 2.00009E+01-1.89812E-03 2.40376E-06-1.15194E-04 2.11786E-14 2.10661E-13
 -1      3293 2.00011E+01-1.94597E-03-5.34463E-06 2.67706E-04 6.30848E-15-4.86878E-14
 -1      3294 2.69076E+01 1.50692E+00-1.39781E-01-1.85085E+00 3.93414E-13-5.93067E-13
 -1      3295 2.72511E+01-2.37323E-01-1.27593E-02-1.36010E+00 2.38705E-13-6.35776E-13
 -1      3296 2.59735E+01 1.63674E+00-5.33537E-02-1.85801E+00 3.66540E-13-4.99489E-13
 -1      3297 2.36315E+01 1.34651E+00 8.81835E-03 2.09798E+00 2.93404E-13 9.34973E-14
 -1      3298 2.38293E+01 7.14833E-01-2.02722E-02 2.28456E+00 2.54453E-13 1.01142E-13
 -1      3299 2.38529E+01 2.02796E+00-4.68329E-02-1.57747E+00 3.95025E-13-3.41827E-13
 -1      3300 2.37478E+01 2.73734E+00-1.73764E-02-1.10653E+00 4.19914E-13-2.76408E-13
 -1      3301 1.98391E+01-1.16200E-01 2.15846E-03 1.72808E+00 3.34698E-14-1.79490E-13
 -1      3302 9.77912E+00 3.41935E+00 8.95832E-02-1.33066E+00-1.71627E-13-8.11441E-13
 -1      3303 2.00006E+01-1.66244E-03-2.43787E-06 1.00526E-03-1.30718E-13-5.76203E-14
 -1      3304 2.00007E+01-1.74496E-03 6.39366E-06 8.24598E-04-3.39036E-14 2.61592E-14
 -1      3305 2.00009E+01-1.84453E-03-5.19995E-06 7.75962E-04-1.07293E-13-1.06176E-13
 -1      3306 2.00006E+01-1.64828E-03-2.55289E-06 1.19818E-03 3.99309E-15-1.89711E-14
 -1      3307 2.31598E+01-1.34052E+00 7.53054E-03-7.67797E-01 1.69456E-14-2.64904E-13
 -1      3308 2.32551E+01-1.15199E+00-1.16145E-02-1.05733E+00 5.95804E-14-2.76730E-13
 -1      3309 2.31600E+01-1.70062E+00-2.37901E-02-3.55299E-01-4.84170E-14-2.06759E-13
 -1      3310 2.35186E+01-7.74598E-01-4.77462E-03-1.47468E+00 1.09751E-13-3.25934E-13
 -1      3311 2.35093E+01-2.21816E-01 1.31209E-02-1.64039E+00 1.87317E-13-3.50978E-13
 -1      3312 2.38169E+01-1.23614E+00-2.82741E-02-1.17895E+00 5.95609E-14-3.20035E-13
 -1      3313 9.56337E+00 4.74902E-01 1.00793E-01-1.03454E+00 6.60895E-14 6.81594E-13
 -1      3314 1.04766E+01-5.79565E-02 1.17618E-01-2.99625E+00 2.69326E-13 6.32855E-13
 -1      3315 2.69455E+01-3.81213E+00-3.01149E-02-6.83041E-01 9.81160E-14-5.60572E-13
 -1      3316 2.56720E+01-3.95605E+00 5.22144E-02-1.50735E+00 3.07476E-13-3.64337E-13
 -1      3317 1.56558E+01-8.84285E-01 1.06525E-01-5.24620E+00-3.77261E-13-5.18426E-13
 -1      3318 1.86044E+01-1.89386E+00-4.44759E-02-4.69785E+00-3.38493E-13-3.29535E-13
 -1      3319 8.58080E+00 1.78827E+00 7.70533E-02-3.79011E+00-2.92988E-13-9.00599E-13
 -1      3320 2.84478E+01-2.86134E+00-3.51382E-02 1.54014E-01-1.64986E-13-6.07459E-13
 -1      3321 2.93920E+01-8.72512E-01-1.42351E-01 1.56504E+00-3.99847E-13-7.56645E-13
 -1      3322 2.31214E+01-8.73711E-01-4.11627E-02 1.26253E-01-7.05143E-15-1.03624E-13
 -1      3323 2.25644E+01-8.57101E-01 3.27769E-02-6.51030E-01-9.92685E-14-1.06590E-13
 -1      3324 2.39235E+01-9.65620E-01 2.31165E-02 6.97479E-01 2.13180E-14-6.45924E-15
 -1      3325 1.15518E+01 1.44450E+00 1.18360E-01-4.22262E+00-3.44932E-13-7.41296E-13
 -1      3326 1.40367E+01 2.48378E-01 6.55165E-02-4.99114E+00-3.69309E-13-6.05231E-13
 -1      3327 1.41195E+01-2.08106E+00-3.75865E-03 5.45900E+00-4.46025E-13 3.52482E-13
 -1      3328 1.19643E+01-9.35732E-01 1.21491E-01 4.52877E+00-3.30798E-13 4.94826E-13
 -1      3329 2.19582E+01-3.89845E+00 1.30434E-01-4.04001E+00 4.21531E-13-1.31679E-13
 -1      3330 2.41777E+01-4.21980E+00-2.81335E-02-2.65120E+00 3.74506E-13-2.44281E-13
 -1      3331 2.37717E+01-3.74504E+00-1.80382E-02-2.37789E+00 3.81160E-13-2.57479E-13
 -1      3332 2.05667E+01-3.36699E+00 7.21063E-03-4.11048E+00 3.60739E-13-1.12356E-13
 -1      3333 2.11481E+01-2.70280E+00-5.37411E-02 3.06878E+00 2.01193E-13-1.25192E-13
 -1      3334 1.81449E+01-1.34296E+00 8.99372E-02 3.54910E+00 2.26964E-13-2.96305E-13
 -1      3335 2.67509E+01 3.24583E-01-2.74217E-02 1.90853E+00 3.15498E-13 2.35249E-13
 -1      3336 2.66614E+01 1.78242E+00-1.27785E-01 2.37849E+00 4.70499E-13 1.78087E-13
 -1      3337 2.68012E+01-1.88895E+00-1.09372E-01-4.88362E-01 7.60884E-14-5.90653E-13
 -1      3338 2.58570E+01-3.05764E+00-1.00779E-02 7.56719E-01-7.57623E-14-5.61252E-13
 -1      3339 2.32100E+01 2.51789E+00 5.51853E-03 1.28613E+00 4.40495E-13-1.68364E-14
 -1      3340 2.33921E+01 1.96841E+00-3.71922E-02 1.76882E+00 3.74864E-13 4.41257E-14
 -1      3341 2.41324E+01 1.89158E+00-2.84937E-02 2.10274E+00 3.60425E-13 6.77357E-14
 -1      3342 8.76131E+00 3.02249E+00 5.92354E-02-1.72819E+00-1.86497E-13-8.62213E-13
 -1      3343 2.33190E+01-2.49495E+00 2.98864E-02 1.58703E+00 1.23908E-13 3.54716E-14
 -1      3344 1.31610E+01 4.22747E-01 4.22212E-02 3.55188E+00 1.71654E-13-5.84019E-13
 -1      3345 1.40015E+01 1.22807E+00 4.93848E-02 2.79927E+00 1.35232E-13-5.39027E-13
 -1      3346 1.66260E+01 4.92331E-01 1.27816E-01 2.99543E+00 1.29608E-13-3.84397E-13
 -1      3347 1.60574E+01-7.94955E-01 6.92736E-02 4.01647E+00 2.11352E-13-4.16445E-13
 -1      3348 1.94755E+01-3.88026E+00-6.81319E-02 5.17959E+00-4.46386E-13-2.23210E-13
 -1      3349 1.69873E+01-2.83134E+00 1.44210E-01 5.51491E+00-4.82017E-13 3.84068E-14
 -1      3350 2.37434E+01-2.95632E-01-1.28373E-02 1.90949E+00 1.96501E-13 4.71296E-14
 -1      3351 2.36951E+01-2.42103E-01 9.41863E-03 1.68707E+00 1.62859E-13 2.31779E-14
 -1      3352 2.39853E+01-5.51242E-01 2.15603E-03 1.62316E+00 1.41398E-13 3.87199E-14
 -1      3353 2.37626E+01-2.58665E-01-2.74666E-03 2.00725E+00 2.15393E-13 4.99219E-14
 -1      3354 2.41959E+01-4.03387E+00-6.02243E-02 2.54087E+00-2.96672E-13-5.12853E-13
 -1      3355 2.23126E+01-4.04450E+00 1.10358E-01 4.01258E+00-3.93921E-13-3.98286E-13
 -1      3356 2.54169E+01-2.16810E+00 6.11237E-02-7.76750E-01-7.49071E-14 1.21667E-13
 -1      3357 2.62917E+01-1.26227E+00-8.88976E-02 7.96266E-01 1.12133E-13 1.97915E-13
 -1      3358 2.18410E+01-2.33029E+00 1.27786E-01-3.43784E+00-2.86222E-13-1.43194E-13
 -1      3359 2.35716E+01-2.72388E+00-9.77945E-02-2.34407E+00-1.78593E-13-9.20618E-15
 -1      3360 2.63504E+01 3.34750E+00-4.78163E-02 2.34287E+00 6.01338E-13 1.13839E-13
 -1      3361 2.60508E+01 4.31040E+00-1.59482E-01 1.82475E+00 7.07628E-13 1.89987E-14
 -1      3362 2.19118E+01-1.32475E+00 6.73136E-03-1.86606E+00-1.85544E-13-1.42709E-13
 -1      3363 2.03913E+01-1.12805E+00-7.92960E-04-2.81019E+00-2.73464E-13-2.18006E-13
 -1      3364 2.80349E+01-3.51306E+00-4.82520E-02-4.35817E-01-6.46289E-14-5.62939E-13
 -1      3365 1.62782E+01-2.07720E+00 9.24801E-02 4.97512E+00-4.45324E-13 8.72774E-14
 -1      3366 2.00227E+01-1.69688E+00 9.14478E-03-3.65438E+00-3.08961E-13-2.54139E-13
 -1      3367 2.63028E+01-1.06769E+00-1.55259E-02-1.20516E+00 1.45526E-13-5.78190E-13
 -1      3368 1.82490E+01-7.52306E-01 4.11526E-02 3.09123E+00 1.77365E-13-2.80553E-13
 -1      3369 2.28154E+01-3.00570E+00 7.06993E-02-2.69383E+00 3.60357E-13-1.71160E-13
 -1      3370 2.09579E+01-2.72267E+00-1.60903E-02-3.42262E+00 3.06434E-13-1.21042E-13
 -1      3371 2.00011E+01-1.94490E-03-5.30685E-06-2.70223E-04 5.22382E-14 1.07621E-13
 -1      3372 2.00009E+01-1.86936E-03 4.66868E-06-3.75969E-04 1.18612E-13 2.95923E-13
 -1      3373 2.00008E+01-1.82570E-03 1.47013E-07-5.95147E-04 1.09728E-13-6.55268E-14
 -1      3374 9.75845E+00 2.75309E+00 1.24866E-01-3.04836E+00-2.63484E-13-8.55233E-13
 -1      3375 1.56681E+01 3.23717E-01 3.41041E-02-4.18580E+00-3.73944E-13-5.22901E-13
 -1      3376 2.40688E+01 3.80152E-02 2.76067E-03-1.77631E+00 1.86905E-13-3.39864E-13
 -1      3377 1.23201E+01-2.19920E-01 1.19168E-01 3.49694E+00-3.08913E-13 5.56048E-13
 -1      3378 1.24731E+01-2.36737E-01 8.25354E-02-3.24899E+00 3.13211E-13 4.74142E-13
 -1      3379 2.00007E+01-1.74299E-03 6.00008E-06-8.27415E-04 1.98918E-14-4.01713E-13
 -1      3380 2.00006E+01-1.65759E-03-1.46440E-06-1.00745E-03 9.31223E-15-3.50032E-13
 -1      3381 2.00009E+01-1.84212E-03-4.62601E-06-7.78654E-04 6.52213E-14-1.64787E-13
 -1      3382 1.79855E+01-2.37563E-01 1.03235E-01-3.77556E+00-3.41293E-13-4.03986E-13
 -1      3383 2.53684E+01 4.47767E+00-6.06422E-02 1.32695E+00 6.62304E-13-8.92758E-14
 -1      3384 2.38071E+01 2.54244E-01-2.21585E-03 2.21455E+00 2.26556E-13 9.62284E-14
 -1      3385 2.39049E+01-1.11206E-01-1.22461E-02 2.17675E+00 2.09725E-13 8.45218E-14
 -1      3386 2.41332E+01-2.11230E-01 4.90248E-03 2.11751E+00 1.92559E-13 1.25787E-13
 -1      3387 2.43041E+01 5.34440E-01-2.52085E-02 2.35904E+00 2.60118E-13 1.53615E-13
 -1      3388 2.46349E+01 3.62922E+00-4.18463E-02-8.77267E-01 5.08781E-13-2.91294E-13
 -1      3389 2.30707E+01 2.96873E+00-5.19228E-02-1.56286E-01 4.30690E-13-1.39454E-13
 -1      3390 2.31796E+01 2.97838E+00-2.67836E-02 4.71047E-01 4.56329E-13-1.04784E-13
 -1      3391 2.52613E+01 4.66286E+00-5.77774E-02-5.33172E-01 6.04392E-13-3.48366E-13
 -1      3392 1.03428E+01 7.71784E-01 1.28528E-01 7.06057E-02 1.32403E-14 7.13006E-13
 -1      3393 1.14765E+01 8.00347E-01 3.02520E-02-8.64239E-01 1.02888E-13 5.51593E-13
 -1      3394 1.14749E+01 8.34232E-01 5.71744E-02 1.01609E+00-9.45112E-14 6.53262E-13
 -1      3395 2.00007E+01-1.66122E-03-5.19622E-06-1.16900E-03-3.14612E-14-3.00005E-13
 -1      3396 2.00004E+01-1.54541E-03 6.41211E-06-1.15249E-03-1.22465E-13-3.59336E-13
 -1      3397 2.00003E+01-1.44663E-03-1.55486E-06-1.25077E-03-4.78561E-14-1.91317E-13
 -1      3398 2.33171E+01-1.71368E+00 3.39345E-02-1.13894E+00-1.52470E-13-1.48102E-14
 -1      3399 2.80197E+01-2.48181E+00-4.93542E-02 1.00188E+00-1.51282E-13-9.25190E-13
 -1      3400 2.39287E+01 3.44149E+00-2.79003E-02 9.92787E-01 5.03736E-13-7.53841E-14
 -1      3401 2.63023E+01-7.12808E-01-3.91953E-02 1.56252E+00 1.81765E-13 1.99004E-13
 -1      3402 2.56226E+01 4.22136E-02-3.96292E-02 2.11908E+00 2.25840E-13 2.00229E-13
 -1      3403 2.54050E+01-1.11862E+00 2.66464E-02 1.07955E+00 5.75616E-14 1.48882E-13
 -1      3404 2.10383E+01-3.52625E+00 5.22417E-02 4.06964E+00-4.23973E-13-3.04637E-13
 -1      3405 2.57472E+01 2.11936E+00-5.52417E-02 2.34878E+00 4.38961E-13 1.33310E-13
 -1      3406 2.51302E+01-2.73938E+00-3.80770E-02 1.92176E-01-5.19741E-14-4.69886E-13
 -1      3407 2.50922E+01-3.57005E+00 5.98882E-03 1.35586E+00-1.88445E-13-4.71470E-13
 -1      3408 2.37693E+01-3.46080E+00 5.75491E-03 1.93537E+00-2.50139E-13-3.61070E-13
 -1      3409 2.00000E+01-1.20921E-03 2.19229E-06 1.47154E-03 2.84366E-14 1.37878E-13
 -1      3410 2.00001E+01-1.31900E-03 3.34299E-06 1.39183E-03 8.71151E-14 5.21655E-14
 -1      3411 2.00003E+01-1.43842E-03-2.26399E-06 1.46488E-03 1.12290E-13 1.63209E-13
 -1      3412 2.00000E+01-1.26072E-03-3.01540E-06 1.62172E-03 3.11823E-14-1.68737E-14
 -1      3413 2.42981E+01-2.07331E+00 2.00189E-02-1.02704E+00-1.44022E-13 4.47906E-14
 -1      3414 2.17169E+01-1.05957E+00 1.13585E-01 1.70391E+00 9.34051E-14-8.63394E-14
 -1      3415 2.00001E+01-1.32200E-03 5.97726E-06-1.32130E-03-2.47760E-14-2.28294E-14
 -1      3416 2.00000E+01-1.20001E-03-5.70882E-07-1.36434E-03-1.63677E-13 1.22518E-13
 -1      3417 2.00000E+01-1.19898E-03-1.32006E-06-1.47770E-03-1.25011E-13 9.14602E-14
 -1      3418 2.00003E+01-1.44392E-03-7.46803E-07-1.38989E-03-3.82621E-14-2.16317E-13
 -1      3419 2.45419E+01-8.05080E-01-3.67272E-02 1.51484E+00 1.09577E-13 8.33205E-14
 -1      3420 2.46333E+01-1.14740E+00-1.01346E-03 8.59027E-01 1.50036E-14 5.06227E-14
 -1      3421 2.45647E+01 1.86378E+00-5.88840E-02-1.84808E+00 3.61787E-13-3.39289E-13
 -1      3422 1.82511E+01-1.03285E+00 9.60839E-03-3.37362E+00 1.71470E-13 2.79395E-14
 -1      3423 1.80127E+01-3.61870E-01 1.67661E-02-3.01173E+00 7.90891E-14 2.70530E-14
 -1      3424 1.82621E+01 2.75442E-02 2.81168E-02-2.58684E+00 2.76148E-14 8.28114E-14
 -1      3425 1.81725E+01 3.24436E-01-9.49877E-03-2.32751E+00 3.28381E-14 1.06954E-13
 -1      3426 1.70718E+01 1.32195E-01 3.49662E-02-2.76944E+00 9.11688E-14 1.16787E-13
 -1      3427 1.84480E+01 5.60358E-01 1.46661E-02-2.04207E+00-4.59848E-14 7.50720E-14
 -1      3428 1.84732E+01 7.02449E-01-1.03576E-02-1.84150E+00-9.13064E-14 5.04645E-14
 -1      3429 1.75614E+01 6.68711E-01 9.55184E-03-2.07591E+00-3.22479E-14 9.70092E-14
 -1      3430 1.87261E+01 8.02525E-01 6.90374E-03-1.64464E+00-1.01164E-13 1.73467E-15
 -1      3431 1.87972E+01 8.48124E-01-8.68234E-03-1.48773E+00-4.41658E-14-3.59741E-15
 -1      3432 1.80753E+01 9.21800E-01 8.33542E-03-1.60858E+00-1.27477E-13 8.93200E-14
 -1      3433 1.90090E+01 8.70426E-01 3.31084E-03-1.34444E+00-1.15368E-14-1.15416E-13
 -1      3434 1.90876E+01 8.60945E-01-6.84143E-03-1.21653E+00-1.84174E-14-2.14170E-13
 -1      3435 1.85206E+01 9.91286E-01 7.39736E-03-1.28989E+00-1.06782E-13 8.29360E-15
 -1      3436 1.92582E+01 8.40119E-01 1.71939E-03-1.10475E+00-4.15432E-14-2.56851E-13
 -1      3437 1.93276E+01 8.01796E-01-5.38110E-03-9.96875E-01-1.48786E-13-2.38041E-13
 -1      3438 1.88858E+01 9.58561E-01 6.37079E-03-1.05370E+00-9.99352E-14-1.51017E-13
 -1      3439 1.94615E+01 7.59720E-01 1.05997E-03-9.05217E-01-9.43434E-14-1.32174E-13
 -1      3440 1.95166E+01 7.08818E-01-4.28847E-03-8.12729E-01-1.17843E-13-1.38095E-14
 -1      3441 1.91758E+01 8.71666E-01 5.19096E-03-8.65649E-01-4.80485E-14-8.17665E-14
 -1      3442 1.96196E+01 6.58685E-01 8.36843E-04-7.35528E-01-5.50400E-14 8.69394E-14
 -1      3443 1.96604E+01 6.04826E-01-3.44162E-03-6.56200E-01 1.39980E-13 1.84012E-13
 -1      3444 1.94005E+01 7.61168E-01 4.08798E-03-7.08579E-01 3.83820E-14 9.87630E-14
 -1      3445 1.97385E+01 5.54254E-01 7.80630E-04-5.90707E-01 1.25650E-13 1.73128E-13
 -1      3446 1.97670E+01 5.02802E-01-2.76510E-03-5.23263E-01 1.86512E-13 9.59515E-14
 -1      3447 1.95714E+01 6.45305E-01 3.12363E-03-5.74626E-01 1.18155E-13 2.11588E-13
 -1      3448 1.98253E+01 4.55808E-01 7.68693E-04-4.67966E-01 2.12045E-13 4.51398E-14
 -1      3449 1.98443E+01 4.09432E-01-2.21139E-03-4.11402E-01 1.42978E-13-1.15637E-15
 -1      3450 1.96991E+01 5.34641E-01 2.33740E-03-4.60110E-01 1.38139E-13 7.69061E-14
 -1      3451 1.98873E+01 3.67859E-01 7.47771E-04-3.65250E-01 4.44351E-14 8.29362E-14
 -1      3452 1.98994E+01 3.27616E-01-1.75515E-03-3.18547E-01 4.63788E-16 1.15082E-13
 -1      3453 1.97932E+01 4.34575E-01 1.71740E-03-3.63054E-01 1.53848E-13-1.36600E-14
 -1      3454 1.99306E+01 2.92037E-01 7.03630E-04-2.80587E-01-1.34227E-14 7.88253E-14
 -1      3455 1.99378E+01 2.58055E-01-1.38016E-03-2.42645E-01-3.43923E-14 1.38784E-13
 -1      3456 1.98614E+01 3.47375E-01 1.24110E-03-2.81942E-01-8.09670E-15 1.18993E-13
 -1      3457 1.99602E+01 2.28339E-01 6.38603E-04-2.11922E-01-6.08202E-14 1.35935E-13
 -1      3458 1.99641E+01 2.00245E-01-1.07399E-03-1.81595E-01-9.67847E-14 1.96447E-13
 -1      3459 1.99102E+01 2.73416E-01 8.82613E-04-2.15255E-01-2.20009E-14 4.55983E-14
 -1      3460 1.99799E+01 1.75903E-01 5.60565E-04-1.57139E-01-1.89128E-13 1.22336E-13
 -1      3461 1.99816E+01 1.53082E-01-8.26189E-04-1.33289E-01-2.05168E-13 1.35504E-13
 -1      3462 1.99445E+01 2.12010E-01 6.17201E-04-1.61360E-01-1.58677E-13 9.12718E-14
 -1      3463 1.99926E+01 1.33471E-01 4.77773E-04-1.14150E-01-8.07741E-14 1.59541E-13
 -1      3464 1.99930E+01 1.15225E-01-6.27591E-04-9.56997E-02-5.28926E-14 2.07333E-13
 -1      3465 1.99682E+01 1.61935E-01 4.23432E-04-1.18557E-01-9.91921E-14 1.17987E-13
 -1      3466 2.00004E+01 9.96630E-02 3.96780E-04-8.09789E-02-1.34483E-13 1.78920E-13
 -1      3467 2.00000E+01 8.52883E-02-4.70122E-04-6.69458E-02-1.26275E-13 1.54238E-13
 -1      3468 1.99841E+01 1.21750E-01 2.83788E-04-8.51569E-02-1.28121E-13 2.63159E-13
 -1      3469 2.00049E+01 7.31180E-02 3.21958E-04-5.58270E-02-1.12972E-13 2.59825E-14
 -1      3470 2.00041E+01 6.19574E-02-3.46678E-04-4.53426E-02-5.89786E-15 2.24272E-14
 -1      3471 1.99945E+01 8.99854E-02 1.84458E-04-5.95567E-02-1.40904E-13 1.01800E-13
 -1      3472 2.00072E+01 5.25776E-02 2.55742E-04-3.71057E-02-3.05943E-14-5.47387E-14
 -1      3473 2.00062E+01 4.40408E-02-2.51077E-04-2.94240E-02-1.74412E-13-4.18412E-14
 -1      3474 2.00010E+01 6.52447E-02 1.14816E-04-4.02983E-02-1.14883E-13-3.93427E-14
 -1      3475 2.00080E+01 3.69208E-02 1.99087E-04-2.34514E-02-2.33531E-13-1.33593E-14
 -1      3476 2.00070E+01 3.04932E-02-1.77999E-04-1.79461E-02-2.90961E-13 4.93308E-14
 -1      3477 2.00047E+01 4.62624E-02 6.68174E-05-2.60982E-02-1.06410E-13-3.44784E-13
 -1      3478 2.00080E+01 2.51761E-02 1.51941E-04-1.37208E-02-2.73301E-13 2.94591E-13
 -1      3479 2.00070E+01 2.04193E-02-1.22929E-04-9.87655E-03-1.09880E-13 2.47367E-13
 -1      3480 2.00066E+01 3.19265E-02 3.44485E-05-1.58586E-02-1.33432E-13 1.21907E-13
 -1      3481 2.00074E+01 1.65198E-02 1.13632E-04-6.97498E-03-1.19242E-13 2.54243E-13
 -1      3482 2.00066E+01 1.30671E-02-8.20816E-05-4.37595E-03-1.58386E-13 2.53116E-13
 -1      3483 2.00073E+01 2.12833E-02 1.32477E-05-8.66319E-03-1.74387E-13 2.17517E-13
 -1      3484 2.00066E+01 1.02661E-02 8.31604E-05-2.45786E-03-2.45720E-13 3.19434E-13
 -1      3485 2.00058E+01 7.81607E-03-5.23252E-05-7.74278E-04-1.52366E-13 3.51072E-13
 -1      3486 2.00072E+01 1.35315E-02-7.08294E-08-3.76407E-03-1.85917E-13 2.07677E-13
 -1      3487 2.00056E+01 5.85323E-03 5.94002E-05 4.28550E-04-2.03488E-13 3.17625E-13
 -1      3488 2.00050E+01 4.16207E-03-3.11024E-05 1.45371E-03-1.89285E-13 2.10660E-13
 -1      3489 2.00067E+01 8.00953E-03-7.91184E-06-5.62644E-04-2.02485E-13 5.66012E-14
 -1      3490 2.00047E+01 2.82831E-03 4.12278E-05 2.14887E-03-1.94499E-13 1.61152E-13
 -1      3491 2.00042E+01 1.70147E-03-1.63513E-05 2.71248E-03-1.03337E-13 8.68111E-14
 -1      3492 2.00059E+01 4.17986E-03-1.20227E-05 1.41109E-03-2.10768E-13 1.25171E-13
 -1      3493 2.00038E+01 8.31265E-04 2.75996E-05 3.05769E-03 1.15434E-14 1.13385E-13
 -1      3494 2.00034E+01 1.15878E-04-6.43092E-06 3.30780E-03 1.08289E-13-7.83819E-15
 -1      3495 2.00051E+01 1.61250E-03-1.36624E-05 2.51934E-03-1.16842E-13 2.60471E-13
 -1      3496 2.00030E+01-4.19971E-04 1.75925E-05 3.42056E-03 1.60521E-13-1.31350E-13
 -1      3497 2.00027E+01-8.42348E-04-5.15529E-08 3.46632E-03 1.57866E-13-3.38697E-13
 -1      3498 2.00042E+01-3.14781E-05-1.37277E-05 3.03598E-03-3.26970E-14 1.75014E-13
 -1      3499 2.00023E+01-1.14329E-03 1.04216E-05 3.43229E-03 2.03945E-13-1.81432E-13
 -1      3500 2.00021E+01-1.36321E-03 3.78327E-06 3.35236E-03 5.76359E-14-2.15936E-13
 -1      3501 2.00034E+01-1.01545E-03-1.28487E-05 3.16397E-03 2.66786E-13-3.81808E-14
 -1      3502 2.00017E+01-1.50481E-03 5.43791E-06 3.23237E-03-9.04616E-14-1.51507E-13
 -1      3503 2.00015E+01-1.59056E-03 5.83765E-06 3.08182E-03-7.58170E-14-2.06214E-13
 -1      3504 2.00027E+01-1.54129E-03-1.14672E-05 3.05032E-03-2.35016E-14-2.30778E-14
 -1      3505 2.00012E+01-1.62947E-03 2.11373E-06 2.91773E-03-2.34540E-13-3.00434E-13
 -1      3506 2.00011E+01-1.63190E-03 6.70167E-06 2.73374E-03-2.91074E-13-4.29450E-13
 -1      3507 2.00020E+01-1.76162E-03-9.87162E-06 2.79857E-03-1.68290E-13-3.43420E-13
 -1      3508 2.00008E+01-1.61010E-03 3.21267E-08 2.55332E-03-2.36333E-13-2.82682E-13
 -1      3509 2.00007E+01-1.56732E-03 6.53202E-06 2.35990E-03-1.36216E-13-4.09306E-13
 -1      3510 2.00015E+01-1.79028E-03-8.31680E-06 2.47924E-03-2.06337E-13-3.44287E-13
 -1      3511 2.00005E+01-1.51449E-03-4.79118E-07 2.17909E-03-9.48422E-14-3.57399E-13
 -1      3512 2.00004E+01-1.45449E-03 4.85451E-06 1.99118E-03-6.33651E-14-3.52334E-13
 -1      3513 2.00010E+01-1.71422E-03-7.51932E-06 2.13836E-03-1.16566E-13-2.34375E-13
 -1      3514 2.07747E+01-6.08794E-01 1.04088E-02 1.20055E+00-9.21896E-14-6.89353E-14
 -1      3515 2.10085E+01-8.51261E-01 8.00115E-04 1.16030E+00-1.10665E-13-5.34575E-14
 -1      3516 2.13452E+01-1.10807E+00 1.62933E-02 1.13372E+00-1.33186E-13-6.73444E-14
 -1      3517 2.16586E+01-1.38623E+00-1.03821E-03 1.00741E+00-7.80324E-14-6.32877E-14
 -1      3518 2.08731E+01-1.06051E+00-1.76202E-02 1.41297E+00-1.35869E-13-8.75613E-14
 -1      3519 1.93222E+01-2.10114E+00 8.85177E-02-3.94920E+00 2.94108E-13-1.08965E-13
 -1      3520 2.21595E+01-1.65708E+00 2.34911E-02 8.70045E-01-1.20487E-13-1.58624E-13
 -1      3521 2.25628E+01-1.86513E+00 7.27819E-03 5.94894E-01-1.31443E-13-1.82648E-13
 -1      3522 2.16470E+01-1.69261E+00-2.01012E-02 1.31130E+00-1.46754E-13-1.07494E-13
 -1      3523 2.04052E+01-2.23403E-01 6.00019E-03 1.15221E+00-1.15325E-13 2.21244E-14
 -1      3524 2.05679E+01-4.02876E-01 2.69963E-03 1.16376E+00-1.07792E-13-9.46336E-14
 -1      3525 2.03737E+01-5.22319E-01-1.19309E-02 1.35784E+00-9.69760E-14-2.54683E-14
 -1      3526 2.01829E+01 4.05260E-02 2.91439E-03 1.04556E+00-6.11477E-14 9.09843E-14
 -1      3527 2.02900E+01-7.79383E-02 3.02372E-03 1.08634E+00-4.69426E-14 8.25792E-14
 -1      3528 2.00807E+01-1.29556E-01-7.57745E-03 1.22702E+00-1.20816E-13-7.70472E-14
 -1      3529 2.00594E+01 2.01139E-01 9.54613E-04 9.14181E-01-4.54219E-14 6.46556E-14
 -1      3530 2.01273E+01 1.32256E-01 2.73670E-03 9.69541E-01-4.82506E-14 7.07186E-14
 -1      3531 1.99270E+01 1.27650E-01-4.54674E-03 1.06877E+00-2.05833E-15 1.45636E-14
 -1      3532 1.99979E+01 2.83574E-01-1.83798E-04 7.77512E-01-7.36321E-14 8.92530E-14
 -1      3533 2.00400E+01 2.51006E-01 2.34517E-03 8.38003E-01-6.00424E-14 6.41906E-14
 -1      3534 1.98608E+01 2.76618E-01-2.42424E-03 9.07582E-01-5.50532E-14 8.13729E-15
 -1      3535 1.99727E+01 3.11961E-01-7.84544E-04 6.46344E-01-1.50256E-13 1.68720E-13
 -1      3536 1.99987E+01 3.03877E-01 1.97850E-03 7.06186E-01-7.94153E-14 1.36312E-13
 -1      3537 1.98453E+01 3.46536E-01-1.09994E-03 7.55696E-01-1.02301E-13 1.82324E-13
 -1      3538 1.99672E+01 3.05816E-01-1.05710E-03 5.26452E-01-1.74312E-13 1.88237E-13
 -1      3539 1.99835E+01 3.12956E-01 1.67425E-03 5.82209E-01-1.54963E-13 1.55248E-13
 -1      3540 1.98565E+01 3.63296E-01-3.43884E-04 6.18374E-01-1.42473E-13 2.08487E-13
 -1      3541 1.99712E+01 2.79688E-01-1.12508E-03 4.20668E-01-8.85780E-14 1.49021E-13
 -1      3542 1.99818E+01 2.95288E-01 1.42506E-03 4.70464E-01-1.43225E-13 9.09071E-14
 -1      3543 1.98797E+01 3.47015E-01 5.62219E-05 4.97690E-01-9.22868E-14 9.39631E-14
 -1      3544 1.99788E+01 2.43796E-01-1.07431E-03 3.29950E-01 5.67780E-14 2.04865E-13
 -1      3545 1.99862E+01 2.63190E-01 1.21463E-03 3.72977E-01-3.11304E-14 1.88258E-13
 -1      3546 1.99061E+01 3.12307E-01 2.38485E-04 3.94059E-01-9.44745E-14-2.40418E-15
 -1      3547 1.99869E+01 2.04894E-01-9.61000E-04 2.54021E-01 5.14268E-14 3.12466E-14
 -1      3548 1.99924E+01 2.25057E-01 1.03092E-03 2.90192E-01 9.26015E-14 2.16351E-13
 -1      3549 1.99311E+01 2.69289E-01 2.94248E-04 3.06879E-01 6.05718E-14 1.08392E-13
 -1      3550 1.99940E+01 1.67146E-01-8.21357E-04 1.91837E-01-6.54174E-14 8.08218E-14
 -1      3551 1.99982E+01 1.86258E-01 8.67569E-04 2.21525E-01 1.04737E-14 2.26675E-14
 -1      3552 1.99526E+01 2.24555E-01 2.82910E-04 2.34919E-01 7.11752E-15-6.88011E-14
 -1      3553 1.99994E+01 1.32875E-01-6.77733E-04 1.41929E-01-2.43996E-14-3.94085E-15
 -1      3554 2.00029E+01 1.49961E-01 7.21661E-04 1.65770E-01-4.15805E-14 6.95070E-14
 -1      3555 1.99698E+01 1.82094E-01 2.40762E-04 1.76587E-01 1.97829E-14-1.47943E-13
 -1      3556 2.00032E+01 1.03159E-01-5.43027E-04 1.02639E-01-8.35838E-14 6.75172E-14
 -1      3557 2.00062E+01 1.17808E-01 5.92176E-04 1.21396E-01-6.26332E-14 3.79226E-14
 -1      3558 1.99829E+01 1.44062E-01 1.88781E-04 1.30130E-01-9.40463E-14-8.21488E-14
 -1      3559 2.00055E+01 7.82786E-02-4.23840E-04 7.22933E-02-1.37845E-13 1.54143E-13
 -1      3560 2.00081E+01 9.04360E-02 4.78786E-04 8.67579E-02-4.15513E-14 1.30765E-13
 -1      3561 1.99923E+01 1.11385E-01 1.38225E-04 9.37750E-02-8.43851E-14 1.17732E-13
 -1      3562 2.00068E+01 5.80349E-02-3.22711E-04 4.93062E-02-2.15583E-14 1.19450E-13
 -1      3563 2.00089E+01 6.78532E-02 3.81139E-04 6.02366E-02-1.23833E-13 6.76329E-14
 -1      3564 1.99987E+01 8.42067E-02 9.44077E-05 6.58269E-02-1.18649E-13 1.10645E-13
 -1      3565 2.00071E+01 4.19687E-02-2.39684E-04 3.22458E-02-9.56316E-15 1.03143E-13
 -1      3566 2.00089E+01 4.97091E-02 2.98548E-04 4.03313E-02 5.15406E-14 1.92402E-13
 -1      3567 2.00028E+01 6.22055E-02 5.91704E-05 4.47369E-02-4.41388E-14 1.50754E-13
 -1      3568 2.00069E+01 2.95062E-02-1.73390E-04 1.98644E-02-1.97588E-13 5.30447E-14
 -1      3569 2.00084E+01 3.54729E-02 2.29950E-04 2.57074E-02-1.58406E-13 5.08816E-14
 -1      3570 2.00052E+01 4.48172E-02 3.24541E-05 2.91354E-02-2.02473E-14 1.81440E-13
 -1      3571 2.00064E+01 2.00510E-02-1.21760E-04 1.11057E-02-7.00827E-14 5.23803E-15
 -1      3572 2.00076E+01 2.45497E-02 1.73987E-04 1.52164E-02-1.60191E-13 5.17012E-14
 -1      3573 2.00063E+01 3.13781E-02 1.32720E-05 1.78458E-02-9.94867E-14 1.52441E-13
 -1      3574 2.00056E+01 1.30375E-02-8.24924E-05 5.09786E-03 3.89394E-14 6.76897E-14
 -1      3575 2.00066E+01 1.63527E-02 1.29128E-04 7.89707E-03 6.34414E-14 5.14903E-14
 -1      3576 2.00066E+01 2.12161E-02 2.85322E-07 9.88206E-03-2.50904E-14-1.24610E-13
 -1      3577 2.00048E+01 7.95976E-03-5.33291E-05 1.13636E-03 1.03863E-13 3.44451E-14
 -1      3578 2.00056E+01 1.03427E-02 9.37922E-05 2.96351E-03 6.73320E-14 5.94740E-14
 -1      3579 2.00064E+01 1.37032E-02-7.87628E-06 4.43578E-03 2.09062E-14 9.33681E-14
 -1      3580 2.00040E+01 4.38319E-03-3.22110E-05-1.33620E-03-1.66399E-13-1.95453E-14
 -1      3581 2.00046E+01 6.04745E-03 6.64418E-05-2.13121E-04 6.09139E-14 3.89536E-14
 -1      3582 2.00058E+01 8.28280E-03-1.24517E-05 8.57273E-04 3.31255E-14 1.32336E-13
 -1      3583 2.00032E+01 1.94600E-03-1.73493E-05-2.75241E-03-2.25518E-13 1.53233E-13
 -1      3584 2.00037E+01 3.06807E-03 4.56527E-05-2.12603E-03-2.35444E-13 1.72088E-14
 -1      3585 2.00050E+01 4.47986E-03-1.44815E-05-1.36559E-03-1.91452E-13 1.28890E-13
 -1      3586 2.00025E+01 3.54656E-04-7.24598E-06-3.44145E-03-2.52344E-13 2.79099E-13
 -1      3587 2.00029E+01 1.07679E-03 3.01526E-05-3.15451E-03-2.19762E-13 1.96477E-13
 -1      3588 2.00043E+01 1.90075E-03-1.47943E-05-2.62899E-03-2.62164E-13 2.70608E-13
 -1      3589 2.00019E+01-6.23787E-04-6.80315E-07-3.64868E-03-1.40180E-13 1.05485E-13
 -1      3590 2.00022E+01-1.89353E-04 1.88388E-05-3.58445E-03-1.68913E-13 1.60570E-13
 -1      3591 2.00035E+01 2.27312E-04-1.40224E-05-3.23362E-03-1.26632E-13 1.06922E-13
 -1      3592 2.00014E+01-1.17065E-03 3.31450E-06-3.55291E-03 9.23507E-14 3.69298E-15
 -1      3593 2.00016E+01-9.36988E-04 1.07824E-05-3.62676E-03-5.26451E-14 6.35252E-14
 -1      3594 2.00028E+01-7.92221E-04-1.26304E-05-3.40311E-03-4.57545E-14-1.80863E-13
 -1      3595 2.00010E+01-1.42475E-03 5.48419E-06-3.28100E-03 2.28634E-13-8.41976E-14
 -1      3596 2.00012E+01-1.32560E-03 5.22209E-06-3.43333E-03 2.18552E-13 1.88325E-14
 -1      3597 2.00022E+01-1.35337E-03-1.09583E-05-3.30009E-03 1.81457E-13-1.34178E-13
 -1      3598 2.00007E+01-1.49071E-03 6.41347E-06-2.91988E-03-3.09158E-14-4.21510E-14
 -1      3599 2.00008E+01-1.47639E-03 1.55666E-06-3.11024E-03 1.12296E-13-8.91374E-14
 -1      3600 2.00016E+01-1.60558E-03-9.24023E-06-3.03970E-03 1.47256E-13-1.04737E-14
 -1      3601 2.00004E+01-1.44631E-03 6.55433E-06-2.52645E-03-2.10836E-16-4.99046E-14
 -1      3602 2.00005E+01-1.47998E-03-7.07290E-07-2.72874E-03 1.56550E-15 6.40063E-15
 -1      3603 2.00012E+01-1.66105E-03-7.56332E-06-2.70050E-03 1.51997E-15 6.56814E-14
 -1      3604 2.00002E+01-1.35004E-03 5.80693E-06-2.13558E-03-2.72915E-13 9.51851E-14
 -1      3605 2.00002E+01-1.40397E-03-2.00237E-06-2.33440E-03-1.21217E-13-1.33493E-14
 -1      3606 2.00008E+01-1.60339E-03-6.13774E-06-2.33416E-03-1.00113E-13-7.16603E-14
 -1      3607 2.00000E+01-1.24386E-03 3.83865E-06-1.76599E-03-4.07597E-13 2.05294E-13
 -1      3608 2.00001E+01-1.29633E-03-2.19366E-06-1.95171E-03-4.05473E-13 1.50192E-13
 -1      3609 2.00005E+01-1.49383E-03-4.01298E-06-1.97297E-03-3.49517E-13 2.03077E-13
 -1      3610 2.83131E+01-1.50760E+00-1.00578E-02 1.68592E+00-2.83044E-13-8.84508E-13
 -1      3611 1.56710E+01-5.77935E-01 1.22237E-01-3.80821E+00 2.68429E-13 1.82045E-13
 -1      3612 1.74168E+01-1.43256E+00-1.83704E-03-3.91851E+00 2.76062E-13 5.77316E-15
 -1      3613 2.00013E+01-1.99387E-03 6.60176E-07 4.26617E-04-1.53088E-13-4.92319E-14
 -1      3614 2.00014E+01-2.01590E-03 3.32942E-06 1.54582E-04-2.17818E-13 8.21824E-14
 -1      3615 2.51158E+01 7.05453E-01-2.99361E-02-1.88255E+00 2.93397E-13-4.43123E-13
 -1      3616 1.82931E+01-3.04053E-01-2.09322E-02 2.63136E+00 1.27752E-13-2.58196E-13
 -1      3617 2.50449E+01-3.96047E-01-7.54155E-02-1.62647E+00 2.19180E-13-4.36587E-13
 -1      3618 1.75365E+01-2.29836E+00-5.39127E-02 4.60168E+00-4.45314E-13-8.36518E-14
 -1      3619 1.55437E+01-1.21639E+00 8.30851E-02 4.40140E+00-3.89754E-13 1.19710E-13
 -1      3620 2.41340E+01-2.23758E+00 2.99441E-02-8.44237E-02-6.17223E-14-3.42134E-13
 -1      3621 2.44636E+01-1.90140E+00 2.13869E-03-5.34819E-01 2.04070E-14-3.50735E-13
 -1      3622 1.37963E+01-4.98013E-01 1.51925E-02 3.87766E+00-2.96506E-13 3.11778E-13
 -1      3623 1.25021E+01 3.41873E-01 4.76972E-02 2.63964E+00-2.04827E-13 5.27398E-13
 -1      3624 1.55392E+01-5.80797E-01 6.33617E-02 3.64056E+00-3.18478E-13 1.18124E-13
 -1      3625 1.17312E+01 2.03439E+00 1.03917E-01-3.75478E+00-3.06012E-13-7.39103E-13
 -1      3626 2.45491E+01 3.07389E+00-5.38346E-02 1.95437E+00 5.00412E-13 2.37449E-14
 -1      3627 2.46994E+01 2.17569E+00-6.21535E-02 2.28067E+00 4.31433E-13 9.90250E-14
 -1      3628 2.45796E+01 3.87941E+00-4.69025E-02 1.13071E+00 5.76976E-13-8.09335E-14
 -1      3629 2.52432E+01 1.08776E+00 4.04603E-04 2.47787E+00 3.17541E-13 1.81927E-13
 -1      3630 2.30413E+01-2.11347E+00 2.37663E-02 5.40589E-01-1.32067E-13-2.29774E-13
 -1      3631 2.34913E+01-2.13849E+00 9.86225E-03 1.32356E-01-9.87394E-14-2.62193E-13
 -1      3632 2.36323E+01-2.91628E+00-3.88290E-02 1.02754E+00-1.75982E-13-3.62398E-13
 -1      3633 2.25737E+01-2.31277E+00-8.64220E-03 1.19270E+00-2.08590E-13-2.45035E-13
 -1      3634 2.17454E+01-3.40694E+00-3.69324E-02 3.26432E+00-3.60630E-13-3.68882E-13
 -1      3635 1.98814E+01-2.82930E+00 9.57417E-02 4.20212E+00-3.96110E-13-2.78484E-13
 -1      3636 2.49077E+01 2.65530E-01-1.21188E-02 2.19994E+00 2.29183E-13 1.34625E-13
 -1      3637 1.39552E+01 5.93327E-01 3.61861E-02 2.18478E+00-1.64576E-13 4.01540E-13
 -1      3638 1.25861E+01 7.83622E-01 7.64823E-02 1.79556E+00-1.26238E-13 5.91343E-13
 -1      3639 1.28762E+01 9.90941E-01 6.27498E-04 8.28158E-01-2.10413E-14 5.34336E-13
 -1      3640 2.45729E+01 4.43462E+00-1.41297E-01 2.72975E-01 6.03129E-13-2.24411E-13
 -1      3641 1.28745E+01 9.54945E-01 2.96420E-02-9.70663E-01 8.19206E-14 4.69302E-13
 -1      3642 1.26625E+01 7.01720E-01 8.66542E-02-1.99246E+00 1.67474E-13 4.79450E-13
 -1      3643 2.44210E+01-1.71053E+00-8.94833E-02 8.20585E-02-4.27054E-14 5.60580E-14
 -1      3644 2.00002E+01-1.38415E-03-7.04644E-07 1.88360E-03 4.91947E-14-4.02069E-13
 -1      3645 2.00002E+01-1.32394E-03 2.92536E-06 1.72849E-03 2.64136E-14-2.26251E-13
 -1      3646 2.00003E+01-1.42150E-03-1.27795E-06 1.65715E-03 1.06243E-13-7.83257E-14
 -1      3647 2.00006E+01-1.57599E-03-5.49169E-06 1.86356E-03 9.44978E-14-1.04159E-13
 -1      3648 2.00013E+01-1.93435E-03 5.98401E-06 7.21498E-04 3.68516E-14-3.42588E-13
 -1      3649 2.00015E+01-2.03652E-03-4.83450E-06 6.19632E-04-1.55857E-13-8.66478E-14
 -1      3650 2.00011E+01-1.87463E-03-4.54302E-06 9.63734E-04 1.27161E-14-8.99701E-14
 -1      3651 1.99999E+01-1.19675E-03-1.40984E-06-1.59466E-03-1.86155E-13 9.95057E-14
 -1      3652 2.45574E+01-5.73132E-01-9.33839E-03 1.85149E+00 1.52596E-13 1.05722E-13
 -1      3653 2.00012E+01-1.93195E-03 5.07280E-06-7.26305E-04 1.92288E-13-1.32830E-14
 -1      3654 2.00011E+01-1.86264E-03-8.38707E-07-9.68388E-04 1.01363E-13-2.59064E-13
 -1      3655 1.40474E+01 1.08683E-01 3.75085E-02-2.89895E+00 1.82045E-13 3.39347E-13
 -1      3656 2.00016E+01-2.09046E-03-4.86344E-06-2.31259E-06-2.19727E-13 2.29306E-14
 -1      3657 2.00014E+01-2.01506E-03 3.33058E-06-1.58192E-04-1.19441E-13 2.56552E-14
 -1      3658 2.00013E+01-1.99180E-03 7.75965E-07-4.29675E-04 3.88970E-14-2.05777E-14
 -1      3659 1.89474E+01-2.13932E+00 3.99955E-02 3.87954E+00-3.87737E-13-1.68032E-13
 -1      3660 2.00002E+01-1.37720E-03-3.30453E-06-1.62297E-03-2.08918E-13 5.14731E-14
 -1      3661 2.00010E+01-1.76494E-03 7.52151E-06-1.17602E-03 1.34610E-13-1.88411E-13
 -1      3662 2.00008E+01-1.67720E-03-3.63580E-06-1.33422E-03 2.94783E-14-2.12992E-13
 -1      3663 2.00012E+01-1.88934E-03-4.35801E-06-1.13910E-03 1.35978E-13-6.76170E-14
 -1      3664 2.50949E+01-1.37259E+00 3.13725E-02-1.11857E+00 9.50628E-14-4.38222E-13
 -1      3665 2.77773E+01-1.24311E+00-3.93086E-02 1.98749E+00-2.93980E-13-8.14078E-13
 -1      3666 2.33527E+01-3.03930E+00 1.11104E-02 1.60297E+00-2.48943E-13-2.86483E-13
 -1      3667 2.27003E+01-3.34995E+00 2.54519E-02 2.62917E+00-3.32288E-13-2.70725E-13
 -1      3668 2.14832E+01-2.87026E+00-4.01405E-03 2.90073E+00-2.93229E-13-2.53696E-13
 -1      3669 2.26649E+01-2.74904E+00 7.92587E-03 1.70050E+00-2.73510E-13-2.82082E-13
 -1      3670 2.00005E+01-1.50117E-03 4.37835E-06 1.56124E-03 1.71315E-13-3.75375E-14
 -1      3671 2.00007E+01-1.61131E-03-6.89992E-08 1.62040E-03 2.12170E-13-2.75359E-14
 -1      3672 2.00007E+01-1.62749E-03-4.92834E-06 1.41643E-03 1.21396E-13 4.50595E-14
 -1      3673 2.00009E+01-1.73055E-03 8.39329E-06 1.23609E-03-2.44605E-14 8.13203E-14
 -1      3674 2.00009E+01-1.68075E-03 5.25315E-06 1.70715E-03 7.05865E-14 3.18983E-14
 -1      3675 1.32411E+01 1.22383E+00 7.56846E-02-1.16813E-01 4.73820E-14 4.93458E-13
 -1      3676 1.38902E+01 1.02690E+00-1.21263E-02-1.06636E+00 8.98760E-14 4.33129E-13
 -1      3677 1.39601E+01 1.11307E+00 1.41471E-02 5.51951E-01-3.97477E-14 4.41744E-13
 -1      3678 2.03562E+01-8.11751E-01 8.38702E-03 1.67114E+00-1.53927E-13-5.22199E-14
 -1      3679 2.06808E+01-1.13592E+00 6.81934E-03 1.69127E+00-1.24297E-13-7.69016E-14
 -1      3680 1.67180E+01 8.12432E-01 3.15773E-03-1.85464E+00-2.06140E-14 2.85202E-13
 -1      3681 1.70004E+01 9.50684E-01-1.99857E-02-1.58761E+00-1.17637E-13 2.32641E-13
 -1      3682 1.74815E+01 1.03535E+00 2.98905E-03-1.40924E+00-1.34381E-13 1.90259E-13
 -1      3683 1.77175E+01 1.06981E+00-1.44972E-02-1.24265E+00-1.46080E-13 1.70988E-13
 -1      3684 1.67988E+01 1.18529E+00 2.14793E-02-1.17529E+00-1.32407E-13 2.65944E-13
 -1      3685 1.80742E+01 1.08575E+00 6.62107E-05-1.12675E+00-1.94885E-13 1.38955E-13
 -1      3686 1.82741E+01 1.07012E+00-9.98050E-03-1.00884E+00-1.67698E-13 1.92310E-14
 -1      3687 1.75834E+01 1.20870E+00 1.39489E-02-9.34647E-01-1.84250E-13 1.95933E-13
 -1      3688 1.85442E+01 1.04397E+00-8.30316E-04-9.26052E-01-1.43486E-13-1.79879E-14
 -1      3689 1.87065E+01 1.00012E+00-6.95653E-03-8.34841E-01-1.04192E-13-1.45786E-14
 -1      3690 1.81790E+01 1.15381E+00 1.05283E-02-7.71483E-01-1.57619E-13 7.51707E-14
 -1      3691 1.89121E+01 9.51909E-01-1.00814E-03-7.69679E-01-1.61345E-14 2.82183E-15
 -1      3692 1.90399E+01 8.94466E-01-5.08662E-03-6.93891E-01-6.43292E-15 2.47414E-14
 -1      3693 1.86336E+01 1.05274E+00 7.96591E-03-6.50220E-01-2.55151E-14-4.71541E-15
 -1      3694 1.91972E+01 8.36376E-01-8.27957E-04-6.38640E-01 6.50342E-14 9.83549E-15
 -1      3695 1.92952E+01 7.74381E-01-3.88716E-03-5.73455E-01 1.21533E-13 5.91240E-14
 -1      3696 1.89818E+01 9.29858E-01 6.10965E-03-5.49191E-01 7.34763E-14 1.36503E-13
 -1      3697 1.94155E+01 7.14451E-01-5.67233E-04-5.25224E-01 1.24582E-13 5.52950E-14
 -1      3698 1.94892E+01 6.53765E-01-3.06708E-03-4.68588E-01 1.23208E-13 8.03048E-14
 -1      3699 1.92485E+01 7.99658E-01 4.61768E-03-4.60131E-01 1.09366E-13-1.84799E-14
 -1      3700 1.95809E+01 5.96670E-01-3.00334E-04-4.26247E-01 7.16692E-14 7.21093E-14
 -1      3701 1.96352E+01 5.40570E-01-2.45254E-03-3.77357E-01 1.87005E-13 5.56686E-14
 -1      3702 1.94517E+01 6.72837E-01 3.50406E-03-3.80113E-01 8.31029E-14 7.81653E-15
 -1      3703 1.97045E+01 4.88842E-01-8.63533E-05-3.40606E-01 1.67433E-13-6.55218E-14
 -1      3704 1.97440E+01 4.39001E-01-1.96635E-03-2.98992E-01 8.40302E-14-1.37461E-13
 -1      3705 1.96057E+01 5.55368E-01 2.64559E-03-3.08758E-01 1.05002E-13-4.32365E-15
 -1      3706 1.97960E+01 3.93749E-01 6.49284E-05-2.67640E-01 3.27627E-15-5.15327E-14
 -1      3707 1.98241E+01 3.50749E-01-1.57093E-03-2.32831E-01-4.15798E-14-2.72217E-14
 -1      3708 1.97212E+01 4.50590E-01 1.98498E-03-2.46272E-01 5.31097E-14-7.03978E-14
 -1      3709 1.98627E+01 3.12195E-01 1.57869E-04-2.06611E-01-3.56235E-14 9.46218E-15
 -1      3710 1.98824E+01 2.75947E-01-1.24539E-03-1.78024E-01-4.29199E-14-2.94624E-14
 -1      3711 1.98070E+01 3.59774E-01 1.47783E-03-1.92737E-01-5.22267E-14-2.57425E-14
 -1      3712 1.99108E+01 2.43794E-01 2.04369E-04-1.56541E-01-1.15113E-13 1.11462E-14
 -1      3713 1.99243E+01 2.13830E-01-9.77012E-04-1.33495E-01-1.61085E-13 4.15452E-14
 -1      3714 1.98699E+01 2.82868E-01 1.08990E-03-1.47903E-01-3.88844E-14 5.48683E-14
 -1      3715 1.99448E+01 1.87500E-01 2.17846E-04-1.16246E-01-9.50508E-14 1.41057E-13
 -1      3716 1.99538E+01 1.63155E-01-7.56984E-04-9.80048E-02-3.35851E-14 1.77449E-13
 -1      3717 1.99154E+01 2.19018E-01 7.94787E-04-1.11183E-01-7.39482E-14 6.52183E-14
 -1      3718 1.99684E+01 1.41947E-01 2.10068E-04-8.44298E-02-5.40883E-14 7.23447E-14
 -1      3719 1.99743E+01 1.22481E-01-5.78344E-04-7.02527E-02-1.16760E-13 1.61154E-13
 -1      3720 1.99478E+01 1.66936E-01 5.71819E-04-8.17451E-02-6.42045E-14-1.06342E-13
 -1      3721 1.99844E+01 1.05662E-01 1.90147E-04-5.97796E-02-1.76525E-13 2.94226E-13
 -1      3722 1.99880E+01 9.03350E-02-4.35042E-04-4.89637E-02-1.40287E-13 2.61842E-13
 -1      3723 1.99704E+01 1.25143E-01 4.04723E-04-5.86302E-02-1.22927E-13 8.94493E-14
 -1      3724 1.99949E+01 7.71972E-02 1.64562E-04-4.10463E-02-1.86386E-13 2.00694E-13
 -1      3725 1.99969E+01 6.53131E-02-3.21617E-04-3.29527E-02-1.36521E-13 9.92223E-14
 -1      3726 1.99857E+01 9.21295E-02 2.80679E-04-4.08487E-02-2.45453E-13 2.75641E-13
 -1      3727 2.00014E+01 5.52078E-02 1.37587E-04-2.70939E-02-9.75659E-14 1.33656E-14
 -1      3728 2.00024E+01 4.61372E-02-2.33116E-04-2.11625E-02-8.50246E-14 3.82955E-14
 -1      3729 1.99958E+01 6.64534E-02 1.89615E-04-2.74523E-02-1.77239E-13 2.45219E-13
 -1      3730 2.00052E+01 3.84882E-02 1.11823E-04-1.69275E-02-3.50637E-15 4.65245E-14
 -1      3731 2.00055E+01 3.16795E-02-1.65103E-04-1.26811E-02-3.23068E-14 2.01403E-13
 -1      3732 2.00020E+01 4.67988E-02 1.23648E-04-1.75793E-02-5.29155E-14 1.15013E-13
 -1      3733 2.00071E+01 2.59891E-02 8.86745E-05-9.70092E-03-1.48512E-13 1.20726E-13
 -1      3734 2.00070E+01 2.09708E-02-1.13677E-04-6.74316E-03-2.23121E-13 1.08249E-13
 -1      3735 2.00056E+01 3.20033E-02 7.66270E-05-1.04768E-02-7.77104E-14-9.01209E-14
 -1      3736 2.00077E+01 1.68181E-02 6.87503E-05-4.71312E-03-1.74922E-13 1.55658E-13
 -1      3737 2.00074E+01 1.31948E-02-7.54766E-05-2.72194E-03-1.77899E-13 1.52687E-13
 -1      3738 2.00074E+01 2.10660E-02 4.37798E-05-5.50805E-03-1.79091E-13 5.48967E-14
 -1      3739 2.00076E+01 1.02308E-02 5.21529E-05-1.39616E-03-2.16516E-13 2.18477E-13
 -1      3740 2.00072E+01 7.67736E-03-4.76569E-05-1.15121E-04-1.30275E-13 1.83988E-13
 -1      3741 2.00080E+01 1.31439E-02 2.14198E-05-2.14877E-03-9.19308E-14 2.36577E-13
 -1      3742 2.00070E+01 5.61720E-03 3.86914E-05 7.00599E-04-1.46124E-13 2.93230E-13
 -1      3743 2.00066E+01 3.87049E-03-2.78584E-05 1.47183E-03-8.81073E-14 4.01615E-13
 -1      3744 2.00078E+01 7.54062E-03 6.71767E-06 2.26810E-05-3.49354E-14 4.52873E-13
 -1      3745 2.00062E+01 2.48582E-03 2.80229E-05 1.92776E-03-9.22992E-14 4.05034E-13
 -1      3746 2.00057E+01 1.33626E-03-1.41565E-05 2.34272E-03-5.89345E-14 4.05647E-13
 -1      3747 2.00071E+01 3.69046E-03-2.48189E-06 1.33809E-03-5.65276E-14 5.79903E-13
 -1      3748 2.00053E+01 4.46570E-04 1.97448E-05 2.55278E-03-8.07864E-14 3.91865E-13
 -1      3749 2.00049E+01-2.70220E-04-5.00686E-06 2.72689E-03-2.95628E-14 3.35026E-13
 -1      3750 2.00063E+01 1.14163E-03-7.80597E-06 2.05321E-03-9.38058E-14 4.17204E-13
 -1      3751 2.00044E+01-8.05445E-04 1.34522E-05 2.77564E-03 1.04195E-13 7.62347E-14
 -1      3752 2.00040E+01-1.21649E-03 8.19697E-07 2.79381E-03 2.34901E-13-1.09013E-13
 -1      3753 2.00053E+01-4.61221E-04-1.04659E-05 2.36110E-03-1.08699E-13 7.69723E-14
 -1      3754 2.00035E+01-1.50510E-03 8.77703E-06 2.74263E-03 2.15223E-13-2.38816E-13
 -1      3755 2.00032E+01-1.70730E-03 4.26437E-06 2.66589E-03-4.45441E-14-2.01525E-13
 -1      3756 2.00044E+01-1.39338E-03-1.13426E-05 2.40439E-03 1.21328E-13-3.75592E-13
 -1      3757 2.00028E+01-1.83106E-03 5.39359E-06 2.55801E-03-3.07433E-13-1.84309E-13
 -1      3758 2.00025E+01-1.89721E-03 6.06796E-06 2.42884E-03-2.26931E-13-2.40129E-13
 -1      3759 2.00035E+01-1.86540E-03-1.11178E-05 2.28608E-03-1.09031E-13-1.89452E-13
 -1      3760 2.00021E+01-1.91707E-03 3.00901E-06 2.29361E-03-6.90312E-14-2.23398E-13
 -1      3761 2.00018E+01-1.90127E-03 6.59150E-06 2.14072E-03-1.05888E-13-1.40343E-13
 -1      3762 2.00027E+01-2.03576E-03-1.02226E-05 2.07776E-03-1.99306E-13-7.16309E-14
 -1      3763 2.00015E+01-1.85894E-03 2.19026E-06 1.99775E-03-7.11075E-14-9.58671E-14
 -1      3764 2.00013E+01-1.80840E-03 3.81110E-06 1.84210E-03 8.15433E-14 8.26698E-14
 -1      3765 2.00020E+01-2.02088E-03-8.61592E-06 1.82883E-03 5.79401E-15 6.66568E-15
 -1      3766 1.97479E+01 5.71258E-02 1.16084E-03 1.25689E+00-8.05495E-14-5.74426E-14
 -1      3767 1.98638E+01-9.57053E-02 7.24335E-03 1.33986E+00-1.07523E-13-2.22889E-14
 -1      3768 1.99508E+01-2.94528E-01 3.67880E-03 1.47412E+00-1.25897E-13-3.21874E-14
 -1      3769 2.01556E+01-5.27246E-01 8.81480E-03 1.53910E+00-1.14006E-13-5.54566E-14
 -1      3770 1.98216E+01-6.14921E-01-9.42426E-03 1.81325E+00-1.39039E-13-1.10256E-13
 -1      3771 1.95546E+01-1.20177E-01-6.06208E-03 1.51506E+00-1.28590E-13-6.11189E-14
 -1      3772 2.10671E+01-1.49822E+00 1.68090E-02 1.76631E+00-1.67587E-13-1.10852E-13
 -1      3773 2.15086E+01-1.89357E+00 5.41478E-04 1.70946E+00-2.16300E-13-1.63981E-13
 -1      3774 2.03700E+01-1.33264E+00-1.91875E-02 2.08564E+00-1.54640E-13-1.51933E-13
 -1      3775 1.96692E+01 2.71854E-01-3.15213E-04 1.05035E+00-1.07617E-14-5.38100E-15
 -1      3776 1.97271E+01 1.81566E-01 5.14954E-03 1.13608E+00-4.63706E-14 5.42096E-15
 -1      3777 1.94574E+01 1.96491E-01-4.23657E-03 1.24196E+00-9.83423E-14-2.24745E-14
 -1      3778 1.96627E+01 3.83082E-01-1.26009E-03 8.65182E-01-1.35822E-13 1.14800E-13
 -1      3779 1.96858E+01 3.39451E-01 3.63634E-03 9.45691E-01-7.25743E-14 5.96693E-14
 -1      3780 1.94584E+01 3.79364E-01-2.04954E-03 1.00726E+00-1.07957E-13 3.96660E-14
 -1      3781 1.96939E+01 4.23719E-01-1.63099E-03 7.03775E-01-1.67600E-13 2.05921E-13
 -1      3782 1.96973E+01 4.11772E-01 2.61165E-03 7.76421E-01-1.44011E-13 1.52747E-13
 -1      3783 1.95098E+01 4.65381E-01-5.34493E-04 8.10737E-01-1.80869E-13 9.89981E-14
 -1      3784 1.97413E+01 4.18643E-01-1.72666E-03 5.65411E-01-8.90099E-14 1.14774E-13
 -1      3785 1.97349E+01 4.26735E-01 1.89524E-03 6.29349E-01-8.62661E-14 1.70439E-13
 -1      3786 1.95828E+01 4.85789E-01 2.74785E-04 6.47606E-01-9.19731E-14 8.45623E-14
 -1      3787 1.97926E+01 3.86324E-01-1.65612E-03 4.48395E-01-8.27840E-14 2.36907E-14
 -1      3788 1.97822E+01 4.05938E-01 1.41151E-03 5.03523E-01-2.55560E-14 1.00957E-13
 -1      3789 1.96608E+01 4.65103E-01 6.77794E-04 5.12754E-01-5.11159E-14 1.00322E-14
 -1      3790 1.98409E+01 3.39990E-01-1.49941E-03 3.50773E-01-9.41697E-14 1.07852E-14
 -1      3791 1.98298E+01 3.65110E-01 1.08044E-03 3.97428E-01-1.20169E-13 2.38872E-14
 -1      3792 1.97345E+01 4.20853E-01 8.25606E-04 4.01914E-01-8.98639E-14 7.35301E-14
 -1      3793 1.98829E+01 2.88618E-01-1.30407E-03 2.70434E-01 6.96373E-14-3.91019E-14
 -1      3794 1.98728E+01 3.15236E-01 8.47746E-04 3.09229E-01-1.99748E-14 7.54801E-15
 -1      3795 1.97993E+01 3.65490E-01 8.24681E-04 3.11462E-01-6.27091E-14-6.96174E-15
 -1      3796 1.99174E+01 2.37912E-01-1.09933E-03 2.05239E-01 1.65106E-14-7.31646E-14
 -1      3797 1.99091E+01 2.63536E-01 6.77950E-04 2.36950E-01 8.92430E-14 1.41063E-16
 -1      3798 1.98534E+01 3.07313E-01 7.46262E-04 2.38285E-01 5.24379E-15-7.67838E-14
 -1      3799 1.99446E+01 1.91201E-01-9.02687E-04 1.53098E-01-1.20661E-14-2.00070E-13
 -1      3800 1.99382E+01 2.14426E-01 5.48299E-04 1.78585E-01 5.41611E-15-1.33486E-13
 -1      3801 1.98969E+01 2.51493E-01 6.34167E-04 1.79686E-01 8.89169E-14-4.54682E-14
 -1      3802 1.99652E+01 1.50161E-01-7.24048E-04 1.12021E-01-1.30803E-13-9.44727E-14
 -1      3803 1.99606E+01 1.70329E-01 4.45220E-04 1.32162E-01-6.76634E-14-1.21340E-13
 -1      3804 1.99306E+01 2.00952E-01 5.14395E-04 1.33308E-01-8.28979E-14-4.92078E-14
 -1      3805 1.99803E+01 1.15370E-01-5.68195E-04 8.01636E-02-1.39960E-13 1.74625E-14
 -1      3806 1.99772E+01 1.32312E-01 3.60883E-04 9.58113E-02-1.27446E-13-7.35386E-15
 -1      3807 1.99560E+01 1.57058E-01 4.01453E-04 9.70729E-02-1.47983E-13-7.26428E-14
 -1      3808 1.99909E+01 8.67200E-02-4.36509E-04 5.58614E-02-1.62292E-13 7.32927E-14
 -1      3809 1.99889E+01 1.00566E-01 2.90776E-04 6.78056E-02-1.35380E-13 9.83570E-14
 -1      3810 1.99745E+01 1.20155E-01 3.02494E-04 6.91575E-02-1.80835E-13 3.60758E-14
 -1      3811 1.99980E+01 6.37076E-02-3.28206E-04 3.76474E-02-9.65393E-14 1.36115E-13
 -1      3812 1.99969E+01 7.47557E-02 2.32193E-04 4.65962E-02-1.78155E-13 4.45305E-14
 -1      3813 1.99874E+01 8.99558E-02 2.20108E-04 4.79785E-02-1.86151E-13 5.18131E-14
 -1      3814 2.00025E+01 4.56367E-02-2.41233E-04 2.42585E-02-9.28469E-15 3.15765E-13
 -1      3815 2.00020E+01 5.42597E-02 1.83358E-04 3.08286E-02 8.93262E-15 3.46699E-13
 -1      3816 1.99962E+01 6.58224E-02 1.54210E-04 3.21784E-02-1.49608E-13 2.09631E-13
 -1      3817 2.00050E+01 3.17482E-02-1.72909E-04 1.46303E-02-1.05799E-14 2.17303E-13
 -1      3818 2.00050E+01 3.83364E-02 1.42949E-04 1.93448E-02 6.23800E-15 3.11330E-13
 -1      3819 2.00018E+01 4.69525E-02 1.03280E-04 2.06111E-02-9.42540E-16 3.56394E-13
 -1      3820 2.00063E+01 2.13006E-02-1.20361E-04 7.88315E-03-7.23099E-14 1.40936E-13
 -1      3821 2.00065E+01 2.62268E-02 1.09861E-04 1.11764E-02-4.64849E-15 1.42040E-13
 -1      3822 2.00050E+01 3.25055E-02 6.51609E-05 1.23242E-02 5.64147E-14 4.80328E-13
 -1      3823 2.00066E+01 1.36157E-02-8.07936E-05 3.30352E-03 2.54544E-14 1.83170E-13
 -1      3824 2.00070E+01 1.72159E-02 8.31005E-05 5.52841E-03-2.79342E-14 1.65276E-13
 -1      3825 2.00067E+01 2.16774E-02 3.75405E-05 6.53895E-03-7.09022E-14 4.05615E-13
 -1      3826 2.00064E+01 8.10080E-03-5.16579E-05 3.22987E-04-1.57273E-14 2.38418E-13
 -1      3827 2.00069E+01 1.06656E-02 6.17499E-05 1.76109E-03 3.26114E-14 2.08777E-13
 -1      3828 2.00072E+01 1.37421E-02 1.82280E-05 2.62847E-03 5.42640E-14 2.87457E-13
 -1      3829 2.00058E+01 4.25475E-03-3.07233E-05-1.50341E-03-2.60667E-13 1.13370E-13
 -1      3830 2.00063E+01 6.02787E-03 4.49608E-05-6.31734E-04-1.53932E-13 9.77066E-14
 -1      3831 2.00071E+01 8.07000E-03 5.28953E-06 9.63975E-05-5.05127E-14 2.85973E-13
 -1      3832 2.00051E+01 1.66549E-03-1.61056E-05-2.51788E-03-2.27214E-13 1.25087E-13
 -1      3833 2.00055E+01 2.84588E-03 3.19608E-05-2.04331E-03-2.12359E-13 1.26716E-13
 -1      3834 2.00065E+01 4.13253E-03-2.90064E-06-1.44403E-03-2.76191E-13 7.92787E-14
 -1      3835 2.00043E+01 1.79979E-06-6.25586E-06-2.97873E-03 4.64105E-14-7.40679E-14
 -1      3836 2.00047E+01 7.48464E-04 2.20598E-05-2.77366E-03-6.03478E-14 1.21751E-13
 -1      3837 2.00058E+01 1.49684E-03-7.65916E-06-2.28912E-03-6.52485E-14-2.68915E-13
 -1      3838 2.00035E+01-9.97108E-04 7.90005E-08-3.07704E-03-2.85529E-14-1.53174E-13
 -1      3839 2.00039E+01-5.59652E-04 1.46508E-05-3.04729E-03 1.32822E-14-7.30126E-14
 -1      3840 2.00049E+01-1.83605E-04-1.00181E-05-2.66179E-03 3.71522E-14 9.78351E-15
 -1      3841 2.00028E+01-1.53292E-03 3.88323E-06-2.95112E-03 1.77019E-13-1.02603E-13
 -1      3842 2.00031E+01-1.30881E-03 9.21019E-06-3.02878E-03 3.47277E-14-1.20807E-13
 -1      3843 2.00040E+01-1.18074E-03-1.07565E-05-2.72647E-03-6.18342E-14 2.87675E-14
 -1      3844 2.00021E+01-1.75941E-03 5.89291E-06-2.69847E-03 1.62374E-14 1.02243E-14
 -1      3845 2.00024E+01-1.67579E-03 5.31759E-06-2.83594E-03 2.00265E-13 3.32098E-14
 -1      3846 2.00032E+01-1.70436E-03-1.04869E-05-2.60207E-03 1.10858E-13-1.30376E-13
 -1      3847 2.00016E+01-1.79183E-03 6.68085E-06-2.38461E-03-4.15289E-14 2.14618E-13
 -1      3848 2.00018E+01-1.79458E-03 2.66190E-06-2.55007E-03-2.71452E-14 1.40002E-13
 -1      3849 2.00025E+01-1.91485E-03-9.75244E-06-2.37157E-03-1.40746E-13 1.79533E-13
 -1      3850 2.00011E+01-1.71568E-03 6.27872E-06-2.05311E-03-5.37596E-14 2.41794E-13
 -1      3851 2.00013E+01-1.76384E-03 1.02269E-06-2.22522E-03 8.80298E-16 2.40823E-13
 -1      3852 2.00019E+01-1.93099E-03-8.83585E-06-2.09143E-03-2.89446E-14 4.66287E-13
 -1      3853 2.00015E+01-2.03508E-03-4.53107E-06-6.25443E-04 4.80796E-14-1.40286E-13
 -1      3854 1.52024E+01 2.29558E-01-1.00421E-02-2.65171E+00 1.73014E-13 2.63317E-13
 -1      3855 2.47846E+01-2.38750E-01 4.61769E-03 2.07150E+00 1.77899E-13 1.41030E-13
 -1      3856 2.00005E+01-1.48673E-03 4.01934E-06-1.54823E-03-1.52116E-13 1.31048E-14
 -1      3857 1.65904E+01-8.31616E-01-2.99057E-02 3.54204E+00-3.59521E-13-4.74967E-14
 -1      3858 1.53131E+01-2.75383E-02 2.23997E-02 3.00420E+00-2.66565E-13 8.83512E-14
 -1      3859 1.47677E+01 9.66765E-01 7.41443E-02-1.74466E+00 1.05598E-13 4.35838E-13
 -1      3860 1.59344E+01 3.98179E-01 3.93469E-03-2.46166E+00 8.87142E-14 2.85464E-13
 -1      3861 1.62336E+01 6.81229E-01-3.21219E-02-2.04921E+00 7.00822E-14 2.48299E-13
 -1      3862 1.47106E+01 1.06774E+00-2.12660E-02-1.02993E+00 5.54799E-14 4.26060E-13
 -1      3863 1.97806E+01-2.13735E+00-2.15236E-02 3.29965E+00-3.19140E-13-2.36313E-13
 -1      3864 1.81706E+01-1.37306E+00 5.28467E-02 3.60893E+00-3.97921E-13-7.04827E-14
 -1      3865 2.00007E+01-1.62001E-03-1.19142E-06-1.58679E-03-7.46088E-14 1.69293E-14
 -1      3866 1.59415E+01 1.10860E+00 4.95669E-02-1.48298E+00 2.21813E-14 3.61906E-13
 -1      3867 2.00013E+01-1.85542E-03-6.04091E-06 1.57850E-03 9.91193E-14 8.44061E-15
 -1      3868 1.78623E+01-8.19692E-01 3.60266E-02 3.10413E+00-3.22221E-13-5.85599E-14
 -1      3869 2.19214E+01-2.22254E+00 5.89691E-03 1.74025E+00-2.61595E-13-2.41946E-13
 -1      3870 2.00019E+01-2.12097E-03 3.92228E-06-5.20879E-04-2.40883E-13-4.64100E-13
 -1      3871 2.00018E+01-2.07536E-03-1.34797E-06-8.24564E-04 4.07654E-14-3.58142E-13
 -1      3872 2.00007E+01-1.60060E-03 7.62427E-07-1.72973E-03-1.90284E-13 1.11537E-13
 -1      3873 2.00009E+01-1.65866E-03-8.56274E-07-1.89347E-03-8.29894E-14 1.90888E-13
 -1      3874 2.00012E+01-1.85889E-03-9.87909E-07 1.20503E-03 1.00654E-13-3.45177E-14
 -1      3875 2.00020E+01-2.15416E-03 1.97922E-06 1.57154E-04-3.44118E-13 1.39786E-13
 -1      3876 2.00020E+01-2.15431E-03 1.45936E-06-1.63687E-04-2.89123E-13-1.49823E-13
 -1      3877 2.00022E+01-2.20541E-03-3.93474E-06-3.68331E-04-3.95180E-13-4.36853E-13
 -1      3878 2.00020E+01-2.10297E-03-1.65643E-07-1.00901E-03 1.31137E-14-2.50077E-13
 -1      3879 2.00016E+01-1.99209E-03 5.45804E-06-1.09927E-03 1.54451E-13-6.71802E-15
 -1      3880 2.00014E+01-1.91416E-03-3.69057E-06-1.31200E-03 1.32387E-13-4.39970E-14
 -1      3881 2.08207E+01-2.20618E+00 2.59620E-02 2.73629E+00-2.81675E-13-2.78367E-13
 -1      3882 1.99643E+01-1.60367E+00-5.07070E-03 2.66740E+00-2.64273E-13-2.24239E-13
 -1      3883 2.00018E+01-2.07988E-03-1.35035E-06 8.16460E-04-9.99820E-14-3.73529E-15
 -1      3884 2.00019E+01-2.12454E-03 5.16334E-06 5.15992E-04-3.87043E-13 2.43906E-13
 -1      3885 2.00022E+01-2.21026E-03-3.74769E-06 3.58750E-04-4.01886E-13 6.83819E-14
 -1      3886 1.49997E+01 4.09667E-01 2.97293E-02 2.48960E+00-2.58304E-13 1.91526E-13
 -1      3887 1.47879E+01 7.57716E-01-1.15813E-02 1.75161E+00-1.88693E-13 2.56347E-13
 -1      3888 1.61541E+01 2.51946E-01 2.68809E-02 2.43208E+00-2.45661E-13 3.74058E-14
 -1      3889 2.00013E+01-1.83966E-03-6.35921E-06-1.79656E-03-6.66399E-14 2.97975E-13
 -1      3890 1.93761E+01-7.49521E-01-2.13865E-03 2.21513E+00-1.53695E-13-1.58520E-13
 -1      3891 1.97569E+01-1.14425E+00 1.35002E-02 2.37795E+00-2.00648E-13-1.84181E-13
 -1      3892 1.88268E+01-1.02764E+00-2.13017E-02 2.79168E+00-2.56646E-13-1.15052E-13
 -1      3893 2.00011E+01-1.77122E-03 6.68417E-06-1.50237E-03 7.85932E-14-4.71409E-14
 -1      3894 1.71513E+01 1.23955E+00-7.69219E-03-6.40823E-01-1.50859E-13 2.14929E-13
 -1      3895 1.75021E+01 1.22322E+00-1.09965E-02-5.67903E-01-2.24529E-13 1.60235E-13
 -1      3896 1.78557E+01 1.19012E+00-5.64011E-03-5.48927E-01-2.20830E-13 1.44488E-13
 -1      3897 1.81206E+01 1.14526E+00-7.59800E-03-4.98657E-01-1.18279E-13 1.25991E-13
 -1      3898 1.75666E+01 1.26191E+00 1.43224E-02-2.71291E-01-2.30960E-13 2.18350E-13
 -1      3899 1.83844E+01 1.09450E+00-4.27088E-03-4.83237E-01-2.25267E-14 1.02072E-13
 -1      3900 1.85865E+01 1.03718E+00-5.24429E-03-4.41903E-01 2.30854E-14 1.42715E-13
 -1      3901 1.81610E+01 1.16375E+00 1.07469E-02-2.76840E-01-9.01694E-14 2.62361E-13
 -1      3902 1.87875E+01 9.76390E-01-3.03268E-03-4.24166E-01 1.00815E-14 1.15888E-13
 -1      3903 1.89423E+01 9.12241E-01-3.79997E-03-3.86835E-01 2.31618E-14 9.95049E-14
 -1      3904 1.86104E+01 1.04456E+00 7.99980E-03-2.68676E-01-1.11099E-14 1.88732E-13
 -1      3905 1.90962E+01 8.48027E-01-2.29032E-03-3.67516E-01 5.93893E-14 1.43332E-13
 -1      3906 1.92144E+01 7.83367E-01-2.96833E-03-3.32492E-01 8.68955E-14 1.13584E-13
 -1      3907 1.89546E+01 9.13829E-01 5.71034E-03-2.51789E-01 2.84631E-14 1.39464E-13
 -1      3908 1.93334E+01 7.20318E-01-1.61332E-03-3.12122E-01 2.43887E-14 3.81433E-14
 -1      3909 1.94229E+01 6.58569E-01-2.38154E-03-2.79612E-01 7.43687E-14 1.45909E-14
 -1      3910 1.92203E+01 7.83114E-01 4.36202E-03-2.26050E-01 4.59368E-14 1.59602E-13
 -1      3911 1.95144E+01 5.99825E-01-1.11178E-03-2.59494E-01 4.15889E-14-3.04681E-14
 -1      3912 1.95817E+01 5.43382E-01-1.93357E-03-2.29991E-01-1.90093E-14-1.43679E-13
 -1      3913 1.94251E+01 6.57647E-01 3.33317E-03-1.96149E-01-9.25933E-15-8.46192E-14
 -1      3914 1.96518E+01 4.90665E-01-7.31113E-04-2.11061E-01 5.36067E-14-1.26205E-13
 -1      3915 1.97018E+01 4.40712E-01-1.57296E-03-1.85007E-01 1.04460E-13-7.52066E-14
 -1      3916 1.95820E+01 5.42339E-01 2.54842E-03-1.64962E-01 3.13866E-14-2.57156E-13
 -1      3917 1.97550E+01 3.94757E-01-4.56732E-04-1.67958E-01 1.33923E-14-2.35383E-14
 -1      3918 1.97917E+01 3.51689E-01-1.27255E-03-1.45572E-01-9.48614E-14-1.76584E-15
 -1      3919 1.97013E+01 4.39690E-01 1.94232E-03-1.34817E-01 1.37044E-14-1.38548E-13
 -1      3920 1.98316E+01 3.12574E-01-2.66650E-04-1.30786E-01-1.02090E-13 7.51403E-15
 -1      3921 1.98582E+01 2.76258E-01-1.01883E-03-1.12041E-01-7.61297E-14-2.21501E-14
 -1      3922 1.97910E+01 3.50694E-01 1.47014E-03-1.07293E-01-1.13377E-13-7.40676E-14
 -1      3923 1.98878E+01 2.43642E-01-1.39826E-04-9.96278E-02-6.08435E-14-3.24176E-14
 -1      3924 1.99068E+01 2.13610E-01-8.04842E-04-8.43039E-02-6.10784E-14 2.32142E-15
 -1      3925 1.98577E+01 2.75267E-01 1.10194E-03-8.32524E-02-1.04592E-13-4.46933E-14
 -1      3926 1.99284E+01 1.86907E-01-5.86549E-05-7.41771E-02-1.34600E-13-8.06082E-14
 -1      3927 1.99417E+01 1.62510E-01-6.26166E-04-6.19287E-02-4.22473E-14-7.72959E-14
 -1      3928 1.99066E+01 2.12614E-01 8.15973E-04-6.29991E-02-9.53808E-14-7.73759E-14
 -1      3929 1.99571E+01 1.41018E-01-9.33486E-06-5.38792E-02 5.93412E-14-1.73016E-13
 -1      3930 1.99662E+01 1.21527E-01-4.79095E-04-4.42970E-02-9.08525E-14-3.85980E-14
 -1      3931 1.99417E+01 1.61517E-01 5.95430E-04-4.64532E-02-3.11375E-15-1.61720E-13
 -1      3932 1.99770E+01 1.04506E-01 1.84846E-05-3.80534E-02-2.22676E-13-2.25256E-14
 -1      3933 1.99830E+01 8.91852E-02-3.59985E-04-3.07135E-02-2.22569E-13-2.42588E-15
 -1      3934 1.99664E+01 1.20554E-01 4.26924E-04-3.33005E-02-8.60768E-14-2.53859E-13
 -1      3935 1.99903E+01 7.59205E-02 3.22906E-05-2.59856E-02-2.45647E-13 9.38567E-14
 -1      3936 1.99941E+01 6.40709E-02-2.65147E-04-2.04826E-02-2.03573E-13 7.38961E-14
 -1      3937 1.99833E+01 8.82565E-02 2.99612E-04-2.31068E-02-1.62225E-13-1.16859E-13
 -1      3938 1.99989E+01 5.38999E-02 3.73308E-05-1.69894E-02-1.09300E-13 5.77339E-14
 -1      3939 2.00011E+01 4.48868E-02-1.90944E-04-1.29562E-02-3.78349E-14-7.83757E-14
 -1      3940 1.99945E+01 6.32072E-02 2.04675E-04-1.53987E-02-2.05186E-13 3.51228E-14
 -1      3941 2.00041E+01 3.72194E-02 3.71764E-05-1.04428E-02-1.33215E-13-4.54126E-14
 -1      3942 2.00052E+01 3.04842E-02-1.33919E-04-7.56017E-03-1.97601E-13-1.18790E-13
 -1      3943 2.00016E+01 4.41041E-02 1.34950E-04-9.71480E-03-9.09710E-14 1.34597E-14
 -1      3944 2.00069E+01 2.48094E-02 3.41865E-05-5.80574E-03-1.31794E-13 3.14336E-14
 -1      3945 2.00074E+01 1.98731E-02-9.09127E-05-3.80505E-03-1.01577E-13 1.23457E-13
 -1      3946 2.00057E+01 2.97921E-02 8.46486E-05-5.63546E-03-6.60174E-14-2.86728E-14
 -1      3947 2.00082E+01 1.57585E-02 2.98691E-05-2.62474E-03-8.44720E-14 1.81481E-13
 -1      3948 2.00081E+01 1.22197E-02-5.91267E-05-1.28585E-03 9.70697E-14 3.38571E-13
 -1      3949 2.00078E+01 1.92753E-02 4.91336E-05-2.79691E-03-1.86060E-14 1.24417E-13
 -1      3950 2.00084E+01 9.30653E-03 2.51498E-05-5.29560E-04 6.54689E-14 2.03202E-13
 -1      3951 2.00081E+01 6.83510E-03-3.61567E-05 3.23702E-04-5.22434E-14 3.12526E-13
 -1      3952 2.00085E+01 1.17144E-02 2.47208E-05-8.95123E-04-4.06059E-14 1.04553E-13
 -1      3953 2.00079E+01 4.83149E-03 2.05658E-05 7.74844E-04-1.29685E-13 2.45264E-13
 -1      3954 2.00075E+01 3.16087E-03-1.99871E-05 1.28042E-03-5.59319E-14 2.76800E-13
 -1      3955 2.00084E+01 6.41683E-03 8.51533E-06 3.16474E-04-4.36218E-14-1.26019E-13
 -1      3956 2.00071E+01 1.83306E-03 1.64017E-05 1.51832E-03-2.36436E-13 2.60608E-13
 -1      3957 2.00066E+01 7.51506E-04-8.96773E-06 1.78198E-03-2.45981E-13 1.02878E-13
 -1      3958 2.00078E+01 2.82133E-03-1.73254E-06 1.03274E-03-1.71718E-13-9.20141E-14
 -1      3959 2.00062E+01-8.46376E-05 1.27821E-05 1.87610E-03-2.01711E-13 6.83880E-14
 -1      3960 2.00057E+01-7.42656E-04-1.77773E-06 1.97722E-03-1.35717E-13-1.52641E-13
 -1      3961 2.00069E+01 4.80915E-04-7.74871E-06 1.40398E-03-2.85526E-13-7.71668E-14
 -1      3962 2.00052E+01-1.22993E-03 9.73461E-06 1.97873E-03-2.36466E-14-1.05258E-13
 -1      3963 2.00047E+01-1.59177E-03 2.66731E-06 1.97561E-03 3.36573E-14-2.35667E-13
 -1      3964 2.00058E+01-9.54698E-04-1.08199E-05 1.54343E-03-4.65357E-14 1.16831E-13
 -1      3965 2.00042E+01-1.83930E-03 7.21887E-06 1.92150E-03 1.00593E-13-2.55873E-13
 -1      3966 2.00038E+01-2.00184E-03 5.24622E-06 1.85585E-03-7.24702E-14-6.70047E-14
 -1      3967 2.00048E+01-1.75535E-03-1.17844E-05 1.53417E-03 6.79140E-14 1.39003E-13
 -1      3968 2.00033E+01-2.09285E-03 4.89665E-06 1.77238E-03-2.28004E-13 5.91724E-14
 -1      3969 2.00029E+01-2.12854E-03 5.80071E-06 1.67285E-03-1.17988E-13 1.18262E-13
 -1      3970 2.00039E+01-2.12620E-03-1.14877E-05 1.43706E-03-9.13522E-15 3.16423E-13
 -1      3971 2.00025E+01-2.12346E-03 3.22446E-06 1.57475E-03-8.66595E-14 1.91104E-13
 -1      3972 2.00022E+01-2.09044E-03 4.66702E-06 1.46108E-03 3.02979E-14 1.48148E-13
 -1      3973 2.00030E+01-2.22430E-03-9.12268E-06 1.29707E-03-1.10659E-13 5.54501E-13
 -1      3974 1.92491E+01 5.11013E-01-3.31461E-03 9.14336E-01-1.71207E-13 1.29137E-13
 -1      3975 1.92408E+01 4.63379E-01 4.81571E-03 1.02158E+00-1.17100E-13 7.75192E-14
 -1      3976 1.93598E+01 5.54461E-01-3.06786E-03 7.18907E-01-1.36481E-13 1.07290E-14
 -1      3977 1.93327E+01 5.43086E-01 3.20700E-03 8.06817E-01-1.67934E-13 4.07730E-14
 -1      3978 1.91092E+01 6.14399E-01 8.59319E-04 8.15388E-01-1.35994E-13 1.18310E-13
 -1      3979 1.94747E+01 5.45031E-01-2.75479E-03 5.63023E-01-5.04219E-14-3.48612E-14
 -1      3980 1.94401E+01 5.56606E-01 2.06122E-03 6.35085E-01-8.83551E-14-1.98914E-15
 -1      3981 1.92655E+01 6.27153E-01 1.39393E-03 6.28136E-01-8.32048E-14-3.18479E-14
 -1      3982 1.95828E+01 5.03406E-01-2.38344E-03 4.38294E-01-4.61673E-14 4.67663E-14
 -1      3983 1.95474E+01 5.28498E-01 1.34528E-03 4.97250E-01-2.80360E-14 1.25041E-14
 -1      3984 1.94113E+01 5.95535E-01 1.61627E-03 4.82992E-01-7.03341E-14-4.18185E-14
 -1      3985 1.96783E+01 4.44839E-01-2.02016E-03 3.38618E-01-4.58587E-14-9.68686E-14
 -1      3986 1.96457E+01 4.76527E-01 8.85937E-04 3.86670E-01-1.91603E-15-9.73712E-15
 -1      3987 1.95404E+01 5.37925E-01 1.59424E-03 3.70203E-01 7.41501E-15-1.12092E-14
 -1      3988 1.97588E+01 3.79888E-01-1.68414E-03 2.59144E-01 3.45883E-15-1.61452E-13
 -1      3989 1.97308E+01 4.13487E-01 5.99158E-04 2.98084E-01-5.22012E-14-1.23795E-13
 -1      3990 1.96500E+01 4.68112E-01 1.45057E-03 2.82271E-01 1.08499E-14-1.41226E-13
 -1      3991 1.98245E+01 3.15422E-01-1.38207E-03 1.96081E-01-6.56868E-14-3.20601E-14
 -1      3992 1.98015E+01 3.47942E-01 4.20517E-04 2.27385E-01-8.62360E-14-1.10424E-13
 -1      3993 1.97402E+01 3.95336E-01 1.25520E-03 2.13617E-01-8.32046E-14-1.08112E-13
 -1      3994 1.98764E+01 2.55581E-01-1.11628E-03 1.46399E-01 6.30950E-16 9.52689E-14
 -1      3995 1.98583E+01 2.85275E-01 3.07620E-04 1.71318E-01 5.78595E-15 6.51299E-14
 -1      3996 1.98124E+01 3.25471E-01 1.04594E-03 1.60097E-01-1.23197E-13 1.67447E-14
 -1      3997 1.99164E+01 2.02553E-01-8.87086E-04 1.07617E-01-1.06929E-13 9.81067E-14
 -1      3998 1.99026E+01 2.28556E-01 2.34245E-04 1.27227E-01-3.79021E-15 1.09968E-13
 -1      3999 1.98688E+01 2.61940E-01 8.44568E-04 1.18556E-01-3.61843E-14 1.27161E-13
 -1      4000 1.99463E+01 1.57192E-01-6.93299E-04 7.76710E-02-1.22708E-13 4.60441E-14
 -1      4001 1.99361E+01 1.79231E-01 1.84448E-04 9.29078E-02-1.46447E-13 3.37952E-14
 -1      4002 1.99118E+01 2.06422E-01 6.63013E-04 8.65267E-02-1.10146E-13 5.24595E-14
 -1      4003 1.99681E+01 1.19487E-01-5.32567E-04 5.48365E-02-2.03087E-13 7.96495E-14
 -1      4004 1.99608E+01 1.37667E-01 1.48736E-04 6.65103E-02-1.49945E-13 7.08496E-14
 -1      4005 1.99437E+01 1.59403E-01 5.06747E-04 6.20481E-02-1.16995E-13 6.01796E-14
 -1      4006 1.99834E+01 8.89063E-02-4.01716E-04 3.76695E-02-1.93876E-13 1.21556E-13
 -1      4007 1.99785E+01 1.03554E-01 1.21596E-04 4.64766E-02-2.15357E-13 1.24268E-13
 -1      4008 1.99667E+01 1.20617E-01 3.77057E-04 4.35409E-02-2.38472E-13 6.36632E-14
 -1      4009 1.99938E+01 6.46484E-02-2.97112E-04 2.49693E-02-2.49991E-13 2.51804E-13
 -1      4010 1.99906E+01 7.61982E-02 9.99116E-05 3.15008E-02-2.57946E-13 1.31455E-13
 -1      4011 1.99829E+01 8.93513E-02 2.72681E-04 2.97267E-02-2.71376E-13 2.27662E-13
 -1      4012 2.00005E+01 4.58032E-02-2.14980E-04 1.57460E-02-1.07088E-13 4.14121E-13
 -1      4013 1.99986E+01 5.47247E-02 8.19639E-05 2.04969E-02-2.00076E-13 2.77524E-13
 -1      4014 1.99938E+01 6.46761E-02 1.90956E-04 1.95697E-02-2.32967E-13 1.74637E-13
 -1      4015 2.00045E+01 3.14602E-02-1.51646E-04 9.19240E-03 6.86563E-15 4.32289E-13
 -1      4016 2.00035E+01 3.82117E-02 6.68150E-05 1.25708E-02 4.56425E-14 3.97732E-13
 -1      4017 2.00008E+01 4.55928E-02 1.28612E-04 1.22339E-02-5.91238E-14 2.97367E-13
 -1      4018 2.00067E+01 2.07712E-02-1.03710E-04 4.65787E-03 5.00539E-14 2.37318E-13
 -1      4019 2.00063E+01 2.57728E-02 5.39427E-05 6.99553E-03 6.70303E-15 3.55731E-13
 -1      4020 2.00050E+01 3.11292E-02 8.22752E-05 7.04824E-03 6.51435E-14 2.51151E-13
 -1      4021 2.00075E+01 1.29837E-02-6.81394E-05 1.62518E-03 2.91485E-14 3.49545E-13
 -1      4022 2.00076E+01 1.66039E-02 4.30301E-05 3.18738E-03-1.81689E-15 2.76420E-13
 -1      4023 2.00072E+01 2.03946E-02 4.87738E-05 3.47895E-03 1.73174E-14 1.66142E-13
 -1      4024 2.00075E+01 7.45296E-03-4.23138E-05-3.11319E-04-2.01960E-14 2.86191E-13
 -1      4025 2.00078E+01 1.00046E-02 3.38532E-05 6.84340E-04 1.41666E-13 3.81470E-13
 -1      4026 2.00080E+01 1.26074E-02 2.52956E-05 1.10573E-03 8.50997E-14 3.06519E-13
 -1      4027 2.00070E+01 3.64240E-03-2.40277E-05-1.46508E-03-2.14530E-13-1.34703E-14
 -1      4028 2.00074E+01 5.38415E-03 2.62245E-05-8.74067E-04-1.94495E-13 1.39308E-13
 -1      4029 2.00080E+01 7.10318E-03 9.45127E-06-3.98491E-04 6.76746E-14 3.33752E-13
 -1      4030 2.00063E+01 1.11585E-03-1.14690E-05-2.07447E-03-4.16049E-14-5.31416E-14
 -1      4031 2.00067E+01 2.25661E-03 1.99695E-05-1.76479E-03-1.26819E-13-2.31208E-13
 -1      4032 2.00075E+01 3.33242E-03-7.22314E-07-1.28491E-03-6.61575E-14 9.62794E-14
 -1      4033 2.00054E+01-4.73873E-04-3.18992E-06-2.31763E-03-1.10659E-13 8.51646E-14
 -1      4034 2.00058E+01 2.31291E-04 1.49189E-05-2.19704E-03-2.43685E-14 1.18068E-16
 -1      4035 2.00066E+01 8.50461E-04-6.79519E-06-1.74361E-03-3.90101E-14 9.41769E-14
 -1      4036 2.00045E+01-1.39788E-03 1.95382E-06-2.32493E-03 1.67730E-13-1.03828E-13
 -1      4037 2.00049E+01-9.99841E-04 1.08993E-05-2.32586E-03 2.62922E-14 3.52390E-14
 -1      4038 2.00057E+01-6.95297E-04-9.98515E-06-1.91592E-03 8.02273E-14-1.35395E-13
 -1      4039 2.00036E+01-1.86355E-03 5.23680E-06-2.18969E-03-8.45867E-16-9.61370E-14
 -1      4040 2.00040E+01-1.67497E-03 7.70089E-06-2.26377E-03 1.31823E-13-1.19385E-13
 -1      4041 2.00047E+01-1.57890E-03-1.11248E-05-1.90457E-03 1.72255E-13-8.77355E-14
 -1      4042 2.00028E+01-2.03124E-03 6.67417E-06-1.98002E-03-1.59938E-13 7.11221E-14
 -1      4043 2.00031E+01-1.97625E-03 4.80365E-06-2.09303E-03-1.49902E-13 1.46113E-14
 -1      4044 2.00038E+01-2.00781E-03-1.11804E-05-1.78366E-03-1.58287E-13 4.49989E-14
 -1      4045 2.00021E+01-2.01603E-03 6.70864E-06-1.73425E-03-7.28406E-14 4.71531E-14
 -1      4046 2.00024E+01-2.03978E-03 3.65919E-06-1.86270E-03-1.15182E-13-1.37645E-14
 -1      4047 2.00029E+01-2.15247E-03-1.16610E-05-1.60969E-03-9.28426E-14-3.02081E-13
 -1      4048 2.00016E+01-1.97692E-03 5.05139E-06 1.29618E-03 1.30972E-13-5.44508E-14
 -1      4049 2.14380E+01-2.33203E+00-2.30787E-02 2.26181E+00-3.03267E-13-1.90490E-13
 -1      4050 1.48497E+01 1.32998E+00 5.06302E-02-2.73084E-01-8.47608E-14 3.71142E-13
 -1      4051 1.52988E+01 1.12436E+00-1.24932E-02-9.52050E-01-1.54334E-14 3.49809E-13
 -1      4052 1.57203E+01 1.18649E+00-2.14842E-02-8.28862E-01-8.91114E-14 2.59259E-13
 -1      4053 2.00014E+01-1.89871E-03 2.52991E-06-1.47170E-03-1.66894E-14-2.95979E-14
 -1      4054 1.45778E+01 1.08320E+00 3.78162E-02 1.17533E+00-1.74763E-13 3.40407E-13
 -1      4055 1.45946E+01 1.16307E+00-1.82259E-02 3.28977E-01-1.33767E-13 3.95780E-13
 -1      4056 1.52038E+01 1.21654E+00-5.69682E-03 3.01774E-01-2.00080E-13 3.42523E-13
 -1      4057 1.54747E+01 8.98830E-01 1.66896E-02 1.43836E+00-1.92991E-13 2.82776E-13
 -1      4058 1.91644E+01 3.84186E-01-3.31650E-03 1.15993E+00-1.43163E-13 2.38516E-14
 -1      4059 1.91920E+01 2.81189E-01 6.53691E-03 1.29055E+00-1.30788E-13-4.75043E-16
 -1      4060 1.89559E+01 5.30339E-01-1.46320E-04 1.06247E+00-1.87369E-13 1.42748E-13
 -1      4061 2.00026E+01-2.27079E-03 2.80162E-06-2.15309E-04-3.78702E-13-2.82148E-13
 -1      4062 2.00025E+01-2.24522E-03-6.90162E-07-5.74089E-04-2.25011E-13-6.61567E-13
 -1      4063 1.62751E+01 1.22069E+00-9.28036E-03-7.78747E-01-1.24355E-13 2.14704E-13
 -1      4064 1.67409E+01 1.24269E+00-1.71042E-02-6.62720E-01-1.16375E-13 2.48279E-13
 -1      4065 1.68414E+01 1.32351E+00 2.13471E-02-2.57612E-01-2.11847E-13 2.42027E-13
 -1      4066 1.59453E+01 1.34221E+00 3.15057E-02-2.46527E-01-1.24153E-13 1.45965E-13
 -1      4067 1.76594E+01-3.87685E-01 7.86530E-03 2.71928E+00-2.40956E-13-8.60432E-14
 -1      4068 2.00017E+01-1.96047E-03 1.62470E-06-1.60127E-03 2.19305E-14 1.00625E-13
 -1      4069 2.00020E+01-2.08430E-03-1.28340E-06 1.21274E-03-1.80428E-14 1.09368E-13
 -1      4070 2.00028E+01-2.23126E-03 1.79394E-06-9.68569E-04-1.67764E-13-4.71714E-13
 -1      4071 2.00024E+01-2.16826E-03 1.63717E-06-1.10762E-03-2.01320E-13-3.53923E-13
 -1      4072 1.91284E+01-1.63976E-01-5.33219E-03 1.77435E+00-1.79356E-13-1.24636E-13
 -1      4073 1.93255E+01-4.24393E-01 1.23102E-02 1.94646E+00-1.32913E-13-1.19090E-13
 -1      4074 1.86165E+01-2.68375E-01-8.72828E-03 2.15122E+00-1.94697E-13-7.42000E-14
 -1      4075 2.00021E+01-2.09941E-03-7.30052E-06-1.38559E-03-5.38561E-14-1.77165E-13
 -1      4076 1.91083E+01 1.75108E-01-4.56861E-03 1.43477E+00-1.08877E-13-4.13337E-14
 -1      4077 1.91961E+01 1.99631E-03 7.72808E-03 1.59106E+00-1.78635E-13-6.19237E-14
 -1      4078 1.86698E+01 1.52854E-01-3.16200E-03 1.67327E+00-2.14907E-13-2.23572E-14
 -1      4079 1.88131E+01 3.79970E-01 1.01996E-03 1.34392E+00-1.78064E-13 4.58006E-14
 -1      4080 2.00024E+01-2.19603E-03-5.36582E-07 9.66199E-04-1.23485E-13 2.86988E-13
 -1      4081 1.81050E+01-1.32245E-01 2.09978E-02 2.25504E+00-1.92106E-13-3.69336E-14
 -1      4082 1.70021E+01 2.02112E-02 4.35864E-03 2.50515E+00-2.56967E-13-4.67369E-14
 -1      4083 1.65936E+01 4.04206E-01-1.33536E-02 2.04639E+00-2.31772E-13 5.49001E-14
 -1      4084 1.80277E+01 1.20118E-01-5.46786E-03 1.96656E+00-2.56425E-13 7.23076E-15
 -1      4085 2.00025E+01-2.24520E-03 1.03903E-06 5.62022E-04-2.65470E-13 3.34097E-13
 -1      4086 2.00026E+01-2.27164E-03 2.08277E-06 2.04691E-04-3.41372E-13 3.47933E-14
 -1      4087 2.00029E+01-2.31594E-03-2.58602E-06-5.92635E-06-2.87039E-13-1.48041E-13
 -1      4088 2.00028E+01-2.25514E-03 6.47629E-07 8.15779E-04-2.19954E-13 4.93293E-13
 -1      4089 1.73387E+01 1.21271E+00-8.34374E-03 3.40071E-02-2.42740E-13 2.59690E-13
 -1      4090 1.76859E+01 1.18754E+00-4.67920E-03 5.19749E-03-1.68902E-13 2.99118E-13
 -1      4091 1.79646E+01 1.13949E+00-1.13982E-02-3.79870E-02-9.96958E-14 2.68267E-13
 -1      4092 1.82387E+01 1.09609E+00-4.46655E-03-5.83798E-02-9.50524E-14 2.26539E-13
 -1      4093 1.78519E+01 1.16960E+00 1.69722E-02 2.39468E-01-1.15363E-13 2.27515E-13
 -1      4094 1.84575E+01 1.04507E+00-5.78800E-03-9.46552E-02-1.02649E-13 2.27132E-13
 -1      4095 1.86600E+01 9.88070E-01-3.27531E-03-1.01370E-01-2.16396E-14 1.91744E-13
 -1      4096 1.83712E+01 1.06527E+00 1.17270E-02 1.18228E-01-9.10748E-14 1.49740E-13
 -1      4097 1.88290E+01 9.29423E-01-4.70302E-03-1.19216E-01 3.52242E-14 1.79759E-13
 -1      4098 1.89863E+01 8.69660E-01-2.09821E-03-1.16838E-01 1.56473E-14 1.88086E-13
 -1      4099 1.87412E+01 9.64861E-01 7.65573E-03 4.76638E-02-4.74701E-14 1.13830E-13
 -1      4100 1.91188E+01 8.06153E-01-3.67855E-03-1.26016E-01-2.73371E-14 1.42760E-13
 -1      4101 1.92402E+01 7.45720E-01-1.81241E-03-1.18589E-01-3.36066E-14 6.17752E-14
 -1      4102 1.90465E+01 8.47943E-01 6.98944E-03 1.61684E-04-1.00440E-13 1.13833E-13
 -1      4103 1.93442E+01 6.84583E-01-2.65977E-03-1.21036E-01-1.00413E-13 7.94873E-14
 -1      4104 1.94370E+01 6.26736E-01-1.54402E-03-1.10645E-01-4.00519E-14-6.45278E-14
 -1      4105 1.92830E+01 7.28280E-01 5.69815E-03-2.60027E-02-1.03314E-13 1.14813E-13
 -1      4106 1.95183E+01 5.70043E-01-1.91522E-03-1.08980E-01 1.58589E-15-7.58904E-14
 -1      4107 1.95889E+01 5.16937E-01-1.30614E-03-9.73327E-02-1.32946E-15-1.49091E-13
 -1      4108 1.94678E+01 6.12623E-01 4.58580E-03-3.75603E-02-5.47757E-14 1.07498E-13
 -1      4109 1.96519E+01 4.66090E-01-1.37155E-03-9.35091E-02 1.12835E-14-1.42213E-13
 -1      4110 1.97052E+01 4.18917E-01-1.08935E-03-8.18725E-02-2.66644E-14-1.73393E-13
 -1      4111 1.96112E+01 5.05486E-01 3.65015E-03-4.01718E-02-5.35147E-14-1.56464E-13
 -1      4112 1.97535E+01 3.74571E-01-9.74531E-04-7.71864E-02-8.02854E-14-1.89945E-13
 -1      4113 1.97932E+01 3.33797E-01-8.91816E-04-6.63778E-02-9.49294E-14-1.89305E-13
 -1      4114 1.97214E+01 4.09593E-01 2.86740E-03-3.77178E-02-8.18298E-14-2.43047E-13
 -1      4115 1.98297E+01 2.96034E-01-6.85575E-04-6.16345E-02-1.16882E-13-8.43081E-14
 -1      4116 1.98589E+01 2.61607E-01-7.15141E-04-5.21020E-02-8.84969E-14-9.24576E-14
 -1      4117 1.98051E+01 3.26174E-01 2.21857E-03-3.27667E-02 7.36185E-15-3.08463E-13
 -1      4118 1.98861E+01 2.30120E-01-4.76453E-04-4.77564E-02-1.50585E-13-8.43226E-14
 -1      4119 1.99073E+01 2.01648E-01-5.61116E-04-3.96784E-02-1.20714E-13-6.74669E-14
 -1      4120 1.98676E+01 2.55357E-01 1.68760E-03-2.69405E-02-1.13200E-13-1.35892E-13
 -1      4121 1.99271E+01 1.75890E-01-3.26167E-04-3.59470E-02-7.87014E-14-1.49679E-13
 -1      4122 1.99421E+01 1.52784E-01-4.30423E-04-2.93223E-02-5.03006E-14-2.26824E-13
 -1      4123 1.99135E+01 1.96520E-01 1.25962E-03-2.11963E-02-1.82329E-13-1.97102E-13
 -1      4124 1.99563E+01 1.32083E-01-2.19039E-04-2.62690E-02-1.90886E-14-2.45972E-13
 -1      4125 1.99667E+01 1.13662E-01-3.22416E-04-2.09880E-02-1.37671E-13-1.90778E-13
 -1      4126 1.99467E+01 1.48585E-01 9.20356E-04-1.60406E-02-6.22305E-14-3.47238E-13
 -1      4127 1.99766E+01 9.73082E-02-1.43391E-04-1.85867E-02-1.82189E-13-1.89898E-13
 -1      4128 1.99836E+01 8.28737E-02-2.35378E-04-1.44841E-02-1.68465E-13-7.96932E-14
 -1      4129 1.99700E+01 1.10240E-01 6.56145E-04-1.16893E-02-1.11595E-13-2.79712E-13
 -1      4130 1.99903E+01 7.01690E-02-9.05740E-05-1.26612E-02-1.48955E-13-7.89548E-14
 -1      4131 1.99948E+01 5.90511E-02-1.66916E-04-9.55200E-03-7.95653E-14-1.39637E-14
 -1      4132 1.99859E+01 8.01028E-02 4.54188E-04-8.18258E-03-8.58686E-14-2.87868E-13
 -1      4133 1.99991E+01 4.93493E-02-5.42169E-05-8.21511E-03-7.48650E-14 1.20940E-14
 -1      4134 2.00018E+01 4.09364E-02-1.14330E-04-5.91670E-03-7.76208E-14 2.67352E-14
 -1      4135 1.99964E+01 5.68279E-02 3.02861E-04-5.46243E-03-9.73586E-14-3.06110E-15
 -1      4136 2.00044E+01 3.36597E-02-2.96465E-05-4.97117E-03-1.34182E-13 5.50843E-15
 -1      4137 2.00059E+01 2.74127E-02-7.49041E-05-3.31671E-03-1.43283E-13-2.21835E-14
 -1      4138 2.00029E+01 3.91716E-02 1.91912E-04-3.42431E-03-1.35297E-13-2.86859E-14
 -1      4139 2.00073E+01 2.20604E-02-1.34502E-05-2.67538E-03-5.59526E-14-4.76546E-14
 -1      4140 2.00080E+01 1.75174E-02-4.60908E-05-1.51976E-03 5.31899E-14-1.49928E-14
 -1      4141 2.00066E+01 2.60289E-02 1.12546E-04-1.94852E-03-1.57152E-13-1.71782E-13
 -1      4142 2.00086E+01 1.36660E-02-3.14479E-06-1.10732E-03 2.96508E-14-2.22707E-14
 -1      4143 2.00087E+01 1.04404E-02-2.56264E-05-3.29018E-04-1.57191E-14-2.99918E-14
 -1      4144 2.00084E+01 1.64471E-02 5.74071E-05-9.18517E-04 1.03464E-13-1.94891E-13
 -1      4145 2.00088E+01 7.73965E-03 3.06946E-06-8.33893E-05-1.39468E-13 7.56030E-14
 -1      4146 2.00086E+01 5.51443E-03-1.15753E-05 4.16287E-04-7.64923E-14 3.87473E-14
 -1      4147 2.00089E+01 9.62530E-03 2.04813E-05-2.30144E-04 3.68978E-14 2.13761E-13
 -1      4148 2.00083E+01 3.67977E-03 6.49025E-06 5.44466E-04 9.23802E-15 2.61702E-14
 -1      4149 2.00079E+01 2.19990E-03-2.33398E-06 8.43594E-04-1.50952E-13 1.75162E-14
 -1      4150 2.00086E+01 4.90419E-03-3.03923E-06 2.04516E-04 5.03049E-14 1.90857E-13
 -1      4151 2.00075E+01 1.00440E-03 8.04611E-06 8.92343E-04-1.93629E-13 1.26409E-13
 -1      4152 2.00070E+01 6.81860E-05 3.39442E-06 1.05121E-03-3.81042E-14 2.79369E-13
 -1      4153 2.00079E+01 1.75182E-03-1.69097E-05 4.56689E-04 2.43938E-14 2.64765E-13
 -1      4154 2.00064E+01-6.66303E-04 8.39048E-06 1.04898E-03 3.48699E-14 2.61931E-13
 -1      4155 2.00059E+01-1.21573E-03 6.64757E-06 1.11295E-03 1.27373E-13 3.61455E-13
 -1      4156 2.00069E+01-2.53513E-04-2.39436E-05 5.82266E-04 2.12242E-14 3.53567E-13
 -1      4157 2.00054E+01-1.62727E-03 7.92039E-06 1.08029E-03 2.44250E-14 3.74200E-13
 -1      4158 2.00049E+01-1.90982E-03 7.90653E-06 1.08239E-03-2.88139E-14 3.71637E-13
 -1      4159 2.00058E+01-1.44010E-03-2.58599E-05 6.24242E-04 9.22052E-14 3.97928E-13
 -1      4160 2.00044E+01-2.10319E-03 7.06490E-06 1.03202E-03 7.75694E-14 3.92386E-13
 -1      4161 2.00039E+01-2.20622E-03 8.15045E-06 9.93264E-04 9.43021E-14 4.97035E-13
 -1      4162 2.00048E+01-2.05685E-03-2.12880E-05 6.15876E-04 1.10337E-13 4.41504E-13
 -1      4163 2.00035E+01-2.25614E-03 3.89226E-06 9.30117E-04 6.76922E-15 5.71544E-13
 -1      4164 2.00031E+01-2.26466E-03 3.96205E-06 8.73008E-04-7.60232E-14 6.51001E-13
 -1      4165 2.00032E+01-2.31741E-03-4.17883E-06 4.66902E-04-1.59428E-13 3.61761E-13
 -1      4166 2.00039E+01-2.27798E-03-1.19655E-05 5.50524E-04 1.41399E-13 5.33814E-13
 -1      4167 1.91750E+01 6.83337E-01-4.88036E-03 5.06292E-01-4.07226E-14-1.35821E-13
 -1      4168 1.91075E+01 7.03961E-01 2.60527E-03 5.83784E-01-5.37408E-14-4.78938E-14
 -1      4169 1.89730E+01 7.06512E-01-6.03161E-03 6.73272E-01-7.40575E-14 1.13460E-14
 -1      4170 1.89035E+01 7.03318E-01 3.04810E-03 7.75884E-01-1.33795E-13 9.21959E-14
 -1      4171 1.89147E+01 7.88358E-01 4.65327E-03 5.44717E-01-9.74112E-15-2.25770E-13
 -1      4172 1.95009E+01 5.53518E-01-3.06765E-03 2.86390E-01 3.35430E-14-1.20186E-13
 -1      4173 1.94454E+01 5.93841E-01 8.60166E-04 3.32371E-01 1.15872E-14-1.01325E-13
 -1      4174 1.96238E+01 4.73738E-01-2.43256E-03 2.14463E-01 1.01072E-14-7.08578E-14
 -1      4175 1.95771E+01 5.15547E-01 4.88052E-04 2.50220E-01 2.87540E-14-1.17931E-13
 -1      4176 1.94969E+01 5.76225E-01 4.61023E-03 2.16043E-01 3.32454E-14-1.51590E-13
 -1      4177 1.97230E+01 3.95016E-01-1.92333E-03 1.59629E-01-1.90766E-13 4.18197E-14
 -1      4178 1.96848E+01 4.35177E-01 2.69091E-04 1.87491E-01-1.04401E-13 4.27182E-14
 -1      4179 1.96247E+01 4.87130E-01 3.77953E-03 1.58403E-01-1.38317E-13-3.36004E-14
 -1      4180 1.98012E+01 3.21895E-01-1.51078E-03 1.17822E-01-1.13491E-13 9.12789E-14
 -1      4181 1.97709E+01 3.58534E-01 1.46842E-04 1.39506E-01-1.97855E-13 5.08669E-14
 -1      4182 1.97262E+01 4.02318E-01 3.03804E-03 1.15696E-01-2.17550E-13 1.15853E-13
 -1      4183 1.98616E+01 2.56854E-01-1.17575E-03 8.60204E-02-1.08537E-13 1.43734E-13
 -1      4184 1.98382E+01 2.89021E-01 8.31636E-05 1.02831E-01-7.41132E-14 1.08923E-13
 -1      4185 1.98052E+01 3.25327E-01 2.39617E-03 8.39888E-02-1.30222E-13 2.31185E-13
 -1      4186 1.99072E+01 2.00909E-01-9.04647E-04 6.19406E-02 2.84283E-14-3.41746E-14
 -1      4187 1.98897E+01 2.28298E-01 5.30361E-05 7.48905E-02-4.71478E-14 4.12601E-14
 -1      4188 1.98657E+01 2.57917E-01 1.85319E-03 6.04388E-02-4.64768E-14 5.20570E-14
 -1      4189 1.99409E+01 1.54098E-01-6.86912E-04 4.38322E-02-2.55863E-13 7.67393E-14
 -1      4190 1.99281E+01 1.76826E-01 4.07727E-05 5.37240E-02-4.92390E-14 7.15539E-14
 -1      4191 1.99109E+01 2.00599E-01 1.40368E-03 4.29761E-02-6.38989E-14 3.26390E-14
 -1      4192 1.99651E+01 1.15852E-01-5.13793E-04 3.03380E-02-2.43177E-13 1.90633E-13
 -1      4193 1.99560E+01 1.34290E-01 3.70075E-05 3.78147E-02-2.96285E-13 1.56761E-13
 -1      4194 1.99441E+01 1.53062E-01 1.03941E-03 3.00775E-02-3.37424E-13 1.79555E-13
 -1      4195 1.99820E+01 8.52677E-02-3.77770E-04 2.03973E-02-2.58935E-13 1.43059E-13
 -1      4196 1.99758E+01 9.99179E-02 3.64759E-05 2.59779E-02-2.14195E-13 6.46804E-14
 -1      4197 1.99677E+01 1.14497E-01 7.50419E-04 2.06104E-02-2.21772E-13 5.83243E-14
 -1      4198 1.99934E+01 6.12981E-02-2.72302E-04 1.31779E-02-9.40288E-14 6.30482E-14
 -1      4199 1.99894E+01 7.27113E-02 3.64706E-05 1.72816E-02-1.86084E-13 6.03115E-14
 -1      4200 1.99841E+01 8.38414E-02 5.26008E-04 1.37247E-02-1.42221E-13 3.48435E-14
 -1      4201 2.00007E+01 4.28777E-02-1.91702E-04 8.02591E-03 6.01844E-14 4.70602E-14
 -1      4202 1.99983E+01 5.15974E-02 3.58042E-05 1.09906E-02-9.08276E-14 1.17031E-13
 -1      4203 1.99950E+01 5.99413E-02 3.55526E-04 8.77748E-03-8.79567E-14-1.61537E-13
 -1      4204 2.00051E+01 2.90010E-02-1.31080E-04 4.42895E-03 4.45788E-15 6.90185E-14
 -1      4205 2.00038E+01 3.55306E-02 3.41367E-05 6.52555E-03 5.96529E-14 1.08189E-13
 -1      4206 2.00019E+01 4.16631E-02 2.28973E-04 5.27930E-03-4.78046E-14-1.95006E-13
 -1      4207 2.00074E+01 1.87649E-02-8.62808E-05 1.98715E-03-1.64011E-14 1.41653E-13
 -1      4208 2.00068E+01 2.35507E-02 3.15552E-05 3.43099E-03-1.26933E-14 8.18538E-14
 -1      4209 2.00059E+01 2.79581E-02 1.37381E-04 2.85682E-03-2.55966E-14-6.12471E-14
 -1      4210 2.00083E+01 1.13876E-02-5.38320E-05 3.90753E-04 1.03074E-13 1.23589E-13
 -1      4211 2.00082E+01 1.48120E-02 2.83230E-05 1.35140E-03 7.80187E-14 9.00614E-14
 -1      4212 2.00080E+01 1.78974E-02 7.29967E-05 1.22501E-03 1.63641E-14 5.35390E-14
 -1      4213 2.00083E+01 6.21164E-03-3.08745E-05-5.97988E-04 7.42345E-14 7.13616E-14
 -1      4214 2.00085E+01 8.59368E-03 2.47405E-05 1.14257E-05 9.17022E-14 1.65828E-13
 -1      4215 2.00087E+01 1.06844E-02 2.93206E-05 1.66863E-04 8.03316E-14-4.52073E-14
 -1      4216 2.00077E+01 2.69761E-03-1.50886E-05-1.15953E-03 2.56724E-14-1.01876E-13
 -1      4217 2.00081E+01 4.29736E-03 2.10762E-05-7.99991E-04 9.66819E-14 9.07453E-14
 -1      4218 2.00085E+01 5.65455E-03 1.05142E-06-4.81914E-04 5.50053E-14 1.58779E-14
 -1      4219 2.00068E+01 4.11945E-04-4.61445E-06-1.42903E-03 2.26822E-14-9.98046E-14
 -1      4220 2.00073E+01 1.43714E-03 1.75403E-05-1.24265E-03-9.29185E-15-3.46492E-14
 -1      4221 2.00079E+01 2.26538E-03-1.60247E-05-8.44754E-04 7.35054E-14-2.25049E-13
 -1      4222 2.00059E+01-9.87249E-04 2.02617E-06-1.50601E-03 2.67335E-13-1.27525E-13
 -1      4223 2.00064E+01-3.73686E-04 1.42844E-05-1.43584E-03 9.93670E-14-8.45592E-14
 -1      4224 2.00069E+01 8.32169E-05-2.51592E-05-1.01344E-03 5.73512E-14-3.10191E-13
 -1      4225 2.00048E+01-1.76505E-03 5.73589E-06-1.46190E-03 3.41560E-15-6.91214E-14
 -1      4226 2.00053E+01-1.43773E-03 1.13850E-05-1.46686E-03 1.23768E-13-1.17113E-13
 -1      4227 2.00059E+01-1.23244E-03-2.86802E-05-1.05552E-03 1.26353E-13-3.24470E-13
 -1      4228 2.00039E+01-2.11741E-03 1.08436E-05-1.34167E-03-6.88587E-14-2.09157E-13
 -1      4229 2.00043E+01-1.98775E-03 8.96497E-06-1.39550E-03-5.19013E-14-1.08685E-13
 -1      4230 2.00048E+01-1.94437E-03-2.68558E-05-1.01966E-03 2.20946E-15-3.61104E-13
 -1      4231 2.00031E+01-2.22617E-03 4.54425E-06-1.11042E-03 3.05994E-14-5.16486E-13
 -1      4232 2.00035E+01-2.20050E-03 3.95782E-06-1.18273E-03 8.25602E-14-3.59081E-13
 -1      4233 2.00040E+01-2.24886E-03-1.95884E-05-8.41967E-04 1.10729E-13-4.66294E-13
 -1      4234 2.00033E+01-2.31706E-03-8.30407E-06-5.69431E-04-1.17675E-13-5.71952E-13
 -1      4235 1.87533E+01 6.80144E-01-5.26995E-03 8.92108E-01-2.07123E-13 6.51735E-14
 -1      4236 1.86844E+01 6.36152E-01 4.12067E-03 1.03181E+00-2.37612E-13 2.47494E-14
 -1      4237 1.86581E+01 7.93237E-01 4.32945E-03 7.35471E-01-1.74357E-13-1.65645E-13
 -1      4238 1.93517E+01 6.27039E-01-3.87043E-03 3.81004E-01-4.11212E-14-7.50839E-14
 -1      4239 1.92885E+01 6.61062E-01 1.48405E-03 4.40460E-01-1.81253E-14-6.64671E-14
 -1      4240 1.91464E+01 7.39927E-01 6.08166E-03 4.00190E-01-1.95495E-14-2.06252E-13
 -1      4241 1.93389E+01 6.63626E-01 5.47558E-03 2.94092E-01 2.74490E-14-1.64817E-13
 -1      4242 1.57629E+01 1.18772E+00 2.14163E-02 7.53720E-01-1.74988E-13 3.48230E-13
 -1      4243 1.57469E+01 1.23615E+00-1.31981E-02 1.87931E-01-1.45162E-13 2.97766E-13
 -1      4244 1.62754E+01 1.24787E+00-9.54594E-03 1.57311E-01-1.61951E-13 2.63110E-13
 -1      4245 2.00033E+01-2.32600E-03 1.09488E-06 1.74955E-04-1.80136E-13 6.68660E-14
 -1      4246 2.00033E+01-2.32412E-03 4.07478E-06-2.48413E-04-1.99901E-13-3.12481E-13
 -1      4247 2.00037E+01-2.30223E-03 7.54332E-06-3.85341E-04-1.68908E-14-4.37594E-13
 -1      4248 2.00036E+01-2.30529E-03 2.96607E-06 2.17962E-04-5.37551E-15 2.11136E-13
 -1      4249 1.83386E+01 7.68963E-01 3.44371E-04 9.58011E-01-2.27613E-13-1.06228E-13
 -1      4250 1.85142E+01 5.80890E-01-1.03449E-02 1.16172E+00-2.49040E-13 4.82090E-16
 -1      4251 1.84563E+01 5.26284E-01 5.03457E-03 1.29472E+00-2.09051E-13-2.28864E-14
 -1      4252 1.62024E+01 7.40248E-01 1.07345E-02 1.69636E+00-2.04623E-13 1.26688E-13
 -1      4253 1.58515E+01 9.68011E-01-1.33259E-02 1.17612E+00-2.09576E-13 2.62986E-13
 -1      4254 1.63974E+01 1.03290E+00 4.79714E-03 9.97263E-01-1.77515E-13 2.37642E-13
 -1      4255 1.66530E+01 1.23790E+00-1.14648E-02 1.07308E-01-2.05813E-13 2.49977E-13
 -1      4256 1.70427E+01 1.23275E+00-8.43244E-03 7.72959E-02-2.48921E-13 2.85375E-13
 -1      4257 1.73090E+01 1.19324E+00 1.79650E-02 3.73262E-01-2.18746E-13 2.87607E-13
 -1      4258 1.66470E+01 1.20004E+00 1.21741E-02 5.25804E-01-1.72728E-13 2.17096E-13
 -1      4259 1.70104E+01 5.68663E-01 1.37271E-02 1.75641E+00-2.45175E-13 1.59160E-14
 -1      4260 1.82658E+01 1.01724E+00-8.81874E-03 3.19218E-01-1.16491E-13 1.37595E-14
 -1      4261 1.84940E+01 9.81342E-01-2.39043E-03 2.67202E-01-7.43410E-14-1.43726E-14
 -1      4262 1.87624E+01 8.83534E-01-5.95753E-03 2.88100E-01-3.95905E-15-1.43253E-13
 -1      4263 1.89349E+01 8.37979E-01-1.95981E-03 2.44092E-01-5.16858E-14-1.44928E-13
 -1      4264 1.90427E+01 7.92623E-01-6.23965E-03 1.89885E-01-1.09671E-13-5.25436E-14
 -1      4265 1.91789E+01 7.43448E-01-2.30253E-03 1.63269E-01-6.66380E-14-4.55194E-14
 -1      4266 1.92693E+01 6.93019E-01-5.16344E-03 1.24310E-01 7.07762E-15-4.01642E-14
 -1      4267 1.93766E+01 6.41975E-01-2.11235E-03 1.08752E-01 1.64872E-14-2.00039E-14
 -1      4268 1.94506E+01 5.90975E-01-4.13659E-03 8.05285E-02-3.95578E-14-7.72359E-15
 -1      4269 1.95346E+01 5.41347E-01-1.81967E-03 7.20762E-02-6.79332E-14-2.48915E-14
 -1      4270 1.95939E+01 4.92826E-01-3.27749E-03 5.15532E-02-1.73595E-13 2.25176E-14
 -1      4271 1.96590E+01 4.46870E-01-1.51484E-03 4.75744E-02-2.29179E-13-3.51570E-14
 -1      4272 1.97058E+01 4.02708E-01-2.57153E-03 3.25884E-02-1.64665E-13-2.76419E-14
 -1      4273 1.97556E+01 3.61716E-01-1.22525E-03 3.13002E-02-8.89637E-14-2.89541E-14
 -1      4274 1.97918E+01 3.22885E-01-1.99423E-03 2.03174E-02-1.97118E-14-9.23509E-14
 -1      4275 1.98294E+01 2.87404E-01-9.64004E-04 2.05351E-02 1.57612E-14-2.69941E-14
 -1      4276 1.98568E+01 2.54214E-01-1.52538E-03 1.24667E-02-4.08189E-14-6.60449E-14
 -1      4277 1.98848E+01 2.24272E-01-7.37641E-04 1.34299E-02-1.45217E-13 9.28788E-15
 -1      4278 1.99052E+01 1.96583E-01-1.14847E-03 7.49872E-03-2.43409E-13 7.52764E-14
 -1      4279 1.99256E+01 1.71869E-01-5.48209E-04 8.74257E-03-2.03959E-13 3.19422E-14
 -1      4280 1.99404E+01 1.49262E-01-8.49283E-04 4.38922E-03-1.80869E-13-6.20450E-14
 -1      4281 1.99550E+01 1.29268E-01-3.94585E-04 5.64735E-03-1.51532E-13-1.64771E-13
 -1      4282 1.99655E+01 1.11172E-01-6.15203E-04 2.46520E-03-8.79201E-14-2.22312E-13
 -1      4283 1.99756E+01 9.52969E-02-2.73612E-04 3.60022E-03-1.08439E-13-1.17880E-13
 -1      4284 1.99828E+01 8.10826E-02-4.34937E-04 1.29037E-03-1.03391E-13-2.06392E-13
 -1      4285 1.99896E+01 6.87048E-02-1.81041E-04 2.24469E-03-1.40895E-13-1.89073E-13
 -1      4286 1.99943E+01 5.77442E-02-2.98478E-04 5.85164E-04-9.05217E-14-1.92617E-13
 -1      4287 1.99987E+01 4.82667E-02-1.12244E-04 1.34774E-03-7.12090E-14-1.72132E-13
 -1      4288 2.00016E+01 3.99728E-02-1.97106E-04 1.72165E-04-7.72019E-14-1.27992E-13
 -1      4289 2.00042E+01 3.28509E-02-6.26994E-05 7.56777E-04-1.46792E-13-1.05280E-13
 -1      4290 2.00059E+01 2.66984E-02-1.23368E-04-6.03402E-05-1.06978E-13-5.82417E-14
 -1      4291 2.00073E+01 2.14534E-02-2.82863E-05 3.71373E-04-2.87733E-14-7.46599E-14
 -1      4292 2.00081E+01 1.69880E-02-7.10235E-05-1.82320E-04 3.44146E-14-6.68040E-14
 -1      4293 2.00087E+01 1.32111E-02-5.43471E-06 1.24803E-04 8.01825E-14-3.18252E-14
 -1      4294 2.00088E+01 1.00503E-02-3.49480E-05-2.37455E-04 1.51275E-13-2.63838E-14
 -1      4295 2.00089E+01 7.40089E-03 8.82790E-06-2.77640E-05 1.48437E-13 8.66365E-14
 -1      4296 2.00087E+01 5.23010E-03-1.10135E-05-2.52976E-04 1.86425E-16 3.01521E-14
 -1      4297 2.00085E+01 3.43050E-03 1.68928E-05-1.16832E-04 8.10375E-14-1.75311E-14
 -1      4298 2.00081E+01 1.99601E-03 4.03554E-06-2.45862E-04 2.13391E-13-1.18410E-13
 -1      4299 2.00076E+01 8.24022E-04 2.06120E-05-1.63385E-04 7.58869E-14-1.49842E-14
 -1      4300 2.00071E+01-7.49268E-05 1.26742E-05-2.26750E-04-3.04286E-14 3.45076E-14
 -1      4301 2.00066E+01-7.94028E-04 2.12874E-05-1.81951E-04 4.30770E-14-4.90470E-14
 -1      4302 2.00061E+01-1.31400E-03 1.64733E-05-2.02616E-04 9.32635E-14-1.44815E-13
 -1      4303 2.00055E+01-1.71550E-03 1.91217E-05-1.82634E-04 1.19252E-13-1.34394E-13
 -1      4304 2.00050E+01-1.97867E-03 1.47449E-05-1.79691E-04 1.15012E-13-1.76929E-13
 -1      4305 2.00044E+01-2.16687E-03 1.07747E-05-1.72138E-04 1.16852E-13-7.86667E-14
 -1      4306 2.00040E+01-2.25499E-03 1.04771E-05-5.11854E-05 1.20355E-13-9.09630E-14
 -1      4307 1.86192E+01 8.60383E-01-4.59992E-03 5.53677E-01-1.00380E-13-2.27787E-13
 -1      4308 1.84940E+01 8.67519E-01 2.93596E-03 6.51989E-01-2.01467E-13-1.89887E-13
 -1      4309 1.76090E+01 3.84331E-01-7.11885E-04 1.81854E+00-2.53709E-13 1.41772E-14
 -1      4310 1.71624E+01 6.71983E-01-1.03100E-02 1.49610E+00-2.57543E-13 1.58057E-14
 -1      4311 1.82110E+01 2.94355E-01 1.24672E-02 1.71136E+00-2.17144E-13 1.71830E-14
 -1      4312 1.82494E+01 4.04694E-01-6.39830E-03 1.53041E+00-1.87108E-13-1.93053E-14
 -1      4313 1.77994E+01 9.58057E-01-7.59215E-03 7.33929E-01-1.63932E-13 4.54185E-14
 -1      4314 1.80741E+01 9.57759E-01-1.62537E-03 6.23551E-01-1.49881E-13 5.72903E-14
 -1      4315 1.79861E+01 6.42794E-01 1.67205E-03 1.32456E+00-1.98217E-13-6.52838E-14
 -1      4316 1.86331E+01 9.17139E-01-3.35580E-05 3.58471E-01-5.67076E-14-1.77823E-13
 -1      4317 1.75430E+01 7.62074E-01 8.67515E-03 1.26828E+00-2.37575E-13-3.03147E-14
 -1      4318 1.69596E+01 9.09904E-01 5.30563E-03 1.20038E+00-2.14412E-13 6.58367E-14
 -1      4319 1.67546E+01 1.07121E+00-7.63185E-03 8.14419E-01-1.52602E-13 1.69405E-13
 -1      4320 1.77432E+01 8.59440E-01 3.66762E-03 1.04733E+00-2.04016E-13 1.61867E-14
 -1      4321 1.83195E+01 8.74545E-01 6.16886E-03 7.56201E-01-1.76575E-13-1.30884E-13
 -1      4322 2.00040E+01-2.28504E-03-8.46929E-06 2.56784E-04 1.49256E-14 2.52205E-13
 -1      4323 1.71161E+01 1.07443E+00-4.23466E-03 7.24106E-01-1.96096E-13 1.22940E-13
 -1      4324 1.73804E+01 1.05786E+00-1.05041E-02 6.57192E-01-1.81228E-13 1.59215E-13
 -3
    1PSTEP                         3           1           1          
  100CL  101 1.000000000        4324                     0    1           1
 -4  TOSTRAIN    6    1
 -5  EXX         1    4    1    1
 -5  EYY         1    4    2    2
 -5  EZZ         1    4    3    3
 -5  EXY         1    4    1    2
 -5  EYZ         1    4    2    3
 -5  EZX         1    4    3    1
 -1         1 6.50133E-06-2.73899E-05 6.56520E-07-1.56303E-05-2.00666E-17-9.80081E-18
 -1         2 3.45223E-05-1.05215E-04 1.85208E-05-1.22633E-07-5.14837E-20 9.21889E-19
 -1         3 9.52373E-05-2.85710E-05-2.85714E-05 8.38694E-11-2.40491E-18-2.33211E-18
 -1         4 9.52373E-05-2.85710E-05-2.85714E-05-7.90732E-11 2.20197E-18-3.88021E-19
 -1         5 1.65308E-04-2.45125E-05-4.94293E-05 4.29603E-05-2.20652E-19 1.82485E-17
 -1         6 1.75638E-04 3.40975E-10-5.52550E-05-5.91945E-05-9.49630E-19 1.94093E-17
 -1         7 1.14980E-04-1.35724E-06-4.84426E-05-2.60697E-05-1.14561E-19 5.55175E-18
 -1         8 1.01106E-04-1.39677E-07-4.27357E-05-1.17706E-05-2.23193E-19 9.43098E-19
 -1         9 8.97644E-05 2.29123E-08-3.81436E-05-4.39492E-06-1.84336E-19-1.78668E-18
 -1        10 7.91575E-05 1.23237E-07-3.38451E-05-1.12967E-08-1.26737E-19-3.36707E-18
 -1        11 6.94691E-05 2.58071E-07-3.00223E-05 1.56343E-06-9.12678E-20-4.35792E-18
 -1        12 6.20416E-05 3.76782E-07-2.71462E-05 4.27452E-07-7.86682E-20-4.88314E-18
 -1        13 5.80613E-05 4.34195E-07-2.55926E-05-2.65700E-06-5.75982E-20-5.14142E-18
 -1        14 5.84174E-05 3.86845E-07-2.56461E-05-6.04270E-06-3.90959E-20-5.24617E-18
 -1        15 6.25589E-05 2.53996E-07-2.71171E-05-7.95715E-06-2.92226E-20-5.17937E-18
 -1        16 6.89182E-05 9.55709E-08-2.94802E-05-7.35981E-06-9.58206E-21-5.00296E-18
 -1        17 7.57580E-05-2.99566E-08-3.21301E-05-4.25664E-06 1.48760E-20-4.78946E-18
 -1        18 8.18150E-05-8.30246E-08-3.45917E-05 5.24688E-07 3.89106E-20-4.43014E-18
 -1        19 8.69638E-05-7.14349E-08-3.67963E-05 6.31805E-06 1.08950E-19-3.78728E-18
 -1        20 9.15094E-05-3.12349E-09-3.88371E-05 1.25356E-05 1.82694E-19-2.64444E-18
 -1        21 9.66578E-05 1.00676E-07-4.11502E-05 1.94333E-05 2.34469E-19-2.18587E-19
 -1        22 1.06161E-04-2.86812E-07-4.46993E-05 2.93775E-05 4.56339E-20 5.13133E-18
 -1        23 1.50656E-04-5.08506E-05-4.67114E-05-3.06486E-06-6.58303E-19 1.60675E-17
 -1        24 1.34255E-04-4.01400E-05-4.12648E-05 7.96029E-07-1.94209E-19 1.30943E-17
 -1        25 1.32536E-04-3.98745E-05-3.96210E-05 4.39483E-07-1.18404E-19 1.01874E-17
 -1        26 1.28982E-04-3.87818E-05-3.82485E-05-1.20325E-07-4.32152E-20 7.76401E-18
 -1        27 1.20971E-04-3.63686E-05-3.58503E-05-7.00938E-07-6.19922E-20 6.72422E-18
 -1        28 1.08337E-04-3.25536E-05-3.23626E-05-1.18217E-06-3.33230E-20 6.66440E-18
 -1        29 9.45494E-05-2.83566E-05-2.87724E-05-1.13935E-06 2.09563E-19 6.52522E-18
 -1        30 8.59001E-05-2.57050E-05-2.65995E-05-3.65358E-07-2.78958E-20 5.03279E-18
 -1        31 8.71752E-05-2.60941E-05-2.69047E-05 6.85892E-07-3.02020E-20 2.87885E-18
 -1        32 9.74410E-05-2.92280E-05-2.94856E-05 1.28035E-06-3.47063E-19 4.11923E-19
 -1        33 1.10863E-04-3.32886E-05-3.30201E-05 1.15781E-06 5.20583E-19 5.09543E-19
 -1        34 1.21477E-04-3.64621E-05-3.60076E-05 6.49377E-07-6.45532E-20 7.33028E-19
 -1        35 1.26608E-04-3.79739E-05-3.76079E-05 1.66161E-07 6.76435E-20-2.33291E-19
 -1        36 1.26715E-04-3.79899E-05-3.77967E-05-1.18646E-07-9.36699E-20-8.16019E-19
 -1        37 1.23616E-04-3.70606E-05-3.70037E-05-2.23418E-07-1.83536E-19-1.50010E-18
 -1        38 1.19088E-04-3.57123E-05-3.57275E-05-2.24435E-07-1.01057E-19-1.77275E-18
 -1        39 1.14340E-04-3.42994E-05-3.43393E-05-1.83950E-07 3.44405E-20-1.29651E-18
 -1        40 1.10013E-04-3.30103E-05-3.30506E-05-1.35970E-07-5.32391E-19-2.25861E-18
 -1        41 1.06363E-04-3.19201E-05-3.19520E-05-9.43081E-08 2.50374E-19-2.38476E-18
 -1        42 1.03424E-04-3.10405E-05-3.10629E-05-6.24216E-08-7.55869E-20-3.55301E-19
 -1        43 1.01133E-04-3.03532E-05-3.03677E-05-3.95790E-08 5.48148E-20 1.33689E-18
 -1        44 9.93884E-05-2.98286E-05-2.98374E-05-2.38570E-08 1.47086E-19 3.07260E-18
 -1        45 9.80850E-05-2.94359E-05-2.94409E-05-1.33397E-08-2.22572E-19 2.35431E-18
 -1        46 9.71283E-05-2.91471E-05-2.91497E-05-6.48148E-09-1.51567E-19-7.84238E-19
 -1        47 9.64386E-05-2.89386E-05-2.89396E-05-2.13935E-09 1.48533E-19 1.81463E-19
 -1        48 9.59514E-05-2.87910E-05-2.87911E-05 4.98066E-10 2.46651E-19 7.66171E-19
 -1        49 9.56153E-05-2.86889E-05-2.86885E-05 1.99554E-09 7.72560E-20 1.63217E-18
 -1        50 9.53906E-05-2.86205E-05-2.86198E-05 2.74277E-09 9.72814E-20-4.84746E-20
 -1        51 9.52464E-05-2.85764E-05-2.85756E-05 3.00755E-09-9.05706E-21-7.58761E-19
 -1        52 9.51594E-05-2.85497E-05-2.85489E-05 2.97320E-09-1.83019E-19-6.80068E-19
 -1        53 9.51123E-05-2.85350E-05-2.85343E-05 2.76437E-09 1.27295E-20-2.58697E-18
 -1        54 9.50920E-05-2.85286E-05-2.85279E-05 2.46484E-09 1.77326E-19-3.31166E-18
 -1        55 9.50891E-05-2.85274E-05-2.85268E-05 2.12975E-09-4.02477E-19-2.21079E-18
 -1        56 9.50969E-05-2.85295E-05-2.85290E-05 1.79418E-09-1.28472E-19-2.45341E-18
 -1        57 9.51106E-05-2.85335E-05-2.85331E-05 1.47927E-09 4.10287E-19-1.99766E-19
 -1        58 9.51270E-05-2.85383E-05-2.85379E-05 1.19654E-09-8.23767E-20 7.74978E-19
 -1        59 9.51440E-05-2.85433E-05-2.85430E-05 9.51050E-10-6.00462E-20-1.77164E-18
 -1        60 9.51603E-05-2.85481E-05-2.85479E-05 7.43658E-10-2.75478E-19-3.95970E-18
 -1        61 9.51752E-05-2.85526E-05-2.85524E-05 5.72610E-10 5.00523E-19-4.27528E-18
 -1        62 9.51883E-05-2.85565E-05-2.85564E-05 4.34684E-10-2.72547E-19-6.42523E-18
 -1        63 9.51995E-05-2.85598E-05-2.85598E-05 3.25947E-10 1.69456E-20-7.24359E-18
 -1        64 9.52090E-05-2.85627E-05-2.85626E-05 2.42235E-10-1.72851E-20-4.26344E-18
 -1        65 9.52168E-05-2.85650E-05-2.85650E-05 1.79381E-10-5.19974E-19-1.81047E-18
 -1        66 9.52232E-05-2.85669E-05-2.85669E-05 1.33184E-10-9.83020E-20-1.32796E-19
 -1        67 9.52283E-05-2.85684E-05-2.85684E-05 9.90126E-11 1.32234E-18 2.20906E-18
 -1        68 9.52322E-05-2.85696E-05-2.85696E-05 7.07079E-11-1.16235E-19 6.99291E-18
 -1        69 9.52351E-05-2.85705E-05-2.85705E-05 3.80914E-11 2.83524E-19 1.51931E-18
 -1        70 9.52368E-05-2.85710E-05-2.85710E-05-2.35055E-11-3.95538E-19 5.36591E-19
 -1        71 9.52374E-05-2.85712E-05-2.85712E-05-1.05849E-10-6.62371E-19-3.39425E-19
 -1        72 1.21697E-04-3.64583E-05-4.03852E-05-2.60819E-06 3.16023E-19 1.61136E-17
 -1        73 1.11936E-04-3.33100E-05-3.46853E-05-5.15312E-07 2.07060E-19 1.14354E-17
 -1        74 1.06616E-04-3.19758E-05-3.20701E-05-1.49536E-07 7.63976E-20 7.88753E-18
 -1        75 1.01637E-04-3.05544E-05-3.03613E-05 3.32003E-08 2.82133E-20 5.96418E-18
 -1        76 9.59840E-05-2.88603E-05-2.87030E-05 2.06013E-07 1.12496E-20 5.01262E-18
 -1        77 9.00463E-05-2.70582E-05-2.70431E-05 3.25048E-07 5.00060E-20 4.14329E-18
 -1        78 8.50956E-05-2.55393E-05-2.56917E-05 3.30402E-07-3.61329E-20 3.63171E-18
 -1        79 8.26069E-05-2.47583E-05-2.50281E-05 1.99946E-07 1.01694E-20 2.43957E-18
 -1        80 8.34515E-05-2.49928E-05-2.52713E-05-1.61748E-08-2.08350E-20 9.29969E-19
 -1        81 8.73755E-05-2.61736E-05-2.63533E-05-2.23100E-07 3.74101E-20 3.81880E-19
 -1        82 9.31136E-05-2.79148E-05-2.79462E-05-3.39239E-07 1.90483E-19-3.52022E-19
 -1        83 9.90226E-05-2.97082E-05-2.96169E-05-3.42670E-07 1.91511E-19-1.37268E-18
 -1        84 1.03789E-04-3.11506E-05-3.09999E-05-2.67739E-07 5.27199E-20-2.37328E-18
 -1        85 1.06782E-04-3.20510E-05-3.19010E-05-1.65179E-07 9.25764E-20-3.11289E-18
 -1        86 1.07996E-04-3.24120E-05-3.22965E-05-7.27503E-08 8.56417E-20-4.86168E-18
 -1        87 1.07800E-04-3.23481E-05-3.22759E-05-6.79586E-09-2.48641E-19-4.48173E-18
 -1        88 1.06678E-04-3.20075E-05-3.19726E-05 3.17995E-08 2.47265E-20-4.71856E-18
 -1        89 1.05073E-04-3.15236E-05-3.15148E-05 4.91312E-08 2.93637E-19-4.69888E-18
 -1        90 1.03319E-04-3.09959E-05-3.10025E-05 5.26407E-08-2.29052E-19-4.32090E-18
 -1        91 1.01629E-04-3.04887E-05-3.05026E-05 4.84959E-08 5.58934E-20-3.81587E-18
 -1        92 1.00124E-04-3.00370E-05-3.00532E-05 4.09394E-08-8.55671E-20-4.62474E-18
 -1        93 9.88522E-05-2.96559E-05-2.96714E-05 3.25350E-08-7.99039E-20-4.50686E-18
 -1        94 9.78222E-05-2.93471E-05-2.93606E-05 2.46487E-08-1.90387E-20-5.86090E-18
 -1        95 9.70160E-05-2.91054E-05-2.91164E-05 1.78892E-08-5.55005E-20-5.18802E-18
 -1        96 9.64042E-05-2.89219E-05-2.89305E-05 1.24282E-08-1.79310E-19-2.05735E-18
 -1        97 9.59537E-05-2.87867E-05-2.87933E-05 8.20863E-09 4.44851E-19-3.28081E-18
 -1        98 9.56322E-05-2.86903E-05-2.86950E-05 5.06966E-09 2.34497E-19-6.51497E-18
 -1        99 9.54108E-05-2.86238E-05-2.86271E-05 2.81767E-09-3.33443E-19-7.60824E-18
 -1       100 9.52650E-05-2.85800E-05-2.85822E-05 1.26329E-09-3.27309E-19-5.28383E-18
 -1       101 9.51748E-05-2.85528E-05-2.85543E-05 2.38757E-10 1.01707E-19-4.87782E-18
 -1       102 9.51241E-05-2.85376E-05-2.85384E-05-3.95894E-10 6.73620E-20-4.95697E-18
 -1       103 9.51007E-05-2.85305E-05-2.85309E-05-7.52672E-10 6.49705E-20-1.15690E-18
 -1       104 9.50953E-05-2.85288E-05-2.85290E-05-9.18268E-10-4.11421E-20-8.01017E-19
 -1       105 9.51012E-05-2.85305E-05-2.85305E-05-9.57868E-10 2.29769E-19-1.23941E-18
 -1       106 9.51136E-05-2.85342E-05-2.85341E-05-9.19150E-10-3.05618E-19-4.07572E-18
 -1       107 9.51290E-05-2.85388E-05-2.85386E-05-8.36005E-10-2.20792E-19-6.56632E-18
 -1       108 9.51454E-05-2.85437E-05-2.85435E-05-7.31763E-10 3.62919E-19-6.98051E-18
 -1       109 9.51612E-05-2.85484E-05-2.85482E-05-6.21875E-10-5.45926E-19-6.40227E-18
 -1       110 9.51758E-05-2.85528E-05-2.85526E-05-5.16068E-10 1.95460E-20-4.59399E-18
 -1       111 9.51888E-05-2.85566E-05-2.85565E-05-4.20026E-10-1.62190E-19-5.21552E-18
 -1       112 9.51999E-05-2.85600E-05-2.85598E-05-3.36673E-10-7.25416E-19-5.05070E-18
 -1       113 9.52093E-05-2.85628E-05-2.85627E-05-2.67122E-10 4.12904E-19-3.61625E-18
 -1       114 9.52170E-05-2.85651E-05-2.85650E-05-2.11329E-10-7.31722E-19-6.00225E-18
 -1       115 9.52233E-05-2.85670E-05-2.85669E-05-1.68455E-10 3.91153E-19-9.07711E-18
 -1       116 9.52284E-05-2.85685E-05-2.85684E-05-1.36730E-10 6.38707E-20-7.78335E-18
 -1       117 9.52323E-05-2.85697E-05-2.85696E-05-1.12742E-10 8.61999E-19-7.75220E-18
 -1       118 9.52351E-05-2.85705E-05-2.85705E-05-8.92939E-11-5.37615E-19-5.34357E-18
 -1       119 9.52369E-05-2.85711E-05-2.85710E-05-4.06194E-11-4.28041E-19-1.59711E-18
 -1       120 9.52374E-05-2.85712E-05-2.85712E-05 7.55035E-11 1.33569E-18-2.13213E-18
 -1       121 9.52371E-05-2.85710E-05-2.85712E-05 1.15242E-10-2.95810E-18 6.04538E-19
 -1       122 9.52373E-05-2.85715E-05-2.85710E-05-8.60731E-12 1.36571E-18 2.31091E-19
 -1       123 9.52378E-05-2.85732E-05-2.85705E-05-8.33658E-11 1.72428E-18-2.73939E-19
 -1       124 9.52385E-05-2.85756E-05-2.85698E-05-1.14323E-10-1.30301E-18-3.36810E-19
 -1       125 9.52392E-05-2.85782E-05-2.85690E-05-1.14353E-10 3.95094E-18 4.74670E-19
 -1       126 9.52399E-05-2.85805E-05-2.85684E-05-9.57015E-11 4.95984E-18-6.83398E-19
 -1       127 9.52405E-05-2.85823E-05-2.85678E-05-6.25413E-11-4.70001E-19-3.54453E-19
 -1       128 9.52407E-05-2.85832E-05-2.85676E-05-2.14440E-11-3.54498E-18-1.84905E-19
 -1       129 9.52407E-05-2.85832E-05-2.85676E-05 2.22167E-11 3.77329E-18 2.42620E-18
 -1       130 9.52405E-05-2.85823E-05-2.85679E-05 6.31494E-11 7.58966E-18-4.32381E-19
 -1       131 9.52399E-05-2.85805E-05-2.85684E-05 9.70128E-11 5.86943E-18 2.75314E-19
 -1       132 9.52392E-05-2.85781E-05-2.85691E-05 1.14741E-10 6.49429E-18 1.56311E-18
 -1       133 9.52385E-05-2.85755E-05-2.85698E-05 1.13714E-10 4.96938E-18-3.36775E-19
 -1       134 9.52378E-05-2.85732E-05-2.85705E-05 9.12747E-11 1.97259E-18 7.62230E-19
 -1       135 9.52373E-05-2.85715E-05-2.85710E-05 1.19260E-11 1.08325E-18-7.30870E-20
 -1       136 9.52371E-05-2.85710E-05-2.85712E-05-1.95597E-10 5.44657E-20 5.45521E-19
 -1       137 2.54682E-05-8.38217E-05 1.43014E-05-2.01880E-05 1.22286E-17 2.12105E-18
 -1       138 8.54397E-06-3.46132E-05 3.18098E-06-1.73187E-05 1.78686E-17 8.08196E-18
 -1       139 9.16022E-06 1.36920E-05-1.37498E-05 2.01147E-05 2.12508E-17 1.48743E-17
 -1       140 5.00257E-05 3.05287E-05-3.35895E-05 7.44474E-05 1.87410E-17 2.02979E-17
 -1       141 1.34351E-04 3.27750E-06-5.31112E-05 1.11927E-04 1.19074E-17 1.98096E-17
 -1       142 2.30388E-04-4.79690E-05-6.84131E-05 1.01963E-04 5.35293E-18 1.49298E-17
 -1       143 2.95356E-04-8.83534E-05-7.68196E-05 4.22876E-05 8.26612E-19 4.52263E-18
 -1       144 2.93831E-04-8.77546E-05-7.67133E-05-3.88500E-05 1.23615E-18-7.58306E-18
 -1       145 2.25939E-04-4.75284E-05-6.75075E-05-9.77715E-05 6.65101E-18-1.89807E-17
 -1       146 1.33533E-04 1.48727E-06-5.28956E-05-1.08312E-04 1.39619E-17-2.34192E-17
 -1       147 5.14265E-05 2.84081E-05-3.39009E-05-7.30674E-05 2.01712E-17-2.16993E-17
 -1       148 9.56231E-06 1.71154E-05-1.54039E-05-2.30546E-05 2.26797E-17-1.62747E-17
 -1       149 7.58026E-06-2.64405E-05 7.65009E-07 1.11735E-05 1.92764E-17-8.42988E-18
 -1       150 2.17289E-05-7.15899E-05 1.18772E-05 1.65506E-05 1.03082E-17-2.41893E-18
 -1       151 2.97112E-05-9.04666E-05 1.55315E-05-3.45691E-06-9.55420E-19-3.75924E-19
 -1       152 2.06709E-05-7.16088E-05 1.16532E-05-2.16494E-05-1.22159E-17-3.39517E-18
 -1       153 1.14489E-05 1.34074E-05-1.54622E-05 2.16040E-05-2.23312E-17-1.75031E-17
 -1       154 6.20587E-05 2.31449E-05-3.61797E-05 7.66721E-05-1.96677E-17-2.32494E-17
 -1       155 1.51084E-04-7.51248E-06-5.57021E-05 1.09668E-04-1.28935E-17-2.38215E-17
 -1       156 2.45748E-04-5.69407E-05-7.05235E-05 9.52801E-05-6.26444E-18-1.90388E-17
 -1       157 3.09062E-04-9.36264E-05-7.91403E-05 3.20949E-05-1.46706E-18-9.50763E-18
 -1       158 3.04209E-04-8.98112E-05-7.87821E-05-4.84612E-05-9.95475E-19 3.00771E-18
 -1       159 2.33327E-04-4.72933E-05-6.94679E-05-1.05883E-04-5.91949E-18 1.53067E-17
 -1       160 1.32750E-04 3.59842E-06-5.28814E-05-1.10642E-04-1.30890E-17 2.12355E-17
 -1       161 4.86495E-05 2.80912E-05-3.27389E-05-7.04459E-05-1.85911E-17 1.98803E-17
 -1       162 9.00544E-06 1.00288E-05-1.29531E-05-1.64427E-05-2.09437E-17 1.45025E-17
 -1       163 8.92247E-06-3.88009E-05 4.09997E-06 2.05384E-05-2.07413E-17 8.94202E-18
 -1       164 2.66618E-05-8.82314E-05 1.52108E-05 2.20753E-05-1.32868E-17 3.17574E-18
 -1       165 1.19478E-04-1.89239E-05-4.33000E-05-1.68288E-05-2.25202E-18 3.01541E-18
 -1       166 1.03722E-04-1.26297E-05-3.92167E-05-9.39383E-06-2.05916E-18 4.80426E-20
 -1       167 8.98630E-05-8.09267E-06-3.51733E-05-3.76815E-06-1.57579E-18-1.85721E-18
 -1       168 7.65304E-05-3.66591E-06-3.13230E-05-2.62171E-07-1.12986E-18-3.12905E-18
 -1       169 6.47778E-05 6.43408E-07-2.81070E-05 4.57987E-07-8.41216E-19-3.85611E-18
 -1       170 5.65862E-05 3.75518E-06-2.59193E-05-1.48101E-06-7.36201E-19-4.38148E-18
 -1       171 5.43816E-05 4.28378E-06-2.51963E-05-4.81331E-06-6.67738E-19-4.55089E-18
 -1       172 5.84486E-05 2.01667E-06-2.59673E-05-7.44060E-06-6.32866E-19-4.52175E-18
 -1       173 6.67547E-05-1.86309E-06-2.78691E-05-7.70957E-06-5.04196E-19-4.30675E-18
 -1       174 7.63067E-05-5.70144E-06-3.03258E-05-5.22509E-06-1.52671E-19-4.05526E-18
 -1       175 8.46825E-05-8.39275E-06-3.27765E-05-7.62547E-07 3.01405E-19-3.70961E-18
 -1       176 9.13406E-05-9.90285E-06-3.50054E-05 4.84421E-06 9.19507E-19-3.17084E-18
 -1       177 9.65959E-05-1.07778E-05-3.69236E-05 1.08011E-05 1.63612E-18-2.33203E-18
 -1       178 1.02043E-04-1.22434E-05-3.86893E-05 1.68151E-05 2.28186E-18-7.71197E-19
 -1       179 1.11134E-04-1.72541E-05-4.04843E-05 2.26058E-05 2.49261E-18 2.25078E-18
 -1       180 1.23860E-04-3.13743E-05-4.09778E-05 1.94897E-05 2.06946E-18 6.67250E-18
 -1       181 1.35436E-04-3.74504E-05-4.20058E-05-8.45513E-06-1.91416E-18 6.40799E-18
 -1       182 1.30565E-04-3.92786E-05-3.91668E-05-2.93606E-06-1.62392E-18 5.48566E-18
 -1       183 1.27392E-04-3.91403E-05-3.77890E-05-3.70372E-06-1.24670E-18 4.88665E-18
 -1       184 1.24093E-04-3.86218E-05-3.66004E-05-7.31929E-06-7.75310E-19 4.40949E-18
 -1       185 1.18858E-04-3.67021E-05-3.51936E-05-1.13338E-05-2.13672E-19 4.16841E-18
 -1       186 1.11807E-04-3.31255E-05-3.37306E-05-1.24392E-05-3.76453E-19 3.76921E-18
 -1       187 1.05327E-04-2.93123E-05-3.26254E-05-7.90562E-06-1.22047E-18 2.64470E-18
 -1       188 1.02963E-04-2.79279E-05-3.22208E-05 1.03617E-06-1.58849E-18 1.49701E-18
 -1       189 1.06019E-04-3.00179E-05-3.26120E-05 9.09035E-06-1.55720E-18 7.71832E-19
 -1       190 1.12125E-04-3.37793E-05-3.35859E-05 1.17567E-05-5.37691E-19 4.41251E-20
 -1       191 1.17601E-04-3.66442E-05-3.46961E-05 9.07320E-06-3.50288E-19-1.82207E-18
 -1       192 1.20381E-04-3.76436E-05-3.54673E-05 4.09860E-06-2.71739E-19-2.02726E-18
 -1       193 1.20343E-04-3.72010E-05-3.56501E-05-3.95962E-07-3.81535E-19-2.18859E-18
 -1       194 1.18312E-04-3.60588E-05-3.52706E-05-3.25727E-06-3.29708E-19-1.65405E-18
 -1       195 1.15236E-04-3.47365E-05-3.45133E-05-4.53336E-06-3.90653E-20-1.17591E-18
 -1       196 1.11840E-04-3.34883E-05-3.35856E-05-4.72261E-06 3.37870E-19-1.30357E-18
 -1       197 1.08578E-04-3.24069E-05-3.26448E-05-4.32158E-06-3.62018E-19-1.30281E-18
 -1       198 1.05681E-04-3.15101E-05-3.17838E-05-3.67698E-06-2.69380E-20-9.76122E-19
 -1       199 1.03236E-04-3.07863E-05-3.10443E-05-2.98862E-06 9.67323E-19-4.56327E-19
 -1       200 1.01243E-04-3.02135E-05-3.04355E-05-2.35432E-06 7.28539E-19 7.89404E-20
 -1       201 9.96619E-05-2.97676E-05-2.99492E-05-1.81191E-06 9.41643E-19 4.36751E-22
 -1       202 9.84329E-05-2.94258E-05-2.95697E-05-1.36806E-06-4.04526E-19-4.19765E-19
 -1       203 9.74950E-05-2.91675E-05-2.92792E-05-1.01514E-06-6.02564E-19 7.40816E-19
 -1       204 9.67911E-05-2.89754E-05-2.90607E-05-7.40285E-07 2.10447E-19 9.93700E-19
 -1       205 9.62718E-05-2.88349E-05-2.88990E-05-5.29742E-07 7.90613E-20 7.82287E-19
 -1       206 9.58956E-05-2.87341E-05-2.87816E-05-3.70839E-07-1.10275E-19 1.44322E-19
 -1       207 9.56287E-05-2.86633E-05-2.86980E-05-2.52655E-07-8.12069E-19-1.51127E-18
 -1       208 9.54441E-05-2.86150E-05-2.86399E-05-1.66117E-07-7.38751E-19-1.34271E-18
 -1       209 9.53202E-05-2.85832E-05-2.86008E-05-1.03863E-07-3.31532E-19-1.23081E-18
 -1       210 9.52407E-05-2.85634E-05-2.85754E-05-6.00079E-08-1.41117E-18-1.30764E-18
 -1       211 9.51928E-05-2.85520E-05-2.85599E-05-2.99069E-08-7.59315E-19-1.38390E-18
 -1       212 9.51669E-05-2.85464E-05-2.85514E-05-9.93558E-09 4.86749E-19-1.75474E-18
 -1       213 9.51558E-05-2.85446E-05-2.85475E-05 2.70351E-09-4.84045E-19-2.64638E-18
 -1       214 9.51544E-05-2.85452E-05-2.85467E-05 1.01441E-08 1.70787E-18-2.33605E-18
 -1       215 9.51589E-05-2.85472E-05-2.85478E-05 1.39925E-08-1.91559E-19-2.26858E-18
 -1       216 9.51667E-05-2.85500E-05-2.85500E-05 1.54398E-08-1.31468E-18-3.01187E-18
 -1       217 9.51760E-05-2.85531E-05-2.85527E-05 1.53544E-08-8.24958E-19-3.61299E-18
 -1       218 9.51856E-05-2.85561E-05-2.85555E-05 1.43562E-08-5.75309E-20-3.06881E-18
 -1       219 9.51948E-05-2.85589E-05-2.85582E-05 1.28764E-08-1.56906E-18-3.80715E-18
 -1       220 9.52032E-05-2.85614E-05-2.85608E-05 1.12044E-08-8.95119E-19-4.84068E-18
 -1       221 9.52106E-05-2.85636E-05-2.85630E-05 9.52457E-09 1.85334E-18-3.70409E-18
 -1       222 9.52170E-05-2.85655E-05-2.85649E-05 7.94389E-09 1.76412E-18-3.04422E-18
 -1       223 9.52224E-05-2.85671E-05-2.85666E-05 6.51182E-09 1.48345E-18-7.12792E-19
 -1       224 9.52268E-05-2.85684E-05-2.85679E-05 5.23434E-09 2.32421E-18 2.05110E-18
 -1       225 9.52304E-05-2.85694E-05-2.85690E-05 4.08294E-09 1.54087E-18 1.05764E-18
 -1       226 9.52331E-05-2.85702E-05-2.85698E-05 3.00112E-09-2.77109E-18-1.22924E-18
 -1       227 9.52351E-05-2.85708E-05-2.85704E-05 1.92013E-09-1.15021E-19-8.83255E-19
 -1       228 9.52365E-05-2.85713E-05-2.85708E-05 8.14406E-10 6.71578E-20 2.24575E-19
 -1       229 1.17035E-04-3.40978E-05-3.57390E-05 8.08449E-06 2.13218E-18 5.87021E-18
 -1       230 1.10403E-04-3.29877E-05-3.31372E-05 4.92726E-06 1.57338E-18 4.42317E-18
 -1       231 1.05479E-04-3.17985E-05-3.15205E-05 4.70564E-06 8.80053E-19 3.44176E-18
 -1       232 1.00861E-04-3.03719E-05-3.01758E-05 5.05610E-06 5.49524E-19 2.71781E-18
 -1       233 9.64322E-05-2.88031E-05-2.89707E-05 4.87705E-06 5.46085E-19 2.13219E-18
 -1       234 9.27832E-05-2.73956E-05-2.80250E-05 3.58679E-06 3.69439E-19 1.54686E-18
 -1       235 9.07662E-05-2.65722E-05-2.75211E-05 1.21819E-06 6.53969E-19 7.15097E-19
 -1       236 9.09446E-05-2.66335E-05-2.75701E-05-1.55273E-06 8.19511E-19 1.80559E-19
 -1       237 9.31847E-05-2.75369E-05-2.81350E-05-3.78617E-06 4.36788E-19-7.96916E-19
 -1       238 9.66914E-05-2.89239E-05-2.90349E-05-4.80535E-06 4.11462E-19-1.23217E-18
 -1       239 1.00389E-04-3.03149E-05-3.00206E-05-4.52462E-06 6.88275E-19-1.61478E-18
 -1       240 1.03404E-04-3.13644E-05-3.08655E-05-3.35586E-06 5.38255E-19-1.95765E-18
 -1       241 1.05291E-04-3.19438E-05-3.14318E-05-1.86445E-06 6.95945E-19-2.89898E-18
 -1       242 1.06014E-04-3.20927E-05-3.16822E-05-4.94034E-07 4.10829E-19-2.59573E-18
 -1       243 1.05781E-04-3.19272E-05-3.16557E-05 5.30028E-07-1.77322E-19-2.19813E-18
 -1       244 1.04895E-04-3.15725E-05-3.14287E-05 1.16300E-06 2.35429E-19-3.15126E-18
 -1       245 1.03648E-04-3.11304E-05-3.10827E-05 1.46186E-06 9.52616E-20-3.27677E-18
 -1       246 1.02269E-04-3.06722E-05-3.06868E-05 1.51950E-06-5.26233E-19-2.55665E-18
 -1       247 1.00917E-04-3.02414E-05-3.02905E-05 1.42602E-06-1.97290E-19-2.29500E-18
 -1       248 9.96859E-05-2.98610E-05-2.99250E-05 1.25262E-06 1.89697E-19-2.51607E-18
 -1       249 9.86228E-05-2.95398E-05-2.96064E-05 1.04881E-06 2.14712E-19-2.34745E-18
 -1       250 9.77408E-05-2.92781E-05-2.93401E-05 8.45571E-07 2.73182E-19-2.72155E-18
 -1       251 9.70329E-05-2.90712E-05-2.91253E-05 6.60130E-07-5.55494E-19-3.33699E-18
 -1       252 9.64811E-05-2.89121E-05-2.89570E-05 5.00419E-07-8.57853E-19-3.83216E-18
 -1       253 9.60625E-05-2.87928E-05-2.88288E-05 3.68541E-07 7.97119E-19-2.96418E-18
 -1       254 9.57535E-05-2.87058E-05-2.87338E-05 2.63250E-07 8.61937E-19-1.97458E-18
 -1       255 9.55319E-05-2.86442E-05-2.86654E-05 1.81596E-07-5.46047E-19-1.25968E-18
 -1       256 9.53781E-05-2.86020E-05-2.86177E-05 1.19958E-07-1.33820E-18-8.77383E-19
 -1       257 9.52756E-05-2.85745E-05-2.85857E-05 7.46625E-08-3.35609E-19-9.07817E-19
 -1       258 9.52109E-05-2.85576E-05-2.85653E-05 4.23177E-08-4.43990E-19-5.27143E-19
 -1       259 9.51735E-05-2.85482E-05-2.85534E-05 1.99663E-08-1.43236E-18 3.33237E-19
 -1       260 9.51549E-05-2.85440E-05-2.85473E-05 5.13593E-09 2.01523E-19-6.98933E-19
 -1       261 9.51489E-05-2.85433E-05-2.85451E-05-4.17578E-09 7.05883E-19-1.19764E-18
 -1       262 9.51510E-05-2.85446E-05-2.85455E-05-9.54727E-09 5.05956E-19-9.08945E-19
 -1       263 9.51579E-05-2.85471E-05-2.85474E-05-1.21929E-08 1.55963E-18-1.38043E-18
 -1       264 9.51671E-05-2.85502E-05-2.85501E-05-1.30255E-08-3.66593E-19-2.58142E-18
 -1       265 9.51773E-05-2.85534E-05-2.85531E-05-1.27146E-08-8.98503E-19-1.53548E-18
 -1       266 9.51874E-05-2.85565E-05-2.85561E-05-1.17387E-08-9.21123E-20-2.83582E-18
 -1       267 9.51969E-05-2.85594E-05-2.85589E-05-1.04294E-08 1.52075E-20-7.58522E-19
 -1       268 9.52053E-05-2.85619E-05-2.85614E-05-9.00679E-09-3.62665E-19-6.62108E-19
 -1       269 9.52127E-05-2.85641E-05-2.85637E-05-7.60810E-09 1.45244E-19-1.04736E-18
 -1       270 9.52189E-05-2.85659E-05-2.85656E-05-6.30931E-09 9.15080E-19 1.37361E-19
 -1       271 9.52241E-05-2.85675E-05-2.85671E-05-5.14060E-09 2.59079E-18-2.31130E-18
 -1       272 9.52283E-05-2.85687E-05-2.85684E-05-4.09664E-09-7.46974E-19-3.99570E-18
 -1       273 9.52316E-05-2.85697E-05-2.85694E-05-3.14300E-09-5.23756E-19-2.15788E-18
 -1       274 9.52341E-05-2.85704E-05-2.85701E-05-2.22464E-09-1.39680E-18-8.70744E-19
 -1       275 9.52358E-05-2.85710E-05-2.85707E-05-1.27633E-09-1.24780E-18 4.68898E-19
 -1       276 9.52368E-05-2.85713E-05-2.85710E-05-3.33817E-10 9.46042E-19-9.63799E-19
 -1       277 9.52370E-05-2.85718E-05-2.85708E-05-8.69297E-10 5.29588E-19 3.24063E-18
 -1       278 9.52375E-05-2.85731E-05-2.85705E-05-1.82129E-09 3.48023E-20-1.03434E-19
 -1       279 9.52381E-05-2.85748E-05-2.85700E-05-2.45594E-09 1.29220E-18-5.35776E-19
 -1       280 9.52388E-05-2.85767E-05-2.85695E-05-2.64086E-09 1.94466E-18 1.18375E-18
 -1       281 9.52395E-05-2.85785E-05-2.85690E-05-2.40521E-09-1.63977E-18-5.54554E-19
 -1       282 9.52400E-05-2.85800E-05-2.85686E-05-1.81256E-09 2.32159E-19-1.92873E-18
 -1       283 9.52403E-05-2.85810E-05-2.85683E-05-9.67130E-10 1.17468E-18-1.54730E-18
 -1       284 9.52405E-05-2.85813E-05-2.85682E-05 8.24715E-12 2.39225E-18 2.80430E-18
 -1       285 9.52403E-05-2.85810E-05-2.85683E-05 9.82604E-10 4.78370E-19 1.54744E-18
 -1       286 9.52400E-05-2.85800E-05-2.85686E-05 1.82532E-09 1.84700E-18-2.19067E-19
 -1       287 9.52395E-05-2.85785E-05-2.85690E-05 2.40659E-09 3.44911E-18 4.30551E-19
 -1       288 9.52388E-05-2.85766E-05-2.85695E-05 2.64245E-09 3.79763E-18-1.85834E-18
 -1       289 9.52381E-05-2.85747E-05-2.85700E-05 2.44753E-09 2.74690E-18-1.21900E-18
 -1       290 9.52375E-05-2.85731E-05-2.85705E-05 1.80211E-09 1.60732E-18-7.30738E-19
 -1       291 9.52369E-05-2.85721E-05-2.85706E-05 1.46599E-09-1.12264E-19-2.55749E-18
 -1       292 1.13900E-05-4.05428E-05 9.67614E-06 9.85195E-06 9.85946E-19 6.51750E-18
 -1       293 2.42631E-05-4.00083E-05 3.92293E-06 2.14102E-05 5.01211E-18 5.41540E-18
 -1       294 5.00265E-05-3.40516E-05-8.52671E-06 3.62078E-05 6.29811E-18 7.10909E-18
 -1       295 8.34670E-05-2.79094E-05-2.43154E-05 4.55925E-05 8.19822E-18 7.95957E-18
 -1       296 1.26070E-04-2.65634E-05-4.16025E-05 5.00128E-05 7.79884E-18 7.01068E-18
 -1       297 1.67382E-04-3.02970E-05-5.65674E-05 4.06714E-05 6.34039E-18 4.89733E-18
 -1       298 1.96128E-04-3.28864E-05-6.69102E-05 2.40201E-05 5.88868E-18 1.91736E-18
 -1       299 2.09751E-04-3.61020E-05-7.08902E-05 2.24188E-06 5.88698E-18-1.53330E-18
 -1       300 1.85707E-04-2.89316E-05-6.51783E-05-1.41334E-05 7.40762E-18-3.84108E-18
 -1       301 1.66339E-04-3.01191E-05-5.63976E-05-4.07098E-05 7.93437E-18-8.50358E-18
 -1       302 1.28479E-04-3.04455E-05-4.14645E-05-4.24036E-05 7.57607E-18-8.25158E-18
 -1       303 8.09229E-05-2.27659E-05-2.54975E-05-4.56903E-05 9.34299E-18-9.50519E-18
 -1       304 4.47627E-05-2.47376E-05-1.03174E-05-3.46947E-05 8.10102E-18-8.33020E-18
 -1       305 2.30710E-05-2.69714E-05 6.52689E-08-2.73430E-05 3.38474E-18-6.97458E-18
 -1       306 8.65113E-06-3.25178E-05 7.58562E-06-8.96556E-06 1.18669E-18-6.12521E-18
 -1       307 9.02684E-06-3.16399E-05 7.09475E-06 5.93736E-06-2.43665E-18-6.36249E-18
 -1       308 2.39305E-05-3.24557E-05 1.04839E-06 1.96310E-05-5.76914E-18-7.14446E-18
 -1       309 4.98370E-05-3.00167E-05-1.05358E-05 3.21124E-05-8.45614E-18-8.81301E-18
 -1       310 9.45497E-05-3.38050E-05-2.66879E-05 4.11891E-05-7.98604E-18-8.79855E-18
 -1       311 1.38654E-04-3.42197E-05-4.39556E-05 4.13281E-05-8.14242E-18-8.84324E-18
 -1       312 1.78887E-04-3.58003E-05-5.88972E-05 3.49533E-05-7.08768E-18-7.86047E-18
 -1       313 2.04244E-04-3.63564E-05-6.86701E-05 1.56774E-05-6.37752E-18-5.10835E-18
 -1       314 2.08054E-04-3.32469E-05-7.16125E-05-3.93543E-06-6.48838E-18-2.19926E-18
 -1       315 2.01131E-04-3.52064E-05-6.79591E-05-2.29625E-05-7.46437E-18 1.46177E-18
 -1       316 1.71162E-04-3.46132E-05-5.65439E-05-3.50143E-05-6.96652E-18 4.41431E-18
 -1       317 1.30880E-04-3.32621E-05-4.10692E-05-4.56551E-05-7.05462E-18 7.32641E-18
 -1       318 8.50663E-05-3.14248E-05-2.37519E-05-4.36885E-05-7.72028E-18 8.12538E-18
 -1       319 5.04181E-05-3.64356E-05-7.91445E-06-3.40656E-05-7.50429E-18 5.96168E-18
 -1       320 2.34659E-05-4.16812E-05 4.73303E-06-1.85023E-05-6.01097E-18 6.56927E-18
 -1       321 1.13581E-05-4.31889E-05 1.04866E-05-5.53805E-06-2.04913E-18 7.59524E-18
 -1       322 1.02870E-04-2.01817E-05-3.55381E-05-4.52318E-06-1.87303E-18-2.39949E-20
 -1       323 1.17784E-04-2.75150E-05-3.87851E-05-8.81757E-06-2.22697E-18 1.84264E-18
 -1       324 7.21129E-05-5.62175E-06-2.85167E-05 2.98781E-06-8.64642E-19-2.67201E-18
 -1       325 5.86462E-05 1.48186E-06-2.57584E-05 1.74097E-06-7.53180E-19-3.54166E-18
 -1       326 5.16462E-05 5.10157E-06-2.42954E-05-3.06240E-06-8.33424E-19-3.95170E-18
 -1       327 5.35935E-05 3.44593E-06-2.44225E-05-8.47572E-06-9.44765E-19-3.97890E-18
 -1       328 6.28933E-05-2.37065E-06-2.59420E-05-1.09659E-05-9.88549E-19-3.68815E-18
 -1       329 7.51639E-05-9.29338E-06-2.82639E-05-9.15581E-06-6.61617E-19-3.20726E-18
 -1       330 8.62075E-05-1.46831E-05-3.07125E-05-4.18923E-06-8.30109E-20-2.78540E-18
 -1       331 9.46534E-05-1.79624E-05-3.29444E-05 2.16952E-06 6.50960E-19-2.15419E-18
 -1       332 1.00577E-04-1.97380E-05-3.47409E-05 8.31566E-06 1.45269E-18-1.58862E-18
 -1       333 1.05464E-04-2.14958E-05-3.61009E-05 1.32917E-05 2.24777E-18-5.40539E-19
 -1       334 1.11024E-04-2.52083E-05-3.69260E-05 1.57231E-05 2.73116E-18 1.14741E-18
 -1       335 1.15167E-04-3.00516E-05-3.65977E-05 1.32847E-05 2.61932E-18 2.93638E-18
 -1       336 1.12088E-04-3.27288E-05-3.39938E-05 9.01885E-06 2.02794E-18 2.50088E-18
 -1       337 1.23989E-04-3.79616E-05-3.68562E-05-4.88250E-06-1.48715E-18 2.63725E-18
 -1       338 1.25161E-04-4.12808E-05-3.59687E-05-7.11851E-06-1.00644E-18 2.93665E-18
 -1       339 1.25632E-04-4.21244E-05-3.58105E-05-1.25570E-05-6.52498E-19 3.19568E-18
 -1       340 1.23424E-04-3.86256E-05-3.64020E-05-1.75617E-05-4.76956E-19 2.94293E-18
 -1       341 1.18037E-04-3.07610E-05-3.75166E-05-1.63131E-05-1.69217E-18 2.10051E-18
 -1       342 1.13131E-04-2.40444E-05-3.83328E-05-5.87980E-06-2.62863E-18 8.13067E-19
 -1       343 1.13575E-04-2.52538E-05-3.79969E-05 7.97620E-06-2.23950E-18-3.70320E-19
 -1       344 1.18317E-04-3.30015E-05-3.66622E-05 1.57378E-05-1.76066E-18-9.37186E-19
 -1       345 1.21920E-04-3.98565E-05-3.52263E-05 1.40531E-05-1.63988E-18-1.74523E-18
 -1       346 1.21801E-04-4.19609E-05-3.42537E-05 7.13708E-06-5.94098E-19-1.87381E-18
 -1       347 1.18897E-04-4.03149E-05-3.37118E-05 2.57857E-08-4.36139E-19-1.79980E-18
 -1       348 1.15059E-04-3.73585E-05-3.33282E-05-4.89459E-06 1.57196E-19-1.51267E-18
 -1       349 1.11376E-04-3.46133E-05-3.29160E-05-7.37853E-06 2.37828E-19-1.22911E-18
 -1       350 1.08215E-04-3.25758E-05-3.24240E-05-8.05231E-06-1.14645E-20-1.38165E-18
 -1       351 1.05590E-04-3.12086E-05-3.18779E-05-7.64708E-06 1.17814E-19-9.30852E-19
 -1       352 1.03426E-04-3.03254E-05-3.13250E-05-6.71952E-06 8.99398E-20-7.24330E-19
 -1       353 1.01646E-04-2.97549E-05-3.08049E-05-5.62131E-06 8.30994E-19-1.78958E-19
 -1       354 1.00190E-04-2.93783E-05-3.03422E-05-4.54624E-06 9.54550E-19-9.12452E-19
 -1       355 9.90112E-05-2.91222E-05-2.99472E-05-3.58571E-06 4.24828E-19-9.09241E-19
 -1       356 9.80679E-05-2.89433E-05-2.96203E-05-2.77177E-06 9.16249E-20-1.32235E-18
 -1       357 9.73236E-05-2.88162E-05-2.93566E-05-2.10530E-06 7.07343E-21-9.52514E-19
 -1       358 9.67449E-05-2.87256E-05-2.91482E-05-1.57268E-06-2.61883E-19-9.70840E-19
 -1       359 9.63020E-05-2.86614E-05-2.89865E-05-1.15498E-06-3.91056E-19-1.10552E-18
 -1       360 9.59684E-05-2.86168E-05-2.88633E-05-8.32600E-07-6.25565E-19-2.03355E-18
 -1       361 9.57216E-05-2.85867E-05-2.87708E-05-5.87466E-07-8.34487E-19-2.18090E-18
 -1       362 9.55425E-05-2.85673E-05-2.87027E-05-4.03818E-07-2.15684E-19-1.36909E-18
 -1       363 9.54155E-05-2.85556E-05-2.86535E-05-2.68395E-07-1.16009E-18-1.55169E-18
 -1       364 9.53277E-05-2.85494E-05-2.86188E-05-1.70284E-07-4.17473E-19-2.08343E-18
 -1       365 9.52692E-05-2.85470E-05-2.85949E-05-1.00658E-07-9.48034E-19-9.18878E-19
 -1       366 9.52320E-05-2.85470E-05-2.85791E-05-5.24737E-08-7.51648E-19-9.96769E-19
 -1       367 9.52100E-05-2.85485E-05-2.85690E-05-2.01835E-08-8.96487E-19-1.40143E-18
 -1       368 9.51985E-05-2.85509E-05-2.85632E-05 5.29420E-10-9.46087E-20-2.07226E-18
 -1       369 9.51941E-05-2.85536E-05-2.85602E-05 1.29800E-08 1.26724E-18-2.58283E-18
 -1       370 9.51942E-05-2.85563E-05-2.85591E-05 1.96788E-08-9.63664E-19-1.79657E-18
 -1       371 9.51971E-05-2.85590E-05-2.85592E-05 2.24983E-08-1.61685E-18-1.27389E-18
 -1       372 9.52015E-05-2.85613E-05-2.85601E-05 2.28105E-08 9.66554E-19-1.40646E-18
 -1       373 9.52065E-05-2.85634E-05-2.85613E-05 2.16004E-08-6.23823E-19-1.34267E-18
 -1       374 9.52116E-05-2.85652E-05-2.85628E-05 1.95563E-08-1.09998E-18-1.41317E-19
 -1       375 9.52164E-05-2.85667E-05-2.85642E-05 1.71433E-08 2.49791E-19 8.12984E-19
 -1       376 9.52207E-05-2.85679E-05-2.85655E-05 1.46591E-08 1.40138E-18-4.44698E-19
 -1       377 9.52246E-05-2.85689E-05-2.85667E-05 1.22776E-08 1.86430E-18-1.01143E-18
 -1       378 9.52278E-05-2.85697E-05-2.85678E-05 1.00805E-08 2.92505E-18-4.63332E-19
 -1       379 9.52306E-05-2.85704E-05-2.85687E-05 8.08167E-09-1.80695E-20-3.41674E-18
 -1       380 9.52328E-05-2.85710E-05-2.85694E-05 6.24710E-09-2.24739E-18-4.34032E-18
 -1       381 9.52346E-05-2.85715E-05-2.85699E-05 4.51482E-09-4.58192E-19-1.50599E-18
 -1       382 9.52359E-05-2.85719E-05-2.85703E-05 2.94823E-09 9.60997E-20-1.54204E-18
 -1       383 1.08502E-04-3.27722E-05-3.24241E-05 8.08944E-06 1.36163E-18 2.15510E-18
 -1       384 1.04790E-04-3.16576E-05-3.13240E-05 8.26036E-06 9.60661E-19 1.66392E-18
 -1       385 1.01053E-04-2.98728E-05-3.04918E-05 7.88566E-06 8.72518E-19 1.24722E-18
 -1       386 9.77221E-05-2.79286E-05-2.98958E-05 5.95681E-06 7.90646E-19 5.83126E-19
 -1       387 9.55986E-05-2.65896E-05-2.95570E-05 2.37321E-06 9.33136E-19-9.99131E-20
 -1       388 9.53424E-05-2.65033E-05-2.94848E-05-1.92035E-06 1.25534E-18-3.17148E-19
 -1       389 9.68995E-05-2.76705E-05-2.96544E-05-5.47027E-06 9.82188E-19-1.11936E-18
 -1       390 9.95403E-05-2.95265E-05-2.99961E-05-7.17264E-06 5.30493E-19-1.40815E-18
 -1       391 1.02230E-04-3.12556E-05-3.04164E-05-6.84472E-06 8.83816E-19-1.67685E-18
 -1       392 1.04224E-04-3.23542E-05-3.08083E-05-5.10502E-06 8.88713E-19-1.97842E-18
 -1       393 1.05236E-04-3.27313E-05-3.10858E-05-2.82648E-06 1.23073E-18-2.11928E-18
 -1       394 1.05341E-04-3.25632E-05-3.12035E-05-7.02214E-07 7.90040E-20-1.91325E-18
 -1       395 1.04773E-04-3.20900E-05-3.11610E-05 9.08219E-07-9.76743E-20-1.42008E-18
 -1       396 1.03791E-04-3.15029E-05-3.09882E-05 1.92208E-06 3.77086E-19-1.66690E-18
 -1       397 1.02610E-04-3.09196E-05-3.07286E-05 2.41582E-06 2.99838E-19-1.87300E-18
 -1       398 1.01386E-04-3.03981E-05-3.04249E-05 2.52607E-06-9.06029E-20-1.53787E-18
 -1       399 1.00222E-04-2.99587E-05-3.01122E-05 2.38985E-06-2.61397E-19-2.30720E-18
 -1       400 9.91747E-05-2.96021E-05-2.98152E-05 2.11831E-06 4.03243E-19-2.25268E-18
 -1       401 9.82723E-05-2.93203E-05-2.95487E-05 1.79084E-06-2.34937E-19-2.84088E-18
 -1       402 9.75201E-05-2.91024E-05-2.93196E-05 1.45858E-06 4.72702E-19-2.62169E-18
 -1       403 9.69109E-05-2.89370E-05-2.91295E-05 1.15112E-06-6.47709E-20-2.60142E-18
 -1       404 9.64300E-05-2.88139E-05-2.89764E-05 8.82954E-07-6.97225E-19-3.01899E-18
 -1       405 9.60594E-05-2.87243E-05-2.88563E-05 6.58899E-07-6.24352E-19-2.19522E-18
 -1       406 9.57806E-05-2.86604E-05-2.87645E-05 4.77944E-07 4.63447E-19-1.02674E-18
 -1       407 9.55760E-05-2.86162E-05-2.86960E-05 3.35968E-07-5.39764E-19 7.70251E-19
 -1       408 9.54299E-05-2.85867E-05-2.86463E-05 2.27479E-07-1.24517E-18 3.43754E-19
 -1       409 9.53288E-05-2.85679E-05-2.86112E-05 1.46685E-07-1.61002E-19 4.85169E-19
 -1       410 9.52616E-05-2.85568E-05-2.85873E-05 8.81035E-08-8.40586E-19 1.10925E-18
 -1       411 9.52193E-05-2.85511E-05-2.85718E-05 4.68705E-08-6.79342E-19 5.68055E-20
 -1       412 9.51949E-05-2.85489E-05-2.85624E-05 1.88560E-08 1.17738E-18-3.27843E-19
 -1       413 9.51828E-05-2.85490E-05-2.85572E-05 6.70885E-10 2.26255E-19-8.36803E-19
 -1       414 9.51790E-05-2.85505E-05-2.85550E-05-1.03895E-08 3.61402E-19-5.47703E-19
 -1       415 9.51805E-05-2.85527E-05-2.85547E-05-1.64311E-08 7.41497E-19 1.58151E-19
 -1       416 9.51851E-05-2.85553E-05-2.85556E-05-1.90562E-08 5.33766E-19 2.06989E-18
 -1       417 9.51913E-05-2.85579E-05-2.85572E-05-1.94560E-08-8.80513E-19 4.26639E-19
 -1       418 9.51980E-05-2.85603E-05-2.85590E-05-1.84941E-08 1.30783E-18-1.25625E-18
 -1       419 9.52047E-05-2.85625E-05-2.85610E-05-1.67793E-08-2.31786E-18-1.74503E-18
 -1       420 9.52110E-05-2.85644E-05-2.85628E-05-1.47252E-08-5.03695E-19 1.54069E-18
 -1       421 9.52166E-05-2.85660E-05-2.85645E-05-1.25988E-08-1.89539E-19 7.87636E-19
 -1       422 9.52214E-05-2.85674E-05-2.85660E-05-1.05575E-08 7.56417E-19 1.44653E-18
 -1       423 9.52256E-05-2.85685E-05-2.85673E-05-8.67739E-09 3.37785E-18 1.31416E-18
 -1       424 9.52290E-05-2.85695E-05-2.85684E-05-6.97326E-09 1.13487E-18 1.30103E-18
 -1       425 9.52318E-05-2.85703E-05-2.85692E-05-5.41317E-09-1.13612E-18-5.73615E-19
 -1       426 9.52340E-05-2.85709E-05-2.85699E-05-3.93779E-09-1.83815E-18 3.15473E-19
 -1       427 9.52356E-05-2.85714E-05-2.85704E-05-2.49275E-09-1.60558E-18 2.12477E-18
 -1       428 9.52364E-05-2.85717E-05-2.85706E-05-1.67431E-09 1.12388E-18 1.93754E-18
 -1       429 9.52383E-05-2.85757E-05-2.85697E-05-4.55458E-09 1.30646E-18-4.04740E-19
 -1       430 9.52373E-05-2.85739E-05-2.85700E-05-3.99353E-09-4.24580E-19 1.09115E-18
 -1       431 9.52367E-05-2.85727E-05-2.85703E-05-2.92466E-09-7.23214E-19 1.65910E-19
 -1       432 9.52393E-05-2.85773E-05-2.85694E-05-4.43058E-09 3.25542E-20-3.06037E-18
 -1       433 9.52401E-05-2.85788E-05-2.85691E-05-3.67209E-09 5.08854E-19 7.66315E-19
 -1       434 9.52407E-05-2.85799E-05-2.85689E-05-2.41046E-09 5.58705E-19-1.19676E-18
 -1       435 9.52410E-05-2.85805E-05-2.85688E-05-8.30565E-10-6.26088E-19 9.27194E-19
 -1       436 9.52410E-05-2.85805E-05-2.85688E-05 8.57210E-10-1.15808E-18 4.34690E-19
 -1       437 9.52407E-05-2.85799E-05-2.85689E-05 2.43416E-09-1.41086E-18 1.05620E-18
 -1       438 9.52401E-05-2.85788E-05-2.85691E-05 3.67254E-09 3.89159E-20 1.35186E-18
 -1       439 9.52393E-05-2.85773E-05-2.85694E-05 4.43328E-09-4.20889E-19 1.13735E-18
 -1       440 9.52383E-05-2.85756E-05-2.85697E-05 4.55516E-09 9.71150E-19-1.48375E-18
 -1       441 9.52373E-05-2.85739E-05-2.85700E-05 3.99523E-09 5.61579E-19-3.33927E-18
 -1       442 5.23244E-05-3.66183E-05-6.92416E-06 4.29254E-05 6.94144E-19 5.16134E-18
 -1       443 1.29409E-05-1.77628E-05 2.06855E-06 1.17897E-06-4.97035E-19 8.00012E-18
 -1       444 2.56434E-05-2.62423E-05 2.62576E-08 2.95750E-05-1.36266E-19 5.85575E-18
 -1       445 9.55600E-05-4.97807E-05-1.95644E-05 4.35077E-05 6.20558E-19 2.58282E-18
 -1       446 1.22729E-04-5.13912E-05-3.06480E-05 3.32828E-05 2.09905E-18 9.69535E-19
 -1       447 8.78520E-05-1.33470E-05-3.19937E-05 3.03965E-07-1.30581E-18-1.66801E-18
 -1       448 1.58250E-04-2.61189E-05-5.63511E-05 5.54706E-06 5.50730E-18-9.50159E-19
 -1       449 1.57641E-04-1.36155E-05-6.15162E-05 1.12490E-06 6.61819E-18-1.56937E-18
 -1       450 1.54313E-04-1.21311E-05-6.09415E-05 2.58256E-06 7.30725E-18-1.17791E-18
 -1       451 1.53278E-04-2.71603E-05-5.41385E-05-1.00901E-06 6.53962E-18-5.94617E-19
 -1       452 1.46092E-04-3.97365E-05-4.55502E-05-1.05607E-05 4.52135E-18-1.29522E-18
 -1       453 1.20922E-04-4.66320E-05-3.19558E-05-3.01223E-05 2.40732E-18-2.99347E-18
 -1       454 9.04330E-05-4.07631E-05-2.13383E-05-4.15623E-05 1.57569E-18-4.52024E-18
 -1       455 5.66258E-05-2.96277E-05-1.15610E-05-4.27789E-05 4.04776E-19-5.54224E-18
 -1       456 1.86256E-05-1.13904E-05-2.92942E-06-2.44696E-05-7.14896E-19-7.10131E-18
 -1       457 9.34463E-06-8.65884E-06-2.56484E-07-3.07818E-06-5.38296E-19-7.22561E-18
 -1       458 2.41869E-05-1.66463E-05-3.23019E-06 2.41815E-05-5.17114E-19-6.77457E-18
 -1       459 5.50652E-05-3.31734E-05-9.64538E-06 3.73594E-05-1.64695E-18-5.90467E-18
 -1       460 9.46388E-05-4.71635E-05-2.05468E-05 3.71905E-05-1.60121E-18-4.43551E-18
 -1       461 1.33997E-04-5.22444E-05-3.50790E-05 2.34786E-05-3.72652E-18-2.89378E-18
 -1       462 1.56151E-04-4.43110E-05-4.78292E-05 5.01720E-06-4.55782E-18-9.94311E-19
 -1       463 1.65390E-04-2.98860E-05-5.77759E-05-2.44734E-06-5.45330E-18-1.23921E-18
 -1       464 1.56156E-04-1.47809E-05-6.06992E-05-5.88573E-06-6.28583E-18-6.39722E-19
 -1       465 1.57688E-04-1.60562E-05-6.07499E-05 1.86501E-06-7.08723E-18-2.08455E-18
 -1       466 1.60891E-04-2.88171E-05-5.65187E-05 2.01074E-06-6.49939E-18-2.68816E-18
 -1       467 1.52108E-04-4.87611E-05-4.43730E-05-9.22634E-06-3.36233E-18-1.26346E-18
 -1       468 1.28675E-04-5.50546E-05-3.16306E-05-3.03713E-05-1.35832E-18 2.10043E-18
 -1       469 9.65973E-05-5.19310E-05-1.91896E-05-4.16372E-05-6.23204E-19 1.49822E-18
 -1       470 5.19204E-05-3.75272E-05-6.43271E-06-4.02950E-05-1.03444E-18 3.68756E-18
 -1       471 2.34185E-05-2.56284E-05 7.13193E-07-2.45327E-05-3.42784E-19 7.35002E-18
 -1       472 1.47218E-04-4.26570E-05-4.47849E-05 1.44449E-05 3.56702E-18-8.24375E-19
 -1       473 1.39878E-04-1.57932E-05-5.35957E-05 9.58045E-06 6.33078E-18 1.47913E-19
 -1       474 4.29204E-05-1.69001E-05-1.07537E-05-3.70686E-05-1.77575E-18-5.78598E-18
 -1       475 1.11484E-04-3.27585E-05-3.37402E-05 1.15694E-05 1.65568E-18 8.31800E-19
 -1       476 5.03029E-05 2.58695E-06-2.25717E-05 2.40888E-06-4.33809E-19-4.09792E-18
 -1       477 6.50764E-05-6.27318E-06-2.51379E-05 8.19340E-06-1.87756E-19-3.09283E-18
 -1       478 5.62730E-05-1.92352E-06-2.32229E-05-1.51791E-05-1.43996E-18-4.06686E-18
 -1       479 7.22270E-05-1.18624E-05-2.58343E-05-1.57329E-05-1.35146E-18-3.26010E-18
 -1       480 8.71212E-05-2.01582E-05-2.87077E-05-1.01656E-05-8.31820E-19-2.44352E-18
 -1       481 9.77963E-05-2.49983E-05-3.12213E-05-2.07465E-06 3.86682E-20-1.80901E-18
 -1       482 1.04199E-04-2.70636E-05-3.30901E-05 5.38953E-06 8.63012E-19-1.26945E-18
 -1       483 1.08182E-04-2.81997E-05-3.43106E-05 1.08039E-05 1.61897E-18-5.47170E-19
 -1       484 1.10052E-04-3.34466E-05-3.28207E-05 1.14303E-05 1.28005E-18 7.42228E-19
 -1       485 1.19017E-04-3.91424E-05-3.42598E-05-2.58877E-06-7.56814E-19 1.37035E-18
 -1       486 1.26215E-04-4.60092E-05-3.43819E-05-6.26761E-06-3.39395E-19 2.11840E-18
 -1       487 1.31285E-04-4.71399E-05-3.61737E-05-1.36392E-05-3.62404E-19 2.74788E-18
 -1       488 1.30924E-04-3.81778E-05-3.99985E-05-1.98898E-05-1.66225E-18 2.68602E-18
 -1       489 1.25604E-04-2.31811E-05-4.43025E-05-1.53757E-05-3.38593E-18 1.34183E-18
 -1       490 1.21472E-04-1.57282E-05-4.58997E-05 1.29672E-06-4.19070E-18-2.80609E-19
 -1       491 1.26570E-04-2.73714E-05-4.28642E-05 1.54941E-05-2.98600E-18-2.46297E-18
 -1       492 1.30390E-04-4.18802E-05-3.81382E-05 1.56887E-05-2.13736E-18-3.57652E-18
 -1       493 1.28022E-04-4.83993E-05-3.41872E-05 6.96408E-06-5.19493E-19-3.16650E-18
 -1       494 1.21117E-04-4.61734E-05-3.21325E-05-2.04569E-06 4.01348E-19-1.68662E-18
 -1       495 1.13706E-04-4.06891E-05-3.13053E-05-7.77339E-06 2.11216E-19 3.28127E-20
 -1       496 1.07942E-04-3.55685E-05-3.10273E-05-1.03746E-05-2.14757E-19-1.74066E-19
 -1       497 1.04052E-04-3.19690E-05-3.08976E-05-1.08892E-05-3.73571E-19-1.11638E-18
 -1       498 1.01569E-04-2.98177E-05-3.07513E-05-1.02457E-05 1.75646E-19-6.23108E-19
 -1       499 9.99674E-05-2.86818E-05-3.05495E-05-9.05177E-06 1.18825E-19-3.20175E-19
 -1       500 9.88790E-05-2.81611E-05-3.03052E-05-7.67134E-06 9.47570E-19-8.46119E-20
 -1       501 9.80860E-05-2.79763E-05-3.00443E-05-6.30910E-06 3.95450E-19 3.05954E-19
 -1       502 9.74725E-05-2.79578E-05-2.97895E-05-5.06912E-06 2.25891E-20-8.55143E-19
 -1       503 9.69803E-05-2.80122E-05-2.95557E-05-3.99479E-06-1.68207E-19-1.96774E-18
 -1       504 9.65802E-05-2.80915E-05-2.93505E-05-3.09474E-06 1.00069E-19-1.82304E-18
 -1       505 9.62554E-05-2.81732E-05-2.91767E-05-2.35919E-06-1.32757E-19-1.12317E-18
 -1       506 9.59945E-05-2.82478E-05-2.90332E-05-1.76983E-06-3.06219E-19-1.04352E-18
 -1       507 9.57883E-05-2.83123E-05-2.89175E-05-1.30547E-06-1.20557E-18-8.99905E-19
 -1       508 9.56281E-05-2.83663E-05-2.88259E-05-9.45177E-07-6.47460E-19-8.02073E-19
 -1       509 9.55060E-05-2.84108E-05-2.87546E-05-6.69753E-07-7.47348E-20-1.14941E-18
 -1       510 9.54149E-05-2.84470E-05-2.87002E-05-4.62383E-07-1.17371E-18-2.07006E-18
 -1       511 9.53484E-05-2.84762E-05-2.86593E-05-3.08768E-07-2.91105E-19-1.35486E-18
 -1       512 9.53010E-05-2.84994E-05-2.86291E-05-1.97010E-07-8.74359E-19-1.28330E-18
 -1       513 9.52684E-05-2.85177E-05-2.86073E-05-1.17387E-07-5.15490E-19-1.71830E-18
 -1       514 9.52466E-05-2.85321E-05-2.85919E-05-6.20674E-08-1.90447E-18-2.55927E-18
 -1       515 9.52330E-05-2.85431E-05-2.85813E-05-2.48373E-08-1.26132E-18-3.09771E-18
 -1       516 9.52250E-05-2.85515E-05-2.85743E-05-8.31427E-10 4.34083E-19-3.06463E-18
 -1       517 9.52210E-05-2.85578E-05-2.85699E-05 1.37057E-08 1.36649E-19-3.23402E-18
 -1       518 9.52196E-05-2.85625E-05-2.85674E-05 2.16297E-08-7.65765E-19-2.76293E-18
 -1       519 9.52200E-05-2.85658E-05-2.85661E-05 2.50774E-08-3.07267E-19-1.19296E-18
 -1       520 9.52213E-05-2.85682E-05-2.85656E-05 2.56188E-08 1.15062E-18 2.15328E-19
 -1       521 9.52232E-05-2.85698E-05-2.85658E-05 2.43829E-08-4.34817E-19 1.24618E-18
 -1       522 9.52253E-05-2.85709E-05-2.85662E-05 2.21602E-08-9.23520E-22 1.75644E-18
 -1       523 9.52274E-05-2.85716E-05-2.85668E-05 1.94848E-08-1.50737E-19 1.18494E-18
 -1       524 9.52293E-05-2.85720E-05-2.85674E-05 1.66988E-08 1.36918E-18 1.36710E-18
 -1       525 9.52311E-05-2.85723E-05-2.85681E-05 1.40018E-08 7.63320E-19-5.29421E-19
 -1       526 9.52327E-05-2.85725E-05-2.85687E-05 1.14892E-08-6.97690E-20-3.64678E-18
 -1       527 9.52340E-05-2.85726E-05-2.85692E-05 9.18118E-09-1.01811E-18-2.32885E-18
 -1       528 9.52352E-05-2.85729E-05-2.85696E-05 7.05197E-09-9.49893E-20-1.57665E-18
 -1       529 5.09927E-05-2.73525E-05-9.60966E-06 3.84859E-05-1.65526E-18 4.94900E-18
 -1       530 1.04445E-04-2.90247E-05-3.23147E-05 1.02366E-05 1.41026E-18 2.89677E-19
 -1       531 1.01473E-04-2.59937E-05-3.23362E-05 6.38542E-06 1.54234E-18-1.87702E-19
 -1       532 9.99759E-05-2.46102E-05-3.22895E-05 5.43647E-07 1.36592E-18-1.02268E-18
 -1       533 1.00658E-04-2.58068E-05-3.20748E-05-5.17466E-06 1.55671E-18-1.19658E-18
 -1       534 1.02864E-04-2.88716E-05-3.17079E-05-8.76569E-06 1.28114E-18-1.98034E-18
 -1       535 1.05179E-04-3.21004E-05-3.13174E-05-9.24306E-06 9.24577E-19-2.23864E-18
 -1       536 1.06540E-04-3.42025E-05-3.10045E-05-7.32081E-06 1.20091E-18-2.40590E-18
 -1       537 1.06664E-04-3.48193E-05-3.07991E-05-4.29381E-06 1.02044E-18-2.20471E-18
 -1       538 1.05847E-04-3.43199E-05-3.06641E-05-1.28573E-06 8.87871E-20-1.69026E-18
 -1       539 1.04534E-04-3.32667E-05-3.05514E-05 1.09229E-06-3.96246E-19-7.50609E-19
 -1       540 1.03075E-04-3.20967E-05-3.04254E-05 2.65988E-06-1.74861E-19-4.27362E-19
 -1       541 1.01676E-04-3.10535E-05-3.02703E-05 3.48751E-06 4.27725E-19 8.17454E-20
 -1       542 1.00428E-04-3.02275E-05-3.00876E-05 3.74847E-06 4.06532E-19 2.03685E-19
 -1       543 9.93598E-05-2.96209E-05-2.98881E-05 3.62825E-06-1.93398E-19-6.37632E-19
 -1       544 9.84658E-05-2.91986E-05-2.96850E-05 3.28395E-06-7.05209E-19-6.80752E-19
 -1       545 9.77299E-05-2.89169E-05-2.94899E-05 2.83262E-06 6.28962E-19-6.38869E-20
 -1       546 9.71326E-05-2.87360E-05-2.93113E-05 2.35350E-06 4.16649E-19-2.39731E-19
 -1       547 9.66543E-05-2.86248E-05-2.91540E-05 1.89544E-06 1.72923E-19-3.87385E-19
 -1       548 9.62767E-05-2.85602E-05-2.90200E-05 1.48508E-06-3.23809E-19-5.39213E-19
 -1       549 9.59829E-05-2.85258E-05-2.89091E-05 1.13398E-06-5.94720E-19-1.39293E-18
 -1       550 9.57581E-05-2.85105E-05-2.88195E-05 8.44032E-07-7.25297E-19-1.30905E-18
 -1       551 9.55891E-05-2.85067E-05-2.87489E-05 6.11549E-07-5.01799E-19-1.01343E-18
 -1       552 9.54645E-05-2.85095E-05-2.86944E-05 4.29937E-07-7.00077E-19-1.31997E-18
 -1       553 9.53746E-05-2.85158E-05-2.86534E-05 2.91499E-07-8.84863E-19-2.10062E-18
 -1       554 9.53115E-05-2.85234E-05-2.86232E-05 1.88508E-07-9.41410E-19-1.80104E-18
 -1       555 9.52686E-05-2.85313E-05-2.86015E-05 1.13831E-07-3.33712E-19-1.86811E-18
 -1       556 9.52406E-05-2.85387E-05-2.85864E-05 6.12155E-08-4.27526E-19-1.47795E-18
 -1       557 9.52235E-05-2.85453E-05-2.85763E-05 2.53942E-08 3.08641E-19-7.03663E-19
 -1       558 9.52141E-05-2.85510E-05-2.85698E-05 2.06132E-09 1.32860E-19 3.72297E-19
 -1       559 9.52098E-05-2.85557E-05-2.85660E-05-1.22124E-08 4.89957E-19 8.43160E-19
 -1       560 9.52091E-05-2.85596E-05-2.85641E-05-2.00950E-08-5.45746E-20-1.62144E-20
 -1       561 9.52104E-05-2.85627E-05-2.85633E-05-2.36164E-08 6.21887E-19 1.22398E-19
 -1       562 9.52130E-05-2.85651E-05-2.85634E-05-2.42863E-08 3.16484E-19 1.48603E-19
 -1       563 9.52162E-05-2.85669E-05-2.85640E-05-2.32004E-08 6.92886E-19 1.34002E-18
 -1       564 9.52195E-05-2.85683E-05-2.85648E-05-2.11314E-08-1.73034E-18-1.07503E-18
 -1       565 9.52227E-05-2.85694E-05-2.85657E-05-1.86044E-08-5.74496E-19-1.21422E-18
 -1       566 9.52257E-05-2.85701E-05-2.85667E-05-1.59577E-08 5.44203E-19-9.11472E-19
 -1       567 9.52283E-05-2.85707E-05-2.85675E-05-1.33902E-08 2.10108E-18-7.44046E-19
 -1       568 9.52306E-05-2.85712E-05-2.85683E-05-1.09979E-08 1.71019E-18 1.75450E-18
 -1       569 9.52326E-05-2.85716E-05-2.85690E-05-8.80367E-09 9.53538E-20 1.75622E-18
 -1       570 9.52342E-05-2.85720E-05-2.85695E-05-6.78673E-09-1.28828E-18 2.72651E-18
 -1       571 9.52356E-05-2.85724E-05-2.85699E-05-4.87956E-09-1.26991E-18 1.48595E-18
 -1       572 9.52403E-05-2.85782E-05-2.85695E-05-5.60090E-09 2.48574E-18-1.17758E-18
 -1       573 9.52414E-05-2.85795E-05-2.85694E-05-4.17106E-09 4.22938E-19-1.43449E-18
 -1       574 9.52374E-05-2.85747E-05-2.85697E-05-6.15801E-09-1.66090E-19 1.42253E-18
 -1       575 9.52389E-05-2.85765E-05-2.85696E-05-6.30082E-09 2.98083E-19-1.56448E-18
 -1       576 9.52421E-05-2.85803E-05-2.85693E-05-2.21455E-09-6.64546E-19-1.85836E-19
 -1       577 9.52423E-05-2.85806E-05-2.85693E-05 1.70784E-11-3.51166E-19-4.74299E-19
 -1       578 9.52421E-05-2.85803E-05-2.85693E-05 2.24704E-09-2.18611E-19 1.17197E-18
 -1       579 9.52414E-05-2.85795E-05-2.85694E-05 4.16950E-09 6.27447E-20 2.77703E-18
 -1       580 9.52403E-05-2.85782E-05-2.85695E-05 5.60070E-09-7.44838E-19-7.98320E-19
 -1       581 9.52389E-05-2.85765E-05-2.85696E-05 6.30331E-09-1.56218E-18 5.85698E-21
 -1       582 9.52374E-05-2.85747E-05-2.85697E-05 6.13557E-09-6.26201E-19-1.69544E-18
 -1       583 2.77277E-05-1.39108E-05-5.33711E-06-1.54863E-05 8.28531E-19 7.38348E-18
 -1       584 1.07624E-04-3.19808E-05-3.24110E-05 1.15813E-05 1.29256E-18 4.77468E-19
 -1       585 8.41843E-05-4.49625E-05-1.65207E-05 4.34101E-05-1.68385E-18 2.00379E-18
 -1       586 1.20266E-04-5.74644E-05-2.68264E-05 3.00640E-05-1.34705E-18-1.60330E-18
 -1       587 1.11741E-04-3.09904E-05-3.46279E-05-2.42760E-06-1.40666E-18 5.72465E-19
 -1       588 4.57013E-05-2.58940E-05-8.02119E-06-3.40964E-05 1.73562E-18 3.86914E-18
 -1       589 1.36003E-04-1.26766E-05-5.35008E-05-4.40103E-07-5.36627E-18-1.03626E-18
 -1       590 4.68422E-05 4.38366E-06-2.18662E-05-7.68176E-06-1.00943E-18-4.34347E-18
 -1       591 1.41841E-04-3.46073E-05-4.63231E-05-5.34565E-06 3.24980E-18-3.31688E-18
 -1       592 5.45226E-05-2.30441E-05-1.29798E-05 3.29086E-05 9.78747E-19-4.87282E-18
 -1       593 1.27423E-04-6.76206E-06-5.24089E-05 7.22105E-07 6.08763E-18-1.39822E-18
 -1       594 1.35896E-04-1.60291E-05-5.19459E-05-7.44498E-06 4.80273E-18-2.55664E-18
 -1       595 1.40326E-04-3.41779E-05-4.58891E-05 7.74705E-06 4.29824E-18 1.26335E-18
 -1       596 8.45781E-05-3.76801E-05-1.98214E-05-3.90165E-05-1.68305E-18-3.17551E-18
 -1       597 1.10382E-04-4.80955E-05-2.66394E-05-3.04886E-05-7.91605E-19-1.76208E-18
 -1       598 1.34936E-04-4.87036E-05-3.71254E-05-8.11906E-06 1.23725E-18 6.28551E-19
 -1       599 2.18368E-05-9.67891E-07-8.30580E-06-1.35722E-05-1.02148E-18-6.64783E-18
 -1       600 1.40845E-04-5.95559E-05-3.50563E-05-8.50377E-06-4.57265E-19-2.03542E-18
 -1       601 2.37205E-05-2.68774E-06-8.44100E-06 1.11473E-05 8.14078E-20-6.51517E-18
 -1       602 8.54985E-05-4.07317E-05-1.89204E-05 3.46341E-05 1.25361E-18-3.17722E-18
 -1       603 1.24462E-04-5.66640E-05-2.90130E-05 2.17295E-05 1.31502E-19-8.02696E-19
 -1       604 1.45265E-04-5.42359E-05-3.91938E-05 3.33167E-07-2.02354E-18 1.47648E-18
 -1       605 1.48703E-04-3.69885E-05-4.82408E-05-1.34025E-05-3.92160E-18 1.04534E-18
 -1       606 1.40091E-04-1.95409E-05-5.21745E-05-1.45612E-05-4.82512E-18 8.48171E-19
 -1       607 1.39114E-04-2.14116E-05-5.10204E-05 1.17367E-05-5.42953E-18-3.16171E-18
 -1       608 1.46014E-04-4.03996E-05-4.56927E-05 1.09933E-05-3.64378E-18-4.12325E-18
 -1       609 1.24520E-04-6.03062E-05-2.73581E-05-2.63141E-05 1.20909E-18 1.15276E-19
 -1       610 8.43271E-05-4.59051E-05-1.61564E-05-4.14836E-05 1.58607E-18 6.16772E-19
 -1       611 2.77343E-05-1.32681E-05-5.58627E-06 1.76948E-05-1.17399E-18 6.44804E-18
 -1       612 1.11721E-04-3.01564E-05-3.49810E-05 1.27675E-05 2.33493E-18 9.84039E-19
 -1       613 1.38148E-04-5.37999E-05-3.63376E-05 1.08394E-05 6.76733E-19-3.25832E-18
 -1       614 8.44697E-05-1.73238E-05-2.87522E-05 7.07312E-06-3.93463E-19-2.01869E-18
 -1       615 9.52360E-05-2.85730E-05-2.85698E-05 5.64890E-09-5.40482E-19-1.82434E-18
 -1       616 6.78638E-05-2.56567E-05-1.76468E-05-3.78849E-05-2.47011E-18-3.96946E-18
 -1       617 3.77248E-05-6.24102E-06-1.29693E-05-2.70576E-05-1.96933E-18-5.93696E-18
 -1       618 8.72823E-05-2.54379E-05-2.64101E-05-1.86008E-05-1.69509E-18-2.24994E-18
 -1       619 6.58560E-05-1.32088E-05-2.23734E-05-2.45056E-05-2.15784E-18-3.68066E-18
 -1       620 1.08672E-04-3.37762E-05-3.21013E-05 2.33135E-06 2.05576E-19-9.21873E-19
 -1       621 1.11150E-04-3.34778E-05-3.33091E-05 8.92847E-06 9.87984E-19-3.58643E-19
 -1       622 1.12413E-04-3.41856E-05-3.35164E-05 1.19176E-05 1.36485E-18 2.44605E-19
 -1       623 4.58714E-05-8.81469E-06-1.54668E-05 2.07749E-05 8.98040E-19-4.90416E-18
 -1       624 4.80380E-05-1.80366E-05-1.23702E-05 2.70888E-05-1.60853E-18 4.59039E-18
 -1       625 4.81471E-05-1.80589E-05-1.24264E-05-2.46461E-05 2.69261E-18 4.26968E-18
 -1       626 1.06316E-04-5.14008E-05-2.33765E-05 3.24123E-05-2.89852E-18-1.80919E-18
 -1       627 1.29036E-04-5.26274E-05-3.27445E-05 8.60325E-07 4.15260E-19 1.70796E-18
 -1       628 1.36579E-04-5.44129E-05-3.53440E-05 3.06434E-06-3.13358E-19-5.11297E-18
 -1       629 1.24521E-04-5.29699E-05-3.06576E-05-7.86049E-06 1.91019E-18-2.39279E-18
 -1       630 1.12719E-04-4.46907E-05-2.91348E-05-1.31961E-05 1.69942E-18-1.23663E-18
 -1       631 1.04390E-04-3.68827E-05-2.89326E-05-1.44880E-05 2.17113E-19-3.22743E-19
 -1       632 9.95253E-05-3.15077E-05-2.91506E-05-1.37819E-05-6.45246E-19 4.98029E-20
 -1       633 9.70354E-05-2.84172E-05-2.94075E-05-1.23209E-05 2.57910E-19 3.72291E-19
 -1       634 9.59154E-05-2.69100E-05-2.95730E-05-1.06475E-05 5.60864E-20 4.17558E-19
 -1       635 9.54937E-05-2.63576E-05-2.96286E-05-8.98434E-06 5.74157E-19-3.59021E-20
 -1       636 9.53837E-05-2.63203E-05-2.95974E-05-7.43406E-06 5.08255E-19-4.82499E-19
 -1       637 9.53869E-05-2.65266E-05-2.95105E-05-6.04471E-06-1.10973E-18-1.83487E-18
 -1       638 9.54136E-05-2.68235E-05-2.93948E-05-4.83575E-06-1.21066E-18-2.33189E-18
 -1       639 9.54305E-05-2.71320E-05-2.92700E-05-3.80901E-06 4.65911E-19-1.52724E-18
 -1       640 9.54302E-05-2.74153E-05-2.91486E-05-2.95500E-06 1.24631E-18-1.51477E-19
 -1       641 9.54159E-05-2.76599E-05-2.90378E-05-2.25759E-06 1.91711E-19 1.89399E-19
 -1       642 9.53930E-05-2.78635E-05-2.89409E-05-1.69749E-06-8.99492E-20-2.75320E-20
 -1       643 9.53666E-05-2.80288E-05-2.88588E-05-1.25465E-06-9.00899E-19-2.74052E-19
 -1       644 9.53405E-05-2.81610E-05-2.87910E-05-9.09777E-07-4.47389E-19-2.85827E-19
 -1       645 9.53167E-05-2.82652E-05-2.87362E-05-6.45261E-07-8.31260E-19-3.10699E-19
 -1       646 9.52963E-05-2.83463E-05-2.86928E-05-4.45553E-07-1.09837E-18 7.96115E-19
 -1       647 9.52797E-05-2.84088E-05-2.86589E-05-2.97304E-07-7.08382E-19-3.34610E-19
 -1       648 9.52666E-05-2.84563E-05-2.86329E-05-1.89304E-07-5.98799E-19 1.27037E-18
 -1       649 9.52567E-05-2.84920E-05-2.86134E-05-1.12306E-07-1.98555E-18-8.12438E-20
 -1       650 9.52493E-05-2.85184E-05-2.85990E-05-5.88158E-08-1.38153E-18 7.55196E-19
 -1       651 9.52441E-05-2.85375E-05-2.85885E-05-2.28494E-08-5.94107E-19 1.74125E-18
 -1       652 9.52405E-05-2.85512E-05-2.85811E-05 2.95341E-10-2.55491E-19 6.96939E-19
 -1       653 9.52381E-05-2.85606E-05-2.85760E-05 1.42587E-08-4.72807E-19-1.01237E-18
 -1       654 9.52366E-05-2.85670E-05-2.85727E-05 2.18136E-08 3.37387E-19-7.12807E-19
 -1       655 9.52357E-05-2.85711E-05-2.85706E-05 2.50366E-08 1.03888E-18-7.54029E-19
 -1       656 9.52353E-05-2.85735E-05-2.85694E-05 2.54531E-08 1.38440E-18-1.14883E-18
 -1       657 9.52352E-05-2.85748E-05-2.85687E-05 2.41592E-08-1.33222E-19-7.23755E-19
 -1       658 9.52353E-05-2.85754E-05-2.85685E-05 2.19203E-08-3.46574E-19-2.31295E-19
 -1       659 9.52355E-05-2.85755E-05-2.85686E-05 1.92515E-08 1.54241E-19 4.62842E-19
 -1       660 9.52357E-05-2.85753E-05-2.85688E-05 1.64810E-08 9.25002E-20-1.30714E-20
 -1       661 9.52360E-05-2.85750E-05-2.85690E-05 1.37993E-08-1.79696E-18 2.39570E-19
 -1       662 9.52364E-05-2.85748E-05-2.85693E-05 1.12956E-08-5.19052E-19-1.04203E-18
 -1       663 9.52367E-05-2.85746E-05-2.85695E-05 8.98682E-09-5.88717E-19-2.33607E-18
 -1       664 1.39893E-04-4.66413E-05-4.01993E-05-1.55367E-05-1.40120E-18 2.34033E-18
 -1       665 7.48905E-05-3.49331E-05-1.67710E-05 3.80251E-05-2.96295E-18 2.06591E-18
 -1       666 1.07236E-04-2.62092E-05-3.47393E-05 1.11747E-05 1.81763E-18 4.24352E-19
 -1       667 1.06164E-04-2.63381E-05-3.41960E-05-9.05304E-06 2.06308E-18-2.07199E-18
 -1       668 1.09001E-04-3.20097E-05-3.30076E-05-1.06928E-05 1.30558E-18-2.30598E-18
 -1       669 1.10492E-04-3.62736E-05-3.18086E-05-8.71015E-06 8.70586E-19-2.16370E-18
 -1       670 1.09893E-04-3.77776E-05-3.09130E-05-4.91404E-06 5.35585E-19-1.61195E-18
 -1       671 1.07897E-04-3.71141E-05-3.03412E-05-1.11585E-06 1.09259E-19-4.96199E-19
 -1       672 1.05381E-04-3.53464E-05-3.00181E-05 1.81691E-06-9.16225E-19-1.64399E-19
 -1       673 1.02969E-04-3.33359E-05-2.98456E-05 3.69075E-06-4.55807E-19 2.73300E-20
 -1       674 1.00955E-04-3.15659E-05-2.97398E-05 4.64259E-06 8.08723E-20-5.35458E-19
 -1       675 9.93996E-05-3.02137E-05-2.96519E-05 4.91488E-06 2.25808E-19-1.40979E-19
 -1       676 9.82494E-05-2.92785E-05-2.95592E-05 4.73945E-06 3.45511E-19 5.58108E-19
 -1       677 9.74167E-05-2.86864E-05-2.94556E-05 4.30171E-06-9.93193E-21 4.33634E-19
 -1       678 9.68177E-05-2.83471E-05-2.93441E-05 3.73673E-06-5.39612E-19 5.76864E-20
 -1       679 9.63857E-05-2.81799E-05-2.92306E-05 3.13593E-06 1.59257E-19 8.62151E-19
 -1       680 9.60720E-05-2.81224E-05-2.91208E-05 2.55681E-06-2.61302E-20 1.45938E-18
 -1       681 9.58424E-05-2.81296E-05-2.90193E-05 2.03208E-06 5.83777E-19 1.79457E-18
 -1       682 9.56732E-05-2.81714E-05-2.89289E-05 1.57714E-06-2.39956E-19 1.15586E-18
 -1       683 9.55480E-05-2.82283E-05-2.88510E-05 1.19602E-06-4.41447E-19 8.79276E-19
 -1       684 9.54555E-05-2.82885E-05-2.87856E-05 8.85711E-07-6.89307E-19-4.07336E-20
 -1       685 9.53873E-05-2.83455E-05-2.87320E-05 6.39301E-07-2.00355E-19-1.48808E-19
 -1       686 9.53375E-05-2.83958E-05-2.86891E-05 4.48117E-07-4.01357E-19-4.88149E-19
 -1       687 9.53015E-05-2.84384E-05-2.86555E-05 3.03087E-07 2.90418E-21-1.25308E-18
 -1       688 9.52759E-05-2.84731E-05-2.86297E-05 1.95572E-07-1.85137E-19-1.42119E-18
 -1       689 9.52581E-05-2.85007E-05-2.86103E-05 1.17816E-07-6.60115E-19-1.04150E-18
 -1       690 9.52461E-05-2.85220E-05-2.85960E-05 6.31386E-08-7.25757E-19-7.38386E-19
 -1       691 9.52383E-05-2.85381E-05-2.85858E-05 2.59711E-08-2.22731E-19-1.12473E-18
 -1       692 9.52335E-05-2.85500E-05-2.85786E-05 1.79281E-09 3.80507E-20-5.91600E-19
 -1       693 9.52309E-05-2.85585E-05-2.85739E-05-1.29794E-08 7.72913E-19-8.48321E-20
 -1       694 9.52297E-05-2.85645E-05-2.85708E-05-2.11245E-08 4.90715E-19 3.40426E-19
 -1       695 9.52295E-05-2.85685E-05-2.85690E-05-2.47516E-08 4.49152E-19 6.45218E-19
 -1       696 9.52299E-05-2.85711E-05-2.85680E-05-2.54269E-08-3.36815E-19 6.74826E-20
 -1       697 9.52306E-05-2.85726E-05-2.85677E-05-2.42849E-08-6.76858E-20 1.10482E-18
 -1       698 9.52314E-05-2.85735E-05-2.85677E-05-2.21243E-08 5.50417E-20 1.65803E-19
 -1       699 9.52324E-05-2.85739E-05-2.85679E-05-1.94860E-08 7.68174E-19-1.04064E-18
 -1       700 9.52333E-05-2.85740E-05-2.85683E-05-1.67176E-08 1.01633E-18-1.49502E-18
 -1       701 9.52342E-05-2.85739E-05-2.85687E-05-1.40223E-08 4.59279E-19-5.60791E-19
 -1       702 9.52350E-05-2.85738E-05-2.85691E-05-1.15007E-08-5.62956E-19 1.40494E-18
 -1       703 9.52357E-05-2.85738E-05-2.85694E-05-9.18298E-09-8.50569E-19 3.23660E-18
 -1       704 9.52367E-05-2.85743E-05-2.85696E-05-7.66419E-09-1.28835E-18 2.66613E-18
 -1       705 9.52440E-05-2.85812E-05-2.85698E-05-1.38445E-09 2.47311E-19 2.11454E-18
 -1       706 3.17665E-05 3.15291E-06-1.44915E-05-2.51938E-06-5.27122E-19-5.72049E-18
 -1       707 9.52420E-05-2.85794E-05-2.85697E-05-6.20037E-09 2.75714E-19-2.44696E-18
 -1       708 9.52440E-05-2.85812E-05-2.85698E-05 1.42364E-09 1.54636E-18-2.33179E-19
 -1       709 9.52433E-05-2.85806E-05-2.85698E-05-4.03130E-09 2.04658E-19-2.58498E-18
 -1       710 9.52433E-05-2.85806E-05-2.85698E-05 4.02489E-09 8.46184E-19 1.14596E-18
 -1       711 9.52421E-05-2.85794E-05-2.85697E-05 6.20159E-09-1.04365E-18-7.79071E-19
 -1       712 9.52403E-05-2.85777E-05-2.85697E-05 7.61950E-09-6.96559E-19-6.00128E-19
 -1       713 1.10681E-04-3.13894E-05-3.39888E-05 1.35806E-05 1.35319E-18 3.98526E-19
 -1       714 1.34948E-04-4.52466E-05-3.87068E-05-4.73044E-06 9.44640E-19-3.97367E-18
 -1       715 1.09594E-04-3.68028E-05-3.11265E-05 5.39092E-06-3.26339E-20 7.50617E-20
 -1       716 9.52371E-05-2.85747E-05-2.85696E-05 7.55911E-09 9.00540E-19-2.29483E-18
 -1       717 1.21225E-04-1.21550E-05-4.72392E-05 1.01147E-05 5.31513E-18-3.25830E-19
 -1       718 1.01230E-04-4.20216E-05-2.51755E-05-2.88017E-05-1.95516E-18-1.58508E-18
 -1       719 1.03486E-04-2.17446E-05-3.50753E-05-2.89833E-06 1.98250E-18-1.22843E-18
 -1       720 1.04174E-04-2.19972E-05-3.52186E-05 5.01078E-06 2.49035E-18-3.29367E-19
 -1       721 1.01763E-04-3.21712E-05-2.98117E-05-7.82942E-06-7.09982E-19-1.29666E-18
 -1       722 3.74832E-05-9.64738E-06-1.13658E-05 3.40006E-07-2.44178E-19 5.84712E-18
 -1       723 1.12524E-04-3.44375E-05-3.34688E-05 1.30681E-05 1.37816E-18 2.13293E-19
 -1       724 5.36545E-05-5.16970E-06-2.05790E-05 1.27896E-05 3.84712E-19-4.05096E-18
 -1       725 1.06555E-04-5.10476E-05-2.35894E-05-2.99280E-05 2.53805E-18-5.25888E-19
 -1       726 1.19567E-04-1.27784E-05-4.61941E-05-7.18144E-06 4.15073E-18-2.96308E-18
 -1       727 1.35066E-04-5.67210E-05-3.36883E-05 3.16480E-06 1.77678E-19 1.56889E-18
 -1       728 7.43843E-05-3.48760E-05-1.65456E-05-3.59708E-05 2.34559E-18 1.02253E-18
 -1       729 1.31848E-04-4.18875E-05-3.87757E-05 8.34287E-06 1.66594E-18 1.41174E-18
 -1       730 1.23151E-04-4.95396E-05-3.15863E-05-1.30708E-05-7.59961E-19 2.61508E-19
 -1       731 7.71940E-05-2.95468E-05-2.00686E-05 2.82815E-05 1.60942E-18-2.82415E-18
 -1       732 1.33156E-04-3.10283E-05-4.40884E-05 1.60577E-05-3.25081E-18-3.86930E-18
 -1       733 1.12151E-04-4.93766E-05-2.67478E-05 2.07524E-05 1.43479E-18-3.67338E-19
 -1       734 1.26552E-04-2.48399E-05-4.39664E-05 1.52266E-05 3.87833E-18 9.14849E-19
 -1       735 1.28517E-04-5.61987E-05-3.10473E-05 1.22204E-05-1.46060E-18-3.59849E-18
 -1       736 1.30903E-04-5.86095E-05-3.10151E-05-1.11738E-05 1.76458E-18-1.96111E-18
 -1       737 1.27691E-04-2.53283E-05-4.42889E-05-1.20165E-05 3.04254E-18-3.62729E-18
 -1       738 7.82462E-05-1.96758E-05-2.49781E-05 1.55721E-05 5.20601E-19-2.27391E-18
 -1       739 4.46006E-05-1.98948E-07-1.87503E-05-1.76907E-05-1.66970E-18-4.99888E-18
 -1       740 4.05162E-05 3.38247E-06-1.85163E-05 1.15536E-06-4.27240E-19-4.87385E-18
 -1       741 1.38974E-04-3.25299E-05-4.60381E-05-1.83136E-05-3.47384E-18 1.68014E-18
 -1       742 9.52388E-05-2.85763E-05-2.85696E-05-7.89802E-09-9.58210E-19 9.45791E-19
 -1       743 1.14117E-04-1.16603E-05-4.42781E-05 2.39129E-06 4.44811E-18-1.63874E-18
 -1       744 9.52387E-05-2.85763E-05-2.85696E-05 8.58706E-09-5.58568E-19 1.56861E-18
 -1       745 9.52405E-05-2.85780E-05-2.85697E-05-7.38099E-09 4.82220E-19-1.63182E-19
 -1       746 1.15239E-04-3.76131E-05-3.32732E-05 8.26850E-06 5.45536E-19 1.00415E-19
 -1       747 1.16137E-04-2.17013E-05-4.07123E-05-1.11264E-05 2.79836E-18-2.54575E-18
 -1       748 9.52459E-05-2.85820E-05-2.85702E-05 3.30787E-09-1.44631E-20-1.14460E-18
 -1       749 1.37135E-04-4.64922E-05-3.91594E-05 1.26753E-05-1.74107E-18-5.14882E-18
 -1       750 9.68491E-05-3.64731E-05-2.58027E-05-2.09787E-05 1.56674E-18-5.47637E-19
 -1       751 9.20830E-05-2.96950E-05-2.67266E-05-1.74008E-05 1.14252E-19 1.14733E-19
 -1       752 9.04906E-05-2.61200E-05-2.75827E-05-1.41257E-05-2.45991E-20 7.96951E-19
 -1       753 9.03824E-05-2.45025E-05-2.82337E-05-1.15650E-05-2.34507E-19-3.59559E-19
 -1       754 9.09581E-05-2.40610E-05-2.86699E-05-9.51255E-06 9.46877E-20-4.15665E-19
 -1       755 9.17482E-05-2.42453E-05-2.89295E-05-7.82410E-06 2.46200E-19-1.21128E-18
 -1       756 9.25278E-05-2.47211E-05-2.90597E-05-6.39952E-06-1.36082E-18-1.74424E-18
 -1       757 9.32037E-05-2.52973E-05-2.91025E-05-5.18448E-06-1.09139E-18-7.40830E-19
 -1       758 9.37501E-05-2.58717E-05-2.90905E-05-4.14992E-06 8.88504E-19 6.92176E-19
 -1       759 9.41729E-05-2.63950E-05-2.90475E-05-3.27725E-06 1.56784E-18 8.86491E-19
 -1       760 9.44904E-05-2.68479E-05-2.89895E-05-2.55083E-06 6.27316E-19 8.33442E-19
 -1       761 9.47236E-05-2.72272E-05-2.89270E-05-1.95513E-06-2.37236E-19 2.90968E-19
 -1       762 9.48920E-05-2.75377E-05-2.88661E-05-1.47413E-06-5.40401E-19 3.99538E-19
 -1       763 9.50117E-05-2.77875E-05-2.88103E-05-1.09180E-06-6.90423E-19 1.39245E-18
 -1       764 9.50955E-05-2.79854E-05-2.87614E-05-7.92643E-07-7.47154E-19 9.36404E-19
 -1       765 9.51532E-05-2.81403E-05-2.87198E-05-5.62314E-07-4.26151E-19 4.89153E-19
 -1       766 9.51922E-05-2.82599E-05-2.86853E-05-3.87924E-07-7.70721E-19 6.95420E-19
 -1       767 9.52179E-05-2.83510E-05-2.86572E-05-2.58234E-07 5.44573E-19 8.36705E-19
 -1       768 9.52342E-05-2.84195E-05-2.86349E-05-1.63674E-07-1.52377E-18 1.86431E-18
 -1       769 9.52439E-05-2.84701E-05-2.86173E-05-9.62685E-08-1.97753E-18 1.78768E-18
 -1       770 9.52493E-05-2.85069E-05-2.86039E-05-4.94984E-08-3.10575E-19 2.08730E-18
 -1       771 9.52516E-05-2.85331E-05-2.85937E-05-1.81299E-08-1.40874E-18 2.61200E-18
 -1       772 9.52521E-05-2.85512E-05-2.85861E-05 1.96850E-09-1.23215E-18 2.64411E-18
 -1       773 9.52514E-05-2.85634E-05-2.85806E-05 1.40028E-08-6.22091E-19 1.28474E-18
 -1       774 9.52500E-05-2.85712E-05-2.85767E-05 2.04186E-08 2.31802E-19 1.66532E-19
 -1       775 9.52484E-05-2.85758E-05-2.85740E-05 2.30476E-08 1.62611E-18-7.44104E-19
 -1       776 9.52466E-05-2.85783E-05-2.85721E-05 2.32343E-08 9.68462E-19-2.29203E-18
 -1       777 9.52450E-05-2.85793E-05-2.85710E-05 2.19425E-08 2.51919E-19-1.73278E-18
 -1       778 9.52434E-05-2.85794E-05-2.85703E-05 1.98434E-08-2.93965E-19-8.58246E-19
 -1       779 9.52421E-05-2.85790E-05-2.85699E-05 1.73864E-08-1.61667E-18-2.82426E-18
 -1       780 9.52409E-05-2.85783E-05-2.85697E-05 1.48550E-08-6.15151E-19-2.79733E-18
 -1       781 9.52400E-05-2.85775E-05-2.85696E-05 1.24202E-08-7.36174E-19-2.25219E-18
 -1       782 9.52392E-05-2.85768E-05-2.85696E-05 1.04455E-08-5.25890E-19-2.89959E-20
 -1       783 6.87074E-05-2.57523E-05-1.81136E-05-2.72489E-05 2.51548E-18 1.95135E-18
 -1       784 1.12839E-04-2.98980E-05-3.56274E-05-1.17003E-05 1.64301E-18-1.96009E-18
 -1       785 1.11107E-04-4.06943E-05-3.01788E-05 1.89748E-07-5.22055E-19-9.02282E-19
 -1       786 1.06934E-04-3.81003E-05-2.94975E-05 3.66851E-06-4.50654E-19-3.27589E-19
 -1       787 1.03176E-04-3.50119E-05-2.92148E-05 5.54685E-06-6.34845E-19-9.84305E-20
 -1       788 1.00275E-04-3.23140E-05-2.91270E-05 6.28120E-06-2.69514E-19-5.51501E-19
 -1       789 9.82354E-05-3.02853E-05-2.91216E-05 6.28716E-06-1.74670E-19 9.37258E-19
 -1       790 9.68971E-05-2.89153E-05-2.91351E-05 5.86852E-06-3.46294E-19 7.76051E-19
 -1       791 9.60706E-05-2.80827E-05-2.91376E-05 5.22966E-06-1.63733E-19 8.30492E-19
 -1       792 9.55903E-05-2.76435E-05-2.91199E-05 4.50302E-06-3.26024E-19 6.07430E-19
 -1       793 9.53308E-05-2.74693E-05-2.90833E-05 3.77107E-06-8.73937E-19 7.50432E-19
 -1       794 9.52052E-05-2.74608E-05-2.90331E-05 3.08301E-06-8.63201E-19 1.23512E-18
 -1       795 9.51562E-05-2.75464E-05-2.89755E-05 2.46589E-06-2.40822E-20 1.95343E-18
 -1       796 9.51479E-05-2.76778E-05-2.89156E-05 1.93178E-06 4.13503E-19 2.11566E-18
 -1       797 9.51589E-05-2.78240E-05-2.88577E-05 1.48274E-06 1.86847E-19 9.86281E-19
 -1       798 9.51769E-05-2.79665E-05-2.88044E-05 1.11455E-06-3.48309E-19 6.72191E-19
 -1       799 9.51956E-05-2.80955E-05-2.87571E-05 8.19355E-07-3.35154E-19 4.25199E-20
 -1       800 9.52118E-05-2.82065E-05-2.87165E-05 5.87619E-07-3.27309E-19-1.99534E-20
 -1       801 9.52246E-05-2.82985E-05-2.86826E-05 4.09393E-07-6.74712E-19 5.41596E-19
 -1       802 9.52339E-05-2.83726E-05-2.86548E-05 2.75136E-07-1.09870E-19 1.47118E-18
 -1       803 9.52401E-05-2.84306E-05-2.86327E-05 1.76186E-07-5.03213E-19 1.60917E-19
 -1       804 9.52440E-05-2.84749E-05-2.86153E-05 1.04995E-07-1.01424E-18-1.48359E-19
 -1       805 9.52459E-05-2.85081E-05-2.86019E-05 5.51825E-08-2.41114E-19 7.34906E-19
 -1       806 9.52466E-05-2.85322E-05-2.85919E-05 2.15004E-08 3.38687E-19 9.14389E-20
 -1       807 9.52464E-05-2.85493E-05-2.85845E-05-2.71791E-10 8.22952E-19-1.22951E-18
 -1       808 9.52457E-05-2.85610E-05-2.85792E-05-1.34564E-08-1.22277E-18-1.05705E-18
 -1       809 9.52447E-05-2.85687E-05-2.85754E-05-2.06160E-08-6.32822E-19 1.22656E-18
 -1       810 9.52436E-05-2.85735E-05-2.85729E-05-2.36869E-08-9.75253E-19 2.21062E-18
 -1       811 9.52425E-05-2.85762E-05-2.85713E-05-2.41007E-08-1.07129E-18 1.98867E-18
 -1       812 9.52415E-05-2.85775E-05-2.85703E-05-2.28907E-08 6.34207E-19 4.54580E-19
 -1       813 9.52406E-05-2.85779E-05-2.85697E-05-2.07808E-08 8.72638E-19-1.19520E-18
 -1       814 9.52398E-05-2.85777E-05-2.85695E-05-1.82584E-08-2.80374E-19-4.12416E-19
 -1       815 9.52392E-05-2.85772E-05-2.85694E-05-1.56350E-08 3.24319E-19-8.84787E-20
 -1       816 9.52387E-05-2.85766E-05-2.85694E-05-1.30901E-08-1.51660E-18 4.46606E-19
 -1       817 9.52383E-05-2.85761E-05-2.85695E-05-1.07147E-08-1.90420E-18 1.38306E-18
 -1       818 9.52386E-05-2.85762E-05-2.85696E-05-9.26354E-09-8.49347E-19 6.73746E-19
 -1       819 5.11068E-05-1.30346E-05-1.60208E-05 1.33149E-05-1.24019E-18 4.58049E-18
 -1       820 9.52424E-05-2.85793E-05-2.85699E-05 8.47742E-09 7.48884E-19-1.51831E-19
 -1       821 3.90670E-05-1.40577E-06-1.57789E-05-1.96662E-05-1.67310E-18-5.51890E-18
 -1       822 9.24523E-05-3.97352E-05-2.24290E-05-2.89029E-05 2.38591E-18-7.44357E-19
 -1       823 9.52463E-05-2.85824E-05-2.85703E-05-8.15215E-12-2.89607E-19 2.00162E-19
 -1       824 1.25272E-04-3.62064E-05-3.83728E-05-1.13461E-05 1.84193E-18-3.59895E-18
 -1       825 1.14280E-04-2.93763E-05-3.64590E-05 1.50657E-05 1.85656E-18 8.18325E-19
 -1       826 9.52446E-05-2.85810E-05-2.85701E-05 6.24582E-09-8.39677E-19 2.22426E-19
 -1       827 1.14722E-04-4.13191E-05-3.14583E-05-4.80426E-06-9.70018E-20-1.65423E-18
 -1       828 1.15820E-04-3.80760E-05-3.33358E-05-9.92234E-06 8.38122E-19-2.10059E-18
 -1       829 5.18391E-05-1.32547E-05-1.62765E-05-1.28443E-05 1.01194E-18 3.51519E-18
 -1       830 8.32506E-05-2.88016E-05-2.32184E-05-2.82483E-05-2.37292E-18-2.66158E-18
 -1       831 1.37202E-04-4.93527E-05-3.78089E-05 9.06352E-06-1.55742E-18-5.88972E-18
 -1       832 1.14938E-04-4.04813E-05-3.19560E-05-2.72570E-07-4.03279E-19-1.67985E-19
 -1       833 6.72767E-05-2.52499E-05-1.77576E-05 2.93970E-05-2.48750E-18 2.01606E-18
 -1       834 1.12361E-04-4.99176E-05-2.66461E-05-2.10038E-05 2.56202E-18-8.96560E-19
 -1       835 9.83885E-05-3.58171E-05-2.67003E-05 1.65038E-05 1.17581E-18-1.06995E-18
 -1       836 1.22771E-04-3.28841E-05-3.87021E-05 1.50194E-05 2.01636E-18 1.35296E-18
 -1       837 1.26669E-04-4.77856E-05-3.39152E-05-2.69043E-06 1.30251E-19-3.44449E-18
 -1       838 1.10047E-04-2.11300E-05-3.82190E-05 1.09793E-05 2.77690E-18 1.28828E-19
 -1       839 7.75479E-05-2.39464E-05-2.27436E-05 2.17575E-05 1.14565E-18-2.46232E-18
 -1       840 9.29147E-05-4.10984E-05-2.20433E-05 3.11657E-05-2.86476E-18-1.02960E-18
 -1       841 1.14821E-04-3.63074E-05-3.36445E-05 1.19585E-05 1.11182E-18 5.04853E-19
 -1       842 1.15497E-04-5.13546E-05-2.74244E-05 1.85921E-05-2.24690E-18-2.55384E-18
 -1       843 1.23602E-04-4.44510E-05-3.39513E-05 2.04772E-06-1.33355E-19 9.75643E-19
 -1       844 1.11489E-04-4.34105E-05-2.91190E-05-1.51607E-05-1.56643E-18-3.52075E-19
 -1       845 1.15210E-04-1.94313E-05-4.12907E-05 1.33712E-05 3.59273E-18 3.44378E-19
 -1       846 9.52459E-05-2.85820E-05-2.85702E-05-3.31978E-09 1.02704E-18 8.59286E-19
 -1       847 9.52445E-05-2.85810E-05-2.85701E-05-6.26828E-09 3.24968E-19-2.25471E-18
 -1       848 1.15470E-04-3.44843E-05-3.47269E-05 1.40714E-05 1.29674E-18 9.62124E-19
 -1       849 1.08173E-04-1.52836E-05-4.00234E-05 8.04976E-07 3.29834E-18-1.01088E-18
 -1       850 5.58240E-05-1.21250E-05-1.85544E-05 4.54450E-07 2.00168E-19 3.46934E-18
 -1       851 9.52427E-05-2.85795E-05-2.85699E-05-8.12473E-09-7.62732E-19-1.79648E-18
 -1       852 1.21561E-04-3.96376E-05-3.51441E-05 1.11931E-05 7.85281E-19 9.30664E-19
 -1       853 1.20945E-04-4.98135E-05-3.04961E-05 5.02917E-06-8.89012E-19-2.34772E-18
 -1       854 9.52409E-05-2.85781E-05-2.85698E-05 9.63645E-09 8.26143E-19 6.39861E-19
 -1       855 9.52407E-05-2.85779E-05-2.85697E-05-9.02662E-09-5.06419E-19 9.23382E-21
 -1       856 7.99394E-05-2.50281E-05-2.34759E-05-2.03634E-05 9.02642E-19 6.26076E-19
 -1       857 8.15202E-05-2.24576E-05-2.53086E-05-1.46860E-05 2.55811E-19 7.55562E-19
 -1       858 8.35772E-05-2.14253E-05-2.66354E-05-1.11568E-05-6.74058E-19 5.64797E-19
 -1       859 8.57080E-05-2.14685E-05-2.75318E-05-8.83346E-06-8.83995E-19 6.47459E-19
 -1       860 8.76478E-05-2.20272E-05-2.81235E-05-7.17540E-06-5.84961E-19-8.58442E-19
 -1       861 8.93145E-05-2.28199E-05-2.84977E-05-5.89282E-06-5.03876E-19-7.80775E-19
 -1       862 9.06922E-05-2.36791E-05-2.87198E-05-4.83905E-06-6.15604E-20-5.72948E-20
 -1       863 9.18012E-05-2.45115E-05-2.88384E-05-3.94489E-06 6.63265E-19 1.12026E-18
 -1       864 9.26756E-05-2.52682E-05-2.88889E-05-3.17909E-06 6.45307E-19 9.73943E-19
 -1       865 9.33538E-05-2.59285E-05-2.88965E-05-2.52633E-06 1.33409E-18 5.67894E-20
 -1       866 9.38725E-05-2.64884E-05-2.88789E-05-1.97679E-06 2.71722E-19 2.40951E-19
 -1       867 9.42644E-05-2.69529E-05-2.88478E-05-1.52137E-06-2.06059E-20 6.53388E-19
 -1       868 9.45569E-05-2.73314E-05-2.88109E-05-1.15031E-06-4.53763E-19 3.42197E-19
 -1       869 9.47726E-05-2.76351E-05-2.87732E-05-8.53225E-07-1.30945E-18 5.14407E-19
 -1       870 9.49297E-05-2.78754E-05-2.87375E-05-6.19499E-07-1.50122E-19 1.32781E-18
 -1       871 9.50422E-05-2.80630E-05-2.87054E-05-4.38862E-07-1.11822E-18 1.59372E-18
 -1       872 9.51214E-05-2.82074E-05-2.86774E-05-3.01785E-07-7.42031E-19 4.20540E-19
 -1       873 9.51759E-05-2.83170E-05-2.86538E-05-1.99757E-07-5.22249E-19-1.34214E-18
 -1       874 9.52122E-05-2.83988E-05-2.86343E-05-1.25405E-07-7.45448E-19-1.18275E-18
 -1       875 9.52355E-05-2.84589E-05-2.86186E-05-7.25060E-08-8.69281E-19 1.91994E-18
 -1       876 9.52495E-05-2.85021E-05-2.86060E-05-3.59321E-08-1.11207E-18 9.68566E-19
 -1       877 9.52571E-05-2.85325E-05-2.85963E-05-1.15412E-08-1.37606E-18 1.22551E-18
 -1       878 9.52604E-05-2.85532E-05-2.85888E-05 3.94688E-09-1.40374E-18 5.03240E-19
 -1       879 9.52608E-05-2.85667E-05-2.85832E-05 1.30819E-08-1.13610E-18 1.17260E-18
 -1       880 9.52595E-05-2.85752E-05-2.85790E-05 1.78087E-08-4.35517E-19 1.45717E-18
 -1       881 9.52572E-05-2.85799E-05-2.85760E-05 1.95825E-08 6.82508E-19 2.41113E-19
 -1       882 9.52545E-05-2.85822E-05-2.85738E-05 1.94687E-08 1.48287E-18-2.58620E-19
 -1       883 9.52517E-05-2.85829E-05-2.85724E-05 1.82282E-08-9.66919E-19-9.01508E-19
 -1       884 9.52490E-05-2.85825E-05-2.85714E-05 1.63876E-08-1.31438E-18-2.69551E-18
 -1       885 9.52466E-05-2.85816E-05-2.85707E-05 1.43001E-08-1.32639E-18-1.83824E-18
 -1       886 9.52444E-05-2.85805E-05-2.85703E-05 1.21699E-08-6.72514E-20-3.26445E-19
 -1       887 9.91660E-05-3.29625E-05-2.83725E-05 8.72082E-06-7.20672E-19-2.61141E-19
 -1       888 1.03065E-04-3.67343E-05-2.84269E-05 8.68773E-06-7.47865E-19-4.61278E-19
 -1       889 1.08449E-04-4.12110E-05-2.88199E-05 7.38684E-06-1.15208E-18-1.13478E-18
 -1       890 9.66377E-05-3.02065E-05-2.84695E-05 8.06147E-06-8.43837E-19-3.85890E-19
 -1       891 9.51459E-05-2.83928E-05-2.86080E-05 7.12182E-06-3.38259E-19-1.39569E-19
 -1       892 9.43649E-05-2.73213E-05-2.87329E-05 6.11055E-06 4.01120E-21 2.68602E-20
 -1       893 9.40415E-05-2.67877E-05-2.88230E-05 5.13162E-06-5.42880E-19 5.52917E-19
 -1       894 9.39897E-05-2.66129E-05-2.88757E-05 4.23229E-06-7.81313E-19 1.40872E-18
 -1       895 9.40854E-05-2.66609E-05-2.88962E-05 3.43236E-06-6.74053E-19 1.18860E-18
 -1       896 9.42494E-05-2.68344E-05-2.88921E-05 2.73832E-06-7.76394E-19-5.27895E-20
 -1       897 9.44335E-05-2.70669E-05-2.88714E-05 2.14900E-06-1.97363E-19 2.15715E-19
 -1       898 9.46104E-05-2.73155E-05-2.88407E-05 1.65832E-06 7.31360E-19 2.36370E-19
 -1       899 9.47667E-05-2.75541E-05-2.88054E-05 1.25725E-06-2.87962E-19-6.15126E-19
 -1       900 9.48970E-05-2.77689E-05-2.87692E-05 9.35213E-07-1.76546E-20-7.75911E-19
 -1       901 9.50011E-05-2.79535E-05-2.87347E-05 6.81150E-07-7.69852E-19 1.31083E-19
 -1       902 9.50813E-05-2.81068E-05-2.87034E-05 4.84219E-07-5.80004E-19 9.99957E-19
 -1       903 9.51410E-05-2.82306E-05-2.86759E-05 3.34323E-07-7.29324E-19 3.25660E-19
 -1       904 9.51840E-05-2.83280E-05-2.86526E-05 2.22395E-07 3.81795E-19 1.48643E-18
 -1       905 9.52138E-05-2.84029E-05-2.86332E-05 1.40551E-07-6.74181E-19 1.11412E-18
 -1       906 9.52335E-05-2.84592E-05-2.86175E-05 8.21086E-08-5.05827E-19-6.01274E-20
 -1       907 9.52457E-05-2.85005E-05-2.86051E-05 4.15349E-08 5.93886E-20-2.01298E-20
 -1       908 9.52525E-05-2.85300E-05-2.85954E-05 1.43430E-08 3.71969E-19 6.56660E-19
 -1       909 9.52557E-05-2.85505E-05-2.85880E-05-3.03462E-09-3.36610E-19 8.49362E-19
 -1       910 9.52564E-05-2.85641E-05-2.85824E-05-1.33821E-08-1.56645E-18 1.00677E-18
 -1       911 9.52555E-05-2.85728E-05-2.85783E-05-1.88314E-08-1.55364E-18 1.82273E-18
 -1       912 9.52538E-05-2.85779E-05-2.85754E-05-2.09829E-08-4.51684E-19-6.69969E-19
 -1       913 9.52516E-05-2.85805E-05-2.85734E-05-2.10132E-08 2.25787E-19-1.25292E-18
 -1       914 9.52493E-05-2.85814E-05-2.85720E-05-1.97664E-08 1.77246E-18-3.78158E-19
 -1       915 9.52471E-05-2.85813E-05-2.85711E-05-1.78292E-08 7.91211E-20-1.92279E-20
 -1       916 9.52451E-05-2.85806E-05-2.85705E-05-1.55929E-08 3.77944E-21 2.08966E-19
 -1       917 9.52433E-05-2.85797E-05-2.85701E-05-1.33122E-08-1.25913E-18 6.96819E-19
 -1       918 9.52418E-05-2.85788E-05-2.85699E-05-1.11280E-08-2.61820E-18 1.25678E-18
 -1       919 9.52489E-05-2.85837E-05-2.85708E-05 1.95702E-09-2.08488E-18 1.10703E-18
 -1       920 8.28257E-05-3.09452E-05-2.21514E-05 2.55925E-05-2.62865E-18-2.35654E-19
 -1       921 6.66266E-05-1.93487E-05-2.01443E-05 1.88082E-05-1.48278E-18 1.84917E-18
 -1       922 1.13710E-04-4.55199E-05-2.92230E-05 7.07934E-06-1.33934E-18-1.92153E-18
 -1       923 1.02715E-04-4.29586E-05-2.55401E-05 2.14165E-05-1.95745E-18-2.11827E-18
 -1       924 6.46313E-05-1.52233E-05-2.10939E-05 9.05405E-06-6.19617E-19 2.64320E-18
 -1       925 6.49251E-05-1.59342E-05-2.08242E-05-1.16533E-05 9.50510E-19 2.60918E-18
 -1       926 9.52425E-05-2.85792E-05-2.85700E-05 1.09213E-08 1.14597E-18-1.47619E-18
 -1       927 9.52477E-05-2.85829E-05-2.85706E-05 5.67739E-09 7.79268E-19-1.61414E-18
 -1       928 9.52477E-05-2.85828E-05-2.85706E-05-5.72100E-09 1.24020E-18-4.91515E-19
 -1       929 9.52489E-05-2.85837E-05-2.85708E-05-1.98315E-09-9.17091E-19-1.17146E-18
 -1       930 9.52457E-05-2.85815E-05-2.85704E-05-8.36566E-09 9.64650E-19-7.83364E-19
 -1       931 1.10173E-04-4.56945E-05-2.76369E-05 1.42595E-05-1.86517E-18-1.23080E-18
 -1       932 9.52449E-05-2.85809E-05-2.85703E-05 9.08419E-09 5.66605E-19 2.56222E-19
 -1       933 6.56299E-05-1.42792E-05-2.19638E-05-1.87343E-06 1.41904E-19 2.69845E-18
 -1       934 9.67830E-05-3.29918E-05-2.73443E-05 1.21790E-05-8.03347E-19-6.85831E-19
 -1       935 7.58344E-05-1.78701E-05-2.48254E-05-8.28165E-06-6.10200E-19 1.99267E-18
 -1       936 8.01488E-05-1.88364E-05-2.62814E-05-6.40070E-06-7.47251E-19 1.57698E-18
 -1       937 8.34702E-05-1.99139E-05-2.72402E-05-5.20730E-06-1.42766E-18 7.57865E-19
 -1       938 8.60898E-05-2.10570E-05-2.78719E-05-4.36421E-06-6.34361E-19 1.08255E-19
 -1       939 8.81627E-05-2.21716E-05-2.82821E-05-3.69361E-06 1.97929E-19 5.65319E-19
 -1       940 8.98100E-05-2.32201E-05-2.85385E-05-3.11125E-06 6.29036E-19 4.30345E-19
 -1       941 9.11126E-05-2.41698E-05-2.86898E-05-2.58952E-06 6.74666E-19-6.94975E-20
 -1       942 9.21369E-05-2.50066E-05-2.87702E-05-2.12085E-06 7.67678E-19 3.13996E-19
 -1       943 9.29356E-05-2.57264E-05-2.88040E-05-1.70634E-06 3.29451E-19-7.74972E-19
 -1       944 9.35526E-05-2.63330E-05-2.88084E-05-1.34734E-06 1.54939E-19-3.74413E-19
 -1       945 9.40243E-05-2.68352E-05-2.87954E-05-1.04344E-06-3.84520E-19 1.38473E-19
 -1       946 9.43810E-05-2.72444E-05-2.87729E-05-7.91963E-07-5.52164E-19 2.73210E-20
 -1       947 9.46473E-05-2.75727E-05-2.87463E-05-5.88374E-07-3.69004E-19 4.14004E-19
 -1       948 9.48434E-05-2.78325E-05-2.87190E-05-4.26991E-07-7.77480E-20-5.90264E-19
 -1       949 9.49855E-05-2.80349E-05-2.86931E-05-3.01671E-07-1.36540E-18 1.80882E-18
 -1       950 9.50863E-05-2.81904E-05-2.86697E-05-2.06342E-07-1.57209E-18 1.63431E-18
 -1       951 9.51563E-05-2.83079E-05-2.86493E-05-1.35362E-07-7.53226E-19 1.22809E-18
 -1       952 9.52034E-05-2.83953E-05-2.86320E-05-8.37135E-08 7.82303E-20 2.15145E-19
 -1       953 9.52337E-05-2.84590E-05-2.86178E-05-4.70958E-08-1.22011E-18-4.55687E-19
 -1       954 9.52521E-05-2.85044E-05-2.86062E-05-2.19245E-08-9.10873E-19 6.91220E-19
 -1       955 9.52622E-05-2.85360E-05-2.85969E-05-5.28710E-09 7.91641E-20 2.31439E-18
 -1       956 9.52666E-05-2.85572E-05-2.85897E-05 5.13092E-09-6.86203E-19 3.60723E-18
 -1       957 9.52673E-05-2.85708E-05-2.85842E-05 1.11304E-08-3.61221E-19 3.40287E-18
 -1       958 9.52657E-05-2.85790E-05-2.85800E-05 1.40838E-08-7.32750E-19 2.07685E-18
 -1       959 9.52629E-05-2.85834E-05-2.85769E-05 1.50152E-08 9.04264E-20-1.06169E-18
 -1       960 9.52594E-05-2.85852E-05-2.85747E-05 1.46725E-08 7.67052E-19-2.64056E-18
 -1       961 9.52558E-05-2.85854E-05-2.85730E-05 1.35865E-08-1.99385E-18-8.26166E-19
 -1       962 9.52523E-05-2.85846E-05-2.85719E-05 1.21219E-08-3.68234E-19-2.10329E-19
 -1       963 9.52492E-05-2.85833E-05-2.85711E-05 1.05134E-08 7.64703E-19 2.86566E-19
 -1       964 9.26888E-05-2.74659E-05-2.79526E-05 8.48677E-06-5.32914E-19-3.96518E-19
 -1       965 9.40608E-05-2.95948E-05-2.76296E-05 1.02978E-05-1.00140E-18-6.88934E-19
 -1       966 1.01605E-04-3.80161E-05-2.72454E-05 1.36165E-05-1.47811E-18-1.23741E-18
 -1       967 9.21509E-05-2.62650E-05-2.82366E-05 6.90975E-06-4.33653E-19 4.75412E-20
 -1       968 9.21178E-05-2.57177E-05-2.84574E-05 5.58085E-06-1.15841E-18 6.32116E-19
 -1       969 9.23625E-05-2.55949E-05-2.86148E-05 4.47433E-06-1.03292E-18 7.72821E-19
 -1       970 9.27388E-05-2.57322E-05-2.87172E-05 3.55806E-06-2.73179E-19 2.45198E-19
 -1       971 9.31578E-05-2.60151E-05-2.87756E-05 2.80261E-06-2.51393E-19 2.54079E-19
 -1       972 9.35660E-05-2.63641E-05-2.88009E-05 2.18390E-06-7.65252E-19 8.71604E-20
 -1       973 9.39345E-05-2.67271E-05-2.88032E-05 1.68115E-06-3.47657E-20-5.83202E-19
 -1       974 9.42505E-05-2.70723E-05-2.87907E-05 1.27652E-06 4.78428E-19-1.11737E-19
 -1       975 9.45111E-05-2.73825E-05-2.87695E-05 9.54451E-07 1.21186E-19-3.34805E-19
 -1       976 9.47193E-05-2.76497E-05-2.87441E-05 7.01255E-07-8.88869E-19-2.80540E-19
 -1       977 9.48809E-05-2.78726E-05-2.87178E-05 5.04887E-07-9.76276E-19-1.70346E-19
 -1       978 9.50029E-05-2.80536E-05-2.86926E-05 3.54820E-07-1.17287E-18 4.81501E-19
 -1       979 9.50926E-05-2.81971E-05-2.86695E-05 2.41970E-07-1.17005E-18 1.76079E-19
 -1       980 9.51566E-05-2.83083E-05-2.86493E-05 1.58609E-07-5.21319E-19 2.22462E-18
 -1       981 9.52007E-05-2.83926E-05-2.86320E-05 9.82647E-08 3.10583E-19 2.73327E-18
 -1       982 9.52298E-05-2.84552E-05-2.86177E-05 5.56073E-08-2.16135E-19 2.91684E-18
 -1       983 9.52479E-05-2.85004E-05-2.86061E-05 2.63140E-08 5.47935E-20 1.84539E-18
 -1       984 9.52581E-05-2.85323E-05-2.85968E-05 6.93589E-09 4.13291E-19 2.39635E-18
 -1       985 9.52629E-05-2.85540E-05-2.85895E-05-5.23470E-09-1.44869E-18 8.13983E-19
 -1       986 9.52642E-05-2.85682E-05-2.85840E-05-1.22886E-08-1.43111E-18-9.19559E-19
 -1       987 9.52631E-05-2.85769E-05-2.85798E-05-1.58123E-08 4.04244E-19-7.42278E-19
 -1       988 9.52607E-05-2.85817E-05-2.85767E-05-1.69869E-08-4.48409E-19 4.86553E-19
 -1       989 9.52577E-05-2.85839E-05-2.85745E-05-1.66741E-08 5.15368E-19-5.31658E-19
 -1       990 9.52544E-05-2.85844E-05-2.85729E-05-1.54891E-08 1.04999E-19-4.68262E-20
 -1       991 9.52513E-05-2.85838E-05-2.85718E-05-1.38499E-08-7.37843E-19 2.02733E-18
 -1       992 9.52484E-05-2.85827E-05-2.85710E-05-1.20368E-08 5.13179E-20 2.77557E-18
 -1       993 7.88426E-05-2.45422E-05-2.32376E-05 1.83410E-05-1.79078E-18-3.84785E-19
 -1       994 7.18883E-05-1.72963E-05-2.33644E-05-1.03162E-05 4.84672E-19 2.53159E-18
 -1       995 9.29155E-05-3.41153E-05-2.51808E-05 1.93977E-05-2.01518E-18-8.01753E-19
 -1       996 9.52514E-05-2.85848E-05-2.85714E-05-4.49578E-09-1.39172E-18-3.94911E-18
 -1       997 9.52458E-05-2.85814E-05-2.85705E-05-1.02203E-08-3.53119E-19 8.56776E-19
 -1       998 9.52521E-05-2.85853E-05-2.85715E-05-2.58052E-11-2.69904E-18-4.47563E-19
 -1       999 9.52494E-05-2.85836E-05-2.85711E-05-7.90208E-09 6.25033E-19-3.56041E-19
 -1      1000 9.52514E-05-2.85849E-05-2.85714E-05 4.44300E-09-1.77187E-18 1.58234E-18
 -1      1001 7.43076E-05-1.95899E-05-2.34187E-05 1.22973E-05-1.38981E-18 8.81598E-19
 -1      1002 8.97942E-05-2.93678E-05-2.58974E-05 1.51871E-05-1.13311E-18-6.54787E-19
 -1      1003 7.99453E-05-1.84176E-05-2.63717E-05-1.65366E-06-1.49674E-18 1.22599E-18
 -1      1004 8.33700E-05-1.97856E-05-2.72513E-05-1.70421E-06-1.03827E-18 1.60537E-18
 -1      1005 8.59898E-05-2.10341E-05-2.78387E-05-1.70569E-06-2.72153E-19 1.46435E-18
 -1      1006 8.80674E-05-2.22061E-05-2.82264E-05-1.62365E-06 6.55399E-20 7.77431E-19
 -1      1007 8.97014E-05-2.32595E-05-2.84755E-05-1.48606E-06 3.81281E-19 1.35151E-18
 -1      1008 9.10050E-05-2.42068E-05-2.86281E-05-1.30987E-06-5.22425E-21 2.23021E-19
 -1      1009 9.20370E-05-2.50375E-05-2.87144E-05-1.11748E-06 1.08129E-20-1.23167E-18
 -1      1010 9.28487E-05-2.57517E-05-2.87561E-05-9.25177E-07 4.07371E-19-1.16135E-18
 -1      1011 9.34814E-05-2.63546E-05-2.87688E-05-7.45185E-07-4.07719E-19-6.42907E-19
 -1      1012 9.39693E-05-2.68546E-05-2.87636E-05-5.84903E-07-8.43473E-19-2.58001E-19
 -1      1013 9.43410E-05-2.72626E-05-2.87480E-05-4.47719E-07-5.11048E-19-3.12859E-19
 -1      1014 9.46201E-05-2.75902E-05-2.87272E-05-3.34117E-07-4.68236E-19-3.70931E-19
 -1      1015 9.48265E-05-2.78491E-05-2.87047E-05-2.42708E-07 3.09462E-19-1.51287E-18
 -1      1016 9.49764E-05-2.80505E-05-2.86826E-05-1.71053E-07-1.15798E-18-1.35373E-18
 -1      1017 9.50829E-05-2.82048E-05-2.86621E-05-1.16261E-07-1.44546E-18 2.26967E-20
 -1      1018 9.51568E-05-2.83209E-05-2.86440E-05-7.53867E-08-4.39235E-19-1.05031E-19
 -1      1019 9.52062E-05-2.84067E-05-2.86284E-05-4.56778E-08-8.09620E-19-9.02878E-20
 -1      1020 9.52379E-05-2.84689E-05-2.86153E-05-2.46988E-08-3.16950E-19 4.33650E-19
 -1      1021 9.52569E-05-2.85128E-05-2.86046E-05-1.03827E-08 8.08868E-20 1.17255E-18
 -1      1022 9.52670E-05-2.85429E-05-2.85960E-05-1.03103E-09-3.14897E-19-2.51273E-19
 -1      1023 9.52711E-05-2.85629E-05-2.85893E-05 4.71373E-09-3.52859E-19-8.29155E-19
 -1      1024 9.52714E-05-2.85753E-05-2.85840E-05 7.91032E-09-2.11902E-18-5.92837E-19
 -1      1025 9.52692E-05-2.85825E-05-2.85800E-05 9.36501E-09-1.00701E-18 1.37908E-19
 -1      1026 9.52658E-05-2.85861E-05-2.85770E-05 9.67664E-09 2.17475E-19 1.09687E-18
 -1      1027 9.52617E-05-2.85872E-05-2.85748E-05 9.28126E-09 4.10955E-19 7.58911E-19
 -1      1028 9.52576E-05-2.85869E-05-2.85732E-05 8.49451E-09-5.34824E-19 2.76236E-18
 -1      1029 9.52537E-05-2.85857E-05-2.85720E-05 7.53291E-09-6.71744E-19 3.20394E-18
 -1      1030 8.97475E-05-2.43523E-05-2.80275E-05 5.72314E-06-1.02876E-18 1.27200E-18
 -1      1031 9.04497E-05-2.43948E-05-2.83096E-05 4.40640E-06-7.11716E-19 1.81217E-19
 -1      1032 9.11970E-05-2.46830E-05-2.85065E-05 3.39255E-06-3.26430E-19-3.11112E-19
 -1      1033 9.19269E-05-2.51123E-05-2.86352E-05 2.60505E-06-3.31965E-19 1.10807E-20
 -1      1034 9.25935E-05-2.55994E-05-2.87121E-05 1.99197E-06 1.76196E-19-7.79524E-19
 -1      1035 9.31756E-05-2.60896E-05-2.87514E-05 1.51333E-06-6.35825E-20-7.79921E-19
 -1      1036 9.36665E-05-2.65495E-05-2.87647E-05 1.13971E-06-1.07455E-18-4.03275E-19
 -1      1037 9.40689E-05-2.69606E-05-2.87609E-05 8.48991E-07-2.75333E-19 4.58419E-19
 -1      1038 9.43904E-05-2.73150E-05-2.87467E-05 6.24047E-07-4.97737E-19 9.37087E-19
 -1      1039 9.46412E-05-2.76116E-05-2.87271E-05 4.51365E-07-3.11802E-19 1.70523E-19
 -1      1040 9.48323E-05-2.78535E-05-2.87053E-05 3.20111E-07-1.43519E-18 3.99430E-19
 -1      1041 9.49746E-05-2.80465E-05-2.86836E-05 2.21525E-07-1.30728E-18 9.89752E-19
 -1      1042 9.50780E-05-2.81972E-05-2.86632E-05 1.48508E-07-2.01610E-18 1.35650E-18
 -1      1043 9.51509E-05-2.83125E-05-2.86451E-05 9.53135E-08-1.20813E-18 1.75409E-18
 -1      1044 9.52006E-05-2.83988E-05-2.86293E-05 5.73156E-08 5.53953E-19 1.67268E-18
 -1      1045 9.52330E-05-2.84621E-05-2.86161E-05 3.08179E-08 3.59295E-19 1.07904E-18
 -1      1046 9.52528E-05-2.85072E-05-2.86053E-05 1.28950E-08 2.27869E-20 1.48656E-18
 -1      1047 9.52638E-05-2.85386E-05-2.85965E-05 1.25728E-09 8.78316E-19 2.43336E-18
 -1      1048 9.52686E-05-2.85596E-05-2.85896E-05-5.86482E-09-2.25840E-19 1.23395E-18
 -1      1049 9.52695E-05-2.85729E-05-2.85842E-05-9.81999E-09-4.69619E-19 2.26881E-19
 -1      1050 9.52678E-05-2.85808E-05-2.85802E-05-1.16198E-08-2.97822E-19-5.26081E-20
 -1      1051 9.52648E-05-2.85849E-05-2.85771E-05-1.20082E-08 1.46198E-18-6.95984E-19
 -1      1052 9.52610E-05-2.85864E-05-2.85748E-05-1.15177E-08 3.09100E-20 4.33316E-20
 -1      1053 9.52571E-05-2.85863E-05-2.85732E-05-1.05508E-08-9.08515E-19-5.34163E-19
 -1      1054 9.52534E-05-2.85854E-05-2.85720E-05-9.33423E-09-9.54343E-19-2.18146E-18
 -1      1055 7.11072E-05-1.56749E-05-2.37388E-05-1.62106E-06-8.23191E-19 1.53983E-18
 -1      1056 7.06056E-05-1.62546E-05-2.32752E-05 5.60004E-06-1.36320E-18 2.22940E-18
 -1      1057 8.92561E-05-2.47701E-05-2.76372E-05 7.46761E-06-1.32356E-18 5.11654E-19
 -1      1058 9.52553E-05-2.85866E-05-2.85723E-05-2.63944E-09-1.66624E-18-3.30368E-18
 -1      1059 7.61470E-05-1.71360E-05-2.52888E-05-1.56702E-06-9.65841E-19 1.31576E-18
 -1      1060 8.85622E-05-2.64685E-05-2.66102E-05 1.15778E-05-1.33151E-18-2.69391E-19
 -1      1061 8.87844E-05-2.53594E-05-2.71825E-05 9.24834E-06-1.11174E-18 9.70748E-21
 -1      1062 8.27592E-05-2.37727E-05-2.52656E-05 1.29051E-05-1.52061E-18-7.50360E-20
 -1      1063 9.52553E-05-2.85866E-05-2.85723E-05 2.56759E-09-1.74058E-18 1.68084E-18
 -1      1064 8.18614E-05-1.94907E-05-2.67196E-05 1.96555E-06-1.05412E-18 1.58631E-18
 -1      1065 8.46198E-05-2.05690E-05-2.74463E-05 1.03872E-06-5.97772E-19 1.19724E-18
 -1      1066 8.68516E-05-2.16592E-05-2.79378E-05 4.80317E-07-4.17317E-19 7.45689E-19
 -1      1067 8.86633E-05-2.26957E-05-2.82722E-05 1.20279E-07-4.56941E-19 7.71946E-19
 -1      1068 9.01220E-05-2.36508E-05-2.84883E-05-1.01586E-07-5.66295E-19 4.65954E-19
 -1      1069 9.12985E-05-2.45142E-05-2.86223E-05-2.10134E-07-5.81644E-19 7.61781E-19
 -1      1070 9.22437E-05-2.52796E-05-2.86992E-05-2.48193E-07-2.31910E-19 1.18969E-19
 -1      1071 9.29960E-05-2.59432E-05-2.87371E-05-2.44755E-07-5.67949E-19-1.19910E-18
 -1      1072 9.35879E-05-2.65066E-05-2.87492E-05-2.19299E-07-1.60877E-19-2.06694E-18
 -1      1073 9.40473E-05-2.69756E-05-2.87451E-05-1.84409E-07-1.12425E-19-1.10474E-18
 -1      1074 9.43989E-05-2.73588E-05-2.87315E-05-1.47767E-07-1.41611E-18-6.67115E-19
 -1      1075 9.46635E-05-2.76665E-05-2.87130E-05-1.13666E-07-5.49712E-19-1.61935E-18
 -1      1076 9.48593E-05-2.79094E-05-2.86928E-05-8.41688E-08-3.57241E-19-2.19438E-18
 -1      1077 9.50012E-05-2.80979E-05-2.86728E-05-5.99453E-08-7.18218E-19-1.74363E-18
 -1      1078 9.51017E-05-2.82417E-05-2.86543E-05-4.08562E-08-5.93033E-19-1.00931E-18
 -1      1079 9.51709E-05-2.83493E-05-2.86378E-05-2.63452E-08-4.41084E-19-1.93360E-19
 -1      1080 9.52168E-05-2.84284E-05-2.86236E-05-1.56854E-08-1.39162E-18-3.69190E-19
 -1      1081 9.52457E-05-2.84851E-05-2.86117E-05-8.12802E-09 1.05365E-19-1.10190E-18
 -1      1082 9.52625E-05-2.85248E-05-2.86019E-05-2.98150E-09 6.13943E-19-5.09139E-19
 -1      1083 9.52710E-05-2.85516E-05-2.85940E-05 3.50972E-10-1.94861E-19 1.51038E-18
 -1      1084 9.52738E-05-2.85690E-05-2.85878E-05 2.36083E-09 7.00892E-19 8.03624E-19
 -1      1085 9.52731E-05-2.85795E-05-2.85830E-05 3.43844E-09-1.30187E-19 2.54564E-18
 -1      1086 9.52703E-05-2.85853E-05-2.85793E-05 3.88528E-09 6.45552E-19 1.99041E-18
 -1      1087 9.52663E-05-2.85878E-05-2.85765E-05 3.93156E-09 4.09204E-19 2.43735E-18
 -1      1088 9.52618E-05-2.85882E-05-2.85744E-05 3.71285E-09 1.01736E-18 3.03868E-18
 -1      1089 9.52584E-05-2.85875E-05-2.85732E-05 3.13757E-09 4.14319E-19 3.38329E-18
 -1      1090 8.94891E-05-2.35247E-05-2.82704E-05 2.87151E-06 5.52440E-20-1.65202E-18
 -1      1091 8.82885E-05-2.30188E-05-2.79679E-05 3.90601E-06-4.16996E-19-1.18292E-18
 -1      1092 9.15583E-05-2.47985E-05-2.86108E-05 1.54937E-06 4.24302E-19-1.16651E-18
 -1      1093 9.23737E-05-2.54293E-05-2.86901E-05 1.13749E-06-7.72141E-20-8.03501E-19
 -1      1094 9.30503E-05-2.60102E-05-2.87312E-05 8.32808E-07-1.55832E-18 6.53740E-19
 -1      1095 9.36003E-05-2.65252E-05-2.87462E-05 6.06769E-07-1.09202E-18 1.02150E-18
 -1      1096 9.40386E-05-2.69679E-05-2.87444E-05 4.38848E-07-4.81959E-19 1.11439E-18
 -1      1097 9.43812E-05-2.73387E-05-2.87324E-05 3.14169E-07-8.69275E-20 2.91874E-21
 -1      1098 9.46436E-05-2.76421E-05-2.87149E-05 2.21844E-07-1.47064E-18 9.60760E-19
 -1      1099 9.48407E-05-2.78852E-05-2.86951E-05 1.53821E-07-1.85660E-18 1.26926E-18
 -1      1100 9.49854E-05-2.80763E-05-2.86753E-05 1.04086E-07-1.06842E-18 1.18413E-19
 -1      1101 9.50891E-05-2.82235E-05-2.86567E-05 6.81024E-08-8.33552E-19-6.14682E-19
 -1      1102 9.51613E-05-2.83347E-05-2.86399E-05 4.24300E-08-2.58311E-19-1.45429E-18
 -1      1103 9.52098E-05-2.84170E-05-2.86254E-05 2.44440E-08-3.41436E-19-7.79720E-19
 -1      1104 9.52408E-05-2.84766E-05-2.86132E-05 1.21400E-08-7.52282E-20 2.37474E-19
 -1      1105 9.52592E-05-2.85186E-05-2.86031E-05 3.98893E-09 4.07844E-19-1.22096E-19
 -1      1106 9.52689E-05-2.85472E-05-2.85950E-05-1.17104E-09 7.15260E-19-2.13917E-19
 -1      1107 9.52726E-05-2.85660E-05-2.85886E-05-4.21684E-09 2.43186E-19-7.36337E-19
 -1      1108 9.52725E-05-2.85776E-05-2.85835E-05-5.80420E-09 6.09818E-19-1.84487E-18
 -1      1109 9.52701E-05-2.85841E-05-2.85797E-05-6.41840E-09 7.48288E-19-1.65034E-18
 -1      1110 9.52664E-05-2.85872E-05-2.85768E-05-6.41550E-09 2.43631E-19-2.19147E-18
 -1      1111 9.52622E-05-2.85880E-05-2.85747E-05-6.03572E-09 7.52174E-20-2.59317E-18
 -1      1112 9.52587E-05-2.85876E-05-2.85733E-05-4.32830E-09 7.70656E-19-3.90903E-18
 -1      1113 8.69819E-05-2.26764E-05-2.75459E-05 5.25331E-06-1.51380E-18-8.26753E-19
 -1      1114 9.05964E-05-2.41472E-05-2.84777E-05 2.10833E-06-1.47628E-19-1.00475E-18
 -1      1115 7.55870E-05-1.74765E-05-2.49007E-05 3.71175E-06-8.54213E-19 2.04953E-18
 -1      1116 9.52590E-05-2.85878E-05-2.85734E-05-4.24362E-10-4.80607E-19-7.52117E-19
 -1      1117 8.53639E-05-2.23378E-05-2.70152E-05 6.77099E-06-1.28545E-18-4.48243E-19
 -1      1118 7.77149E-05-1.96372E-05-2.48864E-05 8.76912E-06-1.44088E-18 6.61097E-19
 -1      1119 7.91671E-05-1.86003E-05-2.59484E-05 2.72937E-06-1.39340E-18 1.48412E-18
 -1      1120 8.65781E-05-2.19005E-05-2.77416E-05 2.88903E-06-8.02874E-19-9.51299E-19
 -1      1121 8.38726E-05-2.28385E-05-2.61551E-05 9.67402E-06-1.36047E-18-2.63164E-19
 -1      1122 8.09069E-05-2.00781E-05-2.60822E-05 6.15605E-06-1.22840E-18 3.32166E-19
 -1      1123 1.44175E-04 3.40975E-10-5.21027E-05-4.32282E-05-2.31240E-19 1.23021E-17
 -1      1124 1.08720E-04 1.09880E-10-4.51579E-05-1.79605E-05-1.52042E-19 3.70333E-18
 -1      1125 9.55325E-05 6.35767E-11-4.03636E-05-7.87464E-06-1.23243E-19-3.13985E-19
 -1      1126 8.44631E-05 3.96904E-11-3.59454E-05-2.05068E-06-9.04208E-20-2.47488E-18
 -1      1127 7.43133E-05 1.67169E-11-3.18914E-05 9.41940E-07-5.82335E-20-3.76228E-18
 -1      1128 6.58074E-05-5.67387E-12-2.85402E-05 1.14227E-06-4.25634E-20-4.54986E-18
 -1      1129 6.01601E-05-2.16435E-11-2.63188E-05-1.04496E-06-3.17637E-20-4.91884E-18
 -1      1130 5.83570E-05-2.42671E-11-2.55699E-05-4.39106E-06-2.01700E-20-5.10048E-18
 -1      1131 6.05554E-05-1.24012E-11-2.63400E-05-7.13178E-06-1.27055E-20-5.12270E-18
 -1      1132 6.57359E-05 7.89604E-12-2.82685E-05-7.82017E-06 2.32934E-21-5.00732E-18
 -1      1133 7.22922E-05 2.80536E-11-3.07836E-05-5.94191E-06 4.44692E-21-4.80027E-18
 -1      1134 7.87381E-05 4.22450E-11-3.33408E-05-1.94120E-06 1.92700E-20-4.51055E-18
 -1      1135 8.43659E-05 4.99831E-11-3.56673E-05 3.39581E-06 4.54221E-20-3.98962E-18
 -1      1136 8.92631E-05 5.40596E-11-3.77706E-05 9.42450E-06 7.80329E-20-3.08974E-18
 -1      1137 9.42125E-05 6.08113E-11-3.99009E-05 1.59516E-05 1.24302E-19-1.31147E-18
 -1      1138 1.01422E-04 8.62717E-11-4.26653E-05 2.41308E-05 1.61360E-19 2.50515E-18
 -1      1139 1.23636E-04 1.97588E-10-4.70869E-05 3.93487E-05 3.93447E-19 1.10880E-17
 -1      1140 1.64392E-04-3.40973E-05-5.13759E-05-2.76632E-05-1.11205E-18 1.78605E-17
 -1      1141 1.36341E-04-4.05333E-05-4.33509E-05 1.96181E-07-4.31616E-19 1.52800E-17
 -1      1142 1.33123E-04-3.98773E-05-4.04219E-05 5.99976E-07-1.42586E-19 1.17161E-17
 -1      1143 1.31179E-04-3.93611E-05-3.89880E-05 1.10232E-07-1.37203E-19 9.03251E-18
 -1      1144 1.25647E-04-3.76509E-05-3.71255E-05-4.25268E-07-7.45124E-20 7.11153E-18
 -1      1145 1.15094E-04-3.44706E-05-3.41573E-05-9.54314E-07-5.39818E-20 6.99533E-18
 -1      1146 1.01146E-04-3.03672E-05-3.05433E-05-1.17788E-06 8.37835E-20 6.63788E-18
 -1      1147 8.90773E-05-2.68848E-05-2.75764E-05-7.66227E-07 1.01247E-20 6.09430E-18
 -1      1148 8.50937E-05-2.57398E-05-2.66122E-05 1.62497E-07 3.61445E-20 3.86030E-18
 -1      1149 9.13898E-05-2.75302E-05-2.81067E-05 9.97988E-07-1.45101E-19 1.73419E-18
 -1      1150 1.04142E-04-3.12059E-05-3.12532E-05 1.23276E-06 6.26151E-20-4.21399E-20
 -1      1151 1.16815E-04-3.49280E-05-3.45775E-05 9.12275E-07 1.39535E-19 1.17589E-18
 -1      1152 1.24847E-04-3.73329E-05-3.68846E-05 4.15769E-07-5.20793E-20 2.46063E-19
 -1      1153 1.27286E-04-3.80964E-05-3.77596E-05 3.22985E-08 2.67146E-20-8.16156E-19
 -1      1154 1.25516E-04-3.76032E-05-3.74304E-05-1.64202E-07-9.86065E-20-9.25000E-19
 -1      1155 1.21475E-04-3.64232E-05-3.63749E-05-2.20400E-07-4.67870E-20-1.91382E-18
 -1      1156 1.16696E-04-3.50125E-05-3.50307E-05-2.03816E-07-1.37319E-19-1.49668E-18
 -1      1157 1.12090E-04-3.36445E-05-3.36871E-05-1.61662E-07-8.52070E-20-1.32688E-18
 -1      1158 1.08078E-04-3.24477E-05-3.24923E-05-1.17805E-07-1.30085E-19-2.86468E-18
 -1      1159 1.04785E-04-3.14614E-05-3.14991E-05-8.12159E-08 4.55016E-20-1.10109E-18
 -1      1160 1.02183E-04-3.06794E-05-3.07083E-05-5.36130E-08 5.17021E-20 4.05656E-19
 -1      1161 1.00181E-04-3.00760E-05-3.00970E-05-3.39188E-08 1.75988E-19 2.12529E-18
 -1      1162 9.86726E-05-2.96201E-05-2.96348E-05-2.03573E-08-2.51206E-20 3.86178E-18
 -1      1163 9.75564E-05-2.92820E-05-2.92920E-05-1.12668E-08-1.67778E-19 4.69693E-19
 -1      1164 9.67448E-05-2.90355E-05-2.90422E-05-5.32831E-09 3.15222E-20-3.84737E-19
 -1      1165 9.61657E-05-2.88592E-05-2.88636E-05-1.56781E-09-1.33988E-19 3.33760E-19
 -1      1166 9.57615E-05-2.87358E-05-2.87385E-05 7.09506E-10 2.37903E-19 1.65280E-18
 -1      1167 9.54868E-05-2.86516E-05-2.86532E-05 1.99089E-09-2.33093E-20 8.03881E-19
 -1      1168 9.53068E-05-2.85962E-05-2.85971E-05 2.61520E-09-1.18621E-20-5.00658E-19
 -1      1169 9.51946E-05-2.85615E-05-2.85618E-05 2.81700E-09 2.68026E-19-8.21555E-19
 -1      1170 9.51301E-05-2.85413E-05-2.85413E-05 2.75772E-09-3.63026E-19-1.17790E-18
 -1      1171 9.50983E-05-2.85311E-05-2.85309E-05 2.54757E-09 3.43687E-19-3.03891E-18
 -1      1172 9.50881E-05-2.85275E-05-2.85273E-05 2.26069E-09-2.19933E-19-2.84871E-18
 -1      1173 9.50915E-05-2.85282E-05-2.85279E-05 1.94582E-09 2.02948E-19-2.67216E-18
 -1      1174 9.51029E-05-2.85313E-05-2.85310E-05 1.63382E-09-1.84814E-19-1.57078E-18
 -1      1175 9.51184E-05-2.85358E-05-2.85355E-05 1.34312E-09 2.90702E-19 5.23025E-19
 -1      1176 9.51354E-05-2.85408E-05-2.85405E-05 1.08355E-09-1.47194E-19-3.47263E-19
 -1      1177 9.51522E-05-2.85457E-05-2.85455E-05 8.59238E-10-2.07927E-19-3.25584E-18
 -1      1178 9.51679E-05-2.85504E-05-2.85502E-05 6.70563E-10 5.55187E-19-4.24299E-18
 -1      1179 9.51820E-05-2.85546E-05-2.85544E-05 5.15637E-10-1.01606E-19-5.39799E-18
 -1      1180 9.51942E-05-2.85582E-05-2.85581E-05 3.91297E-10-3.05887E-20-7.18400E-18
 -1      1181 9.52045E-05-2.85613E-05-2.85612E-05 2.93770E-10 8.75145E-20-5.65341E-18
 -1      1182 9.52132E-05-2.85639E-05-2.85638E-05 2.19064E-10-1.49138E-19-3.78431E-18
 -1      1183 9.52202E-05-2.85660E-05-2.85659E-05 1.63086E-10-2.23880E-19 1.25476E-19
 -1      1184 9.52259E-05-2.85677E-05-2.85677E-05 1.21462E-10 1.61227E-19 2.05786E-19
 -1      1185 9.52304E-05-2.85691E-05-2.85690E-05 8.88413E-11 1.07731E-18 5.18785E-18
 -1      1186 9.52338E-05-2.85701E-05-2.85700E-05 5.73342E-11-4.62880E-19 4.55434E-18
 -1      1187 9.52361E-05-2.85708E-05-2.85707E-05 1.28227E-11-1.91069E-19 1.66618E-18
 -1      1188 9.52373E-05-2.85711E-05-2.85711E-05-7.20612E-11 1.48641E-19-7.41154E-19
 -1      1189 9.52374E-05-2.85712E-05-2.85713E-05-7.34055E-11 2.87531E-19-3.20780E-19
 -1      1190 1.52496E-04-4.38099E-05-4.52143E-05 1.34099E-05-1.79677E-19 1.84509E-17
 -1      1191 1.16144E-04-3.39337E-05-3.73335E-05 6.50732E-07 1.41005E-19 1.40168E-17
 -1      1192 1.09050E-04-3.24831E-05-3.33312E-05-7.44044E-09 1.40760E-19 9.69833E-18
 -1      1193 1.04185E-04-3.12396E-05-3.12211E-05-1.72808E-08 8.56326E-20 6.94631E-18
 -1      1194 9.89566E-05-2.97301E-05-2.95523E-05 8.70240E-08-5.89614E-21 5.53172E-18
 -1      1195 9.30939E-05-2.79950E-05-2.78874E-05 2.23322E-07 5.61114E-20 4.55471E-18
 -1      1196 8.74773E-05-2.63167E-05-2.63633E-05 3.18271E-07-6.25282E-20 4.01105E-18
 -1      1197 8.35631E-05-2.51252E-05-2.53344E-05 3.11926E-07-2.83458E-20 3.23854E-18
 -1      1198 8.26230E-05-2.48080E-05-2.51100E-05 1.90354E-07 8.83032E-20 1.65615E-18
 -1      1199 8.50207E-05-2.54941E-05-2.57719E-05 9.07955E-10 8.00347E-20 6.61030E-19
 -1      1200 8.99786E-05-2.69666E-05-2.71208E-05-1.76363E-07 8.86953E-20-8.60797E-20
 -1      1201 9.59714E-05-2.87694E-05-2.87691E-05-2.77977E-07 1.49336E-19-8.12199E-19
 -1      1202 1.01449E-04-3.04259E-05-3.03104E-05-2.88601E-07 1.14535E-19-1.80640E-18
 -1      1203 1.05407E-04-3.16239E-05-3.14609E-05-2.34462E-07-5.31910E-20-2.60521E-18
 -1      1204 1.07530E-04-3.22653E-05-3.21119E-05-1.54130E-07 1.77882E-19-4.11931E-18
 -1      1205 1.08021E-04-3.24127E-05-3.22982E-05-7.76262E-08-1.91774E-20-4.91102E-18
 -1      1206 1.07330E-04-3.22033E-05-3.21333E-05-1.95678E-08-5.83402E-20-4.54697E-18
 -1      1207 1.05933E-04-3.17823E-05-3.17496E-05 1.73576E-08 1.74937E-19-4.77431E-18
 -1      1208 1.04225E-04-3.12689E-05-3.12619E-05 3.65784E-08 1.14514E-19-4.51840E-18
 -1      1209 1.02483E-04-3.07458E-05-3.07539E-05 4.33792E-08-1.69531E-21-4.10673E-18
 -1      1210 1.00873E-04-3.02627E-05-3.02780E-05 4.26022E-08-1.33023E-20-4.19623E-18
 -1      1211 9.94767E-05-2.98441E-05-2.98617E-05 3.78651E-08-6.97739E-20-4.49545E-18
 -1      1212 9.83227E-05-2.94981E-05-2.95150E-05 3.15468E-08-3.41233E-21-5.33885E-18
 -1      1213 9.74038E-05-2.92225E-05-2.92374E-05 2.50549E-08 1.13904E-19-5.68229E-18
 -1      1214 9.66956E-05-2.90101E-05-2.90224E-05 1.91284E-08-3.78870E-19-4.40174E-18
 -1      1215 9.61660E-05-2.88512E-05-2.88609E-05 1.40858E-08 5.94844E-20-1.93642E-18
 -1      1216 9.57818E-05-2.87358E-05-2.87433E-05 1.00004E-08 3.99982E-19-4.82416E-18
 -1      1217 9.55123E-05-2.86548E-05-2.86604E-05 6.81515E-09 3.55355E-20-7.38430E-18
 -1      1218 9.53306E-05-2.86001E-05-2.86041E-05 4.41276E-09-2.14900E-19-6.27109E-18
 -1      1219 9.52142E-05-2.85650E-05-2.85678E-05 2.65729E-09-7.47465E-20-5.27202E-18
 -1      1220 9.51450E-05-2.85442E-05-2.85460E-05 1.41621E-09 3.12608E-19-4.90597E-18
 -1      1221 9.51091E-05-2.85332E-05-2.85344E-05 5.71363E-10-2.15004E-20-3.60235E-18
 -1      1222 9.50956E-05-2.85291E-05-2.85297E-05 2.30444E-11-1.34618E-19-8.07606E-19
 -1      1223 9.50966E-05-2.85293E-05-2.85296E-05-3.09590E-10-1.04006E-19-1.01216E-18
 -1      1224 9.51062E-05-2.85321E-05-2.85322E-05-4.90061E-10 1.00668E-19-2.43550E-18
 -1      1225 9.51205E-05-2.85363E-05-2.85363E-05-5.66934E-10-1.28693E-20-5.47484E-18
 -1      1226 9.51367E-05-2.85411E-05-2.85410E-05-5.76404E-10 2.65168E-19-7.55989E-18
 -1      1227 9.51530E-05-2.85460E-05-2.85458E-05-5.44774E-10 7.01956E-20-6.66362E-18
 -1      1228 9.51684E-05-2.85506E-05-2.85504E-05-4.90645E-10-3.71503E-19-5.58577E-18
 -1      1229 9.51822E-05-2.85547E-05-2.85545E-05-4.26790E-10-5.70520E-20-4.88590E-18
 -1      1230 9.51943E-05-2.85583E-05-2.85582E-05-3.61673E-10-3.96510E-19-5.30442E-18
 -1      1231 9.52046E-05-2.85614E-05-2.85613E-05-3.00675E-10-2.31326E-19-3.84333E-18
 -1      1232 9.52132E-05-2.85640E-05-2.85638E-05-2.47032E-10-1.36604E-20-4.76911E-18
 -1      1233 9.52202E-05-2.85661E-05-2.85660E-05-2.02521E-10-5.24450E-20-7.33356E-18
 -1      1234 9.52259E-05-2.85678E-05-2.85677E-05-1.67772E-10-3.40589E-20-8.40456E-18
 -1      1235 9.52304E-05-2.85691E-05-2.85690E-05-1.42065E-10 6.46724E-19-7.87390E-18
 -1      1236 9.52338E-05-2.85701E-05-2.85701E-05-1.22172E-10 2.24855E-19-6.81164E-18
 -1      1237 9.52361E-05-2.85708E-05-2.85707E-05-9.54025E-11-5.08886E-19-3.44305E-18
 -1      1238 9.52373E-05-2.85712E-05-2.85711E-05-2.65060E-11 3.75458E-19-1.36854E-18
 -1      1239 9.52373E-05-2.85712E-05-2.85713E-05 6.61286E-11-7.25288E-20-2.63618E-18
 -1      1240 9.52371E-05-2.85709E-05-2.85713E-05 6.49619E-11-2.85874E-18-4.23931E-19
 -1      1241 9.52371E-05-2.85711E-05-2.85711E-05 5.94898E-11-1.49621E-18 3.67096E-19
 -1      1242 9.52375E-05-2.85722E-05-2.85707E-05-4.71705E-11 2.18138E-18-6.30374E-19
 -1      1243 9.52381E-05-2.85743E-05-2.85701E-05-9.85022E-11 1.29361E-19-4.91191E-19
 -1      1244 9.52389E-05-2.85769E-05-2.85694E-05-1.13583E-10 1.03539E-18-2.64992E-19
 -1      1245 9.52396E-05-2.85794E-05-2.85687E-05-1.03505E-10 5.24187E-18 1.26046E-19
 -1      1246 9.52402E-05-2.85815E-05-2.85681E-05-7.87604E-11 2.76926E-18-8.62883E-19
 -1      1247 9.52406E-05-2.85829E-05-2.85677E-05-4.17736E-11-2.48690E-18-7.55375E-19
 -1      1248 9.52408E-05-2.85834E-05-2.85676E-05 3.84504E-13-4.69830E-19 9.62301E-19
 -1      1249 9.52406E-05-2.85829E-05-2.85677E-05 4.25301E-11 6.85351E-18 9.04950E-19
 -1      1250 9.52402E-05-2.85815E-05-2.85681E-05 7.93008E-11 6.35124E-18-4.51351E-19
 -1      1251 9.52396E-05-2.85794E-05-2.85687E-05 1.05305E-10 6.45613E-18 6.78279E-19
 -1      1252 9.52388E-05-2.85768E-05-2.85694E-05 1.13671E-10 6.22276E-18 2.68771E-19
 -1      1253 9.52381E-05-2.85743E-05-2.85701E-05 9.95537E-11 3.62218E-18-1.83627E-19
 -1      1254 9.52375E-05-2.85722E-05-2.85707E-05 5.67012E-11 7.54575E-19 1.17346E-19
 -1      1255 9.52372E-05-2.85711E-05-2.85711E-05-1.11805E-10 1.69361E-18-3.80503E-19
 -1      1256 9.52371E-05-2.85709E-05-2.85713E-05-7.55377E-11 9.39905E-19 4.35775E-19
 -1      1257 3.21884E-05-1.01337E-04 1.66382E-05-1.16665E-05 6.95033E-18 1.60484E-18
 -1      1258 1.80792E-05-6.40977E-05 8.92776E-06-2.27769E-05 1.54905E-17 5.40915E-18
 -1      1259 7.10931E-06-1.06999E-05-5.14586E-06-1.97005E-06 2.02712E-17 1.19237E-17
 -1      1260 2.66305E-05 2.49553E-05-2.36392E-05 4.65732E-05 2.07964E-17 1.83688E-17
 -1      1261 9.13729E-05 2.01175E-05-4.34159E-05 9.65184E-05 1.57074E-17 2.08844E-17
 -1      1262 1.85998E-04-2.14811E-05-6.09335E-05 1.12041E-04 8.61517E-18 1.79537E-17
 -1      1263 2.71134E-04-7.05631E-05-7.28888E-05 7.59779E-05 2.93815E-18 1.01669E-17
 -1      1264 3.06359E-04-9.30316E-05-7.70140E-05 1.66934E-06 6.71062E-19-1.45774E-18
 -1      1265 2.67053E-04-6.89422E-05-7.24317E-05-7.18631E-05 3.79323E-18-1.36321E-17
 -1      1266 1.83949E-04-2.25017E-05-6.03137E-05-1.08925E-04 1.05807E-17-2.24057E-17
 -1      1267 9.13341E-05 1.81933E-05-4.34658E-05-9.31297E-05 1.74311E-17-2.33578E-17
 -1      1268 2.78026E-05 2.56123E-05-2.45831E-05-4.76092E-05 2.22245E-17-1.97816E-17
 -1      1269 6.90094E-06-5.32993E-06-7.22719E-06-2.15160E-06 2.16756E-17-1.28800E-17
 -1      1270 1.49865E-05-5.27575E-05 6.54625E-06 1.70569E-05 1.53152E-17-5.70011E-18
 -1      1271 2.88880E-05-8.86380E-05 1.39221E-05 8.11133E-06 4.87722E-18-1.38718E-18
 -1      1272 2.75637E-05-8.76518E-05 1.38341E-05-1.42819E-05-6.75890E-18-1.89124E-18
 -1      1273 1.40925E-05-5.37133E-05 6.35037E-06-2.25835E-05-1.67094E-17-6.89591E-18
 -1      1274 7.08664E-06-7.36957E-06-7.25512E-06-7.93650E-07-2.18467E-17-1.40413E-17
 -1      1275 3.35516E-05 2.12079E-05-2.57409E-05 4.84751E-05-2.18043E-17-2.12283E-17
 -1      1276 1.05799E-04 1.08065E-05-4.60455E-05 9.64152E-05-1.66391E-17-2.44793E-17
 -1      1277 2.02573E-04-3.18092E-05-6.32616E-05 1.07706E-04-9.66465E-18-2.23956E-17
 -1      1278 2.87016E-04-7.81965E-05-7.50996E-05 6.76034E-05-3.67157E-18-1.47909E-17
 -1      1279 3.17821E-04-9.53798E-05-7.92655E-05-8.56435E-06-9.57412E-19-3.56410E-18
 -1      1280 2.78505E-04-7.14051E-05-7.43980E-05-8.20019E-05-3.14673E-18 9.76798E-18
 -1      1281 1.86410E-04-2.04448E-05-6.13584E-05-1.13573E-04-9.80229E-18 1.93530E-17
 -1      1282 8.95270E-05 1.93936E-05-4.28417E-05-9.35603E-05-1.65951E-17 2.14469E-17
 -1      1283 2.57746E-05 2.17707E-05-2.27974E-05-4.24779E-05-1.99019E-17 1.75581E-17
 -1      1284 7.13033E-06-1.47694E-05-4.28432E-06 5.59189E-06-2.14909E-17 1.24378E-17
 -1      1285 1.90225E-05-6.85855E-05 9.89046E-06 2.54309E-05-1.81197E-17 6.20494E-18
 -1      1286 3.33647E-05-1.04268E-04 1.70858E-05 1.23411E-05-7.19279E-18 2.06205E-18
 -1      1287 1.35650E-04-2.97200E-05-4.81906E-05-1.51998E-05-3.88153E-19 1.06542E-17
 -1      1288 1.10555E-04-1.03282E-05-4.30813E-05-1.36022E-05-1.18966E-18 1.87856E-18
 -1      1289 1.17267E-04-1.08506E-05-4.57802E-05-2.10247E-05-1.47913E-18 3.95077E-18
 -1      1290 9.65162E-05-6.25698E-06-3.87508E-05-6.82004E-06-1.15451E-18-1.19286E-18
 -1      1291 1.02494E-04-6.40176E-06-4.10201E-05-1.05242E-05-1.32264E-18 1.70465E-19
 -1      1292 1.11669E-04-1.56951E-05-4.11843E-05-1.23034E-05-2.01260E-18 1.76013E-18
 -1      1293 8.43002E-05-3.91235E-06-3.45538E-05-1.83426E-06-8.82185E-19-2.96168E-18
 -1      1294 8.99661E-05-4.00979E-06-3.66887E-05-4.10366E-06-1.02957E-18-2.14278E-18
 -1      1295 9.67530E-05-1.02755E-05-3.71673E-05-6.46785E-06-1.74049E-18-8.35704E-19
 -1      1296 7.27794E-05-1.58073E-06-3.07020E-05 7.08049E-07-6.37710E-19-4.08900E-18
 -1      1297 7.80379E-05-1.70963E-06-3.26070E-05-2.31601E-07-7.26331E-19-3.57063E-18
 -1      1298 8.31759E-05-5.97288E-06-3.32188E-05-1.89814E-06-1.26822E-18-2.44655E-18
 -1      1299 6.32258E-05 6.92577E-07-2.76479E-05 5.13829E-07-4.90856E-19-4.74912E-18
 -1      1300 6.73144E-05 5.76444E-07-2.90837E-05 8.66000E-07-5.41254E-19-4.43720E-18
 -1      1301 7.06413E-05-1.67846E-06-2.96753E-05 2.36208E-07-9.27369E-19-3.43392E-18
 -1      1302 5.72493E-05 2.30395E-06-2.57723E-05-1.96517E-06-4.11711E-19-5.11191E-18
 -1      1303 5.94258E-05 2.24654E-06-2.65473E-05-6.68048E-07-4.60362E-19-4.96938E-18
 -1      1304 6.06724E-05 2.01613E-06-2.69593E-05-4.01601E-07-7.54600E-19-4.11816E-18
 -1      1305 5.64705E-05 2.52204E-06-2.54361E-05-5.28787E-06-3.63324E-19-5.26359E-18
 -1      1306 5.61973E-05 2.56451E-06-2.54082E-05-3.83837E-06-4.05517E-19-5.18590E-18
 -1      1307 5.54764E-05 3.84325E-06-2.54984E-05-3.13054E-06-6.74450E-19-4.41935E-18
 -1      1308 6.06779E-05 1.25638E-06-2.65578E-05-7.54995E-06-3.35954E-19-5.20705E-18
 -1      1309 5.82838E-05 1.38057E-06-2.58216E-05-6.80218E-06-3.85294E-19-5.23482E-18
 -1      1310 5.64040E-05 2.97784E-06-2.55280E-05-6.21474E-06-6.32138E-19-4.53897E-18
 -1      1311 6.80300E-05-8.41321E-07-2.86924E-05-7.42363E-06-2.39710E-19-5.02925E-18
 -1      1312 6.44570E-05-6.91833E-07-2.75119E-05-7.86487E-06-2.99532E-19-5.11012E-18
 -1      1313 6.25877E-05-8.34065E-08-2.68802E-05-7.71115E-06-5.47342E-19-4.37900E-18
 -1      1314 7.61767E-05-2.88269E-06-3.12493E-05-4.69813E-06-2.98579E-20-4.79982E-18
 -1      1315 7.24407E-05-2.76512E-06-2.99276E-05-6.30941E-06-9.66676E-20-4.90566E-18
 -1      1316 7.15249E-05-3.90459E-06-2.90774E-05-6.58566E-06-3.03979E-19-4.15745E-18
 -1      1317 8.33247E-05-4.28071E-06-3.37097E-05-1.33312E-07 2.28064E-19-4.43970E-18
 -1      1318 8.01121E-05-4.22803E-06-3.24840E-05-2.51266E-06 1.45372E-19-4.62144E-18
 -1      1319 8.04999E-05-7.10163E-06-3.15435E-05-3.05948E-06 6.65715E-20-3.84235E-18
 -1      1320 8.91717E-05-5.01493E-06-3.59316E-05 5.53431E-06 6.19710E-19-3.83754E-18
 -1      1321 8.65208E-05-5.02355E-06-3.48368E-05 2.67962E-06 4.59198E-19-4.16134E-18
 -1      1322 8.80238E-05-9.13655E-06-3.38868E-05 2.01591E-06 5.59134E-19-3.38477E-18
 -1      1323 9.40411E-05-5.36796E-06-3.79172E-05 1.16176E-05 1.07679E-18-2.85048E-18
 -1      1324 9.17302E-05-5.42834E-06-3.69090E-05 8.54013E-06 8.80491E-19-3.43506E-18
 -1      1325 9.39735E-05-1.02679E-05-3.59542E-05 7.81639E-06 1.22433E-18-2.70775E-18
 -1      1326 9.93290E-05-5.97321E-06-3.99650E-05 1.81001E-05 1.47034E-18-8.63550E-19
 -1      1327 9.66586E-05-6.05288E-06-3.88349E-05 1.46178E-05 1.23307E-18-2.05665E-18
 -1      1328 9.92886E-05-1.13451E-05-3.77800E-05 1.37821E-05 1.87030E-18-1.45483E-18
 -1      1329 1.08399E-04-8.80725E-06-4.26325E-05 2.61118E-05 1.41878E-18 3.22169E-18
 -1      1330 1.03605E-04-8.32651E-06-4.09742E-05 2.10106E-05 1.34731E-18 6.68785E-19
 -1      1331 1.06323E-04-1.41930E-05-3.95585E-05 1.96557E-05 2.32992E-18 8.08069E-19
 -1      1332 1.43789E-04-2.93825E-05-4.53449E-05 3.09574E-05 7.98540E-19 1.18335E-17
 -1      1333 1.16682E-04-1.74749E-05-4.32261E-05 2.53214E-05 7.66565E-19 5.78481E-18
 -1      1334 1.18559E-04-2.36149E-05-4.07910E-05 2.22995E-05 2.42099E-18 4.61675E-18
 -1      1335 1.21314E-04-3.32744E-05-4.07282E-05 7.23656E-06 1.42725E-18 1.12143E-17
 -1      1336 1.39926E-04-4.10347E-05-4.39286E-05-5.52340E-06-1.19442E-18 1.10425E-17
 -1      1337 1.34909E-04-3.91927E-05-4.15569E-05-2.91050E-06-1.16075E-18 9.61785E-18
 -1      1338 1.32803E-04-3.94263E-05-4.02284E-05-1.33969E-06-8.51440E-19 9.10105E-18
 -1      1339 1.31381E-04-3.94822E-05-3.93791E-05-1.24808E-06-9.15060E-19 7.78373E-18
 -1      1340 1.32298E-04-3.86870E-05-4.04841E-05-4.97703E-06-1.90000E-18 6.10340E-18
 -1      1341 1.29886E-04-3.93123E-05-3.87232E-05-1.63707E-06-7.06942E-19 7.40524E-18
 -1      1342 1.27947E-04-3.89050E-05-3.80430E-05-2.03295E-06-6.77077E-19 6.28061E-18
 -1      1343 1.28628E-04-3.89727E-05-3.84562E-05-3.10930E-06-1.51803E-18 5.26481E-18
 -1      1344 1.26185E-04-3.85399E-05-3.74021E-05-3.57825E-06-3.66017E-19 5.95078E-18
 -1      1345 1.22297E-04-3.73323E-05-3.62941E-05-4.13922E-06-4.39815E-19 5.39756E-18
 -1      1346 1.25891E-04-3.88331E-05-3.72018E-05-5.43151E-06-1.02961E-18 4.66321E-18
 -1      1347 1.19533E-04-3.64979E-05-3.54530E-05-5.82330E-06-6.23429E-20 5.31524E-18
 -1      1348 1.13609E-04-3.44072E-05-3.38838E-05-6.26859E-06-1.58594E-19 5.30867E-18
 -1      1349 1.21683E-04-3.75923E-05-3.59067E-05-9.39171E-06-4.65325E-19 4.27605E-18
 -1      1350 1.09954E-04-3.30266E-05-3.29467E-05-6.69978E-06-1.96925E-19 5.05361E-18
 -1      1351 1.03589E-04-3.06040E-05-3.13506E-05-6.57225E-06-1.74912E-19 4.91004E-18
 -1      1352 1.15360E-04-3.48498E-05-3.44644E-05-1.21571E-05-3.55708E-19 4.20809E-18
 -1      1353 1.00282E-04-2.91905E-05-3.06106E-05-4.64579E-06-3.32434E-19 4.51834E-18
 -1      1354 9.63148E-05-2.76201E-05-2.96477E-05-3.75518E-06-6.74053E-19 3.86096E-18
 -1      1355 1.08238E-04-3.12282E-05-3.31633E-05-1.05243E-05-6.51805E-19 3.24652E-18
 -1      1356 9.51206E-05-2.71020E-05-2.93872E-05-1.43207E-08-7.32922E-19 3.15010E-18
 -1      1357 9.56830E-05-2.73463E-05-2.95130E-05 1.15677E-06-7.48062E-19 2.14998E-18
 -1      1358 1.03544E-04-2.87231E-05-3.23942E-05-3.56223E-06-1.52688E-18 2.18944E-18
 -1      1359 9.72487E-05-2.80869E-05-2.98201E-05 4.53414E-06-7.51384E-19 1.74499E-18
 -1      1360 1.01920E-04-2.99565E-05-3.09464E-05 5.22162E-06-8.78704E-19 6.73921E-19
 -1      1361 1.03953E-04-2.90580E-05-3.23912E-05 5.28506E-06-1.46653E-18 9.88210E-19
 -1      1362 1.05073E-04-3.13219E-05-3.16472E-05 6.37458E-06-5.55134E-19 2.41828E-19
 -1      1363 1.11238E-04-3.36658E-05-3.32010E-05 6.28321E-06 2.46578E-20-5.69630E-20
 -1      1364 1.08885E-04-3.18831E-05-3.30922E-05 1.07851E-05-1.15465E-18 4.67536E-19
 -1      1365 1.14133E-04-3.47473E-05-3.39620E-05 5.18877E-06 2.79389E-20-5.70900E-19
 -1      1366 1.19074E-04-3.64854E-05-3.52829E-05 4.62995E-06-2.07245E-19-6.86732E-19
 -1      1367 1.15042E-04-3.51481E-05-3.41520E-05 1.06410E-05-4.02076E-19-9.66359E-19
 -1      1368 1.20626E-04-3.69077E-05-3.57997E-05 2.54561E-06-3.01306E-19-5.84982E-19
 -1      1369 1.23067E-04-3.76569E-05-3.65071E-05 1.95096E-06-2.66127E-19-1.05323E-18
 -1      1370 1.19348E-04-3.70942E-05-3.51012E-05 6.62064E-06-3.51982E-19-1.96528E-18
 -1      1371 1.23163E-04-3.75293E-05-3.66486E-05 4.87090E-08-1.30099E-20-1.19667E-18
 -1      1372 1.23256E-04-3.74566E-05-3.67211E-05-3.59174E-07-1.97445E-19-1.52021E-18
 -1      1373 1.20709E-04-3.74066E-05-3.55777E-05 1.78127E-06-2.38466E-19-2.21772E-18
 -1      1374 1.22291E-04-3.70220E-05-3.65259E-05-1.57801E-06-2.63401E-19-1.19621E-18
 -1      1375 1.20847E-04-3.64709E-05-3.61499E-05-1.77608E-06-2.71600E-19-1.64604E-18
 -1      1376 1.19568E-04-3.66355E-05-3.54739E-05-1.91537E-06-4.85641E-19-1.83118E-18
 -1      1377 1.19307E-04-3.59200E-05-3.57392E-05-2.32404E-06-1.02292E-19-1.49258E-18
 -1      1378 1.17152E-04-3.51823E-05-3.51383E-05-2.37325E-06-3.33850E-20-1.66008E-18
 -1      1379 1.16893E-04-3.54104E-05-3.48989E-05-3.96336E-06-1.89054E-19-1.49560E-18
 -1      1380 1.15424E-04-3.46264E-05-3.46358E-05-2.45936E-06 6.25783E-20-1.57403E-18
 -1      1381 1.13137E-04-3.38823E-05-3.39799E-05-2.42712E-06 1.45633E-19-1.45316E-18
 -1      1382 1.13564E-04-3.41242E-05-3.40510E-05-4.66898E-06 3.38582E-20-1.37172E-18
 -1      1383 1.11467E-04-3.33758E-05-3.34744E-05-2.26204E-06-7.92422E-20-1.14385E-18
 -1      1384 1.09364E-04-3.27128E-05-3.28624E-05-2.19560E-06-5.32473E-19-1.65845E-18
 -1      1385 1.10177E-04-3.29557E-05-3.31133E-05-4.54247E-06 1.43967E-19-1.18163E-18
 -1      1386 1.07878E-04-3.22772E-05-3.24038E-05-1.92678E-06-2.82555E-19-1.91795E-18
 -1      1387 1.06091E-04-3.17255E-05-3.18792E-05-1.85280E-06 2.65095E-19-1.67437E-18
 -1      1388 1.07069E-04-3.19631E-05-3.22106E-05-4.00700E-06-5.13904E-19-1.44716E-18
 -1      1389 1.04838E-04-3.13651E-05-3.14887E-05-1.56517E-06 7.26169E-19-1.54713E-18
 -1      1390 1.03392E-04-3.09251E-05-3.10619E-05-1.49637E-06 5.04114E-19-5.80760E-19
 -1      1391 1.04389E-04-3.11503E-05-3.14097E-05-3.33377E-06 6.31971E-19-7.65473E-19
 -1      1392 1.02372E-04-3.06349E-05-3.07429E-05-1.23137E-06 3.36663E-19-3.38807E-19
 -1      1393 1.01240E-04-3.02940E-05-3.04074E-05-1.17257E-06 1.99248E-19 3.89142E-19
 -1      1394 1.02172E-04-3.05005E-05-3.07356E-05-2.66932E-06 8.97326E-19-3.72901E-20
 -1      1395 1.00432E-04-3.00655E-05-3.01544E-05-9.46167E-07 5.41823E-19 7.24465E-19
 -1      1396 9.95660E-05-2.98070E-05-2.98973E-05-8.98237E-07 5.87627E-19 1.29101E-18
 -1      1397 1.00392E-04-2.99904E-05-3.01885E-05-2.07982E-06 6.67397E-19-2.29084E-20
 -1      1398 9.89395E-05-2.96303E-05-2.97012E-05-7.13196E-07-2.64913E-20 1.19457E-18
 -1      1399 9.82905E-05-2.94379E-05-2.95079E-05-6.75260E-07-3.36139E-19 7.63678E-19
 -1      1400 9.89963E-05-2.95962E-05-2.97561E-05-1.58653E-06 3.68916E-19-7.05705E-20
 -1      1401 9.78135E-05-2.93035E-05-2.93587E-05-5.28323E-07-6.21215E-19 1.04809E-18
 -1      1402 9.73355E-05-2.91627E-05-2.92161E-05-4.98907E-07-6.52774E-19-1.03070E-19
 -1      1403 9.79221E-05-2.92960E-05-2.94217E-05-1.18842E-06-5.31460E-19 2.47062E-19
 -1      1404 9.69785E-05-2.90622E-05-2.91045E-05-3.84621E-07 1.20485E-19 2.34426E-19
 -1      1405 9.66326E-05-2.89611E-05-2.90011E-05-3.62177E-07 4.86555E-19 6.87812E-19
 -1      1406 9.71096E-05-2.90709E-05-2.91677E-05-8.74974E-07-2.89091E-19 9.35458E-19
 -1      1407 9.63699E-05-2.88872E-05-2.89191E-05-2.74748E-07 1.22290E-19 4.39859E-19
 -1      1408 9.61246E-05-2.88160E-05-2.88456E-05-2.57865E-07 5.69200E-20 8.30423E-19
 -1      1409 9.65052E-05-2.89046E-05-2.89781E-05-6.32733E-07 2.46478E-19 7.84489E-19
 -1      1410 9.59348E-05-2.87626E-05-2.87864E-05-1.91967E-07 3.63145E-19 4.22244E-19
 -1      1411 9.57649E-05-2.87137E-05-2.87353E-05-1.79445E-07 8.05132E-20 8.24208E-19
 -1      1412 9.60635E-05-2.87840E-05-2.88389E-05-4.48436E-07 4.06295E-20 6.86692E-19
 -1      1413 9.56306E-05-2.86760E-05-2.86935E-05-1.30499E-07-4.94102E-19-1.96330E-19
 -1      1414 9.55163E-05-2.86435E-05-2.86589E-05-1.21351E-07-5.68379E-19-6.97888E-19
 -1      1415 9.57468E-05-2.86983E-05-2.87388E-05-3.10264E-07-6.02321E-19-7.90202E-19
 -1      1416 9.54237E-05-2.86175E-05-2.86302E-05-8.55612E-08-1.63162E-19-9.89208E-19
 -1      1417 9.53498E-05-2.85968E-05-2.86077E-05-7.89941E-08-3.43213E-19-1.23208E-18
 -1      1418 9.55249E-05-2.86389E-05-2.86682E-05-2.08216E-07-6.93131E-19-1.37701E-18
 -1      1419 9.52880E-05-2.85796E-05-2.85885E-05-5.32857E-08-3.69939E-19-1.00053E-18
 -1      1420 9.52429E-05-2.85673E-05-2.85747E-05-4.86681E-08-3.09264E-19-1.20821E-18
 -1      1421 9.53737E-05-2.85989E-05-2.86198E-05-1.34079E-07-6.58025E-19-1.33821E-18
 -1      1422 9.52035E-05-2.85563E-05-2.85625E-05-3.05887E-08-8.06043E-19-1.06340E-18
 -1      1423 9.51785E-05-2.85498E-05-2.85547E-05-2.74253E-08-8.46467E-19-1.70609E-18
 -1      1424 9.52744E-05-2.85732E-05-2.85877E-05-8.12339E-08-5.53832E-19-1.59207E-18
 -1      1425 9.51550E-05-2.85433E-05-2.85474E-05-1.50418E-08-3.62524E-19-1.90986E-18
 -1      1426 9.51436E-05-2.85406E-05-2.85437E-05-1.29475E-08-3.08691E-19-2.23640E-18
 -1      1427 9.52124E-05-2.85576E-05-2.85674E-05-4.44244E-08-1.35264E-18-9.70468E-19
 -1      1428 9.51311E-05-2.85372E-05-2.85399E-05-4.75348E-09 4.20286E-19-2.48092E-18
 -1      1429 9.51287E-05-2.85371E-05-2.85389E-05-3.43189E-09 6.38542E-20-2.14946E-18
 -1      1430 9.51768E-05-2.85491E-05-2.85554E-05-1.95222E-08-1.48847E-19-1.51223E-18
 -1      1431 9.51236E-05-2.85358E-05-2.85374E-05 1.73411E-09-4.68831E-19-2.31240E-18
 -1      1432 9.51267E-05-2.85372E-05-2.85381E-05 2.50856E-09-2.24110E-19-2.77762E-18
 -1      1433 9.51594E-05-2.85454E-05-2.85493E-05-3.32211E-09-1.17279E-20-2.22677E-18
 -1      1434 9.51264E-05-2.85372E-05-2.85381E-05 5.53120E-09 4.74128E-19-2.17457E-18
 -1      1435 9.51326E-05-2.85394E-05-2.85397E-05 5.92806E-09 1.05131E-18-1.22609E-18
 -1      1436 9.51539E-05-2.85448E-05-2.85470E-05 6.63628E-09 2.88333E-19-2.99257E-18
 -1      1437 9.51352E-05-2.85402E-05-2.85406E-05 7.47251E-09 3.20433E-19-1.34475E-18
 -1      1438 9.51429E-05-2.85428E-05-2.85428E-05 7.61739E-09 7.51710E-20-1.09612E-18
 -1      1439 9.51559E-05-2.85462E-05-2.85472E-05 1.22185E-08 1.05710E-18-2.14013E-18
 -1      1440 9.51471E-05-2.85440E-05-2.85441E-05 8.17634E-09-6.93421E-19-1.42845E-18
 -1      1441 9.51552E-05-2.85467E-05-2.85464E-05 8.16073E-09-7.24309E-19-2.25488E-18
 -1      1442 9.51624E-05-2.85486E-05-2.85488E-05 1.48193E-08-8.00669E-19-3.04356E-18
 -1      1443 9.51601E-05-2.85481E-05-2.85479E-05 8.09285E-09-2.13530E-19-2.48911E-18
 -1      1444 9.51679E-05-2.85506E-05-2.85502E-05 7.98202E-09-4.08046E-19-3.45688E-18
 -1      1445 9.51712E-05-2.85515E-05-2.85513E-05 1.54655E-08-1.12908E-18-3.32121E-18
 -1      1446 9.51729E-05-2.85520E-05-2.85518E-05 7.54297E-09-3.55163E-19-2.92069E-18
 -1      1447 9.51801E-05-2.85543E-05-2.85539E-05 7.38232E-09 2.53859E-19-3.76086E-18
 -1      1448 9.51808E-05-2.85546E-05-2.85541E-05 1.48984E-08-5.61644E-19-3.17478E-18
 -1      1449 9.51849E-05-2.85557E-05-2.85554E-05 6.74959E-09-5.95841E-19-4.36199E-18
 -1      1450 9.51913E-05-2.85577E-05-2.85572E-05 6.56965E-09-9.41791E-19-5.40142E-18
 -1      1451 9.51903E-05-2.85575E-05-2.85569E-05 1.36415E-08-5.84310E-19-3.75880E-18
 -1      1452 9.51957E-05-2.85589E-05-2.85586E-05 5.86213E-09-6.91013E-19-5.59992E-18
 -1      1453 9.52012E-05-2.85606E-05-2.85602E-05 5.68241E-09-5.32553E-19-6.48287E-18
 -1      1454 9.51991E-05-2.85602E-05-2.85595E-05 1.20532E-08-1.31405E-18-4.10309E-18
 -1      1455 9.52050E-05-2.85617E-05-2.85614E-05 4.97555E-09 8.20971E-19-5.24222E-18
 -1      1456 9.52097E-05-2.85631E-05-2.85628E-05 4.80755E-09 1.06762E-18-4.23328E-18
 -1      1457 9.52071E-05-2.85625E-05-2.85619E-05 1.03693E-08 4.35521E-19-4.48693E-18
 -1      1458 9.52129E-05-2.85641E-05-2.85638E-05 4.14480E-09 7.64961E-19-3.56878E-18
 -1      1459 9.52168E-05-2.85652E-05-2.85649E-05 3.99415E-09 7.35752E-19-2.67650E-18
 -1      1460 9.52140E-05-2.85646E-05-2.85640E-05 8.73417E-09 1.66076E-18-3.43580E-18
 -1      1461 9.52195E-05-2.85660E-05-2.85658E-05 3.39528E-09 4.26375E-19-1.13823E-18
 -1      1462 9.52227E-05-2.85670E-05-2.85667E-05 3.26318E-09 8.35744E-19-9.29825E-20
 -1      1463 9.52199E-05-2.85663E-05-2.85658E-05 7.22542E-09 1.78390E-18-2.08445E-18
 -1      1464 9.52249E-05-2.85676E-05-2.85674E-05 2.72994E-09 7.27608E-19 5.87605E-19
 -1      1465 9.52274E-05-2.85684E-05-2.85682E-05 2.61412E-09 1.38904E-18 2.07026E-18
 -1      1466 9.52248E-05-2.85677E-05-2.85673E-05 5.87022E-09 1.95531E-18 6.06294E-19
 -1      1467 9.52292E-05-2.85689E-05-2.85687E-05 2.13389E-09 1.93650E-18 1.66241E-18
 -1      1468 9.52312E-05-2.85695E-05-2.85693E-05 2.02888E-09 1.08079E-18 3.36187E-18
 -1      1469 9.52287E-05-2.85689E-05-2.85685E-05 4.65699E-09 2.03866E-18 2.24699E-18
 -1      1470 9.52326E-05-2.85699E-05-2.85697E-05 1.57723E-09-1.72079E-18 2.63417E-18
 -1      1471 9.52340E-05-2.85703E-05-2.85701E-05 1.47428E-09-1.59038E-18 1.77401E-19
 -1      1472 9.52319E-05-2.85698E-05-2.85694E-05 3.54309E-09-5.05290E-19-3.52020E-19
 -1      1473 9.52350E-05-2.85706E-05-2.85704E-05 1.02267E-09 1.55551E-19 1.25747E-19
 -1      1474 9.52359E-05-2.85709E-05-2.85707E-05 9.10159E-10-3.91759E-19 3.02741E-19
 -1      1475 9.52342E-05-2.85705E-05-2.85701E-05 2.46438E-09-1.71302E-18-1.24640E-18
 -1      1476 9.52366E-05-2.85711E-05-2.85709E-05 4.41112E-10-1.31834E-19 4.66591E-19
 -1      1477 9.52369E-05-2.85712E-05-2.85710E-05 3.16694E-10-2.23606E-19 1.74505E-19
 -1      1478 9.52359E-05-2.85711E-05-2.85706E-05 1.37663E-09 2.11191E-19-1.21604E-20
 -1      1479 9.52372E-05-2.85712E-05-2.85712E-05-8.48426E-11-6.15858E-19 4.72829E-19
 -1      1480 9.52369E-05-2.85712E-05-2.85710E-05 2.66042E-10-2.61381E-19 1.60012E-19
 -1      1481 1.14993E-04-3.40141E-05-3.52356E-05 3.38601E-06 1.26147E-18 8.57494E-18
 -1      1482 1.21342E-04-3.50831E-05-3.78507E-05 4.76313E-06 1.05969E-18 1.05710E-17
 -1      1483 1.20145E-04-3.19856E-05-3.81142E-05 1.35856E-05 2.08391E-18 6.86001E-18
 -1      1484 1.08665E-04-3.25929E-05-3.26202E-05 2.33661E-06 8.68851E-19 6.12077E-18
 -1      1485 1.11611E-04-3.30800E-05-3.38734E-05 2.41537E-06 9.11130E-19 7.62355E-18
 -1      1486 1.13332E-04-3.33970E-05-3.44248E-05 6.34759E-06 1.88002E-18 5.26954E-18
 -1      1487 1.03559E-04-3.11620E-05-3.09557E-05 2.38947E-06 4.73746E-19 4.68056E-18
 -1      1488 1.06113E-04-3.18614E-05-3.17945E-05 2.28433E-06 4.97416E-19 5.53491E-18
 -1      1489 1.07889E-04-3.23943E-05-3.23392E-05 4.79797E-06 1.23778E-18 4.01007E-18
 -1      1490 9.84047E-05-2.95663E-05-2.94580E-05 2.64571E-06 2.61010E-19 3.87766E-18
 -1      1491 1.01187E-04-3.04541E-05-3.02591E-05 2.51742E-06 2.04730E-19 4.29000E-18
 -1      1492 1.03203E-04-3.10988E-05-3.08557E-05 4.88262E-06 6.14139E-19 3.11294E-18
 -1      1493 9.32756E-05-2.79049E-05-2.80284E-05 2.56380E-06 2.82615E-19 3.04847E-18
 -1      1494 9.61202E-05-2.88321E-05-2.88117E-05 2.53654E-06 2.81498E-19 3.46132E-18
 -1      1495 9.86726E-05-2.96075E-05-2.95769E-05 4.99234E-06 6.34421E-19 2.43575E-18
 -1      1496 8.90618E-05-2.65073E-05-2.68772E-05 1.85574E-06 1.71670E-19 2.55372E-18
 -1      1497 9.13781E-05-2.72314E-05-2.75004E-05 2.00706E-06 1.74317E-19 2.79889E-18
 -1      1498 9.45613E-05-2.81140E-05-2.84953E-05 4.28185E-06 3.69611E-19 1.89751E-18
 -1      1499 8.68776E-05-2.57780E-05-2.62846E-05 5.63591E-07 2.42463E-19 1.57872E-18
 -1      1500 8.79909E-05-2.60560E-05-2.65779E-05 8.85455E-07 2.61707E-19 2.06206E-18
 -1      1501 9.16329E-05-2.69793E-05-2.77634E-05 2.46025E-06 5.24816E-19 1.18797E-18
 -1      1502 8.74001E-05-2.59640E-05-2.64186E-05-9.29143E-07 4.10308E-19 5.58579E-19
 -1      1503 8.69314E-05-2.56854E-05-2.62885E-05-5.37043E-07 5.31017E-19 1.20704E-18
 -1      1504 9.06468E-05-2.65754E-05-2.75308E-05-1.24477E-07 8.10213E-19 5.11937E-19
 -1      1505 9.04292E-05-2.69898E-05-2.72312E-05-2.10867E-06 2.10799E-19-2.01647E-19
 -1      1506 8.85260E-05-2.62453E-05-2.67166E-05-1.78064E-06 1.58408E-19 1.17049E-19
 -1      1507 9.18487E-05-2.70455E-05-2.78364E-05-2.65204E-06 5.59975E-19-2.43244E-19
 -1      1508 9.49624E-05-2.84945E-05-2.84716E-05-2.61863E-06 3.55927E-19-7.79747E-19
 -1      1509 9.22327E-05-2.75282E-05-2.77279E-05-2.44950E-06 2.44908E-19-4.95832E-19
 -1      1510 9.47714E-05-2.81951E-05-2.85711E-05-4.29991E-06 4.95574E-19-1.11593E-18
 -1      1511 9.96813E-05-3.00187E-05-2.97991E-05-2.42840E-06 4.87520E-19-1.57093E-18
 -1      1512 9.68953E-05-2.91027E-05-2.90267E-05-2.43018E-06 3.77886E-19-1.01308E-18
 -1      1513 9.84503E-05-2.96009E-05-2.95182E-05-4.67652E-06 4.97501E-19-1.35689E-18
 -1      1514 1.03519E-04-3.12155E-05-3.09163E-05-1.77399E-06 3.05448E-19-2.13034E-18
 -1      1515 1.01284E-04-3.05357E-05-3.02822E-05-1.89323E-06 3.74342E-19-1.76146E-18
 -1      1516 1.01879E-04-3.08380E-05-3.04382E-05-3.94957E-06 6.84250E-19-1.80594E-18
 -1      1517 1.05942E-04-3.19342E-05-3.16550E-05-9.64767E-07 2.02352E-19-2.90289E-18
 -1      1518 1.04549E-04-3.15554E-05-3.12468E-05-1.12997E-06 2.53792E-19-2.64666E-18
 -1      1519 1.04380E-04-3.16633E-05-3.11477E-05-2.61475E-06 6.64577E-19-2.38241E-18
 -1      1520 1.06920E-04-3.21903E-05-3.19830E-05-2.35888E-07 2.27293E-19-3.69083E-18
 -1      1521 1.06366E-04-3.20836E-05-3.18100E-05-3.91989E-07 3.25433E-19-3.01747E-18
 -1      1522 1.05708E-04-3.20310E-05-3.15585E-05-1.18066E-06 4.89559E-19-2.75666E-18
 -1      1523 1.06726E-04-3.20888E-05-3.19636E-05 2.98849E-07-2.50674E-19-3.42929E-18
 -1      1524 1.06840E-04-3.21808E-05-3.19835E-05 1.79557E-07-1.47437E-20-3.48355E-18
 -1      1525 1.05956E-04-3.20219E-05-3.16717E-05 1.76902E-08 1.68219E-19-2.34367E-18
 -1      1526 1.05747E-04-3.17575E-05-3.17013E-05 6.22224E-07 2.51165E-20-3.91736E-18
 -1      1527 1.06298E-04-3.19688E-05-3.18519E-05 5.45772E-07 1.81765E-20-3.72348E-18
 -1      1528 1.05388E-04-3.17591E-05-3.15452E-05 8.46254E-07 1.30410E-19-2.75782E-18
 -1      1529 1.04341E-04-3.13093E-05-3.13010E-05 7.69085E-07 1.94484E-19-4.00219E-18
 -1      1530 1.05122E-04-3.15741E-05-3.15228E-05 7.29665E-07 3.17141E-20-3.99714E-18
 -1      1531 1.04308E-04-3.13575E-05-3.12584E-05 1.31202E-06-4.66199E-21-3.27190E-18
 -1      1532 1.02790E-04-3.08275E-05-3.08476E-05 7.90980E-07-5.31859E-19-3.46396E-18
 -1      1533 1.03641E-04-3.11002E-05-3.10941E-05 7.78629E-07-3.09485E-20-3.66006E-18
 -1      1534 1.02981E-04-3.09047E-05-3.08868E-05 1.49030E-06 1.28032E-19-2.82384E-18
 -1      1535 1.01278E-04-3.03658E-05-3.03997E-05 7.36229E-07 5.17885E-20-2.93294E-18
 -1      1536 1.02099E-04-3.06189E-05-3.06397E-05 7.41229E-07-1.77803E-19-3.03986E-18
 -1      1537 1.01604E-04-3.04582E-05-3.04901E-05 1.47262E-06-5.97712E-19-2.40484E-18
 -1      1538 9.99152E-05-2.99540E-05-2.99920E-05 6.42163E-07 4.31586E-20-3.49545E-18
 -1      1539 1.00647E-04-3.01738E-05-3.02077E-05 6.56797E-07 1.75706E-19-2.97504E-18
 -1      1540 1.00304E-04-3.00513E-05-3.01086E-05 1.33952E-06 1.28314E-19-2.33953E-18
 -1      1541 9.87501E-05-2.96048E-05-2.96414E-05 5.34246E-07 6.77693E-20-3.28830E-18
 -1      1542 9.93689E-05-2.97867E-05-2.98247E-05 5.53098E-07-2.01236E-20-3.26363E-18
 -1      1543 9.91512E-05-2.96997E-05-2.97660E-05 1.15126E-06 9.05399E-20-2.33854E-18
 -1      1544 9.77943E-05-2.93201E-05-2.93524E-05 4.28097E-07 1.76055E-19-4.13673E-18
 -1      1545 9.82965E-05-2.94650E-05-2.95019E-05 4.47715E-07 2.19556E-19-3.60023E-18
 -1      1546 9.81753E-05-2.94079E-05-2.94732E-05 9.47991E-07 4.23669E-19-2.57410E-18
 -1      1547 9.70364E-05-2.90954E-05-2.91224E-05 3.32183E-07-3.02377E-19-3.95624E-18
 -1      1548 9.74302E-05-2.92072E-05-2.92401E-05 3.50576E-07-2.80168E-19-4.47803E-18
 -1      1549 9.73787E-05-2.91735E-05-2.92325E-05 7.53812E-07-7.81471E-20-3.07507E-18
 -1      1550 9.64531E-05-2.89233E-05-2.89450E-05 2.50219E-07-6.45810E-19-3.19418E-18
 -1      1551 9.67526E-05-2.90069E-05-2.90347E-05 2.66393E-07-7.30212E-19-4.22186E-18
 -1      1552 9.67485E-05-2.89905E-05-2.90408E-05 5.81300E-07-7.95592E-19-3.39681E-18
 -1      1553 9.60168E-05-2.87951E-05-2.88119E-05 1.82997E-07 8.77480E-19-3.15204E-18
 -1      1554 9.62379E-05-2.88558E-05-2.88784E-05 1.96594E-07 5.48736E-19-2.52695E-18
 -1      1555 9.62637E-05-2.88513E-05-2.88925E-05 4.35493E-07-2.03932E-19-3.76513E-18
 -1      1556 9.56999E-05-2.87024E-05-2.87150E-05 1.29663E-07 6.08443E-19-4.09472E-18
 -1      1557 9.58581E-05-2.87450E-05-2.87628E-05 1.40705E-07 6.46205E-19-2.62476E-18
 -1      1558 9.59007E-05-2.87483E-05-2.87809E-05 3.16842E-07 8.88227E-19-2.14678E-18
 -1      1559 9.54769E-05-2.86375E-05-2.86467E-05 8.85554E-08-4.38685E-19-4.33401E-18
 -1      1560 9.55862E-05-2.86662E-05-2.86798E-05 9.72646E-08 3.45462E-20-4.02340E-18
 -1      1561 9.56364E-05-2.86742E-05-2.86992E-05 2.23271E-07 3.73745E-19-1.80507E-18
 -1      1562 9.53258E-05-2.85937E-05-2.86002E-05 5.77201E-08-8.99985E-19-3.04652E-18
 -1      1563 9.53981E-05-2.86121E-05-2.86222E-05 6.44129E-08-8.53448E-19-4.26737E-18
 -1      1564 9.54497E-05-2.86225E-05-2.86411E-05 1.51511E-07-1.11587E-18-9.94058E-19
 -1      1565 9.52284E-05-2.85657E-05-2.85701E-05 3.52155E-08-6.31188E-20-2.69910E-18
 -1      1566 9.52734E-05-2.85766E-05-2.85840E-05 4.02318E-08-2.73164E-19-2.96949E-18
 -1      1567 9.53225E-05-2.85878E-05-2.86013E-05 9.79278E-08-8.18818E-19-8.04758E-19
 -1      1568 9.51698E-05-2.85491E-05-2.85519E-05 1.92710E-08 1.03872E-20-2.52365E-18
 -1      1569 9.51954E-05-2.85548E-05-2.85599E-05 2.29360E-08-5.55390E-21-2.71304E-18
 -1      1570 9.52399E-05-2.85657E-05-2.85752E-05 5.89974E-08-3.28236E-19-1.18793E-18
 -1      1571 9.51387E-05-2.85404E-05-2.85422E-05 8.35833E-09-8.03075E-19-4.52802E-19
 -1      1572 9.51509E-05-2.85426E-05-2.85460E-05 1.09626E-08-9.48531E-19-2.55225E-18
 -1      1573 9.51896E-05-2.85526E-05-2.85591E-05 3.15495E-08-9.61993E-19-3.20023E-19
 -1      1574 9.51262E-05-2.85371E-05-2.85381E-05 1.20905E-09 1.62890E-19-6.49484E-19
 -1      1575 9.51294E-05-2.85370E-05-2.85393E-05 3.00055E-09 1.13340E-19-3.65193E-19
 -1      1576 9.51622E-05-2.85459E-05-2.85502E-05 1.28718E-08-5.84976E-19 3.04989E-19
 -1      1577 9.51258E-05-2.85374E-05-2.85378E-05-3.19727E-09 4.56637E-19-1.29306E-18
 -1      1578 9.51234E-05-2.85359E-05-2.85372E-05-2.01391E-09 2.75362E-19-9.27693E-19
 -1      1579 9.51504E-05-2.85435E-05-2.85461E-05 7.27466E-10 3.91120E-19-1.06495E-18
 -1      1580 9.51327E-05-2.85397E-05-2.85398E-05-5.66019E-09 1.10824E-19-2.46014E-18
 -1      1581 9.51271E-05-2.85375E-05-2.85382E-05-4.92083E-09 4.90431E-19-1.18925E-18
 -1      1582 9.51489E-05-2.85438E-05-2.85452E-05-6.67439E-09 5.15952E-19-9.65923E-19
 -1      1583 9.51437E-05-2.85431E-05-2.85430E-05-6.79121E-09 5.21820E-19-3.51410E-18
 -1      1584 9.51364E-05-2.85406E-05-2.85409E-05-6.36736E-09 5.44844E-19-2.66651E-18
 -1      1585 9.51537E-05-2.85458E-05-2.85464E-05-1.07314E-08 9.55184E-19-1.11079E-18
 -1      1586 9.51564E-05-2.85470E-05-2.85467E-05-7.04713E-09 9.93416E-20-4.63698E-18
 -1      1587 9.51486E-05-2.85445E-05-2.85445E-05-6.84046E-09-4.89508E-20-4.54927E-18
 -1      1588 9.51620E-05-2.85486E-05-2.85487E-05-1.25086E-08 8.92681E-19-2.23343E-18
 -1      1589 9.51693E-05-2.85509E-05-2.85506E-05-6.76097E-09-6.30317E-19-3.92366E-18
 -1      1590 9.51617E-05-2.85485E-05-2.85484E-05-6.69786E-09-4.22578E-19-4.20549E-18
 -1      1591 9.51719E-05-2.85518E-05-2.85515E-05-1.27987E-08-8.79749E-19-2.03886E-18
 -1      1592 9.51816E-05-2.85546E-05-2.85543E-05-6.16895E-09-1.87563E-19-3.37339E-18
 -1      1593 9.51746E-05-2.85525E-05-2.85522E-05-6.19557E-09-5.94566E-19-4.22860E-18
 -1      1594 9.51822E-05-2.85550E-05-2.85546E-05-1.21775E-08-2.77447E-19-2.12895E-18
 -1      1595 9.51928E-05-2.85580E-05-2.85577E-05-5.43316E-09 7.41177E-20-2.81048E-18
 -1      1596 9.51865E-05-2.85561E-05-2.85558E-05-5.51120E-09 2.33682E-19-2.78284E-18
 -1      1597 9.51920E-05-2.85580E-05-2.85575E-05-1.10513E-08 1.34477E-20-2.12126E-18
 -1      1598 9.52025E-05-2.85609E-05-2.85606E-05-4.66000E-09-3.85285E-19-3.08307E-18
 -1      1599 9.51971E-05-2.85593E-05-2.85590E-05-4.76311E-09 3.63601E-20-3.16502E-18
 -1      1600 9.52010E-05-2.85607E-05-2.85602E-05-9.69715E-09 8.40673E-20-7.06907E-19
 -1      1601 9.52109E-05-2.85634E-05-2.85631E-05-3.91455E-09 3.64853E-19-2.31975E-18
 -1      1602 9.52063E-05-2.85621E-05-2.85618E-05-4.02550E-09-6.52339E-19-3.35395E-18
 -1      1603 9.52090E-05-2.85630E-05-2.85626E-05-8.29492E-09-6.86297E-19-1.20782E-18
 -1      1604 9.52179E-05-2.85655E-05-2.85653E-05-3.23145E-09 3.69680E-21-3.21125E-18
 -1      1605 9.52141E-05-2.85644E-05-2.85641E-05-3.34001E-09 7.59264E-19-2.16312E-18
 -1      1606 9.52158E-05-2.85650E-05-2.85646E-05-6.95222E-09 8.35879E-19-7.80217E-20
 -1      1607 9.52236E-05-2.85672E-05-2.85670E-05-2.62258E-09 1.59902E-18-5.49659E-18
 -1      1608 9.52206E-05-2.85663E-05-2.85661E-05-2.72408E-09 8.87491E-19-4.21839E-18
 -1      1609 9.52215E-05-2.85667E-05-2.85663E-05-5.72304E-09 1.62127E-18-1.13913E-18
 -1      1610 9.52283E-05-2.85686E-05-2.85684E-05-2.08192E-09-8.14427E-19-5.97783E-18
 -1      1611 9.52258E-05-2.85679E-05-2.85677E-05-2.17653E-09-4.99297E-19-6.75974E-18
 -1      1612 9.52262E-05-2.85681E-05-2.85678E-05-4.62070E-09 1.02897E-18-3.04974E-18
 -1      1613 9.52319E-05-2.85697E-05-2.85695E-05-1.58856E-09 2.69408E-19-4.58602E-18
 -1      1614 9.52300E-05-2.85691E-05-2.85689E-05-1.68101E-09-1.25189E-19-5.17993E-18
 -1      1615 9.52300E-05-2.85692E-05-2.85689E-05-3.62623E-09-8.67593E-19-3.45563E-18
 -1      1616 9.52346E-05-2.85705E-05-2.85703E-05-1.11017E-09-1.02928E-18-3.06767E-18
 -1      1617 9.52332E-05-2.85701E-05-2.85699E-05-1.20971E-09-7.53412E-20-4.13675E-18
 -1      1618 9.52329E-05-2.85701E-05-2.85698E-05-2.69547E-09-4.42245E-19-1.42297E-18
 -1      1619 9.52363E-05-2.85710E-05-2.85708E-05-6.06366E-10-8.60011E-19-8.14905E-19
 -1      1620 9.52354E-05-2.85708E-05-2.85706E-05-7.30089E-10-1.20653E-18-2.19854E-18
 -1      1621 9.52350E-05-2.85707E-05-2.85704E-05-1.77100E-09-1.74367E-18-1.03196E-19
 -1      1622 9.52370E-05-2.85712E-05-2.85711E-05-1.11955E-10 8.38715E-19-1.54859E-18
 -1      1623 9.52368E-05-2.85712E-05-2.85710E-05-2.40997E-10 4.30751E-19-1.24224E-18
 -1      1624 9.52364E-05-2.85711E-05-2.85708E-05-8.14366E-10 4.38475E-19 7.39591E-20
 -1      1625 9.52372E-05-2.85711E-05-2.85712E-05 6.04554E-11-6.90850E-19-7.73915E-19
 -1      1626 9.52372E-05-2.85718E-05-2.85709E-05-4.74336E-10 5.34014E-19 2.05802E-18
 -1      1627 9.52371E-05-2.85714E-05-2.85710E-05-3.45860E-10-1.42750E-18 1.72990E-18
 -1      1628 9.52377E-05-2.85732E-05-2.85705E-05-9.74982E-10 9.62699E-19-3.23469E-19
 -1      1629 9.52374E-05-2.85724E-05-2.85707E-05-8.83595E-10 7.37693E-19-8.32085E-20
 -1      1630 9.52372E-05-2.85724E-05-2.85706E-05-1.34936E-09-2.26262E-20 1.66712E-18
 -1      1631 9.52383E-05-2.85752E-05-2.85699E-05-1.28619E-09 1.26907E-19-7.66952E-19
 -1      1632 9.52379E-05-2.85740E-05-2.85702E-05-1.24173E-09 1.40370E-18-2.16171E-19
 -1      1633 9.52378E-05-2.85739E-05-2.85702E-05-2.16041E-09 9.03437E-19-1.87434E-19
 -1      1634 9.52390E-05-2.85774E-05-2.85693E-05-1.36200E-09 2.75423E-18 1.07260E-18
 -1      1635 9.52386E-05-2.85761E-05-2.85696E-05-1.36620E-09 5.01967E-19 9.53408E-19
 -1      1636 9.52385E-05-2.85757E-05-2.85697E-05-2.57157E-09 1.56235E-18 8.68196E-20
 -1      1637 9.52397E-05-2.85794E-05-2.85687E-05-1.22118E-09 1.43309E-18-3.21270E-19
 -1      1638 9.52393E-05-2.85783E-05-2.85690E-05-1.26486E-09 1.14002E-18 2.28047E-19
 -1      1639 9.52391E-05-2.85776E-05-2.85692E-05-2.54242E-09 3.25814E-19 9.03836E-21
 -1      1640 9.52402E-05-2.85811E-05-2.85682E-05-8.99264E-10-8.93701E-21-1.03073E-18
 -1      1641 9.52399E-05-2.85802E-05-2.85685E-05-9.74989E-10 2.21225E-18-1.01513E-18
 -1      1642 9.52397E-05-2.85793E-05-2.85688E-05-2.12494E-09-7.10462E-19-1.06196E-18
 -1      1643 9.52405E-05-2.85820E-05-2.85679E-05-4.52483E-10-6.07014E-19-7.45236E-19
 -1      1644 9.52404E-05-2.85816E-05-2.85681E-05-5.47461E-10 4.28928E-20-1.09156E-18
 -1      1645 9.52402E-05-2.85806E-05-2.85684E-05-1.39978E-09 3.01296E-19-2.35453E-18
 -1      1646 9.52406E-05-2.85822E-05-2.85679E-05 5.50088E-11 2.96563E-18 3.03928E-18
 -1      1647 9.52406E-05-2.85822E-05-2.85679E-05-4.64535E-11-2.70688E-19 1.55699E-18
 -1      1648 9.52404E-05-2.85813E-05-2.85682E-05-4.82788E-10 1.87433E-18 1.07083E-18
 -1      1649 9.52404E-05-2.85816E-05-2.85681E-05 5.55365E-10 3.84226E-18 9.07609E-19
 -1      1650 9.52405E-05-2.85820E-05-2.85679E-05 4.60630E-10 2.07136E-18 2.10594E-18
 -1      1651 9.52404E-05-2.85813E-05-2.85682E-05 4.98917E-10 1.22074E-18 2.22417E-18
 -1      1652 9.52399E-05-2.85802E-05-2.85685E-05 9.81111E-10 3.95525E-18-1.28421E-19
 -1      1653 9.52402E-05-2.85810E-05-2.85682E-05 9.06083E-10 3.99903E-18-4.86488E-19
 -1      1654 9.52402E-05-2.85806E-05-2.85684E-05 1.41406E-09 8.10063E-19 2.88224E-19
 -1      1655 9.52393E-05-2.85783E-05-2.85690E-05 1.26603E-09 5.15915E-18 1.03891E-18
 -1      1656 9.52397E-05-2.85794E-05-2.85687E-05 1.22299E-09 4.95933E-18-1.74205E-19
 -1      1657 9.52397E-05-2.85793E-05-2.85688E-05 2.13141E-09 2.86833E-18 8.84852E-20
 -1      1658 9.52386E-05-2.85761E-05-2.85696E-05 1.36631E-09 4.13982E-18-1.36958E-18
 -1      1659 9.52390E-05-2.85773E-05-2.85693E-05 1.36300E-09 4.91321E-18 3.76140E-19
 -1      1660 9.52391E-05-2.85776E-05-2.85692E-05 2.54504E-09 3.70908E-18 3.51644E-19
 -1      1661 9.52379E-05-2.85740E-05-2.85702E-05 1.23957E-09 2.16317E-18-3.63405E-19
 -1      1662 9.52383E-05-2.85751E-05-2.85699E-05 1.28270E-09 3.15621E-18-4.07699E-19
 -1      1663 9.52384E-05-2.85757E-05-2.85698E-05 2.56874E-09 3.02606E-18-1.89565E-18
 -1      1664 9.52374E-05-2.85724E-05-2.85707E-05 8.82433E-10 9.68434E-19 1.87614E-19
 -1      1665 9.52377E-05-2.85732E-05-2.85705E-05 9.76623E-10 1.73267E-18-1.96618E-19
 -1      1666 9.52378E-05-2.85738E-05-2.85702E-05 2.14880E-09 2.38567E-18-2.06005E-18
 -1      1667 9.52370E-05-2.85716E-05-2.85709E-05 5.60879E-10-1.88639E-19-1.33784E-18
 -1      1668 9.52372E-05-2.85719E-05-2.85708E-05 7.44590E-10 9.31994E-19-1.24740E-18
 -1      1669 9.52372E-05-2.85725E-05-2.85705E-05 1.63685E-09 1.04235E-18-7.42082E-19
 -1      1670 9.52367E-05-2.85717E-05-2.85707E-05 1.15115E-09-2.41640E-19-1.69463E-18
 -1      1671 1.94192E-05-6.05409E-05 1.20774E-05-3.10335E-06 6.31929E-18 4.04924E-18
 -1      1672 2.20496E-05-6.91966E-05 1.40663E-05 3.35809E-06 7.63494E-19 3.92388E-18
 -1      1673 1.83427E-05-3.73077E-05 3.71214E-06 2.79631E-06 1.12164E-17 6.30182E-18
 -1      1674 2.29588E-05-5.80881E-05 9.02592E-06 4.32993E-07 8.55503E-18 3.86289E-18
 -1      1675 3.18538E-05-1.12440E-05-1.08920E-05 2.72308E-05 1.36432E-17 1.02144E-17
 -1      1676 2.77108E-05-3.16960E-05-2.85643E-06 1.13261E-05 1.18398E-17 7.68767E-18
 -1      1677 6.65066E-05 1.83026E-06-2.87405E-05 5.77071E-05 1.35940E-17 1.36237E-17
 -1      1678 4.52792E-05-6.20847E-06-1.92669E-05 3.51022E-05 1.42615E-17 1.16018E-17
 -1      1679 1.27144E-04-9.87152E-06-4.71562E-05 7.89340E-05 1.02237E-17 1.31375E-17
 -1      1680 8.84521E-05 2.02943E-07-3.78350E-05 6.40004E-05 1.28038E-17 1.35534E-17
 -1      1681 1.94024E-04-3.68223E-05-6.23230E-05 7.03919E-05 6.03469E-18 9.98652E-18
 -1      1682 1.51860E-04-1.69138E-05-5.50562E-05 7.55539E-05 8.58129E-18 1.20702E-17
 -1      1683 2.40812E-04-5.87538E-05-7.17969E-05 3.47248E-05 3.66935E-18 3.41735E-18
 -1      1684 2.12583E-04-4.28847E-05-6.77990E-05 6.05481E-05 5.48205E-18 8.05867E-18
 -1      1685 2.48507E-04-6.23181E-05-7.38367E-05-1.58010E-05 3.42222E-18-4.20827E-18
 -1      1686 2.49513E-04-6.23882E-05-7.38957E-05 1.94500E-05 3.23821E-18 1.09553E-18
 -1      1687 2.05706E-04-4.08572E-05-6.66060E-05-5.31261E-05 6.64630E-18-1.07658E-17
 -1      1688 2.34236E-04-5.60654E-05-7.09163E-05-2.78149E-05 4.59261E-18-5.95210E-18
 -1      1689 1.49757E-04-1.64596E-05-5.48287E-05-7.44815E-05 1.03596E-17-1.57277E-17
 -1      1690 1.91073E-04-3.63603E-05-6.18141E-05-6.88040E-05 7.53521E-18-1.38566E-17
 -1      1691 9.18711E-05-3.83113E-06-3.79818E-05-5.94554E-05 1.31146E-17-1.46969E-17
 -1      1692 1.28963E-04-1.38125E-05-4.69135E-05-7.23073E-05 1.09674E-17-1.53160E-17
 -1      1693 4.39511E-05-1.98138E-06-2.06288E-05-3.63068E-05 1.56142E-17-1.29503E-17
 -1      1694 6.54891E-05 3.27714E-06-2.94699E-05-5.70908E-05 1.49222E-17-1.51475E-17
 -1      1695 2.41844E-05-2.24767E-05-4.92124E-06-1.28859E-05 1.34797E-17-8.39050E-18
 -1      1696 2.87265E-05-4.06667E-06-1.26575E-05-2.79024E-05 1.53787E-17-1.18220E-17
 -1      1697 2.04489E-05-4.51807E-05 5.88659E-06-5.75040E-06 6.79829E-18-4.90252E-18
 -1      1698 1.78394E-05-2.74032E-05 6.80800E-07-9.16543E-06 1.09343E-17-7.24896E-18
 -1      1699 1.84348E-05-5.85668E-05 1.15628E-05-4.56221E-06 2.32511E-19-3.16621E-18
 -1      1700 1.59189E-05-5.04805E-05 9.81641E-06 2.20747E-06 5.51334E-18-3.94146E-18
 -1      1701 1.60184E-05-5.02602E-05 9.45872E-06-5.81993E-06-7.03969E-18-4.65106E-18
 -1      1702 1.85867E-05-5.78921E-05 1.12999E-05-9.47927E-08-1.86030E-18-3.39872E-18
 -1      1703 1.74809E-05-3.01113E-05 1.00896E-06 2.82196E-06-1.26742E-17-8.07074E-18
 -1      1704 2.04282E-05-4.81974E-05 6.24298E-06-9.31233E-07-8.91629E-18-5.36572E-18
 -1      1705 3.21696E-05-8.65414E-06-1.27911E-05 2.58269E-05-1.53279E-17-1.25450E-17
 -1      1706 2.62541E-05-2.59039E-05-5.08794E-06 9.78539E-06-1.40082E-17-9.27925E-18
 -1      1707 7.86127E-05-5.81518E-06-3.11419E-05 5.62043E-05-1.38998E-17-1.53144E-17
 -1      1708 5.32400E-05-1.02354E-05-2.13414E-05 3.43155E-05-1.45724E-17-1.32679E-17
 -1      1709 1.42049E-04-1.92523E-05-4.95976E-05 7.31164E-05-1.07984E-17-1.58886E-17
 -1      1710 1.01388E-04-7.57721E-06-4.03293E-05 6.06810E-05-1.32417E-17-1.58497E-17
 -1      1711 2.07310E-04-4.39334E-05-6.45547E-05 6.46273E-05-7.02466E-18-1.32188E-17
 -1      1712 1.65384E-04-2.44282E-05-5.74979E-05 7.17699E-05-9.58841E-18-1.54761E-17
 -1      1713 2.50907E-04-6.31378E-05-7.38337E-05 2.60365E-05-4.11362E-18-7.42678E-18
 -1      1714 2.24016E-04-4.88228E-05-6.97513E-05 5.31875E-05-6.01822E-18-1.16044E-17
 -1      1715 2.52561E-04-6.19980E-05-7.52570E-05-2.28895E-05-3.76019E-18-1.68560E-19
 -1      1716 2.54608E-04-6.34793E-05-7.54302E-05 1.07753E-05-3.87179E-18-5.48708E-18
 -1      1717 2.16208E-04-4.36145E-05-6.88787E-05-6.21908E-05-6.31458E-18 7.91891E-18
 -1      1718 2.46933E-04-6.03665E-05-7.33082E-05-3.73449E-05-4.39314E-18 2.56566E-18
 -1      1719 1.53144E-04-1.91868E-05-5.49600E-05-7.22692E-05-9.30805E-18 1.24658E-17
 -1      1720 1.97011E-04-3.86003E-05-6.27950E-05-6.90704E-05-6.77097E-18 9.78154E-18
 -1      1721 9.03401E-05-4.42509E-06-3.71474E-05-5.99478E-05-1.25175E-17 1.33526E-17
 -1      1722 1.28741E-04-1.33400E-05-4.67155E-05-7.55839E-05-1.03397E-17 1.37626E-17
 -1      1723 4.59570E-05-9.64937E-06-1.85706E-05-3.23487E-05-1.38812E-17 1.12833E-17
 -1      1724 6.67465E-05-1.36877E-06-2.80159E-05-5.47133E-05-1.30824E-17 1.35991E-17
 -1      1725 2.80011E-05-3.47633E-05-2.09885E-06-8.69286E-06-1.34780E-17 7.64871E-18
 -1      1726 3.21095E-05-1.42678E-05-1.01938E-05-2.44699E-05-1.42183E-17 9.76417E-18
 -1      1727 2.31466E-05-6.11616E-05 9.89294E-06 2.13098E-06-9.47576E-18 5.11677E-18
 -1      1728 1.82778E-05-4.03056E-05 4.57740E-06 1.85077E-07-1.32137E-17 7.15817E-18
 -1      1729 2.22541E-05-7.08201E-05 1.44959E-05-1.20809E-06-1.33175E-18 4.03971E-18
 -1      1730 1.98713E-05-6.40246E-05 1.29229E-05 6.22103E-06-7.24171E-18 4.97314E-18
 -1      1731 1.05277E-04-2.66136E-05-3.29742E-05 4.86395E-05 8.38774E-18 7.81811E-18
 -1      1732 6.64438E-05-3.17109E-05-1.63146E-05 4.03211E-05 7.54198E-18 8.00616E-18
 -1      1733 9.52370E-05-2.85712E-05-2.85711E-05-8.98739E-11-1.00354E-18-4.97814E-19
 -1      1734 9.52369E-05-2.85715E-05-2.85709E-05-5.87248E-10 4.70556E-19 8.36603E-19
 -1      1735 1.74690E-05-4.33622E-05 7.01393E-06 1.49680E-05 3.22423E-18 5.98831E-18
 -1      1736 3.63900E-05-3.83473E-05-2.18686E-06 2.84768E-05 5.98683E-18 6.63245E-18
 -1      1737 1.08044E-05-4.47887E-05 1.02415E-05 2.18387E-06-4.52739E-19 7.47591E-18
 -1      1738 1.49257E-04-2.77165E-05-4.92478E-05 4.65033E-05 7.18813E-18 6.25110E-18
 -1      1739 1.85382E-04-3.10123E-05-6.19248E-05 3.34344E-05 6.19340E-18 3.76506E-18
 -1      1740 2.07464E-04-3.39394E-05-6.91195E-05 1.36810E-05 5.85384E-18 3.16155E-19
 -1      1741 2.01516E-04-3.17951E-05-6.82745E-05-6.88800E-06 6.76822E-18-2.99299E-18
 -1      1742 1.81312E-04-2.98585E-05-6.11635E-05-2.89212E-05 7.74379E-18-6.48743E-18
 -1      1743 1.48239E-04-2.91216E-05-4.88790E-05-4.17252E-05 7.96507E-18-8.82015E-18
 -1      1744 1.06084E-04-2.61721E-05-3.36250E-05-4.57931E-05 8.74138E-18-9.36734E-18
 -1      1745 6.21786E-05-2.39466E-05-1.78235E-05-4.00177E-05 9.08612E-18-9.35421E-18
 -1      1746 3.33556E-05-2.85777E-05-4.79087E-06-2.94396E-05 5.85723E-18-7.74601E-18
 -1      1747 1.47959E-05-3.13498E-05 4.00329E-06-1.79183E-05 2.76895E-18-6.80295E-18
 -1      1748 8.40831E-06-3.50859E-05 7.54593E-06-1.51454E-06-7.41630E-19-6.42898E-18
 -1      1749 1.59197E-05-3.46318E-05 4.25983E-06 1.22260E-05-4.18095E-18-7.00073E-18
 -1      1750 3.61717E-05-3.29947E-05-4.55768E-06 2.49314E-05-7.38782E-18-8.12641E-18
 -1      1751 7.19928E-05-3.20303E-05-1.86229E-05 3.73949E-05-8.51607E-18-9.42917E-18
 -1      1752 1.17196E-04-3.39070E-05-3.52842E-05 4.14004E-05-8.33565E-18-9.15473E-18
 -1      1753 1.60477E-04-3.41324E-05-5.14900E-05 3.87439E-05-7.85030E-18-8.93027E-18
 -1      1754 1.96264E-04-3.60058E-05-6.39990E-05 2.65087E-05-6.69728E-18-6.79575E-18
 -1      1755 2.11006E-04-3.38952E-05-7.03739E-05 5.85764E-06-6.37096E-18-3.62403E-18
 -1      1756 2.09950E-04-3.36313E-05-7.00358E-05-1.38406E-05-7.04350E-18-4.37916E-19
 -1      1757 1.89840E-04-3.40464E-05-6.24136E-05-2.98354E-05-7.46342E-18 3.44573E-18
 -1      1758 1.53660E-04-3.33806E-05-4.89253E-05-4.14737E-05-7.06934E-18 6.21722E-18
 -1      1759 1.08661E-04-3.18087E-05-3.24572E-05-4.57775E-05-7.62923E-18 8.23147E-18
 -1      1760 6.73585E-05-3.47339E-05-1.57090E-05-3.82257E-05-8.16794E-18 7.26373E-18
 -1      1761 3.61818E-05-4.04745E-05-1.46352E-06-2.59208E-05-7.08712E-18 6.44838E-18
 -1      1762 1.69178E-05-4.54982E-05 7.83086E-06-1.14225E-05-4.18138E-18 7.46702E-18
 -1      1763 1.37487E-04-3.21195E-05-4.51920E-05-1.36691E-05-1.45330E-18 9.03742E-18
 -1      1764 9.63402E-05-1.42028E-05-3.53599E-05-4.21388E-06-1.66312E-18-6.84588E-19
 -1      1765 1.03351E-04-1.65798E-05-3.73198E-05-6.93954E-06-2.04146E-18 2.48498E-19
 -1      1766 1.10767E-04-2.02162E-05-3.90046E-05-9.17519E-06-2.06586E-18 1.31846E-18
 -1      1767 1.17520E-04-2.33149E-05-4.08923E-05-1.19514E-05-2.25692E-18 2.67419E-18
 -1      1768 1.10102E-04-2.34979E-05-3.71862E-05-6.63552E-06-2.06886E-18 9.98758E-19
 -1      1769 6.82007E-05-2.41784E-06-2.83300E-05 1.69491E-06-8.56165E-19-2.92464E-18
 -1      1770 7.45434E-05-4.57524E-06-2.99259E-05 1.15266E-06-1.03289E-18-2.57204E-18
 -1      1771 5.74638E-05 2.66596E-06-2.58679E-05 9.61281E-08-7.54945E-19-3.62338E-18
 -1      1772 6.19404E-05 1.12415E-06-2.69565E-05 9.43138E-07-8.12583E-19-3.34082E-18
 -1      1773 6.53582E-05-2.17455E-06-2.70942E-05 2.58189E-06-7.89865E-19-3.11306E-18
 -1      1774 5.30550E-05 4.73165E-06-2.47821E-05-3.92254E-06-7.73621E-19-3.88950E-18
 -1      1775 5.42091E-05 4.47540E-06-2.51397E-05-2.32786E-06-7.72150E-19-3.82341E-18
 -1      1776 5.51462E-05 3.25990E-06-2.49696E-05-5.34767E-07-7.47232E-19-3.79826E-18
 -1      1777 5.62311E-05 2.78619E-06-2.52276E-05-7.83647E-06-7.80018E-19-3.88175E-18
 -1      1778 5.38747E-05 3.91272E-06-2.48361E-05-6.61898E-06-8.10940E-19-3.89913E-18
 -1      1779 5.26398E-05 4.25364E-06-2.42995E-05-5.83780E-06-9.17777E-19-3.99529E-18
 -1      1780 6.50675E-05-2.03621E-06-2.69218E-05-9.15488E-06-7.48367E-19-3.59907E-18
 -1      1781 6.04259E-05-1.06478E-07-2.59687E-05-9.16831E-06-7.90348E-19-3.72406E-18
 -1      1782 5.82401E-05 4.47549E-07-2.51368E-05-9.92703E-06-9.23187E-19-3.87565E-18
 -1      1783 7.59006E-05-7.41997E-06-2.92905E-05-7.03014E-06-3.98767E-19-3.24924E-18
 -1      1784 7.07194E-05-5.49757E-06-2.80681E-05-8.42625E-06-5.72052E-19-3.39523E-18
 -1      1785 6.90071E-05-5.98627E-06-2.70792E-05-1.02616E-05-8.25923E-19-3.47324E-18
 -1      1786 8.55078E-05-1.14960E-05-3.17241E-05-2.38771E-06 1.16467E-19-2.89308E-18
 -1      1787 8.11098E-05-1.01281E-05-3.05127E-05-4.70067E-06-1.29914E-19-3.04457E-18
 -1      1788 8.06691E-05-1.21247E-05-2.94862E-05-6.77001E-06-3.48157E-19-2.99011E-18
 -1      1789 9.29891E-05-1.39445E-05-3.39448E-05 3.52208E-06 8.08380E-19-2.33797E-18
 -1      1790 8.96166E-05-1.31526E-05-3.28505E-05 7.16871E-07 4.44414E-19-2.57614E-18
 -1      1791 9.04332E-05-1.63807E-05-3.18392E-05-1.02166E-06 2.53494E-19-2.46338E-18
 -1      1792 9.85491E-05-1.53472E-05-3.57938E-05 9.51836E-06 1.56311E-18-1.63340E-18
 -1      1793 9.59727E-05-1.48470E-05-3.48640E-05 6.61793E-06 1.15689E-18-2.01493E-18
 -1      1794 9.76169E-05-1.87882E-05-3.38585E-05 5.27996E-06 1.03676E-18-1.86059E-18
 -1      1795 1.03657E-04-1.71000E-05-3.73286E-05 1.48943E-05 2.30213E-18-3.65971E-19
 -1      1796 1.01051E-04-1.62378E-05-3.65005E-05 1.21103E-05 1.88862E-18-1.06499E-18
 -1      1797 1.02980E-04-2.04038E-05-3.54291E-05 1.08830E-05 1.85022E-18-1.01358E-18
 -1      1798 1.11110E-04-2.17957E-05-3.85525E-05 1.86234E-05 2.60848E-18 1.95167E-18
 -1      1799 1.06904E-04-1.91279E-05-3.78194E-05 1.65366E-05 2.43885E-18 5.19125E-19
 -1      1800 1.08440E-04-2.30906E-05-3.65591E-05 1.47014E-05 2.45866E-18 3.31110E-19
 -1      1801 1.19094E-04-3.04168E-05-3.85202E-05 1.53953E-05 2.37672E-18 5.10147E-18
 -1      1802 1.14066E-04-2.43214E-05-3.84648E-05 1.80061E-05 2.49640E-18 3.01501E-18
 -1      1803 1.13084E-04-2.74936E-05-3.67976E-05 1.46194E-05 2.70550E-18 2.01308E-18
 -1      1804 1.15626E-04-3.16622E-05-3.62419E-05 1.05953E-05 2.42093E-18 4.43586E-18
 -1      1805 1.28406E-04-2.78786E-05-4.27685E-05-1.44588E-05-1.93077E-18 5.04948E-18
 -1      1806 1.11093E-04-3.28225E-05-3.35919E-05 6.86496E-06 1.86233E-18 3.54315E-18
 -1      1807 1.14284E-04-3.30942E-05-3.48696E-05 8.41197E-06 2.01292E-18 4.15253E-18
 -1      1808 1.13681E-04-3.13771E-05-3.52596E-05 1.10534E-05 2.29093E-18 2.76992E-18
 -1      1809 1.26841E-04-3.16336E-05-4.05074E-05-9.76504E-06-2.02248E-18 4.11923E-18
 -1      1810 1.27437E-04-3.83057E-05-3.80573E-05-4.03926E-06-1.45683E-18 4.02051E-18
 -1      1811 1.25821E-04-3.89287E-05-3.73308E-05-4.22460E-06-1.32013E-18 3.70623E-18
 -1      1812 1.26284E-04-3.99934E-05-3.68753E-05-5.46519E-06-1.05177E-18 3.93404E-18
 -1      1813 1.24632E-04-4.00738E-05-3.63197E-05-7.30246E-06-9.01508E-19 3.67519E-18
 -1      1814 1.24402E-04-3.96389E-05-3.63764E-05-5.76218E-06-1.28124E-18 2.81365E-18
 -1      1815 1.24816E-04-4.03681E-05-3.61507E-05-9.88875E-06-6.69897E-19 3.88853E-18
 -1      1816 1.22164E-04-3.92252E-05-3.55860E-05-1.20357E-05-4.61117E-19 3.73915E-18
 -1      1817 1.25320E-04-4.16852E-05-3.58611E-05-9.74677E-06-8.52625E-19 3.03776E-18
 -1      1818 1.21158E-04-3.80117E-05-3.56959E-05-1.42857E-05-3.23983E-19 3.67414E-18
 -1      1819 1.17541E-04-3.53411E-05-3.51917E-05-1.49636E-05-4.62956E-19 3.45494E-18
 -1      1820 1.24598E-04-4.03490E-05-3.60835E-05-1.52314E-05-5.79748E-19 3.14410E-18
 -1      1821 1.15070E-04-3.25388E-05-3.55096E-05-1.42790E-05-9.46070E-19 2.95604E-18
 -1      1822 1.11712E-04-2.94816E-05-3.51780E-05-1.18809E-05-1.50462E-18 2.30001E-18
 -1      1823 1.20825E-04-3.46919E-05-3.69630E-05-1.74301E-05-1.14813E-18 2.62746E-18
 -1      1824 1.09458E-04-2.70717E-05-3.54200E-05-7.05165E-06-1.96517E-18 1.58898E-18
 -1      1825 1.08244E-04-2.59700E-05-3.52895E-05-2.13105E-06-2.11303E-18 1.18378E-18
 -1      1826 1.15527E-04-2.73747E-05-3.79558E-05-1.15859E-05-2.11697E-18 1.45540E-18
 -1      1827 1.08422E-04-2.63779E-05-3.51561E-05 4.20515E-06-1.96088E-18 5.57162E-19
 -1      1828 1.10007E-04-2.81532E-05-3.52186E-05 8.60514E-06-1.77136E-18 3.19583E-19
 -1      1829 1.13262E-04-2.46984E-05-3.82030E-05 1.14762E-06-2.51892E-18 2.26676E-19
 -1      1830 1.12128E-04-3.08729E-05-3.47597E-05 1.22473E-05-1.80527E-18 8.58812E-20
 -1      1831 1.15299E-04-3.39564E-05-3.50019E-05 1.35814E-05-1.10813E-18-2.41973E-19
 -1      1832 1.15945E-04-2.90920E-05-3.73567E-05 1.24231E-05-1.90826E-18-6.41647E-19
 -1      1833 1.16892E-04-3.63316E-05-3.45240E-05 1.29337E-05-1.05351E-18-7.30989E-19
 -1      1834 1.19701E-04-3.85271E-05-3.48594E-05 1.13745E-05-8.27614E-19-1.44785E-18
 -1      1835 1.20271E-04-3.64261E-05-3.59456E-05 1.53088E-05-1.81367E-18-1.46777E-18
 -1      1836 1.19569E-04-3.91637E-05-3.45431E-05 8.23809E-06-5.34253E-19-1.84366E-18
 -1      1837 1.20967E-04-3.97846E-05-3.48006E-05 5.51048E-06-1.58071E-19-1.96030E-18
 -1      1838 1.22012E-04-4.09123E-05-3.47248E-05 1.06989E-05-1.13704E-18-1.91654E-18
 -1      1839 1.19548E-04-3.90740E-05-3.46079E-05 2.19906E-06-3.22865E-19-1.96326E-18
 -1      1840 1.19503E-04-3.86070E-05-3.46572E-05-2.26338E-07-4.67840E-19-2.11863E-18
 -1      1841 1.20423E-04-4.11451E-05-3.39697E-05 3.49125E-06-4.52276E-19-1.72731E-18
 -1      1842 1.17650E-04-3.74403E-05-3.44779E-05-2.54513E-06-2.42437E-19-2.06368E-18
 -1      1843 1.16605E-04-3.65475E-05-3.42995E-05-4.08248E-06 7.55911E-20-1.47098E-18
 -1      1844 1.16995E-04-3.88403E-05-3.35150E-05-2.56555E-06-1.88015E-19-1.98322E-18
 -1      1845 1.14824E-04-3.54718E-05-3.40712E-05-5.26234E-06 3.46092E-21-1.43926E-18
 -1      1846 1.13267E-04-3.45565E-05-3.37273E-05-5.94554E-06 2.08311E-19-9.62124E-19
 -1      1847 1.13207E-04-3.59850E-05-3.31224E-05-6.24209E-06 2.15540E-19-1.43438E-18
 -1      1848 1.11726E-04-3.37432E-05-3.34465E-05-6.27464E-06-1.56514E-19-1.03624E-18
 -1      1849 1.10021E-04-3.29624E-05-3.30220E-05-6.36844E-06 2.08177E-19-1.17251E-18
 -1      1850 1.09772E-04-3.35934E-05-3.26717E-05-7.78185E-06-7.29673E-20-1.29949E-18
 -1      1851 1.08730E-04-3.23941E-05-3.27142E-05-6.19218E-06 2.37225E-19-1.00112E-18
 -1      1852 1.07099E-04-3.17750E-05-3.22786E-05-5.96109E-06-4.05153E-20-1.03874E-18
 -1      1853 1.06870E-04-3.18924E-05-3.21517E-05-7.88457E-06 2.76011E-19-1.31352E-18
 -1      1854 1.06025E-04-3.13847E-05-3.19726E-05-5.54231E-06-3.16514E-19-1.03911E-18
 -1      1855 1.04580E-04-3.09080E-05-3.15695E-05-5.17384E-06-1.17211E-19-7.72219E-19
 -1      1856 1.04470E-04-3.07681E-05-3.16008E-05-7.19759E-06-1.15516E-19-9.47023E-19
 -1      1857 1.03690E-04-3.06359E-05-3.12865E-05-4.67698E-06 3.65778E-19-3.87076E-19
 -1      1858 1.02471E-04-3.02733E-05-3.09369E-05-4.28149E-06 7.64136E-19-3.13629E-19
 -1      1859 1.02494E-04-3.00414E-05-3.10630E-05-6.17293E-06 6.42272E-19-2.71656E-19
 -1      1860 1.01740E-04-3.00783E-05-3.06887E-05-3.79604E-06 7.16542E-19-2.07964E-19
 -1      1861 1.00746E-04-2.98042E-05-3.03984E-05-3.42901E-06 8.15582E-19-8.72214E-20
 -1      1862 1.00876E-04-2.95677E-05-3.05710E-05-5.08038E-06 8.33758E-19-9.05576E-19
 -1      1863 1.00152E-04-2.96609E-05-3.01889E-05-2.99651E-06 6.71595E-19-1.24268E-19
 -1      1864 9.93633E-05-2.94549E-05-2.99554E-05-2.68034E-06 6.13123E-19-3.72388E-19
 -1      1865 9.95608E-05-2.92509E-05-3.01418E-05-4.06016E-06 7.77656E-19-1.16360E-18
 -1      1866 9.88872E-05-2.93479E-05-2.97838E-05-2.31493E-06 4.99288E-19-6.88534E-19
 -1      1867 9.82734E-05-2.91943E-05-2.96004E-05-2.05438E-06-2.87822E-19-5.02237E-19
 -1      1868 9.85035E-05-2.90331E-05-2.97810E-05-3.17237E-06 2.86168E-19-9.94072E-19
 -1      1869 9.78972E-05-2.91140E-05-2.94631E-05-1.75602E-06-2.05726E-19-3.75435E-19
 -1      1870 9.74283E-05-2.90006E-05-2.93218E-05-1.54748E-06 6.95311E-20 1.32373E-19
 -1      1871 9.76644E-05-2.88798E-05-2.94860E-05-2.43253E-06-5.98052E-21-1.11675E-18
 -1      1872 9.71356E-05-2.89405E-05-2.92141E-05-1.30967E-06-2.13145E-19 2.28464E-20
 -1      1873 9.67834E-05-2.88579E-05-2.91072E-05-1.14624E-06-1.44644E-19-3.18556E-20
 -1      1874 9.70078E-05-2.87709E-05-2.92502E-05-1.83372E-06-1.70108E-19-9.41254E-19
 -1      1875 9.65592E-05-2.88133E-05-2.90242E-05-9.60196E-07-1.07805E-19-1.29562E-19
 -1      1876 9.62991E-05-2.87543E-05-2.89446E-05-8.34273E-07-9.07607E-20-9.27882E-20
 -1      1877 9.65017E-05-2.86934E-05-2.90656E-05-1.35939E-06-2.05180E-19-1.10081E-18
 -1      1878 9.61301E-05-2.87217E-05-2.88819E-05-6.91016E-07-2.93692E-19-7.29404E-19
 -1      1879 9.59415E-05-2.86803E-05-2.88237E-05-5.95437E-07-4.20344E-19-1.00628E-18
 -1      1880 9.61177E-05-2.86390E-05-2.89234E-05-9.90153E-07-6.05954E-19-1.58734E-18
 -1      1881 9.58164E-05-2.86571E-05-2.87769E-05-4.86746E-07-8.50785E-19-1.10830E-18
 -1      1882 9.56824E-05-2.86289E-05-2.87352E-05-4.15254E-07-8.34086E-19-1.85930E-18
 -1      1883 9.58312E-05-2.86016E-05-2.88158E-05-7.07113E-07-6.85748E-19-2.05776E-18
 -1      1884 9.55916E-05-2.86127E-05-2.87010E-05-3.34006E-07-4.45844E-19-1.31297E-18
 -1      1885 9.54988E-05-2.85942E-05-2.86718E-05-2.81349E-07-7.63378E-19-1.00562E-18
 -1      1886 9.56213E-05-2.85768E-05-2.87358E-05-4.93332E-07-4.84690E-19-1.70341E-18
 -1      1887 9.54343E-05-2.85833E-05-2.86473E-05-2.21572E-07-8.80174E-19-9.52458E-19
 -1      1888 9.53719E-05-2.85717E-05-2.86274E-05-1.83449E-07-4.15155E-19-1.10104E-18
 -1      1889 9.54707E-05-2.85613E-05-2.86774E-05-3.34304E-07-6.81819E-19-1.38131E-18
 -1      1890 9.53273E-05-2.85648E-05-2.86103E-05-1.40249E-07-2.00149E-19-1.70683E-18
 -1      1891 9.52872E-05-2.85582E-05-2.85972E-05-1.13198E-07-7.90851E-19-1.98988E-18
 -1      1892 9.53654E-05-2.85524E-05-2.86356E-05-2.17951E-07-9.52870E-19-1.80626E-18
 -1      1893 9.52574E-05-2.85540E-05-2.85856E-05-8.26258E-08-1.44135E-18-1.31698E-18
 -1      1894 9.52331E-05-2.85508E-05-2.85774E-05-6.38970E-08-8.91401E-19-7.85228E-19
 -1      1895 9.52939E-05-2.85481E-05-2.86064E-05-1.34416E-07-4.86778E-19-1.80736E-18
 -1      1896 9.52141E-05-2.85486E-05-2.85699E-05-4.28103E-08-5.17603E-19-1.05354E-18
 -1      1897 9.52009E-05-2.85476E-05-2.85652E-05-3.02443E-08-1.18654E-19-6.67802E-19
 -1      1898 9.52473E-05-2.85469E-05-2.85867E-05-7.57759E-08-9.46336E-19-7.05487E-19
 -1      1899 9.51896E-05-2.85468E-05-2.85605E-05-1.61738E-08-5.15721E-19-1.40184E-18
 -1      1900 9.51839E-05-2.85472E-05-2.85582E-05-8.09556E-09-5.52808E-19-1.52166E-18
 -1      1901 9.52186E-05-2.85477E-05-2.85738E-05-3.57467E-08-9.15171E-19-1.09251E-18
 -1      1902 9.51780E-05-2.85472E-05-2.85556E-05 8.76169E-10-3.37692E-19-2.23841E-18
 -1      1903 9.51771E-05-2.85485E-05-2.85549E-05 5.75058E-09 8.75667E-19-2.26583E-18
 -1      1904 9.52026E-05-2.85496E-05-2.85660E-05-9.40609E-09-5.67235E-19-1.74508E-18
 -1      1905 9.51748E-05-2.85491E-05-2.85536E-05 1.10932E-08 1.82342E-18-2.70065E-18
 -1      1906 9.51769E-05-2.85507E-05-2.85539E-05 1.37352E-08 7.08857E-19-2.15758E-18
 -1      1907 9.51952E-05-2.85522E-05-2.85616E-05 7.05254E-09 7.89419E-19-2.72981E-18
 -1      1908 9.51769E-05-2.85516E-05-2.85536E-05 1.65595E-08-1.19376E-18-1.95169E-18
 -1      1909 9.51807E-05-2.85534E-05-2.85544E-05 1.76935E-08-1.37458E-18-2.16812E-18
 -1      1910 9.51935E-05-2.85549E-05-2.85596E-05 1.65344E-08 2.32214E-19-2.11754E-18
 -1      1911 9.51821E-05-2.85543E-05-2.85547E-05 1.88262E-08-1.64863E-18-2.22695E-18
 -1      1912 9.51867E-05-2.85562E-05-2.85559E-05 1.89831E-08-1.65803E-18-2.62994E-18
 -1      1913 9.51953E-05-2.85576E-05-2.85591E-05 2.12248E-08-1.43486E-18-1.37414E-18
 -1      1914 9.51888E-05-2.85571E-05-2.85564E-05 1.90289E-08 1.77824E-20-2.46000E-18
 -1      1915 9.51936E-05-2.85588E-05-2.85577E-05 1.85901E-08 8.73564E-19-2.36043E-18
 -1      1916 9.51991E-05-2.85601E-05-2.85596E-05 2.27407E-08-2.50523E-19-1.37640E-18
 -1      1917 9.51961E-05-2.85597E-05-2.85585E-05 1.79816E-08-2.99552E-19-2.19529E-18
 -1      1918 9.52006E-05-2.85612E-05-2.85597E-05 1.72146E-08-1.07813E-18-2.28762E-18
 -1      1919 9.52039E-05-2.85624E-05-2.85607E-05 2.22561E-08 8.09714E-20-1.15546E-18
 -1      1920 9.52032E-05-2.85620E-05-2.85605E-05 1.62537E-08-1.40625E-18-1.44767E-18
 -1      1921 9.52073E-05-2.85633E-05-2.85617E-05 1.53398E-08-7.80771E-19-1.67007E-18
 -1      1922 9.52090E-05-2.85643E-05-2.85620E-05 2.06045E-08-7.40223E-19-1.27245E-18
 -1      1923 9.52097E-05-2.85640E-05-2.85625E-05 1.42293E-08-2.04183E-19-1.48978E-18
 -1      1924 9.52134E-05-2.85652E-05-2.85636E-05 1.32857E-08 1.42583E-18-1.25382E-18
 -1      1925 9.52140E-05-2.85659E-05-2.85635E-05 1.83596E-08-6.77757E-19 5.15154E-19
 -1      1926 9.52156E-05-2.85658E-05-2.85643E-05 1.21547E-08 1.39208E-18-1.63445E-18
 -1      1927 9.52188E-05-2.85667E-05-2.85652E-05 1.12512E-08 1.44420E-18-1.38711E-18
 -1      1928 9.52186E-05-2.85673E-05-2.85649E-05 1.59009E-08 1.09562E-18-2.66344E-20
 -1      1929 9.52207E-05-2.85672E-05-2.85659E-05 1.01744E-08 2.07695E-18-2.00012E-18
 -1      1930 9.52234E-05-2.85680E-05-2.85666E-05 9.34538E-09 1.97749E-18-5.98942E-19
 -1      1931 9.52227E-05-2.85684E-05-2.85661E-05 1.34626E-08 1.46957E-18-9.84027E-19
 -1      1932 9.52251E-05-2.85684E-05-2.85672E-05 8.35690E-09 1.94530E-18 4.70640E-20
 -1      1933 9.52273E-05-2.85690E-05-2.85678E-05 7.61033E-09 2.76304E-18 1.05935E-18
 -1      1934 9.52263E-05-2.85693E-05-2.85673E-05 1.11712E-08 2.67350E-18-4.00506E-19
 -1      1935 9.52286E-05-2.85694E-05-2.85683E-05 6.71397E-09 1.51676E-18-1.76076E-19
 -1      1936 9.52304E-05-2.85699E-05-2.85688E-05 6.03747E-09 3.56627E-19-8.79928E-19
 -1      1937 9.52293E-05-2.85701E-05-2.85682E-05 9.07387E-09 1.55892E-18-1.50291E-18
 -1      1938 9.52315E-05-2.85702E-05-2.85692E-05 5.21547E-09-6.72361E-19-1.99628E-18
 -1      1939 9.52329E-05-2.85706E-05-2.85696E-05 4.58164E-09-2.08692E-18-2.67237E-18
 -1      1940 9.52318E-05-2.85707E-05-2.85690E-05 7.15935E-09-1.04410E-18-4.78270E-18
 -1      1941 9.52338E-05-2.85709E-05-2.85699E-05 3.80354E-09-1.45604E-18-1.52073E-18
 -1      1942 9.52348E-05-2.85712E-05-2.85702E-05 3.17887E-09-4.91049E-19-1.04603E-18
 -1      1943 9.52338E-05-2.85713E-05-2.85696E-05 5.37927E-09-1.17434E-18-2.88782E-18
 -1      1944 9.52355E-05-2.85714E-05-2.85704E-05 2.46103E-09 2.53666E-19-1.55011E-18
 -1      1945 9.52362E-05-2.85716E-05-2.85706E-05 1.85422E-09 5.12155E-19-1.35100E-18
 -1      1946 9.52364E-05-2.85719E-05-2.85705E-05 2.20264E-09-1.23422E-20-2.06262E-18
 -1      1947 9.52353E-05-2.85717E-05-2.85701E-05 3.71986E-09-3.18056E-19-1.29228E-18
 -1      1948 1.06912E-04-3.22385E-05-3.19805E-05 6.38452E-06 1.19328E-18 2.77110E-18
 -1      1949 1.09404E-04-3.28079E-05-3.27852E-05 6.49495E-06 1.42100E-18 3.26826E-18
 -1      1950 1.10220E-04-3.27122E-05-3.32043E-05 8.48585E-06 1.73891E-18 2.42019E-18
 -1      1951 1.02796E-04-3.09623E-05-3.07581E-05 6.66488E-06 8.18811E-19 2.16712E-18
 -1      1952 1.05103E-04-3.17394E-05-3.14039E-05 6.45492E-06 8.45933E-19 2.55905E-18
 -1      1953 1.06578E-04-3.21671E-05-3.18710E-05 8.17435E-06 1.13506E-18 1.98197E-18
 -1      1954 9.87498E-05-2.92845E-05-2.97444E-05 6.36201E-06 7.63362E-19 1.70475E-18
 -1      1955 1.00941E-04-3.01748E-05-3.03023E-05 6.45640E-06 7.85368E-19 1.93568E-18
 -1      1956 1.02874E-04-3.07392E-05-3.09043E-05 8.12526E-06 9.85488E-19 1.45740E-18
 -1      1957 9.52853E-05-2.76261E-05-2.89768E-05 4.70458E-06 5.59353E-19 1.06227E-18
 -1      1958 9.70899E-05-2.84192E-05-2.94021E-05 5.44956E-06 5.99600E-19 1.45831E-18
 -1      1959 9.93156E-05-2.88962E-05-3.01875E-05 7.00543E-06 7.91767E-19 9.89083E-19
 -1      1960 9.32191E-05-2.65786E-05-2.85538E-05 1.69079E-06 8.31429E-19 3.58575E-19
 -1      1961 9.42300E-05-2.70037E-05-2.87735E-05 3.06651E-06 6.66277E-19 7.25245E-19
 -1      1962 9.65494E-05-2.72748E-05-2.97168E-05 4.23547E-06 8.64702E-19 2.31352E-19
 -1      1963 9.31681E-05-2.65983E-05-2.85358E-05-1.84539E-06 9.55665E-19-2.70653E-20
 -1      1964 9.31066E-05-2.64857E-05-2.85078E-05-2.40900E-07 9.88937E-19 2.52401E-19
 -1      1965 9.53391E-05-2.65711E-05-2.95096E-05 2.36598E-07 1.08922E-18-1.85210E-19
 -1      1966 9.50567E-05-2.76540E-05-2.88939E-05-4.71016E-06 6.29769E-19-9.51827E-19
 -1      1967 9.39756E-05-2.70597E-05-2.86388E-05-3.41384E-06 7.71137E-19-5.00060E-19
 -1      1968 9.60044E-05-2.71001E-05-2.95592E-05-3.74359E-06 1.10912E-18-7.61178E-19
 -1      1969 9.81320E-05-2.92753E-05-2.95068E-05-6.03141E-06 3.45274E-19-1.33802E-18
 -1      1970 9.64074E-05-2.84398E-05-2.91052E-05-5.42163E-06 5.69468E-19-1.25066E-18
 -1      1971 9.81467E-05-2.85879E-05-2.98180E-05-6.39914E-06 8.16431E-19-1.28692E-18
 -1      1972 1.01336E-04-3.08226E-05-3.02051E-05-5.69086E-06 7.48747E-19-1.62399E-18
 -1      1973 9.94947E-05-3.00344E-05-2.97661E-05-5.80153E-06 6.05106E-19-1.51571E-18
 -1      1974 1.00860E-04-3.03694E-05-3.02030E-05-7.06881E-06 6.63186E-19-1.38099E-18
 -1      1975 1.03848E-04-3.18808E-05-3.08228E-05-4.21226E-06 6.17752E-19-1.97048E-18
 -1      1976 1.02329E-04-3.13234E-05-3.04467E-05-4.81255E-06 7.51897E-19-1.75903E-18
 -1      1977 1.03238E-04-3.17837E-05-3.06125E-05-5.99938E-06 9.34221E-19-1.84939E-18
 -1      1978 1.05298E-04-3.23463E-05-3.12469E-05-2.31539E-06 1.17523E-18-2.43676E-18
 -1      1979 1.04332E-04-3.20689E-05-3.09961E-05-3.09883E-06 9.04201E-19-1.99885E-18
 -1      1980 1.04762E-04-3.25312E-05-3.09496E-05-3.95951E-06 1.03483E-18-2.11381E-18
 -1      1981 1.05705E-04-3.23285E-05-3.14347E-05-5.66180E-07 1.69658E-19-2.22662E-18
 -1      1982 1.05320E-04-3.22885E-05-3.13270E-05-1.29501E-06 4.12353E-19-2.42292E-18
 -1      1983 1.05327E-04-3.26451E-05-3.11483E-05-1.74255E-06 6.42435E-19-1.85023E-18
 -1      1984 1.05294E-04-3.20046E-05-3.14039E-05 7.46525E-07-3.26147E-19-1.81533E-18
 -1      1985 1.05391E-04-3.21262E-05-3.14227E-05 1.94279E-07 4.76092E-20-2.02172E-18
 -1      1986 1.05094E-04-3.23306E-05-3.11858E-05 1.27584E-07 8.11729E-20-1.73640E-18
 -1      1987 1.04350E-04-3.15317E-05-3.12070E-05 1.56249E-06 3.69057E-19-2.37614E-18
 -1      1988 1.04780E-04-3.17427E-05-3.13183E-05 1.21405E-06 1.16986E-19-1.98972E-18
 -1      1989 1.04311E-04-3.18030E-05-3.10775E-05 1.43566E-06 1.01409E-19-1.69480E-18
 -1      1990 1.03129E-04-3.10185E-05-3.09062E-05 1.95101E-06-4.56207E-20-2.67513E-18
 -1      1991 1.03745E-04-3.12644E-05-3.10727E-05 1.77957E-06 8.35386E-20-2.41409E-18
 -1      1992 1.03220E-04-3.12177E-05-3.08604E-05 2.18321E-06 4.10885E-19-1.74365E-18
 -1      1993 1.01823E-04-3.05288E-05-3.05575E-05 2.02828E-06-2.05032E-19-1.97437E-18
 -1      1994 1.02510E-04-3.07742E-05-3.07474E-05 1.98698E-06 2.02256E-19-2.40752E-18
 -1      1995 1.02008E-04-3.06640E-05-3.05778E-05 2.47939E-06 1.88335E-19-1.69932E-18
 -1      1996 1.00562E-04-3.00944E-05-3.02036E-05 1.90844E-06-3.90570E-19-2.61128E-18
 -1      1997 1.01239E-04-3.03191E-05-3.03936E-05 1.95062E-06-5.43571E-19-2.36054E-18
 -1      1998 1.00806E-04-3.01819E-05-3.02689E-05 2.46201E-06-3.18436E-19-1.80030E-18
 -1      1999 9.94230E-05-2.97267E-05-2.98724E-05 1.68266E-06 2.72864E-19-2.78246E-18
 -1      2000 1.00041E-04-2.99211E-05-3.00479E-05 1.77070E-06 1.74692E-19-2.53203E-18
 -1      2001 9.96940E-05-2.97824E-05-2.99634E-05 2.25523E-06 2.19213E-19-2.26454E-18
 -1      2002 9.84408E-05-2.94261E-05-2.95796E-05 1.41513E-06-2.43820E-20-2.83500E-18
 -1      2003 9.89755E-05-2.95875E-05-2.97329E-05 1.52227E-06-1.93371E-19-2.94767E-18
 -1      2004 9.87154E-05-2.94621E-05-2.96813E-05 1.95402E-06-5.42705E-20-2.73426E-18
 -1      2005 9.76247E-05-2.91871E-05-2.93316E-05 1.14656E-06 2.04993E-19-2.78373E-18
 -1      2006 9.80690E-05-2.93168E-05-2.94600E-05 1.25561E-06 5.06274E-19-2.77061E-18
 -1      2007 9.78860E-05-2.92114E-05-2.94333E-05 1.62330E-06 2.68374E-19-2.78915E-18
 -1      2008 9.69673E-05-2.90017E-05-2.91288E-05 8.99997E-07-2.82366E-19-3.03081E-18
 -1      2009 9.73244E-05-2.91029E-05-2.92327E-05 1.00107E-06-7.00457E-20-2.86691E-18
 -1      2010 9.72046E-05-2.90193E-05-2.92236E-05 1.30312E-06 9.66478E-20-2.59300E-18
 -1      2011 9.64521E-05-2.88612E-05-2.89678E-05 6.86402E-07-5.94436E-19-3.50351E-18
 -1      2012 9.67308E-05-2.89381E-05-2.90494E-05 7.74636E-07-8.59164E-19-3.32832E-18
 -1      2013 9.66599E-05-2.88748E-05-2.90520E-05 1.01531E-06-4.62302E-19-2.66994E-18
 -1      2014 9.60585E-05-2.87572E-05-2.88434E-05 5.09019E-07-3.14272E-19-2.68456E-18
 -1      2015 9.62701E-05-2.88142E-05-2.89057E-05 5.82793E-07-5.70671E-19-3.33125E-18
 -1      2016 9.62350E-05-2.87684E-05-2.89155E-05 7.69375E-07-5.55781E-19-2.43411E-18
 -1      2017 9.57653E-05-2.86822E-05-2.87498E-05 3.66579E-07 4.02308E-19-1.51625E-18
 -1      2018 9.59217E-05-2.87232E-05-2.87961E-05 4.26204E-07 5.13797E-19-1.76721E-18
 -1      2019 9.59115E-05-2.86916E-05-2.88097E-05 5.67108E-07 1.03080E-19-1.77088E-18
 -1      2020 9.55528E-05-2.86295E-05-2.86811E-05 2.55455E-07-6.76720E-19-1.17117E-19
 -1      2021 9.56651E-05-2.86582E-05-2.87146E-05 3.02273E-07 1.25092E-19-6.65733E-19
 -1      2022 9.56711E-05-2.86377E-05-2.87296E-05 4.05894E-07-4.49378E-20-2.69663E-19
 -1      2023 9.54033E-05-2.85940E-05-2.86323E-05 1.71036E-07-1.27596E-18-1.18859E-19
 -1      2024 9.54813E-05-2.86132E-05-2.86557E-05 2.06847E-07-1.09429E-18-7.90347E-20
 -1      2025 9.54970E-05-2.86009E-05-2.86706E-05 2.80895E-07-9.33502E-19 8.31678E-19
 -1      2026 9.53018E-05-2.85710E-05-2.85986E-05 1.08563E-07-3.49655E-19-2.41173E-19
 -1      2027 9.53539E-05-2.85832E-05-2.86144E-05 1.35264E-07-7.86695E-19 8.64156E-20
 -1      2028 9.53746E-05-2.85769E-05-2.86283E-05 1.86456E-07-7.31997E-19 2.80349E-19
 -1      2029 9.52362E-05-2.85571E-05-2.85764E-05 6.35866E-08-6.16042E-19 2.89152E-19
 -1      2030 9.52691E-05-2.85643E-05-2.85866E-05 8.29764E-08-6.91352E-19-2.51808E-19
 -1      2031 9.52915E-05-2.85620E-05-2.85989E-05 1.16937E-07-5.94026E-19 3.55158E-19
 -1      2032 9.51964E-05-2.85496E-05-2.85627E-05 3.21963E-08-1.13396E-18 3.01617E-19
 -1      2033 9.52156E-05-2.85533E-05-2.85687E-05 4.58716E-08-1.09720E-18 7.22953E-20
 -1      2034 9.52376E-05-2.85537E-05-2.85793E-05 6.71635E-08-7.25518E-19 7.02849E-19
 -1      2035 9.51750E-05-2.85464E-05-2.85549E-05 1.10971E-08 5.34797E-19-9.54892E-19
 -1      2036 9.51846E-05-2.85478E-05-2.85580E-05 2.04141E-08-2.91368E-20-2.04068E-19
 -1      2037 9.52050E-05-2.85497E-05-2.85669E-05 3.26430E-08 3.08735E-19-6.59577E-19
 -1      2038 9.51660E-05-2.85461E-05-2.85512E-05-2.39722E-09 6.75432E-19-1.40924E-18
 -1      2039 9.51692E-05-2.85460E-05-2.85524E-05 3.67508E-09 2.13947E-19-1.10769E-18
 -1      2040 9.51873E-05-2.85488E-05-2.85597E-05 9.62062E-09 6.06993E-19-2.38498E-19
 -1      2041 9.51652E-05-2.85476E-05-2.85502E-05-1.04178E-08 1.38586E-19-1.03160E-18
 -1      2042 9.51643E-05-2.85465E-05-2.85502E-05-6.70077E-09 2.53871E-19-8.81980E-19
 -1      2043 9.51798E-05-2.85496E-05-2.85560E-05-4.94567E-09 4.16094E-19-6.92088E-19
 -1      2044 9.51694E-05-2.85500E-05-2.85510E-05-1.46144E-08 1.20831E-18-6.50642E-19
 -1      2045 9.51660E-05-2.85484E-05-2.85502E-05-1.25595E-08 5.84744E-19-7.16738E-19
 -1      2046 9.51790E-05-2.85515E-05-2.85548E-05-1.34567E-08 5.22779E-19-5.76417E-19
 -1      2047 9.51763E-05-2.85528E-05-2.85528E-05-1.62352E-08-1.43477E-19-4.27163E-19
 -1      2048 9.51717E-05-2.85511E-05-2.85516E-05-1.53144E-08 1.22076E-18 2.39084E-19
 -1      2049 9.51823E-05-2.85539E-05-2.85551E-05-1.77628E-08 8.24380E-19 1.70570E-18
 -1      2050 9.51844E-05-2.85557E-05-2.85551E-05-1.62021E-08-1.38261E-18-4.74128E-19
 -1      2051 9.51793E-05-2.85539E-05-2.85537E-05-1.60224E-08-1.09872E-18-1.15097E-18
 -1      2052 9.51878E-05-2.85565E-05-2.85564E-05-1.92574E-08-5.40071E-20 9.66075E-19
 -1      2053 9.51929E-05-2.85584E-05-2.85575E-05-1.51792E-08 6.78149E-19-1.91637E-18
 -1      2054 9.51878E-05-2.85568E-05-2.85561E-05-1.54552E-08 2.18014E-19-9.97339E-19
 -1      2055 9.51944E-05-2.85590E-05-2.85581E-05-1.89653E-08-3.67363E-20-3.67378E-19
 -1      2056 9.52009E-05-2.85610E-05-2.85599E-05-1.36309E-08-1.44775E-18-9.75013E-19
 -1      2057 9.51961E-05-2.85595E-05-2.85586E-05-1.41608E-08-8.47153E-19-2.60002E-18
 -1      2058 9.52012E-05-2.85614E-05-2.85600E-05-1.76209E-08-2.38990E-19-1.68174E-18
 -1      2059 9.52082E-05-2.85632E-05-2.85621E-05-1.18692E-08-3.19054E-19 1.17656E-18
 -1      2060 9.52040E-05-2.85619E-05-2.85609E-05-1.25158E-08-1.18146E-19 4.80434E-19
 -1      2061 9.52078E-05-2.85634E-05-2.85619E-05-1.57339E-08-1.63709E-18-3.48452E-19
 -1      2062 9.52147E-05-2.85651E-05-2.85641E-05-1.00924E-08-2.48336E-19 9.99396E-20
 -1      2063 9.52110E-05-2.85640E-05-2.85630E-05-1.07671E-08-1.05788E-18-3.88927E-19
 -1      2064 9.52138E-05-2.85652E-05-2.85637E-05-1.36434E-08-3.12301E-19 1.17895E-18
 -1      2065 9.52202E-05-2.85667E-05-2.85658E-05-8.41433E-09 8.32222E-19 1.21756E-18
 -1      2066 9.52171E-05-2.85658E-05-2.85649E-05-9.06486E-09 8.09049E-19 5.77320E-19
 -1      2067 9.52190E-05-2.85667E-05-2.85653E-05-1.15609E-08 2.07977E-19 1.30056E-18
 -1      2068 9.52249E-05-2.85680E-05-2.85672E-05-6.88548E-09 2.92809E-18-7.86806E-19
 -1      2069 9.52223E-05-2.85673E-05-2.85665E-05-7.48754E-09 2.24014E-18 8.94825E-19
 -1      2070 9.52235E-05-2.85680E-05-2.85667E-05-9.60279E-09 2.28435E-18 1.28156E-18
 -1      2071 9.52287E-05-2.85691E-05-2.85684E-05-5.50864E-09 5.91142E-19-1.12897E-18
 -1      2072 9.52266E-05-2.85685E-05-2.85678E-05-6.05973E-09 1.80538E-18-1.64958E-19
 -1      2073 9.52273E-05-2.85690E-05-2.85679E-05-7.81438E-09 2.33902E-18 1.42476E-18
 -1      2074 9.52317E-05-2.85700E-05-2.85693E-05-4.24872E-09-1.34048E-18-1.51125E-18
 -1      2075 9.52300E-05-2.85695E-05-2.85688E-05-4.76467E-09-8.95557E-19-2.22691E-18
 -1      2076 9.52305E-05-2.85699E-05-2.85688E-05-6.18718E-09-2.73391E-19 1.70176E-20
 -1      2077 9.52341E-05-2.85707E-05-2.85700E-05-3.04875E-09-1.77447E-18-1.47417E-19
 -1      2078 9.52328E-05-2.85703E-05-2.85697E-05-3.55668E-09-7.94459E-19-1.08347E-18
 -1      2079 9.52329E-05-2.85706E-05-2.85696E-05-4.67438E-09-1.20034E-18-7.16599E-19
 -1      2080 9.52357E-05-2.85712E-05-2.85705E-05-1.85674E-09-1.32003E-18 1.24163E-18
 -1      2081 9.52349E-05-2.85709E-05-2.85703E-05-2.38108E-09-1.73691E-18 6.73565E-19
 -1      2082 9.52349E-05-2.85712E-05-2.85701E-05-3.21860E-09-2.15836E-18 1.79957E-18
 -1      2083 9.52366E-05-2.85715E-05-2.85708E-05-9.74196E-10 1.24988E-18 7.81435E-19
 -1      2084 9.52361E-05-2.85714E-05-2.85706E-05-1.48533E-09 5.96448E-20 9.63087E-19
 -1      2085 9.52361E-05-2.85716E-05-2.85705E-05-2.08130E-09-1.43816E-19 1.94767E-18
 -1      2086 9.52367E-05-2.85718E-05-2.85707E-05-1.26262E-09 1.03747E-18 2.71750E-18
 -1      2087 9.52386E-05-2.85762E-05-2.85696E-05-3.58766E-09 1.88068E-18-1.57663E-19
 -1      2088 9.52382E-05-2.85752E-05-2.85698E-05-3.48947E-09 1.22067E-18-2.87583E-19
 -1      2089 9.52377E-05-2.85744E-05-2.85700E-05-3.23387E-09 5.98665E-19 4.32483E-20
 -1      2090 9.52374E-05-2.85735E-05-2.85702E-05-2.87291E-09-5.74615E-20 6.44471E-19
 -1      2091 9.52378E-05-2.85748E-05-2.85699E-05-4.31426E-09 1.86271E-19 3.79816E-19
 -1      2092 9.52371E-05-2.85729E-05-2.85704E-05-2.37638E-09-5.65332E-19 5.03231E-20
 -1      2093 9.52369E-05-2.85723E-05-2.85706E-05-1.85340E-09 1.21672E-19 2.03195E-18
 -1      2094 9.52366E-05-2.85722E-05-2.85705E-05-2.28956E-09 2.65528E-19 1.29382E-18
 -1      2095 9.52371E-05-2.85733E-05-2.85702E-05-3.45530E-09-8.24781E-19 9.48943E-19
 -1      2096 9.52394E-05-2.85779E-05-2.85692E-05-3.39298E-09-7.68060E-19-2.09937E-18
 -1      2097 9.52390E-05-2.85770E-05-2.85694E-05-3.53556E-09 6.20194E-19-1.03173E-18
 -1      2098 9.52388E-05-2.85765E-05-2.85696E-05-4.52390E-09 7.17741E-19-1.99430E-18
 -1      2099 9.52401E-05-2.85794E-05-2.85689E-05-2.70572E-09 1.39842E-19-9.07487E-19
 -1      2100 9.52397E-05-2.85786E-05-2.85691E-05-3.05590E-09-8.51782E-19 6.41213E-21
 -1      2101 9.52397E-05-2.85781E-05-2.85693E-05-4.07890E-09 7.08198E-19-1.15231E-18
 -1      2102 9.52405E-05-2.85804E-05-2.85686E-05-1.64543E-09 6.78723E-19-1.42411E-18
 -1      2103 9.52403E-05-2.85799E-05-2.85687E-05-2.14241E-09 4.49155E-19-1.38773E-18
 -1      2104 9.52404E-05-2.85794E-05-2.85690E-05-3.06074E-09 5.24698E-19-6.83257E-19
 -1      2105 9.52407E-05-2.85808E-05-2.85685E-05-3.66460E-10 8.84915E-19 1.62606E-18
 -1      2106 9.52407E-05-2.85807E-05-2.85686E-05-9.39333E-10 8.16911E-19-2.02745E-19
 -1      2107 9.52409E-05-2.85803E-05-2.85689E-05-1.63059E-09 3.29056E-19-6.03388E-19
 -1      2108 9.52407E-05-2.85807E-05-2.85686E-05 9.60312E-10-9.44259E-20 9.48532E-19
 -1      2109 9.52407E-05-2.85808E-05-2.85685E-05 3.88030E-10 6.96161E-19 1.11573E-18
 -1      2110 9.52410E-05-2.85805E-05-2.85688E-05 1.34346E-11-1.19442E-18 1.10942E-18
 -1      2111 9.52403E-05-2.85799E-05-2.85687E-05 2.16021E-09 1.02247E-19 3.76120E-19
 -1      2112 9.52405E-05-2.85804E-05-2.85686E-05 1.66521E-09-6.48118E-19 1.37752E-18
 -1      2113 9.52409E-05-2.85802E-05-2.85689E-05 1.65601E-09-1.49806E-18 7.67933E-19
 -1      2114 9.52397E-05-2.85786E-05-2.85691E-05 3.05599E-09 1.38783E-18 8.36568E-19
 -1      2115 9.52401E-05-2.85794E-05-2.85689E-05 2.71295E-09 8.93174E-19 1.28103E-18
 -1      2116 9.52404E-05-2.85794E-05-2.85690E-05 3.07238E-09-2.63374E-19 1.23238E-18
 -1      2117 9.52390E-05-2.85770E-05-2.85694E-05 3.53781E-09 1.86206E-18-4.93171E-21
 -1      2118 9.52394E-05-2.85779E-05-2.85692E-05 3.39445E-09 1.49706E-18 1.52657E-18
 -1      2119 9.52397E-05-2.85781E-05-2.85693E-05 4.08017E-09-2.06924E-19 1.07924E-18
 -1      2120 9.52382E-05-2.85752E-05-2.85699E-05 3.48554E-09 2.32734E-18-1.16396E-18
 -1      2121 9.52386E-05-2.85761E-05-2.85696E-05 3.58801E-09 2.78121E-18-1.80932E-18
 -1      2122 9.52388E-05-2.85765E-05-2.85696E-05 4.52597E-09 4.82211E-19-5.63955E-19
 -1      2123 9.52373E-05-2.85734E-05-2.85702E-05 2.87043E-09 1.28437E-18-2.08155E-18
 -1      2124 9.52377E-05-2.85743E-05-2.85700E-05 3.22297E-09 2.16585E-18-2.18281E-18
 -1      2125 9.52378E-05-2.85748E-05-2.85699E-05 4.30065E-09 6.59013E-19-2.42349E-18
 -1      2126 5.14236E-05-3.51579E-05-7.57270E-06 4.01188E-05 3.58761E-18 5.81771E-18
 -1      2127 3.78767E-05-3.73766E-05-1.72988E-06 3.18459E-05 2.55592E-18 5.27056E-18
 -1      2128 1.21800E-05-2.81430E-05 5.77963E-06 6.68687E-06 2.10699E-19 7.02741E-18
 -1      2129 1.23461E-05-2.94567E-05 6.11146E-06-3.51479E-06-1.34202E-18 7.80033E-18
 -1      2130 2.59332E-05-3.30919E-05 1.92972E-06 2.67914E-05 2.36873E-18 5.32953E-18
 -1      2131 1.79958E-05-3.21186E-05 4.73297E-06 1.90104E-05 3.28649E-19 5.83394E-18
 -1      2132 3.89223E-05-3.23453E-05-3.39518E-06 3.62083E-05 3.25261E-19 5.61075E-18
 -1      2133 9.05472E-05-3.98111E-05-2.16904E-05 4.45742E-05 4.36730E-18 4.98309E-18
 -1      2134 7.31035E-05-4.17634E-05-1.43744E-05 4.02499E-05 3.19247E-18 5.04906E-18
 -1      2135 1.23271E-04-3.89135E-05-3.57514E-05 4.10249E-05 4.97293E-18 3.72102E-18
 -1      2136 1.03261E-04-4.04928E-05-2.76408E-05 3.90521E-05 4.78574E-18 4.31479E-18
 -1      2137 1.09637E-04-5.09999E-05-2.49967E-05 3.80367E-05 1.43318E-18 1.93378E-18
 -1      2138 8.19666E-05-8.43190E-06-3.16624E-05 4.38077E-09-1.19196E-18-2.06918E-18
 -1      2139 8.89784E-05-1.07217E-05-3.35589E-05-1.89196E-06-1.48493E-18-1.42451E-18
 -1      2140 9.54515E-05-1.68270E-05-3.37707E-05-2.08873E-06-1.50587E-18-8.48317E-19
 -1      2141 7.98785E-05-9.58315E-06-3.02270E-05 1.79061E-06-1.05421E-18-2.16642E-18
 -1      2142 1.75032E-04-2.86695E-05-6.14419E-05 1.59971E-05 5.66072E-18 5.68359E-19
 -1      2143 1.62377E-04-2.90558E-05-5.65283E-05 2.16072E-05 5.75580E-18 1.70974E-18
 -1      2144 1.81668E-04-2.46425E-05-6.60521E-05 3.77117E-06 6.36291E-18-1.39295E-18
 -1      2145 1.75827E-04-2.37008E-05-6.42260E-05 1.04476E-05 6.10838E-18-7.51742E-20
 -1      2146 1.69223E-04-2.09048E-05-6.30580E-05-4.75998E-06 7.30524E-18-2.25099E-18
 -1      2147 1.81054E-04-2.36904E-05-6.57768E-05 2.23310E-07 6.71909E-18-1.48474E-18
 -1      2148 1.57899E-04-1.21766E-05-6.13706E-05 2.05218E-06 7.00030E-18-1.48170E-18
 -1      2149 1.60856E-04-3.00668E-05-5.53852E-05-1.85870E-05 7.14906E-18-4.32919E-18
 -1      2150 1.67128E-04-2.72516E-05-5.94309E-05-8.17177E-06 6.98103E-18-2.30774E-18
 -1      2151 1.37038E-04-3.55996E-05-4.36984E-05-2.54277E-05 5.79773E-18-4.71882E-18
 -1      2152 1.54824E-04-3.47551E-05-5.06345E-05-2.52834E-05 6.40352E-18-4.70357E-18
 -1      2153 1.50891E-04-3.28640E-05-4.99250E-05-5.52652E-06 5.58714E-18-1.17653E-18
 -1      2154 1.02109E-04-3.60774E-05-2.89566E-05-3.77213E-05 5.44176E-18-6.10287E-18
 -1      2155 1.23199E-04-3.80546E-05-3.64188E-05-3.62786E-05 5.15758E-18-5.39179E-18
 -1      2156 6.75988E-05-3.24132E-05-1.61506E-05-3.87885E-05 4.56890E-18-6.37858E-18
 -1      2157 8.62833E-05-3.22346E-05-2.32322E-05-4.36022E-05 5.45023E-18-6.63693E-18
 -1      2158 1.06368E-04-4.38234E-05-2.66598E-05-3.62819E-05 2.18005E-18-4.00943E-18
 -1      2159 3.91468E-05-2.65784E-05-5.95281E-06-3.53906E-05 2.21711E-18-6.21256E-18
 -1      2160 5.18865E-05-2.76994E-05-1.08349E-05-3.97593E-05 4.33766E-18-6.80980E-18
 -1      2161 7.31092E-05-3.59090E-05-1.63091E-05-4.21860E-05 1.07446E-18-5.35766E-18
 -1      2162 1.34487E-05-2.13681E-05 2.20064E-06-1.58465E-05 9.63500E-20-6.64201E-18
 -1      2163 2.05825E-05-1.89694E-05-1.32746E-06-2.62621E-05 1.11406E-18-6.72438E-18
 -1      2164 9.04720E-06-1.91342E-05 3.37595E-06 2.47643E-06-1.50264E-18-6.56535E-18
 -1      2165 9.18272E-06-1.98067E-05 3.54016E-06-7.24065E-06 2.86827E-19-6.57594E-18
 -1      2166 1.37605E-05-1.10136E-05-1.45898E-06-1.39231E-05-5.51101E-19-7.37130E-18
 -1      2167 2.50519E-05-2.44629E-05-1.11395E-06 2.32739E-05-3.17595E-18-6.81734E-18
 -1      2168 1.61234E-05-2.27504E-05 1.73873E-06 1.44635E-05-1.39295E-18-6.49039E-18
 -1      2169 5.32986E-05-3.18735E-05-9.97674E-06 3.52589E-05-5.13768E-18-7.04070E-18
 -1      2170 3.86321E-05-3.15963E-05-4.47598E-06 2.82307E-05-3.67231E-18-6.44952E-18
 -1      2171 9.44033E-05-4.05214E-05-2.33655E-05 3.93265E-05-4.91110E-18-6.30277E-18
 -1      2172 7.26947E-05-3.88004E-05-1.58440E-05 3.48442E-05-4.66122E-18-6.74249E-18
 -1      2173 1.35537E-04-4.29255E-05-3.92847E-05 3.25712E-05-6.19012E-18-5.54891E-18
 -1      2174 1.13998E-04-4.30507E-05-3.11028E-05 3.18500E-05-5.68317E-18-5.84961E-18
 -1      2175 1.65953E-04-3.96177E-05-5.30462E-05 1.99779E-05-5.92754E-18-4.32961E-18
 -1      2176 1.47935E-04-4.04797E-05-4.61320E-05 2.20708E-05-6.02622E-18-4.84079E-18
 -1      2177 1.82265E-04-3.25864E-05-6.30148E-05 7.50732E-06-6.00462E-18-3.24244E-18
 -1      2178 1.71778E-04-3.36932E-05-5.84105E-05 1.46232E-05-5.97624E-18-4.43252E-18
 -1      2179 1.79345E-04-2.35318E-05-6.59584E-05-2.92168E-06-6.39340E-18-1.47331E-18
 -1      2180 1.78756E-04-2.56676E-05-6.46089E-05 2.11130E-06-6.34682E-18-2.62368E-18
 -1      2181 1.78003E-04-2.60998E-05-6.42950E-05-8.09420E-06-7.19639E-18-7.25060E-19
 -1      2182 1.80066E-04-2.39322E-05-6.60258E-05-2.58709E-06-6.85334E-18-1.99265E-18
 -1      2183 1.65659E-04-3.23437E-05-5.67538E-05-1.47473E-05-6.69177E-18 7.17860E-19
 -1      2184 1.78712E-04-3.14469E-05-6.19698E-05-1.11919E-05-7.17331E-18-6.21722E-19
 -1      2185 1.61197E-04-2.18471E-05-5.87112E-05 1.92859E-06-6.90501E-18-2.42633E-18
 -1      2186 1.42520E-04-4.27528E-05-4.29241E-05-2.60183E-05-4.82555E-18 2.92269E-18
 -1      2187 1.59662E-04-4.12930E-05-5.01031E-05-2.22320E-05-5.27585E-18 1.40523E-18
 -1      2188 1.06999E-04-4.37947E-05-2.79271E-05-3.68276E-05-4.16063E-18 4.81326E-18
 -1      2189 1.28619E-04-4.37578E-05-3.60848E-05-3.77409E-05-4.29234E-18 4.70908E-18
 -1      2190 7.36190E-05-4.38564E-05-1.38610E-05-3.81661E-05-3.93574E-18 3.72430E-18
 -1      2191 9.17963E-05-4.24876E-05-2.12310E-05-4.27959E-05-4.25592E-18 4.48970E-18
 -1      2192 3.72641E-05-3.84908E-05-1.09785E-06-2.91794E-05-3.44700E-18 5.05657E-18
 -1      2193 5.15296E-05-3.68373E-05-7.04511E-06-3.78138E-05-4.36307E-18 4.60992E-18
 -1      2194 1.68268E-05-3.29462E-05 5.45931E-06-1.43432E-05-1.29278E-18 7.54664E-18
 -1      2195 2.41756E-05-3.34073E-05 2.72704E-06-2.29484E-05-3.20390E-18 6.72587E-18
 -1      2196 1.55274E-04-3.58348E-05-5.03508E-05 2.75549E-05 5.05589E-18 1.80630E-18
 -1      2197 1.37840E-04-3.65763E-05-4.33851E-05 3.07604E-05 5.19146E-18 2.94513E-18
 -1      2198 1.36841E-04-4.73247E-05-3.78429E-05 2.45219E-05 3.00104E-18 3.05779E-19
 -1      2199 1.25060E-04-3.42962E-05-3.90419E-05-6.23012E-06-1.89407E-18 3.62596E-18
 -1      2200 1.60241E-04-2.16349E-05-5.89413E-05-8.32528E-07 6.89930E-18-1.47130E-18
 -1      2201 1.46528E-04-1.39200E-05-5.72292E-05 6.29558E-06 6.83852E-18-4.46492E-19
 -1      2202 1.47092E-04-2.11865E-05-5.39362E-05 4.48320E-06 6.46985E-18 2.11758E-21
 -1      2203 1.54149E-04-3.40477E-05-5.06504E-05 9.86972E-06 4.55524E-18-6.78473E-19
 -1      2204 1.21153E-04-3.33090E-05-3.77364E-05-6.55869E-06-1.87933E-18 2.34566E-18
 -1      2205 1.86240E-05-2.30797E-05 1.39541E-06 1.54181E-05-4.06682E-19 7.08585E-18
 -1      2206 7.41874E-05-4.37893E-05-1.31858E-05 4.41321E-05 8.87267E-19 4.22152E-18
 -1      2207 9.52370E-05-2.85729E-05-2.85703E-05 2.73671E-09 5.30553E-19-2.56549E-18
 -1      2208 1.76789E-05-2.26714E-05 1.57356E-06-1.15067E-05-3.63907E-19 8.13872E-18
 -1      2209 3.72776E-05-3.24356E-05-2.71098E-06-3.25967E-05-7.87741E-19 5.65712E-18
 -1      2210 7.45114E-05-4.54145E-05-1.27201E-05-4.17827E-05-1.02491E-18 2.76914E-18
 -1      2211 1.13202E-04-5.40142E-05-2.53079E-05-3.56460E-05-1.03126E-18 2.09683E-18
 -1      2212 1.58602E-04-3.88271E-05-5.06715E-05-3.36192E-06-4.98818E-18-1.66823E-18
 -1      2213 1.59403E-04-1.48848E-05-6.10224E-05-2.00946E-06-6.77711E-18-1.39504E-18
 -1      2214 1.63405E-04-2.20521E-05-5.95118E-05-4.34634E-06-5.95845E-18-9.15643E-19
 -1      2215 1.62190E-04-3.67021E-05-5.28364E-05 1.16614E-06-5.07860E-18-1.35906E-18
 -1      2216 1.46814E-04-4.86923E-05-4.16013E-05 1.45351E-05-4.25698E-18-2.18026E-18
 -1      2217 1.15073E-04-5.04229E-05-2.76837E-05 3.06007E-05-2.72067E-18-3.91689E-18
 -1      2218 7.51399E-05-4.05601E-05-1.51048E-05 3.78387E-05-1.84314E-18-5.46074E-18
 -1      2219 1.60350E-05-1.34629E-05-1.44540E-06 1.06427E-05-5.69312E-19-7.22519E-18
 -1      2220 3.13406E-05-1.41651E-05-6.91937E-06-3.17461E-05-9.13313E-19-6.52893E-18
 -1      2221 3.41299E-05-2.16162E-05-5.70856E-06-3.31267E-05 4.89585E-19-6.50394E-18
 -1      2222 4.91861E-05-2.37715E-05-1.10310E-05-3.93446E-05-1.01729E-18-5.58491E-18
 -1      2223 1.35302E-04-4.37968E-05-3.88501E-05-2.08912E-05 3.54610E-18-2.43480E-18
 -1      2224 1.60543E-04-1.95897E-05-5.92445E-05 3.51285E-06 6.07471E-18-1.07743E-18
 -1      2225 3.92837E-05-2.59825E-05-6.20148E-06 3.05000E-05-1.05879E-18-6.57425E-18
 -1      2226 1.42365E-04-5.21852E-05-3.81658E-05-2.08084E-05-2.61564E-18 8.02564E-19
 -1      2227 1.10067E-04-3.28494E-05-3.31072E-05 9.84093E-06 1.52394E-18 1.42512E-18
 -1      2228 1.11819E-04-3.25936E-05-3.38847E-05 1.04312E-05 1.80527E-18 1.67701E-18
 -1      2229 5.08675E-05 3.79140E-06-2.34678E-05-4.23437E-07-6.54952E-19-4.04091E-18
 -1      2230 5.48252E-05 2.01078E-06-2.42233E-05 2.02545E-06-5.85577E-19-3.86269E-18
 -1      2231 6.14756E-05-2.34246E-06-2.54531E-05 4.88388E-06-4.74435E-19-3.33978E-18
 -1      2232 6.89895E-05-5.91593E-06-2.68729E-05 5.40000E-06-5.45588E-19-2.88423E-18
 -1      2233 5.75948E-05-1.83179E-06-2.37952E-05 5.65203E-06-2.79991E-19-3.65156E-18
 -1      2234 6.00228E-05-2.14671E-06-2.46356E-05-1.29094E-05-1.20275E-18-3.89235E-18
 -1      2235 5.46171E-05 7.74683E-07-2.38253E-05-1.16985E-05-1.17890E-18-4.03305E-18
 -1      2236 7.40156E-05-1.05038E-05-2.70795E-05-1.22193E-05-9.96796E-19-3.25147E-18
 -1      2237 6.71534E-05-7.03828E-06-2.58710E-05-1.33275E-05-1.18582E-18-3.51836E-18
 -1      2238 6.42612E-05-7.05475E-06-2.44911E-05-1.58501E-05-1.36034E-18-3.71366E-18
 -1      2239 8.67610E-05-1.73358E-05-2.97104E-05-7.04554E-06-4.25498E-19-2.65682E-18
 -1      2240 8.08878E-05-1.46197E-05-2.84665E-05-9.70306E-06-7.82867E-19-2.85543E-18
 -1      2241 7.96430E-05-1.62045E-05-2.72679E-05-1.31597E-05-1.07435E-18-2.85676E-18
 -1      2242 9.61792E-05-2.14595E-05-3.20637E-05 5.94014E-08 3.55363E-19-2.00923E-18
 -1      2243 9.19539E-05-1.97870E-05-3.09550E-05-3.18336E-06-9.27832E-20-2.32741E-18
 -1      2244 9.24529E-05-2.26904E-05-2.99835E-05-6.12557E-06-3.84288E-19-2.14134E-18
 -1      2245 1.02265E-04-2.34558E-05-3.38841E-05 6.77043E-06 1.19028E-18-1.49742E-18
 -1      2246 9.95110E-05-2.25320E-05-3.30118E-05 3.76886E-06 7.11903E-19-1.70497E-18
 -1      2247 1.01013E-04-2.60108E-05-3.21831E-05 1.74541E-06 4.50999E-19-1.48912E-18
 -1      2248 1.06514E-04-2.48931E-05-3.51565E-05 1.18414E-05 2.00205E-18-5.85273E-19
 -1      2249 1.04470E-04-2.40242E-05-3.45119E-05 9.50399E-06 1.49421E-18-1.06223E-18
 -1      2250 1.06115E-04-2.74132E-05-3.37166E-05 8.12741E-06 1.25242E-18-8.81622E-19
 -1      2251 1.07486E-04-3.25412E-05-3.21103E-05 9.84335E-06 1.13256E-18 1.17864E-18
 -1      2252 1.09340E-04-3.30872E-05-3.26264E-05 9.80735E-06 1.24250E-18 1.49038E-18
 -1      2253 1.10658E-04-3.30590E-05-3.32461E-05 1.14267E-05 1.49150E-18 8.04972E-19
 -1      2254 1.21569E-04-3.82384E-05-3.55873E-05-3.97806E-06-1.06810E-18 1.96683E-18
 -1      2255 1.22347E-04-4.06935E-05-3.51400E-05-4.67290E-06-9.06037E-19 2.11812E-18
 -1      2256 1.25701E-04-4.32662E-05-3.51811E-05-7.02654E-06-6.80062E-19 2.58370E-18
 -1      2257 1.25881E-04-4.39819E-05-3.51835E-05-9.42390E-06-5.81973E-19 2.64838E-18
 -1      2258 1.22425E-04-4.29297E-05-3.42366E-05-4.05560E-06-6.32264E-19 1.75525E-18
 -1      2259 1.28480E-04-4.46391E-05-3.59643E-05-1.31195E-05-4.65196E-19 3.00964E-18
 -1      2260 1.27399E-04-4.24820E-05-3.64474E-05-1.57072E-05-5.23744E-19 2.81058E-18
 -1      2261 1.28374E-04-4.62854E-05-3.52558E-05-9.86969E-06-3.77036E-19 2.51450E-18
 -1      2262 1.27180E-04-3.89907E-05-3.80764E-05-1.85404E-05-9.67867E-19 2.74635E-18
 -1      2263 1.24259E-04-3.35603E-05-3.89320E-05-1.81356E-05-1.79762E-18 2.42392E-18
 -1      2264 1.31511E-04-4.30986E-05-3.79854E-05-1.70963E-05-9.11090E-19 2.69944E-18
 -1      2265 1.21695E-04-2.76885E-05-4.07022E-05-1.56231E-05-2.40653E-18 1.69232E-18
 -1      2266 1.18957E-04-2.27882E-05-4.13597E-05-1.06314E-05-2.98113E-18 1.12645E-18
 -1      2267 1.28609E-04-3.07450E-05-4.21996E-05-1.82442E-05-2.59023E-18 2.05961E-18
 -1      2268 1.17341E-04-2.03528E-05-4.19440E-05-2.19777E-06-3.42402E-18 2.82935E-19
 -1      2269 1.17703E-04-2.13029E-05-4.17234E-05 4.58260E-06-3.20994E-18-3.43651E-19
 -1      2270 1.23752E-04-1.88101E-05-4.53143E-05-7.67775E-06-3.77396E-18 5.04355E-19
 -1      2271 1.19553E-04-2.52834E-05-4.05024E-05 1.16842E-05-2.63808E-18-1.33498E-18
 -1      2272 1.22343E-04-3.09482E-05-3.95432E-05 1.53522E-05-2.09911E-18-1.78330E-18
 -1      2273 1.24345E-04-2.13152E-05-4.44894E-05 9.01357E-06-3.61397E-18-1.32031E-18
 -1      2274 1.23982E-04-3.66665E-05-3.75014E-05 1.57049E-05-1.98910E-18-2.18466E-18
 -1      2275 1.26107E-04-4.13986E-05-3.65058E-05 1.46765E-05-1.95755E-18-2.43143E-18
 -1      2276 1.28677E-04-3.48015E-05-4.04958E-05 1.61262E-05-2.39154E-18-3.18691E-18
 -1      2277 1.24910E-04-4.38750E-05-3.48234E-05 1.05555E-05-1.20346E-18-2.38530E-18
 -1      2278 1.24900E-04-4.51947E-05-3.41774E-05 7.05853E-06-3.65738E-19-2.30302E-18
 -1      2279 1.29422E-04-4.54999E-05-3.60434E-05 1.14982E-05-1.67429E-18-3.45081E-18
 -1      2280 1.21527E-04-4.41939E-05-3.32483E-05 2.55815E-06-1.63689E-19-1.61526E-18
 -1      2281 1.20037E-04-4.30622E-05-3.29187E-05-8.78807E-07 5.83328E-20-1.47489E-18
 -1      2282 1.24421E-04-4.73384E-05-3.30974E-05 2.33576E-06 1.70556E-19-2.52886E-18
 -1      2283 1.16414E-04-4.07404E-05-3.25210E-05-3.89175E-06-4.66000E-20-8.07674E-19
 -1      2284 1.14438E-04-3.88402E-05-3.23280E-05-6.21206E-06 2.42012E-19-4.94280E-19
 -1      2285 1.17148E-04-4.34416E-05-3.16801E-05-5.08841E-06 1.73615E-19-7.67819E-19
 -1      2286 1.11596E-04-3.66646E-05-3.21684E-05-7.65222E-06-2.92822E-20-6.77951E-19
 -1      2287 1.09705E-04-3.49568E-05-3.19875E-05-8.79612E-06 2.00767E-19-7.67260E-19
 -1      2288 1.10609E-04-3.81214E-05-3.11502E-05-9.19550E-06-2.54772E-22 3.56019E-21
 -1      2289 1.07777E-04-3.34211E-05-3.18897E-05-9.14547E-06-1.72188E-19-1.11792E-18
 -1      2290 1.06165E-04-3.21912E-05-3.16773E-05-9.42580E-06-1.56601E-19-1.14339E-18
 -1      2291 1.05859E-04-3.37528E-05-3.09587E-05-1.07007E-05-3.91898E-19-9.07993E-19
 -1      2292 1.04929E-04-3.12670E-05-3.15702E-05-9.15886E-06 1.24753E-19-1.03163E-18
 -1      2293 1.03601E-04-3.04712E-05-3.13299E-05-8.92221E-06 2.46456E-19-7.66165E-19
 -1      2294 1.02734E-04-3.08817E-05-3.08255E-05-1.06021E-05 9.14605E-20-7.61002E-19
 -1      2295 1.02801E-04-2.99758E-05-3.11991E-05-8.36131E-06-3.92555E-20-4.31343E-19
 -1      2296 1.01714E-04-2.94873E-05-3.09505E-05-7.87161E-06 4.21589E-20-3.82925E-19
 -1      2297 1.00727E-04-2.92437E-05-3.06522E-05-9.66348E-06 5.77357E-20-5.87896E-19
 -1      2298 1.01168E-04-2.92507E-05-3.08041E-05-7.20998E-06 6.06269E-19-5.30797E-19
 -1      2299 1.00279E-04-2.89569E-05-3.05660E-05-6.63670E-06 9.49796E-19-1.47122E-19
 -1      2300 9.93990E-05-2.84190E-05-3.04285E-05-8.36478E-06 4.82698E-19-1.87413E-19
 -1      2301 9.98786E-05-2.88610E-05-3.04169E-05-5.98144E-06 6.08773E-19-7.21263E-20
 -1      2302 9.91540E-05-2.86842E-05-3.02020E-05-5.41987E-06 7.12137E-19-2.98243E-19
 -1      2303 9.84646E-05-2.80682E-05-3.01749E-05-6.98727E-06 7.19942E-19-5.47233E-20
 -1      2304 9.88430E-05-2.86581E-05-3.00608E-05-4.82426E-06 6.84006E-19-1.02101E-18
 -1      2305 9.82571E-05-2.85504E-05-2.98751E-05-4.32051E-06 3.15570E-19-1.36902E-18
 -1      2306 9.77632E-05-2.79674E-05-2.99163E-05-5.68327E-06 1.85335E-19-1.41227E-19
 -1      2307 9.80068E-05-2.85556E-05-2.97482E-05-3.80604E-06-7.35678E-20-1.27580E-18
 -1      2308 9.75382E-05-2.84890E-05-2.95931E-05-3.37704E-06-3.17588E-20-1.60753E-18
 -1      2309 9.72110E-05-2.79856E-05-2.96715E-05-4.52513E-06 3.03468E-20-1.49532E-18
 -1      2310 9.73342E-05-2.85062E-05-2.94836E-05-2.94755E-06 5.18944E-20-1.49708E-18
 -1      2311 9.69645E-05-2.84646E-05-2.93574E-05-2.59445E-06-3.44512E-20-1.57524E-18
 -1      2312 9.67655E-05-2.80524E-05-2.94518E-05-3.53801E-06 7.00858E-20-1.85843E-18
 -1      2313 9.67986E-05-2.84847E-05-2.92657E-05-2.24468E-06-1.24784E-19-1.42838E-18
 -1      2314 9.65111E-05-2.84590E-05-2.91653E-05-1.96109E-06-9.37378E-20-1.52640E-18
 -1      2315 9.64041E-05-2.81328E-05-2.92623E-05-2.72081E-06-1.06423E-19-1.27749E-18
 -1      2316 9.63778E-05-2.84782E-05-2.90904E-05-1.68175E-06-3.19804E-19-9.53696E-19
 -1      2317 9.61575E-05-2.84629E-05-2.90119E-05-1.45828E-06-3.90010E-19-8.72833E-19
 -1      2318 9.61127E-05-2.82108E-05-2.91037E-05-2.05915E-06-7.12624E-20-1.21514E-18
 -1      2319 9.60520E-05-2.84798E-05-2.89520E-05-1.23887E-06-1.04487E-18-1.30843E-18
 -1      2320 9.58860E-05-2.84714E-05-2.88918E-05-1.06561E-06-8.99144E-19-1.52646E-18
 -1      2321 9.58808E-05-2.82802E-05-2.89742E-05-1.53313E-06-8.19328E-19-1.27144E-18
 -1      2322 9.58039E-05-2.84858E-05-2.88448E-05-8.95875E-07-7.36826E-19-1.54610E-18
 -1      2323 9.56810E-05-2.84821E-05-2.87993E-05-7.63545E-07-6.22484E-19-1.74959E-18
 -1      2324 9.56992E-05-2.83394E-05-2.88707E-05-1.12160E-06-8.35293E-19-6.42374E-19
 -1      2325 9.56184E-05-2.84942E-05-2.87631E-05-6.34151E-07-3.82950E-19-2.09431E-18
 -1      2326 9.55291E-05-2.84935E-05-2.87293E-05-5.34577E-07-2.08320E-20-1.50825E-18
 -1      2327 9.55596E-05-2.83886E-05-2.87894E-05-8.04454E-07-3.89122E-19-1.01127E-18
 -1      2328 9.54824E-05-2.85036E-05-2.87018E-05-4.37424E-07-3.65156E-19-2.13473E-18
 -1      2329 9.54190E-05-2.85049E-05-2.86772E-05-3.63665E-07-1.07505E-18-2.26144E-18
 -1      2330 9.54544E-05-2.84289E-05-2.87267E-05-5.63670E-07-7.02873E-19-1.60355E-18
 -1      2331 9.53848E-05-2.85131E-05-2.86568E-05-2.91900E-07-8.68913E-19-1.97939E-18
 -1      2332 9.53409E-05-2.85155E-05-2.86393E-05-2.38206E-07-3.52108E-19-1.21919E-18
 -1      2333 9.53768E-05-2.84616E-05-2.86792E-05-3.83693E-07-6.73125E-19-1.98748E-18
 -1      2334 9.53166E-05-2.85223E-05-2.86243E-05-1.86154E-07-5.74280E-19-1.62033E-18
 -1      2335 9.52873E-05-2.85253E-05-2.86121E-05-1.47842E-07-6.69022E-19-1.52298E-18
 -1      2336 9.53210E-05-2.84878E-05-2.86438E-05-2.51432E-07-5.97378E-19-6.95980E-19
 -1      2337 9.52705E-05-2.85308E-05-2.86014E-05-1.10883E-07-7.98340E-19-1.50333E-18
 -1      2338 9.52518E-05-2.85340E-05-2.85932E-05-8.41997E-08-7.92762E-19-1.78581E-18
 -1      2339 9.52818E-05-2.85085E-05-2.86179E-05-1.56087E-07-8.76560E-19-1.60500E-18
 -1      2340 9.52406E-05-2.85383E-05-2.85857E-05-5.86261E-08-1.19205E-18-1.97265E-18
 -1      2341 9.52295E-05-2.85415E-05-2.85805E-05-4.05988E-08-1.07960E-18-1.83696E-18
 -1      2342 9.52554E-05-2.85249E-05-2.85993E-05-8.88915E-08-9.39074E-19-2.19106E-18
 -1      2343 9.52224E-05-2.85449E-05-2.85754E-05-2.34767E-08-9.44756E-19-2.37653E-18
 -1      2344 9.52166E-05-2.85479E-05-2.85722E-05-1.17838E-08-7.75709E-19-2.44949E-18
 -1      2345 9.52382E-05-2.85376E-05-2.85864E-05-4.28349E-08-1.64932E-18-2.67819E-18
 -1      2346 9.52124E-05-2.85506E-05-2.85689E-05-8.22063E-10 1.97052E-19-2.83298E-18
 -1      2347 9.52101E-05-2.85532E-05-2.85672E-05 6.32671E-09 8.22724E-19-2.74661E-18
 -1      2348 9.52278E-05-2.85473E-05-2.85777E-05-1.23868E-08-6.94690E-19-3.24318E-18
 -1      2349 9.52080E-05-2.85553E-05-2.85652E-05 1.28918E-08 2.75769E-19-2.41306E-18
 -1      2350 9.52080E-05-2.85575E-05-2.85644E-05 1.68578E-08-1.85656E-19-2.69590E-18
 -1      2351 9.52222E-05-2.85547E-05-2.85720E-05 6.75444E-09 5.05588E-19-2.76035E-18
 -1      2352 9.52072E-05-2.85591E-05-2.85633E-05 2.03641E-08-7.81994E-19-2.30196E-18
 -1      2353 9.52086E-05-2.85610E-05-2.85632E-05 2.21667E-08-1.22479E-18-1.62562E-18
 -1      2354 9.52198E-05-2.85601E-05-2.85686E-05 1.78865E-08-2.61247E-19-3.05308E-18
 -1      2355 9.52088E-05-2.85622E-05-2.85627E-05 2.36129E-08-7.13456E-19-9.85918E-19
 -1      2356 9.52109E-05-2.85638E-05-2.85630E-05 2.40025E-08 7.03157E-20-1.21363E-18
 -1      2357 9.52195E-05-2.85641E-05-2.85667E-05 2.34993E-08-6.56723E-19-2.21936E-18
 -1      2358 9.52115E-05-2.85646E-05-2.85629E-05 2.41202E-08 5.23305E-19-7.00125E-19
 -1      2359 9.52140E-05-2.85659E-05-2.85634E-05 2.36377E-08 1.34386E-19-4.24046E-19
 -1      2360 9.52204E-05-2.85670E-05-2.85658E-05 2.54405E-08 4.96858E-19-9.07249E-19
 -1      2361 9.52149E-05-2.85665E-05-2.85636E-05 2.29516E-08-4.70450E-19-3.27711E-19
 -1      2362 9.52174E-05-2.85675E-05-2.85642E-05 2.19776E-08-6.87551E-19-3.59790E-20
 -1      2363 9.52221E-05-2.85690E-05-2.85657E-05 2.50554E-08 3.35128E-19 1.14321E-18
 -1      2364 9.52185E-05-2.85680E-05-2.85645E-05 2.08536E-08-5.58097E-19 4.16571E-19
 -1      2365 9.52208E-05-2.85688E-05-2.85652E-05 1.96470E-08 1.39005E-19 9.99669E-19
 -1      2366 9.52242E-05-2.85703E-05-2.85660E-05 2.32999E-08-1.31742E-19 1.30710E-18
 -1      2367 9.52219E-05-2.85691E-05-2.85655E-05 1.83310E-08-1.94666E-20 8.23696E-19
 -1      2368 9.52240E-05-2.85697E-05-2.85661E-05 1.70594E-08 7.11280E-19 1.48889E-19
 -1      2369 9.52263E-05-2.85712E-05-2.85665E-05 2.08336E-08 1.25762E-19 1.81482E-18
 -1      2370 9.52250E-05-2.85699E-05-2.85665E-05 1.57079E-08 1.32109E-18 1.51913E-19
 -1      2371 9.52269E-05-2.85704E-05-2.85671E-05 1.44711E-08 1.20116E-18 1.38406E-19
 -1      2372 9.52284E-05-2.85718E-05-2.85671E-05 1.80922E-08 1.97549E-19 1.12741E-18
 -1      2373 9.52278E-05-2.85706E-05-2.85674E-05 1.31740E-08 1.42618E-18-5.63209E-19
 -1      2374 9.52294E-05-2.85710E-05-2.85679E-05 1.20218E-08 2.42624E-18-1.46130E-18
 -1      2375 9.52303E-05-2.85721E-05-2.85678E-05 1.53450E-08 1.17822E-18 1.17262E-18
 -1      2376 9.52302E-05-2.85711E-05-2.85682E-05 1.08200E-08 1.36455E-18-2.74022E-18
 -1      2377 9.52316E-05-2.85714E-05-2.85686E-05 9.76488E-09-3.94838E-19-3.53301E-18
 -1      2378 9.52319E-05-2.85724E-05-2.85684E-05 1.27380E-08 3.78688E-19-2.61524E-18
 -1      2379 9.52323E-05-2.85715E-05-2.85689E-05 8.66415E-09-3.24943E-19-3.00168E-18
 -1      2380 9.52334E-05-2.85718E-05-2.85693E-05 7.69397E-09-1.43136E-18-3.42871E-18
 -1      2381 9.52334E-05-2.85725E-05-2.85689E-05 1.03273E-08-4.16042E-19-2.87084E-18
 -1      2382 9.52340E-05-2.85719E-05-2.85695E-05 6.67638E-09-1.06824E-18-2.48972E-18
 -1      2383 9.52349E-05-2.85722E-05-2.85697E-05 5.76464E-09-4.91074E-20-1.27177E-18
 -1      2384 9.52347E-05-2.85728E-05-2.85694E-05 8.11051E-09-6.41351E-19-2.13435E-18
 -1      2385 5.13779E-05-3.18441E-05-8.24732E-06 4.11600E-05-5.20290E-19 4.89860E-18
 -1      2386 3.86603E-05-2.63203E-05-5.04527E-06 3.37284E-05-9.45289E-19 5.41995E-18
 -1      2387 1.01156E-04-2.83369E-05-3.11444E-05 8.00430E-06 1.12049E-18 3.48352E-19
 -1      2388 1.02840E-04-2.96116E-05-3.13885E-05 9.04474E-06 1.06034E-18 7.31850E-19
 -1      2389 9.86428E-05-2.62342E-05-3.09693E-05 4.25334E-06 1.20042E-18-2.32587E-19
 -1      2390 9.97250E-05-2.71250E-05-3.11076E-05 6.17306E-06 1.21744E-18 8.03490E-20
 -1      2391 1.02885E-04-2.75054E-05-3.23245E-05 8.44179E-06 1.54209E-18 6.17827E-20
 -1      2392 9.77871E-05-2.56571E-05-3.08840E-05-7.86042E-07 1.24776E-18-6.88886E-19
 -1      2393 9.79332E-05-2.56803E-05-3.09290E-05 1.50670E-06 1.11812E-18-6.03058E-19
 -1      2394 1.00619E-04-2.53209E-05-3.23168E-05 3.53257E-06 1.43111E-18-6.42222E-19
 -1      2395 9.88585E-05-2.69296E-05-3.08375E-05-5.35729E-06 1.30346E-18-1.20938E-18
 -1      2396 9.81075E-05-2.61005E-05-3.08002E-05-3.48542E-06 1.50616E-18-7.70419E-19
 -1      2397 1.00231E-04-2.52368E-05-3.21865E-05-2.39045E-06 1.51388E-18-1.06068E-18
 -1      2398 1.01227E-04-2.94011E-05-3.08115E-05-7.93156E-06 8.44661E-19-1.78269E-18
 -1      2399 9.99143E-05-2.81134E-05-3.07121E-05-7.07426E-06 1.21058E-18-1.55264E-18
 -1      2400 1.01709E-04-2.73210E-05-3.18955E-05-7.12546E-06 1.45047E-18-1.64234E-18
 -1      2401 1.03666E-04-3.18055E-05-3.08251E-05-7.98815E-06 8.74016E-19-1.86119E-18
 -1      2402 1.02322E-04-3.06478E-05-3.06866E-05-8.19388E-06 7.90911E-19-1.66766E-18
 -1      2403 1.04054E-04-3.04793E-05-3.15129E-05-9.14430E-06 9.86778E-19-2.10324E-18
 -1      2404 1.05308E-04-3.33112E-05-3.08719E-05-6.17089E-06 1.12104E-18-2.15956E-18
 -1      2405 1.04306E-04-3.26103E-05-3.07323E-05-7.09674E-06 1.11460E-18-1.92333E-18
 -1      2406 1.05923E-04-3.31388E-05-3.11584E-05-8.36443E-06 1.13669E-18-2.20904E-18
 -1      2407 1.05868E-04-3.37390E-05-3.09183E-05-3.54017E-06 1.12396E-18-2.35110E-18
 -1      2408 1.05357E-04-3.35320E-05-3.08148E-05-4.72542E-06 1.11323E-18-2.09326E-18
 -1      2409 1.06664E-04-3.45084E-05-3.08990E-05-5.82515E-06 1.13047E-18-2.36245E-18
 -1      2410 1.05524E-04-3.33745E-05-3.09200E-05-9.89974E-07 4.31027E-20-1.85118E-18
 -1      2411 1.05469E-04-3.35201E-05-3.08774E-05-2.08352E-06 7.07249E-19-1.91402E-18
 -1      2412 1.06297E-04-3.45697E-05-3.07299E-05-2.76851E-06 6.39252E-19-1.93110E-18
 -1      2413 1.04604E-04-3.26090E-05-3.08509E-05 9.96400E-07-1.22520E-19-1.07259E-18
 -1      2414 1.04887E-04-3.29367E-05-3.08744E-05 1.71719E-07-8.40813E-20-1.25708E-18
 -1      2415 1.05212E-04-3.37940E-05-3.06075E-05-6.07415E-08-2.10367E-19-1.22291E-18
 -1      2416 1.03405E-04-3.17432E-05-3.07074E-05 2.28455E-06-5.12289E-20-1.00480E-18
 -1      2417 1.03895E-04-3.21249E-05-3.07876E-05 1.76728E-06-6.61744E-22-8.33250E-19
 -1      2418 1.03812E-04-3.26828E-05-3.04892E-05 1.91195E-06-2.14107E-19-7.69185E-19
 -1      2419 1.02132E-04-3.09474E-05-3.05035E-05 2.94497E-06 5.22934E-19-8.87460E-19
 -1      2420 1.02722E-04-3.13090E-05-3.06234E-05 2.69493E-06 3.28179E-19-3.92246E-19
 -1      2421 1.02374E-04-3.15759E-05-3.03489E-05 3.10263E-06-5.35864E-20-4.73995E-20
 -1      2422 1.00909E-04-3.02896E-05-3.02620E-05 3.13090E-06 4.34524E-20-9.47502E-19
 -1      2423 1.01520E-04-3.05990E-05-3.04030E-05 3.07827E-06 4.91341E-19-6.99262E-19
 -1      2424 1.01045E-04-3.06412E-05-3.01797E-05 3.63838E-06 5.07691E-19 2.38107E-19
 -1      2425 9.98009E-05-2.97790E-05-3.00063E-05 3.00300E-06-1.86982E-19-1.45140E-18
 -1      2426 1.00382E-04-3.00284E-05-3.01527E-05 3.07789E-06-2.00391E-19-1.17474E-18
 -1      2427 9.98827E-05-2.99248E-05-2.99881E-05 3.70112E-06 8.99919E-20-3.55229E-19
 -1      2428 9.88348E-05-2.93981E-05-2.97559E-05 2.69531E-06-2.76137E-19-1.06859E-18
 -1      2429 9.93575E-05-2.95916E-05-2.98961E-05 2.84074E-06-3.80095E-19-1.37709E-18
 -1      2430 9.88989E-05-2.94103E-05-2.97863E-05 3.46296E-06-4.65917E-19-8.50215E-19
 -1      2431 9.80172E-05-2.91216E-05-2.95243E-05 2.30613E-06 1.18739E-19-1.26440E-18
 -1      2432 9.84679E-05-2.92677E-05-2.96511E-05 2.48110E-06 4.01937E-19-9.05650E-19
 -1      2433 9.80828E-05-2.90582E-05-2.95868E-05 3.06101E-06-5.14568E-21-3.12844E-19
 -1      2434 9.73423E-05-2.89249E-05-2.93196E-05 1.90075E-06 4.53912E-19-1.66643E-18
 -1      2435 9.77180E-05-2.90329E-05-2.94294E-05 2.07856E-06 2.01552E-19-1.52086E-18
 -1      2436 9.74160E-05-2.88268E-05-2.93997E-05 2.59312E-06 5.46420E-19-1.81803E-19
 -1      2437 9.67972E-05-2.87878E-05-2.91450E-05 1.51840E-06-2.37541E-20-1.71853E-18
 -1      2438 9.71017E-05-2.88659E-05-2.92367E-05 1.68344E-06 2.48739E-19-1.64284E-18
 -1      2439 9.68788E-05-2.86807E-05-2.92316E-05 2.12298E-06 3.09510E-19-5.48869E-19
 -1      2440 9.63660E-05-2.86940E-05-2.90007E-05 1.17964E-06-4.53994E-19-1.95559E-18
 -1      2441 9.66066E-05-2.87493E-05-2.90751E-05 1.32411E-06-3.11051E-19-1.70299E-18
 -1      2442 9.64520E-05-2.85927E-05-2.90860E-05 1.68801E-06-2.11508E-19-3.33977E-19
 -1      2443 9.60318E-05-2.86314E-05-2.88845E-05 8.92603E-07-8.73548E-19-1.62380E-18
 -1      2444 9.62173E-05-2.86696E-05-2.89432E-05 1.01380E-06-8.11066E-19-1.96700E-18
 -1      2445 9.61178E-05-2.85430E-05-2.89636E-05 1.30702E-06-4.76918E-19-6.16836E-19
 -1      2446 9.57780E-05-2.85910E-05-2.87933E-05 6.57716E-07 3.17381E-20-1.18917E-18
 -1      2447 9.59177E-05-2.86165E-05-2.88385E-05 7.56014E-07-4.04194E-19-1.74168E-18
 -1      2448 9.58602E-05-2.85181E-05-2.88634E-05 9.86538E-07-4.93697E-19-1.60308E-18
 -1      2449 9.55894E-05-2.85661E-05-2.87233E-05 4.71030E-07-6.81604E-19-6.36723E-19
 -1      2450 9.56920E-05-2.85825E-05-2.87573E-05 5.48506E-07-4.30359E-20-1.01003E-18
 -1      2451 9.56649E-05-2.85085E-05-2.87834E-05 7.25544E-07-4.83511E-19-7.64997E-19
 -1      2452 9.54524E-05-2.85519E-05-2.86709E-05 3.26481E-07-9.86271E-19-7.55992E-19
 -1      2453 9.55259E-05-2.85617E-05-2.86958E-05 3.85978E-07-6.52639E-19-3.06286E-19
 -1      2454 9.55197E-05-2.85080E-05-2.87210E-05 5.18797E-07-6.47631E-19-1.30652E-18
 -1      2455 9.53557E-05-2.85448E-05-2.86326E-05 2.17311E-07-3.79982E-19-7.41780E-19
 -1      2456 9.54065E-05-2.85501E-05-2.86503E-05 2.61864E-07-1.00428E-18-9.68507E-19
 -1      2457 9.54138E-05-2.85126E-05-2.86734E-05 3.59093E-07-7.36352E-19-1.57617E-18
 -1      2458 9.52895E-05-2.85424E-05-2.86054E-05 1.36910E-07-1.25824E-18-1.78546E-19
 -1      2459 9.53234E-05-2.85447E-05-2.86176E-05 1.69419E-07-8.14228E-19-5.50165E-19
 -1      2460 9.53386E-05-2.85195E-05-2.86378E-05 2.38686E-07-9.53864E-19-2.09697E-18
 -1      2461 9.52460E-05-2.85429E-05-2.85867E-05 7.92777E-08-1.50562E-19-7.94591E-19
 -1      2462 9.52674E-05-2.85432E-05-2.85948E-05 1.02334E-07-5.66592E-19-9.03792E-20
 -1      2463 9.52866E-05-2.85273E-05-2.86120E-05 1.50129E-07-6.89860E-19-1.56136E-18
 -1      2464 9.52192E-05-2.85450E-05-2.85744E-05 3.92272E-08 6.10633E-19-7.22346E-19
 -1      2465 9.52316E-05-2.85442E-05-2.85794E-05 5.50434E-08-8.23789E-20-7.15589E-19
 -1      2466 9.52520E-05-2.85349E-05-2.85937E-05 8.67206E-08-3.57182E-19-1.63539E-18
 -1      2467 9.52041E-05-2.85480E-05-2.85667E-05 1.24360E-08 2.60527E-19-3.72906E-19
 -1      2468 9.52104E-05-2.85465E-05-2.85696E-05 2.28382E-08 1.00992E-18 1.45089E-19
 -1      2469 9.52302E-05-2.85420E-05-2.85811E-05 4.26997E-08-9.20854E-20-1.41527E-18
 -1      2470 9.51972E-05-2.85513E-05-2.85623E-05-4.59414E-09 4.66048E-19 1.93282E-19
 -1      2471 9.51992E-05-2.85495E-05-2.85637E-05 1.85873E-09 1.31304E-19-9.54124E-20
 -1      2472 9.52174E-05-2.85481E-05-2.85729E-05 1.32822E-08 2.45071E-19-6.64997E-20
 -1      2473 9.51955E-05-2.85546E-05-2.85603E-05-1.46236E-08 2.35363E-19 2.12189E-19
 -1      2474 9.51949E-05-2.85528E-05-2.85607E-05-1.09737E-08 5.10966E-19 1.46431E-19
 -1      2475 9.52110E-05-2.85533E-05-2.85678E-05-5.39539E-09 4.20936E-19 8.03512E-19
 -1      2476 9.51973E-05-2.85577E-05-2.85597E-05-1.97808E-08 2.23364E-19 1.05723E-18
 -1      2477 9.51951E-05-2.85559E-05-2.85595E-05-1.80569E-08 8.59816E-20 4.67438E-19
 -1      2478 9.52088E-05-2.85576E-05-2.85650E-05-1.63766E-08 1.11999E-19 6.26621E-19
 -1      2479 9.52009E-05-2.85604E-05-2.85602E-05-2.16699E-08 1.21246E-19 4.74766E-19
 -1      2480 9.51979E-05-2.85588E-05-2.85596E-05-2.12167E-08 5.40356E-19 1.14557E-18
 -1      2481 9.52093E-05-2.85611E-05-2.85636E-05-2.20055E-08 4.43231E-19-4.53903E-19
 -1      2482 9.52055E-05-2.85627E-05-2.85612E-05-2.14724E-08 6.83097E-19-9.08683E-19
 -1      2483 9.52022E-05-2.85613E-05-2.85604E-05-2.18116E-08 1.82825E-19 6.73765E-19
 -1      2484 9.52115E-05-2.85638E-05-2.85633E-05-2.40474E-08 7.08765E-19 4.29612E-19
 -1      2485 9.52104E-05-2.85647E-05-2.85624E-05-2.00358E-08-1.01998E-18-1.37354E-19
 -1      2486 9.52071E-05-2.85635E-05-2.85615E-05-2.08278E-08 1.11342E-18-1.50832E-19
 -1      2487 9.52145E-05-2.85660E-05-2.85637E-05-2.38007E-08 4.47148E-19 8.35547E-19
 -1      2488 9.52151E-05-2.85663E-05-2.85638E-05-1.79494E-08-1.72898E-18-2.06900E-19
 -1      2489 9.52120E-05-2.85653E-05-2.85629E-05-1.89614E-08-2.57850E-18-1.25444E-18
 -1      2490 9.52178E-05-2.85676E-05-2.85644E-05-2.21964E-08-8.55032E-19 2.43232E-19
 -1      2491 9.52195E-05-2.85677E-05-2.85651E-05-1.56062E-08 1.27938E-19 2.17876E-19
 -1      2492 9.52168E-05-2.85668E-05-2.85643E-05-1.66859E-08-7.13334E-19 5.20673E-20
 -1      2493 9.52211E-05-2.85688E-05-2.85653E-05-1.98805E-08-1.23539E-18-1.47060E-18
 -1      2494 9.52235E-05-2.85687E-05-2.85663E-05-1.32515E-08 3.80853E-19-7.35443E-20
 -1      2495 9.52210E-05-2.85680E-05-2.85656E-05-1.43072E-08 6.80838E-19 2.43062E-19
 -1      2496 9.52242E-05-2.85697E-05-2.85662E-05-1.72825E-08 2.95293E-19-5.83742E-19
 -1      2497 9.52269E-05-2.85696E-05-2.85674E-05-1.10205E-08 2.62938E-18 4.46259E-19
 -1      2498 9.52248E-05-2.85690E-05-2.85668E-05-1.20059E-08 1.58510E-18 3.26180E-19
 -1      2499 9.52271E-05-2.85704E-05-2.85671E-05-1.46693E-08 1.08655E-18-1.13508E-18
 -1      2500 9.52297E-05-2.85703E-05-2.85683E-05-8.96730E-09 1.75245E-18 1.81245E-18
 -1      2501 9.52280E-05-2.85699E-05-2.85678E-05-9.86940E-09 2.33026E-18 1.72921E-18
 -1      2502 9.52295E-05-2.85710E-05-2.85679E-05-1.21870E-08 1.80620E-18 1.03729E-19
 -1      2503 9.52321E-05-2.85709E-05-2.85691E-05-7.08596E-09-3.53580E-19 3.68895E-19
 -1      2504 9.52307E-05-2.85705E-05-2.85687E-05-7.91731E-09 3.35987E-19 1.50106E-18
 -1      2505 9.52316E-05-2.85714E-05-2.85687E-05-9.89339E-09 1.08396E-18 2.70807E-18
 -1      2506 9.52340E-05-2.85714E-05-2.85697E-05-5.32618E-09-1.56221E-18 1.29680E-18
 -1      2507 9.52329E-05-2.85711E-05-2.85694E-05-6.11718E-09-9.00230E-19 1.56186E-18
 -1      2508 9.52334E-05-2.85718E-05-2.85693E-05-7.78948E-09-7.95789E-19 1.87577E-18
 -1      2509 9.52356E-05-2.85719E-05-2.85702E-05-3.65067E-09-2.01454E-18 1.63429E-18
 -1      2510 9.52347E-05-2.85716E-05-2.85699E-05-4.41755E-09-1.97782E-18 1.01116E-18
 -1      2511 9.52350E-05-2.85722E-05-2.85697E-05-5.81895E-09-1.21084E-18 2.05223E-18
 -1      2512 9.52362E-05-2.85720E-05-2.85703E-05-2.72451E-09-9.13790E-19 4.51645E-19
 -1      2513 9.52403E-05-2.85785E-05-2.85693E-05-4.60494E-09 1.82397E-18 9.46948E-20
 -1      2514 9.52397E-05-2.85777E-05-2.85694E-05-5.01710E-09 1.58582E-18-1.97524E-18
 -1      2515 9.52411E-05-2.85797E-05-2.85692E-05-3.25580E-09 5.72436E-19-1.73763E-18
 -1      2516 9.52407E-05-2.85791E-05-2.85693E-05-3.93363E-09 6.43344E-19 1.95170E-19
 -1      2517 9.52409E-05-2.85789E-05-2.85694E-05-4.91420E-09 1.29426E-18-9.85477E-19
 -1      2518 9.52379E-05-2.85752E-05-2.85697E-05-5.32684E-09 3.82682E-19 7.86398E-19
 -1      2519 9.52373E-05-2.85743E-05-2.85699E-05-5.07500E-09-1.82834E-19 1.40402E-18
 -1      2520 9.52392E-05-2.85769E-05-2.85695E-05-5.33643E-09-1.92131E-19-2.71092E-18
 -1      2521 9.52386E-05-2.85761E-05-2.85697E-05-5.41970E-09 7.03132E-19-1.08382E-18
 -1      2522 9.52382E-05-2.85756E-05-2.85697E-05-6.25815E-09 1.55731E-19 2.34496E-19
 -1      2523 9.52396E-05-2.85774E-05-2.85695E-05-5.98330E-09 1.33960E-18-1.46713E-18
 -1      2524 9.52416E-05-2.85804E-05-2.85691E-05-1.48813E-09-3.54104E-19 8.99794E-20
 -1      2525 9.52414E-05-2.85801E-05-2.85691E-05-2.33518E-09-3.94876E-19-4.74971E-19
 -1      2526 9.52417E-05-2.85800E-05-2.85694E-05-3.21157E-09-4.39870E-19-1.25978E-18
 -1      2527 9.52417E-05-2.85805E-05-2.85691E-05 4.67350E-10-9.66571E-19 4.53643E-19
 -1      2528 9.52417E-05-2.85805E-05-2.85691E-05-4.36969E-10-9.95526E-19 9.19861E-19
 -1      2529 9.52422E-05-2.85805E-05-2.85693E-05-1.10496E-09-3.71378E-20-2.10413E-19
 -1      2530 9.52414E-05-2.85801E-05-2.85691E-05 2.36292E-09-8.60727E-19 9.34619E-19
 -1      2531 9.52416E-05-2.85804E-05-2.85691E-05 1.51780E-09-1.28790E-18 6.63131E-19
 -1      2532 9.52422E-05-2.85805E-05-2.85693E-05 1.13864E-09-4.82843E-19 2.95579E-19
 -1      2533 9.52407E-05-2.85791E-05-2.85693E-05 3.93323E-09 5.81589E-19 2.07193E-18
 -1      2534 9.52411E-05-2.85797E-05-2.85692E-05 3.26737E-09-6.80070E-19 2.00132E-18
 -1      2535 9.52417E-05-2.85800E-05-2.85694E-05 3.22622E-09-1.68729E-19 2.08222E-18
 -1      2536 9.52397E-05-2.85777E-05-2.85694E-05 5.01718E-09-2.82381E-19 8.36071E-20
 -1      2537 9.52403E-05-2.85785E-05-2.85693E-05 4.60472E-09 3.47160E-20 3.55295E-19
 -1      2538 9.52409E-05-2.85789E-05-2.85694E-05 4.91489E-09 1.97998E-19 5.95457E-19
 -1      2539 9.52386E-05-2.85761E-05-2.85697E-05 5.41371E-09-4.50428E-19-6.11547E-19
 -1      2540 9.52392E-05-2.85769E-05-2.85695E-05 5.34192E-09-1.24867E-18 6.19422E-19
 -1      2541 9.52396E-05-2.85774E-05-2.85695E-05 5.98756E-09-1.49029E-18-3.61101E-19
 -1      2542 9.52373E-05-2.85743E-05-2.85699E-05 5.03658E-09-4.26304E-19-2.77182E-18
 -1      2543 9.52379E-05-2.85752E-05-2.85697E-05 5.33472E-09-2.86053E-19-1.38550E-18
 -1      2544 9.52382E-05-2.85756E-05-2.85697E-05 6.25099E-09-5.33985E-19-9.35826E-19
 -1      2545 9.52366E-05-2.85729E-05-2.85702E-05 3.52016E-09 2.05268E-19-1.83607E-18
 -1      2546 2.00843E-05-1.54716E-05-1.71864E-06-7.01613E-06 1.16520E-19 7.79440E-18
 -1      2547 2.59065E-05-1.97417E-05-2.41284E-06-2.04300E-05 2.20123E-19 7.47189E-18
 -1      2548 1.04386E-04-3.08072E-05-3.14944E-05 9.69613E-06 1.13392E-18 8.12404E-19
 -1      2549 1.06266E-04-3.19026E-05-3.18570E-05 9.92166E-06 1.13718E-18 1.05613E-18
 -1      2550 1.06000E-04-3.04901E-05-3.23547E-05 1.10222E-05 1.31628E-18 3.66006E-19
 -1      2551 8.87714E-05-4.72552E-05-1.78665E-05 4.37826E-05-4.98267E-19 2.01927E-18
 -1      2552 6.89047E-05-4.05386E-05-1.19677E-05 4.28926E-05-5.44642E-19 3.72779E-18
 -1      2553 6.78228E-05-3.64699E-05-1.29682E-05 4.12844E-05-1.56468E-18 3.86808E-18
 -1      2554 1.21036E-04-5.47283E-05-2.85877E-05 3.22265E-05 4.64598E-19-3.17214E-19
 -1      2555 1.08271E-04-5.32628E-05-2.34095E-05 3.60883E-05-4.28599E-19 4.33681E-19
 -1      2556 1.14589E-04-2.91331E-05-3.66347E-05-5.46910E-06-1.76101E-18 1.16390E-18
 -1      2557 1.17855E-04-3.46341E-05-3.57692E-05-3.78000E-06-1.49215E-18 1.56891E-18
 -1      2558 1.15230E-04-3.48205E-05-3.44291E-05-2.61132E-06-1.02204E-18 9.53627E-19
 -1      2559 1.07213E-04-2.54542E-05-3.50494E-05-3.47001E-06-1.63750E-18 3.29919E-19
 -1      2560 3.47839E-05-2.54283E-05-3.83386E-06-2.87565E-05 7.98329E-19 5.35875E-18
 -1      2561 4.81607E-05-3.15325E-05-7.12315E-06-3.76155E-05 4.34740E-19 3.62572E-18
 -1      2562 3.70220E-05-2.03249E-05-6.62520E-06-2.46265E-05 1.35525E-18 5.84728E-18
 -1      2563 1.46421E-04-1.43771E-05-5.70455E-05 1.67114E-06-6.11304E-18-1.63880E-18
 -1      2564 1.45442E-04-1.34250E-05-5.70200E-05-4.18673E-06-5.74627E-18-7.85464E-19
 -1      2565 5.05246E-05 3.83490E-06-2.32101E-05-8.09055E-06-1.01044E-18-4.15663E-18
 -1      2566 4.92667E-05 4.73376E-06-2.31244E-05-5.24612E-06-9.34907E-19-4.12303E-18
 -1      2567 4.84655E-05 3.62179E-06-2.21350E-05-2.49204E-06-7.43930E-19-4.26420E-18
 -1      2568 5.16857E-05 1.18578E-06-2.24913E-05-1.16939E-05-1.22053E-18-4.24962E-18
 -1      2569 1.48832E-04-3.05051E-05-5.10618E-05 6.12655E-07 4.41114E-18-2.12012E-18
 -1      2570 1.44361E-04-3.81657E-05-4.57057E-05 3.72440E-06 3.30089E-18-2.19170E-18
 -1      2571 5.51801E-05-2.83895E-05-1.13265E-05 3.55202E-05-2.82062E-19-5.30634E-18
 -1      2572 3.93279E-05-1.94244E-05-8.26846E-06 2.85729E-05 2.93073E-19-5.71260E-18
 -1      2573 1.40362E-04-9.52819E-06-5.66280E-05 3.04751E-06 6.59606E-18-1.31777E-18
 -1      2574 1.41470E-04-1.01276E-05-5.67537E-05-2.07726E-07 6.27503E-18-1.56701E-18
 -1      2575 1.45435E-04-1.46356E-05-5.65936E-05-2.65583E-06 5.63023E-18-1.95601E-18
 -1      2576 1.46693E-04-2.10018E-05-5.41747E-05-2.22969E-06 5.17601E-18-1.99497E-18
 -1      2577 1.43212E-04-3.66553E-05-4.58192E-05-5.09543E-07 4.27466E-18 1.95029E-19
 -1      2578 1.46428E-04-3.09356E-05-4.98736E-05 2.16263E-06 5.44049E-18 3.71847E-19
 -1      2579 7.06070E-05-3.31945E-05-1.58686E-05-4.09245E-05-6.56451E-19-4.30563E-18
 -1      2580 8.71635E-05-3.92460E-05-2.04234E-05-4.06573E-05 7.81388E-20-3.82606E-18
 -1      2581 1.00722E-04-4.43287E-05-2.41120E-05-3.52857E-05 3.04720E-19-3.07870E-18
 -1      2582 1.14535E-04-4.74045E-05-2.90998E-05-3.08188E-05 9.05055E-19-2.31621E-18
 -1      2583 9.79052E-05-4.31542E-05-2.31681E-05-3.49642E-05-1.12274E-18-2.67820E-18
 -1      2584 1.28657E-04-4.74710E-05-3.47586E-05-1.85026E-05 1.68687E-18-1.09839E-18
 -1      2585 1.39394E-04-4.45171E-05-4.10890E-05-1.00318E-05 2.96432E-18-2.68933E-19
 -1      2586 1.58693E-05-4.74301E-06-4.40682E-06-7.97332E-06-8.82595E-19-6.85271E-18
 -1      2587 2.00394E-05-6.07791E-06-5.61875E-06-1.91225E-05-9.00184E-19-6.79045E-18
 -1      2588 1.35486E-04-5.75045E-05-3.35064E-05-1.86769E-05-7.00708E-19-2.72533E-19
 -1      2589 1.45212E-04-5.45813E-05-3.93869E-05-9.55241E-06-1.85241E-18-1.78300E-18
 -1      2590 2.37401E-05-9.39019E-06-5.84894E-06 1.79264E-05-2.88309E-19-6.54036E-18
 -1      2591 1.64941E-05-5.40402E-06-4.46593E-06 3.77707E-06-1.67818E-19-6.80527E-18
 -1      2592 8.92904E-05-4.38912E-05-1.95706E-05 3.64746E-05-2.21076E-19-3.72554E-18
 -1      2593 7.08712E-05-3.67099E-05-1.45756E-05 3.57722E-05-1.01644E-20-4.42342E-18
 -1      2594 7.05398E-05-3.22340E-05-1.59765E-05 3.36650E-05 1.05117E-18-4.14559E-18
 -1      2595 1.28341E-04-5.47970E-05-3.18248E-05 2.31306E-05-1.80503E-18-1.83489E-18
 -1      2596 1.09783E-04-5.14600E-05-2.49778E-05 2.89942E-05-6.60262E-19-2.51918E-18
 -1      2597 1.49525E-04-4.95421E-05-4.32709E-05 3.41312E-06-3.34210E-18 2.92438E-19
 -1      2598 1.40208E-04-5.31221E-05-3.73452E-05 1.09493E-05-2.69018E-18-6.52215E-19
 -1      2599 1.55938E-04-3.36536E-05-5.27711E-05-7.35533E-06-4.74275E-18-3.02814E-20
 -1      2600 1.52061E-04-4.00781E-05-4.81794E-05-5.32393E-06-4.14623E-18 2.45428E-19
 -1      2601 1.47057E-04-1.76605E-05-5.62333E-05-9.44981E-06-5.47204E-18 1.41137E-19
 -1      2602 1.52859E-04-2.51227E-05-5.49697E-05-9.64386E-06-5.19189E-18 8.19504E-20
 -1      2603 1.45433E-04-2.82522E-05-5.03565E-05-1.42040E-05-4.47657E-18 8.41527E-19
 -1      2604 1.49497E-04-2.50893E-05-5.36939E-05 7.73128E-06-5.84262E-18-3.07198E-18
 -1      2605 1.47361E-04-1.90478E-05-5.56679E-05 5.93563E-06-6.20176E-18-2.56662E-18
 -1      2606 1.49191E-04-4.38948E-05-4.52872E-05 2.08585E-06-3.57363E-18-2.97182E-18
 -1      2607 1.52253E-04-3.47419E-05-5.08837E-05 5.72797E-06-5.06992E-18-3.39787E-18
 -1      2608 1.11432E-04-5.60486E-05-2.35720E-05-3.32499E-05 4.51045E-19 6.85673E-19
 -1      2609 1.26015E-04-5.80916E-05-2.92552E-05-2.85217E-05 1.60936E-20 9.41159E-19
 -1      2610 1.33184E-04-5.99738E-05-3.11711E-05-1.73046E-05 4.79738E-19-9.01243E-19
 -1      2611 6.87712E-05-4.14856E-05-1.14976E-05-4.04128E-05 5.51630E-19 2.07078E-18
 -1      2612 8.92866E-05-4.88559E-05-1.74963E-05-4.18978E-05 5.29184E-19 9.01667E-19
 -1      2613 2.65143E-05-1.95748E-05-2.79441E-06 2.40863E-05-4.66821E-19 6.14798E-18
 -1      2614 2.03157E-05-1.51726E-05-1.85087E-06 9.26953E-06-8.69321E-19 6.98845E-18
 -1      2615 3.93640E-05-2.06283E-05-7.46055E-06 2.84232E-05-1.28844E-18 5.77211E-18
 -1      2616 1.11891E-04-3.15207E-05-3.45080E-05 1.07971E-05 2.18679E-18 1.67792E-18
 -1      2617 1.13337E-04-3.00157E-05-3.57582E-05 1.29309E-05 2.41441E-18 1.88362E-18
 -1      2618 1.11221E-04-2.76695E-05-3.59118E-05 1.41024E-05 2.53377E-18 1.06054E-18
 -1      2619 1.11467E-04-3.14646E-05-3.43488E-05 1.19963E-05 2.07640E-18 9.89060E-19
 -1      2620 1.41668E-04-4.84372E-05-4.03377E-05 1.32739E-05 2.26171E-18-2.16777E-18
 -1      2621 1.31270E-04-5.25763E-05-3.38048E-05 2.15652E-05 1.21803E-18-1.23730E-18
 -1      2622 1.30137E-04-5.61374E-05-3.15875E-05 2.02522E-05-3.79047E-19-2.26497E-18
 -1      2623 1.41270E-04-4.47209E-05-4.14337E-05 2.54274E-06 2.00890E-18-3.14546E-18
 -1      2624 7.46570E-05-1.18940E-05-2.69141E-05 7.92357E-06-2.87422E-19-2.54011E-18
 -1      2625 7.79062E-05-1.13291E-05-2.86186E-05 4.98608E-06-5.97511E-19-2.34570E-18
 -1      2626 8.63264E-05-1.52983E-05-3.03933E-05 3.43651E-06-9.06378E-19-1.87577E-18
 -1      2627 1.08812E-04-3.27118E-05-3.26003E-05 1.15400E-05 1.34000E-18 6.74098E-19
 -1      2628 1.08999E-04-2.60329E-05-3.56004E-05 1.33619E-05 2.23644E-18 2.03248E-19
 -1      2629 1.40870E-04-2.51452E-05-4.98490E-05 9.08696E-06 5.39306E-18 5.61583E-19
 -1      2630 1.05421E-04-5.39027E-05-2.17906E-05-3.49089E-05 1.24535E-18 6.20690E-19
 -1      2631 1.34455E-04-1.05706E-05-5.34492E-05 4.92170E-06 6.19118E-18-6.97505E-19
 -1      2632 1.45296E-04-5.07757E-05-4.05726E-05 1.56088E-06-2.17883E-18-3.02391E-18
 -1      2633 1.38695E-04-1.51947E-05-5.30621E-05-8.17503E-06-5.07373E-18 6.35275E-21
 -1      2634 1.02953E-04-5.19064E-05-2.15979E-05 3.75724E-05-1.55960E-18 1.72212E-19
 -1      2635 9.52362E-05-2.85726E-05-2.85701E-05-3.89029E-09-1.02584E-18 4.40689E-19
 -1      2636 9.98741E-05-2.22022E-05-3.33413E-05-9.09081E-07-1.29619E-18-5.35841E-19
 -1      2637 9.52365E-05-2.85732E-05-2.85700E-05-4.44356E-09-6.18868E-19 1.27175E-18
 -1      2638 1.38079E-04-1.62630E-05-5.24525E-05 6.37394E-06-5.41445E-18-2.17047E-18
 -1      2639 9.52359E-05-2.85724E-05-2.85701E-05 4.28327E-09-3.70228E-19-1.51022E-18
 -1      2640 9.52367E-05-2.85735E-05-2.85699E-05 4.81596E-09-1.00146E-19-2.86094E-18
 -1      2641 9.52367E-05-2.85739E-05-2.85698E-05 5.91587E-09-6.60919E-19-1.86482E-18
 -1      2642 9.52352E-05-2.85723E-05-2.85699E-05 5.09483E-09-5.69729E-19-1.43996E-18
 -1      2643 1.48196E-04-4.59144E-05-4.38464E-05-7.03665E-06-2.95858E-18 1.24133E-18
 -1      2644 1.05495E-04-4.93170E-05-2.37628E-05 2.87284E-05 6.92238E-19-2.22465E-18
 -1      2645 2.69264E-05-1.34400E-05-5.17130E-06 1.13526E-06-4.26508E-19 7.24467E-18
 -1      2646 1.10024E-04-2.88553E-05-3.47306E-05 1.22279E-05 1.97655E-18 2.42285E-19
 -1      2647 3.83033E-05-1.27830E-05-1.03922E-05 2.25642E-05 5.48348E-19-5.91589E-18
 -1      2648 9.52365E-05-2.85735E-05-2.85698E-05-5.58103E-09-5.37636E-19 2.04974E-18
 -1      2649 2.27046E-05-2.09704E-06-8.21678E-06-1.41358E-06-4.72419E-19-6.72523E-18
 -1      2650 6.33482E-05-2.83284E-05-1.47249E-05-4.00397E-05-1.29765E-18-4.69532E-18
 -1      2651 7.56410E-05-3.21367E-05-1.86366E-05-3.84655E-05-2.18704E-18-3.50132E-18
 -1      2652 5.54431E-05-2.07769E-05-1.42168E-05-3.73081E-05-2.09259E-18-4.75217E-18
 -1      2653 1.38730E-04-4.18901E-05-4.15652E-05 4.28998E-08 2.70749E-18 7.97058E-19
 -1      2654 1.32579E-04-1.09960E-05-5.23625E-05-3.30256E-06 5.50889E-18-1.98031E-18
 -1      2655 2.92108E-05-8.84638E-06-8.22192E-06-2.57158E-05-1.33545E-18-6.58610E-18
 -1      2656 3.94033E-05-1.14648E-05-1.17399E-05-3.17129E-05-1.80164E-18-5.81700E-18
 -1      2657 3.02334E-05-3.70803E-06-1.06398E-05-2.06368E-05-1.32354E-18-6.41140E-18
 -1      2658 6.48701E-05-3.59532E-05-1.19092E-05-3.84967E-05 1.68136E-18 2.19636E-18
 -1      2659 1.39883E-04-2.51525E-05-4.92741E-05-6.67713E-06 4.07868E-18-2.84889E-18
 -1      2660 1.23960E-04-4.91552E-05-3.19441E-05-1.99110E-05 2.37275E-19-7.43060E-19
 -1      2661 1.36136E-04-5.60378E-05-3.41667E-05 1.12684E-05-9.67100E-19 1.81371E-19
 -1      2662 1.43506E-04-3.07697E-05-4.85386E-05 1.14611E-05-4.59505E-18-3.61260E-18
 -1      2663 9.52356E-05-2.85729E-05-2.85697E-05 6.33434E-09-3.55078E-19-1.39383E-18
 -1      2664 8.74692E-05-2.26962E-05-2.76099E-05-1.41178E-05-1.23603E-18-2.37733E-18
 -1      2665 7.93063E-05-1.85387E-05-2.60910E-05-1.71499E-05-1.56160E-18-2.74309E-18
 -1      2666 6.95279E-05-1.25130E-05-2.41346E-05-1.95855E-05-1.74793E-18-3.47236E-18
 -1      2667 6.01491E-05-7.31982E-06-2.26996E-05-1.95157E-05-1.79452E-18-3.87708E-18
 -1      2668 7.67220E-05-1.97419E-05-2.43688E-05-2.17730E-05-1.85648E-18-2.97617E-18
 -1      2669 1.06220E-04-3.04427E-05-3.25646E-05 3.75407E-06 5.28757E-19-1.14793E-18
 -1      2670 1.03375E-04-2.93869E-05-3.16494E-05 1.01703E-07 1.26704E-19-1.33984E-18
 -1      2671 1.09460E-04-3.09429E-05-3.37584E-05 9.59091E-06 1.24946E-18-5.69841E-19
 -1      2672 1.07920E-04-3.03332E-05-3.32092E-05 7.23784E-06 9.13823E-19-8.21119E-19
 -1      2673 1.09964E-04-3.34517E-05-3.27570E-05 5.84368E-06 6.18240E-19-5.65939E-19
 -1      2674 1.11225E-04-3.38281E-05-3.32068E-05 1.16314E-05 1.36020E-18 4.43521E-19
 -1      2675 1.11950E-04-3.34224E-05-3.36333E-05 1.17378E-05 1.40431E-18 5.68760E-19
 -1      2676 4.99060E-05-1.59141E-05-1.41726E-05 2.69405E-05 8.62385E-19-4.90549E-18
 -1      2677 3.48347E-05-5.67487E-06-1.20238E-05 1.60043E-05 5.39401E-19-5.65733E-18
 -1      2678 4.89890E-05-2.27280E-05-1.09794E-05 3.28751E-05-1.49237E-18 4.86282E-18
 -1      2679 3.82447E-05-1.56963E-05-9.12108E-06 2.21677E-05-1.44589E-18 5.59465E-18
 -1      2680 3.80961E-05-1.59815E-05-9.02835E-06-1.99420E-05 1.90016E-18 5.41551E-18
 -1      2681 4.69050E-05-2.20275E-05-1.03055E-05-2.94574E-05 2.10424E-18 4.19408E-18
 -1      2682 1.12089E-04-5.45907E-05-2.49197E-05 3.16881E-05-2.14490E-18-1.77467E-18
 -1      2683 9.60644E-05-4.79225E-05-2.01423E-05 3.73373E-05-2.53093E-18-8.06799E-20
 -1      2684 1.27744E-04-4.89545E-05-3.36162E-05-3.17964E-06 1.50759E-19 1.83354E-18
 -1      2685 1.30389E-04-4.97356E-05-3.46274E-05-6.80585E-06-8.81014E-20 2.18162E-18
 -1      2686 1.33771E-04-4.79941E-05-3.69527E-05 9.56587E-06-1.53848E-18-4.83264E-18
 -1      2687 1.32266E-04-5.14344E-05-3.46911E-05 5.14165E-06-5.29812E-19-4.15321E-18
 -1      2688 1.26631E-04-5.09764E-05-3.25251E-05-4.80288E-07 5.65289E-19-2.88734E-18
 -1      2689 1.23059E-04-4.93647E-05-3.14503E-05-4.67332E-06 1.23102E-18-2.23940E-18
 -1      2690 1.30233E-04-5.39752E-05-3.27701E-05-2.51107E-06 8.01181E-19-3.54028E-18
 -1      2691 1.17143E-04-4.57212E-05-3.06563E-05-7.77464E-06 1.07891E-18-1.43473E-18
 -1      2692 1.13407E-04-4.24606E-05-3.02574E-05-1.02047E-05 8.49381E-19-7.54948E-19
 -1      2693 1.18021E-04-4.86525E-05-2.98416E-05-1.07334E-05 1.87499E-18-1.65320E-18
 -1      2694 1.09220E-04-3.90047E-05-3.01103E-05-1.12688E-05 1.58372E-19-3.16532E-19
 -1      2695 1.06287E-04-3.60800E-05-3.00034E-05-1.22708E-05-8.44998E-20-2.95533E-19
 -1      2696 1.08141E-04-4.08250E-05-2.90008E-05-1.40037E-05 8.50418E-19-7.23935E-19
 -1      2697 1.03843E-04-3.36565E-05-3.00737E-05-1.21444E-05-4.58844E-19-2.10232E-19
 -1      2698 1.01853E-04-3.16613E-05-3.00422E-05-1.22511E-05-4.38172E-19-5.80562E-19
 -1      2699 1.01689E-04-3.41739E-05-2.90299E-05-1.41775E-05-3.01731E-19-3.31832E-19
 -1      2700 1.00604E-04-3.02520E-05-3.01366E-05-1.16270E-05-2.58635E-20-4.04381E-19
 -1      2701 9.93323E-05-2.90816E-05-3.00938E-05-1.12427E-05 2.76454E-19 2.20645E-20
 -1      2702 9.81490E-05-2.99392E-05-2.92793E-05-1.30643E-05-1.72705E-19 3.15453E-19
 -1      2703 9.87718E-05-2.83896E-05-3.01479E-05-1.04494E-05 1.32571E-19-1.53254E-19
 -1      2704 9.79525E-05-2.77822E-05-3.00727E-05-9.83099E-06 2.70154E-19-4.32553E-21
 -1      2705 9.64259E-05-2.76512E-05-2.94941E-05-1.14868E-05 1.99754E-19 3.75547E-19
 -1      2706 9.77446E-05-2.75268E-05-3.00774E-05-9.01451E-06 4.75810E-19-3.95092E-19
 -1      2707 9.71891E-05-2.72581E-05-2.99760E-05-8.31890E-06 8.16302E-19-1.98987E-20
 -1      2708 9.56930E-05-2.66273E-05-2.96047E-05-9.81352E-06 1.21269E-19 2.66842E-19
 -1      2709 9.71383E-05-2.72375E-05-2.99424E-05-7.54903E-06 8.30479E-19-2.68330E-20
 -1      2710 9.67349E-05-2.71537E-05-2.98280E-05-6.86644E-06 4.70631E-19-1.23594E-19
 -1      2711 9.54417E-05-2.63361E-05-2.96159E-05-8.20420E-06 6.36456E-19-2.61123E-19
 -1      2712 9.67407E-05-2.72429E-05-2.97709E-05-6.17527E-06-1.22205E-19-6.97090E-19
 -1      2713 9.64296E-05-2.72510E-05-2.96555E-05-5.55305E-06-4.11039E-19-1.03029E-18
 -1      2714 9.53915E-05-2.64224E-05-2.95556E-05-6.73303E-06-3.33758E-19-1.13958E-18
 -1      2715 9.64466E-05-2.73798E-05-2.95875E-05-4.95305E-06-5.60907E-19-1.23375E-18
 -1      2716 9.61975E-05-2.74279E-05-2.94795E-05-4.41179E-06-4.24026E-19-2.09348E-18
 -1      2717 9.54050E-05-2.66748E-05-2.94534E-05-5.43334E-06-1.22807E-18-2.19518E-18
 -1      2718 9.62089E-05-2.75607E-05-2.94097E-05-3.90423E-06 1.26498E-19-2.06702E-18
 -1      2719 9.60066E-05-2.76217E-05-2.93134E-05-3.44858E-06 4.10412E-19-1.82233E-18
 -1      2720 9.54241E-05-2.69778E-05-2.93325E-05-4.31554E-06-2.17165E-19-2.07042E-18
 -1      2721 9.60086E-05-2.77426E-05-2.92475E-05-3.02824E-06 8.65221E-19-1.21449E-18
 -1      2722 9.58446E-05-2.78035E-05-2.91650E-05-2.65401E-06 5.10519E-19-4.00182E-19
 -1      2723 9.54300E-05-2.72738E-05-2.92090E-05-3.37559E-06 9.21836E-19-6.58426E-19
 -1      2724 9.58390E-05-2.79068E-05-2.91059E-05-2.31223E-06-9.76945E-20-1.28589E-19
 -1      2725 9.57073E-05-2.79621E-05-2.90372E-05-2.01092E-06-3.28749E-20-2.40751E-19
 -1      2726 9.54210E-05-2.75378E-05-2.90927E-05-2.60054E-06 4.81238E-19 1.96244E-20
 -1      2727 9.56969E-05-2.80471E-05-2.89863E-05-1.73753E-06-3.11573E-19-4.95678E-19
 -1      2728 9.55927E-05-2.80949E-05-2.89303E-05-1.49905E-06-4.67397E-19-2.09080E-19
 -1      2729 9.54014E-05-2.77618E-05-2.89887E-05-1.97253E-06 1.22969E-19 5.76972E-20
 -1      2730 9.55802E-05-2.81634E-05-2.88877E-05-1.28370E-06-9.58584E-19-1.76979E-19
 -1      2731 9.54993E-05-2.82035E-05-2.88431E-05-1.09786E-06-6.61772E-19-1.63819E-19
 -1      2732 9.53764E-05-2.79462E-05-2.88992E-05-1.47182E-06-4.02285E-19-3.00369E-19
 -1      2733 9.54867E-05-2.82577E-05-2.88083E-05-9.30734E-07-6.73489E-19-2.31816E-19
 -1      2734 9.54250E-05-2.82907E-05-2.87733E-05-7.88077E-07-2.54547E-19-1.87504E-19
 -1      2735 9.53501E-05-2.80949E-05-2.88243E-05-1.07869E-06-8.55895E-19-1.83464E-19
 -1      2736 9.54133E-05-2.83332E-05-2.87454E-05-6.60319E-07-5.29385E-19-5.87442E-19
 -1      2737 9.53673E-05-2.83600E-05-2.87185E-05-5.52469E-07-1.31119E-18-8.51865E-19
 -1      2738 9.53254E-05-2.82130E-05-2.87631E-05-7.74644E-07-4.50762E-19-5.19299E-19
 -1      2739 9.53572E-05-2.83928E-05-2.86966E-05-4.56328E-07-1.40255E-18-3.30891E-19
 -1      2740 9.53236E-05-2.84143E-05-2.86762E-05-3.76100E-07-6.83192E-19-5.64940E-19
 -1      2741 9.53037E-05-2.83057E-05-2.87140E-05-5.43100E-07-1.16802E-18 4.67725E-19
 -1      2742 9.53153E-05-2.84394E-05-2.86592E-05-3.04971E-07-5.77494E-19-9.91206E-19
 -1      2743 9.52914E-05-2.84565E-05-2.86441E-05-2.46344E-07-8.15477E-19-7.00580E-19
 -1      2744 9.52856E-05-2.83775E-05-2.86755E-05-3.69606E-07-6.71898E-19 3.45482E-20
 -1      2745 9.52849E-05-2.84755E-05-2.86312E-05-1.94712E-07-7.29901E-19-4.00467E-19
 -1      2746 9.52683E-05-2.84889E-05-2.86202E-05-1.52735E-07-5.94098E-19-2.81717E-19
 -1      2747 9.52711E-05-2.84325E-05-2.86456E-05-2.41887E-07-5.83108E-19 2.79767E-19
 -1      2748 9.52633E-05-2.85031E-05-2.86105E-05-1.16072E-07-1.12796E-18-7.43002E-19
 -1      2749 9.52523E-05-2.85135E-05-2.86026E-05-8.67381E-08-2.20061E-18-1.70795E-18
 -1      2750 9.52600E-05-2.84741E-05-2.86229E-05-1.49719E-07-1.38371E-18 9.48302E-19
 -1      2751 9.52486E-05-2.85239E-05-2.85956E-05-6.13909E-08-1.74178E-18-1.49281E-18
 -1      2752 9.52416E-05-2.85318E-05-2.85901E-05-4.15046E-08-1.17742E-18-1.67764E-18
 -1      2753 9.52517E-05-2.85052E-05-2.86060E-05-8.47425E-08-1.52047E-18-1.81231E-19
 -1      2754 9.52390E-05-2.85393E-05-2.85850E-05-2.45658E-08-7.78341E-19-1.13685E-18
 -1      2755 9.52349E-05-2.85453E-05-2.85814E-05-1.16156E-08-1.81830E-19-9.03586E-19
 -1      2756 9.52457E-05-2.85279E-05-2.85936E-05-4.02264E-08-1.08620E-18 1.41471E-18
 -1      2757 9.52331E-05-2.85506E-05-2.85778E-05-8.07784E-10 1.98591E-19-1.36965E-18
 -1      2758 9.52310E-05-2.85551E-05-2.85755E-05 7.15235E-09 2.22033E-19-1.64327E-18
 -1      2759 9.52415E-05-2.85443E-05-2.85847E-05-1.08369E-08-3.23653E-19 1.39930E-18
 -1      2760 9.52298E-05-2.85587E-05-2.85731E-05 1.35868E-08 8.26658E-20-2.31490E-18
 -1      2761 9.52291E-05-2.85619E-05-2.85717E-05 1.80423E-08-4.17731E-19-1.81716E-18
 -1      2762 9.52387E-05-2.85559E-05-2.85785E-05 7.58938E-09-4.57528E-19-4.51520E-19
 -1      2763 9.52283E-05-2.85644E-05-2.85701E-05 2.14383E-08-4.06335E-20-2.14136E-18
 -1      2764 9.52284E-05-2.85667E-05-2.85693E-05 2.35050E-08 1.55988E-19-8.29342E-19
 -1      2765 9.52369E-05-2.85638E-05-2.85743E-05 1.82517E-08-1.01806E-19-9.44639E-19
 -1      2766 9.52280E-05-2.85682E-05-2.85684E-05 2.48591E-08 3.37718E-19-9.60309E-19
 -1      2767 9.52286E-05-2.85698E-05-2.85681E-05 2.53600E-08 1.18554E-18-3.79861E-19
 -1      2768 9.52359E-05-2.85690E-05-2.85716E-05 2.35687E-08 5.02745E-19-5.52294E-19
 -1      2769 9.52284E-05-2.85707E-05-2.85676E-05 2.54022E-08 1.38233E-18-3.73714E-19
 -1      2770 9.52293E-05-2.85718E-05-2.85675E-05 2.49317E-08 3.13221E-19 1.91441E-19
 -1      2771 9.52353E-05-2.85723E-05-2.85699E-05 2.53360E-08 1.33604E-18-1.14254E-18
 -1      2772 9.52293E-05-2.85722E-05-2.85673E-05 2.41843E-08-2.08407E-19 2.92609E-19
 -1      2773 9.52303E-05-2.85729E-05-2.85674E-05 2.31611E-08 2.47799E-20 3.11723E-19
 -1      2774 9.52351E-05-2.85742E-05-2.85690E-05 2.48600E-08 5.97926E-19-7.15906E-19
 -1      2775 9.52303E-05-2.85731E-05-2.85674E-05 2.19874E-08-2.53312E-19 5.14160E-19
 -1      2776 9.52314E-05-2.85735E-05-2.85676E-05 2.06961E-08 2.78881E-20 3.89466E-19
 -1      2777 9.52352E-05-2.85751E-05-2.85686E-05 2.30679E-08-8.50679E-20-5.68270E-19
 -1      2778 9.52314E-05-2.85735E-05-2.85677E-05 1.93390E-08-7.34239E-20 3.53647E-19
 -1      2779 9.52324E-05-2.85737E-05-2.85680E-05 1.79640E-08 7.54940E-19 7.44496E-19
 -1      2780 9.52353E-05-2.85754E-05-2.85685E-05 2.05971E-08-2.69171E-19 1.82548E-20
 -1      2781 9.52325E-05-2.85736E-05-2.85681E-05 1.65768E-08 1.27815E-18 3.47307E-19
 -1      2782 9.52334E-05-2.85738E-05-2.85684E-05 1.52277E-08 2.69803E-19 2.67883E-19
 -1      2783 9.52356E-05-2.85754E-05-2.85687E-05 1.78671E-08 3.16518E-19 3.76461E-19
 -1      2784 9.52336E-05-2.85736E-05-2.85686E-05 1.38976E-08-9.96650E-19-2.93200E-19
 -1      2785 9.52344E-05-2.85737E-05-2.85688E-05 1.26295E-08-6.15887E-19-1.37651E-18
 -1      2786 9.52359E-05-2.85752E-05-2.85689E-05 1.51353E-08-1.16666E-18 1.88439E-19
 -1      2787 9.52345E-05-2.85736E-05-2.85690E-05 1.13952E-08 5.28510E-20-2.07533E-18
 -1      2788 9.52352E-05-2.85737E-05-2.85692E-05 1.02216E-08-8.27910E-19-2.10947E-18
 -1      2789 9.52362E-05-2.85749E-05-2.85691E-05 1.25402E-08-8.57565E-19-2.81350E-19
 -1      2790 9.52354E-05-2.85736E-05-2.85693E-05 9.09122E-09-9.65849E-19-2.39415E-18
 -1      2791 9.52360E-05-2.85737E-05-2.85695E-05 8.00779E-09-2.44012E-19-2.21079E-18
 -1      2792 9.52366E-05-2.85747E-05-2.85694E-05 1.01313E-08-7.36346E-19-2.06325E-18
 -1      2793 1.43483E-04-4.22440E-05-4.39806E-05-1.39996E-05-2.59404E-18 1.56288E-18
 -1      2794 1.42765E-04-4.96675E-05-3.99478E-05-8.72380E-06-1.64489E-18 1.97645E-18
 -1      2795 7.85348E-05-3.98666E-05-1.65751E-05 4.09476E-05-2.22960E-18 1.98375E-18
 -1      2796 6.35118E-05-3.10646E-05-1.33447E-05 3.78120E-05-2.24284E-18 3.59015E-18
 -1      2797 1.04363E-04-2.58875E-05-3.35632E-05 8.70761E-06 1.70006E-18 1.86519E-19
 -1      2798 1.05867E-04-2.78508E-05-3.34932E-05 1.06440E-05 1.60754E-18 4.16499E-19
 -1      2799 1.04488E-04-2.78236E-05-3.29385E-05-8.82040E-06 1.67758E-18-1.93724E-18
 -1      2800 1.03365E-04-2.57152E-05-3.31942E-05-7.06538E-06 1.81565E-18-1.69401E-18
 -1      2801 1.07059E-04-3.22626E-05-3.21250E-05-9.85689E-06 9.87966E-19-2.36975E-18
 -1      2802 1.05882E-04-3.01674E-05-3.23973E-05-9.69486E-06 1.32824E-18-2.09811E-18
 -1      2803 1.07655E-04-2.91630E-05-3.36339E-05-1.00871E-05 1.64818E-18-2.25080E-18
 -1      2804 1.08479E-04-3.53235E-05-3.13807E-05-7.93965E-06 1.01527E-18-2.46830E-18
 -1      2805 1.07766E-04-3.39875E-05-3.16027E-05-8.99155E-06 1.08892E-18-2.42314E-18
 -1      2806 1.09814E-04-3.41005E-05-3.24047E-05-9.84413E-06 1.10997E-18-2.20507E-18
 -1      2807 1.08255E-04-3.62907E-05-3.08405E-05-4.58242E-06 7.36038E-19-1.78910E-18
 -1      2808 1.08172E-04-3.59270E-05-3.09865E-05-6.13639E-06 8.44010E-19-2.13338E-18
 -1      2809 1.10240E-04-3.70425E-05-3.13494E-05-6.82429E-06 6.51355E-19-1.97554E-18
 -1      2810 1.06862E-04-3.56605E-05-3.04955E-05-1.21473E-06 8.29952E-20-1.05362E-18
 -1      2811 1.07265E-04-3.59909E-05-3.05865E-05-2.72059E-06 5.90129E-19-1.30480E-18
 -1      2812 1.08891E-04-3.74604E-05-3.06153E-05-2.97855E-06 4.05917E-19-1.12299E-18
 -1      2813 1.04959E-04-3.42379E-05-3.02834E-05 1.42689E-06-6.88025E-19-5.96112E-19
 -1      2814 1.05618E-04-3.48943E-05-3.03481E-05 2.54410E-07-4.19304E-19-8.93922E-19
 -1      2815 1.06600E-04-3.62350E-05-3.01709E-05 4.01392E-07-3.93170E-19-2.81040E-19
 -1      2816 1.03028E-04-3.26549E-05-3.01374E-05 3.14766E-06-2.94738E-19-3.46393E-19
 -1      2817 1.03765E-04-3.33669E-05-3.01991E-05 2.38512E-06-4.02261E-19-3.24581E-19
 -1      2818 1.04126E-04-3.43450E-05-2.99269E-05 2.80058E-06-6.59275E-19-2.11502E-19
 -1      2819 1.01323E-04-3.12632E-05-3.00086E-05 4.04247E-06 1.82290E-19-4.79865E-19
 -1      2820 1.02030E-04-3.18861E-05-3.00797E-05 3.64826E-06-1.25852E-19-3.54152E-19
 -1      2821 1.01915E-04-3.24510E-05-2.97905E-05 4.20246E-06-1.75960E-19-6.43381E-20
 -1      2822 9.99219E-05-3.01893E-05-2.98740E-05 4.31473E-06 2.15334E-19 2.57800E-19
 -1      2823 1.00551E-04-3.06732E-05-2.99566E-05 4.20074E-06 3.66506E-19-2.22224E-19
 -1      2824 1.00140E-04-3.08888E-05-2.96953E-05 4.80311E-06 2.35288E-19-6.61309E-19
 -1      2825 9.88122E-05-2.94310E-05-2.97279E-05 4.17148E-06 1.30761E-19 3.27646E-19
 -1      2826 9.93504E-05-2.97785E-05-2.98187E-05 4.24571E-06 4.27989E-19 4.09521E-19
 -1      2827 9.87972E-05-2.97450E-05-2.96056E-05 4.84223E-06 2.10946E-19 2.82754E-19
 -1      2828 9.79485E-05-2.89333E-05-2.95743E-05 3.78376E-06-4.57749E-19-3.74357E-19
 -1      2829 9.83979E-05-2.91680E-05-2.96677E-05 3.96860E-06-1.51855E-19-1.80959E-19
 -1      2830 9.78131E-05-2.89817E-05-2.95076E-05 4.52869E-06 3.12795E-19 4.77495E-19
 -1      2831 9.72808E-05-2.86292E-05-2.94205E-05 3.27785E-06-6.75165E-20-1.52533E-19
 -1      2832 9.76499E-05-2.87792E-05-2.95112E-05 3.51534E-06-6.27081E-19-5.28937E-19
 -1      2833 9.71020E-05-2.85163E-05-2.94000E-05 4.02250E-06-3.05024E-19 1.49797E-19
 -1      2834 9.67659E-05-2.84593E-05-2.92738E-05 2.73942E-06 2.70377E-19 4.35547E-19
 -1      2835 9.70650E-05-2.85495E-05-2.93577E-05 2.99012E-06 5.30686E-19 1.89460E-19
 -1      2836 9.65897E-05-2.82633E-05-2.92872E-05 3.43647E-06-1.64749E-19 4.30110E-19
 -1      2837 9.63694E-05-2.83773E-05-2.91397E-05 2.22192E-06 2.39533E-19 7.82500E-19
 -1      2838 9.66087E-05-2.84271E-05-2.92142E-05 2.46134E-06 1.80175E-19 8.28753E-19
 -1      2839 9.62188E-05-2.81511E-05-2.91753E-05 2.84464E-06 4.60783E-20 1.12120E-18
 -1      2840 9.60652E-05-2.83497E-05-2.90215E-05 1.75519E-06 1.60917E-19 4.06867E-19
 -1      2841 9.62540E-05-2.83735E-05-2.90855E-05 1.96985E-06 4.05197E-19 9.88488E-19
 -1      2842 9.59485E-05-2.81260E-05-2.90696E-05 2.29173E-06 2.75550E-19 1.71028E-18
 -1      2843 9.58331E-05-2.83536E-05-2.89204E-05 1.35281E-06-2.21177E-20-2.62991E-19
 -1      2844 9.59799E-05-2.83613E-05-2.89738E-05 1.53681E-06 3.48009E-20 3.70171E-19
 -1      2845 9.57502E-05-2.81505E-05-2.89736E-05 1.80151E-06 1.34551E-19 1.51622E-18
 -1      2846 9.56574E-05-2.83742E-05-2.88362E-05 1.01780E-06-9.06917E-19-6.19517E-19
 -1      2847 9.57698E-05-2.83725E-05-2.88797E-05 1.17011E-06-1.52345E-19-5.35243E-19
 -1      2848 9.56040E-05-2.81999E-05-2.88894E-05 1.38348E-06-2.31673E-19 1.29443E-18
 -1      2849 9.55260E-05-2.84019E-05-2.87679E-05 7.46834E-07-4.91537E-19-2.24063E-19
 -1      2850 9.56104E-05-2.83953E-05-2.88024E-05 8.69306E-07-7.76823E-19-5.16632E-19
 -1      2851 9.54961E-05-2.82584E-05-2.88177E-05 1.03800E-06-7.74520E-19 1.48733E-19
 -1      2852 9.54289E-05-2.84312E-05-2.87137E-05 5.33189E-07-3.46095E-19-5.49207E-19
 -1      2853 9.54912E-05-2.84224E-05-2.87405E-05 6.29164E-07-1.25237E-19-3.43333E-19
 -1      2854 9.54166E-05-2.83170E-05-2.87583E-05 7.59979E-07-2.47317E-19 2.39518E-20
 -1      2855 9.53585E-05-2.84589E-05-2.86716E-05 3.68683E-07-7.48366E-19-1.04880E-18
 -1      2856 9.54034E-05-2.84495E-05-2.86919E-05 4.42102E-07-5.14304E-19-8.69254E-19
 -1      2857 9.53583E-05-2.83706E-05-2.87101E-05 5.41565E-07-3.57834E-19-6.79838E-19
 -1      2858 9.53084E-05-2.84834E-05-2.86395E-05 2.44927E-07-2.14155E-19-2.26440E-18
 -1      2859 9.53400E-05-2.84745E-05-2.86546E-05 2.99765E-07-4.75937E-19-1.92294E-18
 -1      2860 9.53162E-05-2.84171E-05-2.86719E-05 3.73838E-07-1.19792E-19-3.38483E-19
 -1      2861 9.52738E-05-2.85042E-05-2.86157E-05 1.54038E-07-2.52793E-19-1.94374E-18
 -1      2862 9.52953E-05-2.84962E-05-2.86266E-05 1.93986E-07-1.37298E-19-1.79470E-18
 -1      2863 9.52860E-05-2.84557E-05-2.86423E-05 2.47914E-07-1.97009E-19-1.52359E-18
 -1      2864 9.52505E-05-2.85212E-05-2.85984E-05 8.90187E-08-6.82673E-19-1.32411E-18
 -1      2865 9.52646E-05-2.85144E-05-2.86061E-05 1.17323E-07-4.15893E-19-1.71662E-18
 -1      2866 9.52649E-05-2.84869E-05-2.86197E-05 1.55585E-07-3.98895E-19-1.50139E-18
 -1      2867 9.52357E-05-2.85348E-05-2.85861E-05 4.39018E-08-3.44464E-19-1.27247E-18
 -1      2868 9.52443E-05-2.85291E-05-2.85914E-05 6.33099E-08-5.23232E-19-1.26471E-18
 -1      2869 9.52505E-05-2.85113E-05-2.86029E-05 8.96274E-08-6.05106E-19-7.68133E-19
 -1      2870 9.52268E-05-2.85454E-05-2.85778E-05 1.37547E-08-6.35348E-20-6.96985E-19
 -1      2871 9.52316E-05-2.85408E-05-2.85812E-05 2.65198E-08-7.90118E-20-9.41722E-19
 -1      2872 9.52410E-05-2.85301E-05-2.85907E-05 4.39177E-08-5.63894E-19-8.66584E-19
 -1      2873 9.52221E-05-2.85535E-05-2.85723E-05-5.39225E-09 3.99437E-19 1.99596E-19
 -1      2874 9.52243E-05-2.85498E-05-2.85744E-05 2.53107E-09 2.42476E-19-1.60917E-19
 -1      2875 9.52350E-05-2.85440E-05-2.85821E-05 1.34151E-08-5.38470E-20-9.99368E-19
 -1      2876 9.52203E-05-2.85595E-05-2.85689E-05-1.66603E-08 3.74965E-19 1.67148E-19
 -1      2877 9.52207E-05-2.85567E-05-2.85701E-05-1.21719E-08 7.84988E-19 6.06387E-19
 -1      2878 9.52315E-05-2.85543E-05-2.85762E-05-5.92665E-09 3.42225E-19-1.46204E-19
 -1      2879 9.52203E-05-2.85639E-05-2.85670E-05-2.24497E-08 5.63159E-19-6.76599E-20
 -1      2880 9.52196E-05-2.85617E-05-2.85675E-05-2.03219E-08 4.13080E-19 2.66998E-19
 -1      2881 9.52298E-05-2.85615E-05-2.85723E-05-1.72830E-08 6.80847E-19 1.70055E-19
 -1      2882 9.52214E-05-2.85670E-05-2.85662E-05-2.45667E-08 5.24624E-19 1.69563E-19
 -1      2883 9.52201E-05-2.85654E-05-2.85662E-05-2.39970E-08 8.87193E-19 4.92700E-19
 -1      2884 9.52293E-05-2.85665E-05-2.85699E-05-2.30923E-08 4.96590E-19 5.79310E-19
 -1      2885 9.52231E-05-2.85691E-05-2.85660E-05-2.43391E-08 3.94107E-19 4.04029E-19
 -1      2886 9.52215E-05-2.85679E-05-2.85658E-05-2.47426E-08-6.19139E-20 1.59016E-19
 -1      2887 9.52294E-05-2.85698E-05-2.85685E-05-2.51873E-08-9.28107E-20 4.08863E-19
 -1      2888 9.52251E-05-2.85705E-05-2.85662E-05-2.27184E-08-4.38959E-19 1.72789E-19
 -1      2889 9.52234E-05-2.85697E-05-2.85659E-05-2.36801E-08 3.90172E-19 9.81089E-19
 -1      2890 9.52301E-05-2.85719E-05-2.85678E-05-2.49137E-08-3.77487E-19 4.61411E-19
 -1      2891 9.52271E-05-2.85714E-05-2.85667E-05-2.03644E-08-2.52787E-19-5.93868E-19
 -1      2892 9.52255E-05-2.85709E-05-2.85663E-05-2.16003E-08-3.68099E-19-1.57201E-19
 -1      2893 9.52309E-05-2.85731E-05-2.85677E-05-2.32346E-08-3.71137E-21 1.06135E-18
 -1      2894 9.52290E-05-2.85720E-05-2.85673E-05-1.77153E-08 5.08008E-19-1.22857E-18
 -1      2895 9.52276E-05-2.85716E-05-2.85669E-05-1.90407E-08 2.16063E-19-1.21315E-18
 -1      2896 9.52319E-05-2.85737E-05-2.85678E-05-2.08168E-08 5.24431E-19-3.80689E-19
 -1      2897 9.52308E-05-2.85723E-05-2.85679E-05-1.50433E-08 1.46818E-18-1.39587E-18
 -1      2898 9.52295E-05-2.85721E-05-2.85675E-05-1.63472E-08 6.16903E-19-1.44451E-18
 -1      2899 9.52328E-05-2.85739E-05-2.85681E-05-1.81022E-08 6.32040E-19-1.25304E-18
 -1      2900 9.52324E-05-2.85726E-05-2.85685E-05-1.24971E-08 1.11571E-18-6.32723E-20
 -1      2901 9.52312E-05-2.85723E-05-2.85681E-05-1.37236E-08 1.69383E-18-7.73341E-19
 -1      2902 9.52337E-05-2.85739E-05-2.85685E-05-1.53643E-08 9.99787E-19-1.15322E-18
 -1      2903 9.52337E-05-2.85727E-05-2.85690E-05-1.01374E-08 6.57610E-21 2.04914E-18
 -1      2904 9.52328E-05-2.85725E-05-2.85687E-05-1.12689E-08 2.64044E-19 1.57975E-18
 -1      2905 9.52346E-05-2.85739E-05-2.85689E-05-1.27527E-08-3.36188E-19-2.23100E-19
 -1      2906 9.52349E-05-2.85729E-05-2.85694E-05-7.96075E-09-1.34126E-18 2.69656E-18
 -1      2907 9.52341E-05-2.85727E-05-2.85692E-05-8.99960E-09-6.37898E-19 2.58660E-18
 -1      2908 9.52354E-05-2.85738E-05-2.85692E-05-1.03314E-08-6.15602E-19 2.84596E-18
 -1      2909 9.52360E-05-2.85733E-05-2.85698E-05-6.26347E-09-9.65226E-19 2.43603E-18
 -1      2910 9.52354E-05-2.85731E-05-2.85696E-05-7.26308E-09-8.36647E-19 2.46810E-18
 -1      2911 9.52363E-05-2.85740E-05-2.85695E-05-8.40434E-09-6.45256E-19 2.60364E-18
 -1      2912 9.52371E-05-2.85744E-05-2.85697E-05-6.89949E-09-1.18329E-18 1.78832E-18
 -1      2913 9.84399E-05-2.45679E-05-3.17447E-05 2.38936E-06-8.95598E-19-6.36307E-19
 -1      2914 9.52432E-05-2.85809E-05-2.85695E-05-6.57956E-10-9.38759E-20-1.38293E-19
 -1      2915 9.52430E-05-2.85807E-05-2.85695E-05-1.81853E-09 1.70573E-19 1.30049E-18
 -1      2916 2.81128E-05 7.80117E-08-1.16108E-05 4.44221E-06-3.15387E-19-6.04866E-18
 -1      2917 2.67852E-05 1.22389E-06-1.14948E-05-8.04521E-06-7.31572E-19-6.12998E-18
 -1      2918 9.52418E-05-2.85794E-05-2.85696E-05-5.15666E-09 3.84856E-19-1.85847E-18
 -1      2919 9.52411E-05-2.85788E-05-2.85696E-05-5.89780E-09 1.47905E-18-1.79334E-18
 -1      2920 9.52430E-05-2.85807E-05-2.85695E-05 1.85416E-09 5.16896E-19 6.08302E-19
 -1      2921 9.52432E-05-2.85809E-05-2.85695E-05 6.94339E-10 7.99594E-19-5.00264E-19
 -1      2922 9.52440E-05-2.85813E-05-2.85698E-05 1.96636E-11 6.54375E-19 4.67339E-19
 -1      2923 9.52427E-05-2.85804E-05-2.85695E-05-3.09282E-09-6.58689E-19-1.68935E-18
 -1      2924 9.52423E-05-2.85800E-05-2.85696E-05-4.11151E-09 4.19779E-19-2.46279E-18
 -1      2925 9.52427E-05-2.85800E-05-2.85697E-05-5.14716E-09 3.11183E-19-2.64964E-18
 -1      2926 9.52437E-05-2.85809E-05-2.85698E-05-2.72283E-09 2.87544E-19 4.89541E-19
 -1      2927 9.52423E-05-2.85800E-05-2.85696E-05 4.10741E-09 2.18087E-19 1.85944E-18
 -1      2928 9.52427E-05-2.85804E-05-2.85695E-05 3.10619E-09 5.70476E-19 1.45188E-18
 -1      2929 9.52437E-05-2.85809E-05-2.85698E-05 2.73835E-09 9.68396E-19 7.37590E-19
 -1      2930 9.52411E-05-2.85788E-05-2.85696E-05 5.90194E-09-1.24567E-18-9.05517E-19
 -1      2931 9.52418E-05-2.85794E-05-2.85696E-05 5.15329E-09-5.01767E-19 7.41894E-19
 -1      2932 9.52427E-05-2.85800E-05-2.85697E-05 5.14193E-09-1.26581E-19 2.34137E-19
 -1      2933 9.52395E-05-2.85771E-05-2.85696E-05 6.94116E-09-1.60942E-18-4.94576E-19
 -1      2934 9.52403E-05-2.85779E-05-2.85696E-05 6.58902E-09-1.09912E-18-8.18572E-19
 -1      2935 9.52412E-05-2.85786E-05-2.85697E-05 6.95892E-09-7.16272E-19-1.03763E-18
 -1      2936 1.07536E-04-2.99672E-05-3.31958E-05 1.18812E-05 1.35397E-18 4.22640E-19
 -1      2937 1.09151E-04-3.18291E-05-3.31757E-05 1.25317E-05 1.19973E-18 3.95670E-19
 -1      2938 1.08993E-04-2.87806E-05-3.43718E-05 1.25674E-05 1.55366E-18 5.23807E-19
 -1      2939 1.29910E-04-1.73244E-05-4.86326E-05 6.72472E-06-4.76223E-18-1.52259E-18
 -1      2940 1.28102E-04-1.48306E-05-4.96164E-05 4.56817E-07-4.77472E-18-6.25428E-19
 -1      2941 1.37763E-04-4.04626E-05-4.23440E-05-4.49217E-06 2.11335E-18-3.64616E-18
 -1      2942 1.36538E-04-4.87692E-05-3.76506E-05 2.46147E-06 8.41739E-19-3.57914E-18
 -1      2943 1.10528E-04-3.36289E-05-3.28951E-05 1.24592E-06-7.47536E-19 2.62509E-19
 -1      2944 1.14421E-04-3.77501E-05-3.27639E-05 1.04305E-06-4.12968E-19 8.38530E-19
 -1      2945 1.18304E-04-4.21469E-05-3.27044E-05 1.25238E-07-1.23733E-19 1.03044E-18
 -1      2946 9.67857E-05-2.70428E-05-2.99135E-05 6.44857E-06-1.62615E-19-9.69681E-19
 -1      2947 9.52365E-05-2.85739E-05-2.85697E-05 6.61355E-09 2.19740E-19-1.79346E-18
 -1      2948 9.52373E-05-2.85747E-05-2.85697E-05 6.84605E-09 6.23902E-19-1.63625E-18
 -1      2949 9.52362E-05-2.85738E-05-2.85696E-05 7.32598E-09 7.51734E-20-1.91009E-18
 -1      2950 1.30297E-04-1.38068E-05-5.03742E-05 1.00201E-05 5.74352E-18-2.13770E-19
 -1      2951 1.24113E-04-9.13716E-06-4.98798E-05 5.75006E-06 5.76597E-18-9.25304E-19
 -1      2952 9.36667E-05-3.98174E-05-2.26151E-05-3.35787E-05-1.87967E-18-2.42322E-18
 -1      2953 1.04839E-04-4.50181E-05-2.58159E-05-2.99542E-05-1.31121E-18-1.65377E-18
 -1      2954 1.02164E-04-2.40785E-05-3.35573E-05-3.93588E-06 1.62110E-18-1.23669E-18
 -1      2955 1.01970E-04-2.32949E-05-3.36886E-05-1.08537E-06 1.70463E-18-1.14289E-18
 -1      2956 1.04726E-04-2.38054E-05-3.46698E-05-6.27241E-06 2.05088E-18-1.75248E-18
 -1      2957 1.02114E-04-2.32693E-05-3.37610E-05 2.71608E-06 1.98711E-18-6.26222E-19
 -1      2958 1.02890E-04-2.41723E-05-3.37608E-05 5.71776E-06 1.97357E-18-1.09764E-19
 -1      2959 1.04059E-04-2.20418E-05-3.51622E-05 9.61265E-07 2.25726E-18-8.54808E-19
 -1      2960 9.96695E-05-2.84857E-05-3.05165E-05-4.90493E-06-3.13677E-19-1.60792E-18
 -1      2961 9.43137E-05-2.60394E-05-2.92413E-05-9.04522E-06-8.14889E-19-1.86722E-18
 -1      2962 1.05268E-04-3.29230E-05-3.10133E-05-2.57239E-06-1.80114E-19-1.03490E-18
 -1      2963 3.20901E-05-1.12178E-05-8.47977E-06 8.85598E-06-8.66197E-19 6.49145E-18
 -1      2964 3.23837E-05-1.15566E-05-8.37359E-06-7.53421E-06 1.70995E-19 6.55985E-18
 -1      2965 1.10091E-04-3.31082E-05-3.29877E-05 1.23292E-05 1.35924E-18 3.77644E-19
 -1      2966 1.11275E-04-3.39545E-05-3.31378E-05 1.22605E-05 1.24819E-18 4.69321E-19
 -1      2967 1.12490E-04-3.43395E-05-3.34647E-05 1.24528E-05 1.38449E-18 2.32763E-19
 -1      2968 1.11681E-04-3.29868E-05-3.37171E-05 1.34009E-05 1.39970E-18 2.51205E-19
 -1      2969 5.14455E-05-1.21125E-06-2.15878E-05 7.48602E-06-2.73168E-20-4.02113E-18
 -1      2970 6.01265E-05-5.76872E-06-2.29667E-05 1.02625E-05 1.21026E-19-3.54560E-18
 -1      2971 9.67271E-05-4.84410E-05-2.01475E-05-3.49732E-05 2.03246E-18 2.75815E-20
 -1      2972 1.14236E-04-5.58412E-05-2.52587E-05-2.85453E-05 1.77072E-18-7.11508E-20
 -1      2973 1.23044E-04-9.68518E-06-4.92284E-05-3.30779E-06 5.21010E-18-2.01064E-18
 -1      2974 1.27776E-04-1.45722E-05-4.90076E-05-7.55817E-06 4.48716E-18-2.65450E-18
 -1      2975 1.39049E-04-5.56064E-05-3.62374E-05 2.42790E-06-9.87005E-19 1.53916E-18
 -1      2976 1.30223E-04-5.62617E-05-3.15672E-05 1.13202E-05 1.98629E-19 6.38875E-19
 -1      2977 6.04496E-05-3.02551E-05-1.24350E-05-3.49237E-05 2.08021E-18 2.25830E-18
 -1      2978 7.82779E-05-4.02537E-05-1.62718E-05-3.88796E-05 1.87025E-18 7.93246E-19
 -1      2979 6.12526E-05-2.64870E-05-1.43643E-05-3.05027E-05 2.59372E-18 2.59891E-18
 -1      2980 1.33753E-04-4.45754E-05-3.81278E-05 1.09906E-06 1.41113E-18 1.07594E-18
 -1      2981 1.35217E-04-3.84039E-05-4.21322E-05 7.43748E-06 3.03746E-18 1.25721E-18
 -1      2982 1.17407E-04-4.84315E-05-2.92739E-05-2.12574E-05-8.42110E-19-6.66668E-19
 -1      2983 1.28016E-04-4.95167E-05-3.41744E-05-1.12176E-05 3.07896E-19 4.35110E-19
 -1      2984 8.06734E-05-3.50690E-05-1.94603E-05 3.16922E-05 1.33429E-18-3.00157E-18
 -1      2985 6.61426E-05-2.61664E-05-1.66799E-05 2.98358E-05 1.36521E-18-3.76241E-18
 -1      2986 1.39197E-04-3.49116E-05-4.49827E-05 1.37530E-05-3.50333E-18-3.99387E-18
 -1      2987 1.36260E-04-2.69720E-05-4.73668E-05 1.38377E-05-4.42532E-18-3.58231E-18
 -1      2988 1.17245E-04-5.31282E-05-2.76932E-05 2.17188E-05 7.75353E-19-6.10923E-19
 -1      2989 9.92959E-05-4.49166E-05-2.29999E-05 2.74742E-05 1.38299E-18-1.69383E-18
 -1      2990 1.32947E-04-2.86557E-05-4.49902E-05 1.21022E-05 4.19250E-18 1.14286E-18
 -1      2991 1.32352E-04-2.07263E-05-4.84588E-05 1.18268E-05 5.08400E-18 3.47919E-19
 -1      2992 1.24410E-04-1.86276E-05-4.56497E-05 1.28477E-05 4.54560E-18 2.55804E-19
 -1      2993 1.32379E-04-5.54109E-05-3.34428E-05 1.23172E-05-4.22669E-19-3.41365E-18
 -1      2994 1.24983E-04-5.63579E-05-2.91466E-05 2.02136E-05-1.54192E-18-2.91708E-18
 -1      2995 1.28105E-04-5.90297E-05-2.93421E-05-1.76284E-05 1.54234E-18-8.80173E-19
 -1      2996 1.34641E-04-5.86956E-05-3.28680E-05-1.03883E-05 4.71162E-19-1.92324E-18
 -1      2997 1.31206E-04-2.10027E-05-4.79308E-05-9.18777E-06 3.85548E-18-2.84206E-18
 -1      2998 1.34583E-04-2.93017E-05-4.53701E-05-9.36855E-06 3.21481E-18-3.49952E-18
 -1      2999 1.24238E-04-1.93057E-05-4.53267E-05-9.46326E-06 3.52154E-18-3.18664E-18
 -1      3000 1.10223E-04-3.06503E-05-3.41185E-05 1.15189E-05 1.64346E-18 1.63828E-19
 -1      3001 7.08788E-05-1.26788E-05-2.50183E-05 1.17575E-05 2.15934E-19-2.69280E-18
 -1      3002 8.18300E-05-1.83963E-05-2.69284E-05 1.11159E-05 7.42742E-20-2.25694E-18
 -1      3003 6.56265E-05-1.24465E-05-2.27128E-05 1.45301E-05 4.87812E-19-3.16089E-18
 -1      3004 5.50442E-05-6.93751E-06-2.04926E-05-2.14095E-05-1.91146E-18-4.39793E-18
 -1      3005 5.11991E-05-1.31782E-06-2.11395E-05-1.61955E-05-1.59055E-18-4.47764E-18
 -1      3006 4.54738E-05 2.24877E-06-2.03396E-05-1.24561E-05-1.30965E-18-4.64010E-18
 -1      3007 4.60900E-05 2.82663E-06-2.06642E-05 1.53622E-06-4.03734E-19-4.40518E-18
 -1      3008 4.67682E-05-8.40683E-07-1.94940E-05 7.34281E-06-5.71880E-20-4.47323E-18
 -1      3009 3.81646E-05-2.49632E-06-1.47611E-05 9.29264E-06 1.75230E-19-5.43785E-18
 -1      3010 4.19434E-05-1.33931E-05-1.16163E-05 1.39714E-05-1.05411E-18 5.47310E-18
 -1      3011 1.19381E-04-5.56216E-05-2.72758E-05-2.09447E-05 2.25057E-18-9.81804E-19
 -1      3012 1.29904E-04-3.36195E-05-4.15053E-05 1.20748E-05 2.83380E-18 1.22317E-18
 -1      3013 1.24497E-04-5.31965E-05-3.02341E-05 1.13895E-05 8.57039E-19 5.92394E-19
 -1      3014 9.11035E-05-4.34651E-05-2.00218E-05 3.57744E-05-3.06097E-18-1.17579E-19
 -1      3015 4.22715E-05-1.36164E-05-1.16898E-05-1.23453E-05 1.20152E-18 5.13037E-18
 -1      3016 9.51440E-05-3.99232E-05-2.33166E-05 2.52463E-05 1.56807E-18-1.75484E-18
 -1      3017 1.12820E-04-4.61455E-05-2.83558E-05-2.09658E-05-1.35149E-18-7.62515E-19
 -1      3018 1.38285E-04-5.19043E-05-3.70884E-05-6.27535E-06-7.20494E-19 1.97697E-18
 -1      3019 1.35464E-04-4.75643E-05-3.79382E-05-1.40746E-05-7.40932E-19 2.50034E-18
 -1      3020 1.34803E-04-4.13564E-05-4.01765E-05-1.74470E-05-1.70772E-18 2.52051E-18
 -1      3021 1.34857E-04-3.61179E-05-4.28678E-05-1.88493E-05-2.47508E-18 2.18053E-18
 -1      3022 1.31914E-04-2.69913E-05-4.53051E-05-1.67279E-05-3.53689E-18 1.51269E-18
 -1      3023 1.32353E-04-2.49840E-05-4.66622E-05 1.31775E-05-4.21155E-18-2.76546E-18
 -1      3024 9.52370E-05-2.85746E-05-2.85696E-05 8.26075E-09-9.69356E-20-2.30690E-18
 -1      3025 6.16015E-05-2.65315E-05-1.44827E-05 3.29782E-05-2.14257E-18 3.74378E-18
 -1      3026 1.05715E-04-2.40958E-05-3.50046E-05 8.28120E-06 2.19122E-18 5.12422E-20
 -1      3027 9.52380E-05-2.85755E-05-2.85697E-05-7.01715E-09-3.56071E-19 1.01097E-18
 -1      3028 9.52377E-05-2.85753E-05-2.85696E-05-7.81752E-09-1.45124E-18 2.15910E-18
 -1      3029 9.52389E-05-2.85764E-05-2.85696E-05-7.07887E-09-8.72358E-20-2.60835E-19
 -1      3030 1.32022E-04-3.53977E-05-4.16810E-05-8.72141E-06 2.08275E-18-3.86014E-18
 -1      3031 1.20866E-04-9.98664E-06-4.80401E-05 1.29672E-06 5.25298E-18-1.52172E-18
 -1      3032 1.17060E-04-1.21307E-05-4.52641E-05-2.55090E-06 4.29795E-18-2.47114E-18
 -1      3033 1.17285E-04-1.12492E-05-4.57870E-05 5.95401E-06 4.97505E-18-8.87241E-19
 -1      3034 9.44240E-05-2.89094E-05-2.81334E-05-1.33096E-05-1.12599E-18-1.79717E-18
 -1      3035 9.52381E-05-2.85756E-05-2.85696E-05 6.94187E-09 2.91455E-19-1.56859E-18
 -1      3036 1.32374E-04-5.13324E-05-3.47970E-05 3.55276E-06-2.89705E-19-3.54621E-18
 -1      3037 1.17972E-04-4.46110E-05-3.16305E-05 4.09564E-06 1.64099E-19 8.01293E-19
 -1      3038 8.46058E-05-3.40094E-05-2.13903E-05-3.41282E-05-2.11790E-18-2.83470E-18
 -1      3039 1.18474E-04-5.44644E-05-2.72744E-05 2.26804E-05-2.19922E-18-2.71993E-18
 -1      3040 5.21591E-05-1.58798E-05-1.50863E-05-3.26773E-05-2.25819E-18-5.08230E-18
 -1      3041 9.52379E-05-2.85755E-05-2.85696E-05 8.05527E-09 2.08223E-19-1.04587E-18
 -1      3042 9.52389E-05-2.85764E-05-2.85696E-05 7.42874E-09-7.12582E-19 8.71607E-19
 -1      3043 9.52395E-05-2.85770E-05-2.85696E-05 8.11748E-09-8.82395E-19 1.24568E-18
 -1      3044 9.52377E-05-2.85754E-05-2.85696E-05 8.79505E-09-6.53782E-19-8.71942E-19
 -1      3045 4.35486E-05 3.78983E-06-2.02327E-05-3.45878E-06-7.33628E-19-4.58112E-18
 -1      3046 9.52405E-05-2.85780E-05-2.85696E-05-6.46581E-09 1.62520E-18-4.10128E-19
 -1      3047 9.52397E-05-2.85772E-05-2.85696E-05-6.83566E-09 4.55428E-19-5.93597E-19
 -1      3048 9.52396E-05-2.85772E-05-2.85696E-05-7.66552E-09-5.04711E-19 7.68751E-20
 -1      3049 9.52413E-05-2.85787E-05-2.85697E-05-6.82186E-09 7.01164E-19-1.55313E-18
 -1      3050 9.12582E-05-4.32959E-05-2.01182E-05-3.34450E-05 2.37095E-18 1.68560E-19
 -1      3051 1.10548E-04-3.14363E-05-3.38893E-05 1.13431E-05 1.47461E-18-5.31215E-20
 -1      3052 6.15312E-05-1.92630E-05-1.76561E-05 2.50369E-05 1.25107E-18-3.97936E-18
 -1      3053 1.11733E-04-3.36837E-05-3.34445E-05 1.05223E-05 1.23293E-18-6.74272E-20
 -1      3054 1.28787E-04-4.63575E-05-3.53515E-05-2.26776E-06 4.28612E-19 7.48724E-19
 -1      3055 1.39455E-04-2.60004E-05-4.90506E-05-1.64997E-05-4.19133E-18 1.16859E-18
 -1      3056 1.43813E-04-3.45928E-05-4.71275E-05-1.59576E-05-3.74293E-18 1.32349E-18
 -1      3057 1.32464E-04-2.19145E-05-4.80545E-05-1.45158E-05-4.06459E-18 1.02364E-18
 -1      3058 1.29949E-04-2.91116E-05-4.34732E-05 1.54773E-05-3.16939E-18-3.05133E-18
 -1      3059 1.39603E-04-3.98201E-05-4.30502E-05-1.70613E-05-2.46005E-18 1.95336E-18
 -1      3060 1.13031E-04-3.56931E-05-3.32536E-05 8.41822E-06 7.03387E-19-1.30056E-19
 -1      3061 1.12395E-04-3.58827E-05-3.27049E-05 5.45863E-06 2.64816E-19-3.78754E-19
 -1      3062 4.21500E-05-2.11731E-06-1.69086E-05 1.01912E-05 2.20440E-19-4.88537E-18
 -1      3063 3.66304E-05 3.24519E-06-1.65224E-05-5.51825E-07-4.53937E-19-5.31820E-18
 -1      3064 1.17581E-04-1.73934E-05-4.34251E-05-8.90011E-06 3.35573E-18-2.81109E-18
 -1      3065 1.22145E-04-2.34931E-05-4.24899E-05-1.17743E-05 2.81014E-18-3.35409E-18
 -1      3066 9.52446E-05-2.85813E-05-2.85700E-05 3.67528E-09 2.37761E-19-4.81677E-20
 -1      3067 9.52450E-05-2.85816E-05-2.85700E-05 2.34134E-09 7.96305E-19-2.34234E-19
 -1      3068 1.31843E-04-5.48724E-05-3.31855E-05 2.05798E-06 3.90879E-19 1.56415E-18
 -1      3069 1.21333E-04-5.06382E-05-3.00099E-05 1.02363E-05 7.97693E-19 8.61353E-19
 -1      3070 1.41131E-04-4.39422E-05-4.20504E-05 1.15462E-05-2.50065E-18-4.26534E-18
 -1      3071 1.35691E-04-3.92689E-05-4.16729E-05 1.46347E-05-2.40060E-18-4.31468E-18
 -1      3072 1.35051E-04-5.08189E-05-3.62453E-05-7.53469E-06-3.50192E-19 2.15824E-18
 -1      3073 5.06884E-05-6.97926E-06-1.81930E-05 1.62764E-05 6.39563E-19-4.42209E-18
 -1      3074 1.30346E-04-1.63519E-05-4.93004E-05-6.74192E-06-4.45285E-18 1.34453E-19
 -1      3075 1.32331E-04-3.65084E-05-4.13474E-05 1.48131E-05-2.45036E-18-3.99842E-18
 -1      3076 1.33397E-04-4.39141E-05-3.86891E-05 1.40664E-05-1.78568E-18-4.53872E-18
 -1      3077 1.04981E-04-4.08986E-05-2.74491E-05-1.74839E-05 1.72743E-18-1.16206E-18
 -1      3078 1.00966E-04-3.65908E-05-2.74436E-05-1.74454E-05 1.13520E-18-2.85242E-19
 -1      3079 9.84765E-05-3.34339E-05-2.78082E-05-1.60883E-05 1.81308E-19-1.54306E-19
 -1      3080 9.59820E-05-3.06285E-05-2.79682E-05-1.54874E-05-2.64446E-19 2.02842E-19
 -1      3081 9.42445E-05-3.32115E-05-2.62657E-05-1.92275E-05 7.70879E-19-1.84924E-19
 -1      3082 9.51081E-05-2.88349E-05-2.83462E-05-1.40076E-05-3.72383E-19 6.37218E-19
 -1      3083 9.38297E-05-2.72930E-05-2.85120E-05-1.32002E-05 5.70185E-20 5.90193E-19
 -1      3084 9.11492E-05-2.78683E-05-2.71587E-05-1.56970E-05 1.59821E-19 7.10379E-19
 -1      3085 9.37411E-05-2.64577E-05-2.88023E-05-1.19621E-05 9.41769E-20-5.97311E-20
 -1      3086 9.31710E-05-2.57277E-05-2.89144E-05-1.11117E-05 4.52028E-20-1.22966E-19
 -1      3087 9.04062E-05-2.52945E-05-2.79164E-05-1.28200E-05-3.09684E-19 3.04853E-19
 -1      3088 9.34387E-05-2.54749E-05-2.91065E-05-1.00825E-05-8.14409E-20-1.20477E-19
 -1      3089 9.32275E-05-2.52264E-05-2.91573E-05-9.26379E-06 1.58203E-19 3.09955E-20
 -1      3090 9.06885E-05-2.42732E-05-2.84601E-05-1.05206E-05 2.51131E-20-8.06359E-19
 -1      3091 9.36115E-05-2.52887E-05-2.92674E-05-8.40106E-06 4.16881E-19-2.18285E-19
 -1      3092 9.35603E-05-2.52972E-05-2.92697E-05-7.64568E-06 3.98446E-19-8.85674E-19
 -1      3093 9.13871E-05-2.41499E-05-2.88063E-05-8.65625E-06 7.30999E-20-3.80032E-19
 -1      3094 9.39440E-05-2.55075E-05-2.93198E-05-6.91322E-06-5.32648E-19-1.10134E-18
 -1      3095 9.39508E-05-2.56370E-05-2.92901E-05-6.23666E-06-1.47984E-18-1.76501E-18
 -1      3096 9.21722E-05-2.44822E-05-2.89993E-05-7.10279E-06-5.34717E-19-1.75827E-18
 -1      3097 9.42851E-05-2.58989E-05-2.93001E-05-5.61252E-06-1.17595E-18-1.61698E-18
 -1      3098 9.43035E-05-2.60728E-05-2.92526E-05-5.02172E-06-1.27131E-18-1.91129E-18
 -1      3099 9.28944E-05-2.50092E-05-2.90842E-05-5.78441E-06-1.21575E-18-1.20383E-18
 -1      3100 9.45743E-05-2.63352E-05-2.92382E-05-4.49256E-06-2.83298E-19-8.65288E-19
 -1      3101 9.45872E-05-2.65135E-05-2.91834E-05-3.98821E-06 8.16144E-19-3.86368E-19
 -1      3102 9.34987E-05-2.55849E-05-2.90984E-05-4.66037E-06-1.79354E-19-4.63130E-20
 -1      3103 9.47967E-05-2.67520E-05-2.91557E-05-3.54432E-06 9.64108E-19 4.05929E-20
 -1      3104 9.48002E-05-2.69159E-05-2.91005E-05-3.12247E-06 1.47020E-18 7.37550E-19
 -1      3105 9.39770E-05-2.61339E-05-2.90701E-05-3.70733E-06 1.19234E-18 6.25466E-19
 -1      3106 9.49574E-05-2.71213E-05-2.90671E-05-2.75506E-06 9.64864E-19 5.79172E-19
 -1      3107 9.49530E-05-2.72636E-05-2.90156E-05-2.40868E-06 5.87498E-19 5.79515E-19
 -1      3108 9.43420E-05-2.66219E-05-2.90190E-05-2.90836E-06 1.13579E-18 8.56210E-19
 -1      3109 9.50683E-05-2.74346E-05-2.89811E-05-2.10899E-06 6.42744E-20 1.14587E-19
 -1      3110 9.50590E-05-2.75538E-05-2.89353E-05-1.82938E-06-9.32753E-20 4.32402E-20
 -1      3111 9.46135E-05-2.70379E-05-2.89584E-05-2.24791E-06 3.96231E-20 6.70348E-19
 -1      3112 9.51421E-05-2.76929E-05-2.89027E-05-1.58858E-06-5.08206E-19-2.16612E-19
 -1      3113 9.51304E-05-2.77905E-05-2.88635E-05-1.36645E-06-6.36539E-19-2.89645E-19
 -1      3114 9.48115E-05-2.73827E-05-2.88964E-05-1.71021E-06-4.89679E-19 8.57561E-20
 -1      3115 9.51894E-05-2.79017E-05-2.88342E-05-1.17589E-06-7.19698E-19 2.13093E-19
 -1      3116 9.51774E-05-2.79803E-05-2.88014E-05-1.00213E-06-4.79270E-19 4.25659E-19
 -1      3117 9.49536E-05-2.76628E-05-2.88379E-05-1.27920E-06-4.95993E-19 1.11495E-18
 -1      3118 9.52185E-05-2.80679E-05-2.87761E-05-8.53645E-07-4.19572E-19-1.71123E-19
 -1      3119 9.52074E-05-2.81303E-05-2.87493E-05-7.19795E-07-3.52922E-19 1.01563E-19
 -1      3120 9.50542E-05-2.78866E-05-2.87856E-05-9.39070E-07-9.12965E-19 1.45940E-18
 -1      3121 9.52357E-05-2.81985E-05-2.87280E-05-6.05915E-07-4.67595E-19-1.85413E-19
 -1      3122 9.52260E-05-2.82473E-05-2.87066E-05-5.04437E-07-7.34084E-19 5.86595E-19
 -1      3123 9.51242E-05-2.80630E-05-2.87403E-05-6.74894E-07-5.20071E-19 6.91331E-19
 -1      3124 9.52451E-05-2.82997E-05-2.86891E-05-4.18540E-07-9.53733E-19 7.55447E-19
 -1      3125 9.52371E-05-2.83376E-05-2.86723E-05-3.42892E-07-7.15284E-19 4.50662E-19
 -1      3126 9.51722E-05-2.82001E-05-2.87023E-05-4.73035E-07-7.20237E-19 5.82139E-19
 -1      3127 9.52495E-05-2.83772E-05-2.86582E-05-2.79256E-07-1.68336E-20 4.84838E-19
 -1      3128 9.52432E-05-2.84062E-05-2.86452E-05-2.23898E-07 7.97286E-20 1.59939E-18
 -1      3129 9.52044E-05-2.83055E-05-2.86710E-05-3.21428E-07-1.15473E-19 5.78891E-19
 -1      3130 9.52511E-05-2.84359E-05-2.86341E-05-1.77688E-07-1.05706E-18 2.05169E-18
 -1      3131 9.52462E-05-2.84577E-05-2.86242E-05-1.38026E-07-1.56949E-18 1.73759E-18
 -1      3132 9.52253E-05-2.83853E-05-2.86458E-05-2.09667E-07-5.79922E-19 1.24280E-18
 -1      3133 9.52509E-05-2.84795E-05-2.86155E-05-1.05236E-07-1.51324E-18 1.03011E-18
 -1      3134 9.52473E-05-2.84957E-05-2.86082E-05-7.75212E-08-1.39615E-18 1.70881E-18
 -1      3135 9.52383E-05-2.84448E-05-2.86259E-05-1.28984E-07-1.89297E-18 1.98228E-18
 -1      3136 9.52498E-05-2.85115E-05-2.86016E-05-5.48934E-08-8.62329E-19 2.02019E-18
 -1      3137 9.52472E-05-2.85233E-05-2.85962E-05-3.61216E-08-4.82215E-19 2.32101E-18
 -1      3138 9.52459E-05-2.84885E-05-2.86104E-05-7.21399E-08-1.08301E-18 1.53464E-18
 -1      3139 9.52482E-05-2.85345E-05-2.85912E-05-2.10506E-08-1.01042E-18 2.44436E-18
 -1      3140 9.52464E-05-2.85429E-05-2.85874E-05-8.84994E-09-7.00104E-19 2.22711E-18
 -1      3141 9.52498E-05-2.85200E-05-2.85986E-05-3.32645E-08-9.27066E-19 2.49084E-18
 -1      3142 9.52466E-05-2.85506E-05-2.85837E-05 7.12573E-10-1.28355E-18 1.52005E-18
 -1      3143 9.52454E-05-2.85565E-05-2.85811E-05 8.18530E-09-9.37190E-19 3.97098E-19
 -1      3144 9.52513E-05-2.85421E-05-2.85898E-05-7.68279E-09-1.55895E-18 2.59415E-18
 -1      3145 9.52450E-05-2.85616E-05-2.85784E-05 1.38236E-08-3.68430E-19 2.99845E-19
 -1      3146 9.52442E-05-2.85656E-05-2.85766E-05 1.79778E-08-2.42595E-19 1.83719E-19
 -1      3147 9.52513E-05-2.85573E-05-2.85833E-05 8.26679E-09-6.81699E-19 2.10222E-18
 -1      3148 9.52435E-05-2.85688E-05-2.85748E-05 2.08963E-08 8.02854E-21-3.52604E-19
 -1      3149 9.52430E-05-2.85714E-05-2.85736E-05 2.27914E-08 7.26555E-19-6.12167E-20
 -1      3150 9.52504E-05-2.85673E-05-2.85786E-05 1.74036E-08-6.26642E-19 5.16671E-19
 -1      3151 9.52422E-05-2.85733E-05-2.85723E-05 2.38890E-08 1.47853E-18-5.59373E-19
 -1      3152 9.52420E-05-2.85748E-05-2.85716E-05 2.43064E-08 1.32707E-18-1.01188E-18
 -1      3153 9.52489E-05-2.85735E-05-2.85753E-05 2.18605E-08 1.17317E-18 2.34731E-19
 -1      3154 9.52411E-05-2.85758E-05-2.85708E-05 2.42407E-08 1.14663E-18-1.72858E-18
 -1      3155 9.52410E-05-2.85767E-05-2.85704E-05 2.37444E-08 2.56874E-19-1.50753E-18
 -1      3156 9.52473E-05-2.85771E-05-2.85730E-05 2.32208E-08 1.14850E-18-1.66876E-18
 -1      3157 9.52402E-05-2.85770E-05-2.85699E-05 2.29847E-08 2.09131E-19-1.59995E-18
 -1      3158 9.52402E-05-2.85774E-05-2.85697E-05 2.19707E-08 2.72052E-19-6.25940E-19
 -1      3159 9.52456E-05-2.85788E-05-2.85715E-05 2.26346E-08 5.57007E-19-2.13311E-18
 -1      3160 9.52394E-05-2.85774E-05-2.85694E-05 2.08421E-08-3.39586E-19-6.38691E-19
 -1      3161 9.52395E-05-2.85775E-05-2.85694E-05 1.95790E-08 1.28185E-19-3.15686E-19
 -1      3162 9.52441E-05-2.85794E-05-2.85706E-05 2.09162E-08-1.82452E-19-9.21540E-19
 -1      3163 9.52388E-05-2.85772E-05-2.85693E-05 1.82976E-08-6.79594E-19-1.18299E-18
 -1      3164 9.52389E-05-2.85771E-05-2.85693E-05 1.69583E-08-1.10299E-18-1.38605E-18
 -1      3165 9.52427E-05-2.85792E-05-2.85701E-05 1.86232E-08-8.71726E-19-1.84185E-18
 -1      3166 9.52384E-05-2.85768E-05-2.85693E-05 1.56593E-08-5.70361E-19-1.40737E-18
 -1      3167 9.52385E-05-2.85766E-05-2.85693E-05 1.43460E-08-1.16599E-18-5.98084E-19
 -1      3168 9.52414E-05-2.85786E-05-2.85698E-05 1.61202E-08-1.02544E-18-2.82084E-18
 -1      3169 9.52380E-05-2.85763E-05-2.85693E-05 1.31081E-08-1.38565E-18-7.18432E-19
 -1      3170 9.52382E-05-2.85761E-05-2.85694E-05 1.18695E-08-8.83812E-19-6.82875E-19
 -1      3171 9.52404E-05-2.85779E-05-2.85697E-05 1.36318E-08-7.81330E-19-2.49095E-18
 -1      3172 9.52378E-05-2.85758E-05-2.85694E-05 1.08773E-08-7.00094E-19-5.17901E-19
 -1      3173 9.52379E-05-2.85757E-05-2.85695E-05 9.71714E-09-7.20518E-19-7.33685E-19
 -1      3174 9.52389E-05-2.85765E-05-2.85696E-05 9.50400E-09-6.43108E-19 1.07004E-18
 -1      3175 9.52396E-05-2.85771E-05-2.85696E-05 1.14275E-08-7.02646E-19-8.56215E-19
 -1      3176 5.84249E-05-2.19073E-05-1.53367E-05-2.56124E-05 2.83555E-18 3.10999E-18
 -1      3177 7.08206E-05-3.02895E-05-1.72694E-05-3.17422E-05 2.32669E-18 1.62704E-18
 -1      3178 1.11017E-04-3.13657E-05-3.42809E-05-1.10397E-05 1.41708E-18-2.19922E-18
 -1      3179 1.09548E-04-2.80168E-05-3.49134E-05-1.00626E-05 1.92062E-18-1.99238E-18
 -1      3180 1.09476E-04-3.88018E-05-3.02481E-05-4.69939E-07-3.49241E-19-6.46754E-19
 -1      3181 1.10470E-04-3.92873E-05-3.05589E-05-2.26638E-06-2.39040E-20-1.20450E-18
 -1      3182 1.06187E-04-3.66272E-05-2.97616E-05 2.67162E-06-8.29417E-19 8.97491E-22
 -1      3183 1.07452E-04-3.76955E-05-2.99312E-05 1.29570E-06-3.02338E-19-2.61090E-19
 -1      3184 1.08851E-04-3.94074E-05-2.98088E-05 2.00269E-06-5.32827E-19-7.59977E-19
 -1      3185 1.03109E-04-3.41006E-05-2.95354E-05 4.55852E-06-6.87103E-19-8.84914E-20
 -1      3186 1.04328E-04-3.52672E-05-2.96197E-05 3.70443E-06-7.34234E-19-2.26147E-20
 -1      3187 1.04924E-04-3.65639E-05-2.93431E-05 4.67024E-06-4.77309E-19-1.31939E-19
 -1      3188 1.00646E-04-3.18896E-05-2.94388E-05 5.41842E-06 9.31281E-21-4.12932E-19
 -1      3189 1.01665E-04-3.28915E-05-2.94851E-05 5.00562E-06-3.29558E-19-2.36051E-19
 -1      3190 1.01617E-04-3.36616E-05-2.91641E-05 5.95380E-06-5.05182E-19-3.96222E-19
 -1      3191 9.88401E-05-3.02178E-05-2.93917E-05 5.57246E-06 9.09280E-20 3.13513E-19
 -1      3192 9.96276E-05-3.09704E-05-2.94271E-05 5.47904E-06 8.13207E-20 1.59288E-19
 -1      3193 9.91782E-05-3.12966E-05-2.91216E-05 6.30785E-06-2.04612E-19 1.57255E-19
 -1      3194 9.75886E-05-2.90788E-05-2.93515E-05 5.28643E-06-1.33240E-20 5.86275E-19
 -1      3195 9.81706E-05-2.95918E-05-2.93891E-05 5.40137E-06 8.50226E-20 4.77076E-19
 -1      3196 9.75162E-05-2.95973E-05-2.91278E-05 6.09086E-06-1.97316E-19 9.80501E-19
 -1      3197 9.67536E-05-2.83760E-05-2.93004E-05 4.75550E-06-4.68108E-20 7.81218E-19
 -1      3198 9.71744E-05-2.86952E-05-2.93440E-05 4.99131E-06 1.57102E-19 6.86385E-19
 -1      3199 9.64533E-05-2.84967E-05-2.91367E-05 5.55519E-06-2.56819E-19 6.55568E-19
 -1      3200 9.62106E-05-2.79930E-05-2.92352E-05 4.11424E-06-3.90099E-19 4.22160E-19
 -1      3201 9.65126E-05-2.81708E-05-2.92840E-05 4.40749E-06-1.15532E-19 8.44310E-19
 -1      3202 9.58126E-05-2.78615E-05-2.91294E-05 4.86807E-06-2.58424E-19 6.67302E-19
 -1      3203 9.58629E-05-2.78264E-05-2.91596E-05 3.45052E-06-4.00064E-19 8.14926E-19
 -1      3204 9.60801E-05-2.79085E-05-2.92107E-05 3.75823E-06-5.42949E-19 6.29430E-19
 -1      3205 9.54505E-05-2.75555E-05-2.91022E-05 4.13611E-06-6.12572E-19 5.61647E-19
 -1      3206 9.56421E-05-2.77956E-05-2.90791E-05 2.81840E-06-4.01272E-19 1.24487E-18
 -1      3207 9.57995E-05-2.78173E-05-2.91295E-05 3.11345E-06-2.04984E-19 1.34087E-18
 -1      3208 9.52622E-05-2.74646E-05-2.90586E-05 3.42455E-06-8.12780E-19 8.51019E-19
 -1      3209 9.55022E-05-2.78432E-05-2.89990E-05 2.24824E-06 4.30559E-19 1.85708E-18
 -1      3210 9.56171E-05-2.78296E-05-2.90464E-05 2.51512E-06 3.74214E-20 1.51585E-18
 -1      3211 9.51771E-05-2.75034E-05-2.90045E-05 2.77115E-06-4.41474E-19 1.41055E-18
 -1      3212 9.54130E-05-2.79301E-05-2.89236E-05 1.75409E-06-2.41361E-19 1.54467E-18
 -1      3213 9.54975E-05-2.78981E-05-2.89663E-05 1.98550E-06 4.82685E-19 2.12758E-18
 -1      3214 9.51496E-05-2.76120E-05-2.89455E-05 2.19526E-06 2.95098E-19 2.25073E-18
 -1      3215 9.53556E-05-2.80315E-05-2.88553E-05 1.33917E-06-6.45715E-20 1.27600E-18
 -1      3216 9.54180E-05-2.79921E-05-2.88926E-05 1.53327E-06-2.44730E-19 1.39013E-18
 -1      3217 9.51514E-05-2.77509E-05-2.88865E-05 1.70375E-06 1.29664E-19 1.44042E-18
 -1      3218 9.53181E-05-2.81324E-05-2.87957E-05 9.99972E-07-6.57951E-19-1.35251E-19
 -1      3219 9.53642E-05-2.80922E-05-2.88273E-05 1.15831E-06-4.35849E-20 7.11870E-19
 -1      3220 9.51661E-05-2.78953E-05-2.88308E-05 1.29540E-06 1.88091E-19 1.01511E-18
 -1      3221 9.52931E-05-2.82248E-05-2.87451E-05 7.29181E-07-5.32640E-19-2.85511E-20
 -1      3222 9.53270E-05-2.81874E-05-2.87712E-05 8.55206E-07-5.85343E-19 4.88440E-20
 -1      3223 9.51846E-05-2.80310E-05-2.87805E-05 9.64079E-07-5.15225E-19-1.73540E-19
 -1      3224 9.52761E-05-2.83048E-05-2.87032E-05 5.17718E-07-5.74609E-19-7.28450E-19
 -1      3225 9.53009E-05-2.82720E-05-2.87242E-05 6.15770E-07-3.91254E-19-2.75002E-19
 -1      3226 9.52021E-05-2.81510E-05-2.87365E-05 7.01029E-07-2.32978E-19 1.14363E-19
 -1      3227 9.52643E-05-2.83714E-05-2.86693E-05 3.56086E-07-2.75225E-19 1.17091E-20
 -1      3228 9.52822E-05-2.83439E-05-2.86859E-05 4.30705E-07-3.61494E-19-1.47077E-19
 -1      3229 9.52167E-05-2.82525E-05-2.86993E-05 4.96462E-07-4.88843E-19 2.23482E-20
 -1      3230 9.52559E-05-2.84252E-05-2.86424E-05 2.35201E-07-5.34557E-19 9.30845E-20
 -1      3231 9.52687E-05-2.84028E-05-2.86553E-05 2.90723E-07-2.42303E-19 2.17028E-19
 -1      3232 9.52279E-05-2.83356E-05-2.86684E-05 3.40606E-07-3.12996E-19 1.29985E-18
 -1      3233 9.52500E-05-2.84675E-05-2.86215E-05 1.46855E-07-6.81922E-19-5.76062E-19
 -1      3234 9.52588E-05-2.84497E-05-2.86313E-05 1.87185E-07-2.30493E-19-4.33633E-19
 -1      3235 9.52358E-05-2.84016E-05-2.86435E-05 2.24344E-07-2.52714E-19 8.05416E-19
 -1      3236 9.52457E-05-2.84999E-05-2.86057E-05 8.39322E-08-7.92441E-19-2.71929E-19
 -1      3237 9.52517E-05-2.84862E-05-2.86129E-05 1.12443E-07-7.35261E-19-7.99936E-20
 -1      3238 9.52410E-05-2.84528E-05-2.86238E-05 1.39566E-07-8.44294E-19-2.12606E-19
 -1      3239 9.52426E-05-2.85242E-05-2.85939E-05 4.04569E-08-2.48079E-19 2.19268E-19
 -1      3240 9.52465E-05-2.85138E-05-2.85991E-05 5.99696E-08-6.57947E-19 3.84303E-19
 -1      3241 9.52441E-05-2.84915E-05-2.86084E-05 7.93085E-08-8.44326E-19 2.49506E-20
 -1      3242 9.52405E-05-2.85419E-05-2.85853E-05 1.15428E-08 6.88265E-20-5.37386E-19
 -1      3243 9.52429E-05-2.85342E-05-2.85890E-05 2.43548E-08 3.45837E-19-3.68226E-19
 -1      3244 9.52455E-05-2.85201E-05-2.85968E-05 3.77595E-08 2.51551E-19 7.81596E-19
 -1      3245 9.52390E-05-2.85545E-05-2.85792E-05-6.71330E-09 7.68217E-19-1.01780E-18
 -1      3246 9.52403E-05-2.85490E-05-2.85817E-05 1.22488E-09 5.67614E-19-1.19016E-18
 -1      3247 9.52459E-05-2.85407E-05-2.85881E-05 1.01899E-08 4.28520E-19-6.08301E-19
 -1      3248 9.52379E-05-2.85631E-05-2.85750E-05-1.73628E-08-2.93180E-19-1.12847E-20
 -1      3249 9.52385E-05-2.85593E-05-2.85766E-05-1.28769E-08-1.11815E-19-9.57674E-19
 -1      3250 9.52456E-05-2.85551E-05-2.85817E-05-7.16587E-09-3.29551E-19-1.78706E-18
 -1      3251 9.52373E-05-2.85689E-05-2.85722E-05-2.27422E-08-8.69077E-20 9.92085E-19
 -1      3252 9.52374E-05-2.85663E-05-2.85732E-05-2.06258E-08 1.60911E-19 5.28972E-19
 -1      3253 9.52448E-05-2.85648E-05-2.85772E-05-1.72444E-08-7.69440E-19 3.22317E-19
 -1      3254 9.52368E-05-2.85725E-05-2.85704E-05-2.46030E-08-4.85541E-19 7.28950E-19
 -1      3255 9.52367E-05-2.85708E-05-2.85710E-05-2.40489E-08-2.61465E-19 9.85773E-19
 -1      3256 9.52439E-05-2.85711E-05-2.85741E-05-2.22897E-08-7.93279E-19 1.97437E-18
 -1      3257 9.52366E-05-2.85745E-05-2.85695E-05-2.42283E-08-8.36351E-19 1.14976E-18
 -1      3258 9.52363E-05-2.85735E-05-2.85697E-05-2.46492E-08-8.36880E-19 1.15901E-18
 -1      3259 9.52428E-05-2.85748E-05-2.85721E-05-2.39810E-08-9.16431E-19 2.34970E-18
 -1      3260 9.52365E-05-2.85755E-05-2.85690E-05-2.25340E-08 1.88183E-19-2.32611E-19
 -1      3261 9.52361E-05-2.85750E-05-2.85690E-05-2.35144E-08 2.01478E-19 5.71007E-19
 -1      3262 9.52418E-05-2.85768E-05-2.85708E-05-2.35466E-08-3.12989E-19 1.37872E-18
 -1      3263 9.52365E-05-2.85759E-05-2.85688E-05-2.01524E-08 8.09568E-19-9.29612E-19
 -1      3264 9.52360E-05-2.85756E-05-2.85687E-05-2.14086E-08 3.04675E-19-6.31662E-19
 -1      3265 9.52409E-05-2.85777E-05-2.85700E-05-2.18617E-08 8.15573E-19-2.78710E-19
 -1      3266 9.52366E-05-2.85758E-05-2.85689E-05-1.75010E-08 2.94984E-19-5.77775E-19
 -1      3267 9.52361E-05-2.85758E-05-2.85687E-05-1.88490E-08 3.26172E-19-6.06300E-19
 -1      3268 9.52401E-05-2.85778E-05-2.85696E-05-1.95292E-08 2.90528E-19-1.21589E-18
 -1      3269 9.52367E-05-2.85756E-05-2.85690E-05-1.48367E-08 2.38951E-19 7.21883E-20
 -1      3270 9.52362E-05-2.85756E-05-2.85689E-05-1.61667E-08 1.09191E-18-9.05908E-19
 -1      3271 9.52394E-05-2.85774E-05-2.85694E-05-1.69463E-08 5.44699E-20-4.66523E-19
 -1      3272 9.52368E-05-2.85752E-05-2.85692E-05-1.22994E-08-8.61518E-19 7.59294E-19
 -1      3273 9.52364E-05-2.85753E-05-2.85691E-05-1.35548E-08-7.47676E-19 1.56436E-19
 -1      3274 9.52389E-05-2.85769E-05-2.85694E-05-1.43563E-08-5.73683E-19 2.11818E-19
 -1      3275 9.52370E-05-2.85750E-05-2.85694E-05-9.95646E-09-1.14292E-18 2.39870E-18
 -1      3276 9.52366E-05-2.85750E-05-2.85693E-05-1.11035E-08-1.24226E-18 1.95890E-18
 -1      3277 9.52385E-05-2.85764E-05-2.85695E-05-1.18936E-08-1.75172E-18 8.76391E-19
 -1      3278 9.52376E-05-2.85752E-05-2.85696E-05-8.46519E-09-1.18256E-18 2.09344E-18
 -1      3279 9.52371E-05-2.85750E-05-2.85695E-05-9.26646E-09-6.37516E-19 1.83261E-18
 -1      3280 9.52385E-05-2.85762E-05-2.85696E-05-9.97624E-09-1.18692E-18 8.74491E-19
 -1      3281 9.52387E-05-2.85763E-05-2.85696E-05-8.55987E-09-1.01151E-18 8.20104E-19
 -1      3282 4.90023E-05-1.52796E-05-1.41522E-05 2.00335E-05-1.39199E-18 4.50357E-18
 -1      3283 4.42322E-05-1.13398E-05-1.37306E-05 7.24052E-06-6.52784E-19 5.13990E-18
 -1      3284 9.52413E-05-2.85785E-05-2.85698E-05 8.04308E-09 4.77365E-19-8.43136E-19
 -1      3285 9.52423E-05-2.85793E-05-2.85698E-05 7.32411E-09-5.26145E-20-7.90327E-19
 -1      3286 3.48201E-05 1.08654E-06-1.50176E-05-1.09086E-05-1.11164E-18-5.70763E-18
 -1      3287 3.09525E-05-1.39624E-06-1.21929E-05-1.62991E-05-1.41544E-18-6.09292E-18
 -1      3288 8.44793E-05-3.73411E-05-1.96570E-05-3.20903E-05 2.45692E-18 8.04681E-20
 -1      3289 9.86188E-05-4.54143E-05-2.29425E-05-2.95110E-05 2.37259E-18-7.50312E-19
 -1      3290 8.07176E-05-3.28916E-05-2.02454E-05-2.88957E-05 2.32452E-18 5.18225E-19
 -1      3291 9.52452E-05-2.85818E-05-2.85700E-05 7.26002E-10 1.00438E-18-4.31391E-19
 -1      3292 9.52452E-05-2.85818E-05-2.85700E-05-7.13108E-10 1.31106E-19 1.30409E-18
 -1      3293 9.52461E-05-2.85823E-05-2.85702E-05 1.65723E-09 3.90525E-20-3.01401E-19
 -1      3294 1.26179E-04-3.10640E-05-4.12578E-05-1.14576E-05 2.43533E-18-3.67136E-18
 -1      3295 1.30124E-04-4.00420E-05-3.86518E-05-8.41968E-06 1.47775E-18-3.93569E-18
 -1      3296 1.21421E-04-2.92347E-05-3.96972E-05-1.15020E-05 2.26912E-18-3.09209E-18
 -1      3297 1.10595E-04-2.73599E-05-3.56409E-05 1.29875E-05 1.81629E-18 5.78788E-19
 -1      3298 1.12481E-04-3.06089E-05-3.51596E-05 1.41425E-05 1.57518E-18 6.26111E-19
 -1      3299 1.10755E-04-2.43517E-05-3.71957E-05-9.76531E-06 2.44538E-18-2.11608E-18
 -1      3300 1.09199E-04-2.08657E-05-3.79187E-05-6.84997E-06 2.59944E-18-1.71108E-18
 -1      3301 9.46347E-05-2.88979E-05-2.81653E-05 1.06976E-05 2.07179E-19-1.11112E-18
 -1      3302 4.15545E-05 2.18446E-06-1.84284E-05-8.23743E-06-1.06244E-18-5.02322E-18
 -1      3303 9.52433E-05-2.85802E-05-2.85699E-05 6.22303E-09-8.09205E-19-3.56697E-19
 -1      3304 9.52440E-05-2.85808E-05-2.85699E-05 5.10466E-09-2.09879E-19 1.61938E-19
 -1      3305 9.52452E-05-2.85815E-05-2.85702E-05 4.80357E-09-6.64193E-19-6.57278E-19
 -1      3306 9.52435E-05-2.85802E-05-2.85700E-05 7.41730E-09 2.47191E-20-1.17440E-19
 -1      3307 1.12189E-04-3.94796E-05-3.11345E-05-4.75303E-06 1.04900E-19-1.63988E-18
 -1      3308 1.12401E-04-3.86906E-05-3.16311E-05-6.54536E-06 3.68830E-19-1.71309E-18
 -1      3309 1.12749E-04-4.11500E-05-3.07696E-05-2.19947E-06-2.99727E-19-1.27994E-18
 -1      3310 1.13107E-04-3.72798E-05-3.25142E-05-9.12898E-06 6.79413E-19-2.01768E-18
 -1      3311 1.12247E-04-3.46597E-05-3.32054E-05-1.01548E-05 1.15958E-18-2.17272E-18
 -1      3312 1.15220E-04-3.98702E-05-3.23929E-05-7.29829E-06 3.68714E-19-1.98117E-18
 -1      3313 4.47175E-05-1.15445E-05-1.38604E-05-6.40427E-06 4.09143E-19 4.21928E-18
 -1      3314 4.98033E-05-1.54106E-05-1.43237E-05-1.85482E-05 1.66725E-18 3.91774E-18
 -1      3315 1.33801E-04-5.66035E-05-3.31910E-05-4.22835E-06 6.07402E-19-3.47019E-18
 -1      3316 1.27825E-04-5.55872E-05-3.07742E-05-9.33124E-06 1.90344E-18-2.25541E-18
 -1      3317 7.56624E-05-2.67285E-05-2.05949E-05-3.24765E-05-2.33543E-18-3.20930E-18
 -1      3318 9.13615E-05-3.55326E-05-2.40840E-05-2.90819E-05-2.09545E-18-2.03997E-18
 -1      3319 3.81962E-05-3.85280E-06-1.44460E-05-2.34626E-05-1.81371E-18-5.57506E-18
 -1      3320 1.39604E-04-5.42150E-05-3.67194E-05 9.53419E-07-1.02136E-18-3.76051E-18
 -1      3321 1.41412E-04-4.59401E-05-4.14200E-05 9.68837E-06-2.47524E-18-4.68409E-18
 -1      3322 1.11409E-04-3.71323E-05-3.19785E-05 7.81565E-07-4.36495E-20-6.41484E-19
 -1      3323 1.08627E-04-3.63631E-05-3.08543E-05-4.03019E-06-6.14517E-19-6.59839E-19
 -1      3324 1.15268E-04-3.88076E-05-3.26869E-05 4.31773E-06 1.31972E-19-3.99776E-20
 -1      3325 5.27761E-05-9.79316E-06-1.80026E-05-2.61400E-05-2.13532E-18-4.58896E-18
 -1      3326 6.63930E-05-1.89633E-05-2.00953E-05-3.08975E-05-2.28614E-18-3.74674E-18
 -1      3327 7.02142E-05-3.00752E-05-1.72157E-05 3.37938E-05-2.76106E-18 2.18201E-18
 -1      3328 5.81361E-05-2.17213E-05-1.51766E-05 2.80353E-05-2.04776E-18 3.06340E-18
 -1      3329 1.09946E-04-5.01193E-05-2.51786E-05-2.50096E-05 2.60950E-18-8.15152E-19
 -1      3330 1.21200E-04-5.45937E-05-2.86452E-05-1.64122E-05 2.31836E-18-1.51220E-18
 -1      3331 1.18574E-04-5.17672E-05-2.86954E-05-1.47202E-05 2.35957E-18-1.59392E-18
 -1      3332 1.02736E-04-4.54246E-05-2.45367E-05-2.54458E-05 2.23315E-18-6.95546E-19
 -1      3333 1.04643E-04-4.30052E-05-2.66063E-05 1.89972E-05 1.24556E-18-7.75009E-19
 -1      3334 8.81944E-05-3.24449E-05-2.35745E-05 2.19706E-05 1.40499E-18-1.83430E-18
 -1      3335 1.26961E-04-3.66308E-05-3.88099E-05 1.18147E-05 1.95310E-18 1.45626E-18
 -1      3336 1.24595E-04-2.94174E-05-4.12425E-05 1.47240E-05 2.91268E-18 1.10247E-18
 -1      3337 1.30480E-04-4.71262E-05-3.61098E-05-3.02320E-06 4.71036E-19-3.65638E-18
 -1      3338 1.27511E-04-5.14843E-05-3.26185E-05 4.68445E-06-4.69018E-19-3.47440E-18
 -1      3339 1.06919E-04-2.11751E-05-3.67279E-05 7.96179E-06 2.72688E-18-1.04221E-19
 -1      3340 1.08632E-04-2.39907E-05-3.64064E-05 1.09499E-05 2.32060E-18 2.73147E-19
 -1      3341 1.12254E-04-2.54266E-05-3.73128E-05 1.30169E-05 2.23119E-18 4.19321E-19
 -1      3342 3.73181E-05 1.79201E-06-1.65519E-05-1.06983E-05-1.15448E-18-5.33758E-18
 -1      3343 1.14564E-04-4.52363E-05-2.96063E-05 9.82450E-06 7.66988E-19 2.19587E-19
 -1      3344 6.20074E-05-1.68487E-05-1.92043E-05 2.19878E-05 1.06260E-18-3.61545E-18
 -1      3345 6.48487E-05-1.42247E-05-2.15213E-05 1.73288E-05 8.37133E-19-3.33694E-18
 -1      3346 7.82853E-05-2.15895E-05-2.38461E-05 1.85432E-05 8.02299E-19-2.37958E-18
 -1      3347 7.75003E-05-2.68235E-05-2.14736E-05 2.48639E-05 1.30845E-18-2.57805E-18
 -1      3348 9.83811E-05-4.62023E-05-2.26034E-05 3.20641E-05-2.76329E-18-1.38178E-18
 -1      3349 8.47308E-05-3.79562E-05-1.95361E-05 3.41399E-05-2.98389E-18 2.37778E-19
 -1      3350 1.13504E-04-3.53086E-05-3.35579E-05 1.18206E-05 1.21644E-18 2.91754E-19
 -1      3351 1.13166E-04-3.50165E-05-3.34594E-05 1.04438E-05 1.00817E-18 1.43483E-19
 -1      3352 1.15000E-04-3.68928E-05-3.34670E-05 1.00481E-05 8.75321E-19 2.39694E-19
 -1      3353 1.13529E-04-3.51744E-05-3.35902E-05 1.24258E-05 1.33339E-18 3.09041E-19
 -1      3354 1.21067E-04-5.36884E-05-2.90897E-05 1.57292E-05-1.83651E-18-3.17480E-18
 -1      3355 1.11871E-04-5.12924E-05-2.55718E-05 2.48398E-05-2.43850E-18-2.46560E-18
 -1      3356 1.24043E-04-4.67215E-05-3.29215E-05-4.80845E-06-4.63724E-19 7.53118E-19
 -1      3357 1.27129E-04-4.34433E-05-3.61796E-05 4.92926E-06 6.94157E-19 1.22521E-18
 -1      3358 1.07151E-04-4.24806E-05-2.72639E-05-2.12818E-05-1.77194E-18-8.86413E-19
 -1      3359 1.16277E-04-4.65048E-05-3.02481E-05-1.45109E-05-1.10556E-18-5.69961E-20
 -1      3360 1.20764E-04-2.16346E-05-4.26532E-05 1.45035E-05 3.72250E-18 7.04705E-19
 -1      3361 1.18122E-04-1.64619E-05-4.41326E-05 1.12961E-05 4.38048E-18 1.17632E-19
 -1      3362 1.06225E-04-3.76205E-05-2.93780E-05-1.15518E-05-1.14860E-18-8.83429E-19
 -1      3363 9.87140E-05-3.45010E-05-2.75227E-05-1.73964E-05-1.69285E-18-1.34951E-18
 -1      3364 1.38587E-04-5.67098E-05-3.52610E-05-2.69792E-06-4.00097E-19-3.48491E-18
 -1      3365 8.03506E-05-3.32782E-05-1.98468E-05 3.07984E-05-2.75675E-18 5.40354E-19
 -1      3366 9.77570E-05-3.66972E-05-2.61361E-05-2.26223E-05-1.91255E-18-1.57324E-18
 -1      3367 1.26799E-04-4.26375E-05-3.61241E-05-7.46051E-06 9.00925E-19-3.57930E-18
 -1      3368 8.79162E-05-2.97113E-05-2.47994E-05 1.91362E-05 1.09799E-18-1.73679E-18
 -1      3369 1.12838E-04-4.70073E-05-2.79629E-05-1.66761E-05 2.23078E-18-1.05957E-18
 -1      3370 1.03712E-04-4.28820E-05-2.61270E-05-2.11876E-05 1.89696E-18-7.49320E-19
 -1      3371 9.52461E-05-2.85822E-05-2.85702E-05-1.67281E-09 3.23379E-19 6.66226E-19
 -1      3372 9.52450E-05-2.85816E-05-2.85700E-05-2.32743E-09 7.34262E-19 1.83191E-18
 -1      3373 9.52446E-05-2.85813E-05-2.85700E-05-3.68424E-09 6.79271E-19-4.05642E-19
 -1      3374 4.23574E-05-1.00908E-06-1.72790E-05-1.88708E-05-1.63109E-18-5.29427E-18
 -1      3375 7.40989E-05-2.08902E-05-2.26831E-05-2.59121E-05-2.31489E-18-3.23704E-18
 -1      3376 1.14555E-04-3.42069E-05-3.44252E-05-1.09962E-05 1.15702E-18-2.10392E-18
 -1      3377 5.88110E-05-1.88176E-05-1.67185E-05 2.16477E-05-1.91234E-18 3.44218E-18
 -1      3378 5.96160E-05-1.90639E-05-1.70875E-05-2.01128E-05 1.93894E-18 2.93518E-18
 -1      3379 9.52440E-05-2.85808E-05-2.85699E-05-5.12210E-09 1.23140E-19-2.48680E-18
 -1      3380 9.52432E-05-2.85802E-05-2.85699E-05-6.23659E-09 5.76471E-20-2.16686E-18
 -1      3381 9.52452E-05-2.85815E-05-2.85702E-05-4.82024E-09 4.03751E-19-1.02011E-18
 -1      3382 8.58371E-05-2.69723E-05-2.48626E-05-2.33725E-05-2.11275E-18-2.50086E-18
 -1      3383 1.14492E-04-1.48317E-05-4.29260E-05 8.21443E-06 4.09996E-18-5.52663E-19
 -1      3384 1.13007E-04-3.27963E-05-3.43839E-05 1.37091E-05 1.40249E-18 5.95697E-19
 -1      3385 1.14009E-04-3.46619E-05-3.40493E-05 1.34751E-05 1.29830E-18 5.23226E-19
 -1      3386 1.15215E-04-3.54888E-05-3.41508E-05 1.31084E-05 1.19203E-18 7.78681E-19
 -1      3387 1.15006E-04-3.21392E-05-3.56037E-05 1.46036E-05 1.61026E-18 9.50953E-19
 -1      3388 1.12184E-04-1.78509E-05-4.05766E-05-5.43070E-06 3.14956E-18-1.80322E-18
 -1      3389 1.05694E-04-1.87472E-05-3.74465E-05-9.67483E-07 2.66618E-18-8.63272E-19
 -1      3390 1.06162E-04-1.88926E-05-3.74960E-05 2.91600E-06 2.82488E-18-6.48655E-19
 -1      3391 1.13713E-04-1.38009E-05-4.30239E-05-3.30059E-06 3.74140E-18-2.15659E-18
 -1      3392 4.79654E-05-1.12839E-05-1.52660E-05 4.37083E-07 8.19571E-20 4.41373E-18
 -1      3393 5.34635E-05-1.26271E-05-1.73943E-05-5.35005E-06 6.36936E-19 3.41450E-18
 -1      3394 5.33688E-05-1.25018E-05-1.73122E-05 6.29006E-06-5.85068E-19 4.04395E-18
 -1      3395 9.52436E-05-2.85803E-05-2.85700E-05-7.23667E-09-1.94760E-19-1.85717E-18
 -1      3396 9.52424E-05-2.85794E-05-2.85698E-05-7.13445E-09-7.58117E-19-2.22446E-18
 -1      3397 9.52416E-05-2.85787E-05-2.85698E-05-7.74286E-09-2.96252E-19-1.18434E-18
 -1      3398 1.13434E-04-4.15190E-05-3.07005E-05-7.05060E-06-9.43866E-19-9.16682E-20
 -1      3399 1.37043E-04-5.17759E-05-3.67178E-05 6.20214E-06-9.36554E-19-5.72737E-18
 -1      3400 1.09070E-04-1.77560E-05-3.92332E-05 6.14583E-06 3.11830E-18-4.66636E-19
 -1      3401 1.26323E-04-4.09130E-05-3.67430E-05 9.67272E-06 1.12523E-18 1.23193E-18
 -1      3402 1.22009E-04-3.63461E-05-3.68527E-05 1.31181E-05 1.39805E-18 1.23949E-18
 -1      3403 1.22536E-04-4.16577E-05-3.45679E-05 6.68295E-06 3.56336E-19 9.21664E-19
 -1      3404 1.05145E-04-4.69210E-05-2.47684E-05 2.51930E-05-2.62461E-18-1.88589E-18
 -1      3405 1.19657E-04-2.66105E-05-4.00724E-05 1.45401E-05 2.71733E-18 8.25275E-19
 -1      3406 1.23635E-04-4.88905E-05-3.21681E-05 1.18966E-06-3.21740E-19-2.90883E-18
 -1      3407 1.24578E-04-5.28548E-05-3.07174E-05 8.39340E-06-1.16655E-18-2.91865E-18
 -1      3408 1.18123E-04-5.04444E-05-2.89848E-05 1.19808E-05-1.54848E-18-2.23518E-18
 -1      3409 9.52398E-05-2.85772E-05-2.85697E-05 9.10952E-09 1.76036E-19 8.53529E-19
 -1      3410 9.52406E-05-2.85779E-05-2.85697E-05 8.61606E-09 5.39284E-19 3.22929E-19
 -1      3411 9.52417E-05-2.85787E-05-2.85698E-05 9.06833E-09 6.95127E-19 1.01034E-18
 -1      3412 9.52401E-05-2.85775E-05-2.85697E-05 1.00392E-08 1.93034E-19-1.04456E-19
 -1      3413 1.18639E-04-4.46131E-05-3.16544E-05-6.35787E-06-8.91608E-19 2.77271E-19
 -1      3414 1.04765E-04-3.62319E-05-2.89695E-05 1.05480E-05 5.78224E-19-5.34471E-19
 -1      3415 9.52406E-05-2.85779E-05-2.85697E-05-8.17945E-09-1.53375E-19-1.41325E-19
 -1      3416 9.52397E-05-2.85771E-05-2.85697E-05-8.44593E-09-1.01324E-18 7.58442E-19
 -1      3417 9.52397E-05-2.85771E-05-2.85697E-05-9.14768E-09-7.73880E-19 5.66182E-19
 -1      3418 9.52417E-05-2.85788E-05-2.85698E-05-8.60408E-09-2.36861E-19-1.33910E-18
 -1      3419 1.18069E-04-3.88411E-05-3.40846E-05 9.37756E-06 6.78346E-19 5.15795E-19
 -1      3420 1.18942E-04-4.06528E-05-3.35562E-05 5.31778E-06 9.28825E-20 3.13376E-19
 -1      3421 1.14396E-04-2.61331E-05-3.80353E-05-1.14405E-05 2.23969E-18-2.10038E-18
 -1      3422 8.83718E-05-3.10051E-05-2.45518E-05-2.08843E-05 1.06149E-18 1.72940E-19
 -1      3423 8.62678E-05-2.74796E-05-2.51356E-05-1.86440E-05 4.89595E-19 1.67448E-19
 -1      3424 8.68827E-05-2.59977E-05-2.59941E-05-1.60138E-05 1.70947E-19 5.12641E-19
 -1      3425 8.60857E-05-2.44022E-05-2.64694E-05-1.44084E-05 2.03281E-19 6.62095E-19
 -1      3426 8.10553E-05-2.38087E-05-2.44106E-05-1.71441E-05 5.64379E-19 7.22949E-19
 -1      3427 8.70263E-05-2.37069E-05-2.70850E-05-1.26414E-05-2.84668E-19 4.64729E-19
 -1      3428 8.69788E-05-2.30305E-05-2.74431E-05-1.13997E-05-5.65230E-19 3.12400E-19
 -1      3429 8.26568E-05-2.19170E-05-2.59975E-05-1.28509E-05-1.99632E-19 6.00532E-19
 -1      3430 8.80156E-05-2.29399E-05-2.78652E-05-1.01811E-05-6.26251E-19 1.07383E-20
 -1      3431 8.83114E-05-2.28021E-05-2.81061E-05-9.20977E-06-2.73406E-19-2.22691E-20
 -1      3432 8.47442E-05-2.14443E-05-2.70991E-05-9.95785E-06-7.89144E-19 5.52934E-19
 -1      3433 8.92710E-05-2.30156E-05-2.83835E-05-8.32270E-06-7.14188E-20-7.14482E-19
 -1      3434 8.96730E-05-2.31584E-05-2.85304E-05-7.53089E-06-1.14013E-19-1.32581E-18
 -1      3435 8.67668E-05-2.17482E-05-2.78389E-05-7.98504E-06-6.61030E-19 5.13398E-20
 -1      3436 9.05030E-05-2.35136E-05-2.87037E-05-6.83895E-06-2.57173E-19-1.59003E-18
 -1      3437 9.08985E-05-2.37851E-05-2.87819E-05-6.17113E-06-9.21055E-19-1.47359E-18
 -1      3438 8.85539E-05-2.24242E-05-2.83188E-05-6.52291E-06-6.18646E-19-9.34864E-19
 -1      3439 9.15870E-05-2.41859E-05-2.88824E-05-5.60372E-06-5.84030E-19-8.18220E-19
 -1      3440 9.19296E-05-2.44994E-05-2.89138E-05-5.03118E-06-7.29503E-19-8.54877E-20
 -1      3441 9.00606E-05-2.32506E-05-2.86145E-05-5.35878E-06-2.97443E-19-5.06174E-19
 -1      3442 9.24847E-05-2.48927E-05-2.89651E-05-4.55327E-06-3.40723E-19 5.38196E-19
 -1      3443 9.27617E-05-2.52012E-05-2.89667E-05-4.06219E-06 8.66541E-19 1.13912E-18
 -1      3444 9.12903E-05-2.40963E-05-2.87830E-05-4.38644E-06 2.37604E-19 6.11389E-19
 -1      3445 9.31997E-05-2.55596E-05-2.89859E-05-3.65676E-06 7.77835E-19 1.07175E-18
 -1      3446 9.34142E-05-2.58403E-05-2.89700E-05-3.23925E-06 1.15460E-18 5.93985E-19
 -1      3447 9.22709E-05-2.48907E-05-2.88662E-05-3.55721E-06 7.31435E-19 1.30983E-18
 -1      3448 9.37540E-05-2.61525E-05-2.89694E-05-2.89693E-06 1.31266E-18 2.79437E-19
 -1      3449 9.39151E-05-2.63962E-05-2.89445E-05-2.54678E-06 8.85104E-19-7.15842E-21
 -1      3450 9.30384E-05-2.55991E-05-2.88943E-05-2.84830E-06 8.55143E-19 4.76085E-19
 -1      3451 9.41749E-05-2.66598E-05-2.89324E-05-2.26107E-06 2.75074E-19 5.13415E-19
 -1      3452 9.42934E-05-2.68651E-05-2.89040E-05-1.97196E-06 2.87104E-21 7.12410E-19
 -1      3453 9.36300E-05-2.62090E-05-2.88886E-05-2.24748E-06 9.52395E-19-8.45620E-20
 -1      3454 9.44896E-05-2.70827E-05-2.88862E-05-1.73697E-06-8.30927E-20 4.87966E-19
 -1      3455 9.45752E-05-2.72517E-05-2.88578E-05-1.50209E-06-2.12905E-19 8.59138E-19
 -1      3456 9.40803E-05-2.67211E-05-2.88638E-05-1.74536E-06-5.01224E-20 7.36625E-19
 -1      3457 9.47216E-05-2.74282E-05-2.88378E-05-1.31190E-06-3.76506E-19 8.41500E-19
 -1      3458 9.47824E-05-2.75650E-05-2.88113E-05-1.12416E-06-5.99143E-19 1.21610E-18
 -1      3459 9.44187E-05-2.71425E-05-2.88296E-05-1.33253E-06-1.36196E-19 2.82275E-19
 -1      3460 9.48904E-05-2.77059E-05-2.87914E-05-9.72764E-07-1.17079E-18 7.57320E-19
 -1      3461 9.49330E-05-2.78150E-05-2.87678E-05-8.25124E-07-1.27009E-18 8.38837E-19
 -1      3462 9.46702E-05-2.74835E-05-2.87921E-05-9.98895E-07-9.82287E-19 5.65016E-19
 -1      3463 9.50115E-05-2.79260E-05-2.87493E-05-7.06640E-07-5.00030E-19 9.87632E-19
 -1      3464 9.50409E-05-2.80118E-05-2.87290E-05-5.92427E-07-3.27430E-19 1.28349E-18
 -1      3465 9.48546E-05-2.77555E-05-2.87553E-05-7.33927E-07-6.14046E-19 7.30394E-19
 -1      3466 9.50972E-05-2.80980E-05-2.87125E-05-5.01298E-07-8.32511E-19 1.10760E-18
 -1      3467 9.51171E-05-2.81647E-05-2.86955E-05-4.14426E-07-7.81705E-19 9.54808E-19
 -1      3468 9.49881E-05-2.79694E-05-2.87213E-05-5.27162E-07-7.93131E-19 1.62908E-18
 -1      3469 9.51566E-05-2.82307E-05-2.86814E-05-3.45596E-07-6.99351E-19 1.60844E-19
 -1      3470 9.51697E-05-2.82818E-05-2.86675E-05-2.80692E-07-3.65106E-20 1.38835E-19
 -1      3471 9.50830E-05-2.81353E-05-2.86912E-05-3.68684E-07-8.72260E-19 6.30190E-19
 -1      3472 9.51969E-05-2.83317E-05-2.86556E-05-2.29702E-07-1.89393E-19-3.38859E-19
 -1      3473 9.52052E-05-2.83702E-05-2.86444E-05-1.82149E-07-1.07969E-18-2.59017E-19
 -1      3474 9.51493E-05-2.82623E-05-2.86654E-05-2.49466E-07-7.11178E-19-2.43550E-19
 -1      3475 9.52233E-05-2.84074E-05-2.86347E-05-1.45176E-07-1.44567E-18-8.27005E-20
 -1      3476 9.52283E-05-2.84360E-05-2.86259E-05-1.11095E-07-1.80119E-18 3.05381E-19
 -1      3477 9.51943E-05-2.83579E-05-2.86439E-05-1.61560E-07-6.58727E-19-2.13438E-18
 -1      3478 9.52399E-05-2.84631E-05-2.86181E-05-8.49383E-08-1.69186E-18 1.82366E-18
 -1      3479 9.52426E-05-2.84841E-05-2.86112E-05-6.11405E-08-6.80210E-19 1.53132E-18
 -1      3480 9.52239E-05-2.84289E-05-2.86263E-05-9.81720E-08-8.26008E-19 7.54662E-19
 -1      3481 9.52496E-05-2.85035E-05-2.86051E-05-4.31784E-08-7.38165E-19 1.57389E-18
 -1      3482 9.52508E-05-2.85185E-05-2.85999E-05-2.70892E-08-9.80486E-19 1.56691E-18
 -1      3483 9.52424E-05-2.84805E-05-2.86122E-05-5.36293E-08-1.07954E-18 1.34653E-18
 -1      3484 9.52545E-05-2.85320E-05-2.85951E-05-1.52153E-08-1.52113E-18 1.97745E-18
 -1      3485 9.52548E-05-2.85425E-05-2.85912E-05-4.79315E-09-9.43216E-19 2.17330E-18
 -1      3486 9.52531E-05-2.85173E-05-2.86011E-05-2.33014E-08-1.15091E-18 1.28562E-18
 -1      3487 9.52564E-05-2.85517E-05-2.85875E-05 2.65293E-09-1.25969E-18 1.96625E-18
 -1      3488 9.52561E-05-2.85587E-05-2.85847E-05 8.99916E-09-1.17176E-18 1.30408E-18
 -1      3489 9.52585E-05-2.85428E-05-2.85925E-05-3.48303E-09-1.25348E-18 3.50388E-19
 -1      3490 9.52562E-05-2.85647E-05-2.85819E-05 1.33025E-08-1.20404E-18 9.97605E-19
 -1      3491 9.52556E-05-2.85693E-05-2.85799E-05 1.67915E-08-6.39706E-19 5.37402E-19
 -1      3492 9.52603E-05-2.85600E-05-2.85859E-05 8.73532E-09-1.30475E-18 7.74869E-19
 -1      3493 9.52549E-05-2.85729E-05-2.85779E-05 1.89286E-08 7.14591E-20 7.01906E-19
 -1      3494 9.52541E-05-2.85757E-05-2.85765E-05 2.04769E-08 6.70358E-19-4.85221E-20
 -1      3495 9.52599E-05-2.85710E-05-2.85810E-05 1.55959E-08-7.23308E-19 1.61244E-18
 -1      3496 9.52529E-05-2.85777E-05-2.85750E-05 2.11749E-08 9.93700E-19-8.13120E-19
 -1      3497 9.52520E-05-2.85793E-05-2.85740E-05 2.14582E-08 9.77266E-19-2.09670E-18
 -1      3498 9.52581E-05-2.85776E-05-2.85774E-05 1.87942E-08-2.02410E-19 1.08342E-18
 -1      3499 9.52507E-05-2.85802E-05-2.85730E-05 2.12475E-08 1.26252E-18-1.12315E-18
 -1      3500 9.52498E-05-2.85809E-05-2.85724E-05 2.07527E-08 3.56794E-19-1.33675E-18
 -1      3501 9.52557E-05-2.85811E-05-2.85749E-05 1.95865E-08 1.65153E-18-2.36358E-19
 -1      3502 9.52484E-05-2.85811E-05-2.85717E-05 2.00099E-08-5.60000E-19-9.37903E-19
 -1      3503 9.52476E-05-2.85812E-05-2.85713E-05 1.90779E-08-4.69343E-19-1.27656E-18
 -1      3504 9.52530E-05-2.85825E-05-2.85731E-05 1.88830E-08-1.45486E-19-1.42862E-19
 -1      3505 9.52463E-05-2.85809E-05-2.85708E-05 1.80621E-08-1.45192E-18-1.85983E-18
 -1      3506 9.52456E-05-2.85808E-05-2.85706E-05 1.69231E-08-1.80189E-18-2.65850E-18
 -1      3507 9.52502E-05-2.85827E-05-2.85718E-05 1.73245E-08-1.04180E-18-2.12593E-18
 -1      3508 9.52444E-05-2.85803E-05-2.85703E-05 1.58062E-08-1.46301E-18-1.74994E-18
 -1      3509 9.52438E-05-2.85799E-05-2.85702E-05 1.46089E-08-8.43239E-19-2.53380E-18
 -1      3510 9.52477E-05-2.85820E-05-2.85710E-05 1.53477E-08-1.27733E-18-2.13130E-18
 -1      3511 9.52427E-05-2.85794E-05-2.85700E-05 1.34896E-08-5.87118E-19-2.21247E-18
 -1      3512 9.52422E-05-2.85790E-05-2.85699E-05 1.23263E-08-3.92260E-19-2.18111E-18
 -1      3513 9.52454E-05-2.85810E-05-2.85705E-05 1.32375E-08-7.21601E-19-1.45089E-18
 -1      3514 9.97822E-05-3.25921E-05-2.87589E-05 7.43196E-06-5.70697E-19-4.26742E-19
 -1      3515 1.01256E-04-3.40669E-05-2.87923E-05 7.18280E-06-6.85067E-19-3.30928E-19
 -1      3516 1.03203E-04-3.57929E-05-2.88326E-05 7.01829E-06-8.24486E-19-4.16895E-19
 -1      3517 1.05118E-04-3.75404E-05-2.89654E-05 6.23636E-06-4.83061E-19-3.91779E-19
 -1      3518 1.00936E-04-3.48436E-05-2.83877E-05 8.74697E-06-8.41093E-19-5.42042E-19
 -1      3519 9.48858E-05-3.77351E-05-2.41800E-05-2.44474E-05 1.82067E-18-6.74503E-19
 -1      3520 1.07855E-04-3.95809E-05-2.91774E-05 5.38599E-06-7.45872E-19-9.81957E-19
 -1      3521 1.10096E-04-4.11245E-05-2.95334E-05 3.68268E-06-8.13691E-19-1.13068E-18
 -1      3522 1.05528E-04-3.89557E-05-2.86020E-05 8.11757E-06-9.08474E-19-6.65430E-19
 -1      3523 9.74780E-05-3.02226E-05-2.88025E-05 7.13273E-06-7.13917E-19 1.36959E-19
 -1      3524 9.85142E-05-3.13051E-05-2.87944E-05 7.20422E-06-6.67283E-19-5.85827E-19
 -1      3525 9.77810E-05-3.15755E-05-2.84160E-05 8.40567E-06-6.00327E-19-1.57662E-19
 -1      3526 9.60468E-05-2.86438E-05-2.88767E-05 6.47251E-06-3.78533E-19 5.63236E-19
 -1      3527 9.67263E-05-2.93612E-05-2.88600E-05 6.72498E-06-2.90597E-19 5.11204E-19
 -1      3528 9.58184E-05-2.92928E-05-2.85377E-05 7.59582E-06-7.47906E-19-4.76959E-19
 -1      3529 9.52321E-05-2.76998E-05-2.89391E-05 5.65921E-06-2.81183E-19 4.00249E-19
 -1      3530 9.56515E-05-2.81274E-05-2.89292E-05 6.00192E-06-2.98694E-19 4.37782E-19
 -1      3531 9.47147E-05-2.78528E-05-2.86712E-05 6.61618E-06-1.27418E-20 9.01554E-20
 -1      3532 9.48233E-05-2.72178E-05-2.89744E-05 4.81317E-06-4.55817E-19 5.52518E-19
 -1      3533 9.50669E-05-2.74367E-05-2.89761E-05 5.18764E-06-3.71691E-19 3.97370E-19
 -1      3534 9.41836E-05-2.70519E-05-2.87793E-05 5.61836E-06-3.40806E-19 5.03739E-20
 -1      3535 9.46637E-05-2.70458E-05-2.89819E-05 4.00118E-06-9.30155E-19 1.04446E-18
 -1      3536 9.47951E-05-2.71254E-05-2.89943E-05 4.37163E-06-4.91619E-19 8.43836E-19
 -1      3537 9.40081E-05-2.66987E-05-2.88508E-05 4.67812E-06-6.33294E-19 1.12867E-18
 -1      3538 9.46466E-05-2.70668E-05-2.89665E-05 3.25899E-06-1.07907E-18 1.16527E-18
 -1      3539 9.47101E-05-2.70600E-05-2.89870E-05 3.60415E-06-9.59293E-19 9.61062E-19
 -1      3540 9.40365E-05-2.66360E-05-2.88871E-05 3.82803E-06-8.81978E-19 1.29063E-18
 -1      3541 9.47031E-05-2.71968E-05-2.89352E-05 2.60414E-06-5.48340E-19 9.22512E-19
 -1      3542 9.47277E-05-2.71414E-05-2.89605E-05 2.91240E-06-8.86632E-19 5.62758E-19
 -1      3543 9.41694E-05-2.67472E-05-2.88950E-05 3.08094E-06-5.71299E-19 5.81677E-19
 -1      3544 9.47906E-05-2.73787E-05-2.88946E-05 2.04255E-06 3.51483E-19 1.26821E-18
 -1      3545 9.47946E-05-2.73001E-05-2.89219E-05 2.30891E-06-1.92712E-19 1.16541E-18
 -1      3546 9.43445E-05-2.69505E-05-2.88823E-05 2.43941E-06-5.84842E-19-1.48831E-20
 -1      3547 9.48846E-05-2.75757E-05-2.88501E-05 1.57251E-06 3.18357E-19 1.93431E-19
 -1      3548 9.48787E-05-2.74903E-05-2.88771E-05 1.79643E-06 5.73248E-19 1.33931E-18
 -1      3549 9.45251E-05-2.71911E-05-2.88563E-05 1.89973E-06 3.74968E-19 6.70999E-19
 -1      3550 9.49718E-05-2.77657E-05-2.88055E-05 1.18756E-06-4.04965E-19 5.00326E-19
 -1      3551 9.49624E-05-2.76832E-05-2.88309E-05 1.37135E-06 6.48369E-20 1.40323E-19
 -1      3552 9.46912E-05-2.74348E-05-2.88232E-05 1.45426E-06 4.40610E-20-4.25911E-19
 -1      3553 9.50464E-05-2.79369E-05-2.87636E-05 8.78605E-07-1.51045E-19-2.43957E-20
 -1      3554 9.50367E-05-2.78625E-05-2.87864E-05 1.02620E-06-2.57403E-19 4.30281E-19
 -1      3555 9.48339E-05-2.76615E-05-2.87873E-05 1.09316E-06 1.22466E-19-9.15840E-19
 -1      3556 9.51067E-05-2.80840E-05-2.87259E-05 6.35384E-07-5.17424E-19 4.17964E-19
 -1      3557 9.50983E-05-2.80201E-05-2.87457E-05 7.51502E-07-3.87729E-19 2.34759E-19
 -1      3558 9.49505E-05-2.78612E-05-2.87519E-05 8.05569E-07-5.82191E-19-5.08540E-19
 -1      3559 9.51532E-05-2.82060E-05-2.86932E-05 4.47530E-07-8.53327E-19 9.54220E-19
 -1      3560 9.51466E-05-2.81530E-05-2.87099E-05 5.37073E-07-2.57222E-19 8.09497E-19
 -1      3561 9.50421E-05-2.80302E-05-2.87189E-05 5.80512E-07-5.22384E-19 7.28817E-19
 -1      3562 9.51878E-05-2.83043E-05-2.86655E-05 3.05229E-07-1.33456E-19 7.39450E-19
 -1      3563 9.51830E-05-2.82616E-05-2.86793E-05 3.72893E-07-7.66588E-19 4.18680E-19
 -1      3564 9.51116E-05-2.81688E-05-2.86895E-05 4.07500E-07-7.34495E-19 6.84945E-19
 -1      3565 9.52124E-05-2.83814E-05-2.86427E-05 1.99617E-07-5.92005E-20 6.38507E-19
 -1      3566 9.52092E-05-2.83479E-05-2.86538E-05 2.49670E-07 3.19061E-19 1.19106E-18
 -1      3567 9.51627E-05-2.82794E-05-2.86641E-05 2.76943E-07-2.73240E-19 9.33238E-19
 -1      3568 9.52292E-05-2.84406E-05-2.86243E-05 1.22970E-07-1.22316E-18 3.28372E-19
 -1      3569 9.52272E-05-2.84149E-05-2.86330E-05 1.59141E-07-9.80607E-19 3.14982E-19
 -1      3570 9.51988E-05-2.83655E-05-2.86427E-05 1.80362E-07-1.25341E-19 1.12320E-18
 -1      3571 9.52400E-05-2.84849E-05-2.86098E-05 6.87498E-08-4.33845E-19 3.24259E-20
 -1      3572 9.52389E-05-2.84656E-05-2.86165E-05 9.41969E-08-9.91659E-19 3.20055E-19
 -1      3573 9.52234E-05-2.84311E-05-2.86252E-05 1.10474E-07-6.15870E-19 9.43680E-19
 -1      3574 9.52464E-05-2.85173E-05-2.85985E-05 3.15582E-08 2.41053E-19 4.19032E-19
 -1      3575 9.52460E-05-2.85032E-05-2.86036E-05 4.88866E-08 3.92733E-19 3.18749E-19
 -1      3576 9.52393E-05-2.84798E-05-2.86112E-05 6.11747E-08-1.55322E-19-7.71394E-19
 -1      3577 9.52497E-05-2.85403E-05-2.85899E-05 7.03464E-09 6.42963E-19 2.13231E-19
 -1      3578 9.52498E-05-2.85303E-05-2.85937E-05 1.83455E-08 4.16817E-19 3.68172E-19
 -1      3579 9.52488E-05-2.85152E-05-2.86001E-05 2.74596E-08 1.29420E-19 5.77993E-19
 -1      3580 9.52509E-05-2.85562E-05-2.85835E-05-8.27169E-09-1.03009E-18-1.20994E-19
 -1      3581 9.52512E-05-2.85493E-05-2.85863E-05-1.31932E-09 3.77086E-19 2.41142E-19
 -1      3582 9.52538E-05-2.85402E-05-2.85916E-05 5.30693E-09 2.05063E-19 8.19224E-19
 -1      3583 9.52507E-05-2.85667E-05-2.85789E-05-1.70387E-08-1.39607E-18 9.48585E-19
 -1      3584 9.52512E-05-2.85621E-05-2.85809E-05-1.31611E-08-1.45751E-18 1.06531E-19
 -1      3585 9.52558E-05-2.85573E-05-2.85851E-05-8.45363E-09-1.18518E-18 7.97890E-19
 -1      3586 9.52497E-05-2.85734E-05-2.85756E-05-2.13042E-08-1.56213E-18 1.72776E-18
 -1      3587 9.52503E-05-2.85705E-05-2.85769E-05-1.95279E-08-1.36043E-18 1.21629E-18
 -1      3588 9.52557E-05-2.85684E-05-2.85803E-05-1.62747E-08-1.62292E-18 1.67519E-18
 -1      3589 9.52483E-05-2.85772E-05-2.85733E-05-2.25871E-08-8.67779E-19 6.53000E-19
 -1      3590 9.52488E-05-2.85755E-05-2.85742E-05-2.21894E-08-1.04565E-18 9.94003E-19
 -1      3591 9.52544E-05-2.85753E-05-2.85768E-05-2.00176E-08-7.83912E-19 6.61895E-19
 -1      3592 9.52466E-05-2.85791E-05-2.85718E-05-2.19942E-08 5.71695E-19 2.28613E-20
 -1      3593 9.52472E-05-2.85782E-05-2.85724E-05-2.24514E-08-3.25898E-19 3.93251E-19
 -1      3594 9.52525E-05-2.85792E-05-2.85743E-05-2.10668E-08-2.83242E-19-1.11963E-18
 -1      3595 9.52450E-05-2.85797E-05-2.85708E-05-2.03110E-08 1.41535E-18-5.21223E-19
 -1      3596 9.52455E-05-2.85794E-05-2.85712E-05-2.12540E-08 1.35294E-18 1.16582E-19
 -1      3597 9.52503E-05-2.85809E-05-2.85726E-05-2.04291E-08 1.12331E-18-8.30629E-19
 -1      3598 9.52435E-05-2.85795E-05-2.85703E-05-1.80754E-08-1.91384E-19-2.60935E-19
 -1      3599 9.52439E-05-2.85796E-05-2.85704E-05-1.92539E-08 6.95166E-19-5.51803E-19
 -1      3600 9.52481E-05-2.85814E-05-2.85715E-05-1.88172E-08 9.11588E-19-6.48369E-20
 -1      3601 9.52421E-05-2.85789E-05-2.85699E-05-1.56399E-08-1.30517E-21-3.08933E-19
 -1      3602 9.52425E-05-2.85792E-05-2.85700E-05-1.68922E-08 9.69116E-21 3.96230E-20
 -1      3603 9.52460E-05-2.85810E-05-2.85707E-05-1.67174E-08 9.40936E-21 4.06599E-19
 -1      3604 9.52410E-05-2.85782E-05-2.85698E-05-1.32203E-08-1.68948E-18 5.89241E-19
 -1      3605 9.52413E-05-2.85785E-05-2.85698E-05-1.44511E-08-7.50390E-19-8.26386E-20
 -1      3606 9.52441E-05-2.85802E-05-2.85703E-05-1.44496E-08-6.19746E-19-4.43611E-19
 -1      3607 9.52401E-05-2.85774E-05-2.85697E-05-1.09323E-08-2.52322E-18 1.27087E-18
 -1      3608 9.52403E-05-2.85777E-05-2.85697E-05-1.20820E-08-2.51007E-18 9.29762E-19
 -1      3609 9.52425E-05-2.85792E-05-2.85700E-05-1.22136E-08-2.16368E-18 1.25714E-18
 -1      3610 1.36992E-04-4.76120E-05-3.83415E-05 1.04367E-05-1.75217E-18-5.47554E-18
 -1      3611 7.52748E-05-2.53138E-05-2.09794E-05-2.35747E-05 1.66171E-18 1.12696E-18
 -1      3612 8.49863E-05-3.17002E-05-2.28434E-05-2.42575E-05 1.70894E-18 3.57342E-20
 -1      3613 9.52473E-05-2.85828E-05-2.85705E-05 2.64096E-09-9.47686E-19-3.04769E-19
 -1      3614 9.52476E-05-2.85830E-05-2.85705E-05 9.56934E-10-1.34840E-18 5.08748E-19
 -1      3615 1.18634E-04-3.24777E-05-3.70301E-05-1.16539E-05 1.81630E-18-2.74314E-18
 -1      3616 8.75742E-05-2.75509E-05-2.57983E-05 1.62894E-05 7.90864E-19-1.59838E-18
 -1      3617 1.19935E-04-3.75567E-05-3.55718E-05-1.00687E-05 1.35680E-18-2.70269E-18
 -1      3618 8.68677E-05-3.59198E-05-2.20256E-05 2.84866E-05-2.75675E-18-5.17802E-19
 -1      3619 7.56367E-05-2.81163E-05-2.00720E-05 2.72468E-05-2.41277E-18 7.41048E-19
 -1      3620 1.18077E-04-4.51750E-05-3.11379E-05-5.22623E-07-3.82098E-19-2.11798E-18
 -1      3621 1.19207E-04-4.40053E-05-3.22215E-05-3.31078E-06 1.26334E-19-2.17122E-18
 -1      3622 6.63862E-05-2.21021E-05-1.89251E-05 2.40046E-05-1.83552E-18 1.93002E-18
 -1      3623 5.89775E-05-1.63004E-05-1.81215E-05 1.63407E-05-1.26798E-18 3.26478E-18
 -1      3624 7.47355E-05-2.50551E-05-2.10675E-05 2.25368E-05-1.97152E-18 7.31254E-19
 -1      3625 5.28083E-05-7.21980E-06-1.91703E-05-2.32439E-05-1.89428E-18-4.57535E-18
 -1      3626 1.12586E-04-2.03556E-05-3.97177E-05 1.20985E-05 3.09771E-18 1.47000E-19
 -1      3627 1.14597E-04-2.48357E-05-3.86890E-05 1.41185E-05 2.67075E-18 6.13020E-19
 -1      3628 1.11571E-04-1.65733E-05-4.08790E-05 6.99963E-06 3.57167E-18-5.01023E-19
 -1      3629 1.18651E-04-3.08826E-05-3.76138E-05 1.53392E-05 1.96570E-18 1.12620E-18
 -1      3630 1.12706E-04-4.30142E-05-2.97837E-05 3.34650E-06-8.17562E-19-1.42241E-18
 -1      3631 1.14904E-04-4.37564E-05-3.04571E-05 8.19347E-07-6.11242E-19-1.62311E-18
 -1      3632 1.16756E-04-4.75920E-05-2.97792E-05 6.36096E-06-1.08941E-18-2.24343E-18
 -1      3633 1.10810E-04-4.32489E-05-2.89853E-05 7.38341E-06-1.29128E-18-1.51688E-18
 -1      3634 1.08469E-04-4.72356E-05-2.63736E-05 2.02077E-05-2.23249E-18-2.28356E-18
 -1      3635 9.85786E-05-4.20117E-05-2.39043E-05 2.60131E-05-2.45213E-18-1.72394E-18
 -1      3636 1.18246E-04-3.43007E-05-3.60195E-05 1.36187E-05 1.41875E-18 8.33381E-19
 -1      3637 6.55539E-05-1.71623E-05-2.06113E-05 1.35248E-05-1.01881E-18 2.48572E-18
 -1      3638 5.87053E-05-1.43579E-05-1.87355E-05 1.11154E-05-7.81477E-19 3.66069E-18
 -1      3639 5.98988E-05-1.36767E-05-1.98073E-05 5.12669E-06-1.30251E-19 3.30782E-18
 -1      3640 1.10881E-04-1.37851E-05-4.21122E-05 1.68985E-06 3.73359E-18-1.38924E-18
 -1      3641 5.99007E-05-1.38872E-05-1.96152E-05-6.00887E-06 5.07135E-19 2.90519E-18
 -1      3642 5.91712E-05-1.48715E-05-1.86790E-05-1.23343E-05 1.03677E-18 2.96806E-18
 -1      3643 1.18862E-04-4.29046E-05-3.28696E-05 5.07981E-07-2.64357E-19 3.47025E-19
 -1      3644 9.52413E-05-2.85784E-05-2.85698E-05 1.16604E-08 3.04538E-19-2.48900E-18
 -1      3645 9.52408E-05-2.85780E-05-2.85698E-05 1.07002E-08 1.63513E-19-1.40060E-18
 -1      3646 9.52417E-05-2.85787E-05-2.85699E-05 1.02586E-08 6.57695E-19-4.84874E-19
 -1      3647 9.52434E-05-2.85798E-05-2.85701E-05 1.15364E-08 5.84986E-19-6.44796E-19
 -1      3648 9.52468E-05-2.85824E-05-2.85704E-05 4.46641E-09 2.28129E-19-2.12078E-18
 -1      3649 9.52483E-05-2.85833E-05-2.85707E-05 3.83582E-09-9.64830E-19-5.36391E-19
 -1      3650 9.52461E-05-2.85819E-05-2.85704E-05 5.96597E-09 7.87188E-20-5.56958E-19
 -1      3651 9.52395E-05-2.85770E-05-2.85696E-05-9.87172E-09-1.15239E-18 6.15988E-19
 -1      3652 1.17772E-04-3.77979E-05-3.43078E-05 1.14616E-05 9.44640E-19 6.54465E-19
 -1      3653 9.52468E-05-2.85824E-05-2.85704E-05-4.49617E-09 1.19035E-18-8.22282E-20
 -1      3654 9.52460E-05-2.85819E-05-2.85704E-05-5.99478E-09 6.27486E-19-1.60373E-18
 -1      3655 6.66836E-05-1.96038E-05-2.00444E-05-1.79459E-05 1.12696E-18 2.10069E-18
 -1      3656 9.52489E-05-2.85837E-05-2.85708E-05-1.43160E-11-1.36021E-18 1.41951E-19
 -1      3657 9.52476E-05-2.85830E-05-2.85705E-05-9.79284E-10-7.39398E-19 1.58818E-19
 -1      3658 9.52473E-05-2.85828E-05-2.85705E-05-2.65989E-09 2.40791E-19-1.27386E-19
 -1      3659 9.32249E-05-3.73121E-05-2.38211E-05 2.40162E-05-2.40028E-18-1.04018E-18
 -1      3660 9.52412E-05-2.85783E-05-2.85698E-05-1.00470E-08-1.29330E-18 3.18643E-19
 -1      3661 9.52452E-05-2.85812E-05-2.85702E-05-7.28012E-09 8.33302E-19-1.16635E-18
 -1      3662 9.52442E-05-2.85805E-05-2.85701E-05-8.25946E-09 1.82485E-19-1.31852E-18
 -1      3663 9.52467E-05-2.85822E-05-2.85705E-05-7.05157E-09 8.41771E-19-4.18582E-19
 -1      3664 1.21415E-04-4.24308E-05-3.37396E-05-6.92448E-06 5.88476E-19-2.71284E-18
 -1      3665 1.34105E-04-4.55453E-05-3.80931E-05 1.23035E-05-1.81985E-18-5.03953E-18
 -1      3666 1.15530E-04-4.78498E-05-2.89663E-05 9.92315E-06-1.54107E-18-1.77347E-18
 -1      3667 1.12846E-04-4.84175E-05-2.75221E-05 1.62758E-05-2.05702E-18-1.67592E-18
 -1      3668 1.06407E-04-4.43524E-05-2.66090E-05 1.79569E-05-1.81523E-18-1.57050E-18
 -1      3669 1.11844E-04-4.54804E-05-2.84134E-05 1.05269E-05-1.69316E-18-1.74624E-18
 -1      3670 9.52425E-05-2.85793E-05-2.85699E-05 9.66479E-09 1.06052E-18-2.32375E-19
 -1      3671 9.52437E-05-2.85801E-05-2.85701E-05 1.00310E-08 1.31344E-18-1.70460E-19
 -1      3672 9.52436E-05-2.85801E-05-2.85701E-05 8.76839E-09 7.51500E-19 2.78940E-19
 -1      3673 9.52448E-05-2.85810E-05-2.85702E-05 7.65197E-09-1.51422E-19 5.03411E-19
 -1      3674 9.52447E-05-2.85807E-05-2.85703E-05 1.05681E-08 4.36964E-19 1.97466E-19
 -1      3675 6.11964E-05-1.31962E-05-2.03038E-05-7.23128E-07 2.93317E-19 3.05476E-18
 -1      3676 6.46943E-05-1.49359E-05-2.13679E-05-6.60125E-06 5.56378E-19 2.68126E-18
 -1      3677 6.48662E-05-1.46629E-05-2.14657E-05 3.41684E-06-2.46063E-19 2.73461E-18
 -1      3678 9.80820E-05-3.29578E-05-2.78807E-05 1.03451E-05-9.52880E-19-3.23265E-19
 -1      3679 1.00093E-04-3.49628E-05-2.78887E-05 1.04698E-05-7.69459E-19-4.76059E-19
 -1      3680 7.84444E-05-2.00187E-05-2.50284E-05-1.14811E-05-1.27613E-19 1.76553E-18
 -1      3681 7.96245E-05-1.97306E-05-2.57395E-05-9.82803E-06-7.28229E-19 1.44016E-18
 -1      3682 8.17617E-05-2.00475E-05-2.64384E-05-8.72389E-06-8.31881E-19 1.17779E-18
 -1      3683 8.28614E-05-2.01956E-05-2.69080E-05-7.69261E-06-9.04303E-19 1.05850E-18
 -1      3684 7.82704E-05-1.83847E-05-2.55893E-05-7.27563E-06-8.19662E-19 1.64632E-18
 -1      3685 8.45165E-05-2.06502E-05-2.73711E-05-6.97513E-06-1.20643E-18 8.60200E-19
 -1      3686 8.55050E-05-2.09958E-05-2.76821E-05-6.24520E-06-1.03813E-18 1.19049E-19
 -1      3687 8.19838E-05-1.93833E-05-2.67794E-05-5.78591E-06-1.14060E-18 1.21292E-18
 -1      3688 8.68154E-05-2.15192E-05-2.79870E-05-5.73270E-06-8.88248E-19-1.11354E-19
 -1      3689 8.76600E-05-2.19512E-05-2.81855E-05-5.16806E-06-6.44994E-19-9.02484E-20
 -1      3690 8.49031E-05-2.04907E-05-2.75681E-05-4.77585E-06-9.75736E-19 4.65342E-19
 -1      3691 8.86992E-05-2.24829E-05-2.83820E-05-4.76468E-06-9.98802E-20 1.74687E-20
 -1      3692 8.93954E-05-2.29332E-05-2.85018E-05-4.29552E-06-3.98232E-20 1.53161E-19
 -1      3693 8.72160E-05-2.16177E-05-2.80854E-05-4.02517E-06-1.57951E-19-2.91891E-20
 -1      3694 9.02217E-05-2.34407E-05-2.86234E-05-3.95348E-06 4.02593E-19 6.08859E-20
 -1      3695 9.07814E-05-2.38716E-05-2.86894E-05-3.54996E-06 7.52349E-19 3.66006E-19
 -1      3696 8.90525E-05-2.26977E-05-2.84162E-05-3.39976E-06 4.54853E-19 8.45017E-19
 -1      3697 9.14351E-05-2.43335E-05-2.87598E-05-3.25139E-06 7.71224E-19 3.42302E-19
 -1      3698 9.18762E-05-2.47242E-05-2.87903E-05-2.90078E-06 7.62719E-19 4.97125E-19
 -1      3699 9.05104E-05-2.36965E-05-2.86182E-05-2.84843E-06 6.77025E-19-1.14400E-19
 -1      3700 9.23902E-05-2.51309E-05-2.88265E-05-2.63867E-06 4.43667E-19 4.46391E-19
 -1      3701 9.27322E-05-2.54726E-05-2.88342E-05-2.33602E-06 1.15765E-18 3.44615E-19
 -1      3702 9.16612E-05-2.45892E-05-2.87327E-05-2.35308E-06 5.14446E-19 4.83881E-20
 -1      3703 9.31330E-05-2.58214E-05-2.88481E-05-2.10851E-06 1.03649E-18-4.05611E-19
 -1      3704 9.33945E-05-2.61124E-05-2.88422E-05-1.85091E-06 5.20187E-19-8.50946E-19
 -1      3705 9.25632E-05-2.53673E-05-2.87889E-05-1.91136E-06 6.50012E-19-2.67654E-20
 -1      3706 9.37041E-05-2.64051E-05-2.88422E-05-1.65682E-06 2.02817E-20-3.19012E-19
 -1      3707 9.39017E-05-2.66477E-05-2.88287E-05-1.44133E-06-2.57399E-19-1.68515E-19
 -1      3708 9.32638E-05-2.60303E-05-2.88073E-05-1.52454E-06 3.28775E-19-4.35796E-19
 -1      3709 9.41383E-05-2.68889E-05-2.88206E-05-1.27902E-06-2.20526E-19 5.85753E-20
 -1      3710 9.42859E-05-2.70877E-05-2.88036E-05-1.10205E-06-2.65695E-19-1.82386E-19
 -1      3711 9.38027E-05-2.65845E-05-2.88026E-05-1.19313E-06-3.23308E-19-1.59359E-19
 -1      3712 9.44647E-05-2.72833E-05-2.87913E-05-9.69060E-07-7.12605E-19 6.90001E-20
 -1      3713 9.45736E-05-2.74437E-05-2.87734E-05-8.26398E-07-9.97190E-19 2.57184E-19
 -1      3714 9.42129E-05-2.70401E-05-2.87845E-05-9.15592E-07-2.40713E-19 3.39661E-19
 -1      3715 9.47071E-05-2.76000E-05-2.87594E-05-7.19618E-07-5.88410E-19 8.73213E-19
 -1      3716 9.47863E-05-2.77275E-05-2.87422E-05-6.06697E-07-2.07908E-19 1.09849E-18
 -1      3717 9.45214E-05-2.74088E-05-2.87597E-05-6.88275E-07-4.57774E-19 4.03732E-19
 -1      3718 9.48846E-05-2.78507E-05-2.87281E-05-5.22660E-07-3.34832E-19 4.47848E-19
 -1      3719 9.49414E-05-2.79506E-05-2.87124E-05-4.34898E-07-7.22803E-19 9.97623E-19
 -1      3720 9.47504E-05-2.77028E-05-2.87327E-05-5.06041E-07-3.97457E-19-6.58305E-19
 -1      3721 9.50125E-05-2.80462E-05-2.86992E-05-3.70064E-07-1.09278E-18 1.82140E-18
 -1      3722 9.50525E-05-2.81235E-05-2.86854E-05-3.03109E-07-8.68443E-19 1.62093E-18
 -1      3723 9.49178E-05-2.79338E-05-2.87060E-05-3.62949E-07-7.60975E-19 5.53734E-19
 -1      3724 9.51031E-05-2.81967E-05-2.86736E-05-2.54096E-07-1.15382E-18 1.24239E-18
 -1      3725 9.51306E-05-2.82556E-05-2.86619E-05-2.03993E-07-8.45131E-19 6.14233E-19
 -1      3726 9.50381E-05-2.81127E-05-2.86813E-05-2.52873E-07-1.51947E-18 1.70635E-18
 -1      3727 9.51656E-05-2.83107E-05-2.86516E-05-1.67724E-07-6.03979E-19 8.27396E-20
 -1      3728 9.51840E-05-2.83548E-05-2.86419E-05-1.31006E-07-5.26343E-19 2.37068E-19
 -1      3729 9.51227E-05-2.82492E-05-2.86594E-05-1.69943E-07-1.09719E-18 1.51802E-18
 -1      3730 9.52076E-05-2.83957E-05-2.86333E-05-1.04789E-07-2.17061E-20 2.88009E-19
 -1      3731 9.52193E-05-2.84282E-05-2.86254E-05-7.85020E-08-1.99995E-19 1.24678E-18
 -1      3732 9.51806E-05-2.83516E-05-2.86406E-05-1.08824E-07-3.27572E-19 7.11982E-19
 -1      3733 9.52345E-05-2.84579E-05-2.86182E-05-6.00533E-08-9.19362E-19 7.47349E-19
 -1      3734 9.52416E-05-2.84814E-05-2.86119E-05-4.17433E-08-1.38122E-18 6.70113E-19
 -1      3735 9.52189E-05-2.84271E-05-2.86248E-05-6.48563E-08-4.81064E-19-5.57891E-19
 -1      3736 9.52508E-05-2.85025E-05-2.86062E-05-2.91764E-08-1.08285E-18 9.63599E-19
 -1      3737 9.52547E-05-2.85191E-05-2.86012E-05-1.68501E-08-1.10128E-18 9.45202E-19
 -1      3738 9.52431E-05-2.84817E-05-2.86119E-05-3.40974E-08-1.10866E-18 3.39837E-19
 -1      3739 9.52597E-05-2.85337E-05-2.85967E-05-8.64291E-09-1.34034E-18 1.35248E-18
 -1      3740 9.52614E-05-2.85451E-05-2.85929E-05-7.12656E-10-8.06464E-19 1.13897E-18
 -1      3741 9.52571E-05-2.85202E-05-2.86015E-05-1.33019E-08-5.69095E-19 1.46453E-18
 -1      3742 9.52636E-05-2.85548E-05-2.85893E-05 4.33704E-09-9.04576E-19 1.81523E-18
 -1      3743 9.52638E-05-2.85623E-05-2.85864E-05 9.11133E-09-5.45426E-19 2.48619E-18
 -1      3744 9.52643E-05-2.85466E-05-2.85933E-05 1.40406E-10-2.16267E-19 2.80350E-18
 -1      3745 9.52641E-05-2.85685E-05-2.85837E-05 1.19337E-08-5.71376E-19 2.50735E-18
 -1      3746 9.52635E-05-2.85732E-05-2.85816E-05 1.45026E-08-3.64833E-19 2.51115E-18
 -1      3747 9.52668E-05-2.85640E-05-2.85869E-05 8.28343E-09-3.49933E-19 3.58987E-18
 -1      3748 9.52627E-05-2.85769E-05-2.85796E-05 1.58030E-08-5.00106E-19 2.42583E-18
 -1      3749 9.52616E-05-2.85796E-05-2.85780E-05 1.68807E-08-1.83008E-19 2.07397E-18
 -1      3750 9.52663E-05-2.85749E-05-2.85821E-05 1.27104E-08-5.80703E-19 2.58269E-18
 -1      3751 9.52601E-05-2.85816E-05-2.85765E-05 1.71825E-08 6.45015E-19 4.71929E-19
 -1      3752 9.52588E-05-2.85829E-05-2.85754E-05 1.72950E-08 1.45415E-18-6.74845E-19
 -1      3753 9.52641E-05-2.85812E-05-2.85784E-05 1.46163E-08-6.72902E-19 4.76495E-19
 -1      3754 9.52570E-05-2.85837E-05-2.85743E-05 1.69782E-08 1.33233E-18-1.47838E-18
 -1      3755 9.52556E-05-2.85841E-05-2.85735E-05 1.65031E-08-2.75749E-19-1.24753E-18
 -1      3756 9.52610E-05-2.85843E-05-2.85758E-05 1.48843E-08 7.51076E-19-2.32509E-18
 -1      3757 9.52538E-05-2.85841E-05-2.85727E-05 1.58353E-08-1.90316E-18-1.14096E-18
 -1      3758 9.52525E-05-2.85840E-05-2.85722E-05 1.50357E-08-1.40481E-18-1.48652E-18
 -1      3759 9.52575E-05-2.85853E-05-2.85738E-05 1.41519E-08-6.74952E-19-1.17280E-18
 -1      3760 9.52507E-05-2.85835E-05-2.85716E-05 1.41985E-08-4.27336E-19-1.38294E-18
 -1      3761 9.52495E-05-2.85831E-05-2.85713E-05 1.32521E-08-6.55498E-19-8.68787E-19
 -1      3762 9.52539E-05-2.85850E-05-2.85724E-05 1.28623E-08-1.23380E-18-4.43429E-19
 -1      3763 9.52479E-05-2.85824E-05-2.85709E-05 1.23670E-08-4.40190E-19-5.93463E-19
 -1      3764 9.52468E-05-2.85819E-05-2.85707E-05 1.14035E-08 5.04792E-19 5.11765E-19
 -1      3765 9.52506E-05-2.85839E-05-2.85715E-05 1.13213E-08 3.58677E-20 4.12637E-20
 -1      3766 9.39542E-05-2.79409E-05-2.82873E-05 7.78076E-06-4.98639E-19-3.55597E-19
 -1      3767 9.47157E-05-2.88429E-05-2.82056E-05 8.29440E-06-6.65620E-19-1.37979E-19
 -1      3768 9.54192E-05-2.99089E-05-2.80628E-05 9.12551E-06-7.79361E-19-1.99256E-19
 -1      3769 9.67198E-05-3.13170E-05-2.79986E-05 9.52778E-06-7.05753E-19-3.43304E-19
 -1      3770 9.52803E-05-3.12313E-05-2.74829E-05 1.12249E-05-8.60714E-19-6.82537E-19
 -1      3771 9.32976E-05-2.84988E-05-2.77924E-05 9.37892E-06-7.96036E-19-3.78356E-19
 -1      3772 1.02436E-04-3.72542E-05-2.78754E-05 1.09343E-05-1.03745E-18-6.86229E-19
 -1      3773 1.05126E-04-3.97443E-05-2.80188E-05 1.05824E-05-1.33901E-18-1.01512E-18
 -1      3774 9.89314E-05-3.54185E-05-2.72877E-05 1.29111E-05-9.57296E-19-9.40536E-19
 -1      3775 9.32750E-05-2.68039E-05-2.84888E-05 6.50216E-06-6.66201E-20-3.33113E-20
 -1      3776 9.36718E-05-2.73243E-05-2.84164E-05 7.03288E-06-2.87056E-19 3.35584E-20
 -1      3777 9.23797E-05-2.68546E-05-2.80972E-05 7.68831E-06-6.08786E-19-1.39128E-19
 -1      3778 9.30867E-05-2.62636E-05-2.86429E-05 5.35589E-06-8.40800E-19 7.10669E-19
 -1      3779 9.32516E-05-2.65113E-05-2.85901E-05 5.85428E-06-4.49270E-19 3.69381E-19
 -1      3780 9.21202E-05-2.59883E-05-2.83495E-05 6.23540E-06-6.68303E-19 2.45551E-19
 -1      3781 9.31774E-05-2.61141E-05-2.87472E-05 4.35670E-06-1.03752E-18 1.27475E-18
 -1      3782 9.32048E-05-2.61820E-05-2.87148E-05 4.80641E-06-8.91498E-19 9.45577E-19
 -1      3783 9.22398E-05-2.56543E-05-2.85385E-05 5.01885E-06-1.11967E-18 6.12846E-19
 -1      3784 9.34106E-05-2.62059E-05-2.88081E-05 3.50016E-06-5.51014E-19 7.10507E-19
 -1      3785 9.33633E-05-2.61633E-05-2.87933E-05 3.89597E-06-5.34029E-19 1.05510E-18
 -1      3786 9.25571E-05-2.56626E-05-2.86681E-05 4.00899E-06-5.69357E-19 5.23481E-19
 -1      3787 9.37009E-05-2.64331E-05-2.88349E-05 2.77578E-06-5.12472E-19 1.46657E-19
 -1      3788 9.36188E-05-2.63292E-05-2.88334E-05 3.11705E-06-1.58204E-19 6.24970E-19
 -1      3789 9.29575E-05-2.58731E-05-2.87481E-05 3.17419E-06-3.16432E-19 6.21040E-20
 -1      3790 9.39968E-05-2.67230E-05-2.88370E-05 2.17145E-06-5.82955E-19 6.67658E-20
 -1      3791 9.39044E-05-2.65912E-05-2.88447E-05 2.46027E-06-7.43902E-19 1.47873E-19
 -1      3792 9.33716E-05-2.61893E-05-2.87895E-05 2.48804E-06-5.56300E-19 4.55186E-19
 -1      3793 9.42698E-05-2.70278E-05-2.88226E-05 1.67411E-06 4.31088E-19-2.42060E-19
 -1      3794 9.41808E-05-2.68898E-05-2.88360E-05 1.91427E-06-1.23653E-19 4.67258E-20
 -1      3795 9.37591E-05-2.65455E-05-2.88029E-05 1.92810E-06-3.88199E-19-4.30964E-20
 -1      3796 9.45064E-05-2.73189E-05-2.87985E-05 1.27053E-06 1.02209E-19-4.52924E-19
 -1      3797 9.44277E-05-2.71876E-05-2.88148E-05 1.46684E-06 5.52457E-19 8.73141E-22
 -1      3798 9.41001E-05-2.68997E-05-2.87975E-05 1.47510E-06 3.24617E-20-4.75328E-19
 -1      3799 9.47024E-05-2.75805E-05-2.87697E-05 9.47748E-07-7.46950E-20-1.23853E-18
 -1      3800 9.46367E-05-2.74628E-05-2.87868E-05 1.10552E-06 3.35283E-20-8.26342E-19
 -1      3801 9.43870E-05-2.72275E-05-2.87804E-05 1.11234E-06 5.50438E-19-2.81470E-19
 -1      3802 9.48590E-05-2.78056E-05-2.87397E-05 6.93461E-07-8.09730E-19-5.84831E-19
 -1      3803 9.48065E-05-2.77047E-05-2.87563E-05 8.18147E-07-4.18869E-19-7.51150E-19
 -1      3804 9.46200E-05-2.75162E-05-2.87570E-05 8.25242E-07-5.13178E-19-3.04620E-19
 -1      3805 9.49802E-05-2.79931E-05-2.87108E-05 4.96251E-07-8.66416E-19 1.08101E-19
 -1      3806 9.49398E-05-2.79092E-05-2.87261E-05 5.93118E-07-7.88952E-19-4.55238E-20
 -1      3807 9.48036E-05-2.77612E-05-2.87310E-05 6.00928E-07-9.16087E-19-4.49694E-19
 -1      3808 9.50714E-05-2.81448E-05-2.86844E-05 3.45809E-07-1.00466E-18 4.53717E-19
 -1      3809 9.50413E-05-2.80771E-05-2.86979E-05 4.19749E-07-8.38069E-19 6.08877E-19
 -1      3810 9.49444E-05-2.79632E-05-2.87052E-05 4.28118E-07-1.11945E-18 2.23327E-19
 -1      3811 9.51380E-05-2.82647E-05-2.86611E-05 2.33055E-07-5.97624E-19 8.42614E-19
 -1      3812 9.51163E-05-2.82114E-05-2.86727E-05 2.88453E-07-1.10286E-18 2.75665E-19
 -1      3813 9.50495E-05-2.81254E-05-2.86809E-05 2.97010E-07-1.15236E-18 3.20748E-19
 -1      3814 9.51850E-05-2.83573E-05-2.86413E-05 1.50172E-07-5.74767E-20 1.95473E-18
 -1      3815 9.51700E-05-2.83162E-05-2.86510E-05 1.90844E-07 5.52972E-20 2.14623E-18
 -1      3816 9.51257E-05-2.82528E-05-2.86593E-05 1.99200E-07-9.26143E-19 1.29772E-18
 -1      3817 9.52170E-05-2.84272E-05-2.86248E-05 9.05687E-08-6.54948E-20 1.34521E-18
 -1      3818 9.52071E-05-2.83963E-05-2.86327E-05 1.19754E-07 3.86162E-20 1.92728E-18
 -1      3819 9.51792E-05-2.83505E-05-2.86405E-05 1.27593E-07-5.83478E-21 2.20625E-18
 -1      3820 9.52378E-05-2.84788E-05-2.86114E-05 4.88005E-08-4.47633E-19 8.72458E-19
 -1      3821 9.52316E-05-2.84560E-05-2.86177E-05 6.91869E-08-2.87764E-20 8.79296E-19
 -1      3822 9.52155E-05-2.84239E-05-2.86247E-05 7.62929E-08 3.49234E-19 2.97346E-18
 -1      3823 9.52503E-05-2.85159E-05-2.86007E-05 2.04503E-08 1.57575E-19 1.13391E-18
 -1      3824 9.52468E-05-2.84996E-05-2.86057E-05 3.42235E-08-1.72926E-19 1.02314E-18
 -1      3825 9.52389E-05-2.84778E-05-2.86118E-05 4.04792E-08-4.38918E-19 2.51095E-18
 -1      3826 9.52570E-05-2.85419E-05-2.85924E-05 1.99944E-09-9.73592E-20 1.47592E-18
 -1      3827 9.52554E-05-2.85305E-05-2.85962E-05 1.09020E-08 2.01880E-19 1.29243E-18
 -1      3828 9.52530E-05-2.85164E-05-2.86013E-05 1.62715E-08 3.35920E-19 1.77950E-18
 -1      3829 9.52598E-05-2.85594E-05-2.85860E-05-9.30684E-09-1.61366E-18 7.01815E-19
 -1      3830 9.52594E-05-2.85518E-05-2.85888E-05-3.91074E-09-9.52913E-19 6.04850E-19
 -1      3831 9.52604E-05-2.85432E-05-2.85931E-05 5.96746E-10-3.12698E-19 1.77031E-18
 -1      3832 9.52600E-05-2.85707E-05-2.85812E-05-1.55869E-08-1.40657E-18 7.74351E-19
 -1      3833 9.52604E-05-2.85658E-05-2.85833E-05-1.26491E-08-1.31460E-18 7.84430E-19
 -1      3834 9.52634E-05-2.85611E-05-2.85867E-05-8.93925E-09-1.70975E-18 4.90773E-19
 -1      3835 9.52585E-05-2.85775E-05-2.85776E-05-1.84397E-08 2.87303E-19-4.58516E-19
 -1      3836 9.52594E-05-2.85746E-05-2.85791E-05-1.71703E-08-3.73582E-19 7.53694E-19
 -1      3837 9.52634E-05-2.85725E-05-2.85818E-05-1.41708E-08-4.03919E-19-1.66471E-18
 -1      3838 9.52563E-05-2.85812E-05-2.85750E-05-1.90483E-08-1.76756E-19-9.48220E-19
 -1      3839 9.52573E-05-2.85797E-05-2.85761E-05-1.88642E-08 8.22231E-20-4.51983E-19
 -1      3840 9.52617E-05-2.85793E-05-2.85782E-05-1.64777E-08 2.29990E-19 6.05646E-20
 -1      3841 9.52536E-05-2.85827E-05-2.85732E-05-1.82688E-08 1.09583E-18-6.35163E-19
 -1      3842 9.52547E-05-2.85821E-05-2.85739E-05-1.87496E-08 2.14981E-19-7.47851E-19
 -1      3843 9.52590E-05-2.85828E-05-2.85756E-05-1.68781E-08-3.82783E-19 1.78085E-19
 -1      3844 9.52508E-05-2.85829E-05-2.85720E-05-1.67048E-08 1.00517E-19 6.32935E-20
 -1      3845 9.52520E-05-2.85829E-05-2.85725E-05-1.75558E-08 1.23973E-18 2.05584E-19
 -1      3846 9.52559E-05-2.85841E-05-2.85737E-05-1.61080E-08 6.86265E-19-8.07091E-19
 -1      3847 9.52482E-05-2.85822E-05-2.85711E-05-1.47618E-08-2.57084E-19 1.32859E-18
 -1      3848 9.52493E-05-2.85826E-05-2.85714E-05-1.57861E-08-1.68042E-19 8.66681E-19
 -1      3849 9.52527E-05-2.85841E-05-2.85723E-05-1.46812E-08-8.71286E-19 1.11140E-18
 -1      3850 9.52459E-05-2.85812E-05-2.85706E-05-1.27097E-08-3.32797E-19 1.49682E-18
 -1      3851 9.52468E-05-2.85817E-05-2.85708E-05-1.37752E-08 5.44947E-21 1.49081E-18
 -1      3852 9.52497E-05-2.85833E-05-2.85714E-05-1.29470E-08-1.79181E-19 2.88654E-18
 -1      3853 9.52483E-05-2.85833E-05-2.85707E-05-3.87179E-09 2.97636E-19-8.68438E-19
 -1      3854 7.20789E-05-2.06103E-05-2.20935E-05-1.64153E-05 1.07103E-18 1.63006E-18
 -1      3855 1.18356E-04-3.65501E-05-3.50435E-05 1.28235E-05 1.10130E-18 8.73040E-19
 -1      3856 9.52424E-05-2.85792E-05-2.85699E-05-9.58426E-09-9.41671E-19 8.11247E-20
 -1      3857 8.02326E-05-2.76179E-05-2.26550E-05 2.19269E-05-2.22561E-18-2.94026E-19
 -1      3858 7.29267E-05-2.20389E-05-2.17298E-05 1.85975E-05-1.65016E-18 5.46932E-19
 -1      3859 6.88353E-05-1.65990E-05-2.21247E-05-1.08003E-05 6.53696E-19 2.69804E-18
 -1      3860 7.53037E-05-2.08730E-05-2.33135E-05-1.52388E-05 5.49178E-19 1.76714E-18
 -1      3861 7.63758E-05-1.99011E-05-2.43171E-05-1.26856E-05 4.33843E-19 1.53709E-18
 -1      3862 6.85557E-05-1.59003E-05-2.26418E-05-6.37574E-06 3.43442E-19 2.63752E-18
 -1      3863 9.72775E-05-3.84051E-05-2.53072E-05 2.04264E-05-1.97564E-18-1.46289E-18
 -1      3864 8.84126E-05-3.25718E-05-2.37448E-05 2.23410E-05-2.46333E-18-4.36321E-19
 -1      3865 9.52438E-05-2.85802E-05-2.85701E-05-9.82300E-09-4.61864E-19 1.04801E-19
 -1      3866 7.42573E-05-1.75653E-05-2.41212E-05-9.18032E-06 1.37305E-19 2.24036E-18
 -1      3867 9.52469E-05-2.85821E-05-2.85707E-05 9.77167E-09 6.13596E-19 5.22514E-20
 -1      3868 8.61779E-05-2.94723E-05-2.41750E-05 1.92160E-05-1.99470E-18-3.62507E-19
 -1      3869 1.07554E-04-4.19082E-05-2.81131E-05 1.07730E-05-1.61940E-18-1.49777E-18
 -1      3870 9.52501E-05-2.85842E-05-2.85711E-05-3.22449E-09-1.49118E-18-2.87300E-18
 -1      3871 9.52495E-05-2.85838E-05-2.85710E-05-5.10445E-09 2.52358E-19-2.21707E-18
 -1      3872 9.52438E-05-2.85801E-05-2.85702E-05-1.07078E-08-1.17795E-18 6.90466E-19
 -1      3873 9.52446E-05-2.85806E-05-2.85703E-05-1.17215E-08-5.13744E-19 1.18168E-18
 -1      3874 9.52464E-05-2.85820E-05-2.85705E-05 7.45973E-09 6.23099E-19-2.13681E-19
 -1      3875 9.52505E-05-2.85845E-05-2.85711E-05 9.72858E-10-2.13025E-18 8.65343E-19
 -1      3876 9.52505E-05-2.85845E-05-2.85711E-05-1.01330E-09-1.78981E-18-9.27478E-19
 -1      3877 9.52517E-05-2.85851E-05-2.85714E-05-2.28015E-09-2.44635E-18-2.70433E-18
 -1      3878 9.52504E-05-2.85842E-05-2.85712E-05-6.24623E-09 8.11803E-20-1.54809E-18
 -1      3879 9.52486E-05-2.85832E-05-2.85708E-05-6.80502E-09 9.56127E-19-4.15877E-20
 -1      3880 9.52475E-05-2.85825E-05-2.85707E-05-8.12190E-09 8.19537E-19-2.72362E-19
 -1      3881 1.02261E-04-4.02865E-05-2.64685E-05 1.69389E-05-1.74370E-18-1.72323E-18
 -1      3882 9.73661E-05-3.61496E-05-2.62536E-05 1.65125E-05-1.63598E-18-1.38815E-18
 -1      3883 9.52495E-05-2.85839E-05-2.85710E-05 5.05427E-09-6.18936E-19-2.31232E-20
 -1      3884 9.52501E-05-2.85843E-05-2.85711E-05 3.19423E-09-2.39598E-18 1.50990E-18
 -1      3885 9.52517E-05-2.85851E-05-2.85714E-05 2.22084E-09-2.48787E-18 4.23316E-19
 -1      3886 7.07995E-05-1.95198E-05-2.18718E-05 1.54118E-05-1.59902E-18 1.18563E-18
 -1      3887 6.93527E-05-1.75009E-05-2.22632E-05 1.08433E-05-1.16810E-18 1.58690E-18
 -1      3888 7.65258E-05-2.19159E-05-2.33091E-05 1.50557E-05-1.52076E-18 2.31561E-19
 -1      3889 9.52470E-05-2.85821E-05-2.85707E-05-1.11215E-08-4.12533E-19 1.84461E-18
 -1      3890 9.33411E-05-3.12463E-05-2.66196E-05 1.37127E-05-9.51444E-19-9.81313E-19
 -1      3891 9.56956E-05-3.36922E-05-2.65252E-05 1.47207E-05-1.24210E-18-1.14016E-18
 -1      3892 9.11499E-05-3.17585E-05-2.55288E-05 1.72818E-05-1.58876E-18-7.12229E-19
 -1      3893 9.52458E-05-2.85814E-05-2.85704E-05-9.30038E-09 4.86529E-19-2.91825E-19
 -1      3894 7.99132E-05-1.85883E-05-2.63093E-05-3.96700E-06-9.33885E-19 1.33051E-18
 -1      3895 8.16115E-05-1.91624E-05-2.68028E-05-3.51559E-06-1.38994E-18 9.91933E-19
 -1      3896 8.33349E-05-1.98328E-05-2.72351E-05-3.39812E-06-1.36705E-18 8.94450E-19
 -1      3897 8.46633E-05-2.04221E-05-2.75588E-05-3.08692E-06-7.32204E-19 7.79944E-19
 -1      3898 8.18274E-05-1.91066E-05-2.68297E-05-1.67942E-06-1.42976E-18 1.35169E-18
 -1      3899 8.59871E-05-2.10454E-05-2.78473E-05-2.99146E-06-1.39451E-19 6.31874E-19
 -1      3900 8.70331E-05-2.16057E-05-2.80588E-05-2.73559E-06 1.42909E-19 8.83474E-19
 -1      3901 8.48029E-05-2.04179E-05-2.75555E-05-1.71377E-06-5.58191E-19 1.62414E-18
 -1      3902 8.80736E-05-2.21854E-05-2.82485E-05-2.62579E-06 6.24097E-20 7.17402E-19
 -1      3903 8.89038E-05-2.27111E-05-2.83818E-05-2.39469E-06 1.43382E-19 6.15983E-19
 -1      3904 8.71172E-05-2.16236E-05-2.80404E-05-1.66323E-06-6.87759E-20 1.16834E-18
 -1      3905 8.97262E-05-2.32388E-05-2.85027E-05-2.27510E-06 3.67648E-19 8.87296E-19
 -1      3906 9.03825E-05-2.37146E-05-2.85824E-05-2.05828E-06 5.37924E-19 7.03136E-19
 -1      3907 8.89464E-05-2.27346E-05-2.83563E-05-1.55870E-06 1.76200E-19 8.63348E-19
 -1      3908 9.10369E-05-2.41867E-05-2.86558E-05-1.93218E-06 1.50978E-19 2.36125E-19
 -1      3909 9.15526E-05-2.46076E-05-2.86992E-05-1.73093E-06 4.60378E-19 9.03252E-20
 -1      3910 9.04005E-05-2.37347E-05-2.85556E-05-1.39936E-06 2.84371E-19 9.88010E-19
 -1      3911 9.20706E-05-2.50199E-05-2.87400E-05-1.60639E-06 2.57455E-19-1.88612E-19
 -1      3912 9.24726E-05-2.53835E-05-2.87593E-05-1.42376E-06-1.17677E-19-8.89441E-19
 -1      3913 9.15564E-05-2.46233E-05-2.86738E-05-1.21426E-06-5.73195E-20-5.23833E-19
 -1      3914 9.28800E-05-2.57364E-05-2.87784E-05-1.30657E-06 3.31851E-19-7.81270E-19
 -1      3915 9.31905E-05-2.60445E-05-2.87824E-05-1.14528E-06 6.46656E-19-4.65565E-19
 -1      3916 9.24693E-05-2.53954E-05-2.87370E-05-1.02119E-06 1.94298E-19-1.59192E-18
 -1      3917 9.35080E-05-2.63409E-05-2.87875E-05-1.03974E-06 8.29047E-20-1.45713E-19
 -1      3918 9.37455E-05-2.65973E-05-2.87823E-05-9.01159E-07-5.87238E-19-1.09314E-20
 -1      3919 9.31848E-05-2.60537E-05-2.87636E-05-8.34580E-07 8.48367E-20-8.57680E-19
 -1      3920 9.39902E-05-2.68421E-05-2.87787E-05-8.09628E-07-6.31986E-19 4.65155E-20
 -1      3921 9.41698E-05-2.70519E-05-2.87684E-05-6.93585E-07-4.71279E-19-1.37120E-19
 -1      3922 9.37400E-05-2.66051E-05-2.87669E-05-6.64195E-07-7.01858E-19-4.58514E-19
 -1      3923 9.43562E-05-2.72508E-05-2.87599E-05-6.16744E-07-3.76650E-19-2.00680E-19
 -1      3924 9.44903E-05-2.74200E-05-2.87473E-05-5.21881E-07-3.78104E-19 1.43706E-20
 -1      3925 9.41658E-05-2.70590E-05-2.87562E-05-5.15372E-07-6.47477E-19-2.76673E-19
 -1      3926 9.46303E-05-2.75790E-05-2.87365E-05-4.59192E-07-8.33241E-19-4.99003E-19
 -1      3927 9.47291E-05-2.77133E-05-2.87232E-05-3.83368E-07-2.61531E-19-4.78499E-19
 -1      3928 9.44882E-05-2.74267E-05-2.87378E-05-3.89994E-07-5.90452E-19-4.78994E-19
 -1      3929 9.48325E-05-2.78387E-05-2.87117E-05-3.33538E-07 3.67350E-19-1.07105E-18
 -1      3930 9.49041E-05-2.79437E-05-2.86990E-05-2.74219E-07-5.62420E-19-2.38940E-19
 -1      3931 9.47288E-05-2.77198E-05-2.87160E-05-2.87568E-07-1.92756E-20-1.00112E-18
 -1      3932 9.49793E-05-2.80409E-05-2.86878E-05-2.35569E-07-1.37847E-18-1.39444E-19
 -1      3933 9.50301E-05-2.81219E-05-2.86762E-05-1.90131E-07-1.37781E-18-1.50174E-20
 -1      3934 9.49052E-05-2.79500E-05-2.86936E-05-2.06146E-07-5.32857E-19-1.57151E-18
 -1      3935 9.50835E-05-2.81961E-05-2.86659E-05-1.60863E-07-1.52067E-18 5.81018E-19
 -1      3936 9.51188E-05-2.82575E-05-2.86558E-05-1.26797E-07-1.26021E-18 4.57452E-19
 -1      3937 9.50322E-05-2.81278E-05-2.86723E-05-1.43042E-07-1.00425E-18-7.23415E-19
 -1      3938 9.51558E-05-2.83132E-05-2.86467E-05-1.05172E-07-6.76619E-19 3.57400E-19
 -1      3939 9.51796E-05-2.83590E-05-2.86381E-05-8.02047E-08-2.34216E-19-4.85183E-19
 -1      3940 9.51215E-05-2.82629E-05-2.86529E-05-9.53253E-08-1.27020E-18 2.17427E-19
 -1      3941 9.52044E-05-2.84001E-05-2.86303E-05-6.46459E-08-8.24663E-19-2.81126E-19
 -1      3942 9.52197E-05-2.84336E-05-2.86231E-05-4.68010E-08-1.22325E-18-7.35366E-19
 -1      3943 9.51825E-05-2.83639E-05-2.86361E-05-6.01392E-08-5.63154E-19 8.33220E-20
 -1      3944 9.52356E-05-2.84632E-05-2.86166E-05-3.59403E-08-8.15870E-19 1.94589E-19
 -1      3945 9.52449E-05-2.84872E-05-2.86108E-05-2.35551E-08-6.28810E-19 7.64257E-19
 -1      3946 9.52226E-05-2.84379E-05-2.86218E-05-3.48862E-08-4.08679E-19-1.77498E-19
 -1      3947 9.52544E-05-2.85081E-05-2.86055E-05-1.62484E-08-5.22922E-19 1.12345E-18
 -1      3948 9.52595E-05-2.85248E-05-2.86008E-05-7.96004E-09 6.00908E-19 2.09592E-18
 -1      3949 9.52477E-05-2.84909E-05-2.86099E-05-1.73142E-08-1.15180E-19 7.70203E-19
 -1      3950 9.52646E-05-2.85391E-05-2.85966E-05-3.27823E-09 4.05284E-19 1.25792E-18
 -1      3951 9.52668E-05-2.85504E-05-2.85929E-05 2.00387E-09-3.23412E-19 1.93469E-18
 -1      3952 9.52620E-05-2.85279E-05-2.86003E-05-5.54124E-09-2.51370E-19 6.47231E-19
 -1      3953 9.52689E-05-2.85598E-05-2.85896E-05 4.79665E-09-8.02814E-19 1.51830E-18
 -1      3954 9.52693E-05-2.85671E-05-2.85867E-05 7.92640E-09-3.46245E-19 1.71353E-18
 -1      3955 9.52690E-05-2.85529E-05-2.85926E-05 1.95912E-09-2.70039E-19-7.80116E-19
 -1      3956 9.52694E-05-2.85729E-05-2.85842E-05 9.39915E-09-1.46365E-18 1.61328E-18
 -1      3957 9.52686E-05-2.85773E-05-2.85820E-05 1.10313E-08-1.52274E-18 6.36863E-19
 -1      3958 9.52711E-05-2.85691E-05-2.85866E-05 6.39313E-09-1.06302E-18-5.69611E-19
 -1      3959 9.52676E-05-2.85807E-05-2.85801E-05 1.16139E-08-1.24869E-18 4.23354E-19
 -1      3960 9.52661E-05-2.85831E-05-2.85785E-05 1.22400E-08-8.40153E-19-9.44923E-19
 -1      3961 9.52701E-05-2.85789E-05-2.85820E-05 8.69133E-09-1.76754E-18-4.77699E-19
 -1      3962 9.52644E-05-2.85847E-05-2.85770E-05 1.22493E-08-1.46384E-19-6.51598E-19
 -1      3963 9.52627E-05-2.85857E-05-2.85758E-05 1.22299E-08 2.08355E-19-1.45889E-18
 -1      3964 9.52673E-05-2.85843E-05-2.85785E-05 9.55456E-09-2.88078E-19 7.23242E-19
 -1      3965 9.52606E-05-2.85862E-05-2.85747E-05 1.18950E-08 6.22719E-19-1.58398E-18
 -1      3966 9.52588E-05-2.85863E-05-2.85739E-05 1.14886E-08-4.48625E-19-4.14791E-19
 -1      3967 9.52636E-05-2.85867E-05-2.85759E-05 9.49725E-09 4.20420E-19 8.60492E-19
 -1      3968 9.52568E-05-2.85861E-05-2.85731E-05 1.09719E-08-1.41145E-18 3.66305E-19
 -1      3969 9.52550E-05-2.85857E-05-2.85725E-05 1.03558E-08-7.30404E-19 7.32100E-19
 -1      3970 9.52595E-05-2.85870E-05-2.85740E-05 8.89608E-09-5.65514E-20 1.95881E-18
 -1      3971 9.52530E-05-2.85851E-05-2.85720E-05 9.74844E-09-5.36463E-19 1.18302E-18
 -1      3972 9.52515E-05-2.85845E-05-2.85715E-05 9.04479E-09 1.87558E-19 9.17107E-19
 -1      3973 9.52555E-05-2.85863E-05-2.85726E-05 8.02948E-09-6.85030E-19 3.43262E-18
 -1      3974 9.09372E-05-2.50606E-05-2.82446E-05 5.66017E-06-1.05985E-18 7.99423E-19
 -1      3975 9.09538E-05-2.52871E-05-2.81258E-05 6.32408E-06-7.24904E-19 4.79881E-19
 -1      3976 9.14018E-05-2.50122E-05-2.84636E-05 4.45037E-06-8.44883E-19 6.64177E-20
 -1      3977 9.12802E-05-2.50366E-05-2.83787E-05 4.99458E-06-1.03959E-18 2.52404E-19
 -1      3978 9.01173E-05-2.43744E-05-2.81725E-05 5.04764E-06-8.41870E-19 7.32398E-19
 -1      3979 9.19619E-05-2.52217E-05-2.86127E-05 3.48538E-06-3.12135E-19-2.15808E-19
 -1      3980 9.17739E-05-2.51240E-05-2.85569E-05 3.93148E-06-5.46960E-19-1.23137E-20
 -1      3981 9.08424E-05-2.45377E-05-2.84114E-05 3.88846E-06-5.15077E-19-1.97154E-19
 -1      3982 9.25357E-05-2.55749E-05-2.87059E-05 2.71325E-06-2.85798E-19 2.89506E-19
 -1      3983 9.23259E-05-2.54101E-05-2.86734E-05 3.07821E-06-1.73556E-19 7.74059E-20
 -1      3984 9.15818E-05-2.48969E-05-2.85735E-05 2.98995E-06-4.35401E-19-2.58876E-19
 -1      3985 9.30734E-05-2.59906E-05-2.87569E-05 2.09620E-06-2.83887E-19-5.99663E-19
 -1      3986 9.28687E-05-2.57973E-05-2.87418E-05 2.39367E-06-1.18611E-20-6.02775E-20
 -1      3987 9.22786E-05-2.53555E-05-2.86757E-05 2.29173E-06 4.59024E-20-6.93904E-20
 -1      3988 9.35494E-05-2.64155E-05-2.87776E-05 1.60422E-06 2.14118E-20-9.99463E-19
 -1      3989 9.33645E-05-2.62187E-05-2.87747E-05 1.84528E-06-3.23151E-19-7.66352E-19
 -1      3990 9.29005E-05-2.58443E-05-2.87332E-05 1.74739E-06 6.71660E-20-8.74259E-19
 -1      3991 9.39538E-05-2.68167E-05-2.87779E-05 1.21384E-06-4.06633E-19-1.98467E-19
 -1      3992 9.37952E-05-2.66316E-05-2.87829E-05 1.40762E-06-5.33842E-19-6.83577E-19
 -1      3993 9.34343E-05-2.63195E-05-2.87590E-05 1.32239E-06-5.15076E-19-6.69264E-19
 -1      3994 9.42862E-05-2.71763E-05-2.87654E-05 9.06280E-07 3.90592E-21 5.89760E-19
 -1      3995 9.41554E-05-2.70110E-05-2.87751E-05 1.06054E-06 3.58178E-20 4.03185E-19
 -1      3996 9.38784E-05-2.67551E-05-2.87634E-05 9.91078E-07-7.62645E-19 1.03658E-19
 -1      3997 9.45519E-05-2.74862E-05-2.87456E-05 6.66197E-07-6.61943E-19 6.07327E-19
 -1      3998 9.44473E-05-2.73442E-05-2.87576E-05 7.87594E-07-2.34631E-20 6.80756E-19
 -1      3999 9.42380E-05-2.71379E-05-2.87542E-05 7.33917E-07-2.23998E-19 7.87187E-19
 -1      4000 9.47588E-05-2.77452E-05-2.87226E-05 4.80821E-07-7.59620E-19 2.85035E-19
 -1      4001 9.46776E-05-2.76270E-05-2.87353E-05 5.75144E-07-9.06574E-19 2.09208E-19
 -1      4002 9.45221E-05-2.74634E-05-2.87371E-05 5.35642E-07-6.81855E-19 3.24749E-19
 -1      4003 9.49160E-05-2.79560E-05-2.86990E-05 3.39464E-07-1.25720E-18 4.93068E-19
 -1      4004 9.48547E-05-2.78601E-05-2.87114E-05 4.11731E-07-9.28230E-19 4.38593E-19
 -1      4005 9.47414E-05-2.77326E-05-2.87163E-05 3.84107E-07-7.24254E-19 3.72541E-19
 -1      4006 9.50325E-05-2.81237E-05-2.86766E-05 2.33192E-07-1.20019E-18 7.52488E-19
 -1      4007 9.49874E-05-2.80477E-05-2.86880E-05 2.87712E-07-1.33316E-18 7.69277E-19
 -1      4008 9.49068E-05-2.79501E-05-2.86944E-05 2.69539E-07-1.47626E-18 3.94106E-19
 -1      4009 9.51165E-05-2.82543E-05-2.86563E-05 1.54572E-07-1.54756E-18 1.55879E-18
 -1      4010 9.50843E-05-2.81953E-05-2.86664E-05 1.95005E-07-1.59681E-18 8.13771E-19
 -1      4011 9.50286E-05-2.81219E-05-2.86733E-05 1.84022E-07-1.67995E-18 1.40933E-18
 -1      4012 9.51753E-05-2.83537E-05-2.86386E-05 9.74755E-08-6.62925E-19 2.56360E-18
 -1      4013 9.51531E-05-2.83089E-05-2.86472E-05 1.26886E-07-1.23857E-18 1.71801E-18
 -1      4014 9.51159E-05-2.82549E-05-2.86541E-05 1.21146E-07-1.44217E-18 1.08108E-18
 -1      4015 9.52149E-05-2.84279E-05-2.86236E-05 5.69053E-08 4.25015E-20 2.67607E-18
 -1      4016 9.52002E-05-2.83946E-05-2.86307E-05 7.78195E-08 2.82549E-19 2.46215E-18
 -1      4017 9.51767E-05-2.83557E-05-2.86371E-05 7.57337E-08-3.66004E-19 1.84084E-18
 -1      4018 9.52403E-05-2.84819E-05-2.86111E-05 2.88344E-08 3.09857E-19 1.46911E-18
 -1      4019 9.52312E-05-2.84578E-05-2.86170E-05 4.33057E-08 4.14950E-20 2.20214E-18
 -1      4020 9.52173E-05-2.84305E-05-2.86226E-05 4.36319E-08 4.03269E-19 1.55475E-18
 -1      4021 9.52554E-05-2.85202E-05-2.86010E-05 1.00606E-08 1.80443E-19 2.16385E-18
 -1      4022 9.52503E-05-2.85032E-05-2.86057E-05 1.97314E-08-1.12474E-20 1.71117E-18
 -1      4023 9.52432E-05-2.84847E-05-2.86106E-05 2.15363E-08 1.07203E-19 1.02850E-18
 -1      4024 9.52634E-05-2.85466E-05-2.85930E-05-1.92721E-09-1.25023E-19 1.77166E-18
 -1      4025 9.52609E-05-2.85350E-05-2.85967E-05 4.23639E-09 8.76981E-19 2.36148E-18
 -1      4026 9.52584E-05-2.85229E-05-2.86008E-05 6.84500E-09 5.26808E-19 1.89750E-18
 -1      4027 9.52665E-05-2.85641E-05-2.85868E-05-9.06953E-09-1.32804E-18-8.33877E-20
 -1      4028 9.52658E-05-2.85565E-05-2.85896E-05-5.41089E-09-1.20402E-18 8.62383E-19
 -1      4029 9.52662E-05-2.85491E-05-2.85930E-05-2.46685E-09 4.18938E-19 2.06608E-18
 -1      4030 9.52664E-05-2.85751E-05-2.85820E-05-1.28420E-08-2.57554E-19-3.28972E-19
 -1      4031 9.52669E-05-2.85703E-05-2.85842E-05-1.09249E-08-7.85073E-19-1.43129E-18
 -1      4032 9.52689E-05-2.85662E-05-2.85869E-05-7.95421E-09-4.09546E-19 5.96015E-19
 -1      4033 9.52644E-05-2.85814E-05-2.85784E-05-1.43472E-08-6.85030E-19 5.27210E-19
 -1      4034 9.52655E-05-2.85787E-05-2.85800E-05-1.36007E-08-1.50852E-19 7.30900E-22
 -1      4035 9.52685E-05-2.85768E-05-2.85822E-05-1.07938E-08-2.41491E-19 5.83000E-19
 -1      4036 9.52613E-05-2.85845E-05-2.85758E-05-1.43924E-08 1.03833E-18-6.42743E-19
 -1      4037 9.52628E-05-2.85832E-05-2.85769E-05-1.43982E-08 1.62761E-19 2.18146E-19
 -1      4038 9.52661E-05-2.85828E-05-2.85786E-05-1.18605E-08 4.96645E-19-8.38160E-19
 -1      4039 9.52578E-05-2.85854E-05-2.85739E-05-1.35553E-08-5.23632E-21-5.95134E-19
 -1      4040 9.52594E-05-2.85851E-05-2.85747E-05-1.40138E-08 8.16046E-19-7.39052E-19
 -1      4041 9.52627E-05-2.85856E-05-2.85759E-05-1.17902E-08 1.06634E-18-5.43125E-19
 -1      4042 9.52543E-05-2.85851E-05-2.85725E-05-1.22572E-08-9.90090E-19 4.40280E-19
 -1      4043 9.52558E-05-2.85853E-05-2.85731E-05-1.29569E-08-9.27963E-19 9.04508E-20
 -1      4044 9.52589E-05-2.85864E-05-2.85740E-05-1.10417E-08-9.79873E-19 2.78565E-19
 -1      4045 9.52509E-05-2.85840E-05-2.85715E-05-1.07358E-08-4.50918E-19 2.91900E-19
 -1      4046 9.52524E-05-2.85846E-05-2.85719E-05-1.15310E-08-7.13032E-19-8.52088E-20
 -1      4047 9.52551E-05-2.85858E-05-2.85726E-05-9.96473E-09-5.74740E-19-1.87002E-18
 -1      4048 9.52486E-05-2.85832E-05-2.85709E-05 8.02395E-09 8.10781E-19-3.37076E-19
 -1      4049 1.05450E-04-4.16977E-05-2.74042E-05 1.40017E-05-1.87736E-18-1.17923E-18
 -1      4050 6.87405E-05-1.49529E-05-2.28727E-05-1.69052E-06-5.24707E-19 2.29755E-18
 -1      4051 7.12628E-05-1.64834E-05-2.35211E-05-5.89364E-06-9.55377E-20 2.16548E-18
 -1      4052 7.31943E-05-1.67769E-05-2.42549E-05-5.13105E-06-5.51642E-19 1.60493E-18
 -1      4053 9.52477E-05-2.85825E-05-2.85708E-05-9.11052E-09-1.03315E-19-1.83225E-19
 -1      4054 6.78169E-05-1.57214E-05-2.21928E-05 7.27588E-06-1.08187E-18 2.10727E-18
 -1      4055 6.78626E-05-1.52850E-05-2.25978E-05 2.03653E-06-8.28082E-19 2.45007E-18
 -1      4056 7.06695E-05-1.59186E-05-2.34848E-05 1.86812E-06-1.23859E-18 2.12038E-18
 -1      4057 7.23810E-05-1.78504E-05-2.33112E-05 8.90413E-06-1.19471E-18 1.75052E-18
 -1      4058 9.07151E-05-2.55436E-05-2.79424E-05 7.18050E-06-8.86246E-19 1.47653E-19
 -1      4059 9.09797E-05-2.60876E-05-2.77878E-05 7.98912E-06-8.09641E-19-2.94052E-21
 -1      4060 8.95089E-05-2.45543E-05-2.78382E-05 6.57717E-06-1.15991E-18 8.83680E-19
 -1      4061 9.52537E-05-2.85860E-05-2.85719E-05-1.33287E-09-2.34435E-18-1.74663E-18
 -1      4062 9.52533E-05-2.85857E-05-2.85718E-05-3.55388E-09-1.39293E-18-4.09542E-18
 -1      4063 7.57699E-05-1.74241E-05-2.50382E-05-4.82081E-06-7.69821E-19 1.32912E-18
 -1      4064 7.79677E-05-1.79736E-05-2.57723E-05-4.10255E-06-7.20418E-19 1.53696E-18
 -1      4065 7.82760E-05-1.77873E-05-2.58482E-05-1.59474E-06-1.31143E-18 1.49826E-18
 -1      4066 7.39677E-05-1.64326E-05-2.45465E-05-1.52612E-06-7.68565E-19 9.03592E-19
 -1      4067 8.46350E-05-2.70851E-05-2.46364E-05 1.68336E-05-1.49163E-18-5.32648E-19
 -1      4068 9.52490E-05-2.85832E-05-2.85710E-05-9.91260E-09 1.35760E-19 6.22918E-19
 -1      4069 9.52504E-05-2.85842E-05-2.85713E-05 7.50744E-09-1.11694E-19 6.77042E-19
 -1      4070 9.52545E-05-2.85860E-05-2.85722E-05-5.99590E-09-1.03854E-18-2.92013E-18
 -1      4071 9.52525E-05-2.85851E-05-2.85717E-05-6.85667E-09-1.24627E-18-2.19095E-18
 -1      4072 9.13293E-05-2.80994E-05-2.71174E-05 1.09841E-05-1.11030E-18-7.71554E-19
 -1      4073 9.26150E-05-2.96464E-05-2.69430E-05 1.20495E-05-8.22794E-19-7.37223E-19
 -1      4074 8.90460E-05-2.78606E-05-2.62532E-05 1.33171E-05-1.20527E-18-4.59337E-19
 -1      4075 9.52513E-05-2.85845E-05-2.85715E-05-8.57744E-09-3.33395E-19-1.09674E-18
 -1      4076 9.07481E-05-2.64571E-05-2.75694E-05 8.88190E-06-6.74001E-19-2.55875E-19
 -1      4077 9.13960E-05-2.74245E-05-2.73890E-05 9.84942E-06-1.10584E-18-3.83337E-19
 -1      4078 8.86897E-05-2.59387E-05-2.69045E-05 1.03583E-05-1.33038E-18-1.38402E-19
 -1      4079 8.90421E-05-2.50680E-05-2.74139E-05 8.31951E-06-1.10230E-18 2.83527E-19
 -1      4080 9.52525E-05-2.85853E-05-2.85717E-05 5.98123E-09-7.64433E-19 1.77659E-18
 -1      4081 8.63734E-05-2.65241E-05-2.55754E-05 1.39598E-05-1.18923E-18-2.28638E-19
 -1      4082 8.09273E-05-2.41987E-05-2.42968E-05 1.55081E-05-1.59075E-18-2.89328E-19
 -1      4083 7.84586E-05-2.17612E-05-2.43461E-05 1.26681E-05-1.43477E-18 3.39857E-19
 -1      4084 8.56822E-05-2.51740E-05-2.59514E-05 1.21740E-05-1.58739E-18 4.47612E-20
 -1      4085 9.52533E-05-2.85857E-05-2.85718E-05 3.47918E-09-1.64338E-18 2.06822E-18
 -1      4086 9.52537E-05-2.85860E-05-2.85719E-05 1.26714E-09-2.11325E-18 2.15387E-19
 -1      4087 9.52554E-05-2.85866E-05-2.85723E-05-3.66869E-11-1.77691E-18-9.16443E-19
 -1      4088 9.52545E-05-2.85861E-05-2.85722E-05 5.05006E-09-1.36162E-18 3.05372E-18
 -1      4089 8.08446E-05-1.89828E-05-2.65417E-05 2.10520E-07-1.50267E-18 1.60761E-18
 -1      4090 8.25290E-05-1.96040E-05-2.69844E-05 3.21749E-08-1.04558E-18 1.85168E-18
 -1      4091 8.39340E-05-2.02212E-05-2.73458E-05-2.35157E-07-6.17165E-19 1.66070E-18
 -1      4092 8.52913E-05-2.08294E-05-2.76423E-05-3.61398E-07-5.88419E-19 1.40238E-18
 -1      4093 8.33139E-05-1.99574E-05-2.70927E-05 1.48242E-06-7.14151E-19 1.40843E-18
 -1      4094 8.64080E-05-2.13830E-05-2.78883E-05-5.85961E-07-6.35450E-19 1.40605E-18
 -1      4095 8.74503E-05-2.19474E-05-2.80843E-05-6.27527E-07-1.33960E-19 1.18699E-18
 -1      4096 8.59432E-05-2.11886E-05-2.77105E-05 7.31890E-07-5.63797E-19 9.26963E-19
 -1      4097 8.83409E-05-2.24660E-05-2.82487E-05-7.38006E-07 2.18055E-19 1.11279E-18
 -1      4098 8.91715E-05-2.29790E-05-2.83756E-05-7.23281E-07 9.68638E-20 1.16434E-18
 -1      4099 8.78545E-05-2.21895E-05-2.81151E-05 2.95061E-07-2.93861E-19 7.04660E-19
 -1      4100 8.98955E-05-2.34685E-05-2.84817E-05-7.80100E-07-1.69230E-19 8.83750E-19
 -1      4101 9.05573E-05-2.39324E-05-2.85600E-05-7.34120E-07-2.08041E-19 3.82418E-19
 -1      4102 8.94761E-05-2.31814E-05-2.83873E-05 1.00090E-09-6.21769E-19 7.04682E-19
 -1      4103 9.11408E-05-2.43708E-05-2.86251E-05-7.49267E-07-6.21602E-19 4.92064E-19
 -1      4104 9.16641E-05-2.47805E-05-2.86699E-05-6.84946E-07-2.47940E-19-3.99458E-19
 -1      4105 9.07754E-05-2.40873E-05-2.85604E-05-1.60969E-07-6.39563E-19 7.10745E-19
 -1      4106 9.21327E-05-2.51661E-05-2.87068E-05-6.74640E-07 9.81760E-21-4.69798E-19
 -1      4107 9.25439E-05-2.55207E-05-2.87289E-05-6.02536E-07-8.22988E-21-9.22945E-19
 -1      4108 9.18220E-05-2.49004E-05-2.86645E-05-2.32516E-07-3.39087E-19 6.65461E-19
 -1      4109 9.29168E-05-2.58528E-05-2.87466E-05-5.78866E-07 6.98507E-20-8.80369E-19
 -1      4110 9.32373E-05-2.61539E-05-2.87539E-05-5.06830E-07-1.65066E-19-1.07339E-18
 -1      4111 9.26594E-05-2.56142E-05-2.87208E-05-2.48683E-07-3.31281E-19-9.68589E-19
 -1      4112 9.35306E-05-2.64342E-05-2.87590E-05-4.77821E-07-4.97005E-19-1.17585E-18
 -1      4113 9.37778E-05-2.66852E-05-2.87571E-05-4.10910E-07-5.87658E-19-1.17189E-18
 -1      4114 9.33223E-05-2.62271E-05-2.87449E-05-2.33491E-07-5.06566E-19-1.50458E-18
 -1      4115 9.40053E-05-2.69175E-05-2.87543E-05-3.81547E-07-7.23556E-19-5.21907E-19
 -1      4116 9.41937E-05-2.71231E-05-2.87470E-05-3.22536E-07-5.47838E-19-5.72357E-19
 -1      4117 9.38407E-05-2.67429E-05-2.87483E-05-2.02841E-07 4.55735E-20-1.90953E-18
 -1      4118 9.43677E-05-2.73122E-05-2.87397E-05-2.95635E-07-9.32191E-19-5.21997E-19
 -1      4119 9.45092E-05-2.74779E-05-2.87297E-05-2.45628E-07-7.47280E-19-4.17652E-19
 -1      4120 9.42403E-05-2.71687E-05-2.87390E-05-1.66775E-07-7.00760E-19-8.41239E-19
 -1      4121 9.46401E-05-2.76292E-05-2.87201E-05-2.22529E-07-4.87199E-19-9.26581E-19
 -1      4122 9.47449E-05-2.77606E-05-2.87091E-05-1.81519E-07-3.11385E-19-1.40415E-18
 -1      4123 9.45438E-05-2.75139E-05-2.87227E-05-1.31215E-07-1.12870E-18-1.22015E-18
 -1      4124 9.48416E-05-2.78797E-05-2.86987E-05-1.62618E-07-1.18168E-19-1.52268E-18
 -1      4125 9.49178E-05-2.79822E-05-2.86878E-05-1.29926E-07-8.52248E-19-1.18101E-18
 -1      4126 9.47705E-05-2.77890E-05-2.87031E-05-9.92988E-08-3.85236E-19-2.14957E-18
 -1      4127 9.49879E-05-2.80744E-05-2.86777E-05-1.15060E-07-1.12784E-18-1.17556E-18
 -1      4128 9.50421E-05-2.81531E-05-2.86675E-05-8.96635E-08-1.04288E-18-4.93339E-19
 -1      4129 9.49366E-05-2.80045E-05-2.86829E-05-7.23625E-08-6.90829E-19-1.73155E-18
 -1      4130 9.50916E-05-2.82233E-05-2.86582E-05-7.83792E-08-9.22103E-19-4.88768E-19
 -1      4131 9.51292E-05-2.82826E-05-2.86492E-05-5.91314E-08-4.92547E-19-8.64418E-20
 -1      4132 9.50558E-05-2.81705E-05-2.86635E-05-5.06541E-08-5.31567E-19-1.78204E-18
 -1      4133 9.51633E-05-2.83350E-05-2.86409E-05-5.08554E-08-4.63450E-19 7.48678E-20
 -1      4134 9.51886E-05-2.83790E-05-2.86331E-05-3.66272E-08-4.80510E-19 1.65504E-19
 -1      4135 9.51391E-05-2.82960E-05-2.86460E-05-3.38151E-08-6.02696E-19-1.89497E-20
 -1      4136 9.52111E-05-2.84174E-05-2.86260E-05-3.07739E-08-8.30653E-19 3.40998E-20
 -1      4137 9.52274E-05-2.84493E-05-2.86194E-05-2.05320E-08-8.86990E-19-1.37326E-19
 -1      4138 9.51955E-05-2.83893E-05-2.86306E-05-2.11981E-08-8.37553E-19-1.77580E-19
 -1      4139 9.52415E-05-2.84768E-05-2.86135E-05-1.65619E-08-3.46373E-19-2.95005E-19
 -1      4140 9.52513E-05-2.84994E-05-2.86081E-05-9.40802E-09 3.29271E-19-9.28125E-20
 -1      4141 9.52322E-05-2.84571E-05-2.86175E-05-1.20623E-08-9.72845E-19-1.06341E-18
 -1      4142 9.52595E-05-2.85186E-05-2.86033E-05-6.85485E-09 1.83553E-19-1.37866E-19
 -1      4143 9.52648E-05-2.85341E-05-2.85989E-05-2.03678E-09-9.73086E-20-1.85664E-19
 -1      4144 9.52545E-05-2.85052E-05-2.86067E-05-5.68605E-09 6.40490E-19-1.20647E-18
 -1      4145 9.52689E-05-2.85471E-05-2.85950E-05-5.16220E-10-8.63376E-19 4.68018E-19
 -1      4146 9.52711E-05-2.85574E-05-2.85916E-05 2.57702E-09-4.73524E-19 2.39864E-19
 -1      4147 9.52668E-05-2.85384E-05-2.85978E-05-1.42470E-09 2.28415E-19 1.32329E-18
 -1      4148 9.52724E-05-2.85658E-05-2.85885E-05 3.37050E-09 5.71878E-20 1.62006E-19
 -1      4149 9.52726E-05-2.85722E-05-2.85859E-05 5.22225E-09-9.34464E-19 1.08434E-19
 -1      4150 9.52723E-05-2.85604E-05-2.85908E-05 1.26605E-09 3.11412E-19 1.18150E-18
 -1      4151 9.52722E-05-2.85773E-05-2.85835E-05 5.52403E-09-1.19866E-18 7.82534E-19
 -1      4152 9.52712E-05-2.85811E-05-2.85815E-05 6.50748E-09-2.35883E-19 1.72942E-18
 -1      4153 9.52732E-05-2.85743E-05-2.85853E-05 2.82712E-09 1.51009E-19 1.63902E-18
 -1      4154 9.52697E-05-2.85838E-05-2.85796E-05 6.49369E-09 2.15862E-19 1.62148E-18
 -1      4155 9.52680E-05-2.85857E-05-2.85781E-05 6.88969E-09 7.88501E-19 2.23758E-18
 -1      4156 9.52714E-05-2.85825E-05-2.85810E-05 3.60450E-09 1.31388E-19 2.18875E-18
 -1      4157 9.52660E-05-2.85869E-05-2.85767E-05 6.68750E-09 1.51202E-19 2.31648E-18
 -1      4158 9.52640E-05-2.85875E-05-2.85756E-05 6.70053E-09-1.78371E-19 2.30061E-18
 -1      4159 9.52680E-05-2.85866E-05-2.85778E-05 3.86435E-09 5.70794E-19 2.46337E-18
 -1      4160 9.52618E-05-2.85877E-05-2.85746E-05 6.38868E-09 4.80192E-19 2.42905E-18
 -1      4161 9.52597E-05-2.85875E-05-2.85738E-05 6.14877E-09 5.83775E-19 3.07688E-18
 -1      4162 9.52638E-05-2.85880E-05-2.85754E-05 3.81256E-09 6.83040E-19 2.73312E-18
 -1      4163 9.52581E-05-2.85872E-05-2.85732E-05 5.75787E-09 4.19047E-20 3.53813E-18
 -1      4164 9.52561E-05-2.85867E-05-2.85726E-05 5.40434E-09-4.70620E-19 4.03000E-18
 -1      4165 9.52568E-05-2.85871E-05-2.85728E-05 2.89035E-09-9.86936E-19 2.23947E-18
 -1      4166 9.52599E-05-2.85878E-05-2.85738E-05 3.40801E-09 8.75326E-19 3.30456E-18
 -1      4167 9.03404E-05-2.41319E-05-2.83923E-05 3.13419E-06-2.52092E-19-8.40797E-19
 -1      4168 8.99788E-05-2.39480E-05-2.82897E-05 3.61390E-06-3.32681E-19-2.96486E-19
 -1      4169 8.93471E-05-2.37314E-05-2.81424E-05 4.16787E-06-4.58450E-19 7.02380E-20
 -1      4170 8.90076E-05-2.36602E-05-2.79952E-05 4.80309E-06-8.28257E-19 5.70737E-19
 -1      4171 8.89369E-05-2.32735E-05-2.81250E-05 3.37205E-06-6.03031E-20-1.39763E-18
 -1      4172 9.20749E-05-2.52182E-05-2.86637E-05 1.77289E-06 2.07647E-19-7.44006E-19
 -1      4173 9.17474E-05-2.49525E-05-2.86233E-05 2.05754E-06 7.17304E-20-6.27251E-19
 -1      4174 9.27736E-05-2.57747E-05-2.87224E-05 1.32763E-06 6.25684E-20-4.38643E-19
 -1      4175 9.24869E-05-2.55129E-05-2.87014E-05 1.54898E-06 1.78000E-19-7.30052E-19
 -1      4176 9.20127E-05-2.51154E-05-2.86540E-05 1.33741E-06 2.05804E-19-9.38415E-19
 -1      4177 9.33573E-05-2.62919E-05-2.87491E-05 9.88181E-07-1.18093E-18 2.58884E-19
 -1      4178 9.31151E-05-2.60493E-05-2.87416E-05 1.16066E-06-6.46292E-19 2.64446E-19
 -1      4179 9.27496E-05-2.57210E-05-2.87132E-05 9.80591E-07-8.56246E-19-2.08003E-19
 -1      4180 9.38336E-05-2.67524E-05-2.87544E-05 7.29375E-07-7.02566E-19 5.65060E-19
 -1      4181 9.36349E-05-2.65371E-05-2.87557E-05 8.63611E-07-1.22481E-18 3.14890E-19
 -1      4182 9.33550E-05-2.62688E-05-2.87405E-05 7.16216E-07-1.34674E-18 7.17184E-19
 -1      4183 9.42136E-05-2.71489E-05-2.87462E-05 5.32507E-07-6.71894E-19 8.89781E-19
 -1      4184 9.40547E-05-2.69641E-05-2.87528E-05 6.36571E-07-4.58796E-19 6.74285E-19
 -1      4185 9.38425E-05-2.67474E-05-2.87465E-05 5.19931E-07-8.06136E-19 1.43115E-18
 -1      4186 9.45103E-05-2.74808E-05-2.87301E-05 3.83442E-07 1.75985E-19-2.11557E-19
 -1      4187 9.43864E-05-2.73267E-05-2.87397E-05 4.63608E-07-2.91868E-19 2.55420E-19
 -1      4188 9.42274E-05-2.71540E-05-2.87392E-05 3.74145E-07-2.87714E-19 3.22258E-19
 -1      4189 9.47373E-05-2.77521E-05-2.87103E-05 2.71342E-07-1.58391E-18 4.75053E-19
 -1      4190 9.46428E-05-2.76267E-05-2.87211E-05 3.32577E-07-3.04813E-19 4.42953E-19
 -1      4191 9.45254E-05-2.74910E-05-2.87241E-05 2.66043E-07-3.95565E-19 2.02051E-19
 -1      4192 9.49071E-05-2.79691E-05-2.86895E-05 1.87806E-07-1.50538E-18 1.18011E-18
 -1      4193 9.48368E-05-2.78692E-05-2.87003E-05 2.34091E-07-1.83415E-18 9.70425E-19
 -1      4194 9.47516E-05-2.77641E-05-2.87052E-05 1.86194E-07-2.08882E-18 1.11153E-18
 -1      4195 9.50312E-05-2.81392E-05-2.86693E-05 1.26269E-07-1.60293E-18 8.85601E-19
 -1      4196 9.49802E-05-2.80612E-05-2.86795E-05 1.60816E-07-1.32597E-18 4.00402E-19
 -1      4197 9.49197E-05-2.79812E-05-2.86853E-05 1.27588E-07-1.37287E-18 3.61055E-19
 -1      4198 9.51196E-05-2.82697E-05-2.86509E-05 8.15772E-08-5.82083E-19 3.90298E-19
 -1      4199 9.50837E-05-2.82101E-05-2.86600E-05 1.06981E-07-1.15195E-18 3.73357E-19
 -1      4200 9.50418E-05-2.81502E-05-2.86660E-05 8.49627E-08-8.80418E-19 2.15698E-19
 -1      4201 9.51806E-05-2.83680E-05-2.86346E-05 4.96842E-08 3.72570E-19 2.91325E-19
 -1      4202 9.51562E-05-2.83233E-05-2.86425E-05 6.80372E-08-5.62266E-19 7.24477E-19
 -1      4203 9.51282E-05-2.82794E-05-2.86482E-05 5.43368E-08-5.44494E-19-9.99989E-19
 -1      4204 9.52211E-05-2.84404E-05-2.86208E-05 2.74173E-08 2.75964E-20 4.27258E-19
 -1      4205 9.52052E-05-2.84077E-05-2.86274E-05 4.03963E-08 3.69280E-19 6.69743E-19
 -1      4206 9.51873E-05-2.83761E-05-2.86326E-05 3.26814E-08-2.95933E-19-1.20718E-18
 -1      4207 9.52466E-05-2.84925E-05-2.86092E-05 1.23014E-08-1.01531E-19 8.76897E-19
 -1      4208 9.52369E-05-2.84691E-05-2.86147E-05 2.12395E-08-7.85774E-20 5.06714E-19
 -1      4209 9.52263E-05-2.84470E-05-2.86192E-05 1.76851E-08-1.58455E-19-3.79149E-19
 -1      4210 9.52614E-05-2.85290E-05-2.85998E-05 2.41895E-09 6.38079E-19 7.65076E-19
 -1      4211 9.52561E-05-2.85127E-05-2.86042E-05 8.36582E-09 4.82973E-19 5.57523E-19
 -1      4212 9.52504E-05-2.84977E-05-2.86081E-05 7.58336E-09 1.01302E-19 3.31432E-19
 -1      4213 9.52687E-05-2.85536E-05-2.85923E-05-3.70183E-09 4.59547E-19 4.41763E-19
 -1      4214 9.52664E-05-2.85427E-05-2.85958E-05 7.07306E-11 5.67680E-19 1.02656E-18
 -1      4215 9.52641E-05-2.85330E-05-2.85990E-05 1.03296E-09 4.97291E-19-2.79854E-19
 -1      4216 9.52710E-05-2.85696E-05-2.85864E-05-7.17807E-09 1.58925E-19-6.30662E-19
 -1      4217 9.52706E-05-2.85626E-05-2.85891E-05-4.95233E-09 5.98507E-19 5.61757E-19
 -1      4218 9.52706E-05-2.85567E-05-2.85917E-05-2.98328E-09 3.40509E-19 9.82918E-20
 -1      4219 9.52701E-05-2.85792E-05-2.85818E-05-8.84637E-09 1.40414E-19-6.17838E-19
 -1      4220 9.52710E-05-2.85751E-05-2.85839E-05-7.69262E-09-5.75210E-20-2.14495E-19
 -1      4221 9.52723E-05-2.85718E-05-2.85860E-05-5.22943E-09 4.55033E-19-1.39316E-18
 -1      4222 9.52674E-05-2.85845E-05-2.85784E-05-9.32292E-09 1.65493E-18-7.89443E-19
 -1      4223 9.52690E-05-2.85823E-05-2.85799E-05-8.88854E-09 6.15129E-19-5.23462E-19
 -1      4224 9.52710E-05-2.85809E-05-2.85816E-05-6.27368E-09 3.55031E-19-1.92023E-18
 -1      4225 9.52637E-05-2.85868E-05-2.85758E-05-9.04983E-09 2.11442E-20-4.27894E-19
 -1      4226 9.52656E-05-2.85859E-05-2.85770E-05-9.08057E-09 7.66182E-19-7.24987E-19
 -1      4227 9.52679E-05-2.85857E-05-2.85782E-05-6.53415E-09 7.82185E-19-2.00862E-18
 -1      4228 9.52597E-05-2.85871E-05-2.85739E-05-8.30560E-09-4.26268E-19-1.29478E-18
 -1      4229 9.52616E-05-2.85871E-05-2.85748E-05-8.63884E-09-3.21294E-19-6.72813E-19
 -1      4230 9.52640E-05-2.85876E-05-2.85757E-05-6.31220E-09 1.36776E-20-2.23540E-18
 -1      4231 9.52561E-05-2.85865E-05-2.85727E-05-6.87405E-09 1.89425E-19-3.19729E-18
 -1      4232 9.52580E-05-2.85869E-05-2.85733E-05-7.32169E-09 5.11087E-19-2.22288E-18
 -1      4233 9.52603E-05-2.85878E-05-2.85740E-05-5.21218E-09 6.85468E-19-2.88658E-18
 -1      4234 9.52569E-05-2.85871E-05-2.85728E-05-3.52505E-09-7.28464E-19-3.54066E-18
 -1      4235 8.83375E-05-2.35442E-05-2.77872E-05 5.52257E-06-1.28219E-18 4.03454E-19
 -1      4236 8.80588E-05-2.36686E-05-2.75812E-05 6.38741E-06-1.47093E-18 1.53211E-19
 -1      4237 8.77085E-05-2.28832E-05-2.77669E-05 4.55292E-06-1.07935E-18-1.02542E-18
 -1      4238 9.12605E-05-2.46538E-05-2.85594E-05 2.35860E-06-2.54560E-19-4.64804E-19
 -1      4239 9.09035E-05-2.44092E-05-2.84923E-05 2.72665E-06-1.12204E-19-4.11463E-19
 -1      4240 9.01078E-05-2.38373E-05-2.83801E-05 2.47736E-06-1.21021E-19-1.27680E-18
 -1      4241 9.11341E-05-2.44747E-05-2.85489E-05 1.82057E-06 1.69923E-19-1.02029E-18
 -1      4242 7.33342E-05-1.68932E-05-2.41132E-05 4.66588E-06-1.08326E-18 2.15571E-18
 -1      4243 7.32380E-05-1.65903E-05-2.43243E-05 1.16338E-06-8.98628E-19 1.84331E-18
 -1      4244 7.57330E-05-1.72947E-05-2.50787E-05 9.73831E-07-1.00255E-18 1.62878E-18
 -1      4245 9.52572E-05-2.85872E-05-2.85728E-05 1.08305E-09-1.11513E-18 4.13932E-19
 -1      4246 9.52572E-05-2.85872E-05-2.85728E-05-1.53779E-09-1.23748E-18-1.93440E-18
 -1      4247 9.52589E-05-2.85877E-05-2.85734E-05-2.38544E-09-1.04562E-19-2.70892E-18
 -1      4248 9.52587E-05-2.85876E-05-2.85733E-05 1.34929E-09-3.32770E-20 1.30703E-18
 -1      4249 8.62278E-05-2.25368E-05-2.72949E-05 5.93054E-06-1.40903E-18-6.57600E-19
 -1      4250 8.73476E-05-2.36679E-05-2.73279E-05 7.19158E-06-1.54168E-18 2.98509E-21
 -1      4251 8.71281E-05-2.38672E-05-2.70940E-05 8.01493E-06-1.29413E-18-1.41677E-19
 -1      4252 7.60814E-05-1.96366E-05-2.41526E-05 1.05013E-05-1.26671E-18 7.84263E-19
 -1      4253 7.41194E-05-1.80163E-05-2.40913E-05 7.28072E-06-1.29737E-18 1.62801E-18
 -1      4254 7.66006E-05-1.85132E-05-2.48776E-05 6.17353E-06-1.09890E-18 1.47112E-18
 -1      4255 7.75480E-05-1.78789E-05-2.56130E-05 6.64290E-07-1.27408E-18 1.54747E-18
 -1      4256 7.94065E-05-1.84644E-05-2.61479E-05 4.78498E-07-1.54094E-18 1.76661E-18
 -1      4257 8.06933E-05-1.90706E-05-2.63462E-05 2.31067E-06-1.35414E-18 1.78042E-18
 -1      4258 7.75398E-05-1.80844E-05-2.54378E-05 3.25498E-06-1.06927E-18 1.34393E-18
 -1      4259 8.01701E-05-2.16123E-05-2.50476E-05 1.08730E-05-1.51775E-18 9.85288E-20
 -1      4260 8.55393E-05-2.12373E-05-2.75892E-05 1.97611E-06-7.21135E-19 8.51798E-20
 -1      4261 8.66681E-05-2.17435E-05-2.78333E-05 1.65411E-06-4.60206E-19-8.89749E-20
 -1      4262 8.80912E-05-2.25876E-05-2.80940E-05 1.78347E-06-2.45089E-20-8.86805E-19
 -1      4263 8.89719E-05-2.30567E-05-2.82563E-05 1.51105E-06-3.19959E-19-8.97174E-19
 -1      4264 8.95559E-05-2.34205E-05-2.83658E-05 1.17548E-06-6.78915E-19-3.25271E-19
 -1      4265 9.02695E-05-2.38550E-05-2.84715E-05 1.01071E-06-4.12522E-19-2.81787E-19
 -1      4266 9.07757E-05-2.42200E-05-2.85421E-05 7.69535E-07 4.38142E-20-2.48636E-19
 -1      4267 9.13557E-05-2.46209E-05-2.86081E-05 6.73226E-07 1.02063E-19-1.23834E-19
 -1      4268 9.17834E-05-2.49664E-05-2.86505E-05 4.98510E-07-2.44882E-19-4.78131E-20
 -1      4269 9.22510E-05-2.53261E-05-2.86885E-05 4.46186E-07-4.20539E-19-1.54091E-19
 -1      4270 9.26050E-05-2.56398E-05-2.87109E-05 3.19139E-07-1.07463E-18 1.39395E-19
 -1      4271 9.29779E-05-2.59541E-05-2.87298E-05 2.94508E-07-1.41873E-18-2.17639E-19
 -1      4272 9.32653E-05-2.62298E-05-2.87386E-05 2.01738E-07-1.01935E-18-1.71116E-19
 -1      4273 9.35592E-05-2.64980E-05-2.87448E-05 1.93763E-07-5.50727E-19-1.79240E-19
 -1      4274 9.37881E-05-2.67336E-05-2.87447E-05 1.25775E-07-1.22025E-19-5.71696E-19
 -1      4275 9.40164E-05-2.69577E-05-2.87429E-05 1.27122E-07 9.75694E-20-1.67106E-19
 -1      4276 9.41954E-05-2.71542E-05-2.87373E-05 7.71745E-08-2.52689E-19-4.08849E-19
 -1      4277 9.43702E-05-2.73378E-05-2.87308E-05 8.31377E-08-8.98965E-19 5.74963E-20
 -1      4278 9.45075E-05-2.74983E-05-2.87223E-05 4.64206E-08-1.50682E-18 4.65997E-19
 -1      4279 9.46391E-05-2.76459E-05-2.87133E-05 5.41207E-08-1.26260E-18 1.97737E-19
 -1      4280 9.47423E-05-2.77743E-05-2.87036E-05 2.71714E-08-1.11966E-18-3.84088E-19
 -1      4281 9.48397E-05-2.78910E-05-2.86937E-05 3.49598E-08-9.38054E-19-1.02001E-18
 -1      4282 9.49156E-05-2.79918E-05-2.86838E-05 1.52608E-08-5.44267E-19-1.37622E-18
 -1      4283 9.49861E-05-2.80824E-05-2.86740E-05 2.22871E-08-6.71289E-19-7.29735E-19
 -1      4284 9.50408E-05-2.81601E-05-2.86647E-05 7.98802E-09-6.40042E-19-1.27767E-18
 -1      4285 9.50906E-05-2.82291E-05-2.86556E-05 1.38957E-08-8.72210E-19-1.17045E-18
 -1      4286 9.51288E-05-2.82879E-05-2.86472E-05 3.62244E-09-5.60372E-19-1.19239E-18
 -1      4287 9.51631E-05-2.83396E-05-2.86390E-05 8.34313E-09-4.40817E-19-1.06558E-18
 -1      4288 9.51888E-05-2.83831E-05-2.86317E-05 1.06578E-09-4.77916E-19-7.92332E-19
 -1      4289 9.52115E-05-2.84210E-05-2.86247E-05 4.68481E-09-9.08709E-19-6.51730E-19
 -1      4290 9.52281E-05-2.84525E-05-2.86185E-05-3.73534E-10-6.62247E-19-3.60544E-19
 -1      4291 9.52423E-05-2.84797E-05-2.86127E-05 2.29897E-09-1.78120E-19-4.62180E-19
 -1      4292 9.52523E-05-2.85020E-05-2.86076E-05-1.12865E-09 2.13043E-19-4.13548E-19
 -1      4293 9.52605E-05-2.85209E-05-2.86027E-05 7.72591E-10 4.96368E-19-1.97013E-19
 -1      4294 9.52659E-05-2.85362E-05-2.85986E-05-1.46996E-09 9.36462E-19-1.63328E-19
 -1      4295 9.52700E-05-2.85489E-05-2.85947E-05-1.71872E-10 9.18898E-19 5.36321E-19
 -1      4296 9.52722E-05-2.85590E-05-2.85914E-05-1.56604E-09 1.15406E-21 1.86656E-19
 -1      4297 9.52735E-05-2.85672E-05-2.85883E-05-7.23248E-10 5.01660E-19-1.08526E-19
 -1      4298 9.52737E-05-2.85735E-05-2.85858E-05-1.52200E-09 1.32099E-18-7.33014E-19
 -1      4299 9.52732E-05-2.85784E-05-2.85834E-05-1.01143E-09 4.69776E-19-9.27592E-20
 -1      4300 9.52721E-05-2.85820E-05-2.85814E-05-1.40369E-09-1.88368E-19 2.13619E-19
 -1      4301 9.52706E-05-2.85847E-05-2.85796E-05-1.12636E-09 2.66667E-19-3.03624E-19
 -1      4302 9.52688E-05-2.85864E-05-2.85781E-05-1.25429E-09 5.77346E-19-8.96476E-19
 -1      4303 9.52667E-05-2.85875E-05-2.85767E-05-1.13059E-09 7.38226E-19-8.31962E-19
 -1      4304 9.52646E-05-2.85880E-05-2.85756E-05-1.11237E-09 7.11977E-19-1.09528E-18
 -1      4305 9.52623E-05-2.85881E-05-2.85746E-05-1.06562E-09 7.23369E-19-4.86984E-19
 -1      4306 9.52605E-05-2.85880E-05-2.85739E-05-3.16862E-10 7.45057E-19-5.63104E-19
 -1      4307 8.74403E-05-2.24952E-05-2.78499E-05 3.42752E-06-6.21400E-19-1.41011E-18
 -1      4308 8.68231E-05-2.22931E-05-2.76453E-05 4.03612E-06-1.24717E-18-1.17549E-18
 -1      4309 8.33043E-05-2.33245E-05-2.57081E-05 1.12576E-05-1.57058E-18 8.77639E-20
 -1      4310 8.07803E-05-2.13030E-05-2.55267E-05 9.26156E-06-1.59431E-18 9.78447E-20
 -1      4311 8.62810E-05-2.46319E-05-2.63769E-05 1.05941E-05-1.34423E-18 1.06371E-19
 -1      4312 8.63327E-05-2.41343E-05-2.66791E-05 9.47396E-06-1.15829E-18-1.19511E-19
 -1      4313 8.34011E-05-2.08546E-05-2.68325E-05 4.54337E-06-1.01482E-18 2.81164E-19
 -1      4314 8.47013E-05-2.12571E-05-2.71961E-05 3.86008E-06-9.27834E-19 3.54658E-19
 -1      4315 8.47273E-05-2.26358E-05-2.66047E-05 8.19967E-06-1.22706E-18-4.04137E-19
 -1      4316 8.74190E-05-2.22514E-05-2.79291E-05 2.21911E-06-3.51047E-19-1.10081E-18
 -1      4317 8.24373E-05-2.14450E-05-2.61089E-05 7.85125E-06-1.47070E-18-1.87662E-19
 -1      4318 7.94524E-05-1.99027E-05-2.55026E-05 7.43091E-06-1.32731E-18 4.07561E-19
 -1      4319 7.82643E-05-1.88232E-05-2.55017E-05 5.04164E-06-9.44680E-19 1.04870E-18
 -1      4320 8.32584E-05-2.12601E-05-2.65577E-05 6.48349E-06-1.26295E-18 1.00203E-19
 -1      4321 8.59775E-05-2.20150E-05-2.73907E-05 4.68125E-06-1.09308E-18-8.10236E-19
 -1      4322 9.52604E-05-2.85880E-05-2.85739E-05 1.58961E-09 9.23967E-20 1.56127E-18
 -1      4323 7.99766E-05-1.93293E-05-2.60067E-05 4.48256E-06-1.21393E-18 7.61058E-19
 -1      4324 8.12674E-05-1.97767E-05-2.63903E-05 4.06833E-06-1.12189E-18 9.85617E-19
 -3
    1PSTEP                         4           1           1          
  100CL  101 1.000000000        4324                     0    1           1
 -4  ERROR       1    1
 -5  STR(%)      1    1    0    0
 -1         1 4.80250E+01
 -1         2 2.61270E+01
 -1         3 9.42533E-05
 -1         4 1.07595E-04
 -1         5 1.33547E+01
 -1         6 1.19283E+01
 -1         7 1.19283E+01
 -1         8 4.88853E+00
 -1         9 3.88392E+00
 -1        10 3.75242E+00
 -1        11 3.75242E+00
 -1        12 3.39101E+00
 -1        13 2.26235E+00
 -1        14 2.34778E+00
 -1        15 2.76374E+00
 -1        16 2.76374E+00
 -1        17 2.59301E+00
 -1        18 2.24452E+00
 -1        19 2.27485E+00
 -1        20 2.52783E+00
 -1        21 3.98706E+00
 -1        22 8.67933E+00
 -1        23 1.19283E+01
 -1        24 1.64165E+00
 -1        25 1.19037E+00
 -1        26 1.41599E+00
 -1        27 2.34260E+00
 -1        28 4.16410E+00
 -1        29 5.93283E+00
 -1        30 5.93283E+00
 -1        31 5.84735E+00
 -1        32 5.46926E+00
 -1        33 3.20824E+00
 -1        34 2.03941E+00
 -1        35 1.93051E+00
 -1        36 1.96780E+00
 -1        37 1.96780E+00
 -1        38 1.73599E+00
 -1        39 1.38957E+00
 -1        40 1.10116E+00
 -1        41 8.43007E-01
 -1        42 6.73630E-01
 -1        43 5.48600E-01
 -1        44 4.33053E-01
 -1        45 3.33344E-01
 -1        46 2.51040E-01
 -1        47 1.85202E-01
 -1        48 1.33788E-01
 -1        49 1.04812E-01
 -1        50 8.54403E-02
 -1        51 6.83930E-02
 -1        52 5.38263E-02
 -1        53 4.16684E-02
 -1        54 3.17219E-02
 -1        55 2.37294E-02
 -1        56 1.89150E-02
 -1        57 1.54640E-02
 -1        58 1.24031E-02
 -1        59 9.77036E-03
 -1        60 7.56161E-03
 -1        61 5.89667E-03
 -1        62 4.53784E-03
 -1        63 3.42254E-03
 -1        64 2.52150E-03
 -1        65 1.96503E-03
 -1        66 1.61933E-03
 -1        67 1.31320E-03
 -1        68 1.04025E-03
 -1        69 7.83244E-04
 -1        70 6.84776E-04
 -1        71 4.39155E-04
 -1        72 1.33547E+01
 -1        73 2.58366E+00
 -1        74 1.48127E+00
 -1        75 1.35447E+00
 -1        76 1.63023E+00
 -1        77 2.25646E+00
 -1        78 2.67955E+00
 -1        79 2.82341E+00
 -1        80 3.00801E+00
 -1        81 3.00801E+00
 -1        82 2.55692E+00
 -1        83 1.73305E+00
 -1        84 1.07216E+00
 -1        85 7.10812E-01
 -1        86 6.72443E-01
 -1        87 7.57635E-01
 -1        88 7.57635E-01
 -1        89 7.31350E-01
 -1        90 6.43589E-01
 -1        91 5.39903E-01
 -1        92 4.43344E-01
 -1        93 3.47218E-01
 -1        94 2.60336E-01
 -1        95 2.05691E-01
 -1        96 1.60438E-01
 -1        97 1.21304E-01
 -1        98 8.89229E-02
 -1        99 6.30690E-02
 -1       100 4.30583E-02
 -1       101 3.65623E-02
 -1       102 3.02235E-02
 -1       103 2.44060E-02
 -1       104 1.92951E-02
 -1       105 1.59531E-02
 -1       106 1.39581E-02
 -1       107 1.18541E-02
 -1       108 9.82226E-03
 -1       109 7.96616E-03
 -1       110 6.40055E-03
 -1       111 5.13942E-03
 -1       112 4.04745E-03
 -1       113 3.12499E-03
 -1       114 2.35973E-03
 -1       115 1.73195E-03
 -1       116 1.30438E-03
 -1       117 1.03447E-03
 -1       118 7.79795E-04
 -1       119 5.09646E-04
 -1       120 3.33043E-04
 -1       121 1.44888E-04
 -1       122 1.44888E-04
 -1       123 1.25555E-04
 -1       124 6.68600E-05
 -1       125 6.30670E-05
 -1       126 1.05315E-04
 -1       127 1.30717E-04
 -1       128 1.38140E-04
 -1       129 1.38140E-04
 -1       130 1.30452E-04
 -1       131 1.03931E-04
 -1       132 6.28649E-05
 -1       133 6.84051E-05
 -1       134 1.25424E-04
 -1       135 1.92561E-04
 -1       136 2.11469E-04
 -1       137 2.61270E+01
 -1       138 4.77243E+01
 -1       139 4.77243E+01
 -1       140 2.16212E+01
 -1       141 1.19210E+01
 -1       142 1.21726E+01
 -1       143 1.21726E+01
 -1       144 1.30825E+01
 -1       145 1.30825E+01
 -1       146 1.16419E+01
 -1       147 2.02245E+01
 -1       148 4.74968E+01
 -1       149 4.74968E+01
 -1       150 2.74953E+01
 -1       151 2.77953E+01
 -1       152 2.77953E+01
 -1       153 4.80250E+01
 -1       154 2.13019E+01
 -1       155 1.16538E+01
 -1       156 1.25702E+01
 -1       157 1.25702E+01
 -1       158 1.26742E+01
 -1       159 1.26742E+01
 -1       160 1.22663E+01
 -1       161 2.32970E+01
 -1       162 4.86471E+01
 -1       163 4.86471E+01
 -1       164 2.54131E+01
 -1       165 7.13217E+00
 -1       166 4.06083E+00
 -1       167 3.77906E+00
 -1       168 3.94582E+00
 -1       169 3.94582E+00
 -1       170 3.46508E+00
 -1       171 2.49713E+00
 -1       172 3.15487E+00
 -1       173 3.15487E+00
 -1       174 2.97457E+00
 -1       175 2.35841E+00
 -1       176 2.27485E+00
 -1       177 2.40137E+00
 -1       178 2.90988E+00
 -1       179 4.28024E+00
 -1       180 1.33547E+01
 -1       181 3.84024E+00
 -1       182 2.53527E+00
 -1       183 1.21507E+00
 -1       184 1.41599E+00
 -1       185 2.44654E+00
 -1       186 4.16410E+00
 -1       187 5.93283E+00
 -1       188 5.84735E+00
 -1       189 5.46926E+00
 -1       190 3.29978E+00
 -1       191 2.03941E+00
 -1       192 1.93051E+00
 -1       193 1.87362E+00
 -1       194 1.96780E+00
 -1       195 1.73599E+00
 -1       196 1.42924E+00
 -1       197 1.22787E+00
 -1       198 1.03684E+00
 -1       199 8.29022E-01
 -1       200 6.35522E-01
 -1       201 4.70408E-01
 -1       202 3.37258E-01
 -1       203 2.58153E-01
 -1       204 1.96390E-01
 -1       205 1.46615E-01
 -1       206 1.07391E-01
 -1       207 8.54403E-02
 -1       208 6.83930E-02
 -1       209 5.38263E-02
 -1       210 4.16684E-02
 -1       211 3.17219E-02
 -1       212 2.45710E-02
 -1       213 1.89885E-02
 -1       214 1.54640E-02
 -1       215 1.24031E-02
 -1       216 9.82691E-03
 -1       217 7.89930E-03
 -1       218 6.24756E-03
 -1       219 5.05895E-03
 -1       220 4.01210E-03
 -1       221 3.11477E-03
 -1       222 2.36177E-03
 -1       223 1.74074E-03
 -1       224 1.31320E-03
 -1       225 1.04025E-03
 -1       226 7.83244E-04
 -1       227 6.84776E-04
 -1       228 4.39155E-04
 -1       229 2.58366E+00
 -1       230 1.86611E+00
 -1       231 1.30881E+00
 -1       232 1.35447E+00
 -1       233 1.75745E+00
 -1       234 2.25646E+00
 -1       235 2.67955E+00
 -1       236 2.82341E+00
 -1       237 3.00801E+00
 -1       238 2.55692E+00
 -1       239 1.73305E+00
 -1       240 1.07216E+00
 -1       241 7.10812E-01
 -1       242 6.47781E-01
 -1       243 6.72443E-01
 -1       244 7.57635E-01
 -1       245 7.31350E-01
 -1       246 6.43589E-01
 -1       247 5.39903E-01
 -1       248 4.48752E-01
 -1       249 3.63072E-01
 -1       250 2.81427E-01
 -1       251 2.09486E-01
 -1       252 1.60438E-01
 -1       253 1.21304E-01
 -1       254 8.92401E-02
 -1       255 6.51792E-02
 -1       256 4.61288E-02
 -1       257 3.65623E-02
 -1       258 3.02235E-02
 -1       259 2.44060E-02
 -1       260 1.92951E-02
 -1       261 1.59531E-02
 -1       262 1.39581E-02
 -1       263 1.18541E-02
 -1       264 9.82226E-03
 -1       265 7.96616E-03
 -1       266 6.40055E-03
 -1       267 5.13942E-03
 -1       268 4.04745E-03
 -1       269 3.18089E-03
 -1       270 2.44617E-03
 -1       271 1.83320E-03
 -1       272 1.32753E-03
 -1       273 1.03447E-03
 -1       274 7.79795E-04
 -1       275 5.17681E-04
 -1       276 3.33043E-04
 -1       277 1.98082E-04
 -1       278 1.98082E-04
 -1       279 1.95278E-04
 -1       280 1.07257E-04
 -1       281 1.87859E-04
 -1       282 2.40755E-04
 -1       283 2.62353E-04
 -1       284 2.62353E-04
 -1       285 2.62290E-04
 -1       286 2.39431E-04
 -1       287 1.88584E-04
 -1       288 1.09318E-04
 -1       289 1.96639E-04
 -1       290 1.96639E-04
 -1       291 2.56061E-04
 -1       292 3.29468E+01
 -1       293 2.94107E+01
 -1       294 4.77243E+01
 -1       295 2.26678E+01
 -1       296 1.15351E+01
 -1       297 1.19210E+01
 -1       298 1.21726E+01
 -1       299 1.14180E+01
 -1       300 1.30825E+01
 -1       301 1.16419E+01
 -1       302 1.10762E+01
 -1       303 2.11627E+01
 -1       304 4.74968E+01
 -1       305 3.75849E+01
 -1       306 3.83391E+01
 -1       307 3.83391E+01
 -1       308 2.92185E+01
 -1       309 4.80250E+01
 -1       310 2.30869E+01
 -1       311 1.12960E+01
 -1       312 1.16538E+01
 -1       313 1.25702E+01
 -1       314 1.24494E+01
 -1       315 1.26742E+01
 -1       316 1.22663E+01
 -1       317 1.19885E+01
 -1       318 2.45655E+01
 -1       319 4.86471E+01
 -1       320 3.09645E+01
 -1       321 3.29468E+01
 -1       322 4.35828E+00
 -1       323 3.84024E+00
 -1       324 4.70109E+00
 -1       325 4.70109E+00
 -1       326 4.28686E+00
 -1       327 3.81649E+00
 -1       328 3.81649E+00
 -1       329 3.57201E+00
 -1       330 2.81310E+00
 -1       331 2.38149E+00
 -1       332 1.82337E+00
 -1       333 1.68167E+00
 -1       334 1.76800E+00
 -1       335 2.07405E+00
 -1       336 1.86611E+00
 -1       337 2.50294E+00
 -1       338 1.79093E+00
 -1       339 1.75093E+00
 -1       340 2.47452E+00
 -1       341 3.27306E+00
 -1       342 4.12969E+00
 -1       343 3.84789E+00
 -1       344 2.87228E+00
 -1       345 2.16979E+00
 -1       346 1.85506E+00
 -1       347 1.53365E+00
 -1       348 1.63064E+00
 -1       349 1.54846E+00
 -1       350 1.41044E+00
 -1       351 1.28284E+00
 -1       352 1.13229E+00
 -1       353 9.43826E-01
 -1       354 7.54008E-01
 -1       355 5.82676E-01
 -1       356 4.37956E-01
 -1       357 3.21034E-01
 -1       358 2.29585E-01
 -1       359 1.59868E-01
 -1       360 1.07880E-01
 -1       361 7.70559E-02
 -1       362 5.56064E-02
 -1       363 4.17243E-02
 -1       364 3.44971E-02
 -1       365 2.79602E-02
 -1       366 2.22512E-02
 -1       367 1.74004E-02
 -1       368 1.35438E-02
 -1       369 1.11714E-02
 -1       370 9.35840E-03
 -1       371 7.66761E-03
 -1       372 6.24756E-03
 -1       373 5.08177E-03
 -1       374 4.05427E-03
 -1       375 3.25221E-03
 -1       376 2.57505E-03
 -1       377 1.98847E-03
 -1       378 1.49281E-03
 -1       379 1.08409E-03
 -1       380 7.71129E-04
 -1       381 5.74090E-04
 -1       382 3.83276E-04
 -1       383 1.31307E+00
 -1       384 1.60312E+00
 -1       385 1.81825E+00
 -1       386 1.83048E+00
 -1       387 1.83048E+00
 -1       388 1.66587E+00
 -1       389 1.83779E+00
 -1       390 1.73099E+00
 -1       391 1.31677E+00
 -1       392 8.86995E-01
 -1       393 5.42516E-01
 -1       394 3.49063E-01
 -1       395 4.76792E-01
 -1       396 5.24509E-01
 -1       397 5.53627E-01
 -1       398 5.22362E-01
 -1       399 4.66719E-01
 -1       400 4.08556E-01
 -1       401 3.39583E-01
 -1       402 2.70308E-01
 -1       403 2.06972E-01
 -1       404 1.53407E-01
 -1       405 1.18689E-01
 -1       406 8.92401E-02
 -1       407 6.51792E-02
 -1       408 4.61288E-02
 -1       409 3.14640E-02
 -1       410 2.36281E-02
 -1       411 2.03325E-02
 -1       412 1.70324E-02
 -1       413 1.39394E-02
 -1       414 1.11697E-02
 -1       415 8.98342E-03
 -1       416 7.77290E-03
 -1       417 6.53930E-03
 -1       418 5.36994E-03
 -1       419 4.41407E-03
 -1       420 3.59398E-03
 -1       421 2.88030E-03
 -1       422 2.25809E-03
 -1       423 1.72781E-03
 -1       424 1.28355E-03
 -1       425 9.42217E-04
 -1       426 7.29104E-04
 -1       427 5.17681E-04
 -1       428 3.04778E-04
 -1       429 2.08632E-04
 -1       430 3.88970E-04
 -1       431 3.88970E-04
 -1       432 2.51918E-04
 -1       433 3.29994E-04
 -1       434 3.66824E-04
 -1       435 3.66824E-04
 -1       436 3.65776E-04
 -1       437 3.65776E-04
 -1       438 3.31001E-04
 -1       439 2.53055E-04
 -1       440 2.09460E-04
 -1       441 3.28830E-04
 -1       442 2.94107E+01
 -1       443 3.29468E+01
 -1       444 3.12671E+01
 -1       445 1.71544E+01
 -1       446 9.96446E+00
 -1       447 5.60201E+00
 -1       448 9.05335E+00
 -1       449 1.05797E+01
 -1       450 1.05835E+01
 -1       451 8.09944E+00
 -1       452 7.16875E+00
 -1       453 9.35868E+00
 -1       454 1.72488E+01
 -1       455 2.74657E+01
 -1       456 2.82103E+01
 -1       457 3.83391E+01
 -1       458 2.97461E+01
 -1       459 2.92185E+01
 -1       460 1.73381E+01
 -1       461 9.87141E+00
 -1       462 6.92896E+00
 -1       463 9.09154E+00
 -1       464 1.09930E+01
 -1       465 1.08957E+01
 -1       466 9.31125E+00
 -1       467 6.36449E+00
 -1       468 1.05759E+01
 -1       469 1.79894E+01
 -1       470 3.09645E+01
 -1       471 3.20407E+01
 -1       472 6.82924E+00
 -1       473 8.66314E+00
 -1       474 2.21475E+01
 -1       475 1.06858E+00
 -1       476 6.29939E+00
 -1       477 6.29939E+00
 -1       478 5.48679E+00
 -1       479 5.09858E+00
 -1       480 3.95321E+00
 -1       481 3.18329E+00
 -1       482 2.16305E+00
 -1       483 1.38891E+00
 -1       484 1.31307E+00
 -1       485 2.69635E+00
 -1       486 4.23612E+00
 -1       487 3.20431E+00
 -1       488 2.70931E+00
 -1       489 4.12969E+00
 -1       490 5.94638E+00
 -1       491 3.84789E+00
 -1       492 2.16979E+00
 -1       493 3.04684E+00
 -1       494 2.59907E+00
 -1       495 2.24194E+00
 -1       496 1.85461E+00
 -1       497 1.54846E+00
 -1       498 1.37907E+00
 -1       499 1.18253E+00
 -1       500 9.67804E-01
 -1       501 7.66703E-01
 -1       502 6.02433E-01
 -1       503 4.63747E-01
 -1       504 3.50343E-01
 -1       505 2.59867E-01
 -1       506 1.89134E-01
 -1       507 1.34814E-01
 -1       508 9.37932E-02
 -1       509 6.33297E-02
 -1       510 4.11039E-02
 -1       511 2.81069E-02
 -1       512 1.97993E-02
 -1       513 1.74668E-02
 -1       514 1.49439E-02
 -1       515 1.24682E-02
 -1       516 1.01786E-02
 -1       517 8.14601E-03
 -1       518 6.94334E-03
 -1       519 5.90489E-03
 -1       520 4.89640E-03
 -1       521 4.03112E-03
 -1       522 3.27905E-03
 -1       523 2.60416E-03
 -1       524 2.01689E-03
 -1       525 1.51858E-03
 -1       526 1.13312E-03
 -1       527 8.23820E-04
 -1       528 5.82995E-04
 -1       529 1.94783E+01
 -1       530 1.81825E+00
 -1       531 1.83048E+00
 -1       532 1.63389E+00
 -1       533 1.66587E+00
 -1       534 1.56620E+00
 -1       535 1.32896E+00
 -1       536 9.92956E-01
 -1       537 7.01144E-01
 -1       538 5.86863E-01
 -1       539 5.06086E-01
 -1       540 5.21871E-01
 -1       541 5.26253E-01
 -1       542 4.91104E-01
 -1       543 4.55804E-01
 -1       544 4.05704E-01
 -1       545 3.48131E-01
 -1       546 2.86082E-01
 -1       547 2.26507E-01
 -1       548 1.73329E-01
 -1       549 1.28280E-01
 -1       550 9.16553E-02
 -1       551 6.29014E-02
 -1       552 4.31358E-02
 -1       553 3.04306E-02
 -1       554 2.36281E-02
 -1       555 2.03325E-02
 -1       556 1.70324E-02
 -1       557 1.39394E-02
 -1       558 1.11697E-02
 -1       559 8.98342E-03
 -1       560 7.77290E-03
 -1       561 6.53930E-03
 -1       562 5.36994E-03
 -1       563 4.41984E-03
 -1       564 3.57555E-03
 -1       565 2.82520E-03
 -1       566 2.24316E-03
 -1       567 1.74589E-03
 -1       568 1.32004E-03
 -1       569 9.65794E-04
 -1       570 6.73556E-04
 -1       571 4.62060E-04
 -1       572 4.15594E-04
 -1       573 4.81513E-04
 -1       574 4.05159E-04
 -1       575 3.58998E-04
 -1       576 4.83434E-04
 -1       577 4.83434E-04
 -1       578 4.83048E-04
 -1       579 4.81481E-04
 -1       580 4.24062E-04
 -1       581 3.75406E-04
 -1       582 3.75406E-04
 -1       583 3.20407E+01
 -1       584 1.60312E+00
 -1       585 1.35121E+01
 -1       586 9.38034E+00
 -1       587 5.84693E+00
 -1       588 2.10173E+01
 -1       589 7.54767E+00
 -1       590 5.70726E+00
 -1       591 5.00791E+00
 -1       592 2.04162E+01
 -1       593 8.64962E+00
 -1       594 7.24124E+00
 -1       595 4.21660E+00
 -1       596 1.20010E+01
 -1       597 7.38697E+00
 -1       598 6.70501E+00
 -1       599 2.60453E+01
 -1       600 4.97142E+00
 -1       601 2.84208E+01
 -1       602 1.31550E+01
 -1       603 9.52111E+00
 -1       604 6.02643E+00
 -1       605 4.82836E+00
 -1       606 7.14256E+00
 -1       607 6.54062E+00
 -1       608 4.61418E+00
 -1       609 1.04604E+01
 -1       610 1.43423E+01
 -1       611 3.12671E+01
 -1       612 1.24686E+00
 -1       613 5.19357E+00
 -1       614 5.84693E+00
 -1       615 3.62914E-04
 -1       616 1.18442E+01
 -1       617 1.58317E+01
 -1       618 6.02640E+00
 -1       619 1.02428E+01
 -1       620 2.66480E+00
 -1       621 1.55389E+00
 -1       622 8.55266E-01
 -1       623 1.66283E+01
 -1       624 1.44707E+01
 -1       625 1.43803E+01
 -1       626 8.37607E+00
 -1       627 6.65538E+00
 -1       628 3.04684E+00
 -1       629 4.46579E+00
 -1       630 3.93849E+00
 -1       631 2.74805E+00
 -1       632 2.19386E+00
 -1       633 1.77718E+00
 -1       634 1.40411E+00
 -1       635 1.10330E+00
 -1       636 8.59765E-01
 -1       637 6.65092E-01
 -1       638 5.12090E-01
 -1       639 3.90520E-01
 -1       640 2.94357E-01
 -1       641 2.18870E-01
 -1       642 1.60201E-01
 -1       643 1.15129E-01
 -1       644 8.09480E-02
 -1       645 5.53959E-02
 -1       646 3.65989E-02
 -1       647 2.30227E-02
 -1       648 1.35974E-02
 -1       649 9.65092E-03
 -1       650 9.10766E-03
 -1       651 8.19255E-03
 -1       652 7.11311E-03
 -1       653 6.00353E-03
 -1       654 5.09798E-03
 -1       655 4.41650E-03
 -1       656 3.71593E-03
 -1       657 3.04713E-03
 -1       658 2.43853E-03
 -1       659 1.95099E-03
 -1       660 1.53695E-03
 -1       661 1.18075E-03
 -1       662 8.95328E-04
 -1       663 6.11977E-04
 -1       664 3.39998E+00
 -1       665 1.04480E+01
 -1       666 1.71354E+00
 -1       667 2.66026E+00
 -1       668 1.38815E+00
 -1       669 1.45912E+00
 -1       670 1.08522E+00
 -1       671 9.58659E-01
 -1       672 8.00204E-01
 -1       673 6.89886E-01
 -1       674 6.44645E-01
 -1       675 5.69996E-01
 -1       676 4.92131E-01
 -1       677 4.40179E-01
 -1       678 3.78480E-01
 -1       679 3.13896E-01
 -1       680 2.52403E-01
 -1       681 1.97361E-01
 -1       682 1.50261E-01
 -1       683 1.11367E-01
 -1       684 8.02004E-02
 -1       685 5.58890E-02
 -1       686 3.74040E-02
 -1       687 2.37066E-02
 -1       688 1.53508E-02
 -1       689 1.20622E-02
 -1       690 1.10755E-02
 -1       691 9.77154E-03
 -1       692 8.35507E-03
 -1       693 6.95897E-03
 -1       694 5.78057E-03
 -1       695 4.98692E-03
 -1       696 4.20800E-03
 -1       697 3.45910E-03
 -1       698 2.83248E-03
 -1       699 2.26293E-03
 -1       700 1.76017E-03
 -1       701 1.33689E-03
 -1       702 1.01587E-03
 -1       703 7.36480E-04
 -1       704 5.67469E-04
 -1       705 6.21175E-04
 -1       706 1.27819E+01
 -1       707 5.93619E-04
 -1       708 6.22281E-04
 -1       709 6.21175E-04
 -1       710 6.22281E-04
 -1       711 6.02521E-04
 -1       712 4.96836E-04
 -1       713 1.44458E+00
 -1       714 3.07964E+00
 -1       715 7.43358E+00
 -1       716 4.03755E-04
 -1       717 5.55700E+00
 -1       718 9.55885E+00
 -1       719 3.91790E+00
 -1       720 2.00185E+00
 -1       721 5.28982E+00
 -1       722 1.20248E+01
 -1       723 1.19492E+00
 -1       724 8.06882E+00
 -1       725 8.88718E+00
 -1       726 5.38493E+00
 -1       727 5.81574E+00
 -1       728 1.24497E+01
 -1       729 4.14762E+00
 -1       730 5.73786E+00
 -1       731 1.00785E+01
 -1       732 3.05343E+00
 -1       733 8.49743E+00
 -1       734 4.21660E+00
 -1       735 5.97978E+00
 -1       736 6.28397E+00
 -1       737 3.85846E+00
 -1       738 8.06882E+00
 -1       739 1.03572E+01
 -1       740 8.34980E+00
 -1       741 3.61817E+00
 -1       742 4.68373E-04
 -1       743 4.38328E+00
 -1       744 5.06954E-04
 -1       745 5.07724E-04
 -1       746 1.81373E+00
 -1       747 3.91790E+00
 -1       748 7.83670E-04
 -1       749 2.36776E+00
 -1       750 4.52859E+00
 -1       751 3.53025E+00
 -1       752 2.38031E+00
 -1       753 1.71776E+00
 -1       754 1.30616E+00
 -1       755 1.03211E+00
 -1       756 8.01722E-01
 -1       757 6.12777E-01
 -1       758 4.61641E-01
 -1       759 3.42788E-01
 -1       760 2.50657E-01
 -1       761 1.80154E-01
 -1       762 1.26895E-01
 -1       763 8.90771E-02
 -1       764 6.12732E-02
 -1       765 4.09689E-02
 -1       766 2.75389E-02
 -1       767 1.77248E-02
 -1       768 1.07016E-02
 -1       769 6.14705E-03
 -1       770 5.95771E-03
 -1       771 6.02714E-03
 -1       772 5.67746E-03
 -1       773 5.09798E-03
 -1       774 4.41650E-03
 -1       775 3.81729E-03
 -1       776 3.31406E-03
 -1       777 2.78985E-03
 -1       778 2.28483E-03
 -1       779 1.82172E-03
 -1       780 1.41167E-03
 -1       781 1.05738E-03
 -1       782 7.57858E-04
 -1       783 9.80592E+00
 -1       784 2.92085E+00
 -1       785 1.08522E+00
 -1       786 1.15643E+00
 -1       787 1.00427E+00
 -1       788 8.55576E-01
 -1       789 7.01450E-01
 -1       790 5.85308E-01
 -1       791 5.00153E-01
 -1       792 4.17074E-01
 -1       793 3.37960E-01
 -1       794 2.67295E-01
 -1       795 2.08406E-01
 -1       796 1.59489E-01
 -1       797 1.19722E-01
 -1       798 8.80178E-02
 -1       799 6.32082E-02
 -1       800 4.41507E-02
 -1       801 2.97905E-02
 -1       802 1.91913E-02
 -1       803 1.15470E-02
 -1       804 7.06076E-03
 -1       805 6.77657E-03
 -1       806 6.65079E-03
 -1       807 6.14813E-03
 -1       808 5.44677E-03
 -1       809 4.66818E-03
 -1       810 4.04343E-03
 -1       811 3.49131E-03
 -1       812 2.92489E-03
 -1       813 2.38441E-03
 -1       814 1.89245E-03
 -1       815 1.45944E-03
 -1       816 1.08828E-03
 -1       817 7.79212E-04
 -1       818 6.35050E-04
 -1       819 8.74785E+00
 -1       820 5.97564E-04
 -1       821 1.21015E+01
 -1       822 7.13865E+00
 -1       823 7.41004E-04
 -1       824 2.92085E+00
 -1       825 2.14992E+00
 -1       826 7.83670E-04
 -1       827 1.45912E+00
 -1       828 2.61173E+00
 -1       829 9.80592E+00
 -1       830 6.97520E+00
 -1       831 2.62013E+00
 -1       832 2.91038E+00
 -1       833 8.57065E+00
 -1       834 5.25209E+00
 -1       835 7.43358E+00
 -1       836 2.14992E+00
 -1       837 2.61173E+00
 -1       838 2.00185E+00
 -1       839 1.00785E+01
 -1       840 7.32598E+00
 -1       841 1.55957E+00
 -1       842 5.84149E+00
 -1       843 4.11607E+00
 -1       844 6.97520E+00
 -1       845 3.29302E+00
 -1       846 7.65372E-04
 -1       847 7.65372E-04
 -1       848 1.26393E+00
 -1       849 4.12427E+00
 -1       850 8.74785E+00
 -1       851 7.54443E-04
 -1       852 2.56414E+00
 -1       853 3.25803E+00
 -1       854 6.76302E-04
 -1       855 7.09708E-04
 -1       856 9.80592E+00
 -1       857 3.17636E+00
 -1       858 2.32636E+00
 -1       859 1.71776E+00
 -1       860 1.27915E+00
 -1       861 9.60367E-01
 -1       862 7.23987E-01
 -1       863 5.46092E-01
 -1       864 4.10234E-01
 -1       865 3.05941E-01
 -1       866 2.25760E-01
 -1       867 1.64356E-01
 -1       868 1.17660E-01
 -1       869 8.24878E-02
 -1       870 5.68932E-02
 -1       871 3.86818E-02
 -1       872 2.53295E-02
 -1       873 1.57205E-02
 -1       874 9.08146E-03
 -1       875 4.54542E-03
 -1       876 3.45950E-03
 -1       877 4.06908E-03
 -1       878 4.17036E-03
 -1       879 3.95919E-03
 -1       880 3.57275E-03
 -1       881 3.10441E-03
 -1       882 2.73492E-03
 -1       883 2.34491E-03
 -1       884 1.95035E-03
 -1       885 1.57558E-03
 -1       886 1.23393E-03
 -1       887 1.14073E+00
 -1       888 1.43001E+00
 -1       889 2.47624E+00
 -1       890 9.25923E-01
 -1       891 7.52849E-01
 -1       892 5.94337E-01
 -1       893 4.70176E-01
 -1       894 3.70998E-01
 -1       895 2.98359E-01
 -1       896 2.40891E-01
 -1       897 1.88863E-01
 -1       898 1.44074E-01
 -1       899 1.06943E-01
 -1       900 7.70995E-02
 -1       901 5.41868E-02
 -1       902 3.73584E-02
 -1       903 2.46790E-02
 -1       904 1.53608E-02
 -1       905 8.80432E-03
 -1       906 4.37531E-03
 -1       907 3.94716E-03
 -1       908 4.48078E-03
 -1       909 4.51559E-03
 -1       910 4.24404E-03
 -1       911 3.80284E-03
 -1       912 3.29275E-03
 -1       913 2.91809E-03
 -1       914 2.49669E-03
 -1       915 2.07243E-03
 -1       916 1.67174E-03
 -1       917 1.30840E-03
 -1       918 9.88665E-04
 -1       919 9.48667E-04
 -1       920 5.38454E+00
 -1       921 6.31959E+00
 -1       922 2.47624E+00
 -1       923 5.14311E+00
 -1       924 5.28644E+00
 -1       925 8.02739E+00
 -1       926 9.19563E-04
 -1       927 1.03037E-03
 -1       928 9.17119E-04
 -1       929 9.09528E-04
 -1       930 9.21571E-04
 -1       931 3.18910E+00
 -1       932 1.03037E-03
 -1       933 4.45231E+00
 -1       934 2.24191E+00
 -1       935 2.52518E+00
 -1       936 2.09790E+00
 -1       937 1.45041E+00
 -1       938 1.03725E+00
 -1       939 7.62574E-01
 -1       940 5.72196E-01
 -1       941 4.32344E-01
 -1       942 3.27051E-01
 -1       943 2.46019E-01
 -1       944 1.83344E-01
 -1       945 1.34890E-01
 -1       946 9.76308E-02
 -1       947 6.92435E-02
 -1       948 4.78769E-02
 -1       949 3.26687E-02
 -1       950 2.17891E-02
 -1       951 1.38627E-02
 -1       952 8.21243E-03
 -1       953 4.41455E-03
 -1       954 2.38902E-03
 -1       955 2.77367E-03
 -1       956 3.07672E-03
 -1       957 3.05806E-03
 -1       958 2.84620E-03
 -1       959 2.53057E-03
 -1       960 2.19299E-03
 -1       961 1.89723E-03
 -1       962 1.58957E-03
 -1       963 1.28979E-03
 -1       964 1.10564E+00
 -1       965 1.68452E+00
 -1       966 2.47624E+00
 -1       967 7.16867E-01
 -1       968 5.69925E-01
 -1       969 4.54617E-01
 -1       970 3.70998E-01
 -1       971 2.96422E-01
 -1       972 2.31979E-01
 -1       973 1.78022E-01
 -1       974 1.33913E-01
 -1       975 9.85956E-02
 -1       976 7.08636E-02
 -1       977 4.95061E-02
 -1       978 3.38259E-02
 -1       979 2.26253E-02
 -1       980 1.43964E-02
 -1       981 8.49282E-03
 -1       982 4.65301E-03
 -1       983 2.62043E-03
 -1       984 3.06139E-03
 -1       985 3.35058E-03
 -1       986 3.30768E-03
 -1       987 3.06545E-03
 -1       988 2.71701E-03
 -1       989 2.38369E-03
 -1       990 2.06137E-03
 -1       991 1.72643E-03
 -1       992 1.40459E-03
 -1       993 4.04582E+00
 -1       994 3.86024E+00
 -1       995 3.73562E+00
 -1       996 1.04813E-03
 -1       997 1.11241E-03
 -1       998 1.04813E-03
 -1       999 1.09873E-03
 -1      1000 1.04119E-03
 -1      1001 3.40683E+00
 -1      1002 2.95078E+00
 -1      1003 1.29018E+00
 -1      1004 1.01024E+00
 -1      1005 7.32796E-01
 -1      1006 5.36842E-01
 -1      1007 4.02853E-01
 -1      1008 3.03149E-01
 -1      1009 2.31123E-01
 -1      1010 1.76707E-01
 -1      1011 1.33474E-01
 -1      1012 9.92790E-02
 -1      1013 7.24965E-02
 -1      1014 5.17892E-02
 -1      1015 3.60199E-02
 -1      1016 2.45169E-02
 -1      1017 1.68855E-02
 -1      1018 1.13542E-02
 -1      1019 7.31111E-03
 -1      1020 4.41455E-03
 -1      1021 2.38902E-03
 -1      1022 1.94389E-03
 -1      1023 2.27910E-03
 -1      1024 2.33222E-03
 -1      1025 2.21144E-03
 -1      1026 1.99291E-03
 -1      1027 1.72796E-03
 -1      1028 1.45524E-03
 -1      1029 1.33999E-03
 -1      1030 7.12833E-01
 -1      1031 5.69925E-01
 -1      1032 4.45041E-01
 -1      1033 3.45965E-01
 -1      1034 2.65833E-01
 -1      1035 2.02112E-01
 -1      1036 1.51776E-01
 -1      1037 1.12313E-01
 -1      1038 8.16744E-02
 -1      1039 5.81635E-02
 -1      1040 4.03657E-02
 -1      1041 2.71947E-02
 -1      1042 1.82423E-02
 -1      1043 1.18312E-02
 -1      1044 7.68409E-03
 -1      1045 4.68569E-03
 -1      1046 2.62043E-03
 -1      1047 2.17096E-03
 -1      1048 2.52048E-03
 -1      1049 2.56780E-03
 -1      1050 2.42864E-03
 -1      1051 2.18492E-03
 -1      1052 1.89175E-03
 -1      1053 1.62412E-03
 -1      1054 1.49030E-03
 -1      1055 2.26604E+00
 -1      1056 3.29394E+00
 -1      1057 9.37059E-01
 -1      1058 1.20800E-03
 -1      1059 1.75993E+00
 -1      1060 1.75884E+00
 -1      1061 1.24672E+00
 -1      1062 2.66163E+00
 -1      1063 1.17363E-03
 -1      1064 1.30554E+00
 -1      1065 8.00424E-01
 -1      1066 7.37677E-01
 -1      1067 5.49504E-01
 -1      1068 4.07232E-01
 -1      1069 3.01720E-01
 -1      1070 2.23259E-01
 -1      1071 1.64469E-01
 -1      1072 1.20199E-01
 -1      1073 8.78563E-02
 -1      1074 6.40743E-02
 -1      1075 4.58340E-02
 -1      1076 3.20176E-02
 -1      1077 2.22295E-02
 -1      1078 1.52419E-02
 -1      1079 1.00705E-02
 -1      1080 6.31650E-03
 -1      1081 3.65221E-03
 -1      1082 1.81230E-03
 -1      1083 1.40176E-03
 -1      1084 1.81773E-03
 -1      1085 1.95268E-03
 -1      1086 1.90569E-03
 -1      1087 1.72742E-03
 -1      1088 1.39634E-03
 -1      1089 1.33999E-03
 -1      1090 7.37677E-01
 -1      1091 7.37677E-01
 -1      1092 4.07232E-01
 -1      1093 3.01720E-01
 -1      1094 2.23259E-01
 -1      1095 1.64469E-01
 -1      1096 1.20199E-01
 -1      1097 8.68286E-02
 -1      1098 6.17465E-02
 -1      1099 4.30146E-02
 -1      1100 2.99392E-02
 -1      1101 2.02881E-02
 -1      1102 1.32300E-02
 -1      1103 8.15663E-03
 -1      1104 4.68569E-03
 -1      1105 2.57276E-03
 -1      1106 1.61584E-03
 -1      1107 1.90874E-03
 -1      1108 1.96200E-03
 -1      1109 1.95268E-03
 -1      1110 1.90569E-03
 -1      1111 1.72742E-03
 -1      1112 1.49030E-03
 -1      1113 9.18540E-01
 -1      1114 5.49504E-01
 -1      1115 2.19503E+00
 -1      1116 1.02574E-03
 -1      1117 1.30554E+00
 -1      1118 2.40133E+00
 -1      1119 1.57667E+00
 -1      1120 6.34106E-01
 -1      1121 1.71238E+00
 -1      1122 1.71238E+00
 -1      1123 1.19283E+01
 -1      1124 8.40843E+00
 -1      1125 4.38623E+00
 -1      1126 3.81817E+00
 -1      1127 3.75242E+00
 -1      1128 3.57171E+00
 -1      1129 2.82668E+00
 -1      1130 2.30507E+00
 -1      1131 2.55576E+00
 -1      1132 2.76374E+00
 -1      1133 2.67837E+00
 -1      1134 2.41877E+00
 -1      1135 2.25969E+00
 -1      1136 2.40134E+00
 -1      1137 3.25745E+00
 -1      1138 6.33320E+00
 -1      1139 1.10170E+01
 -1      1140 1.19283E+01
 -1      1141 6.78499E+00
 -1      1142 1.41601E+00
 -1      1143 1.30318E+00
 -1      1144 1.87929E+00
 -1      1145 3.25335E+00
 -1      1146 5.04847E+00
 -1      1147 5.93283E+00
 -1      1148 5.89009E+00
 -1      1149 5.65831E+00
 -1      1150 4.33875E+00
 -1      1151 2.62382E+00
 -1      1152 1.98496E+00
 -1      1153 1.94916E+00
 -1      1154 1.96780E+00
 -1      1155 1.85189E+00
 -1      1156 1.56278E+00
 -1      1157 1.24537E+00
 -1      1158 9.72085E-01
 -1      1159 7.58319E-01
 -1      1160 6.11115E-01
 -1      1161 4.90826E-01
 -1      1162 3.83198E-01
 -1      1163 2.92192E-01
 -1      1164 2.18121E-01
 -1      1165 1.59495E-01
 -1      1166 1.19300E-01
 -1      1167 9.51261E-02
 -1      1168 7.69166E-02
 -1      1169 6.11097E-02
 -1      1170 4.77474E-02
 -1      1171 3.66952E-02
 -1      1172 2.77257E-02
 -1      1173 2.13222E-02
 -1      1174 1.71895E-02
 -1      1175 1.39335E-02
 -1      1176 1.10867E-02
 -1      1177 8.66599E-03
 -1      1178 6.72914E-03
 -1      1179 5.21726E-03
 -1      1180 3.98019E-03
 -1      1181 2.97202E-03
 -1      1182 2.24327E-03
 -1      1183 1.79218E-03
 -1      1184 1.46626E-03
 -1      1185 1.17673E-03
 -1      1186 9.11747E-04
 -1      1187 7.34010E-04
 -1      1188 5.61966E-04
 -1      1189 2.73375E-04
 -1      1190 1.33547E+01
 -1      1191 7.96920E+00
 -1      1192 2.03247E+00
 -1      1193 1.41787E+00
 -1      1194 1.49235E+00
 -1      1195 1.94334E+00
 -1      1196 2.46800E+00
 -1      1197 2.75148E+00
 -1      1198 2.91571E+00
 -1      1199 3.00801E+00
 -1      1200 2.78246E+00
 -1      1201 2.14498E+00
 -1      1202 1.40261E+00
 -1      1203 8.91487E-01
 -1      1204 6.91628E-01
 -1      1205 7.15039E-01
 -1      1206 7.57635E-01
 -1      1207 7.44493E-01
 -1      1208 6.87469E-01
 -1      1209 5.91746E-01
 -1      1210 4.91623E-01
 -1      1211 3.95281E-01
 -1      1212 3.03777E-01
 -1      1213 2.33014E-01
 -1      1214 1.83064E-01
 -1      1215 1.40871E-01
 -1      1216 1.05114E-01
 -1      1217 7.59960E-02
 -1      1218 5.30637E-02
 -1      1219 3.98103E-02
 -1      1220 3.33929E-02
 -1      1221 2.73147E-02
 -1      1222 2.18505E-02
 -1      1223 1.76241E-02
 -1      1224 1.49556E-02
 -1      1225 1.29061E-02
 -1      1226 1.08382E-02
 -1      1227 8.89421E-03
 -1      1228 7.18336E-03
 -1      1229 5.76998E-03
 -1      1230 4.59343E-03
 -1      1231 3.58622E-03
 -1      1232 2.74236E-03
 -1      1233 2.04584E-03
 -1      1234 1.51816E-03
 -1      1235 1.16942E-03
 -1      1236 9.07134E-04
 -1      1237 6.44720E-04
 -1      1238 4.21345E-04
 -1      1239 2.13648E-04
 -1      1240 1.19571E-04
 -1      1241 1.44888E-04
 -1      1242 1.35221E-04
 -1      1243 9.62074E-05
 -1      1244 6.49635E-05
 -1      1245 8.41909E-05
 -1      1246 1.18016E-04
 -1      1247 1.34429E-04
 -1      1248 1.38140E-04
 -1      1249 1.34296E-04
 -1      1250 1.17192E-04
 -1      1251 8.33980E-05
 -1      1252 6.56350E-05
 -1      1253 9.69146E-05
 -1      1254 1.58992E-04
 -1      1255 2.02015E-04
 -1      1256 1.59532E-04
 -1      1257 2.61270E+01
 -1      1258 3.69257E+01
 -1      1259 4.77243E+01
 -1      1260 3.46727E+01
 -1      1261 1.67711E+01
 -1      1262 1.20468E+01
 -1      1263 1.21726E+01
 -1      1264 1.26275E+01
 -1      1265 1.30825E+01
 -1      1266 1.23622E+01
 -1      1267 1.59332E+01
 -1      1268 3.38607E+01
 -1      1269 4.74968E+01
 -1      1270 3.74960E+01
 -1      1271 2.76453E+01
 -1      1272 2.77953E+01
 -1      1273 3.79102E+01
 -1      1274 4.80250E+01
 -1      1275 3.46634E+01
 -1      1276 1.64778E+01
 -1      1277 1.21120E+01
 -1      1278 1.25702E+01
 -1      1279 1.26222E+01
 -1      1280 1.26742E+01
 -1      1281 1.24703E+01
 -1      1282 1.77817E+01
 -1      1283 3.59721E+01
 -1      1284 4.86471E+01
 -1      1285 3.70301E+01
 -1      1286 2.57700E+01
 -1      1287 1.19283E+01
 -1      1288 6.01035E+00
 -1      1289 9.53025E+00
 -1      1290 3.97237E+00
 -1      1291 4.47468E+00
 -1      1292 5.59650E+00
 -1      1293 3.76574E+00
 -1      1294 3.83149E+00
 -1      1295 3.91994E+00
 -1      1296 3.84912E+00
 -1      1297 3.84912E+00
 -1      1298 3.86244E+00
 -1      1299 3.66841E+00
 -1      1300 3.84912E+00
 -1      1301 3.94582E+00
 -1      1302 2.86371E+00
 -1      1303 3.42804E+00
 -1      1304 3.70545E+00
 -1      1305 2.42246E+00
 -1      1306 2.37974E+00
 -1      1307 2.98111E+00
 -1      1308 2.95930E+00
 -1      1309 2.75133E+00
 -1      1310 2.82600E+00
 -1      1311 2.95930E+00
 -1      1312 2.95930E+00
 -1      1313 3.15487E+00
 -1      1314 2.78379E+00
 -1      1315 2.86915E+00
 -1      1316 3.06472E+00
 -1      1317 2.30147E+00
 -1      1318 2.47571E+00
 -1      1319 2.66649E+00
 -1      1320 2.27485E+00
 -1      1321 2.25969E+00
 -1      1322 2.31663E+00
 -1      1323 2.46460E+00
 -1      1324 2.33811E+00
 -1      1325 2.33811E+00
 -1      1326 3.44847E+00
 -1      1327 2.71886E+00
 -1      1328 2.65563E+00
 -1      1329 6.47978E+00
 -1      1330 4.13365E+00
 -1      1331 3.59506E+00
 -1      1332 1.33547E+01
 -1      1333 1.10170E+01
 -1      1334 8.81748E+00
 -1      1335 1.33547E+01
 -1      1336 7.88429E+00
 -1      1337 2.74094E+00
 -1      1338 2.08846E+00
 -1      1339 1.86282E+00
 -1      1340 3.18776E+00
 -1      1341 1.20272E+00
 -1      1342 1.31553E+00
 -1      1343 1.87517E+00
 -1      1344 1.41599E+00
 -1      1345 1.87929E+00
 -1      1346 1.31553E+00
 -1      1347 2.39457E+00
 -1      1348 3.30532E+00
 -1      1349 1.93126E+00
 -1      1350 4.16410E+00
 -1      1351 5.04847E+00
 -1      1352 3.30532E+00
 -1      1353 5.93283E+00
 -1      1354 5.93283E+00
 -1      1355 5.04847E+00
 -1      1356 5.89009E+00
 -1      1357 5.84735E+00
 -1      1358 5.89009E+00
 -1      1359 5.65831E+00
 -1      1360 5.46926E+00
 -1      1361 5.65831E+00
 -1      1362 4.38452E+00
 -1      1363 3.25401E+00
 -1      1364 4.38452E+00
 -1      1365 2.62382E+00
 -1      1366 2.03941E+00
 -1      1367 2.66959E+00
 -1      1368 1.98496E+00
 -1      1369 1.93051E+00
 -1      1370 1.98496E+00
 -1      1371 1.90207E+00
 -1      1372 1.92071E+00
 -1      1373 1.90207E+00
 -1      1374 1.96780E+00
 -1      1375 1.96780E+00
 -1      1376 1.92071E+00
 -1      1377 1.85189E+00
 -1      1378 1.73599E+00
 -1      1379 1.85189E+00
 -1      1380 1.58262E+00
 -1      1381 1.40941E+00
 -1      1382 1.58262E+00
 -1      1383 1.30872E+00
 -1      1384 1.16452E+00
 -1      1385 1.32856E+00
 -1      1386 1.06900E+00
 -1      1387 9.39924E-01
 -1      1388 1.13236E+00
 -1      1389 8.36014E-01
 -1      1390 7.51326E-01
 -1      1391 9.32932E-01
 -1      1392 6.54576E-01
 -1      1393 5.92061E-01
 -1      1394 7.32272E-01
 -1      1395 5.09504E-01
 -1      1396 4.51730E-01
 -1      1397 5.52965E-01
 -1      1398 3.85155E-01
 -1      1399 3.35301E-01
 -1      1400 4.03833E-01
 -1      1401 2.95748E-01
 -1      1402 2.54596E-01
 -1      1403 2.97705E-01
 -1      1404 2.23715E-01
 -1      1405 1.90796E-01
 -1      1406 2.27271E-01
 -1      1407 1.65909E-01
 -1      1408 1.40202E-01
 -1      1409 1.71502E-01
 -1      1410 1.20589E-01
 -1      1411 1.06101E-01
 -1      1412 1.27003E-01
 -1      1413 9.51261E-02
 -1      1414 8.54403E-02
 -1      1415 9.64154E-02
 -1      1416 7.69166E-02
 -1      1417 6.83930E-02
 -1      1418 7.69166E-02
 -1      1419 6.11097E-02
 -1      1420 5.38263E-02
 -1      1421 6.11097E-02
 -1      1422 4.77474E-02
 -1      1423 4.16684E-02
 -1      1424 4.77474E-02
 -1      1425 3.66952E-02
 -1      1426 3.17219E-02
 -1      1427 3.66952E-02
 -1      1428 2.81465E-02
 -1      1429 2.41502E-02
 -1      1430 2.81465E-02
 -1      1431 2.13590E-02
 -1      1432 1.89517E-02
 -1      1433 2.17797E-02
 -1      1434 1.71895E-02
 -1      1435 1.54640E-02
 -1      1436 1.72262E-02
 -1      1437 1.39335E-02
 -1      1438 1.24031E-02
 -1      1439 1.39335E-02
 -1      1440 1.11150E-02
 -1      1441 9.79863E-03
 -1      1442 1.11150E-02
 -1      1443 8.83483E-03
 -1      1444 7.73046E-03
 -1      1445 8.86310E-03
 -1      1446 6.90459E-03
 -1      1447 6.07212E-03
 -1      1448 7.07343E-03
 -1      1449 5.47781E-03
 -1      1450 4.79839E-03
 -1      1451 5.65325E-03
 -1      1452 4.27497E-03
 -1      1453 3.71732E-03
 -1      1454 4.53552E-03
 -1      1455 3.26866E-03
 -1      1456 2.81814E-03
 -1      1457 3.56344E-03
 -1      1458 2.44163E-03
 -1      1459 2.16340E-03
 -1      1460 2.73827E-03
 -1      1461 1.85289E-03
 -1      1462 1.68003E-03
 -1      1463 2.05125E-03
 -1      1464 1.46626E-03
 -1      1465 1.31320E-03
 -1      1466 1.52697E-03
 -1      1467 1.17673E-03
 -1      1468 1.04025E-03
 -1      1469 1.17673E-03
 -1      1470 9.11747E-04
 -1      1471 7.83244E-04
 -1      1472 9.11747E-04
 -1      1473 7.34010E-04
 -1      1474 6.84776E-04
 -1      1475 7.34010E-04
 -1      1476 5.61966E-04
 -1      1477 4.39155E-04
 -1      1478 5.61966E-04
 -1      1479 3.25312E-04
 -1      1480 3.25312E-04
 -1      1481 2.58366E+00
 -1      1482 7.96920E+00
 -1      1483 7.96920E+00
 -1      1484 1.67369E+00
 -1      1485 2.22489E+00
 -1      1486 2.22489E+00
 -1      1487 1.33164E+00
 -1      1488 1.39504E+00
 -1      1489 1.58746E+00
 -1      1490 1.49235E+00
 -1      1491 1.35447E+00
 -1      1492 1.33164E+00
 -1      1493 2.00695E+00
 -1      1494 1.69384E+00
 -1      1495 1.55596E+00
 -1      1496 2.46800E+00
 -1      1497 2.25646E+00
 -1      1498 2.00695E+00
 -1      1499 2.75148E+00
 -1      1500 2.67955E+00
 -1      1501 2.46800E+00
 -1      1502 2.91571E+00
 -1      1503 2.82341E+00
 -1      1504 2.75148E+00
 -1      1505 3.00801E+00
 -1      1506 3.00801E+00
 -1      1507 2.91571E+00
 -1      1508 2.55692E+00
 -1      1509 2.78246E+00
 -1      1510 2.78246E+00
 -1      1511 1.73305E+00
 -1      1512 2.14498E+00
 -1      1513 2.14498E+00
 -1      1514 1.07216E+00
 -1      1515 1.40261E+00
 -1      1516 1.40261E+00
 -1      1517 7.10812E-01
 -1      1518 8.91487E-01
 -1      1519 8.91487E-01
 -1      1520 6.60112E-01
 -1      1521 6.79297E-01
 -1      1522 6.79297E-01
 -1      1523 7.15039E-01
 -1      1524 6.72443E-01
 -1      1525 6.60112E-01
 -1      1526 7.57635E-01
 -1      1527 7.57635E-01
 -1      1528 7.15039E-01
 -1      1529 7.31350E-01
 -1      1530 7.44493E-01
 -1      1531 7.44493E-01
 -1      1532 6.43589E-01
 -1      1533 6.87469E-01
 -1      1534 6.87469E-01
 -1      1535 5.39903E-01
 -1      1536 5.91746E-01
 -1      1537 5.91746E-01
 -1      1538 4.46048E-01
 -1      1539 4.94327E-01
 -1      1540 4.94327E-01
 -1      1541 3.55145E-01
 -1      1542 4.03208E-01
 -1      1543 4.05912E-01
 -1      1544 2.70882E-01
 -1      1545 3.14323E-01
 -1      1546 3.22250E-01
 -1      1547 2.07588E-01
 -1      1548 2.34911E-01
 -1      1549 2.45457E-01
 -1      1550 1.60438E-01
 -1      1551 1.83064E-01
 -1      1552 1.84962E-01
 -1      1553 1.21304E-01
 -1      1554 1.40871E-01
 -1      1555 1.40871E-01
 -1      1556 8.90815E-02
 -1      1557 1.05272E-01
 -1      1558 1.05272E-01
 -1      1559 6.41241E-02
 -1      1560 7.70511E-02
 -1      1561 7.72097E-02
 -1      1562 4.45936E-02
 -1      1563 5.45989E-02
 -1      1564 5.56540E-02
 -1      1565 3.65623E-02
 -1      1566 3.98103E-02
 -1      1567 4.13456E-02
 -1      1568 3.02235E-02
 -1      1569 3.33929E-02
 -1      1570 3.33929E-02
 -1      1571 2.44060E-02
 -1      1572 2.73147E-02
 -1      1573 2.73147E-02
 -1      1574 1.92951E-02
 -1      1575 2.18505E-02
 -1      1576 2.18505E-02
 -1      1577 1.59531E-02
 -1      1578 1.76241E-02
 -1      1579 1.76241E-02
 -1      1580 1.39581E-02
 -1      1581 1.49556E-02
 -1      1582 1.49556E-02
 -1      1583 1.18541E-02
 -1      1584 1.29061E-02
 -1      1585 1.29061E-02
 -1      1586 9.82226E-03
 -1      1587 1.08382E-02
 -1      1588 1.08382E-02
 -1      1589 7.96616E-03
 -1      1590 8.89421E-03
 -1      1591 8.89421E-03
 -1      1592 6.40055E-03
 -1      1593 7.18336E-03
 -1      1594 7.18336E-03
 -1      1595 5.13942E-03
 -1      1596 5.76998E-03
 -1      1597 5.76998E-03
 -1      1598 4.04745E-03
 -1      1599 4.59343E-03
 -1      1600 4.59343E-03
 -1      1601 3.15294E-03
 -1      1602 3.61417E-03
 -1      1603 3.61417E-03
 -1      1604 2.40295E-03
 -1      1605 2.78558E-03
 -1      1606 2.81353E-03
 -1      1607 1.78258E-03
 -1      1608 2.09646E-03
 -1      1609 2.13969E-03
 -1      1610 1.31595E-03
 -1      1611 1.52974E-03
 -1      1612 1.58036E-03
 -1      1613 1.03447E-03
 -1      1614 1.16942E-03
 -1      1615 1.18100E-03
 -1      1616 7.79795E-04
 -1      1617 9.07134E-04
 -1      1618 9.07134E-04
 -1      1619 5.13663E-04
 -1      1620 6.48738E-04
 -1      1621 6.48738E-04
 -1      1622 3.33043E-04
 -1      1623 4.21345E-04
 -1      1624 4.25362E-04
 -1      1625 2.38966E-04
 -1      1626 1.71485E-04
 -1      1627 1.71485E-04
 -1      1628 1.61819E-04
 -1      1629 1.71485E-04
 -1      1630 1.98082E-04
 -1      1631 1.31069E-04
 -1      1632 1.60416E-04
 -1      1633 1.96680E-04
 -1      1634 8.51620E-05
 -1      1635 8.70585E-05
 -1      1636 1.51267E-04
 -1      1637 1.46587E-04
 -1      1638 1.25463E-04
 -1      1639 1.47558E-04
 -1      1640 1.85736E-04
 -1      1641 1.73035E-04
 -1      1642 2.14307E-04
 -1      1643 2.00247E-04
 -1      1644 1.96535E-04
 -1      1645 2.51554E-04
 -1      1646 2.00247E-04
 -1      1647 2.00247E-04
 -1      1648 2.62353E-04
 -1      1649 1.96371E-04
 -1      1650 2.00215E-04
 -1      1651 2.62322E-04
 -1      1652 1.71681E-04
 -1      1653 1.84942E-04
 -1      1654 2.50861E-04
 -1      1655 1.25724E-04
 -1      1656 1.46257E-04
 -1      1657 2.14007E-04
 -1      1658 8.88617E-05
 -1      1659 8.60916E-05
 -1      1660 1.48951E-04
 -1      1661 1.61032E-04
 -1      1662 1.32522E-04
 -1      1663 1.52979E-04
 -1      1664 1.94600E-04
 -1      1665 1.61032E-04
 -1      1666 1.96639E-04
 -1      1667 2.33765E-04
 -1      1668 2.24311E-04
 -1      1669 2.26350E-04
 -1      1670 3.47608E-04
 -1      1671 2.95369E+01
 -1      1672 2.95369E+01
 -1      1673 3.85675E+01
 -1      1674 2.77688E+01
 -1      1675 4.77243E+01
 -1      1676 4.77243E+01
 -1      1677 2.21445E+01
 -1      1678 3.51960E+01
 -1      1679 1.17280E+01
 -1      1680 1.65781E+01
 -1      1681 1.20468E+01
 -1      1682 1.19210E+01
 -1      1683 1.21726E+01
 -1      1684 1.21726E+01
 -1      1685 1.22503E+01
 -1      1686 1.17953E+01
 -1      1687 1.30825E+01
 -1      1688 1.30825E+01
 -1      1689 1.16419E+01
 -1      1690 1.23622E+01
 -1      1691 1.56504E+01
 -1      1692 1.13590E+01
 -1      1693 3.43297E+01
 -1      1694 2.06936E+01
 -1      1695 4.74968E+01
 -1      1696 4.74968E+01
 -1      1697 3.25401E+01
 -1      1698 4.25409E+01
 -1      1699 3.30672E+01
 -1      1700 3.29172E+01
 -1      1701 3.30672E+01
 -1      1702 3.30672E+01
 -1      1703 3.86218E+01
 -1      1704 2.85069E+01
 -1      1705 4.80250E+01
 -1      1706 4.80250E+01
 -1      1707 2.21944E+01
 -1      1708 3.55559E+01
 -1      1709 1.14749E+01
 -1      1710 1.62989E+01
 -1      1711 1.21120E+01
 -1      1712 1.16538E+01
 -1      1713 1.25702E+01
 -1      1714 1.25702E+01
 -1      1715 1.25618E+01
 -1      1716 1.25098E+01
 -1      1717 1.26742E+01
 -1      1718 1.26742E+01
 -1      1719 1.22663E+01
 -1      1720 1.24703E+01
 -1      1721 1.76428E+01
 -1      1722 1.21274E+01
 -1      1723 3.66063E+01
 -1      1724 2.39313E+01
 -1      1725 4.86471E+01
 -1      1726 4.86471E+01
 -1      1727 2.81888E+01
 -1      1728 3.98058E+01
 -1      1729 2.95369E+01
 -1      1730 2.91799E+01
 -1      1731 1.71014E+01
 -1      1732 3.51960E+01
 -1      1733 2.38966E-04
 -1      1734 2.65563E-04
 -1      1735 3.11787E+01
 -1      1736 3.85675E+01
 -1      1737 3.29468E+01
 -1      1738 1.17280E+01
 -1      1739 1.20468E+01
 -1      1740 1.17953E+01
 -1      1741 1.22503E+01
 -1      1742 1.23622E+01
 -1      1743 1.13590E+01
 -1      1744 1.61195E+01
 -1      1745 3.43297E+01
 -1      1746 4.25409E+01
 -1      1747 3.79620E+01
 -1      1748 3.83391E+01
 -1      1749 3.37788E+01
 -1      1750 3.86218E+01
 -1      1751 3.55559E+01
 -1      1752 1.71914E+01
 -1      1753 1.14749E+01
 -1      1754 1.21120E+01
 -1      1755 1.25098E+01
 -1      1756 1.25618E+01
 -1      1757 1.24703E+01
 -1      1758 1.21274E+01
 -1      1759 1.82770E+01
 -1      1760 3.66063E+01
 -1      1761 3.98058E+01
 -1      1762 3.19556E+01
 -1      1763 9.53025E+00
 -1      1764 4.06867E+00
 -1      1765 4.20955E+00
 -1      1766 3.95053E+00
 -1      1767 5.48620E+00
 -1      1768 4.09926E+00
 -1      1769 4.32345E+00
 -1      1770 4.32345E+00
 -1      1771 4.08309E+00
 -1      1772 4.32345E+00
 -1      1773 4.70109E+00
 -1      1774 3.39199E+00
 -1      1775 3.87597E+00
 -1      1776 4.49397E+00
 -1      1777 3.48568E+00
 -1      1778 3.15681E+00
 -1      1779 4.05168E+00
 -1      1780 3.48568E+00
 -1      1781 3.48568E+00
 -1      1782 3.81649E+00
 -1      1783 3.27329E+00
 -1      1784 3.36344E+00
 -1      1785 3.69425E+00
 -1      1786 2.58576E+00
 -1      1787 2.89383E+00
 -1      1788 3.19256E+00
 -1      1789 2.32817E+00
 -1      1790 2.36995E+00
 -1      1791 2.59729E+00
 -1      1792 2.11237E+00
 -1      1793 2.04911E+00
 -1      1794 2.10243E+00
 -1      1795 2.29578E+00
 -1      1796 2.04152E+00
 -1      1797 1.75252E+00
 -1      1798 3.02412E+00
 -1      1799 2.33894E+00
 -1      1800 1.72483E+00
 -1      1801 7.71439E+00
 -1      1802 3.17714E+00
 -1      1803 1.92102E+00
 -1      1804 2.32886E+00
 -1      1805 5.48620E+00
 -1      1806 1.86611E+00
 -1      1807 2.22489E+00
 -1      1808 1.97008E+00
 -1      1809 3.84024E+00
 -1      1810 2.51911E+00
 -1      1811 1.85900E+00
 -1      1812 1.50300E+00
 -1      1813 1.60346E+00
 -1      1814 2.14694E+00
 -1      1815 1.58346E+00
 -1      1816 2.09874E+00
 -1      1817 1.77093E+00
 -1      1818 2.46053E+00
 -1      1819 3.31931E+00
 -1      1820 2.11272E+00
 -1      1821 3.71858E+00
 -1      1822 4.60295E+00
 -1      1823 2.87379E+00
 -1      1824 5.03126E+00
 -1      1825 4.98852E+00
 -1      1826 3.70137E+00
 -1      1827 4.84762E+00
 -1      1828 4.65858E+00
 -1      1829 3.98879E+00
 -1      1830 4.17077E+00
 -1      1831 3.08603E+00
 -1      1832 3.36009E+00
 -1      1833 2.73478E+00
 -1      1834 2.10460E+00
 -1      1835 2.52104E+00
 -1      1836 1.94723E+00
 -1      1837 1.89279E+00
 -1      1838 2.01243E+00
 -1      1839 1.73208E+00
 -1      1840 1.70364E+00
 -1      1841 1.69436E+00
 -1      1842 1.75213E+00
 -1      1843 1.79922E+00
 -1      1844 1.58214E+00
 -1      1845 1.75813E+00
 -1      1846 1.64222E+00
 -1      1847 1.58955E+00
 -1      1848 1.57321E+00
 -1      1849 1.41984E+00
 -1      1850 1.47945E+00
 -1      1851 1.35604E+00
 -1      1852 1.25536E+00
 -1      1853 1.34664E+00
 -1      1854 1.18008E+00
 -1      1855 1.08456E+00
 -1      1856 1.20757E+00
 -1      1857 9.90334E-01
 -1      1858 8.86424E-01
 -1      1859 1.03806E+00
 -1      1860 7.91515E-01
 -1      1861 6.94765E-01
 -1      1862 8.48917E-01
 -1      1863 6.09099E-01
 -1      1864 5.26542E-01
 -1      1865 6.68342E-01
 -1      1866 4.54182E-01
 -1      1867 3.87607E-01
 -1      1868 5.10316E-01
 -1      1869 3.29146E-01
 -1      1870 2.89593E-01
 -1      1871 3.79495E-01
 -1      1872 2.43869E-01
 -1      1873 2.12987E-01
 -1      1874 2.75310E-01
 -1      1875 1.78129E-01
 -1      1876 1.53242E-01
 -1      1877 1.94727E-01
 -1      1878 1.27248E-01
 -1      1879 1.07635E-01
 -1      1880 1.33874E-01
 -1      1881 9.22232E-02
 -1      1882 8.12481E-02
 -1      1883 9.24680E-02
 -1      1884 7.05233E-02
 -1      1885 6.19997E-02
 -1      1886 6.63312E-02
 -1      1887 5.50587E-02
 -1      1888 4.77753E-02
 -1      1889 4.86654E-02
 -1      1890 4.41617E-02
 -1      1891 3.80828E-02
 -1      1892 3.81107E-02
 -1      1893 3.48143E-02
 -1      1894 2.98411E-02
 -1      1895 3.12287E-02
 -1      1896 2.69866E-02
 -1      1897 2.34111E-02
 -1      1898 2.51057E-02
 -1      1899 2.09857E-02
 -1      1900 1.81944E-02
 -1      1901 1.98258E-02
 -1      1902 1.62661E-02
 -1      1903 1.45039E-02
 -1      1904 1.54721E-02
 -1      1905 1.33177E-02
 -1      1906 1.17873E-02
 -1      1907 1.23576E-02
 -1      1908 1.08807E-02
 -1      1909 9.59265E-03
 -1      1910 1.02649E-02
 -1      1911 8.74726E-03
 -1      1912 7.78346E-03
 -1      1913 8.51301E-03
 -1      1914 7.07343E-03
 -1      1915 6.24756E-03
 -1      1916 6.95759E-03
 -1      1917 5.66466E-03
 -1      1918 5.07036E-03
 -1      1919 5.66466E-03
 -1      1920 4.55661E-03
 -1      1921 4.03318E-03
 -1      1922 4.56802E-03
 -1      1923 3.63216E-03
 -1      1924 3.18349E-03
 -1      1925 3.65324E-03
 -1      1926 2.84491E-03
 -1      1927 2.46841E-03
 -1      1928 2.91363E-03
 -1      1929 2.17512E-03
 -1      1930 1.86460E-03
 -1      1931 2.28176E-03
 -1      1932 1.61678E-03
 -1      1933 1.40301E-03
 -1      1934 1.74064E-03
 -1      1935 1.19865E-03
 -1      1936 1.06217E-03
 -1      1937 1.28845E-03
 -1      1938 9.05690E-04
 -1      1939 7.77186E-04
 -1      1940 9.27610E-04
 -1      1941 6.78667E-04
 -1      1942 6.29433E-04
 -1      1943 6.72609E-04
 -1      1944 5.34026E-04
 -1      1945 4.11215E-04
 -1      1946 3.19668E-04
 -1      1947 4.78683E-04
 -1      1948 1.31094E+00
 -1      1949 1.58959E+00
 -1      1950 1.58959E+00
 -1      1951 1.47879E+00
 -1      1952 1.45596E+00
 -1      1953 1.45809E+00
 -1      1954 1.78785E+00
 -1      1955 1.58636E+00
 -1      1956 1.71068E+00
 -1      1957 2.04347E+00
 -1      1958 1.79397E+00
 -1      1959 1.82436E+00
 -1      1960 2.25502E+00
 -1      1961 2.04347E+00
 -1      1962 1.83048E+00
 -1      1963 2.24464E+00
 -1      1964 2.17271E+00
 -1      1965 1.74817E+00
 -1      1966 2.42290E+00
 -1      1967 2.33060E+00
 -1      1968 1.75183E+00
 -1      1969 2.14395E+00
 -1      1970 2.36950E+00
 -1      1971 1.78439E+00
 -1      1972 1.52491E+00
 -1      1973 1.93685E+00
 -1      1974 1.52388E+00
 -1      1975 9.79579E-01
 -1      1976 1.31002E+00
 -1      1977 1.10188E+00
 -1      1978 6.26664E-01
 -1      1979 8.07339E-01
 -1      1980 7.14755E-01
 -1      1981 4.98422E-01
 -1      1982 5.29938E-01
 -1      1983 4.45789E-01
 -1      1984 5.74617E-01
 -1      1985 5.62287E-01
 -1      1986 4.12927E-01
 -1      1987 6.41072E-01
 -1      1988 5.98476E-01
 -1      1989 5.00651E-01
 -1      1990 6.42488E-01
 -1      1991 6.55631E-01
 -1      1992 5.39068E-01
 -1      1993 5.82976E-01
 -1      1994 6.26856E-01
 -1      1995 5.37995E-01
 -1      1996 5.03311E-01
 -1      1997 5.55154E-01
 -1      1998 4.94540E-01
 -1      1999 4.28654E-01
 -1      2000 4.74229E-01
 -1      2001 4.37637E-01
 -1      2002 3.51327E-01
 -1      2003 3.94167E-01
 -1      2004 3.74070E-01
 -1      2005 2.75868E-01
 -1      2006 3.16690E-01
 -1      2007 3.04946E-01
 -1      2008 2.08229E-01
 -1      2009 2.44200E-01
 -1      2010 2.38640E-01
 -1      2011 1.56922E-01
 -1      2012 1.81446E-01
 -1      2013 1.80189E-01
 -1      2014 1.19997E-01
 -1      2015 1.39563E-01
 -1      2016 1.36048E-01
 -1      2017 8.92401E-02
 -1      2018 1.05272E-01
 -1      2019 1.03965E-01
 -1      2020 6.51792E-02
 -1      2021 7.72097E-02
 -1      2022 7.72097E-02
 -1      2023 4.61288E-02
 -1      2024 5.56540E-02
 -1      2025 5.56540E-02
 -1      2026 3.40132E-02
 -1      2027 3.87964E-02
 -1      2028 3.87964E-02
 -1      2029 2.69258E-02
 -1      2030 3.00952E-02
 -1      2031 2.75461E-02
 -1      2032 2.23693E-02
 -1      2033 2.52780E-02
 -1      2034 2.19803E-02
 -1      2035 1.81637E-02
 -1      2036 2.07192E-02
 -1      2037 1.86825E-02
 -1      2038 1.49462E-02
 -1      2039 1.66172E-02
 -1      2040 1.54859E-02
 -1      2041 1.25639E-02
 -1      2042 1.35614E-02
 -1      2043 1.25546E-02
 -1      2044 1.04188E-02
 -1      2045 1.14708E-02
 -1      2046 1.00766E-02
 -1      2047 8.79758E-03
 -1      2048 9.81352E-03
 -1      2049 8.37816E-03
 -1      2050 7.25273E-03
 -1      2051 8.18078E-03
 -1      2052 7.15610E-03
 -1      2053 5.88524E-03
 -1      2054 6.66805E-03
 -1      2055 5.95462E-03
 -1      2056 4.77675E-03
 -1      2057 5.40731E-03
 -1      2058 4.89200E-03
 -1      2059 3.82071E-03
 -1      2060 4.36670E-03
 -1      2061 4.00403E-03
 -1      2062 3.03059E-03
 -1      2063 3.46387E-03
 -1      2064 3.23714E-03
 -1      2065 2.35213E-03
 -1      2066 2.71949E-03
 -1      2067 2.56919E-03
 -1      2068 1.78051E-03
 -1      2069 2.08699E-03
 -1      2070 1.99295E-03
 -1      2071 1.30554E-03
 -1      2072 1.55837E-03
 -1      2073 1.50568E-03
 -1      2074 9.88345E-04
 -1      2075 1.13487E-03
 -1      2076 1.11288E-03
 -1      2077 7.54449E-04
 -1      2078 8.81788E-04
 -1      2079 8.35660E-04
 -1      2080 5.17681E-04
 -1      2081 6.48738E-04
 -1      2082 6.23392E-04
 -1      2083 3.18911E-04
 -1      2084 4.11229E-04
 -1      2085 4.11229E-04
 -1      2086 2.51430E-04
 -1      2087 1.57944E-04
 -1      2088 2.01955E-04
 -1      2089 2.92124E-04
 -1      2090 2.93526E-04
 -1      2091 2.98801E-04
 -1      2092 2.93526E-04
 -1      2093 2.93526E-04
 -1      2094 3.46874E-04
 -1      2095 3.88970E-04
 -1      2096 2.19889E-04
 -1      2097 1.79588E-04
 -1      2098 2.30275E-04
 -1      2099 2.85375E-04
 -1      2100 2.58927E-04
 -1      2101 2.90956E-04
 -1      2102 3.14588E-04
 -1      2103 3.03789E-04
 -1      2104 3.48409E-04
 -1      2105 3.14588E-04
 -1      2106 3.14588E-04
 -1      2107 3.66824E-04
 -1      2108 3.14033E-04
 -1      2109 3.14065E-04
 -1      2110 3.66300E-04
 -1      2111 3.02604E-04
 -1      2112 3.14033E-04
 -1      2113 3.65776E-04
 -1      2114 2.59792E-04
 -1      2115 2.85216E-04
 -1      2116 3.48388E-04
 -1      2117 1.81187E-04
 -1      2118 2.20819E-04
 -1      2119 2.92028E-04
 -1      2120 2.03049E-04
 -1      2121 1.59389E-04
 -1      2122 2.31257E-04
 -1      2123 2.62735E-04
 -1      2124 2.62735E-04
 -1      2125 2.69145E-04
 -1      2126 3.85675E+01
 -1      2127 2.94107E+01
 -1      2128 3.29468E+01
 -1      2129 3.29468E+01
 -1      2130 3.03389E+01
 -1      2131 3.21069E+01
 -1      2132 3.03389E+01
 -1      2133 1.99111E+01
 -1      2134 3.24394E+01
 -1      2135 1.07498E+01
 -1      2136 1.63161E+01
 -1      2137 1.35594E+01
 -1      2138 4.77391E+00
 -1      2139 4.69053E+00
 -1      2140 4.98015E+00
 -1      2141 5.15155E+00
 -1      2142 1.06130E+01
 -1      2143 1.04872E+01
 -1      2144 1.09989E+01
 -1      2145 1.13761E+01
 -1      2146 1.18330E+01
 -1      2147 1.10008E+01
 -1      2148 1.05816E+01
 -1      2149 9.87066E+00
 -1      2150 1.05910E+01
 -1      2151 9.12248E+00
 -1      2152 9.40531E+00
 -1      2153 7.63409E+00
 -1      2154 1.52607E+01
 -1      2155 1.02174E+01
 -1      2156 3.23728E+01
 -1      2157 1.92057E+01
 -1      2158 1.33037E+01
 -1      2159 3.25253E+01
 -1      2160 3.74812E+01
 -1      2161 2.23572E+01
 -1      2162 3.32747E+01
 -1      2163 3.28976E+01
 -1      2164 3.83391E+01
 -1      2165 3.83391E+01
 -1      2166 3.32747E+01
 -1      2167 2.94823E+01
 -1      2168 3.40426E+01
 -1      2169 3.86218E+01
 -1      2170 2.92185E+01
 -1      2171 2.02125E+01
 -1      2172 3.26815E+01
 -1      2173 1.05837E+01
 -1      2174 1.64792E+01
 -1      2175 9.29138E+00
 -1      2176 9.11246E+00
 -1      2177 1.08309E+01
 -1      2178 1.03727E+01
 -1      2179 1.17212E+01
 -1      2180 1.17816E+01
 -1      2181 1.17850E+01
 -1      2182 1.16726E+01
 -1      2183 1.07888E+01
 -1      2184 1.09927E+01
 -1      2185 1.01035E+01
 -1      2186 9.17649E+00
 -1      2187 9.31541E+00
 -1      2188 1.75707E+01
 -1      2189 1.12822E+01
 -1      2190 3.33183E+01
 -1      2191 2.12774E+01
 -1      2192 3.09645E+01
 -1      2193 3.98058E+01
 -1      2194 3.24937E+01
 -1      2195 3.15026E+01
 -1      2196 9.37511E+00
 -1      2197 9.18218E+00
 -1      2198 8.39685E+00
 -1      2199 3.18776E+00
 -1      2200 1.08728E+01
 -1      2201 9.62333E+00
 -1      2202 8.38129E+00
 -1      2203 7.94130E+00
 -1      2204 3.17159E+00
 -1      2205 3.21069E+01
 -1      2206 2.32825E+01
 -1      2207 2.92445E-04
 -1      2208 3.24937E+01
 -1      2209 3.15026E+01
 -1      2210 2.44769E+01
 -1      2211 1.42827E+01
 -1      2212 7.83787E+00
 -1      2213 1.09444E+01
 -1      2214 1.00423E+01
 -1      2215 8.01025E+00
 -1      2216 8.40019E+00
 -1      2217 1.36047E+01
 -1      2218 2.32783E+01
 -1      2219 3.40426E+01
 -1      2220 2.51789E+01
 -1      2221 2.98662E+01
 -1      2222 2.48066E+01
 -1      2223 8.26371E+00
 -1      2224 9.81654E+00
 -1      2225 2.94823E+01
 -1      2226 8.47021E+00
 -1      2227 1.19083E+00
 -1      2228 1.46735E+00
 -1      2229 5.29312E+00
 -1      2230 5.50024E+00
 -1      2231 5.50024E+00
 -1      2232 5.50024E+00
 -1      2233 6.29939E+00
 -1      2234 4.65164E+00
 -1      2235 4.65164E+00
 -1      2236 4.33530E+00
 -1      2237 4.45754E+00
 -1      2238 5.29268E+00
 -1      2239 3.38315E+00
 -1      2240 3.76261E+00
 -1      2241 4.52589E+00
 -1      2242 2.78239E+00
 -1      2243 2.99819E+00
 -1      2244 3.56825E+00
 -1      2245 1.99321E+00
 -1      2246 2.27227E+00
 -1      2247 2.67317E+00
 -1      2248 1.53529E+00
 -1      2249 1.60614E+00
 -1      2250 1.77598E+00
 -1      2251 1.45809E+00
 -1      2252 1.31307E+00
 -1      2253 1.19083E+00
 -1      2254 2.59964E+00
 -1      2255 2.24364E+00
 -1      2256 3.01353E+00
 -1      2257 2.99353E+00
 -1      2258 3.46624E+00
 -1      2259 2.47762E+00
 -1      2260 2.83941E+00
 -1      2261 3.72021E+00
 -1      2262 2.59191E+00
 -1      2263 2.99119E+00
 -1      2264 2.95681E+00
 -1      2265 3.70137E+00
 -1      2266 4.12969E+00
 -1      2267 3.41950E+00
 -1      2268 5.03803E+00
 -1      2269 4.89714E+00
 -1      2270 5.03803E+00
 -1      2271 3.84789E+00
 -1      2272 3.36009E+00
 -1      2273 4.89714E+00
 -1      2274 2.52104E+00
 -1      2275 2.16979E+00
 -1      2276 3.00884E+00
 -1      2277 2.60832E+00
 -1      2278 2.45095E+00
 -1      2279 2.60832E+00
 -1      2280 2.22707E+00
 -1      2281 2.06636E+00
 -1      2282 2.82296E+00
 -1      2283 1.88779E+00
 -1      2284 1.93629E+00
 -1      2285 2.42050E+00
 -1      2286 1.74262E+00
 -1      2287 1.70153E+00
 -1      2288 2.04827E+00
 -1      2289 1.54846E+00
 -1      2290 1.47945E+00
 -1      2291 1.70153E+00
 -1      2292 1.39476E+00
 -1      2293 1.33096E+00
 -1      2294 1.46377E+00
 -1      2295 1.23269E+00
 -1      2296 1.15741E+00
 -1      2297 1.28080E+00
 -1      2298 1.05005E+00
 -1      2299 9.55815E-01
 -1      2300 1.07517E+00
 -1      2301 8.55265E-01
 -1      2302 7.60355E-01
 -1      2303 8.67254E-01
 -1      2304 6.78220E-01
 -1      2305 5.92554E-01
 -1      2306 6.84568E-01
 -1      2307 5.23212E-01
 -1      2308 4.50852E-01
 -1      2309 5.33090E-01
 -1      2310 3.94149E-01
 -1      2311 3.35689E-01
 -1      2312 4.07045E-01
 -1      2313 2.90451E-01
 -1      2314 2.44726E-01
 -1      2315 3.05105E-01
 -1      2316 2.09360E-01
 -1      2317 1.74501E-01
 -1      2318 2.24501E-01
 -1      2319 1.47341E-01
 -1      2320 1.21347E-01
 -1      2321 1.61974E-01
 -1      2322 1.00837E-01
 -1      2323 8.54245E-02
 -1      2324 1.14304E-01
 -1      2325 7.01928E-02
 -1      2326 5.94680E-02
 -1      2327 7.85614E-02
 -1      2328 4.83551E-02
 -1      2329 4.14141E-02
 -1      2330 5.22168E-02
 -1      2331 3.49156E-02
 -1      2332 3.13020E-02
 -1      2333 3.46054E-02
 -1      2334 2.71482E-02
 -1      2335 2.38797E-02
 -1      2336 2.39531E-02
 -1      2337 2.27135E-02
 -1      2338 1.98590E-02
 -1      2339 1.86330E-02
 -1      2340 1.85976E-02
 -1      2341 1.61721E-02
 -1      2342 1.62054E-02
 -1      2343 1.49343E-02
 -1      2344 1.30060E-02
 -1      2345 1.37060E-02
 -1      2346 1.18612E-02
 -1      2347 1.06750E-02
 -1      2348 1.13234E-02
 -1      2349 9.65872E-03
 -1      2350 8.75220E-03
 -1      2351 9.16230E-03
 -1      2352 8.15087E-03
 -1      2353 7.30548E-03
 -1      2354 7.54468E-03
 -1      2355 6.78625E-03
 -1      2356 6.07622E-03
 -1      2357 6.42411E-03
 -1      2358 5.57198E-03
 -1      2359 4.98908E-03
 -1      2360 5.40064E-03
 -1      2361 4.55644E-03
 -1      2362 4.04269E-03
 -1      2363 4.46376E-03
 -1      2364 3.66666E-03
 -1      2365 3.26563E-03
 -1      2366 3.65508E-03
 -1      2367 2.92819E-03
 -1      2368 2.58960E-03
 -1      2369 2.94160E-03
 -1      2370 2.29597E-03
 -1      2371 2.00268E-03
 -1      2372 2.31053E-03
 -1      2373 1.75352E-03
 -1      2374 1.50570E-03
 -1      2375 1.76773E-03
 -1      2376 1.31296E-03
 -1      2377 1.10860E-03
 -1      2378 1.32585E-03
 -1      2379 9.53955E-04
 -1      2380 7.97474E-04
 -1      2381 9.78468E-04
 -1      2382 6.77062E-04
 -1      2383 5.78543E-04
 -1      2384 7.03408E-04
 -1      2385 2.44445E+01
 -1      2386 2.53727E+01
 -1      2387 1.82436E+00
 -1      2388 1.81825E+00
 -1      2389 1.83048E+00
 -1      2390 1.83048E+00
 -1      2391 1.82436E+00
 -1      2392 1.64988E+00
 -1      2393 1.73218E+00
 -1      2394 1.73218E+00
 -1      2395 1.75183E+00
 -1      2396 1.66587E+00
 -1      2397 1.64988E+00
 -1      2398 1.64859E+00
 -1      2399 1.70200E+00
 -1      2400 1.61603E+00
 -1      2401 1.32287E+00
 -1      2402 1.52997E+00
 -1      2403 1.44758E+00
 -1      2404 9.39976E-01
 -1      2405 1.15487E+00
 -1      2406 1.16096E+00
 -1      2407 6.21830E-01
 -1      2408 7.94069E-01
 -1      2409 8.47050E-01
 -1      2410 4.67963E-01
 -1      2411 5.64689E-01
 -1      2412 6.44003E-01
 -1      2413 4.91439E-01
 -1      2414 4.27575E-01
 -1      2415 5.46475E-01
 -1      2416 5.23190E-01
 -1      2417 4.99331E-01
 -1      2418 5.13978E-01
 -1      2419 5.39940E-01
 -1      2420 5.25381E-01
 -1      2421 5.24062E-01
 -1      2422 5.06733E-01
 -1      2423 5.22365E-01
 -1      2424 5.08679E-01
 -1      2425 4.61261E-01
 -1      2426 4.89083E-01
 -1      2427 4.73454E-01
 -1      2428 4.07130E-01
 -1      2429 4.36211E-01
 -1      2430 4.30754E-01
 -1      2431 3.43857E-01
 -1      2432 3.78344E-01
 -1      2433 3.76917E-01
 -1      2434 2.78195E-01
 -1      2435 3.12833E-01
 -1      2436 3.17106E-01
 -1      2437 2.16739E-01
 -1      2438 2.48407E-01
 -1      2439 2.56294E-01
 -1      2440 1.63368E-01
 -1      2441 1.90150E-01
 -1      2442 1.99918E-01
 -1      2443 1.23484E-01
 -1      2444 1.40843E-01
 -1      2445 1.50804E-01
 -1      2446 9.04477E-02
 -1      2447 1.05172E-01
 -1      2448 1.09968E-01
 -1      2449 6.40403E-02
 -1      2450 7.60708E-02
 -1      2451 7.72784E-02
 -1      2452 4.46323E-02
 -1      2453 5.41575E-02
 -1      2454 5.30186E-02
 -1      2455 3.09473E-02
 -1      2456 3.82797E-02
 -1      2457 3.67832E-02
 -1      2458 2.36281E-02
 -1      2459 2.75461E-02
 -1      2460 2.70293E-02
 -1      2461 2.03325E-02
 -1      2462 2.19803E-02
 -1      2463 2.19803E-02
 -1      2464 1.70324E-02
 -1      2465 1.86825E-02
 -1      2466 1.86825E-02
 -1      2467 1.39394E-02
 -1      2468 1.54859E-02
 -1      2469 1.54859E-02
 -1      2470 1.11697E-02
 -1      2471 1.25546E-02
 -1      2472 1.25546E-02
 -1      2473 8.98342E-03
 -1      2474 1.00766E-02
 -1      2475 1.00766E-02
 -1      2476 7.77290E-03
 -1      2477 8.37816E-03
 -1      2478 8.37816E-03
 -1      2479 6.53930E-03
 -1      2480 7.15610E-03
 -1      2481 7.15610E-03
 -1      2482 5.36994E-03
 -1      2483 5.95462E-03
 -1      2484 5.95462E-03
 -1      2485 4.41695E-03
 -1      2486 4.89489E-03
 -1      2487 4.89489E-03
 -1      2488 3.58476E-03
 -1      2489 3.99481E-03
 -1      2490 3.99769E-03
 -1      2491 2.85275E-03
 -1      2492 3.20959E-03
 -1      2493 3.20037E-03
 -1      2494 2.25062E-03
 -1      2495 2.56173E-03
 -1      2496 2.53418E-03
 -1      2497 1.73685E-03
 -1      2498 2.00199E-03
 -1      2499 1.99453E-03
 -1      2500 1.30179E-03
 -1      2501 1.52393E-03
 -1      2502 1.53297E-03
 -1      2503 9.54006E-04
 -1      2504 1.12467E-03
 -1      2505 1.14292E-03
 -1      2506 7.01330E-04
 -1      2507 8.07886E-04
 -1      2508 8.19675E-04
 -1      2509 4.89871E-04
 -1      2510 5.95582E-04
 -1      2511 5.67808E-04
 -1      2512 4.53326E-04
 -1      2513 3.72794E-04
 -1      2514 3.33756E-04
 -1      2515 4.24168E-04
 -1      2516 4.05754E-04
 -1      2517 4.48553E-04
 -1      2518 3.06895E-04
 -1      2519 3.97065E-04
 -1      2520 3.05458E-04
 -1      2521 2.83815E-04
 -1      2522 3.82079E-04
 -1      2523 3.87296E-04
 -1      2524 4.25129E-04
 -1      2525 4.25129E-04
 -1      2526 4.82473E-04
 -1      2527 4.24605E-04
 -1      2528 4.25129E-04
 -1      2529 4.83434E-04
 -1      2530 4.24412E-04
 -1      2531 4.24412E-04
 -1      2532 4.83241E-04
 -1      2533 4.06241E-04
 -1      2534 4.23629E-04
 -1      2535 4.82264E-04
 -1      2536 3.38558E-04
 -1      2537 3.77531E-04
 -1      2538 4.52772E-04
 -1      2539 2.92433E-04
 -1      2540 3.14231E-04
 -1      2541 3.99734E-04
 -1      2542 3.52118E-04
 -1      2543 2.92433E-04
 -1      2544 3.75406E-04
 -1      2545 3.56053E-04
 -1      2546 3.24937E+01
 -1      2547 3.20407E+01
 -1      2548 1.71068E+00
 -1      2549 1.60312E+00
 -1      2550 1.71068E+00
 -1      2551 1.53332E+01
 -1      2552 2.14614E+01
 -1      2553 1.64952E+01
 -1      2554 9.67240E+00
 -1      2555 1.32674E+01
 -1      2556 4.84358E+00
 -1      2557 4.17493E+00
 -1      2558 4.27164E+00
 -1      2559 5.10261E+00
 -1      2560 2.65290E+01
 -1      2561 2.59909E+01
 -1      2562 2.65290E+01
 -1      2563 9.22169E+00
 -1      2564 9.27032E+00
 -1      2565 4.76188E+00
 -1      2566 4.99706E+00
 -1      2567 6.00332E+00
 -1      2568 5.59702E+00
 -1      2569 7.03063E+00
 -1      2570 5.91858E+00
 -1      2571 2.48174E+01
 -1      2572 2.50812E+01
 -1      2573 9.61657E+00
 -1      2574 9.61468E+00
 -1      2575 8.91049E+00
 -1      2576 8.14729E+00
 -1      2577 5.69267E+00
 -1      2578 6.15802E+00
 -1      2579 1.97333E+01
 -1      2580 1.46249E+01
 -1      2581 1.23179E+01
 -1      2582 8.37283E+00
 -1      2583 9.69398E+00
 -1      2584 8.03184E+00
 -1      2585 6.93688E+00
 -1      2586 3.21922E+01
 -1      2587 2.71278E+01
 -1      2588 7.77367E+00
 -1      2589 5.66796E+00
 -1      2590 2.90835E+01
 -1      2591 3.33800E+01
 -1      2592 1.52465E+01
 -1      2593 2.11868E+01
 -1      2594 1.67856E+01
 -1      2595 9.69626E+00
 -1      2596 1.34296E+01
 -1      2597 6.47770E+00
 -1      2598 7.94892E+00
 -1      2599 6.95995E+00
 -1      2600 5.87866E+00
 -1      2601 9.06777E+00
 -1      2602 8.11705E+00
 -1      2603 5.98546E+00
 -1      2604 7.92594E+00
 -1      2605 8.71817E+00
 -1      2606 5.48933E+00
 -1      2607 6.96271E+00
 -1      2608 1.42249E+01
 -1      2609 1.05182E+01
 -1      2610 7.71593E+00
 -1      2611 2.26534E+01
 -1      2612 1.61658E+01
 -1      2613 3.12671E+01
 -1      2614 3.21069E+01
 -1      2615 2.53727E+01
 -1      2616 1.55648E+00
 -1      2617 1.66045E+00
 -1      2618 1.50743E+00
 -1      2619 1.15772E+00
 -1      2620 6.01141E+00
 -1      2621 7.57902E+00
 -1      2622 7.28695E+00
 -1      2623 5.10074E+00
 -1      2624 6.07316E+00
 -1      2625 5.27401E+00
 -1      2626 5.72447E+00
 -1      2627 1.45809E+00
 -1      2628 1.46426E+00
 -1      2629 6.43987E+00
 -1      2630 1.24014E+01
 -1      2631 8.65638E+00
 -1      2632 4.79280E+00
 -1      2633 7.34511E+00
 -1      2634 1.14462E+01
 -1      2635 4.25515E-04
 -1      2636 5.72447E+00
 -1      2637 4.25515E-04
 -1      2638 7.04414E+00
 -1      2639 3.73095E-04
 -1      2640 3.45872E-04
 -1      2641 3.69160E-04
 -1      2642 4.68502E-04
 -1      2643 5.42740E+00
 -1      2644 1.13381E+01
 -1      2645 3.16539E+01
 -1      2646 1.31788E+00
 -1      2647 2.44185E+01
 -1      2648 4.33610E-04
 -1      2649 2.72330E+01
 -1      2650 1.96550E+01
 -1      2651 1.19226E+01
 -1      2652 1.69959E+01
 -1      2653 5.46080E+00
 -1      2654 7.94543E+00
 -1      2655 2.20210E+01
 -1      2656 1.89896E+01
 -1      2657 2.09385E+01
 -1      2658 1.76798E+01
 -1      2659 6.12458E+00
 -1      2660 7.04599E+00
 -1      2661 7.77377E+00
 -1      2662 5.57740E+00
 -1      2663 4.72955E-04
 -1      2664 4.98981E+00
 -1      2665 5.56249E+00
 -1      2666 7.67067E+00
 -1      2667 7.86478E+00
 -1      2668 8.13458E+00
 -1      2669 2.41392E+00
 -1      2670 2.92405E+00
 -1      2671 1.47140E+00
 -1      2672 1.85847E+00
 -1      2673 2.10935E+00
 -1      2674 1.08417E+00
 -1      2675 9.61924E-01
 -1      2676 1.85223E+01
 -1      2677 2.25245E+01
 -1      2678 1.69745E+01
 -1      2679 2.28689E+01
 -1      2680 2.32105E+01
 -1      2681 1.76988E+01
 -1      2682 8.87820E+00
 -1      2683 1.09441E+01
 -1      2684 5.44575E+00
 -1      2685 4.92984E+00
 -1      2686 2.60832E+00
 -1      2687 3.04684E+00
 -1      2688 3.75632E+00
 -1      2689 3.53243E+00
 -1      2690 3.75632E+00
 -1      2691 3.26878E+00
 -1      2692 3.09021E+00
 -1      2693 4.20214E+00
 -1      2694 2.49499E+00
 -1      2695 2.30133E+00
 -1      2696 3.34327E+00
 -1      2697 2.02423E+00
 -1      2698 1.87116E+00
 -1      2699 2.47095E+00
 -1      2700 1.66282E+00
 -1      2701 1.57813E+00
 -1      2702 1.98552E+00
 -1      2703 1.39159E+00
 -1      2704 1.29332E+00
 -1      2705 1.59065E+00
 -1      2706 1.14292E+00
 -1      2707 1.03555E+00
 -1      2708 1.25371E+00
 -1      2709 9.13785E-01
 -1      2710 8.13234E-01
 -1      2711 9.81535E-01
 -1      2712 7.15898E-01
 -1      2713 6.33763E-01
 -1      2714 7.62429E-01
 -1      2715 5.57261E-01
 -1      2716 4.87919E-01
 -1      2717 5.88591E-01
 -1      2718 4.27134E-01
 -1      2719 3.70432E-01
 -1      2720 4.51305E-01
 -1      2721 3.22350E-01
 -1      2722 2.77112E-01
 -1      2723 3.42438E-01
 -1      2724 2.39369E-01
 -1      2725 2.04002E-01
 -1      2726 2.56613E-01
 -1      2727 1.74668E-01
 -1      2728 1.47508E-01
 -1      2729 1.89536E-01
 -1      2730 1.24972E-01
 -1      2731 1.04461E-01
 -1      2732 1.37665E-01
 -1      2733 8.73706E-02
 -1      2734 7.21388E-02
 -1      2735 9.80385E-02
 -1      2736 5.93628E-02
 -1      2737 4.82499E-02
 -1      2738 6.81719E-02
 -1      2739 3.88514E-02
 -1      2740 3.23529E-02
 -1      2741 4.59974E-02
 -1      2742 2.55648E-02
 -1      2743 2.14110E-02
 -1      2744 2.98108E-02
 -1      2745 1.66983E-02
 -1      2746 1.55321E-02
 -1      2747 1.83101E-02
 -1      2748 1.35589E-02
 -1      2749 1.22974E-02
 -1      2750 1.16242E-02
 -1      2751 1.20258E-02
 -1      2752 1.07879E-02
 -1      2753 9.37929E-03
 -1      2754 1.03304E-02
 -1      2755 9.18556E-03
 -1      2756 8.65011E-03
 -1      2757 8.64584E-03
 -1      2758 7.62956E-03
 -1      2759 7.65283E-03
 -1      2760 7.07477E-03
 -1      2761 6.47344E-03
 -1      2762 6.55832E-03
 -1      2763 6.02066E-03
 -1      2764 5.50143E-03
 -1      2765 5.55076E-03
 -1      2766 5.16069E-03
 -1      2767 4.65645E-03
 -1      2768 4.75724E-03
 -1      2769 4.30617E-03
 -1      2770 3.87353E-03
 -1      2771 4.06622E-03
 -1      2772 3.53912E-03
 -1      2773 3.16309E-03
 -1      2774 3.38153E-03
 -1      2775 2.85879E-03
 -1      2776 2.52134E-03
 -1      2777 2.74283E-03
 -1      2778 2.27758E-03
 -1      2779 1.98394E-03
 -1      2780 2.19476E-03
 -1      2781 1.77692E-03
 -1      2782 1.52776E-03
 -1      2783 1.74397E-03
 -1      2784 1.34967E-03
 -1      2785 1.15694E-03
 -1      2786 1.35885E-03
 -1      2787 1.01422E-03
 -1      2788 8.59574E-04
 -1      2789 1.03804E-03
 -1      2790 7.17898E-04
 -1      2791 5.97486E-04
 -1      2792 7.53652E-04
 -1      2793 4.11417E+00
 -1      2794 4.71320E+00
 -1      2795 1.19800E+01
 -1      2796 1.49631E+01
 -1      2797 1.77201E+00
 -1      2798 1.76590E+00
 -1      2799 2.11323E+00
 -1      2800 2.16306E+00
 -1      2801 1.35855E+00
 -1      2802 1.47718E+00
 -1      2803 2.02420E+00
 -1      2804 1.22604E+00
 -1      2805 1.39404E+00
 -1      2806 1.42363E+00
 -1      2807 8.93182E-01
 -1      2808 1.03909E+00
 -1      2809 1.27217E+00
 -1      2810 7.72761E-01
 -1      2811 8.29901E-01
 -1      2812 1.02194E+00
 -1      2813 6.53145E-01
 -1      2814 6.93534E-01
 -1      2815 8.79431E-01
 -1      2816 6.05878E-01
 -1      2817 5.97986E-01
 -1      2818 7.45045E-01
 -1      2819 5.85449E-01
 -1      2820 5.83258E-01
 -1      2821 6.67266E-01
 -1      2822 5.30550E-01
 -1      2823 5.48125E-01
 -1      2824 6.07320E-01
 -1      2825 4.73967E-01
 -1      2826 4.91618E-01
 -1      2827 5.31064E-01
 -1      2828 4.22942E-01
 -1      2829 4.47991E-01
 -1      2830 4.66155E-01
 -1      2831 3.63306E-01
 -1      2832 3.92092E-01
 -1      2833 4.09330E-01
 -1      2834 2.99989E-01
 -1      2835 3.31013E-01
 -1      2836 3.46188E-01
 -1      2837 2.39455E-01
 -1      2838 2.69243E-01
 -1      2839 2.83150E-01
 -1      2840 1.85345E-01
 -1      2841 2.11934E-01
 -1      2842 2.24882E-01
 -1      2843 1.39270E-01
 -1      2844 1.61795E-01
 -1      2845 1.73811E-01
 -1      2846 1.01511E-01
 -1      2847 1.19824E-01
 -1      2848 1.30814E-01
 -1      2849 7.15509E-02
 -1      2850 8.59279E-02
 -1      2851 9.57839E-02
 -1      2852 4.95124E-02
 -1      2853 5.93952E-02
 -1      2854 6.80447E-02
 -1      2855 3.39173E-02
 -1      2856 4.02699E-02
 -1      2857 4.66465E-02
 -1      2858 2.36673E-02
 -1      2859 2.70686E-02
 -1      2860 3.05553E-02
 -1      2861 1.78417E-02
 -1      2862 1.94894E-02
 -1      2863 1.95287E-02
 -1      2864 1.45473E-02
 -1      2865 1.61974E-02
 -1      2866 1.37065E-02
 -1      2867 1.25075E-02
 -1      2868 1.40540E-02
 -1      2869 1.15689E-02
 -1      2870 1.04706E-02
 -1      2871 1.18555E-02
 -1      2872 1.04235E-02
 -1      2873 8.66924E-03
 -1      2874 9.76240E-03
 -1      2875 9.06330E-03
 -1      2876 7.36594E-03
 -1      2877 7.97120E-03
 -1      2878 7.65702E-03
 -1      2879 6.15993E-03
 -1      2880 6.77673E-03
 -1      2881 6.36977E-03
 -1      2882 5.17843E-03
 -1      2883 5.76311E-03
 -1      2884 5.38374E-03
 -1      2885 4.31392E-03
 -1      2886 4.78897E-03
 -1      2887 4.59746E-03
 -1      2888 3.51732E-03
 -1      2889 3.93947E-03
 -1      2890 3.83355E-03
 -1      2891 2.82884E-03
 -1      2892 3.20401E-03
 -1      2893 3.14579E-03
 -1      2894 2.25305E-03
 -1      2895 2.54407E-03
 -1      2896 2.54771E-03
 -1      2897 1.75303E-03
 -1      2898 2.00167E-03
 -1      2899 2.01155E-03
 -1      2900 1.32846E-03
 -1      2901 1.54139E-03
 -1      2902 1.54853E-03
 -1      2903 9.90833E-04
 -1      2904 1.16796E-03
 -1      2905 1.17638E-03
 -1      2906 7.05018E-04
 -1      2907 8.51137E-04
 -1      2908 8.76176E-04
 -1      2909 5.14764E-04
 -1      2910 6.20512E-04
 -1      2911 6.51974E-04
 -1      2912 4.86314E-04
 -1      2913 5.84693E+00
 -1      2914 5.52304E-04
 -1      2915 5.52304E-04
 -1      2916 2.06014E+01
 -1      2917 1.94136E+01
 -1      2918 5.37566E-04
 -1      2919 5.04606E-04
 -1      2920 5.52664E-04
 -1      2921 5.52857E-04
 -1      2922 6.21728E-04
 -1      2923 5.52304E-04
 -1      2924 5.51344E-04
 -1      2925 6.07397E-04
 -1      2926 6.21175E-04
 -1      2927 5.51881E-04
 -1      2928 5.52664E-04
 -1      2929 6.22281E-04
 -1      2930 5.13291E-04
 -1      2931 5.42001E-04
 -1      2932 6.12401E-04
 -1      2933 4.36121E-04
 -1      2934 4.60449E-04
 -1      2935 5.49679E-04
 -1      2936 1.63141E+00
 -1      2937 1.52385E+00
 -1      2938 1.57906E+00
 -1      2939 6.24350E+00
 -1      2940 6.74702E+00
 -1      2941 4.04378E+00
 -1      2942 4.13660E+00
 -1      2943 6.64026E+00
 -1      2944 5.06497E+00
 -1      2945 5.83485E+00
 -1      2946 6.64026E+00
 -1      2947 3.83335E-04
 -1      2948 3.89581E-04
 -1      2949 4.93375E-04
 -1      2950 7.11007E+00
 -1      2951 7.10331E+00
 -1      2952 1.07799E+01
 -1      2953 8.47291E+00
 -1      2954 2.79188E+00
 -1      2955 2.77589E+00
 -1      2956 3.28908E+00
 -1      2957 1.81787E+00
 -1      2958 1.91617E+00
 -1      2959 2.95988E+00
 -1      2960 4.23656E+00
 -1      2961 4.62152E+00
 -1      2962 3.97731E+00
 -1      2963 2.16459E+01
 -1      2964 2.20327E+01
 -1      2965 1.39902E+00
 -1      2966 1.25400E+00
 -1      2967 1.02509E+00
 -1      2968 1.31975E+00
 -1      2969 7.18410E+00
 -1      2970 7.18410E+00
 -1      2971 1.16147E+01
 -1      2972 9.67381E+00
 -1      2973 7.01727E+00
 -1      2974 6.31308E+00
 -1      2975 5.92108E+00
 -1      2976 7.66842E+00
 -1      2977 1.67335E+01
 -1      2978 1.33960E+01
 -1      2979 1.34150E+01
 -1      2980 5.42631E+00
 -1      2981 4.18211E+00
 -1      2982 6.56242E+00
 -1      2983 6.22143E+00
 -1      2984 1.16167E+01
 -1      2985 1.52474E+01
 -1      2986 3.83380E+00
 -1      2987 4.79703E+00
 -1      2988 9.00927E+00
 -1      2989 1.08262E+01
 -1      2990 4.21660E+00
 -1      2991 6.43987E+00
 -1      2992 4.88680E+00
 -1      2993 5.58667E+00
 -1      2994 7.68006E+00
 -1      2995 8.37221E+00
 -1      2996 5.62770E+00
 -1      2997 5.54985E+00
 -1      2998 4.43318E+00
 -1      2999 4.62169E+00
 -1      3000 1.22875E+00
 -1      3001 7.18410E+00
 -1      3002 6.95787E+00
 -1      3003 8.06882E+00
 -1      3004 1.03000E+01
 -1      3005 7.92200E+00
 -1      3006 8.03223E+00
 -1      3007 7.32460E+00
 -1      3008 8.20931E+00
 -1      3009 1.47051E+01
 -1      3010 1.32477E+01
 -1      3011 7.58558E+00
 -1      3012 4.18211E+00
 -1      3013 7.15658E+00
 -1      3014 9.41205E+00
 -1      3015 1.32026E+01
 -1      3016 9.28795E+00
 -1      3017 7.64836E+00
 -1      3018 4.60786E+00
 -1      3019 3.30214E+00
 -1      3020 3.05465E+00
 -1      3021 3.16374E+00
 -1      3022 3.87393E+00
 -1      3023 5.19426E+00
 -1      3024 5.07866E-04
 -1      3025 1.24593E+01
 -1      3026 1.85770E+00
 -1      3027 4.36766E-04
 -1      3028 5.17921E-04
 -1      3029 4.13686E-04
 -1      3030 3.46905E+00
 -1      3031 6.51645E+00
 -1      3032 4.88410E+00
 -1      3033 4.97014E+00
 -1      3034 5.65811E+00
 -1      3035 3.89581E-04
 -1      3036 4.52971E+00
 -1      3037 7.04448E+00
 -1      3038 1.07015E+01
 -1      3039 7.17792E+00
 -1      3040 1.38380E+01
 -1      3041 4.55355E-04
 -1      3042 4.41180E-04
 -1      3043 5.01895E-04
 -1      3044 5.59466E-04
 -1      3045 7.02853E+00
 -1      3046 4.61659E-04
 -1      3047 4.33361E-04
 -1      3048 4.88049E-04
 -1      3049 5.50672E-04
 -1      3050 1.06684E+01
 -1      3051 1.12209E+00
 -1      3052 1.33534E+01
 -1      3053 1.20458E+00
 -1      3054 4.94274E+00
 -1      3055 5.38036E+00
 -1      3056 4.22326E+00
 -1      3057 5.63612E+00
 -1      3058 3.45066E+00
 -1      3059 3.50907E+00
 -1      3060 1.68381E+00
 -1      3061 2.23926E+00
 -1      3062 1.24890E+01
 -1      3063 1.05659E+01
 -1      3064 4.65141E+00
 -1      3065 3.88818E+00
 -1      3066 7.02975E-04
 -1      3067 7.02975E-04
 -1      3068 6.23556E+00
 -1      3069 7.57640E+00
 -1      3070 3.49097E+00
 -1      3071 2.71060E+00
 -1      3072 5.02768E+00
 -1      3073 1.23485E+01
 -1      3074 6.54447E+00
 -1      3075 3.10783E+00
 -1      3076 2.26878E+00
 -1      3077 4.23354E+00
 -1      3078 3.63832E+00
 -1      3079 3.13915E+00
 -1      3080 2.86206E+00
 -1      3081 4.02942E+00
 -1      3082 2.28708E+00
 -1      3083 2.07875E+00
 -1      3084 2.95528E+00
 -1      3085 1.74747E+00
 -1      3086 1.56093E+00
 -1      3087 2.04903E+00
 -1      3088 1.35513E+00
 -1      3089 1.20473E+00
 -1      3090 1.51196E+00
 -1      3091 1.06771E+00
 -1      3092 9.45940E-01
 -1      3093 1.16914E+00
 -1      3094 8.30743E-01
 -1      3095 7.33407E-01
 -1      3096 9.16918E-01
 -1      3097 6.38935E-01
 -1      3098 5.62434E-01
 -1      3099 7.07249E-01
 -1      3100 4.86866E-01
 -1      3101 4.26081E-01
 -1      3102 5.37209E-01
 -1      3103 3.66654E-01
 -1      3104 3.18572E-01
 -1      3105 4.02215E-01
 -1      3106 2.72507E-01
 -1      3107 2.34764E-01
 -1      3108 2.96723E-01
 -1      3109 1.99512E-01
 -1      3110 1.70178E-01
 -1      3111 2.15406E-01
 -1      3112 1.43548E-01
 -1      3113 1.21012E-01
 -1      3114 1.53524E-01
 -1      3115 1.02103E-01
 -1      3116 8.50125E-02
 -1      3117 1.07986E-01
 -1      3118 7.11106E-02
 -1      3119 5.83345E-02
 -1      3120 7.51751E-02
 -1      3121 4.81824E-02
 -1      3122 3.87839E-02
 -1      3123 5.11211E-02
 -1      3124 3.20689E-02
 -1      3125 2.52808E-02
 -1      3126 3.42539E-02
 -1      3127 2.03738E-02
 -1      3128 1.56611E-02
 -1      3129 2.26318E-02
 -1      3130 1.21495E-02
 -1      3131 1.01763E-02
 -1      3132 1.42132E-02
 -1      3133 7.89899E-03
 -1      3134 7.62736E-03
 -1      3135 8.42434E-03
 -1      3136 7.53269E-03
 -1      3137 7.07513E-03
 -1      3138 6.05238E-03
 -1      3139 7.10985E-03
 -1      3140 6.57013E-03
 -1      3141 5.99243E-03
 -1      3142 6.39528E-03
 -1      3143 5.84049E-03
 -1      3144 5.85230E-03
 -1      3145 5.55076E-03
 -1      3146 5.09798E-03
 -1      3147 5.38772E-03
 -1      3148 4.75724E-03
 -1      3149 4.41650E-03
 -1      3150 4.75724E-03
 -1      3151 4.11689E-03
 -1      3152 3.76661E-03
 -1      3153 4.11689E-03
 -1      3154 3.51500E-03
 -1      3155 3.18059E-03
 -1      3156 3.56567E-03
 -1      3157 2.91849E-03
 -1      3158 2.61419E-03
 -1      3159 3.05196E-03
 -1      3160 2.36168E-03
 -1      3161 2.11791E-03
 -1      3162 2.53734E-03
 -1      3163 1.88635E-03
 -1      3164 1.67933E-03
 -1      3165 2.05328E-03
 -1      3166 1.47431E-03
 -1      3167 1.29621E-03
 -1      3168 1.61670E-03
 -1      3169 1.11907E-03
 -1      3170 9.76355E-04
 -1      3171 1.23453E-03
 -1      3172 8.26593E-04
 -1      3173 6.84917E-04
 -1      3174 6.32406E-04
 -1      3175 9.07620E-04
 -1      3176 1.20931E+01
 -1      3177 1.11278E+01
 -1      3178 2.15450E+00
 -1      3179 2.79055E+00
 -1      3180 1.02194E+00
 -1      3181 1.08522E+00
 -1      3182 9.78319E-01
 -1      3183 1.05755E+00
 -1      3184 1.12083E+00
 -1      3185 8.47076E-01
 -1      3186 9.02235E-01
 -1      3187 1.08035E+00
 -1      3188 7.50110E-01
 -1      3189 7.72731E-01
 -1      3190 9.29920E-01
 -1      3191 6.35723E-01
 -1      3192 6.73048E-01
 -1      3193 7.78513E-01
 -1      3194 5.38719E-01
 -1      3195 5.77652E-01
 -1      3196 6.43379E-01
 -1      3197 4.70166E-01
 -1      3198 4.96142E-01
 -1      3199 5.42730E-01
 -1      3200 3.97777E-01
 -1      3201 4.28627E-01
 -1      3202 4.58614E-01
 -1      3203 3.25928E-01
 -1      3204 3.58220E-01
 -1      3205 3.77517E-01
 -1      3206 2.59849E-01
 -1      3207 2.90596E-01
 -1      3208 3.02628E-01
 -1      3209 2.02884E-01
 -1      3210 2.30405E-01
 -1      3211 2.37851E-01
 -1      3212 1.54875E-01
 -1      3213 1.78425E-01
 -1      3214 1.83947E-01
 -1      3215 1.15545E-01
 -1      3216 1.34991E-01
 -1      3217 1.39605E-01
 -1      3218 8.41091E-02
 -1      3219 9.96926E-02
 -1      3220 1.03870E-01
 -1      3221 5.95486E-02
 -1      3222 7.17043E-02
 -1      3223 7.56130E-02
 -1      3224 4.07774E-02
 -1      3225 5.00198E-02
 -1      3226 5.36795E-02
 -1      3227 2.67485E-02
 -1      3228 3.35973E-02
 -1      3229 3.69706E-02
 -1      3230 1.72711E-02
 -1      3231 2.14489E-02
 -1      3232 2.44909E-02
 -1      3233 1.18046E-02
 -1      3234 1.34489E-02
 -1      3235 1.53692E-02
 -1      3236 9.06813E-03
 -1      3237 9.56149E-03
 -1      3238 9.30390E-03
 -1      3239 8.27406E-03
 -1      3240 8.92604E-03
 -1      3241 6.91867E-03
 -1      3242 7.50293E-03
 -1      3243 8.21117E-03
 -1      3244 6.71368E-03
 -1      3245 6.55355E-03
 -1      3246 7.25160E-03
 -1      3247 6.39946E-03
 -1      3248 5.61367E-03
 -1      3249 6.20287E-03
 -1      3250 5.79745E-03
 -1      3251 4.82755E-03
 -1      3252 5.22437E-03
 -1      3253 5.05748E-03
 -1      3254 4.12571E-03
 -1      3255 4.51517E-03
 -1      3256 4.35580E-03
 -1      3257 3.47520E-03
 -1      3258 3.84965E-03
 -1      3259 3.76737E-03
 -1      3260 2.87869E-03
 -1      3261 3.19199E-03
 -1      3262 3.20810E-03
 -1      3263 2.32367E-03
 -1      3264 2.60845E-03
 -1      3265 2.65465E-03
 -1      3266 1.82631E-03
 -1      3267 2.07769E-03
 -1      3268 2.13843E-03
 -1      3269 1.39817E-03
 -1      3270 1.60981E-03
 -1      3271 1.67595E-03
 -1      3272 1.05207E-03
 -1      3273 1.21258E-03
 -1      3274 1.27386E-03
 -1      3275 7.57846E-04
 -1      3276 8.97542E-04
 -1      3277 9.33745E-04
 -1      3278 6.01259E-04
 -1      3279 6.85765E-04
 -1      3280 7.07131E-04
 -1      3281 5.51712E-04
 -1      3282 1.16093E+01
 -1      3283 1.03863E+01
 -1      3284 5.47200E-04
 -1      3285 6.00042E-04
 -1      3286 1.24417E+01
 -1      3287 1.90734E+01
 -1      3288 9.79418E+00
 -1      3289 8.01292E+00
 -1      3290 8.47228E+00
 -1      3291 6.81643E-04
 -1      3292 6.81090E-04
 -1      3293 7.62337E-04
 -1      3294 3.38965E+00
 -1      3295 3.00025E+00
 -1      3296 3.41938E+00
 -1      3297 1.93173E+00
 -1      3298 1.79725E+00
 -1      3299 3.28908E+00
 -1      3300 3.91790E+00
 -1      3301 7.75120E+00
 -1      3302 9.35350E+00
 -1      3303 6.93095E-04
 -1      3304 7.02975E-04
 -1      3305 7.83670E-04
 -1      3306 6.90617E-04
 -1      3307 1.27217E+00
 -1      3308 1.45912E+00
 -1      3309 1.27217E+00
 -1      3310 2.03542E+00
 -1      3311 1.99994E+00
 -1      3312 2.03542E+00
 -1      3313 1.09154E+01
 -1      3314 1.20931E+01
 -1      3315 4.66541E+00
 -1      3316 5.37488E+00
 -1      3317 9.40971E+00
 -1      3318 8.26702E+00
 -1      3319 1.39666E+01
 -1      3320 3.79578E+00
 -1      3321 3.61715E+00
 -1      3322 2.78759E+00
 -1      3323 4.10010E+00
 -1      3324 2.36206E+00
 -1      3325 1.30372E+01
 -1      3326 1.10435E+01
 -1      3327 9.50933E+00
 -1      3328 1.15207E+01
 -1      3329 7.06964E+00
 -1      3330 5.76803E+00
 -1      3331 4.85894E+00
 -1      3332 6.19537E+00
 -1      3333 7.96551E+00
 -1      3334 8.75603E+00
 -1      3335 3.14877E+00
 -1      3336 3.18326E+00
 -1      3337 2.84568E+00
 -1      3338 4.29575E+00
 -1      3339 2.00185E+00
 -1      3340 1.85770E+00
 -1      3341 2.07589E+00
 -1      3342 1.15696E+01
 -1      3343 7.04448E+00
 -1      3344 1.33534E+01
 -1      3345 9.07364E+00
 -1      3346 9.07364E+00
 -1      3347 1.00785E+01
 -1      3348 7.85103E+00
 -1      3349 8.88700E+00
 -1      3350 1.20742E+00
 -1      3351 1.55673E+00
 -1      3352 1.68665E+00
 -1      3353 1.37725E+00
 -1      3354 5.91063E+00
 -1      3355 7.10878E+00
 -1      3356 4.92696E+00
 -1      3357 4.13184E+00
 -1      3358 8.26702E+00
 -1      3359 6.35653E+00
 -1      3360 3.75481E+00
 -1      3361 4.42501E+00
 -1      3362 6.13251E+00
 -1      3363 6.50080E+00
 -1      3364 4.00913E+00
 -1      3365 7.94831E+00
 -1      3366 6.97520E+00
 -1      3367 2.76629E+00
 -1      3368 8.75603E+00
 -1      3369 4.59529E+00
 -1      3370 4.89034E+00
 -1      3371 7.53188E-04
 -1      3372 6.93274E-04
 -1      3373 6.93274E-04
 -1      3374 1.12294E+01
 -1      3375 8.60898E+00
 -1      3376 2.76629E+00
 -1      3377 8.65925E+00
 -1      3378 9.80592E+00
 -1      3379 6.93274E-04
 -1      3380 6.79496E-04
 -1      3381 7.65372E-04
 -1      3382 6.50080E+00
 -1      3383 3.83815E+00
 -1      3384 1.35425E+00
 -1      3385 1.22943E+00
 -1      3386 1.41175E+00
 -1      3387 1.70692E+00
 -1      3388 4.02108E+00
 -1      3389 4.02108E+00
 -1      3390 3.06306E+00
 -1      3391 4.75460E+00
 -1      3392 1.03863E+01
 -1      3393 9.27689E+00
 -1      3394 8.74785E+00
 -1      3395 7.59908E-04
 -1      3396 6.74031E-04
 -1      3397 6.31084E-04
 -1      3398 4.94279E+00
 -1      3399 2.83348E+00
 -1      3400 3.06306E+00
 -1      3401 3.35588E+00
 -1      3402 2.35703E+00
 -1      3403 3.34010E+00
 -1      3404 6.58373E+00
 -1      3405 2.72147E+00
 -1      3406 2.93488E+00
 -1      3407 4.61890E+00
 -1      3408 4.54976E+00
 -1      3409 5.91628E-04
 -1      3410 5.86569E-04
 -1      3411 6.36933E-04
 -1      3412 7.17080E-04
 -1      3413 5.54563E+00
 -1      3414 7.43358E+00
 -1      3415 6.08716E-04
 -1      3416 5.89041E-04
 -1      3417 6.72379E-04
 -1      3418 7.32076E-04
 -1      3419 2.18893E+00
 -1      3420 2.73726E+00
 -1      3421 3.41938E+00
 -1      3422 7.16726E+00
 -1      3423 6.66809E+00
 -1      3424 3.35331E+00
 -1      3425 2.77833E+00
 -1      3426 6.49114E+00
 -1      3427 2.35334E+00
 -1      3428 2.02206E+00
 -1      3429 2.75136E+00
 -1      3430 1.71776E+00
 -1      3431 1.51196E+00
 -1      3432 2.02206E+00
 -1      3433 1.29265E+00
 -1      3434 1.15563E+00
 -1      3435 1.49846E+00
 -1      3436 9.96241E-01
 -1      3437 8.81044E-01
 -1      3438 1.11976E+00
 -1      3439 7.62854E-01
 -1      3440 6.68382E-01
 -1      3441 8.42177E-01
 -1      3442 5.79434E-01
 -1      3443 5.03866E-01
 -1      3444 6.35039E-01
 -1      3445 4.35938E-01
 -1      3446 3.76511E-01
 -1      3447 4.78163E-01
 -1      3448 3.24365E-01
 -1      3449 2.78299E-01
 -1      3450 3.58088E-01
 -1      3451 2.38209E-01
 -1      3452 2.02957E-01
 -1      3453 2.65850E-01
 -1      3454 1.72255E-01
 -1      3455 1.45625E-01
 -1      3456 1.95058E-01
 -1      3457 1.22277E-01
 -1      3458 1.03369E-01
 -1      3459 1.41008E-01
 -1      3460 8.57825E-02
 -1      3461 7.18805E-02
 -1      3462 1.00074E-01
 -1      3463 5.90832E-02
 -1      3464 4.89311E-02
 -1      3465 6.96905E-02
 -1      3466 3.98254E-02
 -1      3467 3.31103E-02
 -1      3468 4.77875E-02
 -1      3469 2.64342E-02
 -1      3470 2.15271E-02
 -1      3471 3.20056E-02
 -1      3472 1.67226E-02
 -1      3473 1.32111E-02
 -1      3474 2.05250E-02
 -1      3475 9.89154E-03
 -1      3476 7.61426E-03
 -1      3477 1.24010E-02
 -1      3478 5.34623E-03
 -1      3479 5.25156E-03
 -1      3480 6.81344E-03
 -1      3481 4.70860E-03
 -1      3482 4.74332E-03
 -1      3483 4.00246E-03
 -1      3484 5.04811E-03
 -1      3485 4.87327E-03
 -1      3486 3.76429E-03
 -1      3487 4.92391E-03
 -1      3488 4.63417E-03
 -1      3489 4.11972E-03
 -1      3490 4.52858E-03
 -1      3491 4.18784E-03
 -1      3492 4.06477E-03
 -1      3493 3.99462E-03
 -1      3494 3.69502E-03
 -1      3495 3.76597E-03
 -1      3496 3.46085E-03
 -1      3497 3.20923E-03
 -1      3498 3.33858E-03
 -1      3499 3.02449E-03
 -1      3500 2.76238E-03
 -1      3501 2.91966E-03
 -1      3502 2.56738E-03
 -1      3503 2.31487E-03
 -1      3504 2.53992E-03
 -1      3505 2.11759E-03
 -1      3506 1.88603E-03
 -1      3507 2.14763E-03
 -1      3508 1.69865E-03
 -1      3509 1.49363E-03
 -1      3510 1.76296E-03
 -1      3511 1.32280E-03
 -1      3512 1.14566E-03
 -1      3513 1.40476E-03
 -1      3514 9.98155E-01
 -1      3515 1.07250E+00
 -1      3516 1.21714E+00
 -1      3517 1.29322E+00
 -1      3518 1.28537E+00
 -1      3519 5.83362E+00
 -1      3520 1.81634E+00
 -1      3521 1.78073E+00
 -1      3522 1.95313E+00
 -1      3523 8.13687E-01
 -1      3524 8.90749E-01
 -1      3525 1.03333E+00
 -1      3526 6.69078E-01
 -1      3527 7.27149E-01
 -1      3528 8.39386E-01
 -1      3529 5.47245E-01
 -1      3530 5.89823E-01
 -1      3531 6.73593E-01
 -1      3532 4.43625E-01
 -1      3533 4.85165E-01
 -1      3534 5.32257E-01
 -1      3535 3.54479E-01
 -1      3536 3.94036E-01
 -1      3537 4.20587E-01
 -1      3538 2.82827E-01
 -1      3539 3.18159E-01
 -1      3540 3.34678E-01
 -1      3541 2.24648E-01
 -1      3542 2.54093E-01
 -1      3543 2.69625E-01
 -1      3544 1.74176E-01
 -1      3545 1.98634E-01
 -1      3546 2.14877E-01
 -1      3547 1.31898E-01
 -1      3548 1.51781E-01
 -1      3549 1.66469E-01
 -1      3550 9.74805E-02
 -1      3551 1.13332E-01
 -1      3552 1.25509E-01
 -1      3553 7.01539E-02
 -1      3554 8.25587E-02
 -1      3555 9.20214E-02
 -1      3556 4.91687E-02
 -1      3557 5.86975E-02
 -1      3558 6.56431E-02
 -1      3559 3.35745E-02
 -1      3560 4.07546E-02
 -1      3561 4.57726E-02
 -1      3562 2.19352E-02
 -1      3563 2.72348E-02
 -1      3564 3.10187E-02
 -1      3565 1.34539E-02
 -1      3566 1.72761E-02
 -1      3567 2.00199E-02
 -1      3568 7.93254E-03
 -1      3569 1.01757E-02
 -1      3570 1.20826E-02
 -1      3571 5.57594E-03
 -1      3572 5.71803E-03
 -1      3573 6.58982E-03
 -1      3574 5.29897E-03
 -1      3575 5.36187E-03
 -1      3576 4.16123E-03
 -1      3577 5.31446E-03
 -1      3578 5.56579E-03
 -1      3579 4.21397E-03
 -1      3580 4.98118E-03
 -1      3581 5.33186E-03
 -1      3582 4.49819E-03
 -1      3583 4.45611E-03
 -1      3584 4.84540E-03
 -1      3585 4.37981E-03
 -1      3586 3.92314E-03
 -1      3587 4.23551E-03
 -1      3588 4.02344E-03
 -1      3589 3.39203E-03
 -1      3590 3.66809E-03
 -1      3591 3.54779E-03
 -1      3592 2.92149E-03
 -1      3593 3.20470E-03
 -1      3594 3.10542E-03
 -1      3595 2.44055E-03
 -1      3596 2.71079E-03
 -1      3597 2.70739E-03
 -1      3598 1.98244E-03
 -1      3599 2.22842E-03
 -1      3600 2.28456E-03
 -1      3601 1.56559E-03
 -1      3602 1.78209E-03
 -1      3603 1.87208E-03
 -1      3604 1.19834E-03
 -1      3605 1.38392E-03
 -1      3606 1.49007E-03
 -1      3607 8.83939E-04
 -1      3608 1.03847E-03
 -1      3609 1.14853E-03
 -1      3610 2.49394E+00
 -1      3611 9.80592E+00
 -1      3612 8.47228E+00
 -1      3613 8.66169E-04
 -1      3614 8.44836E-04
 -1      3615 2.92085E+00
 -1      3616 7.75120E+00
 -1      3617 2.76629E+00
 -1      3618 6.35526E+00
 -1      3619 6.97759E+00
 -1      3620 2.35857E+00
 -1      3621 2.93488E+00
 -1      3622 7.44512E+00
 -1      3623 7.53372E+00
 -1      3624 5.85206E+00
 -1      3625 1.11721E+01
 -1      3626 2.64744E+00
 -1      3627 2.72147E+00
 -1      3628 3.70865E+00
 -1      3629 2.14992E+00
 -1      3630 1.78073E+00
 -1      3631 1.96768E+00
 -1      3632 2.86714E+00
 -1      3633 2.47624E+00
 -1      3634 5.49230E+00
 -1      3635 6.23455E+00
 -1      3636 2.35703E+00
 -1      3637 5.80302E+00
 -1      3638 7.01714E+00
 -1      3639 7.01714E+00
 -1      3640 4.25378E+00
 -1      3641 8.38762E+00
 -1      3642 8.91666E+00
 -1      3643 3.51323E+00
 -1      3644 9.88473E-04
 -1      3645 8.38710E-04
 -1      3646 7.97933E-04
 -1      3647 1.07675E-03
 -1      3648 9.07022E-04
 -1      3649 9.89521E-04
 -1      3650 9.07022E-04
 -1      3651 7.44460E-04
 -1      3652 2.06186E+00
 -1      3653 8.41246E-04
 -1      3654 8.41246E-04
 -1      3655 9.80592E+00
 -1      3656 9.29098E-04
 -1      3657 8.25266E-04
 -1      3658 8.37450E-04
 -1      3659 5.26382E+00
 -1      3660 8.49187E-04
 -1      3661 8.43471E-04
 -1      3662 8.38007E-04
 -1      3663 9.19345E-04
 -1      3664 2.61173E+00
 -1      3665 2.39496E+00
 -1      3666 3.22356E+00
 -1      3667 4.51529E+00
 -1      3668 4.16611E+00
 -1      3669 2.83267E+00
 -1      3670 7.58563E-04
 -1      3671 9.74969E-04
 -1      3672 8.13969E-04
 -1      3673 9.07022E-04
 -1      3674 1.13215E-03
 -1      3675 6.60008E+00
 -1      3676 6.23985E+00
 -1      3677 4.86938E+00
 -1      3678 1.69132E+00
 -1      3679 1.83596E+00
 -1      3680 2.85077E+00
 -1      3681 2.42577E+00
 -1      3682 2.21213E+00
 -1      3683 1.90783E+00
 -1      3684 2.31154E+00
 -1      3685 1.58408E+00
 -1      3686 1.36478E+00
 -1      3687 1.77416E+00
 -1      3688 1.15820E+00
 -1      3689 9.98807E-01
 -1      3690 1.24383E+00
 -1      3691 8.61470E-01
 -1      3692 7.43280E-01
 -1      3693 8.99910E-01
 -1      3694 6.48092E-01
 -1      3695 5.59144E-01
 -1      3696 6.67385E-01
 -1      3697 4.89218E-01
 -1      3698 4.21289E-01
 -1      3699 5.02270E-01
 -1      3700 3.68643E-01
 -1      3701 3.16496E-01
 -1      3702 3.79697E-01
 -1      3703 2.75980E-01
 -1      3704 2.35890E-01
 -1      3705 2.86535E-01
 -1      3706 2.04552E-01
 -1      3707 1.73850E-01
 -1      3708 2.14682E-01
 -1      3709 1.49623E-01
 -1      3710 1.26275E-01
 -1      3711 1.59117E-01
 -1      3712 1.07645E-01
 -1      3713 9.00593E-02
 -1      3714 1.16260E-01
 -1      3715 7.58657E-02
 -1      3716 6.30684E-02
 -1      3717 8.34372E-02
 -1      3718 5.23851E-02
 -1      3719 4.32793E-02
 -1      3720 5.85602E-02
 -1      3721 3.56752E-02
 -1      3722 2.89991E-02
 -1      3723 4.02728E-02
 -1      3724 2.35593E-02
 -1      3725 1.87548E-02
 -1      3726 2.72289E-02
 -1      3727 1.47916E-02
 -1      3728 1.14721E-02
 -1      3729 1.78259E-02
 -1      3730 8.64695E-03
 -1      3731 6.37892E-03
 -1      3732 1.10376E-02
 -1      3733 4.47998E-03
 -1      3734 3.93702E-03
 -1      3735 6.31349E-03
 -1      3736 2.92426E-03
 -1      3737 3.22905E-03
 -1      3738 3.40178E-03
 -1      3739 3.42138E-03
 -1      3740 3.47201E-03
 -1      3741 2.58134E-03
 -1      3742 3.62354E-03
 -1      3743 3.51795E-03
 -1      3744 2.92520E-03
 -1      3745 3.50862E-03
 -1      3746 3.31540E-03
 -1      3747 3.06739E-03
 -1      3748 3.20947E-03
 -1      3749 2.97530E-03
 -1      3750 2.95213E-03
 -1      3751 2.81749E-03
 -1      3752 2.63274E-03
 -1      3753 2.68838E-03
 -1      3754 2.46396E-03
 -1      3755 2.26895E-03
 -1      3756 2.36178E-03
 -1      3757 2.12107E-03
 -1      3758 1.92379E-03
 -1      3759 2.04511E-03
 -1      3760 1.76996E-03
 -1      3761 1.58258E-03
 -1      3762 1.74340E-03
 -1      3763 1.43269E-03
 -1      3764 1.26186E-03
 -1      3765 1.43968E-03
 -1      3766 9.29246E-01
 -1      3767 1.01578E+00
 -1      3768 1.30522E+00
 -1      3769 1.41263E+00
 -1      3770 1.96322E+00
 -1      3771 1.39508E+00
 -1      3772 1.95313E+00
 -1      3773 2.47624E+00
 -1      3774 2.35908E+00
 -1      3775 6.55602E-01
 -1      3776 7.34858E-01
 -1      3777 9.11255E-01
 -1      3778 5.20051E-01
 -1      3779 5.82131E-01
 -1      3780 6.43396E-01
 -1      3781 4.12807E-01
 -1      3782 4.62397E-01
 -1      3783 5.12271E-01
 -1      3784 3.34678E-01
 -1      3785 3.70998E-01
 -1      3786 4.12807E-01
 -1      3787 2.68656E-01
 -1      3788 2.97390E-01
 -1      3789 3.33710E-01
 -1      3790 2.10421E-01
 -1      3791 2.36435E-01
 -1      3792 2.64200E-01
 -1      3793 1.61048E-01
 -1      3794 1.83442E-01
 -1      3795 2.05000E-01
 -1      3796 1.20428E-01
 -1      3797 1.38994E-01
 -1      3798 1.55968E-01
 -1      3799 8.78475E-02
 -1      3800 1.02769E-01
 -1      3801 1.16255E-01
 -1      3802 6.25252E-02
 -1      3803 7.39815E-02
 -1      3804 8.47296E-02
 -1      3805 4.34322E-02
 -1      3806 5.18464E-02
 -1      3807 6.01848E-02
 -1      3808 2.92525E-02
 -1      3809 3.55921E-02
 -1      3810 4.16660E-02
 -1      3811 1.89931E-02
 -1      3812 2.36521E-02
 -1      3813 2.82256E-02
 -1      3814 1.16004E-02
 -1      3815 1.48786E-02
 -1      3816 1.85108E-02
 -1      3817 6.43406E-03
 -1      3818 8.64857E-03
 -1      3819 1.14446E-02
 -1      3820 4.30008E-03
 -1      3821 4.51416E-03
 -1      3822 6.57291E-03
 -1      3823 3.55061E-03
 -1      3824 3.28379E-03
 -1      3825 3.63672E-03
 -1      3826 3.78849E-03
 -1      3827 3.77109E-03
 -1      3828 2.84091E-03
 -1      3829 3.79731E-03
 -1      3830 3.93309E-03
 -1      3831 3.20599E-03
 -1      3832 3.55526E-03
 -1      3833 3.77586E-03
 -1      3834 3.32913E-03
 -1      3835 3.17910E-03
 -1      3836 3.43415E-03
 -1      3837 3.18657E-03
 -1      3838 2.81755E-03
 -1      3839 3.00488E-03
 -1      3840 2.89123E-03
 -1      3841 2.44019E-03
 -1      3842 2.65089E-03
 -1      3843 2.55035E-03
 -1      3844 2.06690E-03
 -1      3845 2.27903E-03
 -1      3846 2.22253E-03
 -1      3847 1.69908E-03
 -1      3848 1.89943E-03
 -1      3849 1.89390E-03
 -1      3850 1.35650E-03
 -1      3851 1.53817E-03
 -1      3852 1.56551E-03
 -1      3853 9.13323E-04
 -1      3854 8.91666E+00
 -1      3855 1.91403E+00
 -1      3856 8.71554E-04
 -1      3857 4.71518E+00
 -1      3858 5.18271E+00
 -1      3859 5.94381E+00
 -1      3860 6.83308E+00
 -1      3861 3.51830E+00
 -1      3862 4.15628E+00
 -1      3863 4.43936E+00
 -1      3864 4.56008E+00
 -1      3865 9.55118E-04
 -1      3866 3.19271E+00
 -1      3867 1.16008E-03
 -1      3868 3.89072E+00
 -1      3869 2.47624E+00
 -1      3870 9.78827E-04
 -1      3871 9.82623E-04
 -1      3872 1.05054E-03
 -1      3873 1.21040E-03
 -1      3874 1.03037E-03
 -1      3875 9.98397E-04
 -1      3876 9.78827E-04
 -1      3877 1.04813E-03
 -1      3878 1.07343E-03
 -1      3879 1.00792E-03
 -1      3880 1.01015E-03
 -1      3881 3.80968E+00
 -1      3882 3.10593E+00
 -1      3883 1.03578E-03
 -1      3884 9.94930E-04
 -1      3885 1.04466E-03
 -1      3886 4.86321E+00
 -1      3887 4.34663E+00
 -1      3888 3.72633E+00
 -1      3889 1.25850E-03
 -1      3890 2.59635E+00
 -1      3891 2.71351E+00
 -1      3892 3.34320E+00
 -1      3893 1.01699E-03
 -1      3894 1.69404E+00
 -1      3895 1.37029E+00
 -1      3896 1.23032E+00
 -1      3897 1.02374E+00
 -1      3898 1.15021E+00
 -1      3899 8.85022E-01
 -1      3900 7.47685E-01
 -1      3901 8.71517E-01
 -1      3902 6.49708E-01
 -1      3903 5.54519E-01
 -1      3904 6.34819E-01
 -1      3905 4.87525E-01
 -1      3906 4.17599E-01
 -1      3907 4.69848E-01
 -1      3908 3.67746E-01
 -1      3909 3.15100E-01
 -1      3910 3.53001E-01
 -1      3911 2.79087E-01
 -1      3912 2.38571E-01
 -1      3913 2.67136E-01
 -1      3914 2.11363E-01
 -1      3915 1.80026E-01
 -1      3916 2.03915E-01
 -1      3917 1.58409E-01
 -1      3918 1.34182E-01
 -1      3919 1.55091E-01
 -1      3920 1.17084E-01
 -1      3921 9.84549E-02
 -1      3922 1.16376E-01
 -1      3923 8.50637E-02
 -1      3924 7.08700E-02
 -1      3925 8.58878E-02
 -1      3926 6.05164E-02
 -1      3927 4.98330E-02
 -1      3928 6.21429E-02
 -1      3929 4.19484E-02
 -1      3930 3.43443E-02
 -1      3931 4.39046E-02
 -1      3932 2.85928E-02
 -1      3933 2.31530E-02
 -1      3934 3.02684E-02
 -1      3935 1.93373E-02
 -1      3936 1.53741E-02
 -1      3937 2.07012E-02
 -1      3938 1.26085E-02
 -1      3939 9.78332E-03
 -1      3940 1.41199E-02
 -1      3941 7.76177E-03
 -1      3942 5.86283E-03
 -1      3943 9.33266E-03
 -1      3944 4.41455E-03
 -1      3945 3.40178E-03
 -1      3946 5.86283E-03
 -1      3947 2.38902E-03
 -1      3948 2.58134E-03
 -1      3949 3.40178E-03
 -1      3950 2.35878E-03
 -1      3951 2.51031E-03
 -1      3952 2.16645E-03
 -1      3953 2.67791E-03
 -1      3954 2.66858E-03
 -1      3955 2.11149E-03
 -1      3956 2.69514E-03
 -1      3957 2.58921E-03
 -1      3958 2.30566E-03
 -1      3959 2.52882E-03
 -1      3960 2.37100E-03
 -1      3961 2.27183E-03
 -1      3962 2.26174E-03
 -1      3963 2.09295E-03
 -1      3964 2.10217E-03
 -1      3965 1.96048E-03
 -1      3966 1.81259E-03
 -1      3967 1.86043E-03
 -1      3968 1.67623E-03
 -1      3969 1.52241E-03
 -1      3970 1.59160E-03
 -1      3971 1.46478E-03
 -1      3972 1.31489E-03
 -1      3973 1.39761E-03
 -1      3974 6.41379E-01
 -1      3975 7.14850E-01
 -1      3976 5.12271E-01
 -1      3977 5.69925E-01
 -1      3978 6.41379E-01
 -1      3979 4.08019E-01
 -1      3980 4.49829E-01
 -1      3981 5.07483E-01
 -1      3982 3.21194E-01
 -1      3983 3.58481E-01
 -1      3984 3.95503E-01
 -1      3985 2.48906E-01
 -1      3986 2.81128E-01
 -1      3987 3.05899E-01
 -1      3988 1.90067E-01
 -1      3989 2.17045E-01
 -1      3990 2.33973E-01
 -1      3991 1.42845E-01
 -1      3992 1.64899E-01
 -1      3993 1.76944E-01
 -1      3994 1.05454E-01
 -1      3995 1.23113E-01
 -1      3996 1.32044E-01
 -1      3997 7.62690E-02
 -1      3998 9.01350E-02
 -1      3999 9.69937E-02
 -1      4000 5.38348E-02
 -1      4001 6.45136E-02
 -1      4002 6.99190E-02
 -1      4003 3.70958E-02
 -1      4004 4.49359E-02
 -1      4005 4.92646E-02
 -1      4006 2.49100E-02
 -1      4007 3.05103E-02
 -1      4008 3.37802E-02
 -1      4009 1.63193E-02
 -1      4010 2.04338E-02
 -1      4011 2.27185E-02
 -1      4012 1.01620E-02
 -1      4013 1.31138E-02
 -1      4014 1.50367E-02
 -1      4015 6.16855E-03
 -1      4016 8.08845E-03
 -1      4017 9.75764E-03
 -1      4018 3.65306E-03
 -1      4019 4.66935E-03
 -1      4020 6.18489E-03
 -1      4021 2.84091E-03
 -1      4022 2.62043E-03
 -1      4023 3.65306E-03
 -1      4024 2.76077E-03
 -1      4025 2.61618E-03
 -1      4026 2.39569E-03
 -1      4027 2.91408E-03
 -1      4028 2.93553E-03
 -1      4029 2.34572E-03
 -1      4030 2.81662E-03
 -1      4031 2.93774E-03
 -1      4032 2.54414E-03
 -1      4033 2.57282E-03
 -1      4034 2.74705E-03
 -1      4035 2.49822E-03
 -1      4036 2.28431E-03
 -1      4037 2.45097E-03
 -1      4038 2.30678E-03
 -1      4039 1.97656E-03
 -1      4040 2.13772E-03
 -1      4041 2.03834E-03
 -1      4042 1.67527E-03
 -1      4043 1.84275E-03
 -1      4044 1.75794E-03
 -1      4045 1.44745E-03
 -1      4046 1.60836E-03
 -1      4047 1.55721E-03
 -1      4048 1.16008E-03
 -1      4049 2.83267E+00
 -1      4050 3.35918E+00
 -1      4051 3.06314E+00
 -1      4052 2.39561E+00
 -1      4053 1.10557E-03
 -1      4054 4.29019E+00
 -1      4055 3.87313E+00
 -1      4056 2.77999E+00
 -1      4057 3.35038E+00
 -1      4058 8.26963E-01
 -1      4059 1.02135E+00
 -1      4060 8.24946E-01
 -1      4061 1.12806E-03
 -1      4062 1.12806E-03
 -1      4063 2.14255E+00
 -1      4064 1.92892E+00
 -1      4065 1.52505E+00
 -1      4066 2.01298E+00
 -1      4067 3.49830E+00
 -1      4068 1.25166E-03
 -1      4069 1.16549E-03
 -1      4070 1.34915E-03
 -1      4071 1.26921E-03
 -1      4072 1.72168E+00
 -1      4073 2.00037E+00
 -1      4074 2.35481E+00
 -1      4075 1.29452E-03
 -1      4076 1.17618E+00
 -1      4077 1.46562E+00
 -1      4078 1.50278E+00
 -1      4079 1.09189E+00
 -1      4080 1.19059E-03
 -1      4081 2.80621E+00
 -1      4082 3.35373E+00
 -1      4083 3.03423E+00
 -1      4084 2.21023E+00
 -1      4085 1.10741E-03
 -1      4086 1.11088E-03
 -1      4087 1.19081E-03
 -1      4088 1.25681E-03
 -1      4089 1.29786E+00
 -1      4090 1.15789E+00
 -1      4091 9.05331E-01
 -1      4092 7.66610E-01
 -1      4093 1.05298E+00
 -1      4094 7.35236E-01
 -1      4095 6.37259E-01
 -1      4096 7.69050E-01
 -1      4097 5.43173E-01
 -1      4098 4.76179E-01
 -1      4099 6.43591E-01
 -1      4100 4.05043E-01
 -1      4101 3.55190E-01
 -1      4102 4.78368E-01
 -1      4103 3.02435E-01
 -1      4104 2.66422E-01
 -1      4105 3.54476E-01
 -1      4106 2.27191E-01
 -1      4107 1.99983E-01
 -1      4108 2.62489E-01
 -1      4109 1.70588E-01
 -1      4110 1.48971E-01
 -1      4111 1.93864E-01
 -1      4112 1.26836E-01
 -1      4113 1.09739E-01
 -1      4114 1.42334E-01
 -1      4115 9.35676E-02
 -1      4116 8.01764E-02
 -1      4117 1.04027E-01
 -1      4118 6.82854E-02
 -1      4119 5.79317E-02
 -1      4120 7.59653E-02
 -1      4121 4.88116E-02
 -1      4122 4.09270E-02
 -1      4123 5.49541E-02
 -1      4124 3.40187E-02
 -1      4125 2.82672E-02
 -1      4126 3.89258E-02
 -1      4127 2.33732E-02
 -1      4128 1.95575E-02
 -1      4129 2.71235E-02
 -1      4130 1.60637E-02
 -1      4131 1.32980E-02
 -1      4132 1.87357E-02
 -1      4133 1.07123E-02
 -1      4134 8.69079E-03
 -1      4135 1.26562E-02
 -1      4136 6.81380E-03
 -1      4137 5.36552E-03
 -1      4138 8.19349E-03
 -1      4139 4.03338E-03
 -1      4140 3.02061E-03
 -1      4141 4.98435E-03
 -1      4142 2.10066E-03
 -1      4143 1.87810E-03
 -1      4144 2.73225E-03
 -1      4145 1.67282E-03
 -1      4146 1.84043E-03
 -1      4147 1.60703E-03
 -1      4148 2.04841E-03
 -1      4149 2.07497E-03
 -1      4150 1.60974E-03
 -1      4151 2.14245E-03
 -1      4152 2.08206E-03
 -1      4153 1.88520E-03
 -1      4154 2.05856E-03
 -1      4155 1.94930E-03
 -1      4156 1.92918E-03
 -1      4157 1.86016E-03
 -1      4158 1.72769E-03
 -1      4159 1.81655E-03
 -1      4160 1.56215E-03
 -1      4161 1.42579E-03
 -1      4162 1.56188E-03
 -1      4163 1.39761E-03
 -1      4164 1.33999E-03
 -1      4165 1.25681E-03
 -1      4166 1.36816E-03
 -1      4167 5.91359E-01
 -1      4168 6.53801E-01
 -1      4169 6.53801E-01
 -1      4170 7.25255E-01
 -1      4171 7.37677E-01
 -1      4172 3.36533E-01
 -1      4173 3.76598E-01
 -1      4174 2.51916E-01
 -1      4175 2.83777E-01
 -1      4176 3.54476E-01
 -1      4177 1.87517E-01
 -1      4178 2.12685E-01
 -1      4179 2.62489E-01
 -1      4180 1.38391E-01
 -1      4181 1.58122E-01
 -1      4182 1.93864E-01
 -1      4183 1.00937E-01
 -1      4184 1.16256E-01
 -1      4185 1.42334E-01
 -1      4186 7.24960E-02
 -1      4187 8.42515E-02
 -1      4188 1.03514E-01
 -1      4189 5.10561E-02
 -1      4190 5.99550E-02
 -1      4191 7.42875E-02
 -1      4192 3.51046E-02
 -1      4193 4.16901E-02
 -1      4194 5.23805E-02
 -1      4195 2.40908E-02
 -1      4196 2.85669E-02
 -1      4197 3.64769E-02
 -1      4198 1.60596E-02
 -1      4199 1.92652E-02
 -1      4200 2.51137E-02
 -1      4201 1.04570E-02
 -1      4202 1.25306E-02
 -1      4203 1.67590E-02
 -1      4204 6.42116E-03
 -1      4205 7.92036E-03
 -1      4206 1.06933E-02
 -1      4207 3.65306E-03
 -1      4208 4.68569E-03
 -1      4209 6.42116E-03
 -1      4210 2.37186E-03
 -1      4211 2.59659E-03
 -1      4212 3.62922E-03
 -1      4213 2.06816E-03
 -1      4214 1.89340E-03
 -1      4215 2.09430E-03
 -1      4216 2.23827E-03
 -1      4217 2.21461E-03
 -1      4218 1.76229E-03
 -1      4219 2.19532E-03
 -1      4220 2.26490E-03
 -1      4221 1.93537E-03
 -1      4222 2.06880E-03
 -1      4223 2.19066E-03
 -1      4224 1.95734E-03
 -1      4225 1.89872E-03
 -1      4226 2.04531E-03
 -1      4227 1.92918E-03
 -1      4228 1.67577E-03
 -1      4229 1.80959E-03
 -1      4230 1.81655E-03
 -1      4231 1.49030E-03
 -1      4232 1.55721E-03
 -1      4233 1.60886E-03
 -1      4234 1.34915E-03
 -1      4235 8.15687E-01
 -1      4236 9.27800E-01
 -1      4237 8.28108E-01
 -1      4238 4.47735E-01
 -1      4239 4.97272E-01
 -1      4240 6.43591E-01
 -1      4241 4.78368E-01
 -1      4242 2.74449E+00
 -1      4243 2.23054E+00
 -1      4244 1.97748E+00
 -1      4245 1.09969E-03
 -1      4246 1.11687E-03
 -1      4247 1.25802E-03
 -1      4248 1.18286E-03
 -1      4249 1.11204E+00
 -1      4250 1.12130E+00
 -1      4251 1.27613E+00
 -1      4252 2.90408E+00
 -1      4253 2.84764E+00
 -1      4254 2.29818E+00
 -1      4255 1.66830E+00
 -1      4256 1.43343E+00
 -1      4257 1.44111E+00
 -1      4258 1.88585E+00
 -1      4259 2.53148E+00
 -1      4260 7.17265E-01
 -1      4261 6.85891E-01
 -1      4262 7.37677E-01
 -1      4263 6.43591E-01
 -1      4264 5.49504E-01
 -1      4265 4.78368E-01
 -1      4266 4.07232E-01
 -1      4267 3.54476E-01
 -1      4268 3.01720E-01
 -1      4269 2.62489E-01
 -1      4270 2.23259E-01
 -1      4271 1.93864E-01
 -1      4272 1.64469E-01
 -1      4273 1.42334E-01
 -1      4274 1.20199E-01
 -1      4275 1.04027E-01
 -1      4276 8.73424E-02
 -1      4277 7.54514E-02
 -1      4278 6.29104E-02
 -1      4279 5.37902E-02
 -1      4280 4.44243E-02
 -1      4281 3.75161E-02
 -1      4282 3.09784E-02
 -1      4283 2.60844E-02
 -1      4284 2.12588E-02
 -1      4285 1.77650E-02
 -1      4286 1.42359E-02
 -1      4287 1.16502E-02
 -1      4288 9.11355E-03
 -1      4289 7.23656E-03
 -1      4290 5.50109E-03
 -1      4291 4.16895E-03
 -1      4292 3.11248E-03
 -1      4293 2.19253E-03
 -1      4294 1.71407E-03
 -1      4295 1.50880E-03
 -1      4296 1.65525E-03
 -1      4297 1.86323E-03
 -1      4298 1.88986E-03
 -1      4299 1.95734E-03
 -1      4300 1.95268E-03
 -1      4301 1.92918E-03
 -1      4302 1.90569E-03
 -1      4303 1.81655E-03
 -1      4304 1.72742E-03
 -1      4305 1.56188E-03
 -1      4306 1.44332E-03
 -1      4307 6.85891E-01
 -1      4308 7.76323E-01
 -1      4309 2.18700E+00
 -1      4310 2.05685E+00
 -1      4311 1.73561E+00
 -1      4312 1.47955E+00
 -1      4313 1.30554E+00
 -1      4314 1.05298E+00
 -1      4315 1.50896E+00
 -1      4316 7.37677E-01
 -1      4317 1.71238E+00
 -1      4318 2.05685E+00
 -1      4319 1.95370E+00
 -1      4320 1.50896E+00
 -1      4321 9.69822E-01
 -1      4322 1.21104E-03
 -1      4323 1.64452E+00
 -1      4324 1.50896E+00
 -3
 9999
