    1C
    1UUSER                                                              
    1UDATE              27.october.2022                                 
    1UTIME              01:13:28                                        
    1UHOST                                                              
    1UPGM               CalculiX                                        
    1UVERSION           Version 2.17                             
    1UCOMPILETIME       Thu Jul 23 21:43:50 CEST 2020                    
    1UDIR                                                               
    1UDBN                                                               
    1UMAT    1SOLIDMATERIAL                                             
    2C                          4289                                     1
 -1         1 9.59131E+01 3.82315E+01 0.00000E+00
 -1         2 1.07770E+02 3.31906E+01 0.00000E+00
 -1         3 1.50000E+02 0.00000E+00 0.00000E+00
 -1         4 1.50000E+02 5.00000E+01 0.00000E+00
 -1         5 0.00000E+00 0.00000E+00 0.00000E+00
 -1         6 0.00000E+00 5.00000E+01 0.00000E+00
 -1         7 0.00000E+00 4.70500E+01 0.00000E+00
 -1         8 0.00000E+00 4.41000E+01 0.00000E+00
 -1         9 0.00000E+00 4.11500E+01 0.00000E+00
 -1        10 0.00000E+00 3.82000E+01 0.00000E+00
 -1        11 0.00000E+00 3.52500E+01 0.00000E+00
 -1        12 0.00000E+00 3.23500E+01 0.00000E+00
 -1        13 0.00000E+00 2.94000E+01 0.00000E+00
 -1        14 0.00000E+00 2.64500E+01 0.00000E+00
 -1        15 0.00000E+00 2.35000E+01 0.00000E+00
 -1        16 0.00000E+00 2.05500E+01 0.00000E+00
 -1        17 0.00000E+00 1.76000E+01 0.00000E+00
 -1        18 0.00000E+00 1.47000E+01 0.00000E+00
 -1        19 0.00000E+00 1.17500E+01 0.00000E+00
 -1        20 0.00000E+00 8.80000E+00 0.00000E+00
 -1        21 0.00000E+00 5.85000E+00 0.00000E+00
 -1        22 0.00000E+00 2.90000E+00 0.00000E+00
 -1        23 3.15000E+00 5.00000E+01 0.00000E+00
 -1        24 6.15000E+00 5.00000E+01 0.00000E+00
 -1        25 9.15000E+00 5.00000E+01 0.00000E+00
 -1        26 1.21500E+01 5.00000E+01 0.00000E+00
 -1        27 1.51500E+01 5.00000E+01 0.00000E+00
 -1        28 1.81500E+01 5.00000E+01 0.00000E+00
 -1        29 2.11500E+01 5.00000E+01 0.00000E+00
 -1        30 2.41500E+01 5.00000E+01 0.00000E+00
 -1        31 2.71500E+01 5.00000E+01 0.00000E+00
 -1        32 3.01500E+01 5.00000E+01 0.00000E+00
 -1        33 3.31500E+01 5.00000E+01 0.00000E+00
 -1        34 3.61500E+01 5.00000E+01 0.00000E+00
 -1        35 3.91500E+01 5.00000E+01 0.00000E+00
 -1        36 4.21500E+01 5.00000E+01 0.00000E+00
 -1        37 4.51500E+01 5.00000E+01 0.00000E+00
 -1        38 4.81500E+01 5.00000E+01 0.00000E+00
 -1        39 5.11500E+01 5.00000E+01 0.00000E+00
 -1        40 5.41500E+01 5.00000E+01 0.00000E+00
 -1        41 5.73000E+01 5.00000E+01 0.00000E+00
 -1        42 6.03000E+01 5.00000E+01 0.00000E+00
 -1        43 6.33000E+01 5.00000E+01 0.00000E+00
 -1        44 6.63000E+01 5.00000E+01 0.00000E+00
 -1        45 6.93000E+01 5.00000E+01 0.00000E+00
 -1        46 7.23000E+01 5.00000E+01 0.00000E+00
 -1        47 7.53000E+01 5.00000E+01 0.00000E+00
 -1        48 7.83000E+01 5.00000E+01 0.00000E+00
 -1        49 8.13000E+01 5.00000E+01 0.00000E+00
 -1        50 8.43000E+01 5.00000E+01 0.00000E+00
 -1        51 8.73000E+01 5.00000E+01 0.00000E+00
 -1        52 9.03000E+01 5.00000E+01 0.00000E+00
 -1        53 9.33000E+01 5.00000E+01 0.00000E+00
 -1        54 9.61500E+01 5.00000E+01 0.00000E+00
 -1        55 9.91500E+01 5.00000E+01 0.00000E+00
 -1        56 1.02000E+02 5.00000E+01 0.00000E+00
 -1        57 1.05000E+02 5.00000E+01 0.00000E+00
 -1        58 1.08000E+02 5.00000E+01 0.00000E+00
 -1        59 1.11000E+02 5.00000E+01 0.00000E+00
 -1        60 1.14000E+02 5.00000E+01 0.00000E+00
 -1        61 1.17000E+02 5.00000E+01 0.00000E+00
 -1        62 1.20000E+02 5.00000E+01 0.00000E+00
 -1        63 1.23000E+02 5.00000E+01 0.00000E+00
 -1        64 1.26000E+02 5.00000E+01 0.00000E+00
 -1        65 1.29000E+02 5.00000E+01 0.00000E+00
 -1        66 1.32000E+02 5.00000E+01 0.00000E+00
 -1        67 1.35000E+02 5.00000E+01 0.00000E+00
 -1        68 1.38000E+02 5.00000E+01 0.00000E+00
 -1        69 1.41000E+02 5.00000E+01 0.00000E+00
 -1        70 1.44000E+02 5.00000E+01 0.00000E+00
 -1        71 1.47000E+02 5.00000E+01 0.00000E+00
 -1        72 3.15000E+00 0.00000E+00 0.00000E+00
 -1        73 6.15000E+00 0.00000E+00 0.00000E+00
 -1        74 9.15000E+00 0.00000E+00 0.00000E+00
 -1        75 1.21500E+01 0.00000E+00 0.00000E+00
 -1        76 1.51500E+01 0.00000E+00 0.00000E+00
 -1        77 1.81500E+01 0.00000E+00 0.00000E+00
 -1        78 2.11500E+01 0.00000E+00 0.00000E+00
 -1        79 2.41500E+01 0.00000E+00 0.00000E+00
 -1        80 2.71500E+01 0.00000E+00 0.00000E+00
 -1        81 3.01500E+01 0.00000E+00 0.00000E+00
 -1        82 3.31500E+01 0.00000E+00 0.00000E+00
 -1        83 3.61500E+01 0.00000E+00 0.00000E+00
 -1        84 3.91500E+01 0.00000E+00 0.00000E+00
 -1        85 4.21500E+01 0.00000E+00 0.00000E+00
 -1        86 4.51500E+01 0.00000E+00 0.00000E+00
 -1        87 4.81500E+01 0.00000E+00 0.00000E+00
 -1        88 5.11500E+01 0.00000E+00 0.00000E+00
 -1        89 5.41500E+01 0.00000E+00 0.00000E+00
 -1        90 5.71500E+01 0.00000E+00 0.00000E+00
 -1        91 6.01500E+01 0.00000E+00 0.00000E+00
 -1        92 6.31500E+01 0.00000E+00 0.00000E+00
 -1        93 6.61500E+01 0.00000E+00 0.00000E+00
 -1        94 6.91500E+01 0.00000E+00 0.00000E+00
 -1        95 7.21500E+01 0.00000E+00 0.00000E+00
 -1        96 7.51500E+01 0.00000E+00 0.00000E+00
 -1        97 7.81500E+01 0.00000E+00 0.00000E+00
 -1        98 8.11500E+01 0.00000E+00 0.00000E+00
 -1        99 8.41500E+01 0.00000E+00 0.00000E+00
 -1       100 8.71500E+01 0.00000E+00 0.00000E+00
 -1       101 9.01500E+01 0.00000E+00 0.00000E+00
 -1       102 9.31500E+01 0.00000E+00 0.00000E+00
 -1       103 9.61500E+01 0.00000E+00 0.00000E+00
 -1       104 9.91500E+01 0.00000E+00 0.00000E+00
 -1       105 1.02150E+02 0.00000E+00 0.00000E+00
 -1       106 1.05150E+02 0.00000E+00 0.00000E+00
 -1       107 1.08150E+02 0.00000E+00 0.00000E+00
 -1       108 1.11150E+02 0.00000E+00 0.00000E+00
 -1       109 1.14150E+02 0.00000E+00 0.00000E+00
 -1       110 1.17150E+02 0.00000E+00 0.00000E+00
 -1       111 1.20150E+02 0.00000E+00 0.00000E+00
 -1       112 1.23150E+02 0.00000E+00 0.00000E+00
 -1       113 1.26150E+02 0.00000E+00 0.00000E+00
 -1       114 1.29150E+02 0.00000E+00 0.00000E+00
 -1       115 1.32150E+02 0.00000E+00 0.00000E+00
 -1       116 1.35150E+02 0.00000E+00 0.00000E+00
 -1       117 1.38150E+02 0.00000E+00 0.00000E+00
 -1       118 1.41150E+02 0.00000E+00 0.00000E+00
 -1       119 1.44150E+02 0.00000E+00 0.00000E+00
 -1       120 1.47150E+02 0.00000E+00 0.00000E+00
 -1       121 1.50000E+02 2.95000E+00 0.00000E+00
 -1       122 1.50000E+02 5.90000E+00 0.00000E+00
 -1       123 1.50000E+02 8.85000E+00 0.00000E+00
 -1       124 1.50000E+02 1.18000E+01 0.00000E+00
 -1       125 1.50000E+02 1.47500E+01 0.00000E+00
 -1       126 1.50000E+02 1.76500E+01 0.00000E+00
 -1       127 1.50000E+02 2.06000E+01 0.00000E+00
 -1       128 1.50000E+02 2.35500E+01 0.00000E+00
 -1       129 1.50000E+02 2.65000E+01 0.00000E+00
 -1       130 1.50000E+02 2.94500E+01 0.00000E+00
 -1       131 1.50000E+02 3.24000E+01 0.00000E+00
 -1       132 1.50000E+02 3.53000E+01 0.00000E+00
 -1       133 1.50000E+02 3.82500E+01 0.00000E+00
 -1       134 1.50000E+02 4.12000E+01 0.00000E+00
 -1       135 1.50000E+02 4.41500E+01 0.00000E+00
 -1       136 1.50000E+02 4.71000E+01 0.00000E+00
 -1       137 1.07602E+02 3.16664E+01 0.00000E+00
 -1       138 1.07123E+02 3.02508E+01 0.00000E+00
 -1       139 1.06361E+02 2.89784E+01 0.00000E+00
 -1       140 1.05383E+02 2.79257E+01 0.00000E+00
 -1       141 1.04117E+02 2.70428E+01 0.00000E+00
 -1       142 1.02700E+02 2.64619E+01 0.00000E+00
 -1       143 1.01142E+02 2.62004E+01 0.00000E+00
 -1       144 9.96460E+01 2.62814E+01 0.00000E+00
 -1       145 9.80957E+01 2.67215E+01 0.00000E+00
 -1       146 9.67465E+01 2.74624E+01 0.00000E+00
 -1       147 9.56654E+01 2.84007E+01 0.00000E+00
 -1       148 9.47621E+01 2.95981E+01 0.00000E+00
 -1       149 9.41352E+01 3.09588E+01 0.00000E+00
 -1       150 9.38097E+01 3.24457E+01 0.00000E+00
 -1       151 9.38113E+01 3.39506E+01 0.00000E+00
 -1       152 9.42247E+01 3.56724E+01 0.00000E+00
 -1       153 9.49977E+01 3.71505E+01 0.00000E+00
 -1       154 9.70852E+01 3.91423E+01 0.00000E+00
 -1       155 9.84803E+01 3.98055E+01 0.00000E+00
 -1       156 9.98938E+01 4.01355E+01 0.00000E+00
 -1       157 1.01456E+02 4.01568E+01 0.00000E+00
 -1       158 1.02886E+02 3.98632E+01 0.00000E+00
 -1       159 1.04219E+02 3.92819E+01 0.00000E+00
 -1       160 1.05392E+02 3.84473E+01 0.00000E+00
 -1       161 1.06395E+02 3.73571E+01 0.00000E+00
 -1       162 1.07169E+02 3.60282E+01 0.00000E+00
 -1       163 1.07627E+02 3.45988E+01 0.00000E+00
 -1       164 2.59800E+00 4.55750E+01 0.00000E+00
 -1       165 2.59800E+00 4.26250E+01 0.00000E+00
 -1       166 2.59800E+00 3.96750E+01 0.00000E+00
 -1       167 2.59800E+00 3.67250E+01 0.00000E+00
 -1       168 2.59800E+00 3.38250E+01 0.00000E+00
 -1       169 2.59800E+00 3.08750E+01 0.00000E+00
 -1       170 2.59800E+00 2.79250E+01 0.00000E+00
 -1       171 2.59800E+00 2.49750E+01 0.00000E+00
 -1       172 2.59800E+00 2.20250E+01 0.00000E+00
 -1       173 2.59800E+00 1.90750E+01 0.00000E+00
 -1       174 2.59800E+00 1.61750E+01 0.00000E+00
 -1       175 2.59800E+00 1.32250E+01 0.00000E+00
 -1       176 2.59800E+00 1.02750E+01 0.00000E+00
 -1       177 2.59800E+00 7.32500E+00 0.00000E+00
 -1       178 2.59800E+00 4.37500E+00 0.00000E+00
 -1       179 2.87400E+00 2.18750E+00 0.00000E+00
 -1       180 4.65000E+00 4.74020E+01 0.00000E+00
 -1       181 7.65000E+00 4.74020E+01 0.00000E+00
 -1       182 1.06500E+01 4.74020E+01 0.00000E+00
 -1       183 1.36500E+01 4.74020E+01 0.00000E+00
 -1       184 1.66500E+01 4.74020E+01 0.00000E+00
 -1       185 1.96500E+01 4.74020E+01 0.00000E+00
 -1       186 2.26500E+01 4.74020E+01 0.00000E+00
 -1       187 2.56500E+01 4.74020E+01 0.00000E+00
 -1       188 2.86500E+01 4.74020E+01 0.00000E+00
 -1       189 3.16500E+01 4.74020E+01 0.00000E+00
 -1       190 3.46500E+01 4.74020E+01 0.00000E+00
 -1       191 3.76500E+01 4.74020E+01 0.00000E+00
 -1       192 4.06500E+01 4.74020E+01 0.00000E+00
 -1       193 4.36500E+01 4.74020E+01 0.00000E+00
 -1       194 4.66500E+01 4.74020E+01 0.00000E+00
 -1       195 4.96500E+01 4.74020E+01 0.00000E+00
 -1       196 5.26500E+01 4.74020E+01 0.00000E+00
 -1       197 5.58000E+01 4.74020E+01 0.00000E+00
 -1       198 5.88000E+01 4.74020E+01 0.00000E+00
 -1       199 6.18000E+01 4.74020E+01 0.00000E+00
 -1       200 6.48000E+01 4.74020E+01 0.00000E+00
 -1       201 6.78000E+01 4.74020E+01 0.00000E+00
 -1       202 7.08000E+01 4.74020E+01 0.00000E+00
 -1       203 7.38000E+01 4.74020E+01 0.00000E+00
 -1       204 7.68000E+01 4.74020E+01 0.00000E+00
 -1       205 7.98000E+01 4.74020E+01 0.00000E+00
 -1       206 8.28000E+01 4.74020E+01 0.00000E+00
 -1       207 8.58000E+01 4.74020E+01 0.00000E+00
 -1       208 8.88000E+01 4.74020E+01 0.00000E+00
 -1       209 9.18000E+01 4.74020E+01 0.00000E+00
 -1       210 9.46500E+01 4.74020E+01 0.00000E+00
 -1       211 9.76500E+01 4.74020E+01 0.00000E+00
 -1       212 1.00500E+02 4.74020E+01 0.00000E+00
 -1       213 1.03500E+02 4.74020E+01 0.00000E+00
 -1       214 1.06500E+02 4.74020E+01 0.00000E+00
 -1       215 1.09500E+02 4.74020E+01 0.00000E+00
 -1       216 1.12500E+02 4.74020E+01 0.00000E+00
 -1       217 1.15500E+02 4.74020E+01 0.00000E+00
 -1       218 1.18500E+02 4.74020E+01 0.00000E+00
 -1       219 1.21500E+02 4.74020E+01 0.00000E+00
 -1       220 1.24500E+02 4.74020E+01 0.00000E+00
 -1       221 1.27500E+02 4.74020E+01 0.00000E+00
 -1       222 1.30500E+02 4.74020E+01 0.00000E+00
 -1       223 1.33500E+02 4.74020E+01 0.00000E+00
 -1       224 1.36500E+02 4.74020E+01 0.00000E+00
 -1       225 1.39500E+02 4.74020E+01 0.00000E+00
 -1       226 1.42500E+02 4.74020E+01 0.00000E+00
 -1       227 1.45500E+02 4.74020E+01 0.00000E+00
 -1       228 1.47750E+02 4.72510E+01 0.00000E+00
 -1       229 5.87400E+00 2.18750E+00 0.00000E+00
 -1       230 8.87400E+00 2.18750E+00 0.00000E+00
 -1       231 1.18740E+01 2.18750E+00 0.00000E+00
 -1       232 1.48740E+01 2.18750E+00 0.00000E+00
 -1       233 1.78740E+01 2.18750E+00 0.00000E+00
 -1       234 2.08740E+01 2.18750E+00 0.00000E+00
 -1       235 2.38740E+01 2.18750E+00 0.00000E+00
 -1       236 2.68740E+01 2.18750E+00 0.00000E+00
 -1       237 2.98740E+01 2.18750E+00 0.00000E+00
 -1       238 3.28740E+01 2.18750E+00 0.00000E+00
 -1       239 3.58740E+01 2.18750E+00 0.00000E+00
 -1       240 3.88740E+01 2.18750E+00 0.00000E+00
 -1       241 4.18740E+01 2.18750E+00 0.00000E+00
 -1       242 4.48740E+01 2.18750E+00 0.00000E+00
 -1       243 4.78740E+01 2.18750E+00 0.00000E+00
 -1       244 5.08740E+01 2.18750E+00 0.00000E+00
 -1       245 5.38740E+01 2.18750E+00 0.00000E+00
 -1       246 5.68740E+01 2.18750E+00 0.00000E+00
 -1       247 5.98740E+01 2.18750E+00 0.00000E+00
 -1       248 6.28740E+01 2.18750E+00 0.00000E+00
 -1       249 6.58740E+01 2.18750E+00 0.00000E+00
 -1       250 6.88740E+01 2.18750E+00 0.00000E+00
 -1       251 7.18740E+01 2.18750E+00 0.00000E+00
 -1       252 7.48740E+01 2.18750E+00 0.00000E+00
 -1       253 7.78740E+01 2.18750E+00 0.00000E+00
 -1       254 8.08740E+01 2.18750E+00 0.00000E+00
 -1       255 8.38740E+01 2.18750E+00 0.00000E+00
 -1       256 8.68740E+01 2.18750E+00 0.00000E+00
 -1       257 8.98740E+01 2.18750E+00 0.00000E+00
 -1       258 9.28740E+01 2.18750E+00 0.00000E+00
 -1       259 9.58740E+01 2.18750E+00 0.00000E+00
 -1       260 9.88740E+01 2.18750E+00 0.00000E+00
 -1       261 1.01874E+02 2.18750E+00 0.00000E+00
 -1       262 1.04874E+02 2.18750E+00 0.00000E+00
 -1       263 1.07874E+02 2.18750E+00 0.00000E+00
 -1       264 1.10874E+02 2.18750E+00 0.00000E+00
 -1       265 1.13874E+02 2.18750E+00 0.00000E+00
 -1       266 1.16874E+02 2.18750E+00 0.00000E+00
 -1       267 1.19874E+02 2.18750E+00 0.00000E+00
 -1       268 1.22874E+02 2.18750E+00 0.00000E+00
 -1       269 1.25874E+02 2.18750E+00 0.00000E+00
 -1       270 1.28874E+02 2.18750E+00 0.00000E+00
 -1       271 1.31874E+02 2.18750E+00 0.00000E+00
 -1       272 1.34874E+02 2.18750E+00 0.00000E+00
 -1       273 1.37874E+02 2.18750E+00 0.00000E+00
 -1       274 1.40874E+02 2.18750E+00 0.00000E+00
 -1       275 1.43874E+02 2.18750E+00 0.00000E+00
 -1       276 1.46874E+02 2.18750E+00 0.00000E+00
 -1       277 1.47402E+02 4.42500E+00 0.00000E+00
 -1       278 1.47402E+02 7.37500E+00 0.00000E+00
 -1       279 1.47402E+02 1.03250E+01 0.00000E+00
 -1       280 1.47402E+02 1.32750E+01 0.00000E+00
 -1       281 1.47402E+02 1.61750E+01 0.00000E+00
 -1       282 1.47402E+02 1.91250E+01 0.00000E+00
 -1       283 1.47402E+02 2.20750E+01 0.00000E+00
 -1       284 1.47402E+02 2.50250E+01 0.00000E+00
 -1       285 1.47402E+02 2.79750E+01 0.00000E+00
 -1       286 1.47402E+02 3.09250E+01 0.00000E+00
 -1       287 1.47402E+02 3.38250E+01 0.00000E+00
 -1       288 1.47402E+02 3.67750E+01 0.00000E+00
 -1       289 1.47402E+02 3.97250E+01 0.00000E+00
 -1       290 1.47402E+02 4.26750E+01 0.00000E+00
 -1       291 1.47576E+02 4.49630E+01 0.00000E+00
 -1       292 1.08974E+02 3.22865E+01 0.00000E+00
 -1       293 1.08590E+02 3.05429E+01 0.00000E+00
 -1       294 1.07782E+02 2.89918E+01 0.00000E+00
 -1       295 1.06760E+02 2.76270E+01 0.00000E+00
 -1       296 1.05444E+02 2.64899E+01 0.00000E+00
 -1       297 1.03868E+02 2.56306E+01 0.00000E+00
 -1       298 1.02135E+02 2.50529E+01 0.00000E+00
 -1       299 1.00328E+02 2.50303E+01 0.00000E+00
 -1       300 9.84482E+01 2.50128E+01 0.00000E+00
 -1       301 9.67569E+01 2.58824E+01 0.00000E+00
 -1       302 9.54113E+01 2.70159E+01 0.00000E+00
 -1       303 9.42458E+01 2.82692E+01 0.00000E+00
 -1       304 9.33475E+01 2.97712E+01 0.00000E+00
 -1       305 9.27062E+01 3.14250E+01 0.00000E+00
 -1       306 9.25981E+01 3.31994E+01 0.00000E+00
 -1       307 9.25132E+01 3.51727E+01 0.00000E+00
 -1       308 9.33883E+01 3.70510E+01 0.00000E+00
 -1       309 9.45302E+01 3.84745E+01 0.00000E+00
 -1       310 9.57552E+01 3.96443E+01 0.00000E+00
 -1       311 9.72262E+01 4.06445E+01 0.00000E+00
 -1       312 9.89114E+01 4.11512E+01 0.00000E+00
 -1       313 1.00657E+02 4.14422E+01 0.00000E+00
 -1       314 1.02415E+02 4.11976E+01 0.00000E+00
 -1       315 1.04104E+02 4.08375E+01 0.00000E+00
 -1       316 1.05508E+02 3.98526E+01 0.00000E+00
 -1       317 1.06786E+02 3.87229E+01 0.00000E+00
 -1       318 1.07830E+02 3.73029E+01 0.00000E+00
 -1       319 1.08632E+02 3.57089E+01 0.00000E+00
 -1       320 1.08905E+02 3.40173E+01 0.00000E+00
 -1       321 5.19600E+00 4.11500E+01 0.00000E+00
 -1       322 5.19600E+00 4.41000E+01 0.00000E+00
 -1       323 5.19600E+00 3.52750E+01 0.00000E+00
 -1       324 5.19600E+00 3.23250E+01 0.00000E+00
 -1       325 5.19600E+00 2.93750E+01 0.00000E+00
 -1       326 5.19600E+00 2.64250E+01 0.00000E+00
 -1       327 5.19600E+00 2.34750E+01 0.00000E+00
 -1       328 5.19600E+00 2.05250E+01 0.00000E+00
 -1       329 5.19600E+00 1.76250E+01 0.00000E+00
 -1       330 5.19600E+00 1.46750E+01 0.00000E+00
 -1       331 5.19600E+00 1.17250E+01 0.00000E+00
 -1       332 5.19600E+00 8.77500E+00 0.00000E+00
 -1       333 5.19600E+00 5.82500E+00 0.00000E+00
 -1       334 5.53500E+00 4.00625E+00 0.00000E+00
 -1       335 8.53500E+00 4.00625E+00 0.00000E+00
 -1       336 9.15000E+00 4.48040E+01 0.00000E+00
 -1       337 1.21500E+01 4.48040E+01 0.00000E+00
 -1       338 1.51500E+01 4.48040E+01 0.00000E+00
 -1       339 1.81500E+01 4.48040E+01 0.00000E+00
 -1       340 2.11500E+01 4.48040E+01 0.00000E+00
 -1       341 2.41500E+01 4.48040E+01 0.00000E+00
 -1       342 2.71500E+01 4.48040E+01 0.00000E+00
 -1       343 3.01500E+01 4.48040E+01 0.00000E+00
 -1       344 3.31500E+01 4.48040E+01 0.00000E+00
 -1       345 3.61500E+01 4.48040E+01 0.00000E+00
 -1       346 3.91500E+01 4.48040E+01 0.00000E+00
 -1       347 4.21500E+01 4.48040E+01 0.00000E+00
 -1       348 4.51500E+01 4.48040E+01 0.00000E+00
 -1       349 4.81500E+01 4.48040E+01 0.00000E+00
 -1       350 5.11500E+01 4.48040E+01 0.00000E+00
 -1       351 5.43000E+01 4.48040E+01 0.00000E+00
 -1       352 5.73000E+01 4.48040E+01 0.00000E+00
 -1       353 6.03000E+01 4.48040E+01 0.00000E+00
 -1       354 6.33000E+01 4.48040E+01 0.00000E+00
 -1       355 6.63000E+01 4.48040E+01 0.00000E+00
 -1       356 6.93000E+01 4.48040E+01 0.00000E+00
 -1       357 7.23000E+01 4.48040E+01 0.00000E+00
 -1       358 7.53000E+01 4.48040E+01 0.00000E+00
 -1       359 7.83000E+01 4.48040E+01 0.00000E+00
 -1       360 8.13000E+01 4.48040E+01 0.00000E+00
 -1       361 8.43000E+01 4.48040E+01 0.00000E+00
 -1       362 8.73000E+01 4.48040E+01 0.00000E+00
 -1       363 9.03000E+01 4.48040E+01 0.00000E+00
 -1       364 9.31500E+01 4.48040E+01 0.00000E+00
 -1       365 9.61500E+01 4.48040E+01 0.00000E+00
 -1       366 9.90000E+01 4.48040E+01 0.00000E+00
 -1       367 1.02000E+02 4.48040E+01 0.00000E+00
 -1       368 1.05000E+02 4.48040E+01 0.00000E+00
 -1       369 1.08000E+02 4.48040E+01 0.00000E+00
 -1       370 1.11000E+02 4.48040E+01 0.00000E+00
 -1       371 1.14000E+02 4.48040E+01 0.00000E+00
 -1       372 1.17000E+02 4.48040E+01 0.00000E+00
 -1       373 1.20000E+02 4.48040E+01 0.00000E+00
 -1       374 1.23000E+02 4.48040E+01 0.00000E+00
 -1       375 1.26000E+02 4.48040E+01 0.00000E+00
 -1       376 1.29000E+02 4.48040E+01 0.00000E+00
 -1       377 1.32000E+02 4.48040E+01 0.00000E+00
 -1       378 1.35000E+02 4.48040E+01 0.00000E+00
 -1       379 1.38000E+02 4.48040E+01 0.00000E+00
 -1       380 1.41000E+02 4.48040E+01 0.00000E+00
 -1       381 1.44000E+02 4.48040E+01 0.00000E+00
 -1       382 1.33740E+01 4.78550E+00 0.00000E+00
 -1       383 1.63740E+01 4.78550E+00 0.00000E+00
 -1       384 1.93740E+01 4.78550E+00 0.00000E+00
 -1       385 2.23740E+01 4.78550E+00 0.00000E+00
 -1       386 2.53740E+01 4.78550E+00 0.00000E+00
 -1       387 2.83740E+01 4.78550E+00 0.00000E+00
 -1       388 3.13740E+01 4.78550E+00 0.00000E+00
 -1       389 3.43740E+01 4.78550E+00 0.00000E+00
 -1       390 3.73740E+01 4.78550E+00 0.00000E+00
 -1       391 4.03740E+01 4.78550E+00 0.00000E+00
 -1       392 4.33740E+01 4.78550E+00 0.00000E+00
 -1       393 4.63740E+01 4.78550E+00 0.00000E+00
 -1       394 4.93740E+01 4.78550E+00 0.00000E+00
 -1       395 5.23740E+01 4.78550E+00 0.00000E+00
 -1       396 5.53740E+01 4.78550E+00 0.00000E+00
 -1       397 5.83740E+01 4.78550E+00 0.00000E+00
 -1       398 6.13740E+01 4.78550E+00 0.00000E+00
 -1       399 6.43740E+01 4.78550E+00 0.00000E+00
 -1       400 6.73740E+01 4.78550E+00 0.00000E+00
 -1       401 7.03740E+01 4.78550E+00 0.00000E+00
 -1       402 7.33740E+01 4.78550E+00 0.00000E+00
 -1       403 7.63740E+01 4.78550E+00 0.00000E+00
 -1       404 7.93740E+01 4.78550E+00 0.00000E+00
 -1       405 8.23740E+01 4.78550E+00 0.00000E+00
 -1       406 8.53740E+01 4.78550E+00 0.00000E+00
 -1       407 8.83740E+01 4.78550E+00 0.00000E+00
 -1       408 9.13740E+01 4.78550E+00 0.00000E+00
 -1       409 9.43740E+01 4.78550E+00 0.00000E+00
 -1       410 9.73740E+01 4.78550E+00 0.00000E+00
 -1       411 1.00374E+02 4.78550E+00 0.00000E+00
 -1       412 1.03374E+02 4.78550E+00 0.00000E+00
 -1       413 1.06374E+02 4.78550E+00 0.00000E+00
 -1       414 1.09374E+02 4.78550E+00 0.00000E+00
 -1       415 1.12374E+02 4.78550E+00 0.00000E+00
 -1       416 1.15374E+02 4.78550E+00 0.00000E+00
 -1       417 1.18374E+02 4.78550E+00 0.00000E+00
 -1       418 1.21374E+02 4.78550E+00 0.00000E+00
 -1       419 1.24374E+02 4.78550E+00 0.00000E+00
 -1       420 1.27374E+02 4.78550E+00 0.00000E+00
 -1       421 1.30374E+02 4.78550E+00 0.00000E+00
 -1       422 1.33374E+02 4.78550E+00 0.00000E+00
 -1       423 1.36374E+02 4.78550E+00 0.00000E+00
 -1       424 1.39374E+02 4.78550E+00 0.00000E+00
 -1       425 1.42374E+02 4.78550E+00 0.00000E+00
 -1       426 1.44888E+02 4.60525E+00 0.00000E+00
 -1       427 1.44804E+02 1.18000E+01 0.00000E+00
 -1       428 1.44804E+02 8.85000E+00 0.00000E+00
 -1       429 1.44804E+02 1.47000E+01 0.00000E+00
 -1       430 1.44804E+02 1.76500E+01 0.00000E+00
 -1       431 1.44804E+02 2.06000E+01 0.00000E+00
 -1       432 1.44804E+02 2.35500E+01 0.00000E+00
 -1       433 1.44804E+02 2.65000E+01 0.00000E+00
 -1       434 1.44804E+02 2.94500E+01 0.00000E+00
 -1       435 1.44804E+02 3.23500E+01 0.00000E+00
 -1       436 1.44804E+02 3.53000E+01 0.00000E+00
 -1       437 1.44804E+02 3.82500E+01 0.00000E+00
 -1       438 1.44804E+02 4.12000E+01 0.00000E+00
 -1       439 1.09545E+01 4.39587E+00 0.00000E+00
 -1       440 1.09410E+02 2.91297E+01 0.00000E+00
 -1       441 1.07004E+02 2.60141E+01 0.00000E+00
 -1       442 1.10235E+02 3.32041E+01 0.00000E+00
 -1       443 1.08510E+02 2.73820E+01 0.00000E+00
 -1       444 5.19600E+00 3.82125E+01 0.00000E+00
 -1       445 1.05397E+02 2.47017E+01 0.00000E+00
 -1       446 1.03412E+02 2.41120E+01 0.00000E+00
 -1       447 1.01251E+02 2.34942E+01 0.00000E+00
 -1       448 9.93710E+01 2.34766E+01 0.00000E+00
 -1       449 9.69715E+01 2.42203E+01 0.00000E+00
 -1       450 9.51950E+01 2.53937E+01 0.00000E+00
 -1       451 9.36952E+01 2.65887E+01 0.00000E+00
 -1       452 9.23247E+01 2.81398E+01 0.00000E+00
 -1       453 9.16835E+01 2.97937E+01 0.00000E+00
 -1       454 9.12747E+01 3.22283E+01 0.00000E+00
 -1       455 9.11899E+01 3.42016E+01 0.00000E+00
 -1       456 9.15480E+01 3.67655E+01 0.00000E+00
 -1       457 9.26214E+01 3.88359E+01 0.00000E+00
 -1       458 9.42476E+01 3.99969E+01 0.00000E+00
 -1       459 9.57618E+01 4.12162E+01 0.00000E+00
 -1       460 9.76715E+01 4.22194E+01 0.00000E+00
 -1       461 9.95713E+01 4.25753E+01 0.00000E+00
 -1       462 1.01761E+02 4.29357E+01 0.00000E+00
 -1       463 1.03450E+02 4.25756E+01 0.00000E+00
 -1       464 1.05598E+02 4.14749E+01 0.00000E+00
 -1       465 1.07006E+02 4.02588E+01 0.00000E+00
 -1       466 1.08487E+02 3.88797E+01 0.00000E+00
 -1       467 1.09389E+02 3.70889E+01 0.00000E+00
 -1       468 1.10379E+02 3.51223E+01 0.00000E+00
 -1       469 1.10457E+02 3.10456E+01 0.00000E+00
 -1       470 9.02247E+01 3.57943E+01 0.00000E+00
 -1       471 9.78944E+01 2.26842E+01 0.00000E+00
 -1       472 7.79400E+00 3.08500E+01 0.00000E+00
 -1       473 7.79400E+00 3.38000E+01 0.00000E+00
 -1       474 7.79400E+00 2.49500E+01 0.00000E+00
 -1       475 7.79400E+00 2.20000E+01 0.00000E+00
 -1       476 7.79400E+00 1.91000E+01 0.00000E+00
 -1       477 7.79400E+00 1.61500E+01 0.00000E+00
 -1       478 7.79400E+00 1.32000E+01 0.00000E+00
 -1       479 7.79400E+00 1.02500E+01 0.00000E+00
 -1       480 7.79400E+00 7.30000E+00 0.00000E+00
 -1       481 8.16450E+00 5.65312E+00 0.00000E+00
 -1       482 1.06500E+01 4.22060E+01 0.00000E+00
 -1       483 1.10485E+02 2.74708E+01 0.00000E+00
 -1       484 1.08798E+02 2.55526E+01 0.00000E+00
 -1       485 1.36500E+01 4.22060E+01 0.00000E+00
 -1       486 1.66500E+01 4.22060E+01 0.00000E+00
 -1       487 1.96500E+01 4.22060E+01 0.00000E+00
 -1       488 2.26500E+01 4.22060E+01 0.00000E+00
 -1       489 2.56500E+01 4.22060E+01 0.00000E+00
 -1       490 2.86500E+01 4.22060E+01 0.00000E+00
 -1       491 3.16500E+01 4.22060E+01 0.00000E+00
 -1       492 3.46500E+01 4.22060E+01 0.00000E+00
 -1       493 3.76500E+01 4.22060E+01 0.00000E+00
 -1       494 4.06500E+01 4.22060E+01 0.00000E+00
 -1       495 4.36500E+01 4.22060E+01 0.00000E+00
 -1       496 4.66500E+01 4.22060E+01 0.00000E+00
 -1       497 4.96500E+01 4.22060E+01 0.00000E+00
 -1       498 5.28000E+01 4.22060E+01 0.00000E+00
 -1       499 5.58000E+01 4.22060E+01 0.00000E+00
 -1       500 5.88000E+01 4.22060E+01 0.00000E+00
 -1       501 6.18000E+01 4.22060E+01 0.00000E+00
 -1       502 6.48000E+01 4.22060E+01 0.00000E+00
 -1       503 6.78000E+01 4.22060E+01 0.00000E+00
 -1       504 7.08000E+01 4.22060E+01 0.00000E+00
 -1       505 7.38000E+01 4.22060E+01 0.00000E+00
 -1       506 7.68000E+01 4.22060E+01 0.00000E+00
 -1       507 7.98000E+01 4.22060E+01 0.00000E+00
 -1       508 8.28000E+01 4.22060E+01 0.00000E+00
 -1       509 8.58000E+01 4.22060E+01 0.00000E+00
 -1       510 8.88000E+01 4.22060E+01 0.00000E+00
 -1       511 9.16500E+01 4.22060E+01 0.00000E+00
 -1       512 9.46500E+01 4.27537E+01 0.00000E+00
 -1       513 1.09500E+02 4.22510E+01 0.00000E+00
 -1       514 1.12500E+02 4.22510E+01 0.00000E+00
 -1       515 1.15500E+02 4.22510E+01 0.00000E+00
 -1       516 1.18500E+02 4.22510E+01 0.00000E+00
 -1       517 1.21500E+02 4.22510E+01 0.00000E+00
 -1       518 1.24500E+02 4.22510E+01 0.00000E+00
 -1       519 1.27500E+02 4.22510E+01 0.00000E+00
 -1       520 1.30500E+02 4.22510E+01 0.00000E+00
 -1       521 1.33500E+02 4.22510E+01 0.00000E+00
 -1       522 1.36500E+02 4.22510E+01 0.00000E+00
 -1       523 1.39500E+02 4.22510E+01 0.00000E+00
 -1       524 1.42152E+02 4.17255E+01 0.00000E+00
 -1       525 2.08740E+01 7.38350E+00 0.00000E+00
 -1       526 1.78740E+01 7.38350E+00 0.00000E+00
 -1       527 1.48740E+01 7.38350E+00 0.00000E+00
 -1       528 2.38740E+01 7.38350E+00 0.00000E+00
 -1       529 2.68740E+01 7.38350E+00 0.00000E+00
 -1       530 2.98740E+01 7.38350E+00 0.00000E+00
 -1       531 3.28740E+01 7.38350E+00 0.00000E+00
 -1       532 3.58740E+01 7.38350E+00 0.00000E+00
 -1       533 3.88740E+01 7.38350E+00 0.00000E+00
 -1       534 4.18740E+01 7.38350E+00 0.00000E+00
 -1       535 4.48740E+01 7.38350E+00 0.00000E+00
 -1       536 4.78740E+01 7.38350E+00 0.00000E+00
 -1       537 5.08740E+01 7.38350E+00 0.00000E+00
 -1       538 5.38740E+01 7.38350E+00 0.00000E+00
 -1       539 5.68740E+01 7.38350E+00 0.00000E+00
 -1       540 5.98740E+01 7.38350E+00 0.00000E+00
 -1       541 6.28740E+01 7.38350E+00 0.00000E+00
 -1       542 6.58740E+01 7.38350E+00 0.00000E+00
 -1       543 6.88740E+01 7.38350E+00 0.00000E+00
 -1       544 7.18740E+01 7.38350E+00 0.00000E+00
 -1       545 7.48740E+01 7.38350E+00 0.00000E+00
 -1       546 7.78740E+01 7.38350E+00 0.00000E+00
 -1       547 8.08740E+01 7.38350E+00 0.00000E+00
 -1       548 8.38740E+01 7.38350E+00 0.00000E+00
 -1       549 8.68740E+01 7.38350E+00 0.00000E+00
 -1       550 8.98740E+01 7.38350E+00 0.00000E+00
 -1       551 9.28740E+01 7.38350E+00 0.00000E+00
 -1       552 9.58740E+01 7.38350E+00 0.00000E+00
 -1       553 9.88740E+01 7.38350E+00 0.00000E+00
 -1       554 1.01874E+02 7.38350E+00 0.00000E+00
 -1       555 1.04874E+02 7.38350E+00 0.00000E+00
 -1       556 1.07874E+02 7.38350E+00 0.00000E+00
 -1       557 1.10874E+02 7.38350E+00 0.00000E+00
 -1       558 1.13874E+02 7.38350E+00 0.00000E+00
 -1       559 1.16874E+02 7.38350E+00 0.00000E+00
 -1       560 1.19874E+02 7.38350E+00 0.00000E+00
 -1       561 1.22874E+02 7.38350E+00 0.00000E+00
 -1       562 1.25874E+02 7.38350E+00 0.00000E+00
 -1       563 1.28874E+02 7.38350E+00 0.00000E+00
 -1       564 1.31874E+02 7.38350E+00 0.00000E+00
 -1       565 1.34874E+02 7.38350E+00 0.00000E+00
 -1       566 1.37874E+02 7.38350E+00 0.00000E+00
 -1       567 1.40874E+02 7.38350E+00 0.00000E+00
 -1       568 1.42206E+02 1.61750E+01 0.00000E+00
 -1       569 1.42206E+02 1.32750E+01 0.00000E+00
 -1       570 1.42206E+02 1.03250E+01 0.00000E+00
 -1       571 1.12052E+02 3.23008E+01 0.00000E+00
 -1       572 1.42206E+02 1.91250E+01 0.00000E+00
 -1       573 1.42206E+02 2.20750E+01 0.00000E+00
 -1       574 1.42206E+02 2.50250E+01 0.00000E+00
 -1       575 1.42206E+02 2.79750E+01 0.00000E+00
 -1       576 1.42206E+02 3.08750E+01 0.00000E+00
 -1       577 1.42206E+02 3.38250E+01 0.00000E+00
 -1       578 1.42206E+02 3.67750E+01 0.00000E+00
 -1       579 1.42179E+02 3.92503E+01 0.00000E+00
 -1       580 7.92300E+00 4.16780E+01 0.00000E+00
 -1       581 1.07286E+02 2.40295E+01 0.00000E+00
 -1       582 1.12196E+02 3.42189E+01 0.00000E+00
 -1       583 1.11191E+02 3.67640E+01 0.00000E+00
 -1       584 9.14736E+01 2.60067E+01 0.00000E+00
 -1       585 1.04821E+02 2.30037E+01 0.00000E+00
 -1       586 7.79400E+00 2.79000E+01 0.00000E+00
 -1       587 1.02757E+02 2.23152E+01 0.00000E+00
 -1       588 9.51380E+01 2.33759E+01 0.00000E+00
 -1       589 1.00330E+02 2.14352E+01 0.00000E+00
 -1       590 9.06364E+01 3.85515E+01 0.00000E+00
 -1       591 9.34285E+01 2.47154E+01 0.00000E+00
 -1       592 8.99363E+01 2.81650E+01 0.00000E+00
 -1       593 8.95275E+01 3.05996E+01 0.00000E+00
 -1       594 8.98536E+01 3.31556E+01 0.00000E+00
 -1       595 1.07423E+02 4.21646E+01 0.00000E+00
 -1       596 9.25840E+01 4.06077E+01 0.00000E+00
 -1       597 1.05192E+02 4.33280E+01 0.00000E+00
 -1       598 1.08744E+02 4.06407E+01 0.00000E+00
 -1       599 1.10395E+02 3.87177E+01 0.00000E+00
 -1       600 1.11532E+02 2.93866E+01 0.00000E+00
 -1       601 7.79400E+00 3.67375E+01 0.00000E+00
 -1       602 1.05840E+01 6.04275E+00 0.00000E+00
 -1       603 1.13127E+02 3.06418E+01 0.00000E+00
 -1       604 1.27290E+01 6.71313E+00 0.00000E+00
 -1       605 1.13008E+02 3.58607E+01 0.00000E+00
 -1       606 9.05990E+01 4.03233E+01 0.00000E+00
 -1       607 8.93131E+01 3.75803E+01 0.00000E+00
 -1       608 9.60609E+01 2.18397E+01 0.00000E+00
 -1       609 8.88884E+01 3.47483E+01 0.00000E+00
 -1       610 1.03920E+01 2.05500E+01 0.00000E+00
 -1       611 1.03920E+01 2.35000E+01 0.00000E+00
 -1       612 1.03920E+01 1.46750E+01 0.00000E+00
 -1       613 1.03920E+01 1.17250E+01 0.00000E+00
 -1       614 1.02135E+01 7.68962E+00 0.00000E+00
 -1       615 1.06777E+02 2.17785E+01 0.00000E+00
 -1       616 1.39206E+02 1.03250E+01 0.00000E+00
 -1       617 1.51500E+01 3.96080E+01 0.00000E+00
 -1       618 1.81500E+01 3.96080E+01 0.00000E+00
 -1       619 2.11500E+01 3.96080E+01 0.00000E+00
 -1       620 2.41500E+01 3.96080E+01 0.00000E+00
 -1       621 2.71500E+01 3.96080E+01 0.00000E+00
 -1       622 3.01500E+01 3.96080E+01 0.00000E+00
 -1       623 3.31500E+01 3.96080E+01 0.00000E+00
 -1       624 3.61500E+01 3.96080E+01 0.00000E+00
 -1       625 3.91500E+01 3.96080E+01 0.00000E+00
 -1       626 4.21500E+01 3.96080E+01 0.00000E+00
 -1       627 4.51500E+01 3.96080E+01 0.00000E+00
 -1       628 4.81500E+01 3.96080E+01 0.00000E+00
 -1       629 5.13000E+01 3.96080E+01 0.00000E+00
 -1       630 5.43000E+01 3.96080E+01 0.00000E+00
 -1       631 5.73000E+01 3.96080E+01 0.00000E+00
 -1       632 6.03000E+01 3.96080E+01 0.00000E+00
 -1       633 6.33000E+01 3.96080E+01 0.00000E+00
 -1       634 6.63000E+01 3.96080E+01 0.00000E+00
 -1       635 6.93000E+01 3.96080E+01 0.00000E+00
 -1       636 7.23000E+01 3.96080E+01 0.00000E+00
 -1       637 7.53000E+01 3.96080E+01 0.00000E+00
 -1       638 7.83000E+01 3.96080E+01 0.00000E+00
 -1       639 8.13000E+01 3.96080E+01 0.00000E+00
 -1       640 8.43000E+01 3.96080E+01 0.00000E+00
 -1       641 8.73000E+01 3.96080E+01 0.00000E+00
 -1       642 9.78035E+00 3.93914E+01 0.00000E+00
 -1       643 1.14000E+02 3.96981E+01 0.00000E+00
 -1       644 1.17000E+02 3.96981E+01 0.00000E+00
 -1       645 1.20000E+02 3.96981E+01 0.00000E+00
 -1       646 1.23000E+02 3.96981E+01 0.00000E+00
 -1       647 1.26000E+02 3.96981E+01 0.00000E+00
 -1       648 1.29000E+02 3.96981E+01 0.00000E+00
 -1       649 1.32000E+02 3.96981E+01 0.00000E+00
 -1       650 1.35000E+02 3.96981E+01 0.00000E+00
 -1       651 1.38000E+02 3.96981E+01 0.00000E+00
 -1       652 1.40089E+02 3.94742E+01 0.00000E+00
 -1       653 1.93740E+01 9.98150E+00 0.00000E+00
 -1       654 2.23740E+01 9.98150E+00 0.00000E+00
 -1       655 1.63740E+01 9.98150E+00 0.00000E+00
 -1       656 2.83740E+01 9.98150E+00 0.00000E+00
 -1       657 3.13740E+01 9.98150E+00 0.00000E+00
 -1       658 3.43740E+01 9.98150E+00 0.00000E+00
 -1       659 3.73740E+01 9.98150E+00 0.00000E+00
 -1       660 4.03740E+01 9.98150E+00 0.00000E+00
 -1       661 4.33740E+01 9.98150E+00 0.00000E+00
 -1       662 4.63740E+01 9.98150E+00 0.00000E+00
 -1       663 4.93740E+01 9.98150E+00 0.00000E+00
 -1       664 5.23740E+01 9.98150E+00 0.00000E+00
 -1       665 5.53740E+01 9.98150E+00 0.00000E+00
 -1       666 5.83740E+01 9.98150E+00 0.00000E+00
 -1       667 6.13740E+01 9.98150E+00 0.00000E+00
 -1       668 6.43740E+01 9.98150E+00 0.00000E+00
 -1       669 6.73740E+01 9.98150E+00 0.00000E+00
 -1       670 7.03740E+01 9.98150E+00 0.00000E+00
 -1       671 7.33740E+01 9.98150E+00 0.00000E+00
 -1       672 7.63740E+01 9.98150E+00 0.00000E+00
 -1       673 7.93740E+01 9.98150E+00 0.00000E+00
 -1       674 8.23740E+01 9.98150E+00 0.00000E+00
 -1       675 8.53740E+01 9.98150E+00 0.00000E+00
 -1       676 8.83740E+01 9.98150E+00 0.00000E+00
 -1       677 9.13740E+01 9.98150E+00 0.00000E+00
 -1       678 9.43740E+01 9.98150E+00 0.00000E+00
 -1       679 9.73740E+01 9.98150E+00 0.00000E+00
 -1       680 1.00374E+02 9.98150E+00 0.00000E+00
 -1       681 1.03374E+02 9.98150E+00 0.00000E+00
 -1       682 1.06374E+02 9.98150E+00 0.00000E+00
 -1       683 1.09374E+02 9.98150E+00 0.00000E+00
 -1       684 1.12374E+02 9.98150E+00 0.00000E+00
 -1       685 1.15374E+02 9.98150E+00 0.00000E+00
 -1       686 1.18374E+02 9.98150E+00 0.00000E+00
 -1       687 1.21374E+02 9.98150E+00 0.00000E+00
 -1       688 1.24374E+02 9.98150E+00 0.00000E+00
 -1       689 1.27374E+02 9.98150E+00 0.00000E+00
 -1       690 1.30374E+02 9.98150E+00 0.00000E+00
 -1       691 1.33374E+02 9.98150E+00 0.00000E+00
 -1       692 1.36290E+02 1.01532E+01 0.00000E+00
 -1       693 1.39608E+02 1.47250E+01 0.00000E+00
 -1       694 1.39608E+02 2.06000E+01 0.00000E+00
 -1       695 1.12807E+02 2.74453E+01 0.00000E+00
 -1       696 1.39608E+02 1.76625E+01 0.00000E+00
 -1       697 1.39608E+02 2.65000E+01 0.00000E+00
 -1       698 1.39608E+02 2.94000E+01 0.00000E+00
 -1       699 1.39608E+02 3.23500E+01 0.00000E+00
 -1       700 1.39608E+02 3.53000E+01 0.00000E+00
 -1       701 1.10929E+02 2.53789E+01 0.00000E+00
 -1       702 1.14169E+02 3.31059E+01 0.00000E+00
 -1       703 9.15058E+01 2.39300E+01 0.00000E+00
 -1       704 1.39608E+02 2.35500E+01 0.00000E+00
 -1       705 1.11372E+02 4.01694E+01 0.00000E+00
 -1       706 8.93080E+01 2.60909E+01 0.00000E+00
 -1       707 1.24652E+01 3.94997E+01 0.00000E+00
 -1       708 9.32152E+01 2.25905E+01 0.00000E+00
 -1       709 1.09259E+02 2.35827E+01 0.00000E+00
 -1       710 1.04332E+02 2.10324E+01 0.00000E+00
 -1       711 8.77099E+01 2.90428E+01 0.00000E+00
 -1       712 1.03920E+01 1.76125E+01 0.00000E+00
 -1       713 9.82533E+01 2.03844E+01 0.00000E+00
 -1       714 1.12381E+02 3.83880E+01 0.00000E+00
 -1       715 1.03920E+01 3.23250E+01 0.00000E+00
 -1       716 2.53740E+01 9.98150E+00 0.00000E+00
 -1       717 8.78230E+01 3.21159E+01 0.00000E+00
 -1       718 1.01905E+02 2.01524E+01 0.00000E+00
 -1       719 1.03920E+01 2.64500E+01 0.00000E+00
 -1       720 9.98280E+01 1.91016E+01 0.00000E+00
 -1       721 1.03920E+01 3.52625E+01 0.00000E+00
 -1       722 1.14402E+02 2.87005E+01 0.00000E+00
 -1       723 1.39849E+02 3.73871E+01 0.00000E+00
 -1       724 1.33741E+01 9.98153E+00 0.00000E+00
 -1       725 1.14981E+02 3.47476E+01 0.00000E+00
 -1       726 8.93401E+01 2.40141E+01 0.00000E+00
 -1       727 9.41381E+01 2.10543E+01 0.00000E+00
 -1       728 1.03920E+01 2.93875E+01 0.00000E+00
 -1       729 8.79768E+01 3.65344E+01 0.00000E+00
 -1       730 8.70816E+01 2.69687E+01 0.00000E+00
 -1       731 1.29900E+01 1.32000E+01 0.00000E+00
 -1       732 1.06104E+02 1.96047E+01 0.00000E+00
 -1       733 9.11993E+01 2.17783E+01 0.00000E+00
 -1       734 1.96500E+01 3.70100E+01 0.00000E+00
 -1       735 2.26500E+01 3.70100E+01 0.00000E+00
 -1       736 2.56500E+01 3.70100E+01 0.00000E+00
 -1       737 2.86500E+01 3.70100E+01 0.00000E+00
 -1       738 3.16500E+01 3.70100E+01 0.00000E+00
 -1       739 3.46500E+01 3.70100E+01 0.00000E+00
 -1       740 3.76500E+01 3.70100E+01 0.00000E+00
 -1       741 4.06500E+01 3.70100E+01 0.00000E+00
 -1       742 4.36500E+01 3.70100E+01 0.00000E+00
 -1       743 4.66500E+01 3.70100E+01 0.00000E+00
 -1       744 4.98000E+01 3.70100E+01 0.00000E+00
 -1       745 5.28000E+01 3.70100E+01 0.00000E+00
 -1       746 5.58000E+01 3.70100E+01 0.00000E+00
 -1       747 5.88000E+01 3.70100E+01 0.00000E+00
 -1       748 6.18000E+01 3.70100E+01 0.00000E+00
 -1       749 6.48000E+01 3.70100E+01 0.00000E+00
 -1       750 6.78000E+01 3.70100E+01 0.00000E+00
 -1       751 7.08000E+01 3.70100E+01 0.00000E+00
 -1       752 7.38000E+01 3.70100E+01 0.00000E+00
 -1       753 7.68000E+01 3.70100E+01 0.00000E+00
 -1       754 7.98000E+01 3.70100E+01 0.00000E+00
 -1       755 8.28000E+01 3.70100E+01 0.00000E+00
 -1       756 1.03677E+02 1.87247E+01 0.00000E+00
 -1       757 1.18500E+02 3.71451E+01 0.00000E+00
 -1       758 1.21500E+02 3.71451E+01 0.00000E+00
 -1       759 1.24500E+02 3.71451E+01 0.00000E+00
 -1       760 1.27500E+02 3.71451E+01 0.00000E+00
 -1       761 1.30500E+02 3.71451E+01 0.00000E+00
 -1       762 1.33500E+02 3.71451E+01 0.00000E+00
 -1       763 1.36500E+02 3.71451E+01 0.00000E+00
 -1       764 2.08740E+01 1.25795E+01 0.00000E+00
 -1       765 1.78740E+01 1.25795E+01 0.00000E+00
 -1       766 3.28740E+01 1.25795E+01 0.00000E+00
 -1       767 2.98740E+01 1.25795E+01 0.00000E+00
 -1       768 3.88740E+01 1.25795E+01 0.00000E+00
 -1       769 4.18740E+01 1.25795E+01 0.00000E+00
 -1       770 4.48740E+01 1.25795E+01 0.00000E+00
 -1       771 4.78740E+01 1.25795E+01 0.00000E+00
 -1       772 5.08740E+01 1.25795E+01 0.00000E+00
 -1       773 5.38740E+01 1.25795E+01 0.00000E+00
 -1       774 5.68740E+01 1.25795E+01 0.00000E+00
 -1       775 5.98740E+01 1.25795E+01 0.00000E+00
 -1       776 6.28740E+01 1.25795E+01 0.00000E+00
 -1       777 6.58740E+01 1.25795E+01 0.00000E+00
 -1       778 6.88740E+01 1.25795E+01 0.00000E+00
 -1       779 7.18740E+01 1.25795E+01 0.00000E+00
 -1       780 7.48740E+01 1.25795E+01 0.00000E+00
 -1       781 7.78740E+01 1.25795E+01 0.00000E+00
 -1       782 8.08740E+01 1.25795E+01 0.00000E+00
 -1       783 8.38740E+01 1.25795E+01 0.00000E+00
 -1       784 8.68740E+01 1.25795E+01 0.00000E+00
 -1       785 8.98740E+01 1.25795E+01 0.00000E+00
 -1       786 9.28740E+01 1.25795E+01 0.00000E+00
 -1       787 9.58740E+01 1.25795E+01 0.00000E+00
 -1       788 9.88740E+01 1.25795E+01 0.00000E+00
 -1       789 1.01874E+02 1.25795E+01 0.00000E+00
 -1       790 1.04874E+02 1.25795E+01 0.00000E+00
 -1       791 1.07874E+02 1.25795E+01 0.00000E+00
 -1       792 1.10874E+02 1.25795E+01 0.00000E+00
 -1       793 1.13874E+02 1.25795E+01 0.00000E+00
 -1       794 1.16874E+02 1.25795E+01 0.00000E+00
 -1       795 1.19874E+02 1.25795E+01 0.00000E+00
 -1       796 1.22874E+02 1.25795E+01 0.00000E+00
 -1       797 1.25874E+02 1.25795E+01 0.00000E+00
 -1       798 1.28874E+02 1.25795E+01 0.00000E+00
 -1       799 1.31874E+02 1.25795E+01 0.00000E+00
 -1       800 1.37010E+02 3.08750E+01 0.00000E+00
 -1       801 1.37010E+02 3.38250E+01 0.00000E+00
 -1       802 1.37010E+02 2.79750E+01 0.00000E+00
 -1       803 1.15444E+02 3.11646E+01 0.00000E+00
 -1       804 1.37010E+02 2.50250E+01 0.00000E+00
 -1       805 8.68435E+01 3.40441E+01 0.00000E+00
 -1       806 1.11718E+02 2.29706E+01 0.00000E+00
 -1       807 3.58740E+01 1.25795E+01 0.00000E+00
 -1       808 1.15441E+02 3.77666E+01 0.00000E+00
 -1       809 9.61158E+01 1.95435E+01 0.00000E+00
 -1       810 1.29900E+01 2.20250E+01 0.00000E+00
 -1       811 1.36692E+02 1.45533E+01 0.00000E+00
 -1       812 1.66500E+01 3.70100E+01 0.00000E+00
 -1       813 1.09223E+02 2.10222E+01 0.00000E+00
 -1       814 1.13596E+02 2.50370E+01 0.00000E+00
 -1       815 1.37010E+02 2.20750E+01 0.00000E+00
 -1       816 8.58851E+01 3.06486E+01 0.00000E+00
 -1       817 8.52567E+01 2.85744E+01 0.00000E+00
 -1       818 9.21221E+01 2.02421E+01 0.00000E+00
 -1       819 1.29900E+01 2.49750E+01 0.00000E+00
 -1       820 9.76906E+01 1.82607E+01 0.00000E+00
 -1       821 1.01600E+02 1.76739E+01 0.00000E+00
 -1       822 2.38740E+01 1.25795E+01 0.00000E+00
 -1       823 2.68740E+01 1.25795E+01 0.00000E+00
 -1       824 1.16256E+02 3.28063E+01 0.00000E+00
 -1       825 1.34283E+02 1.35664E+01 0.00000E+00
 -1       826 1.29900E+01 3.37938E+01 0.00000E+00
 -1       827 1.15191E+02 2.62921E+01 0.00000E+00
 -1       828 1.36692E+02 1.74907E+01 0.00000E+00
 -1       829 1.48741E+01 1.25795E+01 0.00000E+00
 -1       830 8.71138E+01 2.48919E+01 0.00000E+00
 -1       831 1.29900E+01 1.61375E+01 0.00000E+00
 -1       832 1.36851E+02 1.97829E+01 0.00000E+00
 -1       833 1.39652E+01 3.69017E+01 0.00000E+00
 -1       834 1.29900E+01 1.90875E+01 0.00000E+00
 -1       835 1.29900E+01 3.08563E+01 0.00000E+00
 -1       836 8.49056E+01 3.25768E+01 0.00000E+00
 -1       837 4.63740E+01 1.51775E+01 0.00000E+00
 -1       838 2.41500E+01 3.44120E+01 0.00000E+00
 -1       839 2.71500E+01 3.44120E+01 0.00000E+00
 -1       840 3.01500E+01 3.44120E+01 0.00000E+00
 -1       841 3.31500E+01 3.44120E+01 0.00000E+00
 -1       842 3.61500E+01 3.44120E+01 0.00000E+00
 -1       843 3.91500E+01 3.44120E+01 0.00000E+00
 -1       844 4.21500E+01 3.44120E+01 0.00000E+00
 -1       845 4.51500E+01 3.44120E+01 0.00000E+00
 -1       846 4.83000E+01 3.44120E+01 0.00000E+00
 -1       847 5.13000E+01 3.44120E+01 0.00000E+00
 -1       848 5.43000E+01 3.44120E+01 0.00000E+00
 -1       849 5.73000E+01 3.44120E+01 0.00000E+00
 -1       850 6.03000E+01 3.44120E+01 0.00000E+00
 -1       851 6.33000E+01 3.44120E+01 0.00000E+00
 -1       852 6.63000E+01 3.44120E+01 0.00000E+00
 -1       853 6.93000E+01 3.44120E+01 0.00000E+00
 -1       854 7.23000E+01 3.44120E+01 0.00000E+00
 -1       855 7.53000E+01 3.44120E+01 0.00000E+00
 -1       856 7.83000E+01 3.44120E+01 0.00000E+00
 -1       857 8.13000E+01 3.44120E+01 0.00000E+00
 -1       858 3.13740E+01 1.51775E+01 0.00000E+00
 -1       859 1.20000E+02 3.45471E+01 0.00000E+00
 -1       860 1.17490E+02 3.46474E+01 0.00000E+00
 -1       861 1.23000E+02 3.45471E+01 0.00000E+00
 -1       862 1.26000E+02 3.45471E+01 0.00000E+00
 -1       863 1.29000E+02 3.45471E+01 0.00000E+00
 -1       864 1.32000E+02 3.45471E+01 0.00000E+00
 -1       865 1.34505E+02 3.41861E+01 0.00000E+00
 -1       866 1.81500E+01 3.44120E+01 0.00000E+00
 -1       867 4.33740E+01 1.51775E+01 0.00000E+00
 -1       868 4.03740E+01 1.51775E+01 0.00000E+00
 -1       869 4.93740E+01 1.51775E+01 0.00000E+00
 -1       870 5.23740E+01 1.51775E+01 0.00000E+00
 -1       871 5.53740E+01 1.51775E+01 0.00000E+00
 -1       872 5.83740E+01 1.51775E+01 0.00000E+00
 -1       873 6.13740E+01 1.51775E+01 0.00000E+00
 -1       874 6.43740E+01 1.51775E+01 0.00000E+00
 -1       875 6.73740E+01 1.51775E+01 0.00000E+00
 -1       876 7.03740E+01 1.51775E+01 0.00000E+00
 -1       877 7.33740E+01 1.51775E+01 0.00000E+00
 -1       878 7.63740E+01 1.51775E+01 0.00000E+00
 -1       879 7.93740E+01 1.51775E+01 0.00000E+00
 -1       880 8.23740E+01 1.51775E+01 0.00000E+00
 -1       881 8.53740E+01 1.51775E+01 0.00000E+00
 -1       882 8.83740E+01 1.51775E+01 0.00000E+00
 -1       883 9.13740E+01 1.51775E+01 0.00000E+00
 -1       884 9.43740E+01 1.51775E+01 0.00000E+00
 -1       885 9.73740E+01 1.51775E+01 0.00000E+00
 -1       886 1.03374E+02 1.51775E+01 0.00000E+00
 -1       887 1.06374E+02 1.51775E+01 0.00000E+00
 -1       888 1.09374E+02 1.51775E+01 0.00000E+00
 -1       889 1.12374E+02 1.51775E+01 0.00000E+00
 -1       890 1.15374E+02 1.51775E+01 0.00000E+00
 -1       891 1.18374E+02 1.51775E+01 0.00000E+00
 -1       892 1.21374E+02 1.51775E+01 0.00000E+00
 -1       893 1.24374E+02 1.51775E+01 0.00000E+00
 -1       894 1.27374E+02 1.51775E+01 0.00000E+00
 -1       895 1.30374E+02 1.51775E+01 0.00000E+00
 -1       896 9.40999E+01 1.87313E+01 0.00000E+00
 -1       897 1.05704E+02 1.69222E+01 0.00000E+00
 -1       898 1.34412E+02 2.94250E+01 0.00000E+00
 -1       899 1.16657E+02 2.91994E+01 0.00000E+00
 -1       900 1.34412E+02 2.64750E+01 0.00000E+00
 -1       901 1.93740E+01 1.51775E+01 0.00000E+00
 -1       902 8.84356E+01 2.13710E+01 0.00000E+00
 -1       903 1.48741E+01 1.55170E+01 0.00000E+00
 -1       904 1.29900E+01 2.79188E+01 0.00000E+00
 -1       905 2.11500E+01 3.44120E+01 0.00000E+00
 -1       906 1.08823E+02 1.83397E+01 0.00000E+00
 -1       907 1.14298E+02 2.25120E+01 0.00000E+00
 -1       908 1.34412E+02 2.35250E+01 0.00000E+00
 -1       909 1.34458E+02 3.18055E+01 0.00000E+00
 -1       910 1.11939E+02 2.01164E+01 0.00000E+00
 -1       911 1.71240E+01 1.53473E+01 0.00000E+00
 -1       912 8.93584E+01 1.98349E+01 0.00000E+00
 -1       913 8.47041E+01 2.61065E+01 0.00000E+00
 -1       914 1.55880E+01 2.35000E+01 0.00000E+00
 -1       915 2.83740E+01 1.51775E+01 0.00000E+00
 -1       916 8.51702E+01 3.43968E+01 0.00000E+00
 -1       917 1.34283E+02 1.65039E+01 0.00000E+00
 -1       918 3.43740E+01 1.51775E+01 0.00000E+00
 -1       919 9.56747E+01 1.74486E+01 0.00000E+00
 -1       920 9.94627E+01 1.68330E+01 0.00000E+00
 -1       921 1.17469E+02 3.08411E+01 0.00000E+00
 -1       922 1.00374E+02 1.51775E+01 0.00000E+00
 -1       923 1.15893E+02 2.37671E+01 0.00000E+00
 -1       924 1.55880E+01 3.23250E+01 0.00000E+00
 -1       925 8.62093E+01 2.22488E+01 0.00000E+00
 -1       926 2.23740E+01 1.51775E+01 0.00000E+00
 -1       927 3.73740E+01 1.51775E+01 0.00000E+00
 -1       928 1.34253E+02 2.12329E+01 0.00000E+00
 -1       929 1.61190E+01 3.46675E+01 0.00000E+00
 -1       930 8.32686E+01 3.05324E+01 0.00000E+00
 -1       931 1.55880E+01 2.05625E+01 0.00000E+00
 -1       932 8.27160E+01 2.80645E+01 0.00000E+00
 -1       933 1.55880E+01 2.64438E+01 0.00000E+00
 -1       934 2.86500E+01 3.18140E+01 0.00000E+00
 -1       935 3.16500E+01 3.18140E+01 0.00000E+00
 -1       936 3.46500E+01 3.18140E+01 0.00000E+00
 -1       937 3.76500E+01 3.18140E+01 0.00000E+00
 -1       938 4.06500E+01 3.18140E+01 0.00000E+00
 -1       939 4.36500E+01 3.18140E+01 0.00000E+00
 -1       940 4.68000E+01 3.18140E+01 0.00000E+00
 -1       941 4.98000E+01 3.18140E+01 0.00000E+00
 -1       942 5.28000E+01 3.18140E+01 0.00000E+00
 -1       943 5.58000E+01 3.18140E+01 0.00000E+00
 -1       944 5.88000E+01 3.18140E+01 0.00000E+00
 -1       945 6.18000E+01 3.18140E+01 0.00000E+00
 -1       946 6.48000E+01 3.18140E+01 0.00000E+00
 -1       947 6.78000E+01 3.18140E+01 0.00000E+00
 -1       948 7.08000E+01 3.18140E+01 0.00000E+00
 -1       949 7.38000E+01 3.18140E+01 0.00000E+00
 -1       950 7.68000E+01 3.18140E+01 0.00000E+00
 -1       951 7.98000E+01 3.18140E+01 0.00000E+00
 -1       952 1.18766E+02 3.27060E+01 0.00000E+00
 -1       953 1.24500E+02 3.19491E+01 0.00000E+00
 -1       954 1.27500E+02 3.19491E+01 0.00000E+00
 -1       955 1.30500E+02 3.19491E+01 0.00000E+00
 -1       956 1.32479E+02 3.18773E+01 0.00000E+00
 -1       957 4.48740E+01 1.77755E+01 0.00000E+00
 -1       958 4.78740E+01 1.77755E+01 0.00000E+00
 -1       959 4.18740E+01 1.77755E+01 0.00000E+00
 -1       960 5.38740E+01 1.77755E+01 0.00000E+00
 -1       961 5.68740E+01 1.77755E+01 0.00000E+00
 -1       962 5.98740E+01 1.77755E+01 0.00000E+00
 -1       963 6.28740E+01 1.77755E+01 0.00000E+00
 -1       964 6.58740E+01 1.77755E+01 0.00000E+00
 -1       965 6.88740E+01 1.77755E+01 0.00000E+00
 -1       966 7.18740E+01 1.77755E+01 0.00000E+00
 -1       967 7.48740E+01 1.77755E+01 0.00000E+00
 -1       968 7.78740E+01 1.77755E+01 0.00000E+00
 -1       969 8.08740E+01 1.77755E+01 0.00000E+00
 -1       970 8.38740E+01 1.77755E+01 0.00000E+00
 -1       971 8.68740E+01 1.77755E+01 0.00000E+00
 -1       972 1.13874E+02 1.77755E+01 0.00000E+00
 -1       973 1.16874E+02 1.77755E+01 0.00000E+00
 -1       974 1.19874E+02 1.77755E+01 0.00000E+00
 -1       975 1.22874E+02 1.77755E+01 0.00000E+00
 -1       976 1.25874E+02 1.77755E+01 0.00000E+00
 -1       977 1.28874E+02 1.77755E+01 0.00000E+00
 -1       978 1.55880E+01 2.93875E+01 0.00000E+00
 -1       979 1.52310E+01 1.80398E+01 0.00000E+00
 -1       980 1.21500E+02 3.19491E+01 0.00000E+00
 -1       981 5.08740E+01 1.77755E+01 0.00000E+00
 -1       982 2.53740E+01 1.51775E+01 0.00000E+00
 -1       983 1.17905E+02 2.67473E+01 0.00000E+00
 -1       984 1.31814E+02 2.79500E+01 0.00000E+00
 -1       985 1.76190E+01 3.20695E+01 0.00000E+00
 -1       986 1.31814E+02 2.50000E+01 0.00000E+00
 -1       987 2.26500E+01 3.18140E+01 0.00000E+00
 -1       988 2.01345E+01 3.19417E+01 0.00000E+00
 -1       989 8.37996E+01 2.34635E+01 0.00000E+00
 -1       990 1.34268E+02 1.88684E+01 0.00000E+00
 -1       991 2.56500E+01 3.18140E+01 0.00000E+00
 -1       992 1.14818E+02 1.96404E+01 0.00000E+00
 -1       993 1.81860E+01 2.49719E+01 0.00000E+00
 -1       994 1.18717E+02 2.83890E+01 0.00000E+00
 -1       995 3.28740E+01 1.77755E+01 0.00000E+00
 -1       996 1.81860E+01 2.20344E+01 0.00000E+00
 -1       997 2.98740E+01 1.77755E+01 0.00000E+00
 -1       998 1.10874E+02 1.77755E+01 0.00000E+00
 -1       999 7.92474E+01 2.93461E+01 0.00000E+00
 -1      1000 1.31571E+02 1.83219E+01 0.00000E+00
 -1      1001 8.18114E+01 2.54214E+01 0.00000E+00
 -1      1002 1.16413E+02 2.08955E+01 0.00000E+00
 -1      1003 3.88740E+01 1.77755E+01 0.00000E+00
 -1      1004 1.31655E+02 2.27079E+01 0.00000E+00
 -1      1005 8.65416E+01 2.00122E+01 0.00000E+00
 -1      1006 2.08740E+01 1.77755E+01 0.00000E+00
 -1      1007 1.86240E+01 1.79453E+01 0.00000E+00
 -1      1008 2.71500E+01 2.92160E+01 0.00000E+00
 -1      1009 3.58740E+01 1.77755E+01 0.00000E+00
 -1      1010 2.38740E+01 1.77755E+01 0.00000E+00
 -1      1011 1.20108E+02 3.01690E+01 0.00000E+00
 -1      1012 3.31500E+01 2.92160E+01 0.00000E+00
 -1      1013 3.61500E+01 2.92160E+01 0.00000E+00
 -1      1014 3.91500E+01 2.92160E+01 0.00000E+00
 -1      1015 4.21500E+01 2.92160E+01 0.00000E+00
 -1      1016 4.53000E+01 2.92160E+01 0.00000E+00
 -1      1017 4.83000E+01 2.92160E+01 0.00000E+00
 -1      1018 5.13000E+01 2.92160E+01 0.00000E+00
 -1      1019 5.43000E+01 2.92160E+01 0.00000E+00
 -1      1020 5.73000E+01 2.92160E+01 0.00000E+00
 -1      1021 6.03000E+01 2.92160E+01 0.00000E+00
 -1      1022 6.33000E+01 2.92160E+01 0.00000E+00
 -1      1023 6.63000E+01 2.92160E+01 0.00000E+00
 -1      1024 6.93000E+01 2.92160E+01 0.00000E+00
 -1      1025 7.23000E+01 2.92160E+01 0.00000E+00
 -1      1026 7.53000E+01 2.92160E+01 0.00000E+00
 -1      1027 1.29000E+02 2.93511E+01 0.00000E+00
 -1      1028 4.63740E+01 2.03735E+01 0.00000E+00
 -1      1029 3.01500E+01 2.92160E+01 0.00000E+00
 -1      1030 4.33740E+01 2.03735E+01 0.00000E+00
 -1      1031 5.83740E+01 2.03735E+01 0.00000E+00
 -1      1032 5.53740E+01 2.03735E+01 0.00000E+00
 -1      1033 6.43740E+01 2.03735E+01 0.00000E+00
 -1      1034 6.73740E+01 2.03735E+01 0.00000E+00
 -1      1035 7.03740E+01 2.03735E+01 0.00000E+00
 -1      1036 7.33740E+01 2.03735E+01 0.00000E+00
 -1      1037 7.63740E+01 2.03735E+01 0.00000E+00
 -1      1038 7.93740E+01 2.03735E+01 0.00000E+00
 -1      1039 8.23740E+01 2.03735E+01 0.00000E+00
 -1      1040 1.86747E+01 2.91601E+01 0.00000E+00
 -1      1041 1.18374E+02 2.03735E+01 0.00000E+00
 -1      1042 1.24374E+02 2.03735E+01 0.00000E+00
 -1      1043 1.27374E+02 2.03735E+01 0.00000E+00
 -1      1044 4.93740E+01 2.03735E+01 0.00000E+00
 -1      1045 1.23000E+02 2.93511E+01 0.00000E+00
 -1      1046 1.19052E+02 2.38038E+01 0.00000E+00
 -1      1047 1.29216E+02 2.64750E+01 0.00000E+00
 -1      1048 2.41500E+01 2.92160E+01 0.00000E+00
 -1      1049 1.21374E+02 2.03735E+01 0.00000E+00
 -1      1050 5.23740E+01 2.03735E+01 0.00000E+00
 -1      1051 1.26000E+02 2.93511E+01 0.00000E+00
 -1      1052 6.13740E+01 2.03735E+01 0.00000E+00
 -1      1053 3.43740E+01 2.03735E+01 0.00000E+00
 -1      1054 1.19864E+02 2.54455E+01 0.00000E+00
 -1      1055 3.13740E+01 2.03735E+01 0.00000E+00
 -1      1056 7.83428E+01 2.67031E+01 0.00000E+00
 -1      1057 2.07840E+01 2.35031E+01 0.00000E+00
 -1      1058 8.05927E+01 2.28975E+01 0.00000E+00
 -1      1059 2.68740E+01 1.77755E+01 0.00000E+00
 -1      1060 4.03740E+01 2.03735E+01 0.00000E+00
 -1      1061 1.29057E+02 2.41829E+01 0.00000E+00
 -1      1062 2.16345E+01 2.93438E+01 0.00000E+00
 -1      1063 1.31613E+02 2.05149E+01 0.00000E+00
 -1      1064 2.23740E+01 2.03735E+01 0.00000E+00
 -1      1065 1.21608E+02 2.75710E+01 0.00000E+00
 -1      1066 3.46500E+01 2.66180E+01 0.00000E+00
 -1      1067 3.76500E+01 2.66180E+01 0.00000E+00
 -1      1068 4.06500E+01 2.66180E+01 0.00000E+00
 -1      1069 4.38000E+01 2.66180E+01 0.00000E+00
 -1      1070 4.68000E+01 2.66180E+01 0.00000E+00
 -1      1071 4.98000E+01 2.66180E+01 0.00000E+00
 -1      1072 5.28000E+01 2.66180E+01 0.00000E+00
 -1      1073 5.58000E+01 2.66180E+01 0.00000E+00
 -1      1074 5.88000E+01 2.66180E+01 0.00000E+00
 -1      1075 6.18000E+01 2.66180E+01 0.00000E+00
 -1      1076 6.48000E+01 2.66180E+01 0.00000E+00
 -1      1077 6.78000E+01 2.66180E+01 0.00000E+00
 -1      1078 7.08000E+01 2.66180E+01 0.00000E+00
 -1      1079 7.38000E+01 2.66180E+01 0.00000E+00
 -1      1080 3.16500E+01 2.66180E+01 0.00000E+00
 -1      1081 4.48740E+01 2.29715E+01 0.00000E+00
 -1      1082 2.10108E+01 2.67649E+01 0.00000E+00
 -1      1083 1.26216E+02 2.64750E+01 0.00000E+00
 -1      1084 2.08290E+01 2.06393E+01 0.00000E+00
 -1      1085 6.88740E+01 2.29715E+01 0.00000E+00
 -1      1086 6.58740E+01 2.29715E+01 0.00000E+00
 -1      1087 7.48740E+01 2.29715E+01 0.00000E+00
 -1      1088 7.77334E+01 2.29345E+01 0.00000E+00
 -1      1089 4.78740E+01 2.29715E+01 0.00000E+00
 -1      1090 1.29707E+02 2.05950E+01 0.00000E+00
 -1      1091 1.25874E+02 2.29715E+01 0.00000E+00
 -1      1092 3.73740E+01 2.03735E+01 0.00000E+00
 -1      1093 5.08740E+01 2.29715E+01 0.00000E+00
 -1      1094 2.34892E+01 2.49538E+01 0.00000E+00
 -1      1095 5.98740E+01 2.29715E+01 0.00000E+00
 -1      1096 2.56500E+01 2.66180E+01 0.00000E+00
 -1      1097 1.22874E+02 2.29715E+01 0.00000E+00
 -1      1098 7.18740E+01 2.29715E+01 0.00000E+00
 -1      1099 5.68740E+01 2.29715E+01 0.00000E+00
 -1      1100 2.53740E+01 2.03735E+01 0.00000E+00
 -1      1101 5.38740E+01 2.29715E+01 0.00000E+00
 -1      1102 1.23912E+02 2.70230E+01 0.00000E+00
 -1      1103 6.28740E+01 2.29715E+01 0.00000E+00
 -1      1104 2.86500E+01 2.66180E+01 0.00000E+00
 -1      1105 4.18740E+01 2.29715E+01 0.00000E+00
 -1      1106 3.28740E+01 2.29715E+01 0.00000E+00
 -1      1107 2.30790E+01 2.19383E+01 0.00000E+00
 -1      1108 2.83740E+01 2.03735E+01 0.00000E+00
 -1      1109 3.58740E+01 2.29715E+01 0.00000E+00
 -1      1110 1.28295E+02 2.30706E+01 0.00000E+00
 -1      1111 3.91500E+01 2.40200E+01 0.00000E+00
 -1      1112 2.57842E+01 2.33890E+01 0.00000E+00
 -1      1113 2.98740E+01 2.29715E+01 0.00000E+00
 -1      1114 0.00000E+00 4.85250E+01 0.00000E+00
 -1      1115 0.00000E+00 4.55750E+01 0.00000E+00
 -1      1116 0.00000E+00 4.26250E+01 0.00000E+00
 -1      1117 0.00000E+00 3.96750E+01 0.00000E+00
 -1      1118 0.00000E+00 3.67250E+01 0.00000E+00
 -1      1119 0.00000E+00 3.38000E+01 0.00000E+00
 -1      1120 0.00000E+00 3.08750E+01 0.00000E+00
 -1      1121 0.00000E+00 2.79250E+01 0.00000E+00
 -1      1122 0.00000E+00 2.49750E+01 0.00000E+00
 -1      1123 0.00000E+00 2.20250E+01 0.00000E+00
 -1      1124 0.00000E+00 1.90750E+01 0.00000E+00
 -1      1125 0.00000E+00 1.61500E+01 0.00000E+00
 -1      1126 0.00000E+00 1.32250E+01 0.00000E+00
 -1      1127 0.00000E+00 1.02750E+01 0.00000E+00
 -1      1128 0.00000E+00 7.32500E+00 0.00000E+00
 -1      1129 0.00000E+00 4.37500E+00 0.00000E+00
 -1      1130 0.00000E+00 1.45000E+00 0.00000E+00
 -1      1131 1.57500E+00 5.00000E+01 0.00000E+00
 -1      1132 4.65000E+00 5.00000E+01 0.00000E+00
 -1      1133 7.65000E+00 5.00000E+01 0.00000E+00
 -1      1134 1.06500E+01 5.00000E+01 0.00000E+00
 -1      1135 1.36500E+01 5.00000E+01 0.00000E+00
 -1      1136 1.66500E+01 5.00000E+01 0.00000E+00
 -1      1137 1.96500E+01 5.00000E+01 0.00000E+00
 -1      1138 2.26500E+01 5.00000E+01 0.00000E+00
 -1      1139 2.56500E+01 5.00000E+01 0.00000E+00
 -1      1140 2.86500E+01 5.00000E+01 0.00000E+00
 -1      1141 3.16500E+01 5.00000E+01 0.00000E+00
 -1      1142 3.46500E+01 5.00000E+01 0.00000E+00
 -1      1143 3.76500E+01 5.00000E+01 0.00000E+00
 -1      1144 4.06500E+01 5.00000E+01 0.00000E+00
 -1      1145 4.36500E+01 5.00000E+01 0.00000E+00
 -1      1146 4.66500E+01 5.00000E+01 0.00000E+00
 -1      1147 4.96500E+01 5.00000E+01 0.00000E+00
 -1      1148 5.26500E+01 5.00000E+01 0.00000E+00
 -1      1149 5.57250E+01 5.00000E+01 0.00000E+00
 -1      1150 5.88000E+01 5.00000E+01 0.00000E+00
 -1      1151 6.18000E+01 5.00000E+01 0.00000E+00
 -1      1152 6.48000E+01 5.00000E+01 0.00000E+00
 -1      1153 6.78000E+01 5.00000E+01 0.00000E+00
 -1      1154 7.08000E+01 5.00000E+01 0.00000E+00
 -1      1155 7.38000E+01 5.00000E+01 0.00000E+00
 -1      1156 7.68000E+01 5.00000E+01 0.00000E+00
 -1      1157 7.98000E+01 5.00000E+01 0.00000E+00
 -1      1158 8.28000E+01 5.00000E+01 0.00000E+00
 -1      1159 8.58000E+01 5.00000E+01 0.00000E+00
 -1      1160 8.88000E+01 5.00000E+01 0.00000E+00
 -1      1161 9.18000E+01 5.00000E+01 0.00000E+00
 -1      1162 9.47250E+01 5.00000E+01 0.00000E+00
 -1      1163 9.76500E+01 5.00000E+01 0.00000E+00
 -1      1164 1.00575E+02 5.00000E+01 0.00000E+00
 -1      1165 1.03500E+02 5.00000E+01 0.00000E+00
 -1      1166 1.06500E+02 5.00000E+01 0.00000E+00
 -1      1167 1.09500E+02 5.00000E+01 0.00000E+00
 -1      1168 1.12500E+02 5.00000E+01 0.00000E+00
 -1      1169 1.15500E+02 5.00000E+01 0.00000E+00
 -1      1170 1.18500E+02 5.00000E+01 0.00000E+00
 -1      1171 1.21500E+02 5.00000E+01 0.00000E+00
 -1      1172 1.24500E+02 5.00000E+01 0.00000E+00
 -1      1173 1.27500E+02 5.00000E+01 0.00000E+00
 -1      1174 1.30500E+02 5.00000E+01 0.00000E+00
 -1      1175 1.33500E+02 5.00000E+01 0.00000E+00
 -1      1176 1.36500E+02 5.00000E+01 0.00000E+00
 -1      1177 1.39500E+02 5.00000E+01 0.00000E+00
 -1      1178 1.42500E+02 5.00000E+01 0.00000E+00
 -1      1179 1.45500E+02 5.00000E+01 0.00000E+00
 -1      1180 1.48500E+02 5.00000E+01 0.00000E+00
 -1      1181 1.57500E+00 0.00000E+00 0.00000E+00
 -1      1182 4.65000E+00 0.00000E+00 0.00000E+00
 -1      1183 7.65000E+00 0.00000E+00 0.00000E+00
 -1      1184 1.06500E+01 0.00000E+00 0.00000E+00
 -1      1185 1.36500E+01 0.00000E+00 0.00000E+00
 -1      1186 1.66500E+01 0.00000E+00 0.00000E+00
 -1      1187 1.96500E+01 0.00000E+00 0.00000E+00
 -1      1188 2.26500E+01 0.00000E+00 0.00000E+00
 -1      1189 2.56500E+01 0.00000E+00 0.00000E+00
 -1      1190 2.86500E+01 0.00000E+00 0.00000E+00
 -1      1191 3.16500E+01 0.00000E+00 0.00000E+00
 -1      1192 3.46500E+01 0.00000E+00 0.00000E+00
 -1      1193 3.76500E+01 0.00000E+00 0.00000E+00
 -1      1194 4.06500E+01 0.00000E+00 0.00000E+00
 -1      1195 4.36500E+01 0.00000E+00 0.00000E+00
 -1      1196 4.66500E+01 0.00000E+00 0.00000E+00
 -1      1197 4.96500E+01 0.00000E+00 0.00000E+00
 -1      1198 5.26500E+01 0.00000E+00 0.00000E+00
 -1      1199 5.56500E+01 0.00000E+00 0.00000E+00
 -1      1200 5.86500E+01 0.00000E+00 0.00000E+00
 -1      1201 6.16500E+01 0.00000E+00 0.00000E+00
 -1      1202 6.46500E+01 0.00000E+00 0.00000E+00
 -1      1203 6.76500E+01 0.00000E+00 0.00000E+00
 -1      1204 7.06500E+01 0.00000E+00 0.00000E+00
 -1      1205 7.36500E+01 0.00000E+00 0.00000E+00
 -1      1206 7.66500E+01 0.00000E+00 0.00000E+00
 -1      1207 7.96500E+01 0.00000E+00 0.00000E+00
 -1      1208 8.26500E+01 0.00000E+00 0.00000E+00
 -1      1209 8.56500E+01 0.00000E+00 0.00000E+00
 -1      1210 8.86500E+01 0.00000E+00 0.00000E+00
 -1      1211 9.16500E+01 0.00000E+00 0.00000E+00
 -1      1212 9.46500E+01 0.00000E+00 0.00000E+00
 -1      1213 9.76500E+01 0.00000E+00 0.00000E+00
 -1      1214 1.00650E+02 0.00000E+00 0.00000E+00
 -1      1215 1.03650E+02 0.00000E+00 0.00000E+00
 -1      1216 1.06650E+02 0.00000E+00 0.00000E+00
 -1      1217 1.09650E+02 0.00000E+00 0.00000E+00
 -1      1218 1.12650E+02 0.00000E+00 0.00000E+00
 -1      1219 1.15650E+02 0.00000E+00 0.00000E+00
 -1      1220 1.18650E+02 0.00000E+00 0.00000E+00
 -1      1221 1.21650E+02 0.00000E+00 0.00000E+00
 -1      1222 1.24650E+02 0.00000E+00 0.00000E+00
 -1      1223 1.27650E+02 0.00000E+00 0.00000E+00
 -1      1224 1.30650E+02 0.00000E+00 0.00000E+00
 -1      1225 1.33650E+02 0.00000E+00 0.00000E+00
 -1      1226 1.36650E+02 0.00000E+00 0.00000E+00
 -1      1227 1.39650E+02 0.00000E+00 0.00000E+00
 -1      1228 1.42650E+02 0.00000E+00 0.00000E+00
 -1      1229 1.45650E+02 0.00000E+00 0.00000E+00
 -1      1230 1.48575E+02 0.00000E+00 0.00000E+00
 -1      1231 1.50000E+02 1.47500E+00 0.00000E+00
 -1      1232 1.50000E+02 4.42500E+00 0.00000E+00
 -1      1233 1.50000E+02 7.37500E+00 0.00000E+00
 -1      1234 1.50000E+02 1.03250E+01 0.00000E+00
 -1      1235 1.50000E+02 1.32750E+01 0.00000E+00
 -1      1236 1.50000E+02 1.62000E+01 0.00000E+00
 -1      1237 1.50000E+02 1.91250E+01 0.00000E+00
 -1      1238 1.50000E+02 2.20750E+01 0.00000E+00
 -1      1239 1.50000E+02 2.50250E+01 0.00000E+00
 -1      1240 1.50000E+02 2.79750E+01 0.00000E+00
 -1      1241 1.50000E+02 3.09250E+01 0.00000E+00
 -1      1242 1.50000E+02 3.38500E+01 0.00000E+00
 -1      1243 1.50000E+02 3.67750E+01 0.00000E+00
 -1      1244 1.50000E+02 3.97250E+01 0.00000E+00
 -1      1245 1.50000E+02 4.26750E+01 0.00000E+00
 -1      1246 1.50000E+02 4.56250E+01 0.00000E+00
 -1      1247 1.50000E+02 4.85500E+01 0.00000E+00
 -1      1248 1.07728E+02 3.24239E+01 0.00000E+00
 -1      1249 1.07400E+02 3.09458E+01 0.00000E+00
 -1      1250 1.06776E+02 2.95944E+01 0.00000E+00
 -1      1251 1.05899E+02 2.84269E+01 0.00000E+00
 -1      1252 1.04775E+02 2.74493E+01 0.00000E+00
 -1      1253 1.03425E+02 2.67135E+01 0.00000E+00
 -1      1254 1.01928E+02 2.62871E+01 0.00000E+00
 -1      1255 1.00392E+02 2.62008E+01 0.00000E+00
 -1      1256 9.88581E+01 2.64567E+01 0.00000E+00
 -1      1257 9.74007E+01 2.70548E+01 0.00000E+00
 -1      1258 9.61819E+01 2.79038E+01 0.00000E+00
 -1      1259 9.51816E+01 2.89751E+01 0.00000E+00
 -1      1260 9.44121E+01 3.02616E+01 0.00000E+00
 -1      1261 9.39319E+01 3.16934E+01 0.00000E+00
 -1      1262 9.37699E+01 3.31982E+01 0.00000E+00
 -1      1263 9.39633E+01 3.48246E+01 0.00000E+00
 -1      1264 9.45670E+01 3.64346E+01 0.00000E+00
 -1      1265 9.54280E+01 3.77142E+01 0.00000E+00
 -1      1266 9.64749E+01 3.87181E+01 0.00000E+00
 -1      1267 9.77644E+01 3.95125E+01 0.00000E+00
 -1      1268 9.91785E+01 4.00073E+01 0.00000E+00
 -1      1269 1.00675E+02 4.01899E+01 0.00000E+00
 -1      1270 1.02179E+02 4.00473E+01 0.00000E+00
 -1      1271 1.03567E+02 3.96073E+01 0.00000E+00
 -1      1272 1.04827E+02 3.88949E+01 0.00000E+00
 -1      1273 1.05923E+02 3.79288E+01 0.00000E+00
 -1      1274 1.06819E+02 3.67140E+01 0.00000E+00
 -1      1275 1.07436E+02 3.53258E+01 0.00000E+00
 -1      1276 1.07734E+02 3.38983E+01 0.00000E+00
 -1      1277 1.57500E+00 4.85250E+01 0.00000E+00
 -1      1278 1.29900E+00 4.48375E+01 0.00000E+00
 -1      1279 1.29900E+00 4.63125E+01 0.00000E+00
 -1      1280 1.29900E+00 4.18875E+01 0.00000E+00
 -1      1281 1.29900E+00 4.33625E+01 0.00000E+00
 -1      1282 2.59800E+00 4.41000E+01 0.00000E+00
 -1      1283 1.29900E+00 3.89375E+01 0.00000E+00
 -1      1284 1.29900E+00 4.04125E+01 0.00000E+00
 -1      1285 2.59800E+00 4.11500E+01 0.00000E+00
 -1      1286 1.29900E+00 3.59875E+01 0.00000E+00
 -1      1287 1.29900E+00 3.74625E+01 0.00000E+00
 -1      1288 2.59800E+00 3.82000E+01 0.00000E+00
 -1      1289 1.29900E+00 3.30875E+01 0.00000E+00
 -1      1290 1.29900E+00 3.45375E+01 0.00000E+00
 -1      1291 2.59800E+00 3.52750E+01 0.00000E+00
 -1      1292 1.29900E+00 3.01375E+01 0.00000E+00
 -1      1293 1.29900E+00 3.16125E+01 0.00000E+00
 -1      1294 2.59800E+00 3.23500E+01 0.00000E+00
 -1      1295 1.29900E+00 2.71875E+01 0.00000E+00
 -1      1296 1.29900E+00 2.86625E+01 0.00000E+00
 -1      1297 2.59800E+00 2.94000E+01 0.00000E+00
 -1      1298 1.29900E+00 2.42375E+01 0.00000E+00
 -1      1299 1.29900E+00 2.57125E+01 0.00000E+00
 -1      1300 2.59800E+00 2.64500E+01 0.00000E+00
 -1      1301 1.29900E+00 2.12875E+01 0.00000E+00
 -1      1302 1.29900E+00 2.27625E+01 0.00000E+00
 -1      1303 2.59800E+00 2.35000E+01 0.00000E+00
 -1      1304 1.29900E+00 1.83375E+01 0.00000E+00
 -1      1305 1.29900E+00 1.98125E+01 0.00000E+00
 -1      1306 2.59800E+00 2.05500E+01 0.00000E+00
 -1      1307 1.29900E+00 1.54375E+01 0.00000E+00
 -1      1308 1.29900E+00 1.68875E+01 0.00000E+00
 -1      1309 2.59800E+00 1.76250E+01 0.00000E+00
 -1      1310 1.29900E+00 1.24875E+01 0.00000E+00
 -1      1311 1.29900E+00 1.39625E+01 0.00000E+00
 -1      1312 2.59800E+00 1.47000E+01 0.00000E+00
 -1      1313 1.29900E+00 9.53750E+00 0.00000E+00
 -1      1314 1.29900E+00 1.10125E+01 0.00000E+00
 -1      1315 2.59800E+00 1.17500E+01 0.00000E+00
 -1      1316 1.29900E+00 6.58750E+00 0.00000E+00
 -1      1317 1.29900E+00 8.06250E+00 0.00000E+00
 -1      1318 2.59800E+00 8.80000E+00 0.00000E+00
 -1      1319 1.29900E+00 3.63750E+00 0.00000E+00
 -1      1320 1.29900E+00 5.11250E+00 0.00000E+00
 -1      1321 2.59800E+00 5.85000E+00 0.00000E+00
 -1      1322 1.43700E+00 1.09375E+00 0.00000E+00
 -1      1323 1.43700E+00 2.54375E+00 0.00000E+00
 -1      1324 2.73600E+00 3.28125E+00 0.00000E+00
 -1      1325 3.01200E+00 1.09375E+00 0.00000E+00
 -1      1326 3.90000E+00 4.87010E+01 0.00000E+00
 -1      1327 5.40000E+00 4.87010E+01 0.00000E+00
 -1      1328 6.90000E+00 4.87010E+01 0.00000E+00
 -1      1329 8.40000E+00 4.87010E+01 0.00000E+00
 -1      1330 6.15000E+00 4.74020E+01 0.00000E+00
 -1      1331 9.90000E+00 4.87010E+01 0.00000E+00
 -1      1332 1.14000E+01 4.87010E+01 0.00000E+00
 -1      1333 9.15000E+00 4.74020E+01 0.00000E+00
 -1      1334 1.29000E+01 4.87010E+01 0.00000E+00
 -1      1335 1.44000E+01 4.87010E+01 0.00000E+00
 -1      1336 1.21500E+01 4.74020E+01 0.00000E+00
 -1      1337 1.59000E+01 4.87010E+01 0.00000E+00
 -1      1338 1.74000E+01 4.87010E+01 0.00000E+00
 -1      1339 1.51500E+01 4.74020E+01 0.00000E+00
 -1      1340 1.89000E+01 4.87010E+01 0.00000E+00
 -1      1341 2.04000E+01 4.87010E+01 0.00000E+00
 -1      1342 1.81500E+01 4.74020E+01 0.00000E+00
 -1      1343 2.19000E+01 4.87010E+01 0.00000E+00
 -1      1344 2.34000E+01 4.87010E+01 0.00000E+00
 -1      1345 2.11500E+01 4.74020E+01 0.00000E+00
 -1      1346 2.49000E+01 4.87010E+01 0.00000E+00
 -1      1347 2.64000E+01 4.87010E+01 0.00000E+00
 -1      1348 2.41500E+01 4.74020E+01 0.00000E+00
 -1      1349 2.79000E+01 4.87010E+01 0.00000E+00
 -1      1350 2.94000E+01 4.87010E+01 0.00000E+00
 -1      1351 2.71500E+01 4.74020E+01 0.00000E+00
 -1      1352 3.09000E+01 4.87010E+01 0.00000E+00
 -1      1353 3.24000E+01 4.87010E+01 0.00000E+00
 -1      1354 3.01500E+01 4.74020E+01 0.00000E+00
 -1      1355 3.39000E+01 4.87010E+01 0.00000E+00
 -1      1356 3.54000E+01 4.87010E+01 0.00000E+00
 -1      1357 3.31500E+01 4.74020E+01 0.00000E+00
 -1      1358 3.69000E+01 4.87010E+01 0.00000E+00
 -1      1359 3.84000E+01 4.87010E+01 0.00000E+00
 -1      1360 3.61500E+01 4.74020E+01 0.00000E+00
 -1      1361 3.99000E+01 4.87010E+01 0.00000E+00
 -1      1362 4.14000E+01 4.87010E+01 0.00000E+00
 -1      1363 3.91500E+01 4.74020E+01 0.00000E+00
 -1      1364 4.29000E+01 4.87010E+01 0.00000E+00
 -1      1365 4.44000E+01 4.87010E+01 0.00000E+00
 -1      1366 4.21500E+01 4.74020E+01 0.00000E+00
 -1      1367 4.59000E+01 4.87010E+01 0.00000E+00
 -1      1368 4.74000E+01 4.87010E+01 0.00000E+00
 -1      1369 4.51500E+01 4.74020E+01 0.00000E+00
 -1      1370 4.89000E+01 4.87010E+01 0.00000E+00
 -1      1371 5.04000E+01 4.87010E+01 0.00000E+00
 -1      1372 4.81500E+01 4.74020E+01 0.00000E+00
 -1      1373 5.19000E+01 4.87010E+01 0.00000E+00
 -1      1374 5.34000E+01 4.87010E+01 0.00000E+00
 -1      1375 5.11500E+01 4.74020E+01 0.00000E+00
 -1      1376 5.49750E+01 4.87010E+01 0.00000E+00
 -1      1377 5.65500E+01 4.87010E+01 0.00000E+00
 -1      1378 5.42250E+01 4.74020E+01 0.00000E+00
 -1      1379 5.80500E+01 4.87010E+01 0.00000E+00
 -1      1380 5.95500E+01 4.87010E+01 0.00000E+00
 -1      1381 5.73000E+01 4.74020E+01 0.00000E+00
 -1      1382 6.10500E+01 4.87010E+01 0.00000E+00
 -1      1383 6.25500E+01 4.87010E+01 0.00000E+00
 -1      1384 6.03000E+01 4.74020E+01 0.00000E+00
 -1      1385 6.40500E+01 4.87010E+01 0.00000E+00
 -1      1386 6.55500E+01 4.87010E+01 0.00000E+00
 -1      1387 6.33000E+01 4.74020E+01 0.00000E+00
 -1      1388 6.70500E+01 4.87010E+01 0.00000E+00
 -1      1389 6.85500E+01 4.87010E+01 0.00000E+00
 -1      1390 6.63000E+01 4.74020E+01 0.00000E+00
 -1      1391 7.00500E+01 4.87010E+01 0.00000E+00
 -1      1392 7.15500E+01 4.87010E+01 0.00000E+00
 -1      1393 6.93000E+01 4.74020E+01 0.00000E+00
 -1      1394 7.30500E+01 4.87010E+01 0.00000E+00
 -1      1395 7.45500E+01 4.87010E+01 0.00000E+00
 -1      1396 7.23000E+01 4.74020E+01 0.00000E+00
 -1      1397 7.60500E+01 4.87010E+01 0.00000E+00
 -1      1398 7.75500E+01 4.87010E+01 0.00000E+00
 -1      1399 7.53000E+01 4.74020E+01 0.00000E+00
 -1      1400 7.90500E+01 4.87010E+01 0.00000E+00
 -1      1401 8.05500E+01 4.87010E+01 0.00000E+00
 -1      1402 7.83000E+01 4.74020E+01 0.00000E+00
 -1      1403 8.20500E+01 4.87010E+01 0.00000E+00
 -1      1404 8.35500E+01 4.87010E+01 0.00000E+00
 -1      1405 8.13000E+01 4.74020E+01 0.00000E+00
 -1      1406 8.50500E+01 4.87010E+01 0.00000E+00
 -1      1407 8.65500E+01 4.87010E+01 0.00000E+00
 -1      1408 8.43000E+01 4.74020E+01 0.00000E+00
 -1      1409 8.80500E+01 4.87010E+01 0.00000E+00
 -1      1410 8.95500E+01 4.87010E+01 0.00000E+00
 -1      1411 8.73000E+01 4.74020E+01 0.00000E+00
 -1      1412 9.10500E+01 4.87010E+01 0.00000E+00
 -1      1413 9.25500E+01 4.87010E+01 0.00000E+00
 -1      1414 9.03000E+01 4.74020E+01 0.00000E+00
 -1      1415 9.39750E+01 4.87010E+01 0.00000E+00
 -1      1416 9.54000E+01 4.87010E+01 0.00000E+00
 -1      1417 9.32250E+01 4.74020E+01 0.00000E+00
 -1      1418 9.69000E+01 4.87010E+01 0.00000E+00
 -1      1419 9.84000E+01 4.87010E+01 0.00000E+00
 -1      1420 9.61500E+01 4.74020E+01 0.00000E+00
 -1      1421 9.98250E+01 4.87010E+01 0.00000E+00
 -1      1422 1.01250E+02 4.87010E+01 0.00000E+00
 -1      1423 9.90750E+01 4.74020E+01 0.00000E+00
 -1      1424 1.02750E+02 4.87010E+01 0.00000E+00
 -1      1425 1.04250E+02 4.87010E+01 0.00000E+00
 -1      1426 1.02000E+02 4.74020E+01 0.00000E+00
 -1      1427 1.05750E+02 4.87010E+01 0.00000E+00
 -1      1428 1.07250E+02 4.87010E+01 0.00000E+00
 -1      1429 1.05000E+02 4.74020E+01 0.00000E+00
 -1      1430 1.08750E+02 4.87010E+01 0.00000E+00
 -1      1431 1.10250E+02 4.87010E+01 0.00000E+00
 -1      1432 1.08000E+02 4.74020E+01 0.00000E+00
 -1      1433 1.11750E+02 4.87010E+01 0.00000E+00
 -1      1434 1.13250E+02 4.87010E+01 0.00000E+00
 -1      1435 1.11000E+02 4.74020E+01 0.00000E+00
 -1      1436 1.14750E+02 4.87010E+01 0.00000E+00
 -1      1437 1.16250E+02 4.87010E+01 0.00000E+00
 -1      1438 1.14000E+02 4.74020E+01 0.00000E+00
 -1      1439 1.17750E+02 4.87010E+01 0.00000E+00
 -1      1440 1.19250E+02 4.87010E+01 0.00000E+00
 -1      1441 1.17000E+02 4.74020E+01 0.00000E+00
 -1      1442 1.20750E+02 4.87010E+01 0.00000E+00
 -1      1443 1.22250E+02 4.87010E+01 0.00000E+00
 -1      1444 1.20000E+02 4.74020E+01 0.00000E+00
 -1      1445 1.23750E+02 4.87010E+01 0.00000E+00
 -1      1446 1.25250E+02 4.87010E+01 0.00000E+00
 -1      1447 1.23000E+02 4.74020E+01 0.00000E+00
 -1      1448 1.26750E+02 4.87010E+01 0.00000E+00
 -1      1449 1.28250E+02 4.87010E+01 0.00000E+00
 -1      1450 1.26000E+02 4.74020E+01 0.00000E+00
 -1      1451 1.29750E+02 4.87010E+01 0.00000E+00
 -1      1452 1.31250E+02 4.87010E+01 0.00000E+00
 -1      1453 1.29000E+02 4.74020E+01 0.00000E+00
 -1      1454 1.32750E+02 4.87010E+01 0.00000E+00
 -1      1455 1.34250E+02 4.87010E+01 0.00000E+00
 -1      1456 1.32000E+02 4.74020E+01 0.00000E+00
 -1      1457 1.35750E+02 4.87010E+01 0.00000E+00
 -1      1458 1.37250E+02 4.87010E+01 0.00000E+00
 -1      1459 1.35000E+02 4.74020E+01 0.00000E+00
 -1      1460 1.38750E+02 4.87010E+01 0.00000E+00
 -1      1461 1.40250E+02 4.87010E+01 0.00000E+00
 -1      1462 1.38000E+02 4.74020E+01 0.00000E+00
 -1      1463 1.41750E+02 4.87010E+01 0.00000E+00
 -1      1464 1.43250E+02 4.87010E+01 0.00000E+00
 -1      1465 1.41000E+02 4.74020E+01 0.00000E+00
 -1      1466 1.44750E+02 4.87010E+01 0.00000E+00
 -1      1467 1.46250E+02 4.87010E+01 0.00000E+00
 -1      1468 1.44000E+02 4.74020E+01 0.00000E+00
 -1      1469 1.47375E+02 4.86255E+01 0.00000E+00
 -1      1470 1.48875E+02 4.86255E+01 0.00000E+00
 -1      1471 1.48875E+02 4.71755E+01 0.00000E+00
 -1      1472 1.46625E+02 4.73265E+01 0.00000E+00
 -1      1473 6.01200E+00 1.09375E+00 0.00000E+00
 -1      1474 4.51200E+00 1.09375E+00 0.00000E+00
 -1      1475 4.37400E+00 2.18750E+00 0.00000E+00
 -1      1476 9.01200E+00 1.09375E+00 0.00000E+00
 -1      1477 7.51200E+00 1.09375E+00 0.00000E+00
 -1      1478 7.37400E+00 2.18750E+00 0.00000E+00
 -1      1479 1.20120E+01 1.09375E+00 0.00000E+00
 -1      1480 1.05120E+01 1.09375E+00 0.00000E+00
 -1      1481 1.03740E+01 2.18750E+00 0.00000E+00
 -1      1482 1.50120E+01 1.09375E+00 0.00000E+00
 -1      1483 1.35120E+01 1.09375E+00 0.00000E+00
 -1      1484 1.33740E+01 2.18750E+00 0.00000E+00
 -1      1485 1.80120E+01 1.09375E+00 0.00000E+00
 -1      1486 1.65120E+01 1.09375E+00 0.00000E+00
 -1      1487 1.63740E+01 2.18750E+00 0.00000E+00
 -1      1488 2.10120E+01 1.09375E+00 0.00000E+00
 -1      1489 1.95120E+01 1.09375E+00 0.00000E+00
 -1      1490 1.93740E+01 2.18750E+00 0.00000E+00
 -1      1491 2.40120E+01 1.09375E+00 0.00000E+00
 -1      1492 2.25120E+01 1.09375E+00 0.00000E+00
 -1      1493 2.23740E+01 2.18750E+00 0.00000E+00
 -1      1494 2.70120E+01 1.09375E+00 0.00000E+00
 -1      1495 2.55120E+01 1.09375E+00 0.00000E+00
 -1      1496 2.53740E+01 2.18750E+00 0.00000E+00
 -1      1497 3.00120E+01 1.09375E+00 0.00000E+00
 -1      1498 2.85120E+01 1.09375E+00 0.00000E+00
 -1      1499 2.83740E+01 2.18750E+00 0.00000E+00
 -1      1500 3.30120E+01 1.09375E+00 0.00000E+00
 -1      1501 3.15120E+01 1.09375E+00 0.00000E+00
 -1      1502 3.13740E+01 2.18750E+00 0.00000E+00
 -1      1503 3.60120E+01 1.09375E+00 0.00000E+00
 -1      1504 3.45120E+01 1.09375E+00 0.00000E+00
 -1      1505 3.43740E+01 2.18750E+00 0.00000E+00
 -1      1506 3.90120E+01 1.09375E+00 0.00000E+00
 -1      1507 3.75120E+01 1.09375E+00 0.00000E+00
 -1      1508 3.73740E+01 2.18750E+00 0.00000E+00
 -1      1509 4.20120E+01 1.09375E+00 0.00000E+00
 -1      1510 4.05120E+01 1.09375E+00 0.00000E+00
 -1      1511 4.03740E+01 2.18750E+00 0.00000E+00
 -1      1512 4.50120E+01 1.09375E+00 0.00000E+00
 -1      1513 4.35120E+01 1.09375E+00 0.00000E+00
 -1      1514 4.33740E+01 2.18750E+00 0.00000E+00
 -1      1515 4.80120E+01 1.09375E+00 0.00000E+00
 -1      1516 4.65120E+01 1.09375E+00 0.00000E+00
 -1      1517 4.63740E+01 2.18750E+00 0.00000E+00
 -1      1518 5.10120E+01 1.09375E+00 0.00000E+00
 -1      1519 4.95120E+01 1.09375E+00 0.00000E+00
 -1      1520 4.93740E+01 2.18750E+00 0.00000E+00
 -1      1521 5.40120E+01 1.09375E+00 0.00000E+00
 -1      1522 5.25120E+01 1.09375E+00 0.00000E+00
 -1      1523 5.23740E+01 2.18750E+00 0.00000E+00
 -1      1524 5.70120E+01 1.09375E+00 0.00000E+00
 -1      1525 5.55120E+01 1.09375E+00 0.00000E+00
 -1      1526 5.53740E+01 2.18750E+00 0.00000E+00
 -1      1527 6.00120E+01 1.09375E+00 0.00000E+00
 -1      1528 5.85120E+01 1.09375E+00 0.00000E+00
 -1      1529 5.83740E+01 2.18750E+00 0.00000E+00
 -1      1530 6.30120E+01 1.09375E+00 0.00000E+00
 -1      1531 6.15120E+01 1.09375E+00 0.00000E+00
 -1      1532 6.13740E+01 2.18750E+00 0.00000E+00
 -1      1533 6.60120E+01 1.09375E+00 0.00000E+00
 -1      1534 6.45120E+01 1.09375E+00 0.00000E+00
 -1      1535 6.43740E+01 2.18750E+00 0.00000E+00
 -1      1536 6.90120E+01 1.09375E+00 0.00000E+00
 -1      1537 6.75120E+01 1.09375E+00 0.00000E+00
 -1      1538 6.73740E+01 2.18750E+00 0.00000E+00
 -1      1539 7.20120E+01 1.09375E+00 0.00000E+00
 -1      1540 7.05120E+01 1.09375E+00 0.00000E+00
 -1      1541 7.03740E+01 2.18750E+00 0.00000E+00
 -1      1542 7.50120E+01 1.09375E+00 0.00000E+00
 -1      1543 7.35120E+01 1.09375E+00 0.00000E+00
 -1      1544 7.33740E+01 2.18750E+00 0.00000E+00
 -1      1545 7.80120E+01 1.09375E+00 0.00000E+00
 -1      1546 7.65120E+01 1.09375E+00 0.00000E+00
 -1      1547 7.63740E+01 2.18750E+00 0.00000E+00
 -1      1548 8.10120E+01 1.09375E+00 0.00000E+00
 -1      1549 7.95120E+01 1.09375E+00 0.00000E+00
 -1      1550 7.93740E+01 2.18750E+00 0.00000E+00
 -1      1551 8.40120E+01 1.09375E+00 0.00000E+00
 -1      1552 8.25120E+01 1.09375E+00 0.00000E+00
 -1      1553 8.23740E+01 2.18750E+00 0.00000E+00
 -1      1554 8.70120E+01 1.09375E+00 0.00000E+00
 -1      1555 8.55120E+01 1.09375E+00 0.00000E+00
 -1      1556 8.53740E+01 2.18750E+00 0.00000E+00
 -1      1557 9.00120E+01 1.09375E+00 0.00000E+00
 -1      1558 8.85120E+01 1.09375E+00 0.00000E+00
 -1      1559 8.83740E+01 2.18750E+00 0.00000E+00
 -1      1560 9.30120E+01 1.09375E+00 0.00000E+00
 -1      1561 9.15120E+01 1.09375E+00 0.00000E+00
 -1      1562 9.13740E+01 2.18750E+00 0.00000E+00
 -1      1563 9.60120E+01 1.09375E+00 0.00000E+00
 -1      1564 9.45120E+01 1.09375E+00 0.00000E+00
 -1      1565 9.43740E+01 2.18750E+00 0.00000E+00
 -1      1566 9.90120E+01 1.09375E+00 0.00000E+00
 -1      1567 9.75120E+01 1.09375E+00 0.00000E+00
 -1      1568 9.73740E+01 2.18750E+00 0.00000E+00
 -1      1569 1.02012E+02 1.09375E+00 0.00000E+00
 -1      1570 1.00512E+02 1.09375E+00 0.00000E+00
 -1      1571 1.00374E+02 2.18750E+00 0.00000E+00
 -1      1572 1.05012E+02 1.09375E+00 0.00000E+00
 -1      1573 1.03512E+02 1.09375E+00 0.00000E+00
 -1      1574 1.03374E+02 2.18750E+00 0.00000E+00
 -1      1575 1.08012E+02 1.09375E+00 0.00000E+00
 -1      1576 1.06512E+02 1.09375E+00 0.00000E+00
 -1      1577 1.06374E+02 2.18750E+00 0.00000E+00
 -1      1578 1.11012E+02 1.09375E+00 0.00000E+00
 -1      1579 1.09512E+02 1.09375E+00 0.00000E+00
 -1      1580 1.09374E+02 2.18750E+00 0.00000E+00
 -1      1581 1.14012E+02 1.09375E+00 0.00000E+00
 -1      1582 1.12512E+02 1.09375E+00 0.00000E+00
 -1      1583 1.12374E+02 2.18750E+00 0.00000E+00
 -1      1584 1.17012E+02 1.09375E+00 0.00000E+00
 -1      1585 1.15512E+02 1.09375E+00 0.00000E+00
 -1      1586 1.15374E+02 2.18750E+00 0.00000E+00
 -1      1587 1.20012E+02 1.09375E+00 0.00000E+00
 -1      1588 1.18512E+02 1.09375E+00 0.00000E+00
 -1      1589 1.18374E+02 2.18750E+00 0.00000E+00
 -1      1590 1.23012E+02 1.09375E+00 0.00000E+00
 -1      1591 1.21512E+02 1.09375E+00 0.00000E+00
 -1      1592 1.21374E+02 2.18750E+00 0.00000E+00
 -1      1593 1.26012E+02 1.09375E+00 0.00000E+00
 -1      1594 1.24512E+02 1.09375E+00 0.00000E+00
 -1      1595 1.24374E+02 2.18750E+00 0.00000E+00
 -1      1596 1.29012E+02 1.09375E+00 0.00000E+00
 -1      1597 1.27512E+02 1.09375E+00 0.00000E+00
 -1      1598 1.27374E+02 2.18750E+00 0.00000E+00
 -1      1599 1.32012E+02 1.09375E+00 0.00000E+00
 -1      1600 1.30512E+02 1.09375E+00 0.00000E+00
 -1      1601 1.30374E+02 2.18750E+00 0.00000E+00
 -1      1602 1.35012E+02 1.09375E+00 0.00000E+00
 -1      1603 1.33512E+02 1.09375E+00 0.00000E+00
 -1      1604 1.33374E+02 2.18750E+00 0.00000E+00
 -1      1605 1.38012E+02 1.09375E+00 0.00000E+00
 -1      1606 1.36512E+02 1.09375E+00 0.00000E+00
 -1      1607 1.36374E+02 2.18750E+00 0.00000E+00
 -1      1608 1.41012E+02 1.09375E+00 0.00000E+00
 -1      1609 1.39512E+02 1.09375E+00 0.00000E+00
 -1      1610 1.39374E+02 2.18750E+00 0.00000E+00
 -1      1611 1.44012E+02 1.09375E+00 0.00000E+00
 -1      1612 1.42512E+02 1.09375E+00 0.00000E+00
 -1      1613 1.42374E+02 2.18750E+00 0.00000E+00
 -1      1614 1.47012E+02 1.09375E+00 0.00000E+00
 -1      1615 1.45512E+02 1.09375E+00 0.00000E+00
 -1      1616 1.45374E+02 2.18750E+00 0.00000E+00
 -1      1617 1.48575E+02 1.47500E+00 0.00000E+00
 -1      1618 1.48701E+02 5.16250E+00 0.00000E+00
 -1      1619 1.48701E+02 3.68750E+00 0.00000E+00
 -1      1620 1.48701E+02 8.11250E+00 0.00000E+00
 -1      1621 1.48701E+02 6.63750E+00 0.00000E+00
 -1      1622 1.47402E+02 5.90000E+00 0.00000E+00
 -1      1623 1.48701E+02 1.10625E+01 0.00000E+00
 -1      1624 1.48701E+02 9.58750E+00 0.00000E+00
 -1      1625 1.47402E+02 8.85000E+00 0.00000E+00
 -1      1626 1.48701E+02 1.40125E+01 0.00000E+00
 -1      1627 1.48701E+02 1.25375E+01 0.00000E+00
 -1      1628 1.47402E+02 1.18000E+01 0.00000E+00
 -1      1629 1.48701E+02 1.69125E+01 0.00000E+00
 -1      1630 1.48701E+02 1.54625E+01 0.00000E+00
 -1      1631 1.47402E+02 1.47250E+01 0.00000E+00
 -1      1632 1.48701E+02 1.98625E+01 0.00000E+00
 -1      1633 1.48701E+02 1.83875E+01 0.00000E+00
 -1      1634 1.47402E+02 1.76500E+01 0.00000E+00
 -1      1635 1.48701E+02 2.28125E+01 0.00000E+00
 -1      1636 1.48701E+02 2.13375E+01 0.00000E+00
 -1      1637 1.47402E+02 2.06000E+01 0.00000E+00
 -1      1638 1.48701E+02 2.57625E+01 0.00000E+00
 -1      1639 1.48701E+02 2.42875E+01 0.00000E+00
 -1      1640 1.47402E+02 2.35500E+01 0.00000E+00
 -1      1641 1.48701E+02 2.87125E+01 0.00000E+00
 -1      1642 1.48701E+02 2.72375E+01 0.00000E+00
 -1      1643 1.47402E+02 2.65000E+01 0.00000E+00
 -1      1644 1.48701E+02 3.16625E+01 0.00000E+00
 -1      1645 1.48701E+02 3.01875E+01 0.00000E+00
 -1      1646 1.47402E+02 2.94500E+01 0.00000E+00
 -1      1647 1.48701E+02 3.45625E+01 0.00000E+00
 -1      1648 1.48701E+02 3.31125E+01 0.00000E+00
 -1      1649 1.47402E+02 3.23750E+01 0.00000E+00
 -1      1650 1.48701E+02 3.75125E+01 0.00000E+00
 -1      1651 1.48701E+02 3.60375E+01 0.00000E+00
 -1      1652 1.47402E+02 3.53000E+01 0.00000E+00
 -1      1653 1.48701E+02 4.04625E+01 0.00000E+00
 -1      1654 1.48701E+02 3.89875E+01 0.00000E+00
 -1      1655 1.47402E+02 3.82500E+01 0.00000E+00
 -1      1656 1.48701E+02 4.34125E+01 0.00000E+00
 -1      1657 1.48701E+02 4.19375E+01 0.00000E+00
 -1      1658 1.47402E+02 4.12000E+01 0.00000E+00
 -1      1659 1.48788E+02 4.60315E+01 0.00000E+00
 -1      1660 1.48788E+02 4.45565E+01 0.00000E+00
 -1      1661 1.47489E+02 4.38190E+01 0.00000E+00
 -1      1662 1.47663E+02 4.61070E+01 0.00000E+00
 -1      1663 1.08288E+02 3.19764E+01 0.00000E+00
 -1      1664 1.08372E+02 3.27385E+01 0.00000E+00
 -1      1665 1.07856E+02 3.03969E+01 0.00000E+00
 -1      1666 1.08096E+02 3.11047E+01 0.00000E+00
 -1      1667 1.07071E+02 2.89851E+01 0.00000E+00
 -1      1668 1.07452E+02 2.96213E+01 0.00000E+00
 -1      1669 1.06072E+02 2.77764E+01 0.00000E+00
 -1      1670 1.06561E+02 2.83027E+01 0.00000E+00
 -1      1671 1.04781E+02 2.67664E+01 0.00000E+00
 -1      1672 1.05413E+02 2.72078E+01 0.00000E+00
 -1      1673 1.03284E+02 2.60462E+01 0.00000E+00
 -1      1674 1.03993E+02 2.63367E+01 0.00000E+00
 -1      1675 1.01638E+02 2.56267E+01 0.00000E+00
 -1      1676 1.02418E+02 2.57574E+01 0.00000E+00
 -1      1677 9.99871E+01 2.56558E+01 0.00000E+00
 -1      1678 1.00735E+02 2.56154E+01 0.00000E+00
 -1      1679 9.82719E+01 2.58671E+01 0.00000E+00
 -1      1680 9.90471E+01 2.56471E+01 0.00000E+00
 -1      1681 9.67517E+01 2.66724E+01 0.00000E+00
 -1      1682 9.74263E+01 2.63019E+01 0.00000E+00
 -1      1683 9.55383E+01 2.77083E+01 0.00000E+00
 -1      1684 9.60789E+01 2.72391E+01 0.00000E+00
 -1      1685 9.45040E+01 2.89337E+01 0.00000E+00
 -1      1686 9.49556E+01 2.83350E+01 0.00000E+00
 -1      1687 9.37413E+01 3.03650E+01 0.00000E+00
 -1      1688 9.40548E+01 2.96846E+01 0.00000E+00
 -1      1689 9.32580E+01 3.19354E+01 0.00000E+00
 -1      1690 9.34207E+01 3.11919E+01 0.00000E+00
 -1      1691 9.32047E+01 3.35750E+01 0.00000E+00
 -1      1692 9.32039E+01 3.28226E+01 0.00000E+00
 -1      1693 9.33689E+01 3.54226E+01 0.00000E+00
 -1      1694 9.31622E+01 3.45616E+01 0.00000E+00
 -1      1695 9.41930E+01 3.71008E+01 0.00000E+00
 -1      1696 9.38065E+01 3.63617E+01 0.00000E+00
 -1      1697 9.52216E+01 3.83530E+01 0.00000E+00
 -1      1698 9.47639E+01 3.78125E+01 0.00000E+00
 -1      1699 9.64202E+01 3.93933E+01 0.00000E+00
 -1      1700 9.58342E+01 3.89379E+01 0.00000E+00
 -1      1701 9.78532E+01 4.02250E+01 0.00000E+00
 -1      1702 9.71557E+01 3.98934E+01 0.00000E+00
 -1      1703 9.94026E+01 4.06434E+01 0.00000E+00
 -1      1704 9.86958E+01 4.04783E+01 0.00000E+00
 -1      1705 1.01057E+02 4.07995E+01 0.00000E+00
 -1      1706 1.00276E+02 4.07889E+01 0.00000E+00
 -1      1707 1.02650E+02 4.05304E+01 0.00000E+00
 -1      1708 1.01936E+02 4.06772E+01 0.00000E+00
 -1      1709 1.04161E+02 4.00597E+01 0.00000E+00
 -1      1710 1.03495E+02 4.03503E+01 0.00000E+00
 -1      1711 1.05450E+02 3.91500E+01 0.00000E+00
 -1      1712 1.04864E+02 3.95673E+01 0.00000E+00
 -1      1713 1.06590E+02 3.80400E+01 0.00000E+00
 -1      1714 1.06089E+02 3.85851E+01 0.00000E+00
 -1      1715 1.07499E+02 3.66656E+01 0.00000E+00
 -1      1716 1.07112E+02 3.73300E+01 0.00000E+00
 -1      1717 1.08130E+02 3.51539E+01 0.00000E+00
 -1      1718 1.07901E+02 3.58685E+01 0.00000E+00
 -1      1719 1.08337E+02 3.36039E+01 0.00000E+00
 -1      1720 1.08266E+02 3.43081E+01 0.00000E+00
 -1      1721 1.07271E+02 2.83094E+01 0.00000E+00
 -1      1722 1.08939E+02 3.31519E+01 0.00000E+00
 -1      1723 1.48437E+02 2.56875E+00 0.00000E+00
 -1      1724 1.47138E+02 3.30625E+00 0.00000E+00
 -1      1725 1.08782E+02 3.14147E+01 0.00000E+00
 -1      1726 1.08186E+02 2.97674E+01 0.00000E+00
 -1      1727 1.06102E+02 2.70585E+01 0.00000E+00
 -1      1728 1.04656E+02 2.60602E+01 0.00000E+00
 -1      1729 1.03002E+02 2.53417E+01 0.00000E+00
 -1      1730 1.01232E+02 2.50416E+01 0.00000E+00
 -1      1731 9.93882E+01 2.50215E+01 0.00000E+00
 -1      1732 9.76025E+01 2.54476E+01 0.00000E+00
 -1      1733 9.60841E+01 2.64491E+01 0.00000E+00
 -1      1734 9.48286E+01 2.76425E+01 0.00000E+00
 -1      1735 9.37966E+01 2.90202E+01 0.00000E+00
 -1      1736 9.30269E+01 3.05981E+01 0.00000E+00
 -1      1737 9.26522E+01 3.23122E+01 0.00000E+00
 -1      1738 9.25556E+01 3.41861E+01 0.00000E+00
 -1      1739 9.29508E+01 3.61119E+01 0.00000E+00
 -1      1740 9.39593E+01 3.77628E+01 0.00000E+00
 -1      1741 9.51427E+01 3.90594E+01 0.00000E+00
 -1      1742 9.64907E+01 4.01444E+01 0.00000E+00
 -1      1743 9.80688E+01 4.08979E+01 0.00000E+00
 -1      1744 9.97844E+01 4.12967E+01 0.00000E+00
 -1      1745 1.01536E+02 4.13199E+01 0.00000E+00
 -1      1746 1.03259E+02 4.10175E+01 0.00000E+00
 -1      1747 1.04806E+02 4.03451E+01 0.00000E+00
 -1      1748 1.06147E+02 3.92878E+01 0.00000E+00
 -1      1749 1.07308E+02 3.80129E+01 0.00000E+00
 -1      1750 1.08231E+02 3.65059E+01 0.00000E+00
 -1      1751 1.08768E+02 3.48631E+01 0.00000E+00
 -1      1752 2.87400E+00 4.77875E+01 0.00000E+00
 -1      1753 3.89700E+00 4.04125E+01 0.00000E+00
 -1      1754 3.89700E+00 4.18875E+01 0.00000E+00
 -1      1755 3.89700E+00 4.33625E+01 0.00000E+00
 -1      1756 3.89700E+00 4.48375E+01 0.00000E+00
 -1      1757 5.19600E+00 4.26250E+01 0.00000E+00
 -1      1758 3.89700E+00 3.45500E+01 0.00000E+00
 -1      1759 3.89700E+00 3.60000E+01 0.00000E+00
 -1      1760 3.89700E+00 3.16000E+01 0.00000E+00
 -1      1761 3.89700E+00 3.30750E+01 0.00000E+00
 -1      1762 5.19600E+00 3.38000E+01 0.00000E+00
 -1      1763 3.89700E+00 2.86500E+01 0.00000E+00
 -1      1764 3.89700E+00 3.01250E+01 0.00000E+00
 -1      1765 5.19600E+00 3.08500E+01 0.00000E+00
 -1      1766 3.89700E+00 2.57000E+01 0.00000E+00
 -1      1767 3.89700E+00 2.71750E+01 0.00000E+00
 -1      1768 5.19600E+00 2.79000E+01 0.00000E+00
 -1      1769 3.89700E+00 2.27500E+01 0.00000E+00
 -1      1770 3.89700E+00 2.42250E+01 0.00000E+00
 -1      1771 5.19600E+00 2.49500E+01 0.00000E+00
 -1      1772 3.89700E+00 1.98000E+01 0.00000E+00
 -1      1773 3.89700E+00 2.12750E+01 0.00000E+00
 -1      1774 5.19600E+00 2.20000E+01 0.00000E+00
 -1      1775 3.89700E+00 1.69000E+01 0.00000E+00
 -1      1776 3.89700E+00 1.83500E+01 0.00000E+00
 -1      1777 5.19600E+00 1.90750E+01 0.00000E+00
 -1      1778 3.89700E+00 1.39500E+01 0.00000E+00
 -1      1779 3.89700E+00 1.54250E+01 0.00000E+00
 -1      1780 5.19600E+00 1.61500E+01 0.00000E+00
 -1      1781 3.89700E+00 1.10000E+01 0.00000E+00
 -1      1782 3.89700E+00 1.24750E+01 0.00000E+00
 -1      1783 5.19600E+00 1.32000E+01 0.00000E+00
 -1      1784 3.89700E+00 8.05000E+00 0.00000E+00
 -1      1785 3.89700E+00 9.52500E+00 0.00000E+00
 -1      1786 5.19600E+00 1.02500E+01 0.00000E+00
 -1      1787 3.89700E+00 5.10000E+00 0.00000E+00
 -1      1788 3.89700E+00 6.57500E+00 0.00000E+00
 -1      1789 5.19600E+00 7.30000E+00 0.00000E+00
 -1      1790 4.20450E+00 3.09687E+00 0.00000E+00
 -1      1791 4.06650E+00 4.19063E+00 0.00000E+00
 -1      1792 5.36550E+00 4.91563E+00 0.00000E+00
 -1      1793 5.70450E+00 3.09687E+00 0.00000E+00
 -1      1794 3.62400E+00 4.64885E+01 0.00000E+00
 -1      1795 8.70450E+00 3.09687E+00 0.00000E+00
 -1      1796 7.20450E+00 3.09687E+00 0.00000E+00
 -1      1797 7.03500E+00 4.00625E+00 0.00000E+00
 -1      1798 4.92300E+00 4.57510E+01 0.00000E+00
 -1      1799 8.40000E+00 4.61030E+01 0.00000E+00
 -1      1800 9.90000E+00 4.61030E+01 0.00000E+00
 -1      1801 1.14000E+01 4.61030E+01 0.00000E+00
 -1      1802 1.29000E+01 4.61030E+01 0.00000E+00
 -1      1803 1.06500E+01 4.48040E+01 0.00000E+00
 -1      1804 1.44000E+01 4.61030E+01 0.00000E+00
 -1      1805 1.59000E+01 4.61030E+01 0.00000E+00
 -1      1806 1.36500E+01 4.48040E+01 0.00000E+00
 -1      1807 1.74000E+01 4.61030E+01 0.00000E+00
 -1      1808 1.89000E+01 4.61030E+01 0.00000E+00
 -1      1809 1.66500E+01 4.48040E+01 0.00000E+00
 -1      1810 2.04000E+01 4.61030E+01 0.00000E+00
 -1      1811 2.19000E+01 4.61030E+01 0.00000E+00
 -1      1812 1.96500E+01 4.48040E+01 0.00000E+00
 -1      1813 2.34000E+01 4.61030E+01 0.00000E+00
 -1      1814 2.49000E+01 4.61030E+01 0.00000E+00
 -1      1815 2.26500E+01 4.48040E+01 0.00000E+00
 -1      1816 2.64000E+01 4.61030E+01 0.00000E+00
 -1      1817 2.79000E+01 4.61030E+01 0.00000E+00
 -1      1818 2.56500E+01 4.48040E+01 0.00000E+00
 -1      1819 2.94000E+01 4.61030E+01 0.00000E+00
 -1      1820 3.09000E+01 4.61030E+01 0.00000E+00
 -1      1821 2.86500E+01 4.48040E+01 0.00000E+00
 -1      1822 3.24000E+01 4.61030E+01 0.00000E+00
 -1      1823 3.39000E+01 4.61030E+01 0.00000E+00
 -1      1824 3.16500E+01 4.48040E+01 0.00000E+00
 -1      1825 3.54000E+01 4.61030E+01 0.00000E+00
 -1      1826 3.69000E+01 4.61030E+01 0.00000E+00
 -1      1827 3.46500E+01 4.48040E+01 0.00000E+00
 -1      1828 3.84000E+01 4.61030E+01 0.00000E+00
 -1      1829 3.99000E+01 4.61030E+01 0.00000E+00
 -1      1830 3.76500E+01 4.48040E+01 0.00000E+00
 -1      1831 4.14000E+01 4.61030E+01 0.00000E+00
 -1      1832 4.29000E+01 4.61030E+01 0.00000E+00
 -1      1833 4.06500E+01 4.48040E+01 0.00000E+00
 -1      1834 4.44000E+01 4.61030E+01 0.00000E+00
 -1      1835 4.59000E+01 4.61030E+01 0.00000E+00
 -1      1836 4.36500E+01 4.48040E+01 0.00000E+00
 -1      1837 4.74000E+01 4.61030E+01 0.00000E+00
 -1      1838 4.89000E+01 4.61030E+01 0.00000E+00
 -1      1839 4.66500E+01 4.48040E+01 0.00000E+00
 -1      1840 5.04000E+01 4.61030E+01 0.00000E+00
 -1      1841 5.19000E+01 4.61030E+01 0.00000E+00
 -1      1842 4.96500E+01 4.48040E+01 0.00000E+00
 -1      1843 5.34750E+01 4.61030E+01 0.00000E+00
 -1      1844 5.50500E+01 4.61030E+01 0.00000E+00
 -1      1845 5.27250E+01 4.48040E+01 0.00000E+00
 -1      1846 5.65500E+01 4.61030E+01 0.00000E+00
 -1      1847 5.80500E+01 4.61030E+01 0.00000E+00
 -1      1848 5.58000E+01 4.48040E+01 0.00000E+00
 -1      1849 5.95500E+01 4.61030E+01 0.00000E+00
 -1      1850 6.10500E+01 4.61030E+01 0.00000E+00
 -1      1851 5.88000E+01 4.48040E+01 0.00000E+00
 -1      1852 6.25500E+01 4.61030E+01 0.00000E+00
 -1      1853 6.40500E+01 4.61030E+01 0.00000E+00
 -1      1854 6.18000E+01 4.48040E+01 0.00000E+00
 -1      1855 6.55500E+01 4.61030E+01 0.00000E+00
 -1      1856 6.70500E+01 4.61030E+01 0.00000E+00
 -1      1857 6.48000E+01 4.48040E+01 0.00000E+00
 -1      1858 6.85500E+01 4.61030E+01 0.00000E+00
 -1      1859 7.00500E+01 4.61030E+01 0.00000E+00
 -1      1860 6.78000E+01 4.48040E+01 0.00000E+00
 -1      1861 7.15500E+01 4.61030E+01 0.00000E+00
 -1      1862 7.30500E+01 4.61030E+01 0.00000E+00
 -1      1863 7.08000E+01 4.48040E+01 0.00000E+00
 -1      1864 7.45500E+01 4.61030E+01 0.00000E+00
 -1      1865 7.60500E+01 4.61030E+01 0.00000E+00
 -1      1866 7.38000E+01 4.48040E+01 0.00000E+00
 -1      1867 7.75500E+01 4.61030E+01 0.00000E+00
 -1      1868 7.90500E+01 4.61030E+01 0.00000E+00
 -1      1869 7.68000E+01 4.48040E+01 0.00000E+00
 -1      1870 8.05500E+01 4.61030E+01 0.00000E+00
 -1      1871 8.20500E+01 4.61030E+01 0.00000E+00
 -1      1872 7.98000E+01 4.48040E+01 0.00000E+00
 -1      1873 8.35500E+01 4.61030E+01 0.00000E+00
 -1      1874 8.50500E+01 4.61030E+01 0.00000E+00
 -1      1875 8.28000E+01 4.48040E+01 0.00000E+00
 -1      1876 8.65500E+01 4.61030E+01 0.00000E+00
 -1      1877 8.80500E+01 4.61030E+01 0.00000E+00
 -1      1878 8.58000E+01 4.48040E+01 0.00000E+00
 -1      1879 8.95500E+01 4.61030E+01 0.00000E+00
 -1      1880 9.10500E+01 4.61030E+01 0.00000E+00
 -1      1881 8.88000E+01 4.48040E+01 0.00000E+00
 -1      1882 9.24750E+01 4.61030E+01 0.00000E+00
 -1      1883 9.39000E+01 4.61030E+01 0.00000E+00
 -1      1884 9.17250E+01 4.48040E+01 0.00000E+00
 -1      1885 9.54000E+01 4.61030E+01 0.00000E+00
 -1      1886 9.69000E+01 4.61030E+01 0.00000E+00
 -1      1887 9.46500E+01 4.48040E+01 0.00000E+00
 -1      1888 9.83250E+01 4.61030E+01 0.00000E+00
 -1      1889 9.97500E+01 4.61030E+01 0.00000E+00
 -1      1890 9.75750E+01 4.48040E+01 0.00000E+00
 -1      1891 1.01250E+02 4.61030E+01 0.00000E+00
 -1      1892 1.02750E+02 4.61030E+01 0.00000E+00
 -1      1893 1.00500E+02 4.48040E+01 0.00000E+00
 -1      1894 1.04250E+02 4.61030E+01 0.00000E+00
 -1      1895 1.05750E+02 4.61030E+01 0.00000E+00
 -1      1896 1.03500E+02 4.48040E+01 0.00000E+00
 -1      1897 1.07250E+02 4.61030E+01 0.00000E+00
 -1      1898 1.08750E+02 4.61030E+01 0.00000E+00
 -1      1899 1.06500E+02 4.48040E+01 0.00000E+00
 -1      1900 1.10250E+02 4.61030E+01 0.00000E+00
 -1      1901 1.11750E+02 4.61030E+01 0.00000E+00
 -1      1902 1.09500E+02 4.48040E+01 0.00000E+00
 -1      1903 1.13250E+02 4.61030E+01 0.00000E+00
 -1      1904 1.14750E+02 4.61030E+01 0.00000E+00
 -1      1905 1.12500E+02 4.48040E+01 0.00000E+00
 -1      1906 1.16250E+02 4.61030E+01 0.00000E+00
 -1      1907 1.17750E+02 4.61030E+01 0.00000E+00
 -1      1908 1.15500E+02 4.48040E+01 0.00000E+00
 -1      1909 1.19250E+02 4.61030E+01 0.00000E+00
 -1      1910 1.20750E+02 4.61030E+01 0.00000E+00
 -1      1911 1.18500E+02 4.48040E+01 0.00000E+00
 -1      1912 1.22250E+02 4.61030E+01 0.00000E+00
 -1      1913 1.23750E+02 4.61030E+01 0.00000E+00
 -1      1914 1.21500E+02 4.48040E+01 0.00000E+00
 -1      1915 1.25250E+02 4.61030E+01 0.00000E+00
 -1      1916 1.26750E+02 4.61030E+01 0.00000E+00
 -1      1917 1.24500E+02 4.48040E+01 0.00000E+00
 -1      1918 1.28250E+02 4.61030E+01 0.00000E+00
 -1      1919 1.29750E+02 4.61030E+01 0.00000E+00
 -1      1920 1.27500E+02 4.48040E+01 0.00000E+00
 -1      1921 1.31250E+02 4.61030E+01 0.00000E+00
 -1      1922 1.32750E+02 4.61030E+01 0.00000E+00
 -1      1923 1.30500E+02 4.48040E+01 0.00000E+00
 -1      1924 1.34250E+02 4.61030E+01 0.00000E+00
 -1      1925 1.35750E+02 4.61030E+01 0.00000E+00
 -1      1926 1.33500E+02 4.48040E+01 0.00000E+00
 -1      1927 1.37250E+02 4.61030E+01 0.00000E+00
 -1      1928 1.38750E+02 4.61030E+01 0.00000E+00
 -1      1929 1.36500E+02 4.48040E+01 0.00000E+00
 -1      1930 1.40250E+02 4.61030E+01 0.00000E+00
 -1      1931 1.41750E+02 4.61030E+01 0.00000E+00
 -1      1932 1.39500E+02 4.48040E+01 0.00000E+00
 -1      1933 1.43250E+02 4.61030E+01 0.00000E+00
 -1      1934 1.44750E+02 4.61030E+01 0.00000E+00
 -1      1935 1.42500E+02 4.48040E+01 0.00000E+00
 -1      1936 1.46538E+02 4.61825E+01 0.00000E+00
 -1      1937 1.41240E+01 3.48650E+00 0.00000E+00
 -1      1938 1.26240E+01 3.48650E+00 0.00000E+00
 -1      1939 1.71240E+01 3.48650E+00 0.00000E+00
 -1      1940 1.56240E+01 3.48650E+00 0.00000E+00
 -1      1941 1.48740E+01 4.78550E+00 0.00000E+00
 -1      1942 2.01240E+01 3.48650E+00 0.00000E+00
 -1      1943 1.86240E+01 3.48650E+00 0.00000E+00
 -1      1944 1.78740E+01 4.78550E+00 0.00000E+00
 -1      1945 2.31240E+01 3.48650E+00 0.00000E+00
 -1      1946 2.16240E+01 3.48650E+00 0.00000E+00
 -1      1947 2.08740E+01 4.78550E+00 0.00000E+00
 -1      1948 2.61240E+01 3.48650E+00 0.00000E+00
 -1      1949 2.46240E+01 3.48650E+00 0.00000E+00
 -1      1950 2.38740E+01 4.78550E+00 0.00000E+00
 -1      1951 2.91240E+01 3.48650E+00 0.00000E+00
 -1      1952 2.76240E+01 3.48650E+00 0.00000E+00
 -1      1953 2.68740E+01 4.78550E+00 0.00000E+00
 -1      1954 3.21240E+01 3.48650E+00 0.00000E+00
 -1      1955 3.06240E+01 3.48650E+00 0.00000E+00
 -1      1956 2.98740E+01 4.78550E+00 0.00000E+00
 -1      1957 3.51240E+01 3.48650E+00 0.00000E+00
 -1      1958 3.36240E+01 3.48650E+00 0.00000E+00
 -1      1959 3.28740E+01 4.78550E+00 0.00000E+00
 -1      1960 3.81240E+01 3.48650E+00 0.00000E+00
 -1      1961 3.66240E+01 3.48650E+00 0.00000E+00
 -1      1962 3.58740E+01 4.78550E+00 0.00000E+00
 -1      1963 4.11240E+01 3.48650E+00 0.00000E+00
 -1      1964 3.96240E+01 3.48650E+00 0.00000E+00
 -1      1965 3.88740E+01 4.78550E+00 0.00000E+00
 -1      1966 4.41240E+01 3.48650E+00 0.00000E+00
 -1      1967 4.26240E+01 3.48650E+00 0.00000E+00
 -1      1968 4.18740E+01 4.78550E+00 0.00000E+00
 -1      1969 4.71240E+01 3.48650E+00 0.00000E+00
 -1      1970 4.56240E+01 3.48650E+00 0.00000E+00
 -1      1971 4.48740E+01 4.78550E+00 0.00000E+00
 -1      1972 5.01240E+01 3.48650E+00 0.00000E+00
 -1      1973 4.86240E+01 3.48650E+00 0.00000E+00
 -1      1974 4.78740E+01 4.78550E+00 0.00000E+00
 -1      1975 5.31240E+01 3.48650E+00 0.00000E+00
 -1      1976 5.16240E+01 3.48650E+00 0.00000E+00
 -1      1977 5.08740E+01 4.78550E+00 0.00000E+00
 -1      1978 5.61240E+01 3.48650E+00 0.00000E+00
 -1      1979 5.46240E+01 3.48650E+00 0.00000E+00
 -1      1980 5.38740E+01 4.78550E+00 0.00000E+00
 -1      1981 5.91240E+01 3.48650E+00 0.00000E+00
 -1      1982 5.76240E+01 3.48650E+00 0.00000E+00
 -1      1983 5.68740E+01 4.78550E+00 0.00000E+00
 -1      1984 6.21240E+01 3.48650E+00 0.00000E+00
 -1      1985 6.06240E+01 3.48650E+00 0.00000E+00
 -1      1986 5.98740E+01 4.78550E+00 0.00000E+00
 -1      1987 6.51240E+01 3.48650E+00 0.00000E+00
 -1      1988 6.36240E+01 3.48650E+00 0.00000E+00
 -1      1989 6.28740E+01 4.78550E+00 0.00000E+00
 -1      1990 6.81240E+01 3.48650E+00 0.00000E+00
 -1      1991 6.66240E+01 3.48650E+00 0.00000E+00
 -1      1992 6.58740E+01 4.78550E+00 0.00000E+00
 -1      1993 7.11240E+01 3.48650E+00 0.00000E+00
 -1      1994 6.96240E+01 3.48650E+00 0.00000E+00
 -1      1995 6.88740E+01 4.78550E+00 0.00000E+00
 -1      1996 7.41240E+01 3.48650E+00 0.00000E+00
 -1      1997 7.26240E+01 3.48650E+00 0.00000E+00
 -1      1998 7.18740E+01 4.78550E+00 0.00000E+00
 -1      1999 7.71240E+01 3.48650E+00 0.00000E+00
 -1      2000 7.56240E+01 3.48650E+00 0.00000E+00
 -1      2001 7.48740E+01 4.78550E+00 0.00000E+00
 -1      2002 8.01240E+01 3.48650E+00 0.00000E+00
 -1      2003 7.86240E+01 3.48650E+00 0.00000E+00
 -1      2004 7.78740E+01 4.78550E+00 0.00000E+00
 -1      2005 8.31240E+01 3.48650E+00 0.00000E+00
 -1      2006 8.16240E+01 3.48650E+00 0.00000E+00
 -1      2007 8.08740E+01 4.78550E+00 0.00000E+00
 -1      2008 8.61240E+01 3.48650E+00 0.00000E+00
 -1      2009 8.46240E+01 3.48650E+00 0.00000E+00
 -1      2010 8.38740E+01 4.78550E+00 0.00000E+00
 -1      2011 8.91240E+01 3.48650E+00 0.00000E+00
 -1      2012 8.76240E+01 3.48650E+00 0.00000E+00
 -1      2013 8.68740E+01 4.78550E+00 0.00000E+00
 -1      2014 9.21240E+01 3.48650E+00 0.00000E+00
 -1      2015 9.06240E+01 3.48650E+00 0.00000E+00
 -1      2016 8.98740E+01 4.78550E+00 0.00000E+00
 -1      2017 9.51240E+01 3.48650E+00 0.00000E+00
 -1      2018 9.36240E+01 3.48650E+00 0.00000E+00
 -1      2019 9.28740E+01 4.78550E+00 0.00000E+00
 -1      2020 9.81240E+01 3.48650E+00 0.00000E+00
 -1      2021 9.66240E+01 3.48650E+00 0.00000E+00
 -1      2022 9.58740E+01 4.78550E+00 0.00000E+00
 -1      2023 1.01124E+02 3.48650E+00 0.00000E+00
 -1      2024 9.96240E+01 3.48650E+00 0.00000E+00
 -1      2025 9.88740E+01 4.78550E+00 0.00000E+00
 -1      2026 1.04124E+02 3.48650E+00 0.00000E+00
 -1      2027 1.02624E+02 3.48650E+00 0.00000E+00
 -1      2028 1.01874E+02 4.78550E+00 0.00000E+00
 -1      2029 1.07124E+02 3.48650E+00 0.00000E+00
 -1      2030 1.05624E+02 3.48650E+00 0.00000E+00
 -1      2031 1.04874E+02 4.78550E+00 0.00000E+00
 -1      2032 1.10124E+02 3.48650E+00 0.00000E+00
 -1      2033 1.08624E+02 3.48650E+00 0.00000E+00
 -1      2034 1.07874E+02 4.78550E+00 0.00000E+00
 -1      2035 1.13124E+02 3.48650E+00 0.00000E+00
 -1      2036 1.11624E+02 3.48650E+00 0.00000E+00
 -1      2037 1.10874E+02 4.78550E+00 0.00000E+00
 -1      2038 1.16124E+02 3.48650E+00 0.00000E+00
 -1      2039 1.14624E+02 3.48650E+00 0.00000E+00
 -1      2040 1.13874E+02 4.78550E+00 0.00000E+00
 -1      2041 1.19124E+02 3.48650E+00 0.00000E+00
 -1      2042 1.17624E+02 3.48650E+00 0.00000E+00
 -1      2043 1.16874E+02 4.78550E+00 0.00000E+00
 -1      2044 1.22124E+02 3.48650E+00 0.00000E+00
 -1      2045 1.20624E+02 3.48650E+00 0.00000E+00
 -1      2046 1.19874E+02 4.78550E+00 0.00000E+00
 -1      2047 1.25124E+02 3.48650E+00 0.00000E+00
 -1      2048 1.23624E+02 3.48650E+00 0.00000E+00
 -1      2049 1.22874E+02 4.78550E+00 0.00000E+00
 -1      2050 1.28124E+02 3.48650E+00 0.00000E+00
 -1      2051 1.26624E+02 3.48650E+00 0.00000E+00
 -1      2052 1.25874E+02 4.78550E+00 0.00000E+00
 -1      2053 1.31124E+02 3.48650E+00 0.00000E+00
 -1      2054 1.29624E+02 3.48650E+00 0.00000E+00
 -1      2055 1.28874E+02 4.78550E+00 0.00000E+00
 -1      2056 1.34124E+02 3.48650E+00 0.00000E+00
 -1      2057 1.32624E+02 3.48650E+00 0.00000E+00
 -1      2058 1.31874E+02 4.78550E+00 0.00000E+00
 -1      2059 1.37124E+02 3.48650E+00 0.00000E+00
 -1      2060 1.35624E+02 3.48650E+00 0.00000E+00
 -1      2061 1.34874E+02 4.78550E+00 0.00000E+00
 -1      2062 1.40124E+02 3.48650E+00 0.00000E+00
 -1      2063 1.38624E+02 3.48650E+00 0.00000E+00
 -1      2064 1.37874E+02 4.78550E+00 0.00000E+00
 -1      2065 1.43124E+02 3.48650E+00 0.00000E+00
 -1      2066 1.41624E+02 3.48650E+00 0.00000E+00
 -1      2067 1.40874E+02 4.78550E+00 0.00000E+00
 -1      2068 1.45881E+02 3.39637E+00 0.00000E+00
 -1      2069 1.44381E+02 3.39637E+00 0.00000E+00
 -1      2070 1.43631E+02 4.69537E+00 0.00000E+00
 -1      2071 1.46145E+02 4.51512E+00 0.00000E+00
 -1      2072 1.46103E+02 1.25375E+01 0.00000E+00
 -1      2073 1.46103E+02 1.10625E+01 0.00000E+00
 -1      2074 1.46103E+02 9.58750E+00 0.00000E+00
 -1      2075 1.46103E+02 8.11250E+00 0.00000E+00
 -1      2076 1.44804E+02 1.03250E+01 0.00000E+00
 -1      2077 1.46145E+02 5.99013E+00 0.00000E+00
 -1      2078 1.46103E+02 1.54375E+01 0.00000E+00
 -1      2079 1.46103E+02 1.39875E+01 0.00000E+00
 -1      2080 1.44804E+02 1.32500E+01 0.00000E+00
 -1      2081 1.46103E+02 1.83875E+01 0.00000E+00
 -1      2082 1.46103E+02 1.69125E+01 0.00000E+00
 -1      2083 1.44804E+02 1.61750E+01 0.00000E+00
 -1      2084 1.46103E+02 2.13375E+01 0.00000E+00
 -1      2085 1.46103E+02 1.98625E+01 0.00000E+00
 -1      2086 1.44804E+02 1.91250E+01 0.00000E+00
 -1      2087 1.46103E+02 2.42875E+01 0.00000E+00
 -1      2088 1.46103E+02 2.28125E+01 0.00000E+00
 -1      2089 1.44804E+02 2.20750E+01 0.00000E+00
 -1      2090 1.46103E+02 2.72375E+01 0.00000E+00
 -1      2091 1.46103E+02 2.57625E+01 0.00000E+00
 -1      2092 1.44804E+02 2.50250E+01 0.00000E+00
 -1      2093 1.46103E+02 3.01875E+01 0.00000E+00
 -1      2094 1.46103E+02 2.87125E+01 0.00000E+00
 -1      2095 1.44804E+02 2.79750E+01 0.00000E+00
 -1      2096 1.46103E+02 3.30875E+01 0.00000E+00
 -1      2097 1.46103E+02 3.16375E+01 0.00000E+00
 -1      2098 1.44804E+02 3.09000E+01 0.00000E+00
 -1      2099 1.46103E+02 3.60375E+01 0.00000E+00
 -1      2100 1.46103E+02 3.45625E+01 0.00000E+00
 -1      2101 1.44804E+02 3.38250E+01 0.00000E+00
 -1      2102 1.46103E+02 3.89875E+01 0.00000E+00
 -1      2103 1.46103E+02 3.75125E+01 0.00000E+00
 -1      2104 1.44804E+02 3.67750E+01 0.00000E+00
 -1      2105 1.46103E+02 4.19375E+01 0.00000E+00
 -1      2106 1.46103E+02 4.04625E+01 0.00000E+00
 -1      2107 1.44804E+02 3.97250E+01 0.00000E+00
 -1      2108 1.14143E+01 3.29169E+00 0.00000E+00
 -1      2109 9.91425E+00 3.29169E+00 0.00000E+00
 -1      2110 9.74475E+00 4.20106E+00 0.00000E+00
 -1      2111 1.21643E+01 4.59069E+00 0.00000E+00
 -1      2112 1.08596E+02 2.90608E+01 0.00000E+00
 -1      2113 1.09000E+02 2.98363E+01 0.00000E+00
 -1      2114 1.06224E+02 2.62520E+01 0.00000E+00
 -1      2115 1.06882E+02 2.68206E+01 0.00000E+00
 -1      2116 1.09604E+02 3.27453E+01 0.00000E+00
 -1      2117 1.09570E+02 3.36107E+01 0.00000E+00
 -1      2118 1.07635E+02 2.75045E+01 0.00000E+00
 -1      2119 1.08146E+02 2.81869E+01 0.00000E+00
 -1      2120 3.89700E+00 3.74688E+01 0.00000E+00
 -1      2121 3.89700E+00 3.89437E+01 0.00000E+00
 -1      2122 5.19600E+00 3.96813E+01 0.00000E+00
 -1      2123 5.19600E+00 3.67438E+01 0.00000E+00
 -1      2124 1.04633E+02 2.51661E+01 0.00000E+00
 -1      2125 1.05421E+02 2.55958E+01 0.00000E+00
 -1      2126 1.02773E+02 2.45824E+01 0.00000E+00
 -1      2127 1.03640E+02 2.48713E+01 0.00000E+00
 -1      2128 1.00790E+02 2.42622E+01 0.00000E+00
 -1      2129 1.01693E+02 2.42735E+01 0.00000E+00
 -1      2130 9.89096E+01 2.42447E+01 0.00000E+00
 -1      2131 9.98496E+01 2.42535E+01 0.00000E+00
 -1      2132 1.00311E+02 2.34854E+01 0.00000E+00
 -1      2133 9.68642E+01 2.50513E+01 0.00000E+00
 -1      2134 9.77099E+01 2.46165E+01 0.00000E+00
 -1      2135 9.53032E+01 2.62048E+01 0.00000E+00
 -1      2136 9.59760E+01 2.56380E+01 0.00000E+00
 -1      2137 9.39705E+01 2.74290E+01 0.00000E+00
 -1      2138 9.45533E+01 2.68023E+01 0.00000E+00
 -1      2139 9.28361E+01 2.89555E+01 0.00000E+00
 -1      2140 9.32853E+01 2.82045E+01 0.00000E+00
 -1      2141 9.21949E+01 3.06094E+01 0.00000E+00
 -1      2142 9.25155E+01 2.97824E+01 0.00000E+00
 -1      2143 9.20041E+01 2.89668E+01 0.00000E+00
 -1      2144 9.19364E+01 3.27139E+01 0.00000E+00
 -1      2145 9.19905E+01 3.18267E+01 0.00000E+00
 -1      2146 9.18515E+01 3.46872E+01 0.00000E+00
 -1      2147 9.18940E+01 3.37005E+01 0.00000E+00
 -1      2148 9.12323E+01 3.32149E+01 0.00000E+00
 -1      2149 9.24682E+01 3.69082E+01 0.00000E+00
 -1      2150 9.20306E+01 3.59691E+01 0.00000E+00
 -1      2151 9.35758E+01 3.86552E+01 0.00000E+00
 -1      2152 9.30048E+01 3.79435E+01 0.00000E+00
 -1      2153 9.50014E+01 3.98206E+01 0.00000E+00
 -1      2154 9.43889E+01 3.92357E+01 0.00000E+00
 -1      2155 9.64940E+01 4.09304E+01 0.00000E+00
 -1      2156 9.57585E+01 4.04303E+01 0.00000E+00
 -1      2157 9.82914E+01 4.16853E+01 0.00000E+00
 -1      2158 9.74488E+01 4.14320E+01 0.00000E+00
 -1      2159 1.00114E+02 4.20088E+01 0.00000E+00
 -1      2160 9.92413E+01 4.18632E+01 0.00000E+00
 -1      2161 1.02088E+02 4.20666E+01 0.00000E+00
 -1      2162 1.01209E+02 4.21890E+01 0.00000E+00
 -1      2163 1.03777E+02 4.17066E+01 0.00000E+00
 -1      2164 1.02933E+02 4.18866E+01 0.00000E+00
 -1      2165 1.02606E+02 4.27556E+01 0.00000E+00
 -1      2166 1.05553E+02 4.06638E+01 0.00000E+00
 -1      2167 1.04851E+02 4.11562E+01 0.00000E+00
 -1      2168 1.06896E+02 3.94908E+01 0.00000E+00
 -1      2169 1.06257E+02 4.00557E+01 0.00000E+00
 -1      2170 1.08158E+02 3.80913E+01 0.00000E+00
 -1      2171 1.07637E+02 3.88013E+01 0.00000E+00
 -1      2172 1.09010E+02 3.63989E+01 0.00000E+00
 -1      2173 1.08609E+02 3.71959E+01 0.00000E+00
 -1      2174 1.09642E+02 3.45698E+01 0.00000E+00
 -1      2175 1.09506E+02 3.54156E+01 0.00000E+00
 -1      2176 1.09524E+02 3.07943E+01 0.00000E+00
 -1      2177 1.09716E+02 3.16661E+01 0.00000E+00
 -1      2178 1.45788E+02 4.48835E+01 0.00000E+00
 -1      2179 1.07757E+02 2.66981E+01 0.00000E+00
 -1      2180 6.42300E+00 4.57510E+01 0.00000E+00
 -1      2181 1.08960E+02 2.82559E+01 0.00000E+00
 -1      2182 1.06201E+02 2.53579E+01 0.00000E+00
 -1      2183 7.17300E+00 4.44520E+01 0.00000E+00
 -1      2184 1.44846E+02 6.72762E+00 0.00000E+00
 -1      2185 1.10346E+02 3.21249E+01 0.00000E+00
 -1      2186 1.45701E+02 4.37395E+01 0.00000E+00
 -1      2187 1.09933E+02 3.00877E+01 0.00000E+00
 -1      2188 1.10307E+02 3.41632E+01 0.00000E+00
 -1      2189 1.09884E+02 3.61056E+01 0.00000E+00
 -1      2190 1.08938E+02 3.79843E+01 0.00000E+00
 -1      2191 1.07747E+02 3.95693E+01 0.00000E+00
 -1      2192 1.04524E+02 4.20253E+01 0.00000E+00
 -1      2193 1.00666E+02 4.27555E+01 0.00000E+00
 -1      2194 9.86214E+01 4.23973E+01 0.00000E+00
 -1      2195 9.67167E+01 4.17178E+01 0.00000E+00
 -1      2196 9.50047E+01 4.06066E+01 0.00000E+00
 -1      2197 9.34345E+01 3.94164E+01 0.00000E+00
 -1      2198 9.13689E+01 3.54835E+01 0.00000E+00
 -1      2199 9.07073E+01 3.49979E+01 0.00000E+00
 -1      2200 9.08863E+01 3.62799E+01 0.00000E+00
 -1      2201 9.14791E+01 3.10110E+01 0.00000E+00
 -1      2202 9.30100E+01 2.73643E+01 0.00000E+00
 -1      2203 9.44451E+01 2.59912E+01 0.00000E+00
 -1      2204 9.81713E+01 2.38485E+01 0.00000E+00
 -1      2205 9.86327E+01 2.30804E+01 0.00000E+00
 -1      2206 9.74330E+01 2.34522E+01 0.00000E+00
 -1      2207 1.04404E+02 2.44068E+01 0.00000E+00
 -1      2208 1.02331E+02 2.38031E+01 0.00000E+00
 -1      2209 9.60833E+01 2.48070E+01 0.00000E+00
 -1      2210 9.20847E+01 3.78007E+01 0.00000E+00
 -1      2211 1.06302E+02 4.08669E+01 0.00000E+00
 -1      2212 1.44402E+02 4.30020E+01 0.00000E+00
 -1      2213 6.49500E+00 3.01125E+01 0.00000E+00
 -1      2214 6.49500E+00 3.15875E+01 0.00000E+00
 -1      2215 6.49500E+00 3.30625E+01 0.00000E+00
 -1      2216 6.49500E+00 3.45375E+01 0.00000E+00
 -1      2217 7.79400E+00 3.23250E+01 0.00000E+00
 -1      2218 6.49500E+00 2.42125E+01 0.00000E+00
 -1      2219 6.49500E+00 2.56875E+01 0.00000E+00
 -1      2220 6.49500E+00 2.12625E+01 0.00000E+00
 -1      2221 6.49500E+00 2.27375E+01 0.00000E+00
 -1      2222 7.79400E+00 2.34750E+01 0.00000E+00
 -1      2223 6.49500E+00 1.83625E+01 0.00000E+00
 -1      2224 6.49500E+00 1.98125E+01 0.00000E+00
 -1      2225 7.79400E+00 2.05500E+01 0.00000E+00
 -1      2226 6.49500E+00 1.54125E+01 0.00000E+00
 -1      2227 6.49500E+00 1.68875E+01 0.00000E+00
 -1      2228 7.79400E+00 1.76250E+01 0.00000E+00
 -1      2229 6.49500E+00 1.24625E+01 0.00000E+00
 -1      2230 6.49500E+00 1.39375E+01 0.00000E+00
 -1      2231 7.79400E+00 1.46750E+01 0.00000E+00
 -1      2232 6.49500E+00 9.51250E+00 0.00000E+00
 -1      2233 6.49500E+00 1.09875E+01 0.00000E+00
 -1      2234 7.79400E+00 1.17250E+01 0.00000E+00
 -1      2235 6.49500E+00 6.56250E+00 0.00000E+00
 -1      2236 6.49500E+00 8.03750E+00 0.00000E+00
 -1      2237 7.79400E+00 8.77500E+00 0.00000E+00
 -1      2238 6.84975E+00 4.82969E+00 0.00000E+00
 -1      2239 6.68025E+00 5.73906E+00 0.00000E+00
 -1      2240 7.97925E+00 6.47656E+00 0.00000E+00
 -1      2241 8.34975E+00 4.82969E+00 0.00000E+00
 -1      2242 9.90000E+00 4.35050E+01 0.00000E+00
 -1      2243 1.14000E+01 4.35050E+01 0.00000E+00
 -1      2244 1.09497E+02 2.74264E+01 0.00000E+00
 -1      2245 1.09947E+02 2.83003E+01 0.00000E+00
 -1      2246 1.07901E+02 2.57833E+01 0.00000E+00
 -1      2247 1.08654E+02 2.64673E+01 0.00000E+00
 -1      2248 1.29000E+01 4.35050E+01 0.00000E+00
 -1      2249 1.44000E+01 4.35050E+01 0.00000E+00
 -1      2250 1.21500E+01 4.22060E+01 0.00000E+00
 -1      2251 1.59000E+01 4.35050E+01 0.00000E+00
 -1      2252 1.74000E+01 4.35050E+01 0.00000E+00
 -1      2253 1.51500E+01 4.22060E+01 0.00000E+00
 -1      2254 1.89000E+01 4.35050E+01 0.00000E+00
 -1      2255 2.04000E+01 4.35050E+01 0.00000E+00
 -1      2256 1.81500E+01 4.22060E+01 0.00000E+00
 -1      2257 2.19000E+01 4.35050E+01 0.00000E+00
 -1      2258 2.34000E+01 4.35050E+01 0.00000E+00
 -1      2259 2.11500E+01 4.22060E+01 0.00000E+00
 -1      2260 2.49000E+01 4.35050E+01 0.00000E+00
 -1      2261 2.64000E+01 4.35050E+01 0.00000E+00
 -1      2262 2.41500E+01 4.22060E+01 0.00000E+00
 -1      2263 2.79000E+01 4.35050E+01 0.00000E+00
 -1      2264 2.94000E+01 4.35050E+01 0.00000E+00
 -1      2265 2.71500E+01 4.22060E+01 0.00000E+00
 -1      2266 3.09000E+01 4.35050E+01 0.00000E+00
 -1      2267 3.24000E+01 4.35050E+01 0.00000E+00
 -1      2268 3.01500E+01 4.22060E+01 0.00000E+00
 -1      2269 3.39000E+01 4.35050E+01 0.00000E+00
 -1      2270 3.54000E+01 4.35050E+01 0.00000E+00
 -1      2271 3.31500E+01 4.22060E+01 0.00000E+00
 -1      2272 3.69000E+01 4.35050E+01 0.00000E+00
 -1      2273 3.84000E+01 4.35050E+01 0.00000E+00
 -1      2274 3.61500E+01 4.22060E+01 0.00000E+00
 -1      2275 3.99000E+01 4.35050E+01 0.00000E+00
 -1      2276 4.14000E+01 4.35050E+01 0.00000E+00
 -1      2277 3.91500E+01 4.22060E+01 0.00000E+00
 -1      2278 4.29000E+01 4.35050E+01 0.00000E+00
 -1      2279 4.44000E+01 4.35050E+01 0.00000E+00
 -1      2280 4.21500E+01 4.22060E+01 0.00000E+00
 -1      2281 4.59000E+01 4.35050E+01 0.00000E+00
 -1      2282 4.74000E+01 4.35050E+01 0.00000E+00
 -1      2283 4.51500E+01 4.22060E+01 0.00000E+00
 -1      2284 4.89000E+01 4.35050E+01 0.00000E+00
 -1      2285 5.04000E+01 4.35050E+01 0.00000E+00
 -1      2286 4.81500E+01 4.22060E+01 0.00000E+00
 -1      2287 5.19750E+01 4.35050E+01 0.00000E+00
 -1      2288 5.35500E+01 4.35050E+01 0.00000E+00
 -1      2289 5.12250E+01 4.22060E+01 0.00000E+00
 -1      2290 5.50500E+01 4.35050E+01 0.00000E+00
 -1      2291 5.65500E+01 4.35050E+01 0.00000E+00
 -1      2292 5.43000E+01 4.22060E+01 0.00000E+00
 -1      2293 5.80500E+01 4.35050E+01 0.00000E+00
 -1      2294 5.95500E+01 4.35050E+01 0.00000E+00
 -1      2295 5.73000E+01 4.22060E+01 0.00000E+00
 -1      2296 6.10500E+01 4.35050E+01 0.00000E+00
 -1      2297 6.25500E+01 4.35050E+01 0.00000E+00
 -1      2298 6.03000E+01 4.22060E+01 0.00000E+00
 -1      2299 6.40500E+01 4.35050E+01 0.00000E+00
 -1      2300 6.55500E+01 4.35050E+01 0.00000E+00
 -1      2301 6.33000E+01 4.22060E+01 0.00000E+00
 -1      2302 6.70500E+01 4.35050E+01 0.00000E+00
 -1      2303 6.85500E+01 4.35050E+01 0.00000E+00
 -1      2304 6.63000E+01 4.22060E+01 0.00000E+00
 -1      2305 7.00500E+01 4.35050E+01 0.00000E+00
 -1      2306 7.15500E+01 4.35050E+01 0.00000E+00
 -1      2307 6.93000E+01 4.22060E+01 0.00000E+00
 -1      2308 7.30500E+01 4.35050E+01 0.00000E+00
 -1      2309 7.45500E+01 4.35050E+01 0.00000E+00
 -1      2310 7.23000E+01 4.22060E+01 0.00000E+00
 -1      2311 7.60500E+01 4.35050E+01 0.00000E+00
 -1      2312 7.75500E+01 4.35050E+01 0.00000E+00
 -1      2313 7.53000E+01 4.22060E+01 0.00000E+00
 -1      2314 7.90500E+01 4.35050E+01 0.00000E+00
 -1      2315 8.05500E+01 4.35050E+01 0.00000E+00
 -1      2316 7.83000E+01 4.22060E+01 0.00000E+00
 -1      2317 8.20500E+01 4.35050E+01 0.00000E+00
 -1      2318 8.35500E+01 4.35050E+01 0.00000E+00
 -1      2319 8.13000E+01 4.22060E+01 0.00000E+00
 -1      2320 8.50500E+01 4.35050E+01 0.00000E+00
 -1      2321 8.65500E+01 4.35050E+01 0.00000E+00
 -1      2322 8.43000E+01 4.22060E+01 0.00000E+00
 -1      2323 8.80500E+01 4.35050E+01 0.00000E+00
 -1      2324 8.95500E+01 4.35050E+01 0.00000E+00
 -1      2325 8.73000E+01 4.22060E+01 0.00000E+00
 -1      2326 9.09750E+01 4.35050E+01 0.00000E+00
 -1      2327 9.24000E+01 4.35050E+01 0.00000E+00
 -1      2328 9.02250E+01 4.22060E+01 0.00000E+00
 -1      2329 9.39000E+01 4.37789E+01 0.00000E+00
 -1      2330 9.54000E+01 4.37789E+01 0.00000E+00
 -1      2331 9.69107E+01 4.35117E+01 0.00000E+00
 -1      2332 9.83357E+01 4.35117E+01 0.00000E+00
 -1      2333 1.00381E+02 4.38698E+01 0.00000E+00
 -1      2334 1.01881E+02 4.38698E+01 0.00000E+00
 -1      2335 1.08750E+02 4.35275E+01 0.00000E+00
 -1      2336 1.10250E+02 4.35275E+01 0.00000E+00
 -1      2337 1.11750E+02 4.35275E+01 0.00000E+00
 -1      2338 1.13250E+02 4.35275E+01 0.00000E+00
 -1      2339 1.11000E+02 4.22510E+01 0.00000E+00
 -1      2340 1.14750E+02 4.35275E+01 0.00000E+00
 -1      2341 1.16250E+02 4.35275E+01 0.00000E+00
 -1      2342 1.14000E+02 4.22510E+01 0.00000E+00
 -1      2343 1.17750E+02 4.35275E+01 0.00000E+00
 -1      2344 1.19250E+02 4.35275E+01 0.00000E+00
 -1      2345 1.17000E+02 4.22510E+01 0.00000E+00
 -1      2346 1.20750E+02 4.35275E+01 0.00000E+00
 -1      2347 1.22250E+02 4.35275E+01 0.00000E+00
 -1      2348 1.20000E+02 4.22510E+01 0.00000E+00
 -1      2349 1.23750E+02 4.35275E+01 0.00000E+00
 -1      2350 1.25250E+02 4.35275E+01 0.00000E+00
 -1      2351 1.23000E+02 4.22510E+01 0.00000E+00
 -1      2352 1.26750E+02 4.35275E+01 0.00000E+00
 -1      2353 1.28250E+02 4.35275E+01 0.00000E+00
 -1      2354 1.26000E+02 4.22510E+01 0.00000E+00
 -1      2355 1.29750E+02 4.35275E+01 0.00000E+00
 -1      2356 1.31250E+02 4.35275E+01 0.00000E+00
 -1      2357 1.29000E+02 4.22510E+01 0.00000E+00
 -1      2358 1.32750E+02 4.35275E+01 0.00000E+00
 -1      2359 1.34250E+02 4.35275E+01 0.00000E+00
 -1      2360 1.32000E+02 4.22510E+01 0.00000E+00
 -1      2361 1.35750E+02 4.35275E+01 0.00000E+00
 -1      2362 1.37250E+02 4.35275E+01 0.00000E+00
 -1      2363 1.35000E+02 4.22510E+01 0.00000E+00
 -1      2364 1.38750E+02 4.35275E+01 0.00000E+00
 -1      2365 1.40250E+02 4.35275E+01 0.00000E+00
 -1      2366 1.38000E+02 4.22510E+01 0.00000E+00
 -1      2367 1.41576E+02 4.32648E+01 0.00000E+00
 -1      2368 1.43076E+02 4.32648E+01 0.00000E+00
 -1      2369 1.43478E+02 4.14628E+01 0.00000E+00
 -1      2370 1.40826E+02 4.19883E+01 0.00000E+00
 -1      2371 2.16240E+01 6.08450E+00 0.00000E+00
 -1      2372 2.01240E+01 6.08450E+00 0.00000E+00
 -1      2373 1.86240E+01 6.08450E+00 0.00000E+00
 -1      2374 1.71240E+01 6.08450E+00 0.00000E+00
 -1      2375 1.93740E+01 7.38350E+00 0.00000E+00
 -1      2376 1.56240E+01 6.08450E+00 0.00000E+00
 -1      2377 1.41240E+01 6.08450E+00 0.00000E+00
 -1      2378 1.63740E+01 7.38350E+00 0.00000E+00
 -1      2379 2.46240E+01 6.08450E+00 0.00000E+00
 -1      2380 2.31240E+01 6.08450E+00 0.00000E+00
 -1      2381 2.23740E+01 7.38350E+00 0.00000E+00
 -1      2382 2.76240E+01 6.08450E+00 0.00000E+00
 -1      2383 2.61240E+01 6.08450E+00 0.00000E+00
 -1      2384 2.53740E+01 7.38350E+00 0.00000E+00
 -1      2385 3.06240E+01 6.08450E+00 0.00000E+00
 -1      2386 2.91240E+01 6.08450E+00 0.00000E+00
 -1      2387 2.83740E+01 7.38350E+00 0.00000E+00
 -1      2388 3.36240E+01 6.08450E+00 0.00000E+00
 -1      2389 3.21240E+01 6.08450E+00 0.00000E+00
 -1      2390 3.13740E+01 7.38350E+00 0.00000E+00
 -1      2391 3.66240E+01 6.08450E+00 0.00000E+00
 -1      2392 3.51240E+01 6.08450E+00 0.00000E+00
 -1      2393 3.43740E+01 7.38350E+00 0.00000E+00
 -1      2394 3.96240E+01 6.08450E+00 0.00000E+00
 -1      2395 3.81240E+01 6.08450E+00 0.00000E+00
 -1      2396 3.73740E+01 7.38350E+00 0.00000E+00
 -1      2397 4.26240E+01 6.08450E+00 0.00000E+00
 -1      2398 4.11240E+01 6.08450E+00 0.00000E+00
 -1      2399 4.03740E+01 7.38350E+00 0.00000E+00
 -1      2400 4.56240E+01 6.08450E+00 0.00000E+00
 -1      2401 4.41240E+01 6.08450E+00 0.00000E+00
 -1      2402 4.33740E+01 7.38350E+00 0.00000E+00
 -1      2403 4.86240E+01 6.08450E+00 0.00000E+00
 -1      2404 4.71240E+01 6.08450E+00 0.00000E+00
 -1      2405 4.63740E+01 7.38350E+00 0.00000E+00
 -1      2406 5.16240E+01 6.08450E+00 0.00000E+00
 -1      2407 5.01240E+01 6.08450E+00 0.00000E+00
 -1      2408 4.93740E+01 7.38350E+00 0.00000E+00
 -1      2409 5.46240E+01 6.08450E+00 0.00000E+00
 -1      2410 5.31240E+01 6.08450E+00 0.00000E+00
 -1      2411 5.23740E+01 7.38350E+00 0.00000E+00
 -1      2412 5.76240E+01 6.08450E+00 0.00000E+00
 -1      2413 5.61240E+01 6.08450E+00 0.00000E+00
 -1      2414 5.53740E+01 7.38350E+00 0.00000E+00
 -1      2415 6.06240E+01 6.08450E+00 0.00000E+00
 -1      2416 5.91240E+01 6.08450E+00 0.00000E+00
 -1      2417 5.83740E+01 7.38350E+00 0.00000E+00
 -1      2418 6.36240E+01 6.08450E+00 0.00000E+00
 -1      2419 6.21240E+01 6.08450E+00 0.00000E+00
 -1      2420 6.13740E+01 7.38350E+00 0.00000E+00
 -1      2421 6.66240E+01 6.08450E+00 0.00000E+00
 -1      2422 6.51240E+01 6.08450E+00 0.00000E+00
 -1      2423 6.43740E+01 7.38350E+00 0.00000E+00
 -1      2424 6.96240E+01 6.08450E+00 0.00000E+00
 -1      2425 6.81240E+01 6.08450E+00 0.00000E+00
 -1      2426 6.73740E+01 7.38350E+00 0.00000E+00
 -1      2427 7.26240E+01 6.08450E+00 0.00000E+00
 -1      2428 7.11240E+01 6.08450E+00 0.00000E+00
 -1      2429 7.03740E+01 7.38350E+00 0.00000E+00
 -1      2430 7.56240E+01 6.08450E+00 0.00000E+00
 -1      2431 7.41240E+01 6.08450E+00 0.00000E+00
 -1      2432 7.33740E+01 7.38350E+00 0.00000E+00
 -1      2433 7.86240E+01 6.08450E+00 0.00000E+00
 -1      2434 7.71240E+01 6.08450E+00 0.00000E+00
 -1      2435 7.63740E+01 7.38350E+00 0.00000E+00
 -1      2436 8.16240E+01 6.08450E+00 0.00000E+00
 -1      2437 8.01240E+01 6.08450E+00 0.00000E+00
 -1      2438 7.93740E+01 7.38350E+00 0.00000E+00
 -1      2439 8.46240E+01 6.08450E+00 0.00000E+00
 -1      2440 8.31240E+01 6.08450E+00 0.00000E+00
 -1      2441 8.23740E+01 7.38350E+00 0.00000E+00
 -1      2442 8.76240E+01 6.08450E+00 0.00000E+00
 -1      2443 8.61240E+01 6.08450E+00 0.00000E+00
 -1      2444 8.53740E+01 7.38350E+00 0.00000E+00
 -1      2445 9.06240E+01 6.08450E+00 0.00000E+00
 -1      2446 8.91240E+01 6.08450E+00 0.00000E+00
 -1      2447 8.83740E+01 7.38350E+00 0.00000E+00
 -1      2448 9.36240E+01 6.08450E+00 0.00000E+00
 -1      2449 9.21240E+01 6.08450E+00 0.00000E+00
 -1      2450 9.13740E+01 7.38350E+00 0.00000E+00
 -1      2451 9.66240E+01 6.08450E+00 0.00000E+00
 -1      2452 9.51240E+01 6.08450E+00 0.00000E+00
 -1      2453 9.43740E+01 7.38350E+00 0.00000E+00
 -1      2454 9.96240E+01 6.08450E+00 0.00000E+00
 -1      2455 9.81240E+01 6.08450E+00 0.00000E+00
 -1      2456 9.73740E+01 7.38350E+00 0.00000E+00
 -1      2457 1.02624E+02 6.08450E+00 0.00000E+00
 -1      2458 1.01124E+02 6.08450E+00 0.00000E+00
 -1      2459 1.00374E+02 7.38350E+00 0.00000E+00
 -1      2460 1.05624E+02 6.08450E+00 0.00000E+00
 -1      2461 1.04124E+02 6.08450E+00 0.00000E+00
 -1      2462 1.03374E+02 7.38350E+00 0.00000E+00
 -1      2463 1.08624E+02 6.08450E+00 0.00000E+00
 -1      2464 1.07124E+02 6.08450E+00 0.00000E+00
 -1      2465 1.06374E+02 7.38350E+00 0.00000E+00
 -1      2466 1.11624E+02 6.08450E+00 0.00000E+00
 -1      2467 1.10124E+02 6.08450E+00 0.00000E+00
 -1      2468 1.09374E+02 7.38350E+00 0.00000E+00
 -1      2469 1.14624E+02 6.08450E+00 0.00000E+00
 -1      2470 1.13124E+02 6.08450E+00 0.00000E+00
 -1      2471 1.12374E+02 7.38350E+00 0.00000E+00
 -1      2472 1.17624E+02 6.08450E+00 0.00000E+00
 -1      2473 1.16124E+02 6.08450E+00 0.00000E+00
 -1      2474 1.15374E+02 7.38350E+00 0.00000E+00
 -1      2475 1.20624E+02 6.08450E+00 0.00000E+00
 -1      2476 1.19124E+02 6.08450E+00 0.00000E+00
 -1      2477 1.18374E+02 7.38350E+00 0.00000E+00
 -1      2478 1.23624E+02 6.08450E+00 0.00000E+00
 -1      2479 1.22124E+02 6.08450E+00 0.00000E+00
 -1      2480 1.21374E+02 7.38350E+00 0.00000E+00
 -1      2481 1.26624E+02 6.08450E+00 0.00000E+00
 -1      2482 1.25124E+02 6.08450E+00 0.00000E+00
 -1      2483 1.24374E+02 7.38350E+00 0.00000E+00
 -1      2484 1.29624E+02 6.08450E+00 0.00000E+00
 -1      2485 1.28124E+02 6.08450E+00 0.00000E+00
 -1      2486 1.27374E+02 7.38350E+00 0.00000E+00
 -1      2487 1.32624E+02 6.08450E+00 0.00000E+00
 -1      2488 1.31124E+02 6.08450E+00 0.00000E+00
 -1      2489 1.30374E+02 7.38350E+00 0.00000E+00
 -1      2490 1.35624E+02 6.08450E+00 0.00000E+00
 -1      2491 1.34124E+02 6.08450E+00 0.00000E+00
 -1      2492 1.33374E+02 7.38350E+00 0.00000E+00
 -1      2493 1.38624E+02 6.08450E+00 0.00000E+00
 -1      2494 1.37124E+02 6.08450E+00 0.00000E+00
 -1      2495 1.36374E+02 7.38350E+00 0.00000E+00
 -1      2496 1.41624E+02 6.08450E+00 0.00000E+00
 -1      2497 1.40124E+02 6.08450E+00 0.00000E+00
 -1      2498 1.39374E+02 7.38350E+00 0.00000E+00
 -1      2499 1.43589E+02 6.81775E+00 0.00000E+00
 -1      2500 1.43505E+02 1.69125E+01 0.00000E+00
 -1      2501 1.43505E+02 1.54375E+01 0.00000E+00
 -1      2502 1.43505E+02 1.39875E+01 0.00000E+00
 -1      2503 1.43505E+02 1.25375E+01 0.00000E+00
 -1      2504 1.42206E+02 1.47250E+01 0.00000E+00
 -1      2505 1.43505E+02 1.10625E+01 0.00000E+00
 -1      2506 1.43505E+02 9.58750E+00 0.00000E+00
 -1      2507 1.42206E+02 1.18000E+01 0.00000E+00
 -1      2508 1.11255E+02 3.16732E+01 0.00000E+00
 -1      2509 1.11143E+02 3.27524E+01 0.00000E+00
 -1      2510 1.43505E+02 1.98625E+01 0.00000E+00
 -1      2511 1.43505E+02 1.83875E+01 0.00000E+00
 -1      2512 1.42206E+02 1.76500E+01 0.00000E+00
 -1      2513 1.43505E+02 2.28125E+01 0.00000E+00
 -1      2514 1.43505E+02 2.13375E+01 0.00000E+00
 -1      2515 1.42206E+02 2.06000E+01 0.00000E+00
 -1      2516 1.43505E+02 2.57625E+01 0.00000E+00
 -1      2517 1.43505E+02 2.42875E+01 0.00000E+00
 -1      2518 1.42206E+02 2.35500E+01 0.00000E+00
 -1      2519 1.43505E+02 2.87125E+01 0.00000E+00
 -1      2520 1.43505E+02 2.72375E+01 0.00000E+00
 -1      2521 1.42206E+02 2.65000E+01 0.00000E+00
 -1      2522 1.43505E+02 3.16125E+01 0.00000E+00
 -1      2523 1.43505E+02 3.01625E+01 0.00000E+00
 -1      2524 1.42206E+02 2.94250E+01 0.00000E+00
 -1      2525 1.43505E+02 3.45625E+01 0.00000E+00
 -1      2526 1.43505E+02 3.30875E+01 0.00000E+00
 -1      2527 1.42206E+02 3.23500E+01 0.00000E+00
 -1      2528 1.43505E+02 3.75125E+01 0.00000E+00
 -1      2529 1.43505E+02 3.60375E+01 0.00000E+00
 -1      2530 1.42206E+02 3.53000E+01 0.00000E+00
 -1      2531 1.43492E+02 4.02251E+01 0.00000E+00
 -1      2532 1.43492E+02 3.87501E+01 0.00000E+00
 -1      2533 1.42193E+02 3.80126E+01 0.00000E+00
 -1      2534 1.42165E+02 4.04879E+01 0.00000E+00
 -1      2535 6.55950E+00 4.28890E+01 0.00000E+00
 -1      2536 8.53650E+00 4.32410E+01 0.00000E+00
 -1      2537 9.28650E+00 4.19420E+01 0.00000E+00
 -1      2538 6.55950E+00 4.14140E+01 0.00000E+00
 -1      2539 1.06341E+02 2.43656E+01 0.00000E+00
 -1      2540 1.07145E+02 2.50218E+01 0.00000E+00
 -1      2541 1.11215E+02 3.37115E+01 0.00000E+00
 -1      2542 1.11288E+02 3.46706E+01 0.00000E+00
 -1      2543 1.12124E+02 3.32598E+01 0.00000E+00
 -1      2544 1.10785E+02 3.59432E+01 0.00000E+00
 -1      2545 1.10290E+02 3.69265E+01 0.00000E+00
 -1      2546 9.18991E+01 2.70733E+01 0.00000E+00
 -1      2547 9.25844E+01 2.62977E+01 0.00000E+00
 -1      2548 1.04116E+02 2.35578E+01 0.00000E+00
 -1      2549 1.05109E+02 2.38527E+01 0.00000E+00
 -1      2550 6.49500E+00 2.71625E+01 0.00000E+00
 -1      2551 6.49500E+00 2.86375E+01 0.00000E+00
 -1      2552 7.79400E+00 2.93750E+01 0.00000E+00
 -1      2553 7.79400E+00 2.64250E+01 0.00000E+00
 -1      2554 1.02004E+02 2.29047E+01 0.00000E+00
 -1      2555 1.03084E+02 2.32136E+01 0.00000E+00
 -1      2556 9.51665E+01 2.43848E+01 0.00000E+00
 -1      2557 9.60548E+01 2.37981E+01 0.00000E+00
 -1      2558 9.98506E+01 2.24559E+01 0.00000E+00
 -1      2559 1.00791E+02 2.24647E+01 0.00000E+00
 -1      2560 9.16289E+01 3.86937E+01 0.00000E+00
 -1      2561 9.10922E+01 3.76585E+01 0.00000E+00
 -1      2562 9.35619E+01 2.56521E+01 0.00000E+00
 -1      2563 9.43118E+01 2.50545E+01 0.00000E+00
 -1      2564 9.08099E+01 2.89794E+01 0.00000E+00
 -1      2565 9.11305E+01 2.81524E+01 0.00000E+00
 -1      2566 9.04011E+01 3.14139E+01 0.00000E+00
 -1      2567 9.06055E+01 3.01967E+01 0.00000E+00
 -1      2568 8.97319E+01 2.93823E+01 0.00000E+00
 -1      2569 9.05217E+01 3.36786E+01 0.00000E+00
 -1      2570 9.05642E+01 3.26919E+01 0.00000E+00
 -1      2571 1.07215E+02 4.12117E+01 0.00000E+00
 -1      2572 1.06511E+02 4.18198E+01 0.00000E+00
 -1      2573 9.34158E+01 4.03023E+01 0.00000E+00
 -1      2574 9.26027E+01 3.97218E+01 0.00000E+00
 -1      2575 9.52059E+01 4.19850E+01 0.00000E+00
 -1      2576 9.44488E+01 4.13753E+01 0.00000E+00
 -1      2577 1.02725E+02 4.36898E+01 0.00000E+00
 -1      2578 1.05395E+02 4.24015E+01 0.00000E+00
 -1      2579 1.04321E+02 4.29518E+01 0.00000E+00
 -1      2580 1.08616E+02 3.97602E+01 0.00000E+00
 -1      2581 1.07875E+02 4.04497E+01 0.00000E+00
 -1      2582 1.09892E+02 3.79033E+01 0.00000E+00
 -1      2583 1.09441E+02 3.87987E+01 0.00000E+00
 -1      2584 1.10471E+02 2.92582E+01 0.00000E+00
 -1      2585 1.10995E+02 3.02161E+01 0.00000E+00
 -1      2586 1.11008E+02 2.84287E+01 0.00000E+00
 -1      2587 1.42839E+02 8.11675E+00 0.00000E+00
 -1      2588 7.79400E+00 3.52687E+01 0.00000E+00
 -1      2589 6.49500E+00 3.60062E+01 0.00000E+00
 -1      2590 6.49500E+00 3.74750E+01 0.00000E+00
 -1      2591 1.06053E+02 2.35166E+01 0.00000E+00
 -1      2592 9.55950E+00 5.02450E+00 0.00000E+00
 -1      2593 9.37425E+00 5.84794E+00 0.00000E+00
 -1      2594 1.07692E+01 5.21931E+00 0.00000E+00
 -1      2595 1.09641E+02 2.65117E+01 0.00000E+00
 -1      2596 1.41540E+02 8.85425E+00 0.00000E+00
 -1      2597 9.31500E+01 4.24799E+01 0.00000E+00
 -1      2598 9.92857E+01 4.36896E+01 0.00000E+00
 -1      2599 1.04225E+02 4.36898E+01 0.00000E+00
 -1      2600 1.10793E+02 3.77409E+01 0.00000E+00
 -1      2601 1.11792E+02 3.08437E+01 0.00000E+00
 -1      2602 1.12589E+02 3.14713E+01 0.00000E+00
 -1      2603 1.12329E+02 3.00142E+01 0.00000E+00
 -1      2604 6.55950E+00 3.99453E+01 0.00000E+00
 -1      2605 9.07049E+01 2.70859E+01 0.00000E+00
 -1      2606 1.03789E+02 2.26594E+01 0.00000E+00
 -1      2607 1.30515E+01 5.74931E+00 0.00000E+00
 -1      2608 1.18418E+01 5.55450E+00 0.00000E+00
 -1      2609 1.16565E+01 6.37794E+00 0.00000E+00
 -1      2610 1.38015E+01 7.04831E+00 0.00000E+00
 -1      2611 1.09569E+02 3.96792E+01 0.00000E+00
 -1      2612 1.12602E+02 3.50398E+01 0.00000E+00
 -1      2613 1.11694E+02 3.54915E+01 0.00000E+00
 -1      2614 1.12100E+02 3.63123E+01 0.00000E+00
 -1      2615 9.24511E+01 2.53611E+01 0.00000E+00
 -1      2616 1.08084E+02 4.14026E+01 0.00000E+00
 -1      2617 8.96906E+01 3.18776E+01 0.00000E+00
 -1      2618 9.16102E+01 3.95796E+01 0.00000E+00
 -1      2619 9.06177E+01 3.94374E+01 0.00000E+00
 -1      2620 9.15915E+01 4.04655E+01 0.00000E+00
 -1      2621 9.91123E+01 2.20597E+01 0.00000E+00
 -1      2622 9.04305E+01 3.71729E+01 0.00000E+00
 -1      2623 8.97689E+01 3.66873E+01 0.00000E+00
 -1      2624 8.99747E+01 3.80659E+01 0.00000E+00
 -1      2625 1.07712E+02 4.34843E+01 0.00000E+00
 -1      2626 1.08462E+02 4.22078E+01 0.00000E+00
 -1      2627 9.65162E+01 2.30300E+01 0.00000E+00
 -1      2628 9.69776E+01 2.22619E+01 0.00000E+00
 -1      2629 9.55994E+01 2.26078E+01 0.00000E+00
 -1      2630 9.42833E+01 2.40456E+01 0.00000E+00
 -1      2631 1.08042E+02 2.47911E+01 0.00000E+00
 -1      2632 9.61607E+01 4.24866E+01 0.00000E+00
 -1      2633 1.01544E+02 2.18752E+01 0.00000E+00
 -1      2634 9.00391E+01 3.44749E+01 0.00000E+00
 -1      2635 8.93710E+01 3.39520E+01 0.00000E+00
 -1      2636 8.95565E+01 3.52713E+01 0.00000E+00
 -1      2637 1.06308E+02 4.27463E+01 0.00000E+00
 -1      2638 1.05096E+02 4.40660E+01 0.00000E+00
 -1      2639 9.09300E+00 1.98250E+01 0.00000E+00
 -1      2640 9.09300E+00 2.12750E+01 0.00000E+00
 -1      2641 9.09300E+00 2.27500E+01 0.00000E+00
 -1      2642 9.09300E+00 2.42250E+01 0.00000E+00
 -1      2643 1.03920E+01 2.20250E+01 0.00000E+00
 -1      2644 9.09300E+00 1.39375E+01 0.00000E+00
 -1      2645 9.09300E+00 1.54125E+01 0.00000E+00
 -1      2646 9.09300E+00 1.09875E+01 0.00000E+00
 -1      2647 9.09300E+00 1.24625E+01 0.00000E+00
 -1      2648 1.03920E+01 1.32000E+01 0.00000E+00
 -1      2649 9.18900E+00 6.67137E+00 0.00000E+00
 -1      2650 9.00375E+00 7.49481E+00 0.00000E+00
 -1      2651 1.03988E+01 6.86619E+00 0.00000E+00
 -1      2652 1.05799E+02 2.23911E+01 0.00000E+00
 -1      2653 1.07031E+02 2.29040E+01 0.00000E+00
 -1      2654 1.40706E+02 1.03250E+01 0.00000E+00
 -1      2655 1.40040E+02 8.85425E+00 0.00000E+00
 -1      2656 1.38540E+02 8.85425E+00 0.00000E+00
 -1      2657 1.44000E+01 4.09070E+01 0.00000E+00
 -1      2658 1.59000E+01 4.09070E+01 0.00000E+00
 -1      2659 1.74000E+01 4.09070E+01 0.00000E+00
 -1      2660 1.89000E+01 4.09070E+01 0.00000E+00
 -1      2661 1.66500E+01 3.96080E+01 0.00000E+00
 -1      2662 2.04000E+01 4.09070E+01 0.00000E+00
 -1      2663 2.19000E+01 4.09070E+01 0.00000E+00
 -1      2664 1.96500E+01 3.96080E+01 0.00000E+00
 -1      2665 2.34000E+01 4.09070E+01 0.00000E+00
 -1      2666 2.49000E+01 4.09070E+01 0.00000E+00
 -1      2667 2.26500E+01 3.96080E+01 0.00000E+00
 -1      2668 2.64000E+01 4.09070E+01 0.00000E+00
 -1      2669 2.79000E+01 4.09070E+01 0.00000E+00
 -1      2670 2.56500E+01 3.96080E+01 0.00000E+00
 -1      2671 2.94000E+01 4.09070E+01 0.00000E+00
 -1      2672 3.09000E+01 4.09070E+01 0.00000E+00
 -1      2673 2.86500E+01 3.96080E+01 0.00000E+00
 -1      2674 3.24000E+01 4.09070E+01 0.00000E+00
 -1      2675 3.39000E+01 4.09070E+01 0.00000E+00
 -1      2676 3.16500E+01 3.96080E+01 0.00000E+00
 -1      2677 3.54000E+01 4.09070E+01 0.00000E+00
 -1      2678 3.69000E+01 4.09070E+01 0.00000E+00
 -1      2679 3.46500E+01 3.96080E+01 0.00000E+00
 -1      2680 3.84000E+01 4.09070E+01 0.00000E+00
 -1      2681 3.99000E+01 4.09070E+01 0.00000E+00
 -1      2682 3.76500E+01 3.96080E+01 0.00000E+00
 -1      2683 4.14000E+01 4.09070E+01 0.00000E+00
 -1      2684 4.29000E+01 4.09070E+01 0.00000E+00
 -1      2685 4.06500E+01 3.96080E+01 0.00000E+00
 -1      2686 4.44000E+01 4.09070E+01 0.00000E+00
 -1      2687 4.59000E+01 4.09070E+01 0.00000E+00
 -1      2688 4.36500E+01 3.96080E+01 0.00000E+00
 -1      2689 4.74000E+01 4.09070E+01 0.00000E+00
 -1      2690 4.89000E+01 4.09070E+01 0.00000E+00
 -1      2691 4.66500E+01 3.96080E+01 0.00000E+00
 -1      2692 5.04750E+01 4.09070E+01 0.00000E+00
 -1      2693 5.20500E+01 4.09070E+01 0.00000E+00
 -1      2694 4.97250E+01 3.96080E+01 0.00000E+00
 -1      2695 5.35500E+01 4.09070E+01 0.00000E+00
 -1      2696 5.50500E+01 4.09070E+01 0.00000E+00
 -1      2697 5.28000E+01 3.96080E+01 0.00000E+00
 -1      2698 5.65500E+01 4.09070E+01 0.00000E+00
 -1      2699 5.80500E+01 4.09070E+01 0.00000E+00
 -1      2700 5.58000E+01 3.96080E+01 0.00000E+00
 -1      2701 5.95500E+01 4.09070E+01 0.00000E+00
 -1      2702 6.10500E+01 4.09070E+01 0.00000E+00
 -1      2703 5.88000E+01 3.96080E+01 0.00000E+00
 -1      2704 6.25500E+01 4.09070E+01 0.00000E+00
 -1      2705 6.40500E+01 4.09070E+01 0.00000E+00
 -1      2706 6.18000E+01 3.96080E+01 0.00000E+00
 -1      2707 6.55500E+01 4.09070E+01 0.00000E+00
 -1      2708 6.70500E+01 4.09070E+01 0.00000E+00
 -1      2709 6.48000E+01 3.96080E+01 0.00000E+00
 -1      2710 6.85500E+01 4.09070E+01 0.00000E+00
 -1      2711 7.00500E+01 4.09070E+01 0.00000E+00
 -1      2712 6.78000E+01 3.96080E+01 0.00000E+00
 -1      2713 7.15500E+01 4.09070E+01 0.00000E+00
 -1      2714 7.30500E+01 4.09070E+01 0.00000E+00
 -1      2715 7.08000E+01 3.96080E+01 0.00000E+00
 -1      2716 7.45500E+01 4.09070E+01 0.00000E+00
 -1      2717 7.60500E+01 4.09070E+01 0.00000E+00
 -1      2718 7.38000E+01 3.96080E+01 0.00000E+00
 -1      2719 7.75500E+01 4.09070E+01 0.00000E+00
 -1      2720 7.90500E+01 4.09070E+01 0.00000E+00
 -1      2721 7.68000E+01 3.96080E+01 0.00000E+00
 -1      2722 8.05500E+01 4.09070E+01 0.00000E+00
 -1      2723 8.20500E+01 4.09070E+01 0.00000E+00
 -1      2724 7.98000E+01 3.96080E+01 0.00000E+00
 -1      2725 8.35500E+01 4.09070E+01 0.00000E+00
 -1      2726 8.50500E+01 4.09070E+01 0.00000E+00
 -1      2727 8.28000E+01 3.96080E+01 0.00000E+00
 -1      2728 8.65500E+01 4.09070E+01 0.00000E+00
 -1      2729 8.80500E+01 4.09070E+01 0.00000E+00
 -1      2730 8.58000E+01 3.96080E+01 0.00000E+00
 -1      2731 8.96995E+01 4.12647E+01 0.00000E+00
 -1      2732 9.11245E+01 4.12647E+01 0.00000E+00
 -1      2733 1.06212E+02 4.34843E+01 0.00000E+00
 -1      2734 8.85168E+00 4.05347E+01 0.00000E+00
 -1      2735 1.02152E+01 4.07987E+01 0.00000E+00
 -1      2736 1.13250E+02 4.09746E+01 0.00000E+00
 -1      2737 1.14750E+02 4.09746E+01 0.00000E+00
 -1      2738 1.16250E+02 4.09746E+01 0.00000E+00
 -1      2739 1.17750E+02 4.09746E+01 0.00000E+00
 -1      2740 1.15500E+02 3.96981E+01 0.00000E+00
 -1      2741 1.19250E+02 4.09746E+01 0.00000E+00
 -1      2742 1.20750E+02 4.09746E+01 0.00000E+00
 -1      2743 1.18500E+02 3.96981E+01 0.00000E+00
 -1      2744 1.22250E+02 4.09746E+01 0.00000E+00
 -1      2745 1.23750E+02 4.09746E+01 0.00000E+00
 -1      2746 1.21500E+02 3.96981E+01 0.00000E+00
 -1      2747 1.25250E+02 4.09746E+01 0.00000E+00
 -1      2748 1.26750E+02 4.09746E+01 0.00000E+00
 -1      2749 1.24500E+02 3.96981E+01 0.00000E+00
 -1      2750 1.28250E+02 4.09746E+01 0.00000E+00
 -1      2751 1.29750E+02 4.09746E+01 0.00000E+00
 -1      2752 1.27500E+02 3.96981E+01 0.00000E+00
 -1      2753 1.31250E+02 4.09746E+01 0.00000E+00
 -1      2754 1.32750E+02 4.09746E+01 0.00000E+00
 -1      2755 1.30500E+02 3.96981E+01 0.00000E+00
 -1      2756 1.34250E+02 4.09746E+01 0.00000E+00
 -1      2757 1.35750E+02 4.09746E+01 0.00000E+00
 -1      2758 1.33500E+02 3.96981E+01 0.00000E+00
 -1      2759 1.37250E+02 4.09746E+01 0.00000E+00
 -1      2760 1.38750E+02 4.09746E+01 0.00000E+00
 -1      2761 1.36500E+02 3.96981E+01 0.00000E+00
 -1      2762 1.39795E+02 4.08626E+01 0.00000E+00
 -1      2763 1.41121E+02 4.05998E+01 0.00000E+00
 -1      2764 1.41134E+02 3.93622E+01 0.00000E+00
 -1      2765 1.39045E+02 3.95861E+01 0.00000E+00
 -1      2766 2.01240E+01 8.68250E+00 0.00000E+00
 -1      2767 1.86240E+01 8.68250E+00 0.00000E+00
 -1      2768 2.31240E+01 8.68250E+00 0.00000E+00
 -1      2769 2.16240E+01 8.68250E+00 0.00000E+00
 -1      2770 2.08740E+01 9.98150E+00 0.00000E+00
 -1      2771 1.71240E+01 8.68250E+00 0.00000E+00
 -1      2772 1.56240E+01 8.68250E+00 0.00000E+00
 -1      2773 1.78740E+01 9.98150E+00 0.00000E+00
 -1      2774 2.91240E+01 8.68250E+00 0.00000E+00
 -1      2775 2.76240E+01 8.68250E+00 0.00000E+00
 -1      2776 3.21240E+01 8.68250E+00 0.00000E+00
 -1      2777 3.06240E+01 8.68250E+00 0.00000E+00
 -1      2778 2.98740E+01 9.98150E+00 0.00000E+00
 -1      2779 3.51240E+01 8.68250E+00 0.00000E+00
 -1      2780 3.36240E+01 8.68250E+00 0.00000E+00
 -1      2781 3.28740E+01 9.98150E+00 0.00000E+00
 -1      2782 3.81240E+01 8.68250E+00 0.00000E+00
 -1      2783 3.66240E+01 8.68250E+00 0.00000E+00
 -1      2784 3.58740E+01 9.98150E+00 0.00000E+00
 -1      2785 4.11240E+01 8.68250E+00 0.00000E+00
 -1      2786 3.96240E+01 8.68250E+00 0.00000E+00
 -1      2787 3.88740E+01 9.98150E+00 0.00000E+00
 -1      2788 4.41240E+01 8.68250E+00 0.00000E+00
 -1      2789 4.26240E+01 8.68250E+00 0.00000E+00
 -1      2790 4.18740E+01 9.98150E+00 0.00000E+00
 -1      2791 4.71240E+01 8.68250E+00 0.00000E+00
 -1      2792 4.56240E+01 8.68250E+00 0.00000E+00
 -1      2793 4.48740E+01 9.98150E+00 0.00000E+00
 -1      2794 5.01240E+01 8.68250E+00 0.00000E+00
 -1      2795 4.86240E+01 8.68250E+00 0.00000E+00
 -1      2796 4.78740E+01 9.98150E+00 0.00000E+00
 -1      2797 5.31240E+01 8.68250E+00 0.00000E+00
 -1      2798 5.16240E+01 8.68250E+00 0.00000E+00
 -1      2799 5.08740E+01 9.98150E+00 0.00000E+00
 -1      2800 5.61240E+01 8.68250E+00 0.00000E+00
 -1      2801 5.46240E+01 8.68250E+00 0.00000E+00
 -1      2802 5.38740E+01 9.98150E+00 0.00000E+00
 -1      2803 5.91240E+01 8.68250E+00 0.00000E+00
 -1      2804 5.76240E+01 8.68250E+00 0.00000E+00
 -1      2805 5.68740E+01 9.98150E+00 0.00000E+00
 -1      2806 6.21240E+01 8.68250E+00 0.00000E+00
 -1      2807 6.06240E+01 8.68250E+00 0.00000E+00
 -1      2808 5.98740E+01 9.98150E+00 0.00000E+00
 -1      2809 6.51240E+01 8.68250E+00 0.00000E+00
 -1      2810 6.36240E+01 8.68250E+00 0.00000E+00
 -1      2811 6.28740E+01 9.98150E+00 0.00000E+00
 -1      2812 6.81240E+01 8.68250E+00 0.00000E+00
 -1      2813 6.66240E+01 8.68250E+00 0.00000E+00
 -1      2814 6.58740E+01 9.98150E+00 0.00000E+00
 -1      2815 7.11240E+01 8.68250E+00 0.00000E+00
 -1      2816 6.96240E+01 8.68250E+00 0.00000E+00
 -1      2817 6.88740E+01 9.98150E+00 0.00000E+00
 -1      2818 7.41240E+01 8.68250E+00 0.00000E+00
 -1      2819 7.26240E+01 8.68250E+00 0.00000E+00
 -1      2820 7.18740E+01 9.98150E+00 0.00000E+00
 -1      2821 7.71240E+01 8.68250E+00 0.00000E+00
 -1      2822 7.56240E+01 8.68250E+00 0.00000E+00
 -1      2823 7.48740E+01 9.98150E+00 0.00000E+00
 -1      2824 8.01240E+01 8.68250E+00 0.00000E+00
 -1      2825 7.86240E+01 8.68250E+00 0.00000E+00
 -1      2826 7.78740E+01 9.98150E+00 0.00000E+00
 -1      2827 8.31240E+01 8.68250E+00 0.00000E+00
 -1      2828 8.16240E+01 8.68250E+00 0.00000E+00
 -1      2829 8.08740E+01 9.98150E+00 0.00000E+00
 -1      2830 8.61240E+01 8.68250E+00 0.00000E+00
 -1      2831 8.46240E+01 8.68250E+00 0.00000E+00
 -1      2832 8.38740E+01 9.98150E+00 0.00000E+00
 -1      2833 8.91240E+01 8.68250E+00 0.00000E+00
 -1      2834 8.76240E+01 8.68250E+00 0.00000E+00
 -1      2835 8.68740E+01 9.98150E+00 0.00000E+00
 -1      2836 9.21240E+01 8.68250E+00 0.00000E+00
 -1      2837 9.06240E+01 8.68250E+00 0.00000E+00
 -1      2838 8.98740E+01 9.98150E+00 0.00000E+00
 -1      2839 9.51240E+01 8.68250E+00 0.00000E+00
 -1      2840 9.36240E+01 8.68250E+00 0.00000E+00
 -1      2841 9.28740E+01 9.98150E+00 0.00000E+00
 -1      2842 9.81240E+01 8.68250E+00 0.00000E+00
 -1      2843 9.66240E+01 8.68250E+00 0.00000E+00
 -1      2844 9.58740E+01 9.98150E+00 0.00000E+00
 -1      2845 1.01124E+02 8.68250E+00 0.00000E+00
 -1      2846 9.96240E+01 8.68250E+00 0.00000E+00
 -1      2847 9.88740E+01 9.98150E+00 0.00000E+00
 -1      2848 1.04124E+02 8.68250E+00 0.00000E+00
 -1      2849 1.02624E+02 8.68250E+00 0.00000E+00
 -1      2850 1.01874E+02 9.98150E+00 0.00000E+00
 -1      2851 1.07124E+02 8.68250E+00 0.00000E+00
 -1      2852 1.05624E+02 8.68250E+00 0.00000E+00
 -1      2853 1.04874E+02 9.98150E+00 0.00000E+00
 -1      2854 1.10124E+02 8.68250E+00 0.00000E+00
 -1      2855 1.08624E+02 8.68250E+00 0.00000E+00
 -1      2856 1.07874E+02 9.98150E+00 0.00000E+00
 -1      2857 1.13124E+02 8.68250E+00 0.00000E+00
 -1      2858 1.11624E+02 8.68250E+00 0.00000E+00
 -1      2859 1.10874E+02 9.98150E+00 0.00000E+00
 -1      2860 1.16124E+02 8.68250E+00 0.00000E+00
 -1      2861 1.14624E+02 8.68250E+00 0.00000E+00
 -1      2862 1.13874E+02 9.98150E+00 0.00000E+00
 -1      2863 1.19124E+02 8.68250E+00 0.00000E+00
 -1      2864 1.17624E+02 8.68250E+00 0.00000E+00
 -1      2865 1.16874E+02 9.98150E+00 0.00000E+00
 -1      2866 1.22124E+02 8.68250E+00 0.00000E+00
 -1      2867 1.20624E+02 8.68250E+00 0.00000E+00
 -1      2868 1.19874E+02 9.98150E+00 0.00000E+00
 -1      2869 1.25124E+02 8.68250E+00 0.00000E+00
 -1      2870 1.23624E+02 8.68250E+00 0.00000E+00
 -1      2871 1.22874E+02 9.98150E+00 0.00000E+00
 -1      2872 1.28124E+02 8.68250E+00 0.00000E+00
 -1      2873 1.26624E+02 8.68250E+00 0.00000E+00
 -1      2874 1.25874E+02 9.98150E+00 0.00000E+00
 -1      2875 1.31124E+02 8.68250E+00 0.00000E+00
 -1      2876 1.29624E+02 8.68250E+00 0.00000E+00
 -1      2877 1.28874E+02 9.98150E+00 0.00000E+00
 -1      2878 1.34124E+02 8.68250E+00 0.00000E+00
 -1      2879 1.32624E+02 8.68250E+00 0.00000E+00
 -1      2880 1.31874E+02 9.98150E+00 0.00000E+00
 -1      2881 1.37082E+02 8.76838E+00 0.00000E+00
 -1      2882 1.35582E+02 8.76838E+00 0.00000E+00
 -1      2883 1.34832E+02 1.00674E+01 0.00000E+00
 -1      2884 1.37748E+02 1.02391E+01 0.00000E+00
 -1      2885 1.40907E+02 1.54500E+01 0.00000E+00
 -1      2886 1.40907E+02 1.40000E+01 0.00000E+00
 -1      2887 1.40907E+02 2.13375E+01 0.00000E+00
 -1      2888 1.40907E+02 1.98625E+01 0.00000E+00
 -1      2889 1.40706E+02 1.18000E+01 0.00000E+00
 -1      2890 1.11646E+02 2.74580E+01 0.00000E+00
 -1      2891 1.12170E+02 2.84160E+01 0.00000E+00
 -1      2892 1.40907E+02 1.83937E+01 0.00000E+00
 -1      2893 1.40907E+02 1.69188E+01 0.00000E+00
 -1      2894 1.39608E+02 1.61938E+01 0.00000E+00
 -1      2895 1.39608E+02 1.91313E+01 0.00000E+00
 -1      2896 1.40907E+02 2.72375E+01 0.00000E+00
 -1      2897 1.40907E+02 2.57625E+01 0.00000E+00
 -1      2898 1.40907E+02 3.01375E+01 0.00000E+00
 -1      2899 1.40907E+02 2.86875E+01 0.00000E+00
 -1      2900 1.39608E+02 2.79500E+01 0.00000E+00
 -1      2901 1.40907E+02 3.30875E+01 0.00000E+00
 -1      2902 1.40907E+02 3.16125E+01 0.00000E+00
 -1      2903 1.39608E+02 3.08750E+01 0.00000E+00
 -1      2904 1.40907E+02 3.60375E+01 0.00000E+00
 -1      2905 1.40907E+02 3.45625E+01 0.00000E+00
 -1      2906 1.39608E+02 3.38250E+01 0.00000E+00
 -1      2907 1.09863E+02 2.54658E+01 0.00000E+00
 -1      2908 1.10707E+02 2.64249E+01 0.00000E+00
 -1      2909 1.13110E+02 3.27033E+01 0.00000E+00
 -1      2910 1.13182E+02 3.36624E+01 0.00000E+00
 -1      2911 9.36170E+01 4.16807E+01 0.00000E+00
 -1      2912 9.14897E+01 2.49684E+01 0.00000E+00
 -1      2913 9.24671E+01 2.43227E+01 0.00000E+00
 -1      2914 1.09122E+02 4.14459E+01 0.00000E+00
 -1      2915 1.40907E+02 2.42875E+01 0.00000E+00
 -1      2916 1.40907E+02 2.28125E+01 0.00000E+00
 -1      2917 1.39608E+02 2.50250E+01 0.00000E+00
 -1      2918 1.10436E+02 4.12102E+01 0.00000E+00
 -1      2919 1.11936E+02 4.12102E+01 0.00000E+00
 -1      2920 1.12686E+02 3.99337E+01 0.00000E+00
 -1      2921 1.10058E+02 4.04050E+01 0.00000E+00
 -1      2922 8.96221E+01 2.71279E+01 0.00000E+00
 -1      2923 9.03908E+01 2.60488E+01 0.00000E+00
 -1      2924 1.15576E+01 4.08528E+01 0.00000E+00
 -1      2925 1.30576E+01 4.08528E+01 0.00000E+00
 -1      2926 1.38076E+01 3.95538E+01 0.00000E+00
 -1      2927 1.11228E+01 3.94455E+01 0.00000E+00
 -1      2928 9.33219E+01 2.36529E+01 0.00000E+00
 -1      2929 9.41766E+01 2.29832E+01 0.00000E+00
 -1      2930 9.23605E+01 2.32602E+01 0.00000E+00
 -1      2931 1.08272E+02 2.38061E+01 0.00000E+00
 -1      2932 1.09028E+02 2.45676E+01 0.00000E+00
 -1      2933 1.03544E+02 2.16738E+01 0.00000E+00
 -1      2934 1.04576E+02 2.20180E+01 0.00000E+00
 -1      2935 8.86187E+01 2.98212E+01 0.00000E+00
 -1      2936 8.88231E+01 2.86039E+01 0.00000E+00
 -1      2937 9.09300E+00 1.68813E+01 0.00000E+00
 -1      2938 9.09300E+00 1.83563E+01 0.00000E+00
 -1      2939 1.03920E+01 1.90812E+01 0.00000E+00
 -1      2940 1.03920E+01 1.61437E+01 0.00000E+00
 -1      2941 9.80738E+01 2.15343E+01 0.00000E+00
 -1      2942 9.92917E+01 2.09098E+01 0.00000E+00
 -1      2943 1.11786E+02 3.75760E+01 0.00000E+00
 -1      2944 1.11388E+02 3.85528E+01 0.00000E+00
 -1      2945 9.09300E+00 3.15875E+01 0.00000E+00
 -1      2946 9.09300E+00 3.30625E+01 0.00000E+00
 -1      2947 2.61240E+01 8.68250E+00 0.00000E+00
 -1      2948 2.46240E+01 8.68250E+00 0.00000E+00
 -1      2949 2.38740E+01 9.98150E+00 0.00000E+00
 -1      2950 2.68740E+01 9.98150E+00 0.00000E+00
 -1      2951 8.88383E+01 3.26357E+01 0.00000E+00
 -1      2952 8.86753E+01 3.13577E+01 0.00000E+00
 -1      2953 7.48818E+00 3.88019E+01 0.00000E+00
 -1      2954 1.01118E+02 2.07938E+01 0.00000E+00
 -1      2955 1.02331E+02 2.12338E+01 0.00000E+00
 -1      2956 1.03118E+02 2.05924E+01 0.00000E+00
 -1      2957 9.21170E+01 4.14069E+01 0.00000E+00
 -1      2958 1.03920E+01 2.49750E+01 0.00000E+00
 -1      2959 9.09300E+00 2.57000E+01 0.00000E+00
 -1      2960 9.09300E+00 2.71750E+01 0.00000E+00
 -1      2961 9.00375E+00 8.96981E+00 0.00000E+00
 -1      2962 1.05554E+02 2.14054E+01 0.00000E+00
 -1      2963 1.39407E+02 1.25250E+01 0.00000E+00
 -1      2964 8.89495E+01 3.99656E+01 0.00000E+00
 -1      2965 9.90406E+01 1.97430E+01 0.00000E+00
 -1      2966 1.00079E+02 2.02684E+01 0.00000E+00
 -1      2967 1.00866E+02 1.96270E+01 0.00000E+00
 -1      2968 1.10884E+02 3.94435E+01 0.00000E+00
 -1      2969 8.83557E+01 3.34321E+01 0.00000E+00
 -1      2970 1.39608E+02 2.20750E+01 0.00000E+00
 -1      2971 9.09300E+00 3.45313E+01 0.00000E+00
 -1      2972 9.09300E+00 3.60000E+01 0.00000E+00
 -1      2973 1.03920E+01 3.37938E+01 0.00000E+00
 -1      2974 8.78718E+00 3.80644E+01 0.00000E+00
 -1      2975 1.12967E+02 2.90436E+01 0.00000E+00
 -1      2976 1.13765E+02 2.96711E+01 0.00000E+00
 -1      2977 1.13605E+02 2.80729E+01 0.00000E+00
 -1      2978 1.11868E+02 2.64121E+01 0.00000E+00
 -1      2979 1.13648E+02 3.18738E+01 0.00000E+00
 -1      2980 1.10094E+02 2.44808E+01 0.00000E+00
 -1      2981 1.41014E+02 3.83187E+01 0.00000E+00
 -1      2982 1.41027E+02 3.70810E+01 0.00000E+00
 -1      2983 1.39728E+02 3.63435E+01 0.00000E+00
 -1      2984 1.39969E+02 3.84306E+01 0.00000E+00
 -1      2985 1.48740E+01 9.98151E+00 0.00000E+00
 -1      2986 1.41240E+01 8.68251E+00 0.00000E+00
 -1      2987 1.14575E+02 3.39267E+01 0.00000E+00
 -1      2988 1.13589E+02 3.44833E+01 0.00000E+00
 -1      2989 1.13995E+02 3.53041E+01 0.00000E+00
 -1      2990 1.30515E+01 8.34733E+00 0.00000E+00
 -1      2991 9.04069E+01 2.50104E+01 0.00000E+00
 -1      2992 9.04229E+01 2.39720E+01 0.00000E+00
 -1      2993 8.93240E+01 2.50525E+01 0.00000E+00
 -1      2994 9.46381E+01 2.22151E+01 0.00000E+00
 -1      2995 9.50995E+01 2.14470E+01 0.00000E+00
 -1      2996 9.36767E+01 2.18224E+01 0.00000E+00
 -1      2997 1.03027E+01 9.70731E+00 0.00000E+00
 -1      2998 1.08018E+02 2.26806E+01 0.00000E+00
 -1      2999 9.71571E+01 2.11121E+01 0.00000E+00
 -1      3000 9.09300E+00 2.86437E+01 0.00000E+00
 -1      3001 9.09300E+00 3.01187E+01 0.00000E+00
 -1      3002 1.03920E+01 3.08563E+01 0.00000E+00
 -1      3003 1.03920E+01 2.79188E+01 0.00000E+00
 -1      3004 8.91007E+01 3.61643E+01 0.00000E+00
 -1      3005 8.84326E+01 3.56413E+01 0.00000E+00
 -1      3006 8.86449E+01 3.70574E+01 0.00000E+00
 -1      3007 8.73958E+01 2.80058E+01 0.00000E+00
 -1      3008 8.85089E+01 2.75668E+01 0.00000E+00
 -1      3009 8.81948E+01 2.65298E+01 0.00000E+00
 -1      3010 1.12695E+02 3.71243E+01 0.00000E+00
 -1      3011 1.11877E+02 3.92787E+01 0.00000E+00
 -1      3012 1.16910E+01 1.24625E+01 0.00000E+00
 -1      3013 1.16910E+01 1.39375E+01 0.00000E+00
 -1      3014 1.14712E+01 7.20138E+00 0.00000E+00
 -1      3015 1.05218E+02 2.03186E+01 0.00000E+00
 -1      3016 1.06440E+02 2.06916E+01 0.00000E+00
 -1      3017 9.13525E+01 2.28541E+01 0.00000E+00
 -1      3018 9.22073E+01 2.21844E+01 0.00000E+00
 -1      3019 1.89000E+01 3.83090E+01 0.00000E+00
 -1      3020 2.04000E+01 3.83090E+01 0.00000E+00
 -1      3021 2.19000E+01 3.83090E+01 0.00000E+00
 -1      3022 2.34000E+01 3.83090E+01 0.00000E+00
 -1      3023 2.11500E+01 3.70100E+01 0.00000E+00
 -1      3024 2.49000E+01 3.83090E+01 0.00000E+00
 -1      3025 2.64000E+01 3.83090E+01 0.00000E+00
 -1      3026 2.41500E+01 3.70100E+01 0.00000E+00
 -1      3027 2.79000E+01 3.83090E+01 0.00000E+00
 -1      3028 2.94000E+01 3.83090E+01 0.00000E+00
 -1      3029 2.71500E+01 3.70100E+01 0.00000E+00
 -1      3030 3.09000E+01 3.83090E+01 0.00000E+00
 -1      3031 3.24000E+01 3.83090E+01 0.00000E+00
 -1      3032 3.01500E+01 3.70100E+01 0.00000E+00
 -1      3033 3.39000E+01 3.83090E+01 0.00000E+00
 -1      3034 3.54000E+01 3.83090E+01 0.00000E+00
 -1      3035 3.31500E+01 3.70100E+01 0.00000E+00
 -1      3036 3.69000E+01 3.83090E+01 0.00000E+00
 -1      3037 3.84000E+01 3.83090E+01 0.00000E+00
 -1      3038 3.61500E+01 3.70100E+01 0.00000E+00
 -1      3039 3.99000E+01 3.83090E+01 0.00000E+00
 -1      3040 4.14000E+01 3.83090E+01 0.00000E+00
 -1      3041 3.91500E+01 3.70100E+01 0.00000E+00
 -1      3042 4.29000E+01 3.83090E+01 0.00000E+00
 -1      3043 4.44000E+01 3.83090E+01 0.00000E+00
 -1      3044 4.21500E+01 3.70100E+01 0.00000E+00
 -1      3045 4.59000E+01 3.83090E+01 0.00000E+00
 -1      3046 4.74000E+01 3.83090E+01 0.00000E+00
 -1      3047 4.51500E+01 3.70100E+01 0.00000E+00
 -1      3048 4.89750E+01 3.83090E+01 0.00000E+00
 -1      3049 5.05500E+01 3.83090E+01 0.00000E+00
 -1      3050 4.82250E+01 3.70100E+01 0.00000E+00
 -1      3051 5.20500E+01 3.83090E+01 0.00000E+00
 -1      3052 5.35500E+01 3.83090E+01 0.00000E+00
 -1      3053 5.13000E+01 3.70100E+01 0.00000E+00
 -1      3054 5.50500E+01 3.83090E+01 0.00000E+00
 -1      3055 5.65500E+01 3.83090E+01 0.00000E+00
 -1      3056 5.43000E+01 3.70100E+01 0.00000E+00
 -1      3057 5.80500E+01 3.83090E+01 0.00000E+00
 -1      3058 5.95500E+01 3.83090E+01 0.00000E+00
 -1      3059 5.73000E+01 3.70100E+01 0.00000E+00
 -1      3060 6.10500E+01 3.83090E+01 0.00000E+00
 -1      3061 6.25500E+01 3.83090E+01 0.00000E+00
 -1      3062 6.03000E+01 3.70100E+01 0.00000E+00
 -1      3063 6.40500E+01 3.83090E+01 0.00000E+00
 -1      3064 6.55500E+01 3.83090E+01 0.00000E+00
 -1      3065 6.33000E+01 3.70100E+01 0.00000E+00
 -1      3066 6.70500E+01 3.83090E+01 0.00000E+00
 -1      3067 6.85500E+01 3.83090E+01 0.00000E+00
 -1      3068 6.63000E+01 3.70100E+01 0.00000E+00
 -1      3069 7.00500E+01 3.83090E+01 0.00000E+00
 -1      3070 7.15500E+01 3.83090E+01 0.00000E+00
 -1      3071 6.93000E+01 3.70100E+01 0.00000E+00
 -1      3072 7.30500E+01 3.83090E+01 0.00000E+00
 -1      3073 7.45500E+01 3.83090E+01 0.00000E+00
 -1      3074 7.23000E+01 3.70100E+01 0.00000E+00
 -1      3075 7.60500E+01 3.83090E+01 0.00000E+00
 -1      3076 7.75500E+01 3.83090E+01 0.00000E+00
 -1      3077 7.53000E+01 3.70100E+01 0.00000E+00
 -1      3078 7.90500E+01 3.83090E+01 0.00000E+00
 -1      3079 8.05500E+01 3.83090E+01 0.00000E+00
 -1      3080 7.83000E+01 3.70100E+01 0.00000E+00
 -1      3081 8.20500E+01 3.83090E+01 0.00000E+00
 -1      3082 8.35500E+01 3.83090E+01 0.00000E+00
 -1      3083 8.13000E+01 3.70100E+01 0.00000E+00
 -1      3084 8.89682E+01 3.90797E+01 0.00000E+00
 -1      3085 1.02791E+02 1.94386E+01 0.00000E+00
 -1      3086 1.04004E+02 1.98786E+01 0.00000E+00
 -1      3087 1.04890E+02 1.91647E+01 0.00000E+00
 -1      3088 8.77665E+01 3.05793E+01 0.00000E+00
 -1      3089 1.17750E+02 3.84216E+01 0.00000E+00
 -1      3090 1.19250E+02 3.84216E+01 0.00000E+00
 -1      3091 1.20750E+02 3.84216E+01 0.00000E+00
 -1      3092 1.22250E+02 3.84216E+01 0.00000E+00
 -1      3093 1.20000E+02 3.71451E+01 0.00000E+00
 -1      3094 1.23750E+02 3.84216E+01 0.00000E+00
 -1      3095 1.25250E+02 3.84216E+01 0.00000E+00
 -1      3096 1.23000E+02 3.71451E+01 0.00000E+00
 -1      3097 1.26750E+02 3.84216E+01 0.00000E+00
 -1      3098 1.28250E+02 3.84216E+01 0.00000E+00
 -1      3099 1.26000E+02 3.71451E+01 0.00000E+00
 -1      3100 1.29750E+02 3.84216E+01 0.00000E+00
 -1      3101 1.31250E+02 3.84216E+01 0.00000E+00
 -1      3102 1.29000E+02 3.71451E+01 0.00000E+00
 -1      3103 1.32750E+02 3.84216E+01 0.00000E+00
 -1      3104 1.34250E+02 3.84216E+01 0.00000E+00
 -1      3105 1.32000E+02 3.71451E+01 0.00000E+00
 -1      3106 1.35750E+02 3.84216E+01 0.00000E+00
 -1      3107 1.37250E+02 3.84216E+01 0.00000E+00
 -1      3108 1.35000E+02 3.71451E+01 0.00000E+00
 -1      3109 2.16240E+01 1.12805E+01 0.00000E+00
 -1      3110 2.01240E+01 1.12805E+01 0.00000E+00
 -1      3111 1.86240E+01 1.12805E+01 0.00000E+00
 -1      3112 1.71240E+01 1.12805E+01 0.00000E+00
 -1      3113 1.93740E+01 1.25795E+01 0.00000E+00
 -1      3114 3.36240E+01 1.12805E+01 0.00000E+00
 -1      3115 3.21240E+01 1.12805E+01 0.00000E+00
 -1      3116 3.06240E+01 1.12805E+01 0.00000E+00
 -1      3117 2.91240E+01 1.12805E+01 0.00000E+00
 -1      3118 3.13740E+01 1.25795E+01 0.00000E+00
 -1      3119 3.96240E+01 1.12805E+01 0.00000E+00
 -1      3120 3.81240E+01 1.12805E+01 0.00000E+00
 -1      3121 4.26240E+01 1.12805E+01 0.00000E+00
 -1      3122 4.11240E+01 1.12805E+01 0.00000E+00
 -1      3123 4.03740E+01 1.25795E+01 0.00000E+00
 -1      3124 4.56240E+01 1.12805E+01 0.00000E+00
 -1      3125 4.41240E+01 1.12805E+01 0.00000E+00
 -1      3126 4.33740E+01 1.25795E+01 0.00000E+00
 -1      3127 4.86240E+01 1.12805E+01 0.00000E+00
 -1      3128 4.71240E+01 1.12805E+01 0.00000E+00
 -1      3129 4.63740E+01 1.25795E+01 0.00000E+00
 -1      3130 5.16240E+01 1.12805E+01 0.00000E+00
 -1      3131 5.01240E+01 1.12805E+01 0.00000E+00
 -1      3132 4.93740E+01 1.25795E+01 0.00000E+00
 -1      3133 5.46240E+01 1.12805E+01 0.00000E+00
 -1      3134 5.31240E+01 1.12805E+01 0.00000E+00
 -1      3135 5.23740E+01 1.25795E+01 0.00000E+00
 -1      3136 5.76240E+01 1.12805E+01 0.00000E+00
 -1      3137 5.61240E+01 1.12805E+01 0.00000E+00
 -1      3138 5.53740E+01 1.25795E+01 0.00000E+00
 -1      3139 6.06240E+01 1.12805E+01 0.00000E+00
 -1      3140 5.91240E+01 1.12805E+01 0.00000E+00
 -1      3141 5.83740E+01 1.25795E+01 0.00000E+00
 -1      3142 6.36240E+01 1.12805E+01 0.00000E+00
 -1      3143 6.21240E+01 1.12805E+01 0.00000E+00
 -1      3144 6.13740E+01 1.25795E+01 0.00000E+00
 -1      3145 6.66240E+01 1.12805E+01 0.00000E+00
 -1      3146 6.51240E+01 1.12805E+01 0.00000E+00
 -1      3147 6.43740E+01 1.25795E+01 0.00000E+00
 -1      3148 6.96240E+01 1.12805E+01 0.00000E+00
 -1      3149 6.81240E+01 1.12805E+01 0.00000E+00
 -1      3150 6.73740E+01 1.25795E+01 0.00000E+00
 -1      3151 7.26240E+01 1.12805E+01 0.00000E+00
 -1      3152 7.11240E+01 1.12805E+01 0.00000E+00
 -1      3153 7.03740E+01 1.25795E+01 0.00000E+00
 -1      3154 7.56240E+01 1.12805E+01 0.00000E+00
 -1      3155 7.41240E+01 1.12805E+01 0.00000E+00
 -1      3156 7.33740E+01 1.25795E+01 0.00000E+00
 -1      3157 7.86240E+01 1.12805E+01 0.00000E+00
 -1      3158 7.71240E+01 1.12805E+01 0.00000E+00
 -1      3159 7.63740E+01 1.25795E+01 0.00000E+00
 -1      3160 8.16240E+01 1.12805E+01 0.00000E+00
 -1      3161 8.01240E+01 1.12805E+01 0.00000E+00
 -1      3162 7.93740E+01 1.25795E+01 0.00000E+00
 -1      3163 8.46240E+01 1.12805E+01 0.00000E+00
 -1      3164 8.31240E+01 1.12805E+01 0.00000E+00
 -1      3165 8.23740E+01 1.25795E+01 0.00000E+00
 -1      3166 8.76240E+01 1.12805E+01 0.00000E+00
 -1      3167 8.61240E+01 1.12805E+01 0.00000E+00
 -1      3168 8.53740E+01 1.25795E+01 0.00000E+00
 -1      3169 9.06240E+01 1.12805E+01 0.00000E+00
 -1      3170 8.91240E+01 1.12805E+01 0.00000E+00
 -1      3171 8.83740E+01 1.25795E+01 0.00000E+00
 -1      3172 9.36240E+01 1.12805E+01 0.00000E+00
 -1      3173 9.21240E+01 1.12805E+01 0.00000E+00
 -1      3174 9.13740E+01 1.25795E+01 0.00000E+00
 -1      3175 9.66240E+01 1.12805E+01 0.00000E+00
 -1      3176 9.51240E+01 1.12805E+01 0.00000E+00
 -1      3177 9.43740E+01 1.25795E+01 0.00000E+00
 -1      3178 9.96240E+01 1.12805E+01 0.00000E+00
 -1      3179 9.81240E+01 1.12805E+01 0.00000E+00
 -1      3180 9.73740E+01 1.25795E+01 0.00000E+00
 -1      3181 1.02624E+02 1.12805E+01 0.00000E+00
 -1      3182 1.01124E+02 1.12805E+01 0.00000E+00
 -1      3183 1.00374E+02 1.25795E+01 0.00000E+00
 -1      3184 1.05624E+02 1.12805E+01 0.00000E+00
 -1      3185 1.04124E+02 1.12805E+01 0.00000E+00
 -1      3186 1.03374E+02 1.25795E+01 0.00000E+00
 -1      3187 1.08624E+02 1.12805E+01 0.00000E+00
 -1      3188 1.07124E+02 1.12805E+01 0.00000E+00
 -1      3189 1.06374E+02 1.25795E+01 0.00000E+00
 -1      3190 1.11624E+02 1.12805E+01 0.00000E+00
 -1      3191 1.10124E+02 1.12805E+01 0.00000E+00
 -1      3192 1.09374E+02 1.25795E+01 0.00000E+00
 -1      3193 1.14624E+02 1.12805E+01 0.00000E+00
 -1      3194 1.13124E+02 1.12805E+01 0.00000E+00
 -1      3195 1.12374E+02 1.25795E+01 0.00000E+00
 -1      3196 1.17624E+02 1.12805E+01 0.00000E+00
 -1      3197 1.16124E+02 1.12805E+01 0.00000E+00
 -1      3198 1.15374E+02 1.25795E+01 0.00000E+00
 -1      3199 1.20624E+02 1.12805E+01 0.00000E+00
 -1      3200 1.19124E+02 1.12805E+01 0.00000E+00
 -1      3201 1.18374E+02 1.25795E+01 0.00000E+00
 -1      3202 1.23624E+02 1.12805E+01 0.00000E+00
 -1      3203 1.22124E+02 1.12805E+01 0.00000E+00
 -1      3204 1.21374E+02 1.25795E+01 0.00000E+00
 -1      3205 1.26624E+02 1.12805E+01 0.00000E+00
 -1      3206 1.25124E+02 1.12805E+01 0.00000E+00
 -1      3207 1.24374E+02 1.25795E+01 0.00000E+00
 -1      3208 1.29624E+02 1.12805E+01 0.00000E+00
 -1      3209 1.28124E+02 1.12805E+01 0.00000E+00
 -1      3210 1.27374E+02 1.25795E+01 0.00000E+00
 -1      3211 1.32624E+02 1.12805E+01 0.00000E+00
 -1      3212 1.31124E+02 1.12805E+01 0.00000E+00
 -1      3213 1.30374E+02 1.25795E+01 0.00000E+00
 -1      3214 1.38309E+02 3.16125E+01 0.00000E+00
 -1      3215 1.38309E+02 3.01375E+01 0.00000E+00
 -1      3216 1.13191E+02 3.90430E+01 0.00000E+00
 -1      3217 1.38309E+02 3.45625E+01 0.00000E+00
 -1      3218 1.38309E+02 3.30875E+01 0.00000E+00
 -1      3219 1.37010E+02 3.23500E+01 0.00000E+00
 -1      3220 1.38309E+02 2.86875E+01 0.00000E+00
 -1      3221 1.38309E+02 2.72375E+01 0.00000E+00
 -1      3222 1.37010E+02 2.94250E+01 0.00000E+00
 -1      3223 1.14285E+02 3.09032E+01 0.00000E+00
 -1      3224 1.14806E+02 3.21352E+01 0.00000E+00
 -1      3225 1.14923E+02 2.99325E+01 0.00000E+00
 -1      3226 1.17938E+01 8.83558E+00 0.00000E+00
 -1      3227 1.38309E+02 2.57625E+01 0.00000E+00
 -1      3228 1.38309E+02 2.42875E+01 0.00000E+00
 -1      3229 1.37010E+02 2.65000E+01 0.00000E+00
 -1      3230 8.83065E+01 3.85942E+01 0.00000E+00
 -1      3231 1.18830E+01 1.08533E+01 0.00000E+00
 -1      3232 8.78660E+01 3.43962E+01 0.00000E+00
 -1      3233 8.73333E+01 3.30800E+01 0.00000E+00
 -1      3234 1.10488E+02 2.32766E+01 0.00000E+00
 -1      3235 1.11324E+02 2.41748E+01 0.00000E+00
 -1      3236 3.66240E+01 1.12805E+01 0.00000E+00
 -1      3237 3.51240E+01 1.12805E+01 0.00000E+00
 -1      3238 3.43740E+01 1.25795E+01 0.00000E+00
 -1      3239 3.73740E+01 1.25795E+01 0.00000E+00
 -1      3240 1.14720E+02 3.87323E+01 0.00000E+00
 -1      3241 1.16220E+02 3.87323E+01 0.00000E+00
 -1      3242 1.16970E+02 3.74558E+01 0.00000E+00
 -1      3243 1.13911E+02 3.80773E+01 0.00000E+00
 -1      3244 9.60883E+01 2.06916E+01 0.00000E+00
 -1      3245 9.71845E+01 1.99640E+01 0.00000E+00
 -1      3246 1.16910E+01 2.12875E+01 0.00000E+00
 -1      3247 1.16910E+01 2.27625E+01 0.00000E+00
 -1      3248 1.38150E+02 1.46391E+01 0.00000E+00
 -1      3249 1.37949E+02 1.24391E+01 0.00000E+00
 -1      3250 1.36491E+02 1.23532E+01 0.00000E+00
 -1      3251 1.14225E+02 3.68136E+01 0.00000E+00
 -1      3252 1.59000E+01 3.83090E+01 0.00000E+00
 -1      3253 1.74000E+01 3.83090E+01 0.00000E+00
 -1      3254 1.81500E+01 3.70100E+01 0.00000E+00
 -1      3255 1.31820E+01 1.15908E+01 0.00000E+00
 -1      3256 1.00862E+01 3.73269E+01 0.00000E+00
 -1      3257 1.08000E+02 2.14004E+01 0.00000E+00
 -1      3258 1.09241E+02 2.23025E+01 0.00000E+00
 -1      3259 1.12263E+02 2.52080E+01 0.00000E+00
 -1      3260 1.13202E+02 2.62411E+01 0.00000E+00
 -1      3261 1.12657E+02 2.40038E+01 0.00000E+00
 -1      3262 1.38309E+02 2.28125E+01 0.00000E+00
 -1      3263 1.38309E+02 2.13375E+01 0.00000E+00
 -1      3264 1.37010E+02 2.35500E+01 0.00000E+00
 -1      3265 8.68540E+01 3.13822E+01 0.00000E+00
 -1      3266 8.67975E+01 2.98457E+01 0.00000E+00
 -1      3267 8.55709E+01 2.96115E+01 0.00000E+00
 -1      3268 8.64833E+01 2.88086E+01 0.00000E+00
 -1      3269 8.61692E+01 2.77715E+01 0.00000E+00
 -1      3270 9.16607E+01 2.10102E+01 0.00000E+00
 -1      3271 9.26687E+01 2.14163E+01 0.00000E+00
 -1      3272 9.31301E+01 2.06482E+01 0.00000E+00
 -1      3273 1.16910E+01 2.42375E+01 0.00000E+00
 -1      3274 1.16910E+01 2.57125E+01 0.00000E+00
 -1      3275 1.29900E+01 2.35000E+01 0.00000E+00
 -1      3276 8.53884E+01 3.67722E+01 0.00000E+00
 -1      3277 8.61384E+01 3.80712E+01 0.00000E+00
 -1      3278 8.76384E+01 3.80712E+01 0.00000E+00
 -1      3279 9.79719E+01 1.93226E+01 0.00000E+00
 -1      3280 9.87593E+01 1.86812E+01 0.00000E+00
 -1      3281 9.69032E+01 1.89021E+01 0.00000E+00
 -1      3282 1.01753E+02 1.89132E+01 0.00000E+00
 -1      3283 1.02639E+02 1.81993E+01 0.00000E+00
 -1      3284 1.00714E+02 1.83878E+01 0.00000E+00
 -1      3285 9.51270E+01 2.02989E+01 0.00000E+00
 -1      3286 9.02697E+01 2.28962E+01 0.00000E+00
 -1      3287 2.31240E+01 1.12805E+01 0.00000E+00
 -1      3288 2.23740E+01 1.25795E+01 0.00000E+00
 -1      3289 2.46240E+01 1.12805E+01 0.00000E+00
 -1      3290 1.38924E+02 3.85426E+01 0.00000E+00
 -1      3291 2.83740E+01 1.25795E+01 0.00000E+00
 -1      3292 2.76240E+01 1.12805E+01 0.00000E+00
 -1      3293 2.61240E+01 1.12805E+01 0.00000E+00
 -1      3294 1.15850E+02 3.19854E+01 0.00000E+00
 -1      3295 1.15212E+02 3.29561E+01 0.00000E+00
 -1      3296 1.15618E+02 3.37769E+01 0.00000E+00
 -1      3297 1.35286E+02 1.18598E+01 0.00000E+00
 -1      3298 1.33829E+02 1.17739E+01 0.00000E+00
 -1      3299 1.33079E+02 1.30729E+01 0.00000E+00
 -1      3300 1.35488E+02 1.40598E+01 0.00000E+00
 -1      3301 1.15211E+02 3.62571E+01 0.00000E+00
 -1      3302 1.16910E+01 3.30594E+01 0.00000E+00
 -1      3303 1.16910E+01 3.45281E+01 0.00000E+00
 -1      3304 1.13999E+02 2.68687E+01 0.00000E+00
 -1      3305 1.14797E+02 2.74963E+01 0.00000E+00
 -1      3306 1.14394E+02 2.56645E+01 0.00000E+00
 -1      3307 1.38054E+02 3.62226E+01 0.00000E+00
 -1      3308 1.36755E+02 3.54851E+01 0.00000E+00
 -1      3309 1.38150E+02 1.75766E+01 0.00000E+00
 -1      3310 1.38150E+02 1.61079E+01 0.00000E+00
 -1      3311 1.36692E+02 1.60220E+01 0.00000E+00
 -1      3312 1.56240E+01 1.12805E+01 0.00000E+00
 -1      3313 1.41241E+01 1.12805E+01 0.00000E+00
 -1      3314 8.82109E+01 2.54914E+01 0.00000E+00
 -1      3315 8.82270E+01 2.44530E+01 0.00000E+00
 -1      3316 8.70977E+01 2.59303E+01 0.00000E+00
 -1      3317 1.16910E+01 1.54063E+01 0.00000E+00
 -1      3318 1.16910E+01 1.68750E+01 0.00000E+00
 -1      3319 1.29900E+01 1.46687E+01 0.00000E+00
 -1      3320 1.10471E+02 2.19964E+01 0.00000E+00
 -1      3321 1.07664E+02 2.03135E+01 0.00000E+00
 -1      3322 8.74102E+01 3.52892E+01 0.00000E+00
 -1      3323 1.14286E+01 3.73811E+01 0.00000E+00
 -1      3324 1.38230E+02 2.01914E+01 0.00000E+00
 -1      3325 1.38230E+02 1.87227E+01 0.00000E+00
 -1      3326 1.36771E+02 1.86368E+01 0.00000E+00
 -1      3327 1.36930E+02 2.09289E+01 0.00000E+00
 -1      3328 1.39320E+01 1.28898E+01 0.00000E+00
 -1      3329 1.32152E+01 3.82007E+01 0.00000E+00
 -1      3330 1.45576E+01 3.82548E+01 0.00000E+00
 -1      3331 1.53076E+01 3.69558E+01 0.00000E+00
 -1      3332 1.16910E+01 1.98188E+01 0.00000E+00
 -1      3333 1.29900E+01 2.05562E+01 0.00000E+00
 -1      3334 1.16910E+01 1.83500E+01 0.00000E+00
 -1      3335 1.38174E+02 3.72661E+01 0.00000E+00
 -1      3336 1.16910E+01 3.01219E+01 0.00000E+00
 -1      3337 1.16910E+01 3.15906E+01 0.00000E+00
 -1      3338 1.29900E+01 3.23250E+01 0.00000E+00
 -1      3339 8.58746E+01 3.33105E+01 0.00000E+00
 -1      3340 8.63643E+01 3.23463E+01 0.00000E+00
 -1      3341 8.53953E+01 3.16127E+01 0.00000E+00
 -1      3342 1.63740E+01 1.25795E+01 0.00000E+00
 -1      3343 4.71240E+01 1.38785E+01 0.00000E+00
 -1      3344 4.56240E+01 1.38785E+01 0.00000E+00
 -1      3345 2.34000E+01 3.57110E+01 0.00000E+00
 -1      3346 2.49000E+01 3.57110E+01 0.00000E+00
 -1      3347 2.64000E+01 3.57110E+01 0.00000E+00
 -1      3348 2.79000E+01 3.57110E+01 0.00000E+00
 -1      3349 2.56500E+01 3.44120E+01 0.00000E+00
 -1      3350 2.94000E+01 3.57110E+01 0.00000E+00
 -1      3351 3.09000E+01 3.57110E+01 0.00000E+00
 -1      3352 2.86500E+01 3.44120E+01 0.00000E+00
 -1      3353 3.24000E+01 3.57110E+01 0.00000E+00
 -1      3354 3.39000E+01 3.57110E+01 0.00000E+00
 -1      3355 3.16500E+01 3.44120E+01 0.00000E+00
 -1      3356 3.54000E+01 3.57110E+01 0.00000E+00
 -1      3357 3.69000E+01 3.57110E+01 0.00000E+00
 -1      3358 3.46500E+01 3.44120E+01 0.00000E+00
 -1      3359 3.84000E+01 3.57110E+01 0.00000E+00
 -1      3360 3.99000E+01 3.57110E+01 0.00000E+00
 -1      3361 3.76500E+01 3.44120E+01 0.00000E+00
 -1      3362 4.14000E+01 3.57110E+01 0.00000E+00
 -1      3363 4.29000E+01 3.57110E+01 0.00000E+00
 -1      3364 4.06500E+01 3.44120E+01 0.00000E+00
 -1      3365 4.44000E+01 3.57110E+01 0.00000E+00
 -1      3366 4.59000E+01 3.57110E+01 0.00000E+00
 -1      3367 4.36500E+01 3.44120E+01 0.00000E+00
 -1      3368 4.74750E+01 3.57110E+01 0.00000E+00
 -1      3369 4.90500E+01 3.57110E+01 0.00000E+00
 -1      3370 4.67250E+01 3.44120E+01 0.00000E+00
 -1      3371 5.05500E+01 3.57110E+01 0.00000E+00
 -1      3372 5.20500E+01 3.57110E+01 0.00000E+00
 -1      3373 4.98000E+01 3.44120E+01 0.00000E+00
 -1      3374 5.35500E+01 3.57110E+01 0.00000E+00
 -1      3375 5.50500E+01 3.57110E+01 0.00000E+00
 -1      3376 5.28000E+01 3.44120E+01 0.00000E+00
 -1      3377 5.65500E+01 3.57110E+01 0.00000E+00
 -1      3378 5.80500E+01 3.57110E+01 0.00000E+00
 -1      3379 5.58000E+01 3.44120E+01 0.00000E+00
 -1      3380 5.95500E+01 3.57110E+01 0.00000E+00
 -1      3381 6.10500E+01 3.57110E+01 0.00000E+00
 -1      3382 5.88000E+01 3.44120E+01 0.00000E+00
 -1      3383 6.25500E+01 3.57110E+01 0.00000E+00
 -1      3384 6.40500E+01 3.57110E+01 0.00000E+00
 -1      3385 6.18000E+01 3.44120E+01 0.00000E+00
 -1      3386 6.55500E+01 3.57110E+01 0.00000E+00
 -1      3387 6.70500E+01 3.57110E+01 0.00000E+00
 -1      3388 6.48000E+01 3.44120E+01 0.00000E+00
 -1      3389 6.85500E+01 3.57110E+01 0.00000E+00
 -1      3390 7.00500E+01 3.57110E+01 0.00000E+00
 -1      3391 6.78000E+01 3.44120E+01 0.00000E+00
 -1      3392 7.15500E+01 3.57110E+01 0.00000E+00
 -1      3393 7.30500E+01 3.57110E+01 0.00000E+00
 -1      3394 7.08000E+01 3.44120E+01 0.00000E+00
 -1      3395 7.45500E+01 3.57110E+01 0.00000E+00
 -1      3396 7.60500E+01 3.57110E+01 0.00000E+00
 -1      3397 7.38000E+01 3.44120E+01 0.00000E+00
 -1      3398 7.75500E+01 3.57110E+01 0.00000E+00
 -1      3399 7.90500E+01 3.57110E+01 0.00000E+00
 -1      3400 7.68000E+01 3.44120E+01 0.00000E+00
 -1      3401 8.05500E+01 3.57110E+01 0.00000E+00
 -1      3402 8.20500E+01 3.57110E+01 0.00000E+00
 -1      3403 7.98000E+01 3.44120E+01 0.00000E+00
 -1      3404 3.21240E+01 1.38785E+01 0.00000E+00
 -1      3405 3.06240E+01 1.38785E+01 0.00000E+00
 -1      3406 1.19250E+02 3.58461E+01 0.00000E+00
 -1      3407 1.20750E+02 3.58461E+01 0.00000E+00
 -1      3408 1.16466E+02 3.62070E+01 0.00000E+00
 -1      3409 1.17995E+02 3.58962E+01 0.00000E+00
 -1      3410 1.18745E+02 3.45972E+01 0.00000E+00
 -1      3411 1.16235E+02 3.46975E+01 0.00000E+00
 -1      3412 1.22250E+02 3.58461E+01 0.00000E+00
 -1      3413 1.23750E+02 3.58461E+01 0.00000E+00
 -1      3414 1.21500E+02 3.45471E+01 0.00000E+00
 -1      3415 1.25250E+02 3.58461E+01 0.00000E+00
 -1      3416 1.26750E+02 3.58461E+01 0.00000E+00
 -1      3417 1.24500E+02 3.45471E+01 0.00000E+00
 -1      3418 1.28250E+02 3.58461E+01 0.00000E+00
 -1      3419 1.29750E+02 3.58461E+01 0.00000E+00
 -1      3420 1.27500E+02 3.45471E+01 0.00000E+00
 -1      3421 1.31250E+02 3.58461E+01 0.00000E+00
 -1      3422 1.32750E+02 3.58461E+01 0.00000E+00
 -1      3423 1.30500E+02 3.45471E+01 0.00000E+00
 -1      3424 1.34003E+02 3.56656E+01 0.00000E+00
 -1      3425 1.35503E+02 3.56656E+01 0.00000E+00
 -1      3426 1.35758E+02 3.40055E+01 0.00000E+00
 -1      3427 1.33253E+02 3.43666E+01 0.00000E+00
 -1      3428 1.74000E+01 3.57110E+01 0.00000E+00
 -1      3429 1.89000E+01 3.57110E+01 0.00000E+00
 -1      3430 4.41240E+01 1.38785E+01 0.00000E+00
 -1      3431 4.26240E+01 1.38785E+01 0.00000E+00
 -1      3432 4.48740E+01 1.51775E+01 0.00000E+00
 -1      3433 4.11240E+01 1.38785E+01 0.00000E+00
 -1      3434 3.96240E+01 1.38785E+01 0.00000E+00
 -1      3435 4.18740E+01 1.51775E+01 0.00000E+00
 -1      3436 5.01240E+01 1.38785E+01 0.00000E+00
 -1      3437 4.86240E+01 1.38785E+01 0.00000E+00
 -1      3438 4.78740E+01 1.51775E+01 0.00000E+00
 -1      3439 5.31240E+01 1.38785E+01 0.00000E+00
 -1      3440 5.16240E+01 1.38785E+01 0.00000E+00
 -1      3441 5.08740E+01 1.51775E+01 0.00000E+00
 -1      3442 5.61240E+01 1.38785E+01 0.00000E+00
 -1      3443 5.46240E+01 1.38785E+01 0.00000E+00
 -1      3444 5.38740E+01 1.51775E+01 0.00000E+00
 -1      3445 5.91240E+01 1.38785E+01 0.00000E+00
 -1      3446 5.76240E+01 1.38785E+01 0.00000E+00
 -1      3447 5.68740E+01 1.51775E+01 0.00000E+00
 -1      3448 6.21240E+01 1.38785E+01 0.00000E+00
 -1      3449 6.06240E+01 1.38785E+01 0.00000E+00
 -1      3450 5.98740E+01 1.51775E+01 0.00000E+00
 -1      3451 6.51240E+01 1.38785E+01 0.00000E+00
 -1      3452 6.36240E+01 1.38785E+01 0.00000E+00
 -1      3453 6.28740E+01 1.51775E+01 0.00000E+00
 -1      3454 6.81240E+01 1.38785E+01 0.00000E+00
 -1      3455 6.66240E+01 1.38785E+01 0.00000E+00
 -1      3456 6.58740E+01 1.51775E+01 0.00000E+00
 -1      3457 7.11240E+01 1.38785E+01 0.00000E+00
 -1      3458 6.96240E+01 1.38785E+01 0.00000E+00
 -1      3459 6.88740E+01 1.51775E+01 0.00000E+00
 -1      3460 7.41240E+01 1.38785E+01 0.00000E+00
 -1      3461 7.26240E+01 1.38785E+01 0.00000E+00
 -1      3462 7.18740E+01 1.51775E+01 0.00000E+00
 -1      3463 7.71240E+01 1.38785E+01 0.00000E+00
 -1      3464 7.56240E+01 1.38785E+01 0.00000E+00
 -1      3465 7.48740E+01 1.51775E+01 0.00000E+00
 -1      3466 8.01240E+01 1.38785E+01 0.00000E+00
 -1      3467 7.86240E+01 1.38785E+01 0.00000E+00
 -1      3468 7.78740E+01 1.51775E+01 0.00000E+00
 -1      3469 8.31240E+01 1.38785E+01 0.00000E+00
 -1      3470 8.16240E+01 1.38785E+01 0.00000E+00
 -1      3471 8.08740E+01 1.51775E+01 0.00000E+00
 -1      3472 8.61240E+01 1.38785E+01 0.00000E+00
 -1      3473 8.46240E+01 1.38785E+01 0.00000E+00
 -1      3474 8.38740E+01 1.51775E+01 0.00000E+00
 -1      3475 8.91240E+01 1.38785E+01 0.00000E+00
 -1      3476 8.76240E+01 1.38785E+01 0.00000E+00
 -1      3477 8.68740E+01 1.51775E+01 0.00000E+00
 -1      3478 9.21240E+01 1.38785E+01 0.00000E+00
 -1      3479 9.06240E+01 1.38785E+01 0.00000E+00
 -1      3480 8.98740E+01 1.51775E+01 0.00000E+00
 -1      3481 9.51240E+01 1.38785E+01 0.00000E+00
 -1      3482 9.36240E+01 1.38785E+01 0.00000E+00
 -1      3483 9.28740E+01 1.51775E+01 0.00000E+00
 -1      3484 9.81240E+01 1.38785E+01 0.00000E+00
 -1      3485 9.66240E+01 1.38785E+01 0.00000E+00
 -1      3486 9.58740E+01 1.51775E+01 0.00000E+00
 -1      3487 1.04124E+02 1.38785E+01 0.00000E+00
 -1      3488 1.02624E+02 1.38785E+01 0.00000E+00
 -1      3489 1.07124E+02 1.38785E+01 0.00000E+00
 -1      3490 1.05624E+02 1.38785E+01 0.00000E+00
 -1      3491 1.04874E+02 1.51775E+01 0.00000E+00
 -1      3492 1.10124E+02 1.38785E+01 0.00000E+00
 -1      3493 1.08624E+02 1.38785E+01 0.00000E+00
 -1      3494 1.07874E+02 1.51775E+01 0.00000E+00
 -1      3495 1.13124E+02 1.38785E+01 0.00000E+00
 -1      3496 1.11624E+02 1.38785E+01 0.00000E+00
 -1      3497 1.10874E+02 1.51775E+01 0.00000E+00
 -1      3498 1.16124E+02 1.38785E+01 0.00000E+00
 -1      3499 1.14624E+02 1.38785E+01 0.00000E+00
 -1      3500 1.13874E+02 1.51775E+01 0.00000E+00
 -1      3501 1.19124E+02 1.38785E+01 0.00000E+00
 -1      3502 1.17624E+02 1.38785E+01 0.00000E+00
 -1      3503 1.16874E+02 1.51775E+01 0.00000E+00
 -1      3504 1.22124E+02 1.38785E+01 0.00000E+00
 -1      3505 1.20624E+02 1.38785E+01 0.00000E+00
 -1      3506 1.19874E+02 1.51775E+01 0.00000E+00
 -1      3507 1.25124E+02 1.38785E+01 0.00000E+00
 -1      3508 1.23624E+02 1.38785E+01 0.00000E+00
 -1      3509 1.22874E+02 1.51775E+01 0.00000E+00
 -1      3510 1.28124E+02 1.38785E+01 0.00000E+00
 -1      3511 1.26624E+02 1.38785E+01 0.00000E+00
 -1      3512 1.25874E+02 1.51775E+01 0.00000E+00
 -1      3513 1.31124E+02 1.38785E+01 0.00000E+00
 -1      3514 1.29624E+02 1.38785E+01 0.00000E+00
 -1      3515 1.28874E+02 1.51775E+01 0.00000E+00
 -1      3516 9.41190E+01 1.98928E+01 0.00000E+00
 -1      3517 9.51079E+01 1.91374E+01 0.00000E+00
 -1      3518 9.31110E+01 1.94867E+01 0.00000E+00
 -1      3519 1.04690E+02 1.78235E+01 0.00000E+00
 -1      3520 1.05904E+02 1.82635E+01 0.00000E+00
 -1      3521 1.35711E+02 3.01500E+01 0.00000E+00
 -1      3522 1.35711E+02 2.87000E+01 0.00000E+00
 -1      3523 1.15530E+02 2.89499E+01 0.00000E+00
 -1      3524 1.16051E+02 3.01820E+01 0.00000E+00
 -1      3525 1.34776E+01 3.53477E+01 0.00000E+00
 -1      3526 1.21786E+01 3.60821E+01 0.00000E+00
 -1      3527 1.35711E+02 2.72250E+01 0.00000E+00
 -1      3528 1.35711E+02 2.57500E+01 0.00000E+00
 -1      3529 1.34412E+02 2.79500E+01 0.00000E+00
 -1      3530 2.01240E+01 1.38785E+01 0.00000E+00
 -1      3531 1.86240E+01 1.38785E+01 0.00000E+00
 -1      3532 8.88879E+01 2.26926E+01 0.00000E+00
 -1      3533 8.98175E+01 2.15747E+01 0.00000E+00
 -1      3534 1.48741E+01 1.40483E+01 0.00000E+00
 -1      3535 1.39320E+01 1.43585E+01 0.00000E+00
 -1      3536 1.39320E+01 1.58273E+01 0.00000E+00
 -1      3537 1.16910E+01 2.71844E+01 0.00000E+00
 -1      3538 1.16910E+01 2.86531E+01 0.00000E+00
 -1      3539 1.29900E+01 2.93875E+01 0.00000E+00
 -1      3540 2.04000E+01 3.57110E+01 0.00000E+00
 -1      3541 2.19000E+01 3.57110E+01 0.00000E+00
 -1      3542 2.26500E+01 3.44120E+01 0.00000E+00
 -1      3543 1.07463E+02 1.89722E+01 0.00000E+00
 -1      3544 1.09023E+02 1.96810E+01 0.00000E+00
 -1      3545 1.07263E+02 1.76310E+01 0.00000E+00
 -1      3546 1.13008E+02 2.27413E+01 0.00000E+00
 -1      3547 1.13947E+02 2.37745E+01 0.00000E+00
 -1      3548 1.35711E+02 2.42750E+01 0.00000E+00
 -1      3549 1.35711E+02 2.28000E+01 0.00000E+00
 -1      3550 1.34412E+02 2.50000E+01 0.00000E+00
 -1      3551 1.35734E+02 3.28153E+01 0.00000E+00
 -1      3552 1.35734E+02 3.13403E+01 0.00000E+00
 -1      3553 1.34435E+02 3.06153E+01 0.00000E+00
 -1      3554 1.34482E+02 3.29958E+01 0.00000E+00
 -1      3555 1.10581E+02 2.05693E+01 0.00000E+00
 -1      3556 1.11829E+02 2.15435E+01 0.00000E+00
 -1      3557 1.74990E+01 1.39634E+01 0.00000E+00
 -1      3558 1.59990E+01 1.39634E+01 0.00000E+00
 -1      3559 1.59990E+01 1.54321E+01 0.00000E+00
 -1      3560 1.82490E+01 1.52624E+01 0.00000E+00
 -1      3561 9.02789E+01 2.08066E+01 0.00000E+00
 -1      3562 9.07403E+01 2.00385E+01 0.00000E+00
 -1      3563 8.88970E+01 2.06030E+01 0.00000E+00
 -1      3564 8.49804E+01 2.73405E+01 0.00000E+00
 -1      3565 8.58929E+01 2.65376E+01 0.00000E+00
 -1      3566 1.42890E+01 2.27625E+01 0.00000E+00
 -1      3567 1.42890E+01 2.42375E+01 0.00000E+00
 -1      3568 2.98740E+01 1.51775E+01 0.00000E+00
 -1      3569 2.91240E+01 1.38785E+01 0.00000E+00
 -1      3570 2.76240E+01 1.38785E+01 0.00000E+00
 -1      3571 8.39851E+01 3.57034E+01 0.00000E+00
 -1      3572 8.65735E+01 3.54656E+01 0.00000E+00
 -1      3573 1.35488E+02 1.55286E+01 0.00000E+00
 -1      3574 1.34283E+02 1.50351E+01 0.00000E+00
 -1      3575 1.35488E+02 1.69973E+01 0.00000E+00
 -1      3576 8.32351E+01 3.44044E+01 0.00000E+00
 -1      3577 3.36240E+01 1.38785E+01 0.00000E+00
 -1      3578 3.28740E+01 1.51775E+01 0.00000E+00
 -1      3579 3.51240E+01 1.38785E+01 0.00000E+00
 -1      3580 9.58953E+01 1.84960E+01 0.00000E+00
 -1      3581 9.66826E+01 1.78546E+01 0.00000E+00
 -1      3582 9.48873E+01 1.80899E+01 0.00000E+00
 -1      3583 9.96454E+01 1.79673E+01 0.00000E+00
 -1      3584 1.00531E+02 1.72535E+01 0.00000E+00
 -1      3585 9.85767E+01 1.75469E+01 0.00000E+00
 -1      3586 1.96500E+01 3.44120E+01 0.00000E+00
 -1      3587 2.53740E+01 1.25795E+01 0.00000E+00
 -1      3588 1.16457E+02 3.10028E+01 0.00000E+00
 -1      3589 1.16863E+02 3.18237E+01 0.00000E+00
 -1      3590 1.17063E+02 3.00203E+01 0.00000E+00
 -1      3591 1.01124E+02 1.38785E+01 0.00000E+00
 -1      3592 9.96240E+01 1.38785E+01 0.00000E+00
 -1      3593 1.32329E+02 1.43719E+01 0.00000E+00
 -1      3594 1.14745E+02 2.44020E+01 0.00000E+00
 -1      3595 1.15542E+02 2.50296E+01 0.00000E+00
 -1      3596 1.15096E+02 2.31395E+01 0.00000E+00
 -1      3597 8.59090E+01 2.54992E+01 0.00000E+00
 -1      3598 1.15924E+02 2.77458E+01 0.00000E+00
 -1      3599 1.02487E+02 1.64257E+01 0.00000E+00
 -1      3600 1.03526E+02 1.69511E+01 0.00000E+00
 -1      3601 1.42890E+01 3.15906E+01 0.00000E+00
 -1      3602 1.42890E+01 3.30594E+01 0.00000E+00
 -1      3603 9.88740E+01 1.51775E+01 0.00000E+00
 -1      3604 8.66615E+01 2.35704E+01 0.00000E+00
 -1      3605 8.77747E+01 2.31315E+01 0.00000E+00
 -1      3606 8.73224E+01 2.18099E+01 0.00000E+00
 -1      3607 2.16240E+01 1.38785E+01 0.00000E+00
 -1      3608 2.08740E+01 1.51775E+01 0.00000E+00
 -1      3609 2.31240E+01 1.38785E+01 0.00000E+00
 -1      3610 1.29900E+01 2.64469E+01 0.00000E+00
 -1      3611 1.16873E+02 3.37268E+01 0.00000E+00
 -1      3612 3.81240E+01 1.38785E+01 0.00000E+00
 -1      3613 3.66240E+01 1.38785E+01 0.00000E+00
 -1      3614 3.58740E+01 1.51775E+01 0.00000E+00
 -1      3615 3.88740E+01 1.51775E+01 0.00000E+00
 -1      3616 8.60068E+01 3.42204E+01 0.00000E+00
 -1      3617 8.50379E+01 3.34868E+01 0.00000E+00
 -1      3618 1.35632E+02 2.16539E+01 0.00000E+00
 -1      3619 1.35552E+02 2.05079E+01 0.00000E+00
 -1      3620 1.34333E+02 2.23789E+01 0.00000E+00
 -1      3621 1.45545E+01 3.42306E+01 0.00000E+00
 -1      3622 1.50421E+01 3.57846E+01 0.00000E+00
 -1      3623 1.63845E+01 3.58387E+01 0.00000E+00
 -1      3624 1.58535E+01 3.34963E+01 0.00000E+00
 -1      3625 1.29900E+01 1.76125E+01 0.00000E+00
 -1      3626 1.10381E+02 1.92281E+01 0.00000E+00
 -1      3627 1.13119E+02 2.13142E+01 0.00000E+00
 -1      3628 8.40871E+01 3.15546E+01 0.00000E+00
 -1      3629 8.45768E+01 3.05905E+01 0.00000E+00
 -1      3630 1.42890E+01 1.98250E+01 0.00000E+00
 -1      3631 1.42890E+01 2.12938E+01 0.00000E+00
 -1      3632 1.55880E+01 2.20313E+01 0.00000E+00
 -1      3633 8.42627E+01 2.95534E+01 0.00000E+00
 -1      3634 1.71345E+01 3.45397E+01 0.00000E+00
 -1      3635 1.01874E+02 1.51775E+01 0.00000E+00
 -1      3636 8.39863E+01 2.83194E+01 0.00000E+00
 -1      3637 8.37100E+01 2.70855E+01 0.00000E+00
 -1      3638 8.29923E+01 2.92984E+01 0.00000E+00
 -1      3639 1.55880E+01 2.49719E+01 0.00000E+00
 -1      3640 1.42890E+01 2.57094E+01 0.00000E+00
 -1      3641 1.42890E+01 2.71812E+01 0.00000E+00
 -1      3642 2.79000E+01 3.31130E+01 0.00000E+00
 -1      3643 2.94000E+01 3.31130E+01 0.00000E+00
 -1      3644 3.09000E+01 3.31130E+01 0.00000E+00
 -1      3645 3.24000E+01 3.31130E+01 0.00000E+00
 -1      3646 3.01500E+01 3.18140E+01 0.00000E+00
 -1      3647 3.39000E+01 3.31130E+01 0.00000E+00
 -1      3648 3.54000E+01 3.31130E+01 0.00000E+00
 -1      3649 3.31500E+01 3.18140E+01 0.00000E+00
 -1      3650 3.69000E+01 3.31130E+01 0.00000E+00
 -1      3651 3.84000E+01 3.31130E+01 0.00000E+00
 -1      3652 3.61500E+01 3.18140E+01 0.00000E+00
 -1      3653 3.99000E+01 3.31130E+01 0.00000E+00
 -1      3654 4.14000E+01 3.31130E+01 0.00000E+00
 -1      3655 3.91500E+01 3.18140E+01 0.00000E+00
 -1      3656 4.29000E+01 3.31130E+01 0.00000E+00
 -1      3657 4.44000E+01 3.31130E+01 0.00000E+00
 -1      3658 4.21500E+01 3.18140E+01 0.00000E+00
 -1      3659 4.59750E+01 3.31130E+01 0.00000E+00
 -1      3660 4.75500E+01 3.31130E+01 0.00000E+00
 -1      3661 4.52250E+01 3.18140E+01 0.00000E+00
 -1      3662 4.90500E+01 3.31130E+01 0.00000E+00
 -1      3663 5.05500E+01 3.31130E+01 0.00000E+00
 -1      3664 4.83000E+01 3.18140E+01 0.00000E+00
 -1      3665 5.20500E+01 3.31130E+01 0.00000E+00
 -1      3666 5.35500E+01 3.31130E+01 0.00000E+00
 -1      3667 5.13000E+01 3.18140E+01 0.00000E+00
 -1      3668 5.50500E+01 3.31130E+01 0.00000E+00
 -1      3669 5.65500E+01 3.31130E+01 0.00000E+00
 -1      3670 5.43000E+01 3.18140E+01 0.00000E+00
 -1      3671 5.80500E+01 3.31130E+01 0.00000E+00
 -1      3672 5.95500E+01 3.31130E+01 0.00000E+00
 -1      3673 5.73000E+01 3.18140E+01 0.00000E+00
 -1      3674 6.10500E+01 3.31130E+01 0.00000E+00
 -1      3675 6.25500E+01 3.31130E+01 0.00000E+00
 -1      3676 6.03000E+01 3.18140E+01 0.00000E+00
 -1      3677 6.40500E+01 3.31130E+01 0.00000E+00
 -1      3678 6.55500E+01 3.31130E+01 0.00000E+00
 -1      3679 6.33000E+01 3.18140E+01 0.00000E+00
 -1      3680 6.70500E+01 3.31130E+01 0.00000E+00
 -1      3681 6.85500E+01 3.31130E+01 0.00000E+00
 -1      3682 6.63000E+01 3.18140E+01 0.00000E+00
 -1      3683 7.00500E+01 3.31130E+01 0.00000E+00
 -1      3684 7.15500E+01 3.31130E+01 0.00000E+00
 -1      3685 6.93000E+01 3.18140E+01 0.00000E+00
 -1      3686 7.30500E+01 3.31130E+01 0.00000E+00
 -1      3687 7.45500E+01 3.31130E+01 0.00000E+00
 -1      3688 7.23000E+01 3.18140E+01 0.00000E+00
 -1      3689 7.60500E+01 3.31130E+01 0.00000E+00
 -1      3690 7.75500E+01 3.31130E+01 0.00000E+00
 -1      3691 7.53000E+01 3.18140E+01 0.00000E+00
 -1      3692 7.90500E+01 3.31130E+01 0.00000E+00
 -1      3693 8.05500E+01 3.31130E+01 0.00000E+00
 -1      3694 7.83000E+01 3.18140E+01 0.00000E+00
 -1      3695 1.18128E+02 3.36767E+01 0.00000E+00
 -1      3696 1.19383E+02 3.36266E+01 0.00000E+00
 -1      3697 1.17511E+02 3.27561E+01 0.00000E+00
 -1      3698 1.23750E+02 3.32481E+01 0.00000E+00
 -1      3699 1.25250E+02 3.32481E+01 0.00000E+00
 -1      3700 1.26750E+02 3.32481E+01 0.00000E+00
 -1      3701 1.28250E+02 3.32481E+01 0.00000E+00
 -1      3702 1.26000E+02 3.19491E+01 0.00000E+00
 -1      3703 1.29750E+02 3.32481E+01 0.00000E+00
 -1      3704 1.31250E+02 3.32481E+01 0.00000E+00
 -1      3705 1.29000E+02 3.19491E+01 0.00000E+00
 -1      3706 1.32240E+02 3.32122E+01 0.00000E+00
 -1      3707 1.33492E+02 3.30317E+01 0.00000E+00
 -1      3708 1.33469E+02 3.18414E+01 0.00000E+00
 -1      3709 1.31490E+02 3.19132E+01 0.00000E+00
 -1      3710 4.56240E+01 1.64765E+01 0.00000E+00
 -1      3711 4.41240E+01 1.64765E+01 0.00000E+00
 -1      3712 4.86240E+01 1.64765E+01 0.00000E+00
 -1      3713 4.71240E+01 1.64765E+01 0.00000E+00
 -1      3714 4.63740E+01 1.77755E+01 0.00000E+00
 -1      3715 4.26240E+01 1.64765E+01 0.00000E+00
 -1      3716 4.11240E+01 1.64765E+01 0.00000E+00
 -1      3717 4.33740E+01 1.77755E+01 0.00000E+00
 -1      3718 5.46240E+01 1.64765E+01 0.00000E+00
 -1      3719 5.31240E+01 1.64765E+01 0.00000E+00
 -1      3720 5.76240E+01 1.64765E+01 0.00000E+00
 -1      3721 5.61240E+01 1.64765E+01 0.00000E+00
 -1      3722 5.53740E+01 1.77755E+01 0.00000E+00
 -1      3723 6.06240E+01 1.64765E+01 0.00000E+00
 -1      3724 5.91240E+01 1.64765E+01 0.00000E+00
 -1      3725 5.83740E+01 1.77755E+01 0.00000E+00
 -1      3726 6.36240E+01 1.64765E+01 0.00000E+00
 -1      3727 6.21240E+01 1.64765E+01 0.00000E+00
 -1      3728 6.13740E+01 1.77755E+01 0.00000E+00
 -1      3729 6.66240E+01 1.64765E+01 0.00000E+00
 -1      3730 6.51240E+01 1.64765E+01 0.00000E+00
 -1      3731 6.43740E+01 1.77755E+01 0.00000E+00
 -1      3732 6.96240E+01 1.64765E+01 0.00000E+00
 -1      3733 6.81240E+01 1.64765E+01 0.00000E+00
 -1      3734 6.73740E+01 1.77755E+01 0.00000E+00
 -1      3735 7.26240E+01 1.64765E+01 0.00000E+00
 -1      3736 7.11240E+01 1.64765E+01 0.00000E+00
 -1      3737 7.03740E+01 1.77755E+01 0.00000E+00
 -1      3738 7.56240E+01 1.64765E+01 0.00000E+00
 -1      3739 7.41240E+01 1.64765E+01 0.00000E+00
 -1      3740 7.33740E+01 1.77755E+01 0.00000E+00
 -1      3741 7.86240E+01 1.64765E+01 0.00000E+00
 -1      3742 7.71240E+01 1.64765E+01 0.00000E+00
 -1      3743 7.63740E+01 1.77755E+01 0.00000E+00
 -1      3744 8.16240E+01 1.64765E+01 0.00000E+00
 -1      3745 8.01240E+01 1.64765E+01 0.00000E+00
 -1      3746 7.93740E+01 1.77755E+01 0.00000E+00
 -1      3747 8.46240E+01 1.64765E+01 0.00000E+00
 -1      3748 8.31240E+01 1.64765E+01 0.00000E+00
 -1      3749 8.23740E+01 1.77755E+01 0.00000E+00
 -1      3750 8.76240E+01 1.64765E+01 0.00000E+00
 -1      3751 8.61240E+01 1.64765E+01 0.00000E+00
 -1      3752 8.53740E+01 1.77755E+01 0.00000E+00
 -1      3753 9.03662E+01 1.75062E+01 0.00000E+00
 -1      3754 8.88662E+01 1.75062E+01 0.00000E+00
 -1      3755 9.65243E+01 1.63130E+01 0.00000E+00
 -1      3756 9.50243E+01 1.63130E+01 0.00000E+00
 -1      3757 1.32329E+02 1.58407E+01 0.00000E+00
 -1      3758 1.14624E+02 1.64765E+01 0.00000E+00
 -1      3759 1.13124E+02 1.64765E+01 0.00000E+00
 -1      3760 1.17624E+02 1.64765E+01 0.00000E+00
 -1      3761 1.16124E+02 1.64765E+01 0.00000E+00
 -1      3762 1.15374E+02 1.77755E+01 0.00000E+00
 -1      3763 1.20624E+02 1.64765E+01 0.00000E+00
 -1      3764 1.19124E+02 1.64765E+01 0.00000E+00
 -1      3765 1.18374E+02 1.77755E+01 0.00000E+00
 -1      3766 1.23624E+02 1.64765E+01 0.00000E+00
 -1      3767 1.22124E+02 1.64765E+01 0.00000E+00
 -1      3768 1.21374E+02 1.77755E+01 0.00000E+00
 -1      3769 1.26624E+02 1.64765E+01 0.00000E+00
 -1      3770 1.25124E+02 1.64765E+01 0.00000E+00
 -1      3771 1.24374E+02 1.77755E+01 0.00000E+00
 -1      3772 1.29624E+02 1.64765E+01 0.00000E+00
 -1      3773 1.28124E+02 1.64765E+01 0.00000E+00
 -1      3774 1.27374E+02 1.77755E+01 0.00000E+00
 -1      3775 1.42890E+01 3.01219E+01 0.00000E+00
 -1      3776 1.55880E+01 3.08563E+01 0.00000E+00
 -1      3777 1.42890E+01 2.86531E+01 0.00000E+00
 -1      3778 1.41105E+01 1.70886E+01 0.00000E+00
 -1      3779 1.41105E+01 1.85636E+01 0.00000E+00
 -1      3780 1.54095E+01 1.93011E+01 0.00000E+00
 -1      3781 1.50525E+01 1.67784E+01 0.00000E+00
 -1      3782 1.20750E+02 3.32481E+01 0.00000E+00
 -1      3783 1.22250E+02 3.32481E+01 0.00000E+00
 -1      3784 1.23000E+02 3.19491E+01 0.00000E+00
 -1      3785 1.04539E+02 1.60499E+01 0.00000E+00
 -1      3786 9.99184E+01 1.60053E+01 0.00000E+00
 -1      3787 9.84184E+01 1.60053E+01 0.00000E+00
 -1      3788 5.16240E+01 1.64765E+01 0.00000E+00
 -1      3789 5.01240E+01 1.64765E+01 0.00000E+00
 -1      3790 4.93740E+01 1.77755E+01 0.00000E+00
 -1      3791 2.61240E+01 1.38785E+01 0.00000E+00
 -1      3792 2.46240E+01 1.38785E+01 0.00000E+00
 -1      3793 2.38740E+01 1.51775E+01 0.00000E+00
 -1      3794 2.68740E+01 1.51775E+01 0.00000E+00
 -1      3795 1.16548E+02 2.65197E+01 0.00000E+00
 -1      3796 1.17281E+02 2.79733E+01 0.00000E+00
 -1      3797 1.33113E+02 2.86875E+01 0.00000E+00
 -1      3798 1.33113E+02 2.72125E+01 0.00000E+00
 -1      3799 1.66035E+01 3.21973E+01 0.00000E+00
 -1      3800 1.68690E+01 3.33685E+01 0.00000E+00
 -1      3801 1.78845E+01 3.32407E+01 0.00000E+00
 -1      3802 1.33113E+02 2.57375E+01 0.00000E+00
 -1      3803 1.33113E+02 2.42625E+01 0.00000E+00
 -1      3804 1.31814E+02 2.64750E+01 0.00000E+00
 -1      3805 2.19000E+01 3.31130E+01 0.00000E+00
 -1      3806 2.34000E+01 3.31130E+01 0.00000E+00
 -1      3807 1.91423E+01 3.31769E+01 0.00000E+00
 -1      3808 2.06423E+01 3.31769E+01 0.00000E+00
 -1      3809 2.13923E+01 3.18779E+01 0.00000E+00
 -1      3810 1.88768E+01 3.20056E+01 0.00000E+00
 -1      3811 8.42518E+01 2.47850E+01 0.00000E+00
 -1      3812 8.54567E+01 2.41777E+01 0.00000E+00
 -1      3813 8.50044E+01 2.28561E+01 0.00000E+00
 -1      3814 1.35559E+02 1.93256E+01 0.00000E+00
 -1      3815 1.35480E+02 1.81796E+01 0.00000E+00
 -1      3816 1.34275E+02 1.76861E+01 0.00000E+00
 -1      3817 1.34260E+02 2.00506E+01 0.00000E+00
 -1      3818 2.49000E+01 3.31130E+01 0.00000E+00
 -1      3819 2.64000E+01 3.31130E+01 0.00000E+00
 -1      3820 2.41500E+01 3.18140E+01 0.00000E+00
 -1      3821 1.13379E+02 1.98784E+01 0.00000E+00
 -1      3822 1.14558E+02 2.10762E+01 0.00000E+00
 -1      3823 1.06039E+02 1.60499E+01 0.00000E+00
 -1      3824 1.68870E+01 2.42359E+01 0.00000E+00
 -1      3825 1.68870E+01 2.57078E+01 0.00000E+00
 -1      3826 2.71500E+01 3.18140E+01 0.00000E+00
 -1      3827 1.18311E+02 2.75681E+01 0.00000E+00
 -1      3828 1.17687E+02 2.87942E+01 0.00000E+00
 -1      3829 1.18093E+02 2.96150E+01 0.00000E+00
 -1      3830 3.36240E+01 1.64765E+01 0.00000E+00
 -1      3831 3.21240E+01 1.64765E+01 0.00000E+00
 -1      3832 1.00987E+02 1.64257E+01 0.00000E+00
 -1      3833 8.15343E+01 3.11732E+01 0.00000E+00
 -1      3834 8.22843E+01 3.24722E+01 0.00000E+00
 -1      3835 1.18117E+02 3.17736E+01 0.00000E+00
 -1      3836 9.75323E+01 1.67191E+01 0.00000E+00
 -1      3837 1.68870E+01 2.27672E+01 0.00000E+00
 -1      3838 1.81860E+01 2.35031E+01 0.00000E+00
 -1      3839 1.68870E+01 2.12984E+01 0.00000E+00
 -1      3840 3.13740E+01 1.77755E+01 0.00000E+00
 -1      3841 3.06240E+01 1.64765E+01 0.00000E+00
 -1      3842 2.91240E+01 1.64765E+01 0.00000E+00
 -1      3843 1.11624E+02 1.64765E+01 0.00000E+00
 -1      3844 1.10124E+02 1.64765E+01 0.00000E+00
 -1      3845 8.31028E+01 3.34944E+01 0.00000E+00
 -1      3846 8.12580E+01 2.99392E+01 0.00000E+00
 -1      3847 8.09817E+01 2.87053E+01 0.00000E+00
 -1      3848 7.95237E+01 3.05801E+01 0.00000E+00
 -1      3849 8.81162E+01 1.88052E+01 0.00000E+00
 -1      3850 9.17481E+01 1.77098E+01 0.00000E+00
 -1      3851 9.42369E+01 1.69544E+01 0.00000E+00
 -1      3852 9.27369E+01 1.69544E+01 0.00000E+00
 -1      3853 1.32927E+02 1.74129E+01 0.00000E+00
 -1      3854 1.30973E+02 1.67497E+01 0.00000E+00
 -1      3855 1.30223E+02 1.80487E+01 0.00000E+00
 -1      3856 1.32919E+02 1.85952E+01 0.00000E+00
 -1      3857 8.22637E+01 2.67430E+01 0.00000E+00
 -1      3858 8.32578E+01 2.57640E+01 0.00000E+00
 -1      3859 8.28055E+01 2.44424E+01 0.00000E+00
 -1      3860 1.09099E+02 1.67586E+01 0.00000E+00
 -1      3861 1.07599E+02 1.67586E+01 0.00000E+00
 -1      3862 1.66035E+01 3.07285E+01 0.00000E+00
 -1      3863 1.55880E+01 2.79156E+01 0.00000E+00
 -1      3864 1.15356E+02 2.17037E+01 0.00000E+00
 -1      3865 1.16153E+02 2.23313E+01 0.00000E+00
 -1      3866 1.15616E+02 2.02679E+01 0.00000E+00
 -1      3867 1.61775E+01 1.66935E+01 0.00000E+00
 -1      3868 1.12374E+02 1.77755E+01 0.00000E+00
 -1      3869 1.09849E+02 1.80576E+01 0.00000E+00
 -1      3870 5.23740E+01 1.77755E+01 0.00000E+00
 -1      3871 1.16899E+02 2.52572E+01 0.00000E+00
 -1      3872 1.33446E+02 3.06512E+01 0.00000E+00
 -1      3873 3.96240E+01 1.64765E+01 0.00000E+00
 -1      3874 3.81240E+01 1.64765E+01 0.00000E+00
 -1      3875 4.03740E+01 1.77755E+01 0.00000E+00
 -1      3876 1.32147E+02 2.99137E+01 0.00000E+00
 -1      3877 1.33033E+02 2.31164E+01 0.00000E+00
 -1      3878 1.32954E+02 2.19704E+01 0.00000E+00
 -1      3879 1.31734E+02 2.38539E+01 0.00000E+00
 -1      3880 8.74886E+01 2.06916E+01 0.00000E+00
 -1      3881 8.79500E+01 1.99235E+01 0.00000E+00
 -1      3882 8.67078E+01 1.88938E+01 0.00000E+00
 -1      3883 8.63755E+01 2.11305E+01 0.00000E+00
 -1      3884 2.16240E+01 1.64765E+01 0.00000E+00
 -1      3885 2.01240E+01 1.64765E+01 0.00000E+00
 -1      3886 1.20133E+02 3.23276E+01 0.00000E+00
 -1      3887 1.11407E+02 1.89460E+01 0.00000E+00
 -1      3888 1.12907E+02 1.89460E+01 0.00000E+00
 -1      3889 1.14346E+02 1.87079E+01 0.00000E+00
 -1      3890 1.89990E+01 1.65614E+01 0.00000E+00
 -1      3891 1.78740E+01 1.66463E+01 0.00000E+00
 -1      3892 1.97490E+01 1.78604E+01 0.00000E+00
 -1      3893 2.64000E+01 3.05150E+01 0.00000E+00
 -1      3894 2.79000E+01 3.05150E+01 0.00000E+00
 -1      3895 3.51240E+01 1.64765E+01 0.00000E+00
 -1      3896 3.43740E+01 1.77755E+01 0.00000E+00
 -1      3897 3.66240E+01 1.64765E+01 0.00000E+00
 -1      3898 2.31240E+01 1.64765E+01 0.00000E+00
 -1      3899 2.23740E+01 1.77755E+01 0.00000E+00
 -1      3900 2.46240E+01 1.64765E+01 0.00000E+00
 -1      3901 1.18789E+02 3.05051E+01 0.00000E+00
 -1      3902 1.19437E+02 3.14375E+01 0.00000E+00
 -1      3903 1.20804E+02 3.10591E+01 0.00000E+00
 -1      3904 1.19412E+02 2.92790E+01 0.00000E+00
 -1      3905 3.24000E+01 3.05150E+01 0.00000E+00
 -1      3906 3.39000E+01 3.05150E+01 0.00000E+00
 -1      3907 3.54000E+01 3.05150E+01 0.00000E+00
 -1      3908 3.69000E+01 3.05150E+01 0.00000E+00
 -1      3909 3.46500E+01 2.92160E+01 0.00000E+00
 -1      3910 3.84000E+01 3.05150E+01 0.00000E+00
 -1      3911 3.99000E+01 3.05150E+01 0.00000E+00
 -1      3912 3.76500E+01 2.92160E+01 0.00000E+00
 -1      3913 4.14000E+01 3.05150E+01 0.00000E+00
 -1      3914 4.29000E+01 3.05150E+01 0.00000E+00
 -1      3915 4.06500E+01 2.92160E+01 0.00000E+00
 -1      3916 4.44750E+01 3.05150E+01 0.00000E+00
 -1      3917 4.60500E+01 3.05150E+01 0.00000E+00
 -1      3918 4.37250E+01 2.92160E+01 0.00000E+00
 -1      3919 4.75500E+01 3.05150E+01 0.00000E+00
 -1      3920 4.90500E+01 3.05150E+01 0.00000E+00
 -1      3921 4.68000E+01 2.92160E+01 0.00000E+00
 -1      3922 5.05500E+01 3.05150E+01 0.00000E+00
 -1      3923 5.20500E+01 3.05150E+01 0.00000E+00
 -1      3924 4.98000E+01 2.92160E+01 0.00000E+00
 -1      3925 5.35500E+01 3.05150E+01 0.00000E+00
 -1      3926 5.50500E+01 3.05150E+01 0.00000E+00
 -1      3927 5.28000E+01 2.92160E+01 0.00000E+00
 -1      3928 5.65500E+01 3.05150E+01 0.00000E+00
 -1      3929 5.80500E+01 3.05150E+01 0.00000E+00
 -1      3930 5.58000E+01 2.92160E+01 0.00000E+00
 -1      3931 5.95500E+01 3.05150E+01 0.00000E+00
 -1      3932 6.10500E+01 3.05150E+01 0.00000E+00
 -1      3933 5.88000E+01 2.92160E+01 0.00000E+00
 -1      3934 6.25500E+01 3.05150E+01 0.00000E+00
 -1      3935 6.40500E+01 3.05150E+01 0.00000E+00
 -1      3936 6.18000E+01 2.92160E+01 0.00000E+00
 -1      3937 6.55500E+01 3.05150E+01 0.00000E+00
 -1      3938 6.70500E+01 3.05150E+01 0.00000E+00
 -1      3939 6.48000E+01 2.92160E+01 0.00000E+00
 -1      3940 6.85500E+01 3.05150E+01 0.00000E+00
 -1      3941 7.00500E+01 3.05150E+01 0.00000E+00
 -1      3942 6.78000E+01 2.92160E+01 0.00000E+00
 -1      3943 7.15500E+01 3.05150E+01 0.00000E+00
 -1      3944 7.30500E+01 3.05150E+01 0.00000E+00
 -1      3945 7.08000E+01 2.92160E+01 0.00000E+00
 -1      3946 7.45500E+01 3.05150E+01 0.00000E+00
 -1      3947 7.60500E+01 3.05150E+01 0.00000E+00
 -1      3948 7.38000E+01 2.92160E+01 0.00000E+00
 -1      3949 7.80237E+01 3.05801E+01 0.00000E+00
 -1      3950 1.28250E+02 3.06501E+01 0.00000E+00
 -1      3951 1.29750E+02 3.06501E+01 0.00000E+00
 -1      3952 4.71240E+01 1.90745E+01 0.00000E+00
 -1      3953 4.56240E+01 1.90745E+01 0.00000E+00
 -1      3954 2.94000E+01 3.05150E+01 0.00000E+00
 -1      3955 3.09000E+01 3.05150E+01 0.00000E+00
 -1      3956 3.16500E+01 2.92160E+01 0.00000E+00
 -1      3957 4.41240E+01 1.90745E+01 0.00000E+00
 -1      3958 4.26240E+01 1.90745E+01 0.00000E+00
 -1      3959 4.48740E+01 2.03735E+01 0.00000E+00
 -1      3960 5.91240E+01 1.90745E+01 0.00000E+00
 -1      3961 5.76240E+01 1.90745E+01 0.00000E+00
 -1      3962 5.61240E+01 1.90745E+01 0.00000E+00
 -1      3963 5.46240E+01 1.90745E+01 0.00000E+00
 -1      3964 5.68740E+01 2.03735E+01 0.00000E+00
 -1      3965 6.51240E+01 1.90745E+01 0.00000E+00
 -1      3966 6.36240E+01 1.90745E+01 0.00000E+00
 -1      3967 6.81240E+01 1.90745E+01 0.00000E+00
 -1      3968 6.66240E+01 1.90745E+01 0.00000E+00
 -1      3969 6.58740E+01 2.03735E+01 0.00000E+00
 -1      3970 7.11240E+01 1.90745E+01 0.00000E+00
 -1      3971 6.96240E+01 1.90745E+01 0.00000E+00
 -1      3972 6.88740E+01 2.03735E+01 0.00000E+00
 -1      3973 7.41240E+01 1.90745E+01 0.00000E+00
 -1      3974 7.26240E+01 1.90745E+01 0.00000E+00
 -1      3975 7.18740E+01 2.03735E+01 0.00000E+00
 -1      3976 7.71240E+01 1.90745E+01 0.00000E+00
 -1      3977 7.56240E+01 1.90745E+01 0.00000E+00
 -1      3978 7.48740E+01 2.03735E+01 0.00000E+00
 -1      3979 8.01240E+01 1.90745E+01 0.00000E+00
 -1      3980 7.86240E+01 1.90745E+01 0.00000E+00
 -1      3981 7.78740E+01 2.03735E+01 0.00000E+00
 -1      3982 8.31240E+01 1.90745E+01 0.00000E+00
 -1      3983 8.16240E+01 1.90745E+01 0.00000E+00
 -1      3984 8.08740E+01 2.03735E+01 0.00000E+00
 -1      3985 8.52078E+01 1.88938E+01 0.00000E+00
 -1      3986 1.71313E+01 2.92738E+01 0.00000E+00
 -1      3987 1.81468E+01 3.06148E+01 0.00000E+00
 -1      3988 1.19124E+02 1.90745E+01 0.00000E+00
 -1      3989 1.17624E+02 1.90745E+01 0.00000E+00
 -1      3990 1.15846E+02 1.87079E+01 0.00000E+00
 -1      3991 1.25124E+02 1.90745E+01 0.00000E+00
 -1      3992 1.23624E+02 1.90745E+01 0.00000E+00
 -1      3993 1.28124E+02 1.90745E+01 0.00000E+00
 -1      3994 1.26624E+02 1.90745E+01 0.00000E+00
 -1      3995 1.25874E+02 2.03735E+01 0.00000E+00
 -1      3996 1.71313E+01 2.78019E+01 0.00000E+00
 -1      3997 5.01240E+01 1.90745E+01 0.00000E+00
 -1      3998 4.86240E+01 1.90745E+01 0.00000E+00
 -1      3999 4.78740E+01 2.03735E+01 0.00000E+00
 -1      4000 1.69275E+01 1.79925E+01 0.00000E+00
 -1      4001 1.71060E+01 1.92539E+01 0.00000E+00
 -1      4002 1.22250E+02 3.06501E+01 0.00000E+00
 -1      4003 1.23750E+02 3.06501E+01 0.00000E+00
 -1      4004 8.30868E+01 2.19185E+01 0.00000E+00
 -1      4005 8.42916E+01 2.13112E+01 0.00000E+00
 -1      4006 1.17473E+02 2.37854E+01 0.00000E+00
 -1      4007 1.18478E+02 2.52755E+01 0.00000E+00
 -1      4008 1.30515E+02 2.72125E+01 0.00000E+00
 -1      4009 1.30515E+02 2.57375E+01 0.00000E+00
 -1      4010 2.34000E+01 3.05150E+01 0.00000E+00
 -1      4011 2.49000E+01 3.05150E+01 0.00000E+00
 -1      4012 2.56500E+01 2.92160E+01 0.00000E+00
 -1      4013 1.22124E+02 1.90745E+01 0.00000E+00
 -1      4014 1.20624E+02 1.90745E+01 0.00000E+00
 -1      4015 1.22874E+02 2.03735E+01 0.00000E+00
 -1      4016 5.31240E+01 1.90745E+01 0.00000E+00
 -1      4017 5.16240E+01 1.90745E+01 0.00000E+00
 -1      4018 5.38740E+01 2.03735E+01 0.00000E+00
 -1      4019 1.25250E+02 3.06501E+01 0.00000E+00
 -1      4020 1.26750E+02 3.06501E+01 0.00000E+00
 -1      4021 1.24500E+02 2.93511E+01 0.00000E+00
 -1      4022 6.21240E+01 1.90745E+01 0.00000E+00
 -1      4023 6.06240E+01 1.90745E+01 0.00000E+00
 -1      4024 6.28740E+01 2.03735E+01 0.00000E+00
 -1      4025 1.16644E+02 1.93355E+01 0.00000E+00
 -1      4026 3.51240E+01 1.90745E+01 0.00000E+00
 -1      4027 3.36240E+01 1.90745E+01 0.00000E+00
 -1      4028 1.18884E+02 2.60964E+01 0.00000E+00
 -1      4029 1.19291E+02 2.69172E+01 0.00000E+00
 -1      4030 1.19458E+02 2.46246E+01 0.00000E+00
 -1      4031 1.17733E+02 2.23496E+01 0.00000E+00
 -1      4032 7.72737E+01 2.92811E+01 0.00000E+00
 -1      4033 5.98740E+01 2.03735E+01 0.00000E+00
 -1      4034 1.27500E+02 2.93511E+01 0.00000E+00
 -1      4035 1.84050E+01 1.99898E+01 0.00000E+00
 -1      4036 3.21240E+01 1.90745E+01 0.00000E+00
 -1      4037 3.06240E+01 1.90745E+01 0.00000E+00
 -1      4038 3.28740E+01 2.03735E+01 0.00000E+00
 -1      4039 3.73740E+01 1.77755E+01 0.00000E+00
 -1      4040 1.17394E+02 2.06345E+01 0.00000E+00
 -1      4041 1.31157E+02 2.99496E+01 0.00000E+00
 -1      4042 1.21554E+02 2.97601E+01 0.00000E+00
 -1      4043 8.44578E+01 2.01928E+01 0.00000E+00
 -1      4044 1.19874E+02 2.03735E+01 0.00000E+00
 -1      4045 2.86500E+01 2.92160E+01 0.00000E+00
 -1      4046 1.30407E+02 2.86506E+01 0.00000E+00
 -1      4047 1.84303E+01 2.70660E+01 0.00000E+00
 -1      4048 1.29108E+02 2.79131E+01 0.00000E+00
 -1      4049 8.05294E+01 2.73838E+01 0.00000E+00
 -1      4050 8.00771E+01 2.60622E+01 0.00000E+00
 -1      4051 7.87951E+01 2.80246E+01 0.00000E+00
 -1      4052 5.08740E+01 2.03735E+01 0.00000E+00
 -1      4053 1.94850E+01 2.27687E+01 0.00000E+00
 -1      4054 1.94850E+01 2.42375E+01 0.00000E+00
 -1      4055 8.21961E+01 2.31805E+01 0.00000E+00
 -1      4056 8.14834E+01 2.16355E+01 0.00000E+00
 -1      4057 7.99834E+01 2.16355E+01 0.00000E+00
 -1      4058 8.12021E+01 2.41594E+01 0.00000E+00
 -1      4059 2.76240E+01 1.64765E+01 0.00000E+00
 -1      4060 2.61240E+01 1.64765E+01 0.00000E+00
 -1      4061 2.53740E+01 1.77755E+01 0.00000E+00
 -1      4062 2.83740E+01 1.77755E+01 0.00000E+00
 -1      4063 4.11240E+01 1.90745E+01 0.00000E+00
 -1      4064 3.96240E+01 1.90745E+01 0.00000E+00
 -1      4065 4.18740E+01 2.03735E+01 0.00000E+00
 -1      4066 1.30436E+02 2.45914E+01 0.00000E+00
 -1      4067 1.30356E+02 2.34454E+01 0.00000E+00
 -1      4068 1.29137E+02 2.53289E+01 0.00000E+00
 -1      4069 2.21423E+01 3.05789E+01 0.00000E+00
 -1      4070 2.28923E+01 2.92799E+01 0.00000E+00
 -1      4071 2.08845E+01 3.06427E+01 0.00000E+00
 -1      4072 1.32933E+02 2.08739E+01 0.00000E+00
 -1      4073 1.32941E+02 1.96916E+01 0.00000E+00
 -1      4074 1.31592E+02 1.94184E+01 0.00000E+00
 -1      4075 1.31634E+02 2.16114E+01 0.00000E+00
 -1      4076 1.94046E+01 3.05509E+01 0.00000E+00
 -1      4077 2.31240E+01 1.90745E+01 0.00000E+00
 -1      4078 2.16240E+01 1.90745E+01 0.00000E+00
 -1      4079 1.20162E+02 2.79800E+01 0.00000E+00
 -1      4080 1.20858E+02 2.88700E+01 0.00000E+00
 -1      4081 1.22304E+02 2.84611E+01 0.00000E+00
 -1      4082 3.39000E+01 2.79170E+01 0.00000E+00
 -1      4083 3.54000E+01 2.79170E+01 0.00000E+00
 -1      4084 3.69000E+01 2.79170E+01 0.00000E+00
 -1      4085 3.84000E+01 2.79170E+01 0.00000E+00
 -1      4086 3.61500E+01 2.66180E+01 0.00000E+00
 -1      4087 3.99000E+01 2.79170E+01 0.00000E+00
 -1      4088 4.14000E+01 2.79170E+01 0.00000E+00
 -1      4089 3.91500E+01 2.66180E+01 0.00000E+00
 -1      4090 4.29750E+01 2.79170E+01 0.00000E+00
 -1      4091 4.45500E+01 2.79170E+01 0.00000E+00
 -1      4092 4.22250E+01 2.66180E+01 0.00000E+00
 -1      4093 4.60500E+01 2.79170E+01 0.00000E+00
 -1      4094 4.75500E+01 2.79170E+01 0.00000E+00
 -1      4095 4.53000E+01 2.66180E+01 0.00000E+00
 -1      4096 4.90500E+01 2.79170E+01 0.00000E+00
 -1      4097 5.05500E+01 2.79170E+01 0.00000E+00
 -1      4098 4.83000E+01 2.66180E+01 0.00000E+00
 -1      4099 5.20500E+01 2.79170E+01 0.00000E+00
 -1      4100 5.35500E+01 2.79170E+01 0.00000E+00
 -1      4101 5.13000E+01 2.66180E+01 0.00000E+00
 -1      4102 5.50500E+01 2.79170E+01 0.00000E+00
 -1      4103 5.65500E+01 2.79170E+01 0.00000E+00
 -1      4104 5.43000E+01 2.66180E+01 0.00000E+00
 -1      4105 5.80500E+01 2.79170E+01 0.00000E+00
 -1      4106 5.95500E+01 2.79170E+01 0.00000E+00
 -1      4107 5.73000E+01 2.66180E+01 0.00000E+00
 -1      4108 6.10500E+01 2.79170E+01 0.00000E+00
 -1      4109 6.25500E+01 2.79170E+01 0.00000E+00
 -1      4110 6.03000E+01 2.66180E+01 0.00000E+00
 -1      4111 6.40500E+01 2.79170E+01 0.00000E+00
 -1      4112 6.55500E+01 2.79170E+01 0.00000E+00
 -1      4113 6.33000E+01 2.66180E+01 0.00000E+00
 -1      4114 6.70500E+01 2.79170E+01 0.00000E+00
 -1      4115 6.85500E+01 2.79170E+01 0.00000E+00
 -1      4116 6.63000E+01 2.66180E+01 0.00000E+00
 -1      4117 7.00500E+01 2.79170E+01 0.00000E+00
 -1      4118 7.15500E+01 2.79170E+01 0.00000E+00
 -1      4119 6.93000E+01 2.66180E+01 0.00000E+00
 -1      4120 7.30500E+01 2.79170E+01 0.00000E+00
 -1      4121 7.45500E+01 2.79170E+01 0.00000E+00
 -1      4122 7.23000E+01 2.66180E+01 0.00000E+00
 -1      4123 3.09000E+01 2.79170E+01 0.00000E+00
 -1      4124 3.24000E+01 2.79170E+01 0.00000E+00
 -1      4125 3.31500E+01 2.66180E+01 0.00000E+00
 -1      4126 4.56240E+01 2.16725E+01 0.00000E+00
 -1      4127 4.41240E+01 2.16725E+01 0.00000E+00
 -1      4128 1.95984E+01 2.58684E+01 0.00000E+00
 -1      4129 1.98427E+01 2.79625E+01 0.00000E+00
 -1      4130 1.26108E+02 2.79131E+01 0.00000E+00
 -1      4131 1.27608E+02 2.79131E+01 0.00000E+00
 -1      4132 1.27716E+02 2.64750E+01 0.00000E+00
 -1      4133 1.97265E+01 1.92923E+01 0.00000E+00
 -1      4134 1.95075E+01 2.13368E+01 0.00000E+00
 -1      4135 2.08065E+01 2.20712E+01 0.00000E+00
 -1      4136 2.08515E+01 1.92074E+01 0.00000E+00
 -1      4137 6.96240E+01 2.16725E+01 0.00000E+00
 -1      4138 6.81240E+01 2.16725E+01 0.00000E+00
 -1      4139 6.66240E+01 2.16725E+01 0.00000E+00
 -1      4140 6.51240E+01 2.16725E+01 0.00000E+00
 -1      4141 6.73740E+01 2.29715E+01 0.00000E+00
 -1      4142 7.56240E+01 2.16725E+01 0.00000E+00
 -1      4143 7.41240E+01 2.16725E+01 0.00000E+00
 -1      4144 7.85537E+01 2.16540E+01 0.00000E+00
 -1      4145 7.70537E+01 2.16540E+01 0.00000E+00
 -1      4146 7.63037E+01 2.29530E+01 0.00000E+00
 -1      4147 7.91630E+01 2.29160E+01 0.00000E+00
 -1      4148 4.86240E+01 2.16725E+01 0.00000E+00
 -1      4149 4.71240E+01 2.16725E+01 0.00000E+00
 -1      4150 4.63740E+01 2.29715E+01 0.00000E+00
 -1      4151 1.30639E+02 1.94585E+01 0.00000E+00
 -1      4152 1.29290E+02 1.91852E+01 0.00000E+00
 -1      4153 1.26624E+02 2.16725E+01 0.00000E+00
 -1      4154 1.25124E+02 2.16725E+01 0.00000E+00
 -1      4155 3.81240E+01 1.90745E+01 0.00000E+00
 -1      4156 3.66240E+01 1.90745E+01 0.00000E+00
 -1      4157 3.58740E+01 2.03735E+01 0.00000E+00
 -1      4158 3.88740E+01 2.03735E+01 0.00000E+00
 -1      4159 7.68214E+01 2.79595E+01 0.00000E+00
 -1      4160 5.16240E+01 2.16725E+01 0.00000E+00
 -1      4161 5.01240E+01 2.16725E+01 0.00000E+00
 -1      4162 4.93740E+01 2.29715E+01 0.00000E+00
 -1      4163 2.01546E+01 2.92519E+01 0.00000E+00
 -1      4164 2.08974E+01 2.51340E+01 0.00000E+00
 -1      4165 1.28540E+02 2.04842E+01 0.00000E+00
 -1      4166 2.13227E+01 2.80543E+01 0.00000E+00
 -1      4167 2.16015E+01 2.05064E+01 0.00000E+00
 -1      4168 1.30660E+02 2.05549E+01 0.00000E+00
 -1      4169 2.21366E+01 2.42285E+01 0.00000E+00
 -1      4170 2.22500E+01 2.58593E+01 0.00000E+00
 -1      4171 6.06240E+01 2.16725E+01 0.00000E+00
 -1      4172 5.91240E+01 2.16725E+01 0.00000E+00
 -1      4173 1.18713E+02 2.20886E+01 0.00000E+00
 -1      4174 2.49000E+01 2.79170E+01 0.00000E+00
 -1      4175 2.64000E+01 2.79170E+01 0.00000E+00
 -1      4176 1.23624E+02 2.16725E+01 0.00000E+00
 -1      4177 1.22124E+02 2.16725E+01 0.00000E+00
 -1      4178 1.24374E+02 2.29715E+01 0.00000E+00
 -1      4179 7.26240E+01 2.16725E+01 0.00000E+00
 -1      4180 7.11240E+01 2.16725E+01 0.00000E+00
 -1      4181 7.03740E+01 2.29715E+01 0.00000E+00
 -1      4182 7.33740E+01 2.29715E+01 0.00000E+00
 -1      4183 5.76240E+01 2.16725E+01 0.00000E+00
 -1      4184 5.61240E+01 2.16725E+01 0.00000E+00
 -1      4185 5.83740E+01 2.29715E+01 0.00000E+00
 -1      4186 2.46240E+01 1.90745E+01 0.00000E+00
 -1      4187 2.38740E+01 2.03735E+01 0.00000E+00
 -1      4188 2.61240E+01 1.90745E+01 0.00000E+00
 -1      4189 5.46240E+01 2.16725E+01 0.00000E+00
 -1      4190 5.31240E+01 2.16725E+01 0.00000E+00
 -1      4191 5.53740E+01 2.29715E+01 0.00000E+00
 -1      4192 1.23456E+02 2.81871E+01 0.00000E+00
 -1      4193 1.24956E+02 2.81871E+01 0.00000E+00
 -1      4194 1.25064E+02 2.67490E+01 0.00000E+00
 -1      4195 1.22760E+02 2.72970E+01 0.00000E+00
 -1      4196 6.36240E+01 2.16725E+01 0.00000E+00
 -1      4197 6.21240E+01 2.16725E+01 0.00000E+00
 -1      4198 6.13740E+01 2.29715E+01 0.00000E+00
 -1      4199 6.43740E+01 2.29715E+01 0.00000E+00
 -1      4200 2.79000E+01 2.79170E+01 0.00000E+00
 -1      4201 2.94000E+01 2.79170E+01 0.00000E+00
 -1      4202 2.71500E+01 2.66180E+01 0.00000E+00
 -1      4203 1.20213E+02 2.20886E+01 0.00000E+00
 -1      4204 1.20963E+02 2.33876E+01 0.00000E+00
 -1      4205 1.20736E+02 2.65083E+01 0.00000E+00
 -1      4206 4.26240E+01 2.16725E+01 0.00000E+00
 -1      4207 4.11240E+01 2.16725E+01 0.00000E+00
 -1      4208 4.33740E+01 2.29715E+01 0.00000E+00
 -1      4209 7.60714E+01 2.66605E+01 0.00000E+00
 -1      4210 3.01500E+01 2.66180E+01 0.00000E+00
 -1      4211 3.36240E+01 2.16725E+01 0.00000E+00
 -1      4212 3.21240E+01 2.16725E+01 0.00000E+00
 -1      4213 1.27636E+02 2.53289E+01 0.00000E+00
 -1      4214 2.27265E+01 2.11559E+01 0.00000E+00
 -1      4215 2.19540E+01 2.12888E+01 0.00000E+00
 -1      4216 2.19315E+01 2.27207E+01 0.00000E+00
 -1      4217 2.42265E+01 2.11559E+01 0.00000E+00
 -1      4218 2.91240E+01 1.90745E+01 0.00000E+00
 -1      4219 2.76240E+01 1.90745E+01 0.00000E+00
 -1      4220 2.68740E+01 2.03735E+01 0.00000E+00
 -1      4221 2.98740E+01 2.03735E+01 0.00000E+00
 -1      4222 2.32841E+01 2.34461E+01 0.00000E+00
 -1      4223 3.66240E+01 2.16725E+01 0.00000E+00
 -1      4224 3.51240E+01 2.16725E+01 0.00000E+00
 -1      4225 3.43740E+01 2.29715E+01 0.00000E+00
 -1      4226 7.94678E+01 2.48003E+01 0.00000E+00
 -1      4227 5.23740E+01 2.29715E+01 0.00000E+00
 -1      4228 1.30681E+02 2.16514E+01 0.00000E+00
 -1      4229 2.38196E+01 2.70849E+01 0.00000E+00
 -1      4230 2.45696E+01 2.57859E+01 0.00000E+00
 -1      4231 2.25804E+01 2.79905E+01 0.00000E+00
 -1      4232 1.29001E+02 2.18328E+01 0.00000E+00
 -1      4233 1.27834E+02 2.17221E+01 0.00000E+00
 -1      4234 1.29975E+02 2.28892E+01 0.00000E+00
 -1      4235 1.27084E+02 2.30211E+01 0.00000E+00
 -1      4236 7.43370E+01 2.47948E+01 0.00000E+00
 -1      4237 7.66084E+01 2.48373E+01 0.00000E+00
 -1      4238 3.84000E+01 2.53190E+01 0.00000E+00
 -1      4239 3.99000E+01 2.53190E+01 0.00000E+00
 -1      4240 4.12620E+01 2.47948E+01 0.00000E+00
 -1      4241 4.28370E+01 2.47948E+01 0.00000E+00
 -1      4242 4.43370E+01 2.47948E+01 0.00000E+00
 -1      4243 4.58370E+01 2.47948E+01 0.00000E+00
 -1      4244 4.73370E+01 2.47948E+01 0.00000E+00
 -1      4245 4.88370E+01 2.47948E+01 0.00000E+00
 -1      4246 5.03370E+01 2.47948E+01 0.00000E+00
 -1      4247 5.18370E+01 2.47948E+01 0.00000E+00
 -1      4248 5.33370E+01 2.47948E+01 0.00000E+00
 -1      4249 5.48370E+01 2.47948E+01 0.00000E+00
 -1      4250 5.63370E+01 2.47948E+01 0.00000E+00
 -1      4251 5.78370E+01 2.47948E+01 0.00000E+00
 -1      4252 5.93370E+01 2.47948E+01 0.00000E+00
 -1      4253 6.08370E+01 2.47948E+01 0.00000E+00
 -1      4254 6.23370E+01 2.47948E+01 0.00000E+00
 -1      4255 6.38370E+01 2.47948E+01 0.00000E+00
 -1      4256 6.53370E+01 2.47948E+01 0.00000E+00
 -1      4257 6.68370E+01 2.47948E+01 0.00000E+00
 -1      4258 6.83370E+01 2.47948E+01 0.00000E+00
 -1      4259 6.98370E+01 2.47948E+01 0.00000E+00
 -1      4260 7.13370E+01 2.47948E+01 0.00000E+00
 -1      4261 7.28370E+01 2.47948E+01 0.00000E+00
 -1      4262 2.44316E+01 2.26636E+01 0.00000E+00
 -1      4263 2.46367E+01 2.41714E+01 0.00000E+00
 -1      4264 2.55791E+01 2.18812E+01 0.00000E+00
 -1      4265 1.24893E+02 2.49973E+01 0.00000E+00
 -1      4266 1.23393E+02 2.49973E+01 0.00000E+00
 -1      4267 3.13740E+01 2.29715E+01 0.00000E+00
 -1      4268 3.06240E+01 2.16725E+01 0.00000E+00
 -1      4269 2.91240E+01 2.16725E+01 0.00000E+00
 -1      4270 1.21482E+02 2.54134E+01 0.00000E+00
 -1      4271 3.97620E+01 2.21968E+01 0.00000E+00
 -1      4272 3.82620E+01 2.21968E+01 0.00000E+00
 -1      4273 3.52620E+01 2.47948E+01 0.00000E+00
 -1      4274 3.67620E+01 2.47948E+01 0.00000E+00
 -1      4275 2.92620E+01 2.47948E+01 0.00000E+00
 -1      4276 3.07620E+01 2.47948E+01 0.00000E+00
 -1      4277 2.57171E+01 2.50035E+01 0.00000E+00
 -1      4278 3.22620E+01 2.47948E+01 0.00000E+00
 -1      4279 3.37620E+01 2.47948E+01 0.00000E+00
 -1      4280 3.75120E+01 2.34958E+01 0.00000E+00
 -1      4281 4.05120E+01 2.34958E+01 0.00000E+00
 -1      4282 7.80381E+01 2.48188E+01 0.00000E+00
 -1      4283 1.26045E+02 2.47232E+01 0.00000E+00
 -1      4284 2.72171E+01 2.50035E+01 0.00000E+00
 -1      4285 1.27255E+02 2.47728E+01 0.00000E+00
 -1      4286 2.70791E+01 2.18812E+01 0.00000E+00
 -1      4287 1.28676E+02 2.36267E+01 0.00000E+00
 -1      4288 2.78291E+01 2.31802E+01 0.00000E+00
 -1      4289 1.21888E+02 2.62343E+01 0.00000E+00
 -3
    3C                          2063                                     1
 -1       164    8    0    1
 -2         6         7        23      1114      1277      1131
 -1       165    8    0    1
 -2         7         8       164      1115      1278      1279
 -1       166    8    0    1
 -2         8         9       165      1116      1280      1281
 -1       167    8    0    1
 -2         8       165       164      1281      1282      1278
 -1       168    8    0    1
 -2         9        10       166      1117      1283      1284
 -1       169    8    0    1
 -2         9       166       165      1284      1285      1280
 -1       170    8    0    1
 -2        10        11       167      1118      1286      1287
 -1       171    8    0    1
 -2        10       167       166      1287      1288      1283
 -1       172    8    0    1
 -2        11        12       168      1119      1289      1290
 -1       173    8    0    1
 -2        11       168       167      1290      1291      1286
 -1       174    8    0    1
 -2        12        13       169      1120      1292      1293
 -1       175    8    0    1
 -2        12       169       168      1293      1294      1289
 -1       176    8    0    1
 -2        13        14       170      1121      1295      1296
 -1       177    8    0    1
 -2        13       170       169      1296      1297      1292
 -1       178    8    0    1
 -2        14        15       171      1122      1298      1299
 -1       179    8    0    1
 -2        14       171       170      1299      1300      1295
 -1       180    8    0    1
 -2        15        16       172      1123      1301      1302
 -1       181    8    0    1
 -2        15       172       171      1302      1303      1298
 -1       182    8    0    1
 -2        16        17       173      1124      1304      1305
 -1       183    8    0    1
 -2        16       173       172      1305      1306      1301
 -1       184    8    0    1
 -2        17        18       174      1125      1307      1308
 -1       185    8    0    1
 -2        17       174       173      1308      1309      1304
 -1       186    8    0    1
 -2        18        19       175      1126      1310      1311
 -1       187    8    0    1
 -2        18       175       174      1311      1312      1307
 -1       188    8    0    1
 -2        19        20       176      1127      1313      1314
 -1       189    8    0    1
 -2        19       176       175      1314      1315      1310
 -1       190    8    0    1
 -2        20        21       177      1128      1316      1317
 -1       191    8    0    1
 -2        20       177       176      1317      1318      1313
 -1       192    8    0    1
 -2        21        22       178      1129      1319      1320
 -1       193    8    0    1
 -2        21       178       177      1320      1321      1316
 -1       194    8    0    1
 -2        22         5       179      1130      1322      1323
 -1       195    8    0    1
 -2       178        22       179      1319      1323      1324
 -1       196    8    0    1
 -2         5        72       179      1181      1325      1322
 -1       197    8    0    1
 -2        24        23       180      1132      1326      1327
 -1       198    8    0    1
 -2        25        24       181      1133      1328      1329
 -1       199    8    0    1
 -2        24       180       181      1327      1330      1328
 -1       200    8    0    1
 -2        26        25       182      1134      1331      1332
 -1       201    8    0    1
 -2        25       181       182      1329      1333      1331
 -1       202    8    0    1
 -2        27        26       183      1135      1334      1335
 -1       203    8    0    1
 -2        26       182       183      1332      1336      1334
 -1       204    8    0    1
 -2        28        27       184      1136      1337      1338
 -1       205    8    0    1
 -2        27       183       184      1335      1339      1337
 -1       206    8    0    1
 -2        29        28       185      1137      1340      1341
 -1       207    8    0    1
 -2        28       184       185      1338      1342      1340
 -1       208    8    0    1
 -2        30        29       186      1138      1343      1344
 -1       209    8    0    1
 -2        29       185       186      1341      1345      1343
 -1       210    8    0    1
 -2        31        30       187      1139      1346      1347
 -1       211    8    0    1
 -2        30       186       187      1344      1348      1346
 -1       212    8    0    1
 -2        32        31       188      1140      1349      1350
 -1       213    8    0    1
 -2        31       187       188      1347      1351      1349
 -1       214    8    0    1
 -2        33        32       189      1141      1352      1353
 -1       215    8    0    1
 -2        32       188       189      1350      1354      1352
 -1       216    8    0    1
 -2        34        33       190      1142      1355      1356
 -1       217    8    0    1
 -2        33       189       190      1353      1357      1355
 -1       218    8    0    1
 -2        35        34       191      1143      1358      1359
 -1       219    8    0    1
 -2        34       190       191      1356      1360      1358
 -1       220    8    0    1
 -2        36        35       192      1144      1361      1362
 -1       221    8    0    1
 -2        35       191       192      1359      1363      1361
 -1       222    8    0    1
 -2        37        36       193      1145      1364      1365
 -1       223    8    0    1
 -2        36       192       193      1362      1366      1364
 -1       224    8    0    1
 -2        38        37       194      1146      1367      1368
 -1       225    8    0    1
 -2        37       193       194      1365      1369      1367
 -1       226    8    0    1
 -2        39        38       195      1147      1370      1371
 -1       227    8    0    1
 -2        38       194       195      1368      1372      1370
 -1       228    8    0    1
 -2        40        39       196      1148      1373      1374
 -1       229    8    0    1
 -2        39       195       196      1371      1375      1373
 -1       230    8    0    1
 -2        41        40       197      1149      1376      1377
 -1       231    8    0    1
 -2        40       196       197      1374      1378      1376
 -1       232    8    0    1
 -2        42        41       198      1150      1379      1380
 -1       233    8    0    1
 -2        41       197       198      1377      1381      1379
 -1       234    8    0    1
 -2        43        42       199      1151      1382      1383
 -1       235    8    0    1
 -2        42       198       199      1380      1384      1382
 -1       236    8    0    1
 -2        44        43       200      1152      1385      1386
 -1       237    8    0    1
 -2        43       199       200      1383      1387      1385
 -1       238    8    0    1
 -2        45        44       201      1153      1388      1389
 -1       239    8    0    1
 -2        44       200       201      1386      1390      1388
 -1       240    8    0    1
 -2        46        45       202      1154      1391      1392
 -1       241    8    0    1
 -2        45       201       202      1389      1393      1391
 -1       242    8    0    1
 -2        47        46       203      1155      1394      1395
 -1       243    8    0    1
 -2        46       202       203      1392      1396      1394
 -1       244    8    0    1
 -2        48        47       204      1156      1397      1398
 -1       245    8    0    1
 -2        47       203       204      1395      1399      1397
 -1       246    8    0    1
 -2        49        48       205      1157      1400      1401
 -1       247    8    0    1
 -2        48       204       205      1398      1402      1400
 -1       248    8    0    1
 -2        50        49       206      1158      1403      1404
 -1       249    8    0    1
 -2        49       205       206      1401      1405      1403
 -1       250    8    0    1
 -2        51        50       207      1159      1406      1407
 -1       251    8    0    1
 -2        50       206       207      1404      1408      1406
 -1       252    8    0    1
 -2        52        51       208      1160      1409      1410
 -1       253    8    0    1
 -2        51       207       208      1407      1411      1409
 -1       254    8    0    1
 -2        53        52       209      1161      1412      1413
 -1       255    8    0    1
 -2        52       208       209      1410      1414      1412
 -1       256    8    0    1
 -2        54        53       210      1162      1415      1416
 -1       257    8    0    1
 -2        53       209       210      1413      1417      1415
 -1       258    8    0    1
 -2        55        54       211      1163      1418      1419
 -1       259    8    0    1
 -2        54       210       211      1416      1420      1418
 -1       260    8    0    1
 -2        56        55       212      1164      1421      1422
 -1       261    8    0    1
 -2        55       211       212      1419      1423      1421
 -1       262    8    0    1
 -2        57        56       213      1165      1424      1425
 -1       263    8    0    1
 -2        56       212       213      1422      1426      1424
 -1       264    8    0    1
 -2        58        57       214      1166      1427      1428
 -1       265    8    0    1
 -2        57       213       214      1425      1429      1427
 -1       266    8    0    1
 -2        59        58       215      1167      1430      1431
 -1       267    8    0    1
 -2        58       214       215      1428      1432      1430
 -1       268    8    0    1
 -2        60        59       216      1168      1433      1434
 -1       269    8    0    1
 -2        59       215       216      1431      1435      1433
 -1       270    8    0    1
 -2        61        60       217      1169      1436      1437
 -1       271    8    0    1
 -2        60       216       217      1434      1438      1436
 -1       272    8    0    1
 -2        62        61       218      1170      1439      1440
 -1       273    8    0    1
 -2        61       217       218      1437      1441      1439
 -1       274    8    0    1
 -2        63        62       219      1171      1442      1443
 -1       275    8    0    1
 -2        62       218       219      1440      1444      1442
 -1       276    8    0    1
 -2        64        63       220      1172      1445      1446
 -1       277    8    0    1
 -2        63       219       220      1443      1447      1445
 -1       278    8    0    1
 -2        65        64       221      1173      1448      1449
 -1       279    8    0    1
 -2        64       220       221      1446      1450      1448
 -1       280    8    0    1
 -2        66        65       222      1174      1451      1452
 -1       281    8    0    1
 -2        65       221       222      1449      1453      1451
 -1       282    8    0    1
 -2        67        66       223      1175      1454      1455
 -1       283    8    0    1
 -2        66       222       223      1452      1456      1454
 -1       284    8    0    1
 -2        68        67       224      1176      1457      1458
 -1       285    8    0    1
 -2        67       223       224      1455      1459      1457
 -1       286    8    0    1
 -2        69        68       225      1177      1460      1461
 -1       287    8    0    1
 -2        68       224       225      1458      1462      1460
 -1       288    8    0    1
 -2        70        69       226      1178      1463      1464
 -1       289    8    0    1
 -2        69       225       226      1461      1465      1463
 -1       290    8    0    1
 -2        71        70       227      1179      1466      1467
 -1       291    8    0    1
 -2        70       226       227      1464      1468      1466
 -1       292    8    0    1
 -2         4        71       228      1180      1469      1470
 -1       293    8    0    1
 -2       136         4       228      1247      1470      1471
 -1       294    8    0    1
 -2        71       227       228      1467      1472      1469
 -1       295    8    0    1
 -2        72        73       229      1182      1473      1474
 -1       296    8    0    1
 -2        72       229       179      1474      1475      1325
 -1       297    8    0    1
 -2        73        74       230      1183      1476      1477
 -1       298    8    0    1
 -2        73       230       229      1477      1478      1473
 -1       299    8    0    1
 -2        74        75       231      1184      1479      1480
 -1       300    8    0    1
 -2        74       231       230      1480      1481      1476
 -1       301    8    0    1
 -2        75        76       232      1185      1482      1483
 -1       302    8    0    1
 -2        75       232       231      1483      1484      1479
 -1       303    8    0    1
 -2        76        77       233      1186      1485      1486
 -1       304    8    0    1
 -2        76       233       232      1486      1487      1482
 -1       305    8    0    1
 -2        77        78       234      1187      1488      1489
 -1       306    8    0    1
 -2        77       234       233      1489      1490      1485
 -1       307    8    0    1
 -2        78        79       235      1188      1491      1492
 -1       308    8    0    1
 -2        78       235       234      1492      1493      1488
 -1       309    8    0    1
 -2        79        80       236      1189      1494      1495
 -1       310    8    0    1
 -2        79       236       235      1495      1496      1491
 -1       311    8    0    1
 -2        80        81       237      1190      1497      1498
 -1       312    8    0    1
 -2        80       237       236      1498      1499      1494
 -1       313    8    0    1
 -2        81        82       238      1191      1500      1501
 -1       314    8    0    1
 -2        81       238       237      1501      1502      1497
 -1       315    8    0    1
 -2        82        83       239      1192      1503      1504
 -1       316    8    0    1
 -2        82       239       238      1504      1505      1500
 -1       317    8    0    1
 -2        83        84       240      1193      1506      1507
 -1       318    8    0    1
 -2        83       240       239      1507      1508      1503
 -1       319    8    0    1
 -2        84        85       241      1194      1509      1510
 -1       320    8    0    1
 -2        84       241       240      1510      1511      1506
 -1       321    8    0    1
 -2        85        86       242      1195      1512      1513
 -1       322    8    0    1
 -2        85       242       241      1513      1514      1509
 -1       323    8    0    1
 -2        86        87       243      1196      1515      1516
 -1       324    8    0    1
 -2        86       243       242      1516      1517      1512
 -1       325    8    0    1
 -2        87        88       244      1197      1518      1519
 -1       326    8    0    1
 -2        87       244       243      1519      1520      1515
 -1       327    8    0    1
 -2        88        89       245      1198      1521      1522
 -1       328    8    0    1
 -2        88       245       244      1522      1523      1518
 -1       329    8    0    1
 -2        89        90       246      1199      1524      1525
 -1       330    8    0    1
 -2        89       246       245      1525      1526      1521
 -1       331    8    0    1
 -2        90        91       247      1200      1527      1528
 -1       332    8    0    1
 -2        90       247       246      1528      1529      1524
 -1       333    8    0    1
 -2        91        92       248      1201      1530      1531
 -1       334    8    0    1
 -2        91       248       247      1531      1532      1527
 -1       335    8    0    1
 -2        92        93       249      1202      1533      1534
 -1       336    8    0    1
 -2        92       249       248      1534      1535      1530
 -1       337    8    0    1
 -2        93        94       250      1203      1536      1537
 -1       338    8    0    1
 -2        93       250       249      1537      1538      1533
 -1       339    8    0    1
 -2        94        95       251      1204      1539      1540
 -1       340    8    0    1
 -2        94       251       250      1540      1541      1536
 -1       341    8    0    1
 -2        95        96       252      1205      1542      1543
 -1       342    8    0    1
 -2        95       252       251      1543      1544      1539
 -1       343    8    0    1
 -2        96        97       253      1206      1545      1546
 -1       344    8    0    1
 -2        96       253       252      1546      1547      1542
 -1       345    8    0    1
 -2        97        98       254      1207      1548      1549
 -1       346    8    0    1
 -2        97       254       253      1549      1550      1545
 -1       347    8    0    1
 -2        98        99       255      1208      1551      1552
 -1       348    8    0    1
 -2        98       255       254      1552      1553      1548
 -1       349    8    0    1
 -2        99       100       256      1209      1554      1555
 -1       350    8    0    1
 -2        99       256       255      1555      1556      1551
 -1       351    8    0    1
 -2       100       101       257      1210      1557      1558
 -1       352    8    0    1
 -2       100       257       256      1558      1559      1554
 -1       353    8    0    1
 -2       101       102       258      1211      1560      1561
 -1       354    8    0    1
 -2       101       258       257      1561      1562      1557
 -1       355    8    0    1
 -2       102       103       259      1212      1563      1564
 -1       356    8    0    1
 -2       102       259       258      1564      1565      1560
 -1       357    8    0    1
 -2       103       104       260      1213      1566      1567
 -1       358    8    0    1
 -2       103       260       259      1567      1568      1563
 -1       359    8    0    1
 -2       104       105       261      1214      1569      1570
 -1       360    8    0    1
 -2       104       261       260      1570      1571      1566
 -1       361    8    0    1
 -2       105       106       262      1215      1572      1573
 -1       362    8    0    1
 -2       105       262       261      1573      1574      1569
 -1       363    8    0    1
 -2       106       107       263      1216      1575      1576
 -1       364    8    0    1
 -2       106       263       262      1576      1577      1572
 -1       365    8    0    1
 -2       107       108       264      1217      1578      1579
 -1       366    8    0    1
 -2       107       264       263      1579      1580      1575
 -1       367    8    0    1
 -2       108       109       265      1218      1581      1582
 -1       368    8    0    1
 -2       108       265       264      1582      1583      1578
 -1       369    8    0    1
 -2       109       110       266      1219      1584      1585
 -1       370    8    0    1
 -2       109       266       265      1585      1586      1581
 -1       371    8    0    1
 -2       110       111       267      1220      1587      1588
 -1       372    8    0    1
 -2       110       267       266      1588      1589      1584
 -1       373    8    0    1
 -2       111       112       268      1221      1590      1591
 -1       374    8    0    1
 -2       111       268       267      1591      1592      1587
 -1       375    8    0    1
 -2       112       113       269      1222      1593      1594
 -1       376    8    0    1
 -2       112       269       268      1594      1595      1590
 -1       377    8    0    1
 -2       113       114       270      1223      1596      1597
 -1       378    8    0    1
 -2       113       270       269      1597      1598      1593
 -1       379    8    0    1
 -2       114       115       271      1224      1599      1600
 -1       380    8    0    1
 -2       114       271       270      1600      1601      1596
 -1       381    8    0    1
 -2       115       116       272      1225      1602      1603
 -1       382    8    0    1
 -2       115       272       271      1603      1604      1599
 -1       383    8    0    1
 -2       116       117       273      1226      1605      1606
 -1       384    8    0    1
 -2       116       273       272      1606      1607      1602
 -1       385    8    0    1
 -2       117       118       274      1227      1608      1609
 -1       386    8    0    1
 -2       117       274       273      1609      1610      1605
 -1       387    8    0    1
 -2       118       119       275      1228      1611      1612
 -1       388    8    0    1
 -2       118       275       274      1612      1613      1608
 -1       389    8    0    1
 -2       119       120       276      1229      1614      1615
 -1       390    8    0    1
 -2       119       276       275      1615      1616      1611
 -1       391    8    0    1
 -2       120         3       121      1230      1231      1617
 -1       392    8    0    1
 -2       121       122       277      1232      1618      1619
 -1       393    8    0    1
 -2       122       123       278      1233      1620      1621
 -1       394    8    0    1
 -2       122       278       277      1621      1622      1618
 -1       395    8    0    1
 -2       123       124       279      1234      1623      1624
 -1       396    8    0    1
 -2       123       279       278      1624      1625      1620
 -1       397    8    0    1
 -2       124       125       280      1235      1626      1627
 -1       398    8    0    1
 -2       124       280       279      1627      1628      1623
 -1       399    8    0    1
 -2       125       126       281      1236      1629      1630
 -1       400    8    0    1
 -2       125       281       280      1630      1631      1626
 -1       401    8    0    1
 -2       126       127       282      1237      1632      1633
 -1       402    8    0    1
 -2       126       282       281      1633      1634      1629
 -1       403    8    0    1
 -2       127       128       283      1238      1635      1636
 -1       404    8    0    1
 -2       127       283       282      1636      1637      1632
 -1       405    8    0    1
 -2       128       129       284      1239      1638      1639
 -1       406    8    0    1
 -2       128       284       283      1639      1640      1635
 -1       407    8    0    1
 -2       129       130       285      1240      1641      1642
 -1       408    8    0    1
 -2       129       285       284      1642      1643      1638
 -1       409    8    0    1
 -2       130       131       286      1241      1644      1645
 -1       410    8    0    1
 -2       130       286       285      1645      1646      1641
 -1       411    8    0    1
 -2       131       132       287      1242      1647      1648
 -1       412    8    0    1
 -2       131       287       286      1648      1649      1644
 -1       413    8    0    1
 -2       132       133       288      1243      1650      1651
 -1       414    8    0    1
 -2       132       288       287      1651      1652      1647
 -1       415    8    0    1
 -2       133       134       289      1244      1653      1654
 -1       416    8    0    1
 -2       133       289       288      1654      1655      1650
 -1       417    8    0    1
 -2       134       135       290      1245      1656      1657
 -1       418    8    0    1
 -2       134       290       289      1657      1658      1653
 -1       419    8    0    1
 -2       135       136       291      1246      1659      1660
 -1       420    8    0    1
 -2       290       135       291      1656      1660      1661
 -1       421    8    0    1
 -2       136       228       291      1471      1662      1659
 -1       422    8    0    1
 -2         2       137       292      1248      1663      1664
 -1       423    8    0    1
 -2       137       138       293      1249      1665      1666
 -1       424    8    0    1
 -2       138       139       294      1250      1667      1668
 -1       425    8    0    1
 -2       139       140       295      1251      1669      1670
 -1       426    8    0    1
 -2       140       141       296      1252      1671      1672
 -1       427    8    0    1
 -2       141       142       297      1253      1673      1674
 -1       428    8    0    1
 -2       142       143       298      1254      1675      1676
 -1       429    8    0    1
 -2       143       144       299      1255      1677      1678
 -1       430    8    0    1
 -2       144       145       300      1256      1679      1680
 -1       431    8    0    1
 -2       145       146       301      1257      1681      1682
 -1       432    8    0    1
 -2       146       147       302      1258      1683      1684
 -1       433    8    0    1
 -2       147       148       303      1259      1685      1686
 -1       434    8    0    1
 -2       148       149       304      1260      1687      1688
 -1       435    8    0    1
 -2       149       150       305      1261      1689      1690
 -1       436    8    0    1
 -2       150       151       306      1262      1691      1692
 -1       437    8    0    1
 -2       151       152       307      1263      1693      1694
 -1       438    8    0    1
 -2       152       153       308      1264      1695      1696
 -1       439    8    0    1
 -2       153         1       309      1265      1697      1698
 -1       440    8    0    1
 -2         1       154       310      1266      1699      1700
 -1       441    8    0    1
 -2       154       155       311      1267      1701      1702
 -1       442    8    0    1
 -2       155       156       312      1268      1703      1704
 -1       443    8    0    1
 -2       156       157       313      1269      1705      1706
 -1       444    8    0    1
 -2       157       158       314      1270      1707      1708
 -1       445    8    0    1
 -2       158       159       315      1271      1709      1710
 -1       446    8    0    1
 -2       159       160       316      1272      1711      1712
 -1       447    8    0    1
 -2       160       161       317      1273      1713      1714
 -1       448    8    0    1
 -2       161       162       318      1274      1715      1716
 -1       449    8    0    1
 -2       162       163       319      1275      1717      1718
 -1       450    8    0    1
 -2       163         2       320      1276      1719      1720
 -1       451    8    0    1
 -2       294       139       295      1667      1670      1721
 -1       452    8    0    1
 -2         2       292       320      1664      1722      1719
 -1       453    8    0    1
 -2       120       121       276      1617      1723      1614
 -1       454    8    0    1
 -2       121       277       276      1619      1724      1723
 -1       455    8    0    1
 -2       292       137       293      1663      1666      1725
 -1       456    8    0    1
 -2       293       138       294      1665      1668      1726
 -1       457    8    0    1
 -2       140       296       295      1672      1727      1669
 -1       458    8    0    1
 -2       141       297       296      1674      1728      1671
 -1       459    8    0    1
 -2       142       298       297      1676      1729      1673
 -1       460    8    0    1
 -2       143       299       298      1678      1730      1675
 -1       461    8    0    1
 -2       144       300       299      1680      1731      1677
 -1       462    8    0    1
 -2       145       301       300      1682      1732      1679
 -1       463    8    0    1
 -2       146       302       301      1684      1733      1681
 -1       464    8    0    1
 -2       147       303       302      1686      1734      1683
 -1       465    8    0    1
 -2       148       304       303      1688      1735      1685
 -1       466    8    0    1
 -2       149       305       304      1690      1736      1687
 -1       467    8    0    1
 -2       150       306       305      1692      1737      1689
 -1       468    8    0    1
 -2       151       307       306      1694      1738      1691
 -1       469    8    0    1
 -2       152       308       307      1696      1739      1693
 -1       470    8    0    1
 -2       153       309       308      1698      1740      1695
 -1       471    8    0    1
 -2         1       310       309      1700      1741      1697
 -1       472    8    0    1
 -2       154       311       310      1702      1742      1699
 -1       473    8    0    1
 -2       155       312       311      1704      1743      1701
 -1       474    8    0    1
 -2       156       313       312      1706      1744      1703
 -1       475    8    0    1
 -2       157       314       313      1708      1745      1705
 -1       476    8    0    1
 -2       158       315       314      1710      1746      1707
 -1       477    8    0    1
 -2       159       316       315      1712      1747      1709
 -1       478    8    0    1
 -2       160       317       316      1714      1748      1711
 -1       479    8    0    1
 -2       161       318       317      1716      1749      1713
 -1       480    8    0    1
 -2       162       319       318      1718      1750      1715
 -1       481    8    0    1
 -2       163       320       319      1720      1751      1717
 -1       482    8    0    1
 -2        23         7       164      1277      1279      1752
 -1       483    8    0    1
 -2       165       166       321      1285      1753      1754
 -1       484    8    0    1
 -2       164       165       322      1282      1755      1756
 -1       485    8    0    1
 -2       165       321       322      1754      1757      1755
 -1       486    8    0    1
 -2       167       168       323      1291      1758      1759
 -1       487    8    0    1
 -2       168       169       324      1294      1760      1761
 -1       488    8    0    1
 -2       168       324       323      1761      1762      1758
 -1       489    8    0    1
 -2       169       170       325      1297      1763      1764
 -1       490    8    0    1
 -2       169       325       324      1764      1765      1760
 -1       491    8    0    1
 -2       170       171       326      1300      1766      1767
 -1       492    8    0    1
 -2       170       326       325      1767      1768      1763
 -1       493    8    0    1
 -2       171       172       327      1303      1769      1770
 -1       494    8    0    1
 -2       171       327       326      1770      1771      1766
 -1       495    8    0    1
 -2       172       173       328      1306      1772      1773
 -1       496    8    0    1
 -2       172       328       327      1773      1774      1769
 -1       497    8    0    1
 -2       173       174       329      1309      1775      1776
 -1       498    8    0    1
 -2       173       329       328      1776      1777      1772
 -1       499    8    0    1
 -2       174       175       330      1312      1778      1779
 -1       500    8    0    1
 -2       174       330       329      1779      1780      1775
 -1       501    8    0    1
 -2       175       176       331      1315      1781      1782
 -1       502    8    0    1
 -2       175       331       330      1782      1783      1778
 -1       503    8    0    1
 -2       176       177       332      1318      1784      1785
 -1       504    8    0    1
 -2       176       332       331      1785      1786      1781
 -1       505    8    0    1
 -2       177       178       333      1321      1787      1788
 -1       506    8    0    1
 -2       177       333       332      1788      1789      1784
 -1       507    8    0    1
 -2       178       179       334      1324      1790      1791
 -1       508    8    0    1
 -2       333       178       334      1787      1791      1792
 -1       509    8    0    1
 -2       179       229       334      1475      1793      1790
 -1       510    8    0    1
 -2       180        23       164      1326      1752      1794
 -1       511    8    0    1
 -2       229       230       335      1478      1795      1796
 -1       512    8    0    1
 -2       229       335       334      1796      1797      1793
 -1       513    8    0    1
 -2       180       164       322      1794      1756      1798
 -1       514    8    0    1
 -2       182       181       336      1333      1799      1800
 -1       515    8    0    1
 -2       183       182       337      1336      1801      1802
 -1       516    8    0    1
 -2       182       336       337      1800      1803      1801
 -1       517    8    0    1
 -2       184       183       338      1339      1804      1805
 -1       518    8    0    1
 -2       183       337       338      1802      1806      1804
 -1       519    8    0    1
 -2       185       184       339      1342      1807      1808
 -1       520    8    0    1
 -2       184       338       339      1805      1809      1807
 -1       521    8    0    1
 -2       186       185       340      1345      1810      1811
 -1       522    8    0    1
 -2       185       339       340      1808      1812      1810
 -1       523    8    0    1
 -2       187       186       341      1348      1813      1814
 -1       524    8    0    1
 -2       186       340       341      1811      1815      1813
 -1       525    8    0    1
 -2       188       187       342      1351      1816      1817
 -1       526    8    0    1
 -2       187       341       342      1814      1818      1816
 -1       527    8    0    1
 -2       189       188       343      1354      1819      1820
 -1       528    8    0    1
 -2       188       342       343      1817      1821      1819
 -1       529    8    0    1
 -2       190       189       344      1357      1822      1823
 -1       530    8    0    1
 -2       189       343       344      1820      1824      1822
 -1       531    8    0    1
 -2       191       190       345      1360      1825      1826
 -1       532    8    0    1
 -2       190       344       345      1823      1827      1825
 -1       533    8    0    1
 -2       192       191       346      1363      1828      1829
 -1       534    8    0    1
 -2       191       345       346      1826      1830      1828
 -1       535    8    0    1
 -2       193       192       347      1366      1831      1832
 -1       536    8    0    1
 -2       192       346       347      1829      1833      1831
 -1       537    8    0    1
 -2       194       193       348      1369      1834      1835
 -1       538    8    0    1
 -2       193       347       348      1832      1836      1834
 -1       539    8    0    1
 -2       195       194       349      1372      1837      1838
 -1       540    8    0    1
 -2       194       348       349      1835      1839      1837
 -1       541    8    0    1
 -2       196       195       350      1375      1840      1841
 -1       542    8    0    1
 -2       195       349       350      1838      1842      1840
 -1       543    8    0    1
 -2       197       196       351      1378      1843      1844
 -1       544    8    0    1
 -2       196       350       351      1841      1845      1843
 -1       545    8    0    1
 -2       198       197       352      1381      1846      1847
 -1       546    8    0    1
 -2       197       351       352      1844      1848      1846
 -1       547    8    0    1
 -2       199       198       353      1384      1849      1850
 -1       548    8    0    1
 -2       198       352       353      1847      1851      1849
 -1       549    8    0    1
 -2       200       199       354      1387      1852      1853
 -1       550    8    0    1
 -2       199       353       354      1850      1854      1852
 -1       551    8    0    1
 -2       201       200       355      1390      1855      1856
 -1       552    8    0    1
 -2       200       354       355      1853      1857      1855
 -1       553    8    0    1
 -2       202       201       356      1393      1858      1859
 -1       554    8    0    1
 -2       201       355       356      1856      1860      1858
 -1       555    8    0    1
 -2       203       202       357      1396      1861      1862
 -1       556    8    0    1
 -2       202       356       357      1859      1863      1861
 -1       557    8    0    1
 -2       204       203       358      1399      1864      1865
 -1       558    8    0    1
 -2       203       357       358      1862      1866      1864
 -1       559    8    0    1
 -2       205       204       359      1402      1867      1868
 -1       560    8    0    1
 -2       204       358       359      1865      1869      1867
 -1       561    8    0    1
 -2       206       205       360      1405      1870      1871
 -1       562    8    0    1
 -2       205       359       360      1868      1872      1870
 -1       563    8    0    1
 -2       207       206       361      1408      1873      1874
 -1       564    8    0    1
 -2       206       360       361      1871      1875      1873
 -1       565    8    0    1
 -2       208       207       362      1411      1876      1877
 -1       566    8    0    1
 -2       207       361       362      1874      1878      1876
 -1       567    8    0    1
 -2       209       208       363      1414      1879      1880
 -1       568    8    0    1
 -2       208       362       363      1877      1881      1879
 -1       569    8    0    1
 -2       210       209       364      1417      1882      1883
 -1       570    8    0    1
 -2       209       363       364      1880      1884      1882
 -1       571    8    0    1
 -2       211       210       365      1420      1885      1886
 -1       572    8    0    1
 -2       210       364       365      1883      1887      1885
 -1       573    8    0    1
 -2       212       211       366      1423      1888      1889
 -1       574    8    0    1
 -2       211       365       366      1886      1890      1888
 -1       575    8    0    1
 -2       213       212       367      1426      1891      1892
 -1       576    8    0    1
 -2       212       366       367      1889      1893      1891
 -1       577    8    0    1
 -2       214       213       368      1429      1894      1895
 -1       578    8    0    1
 -2       213       367       368      1892      1896      1894
 -1       579    8    0    1
 -2       215       214       369      1432      1897      1898
 -1       580    8    0    1
 -2       214       368       369      1895      1899      1897
 -1       581    8    0    1
 -2       216       215       370      1435      1900      1901
 -1       582    8    0    1
 -2       215       369       370      1898      1902      1900
 -1       583    8    0    1
 -2       217       216       371      1438      1903      1904
 -1       584    8    0    1
 -2       216       370       371      1901      1905      1903
 -1       585    8    0    1
 -2       218       217       372      1441      1906      1907
 -1       586    8    0    1
 -2       217       371       372      1904      1908      1906
 -1       587    8    0    1
 -2       219       218       373      1444      1909      1910
 -1       588    8    0    1
 -2       218       372       373      1907      1911      1909
 -1       589    8    0    1
 -2       220       219       374      1447      1912      1913
 -1       590    8    0    1
 -2       219       373       374      1910      1914      1912
 -1       591    8    0    1
 -2       221       220       375      1450      1915      1916
 -1       592    8    0    1
 -2       220       374       375      1913      1917      1915
 -1       593    8    0    1
 -2       222       221       376      1453      1918      1919
 -1       594    8    0    1
 -2       221       375       376      1916      1920      1918
 -1       595    8    0    1
 -2       223       222       377      1456      1921      1922
 -1       596    8    0    1
 -2       222       376       377      1919      1923      1921
 -1       597    8    0    1
 -2       224       223       378      1459      1924      1925
 -1       598    8    0    1
 -2       223       377       378      1922      1926      1924
 -1       599    8    0    1
 -2       225       224       379      1462      1927      1928
 -1       600    8    0    1
 -2       224       378       379      1925      1929      1927
 -1       601    8    0    1
 -2       226       225       380      1465      1930      1931
 -1       602    8    0    1
 -2       225       379       380      1928      1932      1930
 -1       603    8    0    1
 -2       227       226       381      1468      1933      1934
 -1       604    8    0    1
 -2       226       380       381      1931      1935      1933
 -1       605    8    0    1
 -2       228       227       291      1472      1936      1662
 -1       606    8    0    1
 -2       231       232       382      1484      1937      1938
 -1       607    8    0    1
 -2       232       233       383      1487      1939      1940
 -1       608    8    0    1
 -2       232       383       382      1940      1941      1937
 -1       609    8    0    1
 -2       233       234       384      1490      1942      1943
 -1       610    8    0    1
 -2       233       384       383      1943      1944      1939
 -1       611    8    0    1
 -2       234       235       385      1493      1945      1946
 -1       612    8    0    1
 -2       234       385       384      1946      1947      1942
 -1       613    8    0    1
 -2       235       236       386      1496      1948      1949
 -1       614    8    0    1
 -2       235       386       385      1949      1950      1945
 -1       615    8    0    1
 -2       236       237       387      1499      1951      1952
 -1       616    8    0    1
 -2       236       387       386      1952      1953      1948
 -1       617    8    0    1
 -2       237       238       388      1502      1954      1955
 -1       618    8    0    1
 -2       237       388       387      1955      1956      1951
 -1       619    8    0    1
 -2       238       239       389      1505      1957      1958
 -1       620    8    0    1
 -2       238       389       388      1958      1959      1954
 -1       621    8    0    1
 -2       239       240       390      1508      1960      1961
 -1       622    8    0    1
 -2       239       390       389      1961      1962      1957
 -1       623    8    0    1
 -2       240       241       391      1511      1963      1964
 -1       624    8    0    1
 -2       240       391       390      1964      1965      1960
 -1       625    8    0    1
 -2       241       242       392      1514      1966      1967
 -1       626    8    0    1
 -2       241       392       391      1967      1968      1963
 -1       627    8    0    1
 -2       242       243       393      1517      1969      1970
 -1       628    8    0    1
 -2       242       393       392      1970      1971      1966
 -1       629    8    0    1
 -2       243       244       394      1520      1972      1973
 -1       630    8    0    1
 -2       243       394       393      1973      1974      1969
 -1       631    8    0    1
 -2       244       245       395      1523      1975      1976
 -1       632    8    0    1
 -2       244       395       394      1976      1977      1972
 -1       633    8    0    1
 -2       245       246       396      1526      1978      1979
 -1       634    8    0    1
 -2       245       396       395      1979      1980      1975
 -1       635    8    0    1
 -2       246       247       397      1529      1981      1982
 -1       636    8    0    1
 -2       246       397       396      1982      1983      1978
 -1       637    8    0    1
 -2       247       248       398      1532      1984      1985
 -1       638    8    0    1
 -2       247       398       397      1985      1986      1981
 -1       639    8    0    1
 -2       248       249       399      1535      1987      1988
 -1       640    8    0    1
 -2       248       399       398      1988      1989      1984
 -1       641    8    0    1
 -2       249       250       400      1538      1990      1991
 -1       642    8    0    1
 -2       249       400       399      1991      1992      1987
 -1       643    8    0    1
 -2       250       251       401      1541      1993      1994
 -1       644    8    0    1
 -2       250       401       400      1994      1995      1990
 -1       645    8    0    1
 -2       251       252       402      1544      1996      1997
 -1       646    8    0    1
 -2       251       402       401      1997      1998      1993
 -1       647    8    0    1
 -2       252       253       403      1547      1999      2000
 -1       648    8    0    1
 -2       252       403       402      2000      2001      1996
 -1       649    8    0    1
 -2       253       254       404      1550      2002      2003
 -1       650    8    0    1
 -2       253       404       403      2003      2004      1999
 -1       651    8    0    1
 -2       254       255       405      1553      2005      2006
 -1       652    8    0    1
 -2       254       405       404      2006      2007      2002
 -1       653    8    0    1
 -2       255       256       406      1556      2008      2009
 -1       654    8    0    1
 -2       255       406       405      2009      2010      2005
 -1       655    8    0    1
 -2       256       257       407      1559      2011      2012
 -1       656    8    0    1
 -2       256       407       406      2012      2013      2008
 -1       657    8    0    1
 -2       257       258       408      1562      2014      2015
 -1       658    8    0    1
 -2       257       408       407      2015      2016      2011
 -1       659    8    0    1
 -2       258       259       409      1565      2017      2018
 -1       660    8    0    1
 -2       258       409       408      2018      2019      2014
 -1       661    8    0    1
 -2       259       260       410      1568      2020      2021
 -1       662    8    0    1
 -2       259       410       409      2021      2022      2017
 -1       663    8    0    1
 -2       260       261       411      1571      2023      2024
 -1       664    8    0    1
 -2       260       411       410      2024      2025      2020
 -1       665    8    0    1
 -2       261       262       412      1574      2026      2027
 -1       666    8    0    1
 -2       261       412       411      2027      2028      2023
 -1       667    8    0    1
 -2       262       263       413      1577      2029      2030
 -1       668    8    0    1
 -2       262       413       412      2030      2031      2026
 -1       669    8    0    1
 -2       263       264       414      1580      2032      2033
 -1       670    8    0    1
 -2       263       414       413      2033      2034      2029
 -1       671    8    0    1
 -2       264       265       415      1583      2035      2036
 -1       672    8    0    1
 -2       264       415       414      2036      2037      2032
 -1       673    8    0    1
 -2       265       266       416      1586      2038      2039
 -1       674    8    0    1
 -2       265       416       415      2039      2040      2035
 -1       675    8    0    1
 -2       266       267       417      1589      2041      2042
 -1       676    8    0    1
 -2       266       417       416      2042      2043      2038
 -1       677    8    0    1
 -2       267       268       418      1592      2044      2045
 -1       678    8    0    1
 -2       267       418       417      2045      2046      2041
 -1       679    8    0    1
 -2       268       269       419      1595      2047      2048
 -1       680    8    0    1
 -2       268       419       418      2048      2049      2044
 -1       681    8    0    1
 -2       269       270       420      1598      2050      2051
 -1       682    8    0    1
 -2       269       420       419      2051      2052      2047
 -1       683    8    0    1
 -2       270       271       421      1601      2053      2054
 -1       684    8    0    1
 -2       270       421       420      2054      2055      2050
 -1       685    8    0    1
 -2       271       272       422      1604      2056      2057
 -1       686    8    0    1
 -2       271       422       421      2057      2058      2053
 -1       687    8    0    1
 -2       272       273       423      1607      2059      2060
 -1       688    8    0    1
 -2       272       423       422      2060      2061      2056
 -1       689    8    0    1
 -2       273       274       424      1610      2062      2063
 -1       690    8    0    1
 -2       273       424       423      2063      2064      2059
 -1       691    8    0    1
 -2       274       275       425      1613      2065      2066
 -1       692    8    0    1
 -2       274       425       424      2066      2067      2062
 -1       693    8    0    1
 -2       275       276       426      1616      2068      2069
 -1       694    8    0    1
 -2       425       275       426      2065      2069      2070
 -1       695    8    0    1
 -2       276       277       426      1724      2071      2068
 -1       696    8    0    1
 -2       279       280       427      1628      2072      2073
 -1       697    8    0    1
 -2       278       279       428      1625      2074      2075
 -1       698    8    0    1
 -2       279       427       428      2073      2076      2074
 -1       699    8    0    1
 -2       277       278       426      1622      2077      2071
 -1       700    8    0    1
 -2       280       281       429      1631      2078      2079
 -1       701    8    0    1
 -2       280       429       427      2079      2080      2072
 -1       702    8    0    1
 -2       281       282       430      1634      2081      2082
 -1       703    8    0    1
 -2       281       430       429      2082      2083      2078
 -1       704    8    0    1
 -2       282       283       431      1637      2084      2085
 -1       705    8    0    1
 -2       282       431       430      2085      2086      2081
 -1       706    8    0    1
 -2       283       284       432      1640      2087      2088
 -1       707    8    0    1
 -2       283       432       431      2088      2089      2084
 -1       708    8    0    1
 -2       284       285       433      1643      2090      2091
 -1       709    8    0    1
 -2       284       433       432      2091      2092      2087
 -1       710    8    0    1
 -2       285       286       434      1646      2093      2094
 -1       711    8    0    1
 -2       285       434       433      2094      2095      2090
 -1       712    8    0    1
 -2       286       287       435      1649      2096      2097
 -1       713    8    0    1
 -2       286       435       434      2097      2098      2093
 -1       714    8    0    1
 -2       287       288       436      1652      2099      2100
 -1       715    8    0    1
 -2       287       436       435      2100      2101      2096
 -1       716    8    0    1
 -2       288       289       437      1655      2102      2103
 -1       717    8    0    1
 -2       288       437       436      2103      2104      2099
 -1       718    8    0    1
 -2       289       290       438      1658      2105      2106
 -1       719    8    0    1
 -2       289       438       437      2106      2107      2102
 -1       720    8    0    1
 -2       230       231       439      1481      2108      2109
 -1       721    8    0    1
 -2       335       230       439      1795      2109      2110
 -1       722    8    0    1
 -2       231       382       439      1938      2111      2108
 -1       723    8    0    1
 -2       293       294       440      1726      2112      2113
 -1       724    8    0    1
 -2       295       296       441      1727      2114      2115
 -1       725    8    0    1
 -2       320       292       442      1722      2116      2117
 -1       726    8    0    1
 -2       294       295       443      1721      2118      2119
 -1       727    8    0    1
 -2       166       167       444      1288      2120      2121
 -1       728    8    0    1
 -2       321       166       444      1753      2121      2122
 -1       729    8    0    1
 -2       167       323       444      1759      2123      2120
 -1       730    8    0    1
 -2       296       297       445      1728      2124      2125
 -1       731    8    0    1
 -2       297       298       446      1729      2126      2127
 -1       732    8    0    1
 -2       298       299       447      1730      2128      2129
 -1       733    8    0    1
 -2       299       300       448      1731      2130      2131
 -1       734    8    0    1
 -2       299       448       447      2131      2132      2128
 -1       735    8    0    1
 -2       300       301       449      1732      2133      2134
 -1       736    8    0    1
 -2       301       302       450      1733      2135      2136
 -1       737    8    0    1
 -2       302       303       451      1734      2137      2138
 -1       738    8    0    1
 -2       303       304       452      1735      2139      2140
 -1       739    8    0    1
 -2       304       305       453      1736      2141      2142
 -1       740    8    0    1
 -2       304       453       452      2142      2143      2139
 -1       741    8    0    1
 -2       305       306       454      1737      2144      2145
 -1       742    8    0    1
 -2       306       307       455      1738      2146      2147
 -1       743    8    0    1
 -2       306       455       454      2147      2148      2144
 -1       744    8    0    1
 -2       307       308       456      1739      2149      2150
 -1       745    8    0    1
 -2       308       309       457      1740      2151      2152
 -1       746    8    0    1
 -2       309       310       458      1741      2153      2154
 -1       747    8    0    1
 -2       310       311       459      1742      2155      2156
 -1       748    8    0    1
 -2       311       312       460      1743      2157      2158
 -1       749    8    0    1
 -2       312       313       461      1744      2159      2160
 -1       750    8    0    1
 -2       313       314       462      1745      2161      2162
 -1       751    8    0    1
 -2       314       315       463      1746      2163      2164
 -1       752    8    0    1
 -2       314       463       462      2164      2165      2161
 -1       753    8    0    1
 -2       315       316       464      1747      2166      2167
 -1       754    8    0    1
 -2       316       317       465      1748      2168      2169
 -1       755    8    0    1
 -2       317       318       466      1749      2170      2171
 -1       756    8    0    1
 -2       318       319       467      1750      2172      2173
 -1       757    8    0    1
 -2       319       320       468      1751      2174      2175
 -1       758    8    0    1
 -2       292       293       469      1725      2176      2177
 -1       759    8    0    1
 -2       291       227       381      1936      1934      2178
 -1       760    8    0    1
 -2       443       295       441      2118      2115      2179
 -1       761    8    0    1
 -2       180       322       181      1798      2180      1330
 -1       762    8    0    1
 -2       440       294       443      2112      2119      2181
 -1       763    8    0    1
 -2       296       445       441      2125      2182      2114
 -1       764    8    0    1
 -2       336       181       322      1799      2180      2183
 -1       765    8    0    1
 -2       426       278       428      2077      2075      2184
 -1       766    8    0    1
 -2       442       292       469      2116      2177      2185
 -1       767    8    0    1
 -2       290       291       381      1661      2178      2186
 -1       768    8    0    1
 -2       293       440       469      2113      2187      2176
 -1       769    8    0    1
 -2       320       442       468      2117      2188      2174
 -1       770    8    0    1
 -2       467       319       468      2172      2175      2189
 -1       771    8    0    1
 -2       466       318       467      2170      2173      2190
 -1       772    8    0    1
 -2       465       317       466      2168      2171      2191
 -1       773    8    0    1
 -2       463       315       464      2163      2167      2192
 -1       774    8    0    1
 -2       461       313       462      2159      2162      2193
 -1       775    8    0    1
 -2       460       312       461      2157      2160      2194
 -1       776    8    0    1
 -2       459       311       460      2155      2158      2195
 -1       777    8    0    1
 -2       458       310       459      2153      2156      2196
 -1       778    8    0    1
 -2       457       309       458      2151      2154      2197
 -1       779    8    0    1
 -2       455       307       470      2146      2198      2199
 -1       780    8    0    1
 -2       307       456       470      2150      2200      2198
 -1       781    8    0    1
 -2       453       305       454      2141      2145      2201
 -1       782    8    0    1
 -2       451       303       452      2137      2140      2202
 -1       783    8    0    1
 -2       450       302       451      2135      2138      2203
 -1       784    8    0    1
 -2       448       300       471      2130      2204      2205
 -1       785    8    0    1
 -2       300       449       471      2134      2206      2204
 -1       786    8    0    1
 -2       445       297       446      2124      2127      2207
 -1       787    8    0    1
 -2       446       298       447      2126      2129      2208
 -1       788    8    0    1
 -2       449       301       450      2133      2136      2209
 -1       789    8    0    1
 -2       456       308       457      2149      2152      2210
 -1       790    8    0    1
 -2       464       316       465      2166      2169      2211
 -1       791    8    0    1
 -2       290       381       438      2186      2212      2105
 -1       792    8    0    1
 -2       324       325       472      1765      2213      2214
 -1       793    8    0    1
 -2       323       324       473      1762      2215      2216
 -1       794    8    0    1
 -2       324       472       473      2214      2217      2215
 -1       795    8    0    1
 -2       326       327       474      1771      2218      2219
 -1       796    8    0    1
 -2       327       328       475      1774      2220      2221
 -1       797    8    0    1
 -2       327       475       474      2221      2222      2218
 -1       798    8    0    1
 -2       328       329       476      1777      2223      2224
 -1       799    8    0    1
 -2       328       476       475      2224      2225      2220
 -1       800    8    0    1
 -2       329       330       477      1780      2226      2227
 -1       801    8    0    1
 -2       329       477       476      2227      2228      2223
 -1       802    8    0    1
 -2       330       331       478      1783      2229      2230
 -1       803    8    0    1
 -2       330       478       477      2230      2231      2226
 -1       804    8    0    1
 -2       331       332       479      1786      2232      2233
 -1       805    8    0    1
 -2       331       479       478      2233      2234      2229
 -1       806    8    0    1
 -2       332       333       480      1789      2235      2236
 -1       807    8    0    1
 -2       332       480       479      2236      2237      2232
 -1       808    8    0    1
 -2       333       334       481      1792      2238      2239
 -1       809    8    0    1
 -2       480       333       481      2235      2239      2240
 -1       810    8    0    1
 -2       334       335       481      1797      2241      2238
 -1       811    8    0    1
 -2       337       336       482      1803      2242      2243
 -1       812    8    0    1
 -2       440       443       483      2181      2244      2245
 -1       813    8    0    1
 -2       443       441       484      2179      2246      2247
 -1       814    8    0    1
 -2       338       337       485      1806      2248      2249
 -1       815    8    0    1
 -2       337       482       485      2243      2250      2248
 -1       816    8    0    1
 -2       339       338       486      1809      2251      2252
 -1       817    8    0    1
 -2       338       485       486      2249      2253      2251
 -1       818    8    0    1
 -2       340       339       487      1812      2254      2255
 -1       819    8    0    1
 -2       339       486       487      2252      2256      2254
 -1       820    8    0    1
 -2       341       340       488      1815      2257      2258
 -1       821    8    0    1
 -2       340       487       488      2255      2259      2257
 -1       822    8    0    1
 -2       342       341       489      1818      2260      2261
 -1       823    8    0    1
 -2       341       488       489      2258      2262      2260
 -1       824    8    0    1
 -2       343       342       490      1821      2263      2264
 -1       825    8    0    1
 -2       342       489       490      2261      2265      2263
 -1       826    8    0    1
 -2       344       343       491      1824      2266      2267
 -1       827    8    0    1
 -2       343       490       491      2264      2268      2266
 -1       828    8    0    1
 -2       345       344       492      1827      2269      2270
 -1       829    8    0    1
 -2       344       491       492      2267      2271      2269
 -1       830    8    0    1
 -2       346       345       493      1830      2272      2273
 -1       831    8    0    1
 -2       345       492       493      2270      2274      2272
 -1       832    8    0    1
 -2       347       346       494      1833      2275      2276
 -1       833    8    0    1
 -2       346       493       494      2273      2277      2275
 -1       834    8    0    1
 -2       348       347       495      1836      2278      2279
 -1       835    8    0    1
 -2       347       494       495      2276      2280      2278
 -1       836    8    0    1
 -2       349       348       496      1839      2281      2282
 -1       837    8    0    1
 -2       348       495       496      2279      2283      2281
 -1       838    8    0    1
 -2       350       349       497      1842      2284      2285
 -1       839    8    0    1
 -2       349       496       497      2282      2286      2284
 -1       840    8    0    1
 -2       351       350       498      1845      2287      2288
 -1       841    8    0    1
 -2       350       497       498      2285      2289      2287
 -1       842    8    0    1
 -2       352       351       499      1848      2290      2291
 -1       843    8    0    1
 -2       351       498       499      2288      2292      2290
 -1       844    8    0    1
 -2       353       352       500      1851      2293      2294
 -1       845    8    0    1
 -2       352       499       500      2291      2295      2293
 -1       846    8    0    1
 -2       354       353       501      1854      2296      2297
 -1       847    8    0    1
 -2       353       500       501      2294      2298      2296
 -1       848    8    0    1
 -2       355       354       502      1857      2299      2300
 -1       849    8    0    1
 -2       354       501       502      2297      2301      2299
 -1       850    8    0    1
 -2       356       355       503      1860      2302      2303
 -1       851    8    0    1
 -2       355       502       503      2300      2304      2302
 -1       852    8    0    1
 -2       357       356       504      1863      2305      2306
 -1       853    8    0    1
 -2       356       503       504      2303      2307      2305
 -1       854    8    0    1
 -2       358       357       505      1866      2308      2309
 -1       855    8    0    1
 -2       357       504       505      2306      2310      2308
 -1       856    8    0    1
 -2       359       358       506      1869      2311      2312
 -1       857    8    0    1
 -2       358       505       506      2309      2313      2311
 -1       858    8    0    1
 -2       360       359       507      1872      2314      2315
 -1       859    8    0    1
 -2       359       506       507      2312      2316      2314
 -1       860    8    0    1
 -2       361       360       508      1875      2317      2318
 -1       861    8    0    1
 -2       360       507       508      2315      2319      2317
 -1       862    8    0    1
 -2       362       361       509      1878      2320      2321
 -1       863    8    0    1
 -2       361       508       509      2318      2322      2320
 -1       864    8    0    1
 -2       363       362       510      1881      2323      2324
 -1       865    8    0    1
 -2       362       509       510      2321      2325      2323
 -1       866    8    0    1
 -2       364       363       511      1884      2326      2327
 -1       867    8    0    1
 -2       363       510       511      2324      2328      2326
 -1       868    8    0    1
 -2       365       364       512      1887      2329      2330
 -1       869    8    0    1
 -2       366       365       460      1890      2331      2332
 -1       870    8    0    1
 -2       367       366       462      1893      2333      2334
 -1       871    8    0    1
 -2       370       369       513      1902      2335      2336
 -1       872    8    0    1
 -2       371       370       514      1905      2337      2338
 -1       873    8    0    1
 -2       370       513       514      2336      2339      2337
 -1       874    8    0    1
 -2       372       371       515      1908      2340      2341
 -1       875    8    0    1
 -2       371       514       515      2338      2342      2340
 -1       876    8    0    1
 -2       373       372       516      1911      2343      2344
 -1       877    8    0    1
 -2       372       515       516      2341      2345      2343
 -1       878    8    0    1
 -2       374       373       517      1914      2346      2347
 -1       879    8    0    1
 -2       373       516       517      2344      2348      2346
 -1       880    8    0    1
 -2       375       374       518      1917      2349      2350
 -1       881    8    0    1
 -2       374       517       518      2347      2351      2349
 -1       882    8    0    1
 -2       376       375       519      1920      2352      2353
 -1       883    8    0    1
 -2       375       518       519      2350      2354      2352
 -1       884    8    0    1
 -2       377       376       520      1923      2355      2356
 -1       885    8    0    1
 -2       376       519       520      2353      2357      2355
 -1       886    8    0    1
 -2       378       377       521      1926      2358      2359
 -1       887    8    0    1
 -2       377       520       521      2356      2360      2358
 -1       888    8    0    1
 -2       379       378       522      1929      2361      2362
 -1       889    8    0    1
 -2       378       521       522      2359      2363      2361
 -1       890    8    0    1
 -2       380       379       523      1932      2364      2365
 -1       891    8    0    1
 -2       379       522       523      2362      2366      2364
 -1       892    8    0    1
 -2       381       380       524      1935      2367      2368
 -1       893    8    0    1
 -2       438       381       524      2212      2368      2369
 -1       894    8    0    1
 -2       380       523       524      2365      2370      2367
 -1       895    8    0    1
 -2       384       385       525      1947      2371      2372
 -1       896    8    0    1
 -2       383       384       526      1944      2373      2374
 -1       897    8    0    1
 -2       384       525       526      2372      2375      2373
 -1       898    8    0    1
 -2       382       383       527      1941      2376      2377
 -1       899    8    0    1
 -2       383       526       527      2374      2378      2376
 -1       900    8    0    1
 -2       385       386       528      1950      2379      2380
 -1       901    8    0    1
 -2       385       528       525      2380      2381      2371
 -1       902    8    0    1
 -2       386       387       529      1953      2382      2383
 -1       903    8    0    1
 -2       386       529       528      2383      2384      2379
 -1       904    8    0    1
 -2       387       388       530      1956      2385      2386
 -1       905    8    0    1
 -2       387       530       529      2386      2387      2382
 -1       906    8    0    1
 -2       388       389       531      1959      2388      2389
 -1       907    8    0    1
 -2       388       531       530      2389      2390      2385
 -1       908    8    0    1
 -2       389       390       532      1962      2391      2392
 -1       909    8    0    1
 -2       389       532       531      2392      2393      2388
 -1       910    8    0    1
 -2       390       391       533      1965      2394      2395
 -1       911    8    0    1
 -2       390       533       532      2395      2396      2391
 -1       912    8    0    1
 -2       391       392       534      1968      2397      2398
 -1       913    8    0    1
 -2       391       534       533      2398      2399      2394
 -1       914    8    0    1
 -2       392       393       535      1971      2400      2401
 -1       915    8    0    1
 -2       392       535       534      2401      2402      2397
 -1       916    8    0    1
 -2       393       394       536      1974      2403      2404
 -1       917    8    0    1
 -2       393       536       535      2404      2405      2400
 -1       918    8    0    1
 -2       394       395       537      1977      2406      2407
 -1       919    8    0    1
 -2       394       537       536      2407      2408      2403
 -1       920    8    0    1
 -2       395       396       538      1980      2409      2410
 -1       921    8    0    1
 -2       395       538       537      2410      2411      2406
 -1       922    8    0    1
 -2       396       397       539      1983      2412      2413
 -1       923    8    0    1
 -2       396       539       538      2413      2414      2409
 -1       924    8    0    1
 -2       397       398       540      1986      2415      2416
 -1       925    8    0    1
 -2       397       540       539      2416      2417      2412
 -1       926    8    0    1
 -2       398       399       541      1989      2418      2419
 -1       927    8    0    1
 -2       398       541       540      2419      2420      2415
 -1       928    8    0    1
 -2       399       400       542      1992      2421      2422
 -1       929    8    0    1
 -2       399       542       541      2422      2423      2418
 -1       930    8    0    1
 -2       400       401       543      1995      2424      2425
 -1       931    8    0    1
 -2       400       543       542      2425      2426      2421
 -1       932    8    0    1
 -2       401       402       544      1998      2427      2428
 -1       933    8    0    1
 -2       401       544       543      2428      2429      2424
 -1       934    8    0    1
 -2       402       403       545      2001      2430      2431
 -1       935    8    0    1
 -2       402       545       544      2431      2432      2427
 -1       936    8    0    1
 -2       403       404       546      2004      2433      2434
 -1       937    8    0    1
 -2       403       546       545      2434      2435      2430
 -1       938    8    0    1
 -2       404       405       547      2007      2436      2437
 -1       939    8    0    1
 -2       404       547       546      2437      2438      2433
 -1       940    8    0    1
 -2       405       406       548      2010      2439      2440
 -1       941    8    0    1
 -2       405       548       547      2440      2441      2436
 -1       942    8    0    1
 -2       406       407       549      2013      2442      2443
 -1       943    8    0    1
 -2       406       549       548      2443      2444      2439
 -1       944    8    0    1
 -2       407       408       550      2016      2445      2446
 -1       945    8    0    1
 -2       407       550       549      2446      2447      2442
 -1       946    8    0    1
 -2       408       409       551      2019      2448      2449
 -1       947    8    0    1
 -2       408       551       550      2449      2450      2445
 -1       948    8    0    1
 -2       409       410       552      2022      2451      2452
 -1       949    8    0    1
 -2       409       552       551      2452      2453      2448
 -1       950    8    0    1
 -2       410       411       553      2025      2454      2455
 -1       951    8    0    1
 -2       410       553       552      2455      2456      2451
 -1       952    8    0    1
 -2       411       412       554      2028      2457      2458
 -1       953    8    0    1
 -2       411       554       553      2458      2459      2454
 -1       954    8    0    1
 -2       412       413       555      2031      2460      2461
 -1       955    8    0    1
 -2       412       555       554      2461      2462      2457
 -1       956    8    0    1
 -2       413       414       556      2034      2463      2464
 -1       957    8    0    1
 -2       413       556       555      2464      2465      2460
 -1       958    8    0    1
 -2       414       415       557      2037      2466      2467
 -1       959    8    0    1
 -2       414       557       556      2467      2468      2463
 -1       960    8    0    1
 -2       415       416       558      2040      2469      2470
 -1       961    8    0    1
 -2       415       558       557      2470      2471      2466
 -1       962    8    0    1
 -2       416       417       559      2043      2472      2473
 -1       963    8    0    1
 -2       416       559       558      2473      2474      2469
 -1       964    8    0    1
 -2       417       418       560      2046      2475      2476
 -1       965    8    0    1
 -2       417       560       559      2476      2477      2472
 -1       966    8    0    1
 -2       418       419       561      2049      2478      2479
 -1       967    8    0    1
 -2       418       561       560      2479      2480      2475
 -1       968    8    0    1
 -2       419       420       562      2052      2481      2482
 -1       969    8    0    1
 -2       419       562       561      2482      2483      2478
 -1       970    8    0    1
 -2       420       421       563      2055      2484      2485
 -1       971    8    0    1
 -2       420       563       562      2485      2486      2481
 -1       972    8    0    1
 -2       421       422       564      2058      2487      2488
 -1       973    8    0    1
 -2       421       564       563      2488      2489      2484
 -1       974    8    0    1
 -2       422       423       565      2061      2490      2491
 -1       975    8    0    1
 -2       422       565       564      2491      2492      2487
 -1       976    8    0    1
 -2       423       424       566      2064      2493      2494
 -1       977    8    0    1
 -2       423       566       565      2494      2495      2490
 -1       978    8    0    1
 -2       424       425       567      2067      2496      2497
 -1       979    8    0    1
 -2       424       567       566      2497      2498      2493
 -1       980    8    0    1
 -2       425       426       428      2070      2184      2499
 -1       981    8    0    1
 -2       429       430       568      2083      2500      2501
 -1       982    8    0    1
 -2       427       429       569      2080      2502      2503
 -1       983    8    0    1
 -2       429       568       569      2501      2504      2502
 -1       984    8    0    1
 -2       428       427       570      2076      2505      2506
 -1       985    8    0    1
 -2       427       569       570      2503      2507      2505
 -1       986    8    0    1
 -2       442       469       571      2185      2508      2509
 -1       987    8    0    1
 -2       430       431       572      2086      2510      2511
 -1       988    8    0    1
 -2       430       572       568      2511      2512      2500
 -1       989    8    0    1
 -2       431       432       573      2089      2513      2514
 -1       990    8    0    1
 -2       431       573       572      2514      2515      2510
 -1       991    8    0    1
 -2       432       433       574      2092      2516      2517
 -1       992    8    0    1
 -2       432       574       573      2517      2518      2513
 -1       993    8    0    1
 -2       433       434       575      2095      2519      2520
 -1       994    8    0    1
 -2       433       575       574      2520      2521      2516
 -1       995    8    0    1
 -2       434       435       576      2098      2522      2523
 -1       996    8    0    1
 -2       434       576       575      2523      2524      2519
 -1       997    8    0    1
 -2       435       436       577      2101      2525      2526
 -1       998    8    0    1
 -2       435       577       576      2526      2527      2522
 -1       999    8    0    1
 -2       436       437       578      2104      2528      2529
 -1      1000    8    0    1
 -2       436       578       577      2529      2530      2525
 -1      1001    8    0    1
 -2       437       438       579      2107      2531      2532
 -1      1002    8    0    1
 -2       578       437       579      2528      2532      2533
 -1      1003    8    0    1
 -2       438       524       579      2369      2534      2531
 -1      1004    8    0    1
 -2       336       322       580      2183      2535      2536
 -1      1005    8    0    1
 -2       482       336       580      2242      2536      2537
 -1      1006    8    0    1
 -2       322       321       580      1757      2538      2535
 -1      1007    8    0    1
 -2       441       445       581      2182      2539      2540
 -1      1008    8    0    1
 -2       468       442       582      2188      2541      2542
 -1      1009    8    0    1
 -2       442       571       582      2509      2543      2541
 -1      1010    8    0    1
 -2       467       468       583      2189      2544      2545
 -1      1011    8    0    1
 -2       451       452       584      2202      2546      2547
 -1      1012    8    0    1
 -2       445       446       585      2207      2548      2549
 -1      1013    8    0    1
 -2       325       326       586      1768      2550      2551
 -1      1014    8    0    1
 -2       472       325       586      2213      2551      2552
 -1      1015    8    0    1
 -2       326       474       586      2219      2553      2550
 -1      1016    8    0    1
 -2       446       447       587      2208      2554      2555
 -1      1017    8    0    1
 -2       449       450       588      2209      2556      2557
 -1      1018    8    0    1
 -2       447       448       589      2132      2558      2559
 -1      1019    8    0    1
 -2       456       457       590      2210      2560      2561
 -1      1020    8    0    1
 -2       450       451       591      2203      2562      2563
 -1      1021    8    0    1
 -2       452       453       592      2143      2564      2565
 -1      1022    8    0    1
 -2       453       454       593      2201      2566      2567
 -1      1023    8    0    1
 -2       453       593       592      2567      2568      2564
 -1      1024    8    0    1
 -2       454       455       594      2148      2569      2570
 -1      1025    8    0    1
 -2       464       465       595      2211      2571      2572
 -1      1026    8    0    1
 -2       457       458       596      2197      2573      2574
 -1      1027    8    0    1
 -2       458       459       512      2196      2575      2576
 -1      1028    8    0    1
 -2       462       463       367      2165      2577      2334
 -1      1029    8    0    1
 -2       463       464       597      2192      2578      2579
 -1      1030    8    0    1
 -2       465       466       598      2191      2580      2581
 -1      1031    8    0    1
 -2       466       467       599      2190      2582      2583
 -1      1032    8    0    1
 -2       469       440       600      2187      2584      2585
 -1      1033    8    0    1
 -2       440       483       600      2245      2586      2584
 -1      1034    8    0    1
 -2       425       428       567      2499      2587      2496
 -1      1035    8    0    1
 -2       323       473       601      2216      2588      2589
 -1      1036    8    0    1
 -2       323       601       444      2589      2590      2123
 -1      1037    8    0    1
 -2       581       445       585      2539      2549      2591
 -1      1038    8    0    1
 -2       481       335       602      2241      2592      2593
 -1      1039    8    0    1
 -2       335       439       602      2110      2594      2592
 -1      1040    8    0    1
 -2       483       443       484      2244      2247      2595
 -1      1041    8    0    1
 -2       567       428       570      2587      2506      2596
 -1      1042    8    0    1
 -2       364       511       512      2327      2597      2329
 -1      1043    8    0    1
 -2       366       460       461      2332      2194      2598
 -1      1044    8    0    1
 -2       368       367       463      1896      2577      2599
 -1      1045    8    0    1
 -2       467       583       599      2545      2600      2582
 -1      1046    8    0    1
 -2       571       469       603      2508      2601      2602
 -1      1047    8    0    1
 -2       469       600       603      2585      2603      2601
 -1      1048    8    0    1
 -2       580       321       444      2538      2122      2604
 -1      1049    8    0    1
 -2       584       452       592      2546      2565      2605
 -1      1050    8    0    1
 -2       446       587       585      2555      2606      2548
 -1      1051    8    0    1
 -2       439       382       604      2111      2607      2608
 -1      1052    8    0    1
 -2       602       439       604      2594      2608      2609
 -1      1053    8    0    1
 -2       382       527       604      2377      2610      2607
 -1      1054    8    0    1
 -2       598       466       599      2580      2583      2611
 -1      1055    8    0    1
 -2       468       582       605      2542      2612      2613
 -1      1056    8    0    1
 -2       468       605       583      2613      2614      2544
 -1      1057    8    0    1
 -2       451       584       591      2547      2615      2562
 -1      1058    8    0    1
 -2       595       465       598      2571      2581      2616
 -1      1059    8    0    1
 -2       593       454       594      2566      2570      2617
 -1      1060    8    0    1
 -2       461       462       366      2193      2333      2598
 -1      1061    8    0    1
 -2       590       457       606      2560      2618      2619
 -1      1062    8    0    1
 -2       457       596       606      2574      2620      2618
 -1      1063    8    0    1
 -2       589       448       471      2558      2205      2621
 -1      1064    8    0    1
 -2       470       456       607      2200      2622      2623
 -1      1065    8    0    1
 -2       456       590       607      2561      2624      2622
 -1      1066    8    0    1
 -2       513       369       595      2335      2625      2626
 -1      1067    8    0    1
 -2       471       449       608      2206      2627      2628
 -1      1068    8    0    1
 -2       449       588       608      2557      2629      2627
 -1      1069    8    0    1
 -2       588       450       591      2556      2563      2630
 -1      1070    8    0    1
 -2       441       581       484      2540      2631      2246
 -1      1071    8    0    1
 -2       460       365       512      2331      2330      2632
 -1      1072    8    0    1
 -2       447       589       587      2559      2633      2554
 -1      1073    8    0    1
 -2       594       455       609      2569      2634      2635
 -1      1074    8    0    1
 -2       455       470       609      2199      2636      2634
 -1      1075    8    0    1
 -2       464       595       597      2572      2637      2578
 -1      1076    8    0    1
 -2       459       460       512      2195      2632      2575
 -1      1077    8    0    1
 -2       368       463       597      2599      2579      2638
 -1      1078    8    0    1
 -2       475       476       610      2225      2639      2640
 -1      1079    8    0    1
 -2       474       475       611      2222      2641      2642
 -1      1080    8    0    1
 -2       475       610       611      2640      2643      2641
 -1      1081    8    0    1
 -2       477       478       612      2231      2644      2645
 -1      1082    8    0    1
 -2       478       479       613      2234      2646      2647
 -1      1083    8    0    1
 -2       478       613       612      2647      2648      2644
 -1      1084    8    0    1
 -2       480       481       614      2240      2649      2650
 -1      1085    8    0    1
 -2       481       602       614      2593      2651      2649
 -1      1086    8    0    1
 -2       581       585       615      2591      2652      2653
 -1      1087    8    0    1
 -2       567       570       616      2596      2654      2655
 -1      1088    8    0    1
 -2       567       616       566      2655      2656      2498
 -1      1089    8    0    1
 -2       486       485       617      2253      2657      2658
 -1      1090    8    0    1
 -2       487       486       618      2256      2659      2660
 -1      1091    8    0    1
 -2       486       617       618      2658      2661      2659
 -1      1092    8    0    1
 -2       488       487       619      2259      2662      2663
 -1      1093    8    0    1
 -2       487       618       619      2660      2664      2662
 -1      1094    8    0    1
 -2       489       488       620      2262      2665      2666
 -1      1095    8    0    1
 -2       488       619       620      2663      2667      2665
 -1      1096    8    0    1
 -2       490       489       621      2265      2668      2669
 -1      1097    8    0    1
 -2       489       620       621      2666      2670      2668
 -1      1098    8    0    1
 -2       491       490       622      2268      2671      2672
 -1      1099    8    0    1
 -2       490       621       622      2669      2673      2671
 -1      1100    8    0    1
 -2       492       491       623      2271      2674      2675
 -1      1101    8    0    1
 -2       491       622       623      2672      2676      2674
 -1      1102    8    0    1
 -2       493       492       624      2274      2677      2678
 -1      1103    8    0    1
 -2       492       623       624      2675      2679      2677
 -1      1104    8    0    1
 -2       494       493       625      2277      2680      2681
 -1      1105    8    0    1
 -2       493       624       625      2678      2682      2680
 -1      1106    8    0    1
 -2       495       494       626      2280      2683      2684
 -1      1107    8    0    1
 -2       494       625       626      2681      2685      2683
 -1      1108    8    0    1
 -2       496       495       627      2283      2686      2687
 -1      1109    8    0    1
 -2       495       626       627      2684      2688      2686
 -1      1110    8    0    1
 -2       497       496       628      2286      2689      2690
 -1      1111    8    0    1
 -2       496       627       628      2687      2691      2689
 -1      1112    8    0    1
 -2       498       497       629      2289      2692      2693
 -1      1113    8    0    1
 -2       497       628       629      2690      2694      2692
 -1      1114    8    0    1
 -2       499       498       630      2292      2695      2696
 -1      1115    8    0    1
 -2       498       629       630      2693      2697      2695
 -1      1116    8    0    1
 -2       500       499       631      2295      2698      2699
 -1      1117    8    0    1
 -2       499       630       631      2696      2700      2698
 -1      1118    8    0    1
 -2       501       500       632      2298      2701      2702
 -1      1119    8    0    1
 -2       500       631       632      2699      2703      2701
 -1      1120    8    0    1
 -2       502       501       633      2301      2704      2705
 -1      1121    8    0    1
 -2       501       632       633      2702      2706      2704
 -1      1122    8    0    1
 -2       503       502       634      2304      2707      2708
 -1      1123    8    0    1
 -2       502       633       634      2705      2709      2707
 -1      1124    8    0    1
 -2       504       503       635      2307      2710      2711
 -1      1125    8    0    1
 -2       503       634       635      2708      2712      2710
 -1      1126    8    0    1
 -2       505       504       636      2310      2713      2714
 -1      1127    8    0    1
 -2       504       635       636      2711      2715      2713
 -1      1128    8    0    1
 -2       506       505       637      2313      2716      2717
 -1      1129    8    0    1
 -2       505       636       637      2714      2718      2716
 -1      1130    8    0    1
 -2       507       506       638      2316      2719      2720
 -1      1131    8    0    1
 -2       506       637       638      2717      2721      2719
 -1      1132    8    0    1
 -2       508       507       639      2319      2722      2723
 -1      1133    8    0    1
 -2       507       638       639      2720      2724      2722
 -1      1134    8    0    1
 -2       509       508       640      2322      2725      2726
 -1      1135    8    0    1
 -2       508       639       640      2723      2727      2725
 -1      1136    8    0    1
 -2       510       509       641      2325      2728      2729
 -1      1137    8    0    1
 -2       509       640       641      2726      2730      2728
 -1      1138    8    0    1
 -2       511       510       606      2328      2731      2732
 -1      1139    8    0    1
 -2       369       368       595      1899      2733      2625
 -1      1140    8    0    1
 -2       482       580       642      2537      2734      2735
 -1      1141    8    0    1
 -2       515       514       643      2342      2736      2737
 -1      1142    8    0    1
 -2       516       515       644      2345      2738      2739
 -1      1143    8    0    1
 -2       515       643       644      2737      2740      2738
 -1      1144    8    0    1
 -2       517       516       645      2348      2741      2742
 -1      1145    8    0    1
 -2       516       644       645      2739      2743      2741
 -1      1146    8    0    1
 -2       518       517       646      2351      2744      2745
 -1      1147    8    0    1
 -2       517       645       646      2742      2746      2744
 -1      1148    8    0    1
 -2       519       518       647      2354      2747      2748
 -1      1149    8    0    1
 -2       518       646       647      2745      2749      2747
 -1      1150    8    0    1
 -2       520       519       648      2357      2750      2751
 -1      1151    8    0    1
 -2       519       647       648      2748      2752      2750
 -1      1152    8    0    1
 -2       521       520       649      2360      2753      2754
 -1      1153    8    0    1
 -2       520       648       649      2751      2755      2753
 -1      1154    8    0    1
 -2       522       521       650      2363      2756      2757
 -1      1155    8    0    1
 -2       521       649       650      2754      2758      2756
 -1      1156    8    0    1
 -2       523       522       651      2366      2759      2760
 -1      1157    8    0    1
 -2       522       650       651      2757      2761      2759
 -1      1158    8    0    1
 -2       524       523       652      2370      2762      2763
 -1      1159    8    0    1
 -2       579       524       652      2534      2763      2764
 -1      1160    8    0    1
 -2       523       651       652      2760      2765      2762
 -1      1161    8    0    1
 -2       526       525       653      2375      2766      2767
 -1      1162    8    0    1
 -2       525       528       654      2381      2768      2769
 -1      1163    8    0    1
 -2       525       654       653      2769      2770      2766
 -1      1164    8    0    1
 -2       527       526       655      2378      2771      2772
 -1      1165    8    0    1
 -2       526       653       655      2767      2773      2771
 -1      1166    8    0    1
 -2       529       530       656      2387      2774      2775
 -1      1167    8    0    1
 -2       530       531       657      2390      2776      2777
 -1      1168    8    0    1
 -2       530       657       656      2777      2778      2774
 -1      1169    8    0    1
 -2       531       532       658      2393      2779      2780
 -1      1170    8    0    1
 -2       531       658       657      2780      2781      2776
 -1      1171    8    0    1
 -2       532       533       659      2396      2782      2783
 -1      1172    8    0    1
 -2       532       659       658      2783      2784      2779
 -1      1173    8    0    1
 -2       533       534       660      2399      2785      2786
 -1      1174    8    0    1
 -2       533       660       659      2786      2787      2782
 -1      1175    8    0    1
 -2       534       535       661      2402      2788      2789
 -1      1176    8    0    1
 -2       534       661       660      2789      2790      2785
 -1      1177    8    0    1
 -2       535       536       662      2405      2791      2792
 -1      1178    8    0    1
 -2       535       662       661      2792      2793      2788
 -1      1179    8    0    1
 -2       536       537       663      2408      2794      2795
 -1      1180    8    0    1
 -2       536       663       662      2795      2796      2791
 -1      1181    8    0    1
 -2       537       538       664      2411      2797      2798
 -1      1182    8    0    1
 -2       537       664       663      2798      2799      2794
 -1      1183    8    0    1
 -2       538       539       665      2414      2800      2801
 -1      1184    8    0    1
 -2       538       665       664      2801      2802      2797
 -1      1185    8    0    1
 -2       539       540       666      2417      2803      2804
 -1      1186    8    0    1
 -2       539       666       665      2804      2805      2800
 -1      1187    8    0    1
 -2       540       541       667      2420      2806      2807
 -1      1188    8    0    1
 -2       540       667       666      2807      2808      2803
 -1      1189    8    0    1
 -2       541       542       668      2423      2809      2810
 -1      1190    8    0    1
 -2       541       668       667      2810      2811      2806
 -1      1191    8    0    1
 -2       542       543       669      2426      2812      2813
 -1      1192    8    0    1
 -2       542       669       668      2813      2814      2809
 -1      1193    8    0    1
 -2       543       544       670      2429      2815      2816
 -1      1194    8    0    1
 -2       543       670       669      2816      2817      2812
 -1      1195    8    0    1
 -2       544       545       671      2432      2818      2819
 -1      1196    8    0    1
 -2       544       671       670      2819      2820      2815
 -1      1197    8    0    1
 -2       545       546       672      2435      2821      2822
 -1      1198    8    0    1
 -2       545       672       671      2822      2823      2818
 -1      1199    8    0    1
 -2       546       547       673      2438      2824      2825
 -1      1200    8    0    1
 -2       546       673       672      2825      2826      2821
 -1      1201    8    0    1
 -2       547       548       674      2441      2827      2828
 -1      1202    8    0    1
 -2       547       674       673      2828      2829      2824
 -1      1203    8    0    1
 -2       548       549       675      2444      2830      2831
 -1      1204    8    0    1
 -2       548       675       674      2831      2832      2827
 -1      1205    8    0    1
 -2       549       550       676      2447      2833      2834
 -1      1206    8    0    1
 -2       549       676       675      2834      2835      2830
 -1      1207    8    0    1
 -2       550       551       677      2450      2836      2837
 -1      1208    8    0    1
 -2       550       677       676      2837      2838      2833
 -1      1209    8    0    1
 -2       551       552       678      2453      2839      2840
 -1      1210    8    0    1
 -2       551       678       677      2840      2841      2836
 -1      1211    8    0    1
 -2       552       553       679      2456      2842      2843
 -1      1212    8    0    1
 -2       552       679       678      2843      2844      2839
 -1      1213    8    0    1
 -2       553       554       680      2459      2845      2846
 -1      1214    8    0    1
 -2       553       680       679      2846      2847      2842
 -1      1215    8    0    1
 -2       554       555       681      2462      2848      2849
 -1      1216    8    0    1
 -2       554       681       680      2849      2850      2845
 -1      1217    8    0    1
 -2       555       556       682      2465      2851      2852
 -1      1218    8    0    1
 -2       555       682       681      2852      2853      2848
 -1      1219    8    0    1
 -2       556       557       683      2468      2854      2855
 -1      1220    8    0    1
 -2       556       683       682      2855      2856      2851
 -1      1221    8    0    1
 -2       557       558       684      2471      2857      2858
 -1      1222    8    0    1
 -2       557       684       683      2858      2859      2854
 -1      1223    8    0    1
 -2       558       559       685      2474      2860      2861
 -1      1224    8    0    1
 -2       558       685       684      2861      2862      2857
 -1      1225    8    0    1
 -2       559       560       686      2477      2863      2864
 -1      1226    8    0    1
 -2       559       686       685      2864      2865      2860
 -1      1227    8    0    1
 -2       560       561       687      2480      2866      2867
 -1      1228    8    0    1
 -2       560       687       686      2867      2868      2863
 -1      1229    8    0    1
 -2       561       562       688      2483      2869      2870
 -1      1230    8    0    1
 -2       561       688       687      2870      2871      2866
 -1      1231    8    0    1
 -2       562       563       689      2486      2872      2873
 -1      1232    8    0    1
 -2       562       689       688      2873      2874      2869
 -1      1233    8    0    1
 -2       563       564       690      2489      2875      2876
 -1      1234    8    0    1
 -2       563       690       689      2876      2877      2872
 -1      1235    8    0    1
 -2       564       565       691      2492      2878      2879
 -1      1236    8    0    1
 -2       564       691       690      2879      2880      2875
 -1      1237    8    0    1
 -2       565       566       692      2495      2881      2882
 -1      1238    8    0    1
 -2       691       565       692      2878      2882      2883
 -1      1239    8    0    1
 -2       566       616       692      2656      2884      2881
 -1      1240    8    0    1
 -2       569       568       693      2504      2885      2886
 -1      1241    8    0    1
 -2       572       573       694      2515      2887      2888
 -1      1242    8    0    1
 -2       570       569       616      2507      2889      2654
 -1      1243    8    0    1
 -2       600       483       695      2586      2890      2891
 -1      1244    8    0    1
 -2       568       572       696      2512      2892      2893
 -1      1245    8    0    1
 -2       693       568       696      2885      2893      2894
 -1      1246    8    0    1
 -2       572       694       696      2888      2895      2892
 -1      1247    8    0    1
 -2       574       575       697      2521      2896      2897
 -1      1248    8    0    1
 -2       575       576       698      2524      2898      2899
 -1      1249    8    0    1
 -2       575       698       697      2899      2900      2896
 -1      1250    8    0    1
 -2       576       577       699      2527      2901      2902
 -1      1251    8    0    1
 -2       576       699       698      2902      2903      2898
 -1      1252    8    0    1
 -2       577       578       700      2530      2904      2905
 -1      1253    8    0    1
 -2       577       700       699      2905      2906      2901
 -1      1254    8    0    1
 -2       483       484       701      2595      2907      2908
 -1      1255    8    0    1
 -2       582       571       702      2543      2909      2910
 -1      1256    8    0    1
 -2       596       458       512      2573      2576      2911
 -1      1257    8    0    1
 -2       591       584       703      2615      2912      2913
 -1      1258    8    0    1
 -2       595       598       513      2616      2914      2626
 -1      1259    8    0    1
 -2       573       574       704      2518      2915      2916
 -1      1260    8    0    1
 -2       574       697       704      2897      2917      2915
 -1      1261    8    0    1
 -2       514       513       705      2339      2918      2919
 -1      1262    8    0    1
 -2       643       514       705      2736      2919      2920
 -1      1263    8    0    1
 -2       513       598       705      2914      2921      2918
 -1      1264    8    0    1
 -2       584       592       706      2605      2922      2923
 -1      1265    8    0    1
 -2       485       482       707      2250      2924      2925
 -1      1266    8    0    1
 -2       617       485       707      2657      2925      2926
 -1      1267    8    0    1
 -2       482       642       707      2735      2927      2924
 -1      1268    8    0    1
 -2       588       591       708      2630      2928      2929
 -1      1269    8    0    1
 -2       591       703       708      2913      2930      2928
 -1      1270    8    0    1
 -2       484       581       709      2631      2931      2932
 -1      1271    8    0    1
 -2       585       587       710      2606      2933      2934
 -1      1272    8    0    1
 -2       592       593       711      2568      2935      2936
 -1      1273    8    0    1
 -2       476       477       712      2228      2937      2938
 -1      1274    8    0    1
 -2       610       476       712      2639      2938      2939
 -1      1275    8    0    1
 -2       477       612       712      2645      2940      2937
 -1      1276    8    0    1
 -2       589       471       713      2621      2941      2942
 -1      1277    8    0    1
 -2       599       583       714      2600      2943      2944
 -1      1278    8    0    1
 -2       473       472       715      2217      2945      2946
 -1      1279    8    0    1
 -2       528       529       716      2384      2947      2948
 -1      1280    8    0    1
 -2       654       528       716      2768      2948      2949
 -1      1281    8    0    1
 -2       529       656       716      2775      2950      2947
 -1      1282    8    0    1
 -2       593       594       717      2617      2951      2952
 -1      1283    8    0    1
 -2       580       444       642      2604      2953      2734
 -1      1284    8    0    1
 -2       587       589       718      2633      2954      2955
 -1      1285    8    0    1
 -2       587       718       710      2955      2956      2933
 -1      1286    8    0    1
 -2       596       512       511      2911      2597      2957
 -1      1287    8    0    1
 -2       596       511       606      2957      2732      2620
 -1      1288    8    0    1
 -2       474       611       719      2642      2958      2959
 -1      1289    8    0    1
 -2       474       719       586      2959      2960      2553
 -1      1290    8    0    1
 -2       480       614       479      2650      2961      2237
 -1      1291    8    0    1
 -2       615       585       710      2652      2934      2962
 -1      1292    8    0    1
 -2       569       693       616      2886      2963      2889
 -1      1293    8    0    1
 -2       606       510       641      2731      2729      2964
 -1      1294    8    0    1
 -2       589       713       720      2942      2965      2966
 -1      1295    8    0    1
 -2       589       720       718      2966      2967      2954
 -1      1296    8    0    1
 -2       598       599       705      2611      2968      2921
 -1      1297    8    0    1
 -2       717       594       609      2951      2635      2969
 -1      1298    8    0    1
 -2       694       573       704      2887      2916      2970
 -1      1299    8    0    1
 -2       601       473       721      2588      2971      2972
 -1      1300    8    0    1
 -2       473       715       721      2946      2973      2971
 -1      1301    8    0    1
 -2       444       601       642      2590      2974      2953
 -1      1302    8    0    1
 -2       603       600       722      2603      2975      2976
 -1      1303    8    0    1
 -2       600       695       722      2891      2977      2975
 -1      1304    8    0    1
 -2       695       483       701      2890      2908      2978
 -1      1305    8    0    1
 -2       571       603       702      2602      2979      2909
 -1      1306    8    0    1
 -2       701       484       709      2907      2932      2980
 -1      1307    8    0    1
 -2       578       579       723      2533      2981      2982
 -1      1308    8    0    1
 -2       700       578       723      2904      2982      2983
 -1      1309    8    0    1
 -2       579       652       723      2764      2984      2981
 -1      1310    8    0    1
 -2       527       655       724      2772      2985      2986
 -1      1311    8    0    1
 -2       582       702       725      2910      2987      2988
 -1      1312    8    0    1
 -2       582       725       605      2988      2989      2612
 -1      1313    8    0    1
 -2       604       527       724      2610      2986      2990
 -1      1314    8    0    1
 -2       703       584       726      2912      2991      2992
 -1      1315    8    0    1
 -2       584       706       726      2923      2993      2991
 -1      1316    8    0    1
 -2       608       588       727      2629      2994      2995
 -1      1317    8    0    1
 -2       588       708       727      2929      2996      2994
 -1      1318    8    0    1
 -2       479       614       613      2961      2997      2646
 -1      1319    8    0    1
 -2       581       615       709      2653      2998      2931
 -1      1320    8    0    1
 -2       471       608       713      2628      2999      2941
 -1      1321    8    0    1
 -2       472       586       728      2552      3000      3001
 -1      1322    8    0    1
 -2       715       472       728      2945      3001      3002
 -1      1323    8    0    1
 -2       586       719       728      2960      3003      3000
 -1      1324    8    0    1
 -2       609       470       729      2636      3004      3005
 -1      1325    8    0    1
 -2       470       607       729      2623      3006      3004
 -1      1326    8    0    1
 -2       592       711       730      2936      3007      3008
 -1      1327    8    0    1
 -2       592       730       706      3008      3009      2922
 -1      1328    8    0    1
 -2       714       583       605      2943      2614      3010
 -1      1329    8    0    1
 -2       599       714       705      2944      3011      2968
 -1      1330    8    0    1
 -2       612       613       731      2648      3012      3013
 -1      1331    8    0    1
 -2       614       602       604      2651      2609      3014
 -1      1332    8    0    1
 -2       615       710       732      2962      3015      3016
 -1      1333    8    0    1
 -2       708       703       733      2930      3017      3018
 -1      1334    8    0    1
 -2       619       618       734      2664      3019      3020
 -1      1335    8    0    1
 -2       620       619       735      2667      3021      3022
 -1      1336    8    0    1
 -2       619       734       735      3020      3023      3021
 -1      1337    8    0    1
 -2       621       620       736      2670      3024      3025
 -1      1338    8    0    1
 -2       620       735       736      3022      3026      3024
 -1      1339    8    0    1
 -2       622       621       737      2673      3027      3028
 -1      1340    8    0    1
 -2       621       736       737      3025      3029      3027
 -1      1341    8    0    1
 -2       623       622       738      2676      3030      3031
 -1      1342    8    0    1
 -2       622       737       738      3028      3032      3030
 -1      1343    8    0    1
 -2       624       623       739      2679      3033      3034
 -1      1344    8    0    1
 -2       623       738       739      3031      3035      3033
 -1      1345    8    0    1
 -2       625       624       740      2682      3036      3037
 -1      1346    8    0    1
 -2       624       739       740      3034      3038      3036
 -1      1347    8    0    1
 -2       626       625       741      2685      3039      3040
 -1      1348    8    0    1
 -2       625       740       741      3037      3041      3039
 -1      1349    8    0    1
 -2       627       626       742      2688      3042      3043
 -1      1350    8    0    1
 -2       626       741       742      3040      3044      3042
 -1      1351    8    0    1
 -2       628       627       743      2691      3045      3046
 -1      1352    8    0    1
 -2       627       742       743      3043      3047      3045
 -1      1353    8    0    1
 -2       629       628       744      2694      3048      3049
 -1      1354    8    0    1
 -2       628       743       744      3046      3050      3048
 -1      1355    8    0    1
 -2       630       629       745      2697      3051      3052
 -1      1356    8    0    1
 -2       629       744       745      3049      3053      3051
 -1      1357    8    0    1
 -2       631       630       746      2700      3054      3055
 -1      1358    8    0    1
 -2       630       745       746      3052      3056      3054
 -1      1359    8    0    1
 -2       632       631       747      2703      3057      3058
 -1      1360    8    0    1
 -2       631       746       747      3055      3059      3057
 -1      1361    8    0    1
 -2       633       632       748      2706      3060      3061
 -1      1362    8    0    1
 -2       632       747       748      3058      3062      3060
 -1      1363    8    0    1
 -2       634       633       749      2709      3063      3064
 -1      1364    8    0    1
 -2       633       748       749      3061      3065      3063
 -1      1365    8    0    1
 -2       635       634       750      2712      3066      3067
 -1      1366    8    0    1
 -2       634       749       750      3064      3068      3066
 -1      1367    8    0    1
 -2       636       635       751      2715      3069      3070
 -1      1368    8    0    1
 -2       635       750       751      3067      3071      3069
 -1      1369    8    0    1
 -2       637       636       752      2718      3072      3073
 -1      1370    8    0    1
 -2       636       751       752      3070      3074      3072
 -1      1371    8    0    1
 -2       638       637       753      2721      3075      3076
 -1      1372    8    0    1
 -2       637       752       753      3073      3077      3075
 -1      1373    8    0    1
 -2       639       638       754      2724      3078      3079
 -1      1374    8    0    1
 -2       638       753       754      3076      3080      3078
 -1      1375    8    0    1
 -2       640       639       755      2727      3081      3082
 -1      1376    8    0    1
 -2       639       754       755      3079      3083      3081
 -1      1377    8    0    1
 -2       595       368       597      2733      2638      2637
 -1      1378    8    0    1
 -2       590       606       641      2619      2964      3084
 -1      1379    8    0    1
 -2       710       718       756      2956      3085      3086
 -1      1380    8    0    1
 -2       710       756       732      3086      3087      3015
 -1      1381    8    0    1
 -2       593       717       711      2952      3088      2935
 -1      1382    8    0    1
 -2       645       644       757      2743      3089      3090
 -1      1383    8    0    1
 -2       646       645       758      2746      3091      3092
 -1      1384    8    0    1
 -2       645       757       758      3090      3093      3091
 -1      1385    8    0    1
 -2       647       646       759      2749      3094      3095
 -1      1386    8    0    1
 -2       646       758       759      3092      3096      3094
 -1      1387    8    0    1
 -2       648       647       760      2752      3097      3098
 -1      1388    8    0    1
 -2       647       759       760      3095      3099      3097
 -1      1389    8    0    1
 -2       649       648       761      2755      3100      3101
 -1      1390    8    0    1
 -2       648       760       761      3098      3102      3100
 -1      1391    8    0    1
 -2       650       649       762      2758      3103      3104
 -1      1392    8    0    1
 -2       649       761       762      3101      3105      3103
 -1      1393    8    0    1
 -2       651       650       763      2761      3106      3107
 -1      1394    8    0    1
 -2       650       762       763      3104      3108      3106
 -1      1395    8    0    1
 -2       653       654       764      2770      3109      3110
 -1      1396    8    0    1
 -2       655       653       765      2773      3111      3112
 -1      1397    8    0    1
 -2       653       764       765      3110      3113      3111
 -1      1398    8    0    1
 -2       657       658       766      2781      3114      3115
 -1      1399    8    0    1
 -2       656       657       767      2778      3116      3117
 -1      1400    8    0    1
 -2       657       766       767      3115      3118      3116
 -1      1401    8    0    1
 -2       659       660       768      2787      3119      3120
 -1      1402    8    0    1
 -2       660       661       769      2790      3121      3122
 -1      1403    8    0    1
 -2       660       769       768      3122      3123      3119
 -1      1404    8    0    1
 -2       661       662       770      2793      3124      3125
 -1      1405    8    0    1
 -2       661       770       769      3125      3126      3121
 -1      1406    8    0    1
 -2       662       663       771      2796      3127      3128
 -1      1407    8    0    1
 -2       662       771       770      3128      3129      3124
 -1      1408    8    0    1
 -2       663       664       772      2799      3130      3131
 -1      1409    8    0    1
 -2       663       772       771      3131      3132      3127
 -1      1410    8    0    1
 -2       664       665       773      2802      3133      3134
 -1      1411    8    0    1
 -2       664       773       772      3134      3135      3130
 -1      1412    8    0    1
 -2       665       666       774      2805      3136      3137
 -1      1413    8    0    1
 -2       665       774       773      3137      3138      3133
 -1      1414    8    0    1
 -2       666       667       775      2808      3139      3140
 -1      1415    8    0    1
 -2       666       775       774      3140      3141      3136
 -1      1416    8    0    1
 -2       667       668       776      2811      3142      3143
 -1      1417    8    0    1
 -2       667       776       775      3143      3144      3139
 -1      1418    8    0    1
 -2       668       669       777      2814      3145      3146
 -1      1419    8    0    1
 -2       668       777       776      3146      3147      3142
 -1      1420    8    0    1
 -2       669       670       778      2817      3148      3149
 -1      1421    8    0    1
 -2       669       778       777      3149      3150      3145
 -1      1422    8    0    1
 -2       670       671       779      2820      3151      3152
 -1      1423    8    0    1
 -2       670       779       778      3152      3153      3148
 -1      1424    8    0    1
 -2       671       672       780      2823      3154      3155
 -1      1425    8    0    1
 -2       671       780       779      3155      3156      3151
 -1      1426    8    0    1
 -2       672       673       781      2826      3157      3158
 -1      1427    8    0    1
 -2       672       781       780      3158      3159      3154
 -1      1428    8    0    1
 -2       673       674       782      2829      3160      3161
 -1      1429    8    0    1
 -2       673       782       781      3161      3162      3157
 -1      1430    8    0    1
 -2       674       675       783      2832      3163      3164
 -1      1431    8    0    1
 -2       674       783       782      3164      3165      3160
 -1      1432    8    0    1
 -2       675       676       784      2835      3166      3167
 -1      1433    8    0    1
 -2       675       784       783      3167      3168      3163
 -1      1434    8    0    1
 -2       676       677       785      2838      3169      3170
 -1      1435    8    0    1
 -2       676       785       784      3170      3171      3166
 -1      1436    8    0    1
 -2       677       678       786      2841      3172      3173
 -1      1437    8    0    1
 -2       677       786       785      3173      3174      3169
 -1      1438    8    0    1
 -2       678       679       787      2844      3175      3176
 -1      1439    8    0    1
 -2       678       787       786      3176      3177      3172
 -1      1440    8    0    1
 -2       679       680       788      2847      3178      3179
 -1      1441    8    0    1
 -2       679       788       787      3179      3180      3175
 -1      1442    8    0    1
 -2       680       681       789      2850      3181      3182
 -1      1443    8    0    1
 -2       680       789       788      3182      3183      3178
 -1      1444    8    0    1
 -2       681       682       790      2853      3184      3185
 -1      1445    8    0    1
 -2       681       790       789      3185      3186      3181
 -1      1446    8    0    1
 -2       682       683       791      2856      3187      3188
 -1      1447    8    0    1
 -2       682       791       790      3188      3189      3184
 -1      1448    8    0    1
 -2       683       684       792      2859      3190      3191
 -1      1449    8    0    1
 -2       683       792       791      3191      3192      3187
 -1      1450    8    0    1
 -2       684       685       793      2862      3193      3194
 -1      1451    8    0    1
 -2       684       793       792      3194      3195      3190
 -1      1452    8    0    1
 -2       685       686       794      2865      3196      3197
 -1      1453    8    0    1
 -2       685       794       793      3197      3198      3193
 -1      1454    8    0    1
 -2       686       687       795      2868      3199      3200
 -1      1455    8    0    1
 -2       686       795       794      3200      3201      3196
 -1      1456    8    0    1
 -2       687       688       796      2871      3202      3203
 -1      1457    8    0    1
 -2       687       796       795      3203      3204      3199
 -1      1458    8    0    1
 -2       688       689       797      2874      3205      3206
 -1      1459    8    0    1
 -2       688       797       796      3206      3207      3202
 -1      1460    8    0    1
 -2       689       690       798      2877      3208      3209
 -1      1461    8    0    1
 -2       689       798       797      3209      3210      3205
 -1      1462    8    0    1
 -2       690       691       799      2880      3211      3212
 -1      1463    8    0    1
 -2       690       799       798      3212      3213      3208
 -1      1464    8    0    1
 -2       698       699       800      2903      3214      3215
 -1      1465    8    0    1
 -2       643       705       714      2920      3011      3216
 -1      1466    8    0    1
 -2       699       700       801      2906      3217      3218
 -1      1467    8    0    1
 -2       699       801       800      3218      3219      3214
 -1      1468    8    0    1
 -2       697       698       802      2900      3220      3221
 -1      1469    8    0    1
 -2       698       800       802      3215      3222      3220
 -1      1470    8    0    1
 -2       702       603       803      2979      3223      3224
 -1      1471    8    0    1
 -2       603       722       803      2976      3225      3223
 -1      1472    8    0    1
 -2       604       724       614      2990      3226      3014
 -1      1473    8    0    1
 -2       704       697       804      2917      3227      3228
 -1      1474    8    0    1
 -2       697       802       804      3221      3229      3227
 -1      1475    8    0    1
 -2       607       590       641      2624      3084      3230
 -1      1476    8    0    1
 -2       613       614       724      2997      3226      3231
 -1      1477    8    0    1
 -2       717       609       805      2969      3232      3233
 -1      1478    8    0    1
 -2       701       709       806      2980      3234      3235
 -1      1479    8    0    1
 -2       658       659       807      2784      3236      3237
 -1      1480    8    0    1
 -2       766       658       807      3114      3237      3238
 -1      1481    8    0    1
 -2       659       768       807      3120      3239      3236
 -1      1482    8    0    1
 -2       644       643       808      2740      3240      3241
 -1      1483    8    0    1
 -2       757       644       808      3089      3241      3242
 -1      1484    8    0    1
 -2       643       714       808      3216      3243      3240
 -1      1485    8    0    1
 -2       713       608       809      2999      3244      3245
 -1      1486    8    0    1
 -2       611       610       810      2643      3246      3247
 -1      1487    8    0    1
 -2       616       693       811      2963      3248      3249
 -1      1488    8    0    1
 -2       616       811       692      3249      3250      2884
 -1      1489    8    0    1
 -2       714       605       808      3010      3251      3243
 -1      1490    8    0    1
 -2       618       617       812      2661      3252      3253
 -1      1491    8    0    1
 -2       618       812       734      3253      3254      3019
 -1      1492    8    0    1
 -2       613       724       731      3231      3255      3012
 -1      1493    8    0    1
 -2       642       601       721      2974      2972      3256
 -1      1494    8    0    1
 -2       709       615       813      2998      3257      3258
 -1      1495    8    0    1
 -2       695       701       814      2978      3259      3260
 -1      1496    8    0    1
 -2       701       806       814      3235      3261      3259
 -1      1497    8    0    1
 -2       694       704       815      2970      3262      3263
 -1      1498    8    0    1
 -2       704       804       815      3228      3264      3262
 -1      1499    8    0    1
 -2       711       717       816      3088      3265      3266
 -1      1500    8    0    1
 -2       711       816       817      3266      3267      3268
 -1      1501    8    0    1
 -2       711       817       730      3268      3269      3007
 -1      1502    8    0    1
 -2       708       733       818      3018      3270      3271
 -1      1503    8    0    1
 -2       708       818       727      3271      3272      2996
 -1      1504    8    0    1
 -2       719       611       819      2958      3273      3274
 -1      1505    8    0    1
 -2       611       810       819      3247      3275      3273
 -1      1506    8    0    1
 -2       640       755       729      3082      3276      3277
 -1      1507    8    0    1
 -2       641       640       729      2730      3277      3278
 -1      1508    8    0    1
 -2       720       713       820      2965      3279      3280
 -1      1509    8    0    1
 -2       713       809       820      3245      3281      3279
 -1      1510    8    0    1
 -2       756       718       821      3085      3282      3283
 -1      1511    8    0    1
 -2       718       720       821      2967      3284      3282
 -1      1512    8    0    1
 -2       809       608       727      3244      2995      3285
 -1      1513    8    0    1
 -2       703       726       733      2992      3286      3017
 -1      1514    8    0    1
 -2       764       654       822      3109      3287      3288
 -1      1515    8    0    1
 -2       654       716       822      2949      3289      3287
 -1      1516    8    0    1
 -2       652       651       723      2765      3290      2984
 -1      1517    8    0    1
 -2       656       767       823      3117      3291      3292
 -1      1518    8    0    1
 -2       656       823       716      3292      3293      2950
 -1      1519    8    0    1
 -2       702       803       824      3224      3294      3295
 -1      1520    8    0    1
 -2       702       824       725      3295      3296      2987
 -1      1521    8    0    1
 -2       607       641       729      3230      3278      3006
 -1      1522    8    0    1
 -2       691       692       825      2883      3297      3298
 -1      1523    8    0    1
 -2       799       691       825      3211      3298      3299
 -1      1524    8    0    1
 -2       692       811       825      3250      3300      3297
 -1      1525    8    0    1
 -2       808       605       725      3251      2989      3301
 -1      1526    8    0    1
 -2       721       715       826      2973      3302      3303
 -1      1527    8    0    1
 -2       722       695       827      2977      3304      3305
 -1      1528    8    0    1
 -2       695       814       827      3260      3306      3304
 -1      1529    8    0    1
 -2       801       700       763      3217      3307      3308
 -1      1530    8    0    1
 -2       693       696       828      2894      3309      3310
 -1      1531    8    0    1
 -2       693       828       811      3310      3311      3248
 -1      1532    8    0    1
 -2       724       655       829      2985      3312      3313
 -1      1533    8    0    1
 -2       726       706       830      2993      3314      3315
 -1      1534    8    0    1
 -2       706       730       830      3009      3316      3314
 -1      1535    8    0    1
 -2       712       612       831      2940      3317      3318
 -1      1536    8    0    1
 -2       612       731       831      3013      3319      3317
 -1      1537    8    0    1
 -2       806       709       813      3234      3258      3320
 -1      1538    8    0    1
 -2       615       732       813      3016      3321      3257
 -1      1539    8    0    1
 -2       805       609       729      3232      3005      3322
 -1      1540    8    0    1
 -2       707       642       721      2927      3256      3323
 -1      1541    8    0    1
 -2       696       694       832      2895      3324      3325
 -1      1542    8    0    1
 -2       828       696       832      3309      3325      3326
 -1      1543    8    0    1
 -2       694       815       832      3263      3327      3324
 -1      1544    8    0    1
 -2       724       829       731      3313      3328      3255
 -1      1545    8    0    1
 -2       617       707       833      2926      3329      3330
 -1      1546    8    0    1
 -2       617       833       812      3330      3331      3252
 -1      1547    8    0    1
 -2       810       610       834      3246      3332      3333
 -1      1548    8    0    1
 -2       610       712       834      2939      3334      3332
 -1      1549    8    0    1
 -2       700       723       763      2983      3335      3307
 -1      1550    8    0    1
 -2       715       728       835      3002      3336      3337
 -1      1551    8    0    1
 -2       715       835       826      3337      3338      3302
 -1      1552    8    0    1
 -2       723       651       763      3290      3107      3335
 -1      1553    8    0    1
 -2       717       805       836      3233      3339      3340
 -1      1554    8    0    1
 -2       717       836       816      3340      3341      3265
 -1      1555    8    0    1
 -2       829       655       765      3312      3112      3342
 -1      1556    8    0    1
 -2       770       771       837      3129      3343      3344
 -1      1557    8    0    1
 -2       736       735       838      3026      3345      3346
 -1      1558    8    0    1
 -2       737       736       839      3029      3347      3348
 -1      1559    8    0    1
 -2       736       838       839      3346      3349      3347
 -1      1560    8    0    1
 -2       738       737       840      3032      3350      3351
 -1      1561    8    0    1
 -2       737       839       840      3348      3352      3350
 -1      1562    8    0    1
 -2       739       738       841      3035      3353      3354
 -1      1563    8    0    1
 -2       738       840       841      3351      3355      3353
 -1      1564    8    0    1
 -2       740       739       842      3038      3356      3357
 -1      1565    8    0    1
 -2       739       841       842      3354      3358      3356
 -1      1566    8    0    1
 -2       741       740       843      3041      3359      3360
 -1      1567    8    0    1
 -2       740       842       843      3357      3361      3359
 -1      1568    8    0    1
 -2       742       741       844      3044      3362      3363
 -1      1569    8    0    1
 -2       741       843       844      3360      3364      3362
 -1      1570    8    0    1
 -2       743       742       845      3047      3365      3366
 -1      1571    8    0    1
 -2       742       844       845      3363      3367      3365
 -1      1572    8    0    1
 -2       744       743       846      3050      3368      3369
 -1      1573    8    0    1
 -2       743       845       846      3366      3370      3368
 -1      1574    8    0    1
 -2       745       744       847      3053      3371      3372
 -1      1575    8    0    1
 -2       744       846       847      3369      3373      3371
 -1      1576    8    0    1
 -2       746       745       848      3056      3374      3375
 -1      1577    8    0    1
 -2       745       847       848      3372      3376      3374
 -1      1578    8    0    1
 -2       747       746       849      3059      3377      3378
 -1      1579    8    0    1
 -2       746       848       849      3375      3379      3377
 -1      1580    8    0    1
 -2       748       747       850      3062      3380      3381
 -1      1581    8    0    1
 -2       747       849       850      3378      3382      3380
 -1      1582    8    0    1
 -2       749       748       851      3065      3383      3384
 -1      1583    8    0    1
 -2       748       850       851      3381      3385      3383
 -1      1584    8    0    1
 -2       750       749       852      3068      3386      3387
 -1      1585    8    0    1
 -2       749       851       852      3384      3388      3386
 -1      1586    8    0    1
 -2       751       750       853      3071      3389      3390
 -1      1587    8    0    1
 -2       750       852       853      3387      3391      3389
 -1      1588    8    0    1
 -2       752       751       854      3074      3392      3393
 -1      1589    8    0    1
 -2       751       853       854      3390      3394      3392
 -1      1590    8    0    1
 -2       753       752       855      3077      3395      3396
 -1      1591    8    0    1
 -2       752       854       855      3393      3397      3395
 -1      1592    8    0    1
 -2       754       753       856      3080      3398      3399
 -1      1593    8    0    1
 -2       753       855       856      3396      3400      3398
 -1      1594    8    0    1
 -2       755       754       857      3083      3401      3402
 -1      1595    8    0    1
 -2       754       856       857      3399      3403      3401
 -1      1596    8    0    1
 -2       767       766       858      3118      3404      3405
 -1      1597    8    0    1
 -2       758       757       859      3093      3406      3407
 -1      1598    8    0    1
 -2       757       808       860      3242      3408      3409
 -1      1599    8    0    1
 -2       859       757       860      3406      3409      3410
 -1      1600    8    0    1
 -2       808       725       860      3301      3411      3408
 -1      1601    8    0    1
 -2       759       758       861      3096      3412      3413
 -1      1602    8    0    1
 -2       758       859       861      3407      3414      3412
 -1      1603    8    0    1
 -2       760       759       862      3099      3415      3416
 -1      1604    8    0    1
 -2       759       861       862      3413      3417      3415
 -1      1605    8    0    1
 -2       761       760       863      3102      3418      3419
 -1      1606    8    0    1
 -2       760       862       863      3416      3420      3418
 -1      1607    8    0    1
 -2       762       761       864      3105      3421      3422
 -1      1608    8    0    1
 -2       761       863       864      3419      3423      3421
 -1      1609    8    0    1
 -2       763       762       865      3108      3424      3425
 -1      1610    8    0    1
 -2       801       763       865      3308      3425      3426
 -1      1611    8    0    1
 -2       762       864       865      3422      3427      3424
 -1      1612    8    0    1
 -2       734       812       866      3254      3428      3429
 -1      1613    8    0    1
 -2       769       770       867      3126      3430      3431
 -1      1614    8    0    1
 -2       770       837       867      3344      3432      3430
 -1      1615    8    0    1
 -2       768       769       868      3123      3433      3434
 -1      1616    8    0    1
 -2       769       867       868      3431      3435      3433
 -1      1617    8    0    1
 -2       771       772       869      3132      3436      3437
 -1      1618    8    0    1
 -2       771       869       837      3437      3438      3343
 -1      1619    8    0    1
 -2       772       773       870      3135      3439      3440
 -1      1620    8    0    1
 -2       772       870       869      3440      3441      3436
 -1      1621    8    0    1
 -2       773       774       871      3138      3442      3443
 -1      1622    8    0    1
 -2       773       871       870      3443      3444      3439
 -1      1623    8    0    1
 -2       774       775       872      3141      3445      3446
 -1      1624    8    0    1
 -2       774       872       871      3446      3447      3442
 -1      1625    8    0    1
 -2       775       776       873      3144      3448      3449
 -1      1626    8    0    1
 -2       775       873       872      3449      3450      3445
 -1      1627    8    0    1
 -2       776       777       874      3147      3451      3452
 -1      1628    8    0    1
 -2       776       874       873      3452      3453      3448
 -1      1629    8    0    1
 -2       777       778       875      3150      3454      3455
 -1      1630    8    0    1
 -2       777       875       874      3455      3456      3451
 -1      1631    8    0    1
 -2       778       779       876      3153      3457      3458
 -1      1632    8    0    1
 -2       778       876       875      3458      3459      3454
 -1      1633    8    0    1
 -2       779       780       877      3156      3460      3461
 -1      1634    8    0    1
 -2       779       877       876      3461      3462      3457
 -1      1635    8    0    1
 -2       780       781       878      3159      3463      3464
 -1      1636    8    0    1
 -2       780       878       877      3464      3465      3460
 -1      1637    8    0    1
 -2       781       782       879      3162      3466      3467
 -1      1638    8    0    1
 -2       781       879       878      3467      3468      3463
 -1      1639    8    0    1
 -2       782       783       880      3165      3469      3470
 -1      1640    8    0    1
 -2       782       880       879      3470      3471      3466
 -1      1641    8    0    1
 -2       783       784       881      3168      3472      3473
 -1      1642    8    0    1
 -2       783       881       880      3473      3474      3469
 -1      1643    8    0    1
 -2       784       785       882      3171      3475      3476
 -1      1644    8    0    1
 -2       784       882       881      3476      3477      3472
 -1      1645    8    0    1
 -2       785       786       883      3174      3478      3479
 -1      1646    8    0    1
 -2       785       883       882      3479      3480      3475
 -1      1647    8    0    1
 -2       786       787       884      3177      3481      3482
 -1      1648    8    0    1
 -2       786       884       883      3482      3483      3478
 -1      1649    8    0    1
 -2       787       788       885      3180      3484      3485
 -1      1650    8    0    1
 -2       787       885       884      3485      3486      3481
 -1      1651    8    0    1
 -2       789       790       886      3186      3487      3488
 -1      1652    8    0    1
 -2       790       791       887      3189      3489      3490
 -1      1653    8    0    1
 -2       790       887       886      3490      3491      3487
 -1      1654    8    0    1
 -2       791       792       888      3192      3492      3493
 -1      1655    8    0    1
 -2       791       888       887      3493      3494      3489
 -1      1656    8    0    1
 -2       792       793       889      3195      3495      3496
 -1      1657    8    0    1
 -2       792       889       888      3496      3497      3492
 -1      1658    8    0    1
 -2       793       794       890      3198      3498      3499
 -1      1659    8    0    1
 -2       793       890       889      3499      3500      3495
 -1      1660    8    0    1
 -2       794       795       891      3201      3501      3502
 -1      1661    8    0    1
 -2       794       891       890      3502      3503      3498
 -1      1662    8    0    1
 -2       795       796       892      3204      3504      3505
 -1      1663    8    0    1
 -2       795       892       891      3505      3506      3501
 -1      1664    8    0    1
 -2       796       797       893      3207      3507      3508
 -1      1665    8    0    1
 -2       796       893       892      3508      3509      3504
 -1      1666    8    0    1
 -2       797       798       894      3210      3510      3511
 -1      1667    8    0    1
 -2       797       894       893      3511      3512      3507
 -1      1668    8    0    1
 -2       798       799       895      3213      3513      3514
 -1      1669    8    0    1
 -2       798       895       894      3514      3515      3510
 -1      1670    8    0    1
 -2       809       727       896      3285      3516      3517
 -1      1671    8    0    1
 -2       727       818       896      3272      3518      3516
 -1      1672    8    0    1
 -2       732       756       897      3087      3519      3520
 -1      1673    8    0    1
 -2       802       800       898      3222      3521      3522
 -1      1674    8    0    1
 -2       803       722       899      3225      3523      3524
 -1      1675    8    0    1
 -2       721       826       833      3303      3525      3526
 -1      1676    8    0    1
 -2       804       802       900      3229      3527      3528
 -1      1677    8    0    1
 -2       802       898       900      3522      3529      3527
 -1      1678    8    0    1
 -2       765       764       901      3113      3530      3531
 -1      1679    8    0    1
 -2       733       726       902      3286      3532      3533
 -1      1680    8    0    1
 -2       731       829       903      3328      3534      3535
 -1      1681    8    0    1
 -2       731       903       831      3535      3536      3319
 -1      1682    8    0    1
 -2       728       719       904      3003      3537      3538
 -1      1683    8    0    1
 -2       728       904       835      3538      3539      3336
 -1      1684    8    0    1
 -2       707       721       833      3323      3526      3329
 -1      1685    8    0    1
 -2       735       734       905      3023      3540      3541
 -1      1686    8    0    1
 -2       735       905       838      3541      3542      3345
 -1      1687    8    0    1
 -2       813       732       906      3321      3543      3544
 -1      1688    8    0    1
 -2       732       897       906      3520      3545      3543
 -1      1689    8    0    1
 -2       814       806       907      3261      3546      3547
 -1      1690    8    0    1
 -2       815       804       908      3264      3548      3549
 -1      1691    8    0    1
 -2       804       900       908      3528      3550      3548
 -1      1692    8    0    1
 -2       800       801       909      3219      3551      3552
 -1      1693    8    0    1
 -2       898       800       909      3521      3552      3553
 -1      1694    8    0    1
 -2       801       865       909      3426      3554      3551
 -1      1695    8    0    1
 -2       806       813       910      3320      3555      3556
 -1      1696    8    0    1
 -2       829       765       911      3342      3557      3558
 -1      1697    8    0    1
 -2       903       829       911      3534      3558      3559
 -1      1698    8    0    1
 -2       765       901       911      3531      3560      3557
 -1      1699    8    0    1
 -2       818       733       912      3270      3561      3562
 -1      1700    8    0    1
 -2       733       902       912      3533      3563      3561
 -1      1701    8    0    1
 -2       730       817       913      3269      3564      3565
 -1      1702    8    0    1
 -2       819       810       914      3275      3566      3567
 -1      1703    8    0    1
 -2       767       858       915      3405      3568      3569
 -1      1704    8    0    1
 -2       767       915       823      3569      3570      3291
 -1      1705    8    0    1
 -2       729       755       916      3276      3571      3572
 -1      1706    8    0    1
 -2       825       811       917      3300      3573      3574
 -1      1707    8    0    1
 -2       811       828       917      3311      3575      3573
 -1      1708    8    0    1
 -2       755       857       916      3402      3576      3571
 -1      1709    8    0    1
 -2       858       766       918      3404      3577      3578
 -1      1710    8    0    1
 -2       766       807       918      3238      3579      3577
 -1      1711    8    0    1
 -2       820       809       919      3281      3580      3581
 -1      1712    8    0    1
 -2       809       896       919      3517      3582      3580
 -1      1713    8    0    1
 -2       821       720       920      3284      3583      3584
 -1      1714    8    0    1
 -2       720       820       920      3280      3585      3583
 -1      1715    8    0    1
 -2       734       866       905      3429      3586      3540
 -1      1716    8    0    1
 -2       822       716       823      3289      3293      3587
 -1      1717    8    0    1
 -2       824       803       921      3294      3588      3589
 -1      1718    8    0    1
 -2       803       899       921      3524      3590      3588
 -1      1719    8    0    1
 -2       788       789       922      3183      3591      3592
 -1      1720    8    0    1
 -2       895       799       825      3513      3299      3593
 -1      1721    8    0    1
 -2       827       814       923      3306      3594      3595
 -1      1722    8    0    1
 -2       814       907       923      3547      3596      3594
 -1      1723    8    0    1
 -2       830       730       913      3316      3565      3597
 -1      1724    8    0    1
 -2       899       722       827      3523      3305      3598
 -1      1725    8    0    1
 -2       756       821       886      3283      3599      3600
 -1      1726    8    0    1
 -2       826       835       924      3338      3601      3602
 -1      1727    8    0    1
 -2       788       922       885      3592      3603      3484
 -1      1728    8    0    1
 -2       726       830       925      3315      3604      3605
 -1      1729    8    0    1
 -2       726       925       902      3605      3606      3532
 -1      1730    8    0    1
 -2       901       764       926      3530      3607      3608
 -1      1731    8    0    1
 -2       764       822       926      3288      3609      3607
 -1      1732    8    0    1
 -2       719       819       904      3274      3610      3537
 -1      1733    8    0    1
 -2       725       824       860      3296      3611      3411
 -1      1734    8    0    1
 -2       807       768       927      3239      3612      3613
 -1      1735    8    0    1
 -2       918       807       927      3579      3613      3614
 -1      1736    8    0    1
 -2       768       868       927      3434      3615      3612
 -1      1737    8    0    1
 -2       836       805       916      3339      3616      3617
 -1      1738    8    0    1
 -2       832       815       928      3327      3618      3619
 -1      1739    8    0    1
 -2       815       908       928      3549      3620      3618
 -1      1740    8    0    1
 -2       833       826       929      3525      3621      3622
 -1      1741    8    0    1
 -2       812       833       929      3331      3622      3623
 -1      1742    8    0    1
 -2       826       924       929      3602      3624      3621
 -1      1743    8    0    1
 -2       834       712       831      3334      3318      3625
 -1      1744    8    0    1
 -2       910       813       906      3555      3544      3626
 -1      1745    8    0    1
 -2       907       806       910      3546      3556      3627
 -1      1746    8    0    1
 -2       816       836       930      3341      3628      3629
 -1      1747    8    0    1
 -2       810       834       931      3333      3630      3631
 -1      1748    8    0    1
 -2       810       931       914      3631      3632      3566
 -1      1749    8    0    1
 -2       817       816       930      3267      3629      3633
 -1      1750    8    0    1
 -2       812       929       866      3623      3634      3428
 -1      1751    8    0    1
 -2       805       729       916      3322      3572      3616
 -1      1752    8    0    1
 -2       922       789       886      3591      3488      3635
 -1      1753    8    0    1
 -2       913       817       932      3564      3636      3637
 -1      1754    8    0    1
 -2       817       930       932      3633      3638      3636
 -1      1755    8    0    1
 -2       819       914       933      3567      3639      3640
 -1      1756    8    0    1
 -2       819       933       904      3640      3641      3610
 -1      1757    8    0    1
 -2       840       839       934      3352      3642      3643
 -1      1758    8    0    1
 -2       841       840       935      3355      3644      3645
 -1      1759    8    0    1
 -2       840       934       935      3643      3646      3644
 -1      1760    8    0    1
 -2       842       841       936      3358      3647      3648
 -1      1761    8    0    1
 -2       841       935       936      3645      3649      3647
 -1      1762    8    0    1
 -2       843       842       937      3361      3650      3651
 -1      1763    8    0    1
 -2       842       936       937      3648      3652      3650
 -1      1764    8    0    1
 -2       844       843       938      3364      3653      3654
 -1      1765    8    0    1
 -2       843       937       938      3651      3655      3653
 -1      1766    8    0    1
 -2       845       844       939      3367      3656      3657
 -1      1767    8    0    1
 -2       844       938       939      3654      3658      3656
 -1      1768    8    0    1
 -2       846       845       940      3370      3659      3660
 -1      1769    8    0    1
 -2       845       939       940      3657      3661      3659
 -1      1770    8    0    1
 -2       847       846       941      3373      3662      3663
 -1      1771    8    0    1
 -2       846       940       941      3660      3664      3662
 -1      1772    8    0    1
 -2       848       847       942      3376      3665      3666
 -1      1773    8    0    1
 -2       847       941       942      3663      3667      3665
 -1      1774    8    0    1
 -2       849       848       943      3379      3668      3669
 -1      1775    8    0    1
 -2       848       942       943      3666      3670      3668
 -1      1776    8    0    1
 -2       850       849       944      3382      3671      3672
 -1      1777    8    0    1
 -2       849       943       944      3669      3673      3671
 -1      1778    8    0    1
 -2       851       850       945      3385      3674      3675
 -1      1779    8    0    1
 -2       850       944       945      3672      3676      3674
 -1      1780    8    0    1
 -2       852       851       946      3388      3677      3678
 -1      1781    8    0    1
 -2       851       945       946      3675      3679      3677
 -1      1782    8    0    1
 -2       853       852       947      3391      3680      3681
 -1      1783    8    0    1
 -2       852       946       947      3678      3682      3680
 -1      1784    8    0    1
 -2       854       853       948      3394      3683      3684
 -1      1785    8    0    1
 -2       853       947       948      3681      3685      3683
 -1      1786    8    0    1
 -2       855       854       949      3397      3686      3687
 -1      1787    8    0    1
 -2       854       948       949      3684      3688      3686
 -1      1788    8    0    1
 -2       856       855       950      3400      3689      3690
 -1      1789    8    0    1
 -2       855       949       950      3687      3691      3689
 -1      1790    8    0    1
 -2       857       856       951      3403      3692      3693
 -1      1791    8    0    1
 -2       856       950       951      3690      3694      3692
 -1      1792    8    0    1
 -2       859       860       952      3410      3695      3696
 -1      1793    8    0    1
 -2       860       824       952      3611      3697      3695
 -1      1794    8    0    1
 -2       862       861       953      3417      3698      3699
 -1      1795    8    0    1
 -2       863       862       954      3420      3700      3701
 -1      1796    8    0    1
 -2       862       953       954      3699      3702      3700
 -1      1797    8    0    1
 -2       864       863       955      3423      3703      3704
 -1      1798    8    0    1
 -2       863       954       955      3701      3705      3703
 -1      1799    8    0    1
 -2       865       864       956      3427      3706      3707
 -1      1800    8    0    1
 -2       909       865       956      3554      3707      3708
 -1      1801    8    0    1
 -2       864       955       956      3704      3709      3706
 -1      1802    8    0    1
 -2       867       837       957      3432      3710      3711
 -1      1803    8    0    1
 -2       837       869       958      3438      3712      3713
 -1      1804    8    0    1
 -2       837       958       957      3713      3714      3710
 -1      1805    8    0    1
 -2       868       867       959      3435      3715      3716
 -1      1806    8    0    1
 -2       867       957       959      3711      3717      3715
 -1      1807    8    0    1
 -2       870       871       960      3444      3718      3719
 -1      1808    8    0    1
 -2       871       872       961      3447      3720      3721
 -1      1809    8    0    1
 -2       871       961       960      3721      3722      3718
 -1      1810    8    0    1
 -2       872       873       962      3450      3723      3724
 -1      1811    8    0    1
 -2       872       962       961      3724      3725      3720
 -1      1812    8    0    1
 -2       873       874       963      3453      3726      3727
 -1      1813    8    0    1
 -2       873       963       962      3727      3728      3723
 -1      1814    8    0    1
 -2       874       875       964      3456      3729      3730
 -1      1815    8    0    1
 -2       874       964       963      3730      3731      3726
 -1      1816    8    0    1
 -2       875       876       965      3459      3732      3733
 -1      1817    8    0    1
 -2       875       965       964      3733      3734      3729
 -1      1818    8    0    1
 -2       876       877       966      3462      3735      3736
 -1      1819    8    0    1
 -2       876       966       965      3736      3737      3732
 -1      1820    8    0    1
 -2       877       878       967      3465      3738      3739
 -1      1821    8    0    1
 -2       877       967       966      3739      3740      3735
 -1      1822    8    0    1
 -2       878       879       968      3468      3741      3742
 -1      1823    8    0    1
 -2       878       968       967      3742      3743      3738
 -1      1824    8    0    1
 -2       879       880       969      3471      3744      3745
 -1      1825    8    0    1
 -2       879       969       968      3745      3746      3741
 -1      1826    8    0    1
 -2       880       881       970      3474      3747      3748
 -1      1827    8    0    1
 -2       880       970       969      3748      3749      3744
 -1      1828    8    0    1
 -2       881       882       971      3477      3750      3751
 -1      1829    8    0    1
 -2       881       971       970      3751      3752      3747
 -1      1830    8    0    1
 -2       882       883       912      3480      3753      3754
 -1      1831    8    0    1
 -2       884       885       919      3486      3755      3756
 -1      1832    8    0    1
 -2       895       825       917      3593      3574      3757
 -1      1833    8    0    1
 -2       889       890       972      3500      3758      3759
 -1      1834    8    0    1
 -2       890       891       973      3503      3760      3761
 -1      1835    8    0    1
 -2       890       973       972      3761      3762      3758
 -1      1836    8    0    1
 -2       891       892       974      3506      3763      3764
 -1      1837    8    0    1
 -2       891       974       973      3764      3765      3760
 -1      1838    8    0    1
 -2       892       893       975      3509      3766      3767
 -1      1839    8    0    1
 -2       892       975       974      3767      3768      3763
 -1      1840    8    0    1
 -2       893       894       976      3512      3769      3770
 -1      1841    8    0    1
 -2       893       976       975      3770      3771      3766
 -1      1842    8    0    1
 -2       894       895       977      3515      3772      3773
 -1      1843    8    0    1
 -2       894       977       976      3773      3774      3769
 -1      1844    8    0    1
 -2       924       835       978      3601      3775      3776
 -1      1845    8    0    1
 -2       835       904       978      3539      3777      3775
 -1      1846    8    0    1
 -2       834       831       979      3625      3778      3779
 -1      1847    8    0    1
 -2       931       834       979      3630      3779      3780
 -1      1848    8    0    1
 -2       831       903       979      3536      3781      3778
 -1      1849    8    0    1
 -2       861       859       980      3414      3782      3783
 -1      1850    8    0    1
 -2       861       980       953      3783      3784      3698
 -1      1851    8    0    1
 -2       756       886       897      3600      3785      3519
 -1      1852    8    0    1
 -2       885       922       920      3603      3786      3787
 -1      1853    8    0    1
 -2       869       870       981      3441      3788      3789
 -1      1854    8    0    1
 -2       869       981       958      3789      3790      3712
 -1      1855    8    0    1
 -2       822       823       982      3587      3791      3792
 -1      1856    8    0    1
 -2       926       822       982      3609      3792      3793
 -1      1857    8    0    1
 -2       823       915       982      3570      3794      3791
 -1      1858    8    0    1
 -2       899       827       983      3598      3795      3796
 -1      1859    8    0    1
 -2       900       898       984      3529      3797      3798
 -1      1860    8    0    1
 -2       929       924       985      3624      3799      3800
 -1      1861    8    0    1
 -2       929       985       866      3800      3801      3634
 -1      1862    8    0    1
 -2       908       900       986      3550      3802      3803
 -1      1863    8    0    1
 -2       900       984       986      3798      3804      3802
 -1      1864    8    0    1
 -2       838       905       987      3542      3805      3806
 -1      1865    8    0    1
 -2       905       866       988      3586      3807      3808
 -1      1866    8    0    1
 -2       987       905       988      3805      3808      3809
 -1      1867    8    0    1
 -2       866       985       988      3801      3810      3807
 -1      1868    8    0    1
 -2       830       913       989      3597      3811      3812
 -1      1869    8    0    1
 -2       830       989       925      3812      3813      3604
 -1      1870    8    0    1
 -2       828       832       990      3326      3814      3815
 -1      1871    8    0    1
 -2       917       828       990      3575      3815      3816
 -1      1872    8    0    1
 -2       832       928       990      3619      3817      3814
 -1      1873    8    0    1
 -2       839       838       991      3349      3818      3819
 -1      1874    8    0    1
 -2       838       987       991      3806      3820      3818
 -1      1875    8    0    1
 -2       907       910       992      3627      3821      3822
 -1      1876    8    0    1
 -2       897       886       887      3785      3491      3823
 -1      1877    8    0    1
 -2       933       914       993      3639      3824      3825
 -1      1878    8    0    1
 -2       934       839       991      3642      3819      3826
 -1      1879    8    0    1
 -2       899       983       994      3796      3827      3828
 -1      1880    8    0    1
 -2       899       994       921      3828      3829      3590
 -1      1881    8    0    1
 -2       858       918       995      3578      3830      3831
 -1      1882    8    0    1
 -2       922       886       821      3635      3599      3832
 -1      1883    8    0    1
 -2       857       951       930      3693      3833      3834
 -1      1884    8    0    1
 -2       952       824       921      3697      3589      3835
 -1      1885    8    0    1
 -2       920       820       885      3585      3836      3787
 -1      1886    8    0    1
 -2       993       914       996      3824      3837      3838
 -1      1887    8    0    1
 -2       914       931       996      3632      3839      3837
 -1      1888    8    0    1
 -2       858       995       997      3831      3840      3841
 -1      1889    8    0    1
 -2       858       997       915      3841      3842      3568
 -1      1890    8    0    1
 -2       888       889       998      3497      3843      3844
 -1      1891    8    0    1
 -2       836       916       857      3617      3576      3845
 -1      1892    8    0    1
 -2       932       930       999      3638      3846      3847
 -1      1893    8    0    1
 -2       930       951       999      3833      3848      3846
 -1      1894    8    0    1
 -2       882       912       971      3754      3849      3750
 -1      1895    8    0    1
 -2       912       883       818      3753      3850      3562
 -1      1896    8    0    1
 -2       883       884       896      3483      3851      3852
 -1      1897    8    0    1
 -2       895       917      1000      3757      3853      3854
 -1      1898    8    0    1
 -2       977       895      1000      3772      3854      3855
 -1      1899    8    0    1
 -2       917       990      1000      3816      3856      3853
 -1      1900    8    0    1
 -2       913       932      1001      3637      3857      3858
 -1      1901    8    0    1
 -2       913      1001       989      3858      3859      3811
 -1      1902    8    0    1
 -2       887       888       906      3494      3860      3861
 -1      1903    8    0    1
 -2       924       978       985      3776      3862      3799
 -1      1904    8    0    1
 -2       978       904       933      3777      3641      3863
 -1      1905    8    0    1
 -2       821       920       922      3584      3786      3832
 -1      1906    8    0    1
 -2       923       907      1002      3596      3864      3865
 -1      1907    8    0    1
 -2       907       992      1002      3822      3866      3864
 -1      1908    8    0    1
 -2       896       818       883      3518      3850      3852
 -1      1909    8    0    1
 -2       979       903       911      3781      3559      3867
 -1      1910    8    0    1
 -2       857       930       836      3834      3628      3845
 -1      1911    8    0    1
 -2       885       820       919      3836      3581      3755
 -1      1912    8    0    1
 -2       998       889       972      3843      3759      3868
 -1      1913    8    0    1
 -2       896       884       919      3851      3756      3582
 -1      1914    8    0    1
 -2       906       888       998      3860      3844      3869
 -1      1915    8    0    1
 -2       981       870       960      3788      3719      3870
 -1      1916    8    0    1
 -2       983       827       923      3795      3595      3871
 -1      1917    8    0    1
 -2       898       909       956      3553      3708      3872
 -1      1918    8    0    1
 -2       927       868      1003      3615      3873      3874
 -1      1919    8    0    1
 -2       868       959      1003      3716      3875      3873
 -1      1920    8    0    1
 -2       898       956       984      3872      3876      3797
 -1      1921    8    0    1
 -2       928       908      1004      3620      3877      3878
 -1      1922    8    0    1
 -2       908       986      1004      3803      3879      3877
 -1      1923    8    0    1
 -2       912       902      1005      3563      3880      3881
 -1      1924    8    0    1
 -2       971       912      1005      3849      3881      3882
 -1      1925    8    0    1
 -2       902       925      1005      3606      3883      3880
 -1      1926    8    0    1
 -2       901       926      1006      3608      3884      3885
 -1      1927    8    0    1
 -2       887       906       897      3861      3545      3823
 -1      1928    8    0    1
 -2       980       859       952      3782      3696      3886
 -1      1929    8    0    1
 -2       910       906       998      3626      3869      3887
 -1      1930    8    0    1
 -2       910       998       972      3887      3868      3888
 -1      1931    8    0    1
 -2       992       910       972      3821      3888      3889
 -1      1932    8    0    1
 -2       911       901      1007      3560      3890      3891
 -1      1933    8    0    1
 -2       901      1006      1007      3885      3892      3890
 -1      1934    8    0    1
 -2       934       991      1008      3826      3893      3894
 -1      1935    8    0    1
 -2       995       918      1009      3830      3895      3896
 -1      1936    8    0    1
 -2       918       927      1009      3614      3897      3895
 -1      1937    8    0    1
 -2      1006       926      1010      3884      3898      3899
 -1      1938    8    0    1
 -2       926       982      1010      3793      3900      3898
 -1      1939    8    0    1
 -2       952       921      1011      3835      3901      3902
 -1      1940    8    0    1
 -2       980       952      1011      3886      3902      3903
 -1      1941    8    0    1
 -2       921       994      1011      3829      3904      3901
 -1      1942    8    0    1
 -2       936       935      1012      3649      3905      3906
 -1      1943    8    0    1
 -2       937       936      1013      3652      3907      3908
 -1      1944    8    0    1
 -2       936      1012      1013      3906      3909      3907
 -1      1945    8    0    1
 -2       938       937      1014      3655      3910      3911
 -1      1946    8    0    1
 -2       937      1013      1014      3908      3912      3910
 -1      1947    8    0    1
 -2       939       938      1015      3658      3913      3914
 -1      1948    8    0    1
 -2       938      1014      1015      3911      3915      3913
 -1      1949    8    0    1
 -2       940       939      1016      3661      3916      3917
 -1      1950    8    0    1
 -2       939      1015      1016      3914      3918      3916
 -1      1951    8    0    1
 -2       941       940      1017      3664      3919      3920
 -1      1952    8    0    1
 -2       940      1016      1017      3917      3921      3919
 -1      1953    8    0    1
 -2       942       941      1018      3667      3922      3923
 -1      1954    8    0    1
 -2       941      1017      1018      3920      3924      3922
 -1      1955    8    0    1
 -2       943       942      1019      3670      3925      3926
 -1      1956    8    0    1
 -2       942      1018      1019      3923      3927      3925
 -1      1957    8    0    1
 -2       944       943      1020      3673      3928      3929
 -1      1958    8    0    1
 -2       943      1019      1020      3926      3930      3928
 -1      1959    8    0    1
 -2       945       944      1021      3676      3931      3932
 -1      1960    8    0    1
 -2       944      1020      1021      3929      3933      3931
 -1      1961    8    0    1
 -2       946       945      1022      3679      3934      3935
 -1      1962    8    0    1
 -2       945      1021      1022      3932      3936      3934
 -1      1963    8    0    1
 -2       947       946      1023      3682      3937      3938
 -1      1964    8    0    1
 -2       946      1022      1023      3935      3939      3937
 -1      1965    8    0    1
 -2       948       947      1024      3685      3940      3941
 -1      1966    8    0    1
 -2       947      1023      1024      3938      3942      3940
 -1      1967    8    0    1
 -2       949       948      1025      3688      3943      3944
 -1      1968    8    0    1
 -2       948      1024      1025      3941      3945      3943
 -1      1969    8    0    1
 -2       950       949      1026      3691      3946      3947
 -1      1970    8    0    1
 -2       949      1025      1026      3944      3948      3946
 -1      1971    8    0    1
 -2       951       950       999      3694      3949      3848
 -1      1972    8    0    1
 -2       955       954      1027      3705      3950      3951
 -1      1973    8    0    1
 -2       957       958      1028      3714      3952      3953
 -1      1974    8    0    1
 -2       935       934      1029      3646      3954      3955
 -1      1975    8    0    1
 -2       935      1029      1012      3955      3956      3905
 -1      1976    8    0    1
 -2       959       957      1030      3717      3957      3958
 -1      1977    8    0    1
 -2       957      1028      1030      3953      3959      3957
 -1      1978    8    0    1
 -2       961       962      1031      3725      3960      3961
 -1      1979    8    0    1
 -2       960       961      1032      3722      3962      3963
 -1      1980    8    0    1
 -2       961      1031      1032      3961      3964      3962
 -1      1981    8    0    1
 -2       963       964      1033      3731      3965      3966
 -1      1982    8    0    1
 -2       964       965      1034      3734      3967      3968
 -1      1983    8    0    1
 -2       964      1034      1033      3968      3969      3965
 -1      1984    8    0    1
 -2       965       966      1035      3737      3970      3971
 -1      1985    8    0    1
 -2       965      1035      1034      3971      3972      3967
 -1      1986    8    0    1
 -2       966       967      1036      3740      3973      3974
 -1      1987    8    0    1
 -2       966      1036      1035      3974      3975      3970
 -1      1988    8    0    1
 -2       967       968      1037      3743      3976      3977
 -1      1989    8    0    1
 -2       967      1037      1036      3977      3978      3973
 -1      1990    8    0    1
 -2       968       969      1038      3746      3979      3980
 -1      1991    8    0    1
 -2       968      1038      1037      3980      3981      3976
 -1      1992    8    0    1
 -2       969       970      1039      3749      3982      3983
 -1      1993    8    0    1
 -2       969      1039      1038      3983      3984      3979
 -1      1994    8    0    1
 -2       970       971      1005      3752      3882      3985
 -1      1995    8    0    1
 -2       985       978      1040      3862      3986      3987
 -1      1996    8    0    1
 -2       973       974      1041      3765      3988      3989
 -1      1997    8    0    1
 -2       972       973       992      3762      3990      3889
 -1      1998    8    0    1
 -2       975       976      1042      3771      3991      3992
 -1      1999    8    0    1
 -2       976       977      1043      3774      3993      3994
 -1      2000    8    0    1
 -2       976      1043      1042      3994      3995      3991
 -1      2001    8    0    1
 -2       978       933      1040      3863      3996      3986
 -1      2002    8    0    1
 -2       958       981      1044      3790      3997      3998
 -1      2003    8    0    1
 -2       958      1044      1028      3998      3999      3952
 -1      2004    8    0    1
 -2       979       911      1007      3867      3891      4000
 -1      2005    8    0    1
 -2       931       979      1007      3780      4000      4001
 -1      2006    8    0    1
 -2       953       980      1045      3784      4002      4003
 -1      2007    8    0    1
 -2       925       989      1039      3813      4004      4005
 -1      2008    8    0    1
 -2       983       923      1046      3871      4006      4007
 -1      2009    8    0    1
 -2       986       984      1047      3804      4008      4009
 -1      2010    8    0    1
 -2       991       987      1048      3820      4010      4011
 -1      2011    8    0    1
 -2       991      1048      1008      4011      4012      3893
 -1      2012    8    0    1
 -2       974       975      1049      3768      4013      4014
 -1      2013    8    0    1
 -2       975      1042      1049      3992      4015      4013
 -1      2014    8    0    1
 -2       981       960      1050      3870      4016      4017
 -1      2015    8    0    1
 -2       960      1032      1050      3963      4018      4016
 -1      2016    8    0    1
 -2       954       953      1051      3702      4019      4020
 -1      2017    8    0    1
 -2       953      1045      1051      4003      4021      4019
 -1      2018    8    0    1
 -2       962       963      1052      3728      4022      4023
 -1      2019    8    0    1
 -2       963      1033      1052      3966      4024      4022
 -1      2020    8    0    1
 -2       992       973      1002      3990      4025      3866
 -1      2021    8    0    1
 -2       995      1009      1053      3896      4026      4027
 -1      2022    8    0    1
 -2       994       983      1054      3827      4028      4029
 -1      2023    8    0    1
 -2       983      1046      1054      4007      4030      4028
 -1      2024    8    0    1
 -2       923      1002      1046      3865      4031      4006
 -1      2025    8    0    1
 -2       999       950      1026      3949      3947      4032
 -1      2026    8    0    1
 -2       962      1052      1031      4023      4033      3960
 -1      2027    8    0    1
 -2      1027       954      1051      3950      4020      4034
 -1      2028    8    0    1
 -2       931      1007       996      4001      4035      3839
 -1      2029    8    0    1
 -2       997       995      1055      3840      4036      4037
 -1      2030    8    0    1
 -2       995      1053      1055      4027      4038      4036
 -1      2031    8    0    1
 -2       927      1003      1009      3874      4039      3897
 -1      2032    8    0    1
 -2      1002       973      1041      4025      3989      4040
 -1      2033    8    0    1
 -2       956       955       984      3709      4041      3876
 -1      2034    8    0    1
 -2       980      1011      1045      3903      4042      4002
 -1      2035    8    0    1
 -2       970      1005      1039      3985      4043      3982
 -1      2036    8    0    1
 -2      1041       974      1049      3988      4014      4044
 -1      2037    8    0    1
 -2       934      1008      1029      3894      4045      3954
 -1      2038    8    0    1
 -2       984       955      1027      4041      3951      4046
 -1      2039    8    0    1
 -2       933       993      1040      3825      4047      3996
 -1      2040    8    0    1
 -2      1047       984      1027      4008      4046      4048
 -1      2041    8    0    1
 -2      1001       932      1056      3857      4049      4050
 -1      2042    8    0    1
 -2       932       999      1056      3847      4051      4049
 -1      2043    8    0    1
 -2      1044       981      1050      3997      4017      4052
 -1      2044    8    0    1
 -2       993       996      1057      3838      4053      4054
 -1      2045    8    0    1
 -2      1039       989      1058      4004      4055      4056
 -1      2046    8    0    1
 -2      1038      1039      1058      3984      4056      4057
 -1      2047    8    0    1
 -2       989      1001      1058      3859      4058      4055
 -1      2048    8    0    1
 -2       982       915      1059      3794      4059      4060
 -1      2049    8    0    1
 -2      1010       982      1059      3900      4060      4061
 -1      2050    8    0    1
 -2       915       997      1059      3842      4062      4059
 -1      2051    8    0    1
 -2      1003       959      1060      3875      4063      4064
 -1      2052    8    0    1
 -2       959      1030      1060      3958      4065      4063
 -1      2053    8    0    1
 -2       925      1039      1005      4005      4043      3883
 -1      2054    8    0    1
 -2      1004       986      1061      3879      4066      4067
 -1      2055    8    0    1
 -2       986      1047      1061      4009      4068      4066
 -1      2056    8    0    1
 -2      1048       987      1062      4010      4069      4070
 -1      2057    8    0    1
 -2       987       988      1062      3809      4071      4069
 -1      2058    8    0    1
 -2       990       928      1063      3817      4072      4073
 -1      2059    8    0    1
 -2      1000       990      1063      3856      4073      4074
 -1      2060    8    0    1
 -2       928      1004      1063      3878      4075      4072
 -1      2061    8    0    1
 -2       985      1040       988      3987      4076      3810
 -1      2062    8    0    1
 -2      1006      1010      1064      3899      4077      4078
 -1      2063    8    0    1
 -2      1011       994      1065      3904      4079      4080
 -1      2064    8    0    1
 -2      1011      1065      1045      4080      4081      4042
 -1      2065    8    0    1
 -2      1013      1012      1066      3909      4082      4083
 -1      2066    8    0    1
 -2      1014      1013      1067      3912      4084      4085
 -1      2067    8    0    1
 -2      1013      1066      1067      4083      4086      4084
 -1      2068    8    0    1
 -2      1015      1014      1068      3915      4087      4088
 -1      2069    8    0    1
 -2      1014      1067      1068      4085      4089      4087
 -1      2070    8    0    1
 -2      1016      1015      1069      3918      4090      4091
 -1      2071    8    0    1
 -2      1015      1068      1069      4088      4092      4090
 -1      2072    8    0    1
 -2      1017      1016      1070      3921      4093      4094
 -1      2073    8    0    1
 -2      1016      1069      1070      4091      4095      4093
 -1      2074    8    0    1
 -2      1018      1017      1071      3924      4096      4097
 -1      2075    8    0    1
 -2      1017      1070      1071      4094      4098      4096
 -1      2076    8    0    1
 -2      1019      1018      1072      3927      4099      4100
 -1      2077    8    0    1
 -2      1018      1071      1072      4097      4101      4099
 -1      2078    8    0    1
 -2      1020      1019      1073      3930      4102      4103
 -1      2079    8    0    1
 -2      1019      1072      1073      4100      4104      4102
 -1      2080    8    0    1
 -2      1021      1020      1074      3933      4105      4106
 -1      2081    8    0    1
 -2      1020      1073      1074      4103      4107      4105
 -1      2082    8    0    1
 -2      1022      1021      1075      3936      4108      4109
 -1      2083    8    0    1
 -2      1021      1074      1075      4106      4110      4108
 -1      2084    8    0    1
 -2      1023      1022      1076      3939      4111      4112
 -1      2085    8    0    1
 -2      1022      1075      1076      4109      4113      4111
 -1      2086    8    0    1
 -2      1024      1023      1077      3942      4114      4115
 -1      2087    8    0    1
 -2      1023      1076      1077      4112      4116      4114
 -1      2088    8    0    1
 -2      1025      1024      1078      3945      4117      4118
 -1      2089    8    0    1
 -2      1024      1077      1078      4115      4119      4117
 -1      2090    8    0    1
 -2      1026      1025      1079      3948      4120      4121
 -1      2091    8    0    1
 -2      1025      1078      1079      4118      4122      4120
 -1      2092    8    0    1
 -2      1012      1029      1080      3956      4123      4124
 -1      2093    8    0    1
 -2      1012      1080      1066      4124      4125      4082
 -1      2094    8    0    1
 -2      1030      1028      1081      3959      4126      4127
 -1      2095    8    0    1
 -2      1040       993      1082      4047      4128      4129
 -1      2096    8    0    1
 -2      1027      1051      1083      4034      4130      4131
 -1      2097    8    0    1
 -2      1027      1083      1047      4131      4132      4048
 -1      2098    8    0    1
 -2       996      1007      1084      4035      4133      4134
 -1      2099    8    0    1
 -2      1057       996      1084      4053      4134      4135
 -1      2100    8    0    1
 -2      1007      1006      1084      3892      4136      4133
 -1      2101    8    0    1
 -2      1034      1035      1085      3972      4137      4138
 -1      2102    8    0    1
 -2      1033      1034      1086      3969      4139      4140
 -1      2103    8    0    1
 -2      1034      1085      1086      4138      4141      4139
 -1      2104    8    0    1
 -2      1036      1037      1087      3978      4142      4143
 -1      2105    8    0    1
 -2      1037      1038      1088      3981      4144      4145
 -1      2106    8    0    1
 -2      1087      1037      1088      4142      4145      4146
 -1      2107    8    0    1
 -2      1038      1058      1088      4057      4147      4144
 -1      2108    8    0    1
 -2      1028      1044      1089      3999      4148      4149
 -1      2109    8    0    1
 -2      1028      1089      1081      4149      4150      4126
 -1      2110    8    0    1
 -2       977      1000      1090      3855      4151      4152
 -1      2111    8    0    1
 -2      1042      1043      1091      3995      4153      4154
 -1      2112    8    0    1
 -2      1009      1003      1092      4039      4155      4156
 -1      2113    8    0    1
 -2      1053      1009      1092      4026      4156      4157
 -1      2114    8    0    1
 -2      1003      1060      1092      4064      4158      4155
 -1      2115    8    0    1
 -2       999      1026      1056      4032      4159      4051
 -1      2116    8    0    1
 -2      1044      1050      1093      4052      4160      4161
 -1      2117    8    0    1
 -2      1044      1093      1089      4161      4162      4148
 -1      2118    8    0    1
 -2       988      1040      1062      4076      4163      4071
 -1      2119    8    0    1
 -2      1082       993      1057      4128      4054      4164
 -1      2120    8    0    1
 -2       977      1090      1043      4152      4165      3993
 -1      2121    8    0    1
 -2      1040      1082      1062      4129      4166      4163
 -1      2122    8    0    1
 -2      1084      1006      1064      4136      4078      4167
 -1      2123    8    0    1
 -2      1090      1000      1063      4151      4074      4168
 -1      2124    8    0    1
 -2      1082      1057      1094      4164      4169      4170
 -1      2125    8    0    1
 -2      1031      1052      1095      4033      4171      4172
 -1      2126    8    0    1
 -2      1046      1002      1041      4031      4040      4173
 -1      2127    8    0    1
 -2      1008      1048      1096      4012      4174      4175
 -1      2128    8    0    1
 -2      1049      1042      1097      4015      4176      4177
 -1      2129    8    0    1
 -2      1042      1091      1097      4154      4178      4176
 -1      2130    8    0    1
 -2      1035      1036      1098      3975      4179      4180
 -1      2131    8    0    1
 -2      1085      1035      1098      4137      4180      4181
 -1      2132    8    0    1
 -2      1036      1087      1098      4143      4182      4179
 -1      2133    8    0    1
 -2      1032      1031      1099      3964      4183      4184
 -1      2134    8    0    1
 -2      1031      1095      1099      4172      4185      4183
 -1      2135    8    0    1
 -2      1064      1010      1100      4077      4186      4187
 -1      2136    8    0    1
 -2      1010      1059      1100      4061      4188      4186
 -1      2137    8    0    1
 -2      1050      1032      1101      4018      4189      4190
 -1      2138    8    0    1
 -2      1032      1099      1101      4184      4191      4189
 -1      2139    8    0    1
 -2      1051      1045      1102      4021      4192      4193
 -1      2140    8    0    1
 -2      1083      1051      1102      4130      4193      4194
 -1      2141    8    0    1
 -2      1045      1065      1102      4081      4195      4192
 -1      2142    8    0    1
 -2      1052      1033      1103      4024      4196      4197
 -1      2143    8    0    1
 -2      1095      1052      1103      4171      4197      4198
 -1      2144    8    0    1
 -2      1033      1086      1103      4140      4199      4196
 -1      2145    8    0    1
 -2      1029      1008      1104      4045      4200      4201
 -1      2146    8    0    1
 -2      1008      1096      1104      4175      4202      4200
 -1      2147    8    0    1
 -2      1046      1041      1049      4173      4044      4203
 -1      2148    8    0    1
 -2      1046      1049      1097      4203      4177      4204
 -1      2149    8    0    1
 -2       994      1054      1065      4029      4205      4079
 -1      2150    8    0    1
 -2      1060      1030      1105      4065      4206      4207
 -1      2151    8    0    1
 -2      1030      1081      1105      4127      4208      4206
 -1      2152    8    0    1
 -2      1026      1079      1056      4121      4209      4159
 -1      2153    8    0    1
 -2      1080      1029      1104      4123      4201      4210
 -1      2154    8    0    1
 -2      1055      1053      1106      4038      4211      4212
 -1      2155    8    0    1
 -2      1047      1083      1061      4132      4213      4068
 -1      2156    8    0    1
 -2      1084      1064      1107      4167      4214      4215
 -1      2157    8    0    1
 -2      1057      1084      1107      4135      4215      4216
 -1      2158    8    0    1
 -2      1064      1100      1107      4187      4217      4214
 -1      2159    8    0    1
 -2      1059       997      1108      4062      4218      4219
 -1      2160    8    0    1
 -2      1100      1059      1108      4188      4219      4220
 -1      2161    8    0    1
 -2       997      1055      1108      4037      4221      4218
 -1      2162    8    0    1
 -2      1094      1057      1107      4169      4216      4222
 -1      2163    8    0    1
 -2      1053      1092      1109      4157      4223      4224
 -1      2164    8    0    1
 -2      1053      1109      1106      4224      4225      4211
 -1      2165    8    0    1
 -2      1058      1001      1056      4058      4050      4226
 -1      2166    8    0    1
 -2      1093      1050      1101      4160      4190      4227
 -1      2167    8    0    1
 -2      1063      1004      1090      4075      4228      4168
 -1      2168    8    0    1
 -2      1096      1048      1094      4174      4229      4230
 -1      2169    8    0    1
 -2      1048      1062      1082      4070      4166      4231
 -1      2170    8    0    1
 -2      1082      1094      1048      4170      4229      4231
 -1      2171    8    0    1
 -2      1043      1090      1110      4165      4232      4233
 -1      2172    8    0    1
 -2      1090      1004      1110      4228      4234      4232
 -1      2173    8    0    1
 -2      1043      1110      1091      4233      4235      4153
 -1      2174    8    0    1
 -2      1056      1079      1087      4209      4236      4237
 -1      2175    8    0    1
 -2      1068      1067      1111      4089      4238      4239
 -1      2176    8    0    1
 -2      1069      1068      1105      4092      4240      4241
 -1      2177    8    0    1
 -2      1070      1069      1081      4095      4242      4243
 -1      2178    8    0    1
 -2      1071      1070      1089      4098      4244      4245
 -1      2179    8    0    1
 -2      1072      1071      1093      4101      4246      4247
 -1      2180    8    0    1
 -2      1073      1072      1101      4104      4248      4249
 -1      2181    8    0    1
 -2      1074      1073      1099      4107      4250      4251
 -1      2182    8    0    1
 -2      1075      1074      1095      4110      4252      4253
 -1      2183    8    0    1
 -2      1076      1075      1103      4113      4254      4255
 -1      2184    8    0    1
 -2      1077      1076      1086      4116      4256      4257
 -1      2185    8    0    1
 -2      1078      1077      1085      4119      4258      4259
 -1      2186    8    0    1
 -2      1079      1078      1098      4122      4260      4261
 -1      2187    8    0    1
 -2      1094      1107      1112      4222      4262      4263
 -1      2188    8    0    1
 -2      1107      1100      1112      4217      4264      4262
 -1      2189    8    0    1
 -2      1097      1091      1102      4178      4265      4266
 -1      2190    8    0    1
 -2      1086      1085      1077      4141      4258      4257
 -1      2191    8    0    1
 -2      1055      1106      1113      4212      4267      4268
 -1      2192    8    0    1
 -2      1055      1113      1108      4268      4269      4221
 -1      2193    8    0    1
 -2      1086      1076      1103      4256      4255      4199
 -1      2194    8    0    1
 -2      1046      1097      1102      4204      4266      4270
 -1      2195    8    0    1
 -2      1099      1073      1101      4250      4249      4191
 -1      2196    8    0    1
 -2      1089      1093      1071      4162      4246      4245
 -1      2197    8    0    1
 -2      1101      1072      1093      4248      4247      4227
 -1      2198    8    0    1
 -2      1099      1095      1074      4185      4252      4251
 -1      2199    8    0    1
 -2      1081      1089      1070      4150      4244      4243
 -1      2200    8    0    1
 -2      1092      1060      1111      4158      4271      4272
 -1      2201    8    0    1
 -2      1087      1079      1098      4236      4261      4182
 -1      2202    8    0    1
 -2      1081      1069      1105      4242      4241      4208
 -1      2203    8    0    1
 -2      1067      1066      1109      4086      4273      4274
 -1      2204    8    0    1
 -2      1080      1104      1113      4210      4275      4276
 -1      2205    8    0    1
 -2      1096      1094      1112      4230      4263      4277
 -1      2206    8    0    1
 -2      1066      1080      1106      4125      4278      4279
 -1      2207    8    0    1
 -2      1075      1095      1103      4253      4198      4254
 -1      2208    8    0    1
 -2      1078      1085      1098      4259      4181      4260
 -1      2209    8    0    1
 -2      1066      1106      1109      4279      4225      4273
 -1      2210    8    0    1
 -2      1106      1080      1113      4278      4276      4267
 -1      2211    8    0    1
 -2      1067      1109      1111      4274      4280      4238
 -1      2212    8    0    1
 -2      1068      1111      1105      4239      4281      4240
 -1      2213    8    0    1
 -2      1092      1111      1109      4272      4280      4223
 -1      2214    8    0    1
 -2      1058      1056      1088      4226      4282      4147
 -1      2215    8    0    1
 -2      1102      1091      1083      4265      4283      4194
 -1      2216    8    0    1
 -2      1104      1096      1112      4202      4277      4284
 -1      2217    8    0    1
 -2      1056      1087      1088      4237      4146      4282
 -1      2218    8    0    1
 -2      1060      1105      1111      4207      4281      4271
 -1      2219    8    0    1
 -2      1083      1091      1110      4283      4235      4285
 -1      2220    8    0    1
 -2      1100      1108      1112      4220      4286      4264
 -1      2221    8    0    1
 -2      1004      1061      1110      4067      4287      4234
 -1      2222    8    0    1
 -2      1108      1113      1112      4269      4288      4286
 -1      2223    8    0    1
 -2      1065      1054      1102      4205      4289      4195
 -1      2224    8    0    1
 -2      1113      1104      1112      4275      4284      4288
 -1      2225    8    0    1
 -2      1061      1083      1110      4213      4285      4287
 -1      2226    8    0    1
 -2      1046      1102      1054      4270      4289      4030
 -3
    1PSTEP                         1           1           1          
  100CL  101 1.000000000        4289                     0    1           1
 -4  DISP        4    1
 -5  D1          1    2    1    0
 -5  D2          1    2    2    0
 -5  D3          1    2    3    0
 -5  ALL         1    2    0    0    1ALL
 -1         1 8.64199E-03-1.22275E-03-2.78315E-14
 -1         2 1.25240E-02-7.71393E-04-3.45785E-14
 -1         3 1.41902E-02-1.33879E-03-6.07352E-14
 -1         4 1.62103E-02-2.63621E-03-6.90252E-14
 -1         5 0.00000E+00 0.00000E+00 0.00000E+00
 -1         6 0.00000E+00 0.00000E+00 0.00000E+00
 -1         7 0.00000E+00 0.00000E+00 0.00000E+00
 -1         8 0.00000E+00 0.00000E+00 0.00000E+00
 -1         9 0.00000E+00 0.00000E+00 0.00000E+00
 -1        10 0.00000E+00 0.00000E+00 0.00000E+00
 -1        11 0.00000E+00 0.00000E+00 0.00000E+00
 -1        12 0.00000E+00 0.00000E+00 0.00000E+00
 -1        13 0.00000E+00 0.00000E+00 0.00000E+00
 -1        14 0.00000E+00 0.00000E+00 0.00000E+00
 -1        15 0.00000E+00 0.00000E+00 0.00000E+00
 -1        16 0.00000E+00 0.00000E+00 0.00000E+00
 -1        17 0.00000E+00 0.00000E+00 0.00000E+00
 -1        18 0.00000E+00 0.00000E+00 0.00000E+00
 -1        19 0.00000E+00 0.00000E+00 0.00000E+00
 -1        20 0.00000E+00 0.00000E+00 0.00000E+00
 -1        21 0.00000E+00 0.00000E+00 0.00000E+00
 -1        22 0.00000E+00 0.00000E+00 0.00000E+00
 -1        23 4.11308E-04-2.60733E-04-3.72356E-18
 -1        24 7.03208E-04-4.00974E-04-7.87063E-17
 -1        25 9.73174E-04-4.98322E-04-2.21519E-16
 -1        26 1.23755E-03-5.67001E-04-4.27992E-16
 -1        27 1.50094E-03-6.16142E-04-6.95773E-16
 -1        28 1.76545E-03-6.51114E-04-1.02387E-15
 -1        29 2.03203E-03-6.75611E-04-1.41149E-15
 -1        30 2.30105E-03-6.92306E-04-1.85628E-15
 -1        31 2.57258E-03-7.03190E-04-2.36493E-15
 -1        32 2.84650E-03-7.09754E-04-2.93564E-15
 -1        33 3.12260E-03-7.13109E-04-3.56445E-15
 -1        34 3.40066E-03-7.14068E-04-4.24877E-15
 -1        35 3.68047E-03-7.13210E-04-4.99157E-15
 -1        36 3.96186E-03-7.10930E-04-5.78693E-15
 -1        37 4.24473E-03-7.07481E-04-6.62705E-15
 -1        38 4.52911E-03-7.03013E-04-7.51751E-15
 -1        39 4.81513E-03-6.97609E-04-8.46412E-15
 -1        40 5.10307E-03-6.91320E-04-9.47089E-15
 -1        41 5.40805E-03-6.83831E-04-1.05916E-14
 -1        42 5.70185E-03-6.76006E-04-1.17180E-14
 -1        43 6.00009E-03-6.67819E-04-1.28994E-14
 -1        44 6.30446E-03-6.59902E-04-1.41274E-14
 -1        45 6.61730E-03-6.53444E-04-1.54013E-14
 -1        46 6.94182E-03-6.50591E-04-1.67226E-14
 -1        47 7.28224E-03-6.55080E-04-1.80983E-14
 -1        48 7.64370E-03-6.73198E-04-1.95275E-14
 -1        49 8.03158E-03-7.15012E-04-2.10194E-14
 -1        50 8.44940E-03-7.95382E-04-2.25711E-14
 -1        51 8.89422E-03-9.33003E-04-2.41763E-14
 -1        52 9.34962E-03-1.14354E-03-2.58456E-14
 -1        53 9.78116E-03-1.42229E-03-2.75856E-14
 -1        54 1.01305E-02-1.70581E-03-2.93082E-14
 -1        55 1.04196E-02-1.93333E-03-3.12096E-14
 -1        56 1.06556E-02-2.00311E-03-3.30963E-14
 -1        57 1.09354E-02-1.91524E-03-3.51448E-14
 -1        58 1.12939E-02-1.74241E-03-3.72491E-14
 -1        59 1.17206E-02-1.58183E-03-3.93751E-14
 -1        60 1.21746E-02-1.48699E-03-4.15261E-14
 -1        61 1.26200E-02-1.46554E-03-4.37036E-14
 -1        62 1.30388E-02-1.50269E-03-4.59131E-14
 -1        63 1.34273E-02-1.57956E-03-4.81520E-14
 -1        64 1.37883E-02-1.68075E-03-5.04126E-14
 -1        65 1.41273E-02-1.79563E-03-5.26904E-14
 -1        66 1.44492E-02-1.91736E-03-5.49880E-14
 -1        67 1.47584E-02-2.04168E-03-5.73111E-14
 -1        68 1.50581E-02-2.16586E-03-5.96445E-14
 -1        69 1.53509E-02-2.28812E-03-6.19892E-14
 -1        70 1.56391E-02-2.40730E-03-6.43458E-14
 -1        71 1.59249E-02-2.52294E-03-6.66972E-14
 -1        72 4.13760E-04 2.61435E-04 5.80929E-17
 -1        73 7.03038E-04 4.03685E-04 9.17337E-17
 -1        74 9.73707E-04 5.00098E-04 9.57825E-17
 -1        75 1.23837E-03 5.68704E-04 6.33615E-17
 -1        76 1.50190E-03 6.17896E-04-1.28444E-17
 -1        77 1.76649E-03 6.52958E-04-1.35122E-16
 -1        78 2.03312E-03 6.77565E-04-3.04139E-16
 -1        79 2.30219E-03 6.94385E-04-5.19611E-16
 -1        80 2.57376E-03 7.05406E-04-7.83712E-16
 -1        81 2.84773E-03 7.12123E-04-1.09987E-15
 -1        82 3.12390E-03 7.15656E-04-1.46677E-15
 -1        83 3.40205E-03 7.16835E-04-1.88427E-15
 -1        84 3.68198E-03 7.16264E-04-2.35620E-15
 -1        85 3.96351E-03 7.14382E-04-2.88038E-15
 -1        86 4.24655E-03 7.11506E-04-3.45888E-15
 -1        87 4.53107E-03 7.07881E-04-4.09538E-15
 -1        88 4.81713E-03 7.03723E-04-4.78180E-15
 -1        89 5.10486E-03 6.99263E-04-5.51936E-15
 -1        90 5.39449E-03 6.94794E-04-6.31805E-15
 -1        91 5.68628E-03 6.90717E-04-7.18334E-15
 -1        92 5.98049E-03 6.87583E-04-8.12065E-15
 -1        93 6.27733E-03 6.86121E-04-9.12212E-15
 -1        94 6.57684E-03 6.87239E-04-1.01853E-14
 -1        95 6.87873E-03 6.91967E-04-1.13037E-14
 -1        96 7.18223E-03 7.01317E-04-1.24782E-14
 -1        97 7.48590E-03 7.16015E-04-1.37089E-14
 -1        98 7.78757E-03 7.36102E-04-1.50037E-14
 -1        99 8.08434E-03 7.60408E-04-1.63505E-14
 -1       100 8.37297E-03 7.86038E-04-1.77561E-14
 -1       101 8.65054E-03 8.08070E-04-1.92271E-14
 -1       102 8.91541E-03 8.19783E-04-2.07564E-14
 -1       103 9.16813E-03 8.13628E-04-2.23473E-14
 -1       104 9.41191E-03 7.82880E-04-2.39859E-14
 -1       105 9.65221E-03 7.23473E-04-2.56880E-14
 -1       106 9.89537E-03 6.35242E-04-2.74661E-14
 -1       107 1.01470E-02 5.21976E-04-2.93348E-14
 -1       108 1.04104E-02 3.90246E-04-3.12750E-14
 -1       109 1.06863E-02 2.47579E-04-3.32832E-14
 -1       110 1.09732E-02 1.00767E-04-3.53476E-14
 -1       111 1.12682E-02-4.51729E-05-3.74565E-14
 -1       112 1.15679E-02-1.87291E-04-3.96160E-14
 -1       113 1.18693E-02-3.24446E-04-4.18218E-14
 -1       114 1.21701E-02-4.56801E-04-4.40825E-14
 -1       115 1.24687E-02-5.85306E-04-4.64095E-14
 -1       116 1.27644E-02-7.11289E-04-4.87763E-14
 -1       117 1.30567E-02-8.36167E-04-5.11666E-14
 -1       118 1.33461E-02-9.61258E-04-5.35779E-14
 -1       119 1.36332E-02-1.08763E-03-5.59995E-14
 -1       120 1.39189E-02-1.21581E-03-5.84352E-14
 -1       121 1.43177E-02-1.42325E-03-6.12794E-14
 -1       122 1.44466E-02-1.50751E-03-6.18295E-14
 -1       123 1.45772E-02-1.59047E-03-6.23785E-14
 -1       124 1.47091E-02-1.67116E-03-6.29384E-14
 -1       125 1.48412E-02-1.74893E-03-6.34942E-14
 -1       126 1.49701E-02-1.82229E-03-6.40519E-14
 -1       127 1.50990E-02-1.89386E-03-6.45946E-14
 -1       128 1.52245E-02-1.96286E-03-6.51156E-14
 -1       129 1.53455E-02-2.03020E-03-6.55916E-14
 -1       130 1.54615E-02-2.09715E-03-6.60308E-14
 -1       131 1.55726E-02-2.16518E-03-6.64772E-14
 -1       132 1.56780E-02-2.23451E-03-6.69171E-14
 -1       133 1.57827E-02-2.30863E-03-6.73700E-14
 -1       134 1.58869E-02-2.38687E-03-6.77967E-14
 -1       135 1.59927E-02-2.46881E-03-6.81918E-14
 -1       136 1.61013E-02-2.55306E-03-6.86016E-14
 -1       137 1.24185E-02-5.83855E-04-3.42699E-14
 -1       138 1.22189E-02-4.06271E-04-3.37728E-14
 -1       139 1.19358E-02-2.40392E-04-3.31137E-14
 -1       140 1.15927E-02-9.60139E-05-3.23432E-14
 -1       141 1.11643E-02 3.48728E-05-3.14188E-14
 -1       142 1.06964E-02 1.33340E-04-3.04583E-14
 -1       143 1.01928E-02 1.96675E-04-2.94627E-14
 -1       144 9.71416E-03 2.17583E-04-2.85624E-14
 -1       145 9.22856E-03 1.95755E-04-2.76975E-14
 -1       146 8.80765E-03 1.35038E-04-2.70074E-14
 -1       147 8.47325E-03 4.60174E-05-2.65000E-14
 -1       148 8.19687E-03-7.66142E-05-2.61280E-14
 -1       149 8.00787E-03-2.24381E-04-2.59317E-14
 -1       150 7.91346E-03-3.94509E-04-2.59200E-14
 -1       151 7.92221E-03-5.80605E-04-2.60968E-14
 -1       152 8.06564E-03-8.10148E-04-2.65400E-14
 -1       153 8.32830E-03-1.03497E-03-2.71618E-14
 -1       154 9.04947E-03-1.40438E-03-2.86390E-14
 -1       155 9.54069E-03-1.56042E-03-2.95610E-14
 -1       156 1.00436E-02-1.65751E-03-3.04704E-14
 -1       157 1.05954E-02-1.69443E-03-3.14412E-14
 -1       158 1.10927E-02-1.66302E-03-3.23018E-14
 -1       159 1.15389E-02-1.57741E-03-3.30692E-14
 -1       160 1.19154E-02-1.45418E-03-3.37111E-14
 -1       161 1.22164E-02-1.30110E-03-3.42136E-14
 -1       162 1.24266E-02-1.12533E-03-3.45440E-14
 -1       163 1.25264E-02-9.45605E-04-3.46651E-14
 -1       164 2.40365E-04-1.25542E-04-2.32087E-17
 -1       165 2.25251E-04-9.46490E-05-2.84434E-17
 -1       166 2.19509E-04-7.28100E-05-3.03882E-17
 -1       167 2.16727E-04-5.51326E-05-3.03848E-17
 -1       168 2.15245E-04-3.99894E-05-2.95208E-17
 -1       169 2.14420E-04-2.59321E-05-2.78233E-17
 -1       170 2.14007E-04-1.26523E-05-2.57871E-17
 -1       171 2.13887E-04 2.73790E-07-2.37440E-17
 -1       172 2.14026E-04 1.32120E-05-2.09759E-17
 -1       173 2.14460E-04 2.65314E-05-1.77741E-17
 -1       174 2.15293E-04 4.04188E-05-1.38778E-17
 -1       175 2.16827E-04 5.59432E-05-8.63635E-18
 -1       176 2.19672E-04 7.38470E-05-1.98206E-18
 -1       177 2.25417E-04 9.60504E-05 7.32514E-18
 -1       178 2.39293E-04 1.27612E-04 2.00848E-17
 -1       179 2.97652E-04 1.85511E-04 3.56093E-17
 -1       180 4.68527E-04-2.63570E-04-6.00445E-17
 -1       181 7.66596E-04-3.82147E-04-1.75624E-16
 -1       182 1.05036E-03-4.64984E-04-3.52979E-16
 -1       183 1.32766E-03-5.23671E-04-5.90047E-16
 -1       184 1.60216E-03-5.65214E-04-8.85082E-16
 -1       185 1.87594E-03-5.94285E-04-1.23822E-15
 -1       186 2.15015E-03-6.14167E-04-1.64874E-15
 -1       187 2.42538E-03-6.27255E-04-2.11855E-15
 -1       188 2.70191E-03-6.35328E-04-2.64867E-15
 -1       189 2.97984E-03-6.39702E-04-3.23797E-15
 -1       190 3.25915E-03-6.41344E-04-3.88265E-15
 -1       191 3.53980E-03-6.40942E-04-4.58361E-15
 -1       192 3.82172E-03-6.38969E-04-5.34032E-15
 -1       193 4.10488E-03-6.35730E-04-6.14690E-15
 -1       194 4.38931E-03-6.31400E-04-7.00228E-15
 -1       195 4.67511E-03-6.26063E-04-7.91087E-15
 -1       196 4.96248E-03-6.19746E-04-8.87615E-15
 -1       197 5.26628E-03-6.12060E-04-9.95305E-15
 -1       198 5.55814E-03-6.03778E-04-1.10388E-14
 -1       199 5.85320E-03-5.94688E-04-1.21799E-14
 -1       200 6.15249E-03-5.85134E-04-1.33729E-14
 -1       201 6.45743E-03-5.75855E-04-1.46150E-14
 -1       202 6.76981E-03-5.68283E-04-1.59042E-14
 -1       203 7.09197E-03-5.65062E-04-1.72443E-14
 -1       204 7.42666E-03-5.70862E-04-1.86380E-14
 -1       205 7.77695E-03-5.93584E-04-2.00871E-14
 -1       206 8.14562E-03-6.45812E-04-2.15967E-14
 -1       207 8.53405E-03-7.45603E-04-2.31606E-14
 -1       208 8.94013E-03-9.13944E-04-2.47808E-14
 -1       209 9.35547E-03-1.16342E-03-2.64651E-14
 -1       210 9.74352E-03-1.45737E-03-2.81320E-14
 -1       211 1.01282E-02-1.75258E-03-2.99676E-14
 -1       212 1.04693E-02-1.91484E-03-3.17872E-14
 -1       213 1.08260E-02-1.89606E-03-3.37763E-14
 -1       214 1.12063E-02-1.73383E-03-3.58329E-14
 -1       215 1.16124E-02-1.54398E-03-3.79345E-14
 -1       216 1.20272E-02-1.41022E-03-4.00626E-14
 -1       217 1.24337E-02-1.35729E-03-4.22177E-14
 -1       218 1.28226E-02-1.37432E-03-4.44033E-14
 -1       219 1.31916E-02-1.44039E-03-4.66212E-14
 -1       220 1.35416E-02-1.53695E-03-4.88645E-14
 -1       221 1.38754E-02-1.65079E-03-5.11301E-14
 -1       222 1.41960E-02-1.77345E-03-5.34179E-14
 -1       223 1.45061E-02-1.89969E-03-5.57293E-14
 -1       224 1.48080E-02-2.02632E-03-5.80626E-14
 -1       225 1.51039E-02-2.15128E-03-6.04087E-14
 -1       226 1.53952E-02-2.27320E-03-6.27642E-14
 -1       227 1.56834E-02-2.39126E-03-6.51232E-14
 -1       228 1.58926E-02-2.47295E-03-6.68661E-14
 -1       229 6.04443E-04 3.31058E-04 5.42711E-17
 -1       230 8.93463E-04 4.32667E-04 4.43710E-17
 -1       231 1.17225E-03 5.04334E-04-1.53144E-18
 -1       232 1.44650E-03 5.55307E-04-9.00938E-17
 -1       233 1.71921E-03 5.91367E-04-2.23596E-16
 -1       234 1.99199E-03 6.16491E-04-4.03364E-16
 -1       235 2.26572E-03 6.33528E-04-6.29911E-16
 -1       236 2.54080E-03 6.44583E-04-9.05797E-16
 -1       237 2.81739E-03 6.51224E-04-1.23109E-15
 -1       238 3.09551E-03 6.54619E-04-1.60719E-15
 -1       239 3.37510E-03 6.55626E-04-2.03418E-15
 -1       240 3.65608E-03 6.54868E-04-2.51439E-15
 -1       241 3.93837E-03 6.52785E-04-3.04675E-15
 -1       242 4.22193E-03 6.49693E-04-3.63327E-15
 -1       243 4.50676E-03 6.45828E-04-4.27556E-15
 -1       244 4.79292E-03 6.41390E-04-4.97138E-15
 -1       245 5.08052E-03 6.36592E-04-5.72135E-15
 -1       246 5.36972E-03 6.31706E-04-6.52877E-15
 -1       247 5.66072E-03 6.27115E-04-7.39926E-15
 -1       248 5.95371E-03 6.23359E-04-8.34030E-15
 -1       249 6.24882E-03 6.21170E-04-9.34885E-15
 -1       250 6.54606E-03 6.21483E-04-1.04169E-14
 -1       251 6.84521E-03 6.25394E-04-1.15402E-14
 -1       252 7.14573E-03 6.34029E-04-1.27184E-14
 -1       253 7.44662E-03 6.48294E-04-1.39561E-14
 -1       254 7.74636E-03 6.68458E-04-1.52550E-14
 -1       255 8.04301E-03 6.93609E-04-1.66086E-14
 -1       256 8.33437E-03 7.21062E-04-1.80174E-14
 -1       257 8.61844E-03 7.45961E-04-1.94881E-14
 -1       258 8.89403E-03 7.61404E-04-2.10210E-14
 -1       259 9.16140E-03 7.59366E-04-2.26114E-14
 -1       260 9.42252E-03 7.32442E-04-2.42583E-14
 -1       261 9.68094E-03 6.75888E-04-2.59654E-14
 -1       262 9.94086E-03 5.89121E-04-2.77422E-14
 -1       263 1.02061E-02 4.75904E-04-2.96037E-14
 -1       264 1.04791E-02 3.43138E-04-3.15365E-14
 -1       265 1.07604E-02 1.98859E-04-3.35356E-14
 -1       266 1.10493E-02 5.03501E-05-3.55900E-14
 -1       267 1.13437E-02-9.70232E-05-3.76918E-14
 -1       268 1.16414E-02-2.40134E-04-3.98493E-14
 -1       269 1.19404E-02-3.77804E-04-4.20528E-14
 -1       270 1.22389E-02-5.10251E-04-4.43140E-14
 -1       271 1.25358E-02-6.38518E-04-4.66279E-14
 -1       272 1.28305E-02-7.64036E-04-4.89831E-14
 -1       273 1.31226E-02-8.88320E-04-5.13647E-14
 -1       274 1.34125E-02-1.01279E-03-5.37687E-14
 -1       275 1.37004E-02-1.13859E-03-5.61883E-14
 -1       276 1.39869E-02-1.26642E-03-5.86140E-14
 -1       277 1.41345E-02-1.35275E-03-5.94554E-14
 -1       278 1.42646E-02-1.43571E-03-6.00078E-14
 -1       279 1.43966E-02-1.51712E-03-6.05613E-14
 -1       280 1.45294E-02-1.59652E-03-6.11156E-14
 -1       281 1.46597E-02-1.67235E-03-6.16572E-14
 -1       282 1.47906E-02-1.74716E-03-6.21944E-14
 -1       283 1.49186E-02-1.81986E-03-6.27156E-14
 -1       284 1.50423E-02-1.89096E-03-6.32193E-14
 -1       285 1.51609E-02-1.96123E-03-6.37017E-14
 -1       286 1.52742E-02-2.03166E-03-6.41617E-14
 -1       287 1.53808E-02-2.10207E-03-6.46071E-14
 -1       288 1.54857E-02-2.17581E-03-6.50502E-14
 -1       289 1.55889E-02-2.25232E-03-6.54877E-14
 -1       290 1.56927E-02-2.33178E-03-6.59199E-14
 -1       291 1.57916E-02-2.40175E-03-6.63925E-14
 -1       292 1.25027E-02-7.57559E-04-3.52944E-14
 -1       293 1.22975E-02-6.41875E-04-3.47931E-14
 -1       294 1.19886E-02-4.84114E-04-3.40413E-14
 -1       295 1.16142E-02-3.04229E-04-3.31837E-14
 -1       296 1.12003E-02-1.03898E-04-3.21767E-14
 -1       297 1.07714E-02 8.74109E-05-3.10610E-14
 -1       298 1.03470E-02 2.30564E-04-2.99079E-14
 -1       299 9.95260E-03 2.86807E-04-2.88102E-14
 -1       300 9.56632E-03 2.65223E-04-2.77008E-14
 -1       301 9.16097E-03 1.51947E-04-2.68406E-14
 -1       302 8.77340E-03 1.45509E-05-2.62179E-14
 -1       303 8.42743E-03-1.29335E-04-2.57157E-14
 -1       304 8.13449E-03-2.61748E-04-2.53946E-14
 -1       305 7.93946E-03-3.75352E-04-2.52342E-14
 -1       306 7.87734E-03-4.72075E-04-2.53739E-14
 -1       307 7.97671E-03-5.71649E-04-2.55555E-14
 -1       308 8.26109E-03-7.47240E-04-2.62514E-14
 -1       309 8.62395E-03-9.69613E-04-2.70627E-14
 -1       310 9.03376E-03-1.20530E-03-2.79127E-14
 -1       311 9.49384E-03-1.45641E-03-2.89061E-14
 -1       312 9.92521E-03-1.66267E-03-2.99929E-14
 -1       313 1.03537E-02-1.77274E-03-3.11155E-14
 -1       314 1.07703E-02-1.74994E-03-3.21983E-14
 -1       315 1.11640E-02-1.62937E-03-3.32470E-14
 -1       316 1.15735E-02-1.45064E-03-3.40297E-14
 -1       317 1.19488E-02-1.26154E-03-3.47203E-14
 -1       318 1.22703E-02-1.09078E-03-3.52208E-14
 -1       319 1.24863E-02-9.52222E-04-3.55441E-14
 -1       320 1.25643E-02-8.52729E-04-3.54881E-14
 -1       321 4.55363E-04-1.64852E-04-1.01752E-16
 -1       322 4.74192E-04-2.13020E-04-9.47965E-17
 -1       323 4.40483E-04-9.40553E-05-1.01837E-16
 -1       324 4.37549E-04-6.49408E-05-9.80288E-17
 -1       325 4.35945E-04-3.79219E-05-9.30686E-17
 -1       326 4.35243E-04-1.20213E-05-8.70309E-17
 -1       327 4.35273E-04 1.35438E-05-8.00819E-17
 -1       328 4.36041E-04 3.95007E-05-7.14557E-17
 -1       329 4.37690E-04 6.61676E-05-6.14777E-17
 -1       330 4.40719E-04 9.54530E-05-4.91076E-17
 -1       331 4.46070E-04 1.28371E-04-3.36408E-17
 -1       332 4.55958E-04 1.67355E-04-1.39523E-17
 -1       333 4.75808E-04 2.17011E-04 1.11707E-17
 -1       334 5.31887E-04 2.69982E-04 2.96394E-17
 -1       335 8.24315E-04 3.73475E-04 9.88996E-18
 -1       336 8.63126E-04-3.57401E-04-2.78338E-16
 -1       337 1.14943E-03-4.26094E-04-4.86739E-16
 -1       338 1.43215E-03-4.75148E-04-7.51437E-16
 -1       339 1.71282E-03-5.09699E-04-1.07147E-15
 -1       340 1.99255E-03-5.33527E-04-1.44833E-15
 -1       341 2.27211E-03-5.49427E-04-1.88183E-15
 -1       342 2.55199E-03-5.59484E-04-2.37275E-15
 -1       343 2.83247E-03-5.65247E-04-2.92304E-15
 -1       344 3.11368E-03-5.67857E-04-3.52940E-15
 -1       345 3.39571E-03-5.68136E-04-4.19089E-15
 -1       346 3.67856E-03-5.66656E-04-4.90747E-15
 -1       347 3.96227E-03-5.63793E-04-5.67833E-15
 -1       348 4.24686E-03-5.59773E-04-6.49867E-15
 -1       349 4.53240E-03-5.54707E-04-7.36999E-15
 -1       350 4.81901E-03-5.48631E-04-8.29466E-15
 -1       351 5.12131E-03-5.41151E-04-9.32850E-15
 -1       352 5.41076E-03-5.32972E-04-1.03718E-14
 -1       353 5.70210E-03-5.23806E-04-1.14724E-14
 -1       354 5.99580E-03-5.13839E-04-1.26300E-14
 -1       355 6.29245E-03-5.03531E-04-1.38387E-14
 -1       356 6.59280E-03-4.93837E-04-1.50946E-14
 -1       357 6.89775E-03-4.86567E-04-1.63998E-14
 -1       358 7.20844E-03-4.84971E-04-1.77562E-14
 -1       359 7.52642E-03-4.94618E-04-1.91678E-14
 -1       360 7.85406E-03-5.24630E-04-2.06375E-14
 -1       361 8.19525E-03-5.89055E-04-2.21621E-14
 -1       362 8.55637E-03-7.07568E-04-2.37358E-14
 -1       363 8.94524E-03-9.02907E-04-2.53677E-14
 -1       364 9.34348E-03-1.17080E-03-2.69790E-14
 -1       365 9.78164E-03-1.50932E-03-2.87505E-14
 -1       366 1.01958E-02-1.77773E-03-3.05077E-14
 -1       367 1.06234E-02-1.86181E-03-3.24347E-14
 -1       368 1.10567E-02-1.72630E-03-3.44358E-14
 -1       369 1.14959E-02-1.51001E-03-3.65027E-14
 -1       370 1.19177E-02-1.34089E-03-3.86104E-14
 -1       371 1.23088E-02-1.26038E-03-4.07407E-14
 -1       372 1.26713E-02-1.25818E-03-4.29038E-14
 -1       373 1.30131E-02-1.31176E-03-4.50954E-14
 -1       374 1.33406E-02-1.40093E-03-4.73192E-14
 -1       375 1.36581E-02-1.51105E-03-4.95732E-14
 -1       376 1.39678E-02-1.63244E-03-5.18500E-14
 -1       377 1.42713E-02-1.75902E-03-5.41485E-14
 -1       378 1.45699E-02-1.88699E-03-5.64754E-14
 -1       379 1.48644E-02-2.01396E-03-5.88209E-14
 -1       380 1.51556E-02-2.13836E-03-6.11804E-14
 -1       381 1.54443E-02-2.25908E-03-6.35439E-14
 -1       382 1.27143E-03 4.61069E-04-1.23372E-16
 -1       383 1.55229E-03 5.03811E-04-2.52646E-16
 -1       384 1.83160E-03 5.33756E-04-4.27298E-16
 -1       385 2.11042E-03 5.54230E-04-6.47496E-16
 -1       386 2.38942E-03 5.67709E-04-9.15826E-16
 -1       387 2.66897E-03 5.76042E-04-1.23409E-15
 -1       388 2.94929E-03 5.80602E-04-1.60145E-15
 -1       389 3.23047E-03 5.82402E-04-2.02010E-15
 -1       390 3.51255E-03 5.82177E-04-2.48964E-15
 -1       391 3.79552E-03 5.80446E-04-3.01236E-15
 -1       392 4.07940E-03 5.77574E-04-3.58681E-15
 -1       393 4.36420E-03 5.73817E-04-4.21686E-15
 -1       394 4.64997E-03 5.69374E-04-4.90117E-15
 -1       395 4.93678E-03 5.64429E-04-5.64029E-15
 -1       396 5.22476E-03 5.59201E-04-6.43440E-15
 -1       397 5.51406E-03 5.53996E-04-7.28898E-15
 -1       398 5.80485E-03 5.49254E-04-8.21123E-15
 -1       399 6.09729E-03 5.45603E-04-9.20000E-15
 -1       400 6.39154E-03 5.43885E-04-1.02505E-14
 -1       401 6.68766E-03 5.45156E-04-1.13579E-14
 -1       402 6.98553E-03 5.50620E-04-1.25223E-14
 -1       403 7.28485E-03 5.61453E-04-1.37416E-14
 -1       404 7.58496E-03 5.78481E-04-1.50217E-14
 -1       405 7.88479E-03 6.01689E-04-1.63609E-14
 -1       406 8.18289E-03 6.29573E-04-1.77549E-14
 -1       407 8.47750E-03 6.58511E-04-1.92032E-14
 -1       408 8.76701E-03 6.82424E-04-2.07131E-14
 -1       409 9.05048E-03 6.93173E-04-2.22844E-14
 -1       410 9.32829E-03 6.81983E-04-2.39119E-14
 -1       411 9.60243E-03 6.41725E-04-2.55977E-14
 -1       412 9.87608E-03 5.69220E-04-2.73485E-14
 -1       413 1.01526E-02 4.66365E-04-2.91707E-14
 -1       414 1.04342E-02 3.39454E-04-3.10688E-14
 -1       415 1.07218E-02 1.97064E-04-3.30364E-14
 -1       416 1.10147E-02 4.76589E-05-3.50623E-14
 -1       417 1.13114E-02-1.02115E-04-3.71395E-14
 -1       418 1.16100E-02-2.48079E-04-3.92697E-14
 -1       419 1.19091E-02-3.88349E-04-4.14524E-14
 -1       420 1.22073E-02-5.22754E-04-4.36872E-14
 -1       421 1.25039E-02-6.52185E-04-4.59719E-14
 -1       422 1.27984E-02-7.78060E-04-4.83033E-14
 -1       423 1.30909E-02-9.01969E-04-5.06674E-14
 -1       424 1.33813E-02-1.02544E-03-5.30583E-14
 -1       425 1.36699E-02-1.14982E-03-5.54673E-14
 -1       426 1.39026E-02-1.25043E-03-5.74595E-14
 -1       427 1.42164E-02-1.44685E-03-5.87399E-14
 -1       428 1.40833E-02-1.36595E-03-5.81879E-14
 -1       429 1.43478E-02-1.52459E-03-5.92757E-14
 -1       430 1.44805E-02-1.60174E-03-5.98092E-14
 -1       431 1.46109E-02-1.67694E-03-6.03307E-14
 -1       432 1.47375E-02-1.75042E-03-6.08434E-14
 -1       433 1.48591E-02-1.82266E-03-6.13436E-14
 -1       434 1.49752E-02-1.89435E-03-6.18264E-14
 -1       435 1.50837E-02-1.96515E-03-6.22870E-14
 -1       436 1.51894E-02-2.03841E-03-6.27421E-14
 -1       437 1.52920E-02-2.11374E-03-6.31897E-14
 -1       438 1.53940E-02-2.19171E-03-6.36328E-14
 -1       439 1.04873E-03 4.24685E-04-4.15080E-17
 -1       440 1.21096E-02-6.54815E-04-3.51436E-14
 -1       441 1.13128E-02-2.71327E-04-3.31086E-14
 -1       442 1.25690E-02-8.36241E-04-3.62980E-14
 -1       443 1.17327E-02-4.96761E-04-3.42908E-14
 -1       444 4.45690E-04-1.26462E-04-1.03379E-16
 -1       445 1.08771E-02-3.64143E-05-3.18876E-14
 -1       446 1.04923E-02 1.70549E-04-3.05588E-14
 -1       447 1.00963E-02 3.04804E-04-2.91544E-14
 -1       448 9.79362E-03 3.22926E-04-2.80382E-14
 -1       449 9.37709E-03 2.19110E-04-2.67589E-14
 -1       450 8.99541E-03 5.80378E-05-2.59140E-14
 -1       451 8.64465E-03-1.02402E-04-2.52337E-14
 -1       452 8.29624E-03-2.51359E-04-2.46735E-14
 -1       453 8.05672E-03-3.41219E-04-2.45201E-14
 -1       454 7.87190E-03-4.22687E-04-2.45722E-14
 -1       455 7.88548E-03-4.73271E-04-2.47440E-14
 -1       456 8.12871E-03-5.71082E-04-2.52167E-14
 -1       457 8.52184E-03-7.52523E-04-2.60327E-14
 -1       458 8.91352E-03-1.00509E-03-2.70808E-14
 -1       459 9.34925E-03-1.28146E-03-2.81026E-14
 -1       460 9.81279E-03-1.57771E-03-2.93679E-14
 -1       461 1.01830E-02-1.76095E-03-3.05845E-14
 -1       462 1.05824E-02-1.82378E-03-3.20235E-14
 -1       463 1.08842E-02-1.74669E-03-3.30759E-14
 -1       464 1.13416E-02-1.51871E-03-3.43480E-14
 -1       465 1.17118E-02-1.31425E-03-3.51208E-14
 -1       466 1.20851E-02-1.11464E-03-3.59358E-14
 -1       467 1.23805E-02-9.78731E-04-3.62901E-14
 -1       468 1.25642E-02-8.89894E-04-3.66878E-14
 -1       469 1.24180E-02-7.84432E-04-3.61349E-14
 -1       470 7.96884E-03-4.79258E-04-2.44068E-14
 -1       471 9.58426E-03 3.00716E-04-2.70806E-14
 -1       472 6.65964E-04-7.51513E-05-2.02861E-16
 -1       473 6.69895E-04-1.15921E-04-2.10891E-16
 -1       474 6.63318E-04 1.10788E-06-1.79856E-16
 -1       475 6.64029E-04 3.87791E-05-1.64755E-16
 -1       476 6.66147E-04 7.68411E-05-1.47587E-16
 -1       477 6.70204E-04 1.17759E-04-1.26784E-16
 -1       478 6.77159E-04 1.62384E-04-1.02095E-16
 -1       479 6.88944E-04 2.12758E-04-7.13947E-17
 -1       480 7.09701E-04 2.71795E-04-3.39491E-17
 -1       481 7.63387E-04 3.20522E-04-1.46672E-17
 -1       482 9.76211E-04-3.28609E-04-3.86830E-16
 -1       483 1.19360E-02-6.48662E-04-3.56202E-14
 -1       484 1.14705E-02-4.22066E-04-3.42095E-14
 -1       485 1.26210E-03-3.83406E-04-6.22644E-16
 -1       486 1.54710E-03-4.23008E-04-9.11695E-16
 -1       487 1.83121E-03-4.50845E-04-1.25576E-15
 -1       488 2.11475E-03-4.69792E-04-1.65452E-15
 -1       489 2.39804E-03-4.82113E-04-2.10875E-15
 -1       490 2.68133E-03-4.89538E-04-2.61953E-15
 -1       491 2.96481E-03-4.93367E-04-3.18698E-15
 -1       492 3.24858E-03-4.94553E-04-3.81070E-15
 -1       493 3.53273E-03-4.93773E-04-4.48888E-15
 -1       494 3.81728E-03-4.91486E-04-5.22122E-15
 -1       495 4.10228E-03-4.87981E-04-6.00581E-15
 -1       496 4.38776E-03-4.83418E-04-6.83924E-15
 -1       497 4.67378E-03-4.77867E-04-7.72501E-15
 -1       498 4.97472E-03-4.70984E-04-8.71520E-15
 -1       499 5.26199E-03-4.63420E-04-9.71881E-15
 -1       500 5.54997E-03-4.54895E-04-1.07796E-14
 -1       501 5.83872E-03-4.45531E-04-1.18981E-14
 -1       502 6.12825E-03-4.35648E-04-1.30709E-14
 -1       503 6.41850E-03-4.25912E-04-1.42946E-14
 -1       504 6.70936E-03-4.17572E-04-1.55659E-14
 -1       505 7.00067E-03-4.12797E-04-1.68865E-14
 -1       506 7.29244E-03-4.15188E-04-1.82613E-14
 -1       507 7.58542E-03-4.30470E-04-1.96906E-14
 -1       508 7.88229E-03-4.67502E-04-2.11765E-14
 -1       509 8.18987E-03-5.39614E-04-2.27130E-14
 -1       510 8.52233E-03-6.67779E-04-2.42979E-14
 -1       511 8.87907E-03-8.69224E-04-2.58568E-14
 -1       512 9.37586E-03-1.22501E-03-2.76267E-14
 -1       513 1.18554E-02-1.26504E-03-3.71668E-14
 -1       514 1.22376E-02-1.16291E-03-3.92808E-14
 -1       515 1.25736E-02-1.15025E-03-4.14225E-14
 -1       516 1.28831E-02-1.19581E-03-4.35922E-14
 -1       517 1.31808E-02-1.27791E-03-4.57964E-14
 -1       518 1.34739E-02-1.38248E-03-4.80279E-14
 -1       519 1.37654E-02-1.50016E-03-5.02908E-14
 -1       520 1.40562E-02-1.62473E-03-5.25770E-14
 -1       521 1.43463E-02-1.75214E-03-5.48902E-14
 -1       522 1.46355E-02-1.87969E-03-5.72326E-14
 -1       523 1.49238E-02-2.00557E-03-5.95953E-14
 -1       524 1.51597E-02-2.10012E-03-6.16084E-14
 -1       525 1.95077E-03 4.72851E-04-6.48394E-16
 -1       526 1.66748E-03 4.48682E-04-4.33871E-16
 -1       527 1.38334E-03 4.13936E-04-2.64356E-16
 -1       528 2.23363E-03 4.89082E-04-9.09602E-16
 -1       529 2.51639E-03 4.99428E-04-1.21914E-15
 -1       530 2.79930E-03 5.05446E-04-1.57883E-15
 -1       531 3.08251E-03 5.08299E-04-1.98847E-15
 -1       532 3.36611E-03 5.08838E-04-2.44929E-15
 -1       533 3.65015E-03 5.07669E-04-2.96114E-15
 -1       534 3.93468E-03 5.05218E-04-3.52635E-15
 -1       535 4.21973E-03 5.01776E-04-4.14457E-15
 -1       536 4.50533E-03 4.97548E-04-4.81633E-15
 -1       537 4.79157E-03 4.92701E-04-5.54425E-15
 -1       538 5.07852E-03 4.87407E-04-6.32666E-15
 -1       539 5.36632E-03 4.81890E-04-7.16710E-15
 -1       540 5.65514E-03 4.76481E-04-8.07139E-15
 -1       541 5.94519E-03 4.71666E-04-9.04149E-15
 -1       542 6.23673E-03 4.68137E-04-1.00731E-14
 -1       543 6.53006E-03 4.66814E-04-1.11642E-14
 -1       544 6.82547E-03 4.68844E-04-1.23123E-14
 -1       545 7.12321E-03 4.75520E-04-1.35184E-14
 -1       546 7.42338E-03 4.88083E-04-1.47793E-14
 -1       547 7.72573E-03 5.07355E-04-1.61009E-14
 -1       548 8.02950E-03 5.33153E-04-1.74796E-14
 -1       549 8.33325E-03 5.63509E-04-1.89112E-14
 -1       550 8.63494E-03 5.93869E-04-2.03978E-14
 -1       551 8.93241E-03 6.16696E-04-2.19482E-14
 -1       552 9.22435E-03 6.22151E-04-2.35587E-14
 -1       553 9.51130E-03 6.00307E-04-2.52232E-14
 -1       554 9.79590E-03 5.44420E-04-2.69462E-14
 -1       555 1.00819E-02 4.53633E-04-2.87369E-14
 -1       556 1.03722E-02 3.33350E-04-3.05998E-14
 -1       557 1.06682E-02 1.92997E-04-3.25370E-14
 -1       558 1.09687E-02 4.26958E-05-3.45330E-14
 -1       559 1.12718E-02-1.09322E-04-3.65864E-14
 -1       560 1.15753E-02-2.57783E-04-3.86919E-14
 -1       561 1.18775E-02-4.00207E-04-4.08522E-14
 -1       562 1.21776E-02-5.36164E-04-4.30621E-14
 -1       563 1.24750E-02-6.66470E-04-4.53258E-14
 -1       564 1.27700E-02-7.92554E-04-4.76302E-14
 -1       565 1.30625E-02-9.16043E-04-4.99775E-14
 -1       566 1.33530E-02-1.03853E-03-5.23511E-14
 -1       567 1.36417E-02-1.16145E-03-5.47485E-14
 -1       568 1.41688E-02-1.45743E-03-5.74397E-14
 -1       569 1.40367E-02-1.37960E-03-5.69126E-14
 -1       570 1.39023E-02-1.29870E-03-5.63707E-14
 -1       571 1.25633E-02-8.60345E-04-3.74252E-14
 -1       572 1.43017E-02-1.53469E-03-5.79654E-14
 -1       573 1.44314E-02-1.61001E-03-5.84805E-14
 -1       574 1.45566E-02-1.68357E-03-5.89859E-14
 -1       575 1.46759E-02-1.75587E-03-5.94793E-14
 -1       576 1.47872E-02-1.82646E-03-5.99507E-14
 -1       577 1.48943E-02-1.89874E-03-6.04204E-14
 -1       578 1.49968E-02-1.97255E-03-6.08821E-14
 -1       579 1.50783E-02-2.03527E-03-6.12466E-14
 -1       580 7.12595E-04-2.51762E-04-2.21523E-16
 -1       581 1.10695E-02-1.99079E-04-3.29963E-14
 -1       582 1.26247E-02-8.90404E-04-3.78224E-14
 -1       583 1.25037E-02-9.36008E-04-3.75075E-14
 -1       584 8.45482E-03-1.66674E-04-2.39756E-14
 -1       585 1.06127E-02 7.90576E-05-3.12765E-14
 -1       586 6.63921E-04-3.65284E-05-1.92422E-16
 -1       587 1.02737E-02 2.49355E-04-2.98996E-14
 -1       588 9.15825E-03 1.45992E-04-2.56303E-14
 -1       589 9.91952E-03 3.42882E-04-2.83191E-14
 -1       590 8.30257E-03-5.92119E-04-2.49189E-14
 -1       591 8.81993E-03-1.51069E-05-2.48658E-14
 -1       592 8.10256E-03-2.94810E-04-2.34218E-14
 -1       593 7.89542E-03-3.69845E-04-2.34829E-14
 -1       594 7.83491E-03-4.20559E-04-2.39302E-14
 -1       595 1.15628E-02-1.39698E-03-3.57054E-14
 -1       596 8.79798E-03-8.54855E-04-2.62079E-14
 -1       597 1.11375E-02-1.64768E-03-3.43527E-14
 -1       598 1.18969E-02-1.20495E-03-3.63897E-14
 -1       599 1.22821E-02-1.02400E-03-3.72493E-14
 -1       600 1.22733E-02-7.77643E-04-3.66207E-14
 -1       601 6.76640E-04-1.60158E-04-2.16149E-16
 -1       602 9.90298E-04 3.72888E-04-7.05816E-17
 -1       603 1.24844E-02-8.58363E-04-3.79174E-14
 -1       604 1.18666E-03 3.98286E-04-1.53513E-16
 -1       605 1.26324E-02-9.29345E-04-3.86497E-14
 -1       606 8.52473E-03-6.78241E-04-2.50812E-14
 -1       607 8.09295E-03-4.95444E-04-2.41122E-14
 -1       608 9.34825E-03 2.49482E-04-2.59363E-14
 -1       609 7.85371E-03-4.21389E-04-2.35959E-14
 -1       610 8.99967E-04 7.41191E-05-2.74550E-16
 -1       611 8.97899E-04 2.51841E-05-2.99819E-16
 -1       612 9.11934E-04 1.78235E-04-2.10613E-16
 -1       613 9.24229E-04 2.36738E-04-1.69152E-16
 -1       614 9.36566E-04 3.23534E-04-9.41020E-17
 -1       615 1.07935E-02-4.91055E-05-3.23314E-14
 -1       616 1.36154E-02-1.17630E-03-5.39615E-14
 -1       617 1.38329E-03-3.36910E-04-7.60104E-16
 -1       618 1.66950E-03-3.67650E-04-1.07233E-15
 -1       619 1.95572E-03-3.89173E-04-1.43795E-15
 -1       620 2.24178E-03-4.03605E-04-1.85679E-15
 -1       621 2.52767E-03-4.12703E-04-2.33024E-15
 -1       622 2.81342E-03-4.17846E-04-2.85917E-15
 -1       623 3.09910E-03-4.20074E-04-3.44409E-15
 -1       624 3.38475E-03-4.20151E-04-4.08381E-15
 -1       625 3.67041E-03-4.18611E-04-4.77719E-15
 -1       626 3.95609E-03-4.15806E-04-5.52428E-15
 -1       627 4.24181E-03-4.11954E-04-6.32030E-15
 -1       628 4.52755E-03-4.07169E-04-7.16772E-15
 -1       629 4.82757E-03-4.01197E-04-8.11576E-15
 -1       630 5.11323E-03-3.94635E-04-9.07776E-15
 -1       631 5.39867E-03-3.87263E-04-1.00988E-14
 -1       632 5.68368E-03-3.79203E-04-1.11779E-14
 -1       633 5.96792E-03-3.70728E-04-1.23127E-14
 -1       634 6.25084E-03-3.62369E-04-1.35022E-14
 -1       635 6.53166E-03-3.55059E-04-1.47396E-14
 -1       636 6.80933E-03-3.50322E-04-1.60256E-14
 -1       637 7.08256E-03-3.50500E-04-1.73651E-14
 -1       638 7.35010E-03-3.58995E-04-1.87580E-14
 -1       639 7.61137E-03-3.80554E-04-2.02067E-14
 -1       640 7.86832E-03-4.22435E-04-2.17064E-14
 -1       641 8.12783E-03-4.94847E-04-2.32549E-14
 -1       642 8.72350E-04-2.47171E-04-3.32328E-16
 -1       643 1.25329E-02-1.04565E-03-3.99514E-14
 -1       644 1.27955E-02-1.09064E-03-4.21009E-14
 -1       645 1.30539E-02-1.16835E-03-4.42831E-14
 -1       646 1.33159E-02-1.26683E-03-4.64948E-14
 -1       647 1.35837E-02-1.37869E-03-4.87388E-14
 -1       648 1.38570E-02-1.49875E-03-5.10094E-14
 -1       649 1.41347E-02-1.62323E-03-5.33118E-14
 -1       650 1.44154E-02-1.74937E-03-5.56434E-14
 -1       651 1.46981E-02-1.87515E-03-5.80019E-14
 -1       652 1.48882E-02-1.95590E-03-5.96201E-14
 -1       653 1.78974E-03 3.90500E-04-6.33093E-16
 -1       654 2.07556E-03 4.09254E-04-8.87674E-16
 -1       655 1.50373E-03 3.63296E-04-4.24431E-16
 -1       656 2.64660E-03 4.29168E-04-1.53961E-15
 -1       657 2.93197E-03 4.33217E-04-1.94134E-15
 -1       658 3.21732E-03 4.34686E-04-2.39320E-15
 -1       659 3.50271E-03 4.34261E-04-2.89557E-15
 -1       660 3.78817E-03 4.32422E-04-3.44971E-15
 -1       661 4.07375E-03 4.29498E-04-4.05679E-15
 -1       662 4.35948E-03 4.25711E-04-4.71754E-15
 -1       663 4.64541E-03 4.21217E-04-5.43423E-15
 -1       664 4.93160E-03 4.16146E-04-6.20464E-15
 -1       665 5.21817E-03 4.10650E-04-7.03226E-15
 -1       666 5.50526E-03 4.04944E-04-7.92003E-15
 -1       667 5.79310E-03 3.99356E-04-8.87171E-15
 -1       668 6.08201E-03 3.94381E-04-9.88694E-15
 -1       669 6.37243E-03 3.90727E-04-1.09608E-14
 -1       670 6.66494E-03 3.89354E-04-1.20922E-14
 -1       671 6.96022E-03 3.91484E-04-1.32789E-14
 -1       672 7.25904E-03 3.98541E-04-1.45247E-14
 -1       673 7.56199E-03 4.11975E-04-1.58284E-14
 -1       674 7.86925E-03 4.32867E-04-1.71899E-14
 -1       675 8.18013E-03 4.61205E-04-1.86057E-14
 -1       676 8.49271E-03 4.94789E-04-2.00750E-14
 -1       677 8.80390E-03 5.27974E-04-2.16039E-14
 -1       678 9.11035E-03 5.50907E-04-2.31938E-14
 -1       679 9.41031E-03 5.50788E-04-2.48399E-14
 -1       680 9.70521E-03 5.15756E-04-2.65402E-14
 -1       681 9.99943E-03 4.40103E-04-2.83006E-14
 -1       682 1.02978E-02 3.27256E-04-3.01317E-14
 -1       683 1.06026E-02 1.87972E-04-3.20349E-14
 -1       684 1.09128E-02 3.52748E-05-3.40027E-14
 -1       685 1.12253E-02-1.20011E-04-3.60321E-14
 -1       686 1.15368E-02-2.71184E-04-3.81130E-14
 -1       687 1.18450E-02-4.15328E-04-4.02479E-14
 -1       688 1.21489E-02-5.52095E-04-4.24367E-14
 -1       689 1.24485E-02-6.82517E-04-4.46751E-14
 -1       690 1.27443E-02-8.08198E-04-4.69645E-14
 -1       691 1.30370E-02-9.30864E-04-4.92883E-14
 -1       692 1.33272E-02-1.05367E-03-5.16110E-14
 -1       693 1.38564E-02-1.31436E-03-5.50906E-14
 -1       694 1.41237E-02-1.47026E-03-5.61367E-14
 -1       695 1.21361E-02-7.53885E-04-3.71961E-14
 -1       696 1.39912E-02-1.39339E-03-5.56189E-14
 -1       697 1.43766E-02-1.61796E-03-5.71433E-14
 -1       698 1.44915E-02-1.68808E-03-5.76234E-14
 -1       699 1.46011E-02-1.75894E-03-5.81034E-14
 -1       700 1.47042E-02-1.83064E-03-5.85733E-14
 -1       701 1.17023E-02-5.64512E-04-3.55984E-14
 -1       702 1.26699E-02-9.16637E-04-3.90369E-14
 -1       703 8.62887E-03-4.76282E-05-2.37360E-14
 -1       704 1.42530E-02-1.54516E-03-5.66439E-14
 -1       705 1.22485E-02-1.07686E-03-3.81622E-14
 -1       706 8.21686E-03-2.04053E-04-2.28507E-14
 -1       707 1.12692E-03-2.97066E-04-5.25113E-16
 -1       708 8.93227E-03 8.94610E-05-2.44790E-14
 -1       709 1.12897E-02-3.46542E-04-3.42126E-14
 -1       710 1.04237E-02 1.68287E-04-3.06810E-14
 -1       711 7.88358E-03-3.08159E-04-2.23717E-14
 -1       712 9.04377E-04 1.24625E-04-2.45206E-16
 -1       713 9.64688E-03 3.47958E-04-2.69676E-14
 -1       714 1.24718E-02-9.90902E-04-3.85986E-14
 -1       715 9.04011E-04-1.22208E-04-3.54663E-16
 -1       716 2.36116E-03 4.21600E-04-1.18890E-15
 -1       717 7.77633E-03-3.68262E-04-2.27670E-14
 -1       718 1.00876E-02 3.12859E-04-2.90717E-14
 -1       719 8.97838E-04-2.31538E-05-3.21649E-16
 -1       720 9.82083E-03 3.68067E-04-2.76897E-14
 -1       721 9.11344E-04-1.75597E-04-3.65596E-16
 -1       722 1.23863E-02-8.45190E-04-3.85038E-14
 -1       723 1.47966E-02-1.89246E-03-5.90994E-14
 -1       724 1.21783E-03 3.25287E-04-2.61059E-16
 -1       725 1.27353E-02-9.52206E-04-3.98721E-14
 -1       726 8.36139E-03-9.79006E-05-2.26101E-14
 -1       727 9.11055E-03 1.98561E-04-2.47717E-14
 -1       728 8.99766E-04-7.18252E-05-3.39945E-16
 -1       729 7.92265E-03-4.29220E-04-2.33036E-14
 -1       730 7.95343E-03-2.35069E-04-2.18105E-14
 -1       731 1.16166E-03 2.43588E-04-3.09770E-16
 -1       732 1.05809E-02 8.01072E-05-3.15719E-14
 -1       733 8.70368E-03 6.16701E-05-2.32916E-14
 -1       734 1.79745E-03-3.09090E-04-1.23229E-15
 -1       735 2.08513E-03-3.24887E-04-1.61711E-15
 -1       736 2.37294E-03-3.35266E-04-2.05506E-15
 -1       737 2.66064E-03-3.41545E-04-2.54672E-15
 -1       738 2.94812E-03-3.44771E-04-3.09302E-15
 -1       739 3.23532E-03-3.45740E-04-3.69424E-15
 -1       740 3.52222E-03-3.45032E-04-4.34810E-15
 -1       741 3.80881E-03-3.43046E-04-5.05526E-15
 -1       742 4.09505E-03-3.40048E-04-5.81441E-15
 -1       743 4.38089E-03-3.36199E-04-6.62302E-15
 -1       744 4.68052E-03-3.31346E-04-7.53056E-15
 -1       745 4.96523E-03-3.26023E-04-8.45227E-15
 -1       746 5.24908E-03-3.20098E-04-9.43112E-15
 -1       747 5.53172E-03-3.13721E-04-1.04723E-14
 -1       748 5.81263E-03-3.07167E-04-1.15675E-14
 -1       749 6.09104E-03-3.00922E-04-1.27189E-14
 -1       750 6.36587E-03-2.95778E-04-1.39224E-14
 -1       751 6.63567E-03-2.92947E-04-1.51760E-14
 -1       752 6.89845E-03-2.94158E-04-1.64791E-14
 -1       753 7.15173E-03-3.01702E-04-1.78357E-14
 -1       754 7.39247E-03-3.18346E-04-1.92480E-14
 -1       755 7.61741E-03-3.47148E-04-2.07131E-14
 -1       756 1.02546E-02 2.51608E-04-2.99310E-14
 -1       757 1.29484E-02-1.07439E-03-4.27826E-14
 -1       758 1.31735E-02-1.16609E-03-4.49742E-14
 -1       759 1.34146E-02-1.27015E-03-4.71985E-14
 -1       760 1.36682E-02-1.38324E-03-4.94524E-14
 -1       761 1.39315E-02-1.50232E-03-5.17396E-14
 -1       762 1.42018E-02-1.62483E-03-5.40605E-14
 -1       763 1.44772E-02-1.74863E-03-5.64103E-14
 -1       764 1.91746E-03 3.29421E-04-8.50607E-16
 -1       765 1.63017E-03 3.09116E-04-6.03375E-16
 -1       766 3.06693E-03 3.59716E-04-2.32127E-15
 -1       767 2.77983E-03 3.57293E-04-1.87880E-15
 -1       768 3.64036E-03 3.59022E-04-3.35768E-15
 -1       769 3.92671E-03 3.56781E-04-3.95422E-15
 -1       770 4.21283E-03 3.53634E-04-4.60342E-15
 -1       771 4.49875E-03 3.49731E-04-5.30896E-15
 -1       772 4.78450E-03 3.45173E-04-6.06769E-15
 -1       773 5.07016E-03 3.40047E-04-6.88306E-15
 -1       774 5.35582E-03 3.34462E-04-7.75684E-15
 -1       775 5.64170E-03 3.28591E-04-8.69284E-15
 -1       776 5.92808E-03 3.22716E-04-9.68942E-15
 -1       777 6.21544E-03 3.17284E-04-1.07461E-14
 -1       778 6.50448E-03 3.12965E-04-1.18590E-14
 -1       779 6.79614E-03 3.10722E-04-1.30294E-14
 -1       780 7.09164E-03 3.11865E-04-1.42570E-14
 -1       781 7.39237E-03 3.18081E-04-1.55435E-14
 -1       782 7.69959E-03 3.31328E-04-1.68877E-14
 -1       783 8.01393E-03 3.53444E-04-1.82868E-14
 -1       784 8.33462E-03 3.85154E-04-1.97404E-14
 -1       785 8.65876E-03 4.24281E-04-2.12501E-14
 -1       786 8.98140E-03 4.63479E-04-2.28170E-14
 -1       787 9.29744E-03 4.88537E-04-2.44433E-14
 -1       788 9.60511E-03 4.81243E-04-2.61233E-14
 -1       789 9.90826E-03 4.27251E-04-2.78604E-14
 -1       790 1.02142E-02 3.24592E-04-2.96618E-14
 -1       791 1.05280E-02 1.85051E-04-3.15324E-14
 -1       792 1.08495E-02 2.68108E-05-3.34691E-14
 -1       793 1.11739E-02-1.34475E-04-3.54724E-14
 -1       794 1.14961E-02-2.89647E-04-3.75360E-14
 -1       795 1.18125E-02-4.35450E-04-3.96458E-14
 -1       796 1.21219E-02-5.72165E-04-4.18088E-14
 -1       797 1.24245E-02-7.01586E-04-4.40294E-14
 -1       798 1.27215E-02-8.25847E-04-4.62973E-14
 -1       799 1.30143E-02-9.46916E-04-4.86036E-14
 -1       800 1.43100E-02-1.62092E-03-5.57978E-14
 -1       801 1.44150E-02-1.69000E-03-5.62813E-14
 -1       802 1.41983E-02-1.55272E-03-5.53139E-14
 -1       803 1.26373E-02-9.21376E-04-3.96330E-14
 -1       804 1.40764E-02-1.48158E-03-5.48200E-14
 -1       805 7.74923E-03-3.70196E-04-2.24647E-14
 -1       806 1.15404E-02-4.78915E-04-3.57526E-14
 -1       807 3.35377E-03 3.60119E-04-2.81441E-15
 -1       808 1.27226E-02-1.01129E-03-4.06773E-14
 -1       809 9.38266E-03 3.17591E-04-2.56457E-14
 -1       810 1.13853E-03 5.90445E-05-4.44245E-16
 -1       811 1.35710E-02-1.19417E-03-5.27382E-14
 -1       812 1.51033E-03-2.86328E-04-8.99312E-16
 -1       813 1.10636E-02-2.08922E-04-3.37932E-14
 -1       814 1.19534E-02-6.79128E-04-3.73594E-14
 -1       815 1.39475E-02-1.40778E-03-5.43194E-14
 -1       816 7.71079E-03-3.12315E-04-2.16192E-14
 -1       817 7.73578E-03-2.60304E-04-2.10733E-14
 -1       818 8.87021E-03 1.64632E-04-2.35714E-14
 -1       819 1.13718E-03 1.20188E-06-4.77283E-16
 -1       820 9.56444E-03 3.75562E-04-2.63407E-14
 -1       821 9.99172E-03 3.49803E-04-2.85188E-14
 -1       822 2.20500E-03 3.43252E-04-1.14437E-15
 -1       823 2.49250E-03 3.52128E-04-1.48626E-15
 -1       824 1.27569E-02-9.60470E-04-4.04737E-14
 -1       825 1.32939E-02-1.07138E-03-5.06592E-14
 -1       826 1.14942E-03-1.76079E-04-5.48461E-16
 -1       827 1.22262E-02-7.89618E-04-3.86701E-14
 -1       828 1.37081E-02-1.27490E-03-5.32666E-14
 -1       829 1.34373E-03 2.80610E-04-4.01968E-16
 -1       830 8.07178E-03-1.51446E-04-2.15750E-14
 -1       831 1.14999E-03 1.79081E-04-3.61602E-16
 -1       832 1.38290E-02-1.34226E-03-5.37963E-14
 -1       833 1.25398E-03-2.56131E-04-6.44399E-16
 -1       834 1.14261E-03 1.17788E-04-4.06142E-16
 -1       835 1.14227E-03-1.15162E-04-5.29490E-16
 -1       836 7.63703E-03-3.21280E-04-2.13286E-14
 -1       837 4.35199E-03 2.77987E-04-5.16751E-15
 -1       838 2.21861E-03-2.58112E-04-1.79317E-15
 -1       839 2.50766E-03-2.65007E-04-2.24898E-15
 -1       840 2.79659E-03-2.68936E-04-2.75781E-15
 -1       841 3.08520E-03-2.70654E-04-3.32038E-15
 -1       842 3.37334E-03-2.70731E-04-3.93488E-15
 -1       843 3.66094E-03-2.69582E-04-4.60156E-15
 -1       844 3.94792E-03-2.67493E-04-5.32204E-15
 -1       845 4.23419E-03-2.64658E-04-6.09397E-15
 -1       846 4.53390E-03-2.61021E-04-6.96061E-15
 -1       847 4.81831E-03-2.57038E-04-7.84197E-15
 -1       848 5.10146E-03-2.52668E-04-8.77902E-15
 -1       849 5.38296E-03-2.48089E-04-9.77875E-15
 -1       850 5.66226E-03-2.43591E-04-1.08372E-14
 -1       851 5.93858E-03-2.39646E-04-1.19492E-14
 -1       852 6.21085E-03-2.36982E-04-1.31146E-14
 -1       853 6.47758E-03-2.36667E-04-1.43343E-14
 -1       854 6.73680E-03-2.40164E-04-1.56047E-14
 -1       855 6.98585E-03-2.49341E-04-1.69248E-14
 -1       856 7.22113E-03-2.66376E-04-1.82997E-14
 -1       857 7.43778E-03-2.93280E-04-1.97301E-14
 -1       858 2.91581E-03 2.84118E-04-2.23561E-15
 -1       859 1.30286E-02-1.08021E-03-4.34563E-14
 -1       860 1.28696E-02-1.01188E-03-4.16541E-14
 -1       861 1.32445E-02-1.17409E-03-4.56587E-14
 -1       862 1.34797E-02-1.27787E-03-4.78926E-14
 -1       863 1.37292E-02-1.38930E-03-5.01660E-14
 -1       864 1.39892E-02-1.50605E-03-5.24732E-14
 -1       865 1.42004E-02-1.59779E-03-5.43667E-14
 -1       866 1.64184E-03-2.31496E-04-1.03846E-15
 -1       867 4.06581E-03 2.81108E-04-4.47451E-15
 -1       868 3.77908E-03 2.83477E-04-3.83569E-15
 -1       869 4.63763E-03 2.74194E-04-5.91566E-15
 -1       870 4.92273E-03 2.69768E-04-6.71993E-15
 -1       871 5.20736E-03 2.64731E-04-7.57974E-15
 -1       872 5.49162E-03 2.59121E-04-8.50035E-15
 -1       873 5.77575E-03 2.53026E-04-9.48192E-15
 -1       874 6.06012E-03 2.46623E-04-1.05217E-14
 -1       875 6.34538E-03 2.40243E-04-1.16175E-14
 -1       876 6.63250E-03 2.34453E-04-1.27689E-14
 -1       877 6.92285E-03 2.30182E-04-1.39788E-14
 -1       878 7.21828E-03 2.28877E-04-1.52483E-14
 -1       879 7.52099E-03 2.32694E-04-1.65761E-14
 -1       880 7.83321E-03 2.44573E-04-1.79575E-14
 -1       881 8.15634E-03 2.67952E-04-1.93945E-14
 -1       882 8.48936E-03 3.05304E-04-2.08849E-14
 -1       883 8.82809E-03 3.54419E-04-2.24319E-14
 -1       884 9.16473E-03 4.04794E-04-2.40365E-14
 -1       885 9.49159E-03 4.33638E-04-2.56923E-14
 -1       886 1.01233E-02 3.28627E-04-2.91858E-14
 -1       887 1.04473E-02 1.88782E-04-3.10290E-14
 -1       888 1.07818E-02 2.04026E-05-3.29378E-14
 -1       889 1.11213E-02-1.52039E-04-3.49131E-14
 -1       890 1.14569E-02-3.14036E-04-3.69503E-14
 -1       891 1.17833E-02-4.62031E-04-3.90413E-14
 -1       892 1.20989E-02-5.97806E-04-4.11833E-14
 -1       893 1.24046E-02-7.24806E-04-4.33783E-14
 -1       894 1.27025E-02-8.46249E-04-4.56274E-14
 -1       895 1.29948E-02-9.64654E-04-4.79159E-14
 -1       896 9.13899E-03 2.86271E-04-2.44217E-14
 -1       897 1.04287E-02 1.79961E-04-3.08967E-14
 -1       898 1.40215E-02-1.48675E-03-5.35092E-14
 -1       899 1.25816E-02-9.14359E-04-4.01796E-14
 -1       900 1.39018E-02-1.41823E-03-5.30152E-14
 -1       901 1.76127E-03 2.51270E-04-8.00893E-16
 -1       902 8.38010E-03 2.66594E-05-2.17958E-14
 -1       903 1.33013E-03 2.10450E-04-4.66007E-16
 -1       904 1.13838E-03-5.64940E-05-5.05740E-16
 -1       905 1.92981E-03-2.47309E-04-1.38966E-15
 -1       906 1.08546E-02-6.26245E-05-3.31062E-14
 -1       907 1.18008E-02-5.89685E-04-3.74380E-14
 -1       908 1.37730E-02-1.34630E-03-5.25169E-14
 -1       909 1.41145E-02-1.54229E-03-5.39405E-14
 -1       910 1.13413E-02-3.44400E-04-3.54443E-14
 -1       911 1.54511E-03 2.32503E-04-6.21654E-16
 -1       912 8.53782E-03 1.17060E-04-2.20618E-14
 -1       913 7.78918E-03-1.81652E-04-2.05101E-14
 -1       914 1.38137E-03 3.40936E-05-6.57132E-16
 -1       915 2.62720E-03 2.80934E-04-1.80182E-15
 -1       916 7.67561E-03-3.45832E-04-2.16479E-14
 -1       917 1.34335E-02-1.15456E-03-5.11888E-14
 -1       918 3.20404E-03 2.85284E-04-2.71801E-15
 -1       919 9.32644E-03 3.63029E-04-2.50953E-14
 -1       920 9.74194E-03 3.99634E-04-2.71375E-14
 -1       921 1.27369E-02-9.63856E-04-4.10276E-14
 -1       922 9.80818E-03 4.13305E-04-2.74080E-14
 -1       923 1.20741E-02-7.13059E-04-3.87512E-14
 -1       924 1.39049E-03-1.64104E-04-7.61367E-16
 -1       925 8.09528E-03-3.30299E-05-2.07838E-14
 -1       926 2.04958E-03 2.65504E-04-1.08630E-15
 -1       927 3.49181E-03 2.84949E-04-3.25155E-15
 -1       928 1.36537E-02-1.28166E-03-5.19993E-14
 -1       929 1.44881E-03-2.23559E-04-8.30743E-16
 -1       930 7.55199E-03-2.67382E-04-2.02996E-14
 -1       931 1.38447E-03 9.97675E-05-6.10606E-16
 -1       932 7.56264E-03-2.10929E-04-1.97575E-14
 -1       933 1.38126E-03-3.12141E-05-6.98284E-16
 -1       934 2.64547E-03-1.93072E-04-2.43704E-15
 -1       935 2.93518E-03-1.95181E-04-2.96142E-15
 -1       936 3.22442E-03-1.95834E-04-3.53713E-15
 -1       937 3.51301E-03-1.95409E-04-4.16430E-15
 -1       938 3.80082E-03-1.94180E-04-4.84440E-15
 -1       939 4.08775E-03-1.92341E-04-5.57863E-15
 -1       940 4.38790E-03-1.89916E-04-6.40372E-15
 -1       941 4.67253E-03-1.87263E-04-7.24637E-15
 -1       942 4.95569E-03-1.84417E-04-8.14424E-15
 -1       943 5.23703E-03-1.81570E-04-9.10050E-15
 -1       944 5.51605E-03-1.79014E-04-1.01179E-14
 -1       945 5.79209E-03-1.77199E-04-1.11921E-14
 -1       946 6.06425E-03-1.76795E-04-1.23205E-14
 -1       947 6.33132E-03-1.78758E-04-1.35016E-14
 -1       948 6.59172E-03-1.84382E-04-1.47375E-14
 -1       949 6.84340E-03-1.95309E-04-1.60235E-14
 -1       950 7.08357E-03-2.13444E-04-1.73615E-14
 -1       951 7.30816E-03-2.41022E-04-1.87552E-14
 -1       952 1.28989E-02-1.02209E-03-4.22612E-14
 -1       953 1.32801E-02-1.18147E-03-4.63441E-14
 -1       954 1.35205E-02-1.28402E-03-4.85952E-14
 -1       955 1.37730E-02-1.39362E-03-5.08853E-14
 -1       956 1.39420E-02-1.46723E-03-5.24073E-14
 -1       957 4.20546E-03 2.05754E-04-5.01270E-15
 -1       958 4.49128E-03 2.02909E-04-5.74810E-15
 -1       959 3.91879E-03 2.07980E-04-4.33126E-15
 -1       960 5.06025E-03 1.95339E-04-7.38690E-15
 -1       961 5.34339E-03 1.90517E-04-8.29267E-15
 -1       962 5.62575E-03 1.84914E-04-9.26053E-15
 -1       963 5.90753E-03 1.78478E-04-1.02852E-14
 -1       964 6.18919E-03 1.71216E-04-1.13646E-14
 -1       965 6.47148E-03 1.63263E-04-1.24980E-14
 -1       966 6.75561E-03 1.55007E-04-1.36903E-14
 -1       967 7.04338E-03 1.47290E-04-1.49426E-14
 -1       968 7.33738E-03 1.41734E-04-1.62514E-14
 -1       969 7.64088E-03 1.41227E-04-1.76195E-14
 -1       970 7.95757E-03 1.50259E-04-1.90377E-14
 -1       971 8.29019E-03 1.75072E-04-2.05105E-14
 -1       972 1.14252E-02-3.45014E-04-3.63665E-14
 -1       973 1.17630E-02-4.96380E-04-3.84322E-14
 -1       974 1.20844E-02-6.30188E-04-4.05536E-14
 -1       975 1.23919E-02-7.52964E-04-4.27304E-14
 -1       976 1.26892E-02-8.69850E-04-4.49558E-14
 -1       977 1.29795E-02-9.84194E-04-4.72287E-14
 -1       978 1.38423E-03-9.70313E-05-7.32843E-16
 -1       979 1.35597E-03 1.55094E-04-5.39469E-16
 -1       980 1.30559E-02-1.08802E-03-4.41298E-14
 -1       981 4.77622E-03 1.99449E-04-6.54024E-15
 -1       982 2.33837E-03 2.75029E-04-1.41926E-15
 -1       983 1.24971E-02-8.84605E-04-4.06704E-14
 -1       984 1.37322E-02-1.35611E-03-5.12351E-14
 -1       985 1.58323E-03-1.69695E-04-9.57971E-16
 -1       986 1.36037E-02-1.28702E-03-5.07408E-14
 -1       987 2.06591E-03-1.82374E-04-1.54454E-15
 -1       988 1.82400E-03-1.77622E-04-1.23378E-15
 -1       989 7.80302E-03-8.00798E-05-1.97454E-14
 -1       990 1.35443E-02-1.21919E-03-5.15963E-14
 -1       991 2.35558E-03-1.89012E-04-1.96463E-15
 -1       992 1.16484E-02-4.78820E-04-3.73221E-14
 -1       993 1.62792E-03 1.57344E-06-9.14359E-16
 -1       994 1.26753E-02-9.48547E-04-4.15230E-14
 -1       995 3.05424E-03 2.09955E-04-2.60969E-15
 -1       996 1.62965E-03 7.30350E-05-8.59623E-16
 -1       997 2.76485E-03 2.08283E-04-2.13580E-15
 -1       998 1.10731E-02-1.71118E-04-3.43538E-14
 -1       999 7.27710E-03-1.92795E-04-1.82413E-14
 -1      1000 1.32637E-02-1.10198E-03-4.93973E-14
 -1      1001 7.55861E-03-1.29843E-04-1.90178E-14
 -1      1002 1.19112E-02-6.09802E-04-3.86366E-14
 -1      1003 3.63133E-03 2.09525E-04-3.70496E-15
 -1      1004 1.34831E-02-1.22383E-03-5.02269E-14
 -1      1005 8.20388E-03 7.11663E-05-2.06537E-14
 -1      1006 1.89624E-03 1.89747E-04-1.01674E-15
 -1      1007 1.67966E-03 1.76031E-04-8.09482E-16
 -1      1008 2.49562E-03-1.17832E-04-2.13092E-15
 -1      1009 3.34311E-03 2.10258E-04-3.13232E-15
 -1      1010 2.18543E-03 1.98845E-04-1.34027E-15
 -1      1011 1.28791E-02-1.02036E-03-4.28221E-14
 -1      1012 3.07608E-03-1.20603E-04-3.15448E-15
 -1      1013 3.36553E-03-1.20652E-04-3.74341E-15
 -1      1014 3.65416E-03-1.20119E-04-4.38362E-15
 -1      1015 3.94181E-03-1.19164E-04-5.07697E-15
 -1      1016 4.24264E-03-1.17853E-04-5.86201E-15
 -1      1017 4.52782E-03-1.16434E-04-6.66542E-15
 -1      1018 4.81148E-03-1.14989E-04-7.52387E-15
 -1      1019 5.09333E-03-1.13703E-04-8.43835E-15
 -1      1020 5.37299E-03-1.12847E-04-9.41319E-15
 -1      1021 5.64993E-03-1.12824E-04-1.04477E-14
 -1      1022 5.92350E-03-1.14219E-04-1.15385E-14
 -1      1023 6.19288E-03-1.17849E-04-1.26799E-14
 -1      1024 6.45705E-03-1.24809E-04-1.38777E-14
 -1      1025 6.71478E-03-1.36478E-04-1.51282E-14
 -1      1026 6.96460E-03-1.54376E-04-1.64310E-14
 -1      1027 1.35465E-02-1.28531E-03-4.93042E-14
 -1      1028 4.34569E-03 1.31051E-04-5.56757E-15
 -1      1029 2.78602E-03-1.19757E-04-2.61745E-15
 -1      1030 4.05945E-03 1.32864E-04-4.84500E-15
 -1      1031 5.47852E-03 1.17737E-04-9.02367E-15
 -1      1032 5.19727E-03 1.22214E-04-8.07062E-15
 -1      1033 6.03722E-03 1.05285E-04-1.10978E-14
 -1      1034 6.31523E-03 9.68310E-05-1.22168E-14
 -1      1035 6.59323E-03 8.66635E-05-1.33920E-14
 -1      1036 6.87255E-03 7.48927E-05-1.46252E-14
 -1      1037 7.15532E-03 6.21358E-05-1.59166E-14
 -1      1038 7.44484E-03 5.02627E-05-1.72648E-14
 -1      1039 7.74574E-03 4.30933E-05-1.86683E-14
 -1      1040 1.67786E-03-1.01850E-04-1.03127E-15
 -1      1041 1.20852E-02-6.70241E-04-3.99276E-14
 -1      1042 1.26844E-02-8.96480E-04-4.42877E-14
 -1      1043 1.29701E-02-1.00520E-03-4.65422E-14
 -1      1044 4.63080E-03 1.28727E-04-6.34519E-15
 -1      1045 1.30558E-02-1.08798E-03-4.48022E-14
 -1      1046 1.23872E-02-8.25374E-04-4.09963E-14
 -1      1047 1.34402E-02-1.22955E-03-4.89868E-14
 -1      1048 2.20531E-03-1.14489E-04-1.69529E-15
 -1      1049 1.23912E-02-7.86146E-04-4.20845E-14
 -1      1050 4.91468E-03 1.25822E-04-7.17960E-15
 -1      1051 1.32960E-02-1.18260E-03-4.70331E-14
 -1      1052 5.75845E-03 1.12175E-04-1.00327E-14
 -1      1053 3.19486E-03 1.35128E-04-3.00074E-15
 -1      1054 1.25733E-02-9.03013E-04-4.18624E-14
 -1      1055 2.90510E-03 1.34477E-04-2.48757E-15
 -1      1056 7.23653E-03-1.27331E-04-1.75363E-14
 -1      1057 1.87758E-03 3.97428E-05-1.15392E-15
 -1      1058 7.51052E-03-4.02936E-05-1.81416E-14
 -1      1059 2.47513E-03 2.04780E-04-1.71262E-15
 -1      1060 3.77217E-03 1.34185E-04-4.17628E-15
 -1      1061 1.33179E-02-1.16846E-03-4.84798E-14
 -1      1062 1.96262E-03-1.13646E-04-1.37214E-15
 -1      1063 1.33743E-02-1.16427E-03-4.98146E-14
 -1      1064 2.03464E-03 1.24686E-04-1.25042E-15
 -1      1065 1.28527E-02-1.01013E-03-4.34853E-14
 -1      1066 3.21900E-03-4.55530E-05-3.33869E-15
 -1      1067 3.50830E-03-4.54394E-05-3.93966E-15
 -1      1068 3.79664E-03-4.51654E-05-4.59235E-15
 -1      1069 4.09820E-03-4.47919E-05-5.33528E-15
 -1      1070 4.38409E-03-4.44445E-05-6.09931E-15
 -1      1071 4.66853E-03-4.42193E-05-6.91730E-15
 -1      1072 4.95129E-03-4.42730E-05-7.79170E-15
 -1      1073 5.23208E-03-4.48334E-05-8.72408E-15
 -1      1074 5.51057E-03-4.62320E-05-9.71715E-15
 -1      1075 5.78633E-03-4.89389E-05-1.07672E-14
 -1      1076 6.05888E-03-5.35994E-05-1.18715E-14
 -1      1077 6.32774E-03-6.10598E-05-1.30270E-14
 -1      1078 6.59240E-03-7.23672E-05-1.42402E-14
 -1      1079 6.85252E-03-8.87623E-05-1.55078E-14
 -1      1080 2.92893E-03-4.54163E-05-2.78860E-15
 -1      1081 4.20100E-03 5.84330E-05-5.37459E-15
 -1      1082 1.89951E-03-4.49591E-05-1.24858E-15
 -1      1083 1.31801E-02-1.12763E-03-4.67107E-14
 -1      1084 1.88525E-03 1.14299E-04-1.08980E-15
 -1      1085 6.43836E-03 2.41141E-05-1.30812E-14
 -1      1086 6.16518E-03 3.39630E-05-1.19212E-14
 -1      1087 6.98207E-03-4.81949E-06-1.55699E-14
 -1      1088 7.24360E-03-2.22665E-05-1.68314E-14
 -1      1089 4.48654E-03 5.72920E-05-6.13848E-15
 -1      1090 1.32003E-02-1.09636E-03-4.83605E-14
 -1      1091 1.29681E-02-1.02658E-03-4.58583E-14
 -1      1092 3.48394E-03 1.34973E-04-3.56247E-15
 -1      1093 4.77068E-03 5.57322E-05-6.95844E-15
 -1      1094 2.13813E-03 2.28354E-06-1.50741E-15
 -1      1095 5.61316E-03 4.67472E-05-9.76699E-15
 -1      1096 2.34770E-03-4.39536E-05-1.84003E-15
 -1      1097 1.26914E-02-9.25050E-04-4.36290E-14
 -1      1098 6.71026E-03 1.12481E-05-1.42976E-14
 -1      1099 5.33416E-03 5.07131E-05-8.77154E-15
 -1      1100 2.32455E-03 1.29648E-04-1.61244E-15
 -1      1101 5.05328E-03 5.36099E-05-7.83465E-15
 -1      1102 1.30124E-02-1.06619E-03-4.50889E-14
 -1      1103 5.89017E-03 4.13245E-05-1.08171E-14
 -1      1104 2.63837E-03-4.49224E-05-2.28933E-15
 -1      1105 3.91421E-03 5.92406E-05-4.66544E-15
 -1      1106 3.04762E-03 5.98583E-05-2.85664E-15
 -1      1107 2.10034E-03 8.36640E-05-1.37628E-15
 -1      1108 2.61488E-03 1.32761E-04-2.02408E-15
 -1      1109 3.33737E-03 5.99779E-05-3.40768E-15
 -1      1110 1.31941E-02-1.11304E-03-4.77072E-14
 -1      1111 3.65246E-03 2.95148E-05-4.12481E-15
 -1      1112 2.36075E-03 4.59961E-05-1.76482E-15
 -1      1113 2.75725E-03 5.93123E-05-2.35456E-15
 -1      1114 0.00000E+00 0.00000E+00 0.00000E+00
 -1      1115 0.00000E+00 0.00000E+00 0.00000E+00
 -1      1116 0.00000E+00 0.00000E+00 0.00000E+00
 -1      1117 0.00000E+00 0.00000E+00 0.00000E+00
 -1      1118 0.00000E+00 0.00000E+00 0.00000E+00
 -1      1119 0.00000E+00 0.00000E+00 0.00000E+00
 -1      1120 0.00000E+00 0.00000E+00 0.00000E+00
 -1      1121 0.00000E+00 0.00000E+00 0.00000E+00
 -1      1122 0.00000E+00 0.00000E+00 0.00000E+00
 -1      1123 0.00000E+00 0.00000E+00 0.00000E+00
 -1      1124 0.00000E+00 0.00000E+00 0.00000E+00
 -1      1125 0.00000E+00 0.00000E+00 0.00000E+00
 -1      1126 0.00000E+00 0.00000E+00 0.00000E+00
 -1      1127 0.00000E+00 0.00000E+00 0.00000E+00
 -1      1128 0.00000E+00 0.00000E+00 0.00000E+00
 -1      1129 0.00000E+00 0.00000E+00 0.00000E+00
 -1      1130 0.00000E+00 0.00000E+00 0.00000E+00
 -1      1131 2.11629E-04-1.48327E-04-3.04932E-18
 -1      1132 5.51511E-04-3.37508E-04-5.08491E-17
 -1      1133 8.33232E-04-4.58981E-04-1.57941E-16
 -1      1134 1.10269E-03-5.40612E-04-3.32796E-16
 -1      1135 1.36798E-03-5.97767E-04-5.70263E-16
 -1      1136 1.63264E-03-6.38327E-04-8.68121E-16
 -1      1137 1.89854E-03-6.66925E-04-1.22619E-15
 -1      1138 2.16653E-03-6.86661E-04-1.64270E-15
 -1      1139 2.43690E-03-6.99794E-04-2.11910E-15
 -1      1140 2.70968E-03-7.08018E-04-2.65777E-15
 -1      1141 2.98471E-03-7.12600E-04-3.25763E-15
 -1      1142 3.26181E-03-7.14476E-04-3.91451E-15
 -1      1143 3.54075E-03-7.14322E-04-4.62782E-15
 -1      1144 3.82135E-03-7.12607E-04-5.39794E-15
 -1      1145 4.10350E-03-7.09640E-04-6.21524E-15
 -1      1146 4.38715E-03-7.05607E-04-7.07994E-15
 -1      1147 4.67239E-03-7.00609E-04-7.99942E-15
 -1      1148 4.95943E-03-6.94692E-04-8.97641E-15
 -1      1149 5.25595E-03-6.87707E-04-1.00375E-14
 -1      1150 5.55549E-03-6.79866E-04-1.11617E-14
 -1      1151 5.85167E-03-6.71562E-04-1.23164E-14
 -1      1152 6.15318E-03-6.63003E-04-1.35208E-14
 -1      1153 6.46203E-03-6.54968E-04-1.47741E-14
 -1      1154 6.78096E-03-6.48933E-04-1.60705E-14
 -1      1155 7.11363E-03-6.47575E-04-1.74166E-14
 -1      1156 7.46458E-03-6.55607E-04-1.88193E-14
 -1      1157 7.83894E-03-6.81041E-04-2.02797E-14
 -1      1158 8.24111E-03-7.36752E-04-2.18041E-14
 -1      1159 8.67174E-03-8.41324E-04-2.33830E-14
 -1      1160 9.12229E-03-1.01601E-03-2.50206E-14
 -1      1161 9.56844E-03-1.27170E-03-2.67275E-14
 -1      1162 9.96146E-03-1.57534E-03-2.84570E-14
 -1      1163 1.02815E-02-1.85755E-03-3.02672E-14
 -1      1164 1.05381E-02-2.01726E-03-3.21622E-14
 -1      1165 1.07895E-02-1.99992E-03-3.41316E-14
 -1      1166 1.11078E-02-1.84352E-03-3.62048E-14
 -1      1167 1.15039E-02-1.65256E-03-3.83191E-14
 -1      1168 1.19471E-02-1.51267E-03-4.04574E-14
 -1      1169 1.23974E-02-1.45329E-03-4.26210E-14
 -1      1170 1.28288E-02-1.46535E-03-4.48138E-14
 -1      1171 1.32317E-02-1.52780E-03-4.70363E-14
 -1      1172 1.36061E-02-1.62152E-03-4.92810E-14
 -1      1173 1.39561E-02-1.73302E-03-5.15519E-14
 -1      1174 1.42868E-02-1.85371E-03-5.38444E-14
 -1      1175 1.46026E-02-1.97832E-03-5.61528E-14
 -1      1176 1.49073E-02-2.10362E-03-5.84788E-14
 -1      1177 1.52038E-02-2.22751E-03-6.08178E-14
 -1      1178 1.54945E-02-2.34860E-03-6.31683E-14
 -1      1179 1.57816E-02-2.46606E-03-6.55173E-14
 -1      1180 1.60671E-02-2.58018E-03-6.78588E-14
 -1      1181 2.28388E-04 1.60700E-04 2.87178E-17
 -1      1182 5.53692E-04 3.42146E-04 7.21130E-17
 -1      1183 8.34169E-04 4.61174E-04 8.98126E-17
 -1      1184 1.10359E-03 5.42309E-04 7.38613E-17
 -1      1185 1.36888E-03 5.99441E-04 1.89871E-17
 -1      1186 1.63361E-03 6.40088E-04-8.05156E-17
 -1      1187 1.89957E-03 6.68792E-04-2.27059E-16
 -1      1188 2.16761E-03 6.88648E-04-4.19031E-16
 -1      1189 2.43804E-03 7.01913E-04-6.58680E-16
 -1      1190 2.71087E-03 7.10282E-04-9.48663E-16
 -1      1191 2.98597E-03 7.15027E-04-1.29065E-15
 -1      1192 3.26314E-03 7.17097E-04-1.68215E-15
 -1      1193 3.54219E-03 7.17186E-04-2.12758E-15
 -1      1194 3.82292E-03 7.15798E-04-2.62675E-15
 -1      1195 4.10521E-03 7.13293E-04-3.17690E-15
 -1      1196 4.38899E-03 7.09935E-04-3.78537E-15
 -1      1197 4.67430E-03 7.05938E-04-4.44761E-15
 -1      1198 4.96121E-03 7.01509E-04-5.15903E-15
 -1      1199 5.24991E-03 6.96896E-04-5.92622E-15
 -1      1200 5.54062E-03 6.92430E-04-6.76081E-15
 -1      1201 5.83362E-03 6.88581E-04-7.66317E-15
 -1      1202 6.12913E-03 6.85988E-04-8.63127E-15
 -1      1203 6.42727E-03 6.85490E-04-9.66072E-15
 -1      1204 6.72789E-03 6.88100E-04-1.07522E-14
 -1      1205 7.03047E-03 6.94919E-04-1.19003E-14
 -1      1206 7.33392E-03 7.06936E-04-1.31028E-14
 -1      1207 7.63645E-03 7.24689E-04-1.43639E-14
 -1      1208 7.93555E-03 7.47771E-04-1.56856E-14
 -1      1209 8.22818E-03 7.74250E-04-1.70620E-14
 -1      1210 8.51128E-03 8.00191E-04-1.85015E-14
 -1      1211 8.78257E-03 8.19540E-04-1.99991E-14
 -1      1212 9.04148E-03 8.24721E-04-2.15598E-14
 -1      1213 9.28987E-03 8.08043E-04-2.31755E-14
 -1      1214 9.53205E-03 7.63636E-04-2.48469E-14
 -1      1215 9.77392E-03 6.89190E-04-2.65850E-14
 -1      1216 1.00214E-02 5.86697E-04-2.84070E-14
 -1      1217 1.02790E-02 4.61806E-04-3.03116E-14
 -1      1218 1.05488E-02 3.22127E-04-3.22875E-14
 -1      1219 1.08302E-02 1.75277E-04-3.43244E-14
 -1      1220 1.11211E-02 2.74041E-05-3.64120E-14
 -1      1221 1.14183E-02-1.17472E-04-3.85466E-14
 -1      1222 1.17187E-02-2.57405E-04-4.07285E-14
 -1      1223 1.20197E-02-3.92064E-04-4.29585E-14
 -1      1224 1.23193E-02-5.22162E-04-4.52505E-14
 -1      1225 1.26164E-02-6.48964E-04-4.75929E-14
 -1      1226 1.29103E-02-7.73937E-04-4.99709E-14
 -1      1227 1.32012E-02-8.98524E-04-5.23751E-14
 -1      1228 1.34895E-02-1.02399E-03-5.47917E-14
 -1      1229 1.37758E-02-1.15121E-03-5.72198E-14
 -1      1230 1.40543E-02-1.27697E-03-5.95886E-14
 -1      1231 1.42536E-02-1.38073E-03-6.10071E-14
 -1      1232 1.43817E-02-1.46516E-03-6.15574E-14
 -1      1233 1.45115E-02-1.54879E-03-6.21044E-14
 -1      1234 1.46430E-02-1.63060E-03-6.26584E-14
 -1      1235 1.47753E-02-1.70981E-03-6.32157E-14
 -1      1236 1.49063E-02-1.78536E-03-6.37687E-14
 -1      1237 1.50357E-02-1.85787E-03-6.43251E-14
 -1      1238 1.51632E-02-1.92822E-03-6.48594E-14
 -1      1239 1.52866E-02-1.99647E-03-6.53601E-14
 -1      1240 1.54052E-02-2.06371E-03-6.58101E-14
 -1      1241 1.55186E-02-2.13128E-03-6.62474E-14
 -1      1242 1.56264E-02-2.20004E-03-6.66925E-14
 -1      1243 1.57308E-02-2.27178E-03-6.71439E-14
 -1      1244 1.58346E-02-2.34798E-03-6.75887E-14
 -1      1245 1.59391E-02-2.42809E-03-6.79984E-14
 -1      1246 1.60461E-02-2.51128E-03-6.83980E-14
 -1      1247 1.61552E-02-2.59510E-03-6.88039E-14
 -1      1248 1.25250E-02-6.92652E-04-3.44601E-14
 -1      1249 1.23526E-02-5.30615E-04-3.40549E-14
 -1      1250 1.20837E-02-3.64503E-04-3.34787E-14
 -1      1251 1.17439E-02-1.98952E-04-3.27609E-14
 -1      1252 1.13432E-02-3.75445E-05-3.19106E-14
 -1      1253 1.08951E-02 1.05032E-04-3.09698E-14
 -1      1254 1.04256E-02 2.06503E-04-2.99926E-14
 -1      1255 9.95960E-03 2.53541E-04-2.90365E-14
 -1      1256 9.49854E-03 2.39855E-04-2.81320E-14
 -1      1257 9.05395E-03 1.73112E-04-2.73404E-14
 -1      1258 8.66951E-03 7.16162E-05-2.67378E-14
 -1      1259 8.34177E-03-5.15506E-05-2.62936E-14
 -1      1260 8.08104E-03-1.89496E-04-2.60089E-14
 -1      1261 7.91503E-03-3.34246E-04-2.59011E-14
 -1      1262 7.86066E-03-4.86365E-04-2.59846E-14
 -1      1263 7.94097E-03-6.65731E-04-2.62975E-14
 -1      1264 8.17221E-03-8.77183E-04-2.68453E-14
 -1      1265 8.49414E-03-1.08832E-03-2.75049E-14
 -1      1266 8.87598E-03-1.29556E-03-2.82507E-14
 -1      1267 9.33196E-03-1.49784E-03-2.91237E-14
 -1      1268 9.81855E-03-1.65418E-03-3.00496E-14
 -1      1269 1.03220E-02-1.73498E-03-3.09939E-14
 -1      1270 1.08215E-02-1.72729E-03-3.19069E-14
 -1      1271 1.12798E-02-1.64092E-03-3.27194E-14
 -1      1272 1.16948E-02-1.50439E-03-3.34201E-14
 -1      1273 1.20534E-02-1.34129E-03-3.39925E-14
 -1      1274 1.23388E-02-1.16832E-03-3.44054E-14
 -1      1275 1.25194E-02-1.00072E-03-3.46301E-14
 -1      1276 1.25807E-02-8.46681E-04-3.46509E-14
 -1      1277 1.66664E-04-1.10346E-04-1.13841E-17
 -1      1278 1.12523E-04-5.69927E-05-1.83637E-17
 -1      1279 1.17599E-04-6.75966E-05-1.62630E-17
 -1      1280 1.08413E-04-4.35135E-05-2.13994E-17
 -1      1281 1.10272E-04-4.96268E-05-2.06405E-17
 -1      1282 2.26298E-04-1.07659E-04-4.88704E-17
 -1      1283 1.06841E-04-3.36362E-05-2.24159E-17
 -1      1284 1.07682E-04-3.83581E-05-2.22126E-17
 -1      1285 2.19090E-04-8.24981E-05-5.37358E-17
 -1      1286 1.06071E-04-2.53727E-05-2.23346E-17
 -1      1287 1.06497E-04-2.94071E-05-2.24159E-17
 -1      1288 2.15873E-04-6.33181E-05-5.50368E-17
 -1      1289 1.05673E-04-1.81084E-05-2.17654E-17
 -1      1290 1.05901E-04-2.16780E-05-2.20500E-17
 -1      1291 2.14230E-04-4.72221E-05-5.43727E-17
 -1      1292 1.05458E-04-1.12506E-05-2.08709E-17
 -1      1293 1.05579E-04-1.46383E-05-2.12504E-17
 -1      1294 2.13325E-04-3.27803E-05-5.28006E-17
 -1      1295 1.05361E-04-4.69400E-06-1.95021E-17
 -1      1296 1.05412E-04-7.95022E-06-1.98680E-17
 -1      1297 2.12838E-04-1.92068E-05-5.01172E-17
 -1      1298 1.05350E-04 1.74498E-06-1.80791E-17
 -1      1299 1.05348E-04-1.47140E-06-1.85534E-17
 -1      1300 2.12628E-04-6.16528E-06-4.70408E-17
 -1      1301 1.05420E-04 8.23346E-06-1.61004E-17
 -1      1302 1.05365E-04 4.97079E-06-1.66832E-17
 -1      1303 2.12636E-04 6.71544E-06-4.31784E-17
 -1      1304 1.05595E-04 1.49470E-05-1.39049E-17
 -1      1305 1.05469E-04 1.15444E-05-1.45419E-17
 -1      1306 2.12863E-04 1.97826E-05-3.83943E-17
 -1      1307 1.05922E-04 2.19709E-05-1.12893E-17
 -1      1308 1.05690E-04 1.83778E-05-1.22379E-17
 -1      1309 2.13366E-04 3.32953E-05-3.30953E-17
 -1      1310 1.06538E-04 2.98402E-05-7.69784E-18
 -1      1311 1.06103E-04 2.57626E-05-8.84980E-18
 -1      1312 2.14293E-04 4.78311E-05-2.62648E-17
 -1      1313 1.07728E-04 3.89385E-05-3.48300E-18
 -1      1314 1.06879E-04 3.41435E-05-5.13641E-18
 -1      1315 2.15986E-04 6.42447E-05-1.79978E-17
 -1      1316 1.10253E-04 5.03718E-05 2.45301E-18
 -1      1317 1.08424E-04 4.41912E-05 0.00000E+00
 -1      1318 2.19209E-04 8.37514E-05-7.56231E-18
 -1      1319 1.16907E-04 6.76281E-05 1.02186E-17
 -1      1320 1.12160E-04 5.77881E-05 6.61363E-18
 -1      1321 2.26274E-04 1.09479E-04 6.03087E-18
 -1      1322 1.57547E-04 1.09856E-04 2.10200E-17
 -1      1323 1.35631E-04 8.60951E-05 1.52737E-17
 -1      1324 2.55977E-04 1.52106E-04 2.14537E-17
 -1      1325 3.35013E-04 2.20734E-04 4.07253E-17
 -1      1326 4.21443E-04-2.61744E-04-4.94803E-17
 -1      1327 5.74498E-04-3.36800E-04-8.71292E-17
 -1      1328 7.21641E-04-3.97393E-04-1.43250E-16
 -1      1329 8.64762E-04-4.46672E-04-2.15661E-16
 -1      1330 6.11929E-04-3.30901E-04-1.27570E-16
 -1      1331 1.00474E-03-4.87720E-04-3.03062E-16
 -1      1332 1.14253E-03-5.21674E-04-4.06454E-16
 -1      1333 9.05082E-04-4.31567E-04-2.73395E-16
 -1      1334 1.27896E-03-5.50402E-04-5.24673E-16
 -1      1335 1.41455E-03-5.74379E-04-6.58450E-16
 -1      1336 1.18742E-03-5.00921E-04-4.80098E-16
 -1      1337 1.54973E-03-5.94669E-04-8.06863E-16
 -1      1338 1.68476E-03-6.11605E-04-9.69710E-16
 -1      1339 1.46426E-03-5.49575E-04-7.46067E-16
 -1      1340 1.81988E-03-6.25811E-04-1.14757E-15
 -1      1341 1.95520E-03-6.37578E-04-1.33983E-15
 -1      1342 1.73884E-03-5.83696E-04-1.07035E-15
 -1      1343 2.09085E-03-6.47305E-04-1.54667E-15
 -1      1344 2.22686E-03-6.55239E-04-1.76866E-15
 -1      1345 2.01305E-03-6.07245E-04-1.45257E-15
 -1      1346 2.36331E-03-6.61651E-04-2.00535E-15
 -1      1347 2.50019E-03-6.66741E-04-2.25683E-15
 -1      1348 2.28788E-03-6.23012E-04-1.89268E-15
 -1      1349 2.63753E-03-6.70701E-04-2.52412E-15
 -1      1350 2.77531E-03-6.73689E-04-2.80620E-15
 -1      1351 2.56381E-03-6.33038E-04-2.39233E-15
 -1      1352 2.91355E-03-6.75837E-04-3.10251E-15
 -1      1353 3.05222E-03-6.77272E-04-3.41442E-15
 -1      1354 2.84107E-03-6.38838E-04-2.95152E-15
 -1      1355 3.19131E-03-6.78081E-04-3.73987E-15
 -1      1356 3.33080E-03-6.78361E-04-4.07934E-15
 -1      1357 3.11970E-03-6.41526E-04-3.56799E-15
 -1      1358 3.47069E-03-6.78168E-04-4.43333E-15
 -1      1359 3.61094E-03-6.77574E-04-4.80094E-15
 -1      1360 3.39968E-03-6.41910E-04-4.24139E-15
 -1      1361 3.75157E-03-6.76611E-04-5.18196E-15
 -1      1362 3.89255E-03-6.75332E-04-5.57598E-15
 -1      1363 3.68096E-03-6.40550E-04-4.97020E-15
 -1      1364 4.03388E-03-6.73748E-04-5.98204E-15
 -1      1365 4.17556E-03-6.71899E-04-6.39988E-15
 -1      1366 3.96351E-03-6.37822E-04-5.75177E-15
 -1      1367 4.31760E-03-6.69781E-04-6.83031E-15
 -1      1368 4.46000E-03-6.67426E-04-7.27368E-15
 -1      1369 4.24732E-03-6.33949E-04-6.58267E-15
 -1      1370 4.60280E-03-6.64815E-04-7.73069E-15
 -1      1371 4.74600E-03-6.61979E-04-8.20240E-15
 -1      1372 4.53246E-03-6.29046E-04-7.46510E-15
 -1      1373 4.88967E-03-6.58889E-04-8.68840E-15
 -1      1374 5.03383E-03-6.55578E-04-9.18849E-15
 -1      1375 4.81910E-03-6.23151E-04-8.40235E-15
 -1      1376 5.18581E-03-6.51825E-04-9.72899E-15
 -1      1377 5.33850E-03-6.47841E-04-1.02852E-14
 -1      1378 5.11474E-03-6.16073E-04-9.42257E-15
 -1      1379 5.48467E-03-6.43788E-04-1.08310E-14
 -1      1380 5.63168E-03-6.39555E-04-1.13916E-14
 -1      1381 5.41271E-03-6.07936E-04-1.05039E-14
 -1      1382 5.77968E-03-6.35102E-04-1.19655E-14
 -1      1383 5.92882E-03-6.30544E-04-1.25513E-14
 -1      1384 5.70632E-03-5.99016E-04-1.16166E-14
 -1      1385 6.07928E-03-6.25854E-04-1.31501E-14
 -1      1386 6.23128E-03-6.21214E-04-1.37627E-14
 -1      1387 6.00370E-03-5.89302E-04-1.27839E-14
 -1      1388 6.38507E-03-6.16633E-04-1.43863E-14
 -1      1389 6.54092E-03-6.12403E-04-1.50211E-14
 -1      1390 6.30608E-03-5.79233E-04-1.40015E-14
 -1      1391 6.69918E-03-6.08618E-04-1.56686E-14
 -1      1392 6.86022E-03-6.05732E-04-1.63267E-14
 -1      1393 6.61505E-03-5.69744E-04-1.52672E-14
 -1      1394 7.02443E-03-6.04019E-04-1.69988E-14
 -1      1395 7.19226E-03-6.04181E-04-1.76837E-14
 -1      1396 6.93265E-03-5.62655E-04-1.65824E-14
 -1      1397 7.36419E-03-6.06833E-04-1.83831E-14
 -1      1398 7.54069E-03-6.13041E-04-1.90965E-14
 -1      1399 7.26134E-03-5.61343E-04-1.79485E-14
 -1      1400 7.72222E-03-6.24019E-04-1.98246E-14
 -1      1401 7.90915E-03-6.41344E-04-2.05683E-14
 -1      1402 7.60386E-03-5.71811E-04-1.93716E-14
 -1      1403 8.10178E-03-6.67119E-04-2.13245E-14
 -1      1404 8.30009E-03-7.03533E-04-2.20966E-14
 -1      1405 7.96291E-03-6.04254E-04-2.08503E-14
 -1      1406 8.50394E-03-7.53655E-04-2.28831E-14
 -1      1407 8.71248E-03-8.20076E-04-2.36836E-14
 -1      1408 8.34046E-03-6.74721E-04-2.23869E-14
 -1      1409 8.92472E-03-9.05985E-04-2.44987E-14
 -1      1410 9.13839E-03-1.01311E-03-2.53299E-14
 -1      1411 8.73663E-03-8.05232E-04-2.39810E-14
 -1      1412 9.35145E-03-1.14208E-03-2.61783E-14
 -1      1413 9.55992E-03-1.29022E-03-2.70434E-14
 -1      1414 9.14747E-03-1.01778E-03-2.56346E-14
 -1      1415 9.75148E-03-1.44327E-03-2.78842E-14
 -1      1416 9.93311E-03-1.59892E-03-2.87410E-14
 -1      1417 9.55145E-03-1.30642E-03-2.73127E-14
 -1      1418 1.01124E-02-1.75211E-03-2.96615E-14
 -1      1419 1.02800E-02-1.87829E-03-3.06049E-14
 -1      1420 9.94083E-03-1.62976E-03-2.90626E-14
 -1      1421 1.04299E-02-1.96064E-03-3.15220E-14
 -1      1422 1.05773E-02-1.99732E-03-3.24581E-14
 -1      1423 1.03019E-02-1.88295E-03-3.08891E-14
 -1      1424 1.07331E-02-1.98622E-03-3.34586E-14
 -1      1425 1.08978E-02-1.93115E-03-3.44752E-14
 -1      1426 1.06451E-02-1.95922E-03-3.27919E-14
 -1      1427 1.10735E-02-1.84469E-03-3.55064E-14
 -1      1428 1.12617E-02-1.74356E-03-3.65491E-14
 -1      1429 1.10109E-02-1.84406E-03-3.48126E-14
 -1      1430 1.14613E-02-1.64220E-03-3.76017E-14
 -1      1431 1.16685E-02-1.55240E-03-3.86618E-14
 -1      1432 1.14069E-02-1.63735E-03-3.68897E-14
 -1      1433 1.18806E-02-1.48114E-03-3.97300E-14
 -1      1434 1.20939E-02-1.43142E-03-4.08039E-14
 -1      1435 1.18200E-02-1.45712E-03-3.90049E-14
 -1      1436 1.23061E-02-1.40302E-03-4.18834E-14
 -1      1437 1.25148E-02-1.39447E-03-4.29683E-14
 -1      1438 1.22309E-02-1.35926E-03-4.11468E-14
 -1      1439 1.27189E-02-1.40267E-03-4.40650E-14
 -1      1440 1.29174E-02-1.42501E-03-4.51694E-14
 -1      1441 1.26276E-02-1.34450E-03-4.33178E-14
 -1      1442 1.31102E-02-1.45836E-03-4.62782E-14
 -1      1443 1.32972E-02-1.50047E-03-4.73914E-14
 -1      1444 1.30055E-02-1.39159E-03-4.55186E-14
 -1      1445 1.34787E-02-1.54913E-03-4.85140E-14
 -1      1446 1.36549E-02-1.60271E-03-4.96414E-14
 -1      1447 1.33645E-02-1.47808E-03-4.77469E-14
 -1      1448 1.38264E-02-1.65989E-03-5.07744E-14
 -1      1449 1.39935E-02-1.71956E-03-5.19155E-14
 -1      1450 1.37064E-02-1.58725E-03-5.00008E-14
 -1      1451 1.41568E-02-1.78101E-03-5.30609E-14
 -1      1452 1.43167E-02-1.84347E-03-5.42110E-14
 -1      1453 1.40339E-02-1.70830E-03-5.22773E-14
 -1      1454 1.44736E-02-1.90662E-03-5.53673E-14
 -1      1455 1.46279E-02-1.96992E-03-5.65249E-14
 -1      1456 1.43495E-02-1.83464E-03-5.45775E-14
 -1      1457 1.47800E-02-2.03319E-03-5.76896E-14
 -1      1458 1.49300E-02-2.09609E-03-5.88579E-14
 -1      1459 1.46559E-02-1.96234E-03-5.68999E-14
 -1      1460 1.50784E-02-2.15850E-03-6.00295E-14
 -1      1461 1.52254E-02-2.22017E-03-6.12045E-14
 -1      1462 1.49551E-02-2.08898E-03-5.92389E-14
 -1      1463 1.53712E-02-2.28104E-03-6.23807E-14
 -1      1464 1.55160E-02-2.34093E-03-6.35565E-14
 -1      1465 1.52489E-02-2.21295E-03-6.15907E-14
 -1      1466 1.56600E-02-2.39985E-03-6.47342E-14
 -1      1467 1.58035E-02-2.45774E-03-6.59069E-14
 -1      1468 1.55389E-02-2.33320E-03-6.39461E-14
 -1      1469 1.59080E-02-2.49844E-03-6.67743E-14
 -1      1470 1.60509E-02-2.55502E-03-6.79437E-14
 -1      1471 1.59965E-02-2.51364E-03-6.77336E-14
 -1      1472 1.57875E-02-2.43286E-03-6.59943E-14
 -1      1473 6.42922E-04 3.72025E-04 6.47675E-17
 -1      1474 4.92838E-04 3.03694E-04 5.58771E-17
 -1      1475 4.44777E-04 2.65904E-04 4.16740E-17
 -1      1476 9.28415E-04 4.71980E-04 5.94278E-17
 -1      1477 7.87611E-04 4.26500E-04 6.62583E-17
 -1      1478 7.44569E-04 3.90731E-04 4.50079E-17
 -1      1479 1.20319E-03 5.41298E-04 1.78216E-17
 -1      1480 1.06658E-03 5.09662E-04 4.37205E-17
 -1      1481 1.03051E-03 4.76111E-04 1.56938E-17
 -1      1482 1.47362E-03 5.90369E-04-6.49031E-17
 -1      1483 1.33863E-03 5.67968E-04-1.79300E-17
 -1      1484 1.30833E-03 5.35818E-04-5.19875E-17
 -1      1485 1.74303E-03 6.25081E-04-1.93164E-16
 -1      1486 1.60828E-03 6.09275E-04-1.23111E-16
 -1      1487 1.58246E-03 5.77970E-04-1.63322E-16
 -1      1488 2.01310E-03 6.49275E-04-3.67965E-16
 -1      1489 1.87790E-03 6.38319E-04-2.74940E-16
 -1      1490 1.85553E-03 6.07486E-04-3.20287E-16
 -1      1491 2.28466E-03 6.65679E-04-5.89305E-16
 -1      1492 2.14866E-03 6.58322E-04-4.72753E-16
 -1      1493 2.12894E-03 6.27728E-04-5.23629E-16
 -1      1494 2.55803E-03 6.76308E-04-8.59650E-16
 -1      1495 2.42110E-03 6.71618E-04-7.17932E-16
 -1      1496 2.40342E-03 6.41123E-04-7.74649E-16
 -1      1497 2.83330E-03 6.82669E-04-1.18000E-15
 -1      1498 2.69543E-03 6.79948E-04-1.01355E-15
 -1      1499 2.67929E-03 6.49468E-04-1.07497E-15
 -1      1500 3.11041E-03 6.85889E-04-1.55178E-15
 -1      1501 2.97163E-03 6.84617E-04-1.35974E-15
 -1      1502 2.95666E-03 6.54100E-04-1.42620E-15
 -1      1503 3.38923E-03 6.86795E-04-1.97464E-15
 -1      1504 3.24961E-03 6.86591E-04-1.75627E-15
 -1      1505 3.23551E-03 6.56008E-04-1.82748E-15
 -1      1506 3.66964E-03 6.85987E-04-2.45125E-15
 -1      1507 3.52925E-03 6.86576E-04-2.20593E-15
 -1      1508 3.51579E-03 6.55911E-04-2.28172E-15
 -1      1509 3.95153E-03 6.83892E-04-2.97971E-15
 -1      1510 3.81041E-03 6.85078E-04-2.70937E-15
 -1      1511 3.79742E-03 6.54322E-04-2.78883E-15
 -1      1512 4.23482E-03 6.80815E-04-3.56235E-15
 -1      1513 4.09300E-03 6.82459E-04-3.26373E-15
 -1      1514 4.08035E-03 6.51604E-04-3.34789E-15
 -1      1515 4.51952E-03 6.76984E-04-4.20193E-15
 -1      1516 4.37699E-03 6.78978E-04-3.87528E-15
 -1      1517 4.36455E-03 6.48015E-04-3.96261E-15
 -1      1518 4.80567E-03 6.72597E-04-4.89321E-15
 -1      1519 4.66241E-03 6.74843E-04-4.54100E-15
 -1      1520 4.65006E-03 6.43757E-04-4.63228E-15
 -1      1521 5.09340E-03 6.67865E-04-5.63701E-15
 -1      1522 4.94933E-03 6.70254E-04-5.25818E-15
 -1      1523 4.93696E-03 6.39021E-04-5.35417E-15
 -1      1524 5.38289E-03 6.63062E-04-6.44184E-15
 -1      1525 5.23792E-03 6.65445E-04-6.03204E-15
 -1      1526 5.22538E-03 6.34035E-04-6.13336E-15
 -1      1527 5.67435E-03 6.58572E-04-7.31377E-15
 -1      1528 5.52836E-03 6.60742E-04-6.86876E-15
 -1      1529 5.51549E-03 6.29113E-04-6.97469E-15
 -1      1530 5.96798E-03 6.54941E-04-8.25148E-15
 -1      1531 5.82088E-03 6.56603E-04-7.77418E-15
 -1      1532 5.80749E-03 6.24708E-04-7.88145E-15
 -1      1533 6.26392E-03 6.52907E-04-9.25318E-15
 -1      1534 6.11566E-03 6.53670E-04-8.74470E-15
 -1      1535 6.10153E-03 6.21454E-04-8.85525E-15
 -1      1536 6.56216E-03 6.53418E-04-1.03166E-14
 -1      1537 6.41276E-03 6.52785E-04-9.77755E-15
 -1      1538 6.39766E-03 6.20202E-04-9.89119E-15
 -1      1539 6.86239E-03 6.57579E-04-1.14384E-14
 -1      1540 6.71205E-03 6.54987E-04-1.08702E-14
 -1      1541 6.69577E-03 6.22005E-04-1.09861E-14
 -1      1542 7.16392E-03 6.66529E-04-1.26168E-14
 -1      1543 7.01305E-03 6.61422E-04-1.20206E-14
 -1      1544 6.99548E-03 6.28049E-04-1.21382E-14
 -1      1545 7.46553E-03 6.81177E-04-1.38506E-14
 -1      1546 7.31481E-03 6.73153E-04-1.32263E-14
 -1      1547 7.29601E-03 6.39460E-04-1.33467E-14
 -1      1548 7.76542E-03 7.01776E-04-1.51447E-14
 -1      1549 7.61582E-03 6.90820E-04-1.44906E-14
 -1      1550 7.59612E-03 6.56973E-04-1.46141E-14
 -1      1551 8.06129E-03 7.27366E-04-1.64962E-14
 -1      1552 7.91402E-03 7.14141E-04-1.58140E-14
 -1      1553 7.89412E-03 6.80425E-04-1.59404E-14
 -1      1554 8.35060E-03 7.55170E-04-1.79053E-14
 -1      1555 8.20693E-03 7.41310E-04-1.71927E-14
 -1      1556 8.18797E-03 7.08133E-04-1.73214E-14
 -1      1557 8.63114E-03 7.80205E-04-1.93761E-14
 -1      1558 8.49210E-03 7.68466E-04-1.86334E-14
 -1      1559 8.47562E-03 7.36323E-04-1.87623E-14
 -1      1560 8.90168E-03 7.95433E-04-2.09055E-14
 -1      1561 8.76770E-03 7.89534E-04-2.01336E-14
 -1      1562 8.75551E-03 7.58922E-04-2.02639E-14
 -1      1563 9.16269E-03 7.92743E-04-2.24954E-14
 -1      1564 9.03329E-03 7.96772E-04-2.16936E-14
 -1      1565 9.02714E-03 7.68051E-04-2.18255E-14
 -1      1566 9.41663E-03 7.64742E-04-2.41410E-14
 -1      1567 9.29032E-03 7.82185E-04-2.33112E-14
 -1      1568 9.29163E-03 7.55446E-04-2.34443E-14
 -1      1569 9.66766E-03 7.06812E-04-2.58461E-14
 -1      1570 9.54220E-03 7.39541E-04-2.49846E-14
 -1      1571 9.55168E-03 7.14535E-04-2.51202E-14
 -1      1572 9.92065E-03 6.18566E-04-2.76265E-14
 -1      1573 9.79360E-03 6.66231E-04-2.67272E-14
 -1      1574 9.81113E-03 6.42417E-04-2.68622E-14
 -1      1575 1.01800E-02 5.03975E-04-2.94868E-14
 -1      1576 1.00493E-02 5.64118E-04-2.85469E-14
 -1      1577 1.00740E-02 5.40817E-04-2.86824E-14
 -1      1578 1.04484E-02 3.70096E-04-3.14236E-14
 -1      1579 1.03129E-02 4.38928E-04-3.04460E-14
 -1      1580 1.03433E-02 4.15514E-04-3.05784E-14
 -1      1581 1.07266E-02 2.25045E-04-3.34248E-14
 -1      1582 1.05863E-02 2.98498E-04-3.24168E-14
 -1      1583 1.06205E-02 2.74532E-04-3.25433E-14
 -1      1584 1.10137E-02 7.61011E-05-3.54835E-14
 -1      1585 1.08692E-02 1.50716E-04-3.44477E-14
 -1      1586 1.09056E-02 1.25999E-04-3.45699E-14
 -1      1587 1.13074E-02-7.14315E-05-3.75916E-14
 -1      1588 1.11599E-02 1.96107E-06-3.65321E-14
 -1      1589 1.11970E-02-2.34975E-05-3.66495E-14
 -1      1590 1.16052E-02-2.14516E-04-3.97482E-14
 -1      1591 1.14560E-02-1.43600E-04-3.86638E-14
 -1      1592 1.14929E-02-1.69657E-04-3.87805E-14
 -1      1593 1.19047E-02-3.52067E-04-4.19524E-14
 -1      1594 1.17549E-02-2.83965E-04-4.08439E-14
 -1      1595 1.17911E-02-3.10414E-04-4.09581E-14
 -1      1596 1.22038E-02-4.84374E-04-4.42127E-14
 -1      1597 1.20544E-02-4.18805E-04-4.30756E-14
 -1      1598 1.20896E-02-4.45435E-04-4.31897E-14
 -1      1599 1.25013E-02-6.12529E-04-4.65289E-14
 -1      1600 1.23529E-02-5.48878E-04-4.53656E-14
 -1      1601 1.23872E-02-5.75505E-04-4.54770E-14
 -1      1602 1.27964E-02-7.37991E-04-4.88845E-14
 -1      1603 1.26492E-02-6.75501E-04-4.77034E-14
 -1      1604 1.26829E-02-7.01986E-04-4.78105E-14
 -1      1605 1.30887E-02-8.62288E-04-5.12724E-14
 -1      1606 1.29429E-02-8.00199E-04-5.00745E-14
 -1      1607 1.29763E-02-8.26445E-04-5.01784E-14
 -1      1608 1.33785E-02-9.86841E-04-5.36781E-14
 -1      1609 1.32339E-02-9.24463E-04-5.24722E-14
 -1      1610 1.32673E-02-9.50419E-04-5.25712E-14
 -1      1611 1.36662E-02-1.11281E-03-5.60979E-14
 -1      1612 1.35226E-02-1.04961E-03-5.48866E-14
 -1      1613 1.35562E-02-1.07526E-03-5.49808E-14
 -1      1614 1.39525E-02-1.24083E-03-5.85251E-14
 -1      1615 1.38095E-02-1.17657E-03-5.73120E-14
 -1      1616 1.38434E-02-1.20196E-03-5.74038E-14
 -1      1617 1.41179E-02-1.31910E-03-5.98584E-14
 -1      1618 1.42903E-02-1.42949E-03-6.06444E-14
 -1      1619 1.42258E-02-1.38765E-03-6.03707E-14
 -1      1620 1.44207E-02-1.51222E-03-6.11949E-14
 -1      1621 1.43553E-02-1.47104E-03-6.09199E-14
 -1      1622 1.41991E-02-1.39403E-03-5.97337E-14
 -1      1623 1.45529E-02-1.59313E-03-6.17481E-14
 -1      1624 1.44866E-02-1.55294E-03-6.14696E-14
 -1      1625 1.43303E-02-1.47619E-03-6.02838E-14
 -1      1626 1.46857E-02-1.67170E-03-6.23014E-14
 -1      1627 1.46192E-02-1.63273E-03-6.20255E-14
 -1      1628 1.44630E-02-1.55655E-03-6.08350E-14
 -1      1629 1.48156E-02-1.74641E-03-6.28478E-14
 -1      1630 1.47508E-02-1.70937E-03-6.25749E-14
 -1      1631 1.45949E-02-1.63414E-03-6.13832E-14
 -1      1632 1.49458E-02-1.81985E-03-6.33916E-14
 -1      1633 1.48811E-02-1.78344E-03-6.31212E-14
 -1      1634 1.47260E-02-1.70949E-03-6.19259E-14
 -1      1635 1.50728E-02-1.89107E-03-6.39150E-14
 -1      1636 1.50098E-02-1.85571E-03-6.36537E-14
 -1      1637 1.48558E-02-1.78330E-03-6.24558E-14
 -1      1638 1.51952E-02-1.96075E-03-6.44044E-14
 -1      1639 1.51346E-02-1.92605E-03-6.41661E-14
 -1      1640 1.49820E-02-1.85528E-03-6.29687E-14
 -1      1641 1.53124E-02-2.02983E-03-6.48625E-14
 -1      1642 1.52545E-02-1.99530E-03-6.46354E-14
 -1      1643 1.51033E-02-1.92608E-03-6.34570E-14
 -1      1644 1.54244E-02-2.09948E-03-6.53139E-14
 -1      1645 1.53691E-02-2.06452E-03-6.50874E-14
 -1      1646 1.52192E-02-1.99654E-03-6.39223E-14
 -1      1647 1.55300E-02-2.16962E-03-6.57561E-14
 -1      1648 1.54777E-02-2.13428E-03-6.55391E-14
 -1      1649 1.53288E-02-2.06707E-03-6.43777E-14
 -1      1650 1.56343E-02-2.24362E-03-6.62096E-14
 -1      1651 1.55824E-02-2.20624E-03-6.59813E-14
 -1      1652 1.54341E-02-2.13920E-03-6.48278E-14
 -1      1653 1.57376E-02-2.32082E-03-6.66449E-14
 -1      1654 1.56859E-02-2.28181E-03-6.64310E-14
 -1      1655 1.55375E-02-2.21435E-03-6.52728E-14
 -1      1656 1.58421E-02-2.40118E-03-6.70649E-14
 -1      1657 1.57895E-02-2.36064E-03-6.68556E-14
 -1      1658 1.56403E-02-2.29231E-03-6.57086E-14
 -1      1659 1.59457E-02-2.47787E-03-6.75024E-14
 -1      1660 1.58916E-02-2.43630E-03-6.72956E-14
 -1      1661 1.57415E-02-2.36715E-03-6.61597E-14
 -1      1662 1.58413E-02-2.43775E-03-6.66289E-14
 -1      1663 1.25014E-02-7.13282E-04-3.47880E-14
 -1      1664 1.25646E-02-7.63887E-04-3.49458E-14
 -1      1665 1.22705E-02-5.85601E-04-3.42907E-14
 -1      1666 1.23915E-02-6.47447E-04-3.45434E-14
 -1      1667 1.19425E-02-4.20084E-04-3.35925E-14
 -1      1668 1.21053E-02-4.98224E-04-3.39238E-14
 -1      1669 1.15593E-02-2.36396E-04-3.27805E-14
 -1      1670 1.17402E-02-3.23388E-04-3.31694E-14
 -1      1671 1.11328E-02-3.54950E-05-3.18174E-14
 -1      1672 1.13355E-02-1.29513E-04-3.22787E-14
 -1      1673 1.07006E-02 1.43364E-04-3.07880E-14
 -1      1674 1.08985E-02 6.58531E-05-3.12660E-14
 -1      1675 1.02717E-02 2.65743E-04-2.97192E-14
 -1      1676 1.04662E-02 2.18463E-04-3.02131E-14
 -1      1677 9.87157E-03 3.00120E-04-2.87168E-14
 -1      1678 1.00528E-02 2.94200E-04-2.91678E-14
 -1      1679 9.47082E-03 2.52821E-04-2.77157E-14
 -1      1680 9.65839E-03 2.89826E-04-2.81501E-14
 -1      1681 9.05687E-03 1.28700E-04-2.69301E-14
 -1      1682 9.24049E-03 1.91266E-04-2.72741E-14
 -1      1683 8.67357E-03-1.14200E-05-2.63621E-14
 -1      1684 8.84033E-03 5.54308E-05-2.66131E-14
 -1      1685 8.32924E-03-1.57599E-04-2.59249E-14
 -1      1686 8.48419E-03-9.00488E-05-2.61074E-14
 -1      1687 8.05227E-03-2.88980E-04-2.56672E-14
 -1      1688 8.16909E-03-2.31006E-04-2.57636E-14
 -1      1689 7.88209E-03-4.02857E-04-2.55763E-14
 -1      1690 7.94632E-03-3.54384E-04-2.55833E-14
 -1      1691 7.84836E-03-5.05879E-04-2.57355E-14
 -1      1692 7.84587E-03-4.57901E-04-2.56458E-14
 -1      1693 7.98969E-03-6.28271E-04-2.60561E-14
 -1      1694 7.89790E-03-5.63204E-04-2.58352E-14
 -1      1695 8.30172E-03-8.20372E-04-2.67230E-14
 -1      1696 8.14162E-03-7.29563E-04-2.64141E-14
 -1      1697 8.67056E-03-1.04481E-03-2.74692E-14
 -1      1698 8.49582E-03-9.44573E-04-2.71362E-14
 -1      1699 9.09542E-03-1.28846E-03-2.82998E-14
 -1      1700 8.89200E-03-1.17219E-03-2.78979E-14
 -1      1701 9.56273E-03-1.53503E-03-2.92640E-14
 -1      1702 9.34808E-03-1.42178E-03-2.88014E-14
 -1      1703 9.99788E-03-1.71722E-03-3.02653E-14
 -1      1704 9.79970E-03-1.64526E-03-2.98088E-14
 -1      1705 1.04416E-02-1.79584E-03-3.13109E-14
 -1      1706 1.02366E-02-1.77563E-03-3.08241E-14
 -1      1707 1.08673E-02-1.74507E-03-3.22767E-14
 -1      1708 1.06749E-02-1.78185E-03-3.18461E-14
 -1      1709 1.12717E-02-1.60132E-03-3.31785E-14
 -1      1710 1.10834E-02-1.67787E-03-3.27913E-14
 -1      1711 1.16844E-02-1.41591E-03-3.38848E-14
 -1      1712 1.15020E-02-1.50536E-03-3.35626E-14
 -1      1713 1.20556E-02-1.22457E-03-3.44771E-14
 -1      1714 1.18895E-02-1.31214E-03-3.42232E-14
 -1      1715 1.23617E-02-1.05527E-03-3.48811E-14
 -1      1716 1.22310E-02-1.13004E-03-3.47198E-14
 -1      1717 1.25486E-02-9.20618E-04-3.51022E-14
 -1      1718 1.24783E-02-9.76157E-04-3.50416E-14
 -1      1719 1.25964E-02-8.17984E-04-3.50365E-14
 -1      1720 1.25914E-02-8.63528E-04-3.50815E-14
 -1      1721 1.17900E-02-4.36636E-04-3.36297E-14
 -1      1722 1.25899E-02-8.05805E-04-3.53950E-14
 -1      1723 1.41521E-02-1.34436E-03-5.99505E-14
 -1      1724 1.40603E-02-1.30932E-03-5.90360E-14
 -1      1725 1.24447E-02-7.29095E-04-3.50507E-14
 -1      1726 1.21615E-02-6.08050E-04-3.44282E-14
 -1      1727 1.13737E-02-2.27964E-04-3.26984E-14
 -1      1728 1.09442E-02-3.58268E-06-3.16395E-14
 -1      1729 1.05260E-02 1.90755E-04-3.05112E-14
 -1      1730 1.01445E-02 3.05060E-04-2.93869E-14
 -1      1731 9.77236E-03 3.19450E-04-2.82745E-14
 -1      1732 9.40570E-03 2.27909E-04-2.72787E-14
 -1      1733 9.00958E-03 7.22050E-05-2.65317E-14
 -1      1734 8.62485E-03-9.20282E-05-2.59668E-14
 -1      1735 8.27747E-03-2.41313E-04-2.55565E-14
 -1      1736 8.00466E-03-3.58561E-04-2.53158E-14
 -1      1737 7.85549E-03-4.38951E-04-2.53026E-14
 -1      1738 7.86729E-03-5.11418E-04-2.54684E-14
 -1      1739 8.07760E-03-6.13700E-04-2.59142E-14
 -1      1740 8.43756E-03-8.06303E-04-2.66745E-14
 -1      1741 8.85415E-03-1.05122E-03-2.75087E-14
 -1      1742 9.30618E-03-1.32427E-03-2.84326E-14
 -1      1743 9.74645E-03-1.59010E-03-2.94759E-14
 -1      1744 1.01583E-02-1.77323E-03-3.05821E-14
 -1      1745 1.05464E-02-1.81893E-03-3.16827E-14
 -1      1746 1.09337E-02-1.72456E-03-3.27417E-14
 -1      1747 1.13230E-02-1.53859E-03-3.36526E-14
 -1      1748 1.17314E-02-1.32427E-03-3.43843E-14
 -1      1749 1.21076E-02-1.12654E-03-3.49715E-14
 -1      1750 1.24074E-02-9.73615E-04-3.53775E-14
 -1      1751 1.25755E-02-8.76458E-04-3.55134E-14
 -1      1752 2.85177E-04-1.76243E-04-3.95869E-17
 -1      1753 3.32157E-04-1.16816E-04-8.32261E-17
 -1      1754 3.36292E-04-1.33061E-04-8.13829E-17
 -1      1755 3.42167E-04-1.52045E-04-7.84014E-17
 -1      1756 3.51703E-04-1.74041E-04-7.33869E-17
 -1      1757 4.58280E-04-1.88126E-04-1.18679E-16
 -1      1758 3.24594E-04-6.54152E-05-8.25891E-17
 -1      1759 3.25729E-04-7.67084E-05-8.34971E-17
 -1      1760 3.23128E-04-4.39126E-05-7.95669E-17
 -1      1761 3.23770E-04-5.44066E-05-8.12338E-17
 -1      1762 4.36560E-04-7.93248E-05-1.20496E-16
 -1      1763 3.22357E-04-2.37837E-05-7.53249E-17
 -1      1764 3.22683E-04-3.37024E-05-7.75882E-17
 -1      1765 4.34594E-04-5.13378E-05-1.15644E-16
 -1      1766 3.22069E-04-4.33833E-06-7.04189E-17
 -1      1767 3.22164E-04-1.39960E-05-7.29939E-17
 -1      1768 4.33590E-04-2.49323E-05-1.09477E-16
 -1      1769 3.22189E-04 1.49901E-05-6.44829E-17
 -1      1770 3.22077E-04 5.32252E-06-6.77762E-17
 -1      1771 4.33297E-04 7.59334E-07-1.02091E-16
 -1      1772 3.22745E-04 3.47489E-05-5.70697E-17
 -1      1773 3.22400E-04 2.47982E-05-6.09999E-17
 -1      1774 4.33647E-04 2.64791E-05-9.31736E-17
 -1      1775 3.23857E-04 5.51950E-05-4.87891E-17
 -1      1776 3.23203E-04 4.48283E-05-5.31937E-17
 -1      1777 4.34707E-04 5.27436E-05-8.24942E-17
 -1      1778 3.25887E-04 7.78528E-05-3.80013E-17
 -1      1779 3.24704E-04 6.62694E-05-4.39237E-17
 -1      1780 4.36736E-04 8.06317E-05-6.99988E-17
 -1      1781 3.29551E-04 1.03688E-04-2.50180E-17
 -1      1782 3.27410E-04 9.03435E-05-3.19569E-17
 -1      1783 4.40344E-04 1.11611E-04-5.43863E-17
 -1      1784 3.36601E-04 1.35169E-04-8.25349E-18
 -1      1785 3.32446E-04 1.18644E-04-1.74150E-17
 -1      1786 4.46809E-04 1.47386E-04-3.51688E-17
 -1      1787 3.52196E-04 1.77601E-04 1.25632E-17
 -1      1788 3.42742E-04 1.54769E-04 1.26039E-18
 -1      1789 4.59234E-04 1.91473E-04-1.12079E-17
 -1      1790 4.07586E-04 2.33693E-04 3.09269E-17
 -1      1791 3.77991E-04 2.02686E-04 2.02204E-17
 -1      1792 4.95751E-04 2.44038E-04 1.15603E-17
 -1      1793 5.58401E-04 3.02521E-04 3.35832E-17
 -1      1794 3.39950E-04-1.90930E-04-5.93330E-17
 -1      1795 8.53401E-04 4.07101E-04 1.66154E-17
 -1      1796 7.07006E-04 3.59359E-04 2.93141E-17
 -1      1797 6.73282E-04 3.28807E-04 1.49891E-17
 -1      1798 4.58863E-04-2.36740E-04-9.71039E-17
 -1      1799 8.07059E-04-3.74100E-04-2.43512E-16
 -1      1800 9.52292E-04-4.15258E-04-3.32376E-16
 -1      1801 1.09510E-03-4.49910E-04-4.35903E-16
 -1      1802 1.23673E-03-4.78756E-04-5.54054E-16
 -1      1803 1.00375E-03-3.97866E-04-3.92346E-16
 -1      1804 1.37710E-03-5.03177E-04-6.86490E-16
 -1      1805 1.51675E-03-5.23470E-04-8.33453E-16
 -1      1806 1.28938E-03-4.55733E-04-6.28390E-16
 -1      1807 1.65588E-03-5.40551E-04-9.94674E-16
 -1      1808 1.79468E-03-5.54659E-04-1.17000E-15
 -1      1809 1.57173E-03-4.96519E-04-9.20406E-16
 -1      1810 1.93337E-03-5.66396E-04-1.35973E-15
 -1      1811 2.07199E-03-5.75964E-04-1.56381E-15
 -1      1812 1.85231E-03-5.24828E-04-1.26892E-15
 -1      1813 2.21072E-03-5.83777E-04-1.78247E-15
 -1      1814 2.34954E-03-5.90002E-04-2.01545E-15
 -1      1815 2.13217E-03-5.43973E-04-1.67405E-15
 -1      1816 2.48857E-03-5.94930E-04-2.26341E-15
 -1      1817 2.62778E-03-5.98697E-04-2.52585E-15
 -1      1818 2.41203E-03-5.56378E-04-2.13668E-15
 -1      1819 2.76726E-03-6.01509E-04-2.80329E-15
 -1      1820 2.90696E-03-6.03472E-04-3.09437E-15
 -1      1821 2.69228E-03-5.63837E-04-2.65711E-15
 -1      1822 3.04695E-03-6.04730E-04-3.39962E-15
 -1      1823 3.18718E-03-6.05366E-04-3.71934E-15
 -1      1824 2.97318E-03-5.67675E-04-3.23477E-15
 -1      1825 3.32770E-03-6.05477E-04-4.05352E-15
 -1      1826 3.46846E-03-6.05125E-04-4.40139E-15
 -1      1827 3.25482E-03-5.68854E-04-3.86853E-15
 -1      1828 3.60951E-03-6.04370E-04-4.76301E-15
 -1      1829 3.75081E-03-6.03258E-04-5.13726E-15
 -1      1830 3.53728E-03-5.68056E-04-4.55839E-15
 -1      1831 3.89239E-03-6.01821E-04-5.52444E-15
 -1      1832 4.03423E-03-6.00093E-04-5.92525E-15
 -1      1833 3.82058E-03-5.65737E-04-5.30129E-15
 -1      1834 4.17635E-03-5.98084E-04-6.33773E-15
 -1      1835 4.31875E-03-5.95820E-04-6.76336E-15
 -1      1836 4.10475E-03-5.62186E-04-6.09608E-15
 -1      1837 4.46144E-03-5.93292E-04-7.20233E-15
 -1      1838 4.60446E-03-5.90521E-04-7.65369E-15
 -1      1839 4.38985E-03-5.57557E-04-6.94193E-15
 -1      1840 4.74781E-03-5.87488E-04-8.12024E-15
 -1      1841 4.89154E-03-5.84211E-04-8.60056E-15
 -1      1842 4.67597E-03-5.51906E-04-7.84069E-15
 -1      1843 5.04287E-03-5.80476E-04-9.11973E-15
 -1      1844 5.19473E-03-5.76468E-04-9.65436E-15
 -1      1845 4.97047E-03-5.45046E-04-8.81937E-15
 -1      1846 5.33984E-03-5.72361E-04-1.01792E-14
 -1      1847 5.48557E-03-5.68009E-04-1.07185E-14
 -1      1848 5.26644E-03-5.37069E-04-9.85820E-15
 -1      1849 5.63190E-03-5.63382E-04-1.12724E-14
 -1      1850 5.77901E-03-5.58537E-04-1.18395E-14
 -1      1851 5.55695E-03-5.28190E-04-1.09304E-14
 -1      1852 5.92689E-03-5.53462E-04-1.24200E-14
 -1      1853 6.07580E-03-5.48250E-04-1.30136E-14
 -1      1854 5.84960E-03-5.18292E-04-1.20592E-14
 -1      1855 6.22569E-03-5.42931E-04-1.36201E-14
 -1      1856 6.37691E-03-5.37653E-04-1.42386E-14
 -1      1857 6.14494E-03-5.07623E-04-1.32411E-14
 -1      1858 6.52938E-03-5.32533E-04-1.48700E-14
 -1      1859 6.68358E-03-5.27808E-04-1.55125E-14
 -1      1860 6.44361E-03-4.96777E-04-1.44742E-14
 -1      1861 6.83934E-03-5.23762E-04-1.61674E-14
 -1      1862 6.99731E-03-5.20775E-04-1.68347E-14
 -1      1863 6.74641E-03-4.86977E-04-1.57554E-14
 -1      1864 7.15724E-03-5.19427E-04-1.75165E-14
 -1      1865 7.31991E-03-5.20339E-04-1.82108E-14
 -1      1866 7.05429E-03-4.80537E-04-1.70862E-14
 -1      1867 7.48504E-03-5.24568E-04-1.89204E-14
 -1      1868 7.65346E-03-5.33150E-04-1.96437E-14
 -1      1869 7.36846E-03-4.81616E-04-1.84717E-14
 -1      1870 7.82507E-03-5.47802E-04-2.03797E-14
 -1      1871 8.00046E-03-5.70298E-04-2.11304E-14
 -1      1872 7.69071E-03-4.97332E-04-1.99120E-14
 -1      1873 8.18018E-03-6.03052E-04-2.18944E-14
 -1      1874 8.36399E-03-6.48921E-04-2.26737E-14
 -1      1875 8.02411E-03-5.39320E-04-2.14078E-14
 -1      1876 8.55387E-03-7.10543E-04-2.34672E-14
 -1      1877 8.74775E-03-7.91961E-04-2.42736E-14
 -1      1878 8.37425E-03-6.25222E-04-2.29569E-14
 -1      1879 8.94953E-03-8.94407E-04-2.50966E-14
 -1      1880 9.15395E-03-1.02135E-03-2.59338E-14
 -1      1881 8.74993E-03-7.78967E-04-2.45632E-14
 -1      1882 9.35559E-03-1.16170E-03-2.67477E-14
 -1      1883 9.55577E-03-1.31907E-03-2.75778E-14
 -1      1884 9.14888E-03-1.01678E-03-2.61881E-14
 -1      1885 9.76772E-03-1.49283E-03-2.84696E-14
 -1      1886 9.97414E-03-1.65812E-03-2.93783E-14
 -1      1887 9.57553E-03-1.34143E-03-2.78805E-14
 -1      1888 1.01617E-02-1.79332E-03-3.02622E-14
 -1      1889 1.03479E-02-1.88552E-03-3.11656E-14
 -1      1890 1.00033E-02-1.68136E-03-2.96444E-14
 -1      1891 1.05331E-02-1.92818E-03-3.21341E-14
 -1      1892 1.07275E-02-1.91074E-03-3.31208E-14
 -1      1893 1.04109E-02-1.88475E-03-3.14826E-14
 -1      1894 1.09217E-02-1.84108E-03-3.41262E-14
 -1      1895 1.11266E-02-1.74233E-03-3.51474E-14
 -1      1896 1.08267E-02-1.84002E-03-3.34447E-14
 -1      1897 1.13379E-02-1.62915E-03-3.61804E-14
 -1      1898 1.15484E-02-1.52212E-03-3.72263E-14
 -1      1899 1.12631E-02-1.62318E-03-3.54757E-14
 -1      1900 1.17608E-02-1.43181E-03-3.82786E-14
 -1      1901 1.19657E-02-1.36211E-03-3.93422E-14
 -1      1902 1.17019E-02-1.40557E-03-3.75585E-14
 -1      1903 1.21682E-02-1.31682E-03-4.04144E-14
 -1      1904 1.23626E-02-1.29287E-03-4.14881E-14
 -1      1905 1.21139E-02-1.27449E-03-3.96790E-14
 -1      1906 1.25530E-02-1.28923E-03-4.25712E-14
 -1      1907 1.27372E-02-1.30177E-03-4.36634E-14
 -1      1908 1.24916E-02-1.23588E-03-4.18293E-14
 -1      1909 1.29172E-02-1.32791E-03-4.47624E-14
 -1      1910 1.30926E-02-1.36466E-03-4.58665E-14
 -1      1911 1.28428E-02-1.26710E-03-4.40062E-14
 -1      1912 1.32642E-02-1.40955E-03-4.69804E-14
 -1      1913 1.34325E-02-1.46073E-03-4.81000E-14
 -1      1914 1.31764E-02-1.34383E-03-4.62155E-14
 -1      1915 1.35973E-02-1.51638E-03-4.92256E-14
 -1      1916 1.37595E-02-1.57542E-03-5.03581E-14
 -1      1917 1.34983E-02-1.44774E-03-4.84518E-14
 -1      1918 1.39189E-02-1.63668E-03-5.14969E-14
 -1      1919 1.40761E-02-1.69950E-03-5.26415E-14
 -1      1920 1.38117E-02-1.56662E-03-5.07169E-14
 -1      1921 1.42311E-02-1.76322E-03-5.37903E-14
 -1      1922 1.43843E-02-1.82741E-03-5.49459E-14
 -1      1923 1.41184E-02-1.69279E-03-5.30043E-14
 -1      1924 1.45357E-02-1.89168E-03-5.61087E-14
 -1      1925 1.46857E-02-1.95576E-03-5.72761E-14
 -1      1926 1.44196E-02-1.82156E-03-5.53168E-14
 -1      1927 1.48343E-02-2.01941E-03-5.84455E-14
 -1      1928 1.49818E-02-2.08244E-03-5.96211E-14
 -1      1929 1.47163E-02-1.95007E-03-5.76525E-14
 -1      1930 1.51283E-02-2.14471E-03-6.07961E-14
 -1      1931 1.52739E-02-2.20604E-03-6.19749E-14
 -1      1932 1.50094E-02-2.07646E-03-6.00014E-14
 -1      1933 1.54186E-02-2.26640E-03-6.31561E-14
 -1      1934 1.55628E-02-2.32562E-03-6.43361E-14
 -1      1935 1.52995E-02-2.19948E-03-6.23627E-14
 -1      1936 1.57367E-02-2.39712E-03-6.57569E-14
 -1      1937 1.35807E-03 5.11969E-04-1.21051E-16
 -1      1938 1.21807E-03 4.86965E-04-7.19368E-17
 -1      1939 1.63586E-03 5.50691E-04-2.52849E-16
 -1      1940 1.49722E-03 5.33117E-04-1.81292E-16
 -1      1941 1.41084E-03 4.87191E-04-1.94655E-16
 -1      1942 1.91240E-03 5.77598E-04-4.29967E-16
 -1      1943 1.77421E-03 5.65444E-04-3.35384E-16
 -1      1944 1.69143E-03 5.22542E-04-3.46565E-16
 -1      1945 2.18889E-03 5.95823E-04-6.53787E-16
 -1      1946 2.05062E-03 5.87660E-04-5.35894E-16
 -1      1947 1.97078E-03 5.46922E-04-5.43971E-16
 -1      1948 2.46600E-03 6.07656E-04-9.26247E-16
 -1      1949 2.32735E-03 6.02435E-04-7.84149E-16
 -1      1950 2.24986E-03 5.63230E-04-7.88608E-16
 -1      1951 2.74406E-03 6.14794E-04-1.24785E-15
 -1      1952 2.60491E-03 6.11733E-04-1.08096E-15
 -1      1953 2.52923E-03 5.73606E-04-1.08209E-15
 -1      1954 3.02323E-03 6.18496E-04-1.61962E-15
 -1      1955 2.88351E-03 6.17015E-04-1.42728E-15
 -1      1956 2.80922E-03 5.79638E-04-1.42437E-15
 -1      1957 3.30355E-03 6.19684E-04-2.04273E-15
 -1      1958 3.16325E-03 6.19360E-04-1.82486E-15
 -1      1959 3.09001E-03 5.82498E-04-1.81757E-15
 -1      1960 3.58502E-03 6.19020E-04-2.51809E-15
 -1      1961 3.44415E-03 6.19550E-04-2.27384E-15
 -1      1962 3.37165E-03 5.83040E-04-2.26188E-15
 -1      1963 3.86760E-03 6.16975E-04-3.04581E-15
 -1      1964 3.72617E-03 6.18146E-04-2.77526E-15
 -1      1965 3.65419E-03 5.81874E-04-2.75828E-15
 -1      1966 4.15128E-03 6.13876E-04-3.62700E-15
 -1      1967 4.00931E-03 6.15539E-04-3.33025E-15
 -1      1968 3.93763E-03 5.79426E-04-3.30770E-15
 -1      1969 4.43608E-03 6.09958E-04-4.26293E-15
 -1      1970 4.29354E-03 6.12005E-04-3.93765E-15
 -1      1971 4.22198E-03 5.75992E-04-3.91007E-15
 -1      1972 4.72205E-03 6.05408E-04-4.95326E-15
 -1      1973 4.57891E-03 6.07749E-04-4.60175E-15
 -1      1974 4.50727E-03 5.71784E-04-4.56730E-15
 -1      1975 5.00927E-03 6.00415E-04-5.69751E-15
 -1      1976 4.86549E-03 6.02952E-04-5.31857E-15
 -1      1977 4.79357E-03 5.66979E-04-5.27884E-15
 -1      1978 5.29788E-03 5.95215E-04-6.50105E-15
 -1      1979 5.15339E-03 5.97822E-04-6.09192E-15
 -1      1980 5.08098E-03 5.61764E-04-6.04637E-15
 -1      1981 5.58804E-03 5.90148E-04-7.36623E-15
 -1      1982 5.44275E-03 5.92640E-04-6.92492E-15
 -1      1983 5.36963E-03 5.56388E-04-6.87272E-15
 -1      1984 5.87991E-03 5.85704E-04-8.29718E-15
 -1      1985 5.73374E-03 5.87814E-04-7.82356E-15
 -1      1986 5.65966E-03 5.51214E-04-7.76198E-15
 -1      1987 6.17363E-03 5.82575E-04-9.29316E-15
 -1      1988 6.02653E-03 5.83930E-04-8.78732E-15
 -1      1989 5.95127E-03 5.46773E-04-8.71629E-15
 -1      1990 6.46925E-03 5.81673E-04-1.03502E-14
 -1      1991 6.32120E-03 5.81789E-04-9.81394E-15
 -1      1992 6.24458E-03 5.43805E-04-9.73479E-15
 -1      1993 6.76668E-03 5.84122E-04-1.14656E-14
 -1      1994 6.61776E-03 5.82415E-04-1.09010E-14
 -1      1995 6.53969E-03 5.43285E-04-1.08126E-14
 -1      1996 7.06558E-03 5.91157E-04-1.26382E-14
 -1      1997 6.91600E-03 5.87004E-04-1.20440E-14
 -1      1998 6.83660E-03 5.46394E-04-1.19480E-14
 -1      1999 7.36532E-03 6.03910E-04-1.38671E-14
 -1      2000 7.21544E-03 5.96775E-04-1.32460E-14
 -1      2001 7.13508E-03 5.54407E-04-1.31412E-14
 -1      2002 7.66485E-03 6.23029E-04-1.51548E-14
 -1      2003 7.51525E-03 6.12675E-04-1.45031E-14
 -1      2004 7.43469E-03 5.68450E-04-1.43899E-14
 -1      2005 7.96274E-03 6.48127E-04-1.65016E-14
 -1      2006 7.81417E-03 6.34913E-04-1.58211E-14
 -1      2007 7.73459E-03 5.89078E-04-1.56993E-14
 -1      2008 8.25727E-03 6.77122E-04-1.79031E-14
 -1      2009 8.11061E-03 6.62338E-04-1.71949E-14
 -1      2010 8.03355E-03 6.15679E-04-1.70657E-14
 -1      2011 8.54668E-03 7.05672E-04-1.93638E-14
 -1      2012 8.40277E-03 6.91793E-04-1.86267E-14
 -1      2013 8.32999E-03 6.45769E-04-1.84879E-14
 -1      2014 8.82964E-03 7.27050E-04-2.08857E-14
 -1      2015 8.68903E-03 7.17721E-04-2.01178E-14
 -1      2016 8.62221E-03 6.74429E-04-1.99683E-14
 -1      2017 9.10582E-03 7.32842E-04-2.24640E-14
 -1      2018 8.96851E-03 7.32406E-04-2.16662E-14
 -1      2019 8.90884E-03 6.94260E-04-2.15077E-14
 -1      2020 9.37633E-03 7.14635E-04-2.41023E-14
 -1      2021 9.24156E-03 7.27172E-04-2.32759E-14
 -1      2022 9.18953E-03 6.96294E-04-2.31059E-14
 -1      2023 9.64374E-03 6.66306E-04-2.58008E-14
 -1      2024 9.51008E-03 6.94458E-04-2.49445E-14
 -1      2025 9.46544E-03 6.71998E-04-2.47638E-14
 -1      2026 9.91150E-03 5.85981E-04-2.75668E-14
 -1      2027 9.77722E-03 6.30077E-04-2.66732E-14
 -1      2028 9.73919E-03 6.15794E-04-2.64832E-14
 -1      2029 1.01830E-02 4.76682E-04-2.94056E-14
 -1      2030 1.00465E-02 5.34623E-04-2.84773E-14
 -1      2031 1.00142E-02 5.26987E-04-2.82696E-14
 -1      2032 1.04603E-02 3.45294E-04-3.13201E-14
 -1      2033 1.03208E-02 4.13264E-04-3.03535E-14
 -1      2034 1.02932E-02 4.10017E-04-3.01292E-14
 -1      2035 1.07444E-02 2.00414E-04-3.32991E-14
 -1      2036 1.06016E-02 2.74038E-04-3.23014E-14
 -1      2037 1.05780E-02 2.72888E-04-3.20603E-14
 -1      2038 1.10345E-02 5.01358E-05-3.53392E-14
 -1      2039 1.08888E-02 1.25537E-04-3.43134E-14
 -1      2040 1.08684E-02 1.24668E-04-3.40557E-14
 -1      2041 1.13291E-02-9.94110E-05-3.74301E-14
 -1      2042 1.11814E-02-2.50036E-05-3.63773E-14
 -1      2043 1.11633E-02-2.67321E-05-3.61076E-14
 -1      2044 1.16264E-02-2.44549E-04-3.95732E-14
 -1      2045 1.14776E-02-1.72670E-04-3.84959E-14
 -1      2046 1.14610E-02-1.75774E-04-3.82108E-14
 -1      2047 1.19246E-02-3.83790E-04-4.17664E-14
 -1      2048 1.17755E-02-3.14940E-04-4.06650E-14
 -1      2049 1.17598E-02-3.19475E-04-4.03695E-14
 -1      2050 1.22225E-02-5.17234E-04-4.40135E-14
 -1      2051 1.20737E-02-4.51201E-04-4.28825E-14
 -1      2052 1.20583E-02-4.56941E-04-4.25769E-14
 -1      2053 1.25189E-02-6.45935E-04-4.63107E-14
 -1      2054 1.23709E-02-5.82105E-04-4.51562E-14
 -1      2055 1.23556E-02-5.88686E-04-4.48368E-14
 -1      2056 1.28135E-02-7.71395E-04-4.86514E-14
 -1      2057 1.26665E-02-7.08984E-04-4.74769E-14
 -1      2058 1.26511E-02-7.15996E-04-4.71441E-14
 -1      2059 1.31058E-02-8.95231E-04-5.10234E-14
 -1      2060 1.29599E-02-8.33429E-04-4.98334E-14
 -1      2061 1.29445E-02-8.40477E-04-4.94919E-14
 -1      2062 1.33961E-02-1.01897E-03-5.34180E-14
 -1      2063 1.32512E-02-9.57033E-04-5.22191E-14
 -1      2064 1.32360E-02-9.63762E-04-5.18672E-14
 -1      2065 1.36845E-02-1.14393E-03-5.58292E-14
 -1      2066 1.35405E-02-1.08123E-03-5.46209E-14
 -1      2067 1.35255E-02-1.08735E-03-5.42640E-14
 -1      2068 1.39443E-02-1.25805E-03-5.80384E-14
 -1      2069 1.38009E-02-1.19430E-03-5.68277E-14
 -1      2070 1.37860E-02-1.19969E-03-5.64654E-14
 -1      2071 1.40184E-02-1.30106E-03-5.84599E-14
 -1      2072 1.43732E-02-1.52095E-03-5.99245E-14
 -1      2073 1.43065E-02-1.48115E-03-5.96498E-14
 -1      2074 1.42399E-02-1.44086E-03-5.93739E-14
 -1      2075 1.41737E-02-1.40017E-03-5.91000E-14
 -1      2076 1.41497E-02-1.40627E-03-5.84642E-14
 -1      2077 1.40833E-02-1.34265E-03-5.87364E-14
 -1      2078 1.45043E-02-1.59776E-03-6.04631E-14
 -1      2079 1.44388E-02-1.55961E-03-6.01937E-14
 -1      2080 1.42823E-02-1.48557E-03-5.90084E-14
 -1      2081 1.46364E-02-1.67385E-03-6.10016E-14
 -1      2082 1.45706E-02-1.63606E-03-6.07347E-14
 -1      2083 1.44148E-02-1.56304E-03-5.95441E-14
 -1      2084 1.47657E-02-1.74800E-03-6.15245E-14
 -1      2085 1.47015E-02-1.71114E-03-6.12654E-14
 -1      2086 1.45467E-02-1.63924E-03-6.00765E-14
 -1      2087 1.48910E-02-1.82055E-03-6.20332E-14
 -1      2088 1.48290E-02-1.78442E-03-6.17798E-14
 -1      2089 1.46756E-02-1.71363E-03-6.05938E-14
 -1      2090 1.50111E-02-1.89212E-03-6.25193E-14
 -1      2091 1.49518E-02-1.85639E-03-6.22788E-14
 -1      2092 1.47999E-02-1.78653E-03-6.10974E-14
 -1      2093 1.51256E-02-1.96349E-03-6.29904E-14
 -1      2094 1.50691E-02-1.92774E-03-6.27570E-14
 -1      2095 1.49188E-02-1.85853E-03-6.15852E-14
 -1      2096 1.52329E-02-2.03434E-03-6.34451E-14
 -1      2097 1.51799E-02-1.99875E-03-6.32157E-14
 -1      2098 1.50309E-02-1.92980E-03-6.20544E-14
 -1      2099 1.53378E-02-2.10801E-03-6.38966E-14
 -1      2100 1.52858E-02-2.07091E-03-6.36718E-14
 -1      2101 1.51376E-02-2.00183E-03-6.25122E-14
 -1      2102 1.54403E-02-2.18397E-03-6.43419E-14
 -1      2103 1.53892E-02-2.14567E-03-6.41194E-14
 -1      2104 1.52412E-02-2.07612E-03-6.29671E-14
 -1      2105 1.55429E-02-2.26262E-03-6.47822E-14
 -1      2106 1.54914E-02-2.22298E-03-6.45628E-14
 -1      2107 1.53429E-02-2.15276E-03-6.34154E-14
 -1      2108 1.10775E-03 4.68582E-04-3.46267E-17
 -1      2109 9.65411E-04 4.34240E-04-4.64852E-18
 -1      2110 9.33206E-04 4.04801E-04-2.27005E-17
 -1      2111 1.15798E-03 4.47861E-04-9.01379E-17
 -1      2112 1.20460E-02-6.25118E-04-3.46039E-14
 -1      2113 1.22140E-02-6.90685E-04-3.49806E-14
 -1      2114 1.12123E-02-2.10567E-04-3.26605E-14
 -1      2115 1.14154E-02-3.24300E-04-3.31672E-14
 -1      2116 1.25772E-02-8.13960E-04-3.58005E-14
 -1      2117 1.26085E-02-8.31216E-04-3.58988E-14
 -1      2118 1.16434E-02-4.48920E-04-3.37541E-14
 -1      2119 1.18377E-02-5.40649E-04-3.41854E-14
 -1      2120 3.27186E-04-8.90051E-05-8.39444E-17
 -1      2121 3.29254E-04-1.02177E-04-8.40392E-17
 -1      2122 4.46283E-04-1.45144E-04-1.23314E-16
 -1      2123 4.40027E-04-1.09975E-04-1.23301E-16
 -1      2124 1.07816E-02 3.36987E-05-3.14975E-14
 -1      2125 1.09744E-02-8.11299E-05-3.20533E-14
 -1      2126 1.04001E-02 2.34147E-04-3.02616E-14
 -1      2127 1.05771E-02 1.48459E-04-3.08367E-14
 -1      2128 1.00386E-02 3.39612E-04-2.90110E-14
 -1      2129 1.01915E-02 3.07371E-04-2.95572E-14
 -1      2130 9.72046E-03 3.26636E-04-2.78899E-14
 -1      2131 9.87521E-03 3.46354E-04-2.84498E-14
 -1      2132 9.94891E-03 3.54772E-04-2.86161E-14
 -1      2133 9.32896E-03 1.89617E-04-2.68104E-14
 -1      2134 9.50277E-03 2.63930E-04-2.72420E-14
 -1      2135 8.94191E-03 1.10125E-05-2.60707E-14
 -1      2136 9.12157E-03 9.69977E-05-2.63792E-14
 -1      2137 8.57425E-03-1.61442E-04-2.54784E-14
 -1      2138 8.74867E-03-8.11383E-05-2.57264E-14
 -1      2139 8.22371E-03-3.06976E-04-2.50404E-14
 -1      2140 8.38035E-03-2.46805E-04-2.51956E-14
 -1      2141 7.97456E-03-3.91831E-04-2.48794E-14
 -1      2142 8.08816E-03-3.55077E-04-2.49606E-14
 -1      2143 8.16583E-03-3.37152E-04-2.46011E-14
 -1      2144 7.83403E-03-4.51040E-04-2.49741E-14
 -1      2145 7.87073E-03-4.31544E-04-2.49052E-14
 -1      2146 7.89167E-03-4.93420E-04-2.51563E-14
 -1      2147 7.83933E-03-4.74858E-04-2.50625E-14
 -1      2148 7.82761E-03-4.50216E-04-2.46634E-14
 -1      2149 8.18346E-03-6.01087E-04-2.57468E-14
 -1      2150 8.02506E-03-5.38840E-04-2.53999E-14
 -1      2151 8.59544E-03-8.00600E-04-2.65668E-14
 -1      2152 8.39979E-03-6.97469E-04-2.61638E-14
 -1      2153 9.01518E-03-1.06917E-03-2.75183E-14
 -1      2154 8.80679E-03-9.41497E-04-2.70969E-14
 -1      2155 9.46635E-03-1.36684E-03-2.85300E-14
 -1      2156 9.25152E-03-1.22207E-03-2.80324E-14
 -1      2157 9.90003E-03-1.65296E-03-2.97092E-14
 -1      2158 9.71476E-03-1.53006E-03-2.91642E-14
 -1      2159 1.02667E-02-1.81822E-03-3.08803E-14
 -1      2160 1.00961E-02-1.75489E-03-3.03173E-14
 -1      2161 1.06352E-02-1.83277E-03-3.21381E-14
 -1      2162 1.04761E-02-1.85050E-03-3.15942E-14
 -1      2163 1.09631E-02-1.70854E-03-3.31848E-14
 -1      2164 1.07989E-02-1.78572E-03-3.26605E-14
 -1      2165 1.07107E-02-1.82807E-03-3.25712E-14
 -1      2166 1.13938E-02-1.46757E-03-3.42063E-14
 -1      2167 1.12089E-02-1.57682E-03-3.38121E-14
 -1      2168 1.17867E-02-1.24514E-03-3.49330E-14
 -1      2169 1.15990E-02-1.35221E-03-3.45869E-14
 -1      2170 1.21639E-02-1.04911E-03-3.55812E-14
 -1      2171 1.19922E-02-1.13221E-03-3.53330E-14
 -1      2172 1.24535E-02-9.24671E-04-3.59107E-14
 -1      2173 1.23305E-02-9.75655E-04-3.57528E-14
 -1      2174 1.26023E-02-8.56646E-04-3.60898E-14
 -1      2175 1.25563E-02-8.77935E-04-3.61162E-14
 -1      2176 1.23816E-02-7.59587E-04-3.54733E-14
 -1      2177 1.24932E-02-7.90984E-04-3.57283E-14
 -1      2178 1.56176E-02-2.33169E-03-6.49707E-14
 -1      2179 1.15003E-02-4.17874E-04-3.37169E-14
 -1      2180 6.07755E-04-2.98138E-04-1.51856E-16
 -1      2181 1.19216E-02-6.18566E-04-3.47324E-14
 -1      2182 1.10542E-02-1.63721E-04-3.25168E-14
 -1      2183 6.63487E-04-2.92424E-04-1.92730E-16
 -1      2184 1.39922E-02-1.30823E-03-5.78266E-14
 -1      2185 1.25424E-02-8.22369E-04-3.62269E-14
 -1      2186 1.55683E-02-2.29650E-03-6.47301E-14
 -1      2187 1.22954E-02-7.59064E-04-3.56501E-14
 -1      2188 1.26156E-02-8.52897E-04-3.64956E-14
 -1      2189 1.25132E-02-8.93912E-04-3.64866E-14
 -1      2190 1.22433E-02-9.97943E-04-3.61104E-14
 -1      2191 1.18826E-02-1.17161E-03-3.55343E-14
 -1      2192 1.10715E-02-1.65340E-03-3.37292E-14
 -1      2193 1.03906E-02-1.85232E-03-3.13246E-14
 -1      2194 1.00247E-02-1.71159E-03-2.99993E-14
 -1      2195 9.62261E-03-1.44091E-03-2.87564E-14
 -1      2196 9.16616E-03-1.12045E-03-2.76130E-14
 -1      2197 8.72829E-03-8.32388E-04-2.65753E-14
 -1      2198 7.95097E-03-4.91101E-04-2.49899E-14
 -1      2199 7.89420E-03-4.59986E-04-2.45845E-14
 -1      2200 8.02244E-03-4.89866E-04-2.48220E-14
 -1      2201 7.91774E-03-4.11351E-04-2.45499E-14
 -1      2202 8.48106E-03-2.17195E-04-2.49561E-14
 -1      2203 8.85232E-03-4.55030E-05-2.55759E-14
 -1      2204 9.61810E-03 3.07898E-04-2.74093E-14
 -1      2205 9.70424E-03 3.39089E-04-2.75758E-14
 -1      2206 9.52179E-03 2.79104E-04-2.69348E-14
 -1      2207 1.06493E-02 8.48712E-05-3.12439E-14
 -1      2208 1.02706E-02 2.78613E-04-2.98771E-14
 -1      2209 9.22847E-03 1.41710E-04-2.63424E-14
 -1      2210 8.30492E-03-6.13586E-04-2.56402E-14
 -1      2211 1.14879E-02-1.39851E-03-3.47476E-14
 -1      2212 1.54182E-02-2.22531E-03-6.35904E-14
 -1      2213 5.47895E-04-5.53195E-05-1.62088E-16
 -1      2214 5.48921E-04-7.20435E-05-1.65910E-16
 -1      2215 5.50327E-04-8.93734E-05-1.69068E-16
 -1      2216 5.52170E-04-1.07366E-04-1.71805E-16
 -1      2217 6.65404E-04-9.55129E-05-2.26476E-16
 -1      2218 5.46528E-04 8.86205E-06-1.42464E-16
 -1      2219 5.46509E-04-6.98160E-06-1.48048E-16
 -1      2220 5.47274E-04 4.08848E-05-1.29671E-16
 -1      2221 5.46780E-04 2.48045E-05-1.36501E-16
 -1      2222 6.61491E-04 1.99383E-05-1.89871E-16
 -1      2223 5.49081E-04 7.35170E-05-1.15007E-16
 -1      2224 5.48029E-04 5.70195E-05-1.22677E-16
 -1      2225 6.62803E-04 5.78024E-05-1.72835E-16
 -1      2226 5.52443E-04 1.08999E-04-9.70496E-17
 -1      2227 5.50536E-04 9.09193E-05-1.06455E-16
 -1      2228 6.65638E-04 9.72780E-05-1.52764E-16
 -1      2229 5.58274E-04 1.48345E-04-7.52030E-17
 -1      2230 5.54984E-04 1.28113E-04-8.67362E-17
 -1      2231 6.70691E-04 1.40052E-04-1.28641E-16
 -1      2232 5.68582E-04 1.93927E-04-4.84638E-17
 -1      2233 5.62714E-04 1.70231E-04-6.26940E-17
 -1      2234 6.79268E-04 1.87605E-04-9.95975E-17
 -1      2235 5.87954E-04 2.49533E-04-1.58158E-17
 -1      2236 5.76846E-04 2.20280E-04-3.30682E-17
 -1      2237 6.94194E-04 2.42527E-04-6.44423E-17
 -1      2238 6.42040E-04 3.01321E-04 3.91668E-18
 -1      2239 6.14337E-04 2.73828E-04-7.18284E-18
 -1      2240 7.31434E-04 2.97823E-04-3.49113E-17
 -1      2241 7.88455E-04 3.49699E-04-1.28207E-17
 -1      2242 9.15052E-04-3.46350E-04-3.49249E-16
 -1      2243 1.05913E-03-3.79634E-04-4.53102E-16
 -1      2244 1.18251E-02-6.15566E-04-3.49702E-14
 -1      2245 1.20147E-02-6.90305E-04-3.53972E-14
 -1      2246 1.13616E-02-3.77132E-04-3.36781E-14
 -1      2247 1.15717E-02-4.92535E-04-3.42718E-14
 -1      2248 1.20236E-03-4.07977E-04-5.70887E-16
 -1      2249 1.34515E-03-4.31786E-04-7.02468E-16
 -1      2250 1.11685E-03-3.60442E-04-5.14684E-16
 -1      2251 1.48731E-03-4.51920E-04-8.47873E-16
 -1      2252 1.62907E-03-4.68658E-04-1.00720E-15
 -1      2253 1.40316E-03-4.07075E-04-7.76993E-16
 -1      2254 1.77047E-03-4.82669E-04-1.18007E-15
 -1      2255 1.91164E-03-4.94164E-04-1.36722E-15
 -1      2256 1.68828E-03-4.40112E-04-1.09340E-15
 -1      2257 2.05266E-03-5.03633E-04-1.56797E-15
 -1      2258 2.19357E-03-5.11249E-04-1.78309E-15
 -1      2259 1.97245E-03-4.62870E-04-1.46440E-15
 -1      2260 2.33447E-03-5.17368E-04-2.01240E-15
 -1      2261 2.47537E-03-5.22128E-04-2.25616E-15
 -1      2262 2.25610E-03-4.77962E-04-1.89073E-15
 -1      2263 2.61633E-03-5.25787E-04-2.51436E-15
 -1      2264 2.75736E-03-5.28455E-04-2.78626E-15
 -1      2265 2.53954E-03-4.87389E-04-2.37397E-15
 -1      2266 2.89851E-03-5.30315E-04-3.07234E-15
 -1      2267 3.03975E-03-5.31451E-04-3.37233E-15
 -1      2268 2.82303E-03-4.92660E-04-2.91290E-15
 -1      2269 3.18114E-03-5.31992E-04-3.68595E-15
 -1      2270 3.32266E-03-5.32000E-04-4.01475E-15
 -1      2271 3.10672E-03-4.94888E-04-3.50767E-15
 -1      2272 3.46434E-03-5.31560E-04-4.35700E-15
 -1      2273 3.60616E-03-5.30719E-04-4.71238E-15
 -1      2274 3.39073E-03-4.94876E-04-4.15832E-15
 -1      2275 3.74814E-03-5.29527E-04-5.08115E-15
 -1      2276 3.89028E-03-5.28017E-04-5.46271E-15
 -1      2277 3.67512E-03-4.93178E-04-4.86373E-15
 -1      2278 4.03259E-03-5.26215E-04-5.85633E-15
 -1      2279 4.17508E-03-5.24143E-04-6.26384E-15
 -1      2280 3.95993E-03-4.90156E-04-5.62107E-15
 -1      2281 4.31775E-03-5.21806E-04-6.68423E-15
 -1      2282 4.46060E-03-5.19220E-04-7.11738E-15
 -1      2283 4.24521E-03-4.86020E-04-6.42905E-15
 -1      2284 4.60366E-03-5.16376E-04-7.56415E-15
 -1      2285 4.74694E-03-5.13285E-04-8.02445E-15
 -1      2286 4.53100E-03-4.80872E-04-7.29005E-15
 -1      2287 4.89763E-03-5.09756E-04-8.52270E-15
 -1      2288 5.04860E-03-5.05947E-04-9.03617E-15
 -1      2289 4.82452E-03-4.74568E-04-8.22811E-15
 -1      2290 5.19265E-03-5.02036E-04-9.54084E-15
 -1      2291 5.33702E-03-4.97867E-04-1.00596E-14
 -1      2292 5.11870E-03-4.67203E-04-9.22636E-15
 -1      2293 5.48168E-03-4.93420E-04-1.05924E-14
 -1      2294 5.62674E-03-4.88723E-04-1.11404E-14
 -1      2295 5.40640E-03-4.58976E-04-1.02582E-14
 -1      2296 5.77212E-03-4.83775E-04-1.17020E-14
 -1      2297 5.91799E-03-4.78620E-04-1.22767E-14
 -1      2298 5.69486E-03-4.49754E-04-1.13477E-14
 -1      2299 6.06423E-03-4.73297E-04-1.28652E-14
 -1      2300 6.21106E-03-4.67877E-04-1.34669E-14
 -1      2301 5.98409E-03-4.39704E-04-1.24922E-14
 -1      2302 6.35829E-03-4.62475E-04-1.40802E-14
 -1      2303 6.50622E-03-4.57207E-04-1.47066E-14
 -1      2304 6.27406E-03-4.29240E-04-1.36899E-14
 -1      2305 6.65458E-03-4.52320E-04-1.53452E-14
 -1      2306 6.80377E-03-4.48005E-04-1.59949E-14
 -1      2307 6.56465E-03-4.19212E-04-1.49367E-14
 -1      2308 6.95344E-03-4.44725E-04-1.66583E-14
 -1      2309 7.10410E-03-4.42811E-04-1.73351E-14
 -1      2310 6.85565E-03-4.11182E-04-1.62333E-14
 -1      2311 7.25535E-03-4.43042E-04-1.80246E-14
 -1      2312 7.40789E-03-4.46022E-04-1.87288E-14
 -1      2313 7.14687E-03-4.07849E-04-1.75808E-14
 -1      2314 7.56138E-03-4.52943E-04-1.94475E-14
 -1      2315 7.71673E-03-4.64920E-04-2.01784E-14
 -1      2316 7.43850E-03-4.13653E-04-1.89843E-14
 -1      2317 7.87404E-03-4.83508E-04-2.09239E-14
 -1      2318 8.03452E-03-5.11019E-04-2.16821E-14
 -1      2319 7.73210E-03-4.35541E-04-2.04428E-14
 -1      2320 8.19938E-03-5.49015E-04-2.24533E-14
 -1      2321 8.36983E-03-6.01825E-04-2.32385E-14
 -1      2322 8.03272E-03-4.84389E-04-2.19545E-14
 -1      2323 8.54908E-03-6.70625E-04-2.40362E-14
 -1      2324 8.73715E-03-7.62522E-04-2.48485E-14
 -1      2325 8.35207E-03-5.77077E-04-2.35155E-14
 -1      2326 8.92956E-03-8.69538E-04-2.56352E-14
 -1      2327 9.13069E-03-1.00490E-03-2.64381E-14
 -1      2328 8.70141E-03-7.36055E-04-2.50902E-14
 -1      2329 9.38389E-03-1.18906E-03-2.73295E-14
 -1      2330 9.61370E-03-1.37529E-03-2.82112E-14
 -1      2331 9.82987E-03-1.55620E-03-2.90873E-14
 -1      2332 1.00528E-02-1.71520E-03-2.99586E-14
 -1      2333 1.03682E-02-1.86385E-03-3.12873E-14
 -1      2334 1.05922E-02-1.87947E-03-3.22519E-14
 -1      2335 1.16534E-02-1.37452E-03-3.68424E-14
 -1      2336 1.18679E-02-1.28688E-03-3.78924E-14
 -1      2337 1.20732E-02-1.22933E-03-3.89509E-14
 -1      2338 1.22631E-02-1.19443E-03-4.00184E-14
 -1      2339 1.20451E-02-1.18010E-03-3.82268E-14
 -1      2340 1.24441E-02-1.18349E-03-4.10926E-14
 -1      2341 1.26156E-02-1.18881E-03-4.21722E-14
 -1      2342 1.24093E-02-1.12937E-03-4.03554E-14
 -1      2343 1.27813E-02-1.20955E-03-4.32591E-14
 -1      2344 1.29422E-02-1.24118E-03-4.43548E-14
 -1      2345 1.27318E-02-1.15336E-03-4.25147E-14
 -1      2346 1.30998E-02-1.28206E-03-4.54574E-14
 -1      2347 1.32553E-02-1.32980E-03-4.65675E-14
 -1      2348 1.30338E-02-1.22314E-03-4.47029E-14
 -1      2349 1.34087E-02-1.38278E-03-4.76848E-14
 -1      2350 1.35611E-02-1.43980E-03-4.88087E-14
 -1      2351 1.33278E-02-1.32088E-03-4.69197E-14
 -1      2352 1.37121E-02-1.49961E-03-4.99399E-14
 -1      2353 1.38624E-02-1.56153E-03-5.10780E-14
 -1      2354 1.36194E-02-1.43520E-03-4.91666E-14
 -1      2355 1.40116E-02-1.62472E-03-5.22222E-14
 -1      2356 1.41603E-02-1.68879E-03-5.33716E-14
 -1      2357 1.39102E-02-1.55863E-03-5.14401E-14
 -1      2358 1.43081E-02-1.75322E-03-5.45276E-14
 -1      2359 1.44554E-02-1.81774E-03-5.56921E-14
 -1      2360 1.42006E-02-1.68626E-03-5.37405E-14
 -1      2361 1.46019E-02-1.88204E-03-5.68621E-14
 -1      2362 1.47479E-02-1.94592E-03-5.80351E-14
 -1      2363 1.44903E-02-1.81489E-03-5.60690E-14
 -1      2364 1.48933E-02-2.00920E-03-5.92114E-14
 -1      2365 1.50382E-02-2.07171E-03-6.03921E-14
 -1      2366 1.47792E-02-1.94244E-03-5.84196E-14
 -1      2367 1.51568E-02-2.11896E-03-6.13938E-14
 -1      2368 1.53007E-02-2.17970E-03-6.25791E-14
 -1      2369 1.52767E-02-2.14658E-03-6.26229E-14
 -1      2370 1.50415E-02-2.05311E-03-6.06047E-14
 -1      2371 2.03064E-03 5.15429E-04-6.62664E-16
 -1      2372 1.88994E-03 5.05566E-04-5.47874E-16
 -1      2373 1.74908E-03 4.93479E-04-4.45201E-16
 -1      2374 1.60795E-03 4.78969E-04-3.53748E-16
 -1      2375 1.80846E-03 4.63739E-04-5.48105E-16
 -1      2376 1.46649E-03 4.61442E-04-2.73219E-16
 -1      2377 1.32449E-03 4.40654E-04-2.03979E-16
 -1      2378 1.52429E-03 4.34969E-04-3.56445E-16
 -1      2379 2.31184E-03 5.29933E-04-9.28321E-16
 -1      2380 2.17126E-03 5.23498E-04-7.89516E-16
 -1      2381 2.09182E-03 4.83320E-04-7.86128E-16
 -1      2382 2.59315E-03 5.38964E-04-1.24208E-15
 -1      2383 2.45247E-03 5.35045E-04-1.07881E-15
 -1      2384 2.37481E-03 4.96093E-04-1.07184E-15
 -1      2385 2.87482E-03 5.43993E-04-1.60565E-15
 -1      2386 2.73394E-03 5.41913E-04-1.41792E-15
 -1      2387 2.65777E-03 5.03856E-04-1.40658E-15
 -1      2388 3.15703E-03 5.46104E-04-2.01979E-15
 -1      2389 3.01586E-03 5.45364E-04-1.80585E-15
 -1      2390 2.94091E-03 5.07960E-04-1.79084E-15
 -1      2391 3.43986E-03 5.46083E-04-2.48484E-15
 -1      2392 3.29837E-03 5.46324E-04-2.24579E-15
 -1      2393 3.22436E-03 5.09395E-04-2.22572E-15
 -1      2394 3.72335E-03 5.44486E-04-3.00252E-15
 -1      2395 3.58153E-03 5.45456E-04-2.73729E-15
 -1      2396 3.50822E-03 5.08878E-04-2.71204E-15
 -1      2397 4.00753E-03 5.41697E-04-3.57372E-15
 -1      2398 3.86536E-03 5.43222E-04-3.28124E-15
 -1      2399 3.79254E-03 5.06910E-04-3.25154E-15
 -1      2400 4.29244E-03 5.37983E-04-4.19674E-15
 -1      2401 4.14989E-03 5.39942E-04-3.87854E-15
 -1      2402 4.07734E-03 5.03836E-04-3.84285E-15
 -1      2403 4.57811E-03 5.33534E-04-4.87612E-15
 -1      2404 4.43517E-03 5.35839E-04-4.53007E-15
 -1      2405 4.36268E-03 4.99891E-04-4.48850E-15
 -1      2406 4.86462E-03 5.28518E-04-5.60904E-15
 -1      2407 4.72125E-03 5.31086E-04-5.23568E-15
 -1      2408 4.64861E-03 4.95247E-04-5.18888E-15
 -1      2409 5.15208E-03 5.23121E-04-6.40009E-15
 -1      2410 5.00823E-03 5.25854E-04-5.99739E-15
 -1      2411 4.93521E-03 4.90062E-04-5.94507E-15
 -1      2412 5.44062E-03 5.17604E-04-7.24911E-15
 -1      2413 5.29621E-03 5.20358E-04-6.81665E-15
 -1      2414 5.22258E-03 4.84520E-04-6.75749E-15
 -1      2415 5.73041E-03 5.12350E-04-8.16270E-15
 -1      2416 5.58535E-03 5.14916E-04-7.69763E-15
 -1      2417 5.51088E-03 4.78889E-04-7.63038E-15
 -1      2418 6.02163E-03 5.07924E-04-9.13968E-15
 -1      2419 5.87583E-03 5.09994E-04-8.64272E-15
 -1      2420 5.80029E-03 4.73570E-04-8.56625E-15
 -1      2421 6.31448E-03 5.05108E-04-1.01790E-14
 -1      2422 6.16784E-03 5.06261E-04-9.65237E-15
 -1      2423 6.09103E-03 4.69152E-04-9.56730E-15
 -1      2424 6.60913E-03 5.04928E-04-1.12789E-14
 -1      2425 6.46158E-03 5.04622E-04-1.07219E-14
 -1      2426 6.38340E-03 4.66452E-04-1.06284E-14
 -1      2427 6.90570E-03 5.08614E-04-1.24335E-14
 -1      2428 6.75720E-03 5.06211E-04-1.18485E-14
 -1      2429 6.67768E-03 4.66535E-04-1.17472E-14
 -1      2430 7.20418E-03 5.17478E-04-1.36466E-14
 -1      2431 7.05475E-03 5.12323E-04-1.30328E-14
 -1      2432 6.97418E-03 4.70676E-04-1.29224E-14
 -1      2433 7.50429E-03 5.32651E-04-1.49175E-14
 -1      2434 7.35411E-03 5.24223E-04-1.42757E-14
 -1      2435 7.27309E-03 4.80234E-04-1.41560E-14
 -1      2436 7.80543E-03 5.54626E-04-1.62459E-14
 -1      2437 7.65486E-03 5.42793E-04-1.55740E-14
 -1      2438 7.57438E-03 4.96372E-04-1.54475E-14
 -1      2439 8.10650E-03 5.82610E-04-1.76332E-14
 -1      2440 7.95614E-03 5.67978E-04-1.69324E-14
 -1      2441 7.87760E-03 5.19569E-04-1.67964E-14
 -1      2442 8.40590E-03 6.13763E-04-1.90745E-14
 -1      2443 8.25659E-03 5.98059E-04-1.83467E-14
 -1      2444 8.18169E-03 5.48912E-04-1.82028E-14
 -1      2445 8.70174E-03 6.42578E-04-2.05752E-14
 -1      2446 8.55441E-03 6.28911E-04-1.98173E-14
 -1      2447 8.48483E-03 5.81217E-04-1.96639E-14
 -1      2448 8.99244E-03 6.60897E-04-2.21319E-14
 -1      2449 8.84777E-03 6.53644E-04-2.13462E-14
 -1      2450 8.78478E-03 6.10329E-04-2.11822E-14
 -1      2451 9.27751E-03 6.59053E-04-2.37500E-14
 -1      2452 9.13555E-03 6.63106E-04-2.29337E-14
 -1      2453 9.07957E-03 6.27150E-04-2.27608E-14
 -1      2454 9.55824E-03 6.28285E-04-2.54278E-14
 -1      2455 9.41812E-03 6.47720E-04-2.45818E-14
 -1      2456 9.36866E-03 6.21125E-04-2.43984E-14
 -1      2457 9.83756E-03 5.63626E-04-2.71675E-14
 -1      2458 9.69769E-03 6.00289E-04-2.62903E-14
 -1      2459 9.65370E-03 5.83230E-04-2.60944E-14
 -1      2460 1.01190E-02 4.65783E-04-2.89742E-14
 -1      2461 9.97768E-03 5.18571E-04-2.80613E-14
 -1      2462 9.93819E-03 5.09319E-04-2.78525E-14
 -1      2463 1.04051E-02 3.40873E-04-3.08531E-14
 -1      2464 1.02613E-02 4.06166E-04-2.99044E-14
 -1      2465 1.02259E-02 4.01874E-04-2.96796E-14
 -1      2466 1.06968E-02 1.98140E-04-3.28001E-14
 -1      2467 1.05503E-02 2.71116E-04-3.18183E-14
 -1      2468 1.05190E-02 2.68949E-04-3.15765E-14
 -1      2469 1.09933E-02 4.70502E-05-3.48111E-14
 -1      2470 1.08446E-02 1.23113E-04-3.37985E-14
 -1      2471 1.08176E-02 1.21025E-04-3.35411E-14
 -1      2472 1.12927E-02-1.04844E-04-3.68766E-14
 -1      2473 1.11428E-02-2.91502E-05-3.58384E-14
 -1      2474 1.11198E-02-3.22309E-05-3.55682E-14
 -1      2475 1.15932E-02-2.52772E-04-3.89950E-14
 -1      2476 1.14430E-02-1.79485E-04-3.79291E-14
 -1      2477 1.14234E-02-1.83878E-04-3.76468E-14
 -1      2478 1.18934E-02-3.94557E-04-4.11664E-14
 -1      2479 1.17435E-02-3.24481E-04-4.00738E-14
 -1      2480 1.17265E-02-3.30082E-04-3.97793E-14
 -1      2481 1.21921E-02-5.29934E-04-4.33886E-14
 -1      2482 1.20430E-02-4.63010E-04-4.22717E-14
 -1      2483 1.20277E-02-4.69534E-04-4.19646E-14
 -1      2484 1.24889E-02-6.59812E-04-4.56587E-14
 -1      2485 1.23408E-02-5.95481E-04-4.45179E-14
 -1      2486 1.23265E-02-6.02589E-04-4.42000E-14
 -1      2487 1.27835E-02-7.85678E-04-4.79783E-14
 -1      2488 1.26365E-02-7.23151E-04-4.68140E-14
 -1      2489 1.26226E-02-7.30510E-04-4.64845E-14
 -1      2490 1.30760E-02-9.09194E-04-5.03305E-14
 -1      2491 1.29300E-02-8.47633E-04-4.91499E-14
 -1      2492 1.29163E-02-8.54928E-04-4.88104E-14
 -1      2493 1.33665E-02-1.03197E-03-5.27113E-14
 -1      2494 1.32215E-02-9.70586E-04-5.15178E-14
 -1      2495 1.32078E-02-9.77523E-04-5.11688E-14
 -1      2496 1.36552E-02-1.15546E-03-5.51086E-14
 -1      2497 1.35111E-02-1.09355E-03-5.39071E-14
 -1      2498 1.34973E-02-1.09986E-03-5.35524E-14
 -1      2499 1.38761E-02-1.25794E-03-5.68289E-14
 -1      2500 1.43253E-02-1.52920E-03-5.86254E-14
 -1      2501 1.42586E-02-1.49034E-03-5.83582E-14
 -1      2502 1.41927E-02-1.45168E-03-5.80946E-14
 -1      2503 1.41267E-02-1.41258E-03-5.78273E-14
 -1      2504 1.41032E-02-1.41855E-03-5.71809E-14
 -1      2505 1.40595E-02-1.37237E-03-5.75548E-14
 -1      2506 1.39927E-02-1.33176E-03-5.72802E-14
 -1      2507 1.39695E-02-1.33916E-03-5.66450E-14
 -1      2508 1.25237E-02-8.43864E-04-3.67920E-14
 -1      2509 1.25953E-02-8.50759E-04-3.68725E-14
 -1      2510 1.44572E-02-1.60549E-03-5.91512E-14
 -1      2511 1.43916E-02-1.56757E-03-5.88892E-14
 -1      2512 1.42360E-02-1.49613E-03-5.77088E-14
 -1      2513 1.45855E-02-1.67999E-03-5.96641E-14
 -1      2514 1.45218E-02-1.64294E-03-5.94092E-14
 -1      2515 1.43677E-02-1.57244E-03-5.82294E-14
 -1      2516 1.47089E-02-1.75302E-03-6.01661E-14
 -1      2517 1.46478E-02-1.71664E-03-5.99168E-14
 -1      2518 1.44955E-02-1.64688E-03-5.87388E-14
 -1      2519 1.48264E-02-1.82516E-03-6.06533E-14
 -1      2520 1.47684E-02-1.78913E-03-6.04117E-14
 -1      2521 1.46179E-02-1.71978E-03-5.92387E-14
 -1      2522 1.49361E-02-1.89599E-03-6.11180E-14
 -1      2523 1.48820E-02-1.86050E-03-6.08866E-14
 -1      2524 1.47331E-02-1.79116E-03-5.97198E-14
 -1      2525 1.50422E-02-1.96889E-03-6.15838E-14
 -1      2526 1.49897E-02-1.93225E-03-6.13511E-14
 -1      2527 1.48421E-02-1.86249E-03-6.01896E-14
 -1      2528 1.51443E-02-2.04358E-03-6.20413E-14
 -1      2529 1.50936E-02-2.00594E-03-6.18119E-14
 -1      2530 1.49464E-02-1.93543E-03-6.06559E-14
 -1      2531 1.52356E-02-2.11394E-03-6.24448E-14
 -1      2532 1.51853E-02-2.07510E-03-6.22178E-14
 -1      2533 1.50378E-02-2.00373E-03-6.10684E-14
 -1      2534 1.51187E-02-2.06750E-03-6.14288E-14
 -1      2535 5.88405E-04-2.38009E-04-1.71480E-16
 -1      2536 7.81196E-04-3.04802E-04-2.68489E-16
 -1      2537 8.40645E-04-2.93602E-04-3.16506E-16
 -1      2538 5.78919E-04-2.10241E-04-1.75383E-16
 -1      2539 1.09388E-02-1.26476E-04-3.24614E-14
 -1      2540 1.11428E-02-2.53302E-04-3.30741E-14
 -1      2541 1.26272E-02-8.62325E-04-3.70656E-14
 -1      2542 1.26259E-02-8.70042E-04-3.72622E-14
 -1      2543 1.26326E-02-8.75771E-04-3.76368E-14
 -1      2544 1.25597E-02-8.87539E-04-3.71012E-14
 -1      2545 1.24576E-02-9.13902E-04-3.68993E-14
 -1      2546 8.39774E-03-2.44961E-04-2.43331E-14
 -1      2547 8.57203E-03-1.73264E-04-2.46071E-14
 -1      2548 1.05243E-02 1.41716E-04-3.09407E-14
 -1      2549 1.06983E-02 2.89077E-05-3.16030E-14
 -1      2550 5.46720E-04-2.29077E-05-1.53035E-16
 -1      2551 5.47173E-04-3.89551E-05-1.57806E-16
 -1      2552 6.62658E-04-5.58271E-05-2.16610E-16
 -1      2553 6.61440E-04-1.77069E-05-2.04372E-16
 -1      2554 1.01803E-02 3.10067E-04-2.95494E-14
 -1      2555 1.03473E-02 2.36545E-04-3.02540E-14
 -1      2556 9.12726E-03 9.47375E-05-2.57799E-14
 -1      2557 9.29958E-03 1.85162E-04-2.62013E-14
 -1      2558 9.87578E-03 3.64826E-04-2.82027E-14
 -1      2559 9.99954E-03 3.56728E-04-2.87597E-14
 -1      2560 8.40996E-03-6.25275E-04-2.54902E-14
 -1      2561 8.21013E-03-5.45947E-04-2.50844E-14
 -1      2562 8.77193E-03-8.46826E-05-2.50566E-14
 -1      2563 8.94205E-03 7.60029E-07-2.53934E-14
 -1      2564 8.08034E-03-3.53177E-04-2.39743E-14
 -1      2565 8.19902E-03-3.16238E-04-2.40489E-14
 -1      2566 7.85876E-03-4.12762E-04-2.40306E-14
 -1      2567 7.95404E-03-3.92173E-04-2.40035E-14
 -1      2568 7.97549E-03-3.60092E-04-2.34572E-14
 -1      2569 7.82591E-03-4.38456E-04-2.43415E-14
 -1      2570 7.82037E-03-4.32968E-04-2.42553E-14
 -1      2571 1.15913E-02-1.33167E-03-3.54263E-14
 -1      2572 1.14180E-02-1.44320E-03-3.50383E-14
 -1      2573 8.88270E-03-8.90753E-04-2.66649E-14
 -1      2574 8.67826E-03-7.65508E-04-2.61424E-14
 -1      2575 9.40602E-03-1.24180E-03-2.78908E-14
 -1      2576 9.19995E-03-1.09351E-03-2.73797E-14
 -1      2577 1.07159E-02-1.84608E-03-3.27788E-14
 -1      2578 1.11903E-02-1.58659E-03-3.43695E-14
 -1      2579 1.09861E-02-1.71630E-03-3.37316E-14
 -1      2580 1.19669E-02-1.12056E-03-3.61699E-14
 -1      2581 1.17776E-02-1.22199E-03-3.57641E-14
 -1      2582 1.23311E-02-9.59810E-04-3.67683E-14
 -1      2583 1.21806E-02-1.02008E-03-3.65962E-14
 -1      2584 1.22011E-02-7.58411E-04-3.58935E-14
 -1      2585 1.23626E-02-8.07016E-04-3.63954E-14
 -1      2586 1.21182E-02-7.47464E-04-3.61363E-14
 -1      2587 1.38627E-02-1.26315E-03-5.64673E-14
 -1      2588 6.70277E-04-1.38008E-04-2.33388E-16
 -1      2589 5.54604E-04-1.26282E-04-1.73703E-16
 -1      2590 5.57772E-04-1.46284E-04-1.74868E-16
 -1      2591 1.08085E-02-5.48377E-05-3.21513E-14
 -1      2592 9.02456E-04 3.77931E-04-3.69577E-17
 -1      2593 8.73348E-04 3.51552E-04-4.96429E-17
 -1      2594 1.01607E-03 4.01751E-04-6.80472E-17
 -1      2595 1.16966E-02-5.70376E-04-3.49309E-14
 -1      2596 1.37718E-02-1.23016E-03-5.55617E-14
 -1      2597 9.13975E-03-1.01838E-03-2.67563E-14
 -1      2598 1.02042E-02-1.80694E-03-3.05736E-14
 -1      2599 1.09467E-02-1.75596E-03-3.37745E-14
 -1      2600 1.24131E-02-9.41863E-04-3.73829E-14
 -1      2601 1.24652E-02-8.45300E-04-3.70396E-14
 -1      2602 1.25481E-02-8.70970E-04-3.76899E-14
 -1      2603 1.24017E-02-8.42100E-04-3.72856E-14
 -1      2604 5.71717E-04-1.85365E-04-1.77308E-16
 -1      2605 8.27326E-03-2.65335E-04-2.37039E-14
 -1      2606 1.04164E-02 1.90572E-04-3.06058E-14
 -1      2607 1.22672E-03 4.32415E-04-1.51653E-16
 -1      2608 1.11396E-03 4.15380E-04-1.05805E-16
 -1      2609 1.08590E-03 3.89661E-04-1.20319E-16
 -1      2610 1.28311E-03 4.09628E-04-2.17898E-16
 -1      2611 1.20913E-02-1.07070E-03-3.68256E-14
 -1      2612 1.26559E-02-8.97212E-04-3.82458E-14
 -1      2613 1.26144E-02-8.86602E-04-3.76721E-14
 -1      2614 1.25916E-02-9.05437E-04-3.80857E-14
 -1      2615 8.65321E-03-1.18187E-04-2.44254E-14
 -1      2616 1.17055E-02-1.27586E-03-3.60565E-14
 -1      2617 7.82239E-03-4.06489E-04-2.37114E-14
 -1      2618 8.54126E-03-6.73031E-04-2.55776E-14
 -1      2619 8.41520E-03-6.03180E-04-2.50186E-14
 -1      2620 8.66706E-03-7.28753E-04-2.56618E-14
 -1      2621 9.77535E-03 3.60326E-04-2.77149E-14
 -1      2622 8.10428E-03-4.96723E-04-2.46761E-14
 -1      2623 8.01298E-03-4.61790E-04-2.42712E-14
 -1      2624 8.18330E-03-5.10415E-04-2.45278E-14
 -1      2625 1.14970E-02-1.44616E-03-3.61158E-14
 -1      2626 1.16918E-02-1.30692E-03-3.64418E-14
 -1      2627 9.40423E-03 2.41905E-04-2.63599E-14
 -1      2628 9.48762E-03 2.89745E-04-2.65182E-14
 -1      2629 9.28747E-03 2.05291E-04-2.57916E-14
 -1      2630 9.02132E-03 5.73559E-05-2.52541E-14
 -1      2631 1.12413E-02-3.28197E-04-3.36225E-14
 -1      2632 9.61809E-03-1.40726E-03-2.85157E-14
 -1      2633 1.00838E-02 3.35499E-04-2.91255E-14
 -1      2634 7.84693E-03-4.34865E-04-2.41757E-14
 -1      2635 7.81227E-03-4.16635E-04-2.37699E-14
 -1      2636 7.88259E-03-4.30374E-04-2.40085E-14
 -1      2637 1.13194E-02-1.52198E-03-3.50410E-14
 -1      2638 1.10707E-02-1.70018E-03-3.44125E-14
 -1      2639 7.80359E-04 7.73470E-05-2.21706E-16
 -1      2640 7.79110E-04 5.54831E-05-2.33117E-16
 -1      2641 7.78273E-04 3.35683E-05-2.43729E-16
 -1      2642 7.77855E-04 1.19013E-05-2.53730E-16
 -1      2643 8.96708E-04 4.96847E-05-3.03861E-16
 -1      2644 7.91611E-04 1.73144E-04-1.64202E-16
 -1      2645 7.87631E-04 1.47734E-04-1.80642E-16
 -1      2646 8.03380E-04 2.28350E-04-1.27096E-16
 -1      2647 7.96827E-04 1.99951E-04-1.46733E-16
 -1      2648 9.14908E-04 2.07809E-04-2.03966E-16
 -1      2649 8.45661E-04 3.26127E-04-6.10812E-17
 -1      2650 8.19513E-04 3.01552E-04-7.14354E-17
 -1      2651 9.59829E-04 3.50388E-04-9.44205E-17
 -1      2652 1.06782E-02 1.86833E-05-3.18222E-14
 -1      2653 1.08929E-02-1.24156E-04-3.26848E-14
 -1      2654 1.37590E-02-1.23717E-03-5.51678E-14
 -1      2655 1.36281E-02-1.16877E-03-5.43589E-14
 -1      2656 1.34840E-02-1.10774E-03-5.31637E-14
 -1      2657 1.32006E-03-3.62628E-04-7.07713E-16
 -1      2658 1.46328E-03-3.81533E-04-8.51736E-16
 -1      2659 1.60632E-03-3.97517E-04-1.00870E-15
 -1      2660 1.74926E-03-4.10810E-04-1.17927E-15
 -1      2661 1.52496E-03-3.55167E-04-9.26180E-16
 -1      2662 1.89203E-03-4.21876E-04-1.36338E-15
 -1      2663 2.03469E-03-4.30901E-04-1.56089E-15
 -1      2664 1.81166E-03-3.80841E-04-1.26483E-15
 -1      2665 2.17725E-03-4.38254E-04-1.77268E-15
 -1      2666 2.31972E-03-4.44085E-04-1.99794E-15
 -1      2667 2.09813E-03-3.98366E-04-1.65719E-15
 -1      2668 2.46215E-03-4.48678E-04-2.23701E-15
 -1      2669 2.60454E-03-4.52150E-04-2.49032E-15
 -1      2670 2.38434E-03-4.09729E-04-2.10381E-15
 -1      2671 2.74693E-03-4.54711E-04-2.75757E-15
 -1      2672 2.88930E-03-4.56451E-04-3.03837E-15
 -1      2673 2.67032E-03-4.16510E-04-2.60513E-15
 -1      2674 3.03170E-03-4.57524E-04-3.33276E-15
 -1      2675 3.17411E-03-4.57995E-04-3.64105E-15
 -1      2676 2.95616E-03-4.19920E-04-3.16176E-15
 -1      2677 3.31657E-03-4.57972E-04-3.96344E-15
 -1      2678 3.45905E-03-4.57502E-04-4.30045E-15
 -1      2679 3.24191E-03-4.20853E-04-3.77309E-15
 -1      2680 3.60160E-03-4.56654E-04-4.64959E-15
 -1      2681 3.74418E-03-4.55463E-04-5.01263E-15
 -1      2682 3.52763E-03-4.19949E-04-4.43916E-15
 -1      2683 3.88683E-03-4.53970E-04-5.38880E-15
 -1      2684 4.02954E-03-4.52196E-04-5.77615E-15
 -1      2685 3.81335E-03-4.17642E-04-5.15861E-15
 -1      2686 4.17231E-03-4.50162E-04-6.17734E-15
 -1      2687 4.31514E-03-4.47880E-04-6.59173E-15
 -1      2688 4.09910E-03-4.14203E-04-5.92969E-15
 -1      2689 4.45804E-03-4.45356E-04-7.01953E-15
 -1      2690 4.60102E-03-4.42597E-04-7.46042E-15
 -1      2691 4.38487E-03-4.09787E-04-6.75187E-15
 -1      2692 4.75121E-03-4.39442E-04-7.93751E-15
 -1      2693 4.90149E-03-4.36027E-04-8.43053E-15
 -1      2694 4.67780E-03-4.04320E-04-7.65027E-15
 -1      2695 5.04467E-03-4.32527E-04-8.91451E-15
 -1      2696 5.18793E-03-4.28788E-04-9.41318E-15
 -1      2697 4.97069E-03-3.97921E-04-8.60664E-15
 -1      2698 5.33122E-03-4.24811E-04-9.92666E-15
 -1      2699 5.47459E-03-4.20600E-04-1.04542E-14
 -1      2700 5.25630E-03-3.90796E-04-9.59793E-15
 -1      2701 5.61795E-03-4.16177E-04-1.09954E-14
 -1      2702 5.76136E-03-4.11551E-04-1.15514E-14
 -1      2703 5.54159E-03-3.82852E-04-1.06471E-14
 -1      2704 5.90469E-03-4.06782E-04-1.21222E-14
 -1      2705 6.04803E-03-4.01890E-04-1.27051E-14
 -1      2706 5.82627E-03-3.74249E-04-1.17540E-14
 -1      2707 6.19117E-03-3.96999E-04-1.33014E-14
 -1      2708 6.33424E-03-3.92149E-04-1.39102E-14
 -1      2709 6.10988E-03-3.65337E-04-1.29156E-14
 -1      2710 6.47694E-03-3.87567E-04-1.45313E-14
 -1      2711 6.61944E-03-3.83322E-04-1.51643E-14
 -1      2712 6.39172E-03-3.56782E-04-1.41286E-14
 -1      2713 6.76135E-03-3.79802E-04-1.58110E-14
 -1      2714 6.90290E-03-3.77120E-04-1.64696E-14
 -1      2715 6.67082E-03-3.49725E-04-1.53903E-14
 -1      2716 7.04360E-03-3.75891E-04-1.71415E-14
 -1      2717 7.18382E-03-3.76314E-04-1.78268E-14
 -1      2718 6.94589E-03-3.45988E-04-1.67041E-14
 -1      2719 7.32301E-03-3.79273E-04-1.85255E-14
 -1      2720 7.46183E-03-3.85176E-04-1.92392E-14
 -1      2721 7.21549E-03-3.48297E-04-1.80703E-14
 -1      2722 7.59980E-03-3.95163E-04-1.99647E-14
 -1      2723 7.73817E-03-4.10037E-04-2.07040E-14
 -1      2724 7.47853E-03-3.60518E-04-1.94903E-14
 -1      2725 7.87675E-03-4.30930E-04-2.14577E-14
 -1      2726 8.01807E-03-4.60260E-04-2.22233E-14
 -1      2727 7.73543E-03-3.87536E-04-2.09643E-14
 -1      2728 8.16267E-03-4.99169E-04-2.29993E-14
 -1      2729 8.31475E-03-5.52543E-04-2.37882E-14
 -1      2730 7.99109E-03-4.37518E-04-2.24883E-14
 -1      2731 8.53446E-03-6.48114E-04-2.47091E-14
 -1      2732 8.70912E-03-7.44018E-04-2.54888E-14
 -1      2733 1.12665E-02-1.57346E-03-3.50854E-14
 -1      2734 7.88812E-04-2.52528E-04-2.93534E-16
 -1      2735 9.19983E-04-2.88287E-04-3.77682E-16
 -1      2736 1.23942E-02-1.07501E-03-3.96233E-14
 -1      2737 1.25489E-02-1.07940E-03-4.06948E-14
 -1      2738 1.26954E-02-1.09952E-03-4.17725E-14
 -1      2739 1.28378E-02-1.12931E-03-4.28574E-14
 -1      2740 1.26715E-02-1.04635E-03-4.10332E-14
 -1      2741 1.29771E-02-1.16783E-03-4.39497E-14
 -1      2742 1.31160E-02-1.21268E-03-4.50502E-14
 -1      2743 1.29293E-02-1.11544E-03-4.32003E-14
 -1      2744 1.32542E-02-1.26268E-03-4.61573E-14
 -1      2745 1.33932E-02-1.31686E-03-4.72723E-14
 -1      2746 1.31872E-02-1.20808E-03-4.53970E-14
 -1      2747 1.35324E-02-1.37406E-03-4.83939E-14
 -1      2748 1.36726E-02-1.43379E-03-4.95222E-14
 -1      2749 1.34507E-02-1.31626E-03-4.76240E-14
 -1      2750 1.38133E-02-1.49513E-03-5.06582E-14
 -1      2751 1.39547E-02-1.55783E-03-5.18024E-14
 -1      2752 1.37205E-02-1.43440E-03-4.98806E-14
 -1      2753 1.40965E-02-1.62121E-03-5.29545E-14
 -1      2754 1.42388E-02-1.68511E-03-5.41127E-14
 -1      2755 1.39956E-02-1.55827E-03-5.21694E-14
 -1      2756 1.43813E-02-1.74907E-03-5.52764E-14
 -1      2757 1.45241E-02-1.81298E-03-5.64484E-14
 -1      2758 1.42747E-02-1.68476E-03-5.44874E-14
 -1      2759 1.46669E-02-1.87652E-03-5.76251E-14
 -1      2760 1.48099E-02-1.93959E-03-5.88071E-14
 -1      2761 1.45564E-02-1.81160E-03-5.68303E-14
 -1      2762 1.49057E-02-1.98016E-03-5.96128E-14
 -1      2763 1.50231E-02-2.02785E-03-6.06195E-14
 -1      2764 1.49832E-02-1.99572E-03-6.04362E-14
 -1      2765 1.47930E-02-1.91533E-03-5.88177E-14
 -1      2766 1.86949E-03 4.33265E-04-6.55373E-16
 -1      2767 1.72689E-03 4.21701E-04-5.44256E-16
 -1      2768 2.15428E-03 4.50561E-04-9.14064E-16
 -1      2769 2.01194E-03 4.42827E-04-7.78606E-16
 -1      2770 1.93189E-03 4.02173E-04-7.67683E-16
 -1      2771 1.58414E-03 4.07695E-04-4.44089E-16
 -1      2772 1.44117E-03 3.91036E-04-3.55171E-16
 -1      2773 1.64557E-03 3.79686E-04-5.36260E-16
 -1      2774 2.72311E-03 4.68277E-04-1.57510E-15
 -1      2775 2.58094E-03 4.65479E-04-1.39107E-15
 -1      2776 3.00750E-03 4.71541E-04-1.98044E-15
 -1      2777 2.86530E-03 4.70270E-04-1.77157E-15
 -1      2778 2.78913E-03 4.32323E-04-1.74829E-15
 -1      2779 3.29202E-03 4.72382E-04-2.43647E-15
 -1      2780 3.14974E-03 4.72225E-04-2.20216E-15
 -1      2781 3.07458E-03 4.34822E-04-2.17494E-15
 -1      2782 3.57676E-03 4.71443E-04-2.94416E-15
 -1      2783 3.43437E-03 4.72106E-04-2.68358E-15
 -1      2784 3.36002E-03 4.35138E-04-2.65170E-15
 -1      2785 3.86176E-03 4.69172E-04-3.50443E-15
 -1      2786 3.71923E-03 4.70454E-04-3.21775E-15
 -1      2787 3.64550E-03 4.33843E-04-3.18053E-15
 -1      2788 4.14707E-03 4.65875E-04-4.11669E-15
 -1      2789 4.00438E-03 4.67639E-04-3.80391E-15
 -1      2790 3.93106E-03 4.31331E-04-3.76107E-15
 -1      2791 4.43273E-03 4.61756E-04-4.78458E-15
 -1      2792 4.28985E-03 4.63909E-04-4.44371E-15
 -1      2793 4.21673E-03 4.27866E-04-4.39519E-15
 -1      2794 4.71879E-03 4.56969E-04-5.50571E-15
 -1      2795 4.57570E-03 4.59438E-04-5.13813E-15
 -1      2796 4.50258E-03 4.23626E-04-5.08403E-15
 -1      2797 5.00534E-03 4.51659E-04-6.28452E-15
 -1      2798 4.86200E-03 4.54371E-04-5.88799E-15
 -1      2799 4.78864E-03 4.18743E-04-5.82774E-15
 -1      2800 5.29250E-03 4.46006E-04-7.11903E-15
 -1      2801 5.14883E-03 4.48862E-04-6.69426E-15
 -1      2802 5.07502E-03 4.13346E-04-6.62762E-15
 -1      2803 5.58042E-03 4.40281E-04-8.01591E-15
 -1      2804 5.43635E-03 4.43133E-04-7.55963E-15
 -1      2805 5.36182E-03 4.07609E-04-7.48574E-15
 -1      2806 5.86933E-03 4.34890E-04-8.97539E-15
 -1      2807 5.72473E-03 4.37513E-04-8.48814E-15
 -1      2808 5.64925E-03 4.01793E-04-8.40606E-15
 -1      2809 6.15953E-03 4.30437E-04-9.99754E-15
 -1      2810 6.01425E-03 4.32502E-04-9.47869E-15
 -1      2811 5.93756E-03 3.96305E-04-9.38811E-15
 -1      2812 6.45140E-03 4.27759E-04-1.10797E-14
 -1      2813 6.30523E-03 4.28815E-04-1.05310E-14
 -1      2814 6.22714E-03 3.91747E-04-1.04322E-14
 -1      2815 6.74539E-03 4.27951E-04-1.22175E-14
 -1      2816 6.59811E-03 4.27416E-04-1.16417E-14
 -1      2817 6.51851E-03 3.88964E-04-1.15334E-14
 -1      2818 7.04202E-03 4.32334E-04-1.34149E-14
 -1      2819 6.89337E-03 4.29523E-04-1.28098E-14
 -1      2820 6.81231E-03 3.89074E-04-1.26930E-14
 -1      2821 7.34175E-03 4.42333E-04-1.46694E-14
 -1      2822 7.19152E-03 4.36533E-04-1.40347E-14
 -1      2823 7.10931E-03 3.93456E-04-1.39109E-14
 -1      2824 7.64478E-03 4.59199E-04-1.59805E-14
 -1      2825 7.49291E-03 4.49833E-04-1.53176E-14
 -1      2826 7.41025E-03 4.03640E-04-1.51837E-14
 -1      2827 7.95083E-03 4.83484E-04-1.73489E-14
 -1      2828 7.79755E-03 4.70410E-04-1.66577E-14
 -1      2829 7.71560E-03 4.21041E-04-1.65167E-14
 -1      2830 8.25876E-03 5.14246E-04-1.87736E-14
 -1      2831 8.10475E-03 4.98191E-04-1.80539E-14
 -1      2832 8.02517E-03 4.46399E-04-1.79033E-14
 -1      2833 8.56643E-03 5.48023E-04-2.02556E-14
 -1      2834 8.41286E-03 5.31121E-04-1.95078E-14
 -1      2835 8.33766E-03 4.78852E-04-1.93476E-14
 -1      2836 8.87098E-03 5.77895E-04-2.17918E-14
 -1      2837 8.71929E-03 5.64065E-04-2.10166E-14
 -1      2838 8.65037E-03 5.14622E-04-2.08468E-14
 -1      2839 9.16994E-03 5.93551E-04-2.33903E-14
 -1      2840 9.02120E-03 5.88305E-04-2.25843E-14
 -1      2841 8.95970E-03 5.45797E-04-2.24042E-14
 -1      2842 9.46275E-03 5.83195E-04-2.50462E-14
 -1      2843 9.31691E-03 5.92382E-04-2.42105E-14
 -1      2844 9.26263E-03 5.60394E-04-2.40219E-14
 -1      2845 9.75169E-03 5.37400E-04-2.67611E-14
 -1      2846 9.60727E-03 5.65121E-04-2.58961E-14
 -1      2847 9.55884E-03 5.45016E-04-2.56954E-14
 -1      2848 1.00411E-02 4.53127E-04-2.85394E-14
 -1      2849 9.89589E-03 4.99914E-04-2.76427E-14
 -1      2850 9.85165E-03 4.89954E-04-2.74292E-14
 -1      2851 1.03352E-02 3.35193E-04-3.03856E-14
 -1      2852 1.01873E-02 3.97738E-04-2.94543E-14
 -1      2853 1.01465E-02 3.93943E-04-2.92275E-14
 -1      2854 1.06355E-02 1.94004E-04-3.23016E-14
 -1      2855 1.04845E-02 2.66693E-04-3.13359E-14
 -1      2856 1.04475E-02 2.64848E-04-3.10928E-14
 -1      2857 1.09408E-02 4.12856E-05-3.42821E-14
 -1      2858 1.07877E-02 1.18367E-04-3.32839E-14
 -1      2859 1.07554E-02 1.15646E-04-3.30288E-14
 -1      2860 1.12486E-02-1.13348E-04-3.63232E-14
 -1      2861 1.10947E-02-3.62599E-05-3.52952E-14
 -1      2862 1.10675E-02-4.09387E-05-3.50244E-14
 -1      2863 1.15560E-02-2.63911E-04-3.84162E-14
 -1      2864 1.14026E-02-1.89365E-04-3.73630E-14
 -1      2865 1.13803E-02-1.95856E-04-3.70791E-14
 -1      2866 1.18611E-02-4.07706E-04-4.05634E-14
 -1      2867 1.17090E-02-3.36702E-04-3.94838E-14
 -1      2868 1.16908E-02-3.44396E-04-3.91875E-14
 -1      2869 1.21629E-02-5.44367E-04-4.27640E-14
 -1      2870 1.20125E-02-4.76875E-04-4.16574E-14
 -1      2871 1.19971E-02-4.85152E-04-4.13490E-14
 -1      2872 1.24613E-02-6.74853E-04-4.50121E-14
 -1      2873 1.23126E-02-6.10284E-04-4.38818E-14
 -1      2874 1.22990E-02-6.18685E-04-4.35631E-14
 -1      2875 1.27567E-02-8.00721E-04-4.73081E-14
 -1      2876 1.26094E-02-7.38254E-04-4.61543E-14
 -1      2877 1.25967E-02-7.46479E-04-4.58262E-14
 -1      2878 1.30493E-02-9.23690E-04-4.96399E-14
 -1      2879 1.29033E-02-8.62463E-04-4.84705E-14
 -1      2880 1.28909E-02-8.70299E-04-4.81301E-14
 -1      2881 1.33396E-02-1.04617E-03-5.19893E-14
 -1      2882 1.31946E-02-9.85394E-04-5.08025E-14
 -1      2883 1.31823E-02-9.92684E-04-5.04540E-14
 -1      2884 1.34715E-02-1.11505E-03-5.27907E-14
 -1      2885 1.40132E-02-1.38577E-03-5.62683E-14
 -1      2886 1.39467E-02-1.34658E-03-5.60039E-14
 -1      2887 1.42785E-02-1.53998E-03-5.73109E-14
 -1      2888 1.42132E-02-1.50212E-03-5.70541E-14
 -1      2889 1.38265E-02-1.27814E-03-5.54390E-14
 -1      2890 1.20377E-02-7.32373E-04-3.64227E-14
 -1      2891 1.22060E-02-7.90152E-04-3.69291E-14
 -1      2892 1.41472E-02-1.46391E-03-5.67951E-14
 -1      2893 1.40803E-02-1.42500E-03-5.65306E-14
 -1      2894 1.39243E-02-1.35413E-03-5.53601E-14
 -1      2895 1.40584E-02-1.43211E-03-5.58819E-14
 -1      2896 1.45272E-02-1.68673E-03-5.83147E-14
 -1      2897 1.44673E-02-1.65062E-03-5.80681E-14
 -1      2898 1.46400E-02-1.75708E-03-5.87902E-14
 -1      2899 1.45844E-02-1.72195E-03-5.85543E-14
 -1      2900 1.44358E-02-1.65308E-03-5.73921E-14
 -1      2901 1.47481E-02-1.82866E-03-5.92663E-14
 -1      2902 1.46949E-02-1.79277E-03-5.90297E-14
 -1      2903 1.45480E-02-1.72336E-03-5.78727E-14
 -1      2904 1.48505E-02-1.90146E-03-5.97347E-14
 -1      2905 1.47999E-02-1.86481E-03-5.95008E-14
 -1      2906 1.46539E-02-1.79439E-03-5.83490E-14
 -1      2907 1.15726E-02-5.22376E-04-3.49231E-14
 -1      2908 1.18046E-02-6.33533E-04-3.56301E-14
 -1      2909 1.26387E-02-8.93504E-04-3.82422E-14
 -1      2910 1.26714E-02-8.98117E-04-3.84408E-14
 -1      2911 9.11279E-03-1.01496E-03-2.69345E-14
 -1      2912 8.56386E-03-1.27190E-04-2.38660E-14
 -1      2913 8.74619E-03-5.22973E-05-2.43057E-14
 -1      2914 1.18523E-02-1.20912E-03-3.67854E-14
 -1      2915 1.44058E-02-1.61420E-03-5.78176E-14
 -1      2916 1.43428E-02-1.57731E-03-5.75664E-14
 -1      2917 1.43164E-02-1.58177E-03-5.69012E-14
 -1      2918 1.20503E-02-1.13596E-03-3.76700E-14
 -1      2919 1.22333E-02-1.09621E-03-3.87271E-14
 -1      2920 1.23998E-02-1.02845E-03-3.90620E-14
 -1      2921 1.20722E-02-1.09750E-03-3.72824E-14
 -1      2922 8.16441E-03-2.73380E-04-2.31415E-14
 -1      2923 8.34029E-03-2.13749E-04-2.34167E-14
 -1      2924 1.04819E-03-3.15821E-04-4.72116E-16
 -1      2925 1.19145E-03-3.41420E-04-5.90443E-16
 -1      2926 1.25304E-03-3.19829E-04-6.54452E-16
 -1      2927 9.96728E-04-2.74840E-04-4.41297E-16
 -1      2928 8.91105E-03 2.65854E-05-2.46800E-14
 -1      2929 9.07004E-03 1.10006E-04-2.50584E-14
 -1      2930 8.80096E-03 8.89331E-06-2.41131E-14
 -1      2931 1.11563E-02-2.88168E-04-3.36233E-14
 -1      2932 1.13495E-02-4.02597E-04-3.42335E-14
 -1      2933 1.03340E-02 2.28720E-04-3.03102E-14
 -1      2934 1.04861E-02 1.39603E-04-3.09981E-14
 -1      2935 7.87976E-03-3.56947E-04-2.29314E-14
 -1      2936 7.97819E-03-3.27500E-04-2.28990E-14
 -1      2937 7.84511E-04 1.23478E-04-1.95305E-16
 -1      2938 7.82146E-04 1.00040E-04-2.09034E-16
 -1      2939 8.99791E-04 9.94533E-05-2.75767E-16
 -1      2940 9.05478E-04 1.51593E-04-2.42672E-16
 -1      2941 9.64109E-03 3.45046E-04-2.70428E-14
 -1      2942 9.78760E-03 3.73107E-04-2.76582E-14
 -1      2943 1.24962E-02-9.35523E-04-3.80599E-14
 -1      2944 1.23861E-02-9.70738E-04-3.79291E-14
 -1      2945 7.81884E-04-9.79784E-05-2.92260E-16
 -1      2946 7.84175E-04-1.21332E-04-2.97600E-16
 -1      2947 2.43875E-03 4.61691E-04-1.21959E-15
 -1      2948 2.29655E-03 4.56802E-04-1.06093E-15
 -1      2949 2.21787E-03 4.17270E-04-1.04581E-15
 -1      2950 2.50359E-03 4.26837E-04-1.37219E-15
 -1      2951 7.78321E-03-3.96519E-04-2.33519E-14
 -1      2952 7.80749E-03-3.83996E-04-2.31298E-14
 -1      2953 6.52870E-04-1.88441E-04-2.21340E-16
 -1      2954 1.00061E-02 3.55150E-04-2.87146E-14
 -1      2955 1.01627E-02 3.06160E-04-2.95059E-14
 -1      2956 1.02392E-02 2.69567E-04-2.98887E-14
 -1      2957 8.86068E-03-8.35051E-04-2.60552E-14
 -1      2958 8.95694E-04 1.01463E-06-3.28066E-16
 -1      2959 7.77826E-04-9.71869E-06-2.62811E-16
 -1      2960 7.78187E-04-3.13693E-05-2.71362E-16
 -1      2961 8.07474E-04 2.68343E-04-9.52201E-17
 -1      2962 1.05847E-02 7.43010E-05-3.15189E-14
 -1      2963 1.37359E-02-1.24586E-03-5.45339E-14
 -1      2964 8.31285E-03-5.47529E-04-2.41757E-14
 -1      2965 9.74507E-03 3.81354E-04-2.73453E-14
 -1      2966 9.87279E-03 3.76645E-04-2.80273E-14
 -1      2967 9.95047E-03 3.66898E-04-2.83953E-14
 -1      2968 1.22595E-02-1.01801E-03-3.77104E-14
 -1      2969 7.77418E-03-3.90698E-04-2.31879E-14
 -1      2970 1.41897E-02-1.50798E-03-5.63962E-14
 -1      2971 7.87203E-04-1.45475E-04-3.02113E-16
 -1      2972 7.91035E-04-1.70632E-04-3.05488E-16
 -1      2973 9.05014E-04-1.49054E-04-3.79145E-16
 -1      2974 7.70010E-04-2.02427E-04-2.90363E-16
 -1      2975 1.23340E-02-8.34196E-04-3.75750E-14
 -1      2976 1.24473E-02-8.67207E-04-3.82304E-14
 -1      2977 1.22740E-02-8.20178E-04-3.78668E-14
 -1      2978 1.19249E-02-6.88790E-04-3.64152E-14
 -1      2979 1.26128E-02-8.97758E-04-3.84926E-14
 -1      2980 1.14810E-02-4.76050E-04-3.49243E-14
 -1      2981 1.49371E-02-1.96371E-03-6.01770E-14
 -1      2982 1.48969E-02-1.93262E-03-5.99943E-14
 -1      2983 1.47509E-02-1.86111E-03-5.88451E-14
 -1      2984 1.48425E-02-1.92374E-03-5.93655E-14
 -1      2985 1.35902E-03 3.47507E-04-3.50319E-16
 -1      2986 1.29807E-03 3.71183E-04-2.77461E-16
 -1      2987 1.27259E-02-9.30708E-04-3.94663E-14
 -1      2988 1.26945E-02-9.12241E-04-3.88545E-14
 -1      2989 1.27061E-02-9.27004E-04-3.92703E-14
 -1      2990 1.19869E-03 3.63564E-04-2.19971E-16
 -1      2991 8.42776E-03-1.54477E-04-2.32997E-14
 -1      2992 8.50394E-03-9.13983E-05-2.31781E-14
 -1      2993 8.29885E-03-1.68600E-04-2.27382E-14
 -1      2994 9.16686E-03 1.71170E-04-2.52088E-14
 -1      2995 9.24943E-03 2.27590E-04-2.53585E-14
 -1      2996 9.04649E-03 1.44160E-04-2.46315E-14
 -1      2997 9.25298E-04 2.80316E-04-1.45446E-16
 -1      2998 1.10141E-02-2.01033E-04-3.32858E-14
 -1      2999 9.52366E-03 3.22775E-04-2.64619E-14
 -1      3000 7.78958E-04-5.31573E-05-2.79047E-16
 -1      3001 7.80164E-04-7.53497E-05-2.86094E-16
 -1      3002 8.99514E-04-9.70945E-05-3.65932E-16
 -1      3003 8.96583E-04-4.75232E-05-3.48801E-16
 -1      3004 7.93253E-03-4.32036E-04-2.38645E-14
 -1      3005 7.86529E-03-4.10374E-04-2.34606E-14
 -1      3006 7.98798E-03-4.38197E-04-2.37183E-14
 -1      3007 7.91223E-03-2.88148E-04-2.20982E-14
 -1      3008 8.03090E-03-2.87589E-04-2.26174E-14
 -1      3009 8.07866E-03-2.41455E-04-2.23336E-14
 -1      3010 1.25809E-02-9.33125E-04-3.86340E-14
 -1      3011 1.23704E-02-1.00202E-03-3.83879E-14
 -1      3012 1.04034E-03 2.43274E-04-2.47212E-16
 -1      3013 1.03375E-03 2.11526E-04-2.71837E-16
 -1      3014 1.05896E-03 3.64453E-04-1.33601E-16
 -1      3015 1.04871E-02 1.34021E-04-3.11417E-14
 -1      3016 1.06612E-02 2.45376E-05-3.19690E-14
 -1      3017 8.68825E-03-2.46989E-06-2.35251E-14
 -1      3018 8.83425E-03 6.54936E-05-2.38904E-14
 -1      3019 1.73174E-03-3.40082E-04-1.16899E-15
 -1      3020 1.87542E-03-3.50158E-04-1.34998E-15
 -1      3021 2.01909E-03-3.58491E-04-1.54458E-15
 -1      3022 2.16275E-03-3.65231E-04-1.75263E-15
 -1      3023 1.94032E-03-3.18797E-04-1.43493E-15
 -1      3024 2.30636E-03-3.70651E-04-1.97340E-15
 -1      3025 2.44992E-03-3.74873E-04-2.20790E-15
 -1      3026 2.22837E-03-3.31562E-04-1.84621E-15
 -1      3027 2.59342E-03-3.78113E-04-2.45635E-15
 -1      3028 2.73687E-03-3.80466E-04-2.71865E-15
 -1      3029 2.51636E-03-3.39597E-04-2.31110E-15
 -1      3030 2.88026E-03-3.82096E-04-2.99406E-15
 -1      3031 3.02360E-03-3.83073E-04-3.28298E-15
 -1      3032 2.80412E-03-3.44097E-04-2.83000E-15
 -1      3033 3.16689E-03-3.83517E-04-3.58612E-15
 -1      3034 3.31013E-03-3.83480E-04-3.90286E-15
 -1      3035 3.09159E-03-3.45987E-04-3.40307E-15
 -1      3036 3.45332E-03-3.83046E-04-4.23302E-15
 -1      3037 3.59647E-03-3.82248E-04-4.57611E-15
 -1      3038 3.37874E-03-3.45949E-04-4.03039E-15
 -1      3039 3.73957E-03-3.81144E-04-4.93232E-15
 -1      3040 3.88264E-03-3.79753E-04-5.30183E-15
 -1      3041 3.66555E-03-3.44468E-04-4.70999E-15
 -1      3042 4.02566E-03-3.78112E-04-5.68463E-15
 -1      3043 4.16863E-03-3.76231E-04-6.07962E-15
 -1      3044 3.95203E-03-3.41865E-04-5.44269E-15
 -1      3045 4.31155E-03-3.74130E-04-6.48739E-15
 -1      3046 4.45442E-03-3.71813E-04-6.90896E-15
 -1      3047 4.23812E-03-3.38345E-04-6.22674E-15
 -1      3048 4.60435E-03-3.69161E-04-7.36625E-15
 -1      3049 4.75421E-03-3.66282E-04-7.83838E-15
 -1      3050 4.53091E-03-3.33906E-04-7.08506E-15
 -1      3051 4.89682E-03-3.63341E-04-8.30218E-15
 -1      3052 5.03934E-03-3.60201E-04-8.78002E-15
 -1      3053 4.82312E-03-3.28701E-04-8.00113E-15
 -1      3054 5.18169E-03-3.56881E-04-9.27303E-15
 -1      3055 5.32388E-03-3.53375E-04-9.78079E-15
 -1      3056 5.10745E-03-3.22943E-04-8.95174E-15
 -1      3057 5.46583E-03-3.49721E-04-1.03032E-14
 -1      3058 5.60754E-03-3.45917E-04-1.08393E-14
 -1      3059 5.39074E-03-3.16609E-04-9.96162E-15
 -1      3060 5.74887E-03-3.42034E-04-1.13888E-14
 -1      3061 5.88983E-03-3.38073E-04-1.19539E-14
 -1      3062 5.67254E-03-3.09885E-04-1.10289E-14
 -1      3063 6.03022E-03-3.34165E-04-1.25329E-14
 -1      3064 6.17004E-03-3.30312E-04-1.31235E-14
 -1      3065 5.95220E-03-3.03121E-04-1.21514E-14
 -1      3066 6.30902E-03-3.26737E-04-1.37271E-14
 -1      3067 6.44716E-03-3.23443E-04-1.43434E-14
 -1      3068 6.22877E-03-2.96916E-04-1.33287E-14
 -1      3069 6.58407E-03-3.20782E-04-1.49715E-14
 -1      3070 6.71977E-03-3.18750E-04-1.56132E-14
 -1      3071 6.50092E-03-2.92228E-04-1.45558E-14
 -1      3072 6.85376E-03-3.17879E-04-1.62684E-14
 -1      3073 6.98606E-03-3.18137E-04-1.69360E-14
 -1      3074 6.76685E-03-2.90480E-04-1.58347E-14
 -1      3075 7.11604E-03-3.20277E-04-1.76174E-14
 -1      3076 7.24386E-03-3.24219E-04-1.83111E-14
 -1      3077 7.02417E-03-2.93618E-04-1.71662E-14
 -1      3078 7.36867E-03-3.30956E-04-1.90188E-14
 -1      3079 7.49103E-03-3.40350E-04-1.97400E-14
 -1      3080 7.26992E-03-3.04095E-04-1.85495E-14
 -1      3081 7.60972E-03-3.53742E-04-2.04743E-14
 -1      3082 7.72619E-03-3.70308E-04-2.12218E-14
 -1      3083 7.50059E-03-3.24721E-04-1.99881E-14
 -1      3084 8.21737E-03-5.09931E-04-2.40951E-14
 -1      3085 1.01659E-02 3.01077E-04-2.95172E-14
 -1      3086 1.03205E-02 2.27076E-04-3.03228E-14
 -1      3087 1.04021E-02 1.84117E-04-3.07605E-14
 -1      3088 7.79850E-03-3.53954E-04-2.25778E-14
 -1      3089 1.28881E-02-1.06781E-03-4.24553E-14
 -1      3090 1.30054E-02-1.11085E-03-4.35442E-14
 -1      3091 1.31246E-02-1.15779E-03-4.46410E-14
 -1      3092 1.32473E-02-1.20867E-03-4.57462E-14
 -1      3093 1.30653E-02-1.11179E-03-4.38881E-14
 -1      3094 1.33723E-02-1.26226E-03-4.68576E-14
 -1      3095 1.35003E-02-1.31864E-03-4.79775E-14
 -1      3096 1.32963E-02-1.21208E-03-4.60939E-14
 -1      3097 1.36304E-02-1.37680E-03-4.91056E-14
 -1      3098 1.37629E-02-1.43678E-03-5.02409E-14
 -1      3099 1.35424E-02-1.32241E-03-4.83324E-14
 -1      3100 1.38970E-02-1.49778E-03-5.13845E-14
 -1      3101 1.40329E-02-1.55981E-03-5.25378E-14
 -1      3102 1.38002E-02-1.43985E-03-5.06035E-14
 -1      3103 1.41700E-02-1.62227E-03-5.36978E-14
 -1      3104 1.43082E-02-1.68512E-03-5.48644E-14
 -1      3105 1.40666E-02-1.56171E-03-5.29077E-14
 -1      3106 1.44473E-02-1.74795E-03-5.60354E-14
 -1      3107 1.45872E-02-1.81072E-03-5.72145E-14
 -1      3108 1.43394E-02-1.68569E-03-5.52433E-14
 -1      3109 1.99560E-03 3.70420E-04-8.84465E-16
 -1      3110 1.85205E-03 3.61610E-04-7.53006E-16
 -1      3111 1.70850E-03 3.50900E-04-6.33269E-16
 -1      3112 1.56495E-03 3.38109E-04-5.25079E-16
 -1      3113 1.77265E-03 3.21343E-04-7.35008E-16
 -1      3114 3.14218E-03 3.97813E-04-2.37320E-15
 -1      3115 2.99903E-03 3.97194E-04-2.14355E-15
 -1      3116 2.85584E-03 3.95996E-04-1.92610E-15
 -1      3117 2.71260E-03 3.94154E-04-1.72135E-15
 -1      3118 2.92318E-03 3.59373E-04-2.10815E-15
 -1      3119 3.71444E-03 3.96103E-04-3.42009E-15
 -1      3120 3.57142E-03 3.97053E-04-3.13874E-15
 -1      3121 4.00042E-03 3.93417E-04-4.02148E-15
 -1      3122 3.85744E-03 3.94885E-04-3.71427E-15
 -1      3123 3.78358E-03 3.58287E-04-3.66332E-15
 -1      3124 4.28634E-03 3.89849E-04-4.67801E-15
 -1      3125 4.14339E-03 3.91735E-04-4.34298E-15
 -1      3126 4.06986E-03 3.55490E-04-4.28695E-15
 -1      3127 4.57225E-03 3.85544E-04-5.38793E-15
 -1      3128 4.42929E-03 3.87783E-04-5.02590E-15
 -1      3129 4.35590E-03 3.51874E-04-4.96413E-15
 -1      3130 4.85819E-03 3.80614E-04-6.15348E-15
 -1      3131 4.71521E-03 3.83153E-04-5.76351E-15
 -1      3132 4.64175E-03 3.47558E-04-5.69615E-15
 -1      3133 5.14426E-03 3.75170E-04-6.97595E-15
 -1      3134 5.00120E-03 3.77950E-04-6.55727E-15
 -1      3135 4.92745E-03 3.42625E-04-6.48353E-15
 -1      3136 5.43059E-03 3.69368E-04-7.85788E-15
 -1      3137 5.28738E-03 3.72303E-04-7.40917E-15
 -1      3138 5.21308E-03 3.37164E-04-7.32873E-15
 -1      3139 5.71740E-03 3.63455E-04-8.80089E-15
 -1      3140 5.57392E-03 3.66406E-04-8.32132E-15
 -1      3141 5.49881E-03 3.31306E-04-8.23346E-15
 -1      3142 6.00500E-03 3.57819E-04-9.80485E-15
 -1      3143 5.86107E-03 3.60571E-04-9.29543E-15
 -1      3144 5.78486E-03 3.25270E-04-9.19916E-15
 -1      3145 6.29387E-03 3.53047E-04-1.08699E-14
 -1      3146 6.14924E-03 3.55277E-04-1.03304E-14
 -1      3147 6.07164E-03 3.19413E-04-1.02258E-14
 -1      3148 6.58469E-03 3.49979E-04-1.19910E-14
 -1      3149 6.43899E-03 3.51230E-04-1.14237E-14
 -1      3150 6.35971E-03 3.14290E-04-1.13103E-14
 -1      3151 6.87833E-03 3.49750E-04-1.31711E-14
 -1      3152 6.73111E-03 3.49414E-04-1.25736E-14
 -1      3153 6.64993E-03 3.10720E-04-1.24522E-14
 -1      3154 7.17582E-03 3.53807E-04-1.44080E-14
 -1      3155 7.02655E-03 3.51120E-04-1.37825E-14
 -1      3156 6.94342E-03 3.09856E-04-1.36509E-14
 -1      3157 7.47825E-03 3.63836E-04-1.57028E-14
 -1      3158 7.32640E-03 3.57934E-04-1.50481E-14
 -1      3159 7.24152E-03 3.13238E-04-1.49086E-14
 -1      3160 7.78636E-03 3.81520E-04-1.70530E-14
 -1      3161 7.63163E-03 3.71595E-04-1.63709E-14
 -1      3162 7.54569E-03 3.22787E-04-1.62234E-14
 -1      3163 8.10009E-03 4.07934E-04-1.84611E-14
 -1      3164 7.94267E-03 3.93594E-04-1.77507E-14
 -1      3165 7.85701E-03 3.40596E-04-1.75936E-14
 -1      3166 8.41789E-03 4.42423E-04-1.99249E-14
 -1      3167 8.25875E-03 4.24316E-04-1.91850E-14
 -1      3168 8.17550E-03 3.68264E-04-1.90213E-14
 -1      3169 8.73641E-03 4.80994E-04-2.14419E-14
 -1      3170 8.57744E-03 4.61726E-04-2.06764E-14
 -1      3171 8.49927E-03 4.05541E-04-2.05017E-14
 -1      3172 9.05095E-03 5.14357E-04-2.30192E-14
 -1      3173 8.89447E-03 4.99236E-04-2.22234E-14
 -1      3174 8.82402E-03 4.47980E-04-2.20398E-14
 -1      3175 9.35787E-03 5.28313E-04-2.46536E-14
 -1      3176 9.20539E-03 5.24943E-04-2.38296E-14
 -1      3177 9.14385E-03 4.84432E-04-2.36348E-14
 -1      3178 9.65723E-03 5.07263E-04-2.63455E-14
 -1      3179 9.50806E-03 5.23132E-04-2.54911E-14
 -1      3180 9.45450E-03 4.97522E-04-2.52867E-14
 -1      3181 9.95391E-03 4.41215E-04-2.81000E-14
 -1      3182 9.80519E-03 4.80039E-04-2.72153E-14
 -1      3183 9.75710E-03 4.68945E-04-2.69981E-14
 -1      3184 1.02547E-02 3.31629E-04-2.99161E-14
 -1      3185 1.01032E-02 3.91169E-04-2.89994E-14
 -1      3186 1.00586E-02 3.89349E-04-2.87699E-14
 -1      3187 1.05635E-02 1.90463E-04-3.18010E-14
 -1      3188 1.04079E-02 2.63844E-04-3.08502E-14
 -1      3189 1.03668E-02 2.64428E-04-3.06065E-14
 -1      3190 1.08794E-02 3.35279E-05-3.37540E-14
 -1      3191 1.07208E-02 1.12891E-04-3.27707E-14
 -1      3192 1.06845E-02 1.11068E-04-3.25112E-14
 -1      3193 1.11981E-02-1.25804E-04-3.57680E-14
 -1      3194 1.10388E-02-4.64995E-05-3.47534E-14
 -1      3195 1.10087E-02-5.23071E-05-3.44820E-14
 -1      3196 1.15153E-02-2.79734E-04-3.78374E-14
 -1      3197 1.13573E-02-2.03725E-04-3.67952E-14
 -1      3198 1.13335E-02-2.12690E-04-3.65122E-14
 -1      3199 1.18279E-02-4.25220E-04-3.99608E-14
 -1      3200 1.16724E-02-3.53550E-04-3.88925E-14
 -1      3201 1.16539E-02-3.64148E-04-3.85974E-14
 -1      3202 1.21347E-02-5.62280E-04-4.21387E-14
 -1      3203 1.19821E-02-4.94698E-04-4.10433E-14
 -1      3204 1.19674E-02-5.05620E-04-4.07368E-14
 -1      3205 1.24360E-02-6.92363E-04-4.43660E-14
 -1      3206 1.22860E-02-6.28051E-04-4.32462E-14
 -1      3207 1.22737E-02-6.38514E-04-4.29287E-14
 -1      3208 1.27325E-02-8.17369E-04-4.66401E-14
 -1      3209 1.25848E-02-7.55362E-04-4.54964E-14
 -1      3210 1.25735E-02-7.65016E-04-4.51692E-14
 -1      3211 1.30253E-02-9.39174E-04-4.89524E-14
 -1      3212 1.28793E-02-8.78551E-04-4.77921E-14
 -1      3213 1.28684E-02-8.87297E-04-4.74539E-14
 -1      3214 1.44561E-02-1.68939E-03-5.69571E-14
 -1      3215 1.44015E-02-1.65443E-03-5.67146E-14
 -1      3216 1.25046E-02-9.94955E-04-3.92830E-14
 -1      3217 1.45597E-02-1.75968E-03-5.74325E-14
 -1      3218 1.45088E-02-1.72436E-03-5.71948E-14
 -1      3219 1.43644E-02-1.65503E-03-5.60448E-14
 -1      3220 1.43458E-02-1.62001E-03-5.64762E-14
 -1      3221 1.42881E-02-1.58527E-03-5.62353E-14
 -1      3222 1.42562E-02-1.58677E-03-5.55651E-14
 -1      3223 1.25768E-02-9.00266E-04-3.87875E-14
 -1      3224 1.26754E-02-9.22487E-04-3.93478E-14
 -1      3225 1.25361E-02-8.97178E-04-3.90816E-14
 -1      3226 1.07410E-03 3.29478E-04-1.80913E-16
 -1      3227 1.42276E-02-1.54956E-03-5.59894E-14
 -1      3228 1.41653E-02-1.51327E-03-5.57405E-14
 -1      3229 1.41393E-02-1.51742E-03-5.50790E-14
 -1      3230 8.10972E-03-4.71243E-04-2.36954E-14
 -1      3231 1.06769E-03 2.82657E-04-2.25839E-16
 -1      3232 7.78119E-03-3.87084E-04-2.30360E-14
 -1      3233 7.73475E-03-3.69968E-04-2.26239E-14
 -1      3234 1.14026E-02-4.29890E-04-3.49989E-14
 -1      3235 1.16018E-02-5.37185E-04-3.56983E-14
 -1      3236 3.42837E-03 3.97682E-04-2.87087E-15
 -1      3237 3.28530E-03 3.97961E-04-2.61561E-15
 -1      3238 3.21026E-03 3.60589E-04-2.57583E-15
 -1      3239 3.49706E-03 3.60083E-04-3.09372E-15
 -1      3240 1.26450E-02-1.00562E-03-4.03229E-14
 -1      3241 1.27636E-02-1.03599E-03-4.13983E-14
 -1      3242 1.28458E-02-1.02860E-03-4.17383E-14
 -1      3243 1.26124E-02-9.73632E-04-3.96444E-14
 -1      3244 9.39019E-03 2.94624E-04-2.58019E-14
 -1      3245 9.52648E-03 3.48589E-04-2.63155E-14
 -1      3246 1.01680E-03 6.82005E-05-3.69726E-16
 -1      3247 1.01564E-03 4.12226E-05-3.85136E-16
 -1      3248 1.37141E-02-1.25421E-03-5.39170E-14
 -1      3249 1.35927E-02-1.18514E-03-5.33549E-14
 -1      3250 1.34490E-02-1.12463E-03-5.21843E-14
 -1      3251 1.26851E-02-9.52855E-04-3.96704E-14
 -1      3252 1.44464E-03-3.13560E-04-8.46206E-16
 -1      3253 1.58815E-03-3.27946E-04-1.00085E-15
 -1      3254 1.65250E-03-2.99833E-04-1.07573E-15
 -1      3255 1.18657E-03 2.84863E-04-3.00622E-16
 -1      3256 8.87945E-04-2.11832E-04-3.68859E-16
 -1      3257 1.09114E-02-1.33217E-04-3.30763E-14
 -1      3258 1.11485E-02-2.82820E-04-3.40229E-14
 -1      3259 1.18242E-02-6.44370E-04-3.64955E-14
 -1      3260 1.20388E-02-7.34605E-04-3.72999E-14
 -1      3261 1.17430E-02-5.97261E-04-3.65734E-14
 -1      3262 1.41014E-02-1.47641E-03-5.54859E-14
 -1      3263 1.40361E-02-1.43887E-03-5.52305E-14
 -1      3264 1.40136E-02-1.44514E-03-5.45805E-14
 -1      3265 7.72953E-03-3.46760E-04-2.21982E-14
 -1      3266 7.77688E-03-3.24430E-04-2.20016E-14
 -1      3267 7.71048E-03-2.95899E-04-2.13553E-14
 -1      3268 7.80310E-03-2.96450E-04-2.17261E-14
 -1      3269 7.83144E-03-2.62596E-04-2.14484E-14
 -1      3270 8.80339E-03 1.10265E-04-2.34419E-14
 -1      3271 8.92416E-03 1.23107E-04-2.40342E-14
 -1      3272 9.00498E-03 1.79294E-04-2.41767E-14
 -1      3273 1.01505E-03 1.44507E-05-3.99745E-16
 -1      3274 1.01501E-03-1.22215E-05-4.13176E-16
 -1      3275 1.13576E-03 3.01608E-05-4.77306E-16
 -1      3276 7.77053E-03-3.69184E-04-2.20050E-14
 -1      3277 7.90265E-03-4.06167E-04-2.25162E-14
 -1      3278 8.01103E-03-4.39895E-04-2.32931E-14
 -1      3279 9.61635E-03 3.76168E-04-2.66701E-14
 -1      3280 9.69759E-03 3.91970E-04-2.70277E-14
 -1      3281 9.48794E-03 3.63008E-04-2.60033E-14
 -1      3282 1.00342E-02 3.48202E-04-2.88142E-14
 -1      3283 1.01151E-02 3.21675E-04-2.92360E-14
 -1      3284 9.90914E-03 3.79683E-04-2.81204E-14
 -1      3285 9.26908E-03 2.69910E-04-2.52140E-14
 -1      3286 8.54550E-03-3.14077E-05-2.29592E-14
 -1      3287 2.13910E-03 3.77643E-04-1.02744E-15
 -1      3288 2.06042E-03 3.38065E-04-1.00565E-15
 -1      3289 2.28256E-03 3.83421E-04-1.18253E-15
 -1      3290 1.47480E-02-1.88342E-03-5.85569E-14
 -1      3291 2.63583E-03 3.55821E-04-1.69061E-15
 -1      3292 2.56931E-03 3.91520E-04-1.52928E-15
 -1      3293 2.42596E-03 3.88009E-04-1.34964E-15
 -1      3294 1.27169E-02-9.44109E-04-4.00635E-14
 -1      3295 1.27279E-02-9.37948E-04-3.97655E-14
 -1      3296 1.27687E-02-9.52309E-04-4.01832E-14
 -1      3297 1.33101E-02-1.06260E-03-5.11435E-14
 -1      3298 1.31654E-02-1.00192E-03-4.99834E-14
 -1      3299 1.31546E-02-1.00984E-03-4.96356E-14
 -1      3300 1.34330E-02-1.13318E-03-5.17025E-14
 -1      3301 1.27532E-02-9.67287E-04-4.02854E-14
 -1      3302 1.02384E-03-1.49086E-04-4.64201E-16
 -1      3303 1.02786E-03-1.78320E-04-4.71099E-16
 -1      3304 1.21798E-02-7.88379E-04-3.79511E-14
 -1      3305 1.23106E-02-8.32301E-04-3.86070E-14
 -1      3306 1.20942E-02-7.50442E-04-3.80328E-14
 -1      3307 1.45915E-02-1.78948E-03-5.74991E-14
 -1      3308 1.44478E-02-1.71848E-03-5.63516E-14
 -1      3309 1.38502E-02-1.33403E-03-5.44443E-14
 -1      3310 1.37823E-02-1.29439E-03-5.41832E-14
 -1      3311 1.36400E-02-1.23501E-03-5.30097E-14
 -1      3312 1.42155E-03 3.22890E-04-4.28246E-16
 -1      3313 1.27829E-03 3.05030E-04-3.42432E-16
 -1      3314 8.14998E-03-1.94547E-04-2.22173E-14
 -1      3315 8.21591E-03-1.41987E-04-2.20982E-14
 -1      3316 8.01192E-03-2.07955E-04-2.17016E-14
 -1      3317 1.02845E-03 1.81153E-04-2.94429E-16
 -1      3318 1.02431E-03 1.51823E-04-3.15571E-16
 -1      3319 1.15319E-03 2.11759E-04-3.50617E-16
 -1      3320 1.12867E-02-3.54058E-04-3.47853E-14
 -1      3321 1.08009E-02-5.76032E-05-3.26889E-14
 -1      3322 7.80247E-03-3.86328E-04-2.28937E-14
 -1      3323 1.01431E-03-2.34381E-04-4.60935E-16
 -1      3324 1.39772E-02-1.40619E-03-5.49666E-14
 -1      3325 1.39103E-02-1.36763E-03-5.47090E-14
 -1      3326 1.37693E-02-1.30899E-03-5.35372E-14
 -1      3327 1.38893E-02-1.37541E-03-5.40630E-14
 -1      3328 1.25061E-03 2.63515E-04-3.67938E-16
 -1      3329 1.18787E-03-2.78692E-04-6.01610E-16
 -1      3330 1.31613E-03-2.97175E-04-7.18785E-16
 -1      3331 1.38031E-03-2.73292E-04-7.83472E-16
 -1      3332 1.01859E-03 9.54579E-05-3.53220E-16
 -1      3333 1.13839E-03 8.85385E-05-4.41135E-16
 -1      3334 1.02103E-03 1.23226E-04-3.35018E-16
 -1      3335 1.46366E-02-1.82019E-03-5.77581E-14
 -1      3336 1.01832E-03-9.29748E-05-4.47111E-16
 -1      3337 1.02068E-03-1.20684E-04-4.56341E-16
 -1      3338 1.14350E-03-1.45854E-04-5.57158E-16
 -1      3339 7.67561E-03-3.43272E-04-2.19042E-14
 -1      3340 7.69424E-03-3.46477E-04-2.20525E-14
 -1      3341 7.65403E-03-3.21235E-04-2.14840E-14
 -1      3342 1.48530E-03 2.97243E-04-5.10741E-16
 -1      3343 4.42542E-03 3.13983E-04-5.25486E-15
 -1      3344 4.28245E-03 3.15874E-04-4.89924E-15
 -1      3345 2.15063E-03-2.92631E-04-1.72215E-15
 -1      3346 2.29499E-03-2.97343E-04-1.93888E-15
 -1      3347 2.43933E-03-3.01066E-04-2.16878E-15
 -1      3348 2.58364E-03-3.03893E-04-2.41297E-15
 -1      3349 2.36247E-03-2.62624E-04-2.03047E-15
 -1      3350 2.72789E-03-3.05984E-04-2.66959E-15
 -1      3351 2.87206E-03-3.07409E-04-2.93976E-15
 -1      3352 2.65168E-03-2.67827E-04-2.51245E-15
 -1      3353 3.01614E-03-3.08290E-04-3.22386E-15
 -1      3354 3.16011E-03-3.08679E-04-3.52070E-15
 -1      3355 2.94062E-03-2.70470E-04-3.04781E-15
 -1      3356 3.30398E-03-3.08666E-04-3.83149E-15
 -1      3357 3.44774E-03-3.08286E-04-4.15483E-15
 -1      3358 3.22913E-03-2.71216E-04-3.63643E-15
 -1      3359 3.59138E-03-3.07604E-04-4.49199E-15
 -1      3360 3.73489E-03-3.06642E-04-4.84159E-15
 -1      3361 3.51710E-03-2.70556E-04-4.27700E-15
 -1      3362 3.87828E-03-3.05444E-04-5.20385E-15
 -1      3363 4.02154E-03-3.04021E-04-5.58023E-15
 -1      3364 3.80447E-03-2.68834E-04-4.96985E-15
 -1      3365 4.16465E-03-3.02406E-04-5.97004E-15
 -1      3366 4.30760E-03-3.00600E-04-6.37187E-15
 -1      3367 4.09116E-03-2.66283E-04-5.71620E-15
 -1      3368 4.45753E-03-2.98525E-04-6.80787E-15
 -1      3369 4.60724E-03-2.96264E-04-7.25994E-15
 -1      3370 4.38422E-03-2.62967E-04-6.53510E-15
 -1      3371 4.74961E-03-2.93963E-04-7.70411E-15
 -1      3372 4.89175E-03-2.91511E-04-8.16183E-15
 -1      3373 4.67631E-03-2.59057E-04-7.41033E-15
 -1      3374 5.03360E-03-2.88939E-04-8.63450E-15
 -1      3375 5.17514E-03-2.86241E-04-9.12184E-15
 -1      3376 4.96013E-03-2.54771E-04-8.32108E-15
 -1      3377 5.31630E-03-2.83466E-04-9.62387E-15
 -1      3378 5.45704E-03-2.80607E-04-1.01416E-14
 -1      3379 5.24249E-03-2.50153E-04-9.28999E-15
 -1      3380 5.59724E-03-2.77745E-04-1.06718E-14
 -1      3381 5.73686E-03-2.74877E-04-1.12156E-14
 -1      3382 5.52290E-03-2.45421E-04-1.03179E-14
 -1      3383 5.87574E-03-2.72134E-04-1.17746E-14
 -1      3384 6.01380E-03-2.69513E-04-1.23472E-14
 -1      3385 5.80070E-03-2.40937E-04-1.14016E-14
 -1      3386 6.15083E-03-2.67223E-04-1.29336E-14
 -1      3387 6.28671E-03-2.65253E-04-1.35324E-14
 -1      3388 6.07492E-03-2.37281E-04-1.25413E-14
 -1      3389 6.42114E-03-2.63923E-04-1.41426E-14
 -1      3390 6.55398E-03-2.63203E-04-1.47666E-14
 -1      3391 6.34426E-03-2.35333E-04-1.37326E-14
 -1      3392 6.68482E-03-2.63563E-04-1.54040E-14
 -1      3393 6.81347E-03-2.64914E-04-1.60546E-14
 -1      3394 6.60693E-03-2.36349E-04-1.49759E-14
 -1      3395 6.93938E-03-2.67930E-04-1.67173E-14
 -1      3396 7.06230E-03-2.72378E-04-1.73943E-14
 -1      3397 6.86048E-03-2.42005E-04-1.62716E-14
 -1      3398 7.18148E-03-2.79189E-04-1.80841E-14
 -1      3399 7.29667E-03-2.87881E-04-1.87870E-14
 -1      3400 7.10160E-03-2.54319E-04-1.76200E-14
 -1      3401 7.40672E-03-2.99742E-04-1.95031E-14
 -1      3402 7.51151E-03-3.13714E-04-2.02330E-14
 -1      3403 7.32575E-03-2.75539E-04-1.90216E-14
 -1      3404 2.99116E-03 3.22463E-04-2.29455E-15
 -1      3405 2.84719E-03 3.21401E-04-2.06961E-15
 -1      3406 1.30048E-02-1.07019E-03-4.31308E-14
 -1      3407 1.31095E-02-1.11677E-03-4.42254E-14
 -1      3408 1.28268E-02-9.96600E-04-4.11763E-14
 -1      3409 1.29230E-02-1.03495E-03-4.22305E-14
 -1      3410 1.29568E-02-1.04070E-03-4.25628E-14
 -1      3411 1.28140E-02-9.74620E-04-4.07716E-14
 -1      3412 1.32195E-02-1.16542E-03-4.53288E-14
 -1      3413 1.33346E-02-1.21722E-03-4.64378E-14
 -1      3414 1.31403E-02-1.12267E-03-4.45646E-14
 -1      3415 1.34539E-02-1.27082E-03-4.75578E-14
 -1      3416 1.35770E-02-1.32676E-03-4.86852E-14
 -1      3417 1.33641E-02-1.22245E-03-4.67852E-14
 -1      3418 1.37031E-02-1.38407E-03-4.98203E-14
 -1      3419 1.38320E-02-1.44295E-03-5.09637E-14
 -1      3420 1.36054E-02-1.33091E-03-4.90390E-14
 -1      3421 1.39632E-02-1.50270E-03-5.21173E-14
 -1      3422 1.40964E-02-1.56336E-03-5.32794E-14
 -1      3423 1.38596E-02-1.44576E-03-5.13276E-14
 -1      3424 1.42033E-02-1.61021E-03-5.42244E-14
 -1      3425 1.43392E-02-1.67151E-03-5.53983E-14
 -1      3426 1.43081E-02-1.64326E-03-5.53286E-14
 -1      3427 1.40954E-02-1.55084E-03-5.34293E-14
 -1      3428 1.57419E-03-2.60451E-04-9.85160E-16
 -1      3429 1.71802E-03-2.70830E-04-1.15018E-15
 -1      3430 4.13938E-03 3.17583E-04-4.55673E-15
 -1      3431 3.99621E-03 3.19109E-04-4.22692E-15
 -1      3432 4.20898E-03 2.79752E-04-4.82970E-15
 -1      3433 3.85293E-03 3.20425E-04-3.91154E-15
 -1      3434 3.70956E-03 3.21523E-04-3.60955E-15
 -1      3435 3.92248E-03 2.82574E-04-4.16404E-15
 -1      3436 4.71109E-03 3.09710E-04-6.00887E-15
 -1      3437 4.56830E-03 3.11930E-04-5.62476E-15
 -1      3438 4.49491E-03 2.76225E-04-5.55019E-15
 -1      3439 4.99642E-03 3.04820E-04-6.81855E-15
 -1      3440 4.85379E-03 3.07342E-04-6.40667E-15
 -1      3441 4.78029E-03 2.72047E-04-6.32599E-15
 -1      3442 5.28151E-03 2.99371E-04-7.68679E-15
 -1      3443 5.13899E-03 3.02163E-04-7.24519E-15
 -1      3444 5.06514E-03 2.67239E-04-7.15796E-15
 -1      3445 5.56650E-03 2.93462E-04-8.61434E-15
 -1      3446 5.42400E-03 2.96467E-04-8.14282E-15
 -1      3447 5.34954E-03 2.61825E-04-8.04830E-15
 -1      3448 5.85167E-03 2.87269E-04-9.60175E-15
 -1      3449 5.70903E-03 2.90385E-04-9.10026E-15
 -1      3450 5.63366E-03 2.55856E-04-8.99874E-15
 -1      3451 6.13747E-03 2.81100E-04-1.06497E-14
 -1      3452 5.99445E-03 2.84153E-04-1.01186E-14
 -1      3453 5.91781E-03 2.49454E-04-1.00084E-14
 -1      3454 6.42461E-03 2.75461E-04-1.17537E-14
 -1      3455 6.28082E-03 2.78166E-04-1.11948E-14
 -1      3456 6.20249E-03 2.42860E-04-1.10766E-14
 -1      3457 6.71409E-03 2.71135E-04-1.29163E-14
 -1      3458 6.56898E-03 2.73056E-04-1.23281E-14
 -1      3459 6.48851E-03 2.36508E-04-1.22010E-14
 -1      3460 7.00730E-03 2.69288E-04-1.41352E-14
 -1      3461 6.86014E-03 2.69784E-04-1.35181E-14
 -1      3462 6.77707E-03 2.31132E-04-1.33830E-14
 -1      3463 7.30596E-03 2.71576E-04-1.54129E-14
 -1      3464 7.15585E-03 2.69747E-04-1.47664E-14
 -1      3465 7.06985E-03 2.27906E-04-1.46219E-14
 -1      3466 7.61194E-03 2.80228E-04-1.67460E-14
 -1      3467 7.45797E-03 2.74888E-04-1.60726E-14
 -1      3468 7.36896E-03 2.28648E-04-1.59191E-14
 -1      3469 7.92675E-03 2.97907E-04-1.81376E-14
 -1      3470 7.76826E-03 2.87708E-04-1.74344E-14
 -1      3471 7.67679E-03 2.36010E-04-1.72741E-14
 -1      3472 8.25056E-03 3.26984E-04-1.95829E-14
 -1      3473 8.08772E-03 3.10897E-04-1.88537E-14
 -1      3474 7.99537E-03 2.53458E-04-1.86828E-14
 -1      3475 8.58105E-03 3.67720E-04-2.10821E-14
 -1      3476 8.41538E-03 3.46047E-04-2.03258E-14
 -1      3477 8.32504E-03 2.84420E-04-2.01471E-14
 -1      3478 8.91319E-03 4.15527E-04-2.26396E-14
 -1      3479 8.74768E-03 3.91592E-04-2.18538E-14
 -1      3480 8.66312E-03 3.29994E-04-2.16648E-14
 -1      3481 9.23891E-03 4.56364E-04-2.42516E-14
 -1      3482 9.07728E-03 4.38222E-04-2.34385E-14
 -1      3483 9.00313E-03 3.84925E-04-2.32404E-14
 -1      3484 9.55341E-03 4.68694E-04-2.59213E-14
 -1      3485 9.39741E-03 4.67996E-04-2.50801E-14
 -1      3486 9.33469E-03 4.31428E-04-2.48708E-14
 -1      3487 1.01665E-02 3.34305E-04-2.94426E-14
 -1      3488 1.00117E-02 3.89192E-04-2.85399E-14
 -1      3489 1.04835E-02 1.91774E-04-3.12982E-14
 -1      3490 1.03233E-02 2.67102E-04-3.03620E-14
 -1      3491 1.02793E-02 2.72889E-04-3.01158E-14
 -1      3492 1.08114E-02 2.61086E-05-3.32225E-14
 -1      3493 1.06465E-02 1.10059E-04-3.22521E-14
 -1      3494 1.06077E-02 1.11632E-04-3.19920E-14
 -1      3495 1.11439E-02-1.42031E-04-3.52104E-14
 -1      3496 1.09778E-02-5.86872E-05-3.42087E-14
 -1      3497 1.09464E-02-6.45540E-05-3.39345E-14
 -1      3498 1.14737E-02-3.01458E-04-3.72563E-14
 -1      3499 1.13097E-02-2.23202E-04-3.62282E-14
 -1      3500 1.12862E-02-2.34694E-04-3.59412E-14
 -1      3501 1.17960E-02-4.48814E-04-3.93603E-14
 -1      3502 1.16361E-02-3.76573E-04-3.83025E-14
 -1      3503 1.16192E-02-3.90749E-04-3.80051E-14
 -1      3504 1.21091E-02-5.85311E-04-4.15138E-14
 -1      3505 1.19537E-02-5.18200E-04-4.04284E-14
 -1      3506 1.19413E-02-5.32561E-04-4.01224E-14
 -1      3507 1.24137E-02-7.13637E-04-4.37198E-14
 -1      3508 1.22624E-02-6.50267E-04-4.26105E-14
 -1      3509 1.22524E-02-6.63464E-04-4.22910E-14
 -1      3510 1.27115E-02-8.36498E-04-4.59732E-14
 -1      3511 1.25633E-02-7.75559E-04-4.48417E-14
 -1      3512 1.25543E-02-7.87124E-04-4.45128E-14
 -1      3513 1.30043E-02-9.56170E-04-4.82683E-14
 -1      3514 1.28584E-02-8.96592E-04-4.71162E-14
 -1      3515 1.28494E-02-9.06523E-04-4.67787E-14
 -1      3516 9.14529E-03 2.47433E-04-2.46046E-14
 -1      3517 9.27300E-03 3.08499E-04-2.50385E-14
 -1      3518 9.02097E-03 2.29704E-04-2.40029E-14
 -1      3519 1.03344E-02 2.26255E-04-3.04274E-14
 -1      3520 1.04886E-02 1.40679E-04-3.12508E-14
 -1      3521 1.41666E-02-1.55310E-03-5.46582E-14
 -1      3522 1.41107E-02-1.51961E-03-5.44180E-14
 -1      3523 1.24948E-02-8.91011E-04-3.93528E-14
 -1      3524 1.26219E-02-9.25457E-04-3.99179E-14
 -1      3525 1.19890E-03-2.15884E-04-6.13428E-16
 -1      3526 1.07926E-03-2.16749E-04-5.13207E-16
 -1      3527 1.40513E-02-1.48510E-03-5.41709E-14
 -1      3528 1.39897E-02-1.44988E-03-5.39256E-14
 -1      3529 1.39640E-02-1.45275E-03-5.32705E-14
 -1      3530 1.83797E-03 2.91003E-04-8.41178E-16
 -1      3531 1.69397E-03 2.81690E-04-7.13703E-16
 -1      3532 8.38613E-03-4.46305E-05-2.22147E-14
 -1      3533 8.54891E-03 3.22807E-05-2.25493E-14
 -1      3534 1.33457E-03 2.46150E-04-4.48846E-16
 -1      3535 1.24363E-03 2.29104E-04-3.98187E-16
 -1      3536 1.23798E-03 1.95630E-04-4.26268E-16
 -1      3537 1.01553E-03-3.89225E-05-4.25509E-16
 -1      3538 1.01662E-03-6.57587E-05-4.36866E-16
 -1      3539 1.13815E-03-8.59481E-05-5.35555E-16
 -1      3540 1.86207E-03-2.79543E-04-1.32792E-15
 -1      3541 2.00631E-03-2.86738E-04-1.51871E-15
 -1      3542 2.07326E-03-2.54003E-04-1.60110E-15
 -1      3543 1.07064E-02 1.07714E-05-3.23501E-14
 -1      3544 1.09385E-02-1.32698E-04-3.34678E-14
 -1      3545 1.06264E-02 7.01075E-05-3.20073E-14
 -1      3546 1.16660E-02-5.47484E-04-3.66098E-14
 -1      3547 1.18672E-02-6.45233E-04-3.74200E-14
 -1      3548 1.39261E-02-1.41390E-03-5.36770E-14
 -1      3549 1.38607E-02-1.37702E-03-5.34233E-14
 -1      3550 1.38394E-02-1.38290E-03-5.27768E-14
 -1      3551 1.42654E-02-1.61501E-03-5.51140E-14
 -1      3552 1.42129E-02-1.58123E-03-5.48729E-14
 -1      3553 1.40700E-02-1.51421E-03-5.37338E-14
 -1      3554 1.41593E-02-1.56934E-03-5.41635E-14
 -1      3555 1.11927E-02-2.84682E-04-3.46328E-14
 -1      3556 1.14229E-02-4.17425E-04-3.56209E-14
 -1      3557 1.58574E-03 2.71350E-04-6.28105E-16
 -1      3558 1.44223E-03 2.58878E-04-5.20431E-16
 -1      3559 1.43584E-03 2.22763E-04-5.54732E-16
 -1      3560 1.65177E-03 2.43152E-04-7.22350E-16
 -1      3561 8.63368E-03 8.32863E-05-2.26865E-14
 -1      3562 8.71252E-03 1.34785E-04-2.28224E-14
 -1      3563 8.46837E-03 6.62383E-05-2.19421E-14
 -1      3564 7.75683E-03-2.31850E-04-2.08033E-14
 -1      3565 7.87001E-03-2.19612E-04-2.11656E-14
 -1      3566 1.25777E-03 4.78322E-05-5.60871E-16
 -1      3567 1.25704E-03 1.67832E-05-5.80577E-16
 -1      3568 2.77115E-03 2.83334E-04-2.02740E-15
 -1      3569 2.70313E-03 3.19736E-04-1.85671E-15
 -1      3570 2.55900E-03 3.17406E-04-1.65644E-15
 -1      3571 7.63595E-03-3.37344E-04-2.11929E-14
 -1      3572 7.77150E-03-3.71636E-04-2.24827E-14
 -1      3573 1.35023E-02-1.17442E-03-5.19698E-14
 -1      3574 1.33640E-02-1.11361E-03-5.09352E-14
 -1      3575 1.35716E-02-1.21510E-03-5.22339E-14
 -1      3576 7.55227E-03-3.12774E-04-2.06915E-14
 -1      3577 3.13504E-03 3.23036E-04-2.53194E-15
 -1      3578 3.05971E-03 2.85335E-04-2.48496E-15
 -1      3579 3.27882E-03 3.23164E-04-2.78206E-15
 -1      3580 9.36739E-03 3.49150E-04-2.53799E-14
 -1      3581 9.45373E-03 3.81447E-04-2.57256E-14
 -1      3582 9.24616E-03 3.34404E-04-2.47649E-14
 -1      3583 9.78444E-03 3.98527E-04-2.74329E-14
 -1      3584 9.86603E-03 3.94180E-04-2.78385E-14
 -1      3585 9.66135E-03 4.05906E-04-2.67513E-14
 -1      3586 1.78451E-03-2.40917E-04-1.22409E-15
 -1      3587 2.34821E-03 3.49089E-04-1.32365E-15
 -1      3588 1.26974E-02-9.46522E-04-4.03383E-14
 -1      3589 1.27627E-02-9.64621E-04-4.07595E-14
 -1      3590 1.26732E-02-9.45572E-04-4.06125E-14
 -1      3591 9.85945E-03 4.30661E-04-2.76513E-14
 -1      3592 9.70662E-03 4.57101E-04-2.67777E-14
 -1      3593 1.31446E-02-1.01812E-03-4.92908E-14
 -1      3594 1.20100E-02-7.07474E-04-3.80724E-14
 -1      3595 1.21478E-02-7.62499E-04-3.87305E-14
 -1      3596 1.19370E-02-6.62274E-04-3.81100E-14
 -1      3597 7.92330E-03-1.80857E-04-2.10502E-14
 -1      3598 1.24214E-02-8.68363E-04-3.94382E-14
 -1      3599 1.00563E-02 3.52006E-04-2.88700E-14
 -1      3600 1.01798E-02 3.01841E-04-2.95789E-14
 -1      3601 1.26402E-03-1.39637E-04-6.57487E-16
 -1      3602 1.26780E-03-1.72143E-04-6.68587E-16
 -1      3603 9.65317E-03 4.41452E-04-2.65571E-14
 -1      3604 8.09144E-03-1.01483E-04-2.11907E-14
 -1      3605 8.23576E-03-7.76797E-05-2.16994E-14
 -1      3606 8.24003E-03-1.37025E-05-2.12991E-14
 -1      3607 1.98210E-03 2.98753E-04-9.80349E-16
 -1      3608 1.90429E-03 2.59876E-04-9.51930E-16
 -1      3609 2.12632E-03 3.05084E-04-1.13118E-15
 -1      3610 1.13568E-03-2.76822E-05-5.08952E-16
 -1      3611 1.28305E-02-9.83043E-04-4.10733E-14
 -1      3612 3.56608E-03 3.22364E-04-3.32086E-15
 -1      3613 3.42250E-03 3.22931E-04-3.04542E-15
 -1      3614 3.34783E-03 2.85607E-04-2.99322E-15
 -1      3615 3.63543E-03 2.84588E-04-3.55214E-15
 -1      3616 7.69806E-03-3.52548E-04-2.20655E-14
 -1      3617 7.63734E-03-3.30896E-04-2.15007E-14
 -1      3618 1.38016E-02-1.34478E-03-5.31611E-14
 -1      3619 1.37417E-02-1.31197E-03-5.28991E-14
 -1      3620 1.37147E-02-1.31458E-03-5.22664E-14
 -1      3621 1.29674E-03-2.00937E-04-6.99459E-16
 -1      3622 1.34930E-03-2.42081E-04-7.52694E-16
 -1      3623 1.47765E-03-2.55577E-04-8.81876E-16
 -1      3624 1.41766E-03-1.94142E-04-8.13070E-16
 -1      3625 1.14394E-03 1.48670E-04-3.99298E-16
 -1      3626 1.10838E-02-2.05108E-04-3.42852E-14
 -1      3627 1.15630E-02-4.77569E-04-3.64550E-14
 -1      3628 7.58152E-03-2.96756E-04-2.08239E-14
 -1      3629 7.62324E-03-2.94122E-04-2.09641E-14
 -1      3630 1.26139E-03 1.10426E-04-5.18140E-16
 -1      3631 1.25921E-03 7.89641E-05-5.40299E-16
 -1      3632 1.38095E-03 6.70467E-05-6.50332E-16
 -1      3633 7.62790E-03-2.71580E-04-2.06952E-14
 -1      3634 1.54377E-03-2.28847E-04-9.48257E-16
 -1      3635 9.96395E-03 3.89785E-04-2.83051E-14
 -1      3636 7.64436E-03-2.41667E-04-2.04216E-14
 -1      3637 7.66482E-03-2.06128E-04-2.01458E-14
 -1      3638 7.54683E-03-2.45008E-04-2.00416E-14
 -1      3639 1.37938E-03 1.44106E-06-6.94391E-16
 -1      3640 1.25700E-03-1.41363E-05-5.98696E-16
 -1      3641 1.25764E-03-4.51064E-05-6.15393E-16
 -1      3642 2.57565E-03-2.29718E-04-2.35963E-15
 -1      3643 2.72046E-03-2.31406E-04-2.61112E-15
 -1      3644 2.86519E-03-2.32583E-04-2.87597E-15
 -1      3645 3.00981E-03-2.33296E-04-3.15426E-15
 -1      3646 2.78991E-03-1.94690E-04-2.70789E-15
 -1      3647 3.15430E-03-2.33633E-04-3.44501E-15
 -1      3648 3.29864E-03-2.33623E-04-3.74904E-15
 -1      3649 3.07954E-03-1.95949E-04-3.25747E-15
 -1      3650 3.44282E-03-2.33337E-04-4.06626E-15
 -1      3651 3.58683E-03-2.32790E-04-4.39626E-15
 -1      3652 3.36859E-03-1.95961E-04-3.85927E-15
 -1      3653 3.73066E-03-2.32036E-04-4.74005E-15
 -1      3654 3.87429E-03-2.31081E-04-5.09601E-15
 -1      3655 3.65689E-03-1.95048E-04-4.51277E-15
 -1      3656 4.01771E-03-2.29966E-04-5.46590E-15
 -1      3657 4.16092E-03-2.28691E-04-5.84958E-15
 -1      3658 3.94434E-03-1.93438E-04-5.22001E-15
 -1      3659 4.31102E-03-2.27216E-04-6.26567E-15
 -1      3660 4.46085E-03-2.25599E-04-6.69615E-15
 -1      3661 4.23796E-03-1.91239E-04-5.99904E-15
 -1      3662 4.60324E-03-2.23959E-04-7.12012E-15
 -1      3663 4.74532E-03-2.22216E-04-7.55860E-15
 -1      3664 4.53038E-03-1.88619E-04-6.83405E-15
 -1      3665 4.88705E-03-2.20410E-04-8.01061E-15
 -1      3666 5.02839E-03-2.18533E-04-8.47747E-15
 -1      3667 4.81431E-03-1.85785E-04-7.70439E-15
 -1      3668 5.16927E-03-2.16641E-04-8.95985E-15
 -1      3669 5.30966E-03-2.14729E-04-9.45625E-15
 -1      3670 5.09658E-03-1.82832E-04-8.63251E-15
 -1      3671 5.44945E-03-2.12880E-04-9.96764E-15
 -1      3672 5.58859E-03-2.11092E-04-1.04920E-14
 -1      3673 5.37677E-03-1.79992E-04-9.61968E-15
 -1      3674 5.72695E-03-2.09492E-04-1.10310E-14
 -1      3675 5.86443E-03-2.08079E-04-1.15846E-14
 -1      3676 5.65428E-03-1.77624E-04-1.06638E-14
 -1      3677 6.00086E-03-2.07045E-04-1.21507E-14
 -1      3678 6.13612E-03-2.06388E-04-1.27310E-14
 -1      3679 5.92831E-03-1.76281E-04-1.17641E-14
 -1      3680 6.26999E-03-2.06387E-04-1.33249E-14
 -1      3681 6.40227E-03-2.07031E-04-1.39301E-14
 -1      3682 6.19777E-03-1.76773E-04-1.29180E-14
 -1      3683 6.53269E-03-2.08717E-04-1.45492E-14
 -1      3684 6.66096E-03-2.11396E-04-1.51828E-14
 -1      3685 6.46124E-03-1.80235E-04-1.41263E-14
 -1      3686 6.78675E-03-2.15629E-04-1.58286E-14
 -1      3687 6.90963E-03-2.21268E-04-1.64869E-14
 -1      3688 6.71683E-03-1.88173E-04-1.53870E-14
 -1      3689 7.02920E-03-2.29092E-04-1.71586E-14
 -1      3690 7.14475E-03-2.38716E-04-1.78442E-14
 -1      3691 6.96202E-03-2.02474E-04-1.66996E-14
 -1      3692 7.25578E-03-2.51210E-04-1.85426E-14
 -1      3693 7.36118E-03-2.65815E-04-1.92539E-14
 -1      3694 7.19321E-03-2.25261E-04-1.80647E-14
 -1      3695 1.28997E-02-1.01422E-03-4.19677E-14
 -1      3696 1.29752E-02-1.04833E-03-4.28681E-14
 -1      3697 1.28370E-02-9.89840E-04-4.13746E-14
 -1      3698 1.32703E-02-1.17653E-03-4.60139E-14
 -1      3699 1.33858E-02-1.22734E-03-4.71329E-14
 -1      3700 1.35054E-02-1.27991E-03-4.82584E-14
 -1      3701 1.36285E-02-1.33463E-03-4.93932E-14
 -1      3702 1.34020E-02-1.23085E-03-4.74792E-14
 -1      3703 1.37547E-02-1.39067E-03-5.05369E-14
 -1      3704 1.38834E-02-1.44815E-03-5.16924E-14
 -1      3705 1.36476E-02-1.33723E-03-4.97492E-14
 -1      3706 1.39684E-02-1.48581E-03-5.24538E-14
 -1      3707 1.40726E-02-1.53107E-03-5.33975E-14
 -1      3708 1.40291E-02-1.50403E-03-5.31829E-14
 -1      3709 1.38586E-02-1.42952E-03-5.16566E-14
 -1      3710 4.27867E-03 2.42031E-04-5.10742E-15
 -1      3711 4.13554E-03 2.43488E-04-4.75683E-15
 -1      3712 4.56439E-03 2.38640E-04-5.84908E-15
 -1      3713 4.42162E-03 2.40419E-04-5.47158E-15
 -1      3714 4.34846E-03 2.04474E-04-5.38896E-15
 -1      3715 3.99224E-03 2.44768E-04-4.42010E-15
 -1      3716 3.84875E-03 2.45877E-04-4.09679E-15
 -1      3717 4.06218E-03 2.07061E-04-4.68102E-15
 -1      3718 5.13362E-03 2.29926E-04-7.50142E-15
 -1      3719 4.99158E-03 2.32354E-04-7.06690E-15
 -1      3720 5.41723E-03 2.24570E-04-8.41467E-15
 -1      3721 5.27549E-03 2.27336E-04-7.95041E-15
 -1      3722 5.20188E-03 1.92921E-04-7.84865E-15
 -1      3723 5.70035E-03 2.18535E-04-9.38710E-15
 -1      3724 5.55883E-03 2.21638E-04-8.89374E-15
 -1      3725 5.48457E-03 1.87639E-04-8.78520E-15
 -1      3726 5.98330E-03 2.11873E-04-1.04188E-14
 -1      3727 5.84181E-03 2.15276E-04-9.89538E-15
 -1      3728 5.76654E-03 1.81523E-04-9.77925E-15
 -1      3729 6.26665E-03 2.04737E-04-1.15056E-14
 -1      3730 6.12487E-03 2.08344E-04-1.09554E-14
 -1      3731 6.04813E-03 1.74535E-04-1.08311E-14
 -1      3732 6.55130E-03 1.97473E-04-1.26503E-14
 -1      3733 6.40873E-03 2.01077E-04-1.20707E-14
 -1      3734 6.32991E-03 1.66722E-04-1.19380E-14
 -1      3735 6.83864E-03 1.90739E-04-1.38524E-14
 -1      3736 6.69452E-03 1.93955E-04-1.32440E-14
 -1      3737 6.61290E-03 1.58310E-04-1.31020E-14
 -1      3738 7.13061E-03 1.85718E-04-1.51115E-14
 -1      3739 6.98389E-03 1.87871E-04-1.44742E-14
 -1      3740 6.89863E-03 1.49869E-04-1.43244E-14
 -1      3741 7.42979E-03 1.84399E-04-1.64295E-14
 -1      3742 7.27913E-03 1.84357E-04-1.57633E-14
 -1      3743 7.18935E-03 1.42563E-04-1.56037E-14
 -1      3744 7.73919E-03 1.89942E-04-1.78022E-14
 -1      3745 7.58307E-03 1.85958E-04-1.71085E-14
 -1      3746 7.48816E-03 1.38610E-04-1.69412E-14
 -1      3747 8.06157E-03 2.06875E-04-1.92297E-14
 -1      3748 7.89874E-03 1.96549E-04-1.85088E-14
 -1      3749 7.79880E-03 1.41860E-04-1.83326E-14
 -1      3750 8.39818E-03 2.39873E-04-2.07123E-14
 -1      3751 8.22839E-03 2.20926E-04-1.99648E-14
 -1      3752 8.12509E-03 1.58128E-04-1.97793E-14
 -1      3753 8.70713E-03 2.42718E-04-2.22660E-14
 -1      3754 8.53012E-03 2.13644E-04-2.14918E-14
 -1      3755 9.42001E-03 4.12179E-04-2.54045E-14
 -1      3756 9.25313E-03 3.89750E-04-2.45757E-14
 -1      3757 1.32156E-02-1.06072E-03-4.95553E-14
 -1      3758 1.14357E-02-3.30031E-04-3.66742E-14
 -1      3759 1.12643E-02-2.47889E-04-3.56561E-14
 -1      3760 1.17695E-02-4.80072E-04-3.87550E-14
 -1      3761 1.16045E-02-4.07117E-04-3.77081E-14
 -1      3762 1.15923E-02-4.25533E-04-3.74106E-14
 -1      3763 1.20893E-02-6.14896E-04-4.08869E-14
 -1      3764 1.19312E-02-5.48915E-04-3.98147E-14
 -1      3765 1.19238E-02-5.67464E-04-3.95060E-14
 -1      3766 1.23969E-02-7.39742E-04-4.30716E-14
 -1      3767 1.22445E-02-6.78184E-04-4.19717E-14
 -1      3768 1.22391E-02-6.94629E-04-4.16547E-14
 -1      3769 1.26951E-02-8.58784E-04-4.53065E-14
 -1      3770 1.25470E-02-7.99710E-04-4.41834E-14
 -1      3771 1.25417E-02-8.13473E-04-4.38523E-14
 -1      3772 1.29869E-02-9.75000E-04-4.75808E-14
 -1      3773 1.28417E-02-9.17074E-04-4.64380E-14
 -1      3774 1.28354E-02-9.28307E-04-4.60991E-14
 -1      3775 1.26110E-03-1.07731E-04-6.44667E-16
 -1      3776 1.38530E-03-1.30810E-04-7.64606E-16
 -1      3777 1.25901E-03-7.62914E-05-6.30735E-16
 -1      3778 1.25085E-03 1.69036E-04-4.60474E-16
 -1      3779 1.24710E-03 1.36672E-04-4.85587E-16
 -1      3780 1.36830E-03 1.27930E-04-5.90389E-16
 -1      3781 1.34100E-03 1.83442E-04-5.17341E-16
 -1      3782 1.30544E-02-1.08275E-03-4.38039E-14
 -1      3783 1.31595E-02-1.12866E-03-4.49041E-14
 -1      3784 1.31709E-02-1.13285E-03-4.52455E-14
 -1      3785 1.02662E-02 2.70175E-04-3.00517E-14
 -1      3786 9.77771E-03 4.19513E-04-2.72879E-14
 -1      3787 9.61927E-03 4.29795E-04-2.64262E-14
 -1      3788 4.84936E-03 2.34609E-04-6.64712E-15
 -1      3789 4.70696E-03 2.36708E-04-6.24110E-15
 -1      3790 4.63385E-03 2.01274E-04-6.15224E-15
 -1      3791 2.41480E-03 3.14261E-04-1.46922E-15
 -1      3792 2.27057E-03 3.10216E-04-1.29424E-15
 -1      3793 2.19317E-03 2.71516E-04-1.26146E-15
 -1      3794 2.48223E-03 2.78996E-04-1.61907E-15
 -1      3795 1.23684E-02-8.47915E-04-3.96826E-14
 -1      3796 1.25444E-02-9.08007E-04-4.04370E-14
 -1      3797 1.38783E-02-1.42076E-03-5.23796E-14
 -1      3798 1.38177E-02-1.38713E-03-5.21334E-14
 -1      3799 1.48517E-03-1.67885E-04-8.73921E-16
 -1      3800 1.51410E-03-1.98000E-04-9.11204E-16
 -1      3801 1.61082E-03-2.00987E-04-1.01475E-15
 -1      3802 1.37544E-02-1.35254E-03-5.18846E-14
 -1      3803 1.36889E-02-1.31675E-03-5.16359E-14
 -1      3804 1.36707E-02-1.32238E-03-5.09990E-14
 -1      3805 1.99644E-03-2.15874E-04-1.48407E-15
 -1      3806 2.14113E-03-2.20596E-04-1.68339E-15
 -1      3807 1.73123E-03-2.06036E-04-1.15169E-15
 -1      3808 1.87548E-03-2.12812E-04-1.32778E-15
 -1      3809 1.94379E-03-1.80897E-04-1.40125E-15
 -1      3810 1.70215E-03-1.74678E-04-1.10814E-15
 -1      3811 7.79761E-03-1.39131E-04-2.01398E-14
 -1      3812 7.93994E-03-1.24871E-04-2.06612E-14
 -1      3813 7.94649E-03-6.67034E-05-2.02732E-14
 -1      3814 1.36875E-02-1.28097E-03-5.27006E-14
 -1      3815 1.36265E-02-1.24709E-03-5.24372E-14
 -1      3816 1.34895E-02-1.18750E-03-5.14039E-14
 -1      3817 1.35999E-02-1.25108E-03-5.18056E-14
 -1      3818 2.28594E-03-2.24413E-04-1.89556E-15
 -1      3819 2.43080E-03-2.27408E-04-2.12107E-15
 -1      3820 2.20984E-03-1.86549E-04-1.76453E-15
 -1      3821 1.14909E-02-4.19460E-04-3.63959E-14
 -1      3822 1.17139E-02-5.39359E-04-3.73988E-14
 -1      3823 1.04307E-02 1.91589E-04-3.09792E-14
 -1      3824 1.50275E-03 1.87117E-05-7.96116E-16
 -1      3825 1.50270E-03-1.56947E-05-8.19332E-16
 -1      3826 2.49989E-03-1.91745E-04-2.21000E-15
 -1      3827 1.25942E-02-9.23738E-04-4.11084E-14
 -1      3828 1.26338E-02-9.36986E-04-4.08608E-14
 -1      3829 1.27159E-02-9.62032E-04-4.12855E-14
 -1      3830 3.12884E-03 2.48004E-04-2.67969E-15
 -1      3831 2.98441E-03 2.47528E-04-2.43468E-15
 -1      3832 9.89741E-03 3.95329E-04-2.79779E-14
 -1      3833 7.42338E-03-2.53158E-04-1.95320E-14
 -1      3834 7.47145E-03-2.80282E-04-2.00295E-14
 -1      3835 1.28326E-02-9.94494E-04-4.16519E-14
 -1      3836 9.53554E-03 4.14729E-04-2.60333E-14
 -1      3837 1.50358E-03 5.31023E-05-7.71464E-16
 -1      3838 1.62700E-03 3.73758E-05-9.03683E-16
 -1      3839 1.50520E-03 8.76693E-05-7.45050E-16
 -1      3840 2.90920E-03 2.09663E-04-2.38115E-15
 -1      3841 2.83986E-03 2.46622E-04-2.20216E-15
 -1      3842 2.69521E-03 2.45247E-04-1.98160E-15
 -1      3843 1.10898E-02-1.61110E-04-3.46508E-14
 -1      3844 1.09150E-02-7.06108E-05-3.36617E-14
 -1      3845 7.52880E-03-3.02607E-04-2.05346E-14
 -1      3846 7.41394E-03-2.30438E-04-1.92699E-14
 -1      3847 7.41195E-03-2.04374E-04-1.90053E-14
 -1      3848 7.28455E-03-2.18427E-04-1.85133E-14
 -1      3849 8.42021E-03 1.42266E-04-2.12941E-14
 -1      3850 8.87149E-03 2.65518E-04-2.30210E-14
 -1      3851 9.16719E-03 3.53970E-04-2.42430E-14
 -1      3852 8.99240E-03 3.20064E-04-2.34347E-14
 -1      3853 1.33487E-02-1.12845E-03-5.03015E-14
 -1      3854 1.31300E-02-1.03478E-03-4.86681E-14
 -1      3855 1.31226E-02-1.04400E-03-4.83204E-14
 -1      3856 1.34049E-02-1.16108E-03-5.05032E-14
 -1      3857 7.55675E-03-1.76654E-04-1.94022E-14
 -1      3858 7.67202E-03-1.61769E-04-1.97710E-14
 -1      3859 7.67493E-03-1.13498E-04-1.93943E-14
 -1      3860 1.08066E-02-1.73033E-05-3.30419E-14
 -1      3861 1.06320E-02 7.70077E-05-3.20792E-14
 -1      3862 1.48157E-03-1.32814E-04-8.58295E-16
 -1      3863 1.38079E-03-6.42335E-05-7.32555E-16
 -1      3864 1.18511E-02-6.06351E-04-3.80525E-14
 -1      3865 1.19868E-02-6.68521E-04-3.87116E-14
 -1      3866 1.17768E-02-5.50689E-04-3.79930E-14
 -1      3867 1.44830E-03 1.93602E-04-5.95878E-16
 -1      3868 1.12439E-02-2.61784E-04-3.53692E-14
 -1      3869 1.09552E-02-1.17530E-04-3.37437E-14
 -1      3870 4.91833E-03 1.97442E-04-6.97202E-15
 -1      3871 1.22953E-02-8.13806E-04-3.97213E-14
 -1      3872 1.39837E-02-1.47693E-03-5.29679E-14
 -1      3873 3.70509E-03 2.46783E-04-3.78725E-15
 -1      3874 3.56127E-03 2.47486E-04-3.49110E-15
 -1      3875 3.77505E-03 2.09008E-04-4.02677E-15
 -1      3876 1.38417E-02-1.41166E-03-5.18345E-14
 -1      3877 1.36293E-02-1.28521E-03-5.13786E-14
 -1      3878 1.35688E-02-1.25289E-03-5.11170E-14
 -1      3879 1.35452E-02-1.25629E-03-5.04937E-14
 -1      3880 8.29802E-03 4.25833E-05-2.12338E-14
 -1      3881 8.37449E-03 8.64260E-05-2.13639E-14
 -1      3882 8.25407E-03 1.20133E-04-2.05959E-14
 -1      3883 8.15573E-03 1.29092E-05-2.07319E-14
 -1      3884 1.97159E-03 2.27973E-04-1.06718E-15
 -1      3885 1.82718E-03 2.21679E-04-9.20894E-16
 -1      3886 1.29829E-02-1.05370E-03-4.32038E-14
 -1      3887 1.11935E-02-2.57901E-04-3.49178E-14
 -1      3888 1.13747E-02-3.47911E-04-3.59227E-14
 -1      3889 1.15301E-02-4.15160E-04-3.68601E-14
 -1      3890 1.71877E-03 2.13954E-04-8.20985E-16
 -1      3891 1.61057E-03 2.05588E-04-7.27161E-16
 -1      3892 1.78664E-03 1.83726E-04-9.24174E-16
 -1      3893 2.42453E-03-1.54021E-04-2.06408E-15
 -1      3894 2.56973E-03-1.55653E-04-2.29744E-15
 -1      3895 3.27313E-03 2.48133E-04-2.93744E-15
 -1      3896 3.19848E-03 2.10534E-04-2.87915E-15
 -1      3897 3.41728E-03 2.47940E-04-3.20810E-15
 -1      3898 2.11620E-03 2.33163E-04-1.22570E-15
 -1      3899 2.03976E-03 1.95298E-04-1.18716E-15
 -1      3900 2.26093E-03 2.37359E-04-1.39613E-15
 -1      3901 1.28136E-02-9.93908E-04-4.19333E-14
 -1      3902 1.29011E-02-1.02319E-03-4.25538E-14
 -1      3903 1.29770E-02-1.05503E-03-4.34862E-14
 -1      3904 1.27878E-02-9.88837E-04-4.21842E-14
 -1      3905 3.00498E-03-1.58221E-04-3.07450E-15
 -1      3906 3.14982E-03-1.58454E-04-3.35890E-15
 -1      3907 3.29450E-03-1.58463E-04-3.65631E-15
 -1      3908 3.43897E-03-1.58257E-04-3.96726E-15
 -1      3909 3.22059E-03-1.20870E-04-3.45800E-15
 -1      3910 3.58324E-03-1.57887E-04-4.29076E-15
 -1      3911 3.72729E-03-1.57356E-04-4.62762E-15
 -1      3912 3.50975E-03-1.20566E-04-4.07248E-15
 -1      3913 3.87109E-03-1.56707E-04-4.97798E-15
 -1      3914 4.01463E-03-1.55936E-04-5.34119E-15
 -1      3915 3.79799E-03-1.19768E-04-4.73956E-15
 -1      3916 4.16505E-03-1.55035E-04-5.73638E-15
 -1      3917 4.31515E-03-1.54036E-04-6.14688E-15
 -1      3918 4.09232E-03-1.18586E-04-5.47819E-15
 -1      3919 4.45776E-03-1.53031E-04-6.55167E-15
 -1      3920 4.60003E-03-1.51968E-04-6.97015E-15
 -1      3921 4.38536E-03-1.17164E-04-6.27283E-15
 -1      3922 4.74191E-03-1.50887E-04-7.40211E-15
 -1      3923 4.88338E-03-1.49785E-04-7.84846E-15
 -1      3924 4.66982E-03-1.15672E-04-7.10365E-15
 -1      3925 5.02438E-03-1.48716E-04-8.30916E-15
 -1      3926 5.16487E-03-1.47677E-04-8.78541E-15
 -1      3927 4.95259E-03-1.14233E-04-7.99048E-15
 -1      3928 5.30478E-03-1.46747E-04-9.27620E-15
 -1      3929 5.44404E-03-1.45927E-04-9.78090E-15
 -1      3930 5.23334E-03-1.13069E-04-8.93525E-15
 -1      3931 5.58257E-03-1.45329E-04-1.03002E-14
 -1      3932 5.72028E-03-1.44963E-04-1.08339E-14
 -1      3933 5.51161E-03-1.12512E-04-9.93987E-15
 -1      3934 5.85706E-03-1.44989E-04-1.13811E-14
 -1      3935 5.99278E-03-1.45421E-04-1.19417E-14
 -1      3936 5.78680E-03-1.13053E-04-1.10016E-14
 -1      3937 6.12732E-03-1.46488E-04-1.25156E-14
 -1      3938 6.26049E-03-1.48205E-04-1.31033E-14
 -1      3939 6.05814E-03-1.15398E-04-1.21166E-14
 -1      3940 6.39216E-03-1.50890E-04-1.37057E-14
 -1      3941 6.52206E-03-1.54543E-04-1.43204E-14
 -1      3942 6.32469E-03-1.20522E-04-1.32859E-14
 -1      3943 6.65004E-03-1.59592E-04-1.49470E-14
 -1      3944 6.77573E-03-1.66001E-04-1.55879E-14
 -1      3945 6.58526E-03-1.29706E-04-1.45100E-14
 -1      3946 6.89901E-03-1.74333E-04-1.62417E-14
 -1      3947 7.01931E-03-1.84514E-04-1.69090E-14
 -1      3948 6.83845E-03-1.44537E-04-1.57859E-14
 -1      3949 7.17254E-03-2.02929E-04-1.78150E-14
 -1      3950 1.35372E-02-1.28484E-03-4.89630E-14
 -1      3951 1.36633E-02-1.33872E-03-5.01073E-14
 -1      3952 4.41835E-03 1.67110E-04-5.67477E-15
 -1      3953 4.27546E-03 1.68370E-04-5.30362E-15
 -1      3954 2.71490E-03-1.56869E-04-2.54399E-15
 -1      3955 2.86000E-03-1.57699E-04-2.80243E-15
 -1      3956 2.93068E-03-1.20493E-04-2.89508E-15
 -1      3957 4.13232E-03 1.69482E-04-4.94564E-15
 -1      3958 3.98893E-03 1.70462E-04-4.60152E-15
 -1      3959 4.20264E-03 1.32082E-04-5.21470E-15
 -1      3960 5.55164E-03 1.51085E-04-9.15796E-15
 -1      3961 5.41094E-03 1.53798E-04-8.67144E-15
 -1      3962 5.26999E-03 1.56268E-04-8.20072E-15
 -1      3963 5.12874E-03 1.58529E-04-7.74355E-15
 -1      3964 5.33794E-03 1.20006E-04-8.55510E-15
 -1      3965 6.11232E-03 1.37522E-04-1.12463E-14
 -1      3966 5.97236E-03 1.41355E-04-1.07031E-14
 -1      3967 6.39226E-03 1.28918E-04-1.23735E-14
 -1      3968 6.25223E-03 1.33370E-04-1.18031E-14
 -1      3969 6.17588E-03 1.00860E-04-1.16650E-14
 -1      3970 6.67317E-03 1.19160E-04-1.35584E-14
 -1      3971 6.53249E-03 1.24152E-04-1.29582E-14
 -1      3972 6.45364E-03 9.13378E-05-1.28122E-14
 -1      3973 6.95672E-03 1.08689E-04-1.47995E-14
 -1      3974 6.81445E-03 1.13927E-04-1.41718E-14
 -1      3975 6.73200E-03 7.99955E-05-1.40166E-14
 -1      3976 7.24547E-03 9.86432E-05-1.60998E-14
 -1      3977 7.10022E-03 1.03440E-04-1.54426E-14
 -1      3978 7.01272E-03 6.71322E-05-1.52784E-14
 -1      3979 7.54298E-03 9.14564E-05-1.74552E-14
 -1      3980 7.39283E-03 9.43483E-05-1.67707E-14
 -1      3981 7.29861E-03 5.37738E-05-1.65968E-14
 -1      3982 7.85388E-03 9.16815E-05-1.88664E-14
 -1      3983 7.69646E-03 9.00809E-05-1.81549E-14
 -1      3984 7.59379E-03 4.26510E-05-1.79720E-14
 -1      3985 8.08483E-03 1.07681E-04-1.98517E-14
 -1      3986 1.52916E-03-1.00280E-04-8.92339E-16
 -1      3987 1.62872E-03-1.36640E-04-1.01221E-15
 -1      3988 1.20812E-02-6.52257E-04-4.02601E-14
 -1      3989 1.19209E-02-5.88188E-04-3.91986E-14
 -1      3990 1.17013E-02-4.90815E-04-3.78936E-14
 -1      3991 1.26859E-02-8.84432E-04-4.46380E-14
 -1      3992 1.25390E-02-8.28201E-04-4.35256E-14
 -1      3993 1.29746E-02-9.95617E-04-4.68955E-14
 -1      3994 1.28310E-02-9.40058E-04-4.57616E-14
 -1      3995 1.28286E-02-9.52383E-04-4.54242E-14
 -1      3996 1.52728E-03-6.52941E-05-8.72837E-16
 -1      3997 4.70333E-03 1.64164E-04-6.45987E-15
 -1      3998 4.56097E-03 1.65716E-04-6.06020E-15
 -1      3999 4.48834E-03 1.29988E-04-5.96497E-15
 -1      4000 1.51587E-03 1.66859E-04-6.81516E-16
 -1      4001 1.52979E-03 1.37264E-04-7.22865E-16
 -1      4002 1.30632E-02-1.08955E-03-4.44779E-14
 -1      4003 1.31761E-02-1.13498E-03-4.55875E-14
 -1      4004 7.77935E-03-2.28495E-05-1.92189E-14
 -1      4005 7.92279E-03-6.25092E-07-1.97260E-14
 -1      4006 1.22338E-02-7.77612E-04-3.98834E-14
 -1      4007 1.24414E-02-8.61985E-04-4.08489E-14
 -1      4008 1.35885E-02-1.29259E-03-5.01201E-14
 -1      4009 1.35227E-02-1.25842E-03-4.98709E-14
 -1      4010 2.13430E-03-1.49185E-04-1.63710E-15
 -1      4011 2.27937E-03-1.51884E-04-1.84423E-15
 -1      4012 2.34964E-03-1.16639E-04-1.92218E-15
 -1      4013 1.23896E-02-7.71280E-04-4.24244E-14
 -1      4014 1.22373E-02-7.12670E-04-4.13361E-14
 -1      4015 1.25394E-02-8.44087E-04-4.31994E-14
 -1      4016 4.98722E-03 1.60583E-04-7.30114E-15
 -1      4017 4.84542E-03 1.62462E-04-6.87360E-15
 -1      4018 5.05607E-03 1.24075E-04-7.63457E-15
 -1      4019 1.32933E-02-1.18261E-03-4.67028E-14
 -1      4020 1.34137E-02-1.23285E-03-4.78267E-14
 -1      4021 1.31782E-02-1.13476E-03-4.59273E-14
 -1      4022 5.83232E-03 1.44884E-04-1.01743E-14
 -1      4023 5.69208E-03 1.48124E-04-9.66016E-15
 -1      4024 5.89767E-03 1.08652E-04-1.05722E-14
 -1      4025 1.18301E-02-5.56135E-04-3.85529E-14
 -1      4026 3.26863E-03 1.72946E-04-3.08178E-15
 -1      4027 3.12398E-03 1.72850E-04-2.81684E-15
 -1      4028 1.25366E-02-8.98980E-04-4.12752E-14
 -1      4029 1.26281E-02-9.32446E-04-4.17038E-14
 -1      4030 1.24834E-02-8.70045E-04-4.14407E-14
 -1      4031 1.21531E-02-7.29424E-04-3.98250E-14
 -1      4032 7.11970E-03-1.72580E-04-1.73379E-14
 -1      4033 5.61845E-03 1.14946E-04-9.53568E-15
 -1      4034 1.34227E-02-1.23316E-03-4.81767E-14
 -1      4035 1.65242E-03 1.24359E-04-8.51925E-16
 -1      4036 2.97916E-03 1.72476E-04-2.56492E-15
 -1      4037 2.83422E-03 1.71807E-04-2.32452E-15
 -1      4038 3.04968E-03 1.35121E-04-2.75215E-15
 -1      4039 3.48713E-03 2.10223E-04-3.42692E-15
 -1      4040 1.19970E-02-6.44833E-04-3.92979E-14
 -1      4041 1.37570E-02-1.37563E-03-5.10732E-14
 -1      4042 1.29705E-02-1.05478E-03-4.38219E-14
 -1      4043 7.97177E-03 4.78255E-05-1.96603E-14
 -1      4044 1.22396E-02-7.32686E-04-4.10185E-14
 -1      4045 2.64024E-03-1.19189E-04-2.38306E-15
 -1      4046 1.36403E-02-1.32046E-03-5.02791E-14
 -1      4047 1.65068E-03-4.98215E-05-9.90053E-16
 -1      4048 1.34971E-02-1.25841E-03-4.91586E-14
 -1      4049 7.40057E-03-1.70222E-04-1.86446E-14
 -1      4050 7.39075E-03-1.32434E-04-1.82844E-14
 -1      4051 7.25198E-03-1.63154E-04-1.79043E-14
 -1      4052 4.77284E-03 1.27352E-04-6.77134E-15
 -1      4053 1.75204E-03 5.72615E-05-1.01697E-15
 -1      4054 1.75116E-03 2.01630E-05-1.04729E-15
 -1      4055 7.65520E-03-6.50529E-05-1.89483E-14
 -1      4056 7.62606E-03-5.25266E-06-1.84190E-14
 -1      4057 7.47909E-03 2.03396E-06-1.77166E-14
 -1      4058 7.53461E-03-8.95663E-05-1.85946E-14
 -1      4059 2.55048E-03 2.43296E-04-1.77382E-15
 -1      4060 2.40570E-03 2.40711E-04-1.57882E-15
 -1      4061 2.32951E-03 2.02654E-04-1.53542E-15
 -1      4062 2.61946E-03 2.07215E-04-1.93308E-15
 -1      4063 3.84530E-03 1.71289E-04-4.27132E-15
 -1      4064 3.70145E-03 1.71973E-04-3.95433E-15
 -1      4065 3.91582E-03 1.33681E-04-4.51966E-15
 -1      4066 1.34625E-02-1.22797E-03-4.96179E-14
 -1      4067 1.34010E-02-1.19644E-03-4.93627E-14
 -1      4068 1.33815E-02-1.20018E-03-4.87466E-14
 -1      4069 2.01295E-03-1.48146E-04-1.47416E-15
 -1      4070 2.08289E-03-1.14572E-04-1.54586E-15
 -1      4071 1.89179E-03-1.46551E-04-1.31996E-15
 -1      4072 1.35151E-02-1.22334E-03-5.09132E-14
 -1      4073 1.34595E-02-1.19189E-03-5.07138E-14
 -1      4074 1.33198E-02-1.13403E-03-4.96187E-14
 -1      4075 1.34299E-02-1.19496E-03-5.00332E-14
 -1      4076 1.74921E-03-1.39575E-04-1.14723E-15
 -1      4077 2.10879E-03 1.61882E-04-1.31180E-15
 -1      4078 1.96398E-03 1.58100E-04-1.14618E-15
 -1      4079 1.27666E-02-9.81915E-04-4.25122E-14
 -1      4080 1.28718E-02-1.01891E-03-4.31659E-14
 -1      4081 1.29611E-02-1.05149E-03-4.41559E-14
 -1      4082 3.14696E-03-8.32322E-05-3.26362E-15
 -1      4083 3.29183E-03-8.32239E-05-3.55448E-15
 -1      4084 3.43648E-03-8.31197E-05-3.85816E-15
 -1      4085 3.58091E-03-8.29152E-05-4.17506E-15
 -1      4086 3.36348E-03-4.55678E-05-3.64822E-15
 -1      4087 3.72508E-03-8.26468E-05-4.50528E-15
 -1      4088 3.86899E-03-8.23063E-05-4.84876E-15
 -1      4089 3.65241E-03-4.53514E-05-4.27509E-15
 -1      4090 4.01978E-03-8.19091E-05-5.22402E-15
 -1      4091 4.17024E-03-8.14625E-05-5.61308E-15
 -1      4092 3.94746E-03-4.49993E-05-4.97322E-15
 -1      4093 4.31319E-03-8.10279E-05-5.99718E-15
 -1      4094 4.45579E-03-8.05755E-05-6.39651E-15
 -1      4095 4.24123E-03-4.46094E-05-5.72659E-15
 -1      4096 4.59800E-03-8.01469E-05-6.80930E-15
 -1      4097 4.73981E-03-7.97348E-05-7.23489E-15
 -1      4098 4.52644E-03-4.42897E-05-6.51759E-15
 -1      4099 4.88117E-03-7.93917E-05-7.67549E-15
 -1      4100 5.02205E-03-7.91134E-05-8.13030E-15
 -1      4101 4.81006E-03-4.41617E-05-7.36432E-15
 -1      4102 5.16240E-03-7.89708E-05-8.59954E-15
 -1      4103 5.30217E-03-7.89641E-05-9.08422E-15
 -1      4104 5.09183E-03-4.44151E-05-8.26779E-15
 -1      4105 5.44130E-03-7.91916E-05-9.58325E-15
 -1      4106 5.57972E-03-7.96593E-05-1.00965E-14
 -1      4107 5.37144E-03-4.53275E-05-9.22977E-15
 -1      4108 5.71737E-03-8.05035E-05-1.06242E-14
 -1      4109 5.85415E-03-8.17366E-05-1.11651E-14
 -1      4110 5.64849E-03-4.73013E-05-1.02502E-14
 -1      4111 5.99001E-03-8.35452E-05-1.17201E-14
 -1      4112 6.12480E-03-8.59466E-05-1.22878E-14
 -1      4113 5.92253E-03-5.09018E-05-1.13263E-14
 -1      4114 6.25850E-03-8.91909E-05-1.28703E-14
 -1      4115 6.39090E-03-9.32946E-05-1.34659E-14
 -1      4116 6.19303E-03-5.68950E-05-1.24569E-14
 -1      4117 6.52202E-03-9.85830E-05-1.40744E-14
 -1      4118 6.65157E-03-1.05054E-04-1.46962E-14
 -1      4119 6.45948E-03-6.62700E-05-1.36404E-14
 -1      4120 6.77966E-03-1.13105E-04-1.53325E-14
 -1      4121 6.90587E-03-1.22684E-04-1.59817E-14
 -1      4122 6.72141E-03-8.02062E-05-1.48803E-14
 -1      4123 2.85672E-03-8.28361E-05-2.71953E-15
 -1      4124 3.00191E-03-8.31023E-05-2.98509E-15
 -1      4125 3.07365E-03-4.55827E-05-3.07308E-15
 -1      4126 4.27315E-03 9.48861E-05-5.48823E-15
 -1      4127 4.13003E-03 9.56017E-05-5.12352E-15
 -1      4128 1.76204E-03-2.10234E-05-1.09083E-15
 -1      4129 1.78703E-03-7.45327E-05-1.15520E-15
 -1      4130 1.32428E-02-1.15689E-03-4.68882E-14
 -1      4131 1.33690E-02-1.20687E-03-4.80195E-14
 -1      4132 1.33116E-02-1.17842E-03-4.78578E-14
 -1      4133 1.78074E-03 1.46560E-04-9.59248E-16
 -1      4134 1.75586E-03 9.35907E-05-9.87396E-16
 -1      4135 1.87986E-03 7.71639E-05-1.13841E-15
 -1      4136 1.88921E-03 1.52348E-04-1.06917E-15
 -1      4137 6.51408E-03 5.41709E-05-1.32534E-14
 -1      4138 6.37653E-03 5.97232E-05-1.26627E-14
 -1      4139 6.23888E-03 6.46784E-05-1.20849E-14
 -1      4140 6.10094E-03 6.90552E-05-1.15213E-14
 -1      4141 6.30134E-03 2.90212E-05-1.25082E-14
 -1      4142 7.06631E-03 2.55650E-05-1.57593E-14
 -1      4143 6.92740E-03 3.35843E-05-1.51111E-14
 -1      4144 7.34176E-03 9.51493E-06-1.70616E-14
 -1      4145 7.19999E-03 1.79688E-05-1.63875E-14
 -1      4146 7.11121E-03-1.51081E-05-1.62088E-14
 -1      4147 7.37494E-03-3.40550E-05-1.74938E-14
 -1      4148 4.55846E-03 9.31347E-05-6.26009E-15
 -1      4149 4.41597E-03 9.40724E-05-5.86751E-15
 -1      4150 4.34386E-03 5.79362E-05-5.76632E-15
 -1      4151 1.32321E-02-1.09974E-03-4.88867E-14
 -1      4152 1.30910E-02-1.04200E-03-4.78022E-14
 -1      4153 1.29691E-02-1.01732E-03-4.62137E-14
 -1      4154 1.28288E-02-9.64874E-04-4.50906E-14
 -1      4155 3.55738E-03 1.72483E-04-3.65055E-15
 -1      4156 3.41310E-03 1.72822E-04-3.36006E-15
 -1      4157 3.33923E-03 1.35302E-04-3.28960E-15
 -1      4158 3.62799E-03 1.34774E-04-3.87846E-15
 -1      4159 7.09347E-03-1.42073E-04-1.69948E-14
 -1      4160 4.84243E-03 9.08701E-05-7.08640E-15
 -1      4161 4.70062E-03 9.20783E-05-6.66577E-15
 -1      4162 4.62872E-03 5.65887E-05-6.55831E-15
 -1      4163 1.81882E-03-1.08310E-04-1.21193E-15
 -1      4164 1.88688E-03-2.51377E-06-1.21849E-15
 -1      4165 1.30863E-02-1.05177E-03-4.74576E-14
 -1      4166 1.92965E-03-7.93065E-05-1.32683E-15
 -1      4167 1.95883E-03 1.19864E-04-1.18380E-15
 -1      4168 1.32881E-02-1.13090E-03-4.90953E-14
 -1      4169 2.00655E-03 2.15579E-05-1.34003E-15
 -1      4170 2.01750E-03-2.19352E-05-1.39170E-15
 -1      4171 5.68509E-03 7.92827E-05-9.91588E-15
 -1      4172 5.54567E-03 8.18968E-05-9.40726E-15
 -1      4173 1.22348E-02-7.54947E-04-4.04785E-14
 -1      4174 2.27531E-03-7.97195E-05-1.78471E-15
 -1      4175 2.42064E-03-8.08568E-05-1.99874E-15
 -1      4176 1.26873E-02-9.12802E-04-4.39750E-14
 -1      4177 1.25436E-02-8.60502E-04-4.28720E-14
 -1      4178 1.28317E-02-9.77586E-04-4.47553E-14
 -1      4179 6.78932E-03 4.11059E-05-1.44770E-14
 -1      4180 6.65158E-03 4.79451E-05-1.38582E-14
 -1      4181 6.57358E-03 1.74507E-05-1.36970E-14
 -1      4182 6.84503E-03 2.47066E-06-1.49411E-14
 -1      4183 5.40584E-03 8.41814E-05-8.91430E-15
 -1      4184 5.26558E-03 8.61940E-05-8.43599E-15
 -1      4185 5.47370E-03 4.88350E-05-9.27756E-15
 -1      4186 2.25379E-03 1.64967E-04-1.48948E-15
 -1      4187 2.17860E-03 1.27753E-04-1.44074E-15
 -1      4188 2.39889E-03 1.67415E-04-1.67932E-15
 -1      4189 5.12492E-03 8.79532E-05-7.97189E-15
 -1      4190 4.98386E-03 8.95088E-05-7.52200E-15
 -1      4191 5.19382E-03 5.22569E-05-8.31233E-15
 -1      4192 1.30387E-02-1.07952E-03-4.49574E-14
 -1      4193 1.31605E-02-1.12576E-03-4.60689E-14
 -1      4194 1.30982E-02-1.09772E-03-4.59092E-14
 -1      4195 1.29352E-02-1.04001E-03-4.42945E-14
 -1      4196 5.96271E-03 7.29145E-05-1.09729E-14
 -1      4197 5.82409E-03 7.63088E-05-1.04382E-14
 -1      4198 5.75162E-03 4.41397E-05-1.02997E-14
 -1      4199 6.02747E-03 3.77180E-05-1.13763E-14
 -1      4200 2.56603E-03-8.17441E-05-2.22625E-15
 -1      4201 2.71141E-03-8.23839E-05-2.46663E-15
 -1      4202 2.49231E-03-4.45937E-05-2.07379E-15
 -1      4203 1.23842E-02-8.08672E-04-4.15542E-14
 -1      4204 1.25403E-02-8.77704E-04-4.23202E-14
 -1      4205 1.27210E-02-9.62063E-04-4.26830E-14
 -1      4206 3.98661E-03 9.62070E-05-4.77176E-15
 -1      4207 3.84291E-03 9.67228E-05-4.43447E-15
 -1      4208 4.05765E-03 5.89141E-05-5.02907E-15
 -1      4209 7.04342E-03-1.07190E-04-1.65206E-14
 -1      4210 2.78316E-03-4.52991E-05-2.54778E-15
 -1      4211 3.12072E-03 9.76245E-05-2.94396E-15
 -1      4212 2.97568E-03 9.74027E-05-2.68474E-15
 -1      4213 1.32493E-02-1.14867E-03-4.76054E-14
 -1      4214 2.06637E-03 1.04567E-04-1.32828E-15
 -1      4215 1.99156E-03 9.97066E-05-1.24392E-15
 -1      4216 1.98768E-03 6.15288E-05-1.27917E-15
 -1      4217 2.21143E-03 1.06741E-04-1.50825E-15
 -1      4218 2.68916E-03 1.70770E-04-2.09664E-15
 -1      4219 2.54404E-03 1.69336E-04-1.88171E-15
 -1      4220 2.46900E-03 1.31689E-04-1.82763E-15
 -1      4221 2.75951E-03 1.34021E-04-2.26472E-15
 -1      4222 2.11783E-03 4.31856E-05-1.45774E-15
 -1      4223 3.41027E-03 9.76261E-05-3.50125E-15
 -1      4224 3.26560E-03 9.76990E-05-3.21604E-15
 -1      4225 3.19224E-03 6.00428E-05-3.14057E-15
 -1      4226 7.36415E-03-9.19630E-05-1.78555E-14
 -1      4227 4.91210E-03 5.47555E-05-7.40604E-15
 -1      4228 1.33438E-02-1.16132E-03-4.93005E-14
 -1      4229 2.16994E-03-5.59261E-05-1.61836E-15
 -1      4230 2.24187E-03-2.06013E-05-1.68493E-15
 -1      4231 2.05098E-03-7.92954E-05-1.47952E-15
 -1      4232 1.31977E-02-1.10578E-03-4.80419E-14
 -1      4233 1.30841E-02-1.06130E-03-4.71359E-14
 -1      4234 1.33394E-02-1.16858E-03-4.89728E-14
 -1      4235 1.30826E-02-1.07081E-03-4.67933E-14
 -1      4236 6.91283E-03-4.98487E-05-1.55565E-14
 -1      4237 7.11156E-03-6.77940E-05-1.65601E-14
 -1      4238 3.58001E-03-7.91885E-06-4.04921E-15
 -1      4239 3.72424E-03-7.89482E-06-4.37241E-15
 -1      4240 3.85497E-03 7.13759E-06-4.64774E-15
 -1      4241 4.00583E-03 7.05780E-06-5.01346E-15
 -1      4242 4.14920E-03 6.93059E-06-5.37522E-15
 -1      4243 4.29223E-03 6.77404E-06-5.74916E-15
 -1      4244 4.43492E-03 6.54655E-06-6.13900E-15
 -1      4245 4.57724E-03 6.26516E-06-6.54220E-15
 -1      4246 4.71917E-03 5.87997E-06-6.95802E-15
 -1      4247 4.86067E-03 5.40393E-06-7.38893E-15
 -1      4248 5.00173E-03 4.77436E-06-7.83430E-15
 -1      4249 5.14231E-03 3.99925E-06-8.29413E-15
 -1      4250 5.28238E-03 2.99811E-06-8.76858E-15
 -1      4251 5.42189E-03 1.77272E-06-9.25811E-15
 -1      4252 5.56084E-03 2.19504E-07-9.76140E-15
 -1      4253 5.69915E-03-1.66774E-06-1.02787E-14
 -1      4254 5.83683E-03-4.02013E-06-1.08111E-14
 -1      4255 5.97379E-03-6.85394E-06-1.13562E-14
 -1      4256 6.11008E-03-1.03293E-05-1.19138E-14
 -1      4257 6.24558E-03-1.44745E-05-1.24866E-14
 -1      4258 6.38041E-03-1.94731E-05-1.30738E-14
 -1      4259 6.51442E-03-2.53671E-05-1.36728E-14
 -1      4260 6.64786E-03-3.23414E-05-1.42868E-14
 -1      4261 6.78050E-03-4.04347E-05-1.49144E-14
 -1      4262 2.22948E-03 6.54130E-05-1.57979E-15
 -1      4263 2.24841E-03 2.39355E-05-1.64988E-15
 -1      4264 2.34144E-03 8.80875E-05-1.70514E-15
 -1      4265 1.29911E-02-1.04969E-03-4.54848E-14
 -1      4266 1.28592E-02-1.00222E-03-4.43714E-14
 -1      4267 2.90202E-03 5.97397E-05-2.61382E-15
 -1      4268 2.83048E-03 9.69910E-05-2.43729E-15
 -1      4269 2.68519E-03 9.63841E-05-2.20258E-15
 -1      4270 1.27156E-02-9.54987E-04-4.30411E-14
 -1      4271 3.71186E-03 8.19957E-05-4.17014E-15
 -1      4272 3.56765E-03 8.22729E-05-3.85641E-15
 -1      4273 3.27747E-03 7.22422E-06-3.39145E-15
 -1      4274 3.42222E-03 7.23924E-06-3.68562E-15
 -1      4275 2.69670E-03 7.04307E-06-2.33997E-15
 -1      4276 2.84209E-03 7.12209E-06-2.58421E-15
 -1      4277 2.35296E-03 9.92652E-07-1.82006E-15
 -1      4278 2.98738E-03 7.16551E-06-2.84053E-15
 -1      4279 3.13252E-03 7.21071E-06-3.10988E-15
 -1      4280 3.49478E-03 4.48014E-05-3.77226E-15
 -1      4281 3.78326E-03 4.44953E-05-4.40618E-15
 -1      4282 7.23750E-03-7.91260E-05-1.72014E-14
 -1      4283 1.30781E-02-1.08033E-03-4.63037E-14
 -1      4284 2.49839E-03 1.03426E-06-2.03474E-15
 -1      4285 1.31879E-02-1.12203E-03-4.72204E-14
 -1      4286 2.48678E-03 8.92408E-05-1.91051E-15
 -1      4287 1.32577E-02-1.14180E-03-4.81058E-14
 -1      4288 2.55834E-03 5.28145E-05-2.06436E-15
 -1      4289 1.28013E-02-9.89069E-04-4.34745E-14
 -3
    1PSTEP                         2           1           1          
  100CL  101 1.000000000        4289                     0    1           1
 -4  STRESS      6    1
 -5  SXX         1    4    1    1
 -5  SYY         1    4    2    2
 -5  SZZ         1    4    3    3
 -5  SXY         1    4    1    2
 -5  SYZ         1    4    2    3
 -5  SZX         1    4    3    1
 -1         1 1.05860E+01 8.09174E+00-5.07138E-01 9.40099E+00-1.32538E-12-1.35036E-12
 -1         2-7.13333E-01-2.58390E+01-3.43817E+00-1.08995E-02 1.87905E-12 8.02414E-14
 -1         3 1.99949E+01-5.26778E-03 1.42737E-02-5.28221E-03-4.95022E-13-5.98848E-13
 -1         4 1.99884E+01-1.46104E-02 2.27135E-02 1.44912E-02 3.60024E-13-4.89431E-13
 -1         5 3.27621E+01 6.14145E+00 2.74203E+00 6.22362E+00-2.69923E-14 1.67615E-12
 -1         6 3.57461E+01 1.22614E+01 5.12499E+00-8.64588E+00-9.76441E-14 7.98583E-13
 -1         7 2.08140E+01 6.09836E+00-1.28833E-01-4.72598E+00-1.41692E-14-1.05877E-13
 -1         8 1.96688E+01 5.93407E+00 5.09103E-02-3.27586E+00-1.12133E-14-3.16392E-13
 -1         9 1.91357E+01 5.77149E+00 4.90944E-02-2.52788E+00-5.39672E-15-3.97193E-13
 -1        10 1.88957E+01 5.69222E+00 5.10978E-02-1.95269E+00-4.07660E-17-4.19098E-13
 -1        11 1.87756E+01 5.65177E+00 5.03224E-02-1.45726E+00 1.19696E-16-4.07239E-13
 -1        12 1.87131E+01 5.63045E+00 4.88173E-02-1.01605E+00 6.09126E-15-3.82057E-13
 -1        13 1.86803E+01 5.61926E+00 4.75015E-02-5.95918E-01 4.41520E-15-3.41692E-13
 -1        14 1.86666E+01 5.61454E+00 4.67857E-02-1.91375E-01 1.05972E-14-3.02949E-13
 -1        15 1.86671E+01 5.61469E+00 4.68271E-02 2.08437E-01 1.00590E-14-2.57227E-13
 -1        16 1.86818E+01 5.61973E+00 4.76458E-02 6.13808E-01 1.34566E-14-1.99217E-13
 -1        17 1.87158E+01 5.63120E+00 4.91561E-02 1.03593E+00 1.61097E-14-1.38695E-13
 -1        18 1.87794E+01 5.65288E+00 5.08713E-02 1.48027E+00 1.48037E-14-3.87587E-14
 -1        19 1.89013E+01 5.69393E+00 5.16938E-02 1.98146E+00 2.15427E-14 8.53124E-14
 -1        20 1.91419E+01 5.77421E+00 4.91269E-02 2.56531E+00 2.26451E-14 2.61347E-13
 -1        21 1.96637E+01 5.94857E+00 4.57315E-02 3.30994E+00 2.19824E-14 5.36446E-13
 -1        22 2.11967E+01 6.38014E+00 1.39335E-01 4.52332E+00-9.85323E-16 9.66664E-13
 -1        23 2.30229E+01-1.37885E+00-9.38185E-01-7.11364E-01-6.98885E-14 5.01321E-13
 -1        24 1.93592E+01-9.94862E-02-3.09830E-01 6.31586E-02-1.53948E-14 2.44983E-13
 -1        25 1.86697E+01-5.63243E-02-6.87743E-02 6.06693E-02-9.56635E-15 2.30614E-14
 -1        26 1.84660E+01-2.20942E-02-6.46254E-03 3.29000E-02 5.87204E-16-1.39588E-13
 -1        27 1.84761E+01-1.18182E-02 1.59400E-03 2.25213E-02 3.77519E-16-2.57856E-13
 -1        28 1.85890E+01-6.27078E-03 1.79399E-03 1.61990E-02-1.22397E-14-3.26912E-13
 -1        29 1.87479E+01-3.14163E-03 1.71545E-03 1.20201E-02-1.45123E-15-3.86953E-13
 -1        30 1.89217E+01-1.32505E-03 1.86819E-03 9.03116E-03 6.82437E-15-3.93196E-13
 -1        31 1.90931E+01-2.85497E-04 1.98427E-03 6.77469E-03 3.67403E-16-5.12631E-13
 -1        32 1.92531E+01 2.62183E-04 1.94991E-03 5.01927E-03-2.69591E-14-6.33988E-13
 -1        33 1.93979E+01 4.79938E-04 1.76426E-03 3.63673E-03 2.54783E-14-7.64181E-13
 -1        34 1.95271E+01 4.63382E-04 1.45426E-03 2.54852E-03-1.43547E-14-7.23950E-13
 -1        35 1.96430E+01 2.67993E-04 1.04036E-03 1.70291E-03 4.09616E-15-8.06896E-13
 -1        36 1.97498E+01-7.84594E-05 5.27201E-04 1.06611E-03 3.46201E-14-6.53697E-13
 -1        37 1.98536E+01-5.70126E-04-9.91661E-05 6.19984E-04-3.55388E-14-5.49761E-13
 -1        38 1.99623E+01-1.22126E-03-8.74540E-04 3.63696E-04-1.33348E-15-6.00494E-13
 -1        39 2.00858E+01-2.04091E-03-1.85524E-03 3.29489E-04-4.23072E-15-6.81753E-13
 -1        40 2.02370E+01-3.35066E-03-3.19390E-03 3.18192E-04-3.96443E-14-6.23675E-13
 -1        41 2.04441E+01-4.56184E-03-5.00238E-03 1.28499E-03-8.88986E-15-8.52023E-13
 -1        42 2.07110E+01-6.50439E-03-7.50938E-03 2.48172E-03 2.23677E-14-7.91959E-13
 -1        43 2.10763E+01-8.85258E-03-1.10009E-02 4.73638E-03-4.96082E-15-8.23073E-13
 -1        44 2.15808E+01-1.17200E-02-1.58621E-02 8.61275E-03 6.82735E-14-7.26887E-13
 -1        45 2.22774E+01-1.49222E-02-2.23771E-02 1.51042E-02-2.52458E-14-5.20061E-13
 -1        46 2.32318E+01-1.77994E-02-3.02414E-02 2.56475E-02 2.90244E-14-4.21481E-13
 -1        47 2.45143E+01-1.87095E-02-3.72410E-02 4.19031E-02-6.27994E-14-6.45971E-13
 -1        48 2.61743E+01-1.43870E-02-3.65519E-02 6.45261E-02 5.51340E-14-7.79939E-13
 -1        49 2.81739E+01 3.93900E-04-1.26478E-02 8.92816E-02 2.36199E-15-1.01104E-12
 -1        50 3.02563E+01 3.05894E-02 5.76409E-02 9.83260E-02-4.75123E-14-9.92775E-13
 -1        51 3.17511E+01 7.20264E-02 1.82999E-01 4.80663E-02 3.86037E-14-7.98389E-13
 -1        52 3.14876E+01 1.00636E-01 2.98935E-01-1.19673E-01-2.62611E-14-7.72937E-13
 -1        53 2.83289E+01 6.65055E-02 2.18254E-01-4.00403E-01-5.56976E-14-8.20760E-13
 -1        54 2.29438E+01-3.70444E-02-1.67033E-01-5.45130E-01 1.80527E-14-1.04292E-12
 -1        55 1.80230E+01-1.20723E-01-6.34091E-01-2.82551E-01-1.02814E-13-1.63596E-12
 -1        56 1.76271E+01-1.44178E-01-6.87501E-01 2.24708E-01-2.71051E-14-1.94671E-12
 -1        57 2.21324E+01-4.69575E-02-2.34903E-01 5.43156E-01 6.97177E-14-1.61136E-12
 -1        58 2.78684E+01 5.77194E-02 1.98416E-01 4.15822E-01-1.42817E-13-1.35175E-12
 -1        59 3.12835E+01 9.81168E-02 2.99373E-01 1.40308E-01 1.98539E-14-1.15188E-12
 -1        60 3.17395E+01 7.57234E-02 1.94312E-01-3.92052E-02 3.28947E-15-7.44423E-13
 -1        61 3.03235E+01 3.40875E-02 6.65067E-02-9.73200E-02 3.02911E-14-6.14956E-13
 -1        62 2.82335E+01 2.70521E-03-8.16618E-03-9.15522E-02-7.51524E-14-5.29896E-13
 -1        63 2.61810E+01-1.32206E-02-3.49086E-02-6.74789E-02 6.76347E-15-8.74332E-13
 -1        64 2.44496E+01-1.82699E-02-3.68488E-02-4.47925E-02 9.34571E-15-1.00786E-12
 -1        65 2.30896E+01-1.78014E-02-3.02322E-02-2.84564E-02 1.18797E-13-1.01789E-12
 -1        66 2.20575E+01-1.53169E-02-2.26062E-02-1.79978E-02-2.77477E-14-5.02073E-13
 -1        67 2.12875E+01-1.26407E-02-1.66789E-02-1.16888E-02 7.18502E-14-6.05843E-13
 -1        68 2.07215E+01-1.05678E-02-1.32583E-02-7.79824E-03-7.36711E-14-6.10776E-13
 -1        69 2.03207E+01-9.27173E-03-1.24543E-02-4.60008E-03 1.33224E-13-5.46552E-13
 -1        70 2.00696E+01-8.70083E-03-1.26994E-02-1.44954E-04-3.96612E-14-2.83135E-13
 -1        71 1.99755E+01-2.85625E-03-2.42592E-03 1.22983E-02 5.00355E-14-7.79644E-13
 -1        72 2.10361E+01-4.05043E-01-9.80427E-01-3.11460E-01 1.25490E-14 1.68733E-12
 -1        73 1.93238E+01-6.65847E-02-2.90793E-01-5.38176E-02-2.86403E-15 1.52957E-12
 -1        74 1.86788E+01-2.12395E-02-6.37082E-02-2.09867E-02 2.84365E-15 1.40974E-12
 -1        75 1.84757E+01-1.04893E-02-9.07176E-03-1.60152E-02-1.18778E-14 1.39350E-12
 -1        76 1.84856E+01-5.40027E-03 5.96155E-04-1.26440E-02 1.99500E-14 1.35791E-12
 -1        77 1.85978E+01-2.65308E-03 1.68841E-03-1.00985E-02 6.24313E-15 1.26020E-12
 -1        78 1.87560E+01-1.12240E-03 1.87808E-03-8.20081E-03-2.48715E-14 1.32028E-12
 -1        79 1.89293E+01-2.58063E-04 2.04757E-03-6.66789E-03 3.49357E-15 1.34222E-12
 -1        80 1.91006E+01 2.06364E-04 2.12372E-03-5.36140E-03 1.95102E-14 1.27840E-12
 -1        81 1.92608E+01 4.15100E-04 2.04417E-03-4.22647E-03 1.30334E-14 1.16888E-12
 -1        82 1.94063E+01 4.54219E-04 1.81782E-03-3.24071E-03 9.04774E-15 1.18717E-12
 -1        83 1.95366E+01 3.78811E-04 1.47671E-03-2.39454E-03 2.75232E-14 1.01313E-12
 -1        84 1.96538E+01 2.26641E-04 1.05109E-03-1.68527E-03-1.95839E-14 9.09519E-13
 -1        85 1.97618E+01 2.62957E-05 5.64818E-04-1.11645E-03-2.92378E-14 1.01824E-12
 -1        86 1.98653E+01-1.96937E-04 3.86640E-05-6.99364E-04 3.96920E-14 9.07284E-13
 -1        87 1.99700E+01-4.15969E-04-5.03218E-04-4.55331E-04-3.34234E-14 9.66571E-13
 -1        88 2.00818E+01-5.96979E-04-1.02461E-03-4.17336E-04 3.82449E-15 1.16386E-12
 -1        89 2.02062E+01-6.94711E-04-1.46625E-03-6.29683E-04 2.40214E-14 1.06483E-12
 -1        90 2.03479E+01-6.48765E-04-1.73276E-03-1.14316E-03 2.73699E-14 7.02534E-13
 -1        91 2.05088E+01-3.82735E-04-1.67941E-03-2.00208E-03-9.62806E-14 6.84009E-13
 -1        92 2.06874E+01 1.90442E-04-1.10363E-03-3.21819E-03 4.54639E-14 8.34016E-13
 -1        93 2.08755E+01 1.15170E-03 2.47822E-04-4.72575E-03 1.16869E-14 8.98190E-13
 -1        94 2.10562E+01 2.54101E-03 2.63708E-03-6.31464E-03 1.06187E-14 7.17730E-13
 -1        95 2.12013E+01 4.29951E-03 6.23161E-03-7.54900E-03-2.03195E-14 7.06920E-13
 -1        96 2.12702E+01 6.19253E-03 1.09145E-02-7.70347E-03 4.86438E-14 1.05949E-12
 -1        97 2.12118E+01 7.73987E-03 1.60193E-02-5.79077E-03 6.57482E-15 9.81142E-13
 -1        98 2.09728E+01 8.21583E-03 2.00936E-02-7.92466E-04 4.21895E-14 7.56629E-13
 -1        99 2.05127E+01 6.80403E-03 2.09122E-02 7.80305E-03 1.21715E-14 8.12582E-13
 -1       100 1.98275E+01 2.97957E-03 1.60809E-02 1.92112E-02 7.13649E-15 7.77928E-13
 -1       101 1.89726E+01-2.96639E-03 4.39511E-03 3.07076E-02-1.51853E-14 9.09278E-13
 -1       102 1.80741E+01-9.61437E-03-1.25656E-02 3.79199E-02 2.91332E-14 6.04372E-13
 -1       103 1.73114E+01-1.47322E-02-2.98616E-02 3.66005E-02 5.46297E-15 6.87015E-13
 -1       104 1.68660E+01-1.62977E-02-4.08615E-02 2.52466E-02-4.66241E-14 7.48276E-13
 -1       105 1.68543E+01-1.36444E-02-4.07481E-02 6.71430E-03-1.42248E-14 8.37929E-13
 -1       106 1.72778E+01-7.85077E-03-2.95132E-02-1.28300E-02-3.89966E-14 7.27245E-13
 -1       107 1.80222E+01-1.07073E-03-1.19791E-02-2.71785E-02-8.30661E-16 9.83328E-14
 -1       108 1.89059E+01 4.61660E-03 5.19964E-03-3.31144E-02-4.67530E-14-1.18943E-13
 -1       109 1.97474E+01 8.03415E-03 1.70557E-02-3.11711E-02 5.15915E-14-2.08255E-13
 -1       110 2.04177E+01 9.05691E-03 2.19697E-02-2.42524E-02-6.59303E-14-2.14674E-13
 -1       111 2.08584E+01 8.26315E-03 2.11372E-02-1.56522E-02-2.78257E-14 7.82217E-14
 -1       112 2.10717E+01 6.45756E-03 1.69516E-02-7.74705E-03-9.04160E-15 2.69486E-13
 -1       113 2.10970E+01 4.33310E-03 1.16536E-02-1.67008E-03-1.46783E-14 2.30243E-13
 -1       114 2.09886E+01 2.32945E-03 6.68436E-03 2.40593E-03 1.61562E-14 1.12211E-13
 -1       115 2.07997E+01 6.38971E-04 2.63740E-03 4.82032E-03-2.50057E-14-3.65992E-13
 -1       116 2.05760E+01-7.16258E-04-5.28430E-04 6.04742E-03 6.93364E-14-9.41293E-13
 -1       117 2.03539E+01-1.78975E-03-3.22815E-03 6.42912E-03-3.15772E-14-1.41298E-12
 -1       118 2.01633E+01-2.52072E-03-5.86180E-03 5.98378E-03 1.57099E-13-1.36153E-12
 -1       119 2.00326E+01-2.48799E-03-7.20112E-03 3.63096E-03-1.16865E-14-1.24097E-12
 -1       120 1.99874E+01 2.74509E-03-1.33336E-04-2.99145E-03 1.66570E-13-1.00889E-12
 -1       121 1.99997E+01-9.16946E-03-3.08240E-04-5.28370E-03-7.86762E-13 1.68235E-13
 -1       122 1.99961E+01 3.71348E-02-7.02447E-03 6.07452E-04-1.31807E-13-1.01732E-13
 -1       123 1.99966E+01 1.68110E-01-5.68202E-03 4.55246E-03-2.55943E-13 5.42375E-14
 -1       124 1.99980E+01 3.56039E-01-3.09881E-03 6.21341E-03-3.69196E-13 1.49520E-13
 -1       125 1.99995E+01 5.75606E-01-7.05505E-04 7.06610E-03-2.87422E-13-6.67196E-14
 -1       126 2.00013E+01 7.97834E-01 1.75079E-03 7.08584E-03-9.85529E-13-3.74165E-14
 -1       127 2.00031E+01 1.00231E+00 4.33866E-03 6.19620E-03-2.48469E-13 1.56683E-13
 -1       128 2.00047E+01 1.15606E+00 6.83586E-03 4.23402E-03 7.71468E-14 5.37766E-14
 -1       129 2.00058E+01 1.23151E+00 8.76132E-03 1.20882E-03 1.40644E-12 2.76006E-13
 -1       130 2.00062E+01 1.20816E+00 9.51859E-03-2.61221E-03 1.24690E-12-2.38282E-13
 -1       131 2.00053E+01 1.07893E+00 8.48163E-03-6.77936E-03 3.96185E-13-1.22933E-13
 -1       132 2.00034E+01 8.59981E-01 5.41055E-03-9.96820E-03 1.12551E-13 4.34467E-13
 -1       133 2.00003E+01 5.77509E-01-1.21209E-05-1.16047E-02 2.57612E-13 6.12873E-14
 -1       134 1.99963E+01 2.89568E-01-7.19936E-03-1.03248E-02 1.40496E-12 5.66405E-14
 -1       135 1.99967E+01 6.60292E-02-1.14205E-02-1.54652E-03 1.60665E-12 1.04615E-15
 -1       136 1.99965E+01-2.85642E-02-3.17535E-03 1.30656E-02 1.70062E-12 3.28498E-13
 -1       137-1.38461E+00-1.94111E+01-2.99185E+00-3.75636E+00 1.85102E-12 4.73475E-13
 -1       138-1.19617E+00-6.94594E+00-2.07740E+00-2.32599E+00 2.10365E-12 9.89431E-13
 -1       139 4.05110E+00 5.26158E+00-8.21188E-01 4.80254E+00 1.12377E-12 7.83873E-13
 -1       140 1.66684E+01 1.14898E+01 5.43281E-01 1.37492E+01 4.45532E-13 4.45699E-13
 -1       141 3.65549E+01 1.04724E+01 1.92631E+00 1.90795E+01 2.04253E-13 6.12121E-13
 -1       142 5.61631E+01 4.95582E+00 2.97961E+00 1.54058E+01-6.75571E-14-7.54674E-13
 -1       143 6.68406E+01 9.59724E-01 3.47724E+00 3.55372E+00-1.47764E-13-2.85197E-12
 -1       144 6.31243E+01 2.50352E+00 3.29498E+00-1.01509E+01 7.14213E-13-3.92120E-12
 -1       145 4.67993E+01 7.88238E+00 2.47347E+00-1.80903E+01 1.19918E-12-3.32884E-12
 -1       146 2.60897E+01 1.17037E+01 1.23726E+00-1.71259E+01 1.42281E-12-1.86057E-12
 -1       147 9.72716E+00 9.41961E+00-1.29051E-01-9.57973E+00 1.54970E-12-1.47399E-12
 -1       148 5.06390E-01-3.19316E-01-1.48749E+00-6.49175E-01 1.17339E-12-7.20313E-13
 -1       149-1.65311E+00-1.36039E+01-2.60082E+00 3.83361E+00 7.46403E-13-1.83686E-13
 -1       150-8.83143E-01-2.37853E+01-3.28435E+00 2.29993E+00-1.97592E-13-3.87815E-14
 -1       151-1.16905E+00-2.51757E+01-3.45686E+00-2.87534E+00-1.63054E-12-3.24928E-13
 -1       152-2.41482E+00-1.55628E+01-3.00010E+00-4.88928E+00-1.92218E-12-6.65246E-13
 -1       153 3.84355E-01-1.32772E+00-1.92280E+00 2.21676E-01-1.44323E-12-1.11888E-12
 -1       154 3.03586E+01 1.05879E+01 1.31837E+00 1.75865E+01-5.97522E-13-9.49352E-13
 -1       155 5.46893E+01 6.70095E+00 3.20422E+00 1.80079E+01-3.44169E-14-1.17129E-14
 -1       156 7.14378E+01 1.98872E+00 4.40650E+00 8.38855E+00 5.31433E-14 1.30179E-12
 -1       157 7.26591E+01 1.61090E+00 4.49495E+00-6.64100E+00-1.53690E-13 2.62848E-12
 -1       158 5.73981E+01 6.03895E+00 3.39410E+00-1.72846E+01-8.63989E-13 2.69545E-12
 -1       159 3.48837E+01 1.01942E+01 1.69637E+00-1.83262E+01-1.75110E-12 2.91434E-12
 -1       160 1.41342E+01 9.34427E+00-1.30779E-01-1.15107E+01-1.69798E-12 2.00362E-12
 -1       161 1.47987E+00 1.01070E+00-1.68547E+00-1.68889E+00-1.58551E-12 1.16734E-12
 -1       162-2.39092E+00-1.22300E+01-2.80943E+00 4.60419E+00 1.47382E-13 3.76477E-13
 -1       163-1.55098E+00-2.28764E+01-3.37459E+00 4.40436E+00 1.36507E-12-5.00572E-13
 -1       164 2.10091E+01 3.69372E+00-5.73780E-02-3.61132E+00-1.59303E-13-1.85602E-13
 -1       165 1.99887E+01 4.20704E+00-4.57993E-02-2.81029E+00-9.40957E-14-2.92062E-13
 -1       166 1.95064E+01 4.47779E+00-3.17197E-02-2.19624E+00-4.04377E-14-3.47073E-13
 -1       167 1.92694E+01 4.61455E+00-2.38204E-02-1.67578E+00-1.58337E-15-3.55913E-13
 -1       168 1.91397E+01 4.69742E+00-1.95842E-02-1.21988E+00 3.70168E-14-3.32400E-13
 -1       169 1.90670E+01 4.74836E+00-1.74491E-02-7.92729E-01 5.99127E-14-2.91582E-13
 -1       170 1.90304E+01 4.77632E+00-1.64269E-02-3.87186E-01 1.06214E-13-2.61740E-13
 -1       171 1.90198E+01 4.78492E+00-1.61329E-02 8.30353E-03 1.30126E-13-2.31929E-13
 -1       172 1.90321E+01 4.77506E+00-1.64649E-02 4.04113E-01 1.52517E-13-1.82653E-13
 -1       173 1.90706E+01 4.74537E+00-1.75170E-02 8.10676E-01 1.80823E-13-1.36185E-13
 -1       174 1.91441E+01 4.69276E+00-1.96812E-02 1.23248E+00 1.87394E-13-5.34147E-14
 -1       175 1.92781E+01 4.60557E+00-2.39811E-02 1.69935E+00 2.22956E-13 4.93876E-14
 -1       176 1.95236E+01 4.45952E+00-3.26142E-02 2.22691E+00 2.32773E-13 1.82592E-13
 -1       177 2.00102E+01 4.18377E+00-4.71727E-02 2.84902E+00 2.12712E-13 3.85230E-13
 -1       178 2.11305E+01 3.46329E+00-6.00713E-02 3.53712E+00 1.56351E-13 6.70637E-13
 -1       179 2.24137E+01 1.14362E+00-3.36544E-01 3.01537E+00 7.76809E-14 1.00708E-12
 -1       180 2.19657E+01 8.58321E-01 6.03848E-04-1.95967E+00-1.40998E-13 2.27908E-14
 -1       181 2.04410E+01 1.90062E-01-9.98943E-03-7.65002E-01-1.24610E-13-2.29981E-14
 -1       182 1.96647E+01 1.01655E-01 1.35733E-02-2.86626E-01-8.94536E-14-7.96420E-14
 -1       183 1.93244E+01 4.72325E-02 1.00171E-02-6.88271E-02-6.70906E-14-1.24541E-13
 -1       184 1.91943E+01 2.26244E-02 5.18084E-03 3.86258E-02-4.21460E-14-1.53177E-13
 -1       185 1.91809E+01 9.65250E-03 2.45234E-03 9.15532E-02-5.02838E-14-1.54811E-13
 -1       186 1.92301E+01 2.38250E-03 1.15678E-03 1.14528E-01-1.97159E-14-1.71667E-13
 -1       187 1.93109E+01-1.66419E-03 5.36246E-04 1.20481E-01-5.78102E-14-1.78583E-13
 -1       188 1.94052E+01-3.70086E-03 2.20801E-04 1.17014E-01-8.24078E-14-1.55079E-13
 -1       189 1.95025E+01-4.40106E-03 6.13968E-05 1.08979E-01-4.29459E-14-1.39802E-13
 -1       190 1.95977E+01-4.16585E-03-2.78485E-06 9.96597E-02-1.93872E-14-2.36718E-13
 -1       191 1.96891E+01-3.23365E-03-2.50296E-08 9.14075E-02-2.60035E-14-2.72080E-13
 -1       192 1.97774E+01-1.72899E-03 5.53805E-05 8.60365E-02 3.95187E-14-2.93766E-13
 -1       193 1.98655E+01 3.15978E-04 1.57208E-04 8.51119E-02 3.66154E-14-3.15374E-13
 -1       194 1.99581E+01 2.95528E-03 3.05191E-04 9.01908E-02-8.95909E-15-2.42251E-13
 -1       195 2.00617E+01 6.33160E-03 5.02254E-04 1.03059E-01-4.96013E-14-2.23665E-13
 -1       196 2.01845E+01 1.06550E-02 7.76599E-04 1.25852E-01-3.94845E-14-2.36915E-13
 -1       197 2.03461E+01 1.67834E-02 1.11080E-03 1.63939E-01-1.39329E-13-2.57139E-13
 -1       198 2.05459E+01 2.44867E-02 1.54194E-03 2.18129E-01-3.75184E-14-3.94305E-13
 -1       199 2.08085E+01 3.48108E-02 2.05285E-03 2.94982E-01-4.98444E-14-4.40830E-13
 -1       200 2.11565E+01 4.84359E-02 2.60096E-03 4.01756E-01 7.68955E-14-4.47870E-13
 -1       201 2.16175E+01 6.58120E-02 3.06297E-03 5.46625E-01 1.19383E-13-4.13561E-13
 -1       202 2.22232E+01 8.62072E-02 3.15646E-03 7.36996E-01 5.43337E-14-3.21218E-13
 -1       203 2.30055E+01 1.05609E-01 2.39706E-03 9.74068E-01-6.89221E-14-3.01327E-13
 -1       204 2.39868E+01 1.12431E-01 2.19690E-04 1.24022E+00-1.61990E-13-2.72746E-13
 -1       205 2.51609E+01 8.02940E-02-3.54478E-03 1.47420E+00-1.22746E-13-4.71158E-13
 -1       206 2.64615E+01-3.82220E-02-7.03453E-03 1.53241E+00 1.26120E-13-4.14997E-13
 -1       207 2.77204E+01-3.00040E-01-6.57000E-03 1.15740E+00 1.11252E-13-2.30479E-13
 -1       208 2.86282E+01-6.87896E-01-1.51217E-03 4.69413E-02 1.95902E-14-1.63709E-13
 -1       209 2.87569E+01-9.23336E-01-3.62462E-03-1.79794E+00-1.10409E-13-2.21437E-13
 -1       210 2.78265E+01-4.88708E-01-4.05039E-02-3.38674E+00-2.18444E-13-3.31315E-13
 -1       211 2.60955E+01 7.98920E-01-1.16531E-01-3.07875E+00-3.55542E-13-6.15476E-13
 -1       212 2.50954E+01 1.68519E+00-1.57924E-01-3.29574E-01-1.33310E-13-6.96900E-13
 -1       213 2.58683E+01 9.82250E-01-1.22635E-01 2.81116E+00-8.42520E-14-7.60270E-13
 -1       214 2.75934E+01-3.72510E-01-5.00199E-02 3.48600E+00 3.70988E-14-1.11414E-12
 -1       215 2.86699E+01-9.24145E-01-9.37878E-03 1.95422E+00 1.24615E-13-8.63898E-13
 -1       216 2.86236E+01-7.20312E-01-1.42654E-03 7.30433E-02 2.70594E-13-5.13338E-13
 -1       217 2.77483E+01-3.30509E-01-6.61392E-03-1.11101E+00 4.78888E-14-4.21250E-13
 -1       218 2.64873E+01-5.62738E-02-7.27043E-03-1.54137E+00 3.85195E-15-3.25253E-13
 -1       219 2.51601E+01 7.22398E-02-3.86912E-03-1.51348E+00-2.44687E-13-2.03221E-13
 -1       220 2.39455E+01 1.09450E-01-8.15924E-05-1.29282E+00-1.46391E-13-2.13812E-13
 -1       221 2.29171E+01 1.04914E-01 2.27774E-03-1.03125E+00-7.34599E-14-3.48465E-13
 -1       222 2.20859E+01 8.68003E-02 3.21950E-03-7.94211E-01 2.14625E-13-6.97903E-13
 -1       223 2.14336E+01 6.79901E-02 3.29393E-03-6.00003E-01 5.01734E-14-4.82616E-13
 -1       224 2.09331E+01 5.35721E-02 2.97028E-03-4.45480E-01 6.19795E-15-4.24223E-13
 -1       225 2.05589E+01 4.53582E-02 2.44606E-03-3.18942E-01-2.66161E-15-3.47749E-13
 -1       226 2.02914E+01 4.35356E-02 1.72415E-03-2.06473E-01-1.48274E-14-4.22661E-13
 -1       227 2.01151E+01 4.57310E-02 1.40924E-03-9.93524E-02-1.82253E-13-4.79442E-13
 -1       228 2.00316E+01 3.59299E-02-5.37974E-04-2.86535E-02 5.76688E-14-3.16793E-13
 -1       229 2.09580E+01 2.78023E-01-5.08178E-02 1.16596E+00 8.87034E-14 9.16490E-13
 -1       230 1.98676E+01 1.30590E-01 1.00157E-02 4.47726E-01 6.13381E-14 8.35474E-13
 -1       231 1.93620E+01 5.63496E-02 1.34245E-02 1.49608E-01 1.01486E-14 7.74584E-13
 -1       232 1.91491E+01 2.26697E-02 7.34734E-03 7.51901E-03 5.74547E-14 7.21077E-13
 -1       233 1.90964E+01 9.98262E-03 3.59998E-03-6.12585E-02 3.19564E-14 6.82576E-13
 -1       234 1.91309E+01 3.37941E-03 1.75366E-03-9.33075E-02-2.74446E-14 6.40875E-13
 -1       235 1.92104E+01-2.72274E-04 9.00681E-04-1.05186E-01 3.16538E-14 5.97514E-13
 -1       236 1.93102E+01-2.21578E-03 4.76155E-04-1.05715E-01 4.96873E-14 5.59886E-13
 -1       237 1.94163E+01-3.06543E-03 2.44747E-04-1.00240E-01 4.26235E-14 5.67258E-13
 -1       238 1.95209E+01-3.18109E-03 1.14311E-04-9.22198E-02 1.90013E-14 5.31399E-13
 -1       239 1.96206E+01-2.79083E-03 4.50837E-05-8.39809E-02 1.15077E-13 4.89669E-13
 -1       240 1.97149E+01-2.04706E-03 1.54953E-05-7.71268E-02 1.13022E-14 4.38078E-13
 -1       241 1.98051E+01-1.05802E-03 1.10462E-05-7.27668E-02-1.49553E-14 4.74750E-13
 -1       242 1.98939E+01 8.93583E-05 2.03932E-05-7.16419E-02 4.58018E-14 4.60632E-13
 -1       243 1.99848E+01 1.30844E-03 3.35448E-05-7.41717E-02-6.54195E-14 4.65366E-13
 -1       244 2.00817E+01 2.49036E-03 4.08364E-05-8.04278E-02-5.26176E-14 4.23974E-13
 -1       245 2.01882E+01 3.47852E-03 3.25136E-05-9.00284E-02 6.89234E-14 4.49221E-13
 -1       246 2.03072E+01 4.04094E-03-8.69047E-07-1.01952E-01 2.00465E-13 4.45292E-13
 -1       247 2.04398E+01 3.84465E-03-6.68256E-05-1.14269E-01-8.25183E-14 3.46136E-13
 -1       248 2.05838E+01 2.44309E-03-1.67670E-04-1.23826E-01-3.00359E-14 3.34536E-13
 -1       249 2.07330E+01-7.02353E-04-2.95534E-04-1.25956E-01-4.88754E-14 4.01154E-13
 -1       250 2.08748E+01-6.13056E-03-4.26905E-04-1.14372E-01 4.85281E-14 4.62569E-13
 -1       251 2.09896E+01-1.41695E-02-5.19924E-04-8.15499E-02 4.28180E-14 4.48756E-13
 -1       252 2.10499E+01-2.45605E-02-5.20650E-04-2.00019E-02-1.28129E-13 3.87262E-13
 -1       253 2.10225E+01-3.59334E-02-3.85440E-04 7.51035E-02 3.74516E-14 3.83997E-13
 -1       254 2.08734E+01-4.53089E-02-1.18876E-04 2.01822E-01 7.61958E-14 4.19310E-13
 -1       255 2.05782E+01-4.80468E-02 1.96343E-04 3.46569E-01-1.52439E-14 4.80009E-13
 -1       256 2.01355E+01-3.89137E-02 3.85180E-04 4.80830E-01-1.11700E-13 4.79260E-13
 -1       257 1.95806E+01-1.47143E-02 2.87276E-04 5.63424E-01 5.18032E-16 4.96270E-13
 -1       258 1.89927E+01 2.21457E-02-1.01255E-04 5.52027E-01 1.50243E-13 5.72497E-13
 -1       259 1.84846E+01 6.17692E-02-5.33306E-04 4.22979E-01-6.23254E-14 5.77401E-13
 -1       260 1.81729E+01 8.95440E-02-6.19636E-04 1.89950E-01 9.22552E-14 4.84578E-13
 -1       261 1.81362E+01 9.35463E-02-1.40990E-04-9.26786E-02-3.89749E-15 3.95472E-13
 -1       262 1.83825E+01 7.19291E-02 7.09085E-04-3.49041E-01 8.46350E-15 2.63273E-13
 -1       263 1.88459E+01 3.41622E-02 1.42902E-03-5.14553E-01 3.52093E-13 2.79281E-13
 -1       264 1.94139E+01-5.04515E-03 1.59760E-03-5.61512E-01 2.69418E-14 8.74101E-14
 -1       265 1.99694E+01-3.38529E-02 1.15553E-03-5.02991E-01 7.68494E-14-1.68960E-14
 -1       266 2.04238E+01-4.76115E-02 3.70351E-04-3.77648E-01-3.01183E-14-1.21669E-14
 -1       267 2.07318E+01-4.81187E-02-3.91752E-04-2.28945E-01-7.50103E-14 6.48727E-15
 -1       268 2.08877E+01-4.02762E-02-8.89707E-04-9.04704E-02-3.40294E-14 1.00749E-13
 -1       269 2.09121E+01-2.90135E-02-1.05398E-03 1.90432E-02-4.04506E-14-1.26176E-13
 -1       270 2.08386E+01-1.77432E-02-9.46126E-04 9.36780E-02 2.91791E-14-7.55910E-14
 -1       271 2.07029E+01-8.12351E-03-6.83602E-04 1.35487E-01 2.61200E-13-1.80701E-13
 -1       272 2.05373E+01-4.57294E-04-3.94904E-04 1.49816E-01 4.53226E-13-4.94848E-13
 -1       273 2.03687E+01 5.75961E-03-2.17422E-04 1.42026E-01 4.28038E-14-6.78216E-13
 -1       274 2.02185E+01 1.11858E-02-2.75111E-04 1.15989E-01-6.08327E-14-4.95870E-13
 -1       275 2.01025E+01 1.68754E-02-2.60621E-04 7.37540E-02-6.80662E-16-4.54815E-13
 -1       276 2.00298E+01 1.77493E-02 7.45835E-04 2.33882E-02-7.29422E-14-2.23685E-13
 -1       277 2.00248E+01 6.19694E-02 6.01390E-04 5.46055E-02-2.75084E-13 2.61893E-13
 -1       278 2.00206E+01 1.52092E-01 3.10375E-04 1.07989E-01-1.59746E-13-1.19962E-13
 -1       279 2.00131E+01 2.78643E-01 3.47293E-04 1.48576E-01-1.83354E-13-4.80237E-14
 -1       280 2.00057E+01 4.30187E-01 1.41948E-04 1.72339E-01-1.21362E-13 2.02524E-13
 -1       281 1.99976E+01 5.90498E-01-1.91309E-04 1.76717E-01-3.52638E-14-3.54004E-13
 -1       282 1.99887E+01 7.47491E-01-5.37896E-04 1.59778E-01 1.56075E-13 2.44259E-13
 -1       283 1.99796E+01 8.78504E-01-8.55384E-04 1.20225E-01 1.51984E-13 1.81326E-13
 -1       284 1.99719E+01 9.63868E-01-1.07105E-03 5.95519E-02 1.90215E-13 5.07320E-13
 -1       285 1.99672E+01 9.87099E-01-1.13587E-03-1.66439E-02 4.22307E-14-5.51948E-14
 -1       286 1.99677E+01 9.38893E-01-1.01189E-03-9.80851E-02 4.55236E-13-2.99508E-13
 -1       287 1.99745E+01 8.23505E-01-7.10355E-04-1.69262E-01 5.49977E-13-1.20142E-13
 -1       288 1.99882E+01 6.51353E-01-3.48590E-04-2.16315E-01 6.73391E-13 2.17456E-13
 -1       289 2.00078E+01 4.51053E-01 1.88140E-05-2.22759E-01 4.93238E-13 5.13690E-13
 -1       290 2.00284E+01 2.58829E-01 1.88684E-04-1.79864E-01 3.24651E-13-1.03373E-13
 -1       291 2.00370E+01 1.30865E-01-3.18785E-07-1.07718E-01 2.41343E-13-3.34286E-13
 -1       292-6.98479E-01-1.06879E+01-8.96909E-01 1.98603E+00 6.69131E-13 1.36280E-13
 -1       293 3.42107E+00-8.19635E+00-7.04242E-01 4.30103E+00 5.37792E-13 3.67033E-13
 -1       294 1.01066E+01-4.27628E+00-4.44332E-01 6.12315E+00 6.83453E-13 3.51663E-14
 -1       295 1.93450E+01-1.42615E-01-4.80596E-02 7.78846E+00 5.19418E-13-1.82909E-14
 -1       296 2.98704E+01 3.33199E+00 3.85100E-01 8.31095E+00 1.65382E-13-2.64233E-13
 -1       297 3.98094E+01 5.55076E+00 7.59472E-01 6.84668E+00 2.22699E-13-1.09138E-12
 -1       298 4.57290E+01 6.73836E+00 9.16929E-01 3.04009E+00 6.80983E-13-1.51752E-12
 -1       299 4.76538E+01 6.86513E+00 1.01785E+00-1.08351E+00 6.11705E-13-1.93856E-12
 -1       300 4.11866E+01 6.27202E+00 5.54175E-01-3.41970E+00 3.47763E-13-1.69426E-12
 -1       301 3.47500E+01 4.04294E+00 4.61017E-01-6.85078E+00 3.79856E-13-2.00348E-12
 -1       302 2.46609E+01 1.74463E+00 1.66437E-01-8.24940E+00 7.94337E-13-1.15105E-12
 -1       303 1.46150E+01-2.08602E+00-2.52209E-01-7.10996E+00 5.52891E-13-9.68836E-13
 -1       304 6.28692E+00-6.38592E+00-6.14156E-01-5.09025E+00 3.57492E-13-5.80543E-13
 -1       305 8.26954E-01-9.62783E+00-8.37724E-01-3.12031E+00-9.33698E-14-4.67834E-13
 -1       306-1.47901E+00-1.18072E+01-1.03125E+00-8.07138E-01-4.15289E-13-6.67771E-13
 -1       307 8.95721E-01-9.06238E+00-6.44593E-01 2.43008E+00-3.15872E-13-9.98784E-14
 -1       308 7.33972E+00-7.38092E+00-6.50137E-01 4.64370E+00-5.02098E-13-3.00338E-13
 -1       309 1.63671E+01-3.54147E+00-4.02154E-01 6.16765E+00-5.70821E-13-5.87697E-13
 -1       310 2.77355E+01 2.58723E-01 9.68079E-02 7.06819E+00-4.98990E-13-6.85563E-14
 -1       311 3.94795E+01 3.27722E+00 6.63758E-01 5.43053E+00-5.27838E-13 1.28675E-13
 -1       312 4.82679E+01 5.90391E+00 1.20034E+00 3.48207E+00-5.94413E-13 6.97775E-13
 -1       313 5.07461E+01 7.19898E+00 1.32751E+00 1.02075E-01-6.20476E-13 9.09781E-13
 -1       314 4.89057E+01 6.14824E+00 1.21771E+00-2.97996E+00-4.06050E-13 1.32733E-12
 -1       315 4.06680E+01 3.52507E+00 6.49912E-01-4.48746E+00-6.66436E-13 9.98757E-13
 -1       316 3.02737E+01 9.27703E-01 2.26003E-01-6.99830E+00-5.81729E-13 1.14098E-12
 -1       317 1.84483E+01-2.63780E+00-3.12682E-01-6.49422E+00-5.50504E-13 1.09421E-12
 -1       318 8.25021E+00-6.62326E+00-7.28485E-01-4.58578E+00-2.25264E-13 1.14401E-12
 -1       319 1.82673E+00-9.76625E+00-8.87500E-01-2.57778E+00 1.76331E-13 7.44613E-13
 -1       320-1.27002E+00-1.17509E+01-1.03495E+00-1.64581E-01 4.28338E-13 3.50886E-13
 -1       321 2.01445E+01 3.01483E+00-1.77997E-02-2.11138E+00-8.33532E-14-2.28421E-13
 -1       322 2.07514E+01 2.20982E+00-1.78562E-02-2.36458E+00-1.32297E-13-1.68423E-13
 -1       323 1.95848E+01 3.69222E+00-1.56075E-02-1.31936E+00 1.93403E-14-2.73357E-13
 -1       324 1.94639E+01 3.84858E+00-1.36995E-02-9.24437E-01 6.04776E-14-2.46525E-13
 -1       325 1.93957E+01 3.93980E+00-1.27129E-02-5.44193E-01 1.03410E-13-2.05515E-13
 -1       326 1.93655E+01 3.98129E+00-1.22987E-02-1.73306E-01 1.41642E-13-1.75779E-13
 -1       327 1.93668E+01 3.97971E+00-1.23180E-02 1.94559E-01 1.73972E-13-1.40191E-13
 -1       328 1.93997E+01 3.93472E+00-1.27653E-02 5.65741E-01 1.92822E-13-1.06371E-13
 -1       329 1.94698E+01 3.84123E+00-1.37755E-02 9.39908E-01 2.25895E-13-5.34802E-14
 -1       330 1.95954E+01 3.67858E+00-1.56875E-02 1.33438E+00 2.42247E-13 4.88568E-14
 -1       331 1.98085E+01 3.40989E+00-1.90562E-02 1.74068E+00 2.56520E-13 1.31683E-13
 -1       332 2.01739E+01 2.95092E+00-2.32751E-02 2.12496E+00 2.31273E-13 2.65623E-13
 -1       333 2.07559E+01 2.10603E+00-2.94918E-02 2.30824E+00 1.96694E-13 4.74055E-13
 -1       334 2.10881E+01 1.18625E+00-2.41308E-02 1.91561E+00 1.47582E-13 6.44429E-13
 -1       335 2.03766E+01 4.93736E-01 7.81007E-03 9.26337E-01 8.11564E-14 5.67566E-13
 -1       336 2.04543E+01 6.75114E-01 1.25592E-02-1.02699E+00-1.17311E-13-1.22766E-13
 -1       337 2.00321E+01 3.37305E-01 7.18757E-03-4.59087E-01-9.38067E-14-1.25087E-13
 -1       338 1.97782E+01 1.76792E-01 4.17226E-03-1.49649E-01-5.71940E-14-1.31381E-13
 -1       339 1.96431E+01 9.10074E-02 1.91357E-03 2.20565E-02-4.45667E-14-1.58872E-13
 -1       340 1.95886E+01 4.23524E-02 8.04774E-04 1.14231E-01-2.45031E-14-1.30783E-13
 -1       341 1.95851E+01 1.40859E-02 2.93535E-04 1.59115E-01-3.72580E-14-1.22489E-13
 -1       342 1.96121E+01-1.90032E-03 4.86965E-05 1.75902E-01-1.87028E-16-5.15423E-14
 -1       343 1.96564E+01-9.96322E-03-6.83667E-05 1.76737E-01-6.81118E-14-1.77102E-14
 -1       344 1.97097E+01-1.26354E-02-1.11580E-04 1.69721E-01-8.41744E-14-9.69695E-14
 -1       345 1.97673E+01-1.14445E-02-1.04700E-04 1.60514E-01-5.46246E-14-1.00110E-13
 -1       346 1.98275E+01-7.28432E-03-5.95479E-05 1.53289E-01-3.38318E-14-7.94326E-14
 -1       347 1.98902E+01-5.90391E-04 1.85133E-05 1.51364E-01 4.37641E-14-3.21960E-14
 -1       348 1.99572E+01 8.58067E-03 1.28918E-04 1.57686E-01 4.64347E-14-6.87774E-14
 -1       349 2.00314E+01 2.05258E-02 2.74503E-04 1.75226E-01-2.13949E-14-1.12650E-13
 -1       350 2.01171E+01 3.58689E-02 4.74036E-04 2.07267E-01-4.73483E-14-1.28812E-13
 -1       351 2.02252E+01 5.69087E-02 7.32224E-04 2.61244E-01-7.76026E-14-8.88698E-14
 -1       352 2.03525E+01 8.32490E-02 1.06340E-03 3.37682E-01-1.05024E-13-1.42387E-14
 -1       353 2.05113E+01 1.17642E-01 1.49794E-03 4.45327E-01-1.25505E-14 4.96559E-14
 -1       354 2.07104E+01 1.62291E-01 2.03518E-03 5.92948E-01-3.60786E-14 7.34956E-15
 -1       355 2.09594E+01 2.18774E-01 2.65838E-03 7.90617E-01 2.41506E-15-1.58674E-13
 -1       356 2.12682E+01 2.86052E-01 3.26811E-03 1.04824E+00 1.38840E-13-2.59778E-13
 -1       357 2.16467E+01 3.55839E-01 3.60916E-03 1.37131E+00-4.58023E-14-3.04398E-13
 -1       358 2.21069E+01 4.03176E-01 3.20957E-03 1.75149E+00-4.28099E-14-3.71141E-13
 -1       359 2.26696E+01 3.70140E-01 1.42364E-03 2.14806E+00-1.45130E-13-7.40693E-14
 -1       360 2.33816E+01 1.45264E-01-2.58294E-03 2.45660E+00-2.22066E-14 1.97811E-13
 -1       361 2.43476E+01-4.35052E-01-6.27781E-03 2.46737E+00 1.52651E-13-3.26360E-14
 -1       362 2.57393E+01-1.48796E+00-8.15150E-03 1.82617E+00 9.70109E-14-6.61093E-14
 -1       363 2.76513E+01-2.68149E+00-1.61995E-02 1.58683E-01-7.22582E-14-1.79128E-13
 -1       364 2.96094E+01-2.78451E+00-5.60931E-02-2.27997E+00-1.65085E-13 1.99778E-13
 -1       365 3.08623E+01-5.94316E-03-1.26454E-01-4.10994E+00-3.16865E-13 1.83891E-13
 -1       366 3.07244E+01 4.29619E+00-2.62530E-01-2.60210E+00-5.50171E-13 3.64431E-14
 -1       367 3.09863E+01 4.58442E+00-2.16795E-01 1.87046E+00-1.13798E-13-2.19529E-13
 -1       368 3.09846E+01 5.77633E-01-1.48593E-01 4.09105E+00-8.73537E-14-3.66578E-13
 -1       369 2.98742E+01-2.51263E+00-5.45459E-02 2.63649E+00 2.25193E-13-1.79027E-13
 -1       370 2.78006E+01-2.76965E+00-1.68523E-02 1.40411E-02 3.17185E-13-3.50429E-13
 -1       371 2.58373E+01-1.59447E+00-8.81417E-03-1.75654E+00 1.38307E-13-3.96081E-13
 -1       372 2.43939E+01-5.12558E-01-6.61941E-03-2.47385E+00 6.51619E-14-4.73629E-13
 -1       373 2.33851E+01 1.05146E-01-2.66344E-03-2.51072E+00 2.18337E-14-2.59721E-13
 -1       374 2.26406E+01 3.52443E-01 1.07460E-03-2.22518E+00-7.88873E-14-6.68842E-14
 -1       375 2.20498E+01 3.97083E-01 3.03313E-03-1.83866E+00-1.96435E-13 7.09611E-14
 -1       376 2.15628E+01 3.56085E-01 3.58107E-03-1.46089E+00-3.18202E-14 2.08439E-13
 -1       377 2.11588E+01 2.91954E-01 3.35835E-03-1.13429E+00 2.79451E-14-1.72387E-13
 -1       378 2.08271E+01 2.33177E-01 2.87540E-03-8.65870E-01 1.54792E-13-3.66322E-13
 -1       379 2.05596E+01 1.91037E-01 2.46505E-03-6.46549E-01-1.87704E-13-1.61145E-13
 -1       380 2.03481E+01 1.68836E-01 2.27042E-03-4.61861E-01-4.01948E-14-1.06033E-13
 -1       381 2.01803E+01 1.63201E-01 1.95827E-03-2.96556E-01-1.69310E-13-4.41737E-13
 -1       382 1.98361E+01 2.25371E-01 6.87327E-03 2.76369E-01 7.87280E-14 3.94102E-13
 -1       383 1.96420E+01 1.13002E-01 3.30898E-03 4.84658E-02 8.10973E-14 3.74782E-13
 -1       384 1.95521E+01 5.59112E-02 1.49975E-03-7.42928E-02 7.10397E-14 3.27454E-13
 -1       385 1.95307E+01 2.31583E-02 6.20937E-04-1.37248E-01 1.77150E-14 2.48933E-13
 -1       386 1.95506E+01 4.35372E-03 1.98837E-04-1.64855E-01 5.76216E-14 2.63843E-13
 -1       387 1.95940E+01-5.85820E-03-9.21973E-06-1.71857E-01 6.81743E-14 2.47055E-13
 -1       388 1.96497E+01-1.04635E-02-1.05648E-04-1.67693E-01 1.10981E-13 2.22653E-13
 -1       389 1.97109E+01-1.12764E-02-1.34737E-04-1.58665E-01 4.54816E-14 1.28661E-13
 -1       390 1.97741E+01-9.47245E-03-1.19690E-04-1.49092E-01 5.99304E-14 2.03811E-13
 -1       391 1.98381E+01-5.85867E-03-7.53080E-05-1.41966E-01 1.33230E-14 1.31199E-13
 -1       392 1.99032E+01-1.03815E-03-1.27000E-05-1.39332E-01-4.53742E-14 1.48578E-13
 -1       393 1.99707E+01 4.46499E-03 5.83028E-05-1.42482E-01-2.92145E-14 2.18092E-13
 -1       394 2.00427E+01 1.00906E-02 1.27270E-04-1.52000E-01 5.88511E-15 1.65638E-13
 -1       395 2.01214E+01 1.51235E-02 1.81471E-04-1.67671E-01-1.69263E-14 6.79359E-14
 -1       396 2.02090E+01 1.85693E-02 2.04397E-04-1.88245E-01 1.60792E-13 7.52825E-14
 -1       397 2.03071E+01 1.90375E-02 1.74889E-04-2.11062E-01 7.92993E-14 1.92083E-13
 -1       398 2.04157E+01 1.46676E-02 6.76575E-05-2.31577E-01-1.25357E-13 1.85809E-13
 -1       399 2.05333E+01 3.17344E-03-1.43596E-04-2.42870E-01-4.42854E-14 3.05698E-13
 -1       400 2.06553E+01-1.78702E-02-4.78741E-04-2.35338E-01 2.91279E-14 3.34753E-13
 -1       401 2.07732E+01-5.03157E-02-9.38462E-04-1.96938E-01 5.62838E-14 3.55578E-13
 -1       402 2.08739E+01-9.41078E-02-1.48537E-03-1.14535E-01 5.87947E-15 3.35186E-13
 -1       403 2.09394E+01-1.45265E-01-2.02389E-03 2.29049E-02-2.26068E-14 2.43429E-13
 -1       404 2.09472E+01-1.93586E-01-2.39365E-03 2.18677E-01 2.76921E-14 2.49535E-13
 -1       405 2.08734E+01-2.21401E-01-2.38947E-03 4.60500E-01 3.99549E-14 2.15410E-13
 -1       406 2.06993E+01-2.05730E-01-1.79607E-03 7.12738E-01-4.12963E-14 3.74741E-13
 -1       407 2.04218E+01-1.26575E-01-5.93610E-04 9.13835E-01-5.36044E-14 2.48067E-13
 -1       408 2.00668E+01 1.85771E-02 1.04572E-03 9.86642E-01 2.94979E-14 4.38775E-13
 -1       409 1.96971E+01 2.00928E-01 2.71929E-03 8.66711E-01 3.54615E-14 4.53300E-13
 -1       410 1.94030E+01 3.61513E-01 3.95230E-03 5.40883E-01 9.19230E-15 4.25790E-13
 -1       411 1.92714E+01 4.35652E-01 4.43941E-03 7.21403E-02 5.39976E-14 6.88928E-13
 -1       412 1.93442E+01 3.90123E-01 4.07822E-03-4.14386E-01 1.31121E-13 6.14298E-13
 -1       413 1.95958E+01 2.45044E-01 2.93525E-03-7.85059E-01 1.59399E-13 5.44657E-13
 -1       414 1.99468E+01 6.05995E-02 1.28176E-03-9.57400E-01 2.51438E-13 6.51589E-13
 -1       415 2.03034E+01-9.94467E-02-4.40544E-04-9.25991E-01 1.13347E-13 3.65490E-13
 -1       416 2.05935E+01-1.97434E-01-1.79366E-03-7.45671E-01 1.40000E-13 2.98732E-13
 -1       417 2.07816E+01-2.28559E-01-2.50630E-03-4.93929E-01-7.89666E-14 7.69148E-14
 -1       418 2.08643E+01-2.09674E-01-2.60419E-03-2.38594E-01 4.47173E-14-1.49151E-13
 -1       419 2.08576E+01-1.63904E-01-2.25295E-03-2.29466E-02 1.82419E-14-2.21479E-13
 -1       420 2.07857E+01-1.10408E-01-1.66910E-03 1.34273E-01-6.68313E-14-2.51689E-13
 -1       421 2.06726E+01-6.07462E-02-1.02446E-03 2.31586E-01 2.70994E-13-3.32701E-13
 -1       422 2.05395E+01-1.95456E-02-4.21749E-04 2.76447E-01 4.02772E-13-2.04302E-13
 -1       423 2.04027E+01 1.33067E-02 8.80323E-05 2.78876E-01 2.92011E-13 5.35824E-15
 -1       424 2.02744E+01 4.00841E-02 4.94015E-04 2.47841E-01-1.14713E-13 1.38309E-13
 -1       425 2.01629E+01 6.17175E-02 9.05830E-04 1.91225E-01-7.15167E-14-5.64041E-14
 -1       426 2.00843E+01 6.95007E-02 7.25590E-04 1.24476E-01-2.50940E-13 1.09726E-13
 -1       427 2.00366E+01 3.16065E-01 3.82535E-04 2.82297E-01-1.14830E-13 1.49190E-13
 -1       428 2.00623E+01 2.00754E-01 6.90285E-04 2.34459E-01-1.17205E-13-3.76881E-14
 -1       429 2.00071E+01 4.39888E-01 2.11443E-05 3.05107E-01-2.58798E-14-8.61758E-14
 -1       430 1.99734E+01 5.69624E-01-3.14652E-04 2.95364E-01 2.09594E-13 3.06787E-13
 -1       431 1.99375E+01 6.90615E-01-6.63767E-04 2.48636E-01 2.10778E-13-1.48584E-14
 -1       432 1.99037E+01 7.87833E-01-9.59345E-04 1.64191E-01-1.46793E-13 1.80889E-13
 -1       433 1.98785E+01 8.45854E-01-1.15047E-03 4.73850E-02-1.82598E-13 3.07235E-13
 -1       434 1.98696E+01 8.51968E-01-1.16862E-03-8.87828E-02 1.46467E-16 2.80009E-14
 -1       435 1.98830E+01 8.01080E-01-9.71453E-04-2.21450E-01 1.65625E-13-1.13470E-13
 -1       436 1.99222E+01 6.93607E-01-6.35186E-04-3.29731E-01 3.25477E-13 4.48064E-13
 -1       437 1.99857E+01 5.42273E-01-1.55869E-04-3.85657E-01 3.81906E-13 5.02305E-14
 -1       438 2.00632E+01 3.67540E-01 4.75242E-04-3.70492E-01 8.93750E-14 3.17076E-13
 -1       439 2.00349E+01 3.28908E-01 1.04978E-02 5.38191E-01 7.67780E-14 5.11569E-13
 -1       440 1.13193E+01-5.52423E+00-3.24348E-02 7.57789E+00 8.32667E-15-2.52895E-13
 -1       441 2.72854E+01-2.48726E+00 1.03374E-02 4.98074E+00 2.84855E-13-6.57391E-13
 -1       442 7.43815E-01-4.88495E+00-9.26932E-02 9.86729E-01-3.03750E-14 4.41314E-13
 -1       443 1.98462E+01-5.08869E+00-7.89336E-03 7.12461E+00 4.62408E-14-2.88589E-13
 -1       444 1.98036E+01 3.43110E+00-1.76710E-02-1.73912E+00-3.31312E-14-2.64407E-13
 -1       445 3.26552E+01 1.48034E+00 2.50292E-02 1.92180E+00 2.84755E-13-9.43010E-13
 -1       446 3.62146E+01 5.91078E+00 8.65709E-02 6.86540E-01 5.43773E-13-1.16697E-12
 -1       447 3.60423E+01 8.47002E+00 2.65999E-02-1.03080E-01 5.32518E-13-8.00596E-13
 -1       448 3.51571E+01 7.84341E+00-3.26327E-02 1.86199E-01 3.31291E-13-6.23127E-13
 -1       449 3.38650E+01 3.40649E+00-1.20019E-02-7.50946E-01-7.85830E-14-7.21020E-13
 -1       450 3.00468E+01-9.08951E-01 1.28719E-02-3.58114E+00 8.96713E-14-1.07217E-12
 -1       451 2.39344E+01-4.17842E+00 2.78059E-03-6.03185E+00 1.77330E-13-7.58685E-13
 -1       452 1.60744E+01-5.46239E+00 1.44399E-02-7.75726E+00 5.20278E-14-6.63659E-13
 -1       453 8.65612E+00-5.05090E+00 2.25962E-02-7.25266E+00 3.99125E-14-7.72313E-13
 -1       454 1.64192E+00-4.76290E+00-8.71773E-02-3.20053E+00-5.49005E-14-5.91471E-13
 -1       455 1.51992E+00-4.38561E+00-3.11928E-02 1.21939E+00 1.35215E-13-3.44780E-13
 -1       456 8.67105E+00-5.24255E+00 2.12450E-02 5.98521E+00 1.21736E-13 4.34514E-14
 -1       457 1.86037E+01-6.49036E+00 1.93658E-04 6.33444E+00 1.07317E-13-9.06601E-14
 -1       458 2.63138E+01-5.13390E+00-7.11376E-02 4.52435E+00-2.23974E-13 5.87919E-13
 -1       459 3.38674E+01-1.86452E+00 5.02989E-02 1.51370E+00-2.05932E-13 4.11698E-13
 -1       460 3.77680E+01 3.29228E+00 1.13457E-01-1.37071E+00-5.23401E-13 4.66682E-13
 -1       461 3.98769E+01 6.84329E+00 2.20855E-01-8.02611E-01-7.10459E-13 3.27044E-13
 -1       462 3.77782E+01 7.17987E+00 8.23930E-02 1.01653E+00-3.09475E-13-2.09568E-13
 -1       463 3.75704E+01 4.22305E+00 8.12666E-02 1.84067E+00-2.58182E-13-7.64250E-14
 -1       464 3.43873E+01-1.27460E+00 6.32804E-03-7.11314E-01-4.06567E-14-6.26721E-14
 -1       465 2.79808E+01-4.59342E+00-3.89171E-02-3.99123E+00 3.42643E-14 5.14755E-13
 -1       466 1.90215E+01-6.38860E+00-7.73311E-02-6.27201E+00-6.68077E-14 6.23963E-13
 -1       467 9.46913E+00-6.22476E+00-1.11861E-01-6.12998E+00 8.03524E-14 1.15256E-12
 -1       468 3.39480E+00-4.36185E+00 1.52638E-02-3.37035E+00-2.70020E-13 6.25416E-13
 -1       469 4.85809E+00-4.13908E+00 6.02274E-02 5.58210E+00-1.59150E-13 5.49144E-14
 -1       470 6.89938E+00-2.58858E+00 1.62340E-01 4.32083E+00 3.01426E-13 1.05943E-13
 -1       471 3.14851E+01 5.47371E+00-1.38892E-01 1.36894E+00-4.68930E-14-3.92207E-13
 -1       472 1.97371E+01 3.10464E+00-5.34401E-03-6.34073E-01 7.80159E-14-1.92869E-13
 -1       473 1.98328E+01 2.93069E+00-5.72367E-03-9.50154E-01 3.98741E-14-2.19453E-13
 -1       474 1.96702E+01 3.22759E+00-5.02449E-03 8.89882E-03 1.38313E-13-1.33067E-13
 -1       475 1.96884E+01 3.19455E+00-5.10803E-03 3.30641E-01 1.66926E-13-9.95081E-14
 -1       476 1.97416E+01 3.09762E+00-5.42271E-03 6.46184E-01 1.99623E-13-6.62413E-14
 -1       477 1.98391E+01 2.91966E+00-5.94232E-03 9.61837E-01 2.38917E-13 1.02301E-14
 -1       478 1.99937E+01 2.63336E+00-6.56243E-03 1.25699E+00 2.29056E-13 7.55791E-14
 -1       479 2.02221E+01 2.19390E+00-5.81595E-03 1.49102E+00 2.02919E-13 1.63298E-13
 -1       480 2.04757E+01 1.54600E+00-3.25697E-03 1.54352E+00 1.57198E-13 3.11263E-13
 -1       481 2.05296E+01 9.90614E-01 3.19827E-03 1.29904E+00 1.25719E-13 4.37620E-13
 -1       482 2.03419E+01 9.73009E-01 2.78020E-03-9.41161E-01-9.06265E-14-1.67267E-13
 -1       483 1.79037E+01-5.17710E+00 7.26332E-02 7.27688E+00-1.30250E-13-3.83856E-13
 -1       484 2.52497E+01-4.95362E+00 1.26690E-02 4.68562E+00 3.92950E-14-5.59587E-13
 -1       485 2.01701E+01 5.45884E-01 2.34194E-03-4.68586E-01-8.33609E-14-1.56732E-13
 -1       486 2.00231E+01 3.04698E-01 1.12224E-03-1.66649E-01-5.11816E-14-1.28436E-13
 -1       487 1.99232E+01 1.63514E-01 4.71478E-04 1.60368E-02-2.28659E-14-1.11937E-13
 -1       488 1.98659E+01 7.85346E-02 1.66384E-04 1.20641E-01-6.23998E-15-1.12955E-13
 -1       489 1.98407E+01 2.76902E-02 3.30617E-05 1.75141E-01-2.67475E-14-1.23951E-13
 -1       490 1.98380E+01-1.18697E-03-2.95599E-05 1.98553E-01-3.69669E-14-1.55741E-13
 -1       491 1.98502E+01-1.52527E-02-5.59804E-05 2.04022E-01-7.74018E-14-8.88079E-14
 -1       492 1.98721E+01-1.89021E-02-5.92627E-05 2.00831E-01-5.80105E-14-5.96571E-14
 -1       493 1.99004E+01-1.48460E-02-4.53345E-05 1.95742E-01 6.50637E-15 2.70598E-14
 -1       494 1.99334E+01-4.64689E-03-1.72295E-05 1.93904E-01 4.25819E-14 8.45188E-14
 -1       495 1.99707E+01 1.10096E-02 2.39635E-05 1.99530E-01-1.22973E-14 3.89985E-14
 -1       496 2.00125E+01 3.21850E-02 7.84795E-05 2.16420E-01-4.29014E-14-3.20226E-15
 -1       497 2.00598E+01 5.95935E-02 1.52961E-04 2.48339E-01-1.18622E-13-4.96574E-14
 -1       498 2.01166E+01 9.68203E-02 2.53608E-04 3.02833E-01-2.72683E-14-4.76131E-14
 -1       499 2.01783E+01 1.42720E-01 3.75353E-04 3.80062E-01-2.07684E-14 3.20490E-14
 -1       500 2.02483E+01 2.01693E-01 5.43567E-04 4.88111E-01-1.77195E-14 1.28178E-14
 -1       501 2.03256E+01 2.77291E-01 7.58776E-04 6.34563E-01-7.38818E-14-9.40682E-14
 -1       502 2.04074E+01 3.72609E-01 1.02669E-03 8.28120E-01-1.05662E-13-8.44280E-14
 -1       503 2.04883E+01 4.88221E-01 1.33293E-03 1.07804E+00 3.92852E-14-2.07739E-14
 -1       504 2.05608E+01 6.17330E-01 1.61988E-03 1.39253E+00-2.35330E-14-1.37826E-13
 -1       505 2.06191E+01 7.35913E-01 1.76570E-03 1.77560E+00-5.73701E-14-7.85241E-14
 -1       506 2.06705E+01 7.84653E-01 1.72207E-03 2.22171E+00 1.32423E-13-3.88110E-14
 -1       507 2.07657E+01 6.40843E-01 1.93335E-03 2.70617E+00 3.39790E-14-4.18782E-14
 -1       508 2.10502E+01 9.17302E-02 1.56645E-03 3.16270E+00 5.72405E-16 8.05963E-14
 -1       509 2.18566E+01-1.15443E+00 9.70119E-03 3.46557E+00 1.13709E-13 8.52226E-14
 -1       510 2.37577E+01-3.20476E+00 3.39595E-02 3.21665E+00 4.44575E-14 2.56008E-13
 -1       511 2.70395E+01-5.02682E+00 1.70082E-02 1.87995E+00 1.25434E-13 3.93772E-13
 -1       512 3.18462E+01-3.42286E+00-1.11468E-01-1.51003E+00-2.53504E-13 2.19921E-13
 -1       513 2.76119E+01-5.12257E+00 1.47528E-03-1.61790E+00 2.30607E-13-1.75521E-13
 -1       514 2.40303E+01-3.37527E+00 3.75410E-02-3.16255E+00 1.10776E-13-4.33609E-13
 -1       515 2.20089E+01-1.30633E+00 1.26482E-02-3.47956E+00 6.72327E-14-4.60449E-13
 -1       516 2.11112E+01-1.64463E-04 3.06084E-03-3.23529E+00 2.90617E-13-4.86583E-13
 -1       517 2.07801E+01 5.91562E-01 1.54869E-03-2.79535E+00 1.36072E-13-3.95827E-13
 -1       518 2.06580E+01 7.59995E-01 1.58390E-03-2.32114E+00 3.02932E-14-1.42813E-13
 -1       519 2.05882E+01 7.25789E-01 1.75931E-03-1.87842E+00-1.53269E-13 1.31348E-14
 -1       520 2.05159E+01 6.18512E-01 1.66409E-03-1.49354E+00-1.97623E-13-1.40570E-13
 -1       521 2.04314E+01 5.03421E-01 1.41038E-03-1.17103E+00 3.11804E-14-2.21849E-13
 -1       522 2.03395E+01 4.09349E-01 1.17247E-03-9.04016E-01-5.57715E-14-4.34072E-13
 -1       523 2.02463E+01 3.47958E-01 1.19494E-03-6.80806E-01-4.57930E-14-2.59007E-13
 -1       524 2.01406E+01 3.50858E-01 9.57011E-04-5.21863E-01-9.09716E-14-1.21643E-13
 -1       525 1.98524E+01 1.09627E-01 4.03794E-04-7.48640E-02 9.70427E-14 2.14762E-13
 -1       526 1.99325E+01 2.13257E-01 9.83356E-04 6.51310E-02 1.06048E-13 2.42648E-13
 -1       527 2.00649E+01 3.88176E-01 1.13319E-03 3.05707E-01 8.66817E-14 2.44693E-13
 -1       528 1.98133E+01 4.75325E-02 1.42068E-04-1.51544E-01 4.10857E-14 1.72478E-13
 -1       529 1.98033E+01 1.10720E-02 1.94449E-05-1.88371E-01 9.41349E-14 1.46222E-13
 -1       530 1.98124E+01-8.70408E-03-3.93679E-05-2.01137E-01 1.09021E-13 1.12289E-13
 -1       531 1.98337E+01-1.72250E-02-6.26150E-05-2.00687E-01 7.61626E-14 1.75455E-13
 -1       532 1.98626E+01-1.79822E-02-6.29352E-05-1.94580E-01 3.74513E-14 1.46225E-13
 -1       533 1.98962E+01-1.33344E-02-4.76355E-05-1.88130E-01 3.68840E-14 1.16101E-13
 -1       534 1.99335E+01-4.97250E-03-2.19429E-05-1.85061E-01 3.04846E-14 1.91651E-13
 -1       535 1.99743E+01 5.76162E-03 9.83170E-06-1.87899E-01-3.26534E-15 3.03382E-14
 -1       536 2.00192E+01 1.76107E-02 4.34641E-05-1.98168E-01 1.75168E-15 4.82294E-15
 -1       537 2.00694E+01 2.91484E-02 7.40412E-05-2.16403E-01 1.97606E-15-6.77345E-15
 -1       538 2.01265E+01 3.85189E-02 9.51685E-05-2.41986E-01 1.16149E-13-5.76496E-14
 -1       539 2.01925E+01 4.31802E-02 9.83121E-05-2.72817E-01 4.14672E-14 4.46198E-14
 -1       540 2.02694E+01 3.96952E-02 7.24731E-05-3.04823E-01-8.91155E-14 1.80135E-13
 -1       541 2.03590E+01 2.36777E-02 4.65421E-06-3.31363E-01-1.22191E-13 1.42542E-13
 -1       542 2.04627E+01-9.92037E-03-1.18316E-04-3.42663E-01-4.99109E-14 1.56729E-13
 -1       543 2.05810E+01-6.58754E-02-3.05144E-04-3.25544E-01-2.38681E-14 2.92364E-13
 -1       544 2.07120E+01-1.46716E-01-5.53572E-04-2.63920E-01 4.53856E-14 4.93164E-13
 -1       545 2.08503E+01-2.49340E-01-8.36759E-04-1.40818E-01 3.47223E-14 3.71108E-13
 -1       546 2.09838E+01-3.60318E-01-1.08805E-03 5.70263E-02 5.15140E-15 3.13941E-13
 -1       547 2.10915E+01-4.51300E-01-1.20901E-03 3.31017E-01 3.11325E-14 2.35373E-13
 -1       548 2.11430E+01-4.78238E-01-1.08533E-03 6.59185E-01 3.85085E-14 1.66839E-13
 -1       549 2.11041E+01-3.90148E-01-4.96557E-04 9.84810E-01-5.32680E-14 1.36391E-13
 -1       550 2.09519E+01-1.53083E-01 3.33211E-04 1.21337E+00-2.36303E-13 3.85925E-13
 -1       551 2.07011E+01 2.13362E-01 1.18835E-03 1.23243E+00 1.71593E-14 5.70569E-13
 -1       552 2.04213E+01 6.11881E-01 1.79057E-03 9.63897E-01-1.10978E-14 5.18217E-13
 -1       553 2.02216E+01 8.91720E-01 2.00247E-03 4.26738E-01-1.30567E-13 4.06697E-13
 -1       554 2.01937E+01 9.26815E-01 1.96170E-03-2.38855E-01 1.04131E-13 5.08856E-13
 -1       555 2.03503E+01 6.99699E-01 1.73681E-03-8.26192E-01 6.45404E-14 6.83950E-13
 -1       556 2.06153E+01 3.14571E-01 1.24668E-03-1.16885E+00 2.12065E-13 7.44267E-13
 -1       557 2.08771E+01-7.47731E-02 4.47265E-04-1.21590E+00 3.47934E-13 5.92498E-13
 -1       558 2.10523E+01-3.52467E-01-4.35552E-04-1.02569E+00 2.59701E-13 3.99275E-13
 -1       559 2.11124E+01-4.79257E-01-1.00810E-03-7.07977E-01 1.13726E-13 3.10885E-13
 -1       560 2.10727E+01-4.78209E-01-1.24878E-03-3.65733E-01-1.92581E-14 3.60216E-13
 -1       561 2.09667E+01-3.98449E-01-1.18277E-03-6.68888E-02 9.39957E-14 3.23272E-13
 -1       562 2.08272E+01-2.86783E-01-9.41325E-04 1.57482E-01-2.98306E-14-1.50609E-14
 -1       563 2.06781E+01-1.74904E-01-6.46321E-04 3.02469E-01 2.70394E-14-9.30239E-14
 -1       564 2.05340E+01-7.85012E-02-3.42495E-04 3.77009E-01 1.82260E-13 8.36141E-14
 -1       565 2.04023E+01-1.44591E-03-2.13625E-05 3.94990E-01 2.25200E-13 1.76233E-13
 -1       566 2.02856E+01 5.92505E-02 1.99799E-04 3.69720E-01 5.45514E-14 4.44657E-13
 -1       567 2.01827E+01 1.07969E-01 3.38964E-04 3.11964E-01-2.82787E-14 2.06671E-13
 -1       568 1.99827E+01 4.24644E-01-2.52849E-05 4.12099E-01 2.86839E-13 8.19683E-14
 -1       569 2.00464E+01 3.13652E-01 3.51715E-04 4.00306E-01 1.62535E-14 3.12378E-13
 -1       570 2.00994E+01 2.11933E-01 2.93265E-05 3.52593E-01 1.07130E-15 1.29652E-14
 -1       571 5.21856E+00-1.17418E+00 1.87163E-01 2.73790E+00-4.60408E-13 1.99535E-13
 -1       572 1.99099E+01 5.42001E-01-2.01911E-04 3.80656E-01 1.72364E-13-1.75715E-14
 -1       573 1.98349E+01 6.53892E-01-3.66645E-04 2.98839E-01 5.63896E-14-1.82204E-13
 -1       574 1.97698E+01 7.45095E-01-4.74224E-04 1.67294E-01 3.17573E-14 3.06125E-13
 -1       575 1.97300E+01 7.99139E-01-5.38677E-04-3.72085E-03 1.46745E-13 4.15910E-13
 -1       576 1.97306E+01 8.02131E-01-5.11319E-04-1.89398E-01 1.29809E-13-1.51155E-14
 -1       577 1.97823E+01 7.46049E-01-3.75941E-04-3.65208E-01 1.33278E-13-5.92251E-14
 -1       578 1.98875E+01 6.31480E-01-3.62058E-04-4.92907E-01-2.57965E-13 3.18694E-13
 -1       579 2.00082E+01 5.00550E-01 3.18142E-05-5.40975E-01-1.74021E-14 3.36794E-14
 -1       580 2.03955E+01 1.75568E+00-5.96495E-03-1.53820E+00-8.90477E-14-1.94786E-13
 -1       581 2.91727E+01-2.36732E+00-7.96569E-02 1.28832E+00 2.50030E-13-8.27213E-13
 -1       582 5.47503E+00-8.19151E-01 2.12874E-01-1.15243E+00-4.74291E-13 6.78291E-13
 -1       583 9.69304E+00-3.35823E+00 1.35622E-01-5.61743E+00-2.36457E-13 7.88869E-13
 -1       584 2.25218E+01-5.37651E+00 4.88418E-02-5.74269E+00-2.27506E-13-3.68195E-13
 -1       585 3.13803E+01 3.01794E+00-1.08887E-01-1.05711E+00 4.39246E-13-7.87460E-13
 -1       586 1.96857E+01 3.19889E+00-5.10178E-03-3.12929E-01 1.18888E-13-1.62986E-13
 -1       587 3.10887E+01 6.76224E+00-1.62638E-01-1.19940E+00 6.29705E-13-5.10245E-13
 -1       588 3.00608E+01-3.78330E-01-9.46833E-02 1.08180E-01-2.66100E-13-4.63324E-13
 -1       589 2.91124E+01 7.52911E+00-2.15766E-01 3.63797E-01 2.89602E-13-2.15446E-13
 -1       590 1.61734E+01-4.57334E+00 1.05192E-01 6.19161E+00 4.40113E-13 8.41688E-15
 -1       591 2.75221E+01-3.88233E+00-2.95050E-02-2.90506E+00-3.01620E-13-5.37528E-13
 -1       592 1.52511E+01-3.97660E+00 1.27973E-01-7.27191E+00-1.07893E-13-3.46237E-13
 -1       593 8.18247E+00-1.93148E+00 1.85232E-01-5.72386E+00 6.30468E-14-7.21881E-13
 -1       594 3.88734E+00-1.53299E+00 1.57058E-01-1.13271E+00 1.78467E-13-3.02883E-13
 -1       595 3.09980E+01-4.41834E+00-8.31440E-02 8.79177E-02 2.81372E-15-2.97540E-14
 -1       596 2.53813E+01-6.11642E+00 1.26051E-03 3.95822E+00-9.18571E-14 6.35839E-13
 -1       597 3.33981E+01 2.74706E-01-6.73795E-02 3.21495E+00 1.74027E-13-1.09857E-13
 -1       598 2.57811E+01-6.12688E+00 1.17800E-02-3.88063E+00 2.55213E-13 2.17232E-13
 -1       599 1.70557E+01-5.33750E+00 8.45440E-02-6.37072E+00 8.90260E-14 6.09426E-13
 -1       600 1.13975E+01-3.31647E+00 1.46979E-01 7.01670E+00-4.00117E-13-2.26971E-13
 -1       601 1.99745E+01 2.64942E+00-9.82730E-03-1.23989E+00-1.41531E-14-2.33105E-13
 -1       602 2.02630E+01 6.54461E-01 6.22955E-03 7.97348E-01 1.03240E-13 3.43565E-13
 -1       603 9.50750E+00-9.84107E-01 1.55373E-01 4.87848E+00-5.43407E-13 6.38448E-14
 -1       604 2.01365E+01 5.01314E-01 3.55224E-03 5.18848E-01 1.08307E-13 2.84155E-13
 -1       605 9.32035E+00-7.27302E-01 1.57258E-01-3.63987E+00-4.22818E-13 6.09221E-13
 -1       606 2.18422E+01-4.98496E+00 7.18931E-02 4.83488E+00 2.91218E-13 3.19980E-13
 -1       607 1.30783E+01-2.50772E+00 1.53741E-01 5.42820E+00 3.33882E-13 1.46251E-13
 -1       608 2.90561E+01 2.02452E+00-1.30601E-01 1.79429E+00-2.79318E-13-1.97019E-13
 -1       609 6.76996E+00-5.06991E-01 1.68220E-01 1.95886E+00 2.55521E-13 9.43690E-15
 -1       610 1.99648E+01 2.45095E+00-1.61154E-03 3.94288E-01 1.73905E-13-5.66474E-14
 -1       611 1.99335E+01 2.52591E+00-1.51848E-03 1.35868E-01 1.33108E-13-8.93818E-14
 -1       612 2.01220E+01 2.04756E+00-1.78714E-03 8.51330E-01 1.93927E-13 2.36151E-14
 -1       613 2.02413E+01 1.68367E+00-2.00006E-03 1.00262E+00 1.63871E-13 8.95943E-14
 -1       614 2.03615E+01 1.02608E+00 3.46536E-03 1.01134E+00 1.28218E-13 2.49152E-13
 -1       615 2.85263E+01-1.58642E-01-7.93831E-02-1.29315E+00 2.36533E-13-5.77878E-13
 -1       616 2.01723E+01 1.44887E-01 6.66319E-05 4.39160E-01 1.39421E-13 2.04881E-14
 -1       617 2.02400E+01 6.76452E-01 6.27631E-04-3.94750E-01-3.71080E-14-1.27958E-13
 -1       618 2.01686E+01 3.94301E-01 2.00316E-04-1.38860E-01-1.97457E-14-9.53032E-14
 -1       619 2.01043E+01 2.16724E-01 5.91236E-05 2.49874E-02 5.60565E-15-9.22947E-14
 -1       620 2.00554E+01 1.05127E-01 7.82025E-06 1.23044E-01-2.07315E-14-1.17733E-13
 -1       621 2.00223E+01 3.71849E-02-1.15949E-05 1.76439E-01-2.40925E-14-9.38517E-14
 -1       622 2.00025E+01-9.70739E-04-1.98704E-05 2.01322E-01 2.17254E-14 2.81020E-14
 -1       623 1.99929E+01-1.81923E-02-2.20883E-05 2.09747E-01-2.47968E-14 1.15883E-13
 -1       624 1.99910E+01-2.01925E-02-1.93235E-05 2.10686E-01 2.74137E-14 1.28255E-13
 -1       625 1.99948E+01-1.05581E-02-1.22904E-05 2.10909E-01-9.60221E-15 1.24442E-14
 -1       626 2.00027E+01 8.69023E-03-1.47644E-06 2.15703E-01-2.86062E-14-1.02445E-14
 -1       627 2.00133E+01 3.67864E-02 1.27868E-05 2.29451E-01-2.47655E-14 1.10010E-15
 -1       628 2.00255E+01 7.40000E-02 3.10233E-05 2.56042E-01-1.29561E-13-1.68807E-14
 -1       629 2.00380E+01 1.24484E-01 6.21249E-05 3.02087E-01 1.06744E-15 5.41586E-14
 -1       630 2.00469E+01 1.85969E-01 8.99869E-05 3.67477E-01-4.21376E-14 7.02111E-14
 -1       631 2.00490E+01 2.63755E-01 1.35165E-04 4.58299E-01-8.32697E-14-2.50588E-14
 -1       632 2.00374E+01 3.62020E-01 1.93607E-04 5.79587E-01-7.45745E-14 1.12415E-14
 -1       633 2.00023E+01 4.84933E-01 2.69344E-04 7.36772E-01-5.11923E-14 9.83772E-15
 -1       634 1.99286E+01 6.35092E-01 3.62052E-04 9.35572E-01-4.99765E-14 6.54825E-14
 -1       635 1.97965E+01 8.09937E-01 4.62829E-04 1.18186E+00-1.00227E-13-8.51025E-14
 -1       636 1.95814E+01 9.94627E-01 5.53068E-04 1.48212E+00 2.25389E-14-6.07405E-14
 -1       637 1.92603E+01 1.14906E+00 6.77456E-04 1.84596E+00 6.98161E-14 3.00617E-14
 -1       638 1.88259E+01 1.18630E+00 1.79559E-03 2.29370E+00 1.14902E-14 1.09644E-14
 -1       639 1.83189E+01 9.37443E-01 6.06344E-03 2.87687E+00 1.48502E-13-4.74967E-15
 -1       640 1.79898E+01 1.34776E-01 1.33398E-02 3.62402E+00 8.66872E-14 1.11733E-13
 -1       641 1.81569E+01-1.63443E+00 9.70989E-02 4.70338E+00 1.47020E-13 2.22822E-13
 -1       642 2.02808E+01 1.67921E+00 7.97552E-05-1.14159E+00-7.17114E-14-1.81408E-13
 -1       643 1.83147E+01-1.94658E+00 6.53467E-02-4.70677E+00 4.49293E-15 1.22678E-13
 -1       644 1.80303E+01-2.60823E-02 2.27143E-02-3.75579E+00 6.77765E-14-8.61620E-14
 -1       645 1.83753E+01 8.48368E-01 6.27642E-03-2.98904E+00 8.38002E-14-3.17085E-13
 -1       646 1.88437E+01 1.13957E+00 1.44617E-03-2.41243E+00 2.84039E-13-3.44374E-13
 -1       647 1.92664E+01 1.12601E+00 7.07133E-04-1.96113E+00 7.05791E-14-3.39121E-13
 -1       648 1.95838E+01 9.87518E-01 5.92896E-04-1.59314E+00-1.00512E-13-2.10649E-13
 -1       649 1.97976E+01 8.20382E-01 5.02686E-04-1.28613E+00-9.77428E-14-1.39478E-14
 -1       650 1.99290E+01 6.70213E-01 3.80188E-04-1.02722E+00-2.87711E-15-1.10762E-13
 -1       651 1.99987E+01 5.58456E-01 3.02968E-04-8.06194E-01-3.87857E-14 9.71831E-14
 -1       652 2.00058E+01 5.20713E-01 3.64143E-04-6.67487E-01-8.66245E-14 3.24751E-13
 -1       653 2.01122E+01 2.88709E-01 1.88148E-04 5.19982E-02 1.26249E-13 1.35787E-13
 -1       654 2.00520E+01 1.51353E-01 5.94211E-05-7.91508E-02 1.00578E-13 9.70995E-14
 -1       655 2.01897E+01 5.07117E-01 5.20610E-04 2.64897E-01 9.95365E-14 1.19550E-13
 -1       656 1.99859E+01 1.56620E-02-1.35143E-05-1.92308E-01 8.95108E-14 6.31742E-14
 -1       657 1.99736E+01-1.11447E-02-2.29126E-05-2.07579E-01 4.40821E-14 1.35629E-13
 -1       658 1.99707E+01-2.14759E-02-2.48262E-05-2.10428E-01 6.10618E-14 1.26544E-13
 -1       659 1.99746E+01-2.02312E-02-2.11811E-05-2.08386E-01 4.46578E-14 1.12209E-13
 -1       660 1.99837E+01-1.08697E-02-1.35983E-05-2.06893E-01 2.68297E-14-4.40067E-15
 -1       661 1.99971E+01 4.00827E-03-3.42394E-06-2.09824E-01 3.58847E-14 2.91226E-14
 -1       662 2.00144E+01 2.22057E-02 8.07036E-06-2.19824E-01 7.81528E-14 4.96965E-14
 -1       663 2.00360E+01 4.15183E-02 1.95670E-05-2.38470E-01 1.65427E-14-5.81700E-14
 -1       664 2.00631E+01 5.93236E-02 2.93445E-05-2.66242E-01 3.73048E-14 6.88945E-14
 -1       665 2.00974E+01 7.21634E-02 3.50447E-05-3.02325E-01-7.61869E-16 1.45692E-13
 -1       666 2.01417E+01 7.53524E-02 3.33947E-05-3.44218E-01-6.12618E-14 1.57614E-13
 -1       667 2.02000E+01 6.27125E-02 2.00686E-05-3.87173E-01-1.37967E-13 1.95556E-13
 -1       668 2.02778E+01 2.66283E-02-1.02651E-05-4.23481E-01-8.12772E-14 2.15608E-13
 -1       669 2.03817E+01-4.12298E-02-6.38629E-05-4.41730E-01-8.61422E-14 1.25409E-13
 -1       670 2.05192E+01-1.47986E-01-1.44629E-04-4.26267E-01-9.17857E-14-2.39885E-14
 -1       671 2.06968E+01-2.95766E-01-2.55548E-04-3.57344E-01 1.48804E-13-1.29280E-14
 -1       672 2.09161E+01-4.75398E-01-3.80467E-04-2.12911E-01 5.69776E-14 6.46997E-14
 -1       673 2.11676E+01-6.57880E-01-4.63737E-04 2.61611E-02-5.13288E-15 1.21980E-13
 -1       674 2.14228E+01-7.86590E-01-4.80725E-04 3.64944E-01 1.06048E-13 7.94541E-14
 -1       675 2.16300E+01-7.78230E-01-4.17441E-04 7.76226E-01-1.31741E-14 1.33838E-13
 -1       676 2.17226E+01-5.43621E-01 3.95817E-04 1.18049E+00-1.95870E-13 2.23411E-13
 -1       677 2.16460E+01-3.97297E-02 8.75192E-04 1.43618E+00-1.59404E-13 1.92365E-13
 -1       678 2.14160E+01 6.50942E-01 7.43442E-04 1.37561E+00-1.24564E-14 2.96105E-13
 -1       679 2.11470E+01 1.29760E+00 5.67616E-04 9.07695E-01 5.01362E-14 3.28794E-13
 -1       680 2.10059E+01 1.60735E+00 1.85125E-04 1.23365E-01-9.27562E-14 2.51775E-13
 -1       681 2.10894E+01 1.41851E+00-1.17244E-04-7.02916E-01 9.77929E-15 3.83591E-13
 -1       682 2.13391E+01 8.29027E-01 1.56914E-04-1.26912E+00 5.05120E-14 4.98622E-13
 -1       683 2.15922E+01 1.18924E-01 3.78784E-04-1.42909E+00 3.39407E-13 5.22508E-13
 -1       684 2.17126E+01-4.51336E-01-6.36161E-05-1.23550E+00 2.84430E-13 6.52040E-13
 -1       685 2.16593E+01-7.58805E-01-2.72199E-04-8.47067E-01 1.67909E-13 6.30825E-13
 -1       686 2.14725E+01-8.19981E-01-4.93470E-04-4.18900E-01-1.62050E-15 6.36144E-13
 -1       687 2.12205E+01-7.17677E-01-5.13580E-04-4.86848E-02 1.05426E-13 4.17831E-13
 -1       688 2.09613E+01-5.39863E-01-4.21740E-04 2.23877E-01 1.67513E-13 5.60086E-13
 -1       689 2.07290E+01-3.49639E-01-2.94356E-04 3.96587E-01 9.84897E-14 5.45510E-13
 -1       690 2.05369E+01-1.80674E-01-1.74768E-04 4.84833E-01-6.56294E-14 4.17424E-13
 -1       691 2.03863E+01-4.49639E-02 1.34730E-04 5.07762E-01 2.75557E-13 2.84965E-13
 -1       692 2.02673E+01 5.92655E-02 1.36437E-04 4.90297E-01 1.71318E-13 2.19820E-13
 -1       693 2.00331E+01 2.88167E-01-1.19533E-04 5.06337E-01 8.96440E-14 4.02715E-13
 -1       694 1.97971E+01 5.25335E-01-1.34691E-04 4.50758E-01 1.27450E-13-2.93955E-13
 -1       695 1.67998E+01-3.42717E+00 8.28599E-02 6.37249E+00-1.84477E-13-1.48135E-13
 -1       696 1.99220E+01 4.00674E-01-1.11324E-04 5.06316E-01-7.95068E-14 2.13655E-13
 -1       697 1.95773E+01 7.54176E-01-1.45690E-04 1.46905E-01 2.86768E-14 1.66740E-13
 -1       698 1.95344E+01 8.14837E-01-2.37794E-04-7.84056E-02 9.02023E-15 1.42197E-13
 -1       699 1.95681E+01 8.15142E-01-2.84066E-04-3.21442E-01 1.05562E-13-5.79425E-14
 -1       700 1.96914E+01 7.43661E-01 3.53552E-05-5.32785E-01 7.01073E-14-5.94135E-14
 -1       701 2.26411E+01-5.06033E+00 3.27502E-02 5.13195E+00-3.40596E-14-2.49699E-13
 -1       702 8.46784E+00 6.64537E-01 1.63378E-01 9.03468E-01-6.20258E-13 4.53602E-13
 -1       703 2.54703E+01-4.48657E+00-8.29886E-03-2.97417E+00-3.54534E-13-4.91615E-13
 -1       704 1.96740E+01 6.50006E-01-1.46987E-04 3.30337E-01 1.96983E-13 1.34718E-13
 -1       705 2.09384E+01-4.62092E+00 7.17883E-02-5.04929E+00 9.12534E-14 2.29988E-13
 -1       706 1.98842E+01-4.20363E+00 4.46258E-02-5.76936E+00-2.55511E-13-3.78753E-13
 -1       707 2.02912E+01 1.07697E+00-1.62469E-04-7.23774E-01-7.51586E-14-1.68838E-13
 -1       708 2.77295E+01-2.61502E+00-5.24545E-02-3.40666E-01-4.09698E-13-1.22312E-13
 -1       709 2.67690E+01-4.14545E+00-3.30036E-02 2.05064E+00 1.54708E-13-7.00683E-13
 -1       710 2.82884E+01 3.98928E+00-1.40990E-01-2.01989E+00 3.54577E-13-2.18499E-13
 -1       711 1.31933E+01-1.53254E+00 1.17767E-01-5.70707E+00-1.43106E-13-4.07376E-13
 -1       712 2.00278E+01 2.29616E+00-1.71289E-03 6.38201E-01 1.91070E-13 1.79463E-16
 -1       713 2.73729E+01 5.22452E+00-1.47717E-01 1.74031E+00-7.06241E-14 6.01082E-14
 -1       714 1.53725E+01-2.84981E+00 1.33742E-01-5.65829E+00-1.43420E-13 3.83867E-13
 -1       715 2.00228E+01 2.30638E+00-1.55405E-03-6.29692E-01 5.26490E-14-1.63981E-13
 -1       716 2.00108E+01 6.61610E-02 8.41239E-06-1.54234E-01 7.96553E-14 4.28593E-14
 -1       717 8.14977E+00 2.35487E-01 1.67355E-01-2.66391E+00 1.51126E-13-3.32151E-13
 -1       718 2.69625E+01 6.28748E+00-1.51316E-01-8.82311E-01 5.16302E-13-3.91544E-14
 -1       719 1.99326E+01 2.52763E+00-1.51019E-03-1.26468E-01 9.88840E-14-1.37906E-13
 -1       720 2.56901E+01 5.63309E+00-1.08826E-01 6.68091E-01 1.97207E-13 1.55080E-14
 -1       721 2.01219E+01 2.06396E+00-1.17426E-03-8.54794E-01-3.68736E-15-1.79182E-13
 -1       722 1.41296E+01-1.47581E+00 8.19543E-02 5.42682E+00-3.67753E-13 1.52794E-14
 -1       723 1.98416E+01 6.44058E-01 3.17123E-04-6.27993E-01 8.94834E-14 2.87287E-13
 -1       724 2.02744E+01 8.56289E-01 1.72021E-03 5.85934E-01 8.39155E-14 1.15103E-13
 -1       725 1.03075E+01 8.56728E-01 1.07059E-01-1.42182E+00-5.35271E-13 4.44013E-13
 -1       726 2.31109E+01-4.35946E+00 7.48895E-03-3.81958E+00-4.02183E-13-2.76114E-13
 -1       727 2.74742E+01-5.79194E-01-6.87173E-02 1.34842E+00-4.22978E-13 6.00370E-14
 -1       728 1.99621E+01 2.45649E+00-1.53220E-03-3.84387E-01 8.05481E-14-1.35194E-13
 -1       729 1.13049E+01-5.72797E-01 1.19824E-01 3.99504E+00 2.64452E-13 1.74916E-13
 -1       730 1.72291E+01-2.44951E+00 5.21669E-02-5.41347E+00-2.06148E-13-4.31738E-14
 -1       731 2.02667E+01 1.31038E+00-6.79564E-04 6.31196E-01 1.20309E-13 3.25798E-14
 -1       732 2.65897E+01 1.50474E+00-6.32835E-02-2.12963E+00 2.94310E-13-1.91066E-13
 -1       733 2.59048E+01-3.43496E+00-1.65177E-02-9.81586E-01-4.85887E-13-3.29511E-15
 -1       734 2.02653E+01 4.37958E-01-5.58950E-05-9.13030E-02-1.07179E-14-1.45238E-13
 -1       735 2.02258E+01 2.42461E-01-2.43262E-05 4.08940E-02-3.10946E-14-1.21601E-13
 -1       736 2.01851E+01 1.16598E-01-1.32726E-05 1.22079E-01-2.21499E-14-8.90453E-14
 -1       737 2.01482E+01 3.98388E-02-9.05701E-06 1.67542E-01 9.07475E-14-2.68474E-14
 -1       738 2.01168E+01-1.83446E-03-7.44806E-06 1.89954E-01 9.45196E-14 1.69396E-15
 -1       739 2.00908E+01-1.79848E-02-6.25448E-06 1.99348E-01 3.58339E-14 8.92798E-14
 -1       740 2.00695E+01-1.50199E-02-4.73701E-06 2.03466E-01-5.18437E-14 1.17268E-13
 -1       741 2.00515E+01 3.00085E-03-2.67134E-06 2.08280E-01-3.48715E-14 1.07588E-13
 -1       742 2.00349E+01 3.38557E-02-2.08374E-07 2.18480E-01-4.98074E-14 2.34491E-16
 -1       743 2.00177E+01 7.67830E-02 4.61839E-07 2.37865E-01-3.39697E-14 1.91851E-14
 -1       744 1.99953E+01 1.35641E-01 1.17464E-05 2.71702E-01-4.79390E-14 1.39003E-13
 -1       745 1.99652E+01 2.06796E-01 1.18527E-05 3.19781E-01-8.71008E-14 1.12947E-13
 -1       746 1.99204E+01 2.95485E-01 1.92622E-05 3.85849E-01-9.76219E-14 2.16343E-14
 -1       747 1.98517E+01 4.05588E-01 2.85477E-05 4.72109E-01 2.24432E-15 6.47472E-14
 -1       748 1.97459E+01 5.41286E-01 3.98131E-05 5.80172E-01-2.19066E-14 1.84730E-13
 -1       749 1.95845E+01 7.06049E-01 5.08009E-05 7.10860E-01-1.15592E-13 1.56534E-13
 -1       750 1.93421E+01 9.00419E-01 5.06473E-05 8.64221E-01-1.22173E-13 1.29898E-13
 -1       751 1.89845E+01 1.11787E+00 2.39021E-05 1.04044E+00 3.47343E-14 1.61669E-13
 -1       752 1.84683E+01 1.33769E+00-4.15605E-05 1.24323E+00 1.11439E-13 1.52671E-13
 -1       753 1.77397E+01 1.51368E+00 3.31444E-05 1.48819E+00 6.66108E-14 1.70375E-13
 -1       754 1.67331E+01 1.55780E+00 2.67747E-03 1.82553E+00 6.59255E-14 1.09260E-13
 -1       755 1.54582E+01 1.33615E+00 1.74651E-02 2.37630E+00 1.66382E-13-1.26704E-14
 -1       756 2.55078E+01 4.13870E+00-8.61513E-02-1.72866E+00 3.21552E-13-3.25712E-14
 -1       757 1.53800E+01 1.18498E+00 1.55988E-02-2.56053E+00-2.65434E-14 6.26591E-14
 -1       758 1.67434E+01 1.50151E+00 4.39700E-03-1.97431E+00 2.67577E-14 3.31862E-13
 -1       759 1.77540E+01 1.48371E+00 5.24611E-04-1.61736E+00 1.63697E-14-1.22598E-13
 -1       760 1.84942E+01 1.32442E+00 4.41340E-05-1.36047E+00 1.34933E-13-1.64734E-13
 -1       761 1.90226E+01 1.12168E+00 1.13523E-05-1.14913E+00-6.22205E-14-1.23423E-13
 -1       762 1.93906E+01 9.29466E-01-9.77696E-05-9.63756E-01-2.54283E-13-2.53121E-14
 -1       763 1.96409E+01 7.74001E-01 4.48965E-05-7.94427E-01 3.65250E-13-2.86658E-14
 -1       764 2.02303E+01 3.29197E-01-2.71855E-05 2.38716E-02 1.26968E-13 6.54178E-14
 -1       765 2.02699E+01 5.69922E-01 1.87965E-04 1.95201E-01 8.65170E-14 1.72528E-14
 -1       766 2.00867E+01-1.30411E-02-8.26421E-06-1.97916E-01 5.01447E-14 1.92686E-13
 -1       767 2.01138E+01 1.62734E-02-8.47302E-06-1.83051E-01 3.69948E-14 1.32728E-13
 -1       768 2.00493E+01-1.61287E-02-5.29942E-06-2.04897E-01 1.52912E-13 1.50056E-13
 -1       769 2.00371E+01-8.10698E-05-2.63905E-06-2.08733E-01 1.07878E-13 4.97741E-14
 -1       770 2.00285E+01 2.28601E-02 2.81701E-07-2.18130E-01-6.04285E-15-3.38015E-14
 -1       771 2.00231E+01 4.96484E-02 3.49844E-06-2.35688E-01 1.78176E-14 1.20850E-13
 -1       772 2.00213E+01 7.70387E-02 6.75179E-06-2.63070E-01-1.58189E-14 1.07766E-13
 -1       773 2.00245E+01 1.01019E-01 9.68323E-06-3.00972E-01-1.65658E-14 7.17945E-14
 -1       774 2.00353E+01 1.16234E-01 1.16378E-05-3.48918E-01-7.82543E-14 9.93203E-14
 -1       775 2.00582E+01 1.15473E-01 1.16188E-05-4.04855E-01-1.79627E-13 9.33130E-14
 -1       776 2.01002E+01 8.93524E-02 8.02593E-06-4.64511E-01-1.30004E-13 6.79009E-14
 -1       777 2.01716E+01 2.65137E-02-1.91784E-06-5.20484E-01-2.96493E-14 1.13871E-14
 -1       778 2.02860E+01-8.51643E-02-2.46237E-05-5.61033E-01 6.32458E-14 2.22859E-14
 -1       779 2.04598E+01-2.55529E-01-6.11948E-05-5.68662E-01 2.36900E-14-9.62746E-14
 -1       780 2.07096E+01-4.86209E-01-1.29091E-04-5.18833E-01 1.45486E-14-3.08826E-14
 -1       781 2.10454E+01-7.60348E-01-2.07756E-04-3.80038E-01-3.16344E-14 7.53271E-14
 -1       782 2.14598E+01-1.02800E+00-1.96403E-04-1.18524E-01 1.05142E-14 8.59175E-14
 -1       783 2.19098E+01-1.19161E+00-3.85221E-04 2.86130E-01-4.33930E-14 3.36825E-13
 -1       784 2.23074E+01-1.10976E+00-1.34017E-03 8.07522E-01-1.96139E-13 4.90994E-13
 -1       785 2.25387E+01-6.38036E-01 1.85455E-04 1.33379E+00-2.38979E-13 4.97270E-13
 -1       786 2.24909E+01 2.81099E-01-7.71126E-04 1.63645E+00-2.10776E-13 3.47522E-13
 -1       787 2.22110E+01 1.41846E+00-2.34678E-03 1.45146E+00-3.06267E-14 4.48853E-13
 -1       788 2.19263E+01 2.28341E+00-2.38106E-03 6.85683E-01 5.70127E-14 2.36883E-13
 -1       789 2.18839E+01 2.39786E+00-3.88202E-03-3.92947E-01-4.06462E-14 1.04253E-13
 -1       790 2.21247E+01 1.68929E+00-3.93395E-03-1.28110E+00 5.46503E-14 9.62971E-14
 -1       791 2.24361E+01 5.60112E-01-2.24783E-03-1.61757E+00 8.73267E-14 2.74988E-14
 -1       792 2.25547E+01-4.49924E-01-1.77744E-03-1.41766E+00 1.71943E-13 1.65523E-13
 -1       793 2.23980E+01-1.05007E+00-3.96664E-04-9.15576E-01 1.12486E-13 4.48738E-13
 -1       794 2.20334E+01-1.22610E+00-3.51558E-04-3.68153E-01 1.43624E-13 4.30500E-13
 -1       795 2.15874E+01-1.11117E+00-2.73381E-04 8.02228E-02 1.75768E-13-2.06799E-15
 -1       796 2.11604E+01-8.56817E-01-1.97370E-04 3.85168E-01-3.68794E-14 8.84749E-14
 -1       797 2.08055E+01-5.72206E-01-1.36552E-04 5.58958E-01-7.40451E-15 4.38544E-13
 -1       798 2.05368E+01-3.16190E-01-8.78589E-05 6.32120E-01 8.66507E-14 5.30626E-13
 -1       799 2.03464E+01-1.07642E-01 2.57652E-04 6.35340E-01 2.10897E-13 2.42941E-13
 -1       800 1.92967E+01 8.84882E-01-2.16667E-04-1.86999E-01-3.51300E-13 6.33348E-14
 -1       801 1.93987E+01 8.74857E-01 7.40489E-05-4.93631E-01-5.69361E-14 2.32343E-13
 -1       802 1.93229E+01 8.15059E-01 1.06389E-04 1.09339E-01-2.03391E-13 1.18273E-13
 -1       803 1.12533E+01 4.77665E-01 8.82262E-02 3.05649E+00-3.75124E-13 1.01297E-13
 -1       804 1.94469E+01 6.85322E-01-4.59835E-05 3.56184E-01 2.11131E-13 9.29625E-15
 -1       805 9.45317E+00 9.17624E-01 1.58695E-01 4.39646E-01 2.10812E-13-8.23230E-14
 -1       806 2.44166E+01-4.24785E+00-4.67495E-03 2.69982E+00 2.54197E-13-4.44506E-13
 -1       807 2.00655E+01-2.18851E-02-7.24922E-06-2.02956E-01 6.82425E-14 1.95589E-13
 -1       808 1.46438E+01-1.23942E-02 7.01493E-02-3.92687E+00-8.46519E-14 1.91583E-13
 -1       809 2.64917E+01 2.38991E+00-8.16231E-02 2.16547E+00-2.25299E-13 1.52935E-13
 -1       810 2.01441E+01 1.89169E+00-3.17425E-04 1.99319E-01 1.41230E-13-6.69863E-14
 -1       811 2.00806E+01 1.74947E-01 9.58699E-05 6.02055E-01 2.11027E-13 2.48971E-13
 -1       812 2.02905E+01 7.34888E-01 3.22959E-05-2.90041E-01-9.25665E-15-1.26830E-13
 -1       813 2.66319E+01-2.45490E+00-3.93356E-02-3.18393E-01 2.82886E-13-3.73193E-13
 -1       814 2.07016E+01-3.71164E+00 3.09186E-02 4.74540E+00-4.20514E-14 9.96200E-14
 -1       815 1.96258E+01 5.29208E-01-2.32652E-05 5.22251E-01 2.55450E-13-3.11533E-14
 -1       816 1.19564E+01 3.30049E-01 7.69849E-02-3.39761E+00 4.67670E-14-3.89990E-13
 -1       817 1.48513E+01-5.80697E-01 4.18265E-02-4.31495E+00-1.23511E-13-1.59553E-13
 -1       818 2.60597E+01-2.00297E+00-2.77075E-02 6.65487E-01-4.89426E-13-6.66897E-14
 -1       819 2.01326E+01 1.93008E+00-3.04418E-04 3.22364E-03 1.04690E-13-8.65341E-14
 -1       820 2.51406E+01 3.80455E+00-6.83468E-02 1.71960E+00-2.00562E-13-1.56906E-15
 -1       821 2.44128E+01 4.77233E+00-6.79163E-02-5.03308E-01 2.82462E-13 2.30803E-13
 -1       822 2.01871E+01 1.72880E-01-6.05862E-06-8.53463E-02 1.00175E-13 1.30996E-13
 -1       823 2.01473E+01 7.43051E-02-9.15693E-06-1.49414E-01 8.20489E-14 1.38223E-13
 -1       824 1.12604E+01 1.21716E+00 7.21157E-02 9.72455E-01-2.87339E-13 5.40569E-13
 -1       825 2.01917E+01 3.66046E-02-5.15990E-04 6.41406E-01 2.35722E-13 1.46006E-13
 -1       826 2.02193E+01 1.59213E+00-8.40199E-04-5.29210E-01-3.92789E-15-1.22719E-13
 -1       827 1.80971E+01-2.36509E+00 3.48475E-02 4.93494E+00-3.48339E-13 5.70767E-14
 -1       828 1.99178E+01 2.88041E-01 1.77598E-04 6.29710E-01 2.22922E-13 8.32718E-14
 -1       829 2.02894E+01 9.31694E-01 5.10315E-04 4.44685E-01 1.10604E-13 4.11292E-14
 -1       830 2.02673E+01-3.20223E+00 2.47208E-02-4.47621E+00-3.35958E-13-2.79956E-13
 -1       831 2.02207E+01 1.58617E+00-5.71461E-04 5.33326E-01 1.38013E-13 2.75069E-15
 -1       832 1.97724E+01 4.03145E-01-1.63175E-05 5.99784E-01 2.42475E-13 2.46222E-14
 -1       833 2.02904E+01 1.12487E+00 3.15863E-04-5.34795E-01-4.76591E-14-1.13905E-13
 -1       834 2.01746E+01 1.77906E+00-5.05824E-04 3.80190E-01 1.42272E-13-2.57077E-14
 -1       835 2.01736E+01 1.78442E+00-2.91318E-04-3.75829E-01 4.86025E-14-1.09459E-13
 -1       836 1.16494E+01 1.30176E+00 4.90386E-02-1.20158E+00 1.97170E-13-2.03920E-13
 -1       837 2.00297E+01 5.21535E-02 4.45117E-08-2.10963E-01 3.18057E-14 1.69442E-13
 -1       838 2.03084E+01 2.41231E-01-2.03855E-05 5.43985E-02 9.38700E-15-3.60723E-14
 -1       839 2.02714E+01 1.12805E-01-4.23975E-06 1.14744E-01 3.80172E-14-2.02575E-14
 -1       840 2.02305E+01 3.57885E-02-2.57871E-06 1.48998E-01 8.01629E-14-8.01764E-14
 -1       841 2.01895E+01-3.28131E-03-1.63473E-06 1.66627E-01 1.03487E-13-1.11531E-13
 -1       842 2.01499E+01-1.40281E-02-1.30108E-06 1.75290E-01 2.73193E-14-8.75687E-14
 -1       843 2.01117E+01-3.04516E-03-8.77897E-07 1.80987E-01-5.38753E-14-5.12022E-14
 -1       844 2.00738E+01 2.54770E-02-6.66352E-07 1.88333E-01-3.15029E-14-9.34854E-14
 -1       845 2.00339E+01 6.92433E-02-4.00846E-06 2.00826E-01 4.62513E-15-5.06061E-14
 -1       846 1.99861E+01 1.31025E-01 3.48304E-06 2.22337E-01 1.35163E-14-3.74812E-14
 -1       847 1.99299E+01 2.05760E-01-1.67999E-06 2.52681E-01-1.86072E-14-2.65989E-14
 -1       848 1.98565E+01 2.97736E-01-2.33847E-06 2.93534E-01-6.50520E-14 1.90359E-13
 -1       849 1.97566E+01 4.09732E-01-3.30323E-06 3.44721E-01-2.48260E-14 3.28209E-13
 -1       850 1.96173E+01 5.44847E-01-5.91549E-06 4.04599E-01-2.91574E-14 2.41445E-13
 -1       851 1.94208E+01 7.05803E-01-1.34273E-05 4.69566E-01 4.06140E-14 2.02024E-13
 -1       852 1.91428E+01 8.93572E-01-3.61096E-05 5.33611E-01-3.05247E-14 3.88396E-13
 -1       853 1.87505E+01 1.10506E+00-9.68388E-05 5.88312E-01-1.26114E-13 4.41687E-13
 -1       854 1.81986E+01 1.32957E+00-1.73278E-04 6.23994E-01 6.58037E-14 3.52974E-13
 -1       855 1.74229E+01 1.54386E+00-2.14905E-04 6.34184E-01 5.95592E-14 2.71389E-13
 -1       856 1.63305E+01 1.70573E+00 3.38705E-04 6.21785E-01 3.56563E-14 9.80097E-14
 -1       857 1.47542E+01 1.79942E+00 1.36438E-02 6.65986E-01 7.47510E-14-3.39323E-15
 -1       858 2.01981E+01 1.29788E-02-3.77742E-06-1.62800E-01 6.80795E-14 6.75649E-14
 -1       859 1.46950E+01 1.69338E+00 1.09325E-02-7.55001E-01-4.32980E-14 1.61249E-13
 -1       860 1.27968E+01 1.52045E+00 4.73421E-02-9.69721E-01-1.45497E-13 3.84585E-13
 -1       861 1.63031E+01 1.68250E+00 1.59088E-03-7.34868E-01-7.16929E-14-1.02451E-14
 -1       862 1.74346E+01 1.53161E+00-2.79160E-04-7.35832E-01 7.42890E-14 1.80045E-13
 -1       863 1.82407E+01 1.33157E+00-3.38069E-04-7.18742E-01 1.04110E-13 1.25738E-13
 -1       864 1.88181E+01 1.12734E+00-6.98380E-04-6.78899E-01 3.38653E-14 1.23528E-13
 -1       865 1.91417E+01 9.88790E-01-2.96404E-04-5.83953E-01-2.27889E-13 6.30990E-13
 -1       866 2.03364E+01 7.33347E-01-8.68409E-05-1.86328E-01-3.20477E-14-8.03029E-14
 -1       867 2.00589E+01 1.98322E-02-4.22899E-07-1.95577E-01 6.35411E-14 2.17341E-13
 -1       868 2.00899E+01-4.72727E-03-6.14638E-07-1.86894E-01 1.16414E-13 1.82819E-13
 -1       869 2.00022E+01 8.84755E-02 6.31553E-07-2.35644E-01 1.57916E-14 5.61910E-14
 -1       870 1.99767E+01 1.24569E-01 1.54952E-06-2.71626E-01-1.16464E-14 1.39754E-14
 -1       871 1.99551E+01 1.55026E-01 2.73236E-06-3.20324E-01-5.06118E-14 1.84364E-14
 -1       872 1.99408E+01 1.72537E-01 4.17679E-06-3.82407E-01-1.63238E-13 7.37878E-15
 -1       873 1.99405E+01 1.67221E-01 5.83069E-06-4.57417E-01-1.61322E-13 1.10628E-14
 -1       874 1.99646E+01 1.26218E-01 7.13765E-06-5.43041E-01-1.39690E-13 5.47519E-14
 -1       875 2.00288E+01 3.38970E-02 5.08635E-06-6.33864E-01-2.58308E-15-6.59124E-14
 -1       876 2.01549E+01-1.26635E-01-1.45655E-05-7.19347E-01 3.05181E-14-1.20124E-14
 -1       877 2.03705E+01-3.69604E-01-3.09982E-05-7.80770E-01-2.98682E-14 1.11599E-13
 -1       878 2.07064E+01-6.98638E-01-1.09816E-04-7.86903E-01-1.34487E-13 1.57166E-13
 -1       879 2.11874E+01-1.09050E+00-1.74184E-04-6.90054E-01-1.05468E-13 2.35665E-13
 -1       880 2.18151E+01-1.47141E+00 1.87021E-04-4.27951E-01-1.62695E-13 2.64768E-13
 -1       881 2.25339E+01-1.68200E+00 1.50121E-04 5.95508E-02-1.91409E-13 2.01254E-13
 -1       882 2.32081E+01-1.46385E+00-1.76091E-03 7.89811E-01-1.97145E-13 3.46905E-13
 -1       883 2.35832E+01-6.14905E-01-8.08314E-03 1.53986E+00-1.78259E-13 2.09285E-13
 -1       884 2.35056E+01 9.26797E-01-1.84240E-02 1.87468E+00-2.26085E-13 3.66168E-13
 -1       885 2.31661E+01 2.63868E+00-1.73056E-02 1.43917E+00 1.20144E-13 3.42245E-13
 -1       886 2.30693E+01 2.99212E+00-1.89880E-02-1.16247E+00 1.55926E-13 1.69356E-13
 -1       887 2.34672E+01 1.38921E+00-2.40957E-02-1.83886E+00 1.26787E-13 2.39793E-15
 -1       888 2.36404E+01-2.87521E-01-6.52910E-03-1.63084E+00-3.87722E-14-3.83808E-14
 -1       889 2.33468E+01-1.36020E+00-1.96907E-03-9.18227E-01-1.06279E-13 1.01776E-13
 -1       890 2.27390E+01-1.71388E+00-6.27973E-04-1.81827E-01 2.95832E-13-1.47414E-14
 -1       891 2.20257E+01-1.58330E+00-8.44336E-05 3.70115E-01 4.53371E-13-1.28903E-13
 -1       892 2.13737E+01-1.22538E+00 3.84388E-05 6.92312E-01 3.08736E-14-7.59296E-14
 -1       893 2.08618E+01-8.22778E-01-6.73820E-05 8.31997E-01-1.93028E-13-9.36829E-14
 -1       894 2.04992E+01-4.63631E-01 6.87046E-05 8.53043E-01 1.35823E-14-5.08545E-14
 -1       895 2.02609E+01-1.76578E-01 1.61516E-04 8.06586E-01 2.07609E-13 3.51378E-13
 -1       896 2.57306E+01 2.80866E-01-2.90297E-02 1.85948E+00-1.77536E-13 4.28546E-14
 -1       897 2.44003E+01 1.98500E+00-3.57373E-02-1.96246E+00 2.66429E-13 1.13881E-13
 -1       898 1.89933E+01 9.25464E-01-8.32936E-04 5.40400E-02-1.94069E-13 1.47759E-13
 -1       899 1.42837E+01-1.52608E-01 4.28896E-02 3.87403E+00-2.72010E-13-1.74243E-13
 -1       900 1.91412E+01 7.62719E-01 5.37791E-05 3.83736E-01 4.80685E-14-3.72123E-13
 -1       901 2.03304E+01 5.79718E-01 8.49100E-05 1.21284E-01 5.71523E-14 2.20396E-15
 -1       902 2.38076E+01-3.40785E+00 2.00944E-03-1.84068E+00-3.63034E-13-5.52009E-14
 -1       903 2.02908E+01 1.19268E+00 8.86580E-04 4.06572E-01 1.11977E-13-7.58050E-15
 -1       904 2.01427E+01 1.89487E+00-3.00851E-04-1.92136E-01 9.07250E-14-1.26151E-13
 -1       905 2.03341E+01 4.40123E-01 2.02754E-05-4.25521E-02-8.40718E-15-9.60166E-14
 -1       906 2.53561E+01-7.60369E-01-1.35410E-02-1.54454E+00-4.02447E-14-3.11399E-13
 -1       907 2.25794E+01-3.44166E+00 5.34663E-03 2.90390E+00 2.33212E-14-4.88525E-13
 -1       908 1.93854E+01 5.56497E-01-1.04452E-04 6.11767E-01 9.55061E-14-2.04133E-13
 -1       909 1.90156E+01 9.89938E-01 9.56560E-04-2.65965E-01-2.58750E-13 1.99180E-13
 -1       910 2.47996E+01-3.04308E+00-2.32468E-03 5.98064E-01 8.09947E-14-6.37020E-13
 -1       911 2.03274E+01 8.41090E-01-4.90316E-04 2.50827E-01 8.68619E-14-5.66028E-15
 -1       912 2.45535E+01-2.86225E+00-3.07198E-03-4.72217E-01-3.71591E-13-3.03773E-13
 -1       913 1.79165E+01-1.55165E+00 2.13943E-02-4.17258E+00-1.60445E-13 5.18249E-14
 -1       914 2.02803E+01 1.41178E+00 4.49359E-05 6.95393E-02 1.07471E-13-3.50477E-14
 -1       915 2.02386E+01 7.13523E-02-3.41918E-06-1.36621E-01 4.73568E-14 1.16993E-13
 -1       916 1.16636E+01 1.35938E+00 7.79999E-02 7.76339E-01 2.12963E-13 9.06601E-14
 -1       917 2.00046E+01 1.32527E-01 2.47717E-04 7.23595E-01 2.39526E-13 1.15111E-14
 -1       918 2.01594E+01-1.37647E-02-2.89513E-06-1.75415E-01 4.93406E-14 7.92268E-14
 -1       919 2.47564E+01 1.88058E+00-4.17467E-02 1.98517E+00-1.90272E-13-5.15026E-14
 -1       920 2.38810E+01 4.17801E+00-4.63090E-02 7.38376E-01 2.89605E-13 4.03281E-13
 -1       921 1.33033E+01 8.34236E-01 3.59832E-02 2.45185E+00-1.60442E-13 2.18774E-13
 -1       922 2.29323E+01 3.52381E+00-1.95681E-02 1.97035E-01 1.95177E-13 3.37226E-13
 -1       923 2.06634E+01-2.73076E+00 1.29326E-02 3.65978E+00-1.97521E-13 1.02490E-15
 -1       924 2.03004E+01 1.21578E+00 1.03606E-04-2.98713E-01 1.13199E-14-8.45102E-14
 -1       925 2.19928E+01-2.99246E+00 5.91085E-03-2.80240E+00-2.39074E-13-1.31240E-13
 -1       926 2.03119E+01 3.34710E-01-3.68560E-05-5.88924E-03 7.99298E-14 6.44257E-14
 -1       927 2.01233E+01-1.75368E-02-1.65320E-06-1.81603E-01 1.09809E-13 9.42085E-14
 -1       928 1.95965E+01 3.91100E-01 1.61103E-05 7.17933E-01 1.96154E-13 1.84851E-13
 -1       929 2.03162E+01 9.81415E-01 5.23716E-05-3.17915E-01-1.65153E-14-7.54839E-14
 -1       930 1.39488E+01 9.63905E-01 3.15778E-02-2.34094E+00-3.11077E-14-7.99794E-14
 -1       931 2.02917E+01 1.34196E+00 2.78854E-04 1.97282E-01 1.25435E-13-6.53664E-14
 -1       932 1.60966E+01 2.07656E-02 1.62913E-02-3.19442E+00-8.98110E-14-5.51560E-14
 -1       933 2.02814E+01 1.41210E+00 1.71938E-04-6.62156E-02 7.27810E-14-1.29047E-13
 -1       934 2.03235E+01 9.67416E-02 7.01654E-06 9.78143E-02 4.27269E-14 3.36186E-15
 -1       935 2.02772E+01 2.69849E-02 3.36794E-06 1.20252E-01 6.17902E-14-1.91137E-14
 -1       936 2.02274E+01-4.19984E-03 1.28774E-06 1.32181E-01 4.58196E-14-8.41088E-14
 -1       937 2.01759E+01-6.07325E-03 3.53874E-07 1.38805E-01 3.29708E-14-1.27430E-13
 -1       938 2.01231E+01 1.49347E-02 6.05439E-07 1.44146E-01-1.93328E-14-5.92895E-14
 -1       939 2.00677E+01 5.46670E-02-2.61865E-06 1.51111E-01-2.42335E-14-3.69009E-14
 -1       940 2.00034E+01 1.14220E-01 3.57284E-06 1.62248E-01 4.63226E-14 1.16666E-14
 -1       941 1.99318E+01 1.87218E-01-1.99731E-06 1.77414E-01 3.35579E-14 7.80936E-14
 -1       942 1.98442E+01 2.76369E-01-3.98242E-06 1.96741E-01 6.29059E-14 1.23591E-13
 -1       943 1.97323E+01 3.82860E-01-5.92257E-06 2.18454E-01-1.36820E-14 6.88939E-14
 -1       944 1.95854E+01 5.08023E-01-8.91188E-06 2.38815E-01-1.00441E-13 1.03843E-13
 -1       945 1.93893E+01 6.52688E-01-1.47109E-05 2.51401E-01 3.89281E-14 2.11198E-13
 -1       946 1.91250E+01 8.16121E-01-2.87237E-05 2.46248E-01 5.54739E-14 2.49972E-13
 -1       947 1.87677E+01 9.94461E-01-6.15164E-05 2.08958E-01 3.00183E-15 2.29292E-13
 -1       948 1.82837E+01 1.17839E+00-1.13864E-04 1.20077E-01-3.16149E-15 2.74255E-13
 -1       949 1.76269E+01 1.34995E+00 3.51853E-04-4.60784E-02-4.54625E-14 1.80571E-13
 -1       950 1.67208E+01 1.49612E+00 4.14621E-03-3.17613E-01-1.55270E-14 2.05289E-13
 -1       951 1.54540E+01 1.51070E+00-3.57464E-03-7.53718E-01 3.31215E-14 7.43221E-14
 -1       952 1.35823E+01 1.52166E+00 2.11215E-02 6.53749E-01-2.12569E-13 5.76857E-13
 -1       953 1.67109E+01 1.46886E+00 3.78687E-04 2.56141E-01 9.01573E-14 3.37368E-13
 -1       954 1.76595E+01 1.34820E+00-2.80680E-04-1.84766E-02 8.26437E-14 2.78190E-13
 -1       955 1.83494E+01 1.19691E+00-3.28118E-04-1.79457E-01 9.88970E-14 2.89834E-13
 -1       956 1.87144E+01 1.09211E+00 1.92731E-03-2.32364E-01 8.47094E-16 3.39328E-13
 -1       957 2.00529E+01 4.88530E-02-3.72917E-07-1.68529E-01 6.74323E-14 1.03028E-13
 -1       958 2.00044E+01 9.16791E-02-1.40222E-06-1.88682E-01 1.00026E-13 1.35854E-13
 -1       959 2.01009E+01 1.43034E-02-1.16827E-06-1.56089E-01 6.44266E-14 8.44835E-14
 -1       960 1.99051E+01 1.84509E-01-2.28145E-06-2.63249E-01-2.07938E-14 2.24539E-13
 -1       961 1.98563E+01 2.22956E-01-1.98318E-06-3.23176E-01-1.52573E-13 2.00868E-13
 -1       962 1.98130E+01 2.44840E-01-4.82597E-07-4.01906E-01-1.73400E-13 2.20781E-13
 -1       963 1.97832E+01 2.37744E-01 3.41724E-06-5.01927E-01-8.63712E-14 5.27403E-14
 -1       964 1.97805E+01 1.85217E-01 1.05915E-05-6.24665E-01-1.19880E-14-8.07551E-14
 -1       965 1.98257E+01 6.66973E-02 1.44865E-05-7.68853E-01 2.26436E-15 8.99677E-15
 -1       966 1.99496E+01-1.41212E-01-3.54737E-05-9.27490E-01-4.98455E-14 9.03692E-14
 -1       967 2.01940E+01-4.60600E-01 5.96828E-05-1.08286E+00-1.28826E-13 5.40231E-14
 -1       968 2.06116E+01-9.04302E-01-4.48152E-05-1.19525E+00-1.85830E-13 3.97537E-14
 -1       969 2.12541E+01-1.44726E+00 1.58468E-04-1.19504E+00-1.16005E-13-4.21644E-15
 -1       970 2.21486E+01-1.99810E+00 1.23210E-03-9.73839E-01-1.93840E-13-1.20036E-13
 -1       971 2.32260E+01-2.29489E+00-3.91625E-03-4.25523E-01-1.98674E-13-2.49516E-13
 -1       972 2.35705E+01-2.33687E+00-5.98605E-04 2.02694E-01 2.00984E-13-3.20463E-13
 -1       973 2.24741E+01-2.15033E+00 1.19167E-03 8.91963E-01 3.05980E-13-2.27541E-13
 -1       974 2.15178E+01-1.63501E+00 1.07225E-03 1.20541E+00 2.27443E-13 2.24199E-13
 -1       975 2.08181E+01-1.07268E+00 7.47183E-05 1.25497E+00 4.24822E-14 1.68659E-13
 -1       976 2.03601E+01-5.91312E-01 2.05108E-04 1.16965E+00-5.22589E-14 9.28712E-14
 -1       977 2.00900E+01-2.23945E-01 1.86800E-04 1.02566E+00-1.04252E-13 8.57893E-15
 -1       978 2.02899E+01 1.34809E+00 4.54567E-04-1.94737E-01 6.30153E-14-6.03508E-14
 -1       979 2.02907E+01 1.29288E+00 6.74738E-04 3.09455E-01 1.08651E-13-9.76175E-16
 -1       980 1.53980E+01 1.50419E+00 4.97286E-03 6.74567E-01-2.99643E-13 4.60809E-13
 -1       981 1.99550E+01 1.38559E-01-2.02161E-06-2.19344E-01 2.05419E-14 1.60000E-13
 -1       982 2.02782E+01 1.73228E-01-6.27116E-06-8.79336E-02 9.77358E-14 1.32648E-13
 -1       983 1.72234E+01-9.18535E-01 1.10124E-02 3.80308E+00-1.86307E-13 3.70334E-13
 -1       984 1.87196E+01 8.91796E-01-6.46437E-04 4.13373E-01 1.63833E-13-2.76709E-13
 -1       985 2.03510E+01 9.23279E-01-5.85111E-05-1.89520E-01 9.68578E-15-4.83597E-14
 -1       986 1.90491E+01 6.15505E-01-2.45562E-04 7.25903E-01 2.45925E-13-1.67708E-13
 -1       987 2.03835E+01 4.07083E-01-5.74399E-05-5.00723E-03 4.53702E-14 7.37609E-14
 -1       988 2.03801E+01 6.28370E-01-7.75923E-05-8.20893E-02-2.32164E-15 1.96881E-14
 -1       989 2.00621E+01-1.94197E+00 7.71653E-03-3.17183E+00 3.37234E-14-2.48794E-13
 -1       990 1.98154E+01 2.45220E-01 8.10077E-05 7.47561E-01 1.32752E-13 2.88903E-13
 -1       991 2.03615E+01 2.17744E-01 6.25980E-06 5.85406E-02 2.84018E-14 3.64173E-14
 -1       992 2.31633E+01-2.76530E+00 1.65261E-03 1.28120E+00 2.28725E-13-6.13318E-13
 -1       993 2.03729E+01 1.00751E+00-1.72103E-04 1.02383E-03 8.05999E-14-3.70335E-14
 -1       994 1.58859E+01 5.35560E-02 1.52642E-02 3.16463E+00-1.56352E-13-2.77869E-13
 -1       995 2.02466E+01 7.35572E-03-3.30425E-06-1.32216E-01 2.74997E-14-4.45098E-15
 -1       996 2.03717E+01 9.78011E-01-3.36284E-04 7.88768E-02 9.75455E-14-4.17261E-14
 -1       997 2.02939E+01 5.94885E-02 5.53046E-06-1.14330E-01 9.53846E-14-2.53808E-14
 -1       998 2.45345E+01-1.68659E+00-1.22903E-02-8.10076E-01-1.07070E-13-2.00599E-13
 -1       999 1.63755E+01 1.00297E+00-2.79691E-04-1.60950E+00-7.72354E-14-3.55362E-14
 -1      1000 1.99043E+01 4.66296E-02 4.31121E-04 8.94858E-01 4.15514E-13-1.49829E-13
 -1      1001 1.81998E+01-7.30937E-01-1.39753E-03-3.06289E+00 1.01419E-13-2.25487E-13
 -1      1002 2.21108E+01-2.62847E+00 6.42996E-03 2.16769E+00-6.80668E-14-4.28413E-13
 -1      1003 2.01491E+01-7.76021E-03-5.75167E-06-1.48343E-01 8.89022E-14 6.42846E-14
 -1      1004 1.93432E+01 3.91446E-01-3.70295E-04 8.75477E-01 1.67411E-13-1.99070E-13
 -1      1005 2.29456E+01-2.79015E+00 1.21540E-03-1.49904E+00-1.03188E-13-3.07364E-13
 -1      1006 2.03775E+01 5.46547E-01 8.05014E-05 5.76683E-02 3.50792E-14-4.53357E-14
 -1      1007 2.03678E+01 7.90682E-01-2.19069E-04 1.44443E-01 8.44598E-14-4.17012E-14
 -1      1008 2.03892E+01 1.78537E-01-2.33998E-05 4.85169E-02 6.36444E-16-9.97013E-15
 -1      1009 2.01978E+01-1.21912E-02 6.27691E-07-1.41797E-01 3.73694E-14 2.17756E-14
 -1      1010 2.03674E+01 3.10875E-01-3.42370E-05-2.69241E-02 4.18482E-14-1.78928E-14
 -1      1011 1.52405E+01 9.89557E-01 9.94004E-03 1.92005E+00-8.09781E-14-1.04245E-13
 -1      1012 2.02939E+01 1.60805E-02-1.04917E-05 8.12291E-02 4.91556E-14-3.61017E-14
 -1      1013 2.02362E+01-3.50377E-03-8.25251E-06 8.75248E-02 2.25324E-14-5.14579E-14
 -1      1014 2.01751E+01 5.53291E-03-1.21979E-06 9.11367E-02 4.92964E-14-7.27834E-14
 -1      1015 2.01107E+01 3.69208E-02-8.27132E-06 9.40781E-02 3.58874E-14-2.88621E-14
 -1      1016 2.00377E+01 8.99044E-02-2.61083E-06 9.75720E-02 3.73405E-14-1.60223E-15
 -1      1017 1.99593E+01 1.57019E-01-9.44996E-06 1.01409E-01 1.14289E-13 1.88692E-14
 -1      1018 1.98678E+01 2.39059E-01-1.36793E-05 1.04683E-01-4.78893E-15-7.66347E-14
 -1      1019 1.97568E+01 3.35502E-01-1.83354E-05 1.04793E-01 8.67756E-14-2.12828E-14
 -1      1020 1.96184E+01 4.45740E-01-2.42627E-05 9.71068E-02-4.41037E-14 5.99078E-14
 -1      1021 1.94426E+01 5.68367E-01-3.20790E-05 7.42037E-02 2.00527E-14 1.34851E-13
 -1      1022 1.92173E+01 7.00138E-01-4.43535E-05 2.49134E-02 6.48021E-14 6.85754E-14
 -1      1023 1.89277E+01 8.34533E-01-6.86048E-05-6.68799E-02 3.86162E-14 6.89960E-14
 -1      1024 1.85556E+01 9.59853E-01-1.04681E-04-2.23758E-01-1.50011E-13-8.45274E-14
 -1      1025 1.80780E+01 1.05683E+00-1.78716E-04-4.76615E-01-1.92924E-14-1.34387E-13
 -1      1026 1.74678E+01 1.09598E+00-1.74938E-04-8.58198E-01 7.19956E-15-1.03681E-13
 -1      1027 1.81354E+01 1.06692E+00-4.86875E-04 4.43885E-01 1.09002E-14-2.47277E-13
 -1      1028 2.00242E+01 8.61837E-02-7.54324E-06-1.28179E-01 9.15673E-14 6.26556E-14
 -1      1029 2.03464E+01 7.28629E-02-1.83846E-06 6.94333E-02 7.36701E-15-4.82452E-14
 -1      1030 2.00874E+01 4.05859E-02 2.56411E-08-1.13703E-01 9.84086E-15 5.35001E-14
 -1      1031 1.97303E+01 3.06927E-01-9.38571E-06-3.06191E-01-1.23139E-13-5.84493E-14
 -1      1032 1.98103E+01 2.57177E-01-1.06139E-05-2.35758E-01-6.21685E-14 1.51836E-14
 -1      1033 1.95786E+01 3.36629E-01 1.09314E-05-5.32445E-01 2.29608E-14-2.38174E-14
 -1      1034 1.95298E+01 2.82208E-01 3.89872E-05-7.02332E-01-9.98507E-14-3.04267E-14
 -1      1035 1.95287E+01 1.48795E-01 7.03613E-05-9.18206E-01-1.65322E-13 2.14836E-14
 -1      1036 1.96132E+01-9.52847E-02-1.67924E-04-1.17980E+00-4.47583E-14 4.93076E-14
 -1      1037 1.98441E+01-4.89326E-01 1.46846E-04-1.48037E+00-1.49026E-13 1.85164E-14
 -1      1038 2.02968E+01-1.05419E+00 2.73295E-04-1.76905E+00-2.65439E-14-9.39340E-14
 -1      1039 2.10844E+01-1.79821E+00 3.34193E-03-1.96252E+00-2.43031E-14-2.06559E-13
 -1      1040 2.03831E+01 8.84932E-01-7.76396E-05-9.57295E-02 3.44560E-14-6.25634E-14
 -1      1041 2.14212E+01-2.07162E+00-4.86433E-03 1.99222E+00-4.66615E-14-4.43976E-13
 -1      1042 2.00232E+01-6.53346E-01 4.23625E-04 1.59225E+00-1.27478E-13 8.95780E-14
 -1      1043 1.97642E+01-2.07676E-01 4.11507E-04 1.29686E+00 7.64103E-14 1.82748E-13
 -1      1044 1.99576E+01 1.40520E-01-8.74323E-06-1.51091E-01 3.51140E-14 1.03595E-13
 -1      1045 1.66627E+01 9.94504E-01 9.37511E-04 1.44510E+00-9.93174E-14 2.14029E-13
 -1      1046 1.94696E+01-1.44042E+00 5.96213E-04 3.03982E+00-3.25995E-13-3.73330E-14
 -1      1047 1.85832E+01 7.08663E-01-5.62176E-04 8.75391E-01 2.09504E-13-2.92913E-13
 -1      1048 2.04159E+01 3.48020E-01-2.25470E-04 1.28571E-02 3.22922E-14-3.95685E-14
 -1      1049 2.05482E+01-1.26918E+00 5.68372E-04 1.85742E+00-8.92592E-14-5.85792E-14
 -1      1050 1.98864E+01 1.99286E-01-1.00094E-05-1.85654E-01 7.29357E-16 6.97307E-14
 -1      1051 1.74840E+01 1.08013E+00-7.75628E-04 8.40072E-01-9.46473E-15 9.65206E-14
 -1      1052 1.96503E+01 3.38242E-01-3.80816E-06-4.02806E-01-6.77735E-14-6.50335E-14
 -1      1053 2.02648E+01 1.64241E-03-1.49666E-05-9.19084E-02 3.04039E-14 4.32509E-14
 -1      1054 1.82175E+01-7.75761E-01-2.24905E-02 3.06323E+00-1.62813E-13 2.77467E-13
 -1      1055 2.03190E+01 4.23366E-02-1.08659E-05-8.16985E-02 7.56392E-14 6.08204E-14
 -1      1056 1.76619E+01 3.83121E-01 1.72471E-03-1.98605E+00 3.84070E-14-3.37717E-13
 -1      1057 2.04209E+01 6.78005E-01 5.40646E-05 1.77534E-02 7.45182E-14-2.19919E-14
 -1      1058 1.95574E+01-1.01500E+00 3.16300E-03-2.44933E+00 1.22788E-13-1.69545E-13
 -1      1059 2.03363E+01 1.55514E-01-2.04599E-05-8.18370E-02 7.54391E-14-1.50049E-14
 -1      1060 2.01482E+01 8.11889E-03-1.04558E-05-1.04864E-01 1.82702E-14 3.55076E-14
 -1      1061 1.89951E+01 4.10395E-01 2.39772E-03 1.08336E+00 2.25657E-13-4.77156E-14
 -1      1062 2.04131E+01 5.53798E-01 3.22979E-04-2.73147E-02 5.43018E-14-4.10390E-14
 -1      1063 1.96365E+01 1.98763E-01-4.47293E-04 9.22018E-01 8.34698E-14 3.28253E-13
 -1      1064 2.04125E+01 4.79935E-01 1.39546E-04 1.53482E-02 3.92612E-14-8.78842E-14
 -1      1065 1.71034E+01 3.86724E-01 1.96528E-02 2.25319E+00-5.44546E-15-1.92025E-14
 -1      1066 2.02858E+01 6.19613E-03-6.89075E-06 3.30184E-02 2.74629E-14-1.11376E-13
 -1      1067 2.02220E+01-3.54856E-04-4.20587E-05 3.44628E-02 1.19015E-14-6.01785E-14
 -1      1068 2.01544E+01 1.98707E-02 3.00586E-05 3.42996E-02 2.50795E-14-8.89889E-14
 -1      1069 2.00791E+01 6.28860E-02-2.80910E-06 3.26932E-02 6.43628E-14-1.57335E-14
 -1      1070 2.00004E+01 1.21225E-01-1.02507E-05 2.91060E-02 2.77710E-14 1.07091E-14
 -1      1071 1.99120E+01 1.93537E-01-1.62168E-05 2.18427E-02 5.33135E-14-5.07369E-14
 -1      1072 1.98095E+01 2.77765E-01-2.52890E-05 8.02082E-03 3.81334E-14 5.13322E-14
 -1      1073 1.96876E+01 3.71586E-01-4.01371E-05-1.69953E-02 6.51500E-14-5.27460E-14
 -1      1074 1.95406E+01 4.71631E-01-6.35910E-05-6.02536E-02 3.97100E-14-8.36474E-14
 -1      1075 1.93622E+01 5.72424E-01-9.96789E-05-1.32037E-01-6.19282E-14-1.94129E-14
 -1      1076 1.91463E+01 6.64969E-01-1.54774E-04-2.46853E-01-1.50377E-14-1.10822E-13
 -1      1077 1.88881E+01 7.34845E-01-2.41840E-04-4.24562E-01-1.55122E-13-2.64582E-13
 -1      1078 1.85854E+01 7.59352E-01-4.39367E-04-6.91359E-01-1.46118E-13-2.05500E-13
 -1      1079 1.82419E+01 7.08684E-01-1.14964E-03-1.08250E+00-5.92950E-14-2.77124E-13
 -1      1080 2.03441E+01 4.67946E-02 1.03267E-05 2.96643E-02 1.75679E-14-1.22152E-13
 -1      1081 2.00557E+01 7.33554E-02 2.37168E-05-6.09883E-02 6.74309E-14-1.33672E-13
 -1      1082 2.04257E+01 6.50090E-01 3.41108E-04-1.92188E-02 6.92683E-14-5.77273E-14
 -1      1083 1.82209E+01 5.74745E-01 1.33501E-03 1.34759E+00-1.05297E-13-5.01584E-13
 -1      1084 2.04083E+01 6.31401E-01-1.02000E-04 4.46425E-02 4.14323E-14-7.12286E-14
 -1      1085 1.91931E+01 4.33667E-01 3.64216E-04-7.58962E-01-1.18880E-13-1.47799E-13
 -1      1086 1.93188E+01 4.73485E-01 2.38309E-04-5.36805E-01-3.01405E-14-1.40714E-13
 -1      1087 1.90877E+01 5.14194E-02 1.03644E-04-1.44810E+00-1.03120E-13-1.42817E-13
 -1      1088 1.91891E+01-3.85781E-01-5.07522E-03-1.91487E+00-8.67208E-14-1.08273E-13
 -1      1089 1.99795E+01 1.30537E-01 2.70247E-05-7.52138E-02 3.84597E-14-1.03277E-13
 -1      1090 1.96395E+01 5.85077E-02-3.77643E-04 1.08506E+00 1.04096E-13 7.69993E-14
 -1      1091 1.91978E+01-8.63293E-02-2.09801E-03 1.60290E+00-1.93191E-13 8.97159E-14
 -1      1092 2.02077E+01-7.14319E-03 6.19713E-06-9.84885E-02 4.31025E-14-2.00364E-14
 -1      1093 1.98959E+01 1.97262E-01 3.49418E-05-9.79606E-02-1.80747E-14-4.89804E-14
 -1      1094 2.04381E+01 4.30564E-01-3.03611E-05 6.10614E-04 2.51714E-14-4.49859E-14
 -1      1095 1.95801E+01 4.08814E-01 1.00590E-04-2.64152E-01-4.89687E-14-1.81053E-13
 -1      1096 2.04256E+01 2.76967E-01 1.81122E-05 1.13764E-02 2.33412E-14-8.55591E-14
 -1      1097 1.93765E+01-5.99352E-01 5.49620E-03 2.09776E+00-2.25444E-13-1.14848E-13
 -1      1098 1.90978E+01 3.06025E-01 1.70433E-04-1.06096E+00-9.53612E-14-7.74648E-14
 -1      1099 1.96975E+01 3.42556E-01 6.82144E-05-1.86118E-01-1.73205E-14-7.66199E-14
 -1      1100 2.04000E+01 2.65157E-01-2.04065E-04-3.26515E-02 3.72419E-14-5.64397E-14
 -1      1101 1.98025E+01 2.69620E-01 4.77584E-05-1.33144E-01 3.62632E-14-6.75347E-14
 -1      1102 1.76522E+01 5.36718E-01 7.22492E-03 1.78794E+00-2.34548E-13-3.41776E-13
 -1      1103 1.94520E+01 4.57685E-01 1.52689E-04-3.76913E-01-9.30087E-14-2.24729E-13
 -1      1104 2.03933E+01 1.30520E-01-1.64153E-04 2.26372E-02 1.18431E-14-1.20423E-13
 -1      1105 2.01267E+01 2.93123E-02 7.74916E-07-5.22157E-02 8.83798E-14-7.06642E-14
 -1      1106 2.03186E+01 2.44191E-02 1.87410E-05-3.89709E-02 7.37828E-14 1.85678E-14
 -1      1107 2.04274E+01 4.44548E-01 3.57805E-04 2.69429E-03 2.44475E-14-6.37979E-14
 -1      1108 2.03670E+01 1.24125E-01-1.72739E-04-6.32321E-02 4.87233E-14 3.70976E-14
 -1      1109 2.02585E+01-1.48322E-03 4.00060E-05-4.34103E-02 5.06199E-14-2.99674E-16
 -1      1110 1.91820E+01 2.01797E-01-1.03608E-03 1.23981E+00-5.02894E-14 1.67363E-13
 -1      1111 2.01909E+01 5.42552E-03 1.00454E-05-2.44918E-02 7.59260E-15-4.14164E-14
 -1      1112 2.04261E+01 2.65857E-01 6.95570E-05-1.26329E-02-4.53513E-15-2.82167E-14
 -1      1113 2.03722E+01 8.93991E-02 1.86110E-04-3.22157E-02 2.04809E-14-3.37750E-14
 -1      1114 2.79578E+01 9.08487E+00 2.32498E+00-6.69814E+00-3.16969E-14 3.35953E-13
 -1      1115 2.05436E+01 6.22599E+00 2.09598E-01-3.90499E+00-1.29619E-14-1.84498E-13
 -1      1116 1.94321E+01 5.85222E+00 7.52489E-02-2.88932E+00-7.16094E-15-3.50806E-13
 -1      1117 1.90255E+01 5.72579E+00 6.04165E-02-2.23665E+00-1.89779E-15-4.00147E-13
 -1      1118 1.88408E+01 5.66952E+00 5.76047E-02-1.70294E+00-1.19522E-15-4.08019E-13
 -1      1119 1.87485E+01 5.64122E+00 5.55980E-02-1.23527E+00 4.63171E-16-3.86340E-13
 -1      1120 1.87003E+01 5.62626E+00 5.38432E-02-8.05151E-01 3.14809E-15-3.60626E-13
 -1      1121 1.86769E+01 5.61887E+00 5.26279E-02-3.93254E-01 2.63938E-15-3.13244E-13
 -1      1122 1.86703E+01 5.61675E+00 5.22392E-02 8.51138E-03 3.68499E-15-2.73696E-13
 -1      1123 1.86779E+01 5.61921E+00 5.27505E-02 4.10683E-01 5.68664E-15-2.23394E-13
 -1      1124 1.87025E+01 5.62698E+00 5.41312E-02 8.23939E-01 6.13442E-15-1.62342E-13
 -1      1125 1.87521E+01 5.64253E+00 5.63132E-02 1.25670E+00 7.11931E-15-8.55236E-14
 -1      1126 1.88461E+01 5.67138E+00 5.85322E-02 1.72868E+00 8.56953E-15 3.05225E-14
 -1      1127 1.90314E+01 5.72763E+00 6.06835E-02 2.26985E+00 9.57914E-15 1.80584E-13
 -1      1128 1.94291E+01 5.84956E+00 6.93805E-02 2.93013E+00 1.12965E-14 4.04189E-13
 -1      1129 2.04491E+01 6.18058E+00 1.52791E-01 3.87945E+00 6.30052E-15 7.56107E-13
 -1      1130 2.52122E+01 7.99268E+00 1.42996E+00 5.84631E+00-1.94289E-15 1.31450E-12
 -1      1131 2.88067E+01 3.61600E+00 1.27128E+00-4.21695E+00-1.09746E-13 6.47316E-13
 -1      1132 2.02207E+01-1.77725E-01-6.16278E-01-1.10021E-01-3.94684E-14 4.24827E-13
 -1      1133 1.88253E+01-9.63518E-02-2.36341E-01 6.24693E-02-8.69096E-15 1.20305E-13
 -1      1134 1.84901E+01-4.80667E-02-5.95810E-02 4.04444E-02-8.37655E-15-6.37268E-14
 -1      1135 1.84337E+01-2.46425E-02-1.52023E-02 2.67162E-02-8.72111E-15-2.08025E-13
 -1      1136 1.85143E+01-1.30925E-02-4.98954E-03 1.89746E-02-8.86444E-15-2.90996E-13
 -1      1137 1.86601E+01-6.68353E-03-1.51571E-03 1.40046E-02-1.01558E-14-3.80871E-13
 -1      1138 1.88319E+01-2.96598E-03 4.68519E-04 1.05455E-02 9.97802E-15-3.76074E-13
 -1      1139 1.90076E+01-8.09813E-04 1.70789E-03 7.97792E-03 6.75509E-15-4.57131E-13
 -1      1140 1.91749E+01 3.75351E-04 2.33913E-03 5.99395E-03-7.30031E-15-5.67143E-13
 -1      1141 1.93279E+01 9.20584E-04 2.48487E-03 4.43144E-03-1.58101E-14-7.41019E-13
 -1      1142 1.94649E+01 1.02165E-03 2.26186E-03 3.19616E-03 1.45500E-14-7.34122E-13
 -1      1143 1.95869E+01 7.95392E-04 1.75459E-03 2.22825E-03-9.70711E-15-7.75759E-13
 -1      1144 1.96973E+01 3.06445E-04 1.00848E-03 1.48854E-03 2.26039E-14-7.79272E-13
 -1      1145 1.98013E+01-4.20107E-04 3.05386E-05 9.54040E-04-1.32809E-15-5.77495E-13
 -1      1146 1.99058E+01-1.39355E-03-1.21117E-03 6.18426E-04-1.35334E-14-5.88458E-13
 -1      1147 2.00197E+01-2.65864E-03-2.79354E-03 4.94207E-04-5.49086E-15-6.41215E-13
 -1      1148 2.01541E+01-4.39022E-03-4.87316E-03 6.06242E-04 2.02502E-15-6.47787E-13
 -1      1149 2.03290E+01-6.38677E-03-7.61945E-03 9.61574E-04-2.35475E-14-7.56230E-13
 -1      1150 2.05613E+01-9.30093E-03-1.13921E-02 2.22027E-03 8.82259E-15-8.69154E-13
 -1      1151 2.08706E+01-1.29058E-02-1.64161E-02 4.10958E-03 1.27233E-14-7.69740E-13
 -1      1152 2.12968E+01-1.74874E-02-2.32069E-02 7.34826E-03 1.64675E-14-8.00305E-13
 -1      1153 2.18866E+01-2.30463E-02-3.21104E-02 1.27326E-02 1.91331E-14-5.87967E-13
 -1      1154 2.27000E+01-2.91318E-02-4.28894E-02 2.14374E-02 1.84692E-14-4.82250E-13
 -1      1155 2.38079E+01-3.42290E-02-5.34447E-02 3.49108E-02-2.45806E-14-5.75665E-13
 -1      1156 2.52782E+01-3.46368E-02-5.71331E-02 5.41398E-02-3.58220E-16-6.66626E-13
 -1      1157 2.71332E+01-2.30488E-02-3.83810E-02 7.71420E-02 3.47884E-14-9.47881E-13
 -1      1158 2.92527E+01 1.23443E-02 2.97053E-02 9.30061E-02-1.56106E-14-9.93344E-13
 -1      1159 3.11982E+01 8.32798E-02 1.71354E-01 7.19515E-02-3.62384E-15-9.22921E-13
 -1      1160 3.20196E+01 1.79916E-01 3.53928E-01-3.68649E-02-1.98747E-14-8.04259E-13
 -1      1161 3.03855E+01 2.26201E-01 4.05423E-01-2.59766E-01-2.97332E-15-8.37580E-13
 -1      1162 2.58085E+01 1.22900E-01 9.34733E-02-4.79684E-01 1.04612E-14-9.01001E-13
 -1      1163 2.00287E+01-1.97545E-01-5.33422E-01-4.39151E-01-6.27970E-14-1.29707E-12
 -1      1164 1.69912E+01-4.26996E-01-9.34405E-01-2.18103E-02-6.33521E-14-1.93325E-12
 -1      1165 1.93360E+01-2.45584E-01-6.23826E-01 4.03463E-01 5.44911E-14-1.82676E-12
 -1      1166 2.51311E+01 8.80669E-02 3.51478E-02 4.92697E-01-1.82510E-14-1.55181E-12
 -1      1167 3.00527E+01 2.30328E-01 3.96068E-01 2.80294E-01-6.09530E-14-1.18638E-12
 -1      1168 3.19272E+01 1.88544E-01 3.65428E-01 5.08686E-02 8.90260E-15-9.73860E-13
 -1      1169 3.12434E+01 9.11832E-02 1.86506E-01-6.70157E-02 4.82826E-14-5.68323E-13
 -1      1170 2.93274E+01 1.75740E-02 3.95064E-02-9.35924E-02-1.21945E-14-5.61357E-13
 -1      1171 2.71719E+01-2.04276E-02-3.38003E-02-7.97012E-02-1.96885E-14-6.22780E-13
 -1      1172 2.52513E+01-3.35553E-02-5.55126E-02-5.70469E-02 3.21817E-14-9.47631E-13
 -1      1173 2.37049E+01-3.39588E-02-5.30949E-02-3.77800E-02 2.83727E-14-1.10562E-12
 -1      1174 2.25184E+01-2.94262E-02-4.31485E-02-2.43162E-02 9.55716E-14-6.73562E-13
 -1      1175 2.16284E+01-2.40028E-02-3.31371E-02-1.57314E-02 4.56232E-16-5.12639E-13
 -1      1176 2.09692E+01-1.94917E-02-2.58295E-02-1.04015E-02 3.87641E-14-5.92955E-13
 -1      1177 2.04911E+01-1.65651E-02-2.20631E-02-6.65847E-03 3.27783E-14-6.58630E-13
 -1      1178 2.01671E+01-1.51213E-02-2.10716E-02-2.61610E-03 8.51901E-14-3.63682E-13
 -1      1179 1.99947E+01-1.27279E-02-1.65241E-02 4.74729E-03 4.32218E-14-4.11839E-13
 -1      1180 1.99792E+01-1.05472E-02 7.96576E-03 1.31974E-02 1.71639E-13-7.88040E-13
 -1      1181 2.77868E+01 5.25620E-01 3.77029E-01 1.96648E+00-1.92138E-14 1.71713E-12
 -1      1182 2.00783E+01-6.66181E-02-5.73578E-01 1.29557E-01-1.13104E-15 1.61959E-12
 -1      1183 1.88988E+01-4.19472E-02-1.93188E-01 1.93504E-02-2.82413E-15 1.48121E-12
 -1      1184 1.85187E+01-2.26482E-02-5.04288E-02 1.20846E-03-5.22759E-15 1.41014E-12
 -1      1185 1.84467E+01-1.37175E-02-1.37144E-02-4.33564E-03 2.71094E-15 1.39740E-12
 -1      1186 1.85211E+01-7.92333E-03-4.91345E-03-5.56191E-03 8.56368E-15 1.32500E-12
 -1      1187 1.86642E+01-4.48677E-03-2.02962E-03-5.65002E-03-1.05292E-15 1.28340E-12
 -1      1188 1.88349E+01-2.36279E-03-3.86313E-04-5.28272E-03-1.26196E-14 1.36656E-12
 -1      1189 1.90103E+01-1.06287E-03 6.87180E-04-4.71006E-03 2.60507E-16 1.32469E-12
 -1      1190 1.91781E+01-3.12557E-04 1.28909E-03-4.03530E-03 1.58232E-14 1.22890E-12
 -1      1191 1.93322E+01 5.51453E-05 1.49402E-03-3.32115E-03 1.41137E-14 1.17644E-12
 -1      1192 1.94707E+01 1.48328E-04 1.38707E-03-2.60997E-03 8.31364E-15 1.11332E-12
 -1      1193 1.95946E+01 4.05356E-05 1.04226E-03-1.93201E-03 1.91451E-14 9.78979E-13
 -1      1194 1.97071E+01-2.14757E-04 5.16770E-04-1.31149E-03-3.76538E-14 9.69837E-13
 -1      1195 1.98123E+01-5.73553E-04-1.43574E-04-7.72081E-04 8.21645E-15 9.75244E-13
 -1      1196 1.99158E+01-9.91781E-04-8.94101E-04-3.42233E-04 1.10113E-14 8.94008E-13
 -1      1197 2.00232E+01-1.41536E-03-1.67806E-03-6.02835E-05-2.12124E-14 1.11080E-12
 -1      1198 2.01404E+01-1.76931E-03-2.41016E-03 2.13901E-05 8.89344E-15 1.17537E-12
 -1      1199 2.02727E+01-1.94640E-03-2.95696E-03-1.65384E-04 3.19264E-14 9.00298E-13
 -1      1200 2.04236E+01-1.79762E-03-3.11578E-03-7.01068E-04-2.68606E-14 6.75556E-13
 -1      1201 2.05937E+01-1.12949E-03-2.59801E-03-1.66498E-03-1.32219E-14 7.78189E-13
 -1      1202 2.07785E+01 2.82418E-04-1.02932E-03-3.10527E-03 5.52976E-15 9.09845E-13
 -1      1203 2.09661E+01 2.64913E-03 2.00997E-03-4.98466E-03 1.33804E-14 7.92769E-13
 -1      1204 2.11346E+01 6.07514E-03 6.86935E-03-7.09803E-03 1.12443E-15 7.00748E-13
 -1      1205 2.12497E+01 1.04049E-02 1.36000E-02-8.97183E-03 1.71798E-14 8.64888E-13
 -1      1206 2.12652E+01 1.50268E-02 2.16060E-02-9.78785E-03-5.35834E-15 1.06378E-12
 -1      1207 2.11274E+01 1.87156E-02 2.92615E-02-8.42193E-03 4.47184E-14 8.55791E-13
 -1      1208 2.07863E+01 1.96910E-02 3.37459E-02-3.72508E-03 9.20921E-15 8.32029E-13
 -1      1209 2.02155E+01 1.60911E-02 3.14988E-02 4.85321E-03 2.68804E-14 7.97591E-13
 -1      1210 1.94366E+01 6.99442E-03 1.96944E-02 1.64336E-02-2.82090E-14 8.21850E-13
 -1      1211 1.85392E+01-6.42173E-03-1.54575E-03 2.81529E-02 2.38070E-14 7.82603E-13
 -1      1212 1.76796E+01-2.04755E-02-2.74996E-02 3.56803E-02-5.17837E-15 5.44426E-13
 -1      1213 1.70468E+01-3.01950E-02-4.96263E-02 3.50869E-02-3.42283E-14 8.22783E-13
 -1      1214 1.67997E+01-3.18668E-02-5.93833E-02 2.52182E-02-3.19185E-14 8.03709E-13
 -1      1215 1.70033E+01-2.52149E-02-5.30190E-02 8.83591E-03-3.70537E-14 8.46975E-13
 -1      1216 1.76004E+01-1.34349E-02-3.37711E-02-8.61472E-03 5.00793E-15 4.04166E-13
 -1      1217 1.84362E+01-1.10870E-03-9.68723E-03-2.18370E-02-2.56477E-14-1.89293E-14
 -1      1218 1.93208E+01 8.20156E-03 1.10348E-02-2.80560E-02 2.61324E-14-1.07393E-13
 -1      1219 2.00932E+01 1.30926E-02 2.36670E-02-2.75362E-02 5.96376E-15-2.72088E-13
 -1      1220 2.06575E+01 1.40141E-02 2.77081E-02-2.24907E-02-1.69851E-14-7.49296E-14
 -1      1221 2.09867E+01 1.23019E-02 2.54126E-02-1.55572E-02-1.65556E-14 1.44541E-13
 -1      1222 2.11039E+01 9.33582E-03 1.97991E-02-8.75573E-03-7.09827E-15 3.93004E-13
 -1      1223 2.10582E+01 6.10835E-03 1.33162E-02-3.16957E-03-1.91369E-14 1.76592E-13
 -1      1224 2.09047E+01 3.14032E-03 7.36499E-03 9.01718E-04-3.57163E-15-2.50251E-13
 -1      1225 2.06938E+01 5.72078E-04 2.38423E-03 3.62076E-03-1.26269E-14-5.80487E-13
 -1      1226 2.04664E+01-1.68359E-03-1.85269E-03 5.29820E-03 3.70504E-14-1.20510E-12
 -1      1227 2.02554E+01-3.76446E-03-5.83343E-03 6.13853E-03 6.03183E-14-1.46900E-12
 -1      1228 2.00895E+01-5.41691E-03-9.26290E-03 5.72636E-03 5.07153E-14-1.21091E-12
 -1      1229 1.99968E+01-4.51917E-03-7.97148E-03 2.44206E-03 4.39798E-14-1.24108E-12
 -1      1230 1.99907E+01 3.28116E-03 7.83043E-03-3.30871E-03-3.73193E-14-7.85002E-13
 -1      1231 2.00029E+01-9.65018E-03 7.39079E-03-3.23042E-03-7.82303E-13-1.23404E-13
 -1      1232 1.99938E+01-1.86550E-03-8.44351E-03-2.72216E-03-4.82602E-13 3.93968E-14
 -1      1233 1.99930E+01 8.99041E-02-1.03204E-02 2.69954E-03-1.31824E-13-4.79344E-14
 -1      1234 1.99953E+01 2.53691E-01-6.93231E-03 5.34835E-03-3.14295E-13-4.92539E-14
 -1      1235 1.99978E+01 4.62232E-01-3.01613E-03 6.61851E-03-2.04458E-13 6.44768E-14
 -1      1236 2.00007E+01 6.88346E-01 1.03823E-03 7.01048E-03-9.20417E-13-9.86849E-14
 -1      1237 2.00039E+01 9.07238E-01 5.30685E-03 6.60071E-03-5.73369E-13 5.63460E-16
 -1      1238 2.00071E+01 1.09202E+00 9.65621E-03 5.15120E-03-2.54894E-13-2.65380E-15
 -1      1239 2.00098E+01 1.21138E+00 1.33883E-02 2.65516E-03 8.56910E-13 1.46376E-13
 -1      1240 2.00114E+01 1.24015E+00 1.56089E-02-7.60447E-04 1.58654E-12 4.18339E-15
 -1      1241 2.00111E+01 1.16339E+00 1.53341E-02-4.67422E-03 7.59128E-13-1.74159E-13
 -1      1242 2.00088E+01 9.84713E-01 1.19585E-02-8.38452E-03 3.74718E-13 6.23918E-14
 -1      1243 2.00041E+01 7.25753E-01 5.07503E-03-1.07441E-02-8.33934E-14 2.30713E-13
 -1      1244 1.99977E+01 4.28610E-01-4.81399E-03-1.07154E-02 7.38618E-13 3.61805E-14
 -1      1245 1.99915E+01 1.60853E-01-1.45282E-02-6.20807E-03 1.75918E-12-8.06592E-15
 -1      1246 1.99917E+01-3.48555E-03-1.40809E-02 7.06352E-03 1.68205E-12 7.38422E-14
 -1      1247 1.99917E+01-1.99749E-02 9.40261E-03 1.17668E-02 1.15046E-12-1.44706E-13
 -1      1248-1.08103E+00-2.43454E+01-3.67800E+00-2.22256E+00 1.92912E-12 1.05620E-13
 -1      1249-1.64355E+00-1.41956E+01-2.90587E+00-3.70084E+00 2.12563E-12 7.83318E-13
 -1      1250 8.82900E-01-9.33991E-01-1.61868E+00 7.14982E-01 1.74238E-12 9.84324E-13
 -1      1251 9.97319E+00 8.93632E+00-8.29873E-02 9.27873E+00 7.22755E-13 6.16174E-13
 -1      1252 2.68316E+01 1.17808E+01 1.52032E+00 1.70215E+01 2.70450E-13 4.96714E-13
 -1      1253 4.76719E+01 8.22939E+00 2.95978E+00 1.81463E+01 1.44995E-13 1.13465E-13
 -1      1254 6.36685E+01 3.14441E+00 3.86929E+00 9.98514E+00-1.68698E-13-1.76836E-12
 -1      1255 6.77017E+01 1.68445E+00 4.13118E+00-3.53501E+00 2.14030E-13-3.53198E-12
 -1      1256 5.68198E+01 5.75291E+00 3.54113E+00-1.48787E+01 1.05077E-12-3.78986E-12
 -1      1257 3.74252E+01 1.06887E+01 2.39300E+00-1.85220E+01 1.22147E-12-2.56550E-12
 -1      1258 1.78521E+01 1.13806E+01 7.79747E-01-1.37331E+01 1.57208E-12-1.74172E-12
 -1      1259 4.58956E+00 4.88960E+00-8.52513E-01-4.86990E+00 1.36380E-12-1.12088E-12
 -1      1260-1.02136E+00-7.52229E+00-2.31440E+00 2.27312E+00 1.02651E-12-5.37903E-13
 -1      1261-1.44841E+00-2.00502E+01-3.35344E+00 3.59410E+00 3.27405E-13-7.20812E-14
 -1      1262-8.87499E-01-2.65974E+01-3.91124E+00-2.27276E-01-9.80410E-13-2.01610E-13
 -1      1263-1.96696E+00-2.21319E+01-3.71339E+00-4.53326E+00-1.95266E-12-5.16975E-13
 -1      1264-1.72598E+00-9.21426E+00-2.86191E+00-3.24366E+00-1.68887E-12-9.16156E-13
 -1      1265 4.75759E+00 3.57652E+00-1.36751E+00 4.47911E+00-1.53233E-12-1.37312E-12
 -1      1266 2.02246E+01 1.00948E+01 5.59160E-01 1.38420E+01-9.25926E-13-1.11378E-12
 -1      1267 4.34579E+01 9.37895E+00 2.71888E+00 1.86992E+01-2.67897E-13-3.89910E-13
 -1      1268 6.54819E+01 4.68251E+00 4.57393E+00 1.40675E+01 1.94011E-14 4.94493E-13
 -1      1269 7.50921E+01 1.90562E+00 5.30273E+00 9.27875E-01-6.28109E-14 2.14365E-12
 -1      1270 6.76339E+01 4.08327E+00 4.73961E+00-1.28147E+01-4.99156E-13 2.68707E-12
 -1      1271 4.72583E+01 8.92992E+00 3.08481E+00-1.86369E+01-1.39200E-12 3.06999E-12
 -1      1272 2.45825E+01 1.05958E+01 1.04583E+00-1.54784E+01-1.65934E-12 2.55307E-12
 -1      1273 7.17231E+00 5.56341E+00-9.69554E-01-6.41700E+00-1.66733E-12 1.57407E-12
 -1      1274-1.07108E+00-6.07697E+00-2.53088E+00 2.20856E+00-8.92175E-13 7.44182E-13
 -1      1275-2.26860E+00-1.88735E+01-3.52159E+00 5.15060E+00 1.02607E-12-1.23068E-13
 -1      1276-1.14836E+00-2.62065E+01-3.91843E+00 2.45416E+00 1.63911E-12-5.20591E-14
 -1      1277 2.22611E+01 1.83789E+00-7.25839E-01-2.79102E+00-4.40481E-14 1.88571E-13
 -1      1278 2.03558E+01 4.68966E+00-4.86453E-02-3.30817E+00-7.83956E-14-2.64337E-13
 -1      1279 2.08622E+01 4.80994E+00-1.13449E-01-4.16213E+00-1.06803E-13-1.77844E-13
 -1      1280 1.95296E+01 4.99284E+00-1.96806E-02-2.65582E+00-4.95090E-14-3.70003E-13
 -1      1281 1.98270E+01 5.08950E+00 2.08635E-04-3.04681E+00-6.41015E-14-3.28952E-13
 -1      1282 2.05227E+01 3.95237E+00-2.59182E-02-3.07617E+00-1.21333E-13-2.25736E-13
 -1      1283 1.91840E+01 5.08434E+00-3.52376E-03-2.07218E+00-1.69708E-14-4.10817E-13
 -1      1284 1.93317E+01 5.13928E+00 1.05425E-02-2.36500E+00-2.88276E-14-3.97630E-13
 -1      1285 1.97518E+01 4.36558E+00-2.45208E-02-2.49056E+00-6.48925E-14-3.16254E-13
 -1      1286 1.90108E+01 5.13107E+00 3.30783E-03-1.56585E+00 3.84328E-15-4.04982E-13
 -1      1287 1.90877E+01 5.16042E+00 1.25536E-02-1.81599E+00-4.45304E-15-4.12229E-13
 -1      1288 1.93920E+01 4.55477E+00-2.00400E-02-1.93319E+00-2.30779E-14-3.49797E-13
 -1      1289 1.89183E+01 5.16126E+00 6.54807E-03-1.11798E+00 2.52983E-14-3.83499E-13
 -1      1290 1.89602E+01 5.17740E+00 1.26926E-02-1.33955E+00 1.79917E-14-3.94377E-13
 -1      1291 1.92078E+01 4.66170E+00-1.61122E-02-1.44552E+00 1.93582E-14-3.37768E-13
 -1      1292 1.88678E+01 5.18120E+00 8.21539E-03-6.94478E-01 3.77571E-14-3.41057E-13
 -1      1293 1.88903E+01 5.18991E+00 1.19836E-02-9.04856E-01 3.56711E-14-3.63740E-13
 -1      1294 1.91059E+01 4.72726E+00-1.40250E-02-1.00508E+00 4.50373E-14-3.14485E-13
 -1      1295 1.88444E+01 5.19322E+00 9.31556E-03-2.89429E-01 6.68167E-14-3.05344E-13
 -1      1296 1.88541E+01 5.19699E+00 1.10876E-02-4.91719E-01 5.69319E-14-3.24085E-13
 -1      1297 1.90511E+01 4.76628E+00-1.29202E-02-5.89280E-01 7.67125E-14-2.72546E-13
 -1      1298 1.88408E+01 5.19819E+00 1.02479E-02 1.08337E-01 7.57077E-14-2.66450E-13
 -1      1299 1.88404E+01 5.19806E+00 1.01770E-02-9.15068E-02 7.41467E-14-2.92724E-13
 -1      1300 1.90274E+01 4.78438E+00-1.24620E-02-1.89237E-01 1.15229E-13-2.46060E-13
 -1      1301 1.88558E+01 5.19663E+00 1.11864E-02 5.09125E-01 9.17912E-14-2.08228E-13
 -1      1302 1.88454E+01 5.19259E+00 9.25416E-03 3.06419E-01 8.54743E-14-2.41045E-13
 -1      1303 1.90282E+01 4.78376E+00-1.24773E-02 2.05970E-01 1.30927E-13-2.04604E-13
 -1      1304 1.88936E+01 5.18876E+00 1.21203E-02 9.23734E-01 1.09664E-13-1.55247E-13
 -1      1305 1.88703E+01 5.17985E+00 8.16433E-03 7.12398E-01 1.03660E-13-1.88134E-13
 -1      1306 1.90537E+01 4.76423E+00-1.29630E-02 6.06673E-01 1.59566E-13-1.56052E-13
 -1      1307 1.89643E+01 5.17550E+00 1.29093E-02 1.35725E+00 1.10842E-13-6.21066E-14
 -1      1308 1.89217E+01 5.15895E+00 6.48470E-03 1.13423E+00 1.09369E-13-1.14499E-13
 -1      1309 1.91103E+01 4.72362E+00-1.39873E-02 1.02030E+00 1.76146E-13-9.16905E-14
 -1      1310 1.90955E+01 5.15685E+00 1.28984E-02 1.84204E+00 1.35988E-13 5.33185E-14
 -1      1311 1.90168E+01 5.12668E+00 3.18091E-03 1.58920E+00 1.26237E-13-1.04673E-14
 -1      1312 1.92144E+01 4.65510E+00-1.61408E-02 1.46370E+00 1.91149E-13 2.30371E-15
 -1      1313 1.93433E+01 5.13298E+00 1.04222E-02 2.39905E+00 1.42518E-13 2.08021E-13
 -1      1314 1.91936E+01 5.07637E+00-4.15824E-03 2.10173E+00 1.36252E-13 1.17264E-13
 -1      1315 1.94055E+01 4.54250E+00-1.99099E-02 1.95922E+00 2.15920E-13 1.18808E-13
 -1      1316 1.98516E+01 5.09886E+00 5.97665E-03 3.08551E+00 1.32963E-13 4.51111E-13
 -1      1317 1.95416E+01 4.98424E+00-2.02412E-02 2.69842E+00 1.25580E-13 3.12292E-13
 -1      1318 1.97724E+01 4.34552E+00-2.47822E-02 2.52954E+00 2.08339E-13 2.89567E-13
 -1      1319 2.10981E+01 4.90590E+00 7.91489E-03 4.05456E+00 8.49321E-14 8.08034E-13
 -1      1320 2.03297E+01 4.73342E+00-4.81114E-02 3.41717E+00 9.42718E-14 5.97196E-13
 -1      1321 2.05592E+01 3.91562E+00-2.28871E-02 3.17993E+00 1.78607E-13 5.30589E-13
 -1      1322 2.71967E+01 3.20491E+00 9.28810E-01 4.58236E+00 1.15186E-14 1.33038E-12
 -1      1323 2.20146E+01 3.52173E+00-1.82145E-01 3.88552E+00 2.62290E-14 9.89653E-13
 -1      1324 2.21078E+01 2.56148E+00-3.25647E-02 3.45767E+00 1.23555E-13 8.48099E-13
 -1      1325 2.14205E+01 3.59647E-01-7.63615E-01 1.18427E+00 4.68028E-14 1.34004E-12
 -1      1326 2.19945E+01 1.31465E-01-4.00873E-01-1.28621E+00-9.49796E-14 2.52715E-13
 -1      1327 2.06713E+01 3.06729E-01-1.64856E-01-8.06198E-01-8.12683E-14 1.39513E-13
 -1      1328 2.00734E+01 1.53471E-01-7.35250E-02-4.02622E-01-6.78797E-14 9.99214E-14
 -1      1329 1.96029E+01 9.11729E-02-1.49319E-02-3.30463E-01-6.38101E-14 3.49720E-15
 -1      1330 2.09660E+01 3.69060E-01-1.04290E-01-1.27474E+00-1.43691E-13 5.89806E-15
 -1      1331 1.92451E+01 6.44940E-02 3.04427E-03-1.35871E-01-5.24277E-14-2.83246E-14
 -1      1332 1.90901E+01 4.12754E-02 1.32265E-02-1.18075E-01-4.51236E-14-1.02935E-13
 -1      1333 1.99146E+01 1.33893E-01-3.51425E-02-5.04945E-01-1.06231E-13-4.58314E-14
 -1      1334 1.89294E+01 3.15418E-02 1.32548E-02-2.85288E-02-3.65840E-14-1.33400E-13
 -1      1335 1.89093E+01 1.94162E-02 1.10701E-02-1.91394E-02-3.86939E-14-1.90245E-13
 -1      1336 1.94366E+01 5.54553E-02-8.52133E-03-1.70991E-01-8.11348E-14-1.08092E-13
 -1      1337 1.88529E+01 1.60341E-02 8.79870E-03 2.45688E-02-1.85108E-14-2.01641E-13
 -1      1338 1.88947E+01 9.12131E-03 6.45889E-03 2.92098E-02-2.88292E-14-2.31919E-13
 -1      1339 1.92271E+01 2.44405E-02-3.50721E-03-1.20374E-02-5.64904E-14-1.36863E-13
 -1      1340 1.88946E+01 7.90584E-03 4.70184E-03 5.04902E-02-3.10486E-14-2.43134E-13
 -1      1341 1.89645E+01 3.59310E-03 3.67131E-03 5.24087E-02-2.33594E-14-2.75843E-13
 -1      1342 1.91699E+01 1.02486E-02-2.23364E-03 6.68596E-02-5.60116E-14-1.59510E-13
 -1      1343 1.89942E+01 3.29240E-03 2.47984E-03 6.14373E-02-3.25526E-15-2.66157E-13
 -1      1344 1.90745E+01 4.92112E-04 2.25139E-03 6.17638E-02-1.16453E-14-2.85096E-13
 -1      1345 1.91961E+01 2.90250E-03-1.35857E-03 1.04118E-01-2.69409E-14-1.61094E-13
 -1      1346 1.91188E+01 6.30708E-04 1.38047E-03 6.38578E-02-2.47115E-14-2.68527E-13
 -1      1347 1.92000E+01-1.19929E-03 1.49527E-03 6.32794E-02-2.76266E-14-3.25872E-13
 -1      1348 1.92660E+01-1.06242E-03-6.19988E-04 1.18171E-01-3.76063E-14-1.84248E-13
 -1      1349 1.92500E+01-8.33910E-04 8.09659E-04 6.15599E-02-4.71715E-14-3.25569E-13
 -1      1350 1.93270E+01-1.99697E-03 1.04777E-03 6.05282E-02-5.97827E-14-3.87159E-13
 -1      1351 1.93564E+01-3.09474E-03-9.63114E-05 1.19145E-01-6.21459E-14-1.66636E-13
 -1      1352 1.93778E+01-1.51260E-03 4.90843E-04 5.69835E-02-5.05098E-14-3.91745E-13
 -1      1353 1.94482E+01-2.19481E-03 7.64538E-04 5.58088E-02-2.50013E-14-4.53469E-13
 -1      1354 1.94538E+01-3.91010E-03 2.07383E-04 1.13207E-01-6.94902E-14-1.67407E-13
 -1      1355 1.94974E+01-1.64715E-03 3.08466E-04 5.17830E-02 1.22235E-14-4.83760E-13
 -1      1356 1.95607E+01-1.96955E-03 5.86535E-04 5.06860E-02-1.29245E-14-4.95303E-13
 -1      1357 1.95508E+01-3.90634E-03 3.30921E-04 1.04395E-01-2.34205E-14-1.83322E-13
 -1      1358 1.96075E+01-1.38258E-03 2.10656E-04 4.71412E-02-3.22396E-14-4.90135E-13
 -1      1359 1.96649E+01-1.42514E-03 4.86072E-04 4.62878E-02-2.30745E-14-5.29904E-13
 -1      1360 1.96441E+01-3.31565E-03 3.16695E-04 9.55063E-02-2.96964E-14-2.76151E-13
 -1      1361 1.97098E+01-7.99801E-04 1.70028E-04 4.39668E-02 1.40780E-14-5.08256E-13
 -1      1362 1.97632E+01-6.13093E-04 4.48333E-04 4.34938E-02 3.12610E-14-4.76990E-13
 -1      1363 1.97336E+01-2.26584E-03 1.95375E-04 8.86115E-02 1.30015E-14-2.68955E-13
 -1      1364 1.98078E+01 6.95636E-05 1.69670E-04 4.30396E-02 3.88953E-14-4.57429E-13
 -1      1365 1.98600E+01 4.58406E-04 4.65109E-04 4.30766E-02-9.79021E-15-4.27605E-13
 -1      1366 1.98210E+01-8.06262E-04-1.57089E-05 8.53898E-02 3.65340E-14-3.37649E-13
 -1      1367 1.99067E+01 1.23769E-03 1.97422E-04 4.51321E-02-1.91584E-14-4.00276E-13
 -1      1368 1.99617E+01 1.82198E-03 5.32147E-04 4.58218E-02-2.15788E-14-4.44970E-13
 -1      1369 1.99103E+01 1.08297E-03-3.11471E-04 8.73928E-02 1.61774E-14-2.78531E-13
 -1      1370 2.00137E+01 2.76131E-03 2.42803E-04 5.11275E-02-4.02134E-14-4.12352E-13
 -1      1371 2.00764E+01 3.54227E-03 6.41066E-04 5.26515E-02-4.75341E-14-4.76658E-13
 -1      1372 2.00068E+01 3.49138E-03-6.99128E-04 9.62794E-02-4.72733E-14-2.25340E-13
 -1      1373 2.01382E+01 4.82340E-03 3.19159E-04 6.21478E-02-1.02806E-14-4.46891E-13
 -1      1374 2.02151E+01 5.70933E-03 8.17038E-04 6.47279E-02-3.73254E-14-4.50406E-13
 -1      1375 2.01180E+01 6.55374E-03-1.20735E-03 1.14043E-01-2.96098E-14-2.34409E-13
 -1      1376 2.02963E+01 7.45321E-03 3.39947E-04 8.03998E-02-1.11527E-13-4.43041E-13
 -1      1377 2.04015E+01 8.78703E-03 9.85254E-04 8.48175E-02-8.95538E-14-5.67456E-13
 -1      1378 2.02573E+01 1.07744E-02-1.86896E-03 1.44187E-01-8.96258E-14-2.51459E-13
 -1      1379 2.05024E+01 1.10778E-02 3.24791E-04 1.07379E-01-1.07169E-14-6.05970E-13
 -1      1380 2.06375E+01 1.26965E-02 1.21519E-03 1.13330E-01 1.29645E-14-6.06646E-13
 -1      1381 2.04351E+01 1.62942E-02-2.71291E-03 1.90309E-01-9.53508E-14-3.38229E-13
 -1      1382 2.07703E+01 1.57262E-02 1.52537E-04 1.45429E-01-2.62375E-14-5.88531E-13
 -1      1383 2.09547E+01 1.77697E-02 1.34619E-03 1.53961E-01-3.57483E-14-6.21400E-13
 -1      1384 2.06620E+01 2.37650E-02-3.75660E-03 2.55539E-01-4.01419E-14-4.50502E-13
 -1      1385 2.11314E+01 2.19604E-02-2.67055E-04 1.98638E-01 1.17020E-14-6.46392E-13
 -1      1386 2.13849E+01 2.43040E-02 1.26119E-03 2.10580E-01 4.55456E-14-5.94345E-13
 -1      1387 2.09621E+01 3.36669E-02-5.15541E-03 3.47070E-01 1.36549E-14-4.71220E-13
 -1      1388 2.16199E+01 3.00003E-02-1.18110E-03 2.71317E-01 1.02701E-13-5.16811E-13
 -1      1389 2.19681E+01 3.23120E-02 6.95857E-04 2.87700E-01 3.32642E-14-4.22532E-13
 -1      1390 2.13605E+01 4.66193E-02-6.97839E-03 4.72590E-01 1.06374E-13-4.12830E-13
 -1      1391 2.22784E+01 3.97040E-02-2.92685E-03 3.67660E-01 1.11950E-14-4.37782E-13
 -1      1392 2.27518E+01 4.10333E-02-7.20590E-04 3.89459E-01 4.55131E-14-3.68084E-13
 -1      1393 2.18872E+01 6.25542E-02-9.29550E-03 6.40034E-01 6.26773E-14-3.74112E-13
 -1      1394 2.31547E+01 4.96983E-02-5.82488E-03 4.89161E-01-1.76525E-14-3.75778E-13
 -1      1395 2.37843E+01 4.77988E-02-3.24331E-03 5.16570E-01-7.85118E-14-4.71102E-13
 -1      1396 2.25754E+01 7.94652E-02-1.20349E-02 8.54067E-01 1.42265E-14-3.32566E-13
 -1      1397 2.42926E+01 5.56637E-02-9.66282E-03 6.28465E-01-8.18594E-14-4.48308E-13
 -1      1398 2.50957E+01 4.59120E-02-6.28529E-03 6.59078E-01-5.22195E-14-5.34323E-13
 -1      1399 2.34554E+01 9.05305E-02-1.46440E-02 1.10729E+00-9.42545E-14-2.30177E-13
 -1      1400 2.57070E+01 4.72436E-02-1.24005E-02 7.56795E-01-4.61694E-14-6.67230E-13
 -1      1401 2.66545E+01 2.16628E-02-6.72651E-03 7.81648E-01-4.44996E-14-7.84435E-13
 -1      1402 2.45410E+01 7.89661E-02-1.53659E-02 1.36185E+00-1.87829E-13-3.92273E-13
 -1      1403 2.73332E+01 4.71166E-03-7.73472E-03 8.03304E-01 3.30994E-14-7.10147E-13
 -1      1404 2.82892E+01-4.65565E-02 2.39416E-03 8.00430E-01 1.37316E-14-6.85028E-13
 -1      1405 2.58038E+01 1.15699E-02-1.01148E-02 1.51766E+00 2.01588E-14-5.15268E-13
 -1      1406 2.89420E+01-9.92966E-02 1.46046E-02 6.35126E-01 4.00617E-14-6.21246E-13
 -1      1407 2.95869E+01-1.76359E-01 2.80579E-02 5.63987E-01 9.07295E-14-4.96471E-13
 -1      1408 2.71343E+01-1.58635E-01 7.66987E-03 1.37569E+00 1.05001E-13-3.29278E-13
 -1      1409 3.00383E+01-2.70754E-01 5.79792E-02 8.33859E-02 3.37404E-14-4.94666E-13
 -1      1410 2.98601E+01-3.35646E-01 5.97707E-02-9.77861E-02-1.52760E-14-4.61867E-13
 -1      1411 2.82907E+01-4.46902E-01 4.10794E-02 6.47908E-01 5.40401E-14-2.28307E-13
 -1      1412 2.98662E+01-4.10838E-01 9.37500E-02-8.87042E-01-4.31079E-14-4.66405E-13
 -1      1413 2.84287E+01-3.73045E-01 4.66343E-02-1.14694E+00-9.93441E-14-5.27800E-13
 -1      1414 2.88712E+01-7.23478E-01 7.18645E-02-8.47001E-01-2.96776E-14-1.39305E-13
 -1      1415 2.78510E+01-3.01706E-01 3.93178E-02-1.81271E+00-1.21717E-13-5.42288E-13
 -1      1416 2.55328E+01-7.59595E-02-6.15900E-02-1.94542E+00-1.11699E-13-6.66078E-13
 -1      1417 2.84337E+01-5.99317E-01 4.76251E-02-2.64244E+00-1.59503E-13-2.84203E-13
 -1      1418 2.45150E+01 1.96618E-01-1.32993E-01-1.80056E+00-1.81924E-13-8.59313E-13
 -1      1419 2.24355E+01 4.96657E-01-2.39420E-01-1.57073E+00-2.44083E-13-1.11902E-12
 -1      1420 2.69549E+01 1.53990E-01-8.12306E-02-3.40971E+00-3.42115E-13-4.67883E-13
 -1      1421 2.18862E+01 6.86928E-01-2.89646E-01-3.95055E-01-1.27925E-13-1.14282E-12
 -1      1422 2.17104E+01 7.11897E-01-3.04030E-01 5.97601E-02-8.17540E-14-1.25872E-12
 -1      1423 2.53902E+01 1.11297E+00-2.37171E-01-1.82167E+00-2.47108E-13-7.22550E-13
 -1      1424 2.21399E+01 5.56703E-01-2.63700E-01 1.39535E+00-8.08381E-14-1.26793E-12
 -1      1425 2.40357E+01 2.79660E-01-1.60068E-01 1.67565E+00-8.15320E-15-1.21886E-12
 -1      1426 2.52415E+01 1.21120E+00-2.45447E-01 1.33871E+00-1.05471E-13-6.70944E-13
 -1      1427 2.50383E+01-2.71354E-03-8.43023E-02 1.98244E+00 7.56444E-14-1.26840E-12
 -1      1428 2.75086E+01-2.70015E-01 2.53419E-02 1.86795E+00-2.85735E-14-1.20670E-12
 -1      1429 2.66913E+01 2.99798E-01-1.01799E-01 3.33125E+00 8.60423E-16-9.94461E-13
 -1      1430 2.81753E+01-3.53597E-01 4.27662E-02 1.23167E+00-4.29934E-14-1.05094E-12
 -1      1431 2.97170E+01-4.21824E-01 8.86201E-02 9.70215E-01 6.30260E-14-1.03156E-12
 -1      1432 2.82754E+01-5.66674E-01 3.31109E-02 2.78770E+00 5.05160E-14-1.06614E-12
 -1      1433 2.97565E+01-3.44898E-01 6.05741E-02 1.68766E-01 1.58509E-13-8.77284E-13
 -1      1434 3.00197E+01-2.86597E-01 6.12680E-02-2.23677E-02 1.29442E-13-7.13992E-13
 -1      1435 2.88286E+01-7.29367E-01 7.20558E-02 9.87796E-01 2.09933E-13-6.93509E-13
 -1      1436 2.95883E+01-1.90283E-01 3.04307E-02-5.34068E-01 3.07514E-14-5.64795E-13
 -1      1437 2.89817E+01-1.12152E-01 1.72879E-02-6.13437E-01 1.83811E-14-5.70821E-13
 -1      1438 2.83092E+01-4.75368E-01 4.38932E-02-5.65616E-01 1.69219E-13-4.08416E-13
 -1      1439 2.83290E+01-5.59972E-02 3.83230E-03-8.02495E-01 1.73190E-14-5.47014E-13
 -1      1440 2.73719E+01-2.31781E-03-6.64765E-03-8.09893E-01-5.87265E-14-4.73135E-13
 -1      1441 2.71674E+01-1.79869E-01 1.00825E-02-1.35838E+00 3.74145E-14-4.49661E-13
 -1      1442 2.66795E+01 1.68737E-02-6.30891E-03-8.01299E-01-1.24678E-13-3.81924E-13
 -1      1443 2.57084E+01 4.43511E-02-1.22937E-02-7.78265E-01-1.07235E-13-4.88373E-13
 -1      1444 2.58204E+01 3.77775E-05-8.87896E-03-1.54295E+00-1.00891E-13-2.79568E-13
 -1      1445 2.50760E+01 4.38542E-02-6.30407E-03-6.86249E-01-5.58676E-14-5.01529E-13
 -1      1446 2.42394E+01 5.47614E-02-9.88105E-03-6.56243E-01-6.31040E-14-5.51725E-13
 -1      1447 2.45221E+01 7.41500E-02-1.49219E-02-1.40840E+00-1.98043E-13-1.41196E-13
 -1      1448 2.37064E+01 4.70552E-02-3.27937E-03-5.46311E-01-6.25403E-14-6.67393E-13
 -1      1449 2.30399E+01 4.97304E-02-5.96626E-03-5.19020E-01-3.63945E-15-7.45456E-13
 -1      1450 2.33914E+01 8.89482E-02-1.45565E-02-1.16250E+00-1.33178E-13-2.53351E-13
 -1      1451 2.26114E+01 4.09919E-02-5.95213E-04-4.19345E-01 1.77421E-13-8.37837E-13
 -1      1452 2.21009E+01 4.03744E-02-2.89794E-03-3.97414E-01 5.03434E-14-6.36905E-13
 -1      1453 2.24625E+01 7.93694E-02-1.20885E-02-9.11485E-01 1.01364E-13-5.57397E-13
 -1      1454 2.17662E+01 3.29821E-02 9.67419E-04-3.15863E-01-1.61923E-14-5.23219E-13
 -1      1455 2.13833E+01 3.15701E-02-1.03493E-03-2.99007E-01-1.29484E-14-5.72922E-13
 -1      1456 2.17256E+01 6.36069E-02-9.48254E-03-6.95580E-01 1.31428E-13-6.13923E-13
 -1      1457 2.11273E+01 2.62018E-02 1.53149E-03-2.34231E-01 9.49852E-14-5.76577E-13
 -1      1458 2.08454E+01 2.51562E-02-2.04378E-04-2.21116E-01-5.17945E-15-6.30023E-13
 -1      1459 2.11547E+01 4.95192E-02-7.42761E-03-5.21536E-01 1.90421E-14-4.24184E-13
 -1      1460 2.06546E+01 2.19283E-02 1.25600E-03-1.68103E-01-7.66089E-14-4.79391E-13
 -1      1461 2.04552E+01 2.16712E-02-2.64712E-04-1.57007E-01 6.50660E-14-3.96624E-13
 -1      1462 2.07219E+01 4.00995E-02-6.12277E-03-3.81561E-01-3.82160E-14-4.70783E-13
 -1      1463 2.03197E+01 2.05023E-02 1.80924E-04-1.09812E-01 1.20063E-13-4.45206E-13
 -1      1464 2.01942E+01 2.07745E-02-6.78106E-04-9.88836E-02-4.80388E-15-3.80434E-13
 -1      1465 2.04044E+01 3.61070E-02-5.59933E-03-2.62668E-01 5.64102E-14-3.30519E-13
 -1      1466 2.01061E+01 2.02570E-02-1.11994E-03-5.36383E-02-1.52159E-13-4.32437E-13
 -1      1467 2.00532E+01 2.22105E-02 2.45922E-03-4.10939E-02-6.47902E-14-5.20208E-13
 -1      1468 2.01859E+01 3.66063E-02-5.20378E-03-1.52680E-01-1.03741E-13-5.12002E-13
 -1      1469 2.00134E+01 1.73241E-02 9.14123E-04-9.05094E-03 4.49716E-15-6.97181E-13
 -1      1470 2.00125E+01 1.17214E-02 1.20840E-02-6.20567E-03 1.99745E-13-4.68413E-13
 -1      1471 2.00118E+01 9.99395E-03-1.05384E-03-9.18052E-03 9.03204E-13 4.10219E-14
 -1      1472 2.00655E+01 3.89583E-02-2.42942E-03-6.32643E-02-8.48211E-14-3.92510E-13
 -1      1473 2.02521E+01 7.58319E-02-1.51772E-01 4.84107E-01 4.80796E-14 1.21337E-12
 -1      1474 2.15235E+01 2.16055E-01-2.29250E-01 7.21612E-01 5.22360E-14 1.27773E-12
 -1      1475 2.17228E+01 8.82292E-01-8.52438E-02 2.06606E+00 8.76868E-14 9.72070E-13
 -1      1476 1.93210E+01 3.41485E-02-2.07874E-02 1.85820E-01 3.95899E-14 1.10948E-12
 -1      1477 1.97447E+01 1.14120E-01-6.19752E-02 2.39512E-01 3.14540E-14 1.16235E-12
 -1      1478 2.02964E+01 1.86295E-01-5.54887E-02 7.89118E-01 7.02216E-14 8.84407E-13
 -1      1479 1.89393E+01 1.66322E-02 6.07206E-03 5.31026E-02 7.23033E-15 1.06854E-12
 -1      1480 1.90802E+01 5.13605E-02 1.67618E-03 8.04947E-02 1.10970E-14 1.07741E-12
 -1      1481 1.95467E+01 6.68084E-02-1.53395E-02 2.98268E-01 3.71040E-14 8.14914E-13
 -1      1482 1.88282E+01 8.55779E-03 7.18015E-03-8.43837E-03 4.58383E-14 1.03250E-12
 -1      1483 1.88455E+01 2.53597E-02 1.15211E-02 6.56331E-03 1.94818E-14 1.04387E-12
 -1      1484 1.92108E+01 2.11090E-02-6.92765E-03 7.75103E-02 2.28758E-14 7.55215E-13
 -1      1485 1.88536E+01 3.81601E-03 4.81854E-03-3.88668E-02 2.30107E-14 9.66756E-13
 -1      1486 1.88112E+01 1.34920E-02 8.53684E-03-3.06262E-02 2.58090E-14 1.00760E-12
 -1      1487 1.90939E+01 7.00118E-03-4.67514E-03-2.71355E-02 4.74404E-14 7.09653E-13
 -1      1488 1.89475E+01 1.21281E-03 3.27699E-03-5.24672E-02-3.00617E-14 9.72872E-13
 -1      1489 1.88775E+01 7.16965E-03 5.30997E-03-4.80553E-02-1.00251E-14 9.42694E-13
 -1      1490 1.90964E+01 1.00258E-03-3.22946E-03-7.72428E-02 6.26300E-15 6.72542E-13
 -1      1491 1.90723E+01-2.32292E-04 2.44854E-03-5.67654E-02 2.63038E-14 9.64177E-13
 -1      1492 1.89921E+01 3.52472E-03 3.39309E-03-5.46741E-02 2.16710E-15 9.51331E-13
 -1      1493 1.91605E+01-1.85755E-03-2.11064E-03-9.91360E-02 1.47224E-15 6.33301E-13
 -1      1494 1.92069E+01-9.90276E-04 1.94796E-03-5.58579E-02 3.62244E-14 9.13425E-13
 -1      1495 1.91258E+01 1.34824E-03 2.29907E-03-5.51715E-02 2.52586E-14 9.28488E-13
 -1      1496 1.92545E+01-3.21977E-03-1.25408E-03-1.05313E-01 3.76370E-14 5.84402E-13
 -1      1497 1.93394E+01-1.30714E-03 1.57851E-03-5.22642E-02 2.27226E-14 8.61300E-13
 -1      1498 1.92625E+01 9.96806E-05 1.62827E-03-5.23828E-02 3.84666E-14 9.06855E-13
 -1      1499 1.93601E+01-3.70753E-03-6.61211E-04-1.02831E-01 4.34636E-14 5.77164E-13
 -1      1500 1.94641E+01-1.32968E-03 1.26802E-03-4.76296E-02 2.05000E-14 8.71189E-13
 -1      1501 1.93935E+01-5.23311E-04 1.17848E-03-4.81408E-02 1.52834E-14 8.50611E-13
 -1      1502 1.94670E+01-3.63880E-03-2.93167E-04-9.60753E-02 2.30385E-14 5.44838E-13
 -1      1503 1.95789E+01-1.15208E-03 9.92781E-04-4.30680E-02 8.05928E-14 7.25361E-13
 -1      1504 1.95152E+01-7.06288E-04 8.59586E-04-4.36787E-02 6.56589E-14 8.29570E-13
 -1      1505 1.95700E+01-3.20218E-03-9.98281E-05-8.79326E-02 6.38270E-14 5.46940E-13
 -1      1506 1.96847E+01-8.37947E-04 7.43672E-04-3.93492E-02 9.23980E-15 6.76187E-13
 -1      1507 1.96270E+01-5.70725E-04 6.28278E-04-3.98451E-02 2.69835E-14 6.98202E-13
 -1      1508 1.96674E+01-2.51867E-03-3.85082E-05-8.03660E-02 6.35550E-14 4.48802E-13
 -1      1509 1.97839E+01-4.33107E-04 5.15414E-04-3.70074E-02-1.43095E-14 7.37150E-13
 -1      1510 1.97304E+01-2.00683E-04 4.59469E-04-3.72282E-02-2.92539E-14 6.95862E-13
 -1      1511 1.97596E+01-1.67085E-03-7.73836E-05-7.47310E-02-1.66280E-14 4.92433E-13
 -1      1512 1.98803E+01 2.50131E-05 3.04111E-04-3.64004E-02 4.56574E-14 6.73620E-13
 -1      1513 1.98288E+01 3.40051E-04 3.35827E-04-3.62261E-02 1.45788E-14 7.10980E-13
 -1      1514 1.98487E+01-7.21512E-04-1.92923E-04-7.19535E-02 1.54002E-14 4.54153E-13
 -1      1515 1.99784E+01 4.98858E-04 1.07558E-04-3.77299E-02-4.65225E-14 6.89595E-13
 -1      1516 1.99262E+01 9.93810E-04 2.43884E-04-3.70761E-02-4.79408E-15 6.72983E-13
 -1      1517 1.99381E+01 2.70643E-04-3.65935E-04-7.26173E-02 1.61359E-15 4.65430E-13
 -1      1518 2.00831E+01 9.41895E-04-7.31249E-05-4.10249E-02-9.49851E-15 7.94560E-13
 -1      1519 2.00273E+01 1.69474E-03 1.72537E-04-3.98480E-02-4.45845E-14 7.15610E-13
 -1      1520 2.00314E+01 1.23481E-03-5.77230E-04-7.69746E-02-7.17570E-14 4.47227E-13
 -1      1521 2.01989E+01 1.28902E-03-2.30730E-04-4.60839E-02 4.29864E-14 7.46839E-13
 -1      1522 2.01370E+01 2.35280E-03 1.12710E-04-4.43973E-02 3.07005E-14 7.66106E-13
 -1      1523 2.01325E+01 2.06977E-03-8.02665E-04-8.48820E-02 3.87217E-15 4.48368E-13
 -1      1524 2.03294E+01 1.44668E-03-3.47947E-04-5.23746E-02 1.01148E-13 5.83939E-13
 -1      1525 2.02593E+01 2.83574E-03 5.80065E-05-5.02787E-02 1.09099E-13 6.91604E-13
 -1      1526 2.02448E+01 2.62370E-03-1.00727E-03-9.56561E-02 1.44199E-13 4.50995E-13
 -1      1527 2.04760E+01 1.28475E-03-3.92246E-04-5.88894E-02-7.53924E-14 4.80519E-13
 -1      1528 2.03970E+01 2.95093E-03 6.52183E-06-5.66157E-02-1.10210E-14 4.91615E-13
 -1      1529 2.03704E+01 2.67428E-03-1.13844E-03-1.07848E-01 6.29567E-14 4.03206E-13
 -1      1530 2.06368E+01 6.34554E-04-3.10640E-04-6.39732E-02 3.28382E-14 5.20094E-13
 -1      1531 2.05499E+01 2.43201E-03-3.60607E-05-6.19416E-02-5.66625E-14 4.85400E-13
 -1      1532 2.05091E+01 1.91611E-03-1.11900E-03-1.18952E-01-7.29717E-14 3.66101E-13
 -1      1533 2.08043E+01-6.98529E-04-2.72886E-05-6.51608E-02-2.16912E-14 6.57629E-13
 -1      1534 2.07138E+01 9.41604E-04-5.24703E-05-6.40413E-02-9.57216E-15 5.91106E-13
 -1      1535 2.06570E+01-3.10883E-05-8.42512E-04-1.25095E-01-2.10973E-14 3.47134E-13
 -1      1536 2.09637E+01-2.89447E-03 5.49596E-04-5.91138E-02 2.03705E-14 6.08498E-13
 -1      1537 2.08779E+01-1.89043E-03-1.08212E-05-5.98692E-02 1.93466E-14 6.72690E-13
 -1      1538 2.08049E+01-3.56935E-03-1.76081E-04-1.20834E-01 1.21431E-17 4.14670E-13
 -1      1539 2.10908E+01-6.03263E-03 1.50061E-03-4.18103E-02 2.99283E-15 5.80570E-13
 -1      1540 2.10237E+01-6.36437E-03 1.33043E-04-4.56757E-02 2.81051E-14 5.77364E-13
 -1      1541 2.09372E+01-8.99026E-03 1.02004E-03-9.92700E-02 5.76633E-14 4.69165E-13
 -1      1542 2.11516E+01-9.94676E-03 2.83422E-03-9.21960E-03-1.26015E-14 7.39933E-13
 -1      1543 2.11228E+01-1.25129E-02 4.20083E-04-1.75450E-02-6.88050E-14 5.78248E-13
 -1      1544 2.10302E+01-1.62288E-02 2.84260E-03-5.28395E-02-5.21430E-14 4.41949E-13
 -1      1545 2.11047E+01-1.40332E-02 4.38711E-03 4.12856E-02 1.65263E-14 6.96518E-13
 -1      1546 2.11380E+01-1.98021E-02 8.50771E-04 2.74222E-02 1.41675E-14 7.30481E-13
 -1      1547 2.10532E+01-2.45021E-02 5.25250E-03 2.47790E-02-6.35763E-14 3.94871E-13
 -1      1548 2.09072E+01-1.70873E-02 5.71416E-03 1.08687E-01 6.21755E-14 6.01309E-13
 -1      1549 2.10271E+01-2.68026E-02 1.32674E-03 8.91525E-02 6.04265E-14 6.70391E-13
 -1      1550 2.09716E+01-3.19301E-02 7.94367E-03 1.35321E-01 8.36423E-14 3.94847E-13
 -1      1551 2.05284E+01-1.73308E-02 6.04791E-03 1.85653E-01-8.20828E-15 6.35875E-13
 -1      1552 2.07522E+01-3.10347E-02 1.59976E-03 1.62135E-01-7.93159E-15 5.94035E-13
 -1      1553 2.07545E+01-3.54031E-02 1.02250E-02 2.71407E-01 1.24380E-14 4.98343E-13
 -1      1554 1.99668E+01-1.28818E-02 4.46170E-03 2.56727E-01-3.11277E-14 6.18020E-13
 -1      1555 2.02944E+01-2.93518E-02 1.27302E-03 2.33441E-01-3.61252E-14 6.17626E-13
 -1      1556 2.03862E+01-3.11104E-02 1.10263E-02 4.12303E-01-6.01463E-14 4.61969E-13
 -1      1557 1.92687E+01-2.78978E-03 3.73038E-04 2.99611E-01 3.18593E-15 6.92234E-13
 -1      1558 1.96722E+01-1.91801E-02-3.40348E-05 2.83113E-01-1.89114E-14 6.68427E-13
 -1      1559 1.98813E+01-1.61748E-02 9.17859E-03 5.23118E-01-7.86175E-14 5.41945E-13
 -1      1560 1.85355E+01 1.16438E-02-5.77398E-03 2.91577E-01 9.94916E-14 6.07056E-13
 -1      1561 1.89555E+01-4.82812E-04-2.36536E-03 2.88950E-01 7.76497E-14 7.37334E-13
 -1      1562 1.92961E+01 8.97795E-03 4.09650E-03 5.61428E-01 8.54478E-14 4.67296E-13
 -1      1563 1.79107E+01 2.63194E-02-1.21333E-02 2.20376E-01-2.93897E-14 5.87497E-13
 -1      1564 1.82646E+01 2.27155E-02-5.12566E-03 2.35907E-01-2.71688E-14 5.78412E-13
 -1      1565 1.87289E+01 3.88289E-02-3.46179E-03 4.93043E-01 6.03775E-14 5.68807E-13
 -1      1566 1.75399E+01 3.56224E-02-1.60106E-02 9.42504E-02 1.43600E-14 6.15535E-13
 -1      1567 1.77453E+01 4.29252E-02-7.12466E-03 1.26286E-01 3.29684E-14 5.93702E-13
 -1      1568 1.82995E+01 6.36205E-02-1.11839E-02 3.11897E-01-3.91527E-15 4.88980E-13
 -1      1569 1.75180E+01 3.53662E-02-1.53351E-02-5.67088E-02-1.75190E-14 6.08960E-13
 -1      1570 1.75225E+01 5.25039E-02-7.16777E-03-1.62830E-02-3.51438E-14 5.07032E-13
 -1      1571 1.81122E+01 7.35479E-02-1.61034E-02 5.18971E-02 3.67250E-14 4.31043E-13
 -1      1572 1.78496E+01 2.54724E-02-1.00803E-02-1.91545E-01-1.05580E-14 4.83577E-13
 -1      1573 1.76526E+01 4.79308E-02-4.87407E-03-1.54086E-01 2.20639E-14 5.10434E-13
 -1      1574 1.82148E+01 6.41207E-02-1.63034E-02-2.20742E-01 3.18495E-15 3.52485E-13
 -1      1575 1.84466E+01 1.00947E-02-2.39699E-03-2.76320E-01 1.44598E-13 1.76661E-13
 -1      1576 1.80998E+01 3.18133E-02-1.04777E-03-2.51271E-01 1.50976E-13 4.60389E-13
 -1      1577 1.85784E+01 3.89289E-02-1.21037E-02-4.34227E-01 2.07874E-13 2.65103E-13
 -1      1578 1.91647E+01-4.97998E-03 4.73739E-03-2.97497E-01-2.87735E-15-3.62384E-14
 -1      1579 1.87509E+01 1.10161E-02 2.78178E-03-2.88717E-01 3.37212E-14 5.82312E-14
 -1      1580 1.91098E+01 7.61645E-03-5.67737E-03-5.41456E-01 1.74383E-13 1.61600E-13
 -1      1581 1.98567E+01-1.54327E-02 9.18560E-03-2.63324E-01 5.04455E-14-9.30506E-14
 -1      1582 1.94597E+01-7.36518E-03 5.28063E-03-2.68868E-01 2.22968E-14-6.05349E-14
 -1      1583 1.96882E+01-1.94316E-02 4.40535E-04-5.35199E-01 6.30169E-14 4.50178E-14
 -1      1584 2.04151E+01-1.98540E-02 1.04185E-02-1.95136E-01-6.98382E-14-7.39478E-14
 -1      1585 2.00957E+01-1.91143E-02 5.94857E-03-2.09688E-01 6.78537E-15-1.24581E-13
 -1      1586 2.02061E+01-3.58359E-02 4.62058E-03-4.42051E-01 1.89319E-14-4.20740E-14
 -1      1587 2.07878E+01-1.92397E-02 9.20048E-03-1.16119E-01-4.02269E-14 3.52557E-14
 -1      1588 2.05750E+01-2.35636E-02 5.11784E-03-1.33930E-01-4.59389E-14-1.18619E-13
 -1      1589 2.05949E+01-4.06310E-02 6.49149E-03-3.03810E-01-4.15527E-14-1.14145E-15
 -1      1590 2.09725E+01-1.56218E-02 6.75893E-03-4.36973E-02-2.37961E-14 1.74287E-13
 -1      1591 2.08669E+01-2.24096E-02 3.52775E-03-6.04682E-02-5.44027E-14 4.62009E-14
 -1      1592 2.08290E+01-3.67044E-02 6.52569E-03-1.59396E-01-7.49639E-14 2.56425E-14
 -1      1593 2.09985E+01-1.09115E-02 4.14163E-03 1.27840E-02 1.46441E-14 8.65924E-14
 -1      1594 2.09828E+01-1.80928E-02 1.86820E-03-6.20262E-04-1.69905E-14 8.54539E-14
 -1      1595 2.09175E+01-2.81790E-02 5.48111E-03-3.50173E-02-4.26057E-14 6.75314E-14
 -1      1596 2.09091E+01-6.37216E-03 1.94882E-03 5.07093E-02 2.90614E-14 7.13492E-15
 -1      1597 2.09582E+01-1.26827E-02 5.56607E-04 4.13886E-02-1.45008E-14 1.33444E-14
 -1      1598 2.08892E+01-1.85138E-02 4.01665E-03 5.71296E-02-1.13967E-14-9.37464E-14
 -1      1599 2.07486E+01-2.58186E-03 3.61393E-04 7.15057E-02 1.12480E-13-2.84823E-13
 -1      1600 2.08372E+01-7.45290E-03-2.79198E-04 6.60330E-02 1.44256E-13 1.06842E-14
 -1      1601 2.07801E+01-9.76426E-03 2.54610E-03 1.15281E-01 1.51153E-13-8.95204E-14
 -1      1602 2.05556E+01 3.84529E-04-7.27058E-04 7.81459E-02 2.52744E-13-7.49756E-13
 -1      1603 2.06619E+01-2.90873E-03-7.13608E-04 7.59364E-02 2.05641E-13-3.94121E-13
 -1      1604 2.06251E+01-2.66485E-03 1.24228E-03 1.43275E-01 3.43956E-13-3.39396E-13
 -1      1605 2.03620E+01 2.72803E-03-1.58579E-03 7.34392E-02 3.92069E-14-1.00941E-12
 -1      1606 2.04680E+01 9.95619E-04-9.36248E-04 7.39857E-02 8.37605E-14-8.04703E-13
 -1      1607 2.04541E+01 2.94401E-03 8.79290E-05 1.46562E-01 2.27721E-13-6.17208E-13
 -1      1608 2.01935E+01 4.72091E-03-2.45461E-03 5.92757E-02 6.86726E-14-9.89769E-13
 -1      1609 2.02844E+01 4.56245E-03-1.17457E-03 6.23331E-02-4.44333E-14-9.88844E-13
 -1      1610 2.02913E+01 7.61010E-03-1.04774E-03 1.29761E-01 1.05788E-14-6.10636E-13
 -1      1611 2.00717E+01 6.34969E-03-2.80914E-03 3.65073E-02-5.85282E-14-8.59546E-13
 -1      1612 2.01345E+01 8.07987E-03-1.43609E-03 4.22930E-02 6.08283E-14-8.71777E-13
 -1      1613 2.01555E+01 1.19502E-02-2.07517E-03 9.59979E-02-5.73825E-15-4.69012E-13
 -1      1614 2.00122E+01 7.06847E-03 5.50834E-04 9.36197E-03-8.15753E-14-6.02049E-13
 -1      1615 2.00362E+01 1.00547E-02-8.10842E-04 1.65332E-02-6.10951E-14-7.57346E-13
 -1      1616 2.00597E+01 1.55066E-02-1.98395E-03 4.91463E-02-3.75401E-14-4.05552E-13
 -1      1617 1.99992E+01 2.12718E-03 2.12162E-03-2.01311E-03-3.21534E-13-3.43929E-13
 -1      1618 2.00104E+01 5.57563E-02-1.34724E-03 2.93141E-02-2.14362E-13 1.25930E-13
 -1      1619 2.00112E+01 2.82150E-02 9.07991E-04 2.24812E-02-4.67574E-13 1.93867E-13
 -1      1620 2.00087E+01 1.64983E-01-8.21614E-04 5.76450E-02-1.68322E-13 5.46194E-14
 -1      1621 2.00105E+01 1.01553E-01-9.05838E-04 5.19221E-02-1.47442E-13-9.64208E-14
 -1      1622 2.00201E+01 1.00173E-01-2.05501E-03 8.13385E-02-2.75117E-13 2.76319E-14
 -1      1623 2.00050E+01 3.19281E-01-2.93492E-04 7.80945E-02-2.48201E-13-3.82804E-14
 -1      1624 2.00071E+01 2.29393E-01-7.50404E-04 7.46985E-02-2.43080E-13-1.47880E-14
 -1      1625 2.00135E+01 2.08865E-01-2.37161E-03 1.29254E-01-1.20687E-13-4.32389E-14
 -1      1626 2.00014E+01 5.02166E-01-7.91241E-05 8.95614E-02-1.12502E-13 7.73548E-14
 -1      1627 2.00038E+01 3.97261E-01-4.20638E-04 8.80506E-02-2.33639E-13 2.48686E-13
 -1      1628 2.00076E+01 3.50277E-01-1.36857E-03 1.61427E-01-1.30364E-13 9.92131E-14
 -1      1629 1.99974E+01 6.90644E-01-3.95163E-05 9.08940E-02-4.53225E-13-5.86404E-14
 -1      1630 2.00000E+01 5.84783E-01-2.96708E-04 9.13884E-02-2.35025E-13-2.25410E-13
 -1      1631 2.00012E+01 5.09766E-01-3.05288E-04 1.75543E-01-1.56826E-13-3.07043E-13
 -1      1632 1.99931E+01 8.68762E-01-6.03731E-06 8.10755E-02-6.87918E-14 2.26461E-13
 -1      1633 1.99958E+01 7.71758E-01-1.77427E-04 8.38083E-02-3.52834E-13 1.82269E-13
 -1      1634 1.99945E+01 6.72396E-01 8.77981E-04 1.69400E-01 1.04858E-13 1.35074E-13
 -1      1635 1.99890E+01 1.00890E+00 7.48977E-05 5.95182E-02 8.73377E-14 2.23708E-14
 -1      1636 1.99914E+01 9.36490E-01-1.04729E-05 6.45594E-02-6.53436E-14 1.51555E-13
 -1      1637 1.99873E+01 8.20645E-01 2.17991E-03 1.41147E-01 9.55524E-14 1.92906E-13
 -1      1638 1.99857E+01 1.08797E+00 2.12951E-04 2.71480E-02 7.56370E-13 3.85804E-13
 -1      1639 1.99874E+01 1.05305E+00 2.26829E-04 3.42171E-02 2.26224E-13 3.37219E-13
 -1      1640 1.99807E+01 9.32750E-01 3.44175E-03 9.08539E-02 2.00848E-13 3.38094E-13
 -1      1641 1.99842E+01 1.08802E+00 3.53050E-04-1.29224E-02 6.32345E-13-1.94992E-13
 -1      1642 1.99846E+01 1.09994E+00 4.90237E-04-4.59869E-03 6.41630E-13 1.92461E-13
 -1      1643 1.99758E+01 9.89847E-01 4.41955E-03 2.20043E-02 1.00857E-13 2.76682E-13
 -1      1644 1.99853E+01 1.00124E+00 4.01682E-04-5.51045E-02 4.67524E-13-3.12039E-13
 -1      1645 1.99841E+01 1.06293E+00 7.12328E-04-4.68147E-02 7.68326E-13-2.52193E-13
 -1      1646 1.99742E+01 9.78239E-01 4.81429E-03-5.74582E-02 3.23099E-13-8.96527E-14
 -1      1647 1.99894E+01 8.37888E-01 2.79592E-04-9.12030E-02 4.52912E-13 2.35036E-13
 -1      1648 1.99864E+01 9.41137E-01 6.96933E-04-8.47414E-02 5.12054E-13-1.32598E-13
 -1      1649 1.99773E+01 8.94513E-01 4.42254E-03-1.34563E-01 4.68699E-13-3.63804E-13
 -1      1650 1.99968E+01 6.15885E-01-2.35101E-04-1.13859E-01 4.02117E-13 5.92044E-14
 -1      1651 1.99920E+01 7.48313E-01 3.57284E-04-1.10673E-01 3.27787E-13 3.14285E-13
 -1      1652 1.99855E+01 7.46437E-01 3.00140E-03-1.94517E-01 5.84627E-13 1.91566E-13
 -1      1653 2.00062E+01 3.77662E-01-1.20353E-03-1.14360E-01 8.48467E-13 3.19646E-13
 -1      1654 2.00006E+01 5.11860E-01-5.46290E-04-1.16314E-01 4.58448E-13 2.90110E-13
 -1      1655 1.99991E+01 5.53408E-01 6.99689E-04-2.22007E-01 5.38839E-13 2.86736E-13
 -1      1656 2.00170E+01 1.72922E-01-1.70850E-03-8.69606E-02 9.20375E-13-6.88186E-15
 -1      1657 2.00107E+01 2.77453E-01-2.14286E-03-9.63660E-02 8.91915E-13-2.20895E-14
 -1      1658 2.00161E+01 3.48520E-01-2.23067E-03-2.04464E-01 3.58385E-13 1.74775E-13
 -1      1659 2.00185E+01 5.45338E-02 3.60348E-04-4.33719E-02 9.04984E-13 2.60840E-14
 -1      1660 2.00145E+01 1.07846E-01-3.59038E-03-5.61729E-02 9.02944E-13-1.70918E-13
 -1      1661 2.00243E+01 1.87499E-01-4.46305E-03-1.43354E-01 3.46589E-13-2.47473E-13
 -1      1662 2.00355E+01 7.80329E-02-1.27800E-03-6.77200E-02 2.13239E-13-1.40825E-13
 -1      1663-4.94262E-01-1.45601E+01-1.60566E+00-5.25010E-01 1.21203E-12 2.40280E-13
 -1      1664-5.75293E-01-1.74341E+01-1.88427E+00 7.37946E-01 1.23712E-12 6.77236E-14
 -1      1665 1.80568E+00-7.41229E+00-1.09496E+00 1.06552E+00 1.31184E-12 5.90250E-13
 -1      1666 8.87138E-01-1.29161E+01-1.65466E+00 2.67255E-01 1.16740E-12 5.22915E-13
 -1      1667 7.48815E+00 5.68231E-01-4.38678E-01 5.22763E+00 9.66782E-13 3.59823E-13
 -1      1668 4.20671E+00-5.09872E+00-1.22249E+00 2.16929E+00 1.33782E-12 5.45564E-13
 -1      1669 1.79565E+01 5.76544E+00 3.10744E-01 1.03414E+01 5.21361E-13 1.57208E-13
 -1      1670 1.15239E+01 2.48424E+00-5.59995E-01 6.67053E+00 7.58948E-13 3.46279E-13
 -1      1671 3.25320E+01 7.14076E+00 1.07050E+00 1.33826E+01 1.65867E-13 1.15685E-13
 -1      1672 2.31461E+01 6.85344E+00 2.11480E-01 1.12802E+01 2.46581E-13 1.23013E-13
 -1      1673 4.68886E+01 5.37105E+00 1.60618E+00 1.11324E+01 1.06859E-13-8.68638E-13
 -1      1674 3.79479E+01 7.14283E+00 9.71110E-01 1.28240E+01 1.98008E-13-1.67866E-13
 -1      1675 5.51394E+01 3.69677E+00 1.81943E+00 3.68383E+00 2.84273E-13-2.14240E-12
 -1      1676 5.04098E+01 5.08223E+00 1.53176E+00 8.76985E+00 3.17385E-13-1.21592E-12
 -1      1677 5.44888E+01 4.05174E+00 1.68377E+00-5.20132E+00 6.33771E-13-2.93310E-12
 -1      1678 5.63028E+01 3.58270E+00 1.85980E+00 7.56630E-01 2.66343E-13-2.45016E-12
 -1      1679 4.36631E+01 6.11926E+00 1.06693E+00-1.03633E+01 7.77961E-13-2.55262E-12
 -1      1680 5.07999E+01 4.45824E+00 1.55360E+00-6.89882E+00 6.17423E-13-2.79987E-12
 -1      1681 3.02739E+01 7.03306E+00 5.02531E-01-1.19914E+01 8.64808E-13-1.93934E-12
 -1      1682 3.95717E+01 5.98552E+00 1.16304E+00-1.21723E+01 7.70828E-13-2.58760E-12
 -1      1683 1.69835E+01 5.23058E+00-1.98745E-01-9.21772E+00 1.12910E-12-1.26754E-12
 -1      1684 2.48860E+01 6.82527E+00 6.33222E-01-1.22630E+01 1.14864E-12-1.45439E-12
 -1      1685 7.27621E+00-9.82011E-01-9.37735E-01-4.21821E+00 8.29115E-13-8.94618E-13
 -1      1686 1.23478E+01 3.75842E+00-6.02621E-02-7.97829E+00 1.03562E-12-1.20270E-12
 -1      1687 2.04867E+00-9.32137E+00-1.51483E+00-7.18438E-01 5.61107E-13-3.77920E-13
 -1      1688 3.97245E+00-3.23574E+00-7.92708E-01-2.76686E+00 7.54508E-13-6.09957E-13
 -1      1689-2.90265E-02-1.58320E+01-1.82066E+00-2.82432E-01-1.10245E-13-2.69090E-13
 -1      1690 2.81264E-01-1.13319E+01-1.39163E+00 9.10965E-02 3.18967E-13-2.70298E-13
 -1      1691-9.67000E-01-1.77156E+01-1.90622E+00-1.46633E+00-9.98202E-13-4.54109E-13
 -1      1692-8.26661E-01-1.71489E+01-1.84713E+00 4.08984E-01-3.65097E-13-3.73562E-13
 -1      1693 1.43017E-02-1.19740E+01-1.42490E+00-8.67280E-01-1.11910E-12-3.30819E-13
 -1      1694-1.90354E-01-1.60514E+01-1.73974E+00-3.84751E-01-9.52072E-13-2.65177E-13
 -1      1695 4.62952E+00-4.20725E+00-9.55241E-01 2.37535E+00-9.99423E-13-6.88172E-13
 -1      1696 2.28094E+00-1.04851E+01-1.62807E+00 9.20419E-02-1.16396E-12-4.61076E-13
 -1      1697 1.37307E+01 2.44903E+00-2.76883E-01 7.41213E+00-1.00320E-12-9.85545E-13
 -1      1698 8.14816E+00-2.05568E+00-1.17405E+00 3.61807E+00-9.64784E-13-8.73079E-13
 -1      1699 2.85365E+01 5.58729E+00 6.64343E-01 1.18860E+01-5.83866E-13-5.68656E-13
 -1      1700 1.90722E+01 3.85198E+00-3.81574E-01 8.61783E+00-8.35110E-13-6.99885E-13
 -1      1701 4.58993E+01 5.11896E+00 1.66965E+00 1.14921E+01-2.61791E-13 9.68114E-14
 -1      1702 3.49078E+01 6.05315E+00 6.62293E-01 1.15347E+01-5.40568E-13-4.14113E-13
 -1      1703 5.83964E+01 3.88503E+00 2.37088E+00 6.22589E+00-2.68424E-13 9.63229E-13
 -1      1704 5.09480E+01 5.42323E+00 1.74206E+00 1.03450E+01-3.14540E-13 3.29736E-13
 -1      1705 6.05569E+01 3.86859E+00 2.39221E+00-2.60739E+00-3.46168E-13 1.73433E-12
 -1      1706 6.00620E+01 4.01036E+00 2.36288E+00 3.66264E+00-3.21632E-13 1.16762E-12
 -1      1707 5.25293E+01 5.25686E+00 1.83062E+00-9.78858E+00-5.50338E-13 2.00973E-12
 -1      1708 5.93883E+01 3.81744E+00 2.43405E+00-5.22871E+00-2.47469E-13 1.95621E-12
 -1      1709 3.77481E+01 5.86929E+00 8.10094E-01-1.12952E+01-1.18772E-12 1.92335E-12
 -1      1710 4.77208E+01 4.84973E+00 1.70695E+00-1.06395E+01-8.26422E-13 1.82254E-12
 -1      1711 2.20888E+01 4.69342E+00-1.73386E-01-9.58594E+00-1.09301E-12 1.61426E-12
 -1      1712 3.18474E+01 5.68230E+00 8.33710E-01-1.22629E+01-1.14619E-12 1.89093E-12
 -1      1713 9.79678E+00-6.76941E-01-1.06356E+00-4.54748E+00-1.00098E-12 1.09990E-12
 -1      1714 1.64043E+01 3.44102E+00-1.05655E-01-8.59261E+00-1.13820E-12 1.49747E-12
 -1      1715 2.69718E+00-8.72944E+00-1.66592E+00-2.39276E-01-9.20375E-14 7.78932E-13
 -1      1716 5.46187E+00-2.68437E+00-9.40221E-01-2.99110E+00-9.23706E-13 1.10578E-12
 -1      1717 6.63491E-02-1.53942E+01-1.89722E+00 9.59005E-01 7.28861E-13 3.99403E-14
 -1      1718 4.81140E-01-1.07313E+01-1.50412E+00 8.07585E-01 2.20268E-13 6.34173E-13
 -1      1719-7.71561E-01-1.80260E+01-1.93904E+00 1.90001E-01 1.09550E-12 2.69507E-13
 -1      1720-9.25453E-01-1.66952E+01-1.86241E+00 1.74959E+00 8.48932E-13-3.19467E-14
 -1      1721 1.46579E+01-2.28017E+00-2.78035E-01 6.95284E+00 6.28164E-13-1.84852E-14
 -1      1722-1.47190E+00-1.22400E+01-1.36716E+00 9.05416E-01 5.56583E-13 2.91989E-13
 -1      1723 2.00107E+01 8.37370E-03-2.54043E-04 8.04499E-03-3.75321E-13-4.20112E-14
 -1      1724 2.00273E+01 3.85221E-02-4.17209E-05 3.77080E-02-1.42762E-13 4.79791E-14
 -1      1725 8.89162E-01-1.02201E+01-1.13481E+00 3.09507E+00 6.90892E-13 2.80276E-13
 -1      1726 6.41911E+00-6.81641E+00-8.14237E-01 5.06609E+00 6.82454E-13 2.20809E-13
 -1      1727 2.48884E+01 1.84458E+00 3.21207E-01 8.16926E+00 3.54605E-13-1.07914E-13
 -1      1728 3.55857E+01 4.95983E+00 9.23866E-01 7.74228E+00 1.83076E-13-6.38378E-13
 -1      1729 4.40311E+01 6.71632E+00 1.33463E+00 5.12641E+00 4.86999E-13-1.33560E-12
 -1      1730 4.80918E+01 7.50905E+00 1.54663E+00 1.02646E+00 6.37601E-13-1.71720E-12
 -1      1731 4.54849E+01 7.25503E+00 1.26298E+00-2.42018E+00 5.06595E-13-1.93129E-12
 -1      1732 3.92304E+01 5.71514E+00 9.90192E-01-5.40066E+00 3.82062E-13-1.91802E-12
 -1      1733 3.04272E+01 3.35972E+00 6.36670E-01-7.83476E+00 6.32161E-13-1.65468E-12
 -1      1734 1.97416E+01-1.98107E-02 3.50484E-02-7.73640E+00 6.83453E-13-1.03262E-12
 -1      1735 1.01978E+01-4.52450E+00-5.71513E-01-6.05298E+00 4.50751E-13-8.04690E-13
 -1      1736 3.11996E+00-8.75323E+00-1.03519E+00-3.92973E+00 1.56875E-13-5.28827E-13
 -1      1737-7.92435E-01-1.16005E+01-1.29684E+00-1.92978E+00-2.56906E-13-6.22113E-13
 -1      1738-9.28586E-01-1.12807E+01-1.21145E+00 7.04805E-01-4.25854E-13-4.28046E-13
 -1      1739 3.52684E+00-9.22457E+00-1.03621E+00 3.37798E+00-4.51750E-13-1.20154E-13
 -1      1740 1.14943E+01-5.97106E+00-7.50083E-01 5.24378E+00-5.37903E-13-5.83034E-13
 -1      1741 2.20604E+01-1.60730E+00-1.39063E-01 6.67459E+00-6.07736E-13-2.96430E-13
 -1      1742 3.43152E+01 2.13952E+00 6.71919E-01 6.47148E+00-5.16309E-13 4.68514E-14
 -1      1743 4.49261E+01 5.23320E+00 1.41009E+00 4.55557E+00-5.31561E-13 3.86691E-13
 -1      1744 5.11485E+01 7.32267E+00 1.92045E+00 1.83862E+00-6.66189E-13 8.82072E-13
 -1      1745 5.14844E+01 7.55211E+00 1.96694E+00-1.48058E+00-4.58078E-13 1.11527E-12
 -1      1746 4.58456E+01 5.55540E+00 1.44376E+00-3.78411E+00-5.95551E-13 1.26543E-12
 -1      1747 3.64358E+01 2.65109E+00 8.14963E-01-6.00959E+00-6.15841E-13 1.06271E-12
 -1      1748 2.45388E+01-6.99873E-01 5.68843E-02-6.84614E+00-5.76206E-13 1.19749E-12
 -1      1749 1.31316E+01-4.86500E+00-6.35763E-01-5.51127E+00-4.77729E-13 1.04450E-12
 -1      1750 4.58435E+00-8.91060E+00-1.10869E+00-3.41044E+00 6.16174E-14 1.10970E-12
 -1      1751-2.61483E-01-1.15641E+01-1.32847E+00-1.29744E+00 3.26461E-13 3.70093E-13
 -1      1752 2.28540E+01 1.98484E+00-2.35874E-02-2.72305E+00-1.17108E-13 1.33865E-13
 -1      1753 1.98224E+01 3.71425E+00-3.55459E-02-2.15328E+00-5.96094E-14-2.64698E-13
 -1      1754 2.00566E+01 3.56194E+00-4.02637E-02-2.44626E+00-9.18068E-14-2.39832E-13
 -1      1755 2.03610E+01 3.18164E+00-4.57006E-02-2.58617E+00-1.07754E-13-1.96745E-13
 -1      1756 2.05798E+01 2.80986E+00-1.42540E-01-2.85449E+00-1.48000E-13-1.56160E-13
 -1      1757 2.04213E+01 2.69331E+00-4.44482E-03-2.22721E+00-1.06038E-13-1.95892E-13
 -1      1758 1.93567E+01 4.18968E+00-2.02065E-02-1.27164E+00 2.77009E-14-2.77355E-13
 -1      1759 1.94293E+01 4.14924E+00-1.75133E-02-1.49599E+00 1.10554E-14-2.93123E-13
 -1      1760 1.92617E+01 4.29501E+00-1.68042E-02-8.60352E-01 6.15126E-14-2.42037E-13
 -1      1761 1.93039E+01 4.27116E+00-1.43448E-02-1.07121E+00 4.67972E-14-2.63111E-13
 -1      1762 1.95295E+01 3.78307E+00-9.20983E-03-1.12095E+00 3.17286E-14-2.59031E-13
 -1      1763 1.92109E+01 4.35557E+00-1.48156E-02-4.67086E-01 1.04770E-13-2.09216E-13
 -1      1764 1.92326E+01 4.34270E+00-1.33214E-02-6.67520E-01 8.02667E-14-2.24668E-13
 -1      1765 1.94335E+01 3.90356E+00-9.19265E-03-7.33700E-01 7.96473E-14-2.27920E-13
 -1      1766 1.91918E+01 4.38128E+00-1.36804E-02-8.36471E-02 1.41163E-13-1.79395E-13
 -1      1767 1.91981E+01 4.37733E+00-1.32263E-02-2.79219E-01 1.22283E-13-1.97592E-13
 -1      1768 1.93837E+01 3.96828E+00-9.14929E-03-3.58460E-01 1.17273E-13-1.90731E-13
 -1      1769 1.91997E+01 4.37598E+00-1.31809E-02 2.98354E-01 1.64798E-13-1.44020E-13
 -1      1770 1.91923E+01 4.38046E+00-1.37620E-02 1.02629E-01 1.55342E-13-1.66336E-13
 -1      1771 1.93691E+01 3.98778E+00-9.13616E-03 1.06151E-02 1.57938E-13-1.59980E-13
 -1      1772 1.92365E+01 4.33868E+00-1.33376E-02 6.87329E-01 1.87813E-13-1.04410E-13
 -1      1773 1.92136E+01 4.35244E+00-1.49260E-02 4.86409E-01 1.73055E-13-1.27389E-13
 -1      1774 1.93864E+01 3.96504E+00-9.17930E-03 3.79855E-01 1.74694E-13-1.17864E-13
 -1      1775 1.93092E+01 4.26511E+00-1.44077E-02 1.08524E+00 2.10683E-13-3.67345E-14
 -1      1776 1.92663E+01 4.28965E+00-1.69820E-02 8.77152E-01 2.01767E-13-7.85379E-14
 -1      1777 1.94386E+01 3.89741E+00-9.18716E-03 7.52215E-01 2.06302E-13-8.50708E-14
 -1      1778 1.94394E+01 4.13774E+00-1.74227E-02 1.51557E+00 2.32947E-13 6.12912E-14
 -1      1779 1.93637E+01 4.18035E+00-2.05059E-02 1.28593E+00 2.12470E-13 9.59822E-15
 -1      1780 1.95373E+01 3.77322E+00-9.23955E-03 1.13625E+00 2.28915E-13 1.29063E-15
 -1      1781 1.96661E+01 3.92141E+00-2.53308E-02 1.98080E+00 2.46896E-13 1.72886E-13
 -1      1782 1.95348E+01 3.99817E+00-2.69036E-02 1.72345E+00 2.37541E-13 1.01332E-13
 -1      1783 1.97090E+01 3.56585E+00-8.83734E-03 1.53647E+00 2.42219E-13 8.98604E-14
 -1      1784 2.00769E+01 3.52229E+00-4.43152E-02 2.47711E+00 2.24390E-13 3.31735E-13
 -1      1785 1.98401E+01 3.68375E+00-3.79422E-02 2.18224E+00 2.29052E-13 2.34795E-13
 -1      1786 2.00022E+01 3.22161E+00-6.25622E-03 1.93291E+00 2.38653E-13 2.03740E-13
 -1      1787 2.09149E+01 2.66945E+00-6.21253E-02 2.85629E+00 1.80748E-13 5.69010E-13
 -1      1788 2.04096E+01 3.10018E+00-4.96530E-02 2.61440E+00 2.04555E-13 4.33598E-13
 -1      1789 2.04958E+01 2.60866E+00-6.86977E-04 2.23969E+00 2.10839E-13 3.75186E-13
 -1      1790 2.17243E+01 1.21147E+00-1.23381E-01 2.32947E+00 1.21875E-13 8.18609E-13
 -1      1791 2.12726E+01 2.27241E+00 3.30540E-03 2.74250E+00 1.51552E-13 6.58293E-13
 -1      1792 2.09545E+01 1.68900E+00-1.37289E-02 2.14646E+00 1.80991E-13 5.60614E-13
 -1      1793 2.09540E+01 7.78693E-01-6.06318E-02 1.52432E+00 1.11938E-13 7.92017E-13
 -1      1794 2.17925E+01 2.45815E+00 9.08646E-02-3.04898E+00-1.40317E-13-5.19029E-14
 -1      1795 2.01136E+01 2.99549E-01-4.95275E-03 6.63646E-01 7.35974E-14 7.12149E-13
 -1      1796 2.06446E+01 4.38334E-01-1.43055E-02 1.03400E+00 8.85264E-14 7.43100E-13
 -1      1797 2.07431E+01 8.47077E-01 5.42170E-03 1.40973E+00 1.13822E-13 6.17274E-13
 -1      1798 2.15032E+01 1.74271E+00 7.94464E-02-2.33802E+00-1.40735E-13-7.99361E-14
 -1      1799 2.05168E+01 5.00454E-01 3.25346E-02-9.22542E-01-1.12133E-13-7.42939E-14
 -1      1800 2.00845E+01 3.51858E-01 7.57883E-03-6.30759E-01-9.36664E-14-1.04658E-13
 -1      1801 1.98898E+01 2.57407E-01 2.74256E-02-3.92350E-01-9.57750E-14-1.06464E-13
 -1      1802 1.96986E+01 1.78201E-01 1.04159E-02-2.54445E-01-7.52705E-14-1.30256E-13
 -1      1803 2.01956E+01 4.83849E-01-5.73264E-03-7.24098E-01-1.10325E-13-1.20832E-13
 -1      1804 1.95767E+01 1.32864E-01 1.66967E-02-1.20754E-01-5.06708E-14-1.26382E-13
 -1      1805 1.94983E+01 9.32209E-02 7.00024E-03-4.98921E-02-4.07291E-14-1.49704E-13
 -1      1806 1.98693E+01 2.44261E-01-5.71929E-03-2.96646E-01-7.69133E-14-1.33490E-13
 -1      1807 1.94336E+01 6.86052E-02 8.71724E-03 2.37946E-02-4.04249E-14-1.56862E-13
 -1      1808 1.94191E+01 4.70157E-02 4.15145E-03 6.01260E-02-4.74263E-14-1.47924E-13
 -1      1809 1.96869E+01 1.25492E-01-4.63616E-03-5.95077E-02-5.48851E-14-1.49778E-13
 -1      1810 1.93934E+01 3.28020E-02 4.27050E-03 9.91783E-02-4.51341E-14-1.47073E-13
 -1      1811 1.94134E+01 2.05384E-02 2.49403E-03 1.16263E-01-2.31052E-14-1.51375E-13
 -1      1812 1.96009E+01 6.14730E-02-3.49011E-03 7.06694E-02-4.31673E-14-1.58384E-13
 -1      1813 1.94124E+01 1.20937E-02 1.90239E-03 1.34803E-01-2.68341E-14-1.48989E-13
 -1      1814 1.94502E+01 5.18037E-03 1.54666E-03 1.40788E-01-4.07605E-14-1.66658E-13
 -1      1815 1.95777E+01 2.50915E-02-2.39267E-03 1.38190E-01-3.30724E-14-1.16827E-13
 -1      1816 1.94640E+01 2.66435E-04 6.23133E-04 1.47205E-01-3.76420E-14-1.22332E-13
 -1      1817 1.95098E+01-3.32998E-03 9.87135E-04 1.46912E-01-3.49576E-14-9.96734E-14
 -1      1818 1.95933E+01 4.31813E-03-1.52074E-03 1.68404E-01-1.93699E-14-9.01680E-14
 -1      1819 1.95319E+01-5.92643E-03-6.87002E-05 1.46504E-01-6.69208E-14-6.88408E-14
 -1      1820 1.95800E+01-7.34314E-03 6.66810E-04 1.43021E-01-3.67371E-14-5.28297E-14
 -1      1821 1.96313E+01-6.85417E-03-9.11068E-04 1.76807E-01-3.34176E-14-3.15544E-14
 -1      1822 1.96064E+01-8.33885E-03-4.16372E-04 1.39316E-01-4.54794E-14-1.00971E-13
 -1      1823 1.96539E+01-8.24818E-03 5.18525E-04 1.34736E-01-4.20922E-14-1.36983E-13
 -1      1824 1.96815E+01-1.17232E-02-5.25638E-04 1.73435E-01-8.37651E-14-6.23737E-14
 -1      1825 1.96825E+01-8.08402E-03-5.47337E-04 1.30199E-01-4.11302E-14-1.49755E-13
 -1      1826 1.97285E+01-6.88389E-03 5.09240E-04 1.26021E-01-2.13613E-14-1.73085E-13
 -1      1827 1.97377E+01-1.22217E-02-3.13378E-04 1.65119E-01-7.36510E-14-1.17286E-13
 -1      1828 1.97581E+01-5.82409E-03-5.35682E-04 1.22468E-01-2.25063E-14-1.61685E-13
 -1      1829 1.98030E+01-3.72679E-03 6.24014E-04 1.19842E-01 8.14706E-15-1.85565E-13
 -1      1830 1.97968E+01-9.49559E-03-2.31897E-04 1.56747E-01-3.79013E-14-8.57348E-14
 -1      1831 1.98338E+01-1.90616E-03-4.27461E-04 1.18723E-01 4.27523E-14-2.13390E-13
 -1      1832 1.98788E+01 1.02017E-03 8.61393E-04 1.18632E-01 4.38591E-14-1.84725E-13
 -1      1833 1.98581E+01-4.16701E-03-2.50580E-04 1.52040E-01 6.89364E-15-8.75060E-14
 -1      1834 1.99117E+01 3.57456E-03-2.51999E-04 1.21238E-01 4.18659E-14-2.01831E-13
 -1      1835 1.99592E+01 7.38976E-03 1.23253E-03 1.24638E-01 3.48576E-14-1.59853E-13
 -1      1836 1.99224E+01 3.54335E-03-3.48607E-04 1.54115E-01 3.78902E-14-4.08332E-14
 -1      1837 1.99956E+01 1.07523E-02-2.78890E-05 1.32286E-01 2.06486E-15-1.54975E-13
 -1      1838 2.00489E+01 1.56403E-02 1.75970E-03 1.40249E-01-1.78207E-14-1.36255E-13
 -1      1839 1.99922E+01 1.37681E-02-5.12651E-04 1.65912E-01 1.50836E-14-1.16257E-13
 -1      1840 2.00908E+01 2.00337E-02 2.46219E-04 1.54451E-01-3.00249E-14-1.52220E-13
 -1      1841 2.01544E+01 2.63312E-02 2.54815E-03 1.68266E-01-4.90312E-14-1.53951E-13
 -1      1842 2.00710E+01 2.69783E-02-7.39639E-04 1.90582E-01-3.07095E-14-1.21864E-13
 -1      1843 2.02072E+01 3.22882E-02 5.20212E-04 1.92121E-01-5.32157E-14-1.53207E-13
 -1      1844 2.02906E+01 4.09874E-02 3.56155E-03 2.15057E-01-6.89806E-14-1.43034E-13
 -1      1845 2.01663E+01 4.44286E-02-1.08827E-03 2.33215E-01-6.79638E-14-1.30098E-13
 -1      1846 2.03527E+01 4.84216E-02 8.69536E-04 2.49126E-01-1.21349E-13-1.31578E-13
 -1      1847 2.04558E+01 5.92150E-02 4.82175E-03 2.81119E-01-9.17487E-14-1.64438E-13
 -1      1848 2.02825E+01 6.75589E-02-1.33394E-03 2.98341E-01-8.86191E-14-6.29443E-14
 -1      1849 2.05331E+01 6.89533E-02 1.14398E-03 3.29345E-01-6.86810E-14-1.62870E-13
 -1      1850 2.06686E+01 8.32533E-02 6.51953E-03 3.74429E-01-3.96384E-14-1.61446E-13
 -1      1851 2.04236E+01 9.71351E-02-1.63441E-03 3.89989E-01-6.71574E-14-7.45606E-15
 -1      1852 2.07653E+01 9.58521E-02 1.39624E-03 4.40831E-01-3.27611E-14-1.91372E-13
 -1      1853 2.09446E+01 1.14361E-01 8.60309E-03 5.02892E-01 5.63612E-14-2.22875E-13
 -1      1854 2.06004E+01 1.35731E-01-1.94414E-03 5.17204E-01-3.39468E-14 3.87257E-14
 -1      1855 2.10654E+01 1.30277E-01 1.52484E-03 5.92191E-01 6.05059E-14-2.95777E-13
 -1      1856 2.13022E+01 1.53349E-01 1.09831E-02 6.75562E-01 6.88121E-14-3.37658E-13
 -1      1857 2.08223E+01 1.85289E-01-2.22160E-03 6.89377E-01 2.75366E-15-9.10119E-14
 -1      1858 2.14518E+01 1.72247E-01 1.40665E-03 7.92511E-01 1.21026E-13-4.09454E-13
 -1      1859 2.17617E+01 1.98679E-01 1.32871E-02 9.00884E-01 1.06235E-13-3.01254E-13
 -1      1860 2.10991E+01 2.46176E-01-2.45890E-03 9.16601E-01 4.98078E-14-2.12530E-13
 -1      1861 2.19453E+01 2.18072E-01 8.99579E-04 1.04834E+00 2.60781E-14-2.84584E-13
 -1      1862 2.23432E+01 2.42680E-01 1.46411E-02 1.18175E+00-4.46934E-14-3.34518E-13
 -1      1863 2.14413E+01 3.13909E-01-2.74343E-03 1.20685E+00 5.45514E-14-2.51575E-13
 -1      1864 2.25675E+01 2.55060E-01 1.03136E-05 1.35619E+00-5.03516E-14-3.11352E-13
 -1      1865 2.30625E+01 2.64039E-01 1.34308E-02 1.50436E+00-1.08976E-13-2.69646E-13
 -1      1866 2.18599E+01 3.72108E-01-3.39942E-03 1.55929E+00-3.09696E-14-4.01004E-13
 -1      1867 2.33402E+01 2.51820E-01-6.26304E-04 1.68690E+00-1.97667E-13-2.11773E-13
 -1      1868 2.39249E+01 2.15501E-01 7.19023E-03 1.81666E+00-1.44010E-13-1.79469E-13
 -1      1869 2.23707E+01 3.79428E-01-5.20686E-03 1.95052E+00-1.07074E-13-2.54051E-13
 -1      1870 2.42849E+01 1.44277E-01 9.04896E-04 1.95716E+00-4.96379E-14-9.03192E-14
 -1      1871 2.49199E+01 1.16379E-02-6.34767E-03 1.99378E+00 1.06799E-13-1.01037E-13
 -1      1872 2.30041E+01 2.50940E-01-9.68124E-03 2.30992E+00-6.48415E-14 1.14445E-13
 -1      1873 2.54220E+01-1.69676E-01 9.49294E-03 1.98871E+00 1.75819E-13-2.17206E-13
 -1      1874 2.60154E+01-4.59039E-01-2.73112E-02 1.80345E+00 1.39362E-13-1.38355E-13
 -1      1875 2.38286E+01-1.53947E-01-1.82550E-02 2.48268E+00 7.01661E-14 2.51479E-14
 -1      1876 2.67523E+01-7.88246E-01 2.64228E-02 1.47675E+00 6.16278E-14-1.16468E-13
 -1      1877 2.71488E+01-1.21539E+00-4.99427E-02 9.18196E-01 5.62189E-14-1.02231E-13
 -1      1878 2.49770E+01-9.82086E-01-2.97427E-02 2.19066E+00 1.14138E-13-4.34717E-14
 -1      1879 2.81493E+01-1.58633E+00 3.37418E-02 9.05754E-02-3.82368E-14-9.75695E-14
 -1      1880 2.81727E+01-1.87525E+00-6.23779E-02-8.47927E-01-1.25289E-13-1.63189E-13
 -1      1881 2.65916E+01-2.12323E+00-3.97567E-02 1.05611E+00 2.95285E-14-1.22667E-13
 -1      1882 2.91747E+01-1.88102E+00-1.01565E-02-2.03407E+00-1.48345E-13-6.15775E-14
 -1      1883 2.87241E+01-1.45842E+00-5.42694E-02-2.87636E+00-1.85851E-13-7.82516E-14
 -1      1884 2.85465E+01-2.77475E+00-5.09239E-02-1.01621E+00-1.33155E-13-2.65517E-14
 -1      1885 2.92393E+01-5.23651E-01-1.27866E-01-3.69226E+00-2.91878E-13-1.47521E-13
 -1      1886 2.84790E+01 8.16456E-01-7.96017E-02-3.57862E+00-3.35287E-13-1.41921E-13
 -1      1887 3.02515E+01-1.44501E+00-7.84070E-02-3.31984E+00-2.92516E-13 2.12497E-13
 -1      1888 2.84543E+01 2.14359E+00-2.02264E-01-2.79606E+00-4.33431E-13-2.76130E-13
 -1      1889 2.79532E+01 3.07221E+00-1.73660E-01-1.42556E+00-3.22881E-13-4.36449E-13
 -1      1890 3.10691E+01 2.11551E+00-1.24679E-01-3.62225E+00-4.55719E-13 1.09246E-13
 -1      1891 2.80111E+01 3.30648E+00-1.40669E-01 7.19263E-01-1.10134E-13-5.38319E-13
 -1      1892 2.83235E+01 2.53286E+00-1.97611E-01 2.31644E+00-6.18394E-14-4.94306E-13
 -1      1893 3.12118E+01 4.79042E+00-1.10339E-01-2.43912E-01-2.76335E-13-7.15955E-14
 -1      1894 2.83750E+01 1.22265E+00-8.29038E-02 3.45565E+00-1.07525E-13-5.98833E-13
 -1      1895 2.92184E+01-1.94867E-01-1.15615E-01 3.76720E+00-6.49342E-14-7.15370E-13
 -1      1896 3.10360E+01 2.71665E+00-1.42455E-01 3.19806E+00-1.16934E-13-3.53051E-13
 -1      1897 2.86642E+01-1.27059E+00-7.26319E-02 3.05540E+00 9.20063E-14-6.84057E-13
 -1      1898 2.92127E+01-1.79909E+00-2.07111E-02 2.26466E+00 1.90160E-13-4.78034E-13
 -1      1899 3.04083E+01-1.09612E+00-1.29738E-01 3.46819E+00 5.48173E-14-2.97096E-13
 -1      1900 2.81991E+01-1.89852E+00-6.47977E-02 1.00933E+00 2.43593E-13-4.99038E-13
 -1      1901 2.82216E+01-1.64987E+00 3.18477E-02 5.39013E-02 2.98043E-13-4.09534E-13
 -1      1902 2.87342E+01-2.75096E+00-5.94257E-02 1.29904E+00 2.40761E-13-2.42417E-13
 -1      1903 2.71959E+01-1.28618E+00-5.18957E-02-8.23228E-01 1.65964E-13-3.15653E-13
 -1      1904 2.68153E+01-8.55578E-01 2.69770E-02-1.41842E+00 8.51957E-14-2.96299E-13
 -1      1905 2.67163E+01-2.22207E+00-4.08759E-02-9.37096E-01 2.53301E-13-3.51775E-13
 -1      1906 2.60514E+01-5.16822E-01-2.93281E-02-1.78246E+00 6.10970E-14-3.60659E-13
 -1      1907 2.54586E+01-2.14537E-01 1.03372E-02-1.99662E+00 2.22730E-14-2.89166E-13
 -1      1908 2.50474E+01-1.07267E+00-2.99281E-02-2.16005E+00 1.04319E-13-4.93304E-13
 -1      1909 2.49328E+01-2.14197E-02-7.91607E-03-2.02491E+00-3.75741E-14-1.98813E-13
 -1      1910 2.42863E+01 1.22418E-01 1.29241E-03-2.00411E+00-1.60025E-13-2.79297E-13
 -1      1911 2.38526E+01-2.12820E-01-1.85987E-02-2.51481E+00 3.96254E-14-3.63106E-13
 -1      1912 2.39088E+01 2.00429E-01 6.26844E-03-1.87459E+00-2.00916E-13-1.21389E-13
 -1      1913 2.33052E+01 2.42743E-01-7.73166E-04-1.75214E+00-1.52590E-13-1.36593E-13
 -1      1914 2.29912E+01 2.22245E-01-9.97719E-03-2.37630E+00-1.51033E-14-2.31802E-13
 -1      1915 2.30124E+01 2.58344E-01 1.30023E-02-1.57424E+00-2.12054E-13-9.14603E-14
 -1      1916 2.24949E+01 2.52420E-01-1.51806E-04-1.42866E+00-1.29899E-13-8.45515E-14
 -1      1917 2.23278E+01 3.67695E-01-5.44562E-03-2.03316E+00-1.63061E-13 5.00140E-14
 -1      1918 2.22567E+01 2.41803E-01 1.46206E-02-1.25529E+00-3.81622E-14-6.85003E-14
 -1      1919 2.18351E+01 2.19165E-01 9.09800E-04-1.12183E+00 1.26586E-13-1.86363E-13
 -1      1920 2.17894E+01 3.69172E-01-3.52993E-03-1.64800E+00-1.00445E-13 1.45019E-13
 -1      1921 2.16384E+01 2.01368E-01 1.35256E-02-9.72794E-01 1.43310E-13-3.39109E-13
 -1      1922 2.13061E+01 1.77266E-01 1.72659E-03-8.62046E-01 1.22249E-13-2.90293E-13
 -1      1923 2.13442E+01 3.16799E-01-2.85709E-03-1.29499E+00-2.34019E-14 7.51535E-14
 -1      1924 2.11445E+01 1.60878E-01 1.13760E-02-7.40278E-01 1.66688E-13-3.61237E-13
 -1      1925 2.08890E+01 1.41669E-01 2.28659E-03-6.51133E-01 4.54853E-14-2.25547E-13
 -1      1926 2.09773E+01 2.55916E-01-2.62432E-03-9.97700E-01 1.42292E-13-4.23256E-13
 -1      1927 2.07582E+01 1.30177E-01 9.05968E-03-5.52052E-01-1.32751E-13-1.98298E-13
 -1      1928 2.05671E+01 1.18136E-01 2.73434E-03-4.78594E-01-8.97980E-14-2.64090E-13
 -1      1929 2.06791E+01 2.06128E-01-2.46164E-03-7.54417E-01-1.10589E-17-2.60067E-13
 -1      1930 2.04624E+01 1.12721E-01 6.87176E-03-3.94679E-01 1.92756E-14-2.44914E-13
 -1      1931 2.03257E+01 1.07493E-01 2.84804E-03-3.29642E-01-6.96645E-14-1.86867E-13
 -1      1932 2.04404E+01 1.74277E-01-2.47188E-03-5.53082E-01-8.05859E-14-1.64387E-13
 -1      1933 2.02437E+01 1.06635E-01 4.89790E-03-2.54225E-01-1.34891E-13-3.44914E-13
 -1      1934 2.01506E+01 1.04658E-01 2.07060E-03-1.93853E-01-9.88790E-14-3.26596E-13
 -1      1935 2.02536E+01 1.59280E-01-2.77192E-03-3.77777E-01-1.47898E-13-2.64091E-13
 -1      1936 2.00802E+01 9.26380E-02 2.68366E-03-1.07821E-01 1.79012E-14-3.56293E-13
 -1      1937 1.95073E+01 1.12565E-01 9.64541E-03 1.28263E-01 6.29739E-14 5.59988E-13
 -1      1938 1.96233E+01 1.59025E-01 1.71539E-02 2.22059E-01 3.27897E-14 5.87504E-13
 -1      1939 1.93771E+01 5.77891E-02 6.13292E-03-1.30966E-02 4.86299E-14 5.33388E-13
 -1      1940 1.94133E+01 8.26486E-02 1.19956E-02 3.36954E-02 7.13986E-14 5.45265E-13
 -1      1941 1.97109E+01 1.54389E-01-4.69456E-03 1.55188E-01 8.87177E-14 3.81866E-13
 -1      1942 1.93455E+01 2.78678E-02 3.71142E-03-8.78669E-02 2.32488E-14 4.74977E-13
 -1      1943 1.93342E+01 4.17434E-02 6.27123E-03-6.45241E-02 4.38970E-14 5.05328E-13
 -1      1944 1.95770E+01 7.76144E-02-4.10073E-03-1.61520E-02 6.89364E-14 3.59590E-13
 -1      1945 1.93722E+01 1.05932E-02 2.30215E-03-1.23650E-01 2.85841E-14 4.15055E-13
 -1      1946 1.93358E+01 1.84718E-02 3.00991E-03-1.13464E-01-1.61958E-15 4.32976E-13
 -1      1947 1.95291E+01 3.53107E-02-2.93797E-03-1.07670E-01 4.35655E-14 3.02261E-13
 -1      1948 1.94308E+01 7.19489E-04 1.46828E-03-1.36681E-01 6.30781E-14 4.03991E-13
 -1      1949 1.93826E+01 5.05012E-03 1.25322E-03-1.34066E-01 5.18272E-14 4.31490E-13
 -1      1950 1.95334E+01 1.13067E-02-1.93468E-03-1.52186E-01 4.97982E-14 2.60920E-13
 -1      1951 1.95049E+01-4.49897E-03 9.60981E-04-1.36806E-01 4.96212E-14 4.06029E-13
 -1      1952 1.94526E+01-2.40686E-03 2.97426E-04-1.38355E-01 6.15936E-14 4.06418E-13
 -1      1953 1.95682E+01-2.06391E-03-1.18704E-03-1.69010E-01 6.51091E-14 2.62475E-13
 -1      1954 1.95847E+01-6.63411E-03 6.62504E-04-1.30348E-01 6.70654E-14 3.56618E-13
 -1      1955 1.95326E+01-6.01704E-03-2.11779E-04-1.33844E-01 8.55103E-14 4.02910E-13
 -1      1956 1.96197E+01-8.77368E-03-6.83739E-04-1.70110E-01 8.29988E-14 2.44252E-13
 -1      1957 1.96652E+01-6.66218E-03 5.12006E-04-1.21544E-01 6.63805E-14 3.17475E-13
 -1      1958 1.96151E+01-7.04378E-03-4.53038E-04-1.25483E-01 2.69030E-14 3.07529E-13
 -1      1959 1.96793E+01-1.10916E-02-3.75451E-04-1.63294E-01 8.25492E-14 1.69175E-13
 -1      1960 1.97442E+01-5.22686E-03 4.71534E-04-1.13303E-01 4.20590E-14 3.24777E-13
 -1      1961 1.96965E+01-6.29375E-03-5.25655E-04-1.16642E-01 1.00441E-13 3.38282E-13
 -1      1962 1.97421E+01-1.04236E-02-2.12539E-04-1.53840E-01 5.98046E-14 1.63186E-13
 -1      1963 1.98215E+01-2.77888E-03 5.12827E-04-1.07637E-01-7.20031E-15 2.94144E-13
 -1      1964 1.97758E+01-4.31178E-03-4.91267E-04-1.09650E-01-6.30871E-15 2.92629E-13
 -1      1965 1.98058E+01-7.69766E-03-1.55291E-04-1.45384E-01 3.54596E-14 1.88585E-13
 -1      1966 1.98988E+01 3.33089E-04 6.10949E-04-1.05908E-01-5.20323E-15 3.37960E-13
 -1      1967 1.98537E+01-1.49393E-03-3.91661E-04-1.06108E-01-1.61235E-14 3.08677E-13
 -1      1968 1.98702E+01-3.57232E-03-1.73507E-04-1.40433E-01-4.22076E-15 1.19630E-13
 -1      1969 1.99784E+01 3.78896E-03 7.39640E-04-1.08942E-01-5.04118E-14 3.69997E-13
 -1      1970 1.99322E+01 1.83147E-03-2.57478E-04-1.07047E-01 9.01709E-15 3.72403E-13
 -1      1971 1.99362E+01 1.42559E-03-2.43628E-04-1.40649E-01-4.83820E-14 1.94367E-13
 -1      1972 2.00631E+01 7.22622E-03 8.66810E-04-1.17036E-01-3.70111E-14 2.92108E-13
 -1      1973 2.00141E+01 5.33229E-03-1.13351E-04-1.12986E-01-2.39385E-14 3.29416E-13
 -1      1974 2.00055E+01 6.78652E-03-3.45764E-04-1.46972E-01 1.12255E-14 1.96790E-13
 -1      1975 2.01559E+01 1.01650E-02 9.50062E-04-1.29850E-01 3.70914E-14 2.75771E-13
 -1      1976 2.01022E+01 8.60000E-03 1.86146E-05-1.23866E-01-4.63963E-14 2.55061E-13
 -1      1977 2.00804E+01 1.19062E-02-4.60999E-04-1.59595E-01-4.29037E-14 1.17716E-13
 -1      1978 2.02592E+01 1.19304E-02 9.32803E-04-1.46192E-01 1.87155E-13 2.68706E-13
 -1      1979 2.01995E+01 1.10730E-02 1.16468E-04-1.38885E-01 1.27633E-13 2.76908E-13
 -1      1980 2.01632E+01 1.59686E-02-5.68867E-04-1.77799E-01 9.04260E-14 7.64041E-14
 -1      1981 2.03741E+01 1.15831E-02 7.42483E-04-1.63694E-01 9.62362E-15 2.74992E-13
 -1      1982 2.03081E+01 1.19609E-02 1.57162E-04-1.56221E-01 1.79969E-13 3.63931E-13
 -1      1983 2.02559E+01 1.78298E-02-6.44942E-04-1.99646E-01 1.31379E-13 1.60342E-13
 -1      1984 2.04995E+01 7.88646E-03 2.93680E-04-1.78410E-01-1.03598E-13 2.99698E-13
 -1      1985 2.04284E+01 1.01881E-02 1.16786E-04-1.72655E-01-1.29264E-13 3.04378E-13
 -1      1986 2.03595E+01 1.59252E-02-6.58554E-04-2.21559E-01-3.74791E-14 1.60658E-13
 -1      1987 2.06314E+01-6.37053E-04-4.99640E-04-1.84436E-01-4.69344E-14 4.18033E-13
 -1      1988 2.05586E+01 4.39476E-03-2.72547E-05-1.83175E-01-5.74091E-14 3.66347E-13
 -1      1989 2.04735E+01 8.25583E-03-5.70770E-04-2.37825E-01-1.12721E-13 2.06280E-13
 -1      1990 2.07612E+01-1.54698E-02-1.69734E-03-1.73725E-01 3.80200E-14 3.46634E-13
 -1      1991 2.06929E+01-6.93459E-03-2.91799E-04-1.80667E-01-1.76654E-14 3.51342E-13
 -1      1992 2.05947E+01-7.45105E-03-3.33116E-04-2.40192E-01 2.25806E-14 3.51766E-13
 -1      1993 2.08748E+01-3.75635E-02-3.28708E-03-1.36430E-01 6.04074E-14 3.80841E-13
 -1      1994 2.08210E+01-2.51103E-02-6.81946E-04-1.55988E-01 6.93937E-14 3.97221E-13
 -1      1995 2.07170E+01-3.32545E-02 1.11549E-04-2.17809E-01 4.33598E-14 3.64376E-13
 -1      1996 2.09524E+01-6.63895E-02-5.12010E-03-6.22922E-02-6.89902E-14 3.23124E-13
 -1      1997 2.09264E+01-5.05167E-02-1.18447E-03-9.88249E-02 2.04936E-14 4.00704E-13
 -1      1998 2.08295E+01-7.00014E-02 8.22554E-04-1.57997E-01 2.59860E-14 3.31374E-13
 -1      1999 2.09689E+01-9.85916E-02-6.84653E-03 5.63675E-02 1.49217E-14 2.68552E-13
 -1      2000 2.09867E+01-8.14563E-02-1.76233E-03 8.60931E-05-7.51569E-14 2.62366E-13
 -1      2001 2.09166E+01-1.15692E-01 1.84210E-03-4.84791E-02 1.05703E-14 2.99489E-13
 -1      2002 2.08972E+01-1.26628E-01-7.89607E-03 2.19677E-01 6.27515E-14 2.50570E-13
 -1      2003 2.09743E+01-1.12714E-01-2.35010E-03 1.44842E-01 7.28311E-14 2.94875E-13
 -1      2004 2.09575E+01-1.63392E-01 3.14738E-03 1.18228E-01-2.36228E-14 3.00749E-13
 -1      2005 2.07146E+01-1.38405E-01-7.56555E-03 4.13853E-01 4.18610E-14 3.26561E-13
 -1      2006 2.08614E+01-1.34504E-01-2.84034E-03 3.28434E-01 5.88796E-14 3.26760E-13
 -1      2007 2.09280E+01-1.99550E-01 4.56246E-03 3.38035E-01 5.54791E-14 2.28199E-13
 -1      2008 2.04117E+01-1.19520E-01-5.29812E-03 6.05821E-01-7.70798E-14 4.25453E-13
 -1      2009 2.06273E+01-1.33109E-01-3.03637E-03 5.26471E-01-2.53612E-14 4.57756E-13
 -1      2010 2.08054E+01-2.04556E-01 5.66514E-03 5.87322E-01-3.41892E-14 2.61125E-13
 -1      2011 2.00049E+01-5.95593E-02-1.14050E-03 7.43516E-01-3.17801E-14 3.70127E-13
 -1      2012 2.02709E+01-9.49885E-02-2.65890E-03 6.94287E-01-1.04603E-13 3.87001E-13
 -1      2013 2.05767E+01-1.57874E-01 5.73946E-03 8.17441E-01-2.63856E-14 3.46565E-13
 -1      2014 1.95446E+01 3.84876E-02 3.92333E-03 7.67492E-01 5.86334E-14 5.63497E-13
 -1      2015 1.98234E+01-1.49636E-02-1.29950E-03 7.73180E-01 9.78720E-15 4.41818E-13
 -1      2016 2.02519E+01-4.93220E-02 3.89830E-03 9.58178E-01-1.25153E-14 2.86671E-13
 -1      2017 1.91151E+01 1.51415E-01 8.14582E-03 6.35470E-01 4.53934E-15 5.87478E-13
 -1      2018 1.93549E+01 9.44632E-02 1.34745E-03 7.09976E-01 1.14443E-13 5.74072E-13
 -1      2019 1.98757E+01 1.07753E-01-1.62061E-04 9.36946E-01 2.59497E-14 4.91443E-13
 -1      2020 1.88158E+01 2.40220E-01 9.89914E-03 3.50513E-01 1.09544E-13 4.74626E-13
 -1      2021 1.89644E+01 2.00838E-01 5.05940E-03 4.85778E-01 1.78937E-14 5.49573E-13
 -1      2022 1.95281E+01 2.71070E-01-5.44219E-03 7.13043E-01 3.06270E-14 4.24932E-13
 -1      2023 1.87277E+01 2.68205E-01 8.73674E-03-2.63607E-02 6.75814E-14 5.68863E-13
 -1      2024 1.87497E+01 2.63308E-01 8.76361E-03 1.37626E-01 9.67299E-14 5.90639E-13
 -1      2025 1.93040E+01 3.82211E-01-9.59198E-03 3.10848E-01 1.03745E-14 5.39698E-13
 -1      2026 1.88772E+01 2.22843E-01 5.65009E-03-3.94382E-01-3.57873E-15 4.67028E-13
 -1      2027 1.87679E+01 2.54696E-01 1.07744E-02-2.46144E-01 2.79689E-14 5.05653E-13
 -1      2028 1.92730E+01 3.95581E-01-1.02661E-02-1.73754E-01 1.00707E-13 6.43236E-13
 -1      2029 1.92225E+01 1.24061E-01 2.23499E-03-6.56372E-01 2.52371E-13 4.16818E-13
 -1      2030 1.90095E+01 1.78761E-01 9.78764E-03-5.61262E-01 5.41546E-14 3.82174E-13
 -1      2031 1.94440E+01 3.05150E-01-7.09701E-03-6.08075E-01 1.41046E-13 5.74217E-13
 -1      2032 1.96718E+01 1.13403E-02-3.61773E-04-7.59884E-01 1.38835E-13 3.45653E-13
 -1      2033 1.94046E+01 6.77071E-02 5.89596E-03-7.33355E-01 3.63869E-13 4.64797E-13
 -1      2034 1.97603E+01 1.48307E-01-2.00621E-03-8.81648E-01 2.50224E-13 6.29984E-13
 -1      2035 2.01218E+01-7.89972E-02-1.82451E-03-7.10538E-01 1.12243E-13 1.47487E-13
 -1      2036 1.98544E+01-3.78529E-02 5.99987E-04-7.44442E-01 7.08092E-14 2.77610E-13
 -1      2037 2.01289E+01-1.66223E-02 2.48798E-03-9.50497E-01 1.62163E-13 4.75610E-13
 -1      2038 2.04924E+01-1.28897E-01-2.39238E-03-5.55559E-01 5.26124E-14 1.61655E-13
 -1      2039 2.02679E+01-1.09541E-01-4.18921E-03-6.27406E-01 1.04719E-13 1.96341E-13
 -1      2040 2.04625E+01-1.41097E-01 4.96303E-03-8.41033E-01 1.28082E-13 2.97220E-13
 -1      2041 2.07420E+01-1.39433E-01-2.40929E-03-3.55008E-01-1.06819E-13 9.87999E-14
 -1      2042 2.05848E+01-1.39263E-01-7.17925E-03-4.39962E-01-7.54809E-14 8.50771E-14
 -1      2043 2.07061E+01-2.04087E-01 5.44745E-03-6.21334E-01 2.90219E-15 2.56351E-13
 -1      2044 2.08645E+01-1.22653E-01-2.13921E-03-1.58901E-01 1.81305E-14-5.25914E-15
 -1      2045 2.07802E+01-1.34651E-01-8.08586E-03-2.37957E-01-2.21281E-14 3.36227E-14
 -1      2046 2.08412E+01-2.10784E-01 4.67564E-03-3.65173E-01-2.71549E-14-4.09612E-14
 -1      2047 2.08772E+01-9.25691E-02-1.70964E-03 2.35918E-03-1.88313E-14-1.16356E-13
 -1      2048 2.08577E+01-1.09639E-01-7.35587E-03-6.02286E-02 3.80833E-14 6.08717E-15
 -1      2049 2.08762E+01-1.80144E-01 3.40825E-03-1.28334E-01 5.92564E-14-2.00446E-13
 -1      2050 2.08080E+01-5.98891E-02-1.18237E-03 1.16844E-01-1.69214E-14-2.10603E-13
 -1      2051 2.08381E+01-7.70547E-02-5.69986E-03 7.41007E-02-9.34014E-14-1.88649E-13
 -1      2052 2.08328E+01-1.32547E-01 2.13093E-03 5.84514E-02-8.65228E-14-1.65504E-13
 -1      2053 2.06866E+01-3.05715E-02-5.91799E-04 1.85049E-01 2.93969E-13-3.76794E-13
 -1      2054 2.07491E+01-4.53393E-02-3.75386E-03 1.61063E-01 1.92950E-13-1.84380E-13
 -1      2055 2.07359E+01-8.29097E-02 1.05565E-03 1.85495E-01 1.16004E-13-2.64044E-13
 -1      2056 2.05396E+01-6.58505E-03 3.53519E-05 2.13451E-01 4.63699E-13-3.43530E-13
 -1      2057 2.06184E+01-1.83906E-02-1.94422E-03 2.05260E-01 3.42320E-13-2.70635E-13
 -1      2058 2.06090E+01-3.91298E-02 2.33743E-04 2.56133E-01 2.80417E-13-2.86559E-13
 -1      2059 2.03886E+01 1.26256E-02 6.44179E-04 2.09732E-01 1.29028E-13-3.35796E-13
 -1      2060 2.04702E+01 3.23083E-03-5.03715E-04 2.14307E-01 4.03382E-13-2.50548E-13
 -1      2061 2.04709E+01-3.40457E-03-3.49100E-04 2.79346E-01 3.82898E-13-1.03772E-13
 -1      2062 2.02504E+01 2.85157E-02 1.14550E-03 1.80238E-01-8.81413E-14-8.66412E-14
 -1      2063 2.03238E+01 2.07655E-02 4.55598E-04 1.95357E-01-3.44474E-14-3.20883E-13
 -1      2064 2.03361E+01 2.53831E-02-7.51044E-04 2.64725E-01 8.05459E-14 1.64147E-14
 -1      2065 2.01360E+01 4.22910E-02 1.39598E-03 1.29613E-01-6.31528E-14-2.20697E-13
 -1      2066 2.01937E+01 3.56776E-02 8.38499E-04 1.53927E-01-8.92515E-14-2.06006E-13
 -1      2067 2.02139E+01 4.90105E-02-1.26279E-03 2.20776E-01-4.50109E-14 9.35817E-14
 -1      2068 2.00577E+01 4.50134E-02 1.28136E-03 7.07748E-02-1.31540E-13-5.00532E-14
 -1      2069 2.00974E+01 4.28204E-02 8.25176E-04 9.81993E-02-7.62604E-14-1.63485E-13
 -1      2070 2.01215E+01 6.26127E-02-6.93555E-04 1.57382E-01-1.74294E-13-5.35628E-15
 -1      2071 2.00540E+01 6.56604E-02 4.04744E-04 8.83324E-02-2.86430E-13 1.48435E-13
 -1      2072 2.00190E+01 3.73482E-01 3.28796E-04 2.27686E-01-1.00935E-13 1.97198E-13
 -1      2073 2.00282E+01 2.99801E-01 1.31518E-03 2.14111E-01-1.20802E-13 1.12651E-13
 -1      2074 2.00363E+01 2.41907E-01 8.27159E-04 1.91146E-01-1.44360E-13-8.44634E-14
 -1      2075 2.00445E+01 1.78794E-01 1.23811E-03 1.68726E-01-1.13833E-13-1.23447E-13
 -1      2076 2.00478E+01 2.55468E-01-9.94650E-04 2.58567E-01-9.32272E-14 2.49801E-14
 -1      2077 2.00518E+01 1.11931E-01 9.83183E-04 1.18771E-01-2.79769E-13-4.11328E-14
 -1      2078 1.99992E+01 5.14012E-01-5.99156E-04 2.40426E-01-7.94809E-14-3.96908E-13
 -1      2079 2.00097E+01 4.36352E-01 6.78379E-04 2.37918E-01-1.66600E-13 1.15574E-13
 -1      2080 2.00208E+01 3.76163E-01-6.09037E-04 2.95035E-01-1.26797E-13 1.30241E-13
 -1      2081 1.99768E+01 6.55529E-01-1.69578E-03 2.26130E-01 2.32412E-13 2.26774E-13
 -1      2082 1.99886E+01 5.80118E-01 1.10172E-05 2.36033E-01 6.99310E-14 7.71868E-14
 -1      2083 1.99904E+01 5.05388E-01 1.68310E-05 3.01864E-01 9.54398E-14 1.92772E-14
 -1      2084 1.99537E+01 7.79741E-01-2.76340E-03 1.81985E-01 1.59563E-13 1.36478E-13
 -1      2085 1.99657E+01 7.17430E-01-7.40170E-04 2.05115E-01 2.02647E-13 6.57172E-14
 -1      2086 1.99569E+01 6.33709E-01 8.06312E-04 2.73789E-01 2.52841E-13 3.48686E-14
 -1      2087 1.99330E+01 8.69669E-01-3.55674E-03 1.08604E-01 1.99032E-14 2.36898E-13
 -1      2088 1.99433E+01 8.29804E-01-1.52829E-03 1.44106E-01-8.20405E-15 2.27157E-13
 -1      2089 1.99235E+01 7.45934E-01 1.71664E-03 2.08127E-01 4.09828E-17 9.61633E-14
 -1      2090 1.99190E+01 9.09739E-01-3.84513E-03 1.16755E-02-7.52745E-14 4.64680E-14
 -1      2091 1.99253E+01 8.99905E-01-2.26986E-03 5.62794E-02-4.49363E-14 4.64206E-13
 -1      2092 1.98953E+01 8.26296E-01 2.58775E-03 1.07088E-01-1.53251E-13 2.87173E-13
 -1      2093 1.99168E+01 8.89250E-01-3.45441E-03-9.69248E-02 2.05773E-13-3.88678E-14
 -1      2094 1.99165E+01 9.13480E-01-2.82016E-03-4.92435E-02 1.76547E-14 4.62020E-14
 -1      2095 1.98791E+01 8.60129E-01 3.21279E-03-2.01906E-02-6.96771E-14 1.47051E-13
 -1      2096 1.99297E+01 8.07829E-01-2.30875E-03-1.97974E-01 3.85163E-13-2.12885E-13
 -1      2097 1.99211E+01 8.63563E-01-3.09024E-03-1.56211E-01 2.74319E-13-1.21524E-13
 -1      2098 1.98816E+01 8.37726E-01 3.43786E-03-1.55726E-01 6.66738E-14 4.58845E-15
 -1      2099 1.99594E+01 6.70730E-01-6.48664E-04-2.74189E-01 5.66933E-13 4.94342E-13
 -1      2100 1.99421E+01 7.52832E-01-2.93059E-03-2.46230E-01 4.12760E-13 1.38662E-13
 -1      2101 1.99069E+01 7.57003E-01 3.04160E-03-2.77481E-01 2.59926E-13-4.00638E-14
 -1      2102 2.00037E+01 4.97808E-01 1.24141E-03-3.03817E-01 4.93418E-13 2.71661E-13
 -1      2103 1.99792E+01 5.92937E-01-2.32577E-03-2.98824E-01 5.47286E-13 2.55820E-13
 -1      2104 1.99560E+01 6.24352E-01 2.01910E-03-3.60569E-01 3.15314E-13 4.35851E-13
 -1      2105 2.00530E+01 3.16963E-01 2.94707E-03-2.74173E-01 2.10910E-13 3.61903E-14
 -1      2106 2.00271E+01 4.08403E-01-1.38595E-03-2.95316E-01 1.97508E-13 3.97957E-13
 -1      2107 2.00261E+01 4.58047E-01 1.47082E-03-3.81026E-01 2.20570E-13 1.46560E-13
 -1      2108 1.97191E+01 1.78636E-01 1.26203E-02 3.27917E-01 4.34375E-14 6.43260E-13
 -1      2109 1.99742E+01 2.56136E-01 1.69832E-02 5.06038E-01 6.59282E-14 6.78338E-13
 -1      2110 2.01724E+01 4.15303E-01-3.92706E-04 7.33263E-01 7.31012E-14 5.46145E-13
 -1      2111 1.99025E+01 2.63859E-01-3.78739E-03 4.04171E-01 7.42106E-14 4.56098E-13
 -1      2112 1.09433E+01-4.83389E+00-1.22160E-01 6.96631E+00 3.53162E-13-1.00753E-13
 -1      2113 7.29131E+00-6.57240E+00-3.55628E-01 5.90492E+00 1.56319E-13 6.75016E-14
 -1      2114 2.83510E+01 4.28778E-01 1.88814E-01 6.57937E+00 2.52465E-13-5.13589E-13
 -1      2115 2.32453E+01-1.52331E+00-1.50546E-01 6.34890E+00 3.83582E-13-2.42140E-13
 -1      2116 8.80883E-02-7.49997E+00-3.91263E-01 1.65676E+00 3.33927E-13 3.18967E-13
 -1      2117-1.43160E-01-8.04255E+00-4.60631E-01 1.74296E-01 1.42053E-13 4.70179E-13
 -1      2118 1.97165E+01-2.68412E+00 4.55802E-02 7.44090E+00 2.92544E-13-1.46994E-13
 -1      2119 1.50544E+01-4.71572E+00-2.85319E-01 6.70385E+00 3.12306E-13-1.83298E-13
 -1      2120 1.95249E+01 4.01759E+00-2.49808E-02-1.70088E+00-1.65692E-14-2.90724E-13
 -1      2121 1.96481E+01 3.94373E+00-2.46633E-02-1.95727E+00-4.10305E-14-2.79887E-13
 -1      2122 1.99637E+01 3.23733E+00-1.87384E-02-1.92678E+00-5.59999E-14-2.47281E-13
 -1      2123 1.96966E+01 3.58954E+00-6.67534E-03-1.52107E+00-3.50458E-15-2.74610E-13
 -1      2124 3.57346E+01 3.50035E+00 3.10526E-01 4.34591E+00 2.50206E-13-1.12099E-12
 -1      2125 3.12804E+01 1.93871E+00 2.34970E-02 4.86203E+00 2.12330E-13-6.52589E-13
 -1      2126 4.03663E+01 6.28819E+00 3.46782E-01 2.06488E+00 5.40568E-13-1.35347E-12
 -1      2127 3.77688E+01 5.39719E+00 2.41799E-01 3.43866E+00 3.54106E-13-1.25377E-12
 -1      2128 4.12612E+01 7.45486E+00 3.16291E-01-1.89714E-01 5.52280E-13-1.21006E-12
 -1      2129 4.04242E+01 7.41317E+00 2.81884E-01 1.07489E+00 6.14342E-13-1.13981E-12
 -1      2130 3.79825E+01 6.85118E+00 1.32085E-01-1.41931E+00 3.24740E-13-1.08824E-12
 -1      2131 4.11141E+01 7.42648E+00 4.66189E-01-7.61934E-01 4.95604E-13-1.24223E-12
 -1      2132 3.62040E+01 8.57431E+00 2.79575E-01 7.96659E-02 4.24216E-13-7.12951E-13
 -1      2133 3.43905E+01 3.50385E+00 1.40251E-01-3.52896E+00 1.19495E-13-1.37079E-12
 -1      2134 3.69053E+01 4.79929E+00 1.22003E-01-2.22049E+00 1.38056E-13-1.18655E-12
 -1      2135 2.73498E+01 7.87461E-02-5.15964E-02-5.78818E+00 4.36040E-13-1.18339E-12
 -1      2136 3.19559E+01 1.56499E+00 1.65251E-01-5.26076E+00 2.27748E-13-1.55143E-12
 -1      2137 1.92980E+01-3.28836E+00-2.29489E-01-6.59974E+00 3.65596E-13-8.39995E-13
 -1      2138 2.42695E+01-1.25487E+00 1.27545E-01-7.06620E+00 5.07205E-13-9.78662E-13
 -1      2139 1.12386E+01-5.77527E+00-3.15942E-01-6.55050E+00 1.74194E-13-7.01522E-13
 -1      2140 1.55969E+01-3.83952E+00-1.32441E-03-7.50241E+00 3.18190E-13-7.91561E-13
 -1      2141 4.68490E+00-6.96253E+00-3.60186E-01-5.13254E+00-2.35367E-14-5.87780E-13
 -1      2142 7.83118E+00-5.55178E+00-1.40640E-01-6.39179E+00 2.11053E-13-6.86007E-13
 -1      2143 1.23374E+01-5.49136E+00-6.96120E-02-7.53073E+00-2.22045E-16-7.69315E-13
 -1      2144 1.99104E-01-7.97674E+00-4.73065E-01-1.77440E+00-2.06224E-13-6.30385E-13
 -1      2145 1.34016E+00-6.94047E+00-3.48176E-01-3.38788E+00-8.02691E-14-4.97602E-13
 -1      2146 1.23240E+00-6.62706E+00-3.00207E-01 1.91333E+00-1.14186E-13-2.40474E-13
 -1      2147-1.60624E-02-7.99433E+00-5.14627E-01-5.76438E-02-1.11236E-13-4.97768E-13
 -1      2148 1.27241E+00-4.96188E+00-2.03029E-01-9.88310E-01 4.66086E-14-5.08871E-13
 -1      2149 8.16779E+00-6.24710E+00-2.02413E-01 5.54598E+00-1.75970E-13-9.18987E-14
 -1      2150 4.71498E+00-6.72346E+00-2.53127E-01 4.16787E+00-4.80171E-14 2.77001E-14
 -1      2151 1.78611E+01-5.10920E+00-5.86417E-02 6.33740E+00-2.03615E-13-3.35981E-13
 -1      2152 1.30439E+01-6.67005E+00-3.13538E-01 5.61112E+00-1.33449E-13-2.84626E-13
 -1      2153 2.69125E+01-2.36628E+00 7.68610E-02 5.82016E+00-3.22076E-13 2.90878E-13
 -1      2154 2.12357E+01-4.40264E+00-3.27009E-01 5.41755E+00-3.73479E-13 5.77316E-14
 -1      2155 3.62453E+01 8.29604E-01 3.32487E-01 3.56541E+00-3.84970E-13 3.02647E-13
 -1      2156 3.06692E+01-1.09890E+00-1.04799E-01 4.06470E+00-2.81386E-13 2.07390E-13
 -1      2157 4.24821E+01 4.46395E+00 5.08923E-01 1.37891E+00-5.79981E-13 5.29465E-13
 -1      2158 3.84915E+01 2.89998E+00 1.76323E-01 1.78526E+00-5.40151E-13 2.77556E-13
 -1      2159 4.45875E+01 6.93876E+00 5.69237E-01-5.10451E-02-6.92668E-13 5.98979E-13
 -1      2160 4.36562E+01 6.19592E+00 5.33209E-01 8.91401E-01-6.84341E-13 4.88942E-13
 -1      2161 4.28177E+01 6.26086E+00 3.89156E-01-4.73323E-01-3.86358E-13 4.55469E-13
 -1      2162 4.34778E+01 6.95517E+00 4.46942E-01 1.32982E-01-4.37650E-13 3.03237E-13
 -1      2163 3.89510E+01 3.66797E+00 1.84820E-01-1.01972E+00-3.82111E-13 4.84168E-13
 -1      2164 4.25302E+01 5.03957E+00 4.63740E-01-7.46090E-01-4.14224E-13 5.13534E-13
 -1      2165 3.83549E+01 6.21894E+00 4.22193E-01 1.60344E+00-3.57991E-13-1.86129E-13
 -1      2166 3.23792E+01-5.32510E-01-1.27035E-02-3.59887E+00-2.47524E-13 5.86420E-13
 -1      2167 3.69795E+01 1.05851E+00 2.09114E-01-2.69587E+00-3.35856E-13 4.66738E-13
 -1      2168 2.31388E+01-3.75130E+00-2.95094E-01-5.22162E+00-2.13163E-13 8.12572E-13
 -1      2169 2.89207E+01-1.83634E+00 9.35697E-02-5.47395E+00-2.97151E-13 8.24341E-13
 -1      2170 1.36818E+01-6.44228E+00-4.45602E-01-5.50546E+00-1.77081E-13 8.35693E-13
 -1      2171 1.89222E+01-4.55616E+00-9.54338E-02-6.39865E+00-3.12972E-13 8.41327E-13
 -1      2172 5.52775E+00-7.68929E+00-4.83392E-01-4.29732E+00 1.18183E-13 1.03137E-12
 -1      2173 9.15455E+00-6.35015E+00-2.90355E-01-5.51255E+00-4.62963E-14 1.24688E-12
 -1      2174 1.05270E+00-7.65321E+00-4.27792E-01-1.60613E+00 4.49085E-14 3.99625E-13
 -1      2175 2.84761E+00-6.82308E+00-2.75176E-01-3.24085E+00-7.40519E-14 5.77371E-13
 -1      2176 4.35762E+00-6.00235E+00-1.81528E-01 5.22568E+00 1.79801E-13 1.30146E-13
 -1      2177 2.13550E+00-6.98767E+00-3.24612E-01 3.66759E+00 2.78721E-13 1.08913E-13
 -1      2178 2.01045E+01 1.49069E-01 6.16415E-04-2.00148E-01 7.12592E-16-4.82040E-13
 -1      2179 2.37118E+01-3.83876E+00 5.23420E-02 6.04156E+00 2.26263E-13-3.62099E-13
 -1      2180 2.07307E+01 1.10845E+00-2.09087E-02-1.61665E+00-1.25837E-13-1.03291E-13
 -1      2181 1.56153E+01-5.44036E+00-5.21778E-02 7.45217E+00 9.97535E-14-2.56475E-13
 -1      2182 3.04784E+01-3.61525E-01 1.76128E-01 3.54040E+00 2.52548E-13-8.45102E-13
 -1      2183 2.06233E+01 1.33215E+00-1.78571E-02-1.67850E+00-1.24225E-13-1.38781E-13
 -1      2184 2.00742E+01 1.32462E-01 3.40440E-04 1.80610E-01-2.12144E-13 9.46992E-14
 -1      2185 2.45583E+00-4.78854E+00-1.47603E-01 3.36196E+00 6.20060E-14 2.96652E-13
 -1      2186 2.00962E+01 2.13195E-01 5.77284E-04-2.40658E-01 6.62647E-14-3.03149E-13
 -1      2187 7.80953E+00-5.30619E+00-1.31746E-01 6.58025E+00-1.77636E-13-6.29496E-14
 -1      2188 1.75460E+00-4.98053E+00-1.96882E-01-1.22265E+00-2.46914E-13 5.80924E-13
 -1      2189 6.06684E+00-5.72606E+00-1.90816E-01-4.74229E+00-4.79061E-14 8.02636E-13
 -1      2190 1.42265E+01-6.48845E+00-1.46610E-01-6.31294E+00-2.78666E-14 9.78159E-13
 -1      2191 2.36058E+01-5.59083E+00-2.87456E-02-5.11735E+00-3.11418E-14 5.78260E-13
 -1      2192 3.67988E+01 1.67357E+00 2.45686E-01 5.48189E-01-1.39055E-13 7.92699E-14
 -1      2193 3.94801E+01 7.55544E+00 4.49881E-01 1.91505E-01-4.40648E-13 9.83900E-14
 -1      2194 3.94737E+01 5.52392E+00 4.34670E-01-1.21226E+00-6.61138E-13 4.21718E-13
 -1      2195 3.63962E+01 9.83736E-01 2.97652E-01 2.90117E-01-3.59456E-13 4.37650E-13
 -1      2196 3.03797E+01-3.40087E+00 7.68392E-02 2.94111E+00-1.86573E-13 4.59355E-13
 -1      2197 2.22831E+01-6.13825E+00-1.08921E-01 5.32461E+00-7.86593E-14 2.30732E-13
 -1      2198 4.22746E+00-5.45475E+00-1.29244E-01 3.52446E+00 5.66769E-14 2.13163E-14
 -1      2199 4.27293E+00-3.38111E+00 1.01614E-01 2.93139E+00 2.08347E-13-9.65894E-14
 -1      2200 7.48427E+00-4.08984E+00-3.42004E-02 5.05125E+00 2.27901E-13 9.54237E-14
 -1      2201 4.82478E+00-5.24650E+00-1.50239E-01-5.32692E+00 1.90958E-14-6.77902E-13
 -1      2202 2.00818E+01-4.99165E+00 8.17980E-03-6.89335E+00 1.39888E-13-6.85313E-13
 -1      2203 2.72524E+01-2.44363E+00 1.19425E-01-4.82280E+00 1.89904E-13-9.68225E-13
 -1      2204 3.59280E+01 5.84136E+00 1.67192E-01-7.30401E-01 6.69742E-14-8.92342E-13
 -1      2205 3.31499E+01 6.53456E+00-1.59129E-01 8.30650E-01 1.30340E-13-5.20473E-13
 -1      2206 3.29169E+01 4.61860E+00 4.10686E-02 3.15774E-01-6.43374E-14-5.24719E-13
 -1      2207 3.48951E+01 4.00749E+00 2.72840E-01 1.27797E+00 4.23883E-13-1.08108E-12
 -1      2208 3.69140E+01 7.56008E+00 3.20765E-01 3.13204E-01 5.58831E-13-1.01663E-12
 -1      2209 3.25856E+01 1.54489E+00 2.17400E-01-2.25980E+00-2.16806E-14-9.78606E-13
 -1      2210 1.33844E+01-6.14831E+00-8.84755E-02 6.30660E+00 9.50351E-14-1.58151E-13
 -1      2211 3.16466E+01-2.78703E+00 1.50969E-01-2.41848E+00-1.88738E-15 2.21156E-13
 -1      2212 2.01231E+01 2.64747E-01 1.56697E-03-3.39190E-01-9.03314E-15-1.00288E-13
 -1      2213 1.95642E+01 3.51653E+00-1.11257E-02-5.91781E-01 9.00617E-14-2.00928E-13
 -1      2214 1.95993E+01 3.47041E+00-1.05175E-02-7.76354E-01 7.04189E-14-2.25596E-13
 -1      2215 1.96457E+01 3.38177E+00-1.28009E-02-9.40759E-01 5.43548E-14-2.32207E-13
 -1      2216 1.97060E+01 3.30107E+00-1.27770E-02-1.13077E+00 2.69435E-14-2.41498E-13
 -1      2217 1.97906E+01 3.03385E+00 3.16821E-04-7.92303E-01 6.06550E-14-2.08493E-13
 -1      2218 1.95174E+01 3.59934E+00-9.63115E-03 9.95708E-02 1.60012E-13-1.41418E-13
 -1      2219 1.95167E+01 3.60015E+00-9.63659E-03-8.00311E-02 1.42031E-13-1.61295E-13
 -1      2220 1.95432E+01 3.55988E+00-9.73345E-03 4.45865E-01 1.83638E-13-9.68930E-14
 -1      2221 1.95259E+01 3.58249E+00-1.01518E-02 2.64915E-01 1.66982E-13-1.19351E-13
 -1      2222 1.96836E+01 3.22233E+00-8.88868E-04 1.69760E-01 1.48525E-13-1.19829E-13
 -1      2223 1.96043E+01 3.46318E+00-1.06295E-02 7.90096E-01 2.18395E-13-6.30312E-14
 -1      2224 1.95684E+01 3.51029E+00-1.12253E-02 6.08528E-01 1.98274E-13-9.28268E-14
 -1      2225 1.97200E+01 3.15873E+00-4.91937E-04 4.88402E-01 1.81862E-13-8.14375E-14
 -1      2226 1.97140E+01 3.28914E+00-1.29572E-02 1.14369E+00 2.45592E-13 3.14332E-14
 -1      2227 1.96519E+01 3.37265E+00-1.29000E-02 9.54261E-01 2.28247E-13-2.25705E-14
 -1      2228 1.97962E+01 3.02494E+00 2.76609E-04 8.04272E-01 2.11966E-13-2.90657E-14
 -1      2229 1.98920E+01 3.00317E+00-1.81534E-02 1.49092E+00 2.44498E-13 9.96486E-14
 -1      2230 1.97930E+01 3.14436E+00-1.52695E-02 1.30057E+00 2.37825E-13 6.17796E-14
 -1      2231 1.99245E+01 2.79952E+00 2.03156E-03 1.11055E+00 2.35017E-13 4.74698E-14
 -1      2232 2.01665E+01 2.53718E+00-2.87196E-02 1.78758E+00 2.17227E-13 2.17177E-13
 -1      2233 2.00147E+01 2.78350E+00-1.80952E-02 1.62308E+00 2.29389E-13 1.47471E-13
 -1      2234 2.01180E+01 2.44810E+00 5.83651E-03 1.37878E+00 2.10868E-13 1.22574E-13
 -1      2235 2.05817E+01 1.79488E+00-2.65793E-02 1.89198E+00 1.73528E-13 3.91652E-13
 -1      2236 2.03618E+01 2.22505E+00-1.08042E-02 1.85430E+00 1.95882E-13 2.83646E-13
 -1      2237 2.03867E+01 1.91181E+00 1.40456E-02 1.53347E+00 1.78409E-13 2.36505E-13
 -1      2238 2.07874E+01 1.06702E+00-1.78360E-02 1.59182E+00 1.40259E-13 5.42769E-13
 -1      2239 2.06746E+01 1.53572E+00 8.86518E-04 1.79311E+00 1.60129E-13 4.58588E-13
 -1      2240 2.05008E+01 1.27990E+00 4.43911E-04 1.42180E+00 1.41994E-13 3.79202E-13
 -1      2241 2.04447E+01 7.43446E-01-1.85736E-03 1.11268E+00 1.03377E-13 5.04297E-13
 -1      2242 2.03987E+01 8.55681E-01 1.35274E-02-1.00072E+00-1.04508E-13-1.43880E-13
 -1      2243 2.01862E+01 6.27083E-01-4.67015E-03-6.92825E-01-8.84917E-14-1.45030E-13
 -1      2244 1.86547E+01-5.20716E+00-1.67251E-02 7.28885E+00-8.40994E-14-3.61374E-13
 -1      2245 1.47833E+01-5.22059E+00 4.42633E-02 7.35674E+00-1.98730E-14-4.13863E-13
 -1      2246 2.60352E+01-3.86975E+00-5.66107E-02 4.89517E+00 2.06890E-13-6.61166E-13
 -1      2247 2.26346E+01-4.89877E+00 1.98279E-02 5.80091E+00 7.31359E-14-3.56132E-13
 -1      2248 2.01212E+01 4.70066E-01 1.62069E-02-4.75802E-01-8.71464E-14-1.32654E-13
 -1      2249 1.99805E+01 3.44842E-01 1.13575E-04-3.04244E-01-7.36863E-14-1.29681E-13
 -1      2250 2.02432E+01 7.49639E-01-6.80939E-04-6.94897E-01-9.44568E-14-1.63710E-13
 -1      2251 1.99172E+01 2.60035E-01 1.08884E-02-1.66675E-01-6.05802E-14-1.18299E-13
 -1      2252 1.98387E+01 1.88811E-01 7.68352E-04-6.91684E-02-4.97599E-14-1.39883E-13
 -1      2253 2.00789E+01 4.16759E-01-3.65095E-03-3.11084E-01-6.60795E-14-1.41593E-13
 -1      2254 1.97947E+01 1.39601E-01 6.41659E-03 1.33913E-02-3.69299E-14-1.30227E-13
 -1      2255 1.97601E+01 9.76472E-02 7.82737E-04 6.72270E-02-2.18194E-14-1.24660E-13
 -1      2256 1.99586E+01 2.28512E-01-3.64492E-03-7.11882E-02-3.49916E-14-1.20038E-13
 -1      2257 1.97348E+01 6.81764E-02 3.59253E-03 1.13770E-01-1.07028E-14-1.13850E-13
 -1      2258 1.97284E+01 4.32211E-02 7.10932E-04 1.41227E-01-2.29469E-14-1.20837E-13
 -1      2259 1.98839E+01 1.17102E-01-2.97411E-03 7.09630E-02-1.97927E-14-1.12147E-13
 -1      2260 1.97177E+01 2.55955E-02 1.87202E-03 1.64815E-01-3.58218E-14-1.15267E-13
 -1      2261 1.97284E+01 1.11759E-02 6.35641E-04 1.76369E-01-4.75810E-15-9.62719E-14
 -1      2262 1.98459E+01 5.04582E-02-2.19042E-03 1.49546E-01-2.09444E-14-1.11686E-13
 -1      2263 1.97279E+01 1.14687E-03 8.14544E-04 1.85820E-01-3.70819E-15-1.11286E-13
 -1      2264 1.97486E+01-6.37674E-03 5.82597E-04 1.88178E-01-5.22122E-14-1.14616E-13
 -1      2265 1.98344E+01 1.15050E-02-1.52922E-03 1.87843E-01-2.57712E-14-1.45547E-13
 -1      2266 1.97549E+01-1.12785E-02 1.69080E-04 1.89564E-01-9.00724E-14-8.24807E-14
 -1      2267 1.97809E+01-1.40817E-02 5.71174E-04 1.87233E-01-9.83215E-14-8.66719E-14
 -1      2268 1.98408E+01-9.34745E-03-1.04185E-03 2.01825E-01-5.72748E-14-1.26576E-13
 -1      2269 1.97917E+01-1.53680E-02-2.10407E-04 1.84829E-01-7.78763E-14-9.79852E-14
 -1      2270 1.98206E+01-1.47860E-02 6.13832E-04 1.80973E-01-5.31921E-14-9.86077E-14
 -1      2271 1.98589E+01-1.78112E-02-7.12423E-04 2.02634E-01-8.38469E-14-7.72894E-14
 -1      2272 1.98342E+01-1.33897E-02-4.16186E-04 1.77889E-01-3.31452E-14-5.01112E-14
 -1      2273 1.98649E+01-1.02183E-02 7.19842E-04 1.74840E-01-1.42066E-14-2.61839E-14
 -1      2274 1.98847E+01-1.73866E-02-5.09946E-04 1.98250E-01-1.64681E-14-4.53485E-14
 -1      2275 1.98806E+01-6.67681E-03-5.11095E-04 1.73450E-01 1.37727E-14 1.63495E-14
 -1      2276 1.99129E+01-1.32243E-03 8.99129E-04 1.73055E-01 5.48051E-14 5.26571E-14
 -1      2277 1.99156E+01-1.01691E-02-4.04655E-04 1.94593E-01 1.85649E-14 6.99350E-14
 -1      2278 1.99306E+01 4.12983E-03-5.40701E-04 1.75307E-01 1.62126E-14 3.01499E-14
 -1      2279 1.99654E+01 1.15769E-02 1.16500E-03 1.79189E-01 1.95305E-14 2.11251E-14
 -1      2280 1.99508E+01 2.74828E-03-3.71136E-04 1.96321E-01 1.74301E-14 4.51291E-14
 -1      2281 1.99851E+01 1.89672E-02-5.40599E-04 1.86856E-01-9.70410E-15-1.89034E-14
 -1      2282 2.00238E+01 2.87041E-02 1.53599E-03 1.96621E-01-4.99308E-14-4.76000E-14
 -1      2283 1.99902E+01 2.10783E-02-3.87274E-04 2.07422E-01-4.00602E-14 1.85398E-14
 -1      2284 2.00459E+01 3.83199E-02-5.37920E-04 2.11524E-01-6.53205E-14-8.40731E-14
 -1      2285 2.00910E+01 5.08832E-02 2.11011E-03 2.28926E-01-7.31641E-14-7.68202E-14
 -1      2286 2.00344E+01 4.52581E-02-4.33805E-04 2.31690E-01-6.63958E-14-3.83372E-14
 -1      2287 2.01174E+01 6.39443E-02-5.85838E-04 2.54422E-01-4.51845E-14-1.18093E-13
 -1      2288 2.01742E+01 8.09485E-02 2.80728E-03 2.83546E-01-5.85054E-14-9.08155E-14
 -1      2289 2.00859E+01 7.71393E-02-5.79420E-04 2.74553E-01-9.34976E-14-4.30677E-14
 -1      2290 2.02024E+01 9.70299E-02-6.53489E-04 3.20118E-01-4.36800E-14-2.40475E-14
 -1      2291 2.02694E+01 1.18001E-01 3.60969E-03 3.60675E-01-4.69802E-14 1.03705E-14
 -1      2292 2.01449E+01 1.18765E-01-4.96664E-04 3.40327E-01-3.68859E-15-9.32091E-15
 -1      2293 2.03011E+01 1.38834E-01-8.60092E-04 4.12173E-01-5.65297E-14 1.46245E-14
 -1      2294 2.03847E+01 1.65993E-01 4.72561E-03 4.68913E-01 3.16555E-14 1.35637E-14
 -1      2295 2.02106E+01 1.71043E-01-4.15554E-04 4.32628E-01-4.74100E-14 4.34390E-14
 -1      2296 2.04190E+01 1.92803E-01-1.20077E-03 5.39130E-01-1.61592E-14-6.70308E-15
 -1      2297 2.05238E+01 2.27614E-01 6.09022E-03 6.16312E-01-6.44113E-14-1.80554E-14
 -1      2298 2.02843E+01 2.38290E-01-1.95682E-04 5.59527E-01-3.72427E-14-6.83896E-14
 -1      2299 2.05591E+01 2.61554E-01-1.73390E-03 7.09723E-01-7.79233E-14-5.88997E-14
 -1      2300 2.06899E+01 3.05060E-01 7.68237E-03 8.12163E-01-4.01749E-14-9.82925E-14
 -1      2301 2.03644E+01 3.23902E-01 2.47454E-04 7.29132E-01-9.49422E-14-1.03829E-13
 -1      2302 2.07234E+01 3.46328E-01-2.48423E-03 9.33670E-01 8.27333E-15-1.19455E-13
 -1      2303 2.08851E+01 3.97748E-01 9.38511E-03 1.06590E+00 7.54551E-14-1.13209E-13
 -1      2304 2.04472E+01 4.29840E-01 9.81394E-04 9.50467E-01-3.26786E-14-4.72012E-14
 -1      2305 2.09131E+01 4.43684E-01-3.39475E-03 1.22005E+00 7.46534E-14-2.03784E-13
 -1      2306 2.11107E+01 4.97427E-01 1.09315E-02 1.38423E+00-3.39316E-14-1.87588E-13
 -1      2307 2.05264E+01 5.53122E-01 1.98452E-03 1.23236E+00 7.72689E-15-6.28897E-14
 -1      2308 2.11310E+01 5.38544E-01-4.16896E-03 1.57347E+00-5.14168E-14-2.07597E-13
 -1      2309 2.13699E+01 5.78342E-01 1.18881E-02 1.76493E+00-4.18953E-14-2.25887E-13
 -1      2310 2.05947E+01 6.78378E-01 2.96872E-03 1.58111E+00-3.95889E-14-1.50260E-13
 -1      2311 2.13888E+01 5.90935E-01-3.85897E-03 1.98634E+00 5.47481E-14-1.90204E-13
 -1      2312 2.16786E+01 5.79697E-01 1.17637E-02 2.18541E+00 1.89128E-14-5.71570E-14
 -1      2313 2.06509E+01 7.63602E-01 3.07081E-03 1.99622E+00 4.53071E-14-5.04762E-14
 -1      2314 2.17266E+01 5.14673E-01-7.89964E-05 2.42397E+00-3.63719E-14-2.07196E-14
 -1      2315 2.20886E+01 3.81016E-01 9.82537E-03 2.58325E+00-2.26634E-14 9.13184E-14
 -1      2316 2.07178E+01 7.16165E-01 4.17457E-04 2.46306E+00 9.07184E-14-2.77178E-14
 -1      2317 2.22492E+01 1.53492E-01 1.09138E-02 2.79811E+00-4.02162E-14 1.30193E-13
 -1      2318 2.27322E+01-2.08763E-01 7.21311E-03 2.82497E+00 6.47494E-14 7.09376E-14
 -1      2319 2.08814E+01 3.64217E-01-8.90630E-03 2.93790E+00 1.00564E-14-2.91303E-15
 -1      2320 2.31858E+01-7.09637E-01 3.93039E-02 2.92857E+00 9.82825E-14 6.44337E-14
 -1      2321 2.38612E+01-1.41010E+00 1.46604E-03 2.67574E+00 1.32099E-13-2.31217E-14
 -1      2322 2.13554E+01-5.52632E-01-3.00841E-02 3.32566E+00 4.56519E-14 7.50788E-14
 -1      2323 2.49060E+01-2.20217E+00 8.12040E-02 2.43295E+00 3.53884E-14 6.21603E-14
 -1      2324 2.58145E+01-3.06103E+00-6.59032E-03 1.72695E+00-2.15591E-14 2.71987E-14
 -1      2325 2.26003E+01-2.26047E+00-5.24005E-02 3.39053E+00 9.37583E-14 1.31502E-13
 -1      2326 2.75348E+01-3.74428E+00 6.78043E-02 9.17331E-01 7.91225E-14 3.74180E-14
 -1      2327 2.84691E+01-3.95028E+00-3.84375E-02-1.63005E-01 3.37716E-14 2.77986E-13
 -1      2328 2.50864E+01-4.19296E+00-5.57866E-02 2.62280E+00 7.38021E-14 3.64035E-13
 -1      2329 3.07981E+01-3.24859E+00-5.74299E-02-1.85511E+00-2.05290E-13 2.68674E-13
 -1      2330 3.13693E+01-1.43693E+00-7.90134E-02-2.74796E+00-3.21243E-13 3.25517E-13
 -1      2331 3.39009E+01 1.20855E+00-1.38199E-01-2.92184E+00-3.79419E-13 2.90074E-13
 -1      2332 3.42371E+01 4.13334E+00-6.22010E-02-2.29695E+00-5.35461E-13 2.51493E-13
 -1      2333 3.40426E+01 6.01589E+00-1.09295E-01-7.24605E-01-3.99181E-13-2.80054E-14
 -1      2334 3.41218E+01 5.59557E+00-1.97382E-01 1.26028E+00-2.30371E-13-1.39860E-13
 -1      2335 2.90103E+01-3.85242E+00-2.86959E-02 5.14873E-01 2.04600E-13-2.35617E-13
 -1      2336 2.79130E+01-3.82690E+00 7.53826E-02-6.80479E-01 2.19835E-13-3.38264E-13
 -1      2337 2.60210E+01-3.20440E+00-9.11913E-03-1.61969E+00 1.99597E-13-4.64850E-13
 -1      2338 2.50875E+01-2.34072E+00 8.11633E-02-2.36673E+00 1.47930E-13-5.49854E-13
 -1      2339 2.54983E+01-4.39998E+00-6.52585E-02-2.48560E+00 1.24636E-13-2.46060E-13
 -1      2340 2.39854E+01-1.53956E+00 1.05154E-03-2.64939E+00 1.20560E-13-5.70982E-13
 -1      2341 2.32866E+01-8.20639E-01 4.20649E-02-2.93673E+00 9.15613E-14-4.93370E-13
 -1      2342 2.28021E+01-2.40976E+00-5.01343E-02-3.36213E+00 9.97466E-14-5.30152E-13
 -1      2343 2.27855E+01-2.99724E-01 5.75093E-03-2.86549E+00 1.38352E-13-5.91773E-13
 -1      2344 2.22839E+01 9.10714E-02 1.30715E-02-2.85878E+00 1.88054E-13-4.05478E-13
 -1      2345 2.14576E+01-6.78774E-01-2.91162E-02-3.37249E+00 1.43895E-13-4.18754E-13
 -1      2346 2.20981E+01 3.34426E-01 9.32796E-03-2.65459E+00 1.47597E-13-4.17974E-13
 -1      2347 2.17204E+01 4.83269E-01 4.26124E-04-2.50629E+00 1.03530E-13-2.59788E-13
 -1      2348 2.09158E+01 2.93573E-01-9.58290E-03-3.01842E+00 1.98556E-13-4.76747E-13
 -1      2349 2.16578E+01 5.57159E-01 1.12827E-02-2.27329E+00-1.85711E-14-1.79591E-13
 -1      2350 2.13543E+01 5.77026E-01-3.65193E-03-2.07900E+00-7.29863E-14-9.34472E-14
 -1      2351 2.07171E+01 6.78606E-01-4.66384E-04-2.55790E+00 1.05169E-13-2.22269E-13
 -1      2352 2.13259E+01 5.69305E-01 1.17377E-02-1.85952E+00-1.14591E-13-7.94759E-14
 -1      2353 2.10737E+01 5.34721E-01-4.02961E-03-1.66913E+00-9.19831E-14 4.76467E-14
 -1      2354 2.06281E+01 7.45882E-01 2.62961E-03-2.09773E+00-2.68680E-14-4.30750E-14
 -1      2355 2.10462E+01 4.97343E-01 1.09317E-02-1.47920E+00-8.40846E-14-8.87454E-14
 -1      2356 2.08362E+01 4.48414E-01-3.16004E-03-1.31302E+00-8.79305E-14-1.88517E-13
 -1      2357 2.05561E+01 6.73667E-01 2.75307E-03-1.68338E+00-2.15071E-13-7.33139E-14
 -1      2358 2.08019E+01 4.07330E-01 9.40274E-03-1.15523E+00-2.83705E-14-3.06490E-13
 -1      2359 2.06293E+01 3.62707E-01-2.01185E-03-1.01717E+00 8.14758E-14-4.13116E-13
 -1      2360 2.04748E+01 5.61029E-01 1.84306E-03-1.32979E+00-1.35114E-13-1.23822E-13
 -1      2361 2.05896E+01 3.29287E-01 7.63257E-03-8.87588E-01 5.26278E-14-4.06206E-13
 -1      2362 2.04508E+01 2.96555E-01-7.80420E-04-7.73721E-01-9.10981E-14-3.81003E-13
 -1      2363 2.03841E+01 4.55482E-01 8.92337E-04-1.03546E+00 4.28344E-14-3.66655E-13
 -1      2364 2.04087E+01 2.75255E-01 6.19248E-03-6.65104E-01-9.25865E-14-2.31440E-13
 -1      2365 2.03008E+01 2.56673E-01 1.08673E-03-5.68851E-01 3.39558E-14-1.85322E-13
 -1      2366 2.02892E+01 3.76539E-01-4.64610E-05-7.90810E-01-5.49337E-14-4.21224E-13
 -1      2367 2.02496E+01 2.64821E-01 5.08618E-03-4.95903E-01-1.67064E-13-1.05178E-13
 -1      2368 2.01679E+01 2.57021E-01 2.19625E-03-4.08441E-01-1.58679E-13-2.89741E-13
 -1      2369 2.00935E+01 3.52710E-01-3.33021E-03-4.44905E-01 7.32364E-14 1.47885E-13
 -1      2370 2.01825E+01 3.44329E-01-2.83018E-03-5.99273E-01-1.15558E-13-1.84346E-13
 -1      2371 1.96953E+01 6.25534E-02 1.05472E-03-1.07841E-01 5.53640E-14 2.34323E-13
 -1      2372 1.97119E+01 9.26396E-02 5.03772E-03-6.98976E-02 9.18393E-14 2.67436E-13
 -1      2373 1.97477E+01 1.27947E-01 1.32661E-03-7.40234E-03 8.44264E-14 2.85249E-13
 -1      2374 1.98018E+01 1.78746E-01 8.86268E-03 6.40934E-02 8.71831E-14 3.05178E-13
 -1      2375 1.98790E+01 1.56406E-01-3.48193E-03-8.25253E-03 1.03770E-13 2.33389E-13
 -1      2376 1.98599E+01 2.40446E-01 1.74407E-03 1.71781E-01 8.45790E-14 3.07151E-13
 -1      2377 1.99636E+01 3.25308E-01 1.09601E-02 3.01642E-01 8.25780E-14 3.13557E-13
 -1      2378 1.99800E+01 2.93347E-01-4.26841E-03 1.78261E-01 9.99045E-14 2.38325E-13
 -1      2379 1.96845E+01 2.37619E-02 8.40331E-04-1.59300E-01 3.80819E-14 2.01230E-13
 -1      2380 1.96782E+01 4.14394E-02 2.69724E-03-1.41448E-01 2.91359E-14 1.98575E-13
 -1      2381 1.98235E+01 7.51980E-02-2.64605E-03-1.15306E-01 6.41761E-14 1.98430E-13
 -1      2382 1.97003E+01 1.47094E-03 6.84363E-04-1.80770E-01 8.62937E-14 1.87521E-13
 -1      2383 1.96807E+01 1.13304E-02 1.28200E-03-1.74822E-01 6.54626E-14 2.04459E-13
 -1      2384 1.98021E+01 2.70929E-02-1.86439E-03-1.71257E-01 6.14500E-14 1.74559E-13
 -1      2385 1.97321E+01-1.00149E-02 5.86799E-04-1.84802E-01 9.36700E-14 1.72701E-13
 -1      2386 1.97053E+01-5.30795E-03 4.25017E-04-1.85465E-01 8.13584E-14 1.67207E-13
 -1      2387 1.98038E+01-2.13873E-04-1.25672E-03-1.95509E-01 1.10908E-13 1.18424E-13
 -1      2388 1.97731E+01-1.41763E-02 5.47070E-04-1.79923E-01 7.42749E-14 1.63274E-13
 -1      2389 1.97428E+01-1.29680E-02-8.12489E-05-1.83641E-01 1.02252E-13 1.76573E-13
 -1      2390 1.98205E+01-1.38265E-02-8.28354E-04-2.01289E-01 9.97490E-14 1.49446E-13
 -1      2391 1.98190E+01-1.32711E-02 5.60841E-04-1.72035E-01 3.37622E-14 1.66626E-13
 -1      2392 1.97872E+01-1.44796E-02-3.59206E-04-1.76362E-01 5.11156E-14 1.51473E-13
 -1      2393 1.98465E+01-1.81374E-02-5.49125E-04-1.97745E-01 5.77960E-14 1.83199E-13
 -1      2394 1.98678E+01-8.84208E-03 6.20407E-04-1.65265E-01 4.85272E-14 1.40801E-13
 -1      2395 1.98353E+01-1.17225E-02-4.86366E-04-1.68502E-01 5.21531E-14 1.59655E-13
 -1      2396 1.98783E+01-1.60181E-02-3.85214E-04-1.91279E-01 3.57099E-14 1.08244E-13
 -1      2397 1.99191E+01-2.01870E-03 7.14793E-04-1.62473E-01-1.76104E-14 1.52690E-13
 -1      2398 1.98858E+01-6.01750E-03-5.13966E-04-1.63459E-01 2.11478E-14 1.56803E-13
 -1      2399 1.99140E+01-9.45205E-03-3.07805E-04-1.86389E-01 3.29411E-14 1.56400E-13
 -1      2400 1.99734E+01 6.26479E-03 8.28635E-04-1.65551E-01-3.69682E-14 8.33214E-14
 -1      2401 1.99387E+01 1.62073E-03-4.76139E-04-1.63546E-01-5.22668E-14 9.54247E-14
 -1      2402 1.99530E+01 7.65969E-05-2.94153E-04-1.86188E-01 9.57471E-15 1.18604E-13
 -1      2403 2.00320E+01 1.50801E-02 9.39840E-04-1.75531E-01 2.73319E-14 6.85343E-14
 -1      2404 1.99950E+01 1.02828E-02-3.94869E-04-1.70193E-01 1.13650E-14 6.04511E-14
 -1      2405 1.99957E+01 1.12939E-02-3.26675E-04-1.92697E-01-4.72207E-16-5.86297E-15
 -1      2406 2.00965E+01 2.33171E-02 1.01649E-03-1.92551E-01-2.43776E-14-2.71058E-15
 -1      2407 2.00563E+01 1.89781E-02-2.82907E-04-1.83976E-01 7.45793E-15 6.38639E-14
 -1      2408 2.00430E+01 2.28799E-02-3.91862E-04-2.06948E-01 1.36445E-14 9.58681E-15
 -1      2409 2.01689E+01 2.94896E-02 1.01363E-03-2.15651E-01 1.34929E-13 1.45037E-15
 -1      2410 2.01244E+01 2.64437E-02-1.45590E-04-2.04493E-01 5.01703E-14-3.31287E-14
 -1      2411 2.00965E+01 3.32131E-02-4.79297E-04-2.28912E-01 3.94900E-14-7.03968E-14
 -1      2412 2.02508E+01 3.15504E-02 8.71015E-04-2.42420E-01 4.15837E-14 1.00695E-13
 -1      2413 2.02014E+01 3.09510E-02 1.77556E-05-2.30082E-01 9.85550E-14 4.58106E-14
 -1      2414 2.01578E+01 4.01142E-02-5.80743E-04-2.57247E-01 8.57683E-14 4.13061E-15
 -1      2415 2.03432E+01 2.67571E-02 5.13748E-04-2.68513E-01-9.29494E-14 1.77168E-13
 -1      2416 2.02891E+01 3.01377E-02 2.12104E-04-2.57389E-01-3.37326E-14 1.51085E-13
 -1      2417 2.02291E+01 4.06139E-02-6.88999E-04-2.88893E-01-1.72830E-14 1.04381E-13
 -1      2418 2.04461E+01 1.16872E-02-1.41243E-04-2.87113E-01-1.35680E-13 1.56242E-13
 -1      2419 2.03884E+01 2.09290E-02 4.43539E-04-2.80839E-01-1.32851E-13 1.65417E-13
 -1      2420 2.03123E+01 3.08233E-02-7.95639E-04-3.18519E-01-1.11437E-13 1.73457E-13
 -1      2421 2.05578E+01-1.74351E-02-1.16806E-03-2.88506E-01 5.08889E-15 2.53658E-13
 -1      2422 2.04992E+01-3.25520E-04 7.12690E-04-2.92105E-01-1.75588E-14 2.33869E-13
 -1      2423 2.04091E+01 6.05138E-03-8.86223E-04-3.37942E-01-1.07283E-13 1.53999E-13
 -1      2424 2.06744E+01-6.38471E-02-2.59833E-03-2.60068E-01 1.93802E-14 3.49123E-13
 -1      2425 2.06193E+01-3.72918E-02 1.00254E-03-2.79831E-01 1.58310E-14 3.46398E-13
 -1      2426 2.05205E+01-3.85806E-02-9.30863E-04-3.35688E-01-2.86757E-14 2.30560E-13
 -1      2427 2.07884E+01-1.28488E-01-4.36502E-03-1.87217E-01 2.75686E-14 4.14360E-13
 -1      2428 2.07436E+01-9.23862E-02 1.25742E-03-2.30006E-01 5.45290E-14 4.26717E-13
 -1      2429 2.06460E+01-1.06676E-01-8.68721E-04-2.97082E-01 1.54139E-14 4.10112E-13
 -1      2430 2.08883E+01-2.07170E-01-6.22176E-03-5.60332E-02-1.01976E-14 3.33753E-13
 -1      2431 2.08626E+01-1.64516E-01 1.35761E-03-1.27665E-01 2.18817E-14 3.33118E-13
 -1      2432 2.07819E+01-1.97873E-01-5.88785E-04-2.05466E-01 5.94360E-14 4.03817E-13
 -1      2433 2.09573E+01-2.87001E-01-7.66254E-03 1.41587E-01-5.71409E-14 3.41507E-13
 -1      2434 2.09609E+01-2.45798E-01 1.10234E-03 3.92166E-02-5.55827E-14 3.13120E-13
 -1      2435 2.09199E+01-3.03794E-01 7.96345E-05-4.54515E-02-9.66577E-15 3.54473E-13
 -1      2436 2.09737E+01-3.43573E-01-7.91505E-03 3.99896E-01 4.79141E-14 2.58036E-13
 -1      2437 2.10167E+01-3.18053E-01 2.31416E-04 2.72858E-01 4.96172E-14 2.33205E-13
 -1      2438 2.10435E+01-4.03423E-01 1.31507E-03 1.90756E-01 1.56070E-14 2.37653E-13
 -1      2439 2.09140E+01-3.42177E-01-6.08186E-03 6.89650E-01-3.69314E-14 2.06749E-13
 -1      2440 2.10027E+01-3.51406E-01-1.44434E-03 5.56126E-01-2.02694E-14 2.08691E-13
 -1      2441 2.11269E+01-4.60565E-01 3.12926E-03 4.93466E-01 3.02933E-14 2.49895E-13
 -1      2442 2.07604E+01-2.47417E-01-1.63480E-03 9.51198E-01-5.74523E-14 2.06854E-13
 -1      2443 2.08931E+01-3.08913E-01-3.70306E-03 8.43170E-01-3.15796E-14 2.08113E-13
 -1      2444 2.11365E+01-4.28186E-01 5.14752E-03 8.23832E-01 2.27655E-14 6.77601E-14
 -1      2445 2.05142E+01-4.39571E-02 4.70337E-03 1.09841E+00-8.52826E-14 3.73056E-13
 -1      2446 2.06762E+01-1.61559E-01-5.83213E-03 1.05686E+00-1.20124E-13 3.09223E-13
 -1      2447 2.10416E+01-2.64628E-01 6.36609E-03 1.10615E+00-1.47110E-13 2.84887E-13
 -1      2448 2.02117E+01 2.38087E-01 1.06176E-02 1.04349E+00 6.50348E-15 5.04084E-13
 -1      2449 2.03744E+01 8.70226E-02-6.28461E-03 1.10385E+00 6.10396E-14 5.45239E-13
 -1      2450 2.08352E+01 3.51826E-02 4.96850E-03 1.23529E+00-1.37381E-13 4.93908E-13
 -1      2451 1.99293E+01 5.14503E-01 1.30421E-02 7.42805E-01-5.09809E-14 4.25707E-13
 -1      2452 2.00553E+01 3.79531E-01-3.57415E-03 9.13636E-01 1.98483E-14 4.39625E-13
 -1      2453 2.05589E+01 4.12049E-01 3.92915E-04 1.11274E+00 1.76248E-14 5.29945E-13
 -1      2454 1.97618E+01 6.76319E-01 1.03301E-02 2.39757E-01-4.82331E-14 5.35011E-13
 -1      2455 1.98176E+01 6.13441E-01 2.29490E-03 4.88073E-01-1.07684E-13 4.16631E-13
 -1      2456 2.03063E+01 7.43966E-01-5.53463E-03 7.06090E-01-1.05580E-13 4.78004E-13
 -1      2457 1.97765E+01 6.50324E-01 3.94331E-03-3.32273E-01 1.51799E-13 5.82568E-13
 -1      2458 1.97464E+01 6.88770E-01 8.99142E-03-7.42785E-02 4.61627E-14 6.20129E-13
 -1      2459 2.01858E+01 8.97374E-01-8.85790E-03 9.53346E-02-3.06526E-15 4.34357E-13
 -1      2460 1.99710E+01 4.48089E-01-2.52490E-03-8.05260E-01 8.65404E-14 6.63511E-13
 -1      2461 1.98647E+01 5.70182E-01 1.28650E-02-6.10238E-01 1.47026E-13 7.12816E-13
 -1      2462 2.02543E+01 8.03820E-01-6.92341E-03-5.41331E-01 9.58092E-14 5.86690E-13
 -1      2463 2.02722E+01 1.58290E-01-6.15827E-03-1.05803E+00 2.26179E-13 7.83975E-13
 -1      2464 2.01198E+01 3.11666E-01 1.16990E-02-9.69810E-01 2.22222E-13 7.17796E-13
 -1      2465 2.04771E+01 5.04711E-01-1.26646E-03-1.01183E+00 9.22078E-14 7.36069E-13
 -1      2466 2.05792E+01-1.11068E-01-6.42517E-03-1.06404E+00 1.77465E-13 4.96802E-13
 -1      2467 2.04187E+01 1.94985E-02 6.38711E-03-1.08401E+00 2.47877E-13 6.56752E-13
 -1      2468 2.07527E+01 1.23882E-01 3.99492E-03-1.20584E+00 3.40717E-13 6.81656E-13
 -1      2469 2.08132E+01-2.88561E-01-4.59007E-03-8.79493E-01 1.80903E-13 2.51383E-13
 -1      2470 2.06768E+01-2.11181E-01-1.47345E-04-9.77114E-01 2.11169E-13 4.01810E-13
 -1      2471 2.09779E+01-2.06752E-01 6.23555E-03-1.12940E+00 2.97065E-13 4.84254E-13
 -1      2472 2.09404E+01-3.57479E-01-2.19817E-03-5.96614E-01 6.32936E-14 1.39400E-13
 -1      2473 2.08464E+01-3.35554E-01-5.21325E-03-7.30362E-01 1.10655E-13 2.36337E-13
 -1      2474 2.10961E+01-4.09274E-01 5.64999E-03-8.69944E-01 1.52774E-13 3.04350E-13
 -1      2475 2.09650E+01-3.40582E-01-3.07383E-04-2.99705E-01 4.45867E-15-1.53880E-14
 -1      2476 2.09183E+01-3.58970E-01-7.71300E-03-4.34123E-01-2.75908E-15 5.41599E-14
 -1      2477 2.11033E+01-4.73936E-01 3.72052E-03-5.35934E-01 6.85826E-14 3.01722E-13
 -1      2478 2.09110E+01-2.74370E-01 8.09926E-04-4.38993E-02 1.60106E-14-4.47251E-14
 -1      2479 2.09068E+01-3.13678E-01-7.92101E-03-1.56772E-01 4.60860E-14-4.36255E-14
 -1      2480 2.10266E+01-4.35459E-01 1.74667E-03-2.13272E-01 1.67254E-14 3.71899E-13
 -1      2481 2.08068E+01-1.90927E-01 1.29557E-03 1.45939E-01-7.30633E-14-1.40308E-13
 -1      2482 2.08353E+01-2.35630E-01-6.69120E-03 6.40139E-02-5.56202E-14-1.69599E-13
 -1      2483 2.09005E+01-3.41267E-01 3.20741E-04 4.89576E-02 4.96491E-14 2.19904E-13
 -1      2484 2.06766E+01-1.10725E-01 1.42434E-03 2.66488E-01 8.70856E-14-1.28599E-13
 -1      2485 2.07268E+01-1.51700E-01-4.87582E-03 2.16066E-01 2.00388E-14-1.76591E-13
 -1      2486 2.07537E+01-2.30548E-01-5.12726E-04 2.33399E-01 3.35376E-15-1.46835E-13
 -1      2487 2.05385E+01-4.29913E-02 1.44220E-03 3.25805E-01 2.64171E-13-2.00291E-14
 -1      2488 2.06001E+01-7.66787E-02-3.05344E-03 3.02914E-01 2.04297E-13-1.00074E-13
 -1      2489 2.06054E+01-1.27077E-01-9.13747E-04 3.42557E-01 1.02567E-13 4.05060E-14
 -1      2490 2.04046E+01 1.09336E-02 1.50296E-03 3.35749E-01 1.94246E-13 1.45763E-13
 -1      2491 2.04693E+01-1.56155E-02-1.54069E-03 3.35064E-01 2.92490E-13 1.85541E-14
 -1      2492 2.04662E+01-4.07714E-02-1.04346E-03 3.88205E-01 1.87668E-13 9.59740E-14
 -1      2493 2.02823E+01 5.38375E-02 1.63170E-03 3.07518E-01-6.00507E-14 2.17843E-13
 -1      2494 2.03437E+01 3.26548E-02-4.40062E-04 3.24139E-01 1.91436E-13 1.69430E-13
 -1      2495 2.03414E+01 2.77568E-02-1.00785E-03 3.84071E-01 1.55355E-13 2.81531E-13
 -1      2496 2.01760E+01 8.81149E-02 2.21185E-03 2.50780E-01 1.64391E-14-4.90533E-14
 -1      2497 2.02301E+01 7.11899E-02 3.87135E-04 2.79523E-01-5.06916E-14 1.66362E-13
 -1      2498 2.02322E+01 8.22732E-02-8.34118E-04 3.41559E-01 3.30538E-15 4.43905E-13
 -1      2499 2.01114E+01 1.27115E-01 5.71707E-04 2.16234E-01-1.05589E-13-1.26013E-14
 -1      2500 1.99729E+01 4.95027E-01-1.63691E-03 3.52877E-01 2.60915E-13 1.97248E-13
 -1      2501 1.99994E+01 4.34014E-01 1.22236E-03 3.57649E-01 2.30637E-13 1.07504E-14
 -1      2502 2.00233E+01 3.76237E-01-5.86971E-04 3.52272E-01-1.09175E-14 1.43567E-13
 -1      2503 2.00459E+01 3.17127E-01 1.51425E-03 3.39543E-01-6.11185E-14 1.73715E-13
 -1      2504 2.00137E+01 3.68027E-01-5.95267E-04 4.08244E-01 1.10652E-13 2.60440E-13
 -1      2505 2.00651E+01 2.65651E-01 2.12033E-04 3.16978E-01-7.85785E-14 5.18998E-14
 -1      2506 2.00849E+01 2.10817E-01 2.12190E-03 2.91419E-01-7.83138E-14 1.31913E-14
 -1      2507 2.00707E+01 2.61794E-01-6.26567E-04 3.77026E-01 8.44196E-14 8.15156E-14
 -1      2508 4.87733E+00-2.60786E+00 1.05944E-01 4.09255E+00-3.31471E-13 8.19900E-14
 -1      2509 3.10337E+00-2.95262E+00 6.96413E-02 1.81675E+00-2.10609E-13 2.98872E-13
 -1      2510 1.99176E+01 6.12804E-01-2.62429E-03 3.13005E-01 2.28515E-13-7.05804E-14
 -1      2511 1.99465E+01 5.56752E-01 9.34923E-04 3.37539E-01 2.02688E-13 1.58149E-13
 -1      2512 1.99463E+01 4.83768E-01-2.52622E-05 3.98623E-01 1.88948E-13 1.13732E-13
 -1      2513 1.98630E+01 7.16118E-01-3.39836E-03 2.29179E-01-4.72256E-14-5.09196E-16
 -1      2514 1.98906E+01 6.72030E-01 3.95920E-04 2.73956E-01 5.13161E-14-1.18354E-13
 -1      2515 1.98734E+01 6.00617E-01 6.94763E-04 3.42140E-01 9.97428E-14-1.59245E-13
 -1      2516 1.98188E+01 7.90046E-01-3.70865E-03 1.04568E-01-7.52966E-14 2.67503E-13
 -1      2517 1.98398E+01 7.64745E-01-4.05742E-04 1.66806E-01-1.00740E-13 3.17252E-13
 -1      2518 1.98045E+01 7.04696E-01 1.63205E-03 2.35219E-01 4.51882E-14 2.03149E-13
 -1      2519 1.97967E+01 8.20320E-01-3.35464E-03-4.89983E-02 1.04657E-13 1.63910E-13
 -1      2520 1.98048E+01 8.19165E-01-1.41200E-03 2.38395E-02-1.25628E-14 3.12271E-13
 -1      2521 1.97532E+01 7.79727E-01 2.58807E-03 8.32370E-02 1.29103E-13 2.82345E-13
 -1      2522 1.98071E+01 7.97556E-01-2.22008E-03-2.07665E-01 9.78232E-14-5.43792E-15
 -1      2523 1.97974E+01 8.22183E-01-2.50527E-03-1.36399E-01 1.27147E-13-2.15255E-14
 -1      2524 1.97346E+01 8.09658E-01 3.27915E-03-9.63401E-02 1.80808E-13 1.34161E-13
 -1      2525 1.98565E+01 7.17711E-01-6.00439E-04-3.48680E-01 2.13196E-13 8.69368E-14
 -1      2526 1.98264E+01 7.67716E-01-3.38721E-03-2.90065E-01 1.39396E-13-1.29555E-13
 -1      2527 1.97607E+01 7.83566E-01 3.52778E-03-2.78735E-01 1.08970E-13-4.89292E-14
 -1      2528 1.99430E+01 5.85894E-01 5.38773E-04-4.38418E-01 1.61072E-14 1.59253E-13
 -1      2529 1.98957E+01 6.56889E-01-3.64066E-03-4.08347E-01 6.69597E-14 4.56591E-13
 -1      2530 1.98371E+01 6.97457E-01 2.94596E-03-4.32420E-01 1.43830E-14 8.80044E-14
 -1      2531 2.00436E+01 4.34395E-01 1.51391E-03-4.53861E-01 7.83729E-14 1.61349E-13
 -1      2532 1.99877E+01 5.16451E-01-3.26058E-03-4.60845E-01 1.75792E-13-1.21739E-13
 -1      2533 1.99512E+01 5.72569E-01 2.91456E-03-5.19879E-01-2.06042E-13 1.56540E-13
 -1      2534 2.00813E+01 4.31449E-01 4.11608E-03-5.33854E-01 6.43979E-14 3.50521E-14
 -1      2535 2.05447E+01 1.95506E+00-1.37189E-02-1.89686E+00-1.00035E-13-1.81735E-13
 -1      2536 2.04064E+01 1.20901E+00-8.81611E-03-1.29055E+00-1.08795E-13-1.61810E-13
 -1      2537 2.03803E+01 1.38502E+00 9.18048E-03-1.23938E+00-9.28272E-14-1.78503E-13
 -1      2538 2.02935E+01 2.39748E+00 7.02117E-04-1.83709E+00-8.47044E-14-2.04871E-13
 -1      2539 3.05708E+01-6.40255E-01-1.28653E-01 1.70816E+00 2.78161E-13-8.52762E-13
 -1      2540 2.83970E+01-2.41082E+00-2.10648E-02 2.99314E+00 2.52215E-13-7.50455E-13
 -1      2541 3.14007E+00-2.72943E+00 7.99483E-02-2.41492E-02-3.14735E-13 4.77118E-13
 -1      2542 4.38803E+00-2.47004E+00 1.24388E-01-2.25592E+00-3.68663E-13 6.80733E-13
 -1      2543 5.29236E+00-1.16042E+00 1.73494E-01 7.94319E-01-4.04735E-13 4.95159E-13
 -1      2544 6.55038E+00-3.77439E+00 8.09016E-02-4.54296E+00-1.94927E-13 7.18314E-13
 -1      2545 9.55929E+00-4.84213E+00 7.31590E-03-5.95299E+00-8.35998E-14 9.23428E-13
 -1      2546 1.94323E+01-5.28160E+00 5.08150E-02-6.68947E+00-7.26086E-14-4.31526E-13
 -1      2547 2.30876E+01-4.89704E+00-2.39658E-03-5.99009E+00-6.86950E-14-4.97602E-13
 -1      2548 3.34866E+01 4.31532E+00-9.69112E-02-5.43515E-02 5.39624E-13-8.80851E-13
 -1      2549 3.19930E+01 2.33240E+00-5.02737E-02 2.97609E-01 3.68205E-13-7.80098E-13
 -1      2550 1.95240E+01 3.58546E+00-1.01068E-02-2.45383E-01 1.30635E-13-1.69543E-13
 -1      2551 1.95398E+01 3.56469E+00-9.67739E-03-4.26245E-01 1.10220E-13-1.82275E-13
 -1      2552 1.97161E+01 3.16436E+00-5.51948E-04-4.73513E-01 9.62105E-14-1.74496E-13
 -1      2553 1.96822E+01 3.22441E+00-8.98020E-04-1.52007E-01 1.26100E-13-1.53150E-13
 -1      2554 3.32910E+01 7.52981E+00-1.60462E-01-5.68776E-01 5.58997E-13-6.55004E-13
 -1      2555 3.36168E+01 6.29526E+00-6.22747E-02-4.56205E-01 6.26332E-13-7.94670E-13
 -1      2556 3.01717E+01-6.33123E-01-4.83796E-02-1.57074E+00-1.49509E-13-7.00551E-13
 -1      2557 3.15582E+01 1.39149E+00-1.63199E-01-3.63469E-01-1.86962E-13-5.98938E-13
 -1      2558 3.20278E+01 7.60869E+00-1.69125E-01 5.14911E-01 3.02036E-13-4.73677E-13
 -1      2559 3.23212E+01 7.91307E+00-1.45252E-01-4.66046E-02 4.02567E-13-5.50643E-13
 -1      2560 1.71328E+01-5.56191E+00 1.77291E-02 6.27463E+00 2.40308E-13-2.07889E-14
 -1      2561 1.25134E+01-4.82674E+00 7.66367E-02 6.06661E+00 2.49745E-13-3.30291E-15
 -1      2562 2.57457E+01-3.95177E+00-2.85220E-02-4.38873E+00-9.15101E-14-5.98355E-13
 -1      2563 2.85327E+01-2.51202E+00-6.86091E-02-3.31741E+00-1.01169E-13-7.64527E-13
 -1      2564 1.22161E+01-4.38764E+00 1.18209E-01-7.17134E+00-6.54476E-14-5.90319E-13
 -1      2565 1.54798E+01-4.74525E+00 4.01797E-02-7.59688E+00-5.76483E-14-5.04791E-13
 -1      2566 5.08526E+00-3.12117E+00 1.14490E-01-4.44645E+00 9.15934E-16-6.43929E-13
 -1      2567 8.22795E+00-3.54682E+00 6.01330E-02-6.55011E+00 6.75016E-14-7.51732E-13
 -1      2568 1.17727E+01-3.06273E+00 1.56790E-01-6.63170E+00 6.93889E-15-5.67602E-13
 -1      2569 2.70771E+00-2.89655E+00 7.53873E-02 1.35367E-01 1.78208E-13-3.33511E-13
 -1      2570 2.68444E+00-3.13484E+00 2.80839E-03-2.24283E+00 7.34690E-14-4.52693E-13
 -1      2571 2.95994E+01-4.44937E+00-3.05251E-02-1.82285E+00 8.72635E-14 2.03060E-13
 -1      2572 3.22454E+01-3.12128E+00-1.46293E-01-4.65719E-01-8.33500E-14-2.01894E-13
 -1      2573 2.59006E+01-5.79475E+00-4.14262E-02 4.30358E+00-1.93012E-13 6.61499E-13
 -1      2574 2.19972E+01-6.08449E+00 2.53192E-02 5.12687E+00 2.52576E-14 3.19952E-13
 -1      2575 3.27807E+01-2.89864E+00-1.04800E-01-1.54841E-01-2.35117E-13 2.74836E-13
 -1      2576 2.97459E+01-4.08377E+00-1.22118E-02 1.40575E+00-2.10360E-13 3.75977E-13
 -1      2577 3.40954E+01 4.72828E+00-8.06178E-02 2.04146E+00-2.39642E-13-1.67560E-13
 -1      2578 3.39732E+01-3.79646E-01-1.54540E-02 1.43230E+00 5.79536E-14-7.34413E-14
 -1      2579 3.52620E+01 1.91827E+00-7.50666E-02 2.43063E+00-5.48173E-14-5.13478E-14
 -1      2580 2.25199E+01-6.08977E+00-4.39895E-03-4.95394E+00 1.14186E-13 3.65832E-13
 -1      2581 2.66962E+01-5.50388E+00-7.58227E-02-3.95877E+00 1.48437E-13 3.50969E-13
 -1      2582 1.34739E+01-5.63112E+00 2.34936E-02-6.18782E+00 1.01807E-13 8.75522E-13
 -1      2583 1.78683E+01-5.97888E+00-4.89871E-02-6.41816E+00-2.10387E-14 6.36977E-13
 -1      2584 1.12889E+01-4.46253E+00 6.19699E-02 7.41166E+00-2.01617E-13-2.82691E-13
 -1      2585 8.16644E+00-3.57502E+00 1.22428E-01 6.30064E+00-3.30513E-13-3.86913E-14
 -1      2586 1.46377E+01-4.36706E+00 1.05142E-01 7.21828E+00-2.41945E-13-3.69205E-13
 -1      2587 2.01174E+01 1.53303E-01-5.35337E-04 2.75797E-01-1.05923E-13 4.84601E-14
 -1      2588 1.99156E+01 2.81085E+00 1.13958E-03-1.09810E+00 1.09312E-14-2.27724E-13
 -1      2589 1.97821E+01 3.15642E+00-1.61838E-02-1.28795E+00 6.78269E-15-2.53964E-13
 -1      2590 1.98842E+01 3.01290E+00-1.85408E-02-1.47798E+00-2.50414E-14-2.47158E-13
 -1      2591 3.05691E+01 3.56550E-01-1.52916E-02 3.06958E-02 3.34899E-13-8.47711E-13
 -1      2592 2.03273E+01 5.89988E-01 9.13055E-03 8.72581E-01 8.73138E-14 4.54602E-13
 -1      2593 2.03893E+01 8.35883E-01 6.82922E-03 1.04881E+00 1.10011E-13 3.92243E-13
 -1      2594 2.01572E+01 4.88655E-01 7.90074E-03 6.63866E-01 9.47211E-14 4.30005E-13
 -1      2595 2.16889E+01-5.18177E+00 7.08913E-02 6.06547E+00-3.03368E-14-3.23429E-13
 -1      2596 2.01404E+01 1.56557E-01-6.38578E-04 3.33517E-01-6.20717E-14 1.45488E-13
 -1      2597 2.92579E+01-4.45641E+00-8.65086E-02 3.00129E-01-6.01359E-14 2.72948E-13
 -1      2598 3.48666E+01 5.24280E+00-2.09213E-01-1.73914E+00-5.92082E-13 1.77303E-13
 -1      2599 3.36991E+01 2.05478E+00-1.59706E-01 2.97374E+00-1.41526E-13-2.41362E-13
 -1      2600 1.34222E+01-4.39310E+00 1.29669E-01-6.04605E+00-4.34097E-14 7.06074E-13
 -1      2601 7.52218E+00-2.45669E+00 1.53319E-01 5.23973E+00-3.68233E-13 5.49283E-14
 -1      2602 7.29256E+00-1.06421E+00 1.45708E-01 3.91331E+00-5.03188E-13 7.83817E-14
 -1      2603 1.03508E+01-2.20102E+00 1.15356E-01 5.84633E+00-5.09745E-13-3.20577E-14
 -1      2604 2.01184E+01 2.61294E+00-9.99231E-03-1.67732E+00-6.27320E-14-2.28794E-13
 -1      2605 1.88974E+01-4.82153E+00 8.77061E-02-6.62891E+00-1.81910E-13-4.07450E-13
 -1      2606 3.15210E+01 5.04399E+00-3.69821E-02-1.15189E+00 5.36904E-13-6.20975E-13
 -1      2607 1.99987E+01 3.65087E-01 8.26388E-03 3.94535E-01 1.02779E-13 3.30746E-13
 -1      2608 2.00930E+01 4.32959E-01 1.17056E-02 5.37000E-01 9.57220E-14 3.90298E-13
 -1      2609 2.01817E+01 5.65431E-01-3.12331E-03 6.54506E-01 9.88593E-14 3.10633E-13
 -1      2610 2.00820E+01 4.37358E-01-5.40213E-03 4.09271E-01 9.95265E-14 2.58541E-13
 -1      2611 2.14273E+01-5.92755E+00 2.98554E-02-5.26912E+00 9.79494E-14 4.47795E-13
 -1      2612 7.42834E+00-7.89362E-01 1.83683E-01-2.50200E+00-4.09124E-13 6.65301E-13
 -1      2613 6.69774E+00-2.34388E+00 1.47040E-01-3.47320E+00-2.71436E-13 5.76317E-13
 -1      2614 9.27506E+00-2.09946E+00 6.67499E-02-4.58794E+00-2.96208E-13 6.23557E-13
 -1      2615 2.50655E+01-4.76020E+00 1.97540E-02-4.32913E+00-2.93710E-13-4.49946E-13
 -1      2616 2.85801E+01-5.24189E+00 2.79837E-02-1.99652E+00 1.85185E-13 9.28146E-14
 -1      2617 5.91441E+00-1.76956E+00 1.64950E-01-3.55516E+00 1.30215E-13-4.81004E-13
 -1      2618 2.05207E+01-5.65851E+00 9.69096E-02 5.47194E+00 2.07140E-13 1.88158E-13
 -1      2619 1.90886E+01-4.74482E+00 1.11757E-01 5.64079E+00 4.08007E-13 1.33782E-13
 -1      2620 2.32900E+01-5.68023E+00-6.11266E-02 4.37854E+00 1.14603E-13 4.23644E-13
 -1      2621 3.05876E+01 6.70608E+00-1.15646E-01 8.46414E-01 1.84130E-13-3.55938E-13
 -1      2622 1.11396E+01-3.87971E+00 1.12028E-01 5.71205E+00 2.07001E-13 1.32616E-13
 -1      2623 1.00152E+01-2.46970E+00 1.82561E-01 5.00345E+00 2.78347E-13 1.45800E-13
 -1      2624 1.46008E+01-3.64118E+00 1.00065E-01 5.71039E+00 3.93546E-13 5.56777E-14
 -1      2625 3.06860E+01-3.38900E+00-4.34842E-03 1.53606E+00 1.31284E-13-1.37335E-13
 -1      2626 2.88938E+01-4.87601E+00-1.32974E-01-8.56470E-01 1.50290E-13-9.20930E-14
 -1      2627 3.14428E+01 2.64978E+00-3.92348E-02 6.30855E-01-1.96759E-13-4.33459E-13
 -1      2628 2.99918E+01 3.58945E+00-2.35395E-01 1.61404E+00-1.85046E-13-3.37369E-13
 -1      2629 2.97430E+01 9.47846E-01-3.20242E-02 9.05440E-01-2.46234E-13-3.27488E-13
 -1      2630 2.91127E+01-2.06323E+00 2.18787E-02-1.39726E+00-3.00501E-13-5.45841E-13
 -1      2631 2.74652E+01-3.65774E+00 2.65891E-02 3.02646E+00 1.51920E-13-7.74936E-13
 -1      2632 3.42915E+01-2.27693E-01-5.18171E-02-1.61758E+00-3.97654E-13 3.32234E-13
 -1      2633 3.03345E+01 7.36139E+00-1.03553E-01-4.13892E-01 4.67265E-13-3.53807E-13
 -1      2634 4.51681E+00-2.32202E+00 1.35496E-01 1.65720E+00 2.47330E-13-1.36557E-13
 -1      2635 5.15873E+00-1.08798E+00 8.95907E-02 5.29092E-01 2.08104E-13-1.55820E-13
 -1      2636 6.73666E+00-1.60398E+00 1.24408E-01 3.04335E+00 3.12167E-13 6.16729E-14
 -1      2637 3.24619E+01-2.08791E+00-4.75694E-02 1.69041E+00 3.26961E-14-3.48055E-14
 -1      2638 3.22326E+01 4.78052E-01-8.17278E-02 3.54032E+00 5.84255E-14-2.22100E-13
 -1      2639 1.98495E+01 2.76617E+00-6.30782E-03 5.16522E-01 1.84507E-13-5.90231E-14
 -1      2640 1.98249E+01 2.81598E+00-5.71748E-03 3.65609E-01 1.71381E-13-7.76905E-14
 -1      2641 1.98082E+01 2.85354E+00-5.62897E-03 2.30035E-01 1.50800E-13-1.02745E-13
 -1      2642 1.97998E+01 2.87045E+00-5.44700E-03 7.53485E-02 1.37077E-13-1.04542E-13
 -1      2643 1.99546E+01 2.50272E+00 3.64436E-03 2.65402E-01 1.53267E-13-7.69061E-14
 -1      2644 2.00456E+01 2.32430E+00-1.09586E-02 1.04650E+00 2.12580E-13 4.67415E-14
 -1      2645 1.99820E+01 2.47407E+00-6.36572E-03 9.11032E-01 2.21052E-13 2.04047E-14
 -1      2646 2.02064E+01 1.91443E+00-1.65177E-02 1.23521E+00 1.88962E-13 1.21643E-13
 -1      2647 2.01259E+01 2.14710E+00-4.77531E-03 1.13291E+00 1.97675E-13 8.22675E-14
 -1      2648 2.01916E+01 1.89203E+00 7.80174E-03 9.28444E-01 1.78900E-13 5.66324E-14
 -1      2649 2.04406E+01 1.01306E+00 2.22114E-03 1.15546E+00 1.25766E-13 3.43027E-13
 -1      2650 2.03981E+01 1.27486E+00-7.17181E-03 1.26796E+00 1.40459E-13 2.89656E-13
 -1      2651 2.03109E+01 8.46484E-01 6.14439E-03 9.00176E-01 1.17384E-13 3.00442E-13
 -1      2652 2.96807E+01 1.18788E+00-1.92871E-01-1.09321E+00 3.71064E-13-7.61280E-13
 -1      2653 2.90125E+01-1.01905E+00 3.66580E-03-1.29575E-01 2.29053E-13-7.21284E-13
 -1      2654 2.01345E+01 1.78496E-01-5.46075E-05 3.96890E-01 1.18296E-13 1.39238E-14
 -1      2655 2.01801E+01 1.31545E-01 1.60839E-03 3.73366E-01 8.59977E-14 2.11971E-13
 -1      2656 2.02291E+01 9.92075E-02-1.32036E-04 4.03937E-01 1.08816E-13 3.28156E-13
 -1      2657 2.02148E+01 6.27991E-01 7.80681E-03-4.37958E-01-5.63777E-14-1.55547E-13
 -1      2658 2.01322E+01 4.77279E-01-3.04274E-03-2.78440E-01-4.24158E-14-1.44313E-13
 -1      2659 2.01063E+01 3.64220E-01 6.61511E-03-1.58304E-01-3.32501E-14-1.15465E-13
 -1      2660 2.00477E+01 2.70165E-01-1.68714E-03-5.99271E-02-1.84330E-14-1.18860E-13
 -1      2661 2.01966E+01 5.30594E-01-1.54568E-03-2.61663E-01-2.63703E-14-1.05034E-13
 -1      2662 2.00220E+01 2.00635E-01 4.52359E-03 1.63274E-02-7.08198E-15-1.05786E-13
 -1      2663 1.99870E+01 1.42022E-01-7.51665E-04 7.40123E-02-4.81115E-16-1.00993E-13
 -1      2664 2.01282E+01 3.02179E-01-2.10660E-03-5.35351E-02-8.10310E-15-9.57870E-14
 -1      2665 1.99666E+01 9.89242E-02 2.87734E-03 1.18860E-01-7.70130E-15-1.06937E-13
 -1      2666 1.99498E+01 6.29813E-02-1.77502E-04 1.50021E-01-2.21716E-14-1.18293E-13
 -1      2667 2.00729E+01 1.58272E-01-1.94143E-03 7.63292E-02-7.70564E-15-1.03702E-13
 -1      2668 1.99356E+01 3.69888E-02 1.69917E-03 1.73737E-01-2.30235E-14-1.11895E-13
 -1      2669 1.99316E+01 1.60893E-02 1.69144E-04 1.88210E-01-2.91026E-14-1.06998E-13
 -1      2670 2.00334E+01 6.91376E-02-1.57920E-03 1.51255E-01-3.04465E-14-1.14140E-13
 -1      2671 1.99229E+01 1.62698E-03 8.75302E-04 1.98569E-01-1.05964E-14-6.23564E-14
 -1      2672 1.99276E+01-8.94149E-03 3.90147E-04 2.03237E-01-1.10731E-14-2.53522E-14
 -1      2673 2.00083E+01 1.66156E-02-1.21301E-03 1.89802E-01 6.18923E-15-4.63938E-14
 -1      2674 1.99232E+01-1.53494E-02 3.09419E-04 2.06001E-01-4.27000E-14-2.47340E-15
 -1      2675 1.99336E+01-1.85801E-02 5.50333E-04 2.05769E-01-3.84354E-14 2.23748E-14
 -1      2676 1.99946E+01-1.06718E-02-9.08399E-04 2.06019E-01-4.34542E-15 8.89000E-14
 -1      2677 1.99325E+01-1.91443E-02-7.57707E-05 2.05210E-01-1.95145E-14 4.46720E-14
 -1      2678 1.99468E+01-1.69316E-02 6.90470E-04 2.03662E-01 1.89576E-14 5.09299E-14
 -1      2679 1.99897E+01-1.99934E-02-6.75472E-04 2.10376E-01 7.63420E-15 1.31239E-13
 -1      2680 1.99481E+01-1.30244E-02-3.41812E-04 2.02999E-01 1.29599E-15 6.44902E-14
 -1      2681 1.99652E+01-6.49386E-03 8.37442E-04 2.02867E-01 1.03994E-14 2.06393E-14
 -1      2682 1.99912E+01-1.59777E-02-5.04537E-04 2.10708E-01 9.05924E-15 7.13963E-14
 -1      2683 1.99682E+01 1.12500E-03-5.38594E-04 2.04621E-01-7.60848E-15 1.54562E-14
 -1      2684 1.99879E+01 1.14377E-02 1.01081E-03 2.08126E-01-1.09418E-14 8.67948E-15
 -1      2685 1.99974E+01-1.40477E-03-3.78875E-04 2.13017E-01-3.48905E-14-3.03847E-14
 -1      2686 1.99919E+01 2.25009E-02-7.08626E-04 2.14401E-01-2.97189E-14 3.52586E-15
 -1      2687 2.00143E+01 3.65588E-02 1.22733E-03 2.23519E-01-3.87798E-14-3.59920E-15
 -1      2688 2.00069E+01 2.23567E-02-2.78183E-04 2.22117E-01-5.04901E-15-1.82388E-15
 -1      2689 2.00187E+01 5.12235E-02-8.93590E-04 2.36237E-01-7.35716E-14-3.02888E-14
 -1      2690 2.00444E+01 6.95067E-02 1.56716E-03 2.52895E-01-1.28048E-13-5.12177E-14
 -1      2691 2.00185E+01 5.51237E-02-1.77891E-04 2.42150E-01-7.28425E-14-1.48825E-14
 -1      2692 2.00485E+01 8.94371E-02-1.13979E-03 2.75120E-01-6.89905E-14-1.73399E-14
 -1      2693 2.00792E+01 1.14003E-01 1.92885E-03 3.03286E-01-1.46659E-14 2.67514E-15
 -1      2694 2.00311E+01 9.87845E-02-1.42045E-04 2.78189E-01-7.01926E-14 2.26083E-14
 -1      2695 2.00808E+01 1.38301E-01-1.45616E-03 3.35352E-01-2.59363E-14 5.66725E-14
 -1      2696 2.01146E+01 1.68224E-01 2.27398E-03 3.74590E-01-4.24075E-14 5.38779E-14
 -1      2697 2.00424E+01 1.55206E-01 1.67768E-04 3.33840E-01-9.87472E-15 6.97380E-14
 -1      2698 2.01122E+01 1.99262E-01-1.92345E-03 4.19515E-01-5.87611E-14 4.51200E-15
 -1      2699 2.01506E+01 2.37345E-01 2.77314E-03 4.73998E-01-6.11852E-14 1.89651E-14
 -1      2700 2.00487E+01 2.25078E-01 5.13597E-04 4.11713E-01-6.15895E-14 9.73348E-15
 -1      2701 2.01406E+01 2.76814E-01-2.58465E-03 5.34499E-01-6.89236E-14-1.66975E-14
 -1      2702 2.01832E+01 3.25046E-01 3.33881E-03 6.07693E-01-7.45643E-14-8.40430E-14
 -1      2703 2.00454E+01 3.13592E-01 1.07300E-03 5.17546E-01-8.62290E-14-9.32218E-15
 -1      2704 2.01603E+01 3.74741E-01-3.50157E-03 6.86845E-01-8.00247E-14-8.54921E-14
 -1      2705 2.02059E+01 4.34881E-01 3.95398E-03 7.82637E-01-8.92724E-14-4.02188E-14
 -1      2706 2.00243E+01 4.24998E-01 1.94820E-03 6.56545E-01-7.11341E-14-1.20483E-14
 -1      2707 2.01624E+01 4.95891E-01-4.72770E-03 8.83853E-01-7.16293E-14-1.00820E-15
 -1      2708 2.02083E+01 5.68314E-01 4.59885E-03 1.00620E+00 7.72787E-15 4.03491E-14
 -1      2709 1.99735E+01 5.62836E-01 3.25276E-03 8.34296E-01-4.44296E-14 4.01150E-14
 -1      2710 2.01342E+01 6.39324E-01-6.28459E-03 1.13317E+00-1.54796E-14-2.54686E-14
 -1      2711 2.01767E+01 7.20562E-01 5.29802E-03 1.28531E+00-9.00983E-14-8.28415E-14
 -1      2712 1.98757E+01 7.27295E-01 5.07263E-03 1.05660E+00-6.33055E-14-7.68808E-15
 -1      2713 2.00600E+01 7.94358E-01-8.10258E-03 1.44216E+00-2.55936E-14-6.06749E-14
 -1      2714 2.00966E+01 8.72267E-01 6.25648E-03 1.62527E+00-4.34288E-14-6.51018E-14
 -1      2715 1.97090E+01 9.09804E-01 7.37820E-03 1.32960E+00-4.21927E-14-8.00007E-14
 -1      2716 1.99263E+01 9.29150E-01-9.84969E-03 1.81735E+00 2.40272E-14 1.55881E-14
 -1      2717 1.99619E+01 9.74324E-01 8.30559E-03 2.02864E+00 9.65549E-14 5.42519E-15
 -1      2718 1.94489E+01 1.08285E+00 9.87278E-03 1.66117E+00 4.55068E-14-4.45614E-14
 -1      2719 1.97366E+01 9.71011E-01-1.01614E-02 2.26514E+00 6.19282E-14-1.95087E-14
 -1      2720 1.97995E+01 9.22873E-01 1.40605E-02 2.49492E+00 4.53433E-14-6.29275E-14
 -1      2721 1.90775E+01 1.18233E+00 1.19941E-02 2.06570E+00 3.87162E-14 5.94275E-14
 -1      2722 1.95474E+01 7.76311E-01-4.76416E-03 2.79320E+00 1.05486E-13-1.30464E-14
 -1      2723 1.97102E+01 5.18305E-01 2.31707E-02 3.02222E+00 8.18386E-14 4.32965E-14
 -1      2724 1.86053E+01 1.07866E+00 1.30739E-02 2.57493E+00 9.92487E-14 9.25041E-15
 -1      2725 1.95386E+01 1.23067E-01 1.96487E-02 3.38455E+00 3.44980E-14 5.45380E-14
 -1      2726 1.99635E+01-5.05947E-01 5.11407E-02 3.58765E+00 1.00192E-13 1.22787E-13
 -1      2727 1.81347E+01 5.28672E-01 1.10771E-02 3.24698E+00 1.04410E-13-1.34788E-15
 -1      2728 2.00835E+01-1.34955E+00 7.23837E-02 3.98790E+00 1.75245E-13 2.03528E-13
 -1      2729 2.09302E+01-2.53352E+00 5.88023E-02 4.05323E+00 2.15460E-13 2.36020E-13
 -1      2730 1.78950E+01-8.44374E-01-4.24404E-02 4.14096E+00 1.02933E-13 1.68435E-13
 -1      2731 2.29578E+01-3.92006E+00 1.37857E-01 3.94693E+00 1.71314E-13 3.49859E-13
 -1      2732 2.45366E+01-5.07561E+00 4.79856E-02 3.49794E+00 1.25816E-13 4.51008E-13
 -1      2733 3.16065E+01-1.70581E+00-6.74818E-02 2.29313E+00-3.93088E-14-1.14131E-13
 -1      2734 2.03191E+01 1.70984E+00-9.82502E-03-1.33288E+00-8.00523E-14-1.97842E-13
 -1      2735 2.02864E+01 1.32837E+00-7.03861E-03-1.03572E+00-8.05475E-14-1.82848E-13
 -1      2736 2.12550E+01-2.72402E+00 6.97742E-02-4.04341E+00 1.10183E-13-9.69363E-14
 -1      2737 2.03123E+01-1.55672E+00 7.73322E-02-4.04967E+00 7.41976E-14-1.60073E-13
 -1      2738 2.00790E+01-6.75571E-01 4.62234E-02-3.65683E+00 4.60482E-14-2.24598E-13
 -1      2739 1.96187E+01-4.49339E-03 1.85061E-02-3.48540E+00 2.10530E-13-2.89655E-13
 -1      2740 1.80705E+01-1.02946E+00-6.80309E-03-4.23533E+00 2.42549E-14 3.40838E-14
 -1      2741 1.97682E+01 4.34381E-01 2.59394E-02-3.11477E+00 2.47316E-13-3.63395E-13
 -1      2742 1.95808E+01 7.11146E-01-4.10485E-03-2.89488E+00 5.38922E-14-3.65216E-13
 -1      2743 1.81973E+01 4.14210E-01 7.28586E-03-3.35714E+00 1.02605E-13-2.17742E-13
 -1      2744 1.98161E+01 8.73587E-01 1.35436E-02-2.59962E+00 1.58840E-13-3.73257E-13
 -1      2745 1.97409E+01 9.36980E-01-9.62615E-03-2.37341E+00 1.65340E-13-2.65713E-13
 -1      2746 1.86348E+01 1.00899E+00 1.07017E-02-2.69417E+00 1.60888E-13-3.74348E-13
 -1      2747 1.99595E+01 9.49884E-01 8.48465E-03-2.13616E+00 2.89734E-14-1.94880E-13
 -1      2748 1.99150E+01 9.13580E-01-9.45360E-03-1.92593E+00-5.53669E-14-1.36523E-13
 -1      2749 1.90866E+01 1.14672E+00 1.09299E-02-2.18274E+00 1.71179E-13-2.98149E-13
 -1      2750 2.00828E+01 8.63100E-01 6.42014E-03-1.73223E+00-1.89614E-13-2.72763E-14
 -1      2751 2.00395E+01 7.92406E-01-7.77458E-03-1.54782E+00-1.81112E-13-8.99159E-14
 -1      2752 1.94515E+01 1.06723E+00 9.35230E-03-1.77444E+00-3.04214E-14-3.09330E-13
 -1      2753 2.01551E+01 7.25561E-01 5.35033E-03-1.38790E+00-1.43249E-13 1.39022E-14
 -1      2754 2.01070E+01 6.53362E-01-5.92439E-03-1.23136E+00 1.14388E-14-1.75465E-14
 -1      2755 1.97097E+01 9.10997E-01 7.06602E-03-1.43756E+00-1.01122E-13-1.20744E-13
 -1      2756 2.01799E+01 5.92486E-01 4.47872E-03-1.09838E+00 8.08511E-15-8.16789E-14
 -1      2757 2.01295E+01 5.33813E-01-4.11234E-03-9.67262E-01-5.71166E-14-1.59821E-13
 -1      2758 1.98754E+01 7.49551E-01 4.76026E-03-1.15469E+00-3.41967E-14-9.69837E-14
 -1      2759 2.01701E+01 4.87959E-01 3.51191E-03-8.54703E-01-7.46379E-14-2.12774E-13
 -1      2760 2.01230E+01 4.50161E-01-1.52096E-03-7.45343E-01-5.91232E-14-1.04908E-13
 -1      2761 1.99708E+01 6.17464E-01 3.12066E-03-9.15437E-01-3.19689E-14-3.44096E-14
 -1      2762 2.01300E+01 4.39737E-01 3.75619E-03-6.77481E-01-1.44018E-13 3.93400E-14
 -1      2763 2.00782E+01 4.33918E-01 3.12176E-04-5.94105E-01-7.33902E-14 9.54425E-14
 -1      2764 2.00009E+01 5.04300E-01-3.44009E-03-6.02537E-01-5.69467E-14 2.60730E-13
 -1      2765 2.00018E+01 5.39988E-01 8.12428E-04-7.35561E-01-4.69678E-14 2.73282E-13
 -1      2766 1.99845E+01 1.92093E-01-9.47182E-04-1.29063E-02 1.02892E-13 1.78514E-13
 -1      2767 2.00323E+01 2.63961E-01 5.91644E-03 6.36072E-02 1.15154E-13 1.96770E-13
 -1      2768 1.99347E+01 9.50117E-02-2.98232E-04-1.16485E-01 6.35723E-14 1.41976E-13
 -1      2769 1.99596E+01 1.39392E-01 3.81343E-03-7.33052E-02 8.79661E-14 1.48833E-13
 -1      2770 2.00738E+01 2.16778E-01-2.24808E-03-1.64566E-02 1.19880E-13 1.00173E-13
 -1      2771 2.00633E+01 3.49483E-01-1.82832E-03 1.62938E-01 1.12220E-13 1.84743E-13
 -1      2772 2.01403E+01 4.62974E-01 7.97458E-03 2.89989E-01 1.02508E-13 1.91488E-13
 -1      2773 2.01414E+01 3.93764E-01-2.26534E-03 1.53962E-01 1.10848E-13 1.30667E-13
 -1      2774 1.99005E+01 2.10380E-03 3.14925E-04-1.97346E-01 1.13656E-13 9.79042E-14
 -1      2775 1.98980E+01 1.69871E-02 1.27557E-03-1.88627E-01 1.06751E-13 1.06307E-13
 -1      2776 1.99048E+01-1.46785E-02 4.60587E-04-2.04612E-01 4.43455E-14 1.72420E-13
 -1      2777 1.98952E+01-7.88142E-03 5.70212E-04-2.03252E-01 6.84073E-14 1.33001E-13
 -1      2778 1.99761E+01 9.70806E-04-1.07546E-03-2.00660E-01 6.13861E-14 1.05473E-13
 -1      2779 1.99176E+01-1.95871E-02 5.67349E-04-2.02901E-01 4.84361E-14 1.47609E-13
 -1      2780 1.99035E+01-1.84186E-02 1.03563E-04-2.04871E-01 5.90652E-14 1.53087E-13
 -1      2781 1.99696E+01-1.72266E-02-7.85243E-04-2.09349E-01 6.73273E-14 1.34346E-13
 -1      2782 1.99364E+01-1.61739E-02 6.59397E-04-1.98620E-01 1.70601E-14 1.10190E-13
 -1      2783 1.99193E+01-1.89487E-02-1.94500E-04-2.01076E-01 2.58582E-14 1.27917E-13
 -1      2784 1.99708E+01-2.15141E-02-5.77112E-04-2.09484E-01 3.57300E-14 1.31972E-13
 -1      2785 1.99596E+01-6.96784E-03 7.48313E-04-1.96338E-01 3.44112E-14 1.04759E-13
 -1      2786 1.99403E+01-1.24709E-02-3.74405E-04-1.97279E-01 1.27589E-14 6.33792E-14
 -1      2787 1.99778E+01-1.60480E-02-4.39191E-04-2.07523E-01 4.55728E-14 4.62585E-14
 -1      2788 1.99867E+01 6.08265E-03 8.36868E-04-1.99245E-01 2.94757E-14 7.90414E-14
 -1      2789 1.99654E+01-1.18994E-03-4.70706E-04-1.97306E-01 3.79184E-14 1.48190E-13
 -1      2790 1.99893E+01-3.83791E-03-3.59381E-04-2.08106E-01 2.44446E-14 1.88099E-15
 -1      2791 2.00178E+01 2.12522E-02 9.20125E-04-2.09414E-01 1.27383E-14 7.53931E-14
 -1      2792 1.99944E+01 1.30924E-02-5.04422E-04-2.03762E-01 6.20509E-14 6.89163E-14
 -1      2793 2.00047E+01 1.27332E-02-3.28243E-04-2.14483E-01 6.62512E-14 5.46925E-14
 -1      2794 2.00538E+01 3.67068E-02 9.84950E-04-2.27888E-01 1.34999E-14-9.35361E-15
 -1      2795 2.00276E+01 2.86382E-02-4.84327E-04-2.18208E-01-4.42297E-15 9.17820E-15
 -1      2796 2.00242E+01 3.14754E-02-3.40678E-04-2.28762E-01 3.88453E-14-2.01042E-14
 -1      2797 2.00960E+01 5.01676E-02 1.00857E-03-2.54587E-01 9.35167E-14 1.43277E-14
 -1      2798 2.00664E+01 4.34405E-02-4.07343E-04-2.41157E-01 2.48147E-14 3.33470E-14
 -1      2799 2.00484E+01 4.99803E-02-3.96962E-04-2.51975E-01 1.44950E-14-1.40362E-14
 -1      2800 2.01461E+01 5.85730E-02 9.56967E-04-2.88042E-01 1.58526E-14 1.05790E-13
 -1      2801 2.01123E+01 5.48845E-02-2.58586E-04-2.71890E-01 6.85557E-14 7.95550E-14
 -1      2802 2.00789E+01 6.52063E-02-5.03349E-04-2.83969E-01 4.27212E-14 1.11816E-13
 -1      2803 2.02066E+01 5.77822E-02 7.83708E-04-3.24955E-01-6.77126E-14 1.69800E-13
 -1      2804 2.01678E+01 5.94214E-02-1.18297E-05-3.08101E-01-5.46486E-15 1.42565E-13
 -1      2805 2.01179E+01 7.30738E-02-6.72434E-04-3.23107E-01-4.71007E-14 1.51371E-13
 -1      2806 2.02803E+01 4.24224E-02 4.30187E-04-3.59619E-01-9.83776E-14 1.59437E-13
 -1      2807 2.02359E+01 5.23247E-02 3.68164E-04-3.45363E-01-1.14609E-13 2.11927E-13
 -1      2808 2.01687E+01 6.81358E-02-9.21923E-04-3.65791E-01-1.03526E-13 1.66280E-13
 -1      2809 2.03707E+01 6.08088E-03-1.70879E-04-3.83286E-01-8.25435E-14 1.54386E-13
 -1      2810 2.03202E+01 2.76734E-02 9.18787E-04-3.76487E-01-4.73836E-14 1.89107E-13
 -1      2811 2.02360E+01 4.34757E-02-1.26972E-03-4.05827E-01-1.04574E-13 1.92989E-13
 -1      2812 2.04812E+01-5.78287E-02-1.08495E-03-3.83653E-01-7.19713E-14 1.87896E-13
 -1      2813 2.04249E+01-2.11791E-02 1.66383E-03-3.90873E-01-7.98811E-14 1.29803E-13
 -1      2814 2.03259E+01-8.89582E-03-1.72191E-03-4.33685E-01-9.06538E-14 1.85140E-13
 -1      2815 2.06145E+01-1.54047E-01-2.35239E-03-3.44843E-01-4.46854E-14 2.57590E-13
 -1      2816 2.05539E+01-1.00246E-01 2.58462E-03-3.74122E-01-7.84584E-14 1.34678E-13
 -1      2817 2.04454E+01-9.67011E-02-2.24802E-03-4.35853E-01-8.90751E-14 2.31730E-14
 -1      2818 2.07712E+01-2.81753E-01-3.93736E-03-2.48472E-01 1.31658E-13 2.03149E-13
 -1      2819 2.07092E+01-2.12139E-01 3.56760E-03-3.08404E-01 1.10073E-13 2.32616E-13
 -1      2820 2.06019E+01-2.24498E-01-2.73941E-03-3.94608E-01 3.19557E-14-1.84288E-14
 -1      2821 2.09460E+01-4.28877E-01-5.62406E-03-7.68500E-02 3.97962E-14 1.55954E-13
 -1      2822 2.08884E+01-3.51398E-01 4.34144E-03-1.74417E-01 2.15347E-14 2.28953E-13
 -1      2823 2.07997E+01-3.88576E-01-2.95126E-03-2.88935E-01 1.11498E-13 3.13048E-14
 -1      2824 2.11240E+01-5.65329E-01-6.88053E-03 1.80301E-01-2.82391E-14 1.52138E-13
 -1      2825 2.10802E+01-4.98066E-01 4.42403E-03 4.36517E-02 4.75249E-14 1.63876E-13
 -1      2826 2.10360E+01-5.69469E-01-2.45230E-03-9.79301E-02 8.18825E-15 6.81237E-14
 -1      2827 2.12766E+01-6.38791E-01-6.80708E-03 5.14376E-01 9.39190E-14 1.73183E-13
 -1      2828 2.12589E+01-6.11484E-01 3.12636E-03 3.48525E-01 4.04131E-14 2.09554E-13
 -1      2829 2.12928E+01-7.23735E-01-7.15280E-04 1.91169E-01 3.99527E-14 1.30786E-13
 -1      2830 2.13620E+01-5.80339E-01-4.19707E-03 8.82967E-01-9.99569E-15 2.12968E-13
 -1      2831 2.13829E+01-6.29755E-01-1.52996E-04 7.15252E-01 6.14942E-14 1.85529E-13
 -1      2832 2.15306E+01-7.80892E-01 2.45310E-03 5.68281E-01 5.51275E-14 6.42823E-14
 -1      2833 2.13368E+01-3.28528E-01 1.73669E-03 1.19831E+00-2.23240E-13 3.28642E-13
 -1      2834 2.14025E+01-4.83139E-01-4.96069E-03 1.07606E+00-1.14043E-13 2.70742E-13
 -1      2835 2.16890E+01-6.55563E-01 6.55127E-03 9.80981E-01-9.34649E-14 1.70165E-13
 -1      2836 2.11811E+01 1.22624E-01 9.23287E-03 1.33224E+00-8.44651E-14 3.73560E-13
 -1      2837 2.12819E+01-1.29677E-01-1.01927E-02 1.31458E+00-1.92278E-13 3.30865E-13
 -1      2838 2.17035E+01-2.81564E-01 1.00354E-02 1.31915E+00-1.99263E-13 2.25503E-13
 -1      2839 2.09333E+01 6.72873E-01 1.41808E-02 1.16313E+00-3.32744E-14 4.40306E-13
 -1      2840 2.10408E+01 3.89357E-01-1.24224E-02 1.29401E+00 2.03436E-14 4.11377E-13
 -1      2841 2.15477E+01 3.14717E-01 7.99053E-03 1.42442E+00-7.48842E-14 2.15883E-13
 -1      2842 2.06992E+01 1.12243E+00 1.23961E-02 6.58261E-01-4.58977E-14 3.85776E-13
 -1      2843 2.07740E+01 9.19220E-01-8.47331E-03 9.31440E-01 6.68530E-15 4.39480E-13
 -1      2844 2.12858E+01 9.75939E-01 5.60707E-04 1.16153E+00 1.66262E-16 2.77949E-13
 -1      2845 2.06060E+01 1.26534E+00 3.60836E-03-6.33474E-02-1.34220E-14 3.19774E-13
 -1      2846 2.06166E+01 1.23957E+00 9.33922E-04 2.78844E-01-1.17396E-13 2.47981E-13
 -1      2847 2.10673E+01 1.44602E+00-7.09938E-03 5.25768E-01 3.89220E-15 2.83993E-13
 -1      2848 2.07128E+01 1.02856E+00-6.84352E-03-7.62299E-01 1.68553E-14 4.52683E-13
 -1      2849 2.06552E+01 1.19397E+00 1.04791E-02-4.62182E-01 7.71200E-14 4.05102E-13
 -1      2850 2.10365E+01 1.50502E+00-8.63883E-03-2.95995E-01-3.86867E-14 3.12382E-13
 -1      2851 2.09605E+01 5.28821E-01-1.24880E-02-1.20988E+00 1.35454E-13 6.32483E-13
 -1      2852 2.08603E+01 8.04568E-01 1.42555E-02-1.04000E+00 9.10890E-14 6.26205E-13
 -1      2853 2.12144E+01 1.12303E+00-2.33260E-03-1.00461E+00-1.17419E-14 4.70185E-13
 -1      2854 2.12166E+01-1.49378E-02-1.16295E-02-1.31187E+00 3.21291E-13 6.29682E-13
 -1      2855 2.11134E+01 2.55744E-01 1.07538E-02-1.29572E+00 2.41976E-13 6.16784E-13
 -1      2856 2.14798E+01 4.81848E-01 5.97829E-03-1.36887E+00 2.03061E-13 4.83901E-13
 -1      2857 2.13695E+01-4.22900E-01-6.88644E-03-1.12278E+00 2.31009E-13 5.50231E-13
 -1      2858 2.12964E+01-2.38478E-01 3.47134E-03-1.22639E+00 3.14245E-13 6.32587E-13
 -1      2859 2.16718E+01-1.56224E-01 9.29046E-03-1.34544E+00 3.16148E-13 6.39835E-13
 -1      2860 2.13803E+01-6.24058E-01-1.44113E-03-7.73989E-01 1.45689E-13 5.14907E-13
 -1      2861 2.13515E+01-5.47897E-01-2.95531E-03-9.38724E-01 2.37887E-13 5.15840E-13
 -1      2862 2.17009E+01-5.98018E-01 7.51539E-03-1.04591E+00 2.25242E-13 5.94197E-13
 -1      2863 2.12731E+01-6.43400E-01 2.35851E-03-3.92235E-01 1.33661E-14 5.51476E-13
 -1      2864 2.12861E+01-6.53922E-01-6.37339E-03-5.65889E-01 7.96009E-14 5.52950E-13
 -1      2865 2.15723E+01-7.86918E-01 3.51693E-03-6.31664E-01 7.34954E-14 6.62200E-13
 -1      2866 2.10977E+01-5.47418E-01 4.15653E-03-5.96320E-02 1.56111E-13 4.40886E-13
 -1      2867 2.11408E+01-6.08104E-01-7.01659E-03-2.09085E-01 3.24275E-14 5.24689E-13
 -1      2868 2.13454E+01-7.69789E-01-8.69494E-05-2.29672E-01 2.73933E-14 4.76435E-13
 -1      2869 2.08996E+01-4.01822E-01 4.42803E-03 1.88158E-01 7.11814E-14 2.88153E-13
 -1      2870 2.09597E+01-4.80539E-01-6.00257E-03 7.72572E-02 1.52737E-13 4.36759E-13
 -1      2871 2.10854E+01-6.31451E-01-2.20372E-03 9.22860E-02 1.67962E-13 4.18573E-13
 -1      2872 2.07088E+01-2.52066E-01 3.85935E-03 3.47046E-01 9.04329E-14 1.07182E-13
 -1      2873 2.07754E+01-3.28313E-01-4.39224E-03 2.76313E-01 1.13963E-13 2.48978E-13
 -1      2874 2.08381E+01-4.47861E-01-2.97330E-03 3.14390E-01 1.48522E-13 6.45202E-13
 -1      2875 2.05399E+01-1.21254E-01 3.09420E-03 4.28735E-01 5.61155E-14 2.18116E-13
 -1      2876 2.06061E+01-1.85737E-01-2.83092E-03 3.93237E-01-5.31408E-15 1.46591E-13
 -1      2877 2.06263E+01-2.68097E-01-2.91250E-03 4.43938E-01-3.53958E-15 3.96371E-13
 -1      2878 2.03980E+01-1.66319E-02 2.60927E-03 4.49161E-01 2.72693E-13 2.23794E-13
 -1      2879 2.04587E+01-6.74728E-02-1.68922E-03 4.41829E-01 1.96911E-13 2.27211E-13
 -1      2880 2.04546E+01-1.14987E-01-2.67123E-03 4.98688E-01 9.29797E-14 3.62612E-13
 -1      2881 2.02791E+01 6.43888E-02 2.00255E-03 4.27846E-01 7.17948E-14 2.84394E-13
 -1      2882 2.03333E+01 2.47164E-02-8.71276E-04 4.42154E-01 2.48235E-13 1.36690E-13
 -1      2883 2.03199E+01 5.57530E-03-2.20594E-03 5.01002E-01 2.53615E-13 2.79699E-13
 -1      2884 2.02148E+01 1.00122E-01-2.07042E-03 4.65907E-01 1.04150E-13 1.56959E-13
 -1      2885 2.00009E+01 3.55610E-01-1.56799E-03 4.57784E-01 1.59621E-13 2.27246E-13
 -1      2886 2.00438E+01 3.03570E-01 1.86426E-03 4.53403E-01 4.84809E-14 4.50437E-13
 -1      2887 1.98079E+01 5.86023E-01-3.16050E-03 3.73345E-01 1.31044E-13-2.02053E-13
 -1      2888 1.98600E+01 5.35884E-01 2.00744E-03 4.15030E-01 1.77032E-13-1.99067E-13
 -1      2889 2.01031E+01 2.26081E-01-6.97612E-04 4.21875E-01 9.27640E-14 1.54172E-13
 -1      2890 1.71692E+01-4.34069E+00 3.22602E-02 6.90894E+00-1.53433E-13-2.84828E-13
 -1      2891 1.41839E+01-3.28468E+00 1.24110E-01 6.66911E+00-3.10307E-13-2.77500E-13
 -1      2892 1.99084E+01 4.69015E-01-2.32001E-03 4.42432E-01 4.25630E-15 8.99712E-14
 -1      2893 1.99579E+01 4.15362E-01 2.00084E-03 4.58484E-01 9.49394E-14 9.56272E-14
 -1      2894 1.99794E+01 3.44016E-01 3.47694E-04 5.07687E-01 3.48366E-14 2.30587E-13
 -1      2895 1.98606E+01 4.63248E-01 3.64892E-04 4.81210E-01-7.20223E-15-3.04936E-14
 -1      2896 1.96482E+01 7.71549E-01-3.51085E-03 6.90577E-02 1.56449E-13 3.44212E-13
 -1      2897 1.96777E+01 7.49010E-01 6.34967E-04 1.57667E-01 8.27141E-14 2.10782E-13
 -1      2898 1.96306E+01 8.04037E-01-2.60324E-03-1.36197E-01 9.62777E-14 1.32859E-14
 -1      2899 1.96328E+01 8.04118E-01-8.79430E-04-3.94352E-02 7.69425E-14 2.88539E-13
 -1      2900 1.95592E+01 7.91314E-01 2.96943E-03 3.57661E-02 6.50455E-14 1.61143E-13
 -1      2901 1.96782E+01 7.77832E-01-9.41935E-04-3.45063E-01 1.22103E-13-9.10310E-15
 -1      2902 1.96452E+01 8.03587E-01-2.59875E-03-2.52496E-01 9.74248E-14 6.02149E-14
 -1      2903 1.95550E+01 8.23834E-01 3.67152E-03-2.00073E-01 2.10534E-14 1.05104E-13
 -1      2904 1.97954E+01 6.86445E-01 1.31421E-04-5.13545E-01-1.08922E-13 5.50040E-14
 -1      2905 1.97291E+01 7.38111E-01-3.71971E-03-4.45976E-01 1.02002E-13-3.25633E-14
 -1      2906 1.96340E+01 7.88441E-01 3.91396E-03-4.30386E-01 1.35536E-13-7.79877E-14
 -1      2907 2.36733E+01-5.17382E+00-7.08762E-02 4.99745E+00-1.13798E-14-3.26204E-13
 -1      2908 2.04066E+01-4.98348E+00 9.43114E-02 6.14153E+00-5.96190E-14-2.01391E-13
 -1      2909 6.93549E+00-1.92890E-01 2.07593E-01 1.85039E+00-5.17884E-13 3.53134E-13
 -1      2910 6.94015E+00-6.91818E-02 1.62327E-01-1.11506E-01-5.78818E-13 6.05849E-13
 -1      2911 2.90870E+01-4.91934E+00-2.26716E-02 1.36147E+00-1.81161E-13 3.88245E-13
 -1      2912 2.40644E+01-4.82278E+00 3.61278E-02-4.34044E+00-3.02286E-13-4.57627E-13
 -1      2913 2.63674E+01-4.30520E+00-5.81252E-02-3.02913E+00-3.17732E-13-5.20861E-13
 -1      2914 2.69599E+01-5.47950E+00 1.07874E-01-2.60299E+00 2.98123E-13 7.45792E-14
 -1      2915 1.97145E+01 6.92777E-01-3.63879E-03 2.46576E-01 1.26362E-13 2.86404E-13
 -1      2916 1.97607E+01 6.53083E-01 1.60407E-03 3.14127E-01 1.94448E-13-4.23730E-14
 -1      2917 1.96275E+01 7.06285E-01 1.71748E-03 2.41296E-01 3.71529E-14 2.13728E-13
 -1      2918 2.43819E+01-5.03085E+00 4.54129E-02-3.48852E+00 1.53821E-13-3.35617E-14
 -1      2919 2.27389E+01-3.83578E+00 1.47591E-01-4.01456E+00 1.02696E-13-1.04014E-14
 -1      2920 1.93390E+01-3.33145E+00-1.69707E-02-4.92863E+00 5.39846E-14 2.39316E-13
 -1      2921 2.29791E+01-5.58567E+00-5.88089E-02-4.57660E+00 1.28175E-13 1.66023E-13
 -1      2922 1.76801E+01-4.07439E+00 9.43325E-02-6.48193E+00-1.89113E-13-3.89619E-13
 -1      2923 2.10117E+01-4.82960E+00 1.05934E-02-5.79880E+00-2.16382E-13-4.18807E-13
 -1      2924 2.03179E+01 1.03623E+00 5.01852E-03-8.34465E-01-7.57957E-14-1.76589E-13
 -1      2925 2.02244E+01 7.99391E-01-5.13141E-03-5.93996E-01-7.94573E-14-1.79350E-13
 -1      2926 2.02623E+01 8.79814E-01 2.24116E-03-5.54659E-01-6.15379E-14-1.45095E-13
 -1      2927 2.02797E+01 1.38665E+00 1.93591E-03-9.20634E-01-7.48013E-14-1.67828E-13
 -1      2928 2.77351E+01-3.12767E+00-1.21042E-02-1.52057E+00-3.01446E-13-3.58713E-13
 -1      2929 2.86705E+01-1.61979E+00-1.42068E-01-1.70681E-01-3.27474E-13-3.27294E-13
 -1      2930 2.68033E+01-3.60374E+00 8.58361E-03-1.63088E+00-3.27982E-13-2.92849E-13
 -1      2931 2.76631E+01-3.48191E+00-1.80072E-01 1.79163E+00 1.69292E-13-7.20035E-13
 -1      2932 2.61657E+01-4.35310E+00 6.43885E-02 3.22838E+00 5.41095E-14-6.43735E-13
 -1      2933 2.94949E+01 5.26114E+00-2.09919E-01-1.52931E+00 4.88498E-13-3.43253E-13
 -1      2934 2.98181E+01 3.62603E+00-9.63004E-02-1.64646E+00 3.79224E-13-4.79783E-13
 -1      2935 1.10367E+01-1.67170E+00 2.30080E-01-5.66926E+00-6.11594E-14-5.84227E-13
 -1      2936 1.39242E+01-2.77745E+00 4.83194E-02-6.43262E+00-1.07220E-13-2.89102E-13
 -1      2937 1.99271E+01 2.59696E+00-7.88416E-03 7.94926E-01 2.20213E-13 4.37801E-16
 -1      2938 1.98838E+01 2.68911E+00-6.15102E-03 6.45914E-01 1.94457E-13-3.20412E-14
 -1      2939 2.00026E+01 2.38989E+00 4.27172E-03 5.17013E-01 1.76646E-13-3.06199E-14
 -1      2940 2.00828E+01 2.19187E+00 5.46274E-03 7.46439E-01 1.94515E-13 1.54891E-14
 -1      2941 2.94680E+01 5.34605E+00-1.33256E-01 1.60274E+00-5.88418E-14-1.41637E-13
 -1      2942 2.81988E+01 6.39561E+00-1.89558E-01 1.09435E+00 8.13793E-14-3.60337E-14
 -1      2943 1.27387E+01-3.02780E+00 1.89684E-01-5.57165E+00-2.29400E-13 6.11067E-13
 -1      2944 1.59785E+01-4.15213E+00 3.07950E-02-6.04282E+00-2.10942E-14 4.81989E-13
 -1      2945 1.98790E+01 2.69787E+00-5.99596E-03-6.35522E-01 6.82218E-14-1.78675E-13
 -1      2946 1.99214E+01 2.60811E+00-7.58129E-03-7.84718E-01 4.29195E-14-1.95761E-13
 -1      2947 1.99087E+01 3.59914E-02 8.66077E-05-1.72144E-01 7.83124E-14 8.73194E-14
 -1      2948 1.99172E+01 6.26838E-02 2.31499E-03-1.50328E-01 6.60326E-14 1.19415E-13
 -1      2949 2.00248E+01 1.06307E-01-1.87863E-03-1.18626E-01 9.08368E-14 8.62428E-14
 -1      2950 1.99934E+01 3.91146E-02-1.45007E-03-1.74500E-01 8.45139E-14 4.27790E-14
 -1      2951 6.32454E+00-5.35558E-01 2.63910E-01-1.88970E+00 1.80599E-13-2.93293E-13
 -1      2952 7.78350E+00-9.50754E-01 5.35836E-02-4.13900E+00 1.28425E-13-4.79783E-13
 -1      2953 2.00857E+01 2.52679E+00-2.11764E-03-1.45862E+00-5.30905E-14-2.18051E-13
 -1      2954 2.79753E+01 6.93023E+00-1.89187E-01-2.79920E-01 3.97071E-13-1.33659E-13
 -1      2955 2.90057E+01 6.52253E+00-1.52119E-01-1.10189E+00 5.95912E-13-2.94577E-13
 -1      2956 2.77531E+01 5.25334E+00-1.15880E-01-1.46525E+00 4.60187E-13-1.42122E-13
 -1      2957 2.64489E+01-5.53125E+00 8.41106E-02 2.82070E+00-7.00828E-15 5.25191E-13
 -1      2958 1.99383E+01 2.54035E+00 3.45361E-03 4.68620E-03 1.17428E-13-1.03554E-13
 -1      2959 1.97992E+01 2.87130E+00-5.49522E-03-6.18295E-02 1.17848E-13-1.30548E-13
 -1      2960 1.98066E+01 2.85663E+00-5.54568E-03-2.16579E-01 1.05825E-13-1.58853E-13
 -1      2961 2.03222E+01 1.60363E+00 1.63181E-03 1.27169E+00 1.61635E-13 2.05218E-13
 -1      2962 2.85211E+01 1.93269E+00-8.20676E-02-1.72544E+00 2.84717E-13-3.59310E-13
 -1      2963 2.01058E+01 2.13428E-01 3.16006E-04 4.76504E-01 1.02283E-13 1.78905E-13
 -1      2964 1.95536E+01-3.34957E+00-1.15765E-03 4.76004E+00 2.88783E-13 2.68563E-13
 -1      2965 2.65235E+01 5.51659E+00-1.09150E-01 1.13682E+00 6.74877E-14-4.55261E-14
 -1      2966 2.73652E+01 6.40718E+00-1.67281E-01 5.03073E-01 1.99257E-13-8.61984E-14
 -1      2967 2.63547E+01 6.01347E+00-1.14141E-01-3.18821E-02 3.34135E-13 3.75949E-14
 -1      2968 1.91963E+01-4.80451E+00 1.60093E-01-5.58295E+00 5.00155E-14 4.18728E-13
 -1      2969 7.31594E+00-1.26415E-01 1.83765E-01-4.22969E-01 1.93925E-13-1.47687E-13
 -1      2970 1.97356E+01 5.89254E-01 4.62771E-04 3.93521E-01 1.87229E-13-1.09629E-13
 -1      2971 1.99753E+01 2.49021E+00-5.43063E-03-9.02240E-01 1.91840E-14-2.01151E-13
 -1      2972 2.00355E+01 2.36047E+00-6.76899E-03-1.03669E+00-8.75699E-15-2.08526E-13
 -1      2973 2.00764E+01 2.20608E+00 5.93118E-03-7.39929E-01 2.13629E-14-1.73269E-13
 -1      2974 2.01453E+01 2.17336E+00 5.19412E-04-1.20770E+00-4.32267E-14-2.04956E-13
 -1      2975 1.29423E+01-2.38014E+00 1.24289E-01 6.19357E+00-4.22093E-13-1.67186E-13
 -1      2976 1.18027E+01-1.22666E+00 9.42617E-02 5.21472E+00-5.07198E-13-2.02616E-14
 -1      2977 1.54078E+01-2.42607E+00 7.94527E-02 5.81598E+00-2.80269E-13-5.89737E-14
 -1      2978 1.97503E+01-4.31981E+00 8.61625E-02 5.86251E+00-8.45296E-14-1.50581E-13
 -1      2979 8.79312E+00-1.95494E-01 1.50824E-01 2.86002E+00-5.16174E-13 2.18714E-13
 -1      2980 2.48676E+01-4.64697E+00 3.89089E-02 3.64351E+00 6.06876E-14-5.36016E-13
 -1      2981 1.99291E+01 5.71138E-01-2.60354E-04-5.84197E-01-4.64500E-14 2.40464E-13
 -1      2982 1.98587E+01 6.30812E-01-3.72140E-03-5.58566E-01-1.52830E-13 3.50736E-13
 -1      2983 1.97694E+01 6.99241E-01 2.60464E-03-5.84532E-01 1.46250E-14 9.31055E-14
 -1      2984 1.99209E+01 5.86529E-01 9.88980E-04-6.48071E-01 6.81846E-14 3.02941E-13
 -1      2985 2.02195E+01 6.76275E-01-1.88063E-03 4.19136E-01 9.34229E-14 1.21173E-13
 -1      2986 2.01777E+01 6.17662E-01 1.52751E-03 4.47222E-01 8.76608E-14 1.94081E-13
 -1      2987 9.35731E+00 6.69477E-01 9.59839E-02-3.11987E-01-5.31897E-13 5.08121E-13
 -1      2988 8.17850E+00 5.73863E-02 1.96664E-01-1.25344E+00-4.99403E-13 6.05488E-13
 -1      2989 9.62366E+00 4.53741E-02 6.73734E-02-2.51306E+00-5.38812E-13 5.82520E-13
 -1      2990 2.02087E+01 6.98095E-01 6.56136E-03 5.59563E-01 9.26890E-14 2.14950E-13
 -1      2991 2.29133E+01-4.78496E+00 5.05384E-02-4.66642E+00-2.95181E-13-3.74506E-13
 -1      2992 2.41324E+01-4.53371E+00-6.35636E-02-3.41228E+00-3.84279E-13-3.82222E-13
 -1      2993 2.15757E+01-4.28868E+00 3.03419E-02-4.84668E+00-3.09627E-13-3.20643E-13
 -1      2994 2.88042E+01-4.85462E-01-5.09892E-02 7.63389E-01-3.13069E-13-1.73278E-13
 -1      2995 2.80897E+01 6.25797E-01-1.59324E-01 1.56016E+00-3.31651E-13-3.08781E-14
 -1      2996 2.76996E+01-1.55464E+00-2.85523E-02 4.60552E-01-4.56253E-13-5.19862E-14
 -1      2997 2.03161E+01 1.39062E+00 8.87734E-03 1.02485E+00 1.41067E-13 1.68862E-13
 -1      2998 2.79058E+01-2.22337E+00-2.96997E-02 3.34530E-01 1.54383E-13-6.21905E-13
 -1      2999 2.83987E+01 3.74226E+00-1.03765E-01 1.76074E+00-1.46438E-13-3.87607E-14
 -1      3000 1.98221E+01 2.82102E+00-5.69527E-03-3.51815E-01 1.03711E-13-1.47075E-13
 -1      3001 1.98459E+01 2.77267E+00-6.16613E-03-5.05508E-01 7.93209E-14-1.63312E-13
 -1      3002 1.99988E+01 2.39761E+00 4.36700E-03-5.07813E-01 6.49794E-14-1.54370E-13
 -1      3003 1.99528E+01 2.50623E+00 3.67100E-03-2.55680E-01 8.70744E-14-1.40167E-13
 -1      3004 9.36796E+00-1.56768E+00 2.01561E-01 4.11591E+00 2.85272E-13 1.59706E-13
 -1      3005 8.88741E+00-5.75732E-01 1.06899E-01 3.10000E+00 2.58432E-13 1.29868E-13
 -1      3006 1.19598E+01-1.70593E+00 5.02211E-02 4.70884E+00 3.01280E-13 1.60510E-13
 -1      3007 1.52150E+01-2.04212E+00 5.13729E-02-5.59395E+00-1.50178E-13-2.18076E-13
 -1      3008 1.64012E+01-3.16745E+00 1.08869E-01-6.24491E+00-1.22173E-13-1.29605E-13
 -1      3009 1.84886E+01-3.34101E+00 4.26469E-02-5.55481E+00-2.51160E-13-2.20046E-13
 -1      3010 1.23184E+01-1.82840E+00 1.69681E-01-4.76778E+00-2.97845E-13 5.20931E-13
 -1      3011 1.82023E+01-3.78716E+00 1.03557E-01-5.40644E+00 1.53766E-14 3.89799E-13
 -1      3012 2.02372E+01 1.47695E+00-9.97463E-03 8.08045E-01 1.46576E-13 6.77972E-14
 -1      3013 2.02029E+01 1.66775E+00-1.36773E-03 7.45189E-01 1.56687E-13 3.48580E-14
 -1      3014 2.02562E+01 7.55360E-01 6.70367E-03 7.56593E-01 1.13911E-13 2.70218E-13
 -1      3015 2.72929E+01 2.58966E+00-1.62620E-01-1.99582E+00 3.26281E-13-2.37803E-13
 -1      3016 2.76336E+01 9.13635E-01 8.98150E-03-1.79509E+00 2.43416E-13-2.89491E-13
 -1      3017 2.58535E+01-3.86629E+00 4.18640E-02-1.88594E+00-4.31120E-13-2.06474E-13
 -1      3018 2.66362E+01-3.10731E+00-9.15239E-02-7.04581E-01-4.26140E-13-2.94070E-14
 -1      3019 2.02232E+01 4.26565E-01 3.99131E-03-1.18575E-01-1.07010E-14-1.08071E-13
 -1      3020 2.01846E+01 3.20042E-01-2.24632E-03-3.26483E-02-7.60543E-15-1.17010E-13
 -1      3021 2.01706E+01 2.37725E-01 3.12404E-03 3.00453E-02-1.31178E-14-1.13225E-13
 -1      3022 2.01412E+01 1.68813E-01-1.22170E-03 8.25628E-02-2.44970E-14-1.26738E-13
 -1      3023 2.02412E+01 3.38375E-01-9.16963E-04-2.25979E-02-3.01560E-14-1.42160E-13
 -1      3024 2.01246E+01 1.16639E-01 2.17371E-03 1.20321E-01-2.02915E-14-9.57158E-14
 -1      3025 2.01046E+01 7.37712E-02-5.07994E-04 1.49865E-01-2.65577E-14-8.91446E-14
 -1      3026 2.02011E+01 1.77849E-01-1.04607E-03 8.33250E-02-2.34140E-14-9.75158E-14
 -1      3027 2.00885E+01 4.23395E-02 1.37774E-03 1.70336E-01 3.46823E-14-5.20596E-14
 -1      3028 2.00764E+01 1.77173E-02-3.02134E-05 1.85006E-01 6.01656E-14 4.07988E-15
 -1      3029 2.01628E+01 7.67846E-02-9.89801E-04 1.46038E-01 2.45936E-14-7.90077E-14
 -1      3030 2.00619E+01 8.98611E-04 7.54632E-04 1.94462E-01 4.97701E-14 5.16803E-14
 -1      3031 2.00559E+01-1.06850E-02 2.90192E-04 2.00386E-01 2.23276E-14 8.34212E-14
 -1      3032 2.01293E+01 1.78230E-02-8.56439E-04 1.79490E-01 1.00181E-13 4.08742E-15
 -1      3033 2.00433E+01-1.69564E-02 2.80892E-04 2.03746E-01 2.73087E-15 1.17314E-13
 -1      3034 2.00420E+01-1.89779E-02 5.12395E-04 2.05517E-01 4.24485E-14 1.29533E-13
 -1      3035 2.01012E+01-1.08476E-02-6.99580E-04 1.95020E-01 5.25089E-14 3.44907E-14
 -1      3036 2.00311E+01-1.73723E-02-8.16646E-05 2.06564E-01-1.45977E-14 1.27046E-13
 -1      3037 2.00332E+01-1.20779E-02 6.77201E-04 2.07661E-01-2.76457E-14 6.57203E-14
 -1      3038 2.00782E+01-1.72245E-02-5.40555E-04 2.01491E-01-1.60279E-14 1.13782E-13
 -1      3039 2.00235E+01-4.25465E-03-3.73132E-04 2.09309E-01-3.33397E-14 6.15757E-14
 -1      3040 2.00281E+01 7.03735E-03 8.12089E-04 2.12443E-01-4.37489E-14 4.50565E-14
 -1      3041 2.00590E+01-6.53693E-03-3.82060E-04 2.05737E-01-3.37987E-14 1.14861E-13
 -1      3042 2.00187E+01 2.02023E-02-6.31997E-04 2.16996E-01-4.13095E-14 6.25160E-15
 -1      3043 2.00251E+01 3.69228E-02 9.35817E-04 2.24392E-01-3.12521E-14 4.35017E-15
 -1      3044 2.00423E+01 1.80889E-02-2.15143E-04 2.13069E-01-4.19508E-14 4.74429E-14
 -1      3045 2.00150E+01 5.51834E-02-9.01233E-04 2.33753E-01-5.06061E-14 2.63807E-14
 -1      3046 2.00226E+01 7.74546E-02 1.11089E-03 2.47358E-01-9.76739E-14-6.79017E-15
 -1      3047 2.00259E+01 5.52243E-02-1.99874E-05 2.27730E-01-4.14222E-14 1.04291E-15
 -1      3048 2.00096E+01 1.02525E-01-1.21403E-03 2.64054E-01-1.04396E-13 6.89341E-14
 -1      3049 2.00175E+01 1.32489E-01 1.24157E-03 2.87236E-01-3.44534E-14 8.51664E-14
 -1      3050 2.00067E+01 1.06109E-01 1.49973E-04 2.54134E-01-4.26185E-14 6.01351E-14
 -1      3051 2.00000E+01 1.62889E-01-1.59632E-03 3.11486E-01-2.91141E-14 9.49627E-14
 -1      3052 2.00066E+01 1.98974E-01 1.28004E-03 3.43771E-01-5.27924E-14 5.52734E-14
 -1      3053 1.99815E+01 1.71733E-01 5.86806E-04 2.95055E-01-5.46829E-14 1.40194E-13
 -1      3054 1.99813E+01 2.37257E-01-2.09392E-03 3.77522E-01-7.86082E-14 5.21180E-14
 -1      3055 1.99846E+01 2.82421E-01 1.34973E-03 4.21925E-01-9.46927E-14-9.90678E-15
 -1      3056 1.99455E+01 2.52098E-01 1.08322E-03 3.52007E-01-9.70447E-14 7.74931E-14
 -1      3057 1.99468E+01 3.30374E-01-2.76742E-03 4.66560E-01-4.00736E-14 1.68273E-14
 -1      3058 1.99435E+01 3.86682E-01 1.34909E-03 5.25203E-01-5.97417E-15 7.48851E-14
 -1      3059 1.98907E+01 3.52229E-01 1.81432E-03 4.28088E-01-4.44413E-14-1.25620E-14
 -1      3060 1.98864E+01 4.46345E-01-3.67348E-03 5.81974E-01-6.26246E-14 1.37567E-13
 -1      3061 1.98715E+01 5.15851E-01 1.23256E-03 6.57016E-01-4.67644E-14 1.18258E-13
 -1      3062 1.98064E+01 4.76224E-01 2.88153E-03 5.25199E-01-2.20906E-18 1.42138E-13
 -1      3063 1.97857E+01 5.88928E-01-4.88819E-03 7.27003E-01-7.01248E-14 7.23886E-14
 -1      3064 1.97516E+01 6.72896E-01 9.59672E-04 8.20503E-01-8.56837E-14 9.67687E-14
 -1      3065 1.96772E+01 6.28069E-01 4.41673E-03 6.44568E-01-8.50471E-14 1.33290E-13
 -1      3066 1.96243E+01 7.59563E-01-6.51717E-03 9.04671E-01-1.17292E-13 5.54470E-14
 -1      3067 1.95609E+01 8.56850E-01 5.40299E-04 1.01849E+00-1.37773E-13-2.75953E-14
 -1      3068 1.94816E+01 8.09973E-01 6.57328E-03 7.86623E-01-1.14976E-13 1.58200E-13
 -1      3069 1.93748E+01 9.53401E-01-8.72158E-03 1.11818E+00-4.73794E-14 1.62173E-14
 -1      3070 1.92703E+01 1.05740E+00 1.50286E-04 1.25422E+00 4.46376E-14 4.51685E-14
 -1      3071 1.91905E+01 1.01918E+00 9.51439E-03 9.51423E-01-4.98034E-14 1.05991E-13
 -1      3072 1.90032E+01 1.15195E+00-1.17691E-02 1.37279E+00 6.52954E-14 3.52928E-14
 -1      3073 1.88466E+01 1.24530E+00 3.67736E-04 1.53448E+00 5.38979E-14 6.06743E-14
 -1      3074 1.87658E+01 1.24234E+00 1.34142E-02 1.14069E+00 8.31514E-14 1.82347E-13
 -1      3075 1.84708E+01 1.31049E+00-1.60118E-02 1.68139E+00 5.01864E-14 9.07941E-14
 -1      3076 1.82608E+01 1.35705E+00 3.29750E-03 1.87757E+00 1.10196E-14 1.06098E-13
 -1      3077 1.81598E+01 1.44630E+00 1.85416E-02 1.36366E+00 7.55868E-14 1.27950E-13
 -1      3078 1.77425E+01 1.33822E+00-2.04399E-02 2.07845E+00 1.53705E-14 5.57727E-14
 -1      3079 1.75007E+01 1.26596E+00 1.26014E-02 2.33201E+00 9.33730E-14 1.73347E-14
 -1      3080 1.73147E+01 1.56445E+00 2.64579E-02 1.65087E+00 5.63396E-14 1.54355E-13
 -1      3081 1.68067E+01 1.07769E+00-1.62304E-02 2.64177E+00 1.51596E-13 1.13382E-14
 -1      3082 1.67442E+01 7.51536E-01 3.58535E-02 2.97158E+00 1.26618E-13 5.28757E-14
 -1      3083 1.61784E+01 1.46830E+00 4.63668E-02 2.08327E+00 1.29662E-13 7.27187E-14
 -1      3084 1.73301E+01-3.03911E+00 1.42460E-01 5.39451E+00 2.65954E-13 1.65895E-13
 -1      3085 2.61691E+01 5.19879E+00-1.35473E-01-1.29462E+00 4.08742E-13-9.85635E-14
 -1      3086 2.69087E+01 4.15098E+00-8.75582E-02-1.90543E+00 3.60462E-13-2.21170E-13
 -1      3087 2.61026E+01 2.84344E+00-7.55333E-02-1.94876E+00 2.95208E-13-1.94587E-13
 -1      3088 1.05681E+01-6.97604E-01 1.34536E-01-4.34349E+00 1.21014E-14-4.40190E-13
 -1      3089 1.67357E+01 6.22742E-01 5.52944E-02-3.14945E+00 3.42929E-14-2.01679E-14
 -1      3090 1.68619E+01 9.68808E-01-1.53886E-02-2.80342E+00 3.57353E-14-6.78485E-14
 -1      3091 1.75460E+01 1.19741E+00 1.82851E-02-2.46734E+00 6.35978E-14-6.64876E-15
 -1      3092 1.77596E+01 1.28710E+00-1.94744E-02-2.21229E+00 1.90465E-13 5.91814E-14
 -1      3093 1.61626E+01 1.38215E+00 3.78130E-02-2.25203E+00 6.70080E-15 1.51388E-13
 -1      3094 1.82801E+01 1.31922E+00 4.57916E-03-2.00156E+00 2.08267E-13-2.09537E-13
 -1      3095 1.84828E+01 1.28384E+00-1.56389E-02-1.80299E+00 1.12231E-13-1.66245E-13
 -1      3096 1.73244E+01 1.52024E+00 2.63788E-02-1.79036E+00 2.92259E-14 8.36178E-14
 -1      3097 1.88642E+01 1.22737E+00 1.08400E-03-1.65062E+00 6.52599E-14-3.17130E-13
 -1      3098 1.90184E+01 1.14200E+00-1.15905E-02-1.48653E+00 2.66738E-14-1.66627E-13
 -1      3099 1.81791E+01 1.42440E+00 1.84680E-02-1.48661E+00 1.65006E-14-1.60572E-13
 -1      3100 1.92915E+01 1.05558E+00 5.08917E-04-1.36403E+00-2.63704E-14-1.66433E-13
 -1      3101 1.93952E+01 9.60952E-01-8.64750E-03-1.22419E+00-1.20309E-13-4.22634E-14
 -1      3102 1.87970E+01 1.23730E+00 1.32068E-02-1.25376E+00 1.10420E-13-1.42259E-13
 -1      3103 1.95871E+01 8.77046E-01 1.11977E-03-1.12034E+00-1.64679E-13-1.21702E-14
 -1      3104 1.96487E+01 7.92973E-01-6.51965E-03-9.98979E-01-6.75003E-14-1.45082E-13
 -1      3105 1.92338E+01 1.03401E+00 9.08538E-03-1.05539E+00-1.66121E-13-8.36484E-15
 -1      3106 1.97815E+01 7.22969E-01 1.00260E-03-9.07708E-01 1.49175E-13-1.58564E-13
 -1      3107 1.98168E+01 6.62895E-01-3.04637E-03-8.03083E-01 1.14368E-13 6.80773E-14
 -1      3108 1.95320E+01 8.57162E-01 5.40975E-03-8.79700E-01-6.95635E-15-1.25034E-13
 -1      3109 2.01417E+01 2.33996E-01-1.64231E-03-2.82908E-02 1.15741E-13 9.58321E-14
 -1      3110 2.01778E+01 3.18695E-01 3.84542E-03 4.14106E-02 1.25970E-13 8.74723E-14
 -1      3111 2.01909E+01 4.19830E-01-2.70329E-03 1.22811E-01 1.14224E-13 7.47807E-14
 -1      3112 2.02361E+01 5.49915E-01 4.59508E-03 2.33582E-01 8.83903E-14 5.88542E-14
 -1      3113 2.02458E+01 4.46154E-01-9.70035E-04 1.06350E-01 1.08125E-13 2.26494E-14
 -1      3114 2.00298E+01-1.76206E-02 3.89207E-04-2.04664E-01 6.17206E-14 1.56903E-13
 -1      3115 2.00320E+01-1.03015E-02 5.36829E-04-2.01753E-01 6.76940E-14 1.33243E-13
 -1      3116 2.00448E+01 1.31679E-03 1.41036E-04-1.95861E-01 4.41926E-14 1.13770E-13
 -1      3117 2.00526E+01 1.91144E-02 1.09375E-03-1.86237E-01 5.29384E-14 8.97523E-14
 -1      3118 2.00973E+01 5.37798E-04-8.14404E-04-1.91068E-01 4.51473E-14 1.56620E-13
 -1      3119 2.00175E+01-1.27445E-02 6.85374E-04-2.06318E-01 9.96773E-14 7.57468E-14
 -1      3120 2.00126E+01-1.81280E-02-1.54744E-04-2.06231E-01 1.20333E-13 1.28025E-13
 -1      3121 2.00181E+01 3.05981E-03 7.84954E-04-2.09687E-01 5.42568E-14-1.48754E-14
 -1      3122 2.00107E+01-5.94900E-03-3.55077E-04-2.07579E-01 6.74281E-14 1.98915E-15
 -1      3123 2.00419E+01-8.59919E-03-3.98936E-04-2.06648E-01 1.38547E-13 9.72338E-14
 -1      3124 2.00225E+01 2.38656E-02 8.70015E-04-2.19381E-01 4.55412E-14-1.23952E-14
 -1      3125 2.00128E+01 1.26021E-02-4.88330E-04-2.13860E-01 2.97610E-14-6.01888E-14
 -1      3126 2.00318E+01 1.10046E-02-3.19500E-04-2.13135E-01 3.28321E-14-1.00680E-14
 -1      3127 2.00306E+01 4.70540E-02 9.44786E-04-2.37488E-01 9.35158E-15 5.17547E-14
 -1      3128 2.00186E+01 3.48837E-02-5.63604E-04-2.27706E-01 4.60264E-14 6.14443E-14
 -1      3129 2.00249E+01 3.59387E-02-2.76767E-04-2.26524E-01 2.60098E-15 3.22229E-14
 -1      3130 2.00433E+01 6.96790E-02 1.00627E-03-2.65078E-01-1.79118E-15 8.05792E-14
 -1      3131 2.00286E+01 5.81756E-02-5.77811E-04-2.50736E-01 1.38946E-14 4.53217E-14
 -1      3132 2.00214E+01 6.30508E-02-2.81018E-04-2.48943E-01 6.60989E-15 1.51368E-13
 -1      3133 2.00621E+01 8.79729E-02 1.04389E-03-3.02096E-01 8.99700E-15 7.57713E-14
 -1      3134 2.00438E+01 7.91910E-02-5.14210E-04-2.83529E-01 1.48055E-14 5.14251E-14
 -1      3135 2.00220E+01 8.86986E-02-3.49649E-04-2.81578E-01-1.02233E-14 7.02389E-14
 -1      3136 2.00898E+01 9.68632E-02 1.03796E-03-3.47059E-01-6.18252E-14 1.00821E-13
 -1      3137 2.00666E+01 9.35830E-02-3.41038E-04-3.25421E-01-4.29108E-14 1.16744E-13
 -1      3138 2.00287E+01 1.08174E-01-5.10046E-04-3.24551E-01-5.37324E-14 9.91199E-14
 -1      3139 2.01306E+01 8.95786E-02 9.56925E-04-3.96576E-01-1.66976E-13 1.34214E-13
 -1      3140 2.01007E+01 9.54917E-02-1.06021E-05-3.74104E-01-1.20924E-13 1.21865E-13
 -1      3141 2.00449E+01 1.15155E-01-8.00826E-04-3.76620E-01-1.30459E-13 8.24145E-14
 -1      3142 2.01906E+01 5.75219E-02 7.52759E-04-4.44671E-01-1.08669E-13 1.67369E-13
 -1      3143 2.01518E+01 7.72541E-02 5.39103E-04-4.25023E-01-1.24670E-13 1.68872E-13
 -1      3144 2.00763E+01 1.01291E-01-1.27030E-03-4.34653E-01-1.44519E-13 8.09326E-14
 -1      3145 2.02785E+01-9.26715E-03 3.54036E-04-4.81949E-01-3.73551E-14 9.02408E-14
 -1      3146 2.02276E+01 2.95172E-02 1.37673E-03-4.70573E-01-4.73723E-14 1.28910E-13
 -1      3147 2.01313E+01 5.61449E-02-1.96873E-03-4.92860E-01-7.70639E-14 1.46774E-14
 -1      3148 2.04045E+01-1.20525E-01-3.39042E-04-4.94709E-01 8.86860E-15-2.94578E-14
 -1      3149 2.03386E+01-5.78252E-02 2.55675E-03-4.99138E-01 1.25345E-14 8.94724E-14
 -1      3150 2.02218E+01-3.20817E-02-2.92887E-03-5.41727E-01-8.49405E-16 2.94273E-14
 -1      3151 2.05801E+01-2.82295E-01-1.45330E-03-4.64284E-01 8.00681E-14-1.03896E-13
 -1      3152 2.04964E+01-1.93227E-01 4.08224E-03-4.94143E-01-1.44578E-14-1.05941E-13
 -1      3153 2.03628E+01-1.74401E-01-4.12313E-03-5.66703E-01 5.24173E-14-7.13270E-14
 -1      3154 2.08138E+01-4.90625E-01-3.09248E-03-3.67248E-01 6.57199E-14 4.66938E-14
 -1      3155 2.07124E+01-3.78786E-01 5.81112E-03-4.33564E-01 7.27651E-14-3.56198E-14
 -1      3156 2.05711E+01-3.76465E-01-5.38787E-03-5.46837E-01 3.42374E-14-6.63379E-14
 -1      3157 2.11058E+01-7.21797E-01-5.16337E-03-1.78049E-01-3.91278E-14 9.49045E-14
 -1      3158 2.09916E+01-6.02279E-01 7.34465E-03-2.90990E-01 1.12451E-14 9.45091E-14
 -1      3159 2.08611E+01-6.30325E-01-6.29702E-03-4.54080E-01-2.78750E-14 5.36350E-14
 -1      3160 2.14378E+01-9.20515E-01-7.08717E-03 1.23054E-01 9.54787E-14 6.17443E-14
 -1      3161 2.13240E+01-8.26092E-01 7.88315E-03-4.07326E-02 5.32341E-14 1.37399E-13
 -1      3162 2.12358E+01-9.01932E-01-6.02890E-03-2.55501E-01 1.14174E-14 5.99464E-14
 -1      3163 2.17640E+01-9.92878E-01-7.64427E-03 5.32569E-01-2.25399E-14 1.80516E-13
 -1      3164 2.16725E+01-9.76410E-01 5.99102E-03 3.28729E-01 6.94647E-14 1.80318E-13
 -1      3165 2.16731E+01-1.11599E+00-3.47086E-03 7.70582E-02-1.29339E-14 1.86080E-13
 -1      3166 2.20087E+01-8.19939E-01-4.78939E-03 9.96480E-01-1.75589E-13 3.02875E-13
 -1      3167 2.19655E+01-9.43799E-01 2.48620E-04 7.89497E-01-1.09960E-13 2.67472E-13
 -1      3168 2.21084E+01-1.15125E+00 1.40649E-03 5.42249E-01-1.47691E-13 3.84390E-13
 -1      3169 2.20904E+01-3.05634E-01 3.97234E-03 1.38856E+00-2.46100E-13 3.35874E-13
 -1      3170 2.21137E+01-6.12517E-01-7.69946E-03 1.24696E+00-2.39450E-13 3.49008E-13
 -1      3171 2.24370E+01-8.70500E-01 6.76397E-03 1.07213E+00-2.04684E-13 4.88384E-13
 -1      3172 2.19633E+01 5.19738E-01 1.33148E-02 1.50485E+00-1.19064E-13 3.46497E-13
 -1      3173 2.20401E+01 7.06336E-02-1.76581E-02 1.51948E+00-1.73066E-13 2.74987E-13
 -1      3174 2.25438E+01-1.59723E-01 1.43969E-02 1.50338E+00-2.19604E-13 4.46800E-13
 -1      3175 2.16952E+01 1.41025E+00 1.61712E-02 1.17172E+00 1.32529E-14 4.27392E-13
 -1      3176 2.17859E+01 9.71802E-01-2.11353E-02 1.39821E+00 6.26018E-16 3.73840E-13
 -1      3177 2.23804E+01 8.62551E-01 8.71809E-03 1.57432E+00-1.17357E-13 2.93951E-13
 -1      3178 2.14750E+01 1.96380E+00 7.54782E-03 3.96487E-01-2.90805E-15 2.86553E-13
 -1      3179 2.15229E+01 1.74910E+00-1.20641E-02 7.91860E-01 3.13914E-14 3.28525E-13
 -1      3180 2.20796E+01 1.85329E+00-3.34586E-03 1.09400E+00 1.39578E-14 4.20613E-13
 -1      3181 2.14782E+01 1.87688E+00-9.26112E-03-5.46365E-01-2.31504E-14 2.51242E-13
 -1      3182 2.14504E+01 2.00789E+00 3.20201E-03-1.28277E-01-6.25762E-14 2.42681E-13
 -1      3183 2.19025E+01 2.33759E+00-1.11590E-02 1.50269E-01 3.00835E-14 1.24316E-13
 -1      3184 2.17072E+01 1.19710E+00-2.10303E-02-1.26172E+00 2.23564E-14 2.24471E-13
 -1      3185 2.16234E+01 1.59967E+00 1.41349E-02-9.82762E-01 4.22414E-14 2.74999E-13
 -1      3186 2.20118E+01 2.04441E+00-6.94286E-03-8.58032E-01-2.41430E-15 8.79685E-14
 -1      3187 2.19850E+01 2.84185E-01-2.01386E-02-1.50644E+00 2.10461E-13 2.50969E-13
 -1      3188 2.18992E+01 7.51189E-01 1.41093E-02-1.44060E+00 4.40030E-14 2.02297E-13
 -1      3189 2.23072E+01 1.13884E+00 6.20109E-03-1.48098E+00 7.27309E-14 7.34462E-14
 -1      3190 2.21140E+01-4.81933E-01-1.17788E-02-1.31407E+00 2.82072E-13 3.88065E-13
 -1      3191 2.20754E+01-1.27258E-01 5.53294E-03-1.42531E+00 3.38766E-13 3.14485E-13
 -1      3192 2.25267E+01 7.07057E-02 1.17599E-02-1.53795E+00 1.00399E-13 1.31185E-13
 -1      3193 2.20220E+01-9.09976E-01-1.62199E-03-8.77345E-01 1.91504E-13 4.83338E-13
 -1      3194 2.20499E+01-7.38190E-01-2.97504E-03-1.07866E+00 2.99946E-13 4.75515E-13
 -1      3195 2.24984E+01-7.40655E-01 1.02549E-02-1.17300E+00 1.79134E-13 2.94852E-13
 -1      3196 2.17571E+01-1.01260E+00 4.91716E-03-3.95785E-01-6.89390E-15 5.32146E-13
 -1      3197 2.18401E+01-9.97600E-01-7.12181E-03-6.09507E-01 9.33897E-14 5.10858E-13
 -1      3198 2.22198E+01-1.13733E+00 3.64283E-03-6.38873E-01 1.10825E-13 4.51204E-13
 -1      3199 2.14138E+01-8.97853E-01 7.63099E-03 1.05274E-02 1.30423E-13 2.42269E-13
 -1      3200 2.15259E+01-9.78206E-01-7.39085E-03-1.69470E-01 8.50274E-14 3.20442E-13
 -1      3201 2.18006E+01-1.17392E+00-2.47414E-03-1.37374E-01 1.56208E-13 2.45644E-13
 -1      3202 2.10720E+01-6.81910E-01 7.62926E-03 2.98799E-01 8.72108E-14 3.97868E-13
 -1      3203 2.11892E+01-8.00464E-01-5.64352E-03 1.69249E-01 2.56528E-14 2.92358E-13
 -1      3204 2.13574E+01-9.91698E-01-5.73082E-03 2.39234E-01 7.73624E-14 2.62608E-14
 -1      3205 2.07773E+01-4.47345E-01 6.33091E-03 4.72802E-01-2.08164E-14 5.63164E-13
 -1      3206 2.08841E+01-5.66873E-01-3.55281E-03 3.92801E-01 7.20388E-14 5.07415E-13
 -1      3207 2.09657E+01-7.21988E-01-6.44796E-03 4.77189E-01-1.64582E-16 2.22523E-13
 -1      3208 2.05450E+01-2.38543E-01 4.63793E-03 5.54686E-01-1.55138E-14 5.63129E-13
 -1      3209 2.06347E+01-3.40806E-01-1.85450E-03 5.15794E-01 3.34422E-14 5.91564E-13
 -1      3210 2.06564E+01-4.50240E-01-5.72218E-03 5.99243E-01 2.04811E-14 5.41806E-13
 -1      3211 2.03743E+01-6.99017E-02 3.92978E-03 5.69863E-01 2.46525E-13 2.25712E-13
 -1      3212 2.04448E+01-1.50684E-01-5.15100E-04 5.62125E-01 7.84436E-14 3.94827E-13
 -1      3213 2.04317E+01-2.17608E-01-4.20095E-03 6.36501E-01 1.57627E-13 3.47148E-13
 -1      3214 1.94315E+01 8.45339E-01-2.49934E-03-2.55476E-01-1.07158E-13-3.96034E-14
 -1      3215 1.94156E+01 8.46861E-01-9.07003E-04-1.30588E-01-1.15165E-13 1.37159E-13
 -1      3216 1.69460E+01-2.28064E+00 1.41931E-01-5.06105E+00-6.80012E-14 2.37366E-13
 -1      3217 1.95490E+01 8.05006E-01-6.87801E-04-5.13000E-01 1.04484E-13 1.22898E-13
 -1      3218 1.94777E+01 8.39433E-01-2.85439E-03-4.04135E-01 3.36070E-14 1.01586E-14
 -1      3219 1.93473E+01 8.88806E-01 3.10648E-03-3.41090E-01-2.80647E-13 7.96231E-14
 -1      3220 1.94230E+01 8.09497E-01-3.64998E-03 1.30214E-02-1.09947E-13 1.42608E-13
 -1      3221 1.94552E+01 7.84458E-01 1.25212E-03 1.28306E-01-9.69895E-15 7.39830E-14
 -1      3222 1.93131E+01 8.57598E-01 3.76937E-03-3.74982E-02-3.46403E-13 1.61252E-13
 -1      3223 1.04081E+01-1.94062E-01 1.46130E-01 3.93927E+00-5.05540E-13 8.89983E-14
 -1      3224 9.74409E+00 5.30384E-01 8.49576E-02 2.04175E+00-5.29020E-13 2.60070E-13
 -1      3225 1.26378E+01-4.94922E-01 1.04804E-01 4.25501E+00-3.60604E-13 4.62200E-14
 -1      3226 2.02888E+01 9.29961E-01-7.27377E-03 7.82696E-01 1.09314E-13 1.73505E-13
 -1      3227 1.95034E+01 7.14616E-01-4.13722E-03 2.49261E-01 7.08070E-14 3.98491E-14
 -1      3228 1.95687E+01 6.70095E-01 2.68248E-03 3.42168E-01 2.09122E-13 6.29842E-14
 -1      3229 1.93866E+01 7.54057E-01 2.08237E-03 2.36031E-01 8.60053E-14 3.59723E-14
 -1      3230 1.58840E+01-1.93516E+00 2.06282E-01 5.06064E+00 1.87669E-13 1.36030E-13
 -1      3231 2.02763E+01 1.26033E+00 3.51278E-03 8.00458E-01 1.16577E-13 9.69459E-14
 -1      3232 8.23727E+00 2.50676E-01 2.10660E-01 1.18693E+00 2.04354E-13-8.17402E-14
 -1      3233 8.61015E+00 5.16491E-01 1.01118E-01-9.86490E-01 1.74179E-13-2.15605E-13
 -1      3234 2.53028E+01-4.37702E+00-1.25432E-01 2.49041E+00 2.29636E-13-5.67187E-13
 -1      3235 2.36609E+01-4.49126E+00 6.62424E-02 3.81090E+00 9.93199E-14-4.37629E-13
 -1      3236 2.00211E+01-2.07748E-02 5.60095E-04-2.06122E-01 6.04001E-14 1.56175E-13
 -1      3237 2.00193E+01-2.08945E-02 1.32639E-04-2.06034E-01 5.50594E-14 1.64510E-13
 -1      3238 2.00738E+01-1.83020E-02-6.51056E-04-2.00693E-01 5.92140E-14 2.17549E-13
 -1      3239 2.00556E+01-1.96520E-02-5.10754E-04-2.03940E-01 1.10587E-13 1.78606E-13
 -1      3240 1.65135E+01-1.00723E+00 8.73598E-02-4.32594E+00-8.06091E-14 1.93991E-13
 -1      3241 1.63492E+01-3.82622E-02 2.74812E-02-3.80496E+00-2.34717E-14 8.16708E-14
 -1      3242 1.50602E+01 6.46177E-01 6.79403E-02-3.19368E+00-6.53505E-14 6.73107E-14
 -1      3243 1.48312E+01-1.42172E+00 4.94345E-02-4.77465E+00-1.03494E-13 2.56961E-13
 -1      3244 2.78248E+01 2.26498E+00-8.20942E-02 1.99603E+00-2.50480E-13 3.96350E-14
 -1      3245 2.68870E+01 3.78037E+00-1.28172E-01 1.96432E+00-1.38195E-13 6.68007E-14
 -1      3246 2.00497E+01 2.16293E+00-4.32476E-03 2.92817E-01 1.59416E-13-6.28461E-14
 -1      3247 2.00370E+01 2.20171E+00-3.32804E-03 1.71010E-01 1.35585E-13-8.15564E-14
 -1      3248 2.00502E+01 2.29823E-01-2.50744E-03 5.54860E-01 1.61235E-13 3.71894E-13
 -1      3249 2.01353E+01 1.64227E-01 1.96640E-03 5.18133E-01 1.92058E-13 1.32579E-13
 -1      3250 2.01783E+01 1.12690E-01 2.66544E-04 5.47873E-01 2.28023E-13 2.60527E-13
 -1      3251 1.22251E+01-2.77416E-01 1.71705E-01-3.75504E+00-2.40172E-13 4.02720E-13
 -1      3252 2.02689E+01 7.15159E-01 3.36439E-03-3.45903E-01-2.04067E-14-1.28023E-13
 -1      3253 2.02286E+01 5.54459E-01-3.36084E-03-2.14028E-01-7.01948E-15-1.24998E-13
 -1      3254 2.02753E+01 5.82941E-01-5.31431E-04-1.87080E-01 2.55629E-15-1.37697E-13
 -1      3255 2.02815E+01 1.09576E+00 5.11911E-03 6.16176E-01 1.03777E-13 6.61853E-14
 -1      3256 2.01984E+01 1.89167E+00 1.07055E-03-1.00769E+00-3.65467E-14-1.80190E-13
 -1      3257 2.73349E+01-1.56652E+00-1.76707E-01-7.09090E-01 2.35017E-13-4.33292E-13
 -1      3258 2.68816E+01-3.05958E+00 5.88357E-02 7.46602E-01 2.68530E-13-4.95853E-13
 -1      3259 2.14781E+01-4.45595E+00-2.05927E-02 5.00375E+00 1.77358E-14-8.14071E-14
 -1      3260 1.88290E+01-3.54597E+00 6.34836E-02 5.55111E+00-1.24570E-13 5.61703E-15
 -1      3261 2.26590E+01-4.01956E+00 4.53242E-02 3.79509E+00 1.65434E-13-2.06272E-13
 -1      3262 1.96405E+01 5.85488E-01-3.67737E-03 4.25483E-01 2.04191E-13 5.51714E-14
 -1      3263 1.97192E+01 5.30108E-01 2.60367E-03 4.84485E-01 1.49743E-13-1.60438E-13
 -1      3264 1.95357E+01 6.07727E-01 2.69854E-04 4.43725E-01 2.40838E-13-6.68726E-14
 -1      3265 1.02232E+01 3.15522E-01 1.49705E-01-3.06516E+00 5.58650E-14-3.73701E-13
 -1      3266 1.23550E+01-6.43552E-01 4.82736E-02-4.55499E+00-3.60684E-14-4.12004E-13
 -1      3267 1.32862E+01-1.65373E-01 1.52892E-02-3.92943E+00 1.17961E-16-3.07455E-13
 -1      3268 1.42288E+01-1.00556E+00 1.34009E-01-4.95141E+00-1.06668E-13-2.98345E-13
 -1      3269 1.59538E+01-1.52178E+00 3.66798E-02-4.84458E+00-1.67182E-13-1.12663E-13
 -1      3270 2.59839E+01-2.71389E+00-2.63510E-02-2.25231E-01-4.52282E-13-4.70249E-14
 -1      3271 2.69106E+01-2.26177E+00-1.71275E-02 1.69429E-01-4.96742E-13-7.50511E-14
 -1      3272 2.65958E+01-1.37369E+00-1.06469E-01 9.63456E-01-4.81327E-13-2.34396E-14
 -1      3273 2.00299E+01 2.22056E+00-3.68708E-03 6.60382E-02 1.17318E-13-7.57238E-14
 -1      3274 2.00295E+01 2.22149E+00-3.65286E-03-5.80397E-02 1.03072E-13-1.02328E-13
 -1      3275 2.01441E+01 1.92564E+00 5.03396E-03 1.01524E-01 1.18242E-13-7.53880E-14
 -1      3276 1.35992E+01 5.20832E-01 7.78645E-02 3.09087E+00 1.85647E-13 2.46331E-14
 -1      3277 1.49501E+01-1.82086E-01 6.30918E-02 3.84650E+00 1.41182E-13 1.39506E-13
 -1      3278 1.49407E+01-1.20313E+00 1.32789E-01 4.51442E+00 1.43940E-13 1.13021E-13
 -1      3279 2.62275E+01 4.39226E+00-1.23148E-01 1.70018E+00-1.44107E-13-6.38309E-14
 -1      3280 2.54447E+01 4.76716E+00-7.44327E-02 1.24874E+00 1.57097E-14-5.49040E-14
 -1      3281 2.58174E+01 3.15280E+00-6.93342E-02 1.90063E+00-2.12164E-13-6.86950E-15
 -1      3282 2.56619E+01 5.42993E+00-1.16355E-01-6.89663E-01 3.78780E-13 6.20753E-14
 -1      3283 2.49941E+01 4.47115E+00-7.23399E-02-1.07413E+00 2.93862E-13 1.02904E-13
 -1      3284 2.50433E+01 5.26940E+00-7.98661E-02 4.15026E-02 2.70020E-13 1.42020E-13
 -1      3285 2.71070E+01 9.38164E-01-5.81432E-02 1.78074E+00-3.15553E-13 1.84013E-13
 -1      3286 2.46723E+01-3.96790E+00 1.68660E-02-2.41711E+00-4.85646E-13-1.01193E-13
 -1      3287 2.01248E+01 1.69334E-01 2.79602E-03-7.95493E-02 1.08569E-13 1.24350E-13
 -1      3288 2.02039E+01 2.49124E-01-1.14132E-03-3.30749E-02 1.17505E-13 1.05824E-13
 -1      3289 2.00998E+01 1.15414E-01-8.00434E-04-1.20443E-01 8.89051E-14 1.06256E-13
 -1      3290 1.99132E+01 6.00642E-01-3.10688E-04-7.14716E-01 6.24651E-14 2.46494E-13
 -1      3291 2.01269E+01 4.39334E-02-9.84368E-04-1.67251E-01 6.62324E-14 1.32266E-13
 -1      3292 2.00676E+01 4.25231E-02-2.32923E-04-1.71467E-01 7.94567E-14 1.06536E-13
 -1      3293 2.00830E+01 7.51692E-02 1.83896E-03-1.49811E-01 8.18108E-14 1.07154E-13
 -1      3294 1.11535E+01 8.13360E-01 4.67595E-02 1.95957E+00-3.34113E-13 3.31651E-13
 -1      3295 1.00860E+01 9.80525E-01 1.73868E-01 9.62305E-01-4.93910E-13 5.23623E-13
 -1      3296 1.06943E+01 1.03609E+00 7.93335E-02-1.20807E-01-4.05189E-13 4.81809E-13
 -1      3297 2.02391E+01 5.30123E-02 3.12655E-03 5.63472E-01 2.67429E-13 2.56776E-13
 -1      3298 2.02939E+01-1.06759E-02-2.72800E-04 5.74778E-01 2.82810E-13 2.18482E-13
 -1      3299 2.02664E+01-3.36258E-02-6.67945E-05 6.37352E-01 2.15324E-13 1.83332E-13
 -1      3300 2.01268E+01 1.04356E-01-2.67573E-03 6.24029E-01 2.08360E-13 2.09194E-13
 -1      3301 1.23428E+01 3.62151E-01 5.57518E-02-2.84319E+00-3.07265E-13 2.88408E-13
 -1      3302 2.01241E+01 1.94183E+00-2.40591E-03-5.84008E-01 2.74036E-14-1.43943E-13
 -1      3303 2.01597E+01 1.81052E+00-7.35786E-03-6.82815E-01 3.71957E-15-1.56256E-13
 -1      3304 1.75529E+01-2.89694E+00 6.08856E-02 5.61705E+00-2.41730E-13-3.43371E-14
 -1      3305 1.61109E+01-1.95836E+00 3.75091E-02 5.21208E+00-3.84498E-13 5.74818E-14
 -1      3306 1.93956E+01-2.98139E+00 5.00751E-02 4.76753E+00-1.99944E-13 1.36917E-13
 -1      3307 1.96565E+01 7.54303E-01-2.19340E-03-6.55673E-01 3.02191E-13 7.01263E-14
 -1      3308 1.95141E+01 8.31451E-01 1.89061E-03-6.46790E-01 2.34114E-13 2.02457E-13
 -1      3309 1.99141E+01 3.41936E-01-2.42386E-03 5.66925E-01 1.12122E-13 1.75319E-13
 -1      3310 1.99824E+01 2.90744E-01 1.47070E-03 5.64647E-01 1.34913E-13 1.39493E-13
 -1      3311 2.00002E+01 2.29340E-01-5.61447E-06 6.17706E-01 1.67216E-13 1.15018E-13
 -1      3312 2.02389E+01 7.08185E-01-3.18853E-03 3.54379E-01 9.58768E-14 6.85492E-14
 -1      3313 2.02804E+01 8.98434E-01 1.03473E-03 5.17735E-01 9.48127E-14 6.49426E-14
 -1      3314 2.01994E+01-3.68314E+00 7.01972E-02-5.10248E+00-2.83010E-13-2.68480E-13
 -1      3315 2.16085E+01-3.77597E+00 1.49878E-02-4.14629E+00-3.62235E-13-2.88059E-13
 -1      3316 1.87062E+01-2.88040E+00 1.21866E-02-5.00254E+00-2.87752E-13-1.40919E-13
 -1      3317 2.01619E+01 1.80336E+00-6.77345E-03 6.87067E-01 1.69846E-13 9.03691E-15
 -1      3318 2.01277E+01 1.93197E+00-2.58445E-03 5.89946E-01 1.62025E-13 5.85816E-15
 -1      3319 2.02498E+01 1.46187E+00 4.09717E-03 5.84627E-01 1.29164E-13 1.08961E-14
 -1      3320 2.57080E+01-3.40100E+00 1.73342E-02 1.20011E+00 2.78388E-13-3.53970E-13
 -1      3321 2.67262E+01-5.29287E-01-5.06845E-02-1.29293E+00 2.32456E-13-2.10484E-13
 -1      3322 1.00737E+01 1.62246E-01 1.19333E-01 2.20882E+00 2.40093E-13 6.34215E-14
 -1      3323 2.02191E+01 1.56909E+00-1.93971E-03-8.08351E-01-4.37357E-14-1.67848E-13
 -1      3324 1.97776E+01 4.61007E-01-2.88757E-03 5.24197E-01 1.21883E-13-1.43948E-13
 -1      3325 1.98536E+01 4.04116E-01 1.62262E-03 5.50738E-01 4.06210E-14 1.93987E-13
 -1      3326 1.98460E+01 3.44156E-01 2.22481E-04 6.17140E-01 2.73359E-13 1.11724E-13
 -1      3327 1.97003E+01 4.65494E-01 3.36364E-04 5.63905E-01 2.39274E-13-9.25192E-15
 -1      3328 2.02790E+01 1.13034E+00 2.87142E-03 5.42222E-01 1.12028E-13 3.06698E-14
 -1      3329 2.02873E+01 1.10421E+00-6.54502E-04-6.31845E-01-5.51277E-14-1.41549E-13
 -1      3330 2.02584E+01 8.94212E-01-4.31405E-03-4.63819E-01-4.17194E-14-1.22640E-13
 -1      3331 2.02899E+01 9.31433E-01 1.81687E-03-4.08497E-01-3.40070E-14-1.19723E-13
 -1      3332 2.00701E+01 2.10714E+00-3.08562E-03 3.91220E-01 1.57030E-13-4.34123E-14
 -1      3333 2.01659E+01 1.85009E+00 5.10051E-03 2.90647E-01 1.38810E-13-5.03820E-14
 -1      3334 2.00950E+01 2.02734E+00-5.23734E-03 5.05098E-01 1.67034E-13-9.38312E-15
 -1      3335 1.97525E+01 7.05928E-01 2.13228E-03-7.07517E-01 2.92079E-13 1.51649E-13
 -1      3336 2.00673E+01 2.11312E+00-3.07616E-03-3.83649E-01 6.59447E-14-1.24506E-13
 -1      3337 2.00912E+01 2.03513E+00-5.29145E-03-4.98031E-01 5.41166E-14-1.40953E-13
 -1      3338 2.02028E+01 1.70558E+00 5.37493E-03-4.54045E-01 1.72335E-14-1.20267E-13
 -1      3339 1.04543E+01 1.12249E+00 6.58041E-02-4.11745E-01 1.87560E-13-1.04805E-13
 -1      3340 1.00681E+01 8.03711E-01 1.19065E-01-1.89994E+00 1.36266E-13-2.81067E-13
 -1      3341 1.18573E+01 8.21435E-01 8.97707E-02-2.23627E+00 1.21064E-13-2.91690E-13
 -1      3342 2.02784E+01 7.46891E-01 5.47534E-04 3.15494E-01 9.60835E-14 3.52694E-14
 -1      3343 2.00273E+01 5.23227E-02 8.54491E-04-2.23686E-01 9.37628E-15 1.04268E-13
 -1      3344 2.00290E+01 3.65034E-02-5.50331E-04-2.14514E-01 3.84252E-15 1.12903E-13
 -1      3345 2.02707E+01 2.47669E-01 2.04563E-03 4.57100E-02-1.26289E-14-8.65071E-14
 -1      3346 2.02467E+01 1.74959E-01-1.19945E-03 8.85098E-02-1.23950E-15-5.84012E-14
 -1      3347 2.02313E+01 1.19015E-01 1.52086E-03 1.16810E-01 6.43414E-15-6.21579E-14
 -1      3348 2.02103E+01 7.38426E-02-5.45052E-04 1.41547E-01 5.81047E-14-3.33820E-14
 -1      3349 2.02873E+01 1.76021E-01-4.21619E-04 8.59322E-02 2.61970E-14-6.92438E-15
 -1      3350 2.01917E+01 4.07068E-02 9.91317E-04 1.57013E-01 7.87949E-14-4.28519E-14
 -1      3351 2.01744E+01 1.56681E-02-8.08604E-05 1.69943E-01 9.12387E-14-4.89997E-14
 -1      3352 2.02483E+01 7.33082E-02-5.47288E-04 1.32764E-01 5.85797E-14-3.73946E-14
 -1      3353 2.01548E+01-8.38354E-04 5.38927E-04 1.77354E-01 9.81508E-14-9.43925E-14
 -1      3354 2.01411E+01-1.10550E-02 2.35569E-04 1.83466E-01 7.57057E-14-3.39894E-14
 -1      3355 2.02076E+01 1.53585E-02-5.56289E-04 1.58340E-01 7.91486E-14-1.19162E-13
 -1      3356 2.01215E+01-1.52291E-02 1.63174E-04 1.86667E-01 3.19305E-14-8.01571E-16
 -1      3357 2.01106E+01-1.42884E-02 4.45063E-04 1.89833E-01-1.32905E-14 2.07346E-14
 -1      3358 2.01677E+01-9.40258E-03-4.86454E-04 1.71198E-01 7.42390E-14-7.64140E-14
 -1      3359 2.00912E+01-9.01052E-03-1.54091E-04 1.91826E-01-4.36574E-14 3.81444E-14
 -1      3360 2.00825E+01 6.94585E-04 5.78786E-04 1.95038E-01-3.59509E-14 3.64021E-14
 -1      3361 2.01293E+01-9.10234E-03-3.61765E-04 1.78155E-01-1.60510E-14-5.96125E-14
 -1      3362 2.00627E+01 1.36412E-02-4.38031E-04 1.98137E-01-5.27936E-14-8.07372E-15
 -1      3363 2.00551E+01 3.07320E-02 6.57878E-04 2.03731E-01-5.45290E-14-4.54959E-14
 -1      3364 2.00918E+01 1.08648E-02-1.89680E-04 1.84509E-01-4.73851E-14-5.97771E-14
 -1      3365 2.00340E+01 5.04263E-02-7.23360E-04 2.09717E-01-2.24326E-14-3.27579E-14
 -1      3366 2.00264E+01 7.43892E-02 7.29016E-04 2.19563E-01 7.94222E-15 1.50899E-15
 -1      3367 2.00535E+01 4.73069E-02 3.80756E-05 1.94309E-01-6.86998E-15-8.73342E-14
 -1      3368 2.00011E+01 1.02177E-01-1.02821E-03 2.30361E-01 1.64349E-14 2.58080E-15
 -1      3369 1.99909E+01 1.34851E-01 7.17761E-04 2.47063E-01-2.45978E-15 5.40377E-14
 -1      3370 2.00106E+01 1.00184E-01 2.77948E-04 2.11169E-01 9.37218E-15-2.09464E-14
 -1      3371 1.99609E+01 1.68619E-01-1.37772E-03 2.62824E-01-1.94908E-14 7.72196E-14
 -1      3372 1.99471E+01 2.07689E-01 5.76454E-04 2.85973E-01-6.10480E-14 6.38599E-14
 -1      3373 1.99597E+01 1.69101E-01 7.44935E-04 2.37086E-01 1.71996E-15-3.32718E-14
 -1      3374 1.99084E+01 2.49698E-01-1.79027E-03 3.07656E-01-1.14431E-13 1.38567E-13
 -1      3375 1.98872E+01 2.97820E-01 3.84222E-04 3.39012E-01-9.33153E-14 1.05981E-13
 -1      3376 1.98965E+01 2.52968E-01 1.28060E-03 2.72655E-01-4.82995E-14 1.06527E-13
 -1      3377 1.98349E+01 3.49551E-01-2.31901E-03 3.66808E-01-5.23155E-14 1.79078E-13
 -1      3378 1.98016E+01 4.08406E-01 3.96638E-05 4.07096E-01-2.01050E-14 1.90662E-13
 -1      3379 1.98119E+01 3.55737E-01 2.02966E-03 3.18708E-01-3.96624E-14 2.52535E-13
 -1      3380 1.97292E+01 4.71637E-01-2.99775E-03 4.40612E-01-2.37339E-14 1.85748E-13
 -1      3381 1.96771E+01 5.42975E-01-5.29238E-04 4.90109E-01 1.71216E-14 2.04277E-13
 -1      3382 1.96953E+01 4.80394E-01 3.07420E-03 3.74348E-01-3.49065E-14 2.98590E-13
 -1      3383 1.95758E+01 6.19373E-01-3.88467E-03 5.28175E-01 3.41947E-15 1.89447E-13
 -1      3384 1.94953E+01 7.04516E-01-1.40750E-03 5.86528E-01-3.86407E-14 2.22019E-13
 -1      3385 1.95315E+01 6.29984E-01 4.53022E-03 4.36977E-01 1.32625E-14 1.50200E-13
 -1      3386 1.93530E+01 7.94878E-01-5.07956E-03 6.27046E-01-7.47356E-14 3.20512E-13
 -1      3387 1.92310E+01 8.93732E-01-2.68165E-03 6.93209E-01-8.26006E-14 3.61680E-13
 -1      3388 1.93002E+01 8.06536E-01 6.55202E-03 5.01806E-01 3.19730E-14 2.99011E-13
 -1      3389 1.90310E+01 9.96598E-01-6.77684E-03 7.33251E-01-1.08994E-13 3.54643E-13
 -1      3390 1.88503E+01 1.10595E+00-4.39767E-03 8.05839E-01-2.94338E-14 3.01162E-13
 -1      3391 1.89735E+01 1.00924E+00 9.35007E-03 5.61613E-01-1.03763E-13 4.64472E-13
 -1      3392 1.85695E+01 1.21523E+00-9.34686E-03 8.42398E-01 4.74237E-14 2.33127E-13
 -1      3393 1.83083E+01 1.32605E+00-6.43721E-03 9.21163E-01 1.08664E-13 2.44738E-13
 -1      3394 1.85135E+01 1.23152E+00 1.32646E-02 6.07276E-01-2.18048E-14 3.50081E-13
 -1      3395 1.79134E+01 1.42729E+00-1.35352E-02 9.53570E-01 9.88461E-14 2.12220E-13
 -1      3396 1.75452E+01 1.52042E+00-8.47893E-03 1.04349E+00 6.88395E-14 2.13061E-13
 -1      3397 1.78677E+01 1.45724E+00 1.90352E-02 6.30312E-01 8.18887E-14 3.11580E-13
 -1      3398 1.69858E+01 1.58568E+00-2.04912E-02 1.07762E+00 5.29965E-14 1.37295E-13
 -1      3399 1.64772E+01 1.62818E+00-8.64823E-03 1.19806E+00 6.10883E-14 1.17896E-13
 -1      3400 1.69609E+01 1.65504E+00 2.82701E-02 6.29038E-01 3.47705E-14 1.74330E-13
 -1      3401 1.56719E+01 1.60681E+00-2.81186E-02 1.25775E+00 6.90030E-14 9.80977E-14
 -1      3402 1.50157E+01 1.53310E+00 1.00024E-03 1.45323E+00 9.13685E-14-3.13291E-15
 -1      3403 1.56906E+01 1.77149E+00 5.08096E-02 6.25266E-01 5.87932E-14 5.86918E-14
 -1      3404 2.01433E+01-9.57547E-04 8.35829E-05-1.80832E-01 3.21866E-14 1.38327E-13
 -1      3405 2.01581E+01 1.70509E-02 8.13857E-04-1.71791E-01 4.06166E-14 1.15888E-13
 -1      3406 1.49516E+01 1.45630E+00 6.43736E-03-1.62952E+00-2.64081E-14 1.55424E-13
 -1      3407 1.56363E+01 1.55894E+00-2.63065E-02-1.40805E+00 2.77885E-14 1.59947E-13
 -1      3408 1.34797E+01 7.87519E-01 4.46628E-02-2.44067E+00-1.52555E-13 2.24078E-13
 -1      3409 1.39317E+01 1.28826E+00-2.31002E-02-1.80030E+00-4.89253E-14 1.93720E-13
 -1      3410 1.39448E+01 1.64899E+00 8.46687E-02-8.41635E-01-9.96705E-14 3.56137E-13
 -1      3411 1.17088E+01 1.31719E+00 1.53285E-01-1.18022E+00-3.59180E-13 3.07511E-13
 -1      3412 1.64695E+01 1.59088E+00-5.51738E-03-1.32998E+00-4.84031E-14 1.89890E-13
 -1      3413 1.69776E+01 1.55823E+00-2.05369E-02-1.19976E+00-4.94567E-14-5.53133E-14
 -1      3414 1.56177E+01 1.73483E+00 4.43498E-02-7.40841E-01-4.06368E-14-3.87472E-14
 -1      3415 1.75571E+01 1.50051E+00-7.84569E-03-1.15901E+00-5.68135E-14 7.13406E-14
 -1      3416 1.79315E+01 1.41419E+00-1.39236E-02-1.06344E+00 7.07272E-14 4.26204E-14
 -1      3417 1.69548E+01 1.63653E+00 2.87336E-02-7.36175E-01 6.00811E-15 7.15500E-14
 -1      3418 1.83421E+01 1.32059E+00-6.22302E-03-1.02747E+00 1.81469E-13-2.06263E-14
 -1      3419 1.86096E+01 1.21753E+00-9.79753E-03-9.44052E-01 5.03367E-14-1.22446E-13
 -1      3420 1.78956E+01 1.45192E+00 1.91186E-02-7.28892E-01 6.88855E-14 1.56078E-13
 -1      3421 1.89044E+01 1.12172E+00-3.50487E-03-9.05019E-01 6.05310E-15-9.01179E-14
 -1      3422 1.90873E+01 1.02200E+00-7.97017E-03-8.25128E-01-8.37844E-14 3.83936E-14
 -1      3423 1.85690E+01 1.24154E+00 1.23988E-02-6.99535E-01 9.20419E-14 6.47605E-14
 -1      3424 1.92572E+01 9.60169E-01-4.55111E-04-7.70208E-01-2.44846E-13 1.85985E-13
 -1      3425 1.93840E+01 8.78945E-01-4.56603E-03-6.97297E-01 6.49884E-14 2.74226E-13
 -1      3426 1.92789E+01 9.31666E-01 1.86099E-03-5.38949E-01-1.51129E-13 5.25684E-13
 -1      3427 1.89990E+01 1.06659E+00 7.22601E-03-6.31399E-01-9.22151E-14 4.00126E-13
 -1      3428 2.03153E+01 7.39680E-01 1.41049E-03-2.40040E-01-1.49134E-14-9.13234E-14
 -1      3429 2.03001E+01 5.78552E-01-2.54967E-03-1.39697E-01-1.91424E-14-1.22993E-13
 -1      3430 2.00446E+01 2.25308E-02 7.63444E-04-2.07238E-01 2.85608E-14 1.19915E-13
 -1      3431 2.00482E+01 9.23752E-03-3.96948E-04-2.01989E-01 9.24806E-14 1.86975E-13
 -1      3432 2.00435E+01 3.57255E-02-2.08064E-04-2.02931E-01 5.78778E-14 2.22369E-13
 -1      3433 2.00645E+01-1.53798E-03 6.62164E-04-1.98229E-01 1.28911E-13 1.69824E-13
 -1      3434 2.00701E+01-1.05739E-02-1.95620E-04-1.95557E-01 1.34372E-13 1.75596E-13
 -1      3435 2.00733E+01 7.15061E-03-2.96193E-04-1.91018E-01 9.60592E-14 1.97815E-13
 -1      3436 2.00127E+01 8.43495E-02 9.48218E-04-2.49710E-01-1.21153E-14 1.06194E-13
 -1      3437 2.00123E+01 6.78088E-02-6.56370E-04-2.35723E-01 2.60115E-14 9.15242E-14
 -1      3438 2.00154E+01 7.01467E-02-1.51619E-04-2.22869E-01 7.64444E-15 9.63352E-14
 -1      3439 2.00017E+01 1.14489E-01 1.05348E-03-2.86673E-01-2.84041E-14 7.62249E-14
 -1      3440 1.99987E+01 9.94287E-02-7.03101E-04-2.67442E-01-2.97146E-14 3.95855E-14
 -1      3441 1.99891E+01 1.06403E-01-1.49894E-04-2.53128E-01 2.04132E-15 1.67878E-14
 -1      3442 1.99965E+01 1.37345E-01 1.17443E-03-3.35063E-01-8.01566E-14 8.62998E-14
 -1      3443 1.99896E+01 1.26692E-01-6.64469E-04-3.10704E-01-5.05227E-14 5.80621E-14
 -1      3444 1.99654E+01 1.39644E-01-2.37489E-04-2.95423E-01-2.64664E-14 3.04330E-14
 -1      3445 2.00011E+01 1.45612E-01 1.30794E-03-3.94212E-01-1.76240E-13 6.74288E-14
 -1      3446 1.99882E+01 1.43337E-01-4.96205E-04-3.65567E-01-1.25700E-13 8.42101E-14
 -1      3447 1.99470E+01 1.63463E-01-4.63727E-04-3.50803E-01-1.06281E-13 1.74067E-14
 -1      3448 2.00225E+01 1.29586E-01 1.43703E-03-4.61791E-01-1.53092E-13 8.87722E-15
 -1      3449 2.00002E+01 1.40935E-01-1.31908E-04-4.30720E-01-1.69974E-13 5.97959E-14
 -1      3450 1.99387E+01 1.69194E-01-8.95484E-04-4.19396E-01-1.72489E-13-1.39347E-14
 -1      3451 2.00711E+01 7.70266E-02 1.51762E-03-5.32981E-01-7.91491E-14 1.99225E-14
 -1      3452 2.00345E+01 1.08530E-01 5.19613E-04-5.02793E-01-1.26477E-13 3.56828E-14
 -1      3453 1.99488E+01 1.45373E-01-1.61741E-03-4.99856E-01-1.50282E-13 5.95287E-14
 -1      3454 2.01614E+01-2.61473E-02 1.45417E-03-5.99233E-01-1.29336E-14-8.21554E-16
 -1      3455 2.01042E+01 3.28638E-02 1.57197E-03-5.75281E-01-5.12039E-14 1.58296E-14
 -1      3456 1.99902E+01 7.76349E-02-2.72520E-03-5.88383E-01-6.52679E-14 1.70549E-14
 -1      3457 2.03124E+01-1.93611E-01 1.07386E-03-6.46525E-01 1.85138E-14 1.43003E-14
 -1      3458 2.02273E+01-1.00283E-01 3.14250E-03-6.36946E-01 4.51887E-14 5.01735E-15
 -1      3459 2.00813E+01-5.04018E-02-4.30545E-03-6.77108E-01 1.28610E-14-9.08549E-14
 -1      3460 2.05458E+01-4.33705E-01 7.87861E-05-6.53160E-01 5.59410E-15 6.93083E-14
 -1      3461 2.04256E+01-3.02653E-01 5.33462E-03-6.69616E-01 8.65250E-15 5.31743E-14
 -1      3462 2.02466E+01-2.54411E-01-6.37499E-03-7.51555E-01 1.74208E-14 4.49952E-14
 -1      3463 2.08815E+01-7.39993E-01-1.89032E-03-5.87467E-01-7.57463E-14 1.58704E-13
 -1      3464 2.07226E+01-5.76780E-01 8.05514E-03-6.45505E-01-7.36052E-14 7.57180E-14
 -1      3465 2.05157E+01-5.43283E-01-8.77005E-03-7.87028E-01-1.04440E-13 1.32179E-13
 -1      3466 2.13270E+01-1.07536E+00-5.01027E-03-4.08305E-01-8.06084E-14 1.75594E-13
 -1      3467 2.11345E+01-9.03368E-01 1.08694E-02-5.25510E-01-2.35806E-14 1.56684E-13
 -1      3468 2.09176E+01-9.06763E-01-1.08885E-02-7.44177E-01-1.00564E-13 2.24413E-13
 -1      3469 2.18608E+01-1.35126E+00-8.85423E-03-7.30842E-02-1.11207E-13 3.41597E-13
 -1      3470 2.16560E+01-1.22315E+00 1.26393E-02-2.62617E-01-1.07331E-13 2.12763E-13
 -1      3471 2.14687E+01-1.29575E+00-1.13864E-02-5.67983E-01-1.38573E-13 2.67999E-13
 -1      3472 2.24116E+01-1.41004E+00-1.17831E-02 4.32907E-01-2.20690E-13 3.65300E-13
 -1      3473 2.22324E+01-1.41326E+00 1.02932E-02 1.80269E-01-1.44890E-13 3.43465E-13
 -1      3474 2.21477E+01-1.58970E+00-7.49917E-03-1.95147E-01-1.67939E-13 1.83917E-13
 -1      3475 2.28446E+01-1.04978E+00-1.01534E-02 1.03420E+00-2.15722E-13 4.27352E-13
 -1      3476 2.27397E+01-1.28293E+00 9.70356E-04 7.78441E-01-2.03895E-13 4.68955E-13
 -1      3477 2.28388E+01-1.59796E+00-9.53341E-03 4.13858E-01-2.07411E-13 2.73177E-13
 -1      3478 2.30486E+01-1.15825E-01 9.58146E-03 1.56120E+00-2.11376E-13 3.32476E-13
 -1      3479 2.30482E+01-6.65396E-01-9.78737E-03 1.39709E+00-1.82861E-13 3.81543E-13
 -1      3480 2.33992E+01-1.06442E+00-1.35909E-02 1.16441E+00-1.90526E-13 2.58382E-13
 -1      3481 2.28856E+01 1.25467E+00 1.39293E-02 1.65298E+00-1.64890E-13 3.81325E-13
 -1      3482 2.29656E+01 5.18857E-01-3.57973E-02 1.72443E+00-2.05083E-13 3.57690E-13
 -1      3483 2.36099E+01 1.32408E-01 1.23156E-02 1.71776E+00-1.73406E-13 3.03138E-13
 -1      3484 2.25528E+01 2.52119E+00 7.48255E-03 1.04740E+00 1.42127E-13 3.02099E-13
 -1      3485 2.26569E+01 1.94382E+00-3.41582E-02 1.42083E+00 4.57462E-14 4.33539E-13
 -1      3486 2.34099E+01 1.80500E+00 8.69484E-04 1.69647E+00-8.58272E-14 3.24385E-13
 -1      3487 2.25706E+01 2.26012E+00-3.47309E-02-1.19323E+00 9.74585E-14 9.66007E-14
 -1      3488 2.24860E+01 2.73482E+00 1.47922E-03-7.61308E-01 4.42268E-14 8.11807E-14
 -1      3489 2.29113E+01 8.76680E-01-3.69467E-02-1.68557E+00 1.25088E-13 5.43966E-15
 -1      3490 2.28039E+01 1.61122E+00 1.00223E-02-1.54742E+00 8.90529E-14 6.33550E-14
 -1      3491 2.33225E+01 2.22840E+00-4.67824E-03-1.54195E+00 1.50234E-13 8.13533E-14
 -1      3492 2.30648E+01-4.16268E-01-1.91140E-02-1.50079E+00 5.09905E-14 9.49640E-14
 -1      3493 2.30249E+01 1.96532E-01 3.43315E-03-1.62066E+00 7.34430E-14-7.41098E-15
 -1      3494 2.35938E+01 5.77609E-01 3.71080E-03-1.76161E+00 4.97449E-14-2.95770E-14
 -1      3495 2.28637E+01-1.20981E+00-2.49668E-03-9.12228E-01-2.74249E-14 3.02784E-13
 -1      3496 2.29407E+01-8.89494E-01-7.41558E-03-1.17175E+00 5.50013E-14 1.32852E-13
 -1      3497 2.35251E+01-8.32988E-01 8.19106E-03-1.28059E+00-5.36010E-14 3.51854E-14
 -1      3498 2.23954E+01-1.45051E+00 8.46266E-03-2.80905E-01 2.78211E-13 1.91525E-13
 -1      3499 2.25612E+01-1.39153E+00-1.03082E-02-5.50867E-01 1.30843E-13 2.72408E-13
 -1      3500 2.30439E+01-1.53748E+00 3.56297E-03-5.45096E-01 7.29833E-14 2.55067E-14
 -1      3501 2.18243E+01-1.32034E+00 1.24054E-02 2.14971E-01 2.60860E-13-9.67130E-14
 -1      3502 2.20270E+01-1.42357E+00-9.39845E-03 2.71295E-03 3.15527E-13 9.00279E-14
 -1      3503 2.23594E+01-1.65998E+00-6.33426E-03 1.05011E-01 3.70844E-13-1.26687E-13
 -1      3504 2.12860E+01-1.01749E+00 1.15743E-02 5.28607E-01-2.85260E-14 1.19546E-14
 -1      3505 2.14832E+01-1.18565E+00-5.80353E-03 3.90132E-01 1.02051E-13-9.97401E-14
 -1      3506 2.16672E+01-1.41865E+00-1.08519E-02 5.41157E-01 2.78549E-13-1.17283E-13
 -1      3507 2.08495E+01-6.79935E-01 8.86346E-03 6.87369E-01-5.84206E-14 1.97648E-13
 -1      3508 2.10166E+01-8.51715E-01-2.45064E-03 6.12761E-01-9.18446E-14 1.98254E-14
 -1      3509 2.10868E+01-1.03736E+00-1.12865E-02 7.68614E-01-8.04609E-14-3.84924E-14
 -1      3510 2.05295E+01-3.77894E-01 6.13650E-03 7.36849E-01 6.83109E-14 2.58755E-13
 -1      3511 2.06581E+01-5.25000E-01-2.96808E-04 7.09593E-01 8.48494E-15 2.90190E-13
 -1      3512 2.06554E+01-6.53259E-01-9.40122E-03 8.46269E-01-1.19362E-13-9.21003E-14
 -1      3513 2.03070E+01-1.39154E-01 1.04279E-03 7.17220E-01 1.88960E-13 2.60299E-13
 -1      3514 2.04042E+01-2.52278E-01 2.86117E-04 7.21505E-01 1.70937E-13 3.96176E-13
 -1      3515 2.03634E+01-3.27681E-01-6.58885E-03 8.31152E-01 9.92179E-14 1.74559E-13
 -1      3516 2.66956E+01-6.78173E-02-1.08402E-02 1.63996E+00-3.03986E-13 8.22745E-14
 -1      3517 2.60520E+01 1.27502E+00-8.25508E-02 2.00587E+00-1.85386E-13 1.55660E-13
 -1      3518 2.60471E+01-8.89036E-01-4.48928E-03 1.31987E+00-3.41376E-13-4.27436E-15
 -1      3519 2.48869E+01 3.00363E+00-7.64091E-02-1.81356E+00 2.77070E-13 9.16888E-14
 -1      3520 2.55221E+01 1.86194E+00-2.70875E-03-2.09448E+00 2.86687E-13-6.90975E-14
 -1      3521 1.91409E+01 9.02192E-01-3.58797E-03-7.08677E-02-2.81315E-13 1.89199E-13
 -1      3522 1.91659E+01 8.69496E-01 1.16436E-03 8.22001E-02-2.89245E-13 1.47748E-13
 -1      3523 1.41489E+01-7.90528E-01 6.44664E-02 4.62455E+00-2.90927E-13 6.26582E-15
 -1      3524 1.27361E+01 1.28148E-01 3.93632E-02 3.47208E+00-2.95833E-13-2.08861E-14
 -1      3525 2.02609E+01 1.36916E+00 3.33934E-03-5.38314E-01-2.54429E-14-1.16488E-13
 -1      3526 2.02211E+01 1.58419E+00 1.98390E-03-6.99841E-01-2.81587E-14-1.38176E-13
 -1      3527 1.92220E+01 7.83084E-01-4.74426E-03 2.43523E-01-6.70772E-14-1.88916E-13
 -1      3528 1.93051E+01 7.27532E-01 3.76694E-03 3.68497E-01 1.19478E-13-1.65174E-13
 -1      3529 1.90744E+01 8.47555E-01 3.30307E-03 2.22413E-01-6.76544E-14-1.66160E-13
 -1      3530 2.02793E+01 4.47527E-01-2.30099E-03 7.23476E-02 1.03858E-13 4.13290E-14
 -1      3531 2.03027E+01 5.80844E-01 1.90344E-03 1.60555E-01 7.32289E-14 2.51983E-14
 -1      3532 2.35288E+01-3.80723E+00 2.44804E-02-2.77639E+00-3.81673E-13-1.10813E-13
 -1      3533 2.47603E+01-3.50125E+00-3.78441E-02-1.44828E+00-4.58237E-13-8.80962E-14
 -1      3534 2.02859E+01 1.06723E+00-2.68045E-04 4.26037E-01 1.13101E-13 2.47186E-14
 -1      3535 2.02709E+01 1.24741E+00-3.49189E-03 5.14979E-01 1.14007E-13 6.57295E-15
 -1      3536 2.02580E+01 1.38751E+00 6.10884E-04 4.72250E-01 1.27626E-13-3.76430E-15
 -1      3537 2.00357E+01 2.20405E+00-3.37208E-03-1.62737E-01 9.85673E-14-1.29883E-13
 -1      3538 2.00480E+01 2.16724E+00-4.22216E-03-2.84331E-01 8.38965E-14-1.25000E-13
 -1      3539 2.01643E+01 1.85507E+00 5.29534E-03-2.84685E-01 6.61356E-14-1.11545E-13
 -1      3540 2.03033E+01 4.45870E-01 2.33459E-03-6.89977E-02-1.60967E-14-1.25530E-13
 -1      3541 2.02794E+01 3.35352E-01-2.01042E-03-7.72583E-04-2.38826E-14-1.01669E-13
 -1      3542 2.03194E+01 3.39127E-01-1.71914E-04 7.77360E-03-4.04074E-15-7.50938E-14
 -1      3543 2.58313E+01 1.78166E-01-1.04390E-01-1.76606E+00 1.39510E-13-2.85836E-13
 -1      3544 2.60784E+01-1.42677E+00 4.27486E-02-9.94520E-01 1.01443E-13-4.19845E-13
 -1      3545 2.49664E+01 6.25134E-01-1.13090E-02-1.81792E+00 1.27011E-13-1.22242E-13
 -1      3546 2.33092E+01-3.94339E+00-6.64978E-02 2.87026E+00 1.67602E-13-5.42623E-13
 -1      3547 2.17068E+01-3.51744E+00 3.85044E-02 3.77962E+00-2.33138E-14-2.45365E-13
 -1      3548 1.94037E+01 6.16210E-01-4.77118E-03 4.83108E-01 1.62628E-13-5.50761E-14
 -1      3549 1.95159E+01 5.47573E-01 3.78915E-03 5.64461E-01 2.26297E-13-2.05394E-13
 -1      3550 1.92619E+01 6.59437E-01 2.72663E-04 5.04193E-01 6.87696E-14-1.40165E-13
 -1      3551 1.92005E+01 9.29413E-01-3.69154E-03-3.83256E-01-2.45568E-13 2.72808E-13
 -1      3552 1.91574E+01 9.33536E-01-6.71399E-04-2.26976E-01-3.36885E-13 1.12298E-13
 -1      3553 1.90034E+01 9.62877E-01 2.19116E-03-1.07350E-01-2.04723E-13 1.65404E-13
 -1      3554 1.90748E+01 9.91080E-01 2.37542E-04-4.22678E-01-2.98357E-13 5.25970E-13
 -1      3555 2.55042E+01-2.92632E+00-1.09298E-01 2.49988E-01 1.34010E-13-5.63466E-13
 -1      3556 2.47399E+01-3.48168E+00 5.94997E-02 1.55895E+00 1.35563E-13-4.88382E-13
 -1      3557 2.02950E+01 7.04129E-01-2.43053E-03 2.23448E-01 7.98123E-14 1.72367E-14
 -1      3558 2.03075E+01 8.89439E-01 4.85135E-04 3.44879E-01 1.00144E-13 2.11342E-14
 -1      3559 2.03101E+01 1.01566E+00 7.98577E-04 3.27659E-01 9.56319E-14-1.34271E-14
 -1      3560 2.03278E+01 7.15986E-01 1.57494E-03 1.85772E-01 7.38344E-14 5.02873E-15
 -1      3561 2.52446E+01-3.12279E+00 1.85538E-02-7.18203E-01-4.19295E-13-1.22760E-13
 -1      3562 2.52574E+01-2.49290E+00-3.42026E-02 7.24847E-02-4.32253E-13-1.33163E-13
 -1      3563 2.41657E+01-3.16962E+00-7.62677E-03-1.22384E+00-3.63585E-13-2.04297E-13
 -1      3564 1.63460E+01-1.15248E+00-9.07807E-03-4.30101E+00-1.65840E-13-3.75741E-15
 -1      3565 1.76550E+01-1.93268E+00 7.66856E-02-4.75728E+00-1.99033E-13 2.52298E-14
 -1      3566 2.02082E+01 1.64376E+00-3.27247E-03 1.30399E-01 1.31972E-13-4.47998E-14
 -1      3567 2.02042E+01 1.66364E+00-2.61756E-03 4.01050E-02 9.93209E-14-6.82649E-14
 -1      3568 2.02157E+01 4.11749E-02-6.11487E-04-1.50462E-01 6.86699E-14 6.67571E-14
 -1      3569 2.01768E+01 4.18355E-02-3.05842E-04-1.60286E-01 4.89879E-14 1.26110E-13
 -1      3570 2.01958E+01 7.66056E-02 1.33259E-03-1.41524E-01 6.70427E-14 1.23151E-13
 -1      3571 1.34639E+01 1.36404E+00 3.82543E-03 1.67516E+00 1.88188E-13-2.67494E-15
 -1      3572 1.12251E+01 5.59393E-01 1.11153E-01 2.22436E+00 2.69141E-13 1.30562E-13
 -1      3573 2.00509E+01 1.59215E-01 3.75438E-03 6.59037E-01 1.57646E-13 1.02420E-13
 -1      3574 2.00929E+01 8.04827E-02-2.67197E-03 6.85896E-01 2.24033E-13 2.11519E-14
 -1      3575 1.99545E+01 2.08071E-01-1.88344E-03 6.75681E-01 1.34809E-13 1.04374E-13
 -1      3576 1.33839E+01 1.59153E+00 5.52166E-02 7.53685E-01 1.26436E-13 2.94816E-14
 -1      3577 2.01245E+01-1.20595E-02 3.93669E-04-1.85847E-01 6.25312E-14 1.31339E-13
 -1      3578 2.01764E+01-1.25291E-03-5.76100E-04-1.69517E-01 5.47989E-14 8.33247E-14
 -1      3579 2.01134E+01-1.79661E-02 3.49396E-04-1.89653E-01 7.23366E-14 1.26198E-13
 -1      3580 2.56335E+01 2.08759E+00-5.92935E-02 2.06905E+00-2.12996E-13 3.75394E-15
 -1      3581 2.49564E+01 2.87644E+00-4.06968E-02 1.87879E+00-2.16216E-13-3.77129E-15
 -1      3582 2.52961E+01 1.10684E+00-2.32479E-02 1.93296E+00-1.97745E-13-2.29886E-14
 -1      3583 2.47643E+01 4.80563E+00-9.76092E-02 6.92340E-01 2.23398E-13 1.71653E-13
 -1      3584 2.41736E+01 4.50012E+00-5.50565E-02 1.51660E-01 2.81955E-13 2.62604E-13
 -1      3585 2.45058E+01 4.04781E+00-5.10973E-02 1.19304E+00 7.06102E-14 2.41135E-13
 -1      3586 2.03352E+01 5.84751E-01 5.00575E-04-1.12254E-01-2.90162E-14-9.78446E-14
 -1      3587 2.01628E+01 1.21938E-01-1.12158E-03-1.18964E-01 8.70961E-14 1.35160E-13
 -1      3588 1.24378E+01 6.87002E-01 1.03323E-01 2.75010E+00-2.32763E-13 2.13829E-13
 -1      3589 1.22004E+01 9.90801E-01 2.29663E-02 1.74830E+00-2.02999E-13 3.24518E-13
 -1      3590 1.37367E+01 3.34742E-01 2.53405E-02 3.11829E+00-2.31139E-13 3.03819E-14
 -1      3591 2.23954E+01 2.95689E+00-1.07926E-02-9.76605E-02 7.22053E-14 1.81908E-13
 -1      3592 2.24165E+01 2.87949E+00-1.38936E-02 4.41270E-01 1.02375E-13 2.66100E-13
 -1      3593 2.02265E+01-5.98324E-02 1.95344E-03 7.20444E-01 2.36106E-13 1.84525E-13
 -1      3594 2.06699E+01-3.22573E+00 5.62333E-03 4.18036E+00-2.00730E-13-1.29671E-14
 -1      3595 1.94043E+01-2.56336E+00 1.50701E-02 4.27241E+00-2.95427E-13 2.29660E-14
 -1      3596 2.16348E+01-3.01330E+00 3.59368E-02 3.23175E+00-1.10226E-13-1.72372E-13
 -1      3597 1.90353E+01-2.36239E+00 2.66095E-02-4.32548E+00-2.81089E-13-1.18506E-13
 -1      3598 1.61334E+01-1.25192E+00 5.65656E-02 4.50356E+00-3.34038E-13-6.50070E-14
 -1      3599 2.36896E+01 3.86067E+00-4.72869E-02-8.29017E-01 2.21677E-13 2.84715E-13
 -1      3600 2.42294E+01 3.52921E+00-5.08537E-02-1.44272E+00 2.34032E-13 2.20457E-13
 -1      3601 2.02399E+01 1.49248E+00-1.14712E-03-3.40900E-01 3.19346E-14-8.82676E-14
 -1      3602 2.02526E+01 1.39430E+00-4.43861E-03-4.08595E-01-2.39327E-15-1.03041E-13
 -1      3603 2.30664E+01 3.11838E+00-1.87242E-02 8.37144E-01 1.56595E-13 4.06240E-13
 -1      3604 2.11321E+01-3.10953E+00-6.39518E-03-3.62728E+00-2.84928E-13-2.27815E-13
 -1      3605 2.24860E+01-3.63506E+00 4.32444E-03-3.32447E+00-3.32831E-13-2.07545E-13
 -1      3606 2.29376E+01-3.19697E+00 2.21510E-02-2.30526E+00-3.16492E-13-3.02217E-14
 -1      3607 2.02752E+01 3.38892E-01 2.43860E-03 1.11800E-02 1.05912E-13 7.75325E-14
 -1      3608 2.03196E+01 4.54703E-01-6.27452E-05 5.51225E-02 6.88451E-14 2.65933E-14
 -1      3609 2.02492E+01 2.48779E-01-1.63861E-03-4.58255E-02 8.53964E-14 1.09498E-13
 -1      3610 2.01434E+01 1.92720E+00 5.07255E-03-9.47431E-02 1.01633E-13-1.14071E-13
 -1      3611 1.19246E+01 1.29955E+00 6.68050E-03-7.11606E-02-1.77281E-13 5.12333E-13
 -1      3612 2.00873E+01-1.63959E-02 5.31692E-04-1.93694E-01 1.27602E-13 1.23624E-13
 -1      3613 2.00954E+01-1.92101E-02 6.27232E-05-1.91725E-01 8.18059E-14 1.29423E-13
 -1      3614 2.01394E+01-1.63568E-02-4.95473E-04-1.78652E-01 7.76852E-14 8.38954E-14
 -1      3615 2.01051E+01-1.16780E-02-3.94395E-04-1.84189E-01 1.15867E-13 1.39678E-13
 -1      3616 1.06031E+01 1.13972E+00 1.34676E-01 5.48905E-01 2.18445E-13 4.71845E-14
 -1      3617 1.16886E+01 1.23803E+00 5.43096E-02-2.29536E-01 1.65751E-13-2.44110E-14
 -1      3618 1.96020E+01 4.57453E-01-3.28918E-03 6.18000E-01 2.41460E-13 9.16170E-14
 -1      3619 1.96919E+01 4.01626E-01 3.05549E-03 6.56438E-01 2.53495E-13 6.31757E-14
 -1      3620 1.94920E+01 4.71548E-01-1.08350E-04 6.68134E-01 1.55578E-13-5.36132E-14
 -1      3621 2.02743E+01 1.28442E+00 1.95821E-03-4.25610E-01-6.41433E-15-9.07225E-14
 -1      3622 2.02975E+01 1.04790E+00-2.73277E-03-4.23084E-01-4.28084E-14-8.58337E-14
 -1      3623 2.02977E+01 8.58478E-01-2.16285E-03-3.03599E-01-2.90086E-14-9.06172E-14
 -1      3624 2.03100E+01 1.10251E+00 1.29234E-03-3.10205E-01 6.23884E-15-9.00965E-14
 -1      3625 2.02036E+01 1.69717E+00 4.52588E-03 4.57827E-01 1.40013E-13-2.09113E-15
 -1      3626 2.51809E+01-1.98436E+00-2.87888E-03-4.83552E-01-1.12429E-14-5.15015E-13
 -1      3627 2.38027E+01-3.28789E+00 2.21950E-02 1.78497E+00 9.42527E-14-5.86555E-13
 -1      3628 1.26979E+01 1.08658E+00 4.30731E-03-1.80123E+00 1.27957E-13-1.48465E-13
 -1      3629 1.31307E+01 6.90865E-01 1.06838E-01-2.87248E+00 3.91093E-14-2.17302E-13
 -1      3630 2.02262E+01 1.55361E+00-3.65954E-03 2.82851E-01 1.36061E-13-4.72223E-14
 -1      3631 2.02156E+01 1.61110E+00-2.15321E-03 2.01589E-01 1.35448E-13-6.42345E-14
 -1      3632 2.02915E+01 1.39248E+00 5.59230E-03 1.34386E-01 1.23064E-13-4.31746E-14
 -1      3633 1.43086E+01 1.70668E-01 2.09193E-02-3.31854E+00-7.28744E-14-1.52989E-13
 -1      3634 2.03248E+01 8.63368E-01 1.46258E-03-2.50923E-01-1.97842E-14-7.87906E-14
 -1      3635 2.30116E+01 3.28447E+00-2.21066E-02-4.91156E-01 1.75542E-13 1.64157E-13
 -1      3636 1.55715E+01-2.07221E-01 7.45133E-02-3.73559E+00-1.07742E-13-1.47970E-13
 -1      3637 1.69450E+01-7.60420E-01 1.95351E-02-3.69228E+00-1.22597E-13 1.73056E-14
 -1      3638 1.49713E+01 4.09271E-01-1.09456E-02-2.85741E+00-6.88494E-14-1.48347E-13
 -1      3639 2.02866E+01 1.42719E+00 5.63049E-03 1.78030E-03 7.26704E-14-8.05960E-14
 -1      3640 2.02032E+01 1.66418E+00-2.86694E-03-3.44221E-02 9.30865E-14-1.10218E-13
 -1      3641 2.02067E+01 1.64541E+00-3.59452E-03-1.23956E-01 8.95750E-14-1.32953E-13
 -1      3642 2.02995E+01 1.07703E-01 9.53651E-04 1.05173E-01 3.26465E-14 7.96502E-16
 -1      3643 2.02773E+01 6.45466E-02-4.37405E-04 1.23720E-01 5.50903E-14-3.73363E-14
 -1      3644 2.02555E+01 3.33539E-02 6.23869E-04 1.33706E-01 8.40401E-14-4.77808E-14
 -1      3645 2.02340E+01 1.10137E-02-5.59274E-05 1.43838E-01 8.52718E-14-6.10990E-14
 -1      3646 2.02985E+01 6.11774E-02-2.60991E-04 1.09608E-01 5.27456E-14-7.57336E-15
 -1      3647 2.02096E+01-2.60538E-03 3.16930E-04 1.48697E-01 7.55103E-14-6.41166E-14
 -1      3648 2.01894E+01-9.29622E-03 1.95130E-04 1.54146E-01 3.56974E-14-9.41053E-14
 -1      3649 2.02505E+01 1.07215E-02-3.35086E-04 1.26541E-01 5.82125E-14-4.54565E-14
 -1      3650 2.01637E+01-9.60703E-03 3.80692E-05 1.56561E-01 2.58667E-14-1.08231E-13
 -1      3651 2.01445E+01-4.28179E-03 3.42068E-04 1.60262E-01-1.28582E-14-1.05612E-13
 -1      3652 2.02002E+01-5.69596E-03-2.98219E-04 1.35622E-01 2.83911E-14-1.08490E-13
 -1      3653 2.01177E+01 5.81929E-03-2.18730E-04 1.62302E-01-4.85415E-14-6.39125E-14
 -1      3654 2.00990E+01 2.07756E-02 4.04863E-04 1.66507E-01-2.67257E-14-3.94148E-14
 -1      3655 2.01485E+01 4.04823E-03-1.76981E-04 1.41459E-01 1.58325E-14-1.04161E-13
 -1      3656 2.00705E+01 3.94794E-02-4.75122E-04 1.69690E-01 5.41799E-15-7.75958E-14
 -1      3657 2.00511E+01 6.27162E-02 4.16446E-04 1.76092E-01 2.28448E-16-4.79246E-14
 -1      3658 2.00950E+01 3.47135E-02 3.17572E-05 1.47512E-01-3.38636E-14-5.10744E-14
 -1      3659 2.00180E+01 9.06482E-02-7.35021E-04 1.81750E-01 9.05879E-15-4.16497E-14
 -1      3660 1.99946E+01 1.23372E-01 3.28206E-04 1.92192E-01 1.78006E-14-2.01374E-14
 -1      3661 2.00360E+01 8.45049E-02 2.82745E-04 1.56474E-01 9.06521E-15-2.61635E-14
 -1      3662 1.99576E+01 1.57806E-01-1.01103E-03 2.00418E-01 4.71634E-15-2.06545E-14
 -1      3663 1.99300E+01 1.96965E-01 9.97457E-05 2.14612E-01-7.56499E-15-1.98664E-14
 -1      3664 1.99692E+01 1.51395E-01 7.07852E-04 1.69638E-01 3.49188E-14 6.43392E-14
 -1      3665 1.98849E+01 2.39481E-01-1.30390E-03 2.25609E-01 2.68703E-14 3.20547E-14
 -1      3666 1.98486E+01 2.87073E-01-2.24825E-04 2.44246E-01 1.40109E-14 1.70169E-13
 -1      3667 1.98911E+01 2.32960E-01 1.20164E-03 1.86920E-01 5.86627E-14 1.15279E-13
 -1      3668 1.97913E+01 3.38544E-01-1.64643E-03 2.57357E-01-7.44381E-15 1.21168E-13
 -1      3669 1.97414E+01 3.95527E-01-7.33190E-04 2.80046E-01-2.36165E-15 1.81846E-13
 -1      3670 1.97932E+01 3.31494E-01 1.86377E-03 2.07549E-01 4.24350E-15 9.38312E-14
 -1      3671 1.96666E+01 4.57060E-01-2.04270E-03 2.93747E-01-7.86822E-14 2.29833E-13
 -1      3672 1.95963E+01 5.24414E-01-1.50492E-03 3.19239E-01-9.84580E-14 2.10695E-13
 -1      3673 1.96663E+01 4.48273E-01 2.74588E-03 2.28793E-01-3.80845E-14 7.84239E-14
 -1      3674 1.94971E+01 5.97023E-01-2.51048E-03 3.30814E-01-4.41766E-14 2.32075E-13
 -1      3675 1.93972E+01 6.75355E-01-2.64467E-03 3.56702E-01 3.20544E-14 1.95406E-13
 -1      3676 1.94982E+01 5.84469E-01 3.92518E-03 2.45606E-01-5.65250E-14 1.51586E-13
 -1      3677 1.92644E+01 7.59428E-01-3.08918E-03 3.61877E-01 5.45881E-14 2.52463E-13
 -1      3678 1.91222E+01 8.48305E-01-4.28816E-03 3.84301E-01 1.83006E-14 2.78970E-13
 -1      3679 1.92727E+01 7.40251E-01 5.50739E-03 2.49838E-01 7.22935E-14 2.34016E-13
 -1      3680 1.89434E+01 9.42753E-01-3.87207E-03 3.76894E-01-7.69084E-15 2.53266E-13
 -1      3681 1.87419E+01 1.03965E+00-6.60744E-03 3.90420E-01-6.56495E-14 3.35814E-13
 -1      3682 1.89683E+01 9.13494E-01 7.64518E-03 2.29348E-01 2.13998E-14 2.19681E-13
 -1      3683 1.85002E+01 1.14054E+00-5.06304E-03 3.62181E-01-6.21065E-14 3.23959E-13
 -1      3684 1.82159E+01 1.23926E+00-9.82846E-03 3.60190E-01 2.02905E-14 3.93549E-13
 -1      3685 1.85567E+01 1.09793E+00 1.05953E-02 1.67222E-01-7.10207E-16 2.55426E-13
 -1      3686 1.78874E+01 1.33773E+00-6.99779E-03 3.00496E-01 1.61666E-14 2.97426E-13
 -1      3687 1.74879E+01 1.42723E+00-1.37619E-02 2.76303E-01 2.55821E-14 2.48919E-13
 -1      3688 1.79994E+01 1.28014E+00 1.49890E-02 4.12059E-02-4.53988E-14 2.38356E-13
 -1      3689 1.70332E+01 1.50505E+00-1.13838E-02 1.74161E-01 1.08923E-14 2.37442E-13
 -1      3690 1.64690E+01 1.56593E+00-2.02844E-02 1.23080E-01 5.41646E-15 1.19634E-13
 -1      3691 1.72421E+01 1.44230E+00 2.38484E-02-1.77636E-01-1.05290E-14 2.03323E-13
 -1      3692 1.58250E+01 1.61038E+00-1.57695E-02-2.71378E-02 3.48476E-14 6.48682E-14
 -1      3693 1.49805E+01 1.61291E+00-2.58668E-02-8.27023E-02 6.59269E-14-1.53367E-14
 -1      3694 1.61855E+01 1.55868E+00 3.99162E-02-5.20273E-01 5.00381E-15 1.17152E-13
 -1      3695 1.31625E+01 1.48003E+00 1.34050E-02-1.18146E-01-2.25242E-13 5.70988E-13
 -1      3696 1.40435E+01 1.56215E+00-2.28851E-02-8.50133E-02-1.94697E-13 4.41694E-13
 -1      3697 1.25837E+01 1.41948E+00 9.34481E-02 8.06644E-01-1.97897E-13 5.80265E-13
 -1      3698 1.64525E+01 1.55086E+00-1.81566E-02-2.13479E-01-2.76467E-14 2.00159E-13
 -1      3699 1.70329E+01 1.49462E+00-1.12304E-02-2.58676E-01 9.22025E-14 2.83972E-13
 -1      3700 1.75097E+01 1.41926E+00-1.44103E-02-3.60059E-01 8.28671E-14 2.21340E-13
 -1      3701 1.79247E+01 1.33690E+00-7.86292E-03-3.80792E-01 1.46392E-14 3.19195E-13
 -1      3702 1.72523E+01 1.43230E+00 2.23910E-02 1.12347E-01 9.36149E-14 2.91318E-13
 -1      3703 1.82764E+01 1.24982E+00-8.56645E-03-4.40399E-01 4.62445E-14 2.30768E-13
 -1      3704 1.85675E+01 1.15715E+00-7.06730E-03-4.40706E-01 1.73600E-14 1.56333E-13
 -1      3705 1.80592E+01 1.28728E+00 1.67644E-02-1.03462E-01 7.36633E-14 2.81465E-13
 -1      3706 1.87524E+01 1.10525E+00-3.66956E-03-4.52026E-01 2.54263E-14 2.69502E-13
 -1      3707 1.89202E+01 1.03513E+00-4.44722E-03-4.13302E-01-3.67179E-14 4.77944E-13
 -1      3708 1.88790E+01 1.03814E+00 3.68533E-03-2.49579E-01-9.09770E-14 2.00700E-13
 -1      3709 1.85504E+01 1.16016E+00 1.05720E-02-2.07859E-01 2.66247E-14 3.20412E-13
 -1      3710 2.00421E+01 5.17316E-02 7.00262E-04-1.90051E-01 5.72871E-14 1.19724E-13
 -1      3711 2.00558E+01 3.35111E-02-4.70326E-04-1.82004E-01 3.79180E-14 1.23091E-13
 -1      3712 2.00041E+01 9.15695E-02 8.05695E-04-2.12429E-01 5.98237E-14 8.77298E-14
 -1      3713 2.00167E+01 7.06925E-02-6.48202E-04-1.99927E-01 8.20766E-14 1.30718E-13
 -1      3714 2.00284E+01 7.01919E-02-3.24766E-05-1.78225E-01 9.38139E-14 1.23183E-13
 -1      3715 2.00807E+01 1.80062E-02 6.02130E-04-1.76184E-01 6.54504E-14 1.15784E-13
 -1      3716 2.00957E+01 4.41618E-03-2.72126E-04-1.71259E-01 9.39900E-14 9.23720E-14
 -1      3717 2.00762E+01 3.13459E-02-1.42436E-04-1.62047E-01 5.61961E-14 1.07552E-13
 -1      3718 1.99311E+01 1.71789E-01 1.12947E-03-2.92081E-01-2.20347E-14 1.22847E-13
 -1      3719 1.99402E+01 1.52727E-01-9.03493E-04-2.67733E-01-3.45526E-15 1.13589E-13
 -1      3720 1.98999E+01 2.00055E-01 1.39267E-03-3.53213E-01-1.58076E-13 9.86757E-14
 -1      3721 1.99050E+01 1.87031E-01-9.36776E-04-3.22031E-01-8.35906E-14 1.04979E-13
 -1      3722 1.98809E+01 2.03875E-01-1.32940E-05-2.92484E-01-6.09566E-14 2.27328E-13
 -1      3723 1.98788E+01 2.08619E-01 1.74855E-03-4.30341E-01-1.84917E-13 1.27996E-13
 -1      3724 1.98766E+01 2.06767E-01-8.45166E-04-3.92287E-01-1.85233E-13 1.17648E-13
 -1      3725 1.98343E+01 2.33861E-01-2.76960E-04-3.61695E-01-1.64868E-13 1.91021E-13
 -1      3726 1.98770E+01 1.84765E-01 2.19974E-03-5.23613E-01-1.54540E-13 4.58264E-14
 -1      3727 1.98624E+01 2.00926E-01-5.45158E-04-4.79432E-01-1.47294E-13 4.13253E-14
 -1      3728 1.97966E+01 2.40812E-01-8.12353E-04-4.50970E-01-1.41820E-13 1.29394E-13
 -1      3729 1.99093E+01 1.12280E-01 2.71004E-03-6.31105E-01 1.33506E-14-6.84579E-14
 -1      3730 1.98746E+01 1.55092E-01 9.05287E-05-5.82905E-01-7.83629E-14-2.04282E-14
 -1      3731 1.97780E+01 2.10156E-01-1.74702E-03-5.62311E-01-4.09790E-14 1.00935E-14
 -1      3732 1.99970E+01-2.78975E-02 3.15614E-03-7.46976E-01 1.03181E-14-2.92534E-14
 -1      3733 1.99319E+01 5.15506E-02 1.24347E-03-6.99201E-01 3.07808E-14-8.06497E-14
 -1      3734 1.97954E+01 1.23194E-01-3.24623E-03-6.95887E-01 1.24519E-14-3.70179E-14
 -1      3735 2.01692E+01-2.55159E-01 3.29282E-03-8.58388E-01-2.96004E-14 4.68268E-14
 -1      3736 2.00608E+01-1.29271E-01 3.13897E-03-8.19355E-01 1.32207E-14-1.53850E-14
 -1      3737 1.98741E+01-4.22525E-02-5.50983E-03-8.47733E-01-4.74233E-14 2.80076E-14
 -1      3738 2.04616E+01-5.83592E-01 2.57087E-03-9.40821E-01-1.44343E-13 5.66878E-14
 -1      3739 2.02964E+01-4.04759E-01 6.16994E-03-9.24794E-01-1.07547E-13 5.69331E-14
 -1      3740 2.00496E+01-3.09336E-01-8.68549E-03-1.00569E+00-7.54900E-14 8.35299E-14
 -1      3741 2.09121E+01-1.00837E+00 2.92489E-04-9.50251E-01-1.23109E-13 1.43143E-13
 -1      3742 2.06803E+01-7.82216E-01 1.03563E-02-9.80324E-01-1.21345E-13 7.92952E-14
 -1      3743 2.03692E+01-6.95158E-01-1.25506E-02-1.14196E+00-1.71022E-13 5.55657E-14
 -1      3744 2.15452E+01-1.48059E+00-3.96079E-03-8.20060E-01-1.52379E-13 1.50577E-13
 -1      3745 2.12495E+01-1.23805E+00 1.56102E-02-9.27518E-01-1.29240E-13 1.14301E-13
 -1      3746 2.08860E+01-1.19477E+00-1.70467E-02-1.20196E+00-1.46838E-13 1.81968E-14
 -1      3747 2.23582E+01-1.86719E+00-6.69364E-03-4.56386E-01-1.74789E-13 3.92845E-14
 -1      3748 2.20188E+01-1.69618E+00 1.96822E-02-6.82611E-01-1.87580E-13 5.01270E-14
 -1      3749 2.16478E+01-1.74795E+00-1.92407E-02-1.10005E+00-1.58263E-13-1.66612E-14
 -1      3750 2.32941E+01-1.90382E+00 2.12881E-03 2.10556E-01-2.21158E-13 2.63097E-14
 -1      3751 2.29328E+01-1.95823E+00 2.00593E-02-1.71674E-01-2.12925E-13-1.66893E-14
 -1      3752 2.26590E+01-2.13333E+00 2.69201E-04-7.05687E-01-1.72820E-13-2.15800E-13
 -1      3753 2.42188E+01-1.69694E+00-5.18493E-03 6.59902E-01-2.98340E-13-9.97387E-14
 -1      3754 2.39334E+01-2.08307E+00 7.72853E-03 2.35320E-01-2.47516E-13-8.81192E-14
 -1      3755 2.39488E+01 2.34715E+00-1.66922E-02 1.71164E+00-1.17337E-14 1.68465E-13
 -1      3756 2.40472E+01 1.33705E+00-6.77437E-02 1.90523E+00-1.77117E-13 1.71519E-13
 -1      3757 2.01192E+01-1.96414E-02-1.63582E-03 7.69416E-01 3.27472E-13 1.63558E-13
 -1      3758 2.31707E+01-1.99440E+00 1.06055E-02-5.93863E-04 2.06052E-13-1.15056E-13
 -1      3759 2.34686E+01-1.86257E+00-1.16167E-02-3.67024E-01 8.57517E-15-1.61951E-13
 -1      3760 2.22750E+01-1.82715E+00 1.83043E-02 6.13942E-01 4.03760E-13-1.06702E-13
 -1      3761 2.26109E+01-1.96230E+00-1.04244E-02 3.58597E-01 3.20446E-13-1.56270E-13
 -1      3762 2.29809E+01-2.25355E+00-6.06776E-03 5.64665E-01 2.94732E-13-3.19385E-13
 -1      3763 2.14755E+01-1.39560E+00 1.73156E-02 9.31869E-01 1.13703E-13 1.26290E-13
 -1      3764 2.17818E+01-1.63248E+00-4.82796E-03 7.94798E-01 3.76508E-13 1.23482E-13
 -1      3765 2.19339E+01-1.90899E+00-1.63876E-02 1.06378E+00 2.36841E-13 1.97199E-14
 -1      3766 2.08634E+01-9.25277E-01 1.17899E-02 1.03164E+00-8.11801E-14-9.93026E-15
 -1      3767 2.11083E+01-1.16207E+00-3.85017E-04 9.81935E-01 9.78796E-15-6.84592E-15
 -1      3768 2.11159E+01-1.37552E+00-1.83983E-02 1.23866E+00 1.34275E-13 1.52325E-13
 -1      3769 2.04462E+01-5.14430E-01 7.52350E-03 1.00323E+00-3.65176E-15-1.09843E-13
 -1      3770 2.06231E+01-7.12506E-01 2.33947E-03 1.00730E+00-1.01693E-13-1.41605E-13
 -1      3771 2.05512E+01-8.46383E-01-1.38675E-02 1.21609E+00 2.72730E-14 1.63946E-13
 -1      3772 2.01907E+01-1.91873E-01 6.29711E-03 9.10707E-01 1.49150E-15 1.94638E-13
 -1      3773 2.03039E+01-3.45617E-01 2.89934E-03 9.43146E-01-2.30980E-14-2.64113E-14
 -1      3774 2.01985E+01-4.15843E-01-9.44076E-03 1.09820E+00-9.24977E-14 9.11449E-14
 -1      3775 2.02258E+01 1.55736E+00-3.70031E-03-2.80531E-01 5.48467E-14-8.62545E-14
 -1      3776 2.02995E+01 1.29422E+00 4.20410E-03-2.48878E-01 3.39568E-14-6.18998E-14
 -1      3777 2.02158E+01 1.61335E+00-2.10313E-03-1.96486E-01 7.96022E-14-9.51993E-14
 -1      3778 2.02482E+01 1.43514E+00-3.21236E-03 4.16055E-01 1.23796E-13 4.95751E-16
 -1      3779 2.02329E+01 1.52991E+00-1.42734E-03 3.47053E-01 1.25699E-13-1.89063E-14
 -1      3780 2.02986E+01 1.32769E+00 5.34946E-03 2.53676E-01 1.17945E-13-3.07536E-14
 -1      3781 2.02921E+01 1.25183E+00 3.31326E-03 3.59510E-01 1.05304E-13-2.55209E-15
 -1      3782 1.49997E+01 1.58264E+00-5.25584E-03 3.46218E-03-1.85489E-13 3.73642E-13
 -1      3783 1.57844E+01 1.57887E+00-1.54971E-02-6.66483E-02-1.21533E-13 2.65185E-13
 -1      3784 1.61433E+01 1.52375E+00 3.31425E-02 4.56188E-01-5.53996E-14 3.39999E-13
 -1      3785 2.37446E+01 2.55200E+00-1.64478E-02-1.53577E+00 1.95600E-13 1.92528E-13
 -1      3786 2.34193E+01 3.86981E+00-2.35852E-02 4.85962E-01 2.92336E-13 4.18249E-13
 -1      3787 2.35127E+01 3.42143E+00-2.59118E-02 1.09609E+00 1.85688E-13 4.14259E-13
 -1      3788 1.99667E+01 1.33314E-01 9.41193E-04-2.45739E-01-3.99600E-15 9.10947E-14
 -1      3789 1.99780E+01 1.11964E-01-7.97314E-04-2.27720E-01 1.66492E-14 7.92597E-14
 -1      3790 1.99798E+01 1.15187E-01 5.06903E-05-2.03518E-01 5.31127E-14 1.21753E-13
 -1      3791 2.02130E+01 1.20418E-01-8.69891E-04-1.19036E-01 8.92601E-14 1.25385E-13
 -1      3792 2.02362E+01 1.78436E-01 1.93440E-03-8.47596E-02 9.88687E-14 1.29977E-13
 -1      3793 2.02924E+01 2.52917E-01-3.80089E-04-4.86427E-02 8.64790E-14 1.04997E-13
 -1      3794 2.02556E+01 1.21237E-01-5.55712E-04-1.13459E-01 7.11477E-14 1.37937E-13
 -1      3795 1.75495E+01-1.63370E+00 7.29048E-03 4.37516E+00-2.77580E-13 1.24574E-13
 -1      3796 1.57804E+01-5.47157E-01 2.24099E-02 3.84906E+00-2.01821E-13 3.30291E-15
 -1      3797 1.88541E+01 9.09176E-01-1.89148E-03 2.27748E-01 1.96107E-14-1.44767E-13
 -1      3798 1.89494E+01 8.30486E-01 4.53381E-03 3.93384E-01 1.60543E-13-2.94221E-13
 -1      3799 2.03248E+01 1.06962E+00-3.18963E-05-2.42530E-01 8.96462E-15-7.37781E-14
 -1      3800 2.03330E+01 9.54633E-01-1.18187E-04-2.53513E-01 2.81818E-15-7.97540E-14
 -1      3801 2.03398E+01 8.28563E-01-1.60765E-03-1.87755E-01-1.69277E-14-6.53419E-14
 -1      3802 1.90782E+01 6.82836E-01-6.61994E-03 5.54631E-01 1.33379E-13-2.61931E-13
 -1      3803 1.92309E+01 5.92353E-01 4.88192E-03 6.65297E-01 1.19951E-13-1.49316E-13
 -1      3804 1.88862E+01 7.50400E-01-3.90269E-04 5.74945E-01 2.35364E-13-1.85911E-13
 -1      3805 2.03605E+01 4.27667E-01 1.07861E-03-2.49786E-02 2.30137E-14-2.24718E-14
 -1      3806 2.03453E+01 3.20143E-01-1.49354E-03 2.44963E-02 2.96468E-14 2.99156E-15
 -1      3807 2.03590E+01 6.82340E-01 4.38898E-04-1.32989E-01-2.49789E-14-3.00293E-14
 -1      3808 2.03549E+01 5.31753E-01-1.71264E-03-6.24460E-02-6.26880E-15-4.05133E-14
 -1      3809 2.03814E+01 5.19724E-01 9.21965E-04-4.27121E-02 1.84385E-14 5.23769E-14
 -1      3810 2.03658E+01 7.78457E-01 1.46080E-03-1.34119E-01 3.11742E-15-1.26849E-14
 -1      3811 1.89818E+01-1.78980E+00-1.07279E-02-3.68462E+00-7.02390E-14-1.78051E-13
 -1      3812 2.01791E+01-2.54889E+00 1.90809E-02-3.80646E+00-1.92355E-13-3.01748E-13
 -1      3813 2.10433E+01-2.44485E+00 2.43392E-02-2.96965E+00-1.14257E-13-1.76440E-13
 -1      3814 1.97855E+01 3.22485E-01-2.41216E-03 6.72758E-01 2.13170E-13 1.27924E-13
 -1      3815 1.98725E+01 2.71722E-01 3.23361E-03 6.86684E-01 2.30760E-13 2.11169E-13
 -1      3816 1.99096E+01 1.81409E-01-2.16897E-03 7.38341E-01 2.27334E-13 2.15274E-13
 -1      3817 1.97065E+01 3.14030E-01-8.04965E-04 7.36448E-01 8.99351E-14 1.34308E-13
 -1      3818 2.03372E+01 2.33426E-01 1.23960E-03 5.52052E-02 2.29823E-14 6.35926E-15
 -1      3819 2.03162E+01 1.62473E-01-9.62621E-04 8.67472E-02 2.73365E-14-9.39273E-15
 -1      3820 2.03717E+01 3.11268E-01 1.68978E-04 2.80343E-02 3.51162E-14 6.98493E-14
 -1      3821 2.38580E+01-2.95177E+00-3.23474E-02 9.88666E-01 1.73942E-13-6.25930E-13
 -1      3822 2.29621E+01-3.07426E+00 2.39185E-02 2.05668E+00 1.17047E-13-4.97427E-13
 -1      3823 2.38730E+01 1.61926E+00-7.11103E-02-1.89460E+00 1.91591E-13 8.56181E-14
 -1      3824 2.03234E+01 1.20157E+00-2.83763E-03 3.24950E-02 8.98910E-14-2.84147E-14
 -1      3825 2.03246E+01 1.20185E+00-2.79295E-03-2.91435E-02 6.03276E-14-8.71525E-14
 -1      3826 2.03409E+01 1.56657E-01-4.97850E-05 7.90545E-02 3.04681E-14 2.10505E-14
 -1      3827 1.65214E+01-4.18221E-01 9.28978E-03 3.44798E+00-1.58897E-13 6.36487E-14
 -1      3828 1.51926E+01-3.51017E-02 5.17094E-02 3.51331E+00-2.38212E-13-2.72150E-13
 -1      3829 1.45616E+01 4.07884E-01 4.47245E-03 2.85579E+00-2.46348E-13-8.73190E-14
 -1      3830 2.02037E+01-3.73195E-03 9.19544E-05-1.54239E-01 1.37069E-14 3.46206E-14
 -1      3831 2.02239E+01 1.18201E-02 5.17618E-04-1.46657E-01 5.83949E-14 2.97512E-14
 -1      3832 2.36555E+01 4.13821E+00-4.17963E-02-1.60391E-01 2.61440E-13 2.84218E-13
 -1      3833 1.47387E+01 1.29897E+00 3.38671E-02-1.48675E+00-8.23950E-15 3.79792E-14
 -1      3834 1.41679E+01 1.43753E+00 2.09868E-02-7.95071E-01 6.20632E-14-6.14977E-14
 -1      3835 1.33438E+01 1.16347E+00 3.31900E-03 1.50688E+00-8.80643E-14 3.28401E-13
 -1      3836 2.41052E+01 3.13360E+00-6.10176E-02 1.56678E+00-6.37025E-14 2.46241E-13
 -1      3837 2.03251E+01 1.18766E+00-1.99612E-03 7.70900E-02 1.03879E-13-3.04925E-14
 -1      3838 2.03780E+01 1.00435E+00 4.46541E-03 4.02966E-02 9.38565E-14-1.88714E-14
 -1      3839 2.03281E+01 1.15141E+00-3.34135E-03 1.35110E-01 1.09040E-13-5.57062E-14
 -1      3840 2.02683E+01 3.27119E-02-3.53781E-04-1.23746E-01 6.36154E-14-6.44649E-15
 -1      3841 2.02465E+01 3.48878E-02-2.47140E-04-1.38933E-01 1.01157E-13 1.58725E-14
 -1      3842 2.02682E+01 6.80506E-02 8.63192E-04-1.24405E-01 7.20259E-14 3.13944E-14
 -1      3843 2.39387E+01-1.53115E+00-5.25483E-03-8.63116E-01-1.24475E-13-8.04586E-15
 -1      3844 2.40928E+01-1.01062E+00-2.53938E-02-1.21770E+00-1.05084E-13-1.00873E-13
 -1      3845 1.32756E+01 1.61181E+00 5.03608E-02-1.91612E-01 1.70648E-13-8.67813E-14
 -1      3846 1.52915E+01 1.01089E+00 3.07111E-02-1.93923E+00-7.51708E-14-4.76018E-14
 -1      3847 1.61654E+01 5.34130E-01-9.24215E-03-2.36730E+00-1.05987E-13-5.24789E-14
 -1      3848 1.59323E+01 1.20869E+00-1.05473E-02-1.22191E+00 6.84869E-15 4.30047E-14
 -1      3849 2.37995E+01-2.56572E+00-1.53470E-02-4.72637E-01-2.65113E-13-3.22043E-13
 -1      3850 2.48462E+01-1.17255E+00 1.34075E-02 1.18950E+00-3.19158E-13 1.89831E-14
 -1      3851 2.45339E+01 6.85594E-01-2.43344E-02 1.86127E+00-1.98511E-13 1.32866E-13
 -1      3852 2.44688E+01-2.78644E-01-6.58002E-02 1.62861E+00-1.70557E-13 9.12569E-14
 -1      3853 1.99632E+01 9.95295E-02 5.17296E-03 8.07284E-01 3.95990E-13-2.81587E-14
 -1      3854 2.00832E+01-7.36476E-02-1.06673E-03 8.58675E-01 2.89038E-13 1.22301E-13
 -1      3855 1.99795E+01-9.79829E-02-6.97966E-03 9.63175E-01 1.26585E-13-1.22130E-13
 -1      3856 1.98489E+01 1.48117E-01-2.19538E-03 8.19061E-01 3.01784E-13 1.25663E-13
 -1      3857 1.71347E+01-4.06625E-01-1.47092E-02-3.17113E+00-1.28890E-15-1.01553E-13
 -1      3858 1.80949E+01-1.11364E+00 2.35515E-02-3.60196E+00-1.31874E-14-8.69955E-14
 -1      3859 1.91615E+01-1.31738E+00 2.69131E-02-3.12068E+00 8.88686E-14-2.19833E-13
 -1      3860 2.44484E+01-4.94357E-01-1.47705E-02-1.59526E+00-6.76195E-14-6.43817E-14
 -1      3861 2.44434E+01 4.49876E-01-4.97436E-03-1.73728E+00 4.15709E-14-8.87708E-14
 -1      3862 2.03195E+01 1.13022E+00-1.99803E-03-1.95262E-01 3.62501E-14-4.07802E-14
 -1      3863 2.02925E+01 1.39246E+00 5.39907E-03-1.31341E-01 7.56318E-14-1.00304E-13
 -1      3864 2.22841E+01-3.05306E+00-2.12041E-02 2.53438E+00-3.80303E-14-3.69771E-13
 -1      3865 2.14109E+01-2.67956E+00 7.52275E-03 2.88015E+00-1.23769E-13-1.74327E-13
 -1      3866 2.26739E+01-2.65992E+00 2.30480E-02 1.68366E+00 9.34934E-14-4.64803E-13
 -1      3867 2.03082E+01 1.06048E+00-2.35779E-03 2.83043E-01 9.79208E-14-9.55453E-16
 -1      3868 2.40707E+01-2.00713E+00 9.69157E-03-3.19501E-01 5.03313E-14-3.19446E-13
 -1      3869 2.49000E+01-1.30313E+00-3.68900E-02-1.14688E+00-7.98797E-14-2.60150E-13
 -1      3870 1.99303E+01 1.61689E-01 7.32133E-05-2.40687E-01-1.12057E-14 1.96895E-13
 -1      3871 1.89325E+01-1.83906E+00 2.73484E-02 3.82955E+00-2.24520E-13 2.08799E-13
 -1      3872 1.88467E+01 1.00244E+00-2.32771E-03-8.41990E-02-1.75322E-13 1.89611E-13
 -1      3873 2.01204E+01-5.66017E-03 4.88520E-04-1.68016E-01 9.26508E-14 1.17320E-13
 -1      3874 2.01368E+01-1.24619E-02-4.48832E-05-1.64561E-01 1.00347E-13 8.96613E-14
 -1      3875 2.01238E+01 2.82856E-03-2.73156E-04-1.52078E-01 7.65492E-14 7.44993E-14
 -1      3876 1.86905E+01 9.98829E-01-1.47704E-03 9.44394E-02-2.68511E-14-5.63810E-14
 -1      3877 1.93544E+01 4.70972E-01-3.98400E-03 7.41672E-01 6.89015E-14-3.10729E-13
 -1      3878 1.94808E+01 3.95429E-01 3.54305E-03 7.92028E-01 1.69049E-13 1.57799E-14
 -1      3879 1.91978E+01 5.01389E-01 1.11062E-04 8.05756E-01 2.00796E-13-1.89264E-13
 -1      3880 2.34122E+01-3.07918E+00 1.87946E-02-1.67057E+00-2.38260E-13-1.07629E-13
 -1      3881 2.37294E+01-2.85055E+00 4.49104E-03-1.01824E+00-2.51055E-13-2.81406E-13
 -1      3882 2.30572E+01-2.55868E+00-1.88994E-02-9.57409E-01-9.96214E-14-2.95055E-13
 -1      3883 2.24500E+01-2.90643E+00-1.09091E-02-2.16571E+00-1.81509E-13-1.95312E-13
 -1      3884 2.03438E+01 4.35534E-01-1.73661E-03 2.61898E-02 6.27278E-14 1.84935E-15
 -1      3885 2.03549E+01 5.65959E-01 7.74929E-04 9.07470E-02 4.65019E-14-3.31223E-14
 -1      3886 1.46220E+01 1.55676E+00 5.51158E-02 6.70883E-01-3.12603E-13 5.35117E-13
 -1      3887 2.47430E+01-2.29849E+00 1.94993E-02-1.46951E-01 1.80394E-14-4.43669E-13
 -1      3888 2.41562E+01-2.66450E+00 2.10521E-03 3.96724E-01 1.68616E-13-4.97476E-13
 -1      3889 2.33456E+01-2.57894E+00-1.29224E-02 7.83952E-01 2.39661E-13-4.90359E-13
 -1      3890 2.03467E+01 6.85479E-01-1.40271E-03 1.32573E-01 6.25605E-14-2.20431E-14
 -1      3891 2.03494E+01 8.20587E-01 1.40929E-03 1.97600E-01 8.78516E-14-1.13056E-14
 -1      3892 2.03716E+01 6.70863E-01 8.01872E-04 1.00593E-01 6.14582E-14-4.75429E-14
 -1      3893 2.03768E+01 2.00462E-01 6.39843E-04 5.27590E-02 1.71940E-14 1.38305E-14
 -1      3894 2.03562E+01 1.35971E-01-6.69970E-04 7.32999E-02 2.54332E-14-7.96586E-15
 -1      3895 2.01797E+01-1.21304E-02 2.17329E-04-1.57978E-01 3.43534E-14 4.41646E-14
 -1      3896 2.02204E+01-3.08507E-03-3.86903E-04-1.37243E-01 2.74078E-14 2.53388E-15
 -1      3897 2.01614E+01-1.47544E-02 3.27759E-04-1.62131E-01 8.30648E-14 6.65482E-14
 -1      3898 2.03421E+01 3.27427E-01 1.45157E-03-1.50691E-02 6.21264E-14 1.38895E-14
 -1      3899 2.03723E+01 4.26445E-01 2.83897E-04 1.35697E-02 3.39963E-14-2.15661E-14
 -1      3900 2.03222E+01 2.38404E-01-1.37248E-03-5.74691E-02 6.52651E-14 5.11322E-14
 -1      3901 1.43985E+01 9.64900E-01 6.43691E-02 2.18178E+00-1.04705E-13 1.54633E-14
 -1      3902 1.43681E+01 1.22953E+00 1.67547E-04 1.33757E+00-1.15398E-13 2.04916E-13
 -1      3903 1.52457E+01 1.22772E+00-1.52330E-02 1.27789E+00-2.54273E-13 1.93685E-13
 -1      3904 1.54877E+01 5.26967E-01-2.38524E-04 2.51596E+00-1.57516E-13-2.22601E-13
 -1      3905 2.02867E+01 2.27520E-02 3.34108E-04 1.00084E-01 4.40480E-14-5.26569E-14
 -1      3906 2.02611E+01 5.55481E-03-1.33977E-05 1.07054E-01 4.18063E-14-7.57988E-14
 -1      3907 2.02326E+01-3.16151E-03 1.49052E-04 1.09334E-01 2.45971E-14-7.33261E-14
 -1      3908 2.02066E+01-4.79327E-03 1.41413E-04 1.13490E-01 2.13393E-14-9.40367E-14
 -1      3909 2.02636E+01 5.75096E-03-2.33635E-04 8.45408E-02 3.52458E-14-3.87036E-14
 -1      3910 2.01760E+01-3.66327E-05-3.81282E-05 1.14627E-01 4.74397E-14-9.53306E-14
 -1      3911 2.01495E+01 1.04368E-02 1.96918E-04 1.17891E-01 3.33844E-14-8.32699E-14
 -1      3912 2.02046E+01 6.08288E-04-1.72139E-04 8.93843E-02 3.33214E-14-5.76759E-14
 -1      3913 2.01170E+01 2.58119E-02-2.31002E-04 1.18970E-01 1.57588E-14-6.86941E-14
 -1      3914 2.00894E+01 4.60955E-02 1.76373E-04 1.22690E-01-7.51816E-15-1.25804E-14
 -1      3915 2.01424E+01 2.10536E-02-2.34594E-05 9.26097E-02 4.19277E-14-7.39062E-14
 -1      3916 2.00523E+01 7.18001E-02-4.26964E-04 1.24444E-01-8.15951E-15-1.74564E-15
 -1      3917 2.00202E+01 1.02251E-01 5.33072E-05 1.29774E-01 5.94682E-14 9.98745E-15
 -1      3918 2.00744E+01 6.33828E-02 1.94697E-04 9.57780E-02 2.29044E-14 1.28848E-14
 -1      3919 1.99804E+01 1.35023E-01-6.17970E-04 1.32194E-01 9.28689E-14 3.28023E-14
 -1      3920 1.99446E+01 1.71949E-01-2.01582E-04 1.38952E-01 7.22156E-14 7.97807E-14
 -1      3921 1.99997E+01 1.23964E-01 5.40513E-04 9.94771E-02 9.41922E-14 9.36809E-15
 -1      3922 1.98983E+01 2.12446E-01-7.97275E-04 1.41724E-01 4.15068E-14 4.13270E-14
 -1      3923 1.98542E+01 2.56972E-01-5.68041E-04 1.49826E-01 4.55211E-14 7.62141E-15
 -1      3924 1.99160E+01 1.98963E-01 9.50368E-04 1.03110E-01 3.46413E-14 1.89047E-14
 -1      3925 1.97982E+01 3.05303E-01-9.74413E-04 1.51813E-01 5.33338E-14 4.32562E-14
 -1      3926 1.97415E+01 3.57529E-01-1.11191E-03 1.60159E-01-2.11773E-15 3.49184E-14
 -1      3927 1.98163E+01 2.88789E-01 1.47617E-03 1.04951E-01 5.18079E-14-8.48259E-14
 -1      3928 1.96722E+01 4.13929E-01-1.12808E-03 1.59285E-01-4.32429E-14 5.43180E-14
 -1      3929 1.95972E+01 4.73857E-01-1.90248E-03 1.65707E-01-4.90726E-14 5.32774E-14
 -1      3930 1.96935E+01 3.92866E-01 2.13681E-03 1.01415E-01 1.87434E-14 3.05501E-15
 -1      3931 1.95097E+01 5.38362E-01-1.23811E-03 1.58591E-01-3.91870E-14 7.83204E-14
 -1      3932 1.94089E+01 6.05508E-01-3.03266E-03 1.59477E-01 4.09206E-14 1.30018E-13
 -1      3933 1.95388E+01 5.10226E-01 2.96426E-03 8.65143E-02-7.30903E-15 1.07371E-13
 -1      3934 1.92976E+01 6.77484E-01-1.28158E-03 1.40982E-01 9.62035E-14 1.32057E-13
 -1      3935 1.91610E+01 7.50296E-01-4.62962E-03 1.30806E-01 8.52456E-14 1.66701E-13
 -1      3936 1.93414E+01 6.38599E-01 3.99895E-03 5.10019E-02 2.17746E-14 9.61472E-14
 -1      3937 1.90189E+01 8.27761E-01-1.24200E-03 9.34938E-02 2.99154E-14 1.72374E-13
 -1      3938 1.88333E+01 9.02787E-01-6.87301E-03 6.43021E-02 1.70372E-15 1.92972E-13
 -1      3939 1.90879E+01 7.73170E-01 5.29063E-03-1.87034E-02 6.78861E-14 3.70151E-14
 -1      3940 1.86516E+01 9.81486E-01-1.12147E-03-2.22056E-03-4.31038E-14 5.18848E-14
 -1      3941 1.83993E+01 1.05227E+00-9.98982E-03-6.12575E-02-5.79225E-14 5.93874E-14
 -1      3942 1.87623E+01 9.04901E-01 6.91108E-03-1.41853E-01-3.80327E-14 1.78600E-14
 -1      3943 1.81669E+01 1.12433E+00-9.43681E-04-1.70747E-01-3.65415E-14 1.71143E-14
 -1      3944 1.78235E+01 1.17999E+00-1.40205E-02-2.73996E-01-5.28092E-14 1.41017E-14
 -1      3945 1.83444E+01 1.01855E+00 9.02387E-03-3.44948E-01-1.13401E-13-8.21005E-14
 -1      3946 1.75274E+01 1.22361E+00-2.19707E-03-4.44932E-01-2.52321E-14 5.14256E-14
 -1      3947 1.70550E+01 1.25650E+00-2.05241E-02-6.17250E-01-7.44695E-15 8.21741E-14
 -1      3948 1.78105E+01 1.08711E+00 1.22520E-02-6.60641E-01 1.77131E-14-1.16170E-13
 -1      3949 1.65065E+01 1.25382E+00-8.36855E-04-9.37902E-01-2.09568E-14 1.00402E-13
 -1      3950 1.78684E+01 1.18032E+00-1.62357E-02 2.29060E-01 5.25409E-14 3.34148E-14
 -1      3951 1.82222E+01 1.12556E+00-7.75303E-03 1.30229E-01 1.12381E-13 4.47484E-14
 -1      3952 2.00148E+01 9.01682E-02 5.95523E-04-1.58602E-01 8.38618E-14 1.17474E-13
 -1      3953 2.00382E+01 6.64918E-02-5.65914E-04-1.48460E-01 7.96691E-14 1.17313E-13
 -1      3954 2.03362E+01 8.66261E-02 5.14824E-04 8.28813E-02 3.54816E-14-2.95578E-14
 -1      3955 2.03121E+01 4.89885E-02-2.77656E-04 9.51298E-02 3.34619E-14-4.78901E-14
 -1      3956 2.03187E+01 4.39406E-02-1.63861E-04 7.56293E-02 3.61430E-14-4.17905E-14
 -1      3957 2.00707E+01 4.56809E-02 5.06222E-04-1.41363E-01 5.21932E-14 1.19326E-13
 -1      3958 2.00941E+01 2.68841E-02-3.45894E-04-1.34808E-01 3.50061E-14 1.08031E-13
 -1      3959 2.00557E+01 6.33460E-02 3.65485E-05-1.20638E-01 4.52551E-14 5.81513E-14
 -1      3960 1.97730E+01 2.79040E-01 1.65406E-03-3.54362E-01-1.40257E-13 7.02034E-14
 -1      3961 1.97918E+01 2.61997E-01-1.40723E-03-3.15347E-01-1.56778E-13 9.50376E-14
 -1      3962 1.98341E+01 2.42542E-01 1.20710E-03-2.79610E-01-1.00667E-13 1.47543E-13
 -1      3963 1.98563E+01 2.18389E-01-1.22477E-03-2.50107E-01-3.26460E-14 1.37112E-13
 -1      3964 1.97717E+01 2.82701E-01 3.99377E-04-2.69984E-01-9.68593E-14 5.93233E-15
 -1      3965 1.96834E+01 2.65880E-01 3.18016E-03-5.79851E-01 1.12175E-14-5.30707E-14
 -1      3966 1.96804E+01 2.83637E-01-1.41915E-03-5.17455E-01-3.43520E-15 3.07559E-14
 -1      3967 1.96840E+01 1.80260E-01 4.29034E-03-7.37906E-01-5.07868E-14 2.47700E-15
 -1      3968 1.96562E+01 2.30508E-01-9.87860E-04-6.63041E-01-4.91097E-14-8.39851E-14
 -1      3969 1.95515E+01 3.08737E-01-1.33610E-03-6.15441E-01-3.31446E-15-4.56215E-14
 -1      3970 1.97487E+01 9.92192E-03 5.48987E-03-9.26717E-01-1.50330E-13 1.16357E-13
 -1      3971 1.96812E+01 1.06008E-01 5.59525E-05-8.41680E-01-1.15124E-13 6.00826E-14
 -1      3972 1.95221E+01 2.13212E-01-3.08650E-03-8.08085E-01-1.56291E-13 2.14005E-15
 -1      3973 1.99174E+01-2.72551E-01 6.60054E-03-1.13756E+00-6.09521E-14 1.03799E-13
 -1      3974 1.97905E+01-1.16526E-01 2.06804E-03-1.04972E+00-4.97597E-14 1.48275E-13
 -1      3975 1.95563E+01 2.15630E-02-6.06308E-03-1.04704E+00-8.65959E-14 2.17223E-14
 -1      3976 2.02475E+01-6.96310E-01 6.91878E-03-1.34545E+00-2.00321E-13 4.39427E-14
 -1      3977 2.00362E+01-4.65840E-01 5.97730E-03-1.27279E+00-1.38123E-13 7.66354E-14
 -1      3978 1.97008E+01-3.01974E-01-1.09683E-02-1.32904E+00-9.90543E-14 3.81740E-14
 -1      3979 2.08013E+01-1.26239E+00 4.71317E-03-1.49381E+00-5.86275E-14-1.32990E-13
 -1      3980 2.04842E+01-9.59682E-01 1.17810E-02-1.46659E+00-1.30542E-13-4.62056E-14
 -1      3981 2.00282E+01-7.84701E-01-1.48476E-02-1.62419E+00-8.07605E-14-4.95368E-14
 -1      3982 2.16206E+01-1.93661E+00-6.71321E-03-1.49238E+00-1.47515E-13-1.73595E-13
 -1      3983 2.12158E+01-1.57782E+00 2.27431E-02-1.55101E+00-6.61708E-14-1.35958E-13
 -1      3984 2.06278E+01-1.44993E+00-2.21540E-02-1.87097E+00-1.61566E-14-1.86299E-13
 -1      3985 2.25643E+01-2.35478E+00 1.75074E-02-1.22814E+00-1.26351E-13-2.81370E-13
 -1      3986 2.03347E+01 1.10906E+00-1.39229E-03-1.42595E-01 4.64008E-14-5.40008E-14
 -1      3987 2.03693E+01 9.10130E-01 1.89083E-03-1.43330E-01 3.06932E-14-3.50121E-14
 -1      3988 2.15231E+01-1.81731E+00 2.06392E-02 1.57208E+00 1.17240E-13-1.10260E-13
 -1      3989 2.19965E+01-2.12433E+00 5.18258E-03 1.43974E+00 1.04851E-13-2.45330E-13
 -1      3990 2.28021E+01-2.45134E+00-5.92839E-04 1.08557E+00 2.85256E-13-4.58611E-13
 -1      3991 2.02130E+01-6.10949E-01 7.86588E-03 1.37061E+00-9.35740E-14 2.28417E-13
 -1      3992 2.04425E+01-8.65508E-01 6.89481E-03 1.43350E+00-2.96237E-14 2.48027E-13
 -1      3993 1.99409E+01-2.09704E-01 4.85810E-03 1.15545E+00-2.57832E-14 1.14672E-13
 -1      3994 2.00756E+01-3.96007E-01 6.38818E-03 1.23967E+00-9.86944E-15 1.73264E-13
 -1      3995 1.98610E+01-4.40141E-01-1.14642E-02 1.44284E+00 9.96729E-15 8.49634E-14
 -1      3996 2.03321E+01 1.14229E+00-1.67843E-03-8.79464E-02 5.66639E-14-1.03071E-13
 -1      3997 1.99568E+01 1.41093E-01 7.19472E-04-1.85328E-01 2.71529E-14 1.33197E-13
 -1      3998 1.99803E+01 1.14618E-01-7.84365E-04-1.70181E-01 6.70527E-14 1.30688E-13
 -1      3999 1.99913E+01 1.13547E-01 1.97314E-04-1.39210E-01 7.85072E-14 8.59778E-14
 -1      4000 2.03293E+01 1.03195E+00-9.14870E-04 2.24410E-01 9.96624E-14-1.61596E-14
 -1      4001 2.03320E+01 1.05737E+00-1.51636E-03 1.77084E-01 1.06181E-13-6.15283E-14
 -1      4002 1.59908E+01 1.21321E+00-1.88742E-02 1.09254E+00-2.54602E-13 2.65418E-13
 -1      4003 1.66512E+01 1.24021E+00-2.04488E-03 8.34083E-01-7.60286E-15 2.21012E-13
 -1      4004 2.05878E+01-1.87127E+00-1.35360E-03-2.54282E+00 2.21450E-14-2.06432E-13
 -1      4005 2.15188E+01-2.36617E+00 1.01781E-02-2.36958E+00-9.88915E-14-1.68029E-13
 -1      4006 2.00066E+01-2.10190E+00-5.37078E-03 3.35782E+00-1.39062E-13 6.84461E-14
 -1      4007 1.84243E+01-1.16381E+00 2.13626E-02 3.41249E+00-2.34208E-13 2.74356E-13
 -1      4008 1.86279E+01 7.93042E-01-1.02147E-02 6.41550E-01 1.84494E-13-2.34604E-13
 -1      4009 1.88357E+01 6.70117E-01 6.39402E-03 7.96726E-01 2.82363E-13-1.95908E-13
 -1      4010 2.04009E+01 3.80426E-01 7.77174E-04 3.43318E-03 2.96056E-14 2.54141E-14
 -1      4011 2.03876E+01 2.81527E-01-8.37530E-04 3.63212E-02 1.80629E-14 1.58775E-14
 -1      4012 2.04012E+01 2.62901E-01 1.94514E-04 3.25587E-02 1.75519E-14-1.23941E-14
 -1      4013 2.07106E+01-1.14233E+00 1.54022E-02 1.54190E+00-3.45010E-14 1.51926E-13
 -1      4014 2.10553E+01-1.46281E+00 6.35540E-03 1.55289E+00 7.55969E-14 5.65265E-14
 -1      4015 2.02265E+01-9.80347E-01-1.92516E-02 1.72718E+00-8.89867E-14 6.88007E-14
 -1      4016 1.98963E+01 1.93850E-01 9.10410E-04-2.24542E-01-2.61209E-14 1.66225E-13
 -1      4017 1.99196E+01 1.66964E-01-1.00832E-03-2.02967E-01 1.52479E-14 1.51236E-13
 -1      4018 1.98496E+01 2.28807E-01 4.24557E-04-2.09947E-01-2.71632E-14 2.66241E-14
 -1      4019 1.70619E+01 1.23685E+00-2.07835E-02 5.67781E-01 3.23738E-14 2.66455E-13
 -1      4020 1.75535E+01 1.22250E+00-1.70397E-03 3.97997E-01 6.38090E-14 2.36163E-13
 -1      4021 1.71348E+01 1.06890E+00 2.43673E-02 1.12865E+00-4.73104E-14 1.86110E-13
 -1      4022 1.97191E+01 2.91996E-01 2.29876E-03-4.53035E-01-5.97869E-14-3.66276E-14
 -1      4023 1.97304E+01 2.88181E-01-1.50376E-03-4.02942E-01-9.50915E-14 3.89050E-14
 -1      4024 1.96143E+01 3.37601E-01-3.36351E-04-4.66021E-01-5.30686E-14-2.58578E-14
 -1      4025 2.23191E+01-2.35582E+00 1.08473E-02 1.49519E+00 1.08596E-13-3.44859E-13
 -1      4026 2.02320E+01-5.37708E-03 1.35718E-04-1.17235E-01 2.87903E-14 1.13336E-14
 -1      4027 2.02567E+01 5.47592E-03 2.54935E-04-1.11445E-01 3.40436E-14 2.87485E-14
 -1      4028 1.78075E+01-8.62341E-01 1.38210E-03 3.41352E+00-1.65205E-13 4.30449E-13
 -1      4029 1.70920E+01-4.04589E-01-1.12964E-02 3.14435E+00-7.66973E-14 1.09341E-13
 -1      4030 1.87647E+01-1.09609E+00-2.71552E-02 3.03438E+00-2.97086E-13 1.39584E-13
 -1      4031 2.08434E+01-2.10569E+00 1.36919E-02 2.68336E+00-1.23212E-13-2.30980E-13
 -1      4032 1.69914E+01 1.08919E+00 2.82325E-02-1.21928E+00-3.09262E-14-8.09459E-14
 -1      4033 1.96913E+01 3.23136E-01 1.84455E-04-3.53224E-01-7.43826E-14-9.43269E-14
 -1      4034 1.78601E+01 1.10140E+00 1.95238E-02 6.29280E-01-2.15261E-14-4.75463E-14
 -1      4035 2.03736E+01 8.98316E-01 3.14714E-03 1.14934E-01 9.24538E-14-5.80842E-14
 -1      4036 2.02833E+01 2.41486E-02-1.34283E-04-1.07279E-01 5.85946E-14 2.51341E-14
 -1      4037 2.03078E+01 5.26017E-02 4.99699E-04-9.72754E-02 8.27605E-14 2.19486E-14
 -1      4038 2.02904E+01 2.13770E-02-2.51634E-04-8.70122E-02 4.81093E-14 5.65125E-14
 -1      4039 2.01719E+01-1.05191E-02-3.45900E-04-1.45103E-01 6.40370E-14 6.22641E-14
 -1      4040 2.17285E+01-2.35733E+00-7.62012E-03 2.08964E+00-7.83189E-14-4.88369E-13
 -1      4041 1.85147E+01 1.03478E+00-5.64105E-03 1.36688E-01 1.01749E-13-2.49984E-14
 -1      4042 1.60515E+01 1.01324E+00 3.23279E-02 1.67308E+00-1.02903E-13 7.04025E-14
 -1      4043 2.19592E+01-2.30294E+00-1.85471E-04-1.76143E+00-7.73205E-14-2.78982E-13
 -1      4044 2.09172E+01-1.69157E+00-2.54867E-02 1.93970E+00-7.75064E-14-3.29474E-13
 -1      4045 2.03666E+01 1.25361E-01 6.69292E-05 5.95224E-02-2.13473E-15-3.74193E-14
 -1      4046 1.84708E+01 9.91448E-01 1.36314E-02 4.25877E-01 9.42032E-14-3.00882E-13
 -1      4047 2.03814E+01 9.61793E-01 3.68213E-03-4.94299E-02 5.26293E-14-8.43718E-14
 -1      4048 1.83374E+01 8.77992E-01-7.53315E-03 6.71458E-01 7.57827E-14-3.22838E-13
 -1      4049 1.69830E+01 2.34318E-01 2.56722E-02-2.52151E+00-2.07391E-14-1.78349E-13
 -1      4050 1.78429E+01-1.57937E-01-1.75691E-02-2.51859E+00 7.87352E-14-3.12229E-13
 -1      4051 1.69756E+01 6.55814E-01-2.13053E-02-1.83432E+00-4.43682E-14-2.34957E-13
 -1      4052 1.99229E+01 1.70311E-01 3.39163E-04-1.67798E-01 3.83499E-15 8.09094E-14
 -1      4053 2.03924E+01 8.21127E-01-2.71115E-03 4.51904E-02 9.02070E-14-3.52000E-14
 -1      4054 2.03946E+01 8.35727E-01-2.25421E-03 1.26735E-02 8.63721E-14-2.35869E-14
 -1      4055 1.97616E+01-1.49979E+00-1.44645E-02-2.80844E+00 9.50631E-14-1.55256E-13
 -1      4056 2.03644E+01-1.40829E+00 1.45728E-02-2.21019E+00 5.60788E-14-1.12750E-13
 -1      4057 1.99533E+01-1.02271E+00 7.81925E-03-2.08658E+00 4.69878E-14-6.51315E-14
 -1      4058 1.88973E+01-8.84824E-01 1.19843E-03-2.74600E+00 9.60193E-14-2.29760E-13
 -1      4059 2.02875E+01 1.11056E-01-7.37350E-04-1.09425E-01 5.07117E-14 6.83688E-14
 -1      4060 2.03096E+01 1.68139E-01 1.23152E-03-8.36268E-02 8.56482E-14 6.14229E-14
 -1      4061 2.03504E+01 2.32562E-01-1.15623E-05-5.56231E-02 6.13795E-14-2.08802E-14
 -1      4062 2.03132E+01 1.06896E-01-2.10166E-04-9.88557E-02 8.24448E-14-2.99259E-14
 -1      4063 2.01251E+01 1.18760E-02 4.33282E-04-1.30707E-01 3.08379E-14 5.34885E-14
 -1      4064 2.01489E+01-3.02009E-05-1.74846E-04-1.26111E-01 5.50019E-14 3.50630E-14
 -1      4065 2.01170E+01 2.40130E-02-1.45583E-04-1.09135E-01 1.10303E-14 3.09180E-14
 -1      4066 1.90030E+01 5.06426E-01-5.93612E-03 9.02772E-01 3.02941E-13-6.04055E-14
 -1      4067 1.91702E+01 4.02872E-01 9.96680E-04 9.73121E-01 2.59703E-13-9.76116E-14
 -1      4068 1.88020E+01 5.58564E-01 4.49268E-03 9.82624E-01 2.70091E-13-1.72303E-13
 -1      4069 2.03967E+01 4.78124E-01-1.44047E-03-1.54443E-02 5.42556E-14 2.55022E-14
 -1      4070 2.04130E+01 4.45654E-01-1.22222E-03-6.35090E-03 3.94581E-14-4.35137E-14
 -1      4071 2.03964E+01 5.92176E-01-7.44731E-05-5.53893E-02 3.49311E-14-9.33171E-15
 -1      4072 1.96068E+01 2.95974E-01-2.57617E-03 8.18943E-01 1.55175E-13 3.24897E-13
 -1      4073 1.97365E+01 2.28535E-01 3.88564E-03 8.31180E-01 2.62068E-14 2.28770E-13
 -1      4074 1.97780E+01 1.20382E-01 1.30048E-03 9.08524E-01 2.33928E-13-7.95527E-14
 -1      4075 1.94868E+01 2.89788E-01-1.92178E-03 9.03235E-01 1.28683E-13 2.00160E-13
 -1      4076 2.03811E+01 7.54629E-01-1.19197E-03-9.02138E-02 2.02046E-14-1.61513E-14
 -1      4077 2.03892E+01 3.92304E-01-1.29598E-03-5.62860E-03 4.44394E-14-4.49847E-14
 -1      4078 2.03954E+01 5.14814E-01 9.38860E-05 3.64952E-02 3.01722E-14-5.41709E-14
 -1      4079 1.65714E+01 2.26744E-01 3.38719E-02 2.69485E+00 7.19520E-15-9.62086E-14
 -1      4080 1.61440E+01 6.37802E-01-1.08392E-02 2.11977E+00-2.74698E-14-5.30040E-14
 -1      4081 1.68392E+01 7.01131E-01 4.04530E-03 1.84920E+00-6.87941E-14 1.17551E-13
 -1      4082 2.02904E+01 1.17984E-02 2.18552E-04 5.65211E-02 4.34746E-14-5.36620E-14
 -1      4083 2.02611E+01 1.24459E-03 2.93334E-05 6.07592E-02 2.90386E-14-7.34762E-14
 -1      4084 2.02296E+01-1.48507E-03 1.05862E-04 6.04395E-02 2.42555E-14-4.78291E-14
 -1      4085 2.01987E+01 2.70037E-03 6.46535E-05 6.30021E-02 3.16259E-14-6.05913E-14
 -1      4086 2.02523E+01 2.30607E-03-3.43366E-04 3.40200E-02 2.43566E-14-7.95525E-14
 -1      4087 2.01650E+01 1.28725E-02-1.32316E-05 6.25034E-02 3.94712E-14-8.18062E-14
 -1      4088 2.01327E+01 2.83052E-02 7.45419E-06 6.44425E-02 3.69999E-14-7.92650E-14
 -1      4089 2.01871E+01 9.43156E-03-1.25392E-04 3.44296E-02 1.02030E-14-6.43388E-14
 -1      4090 2.00949E+01 4.98724E-02-1.14293E-04 6.33390E-02 3.92711E-14-3.75566E-14
 -1      4091 2.00579E+01 7.61967E-02-1.32924E-04 6.51547E-02 3.22858E-14-2.45987E-14
 -1      4092 2.01165E+01 4.09590E-02 9.53795E-07 3.36511E-02 5.70568E-14-7.17803E-14
 -1      4093 2.00187E+01 1.05531E-01-2.17168E-04 6.35332E-02 5.32799E-14-2.81520E-14
 -1      4094 1.99789E+01 1.38486E-01-4.00304E-04 6.50087E-02 8.53958E-14-3.67765E-14
 -1      4095 2.00403E+01 9.22143E-02 3.01001E-04 3.11582E-02 5.09929E-14 1.60058E-14
 -1      4096 1.99350E+01 1.75251E-01-3.00049E-04 6.21516E-02 6.99309E-14-6.23886E-14
 -1      4097 1.98883E+01 2.15021E-01-7.79460E-04 6.27018E-02 3.50487E-15-6.00749E-14
 -1      4098 1.99580E+01 1.57949E-01 7.04150E-04 2.58197E-02 2.44598E-14-4.17994E-14
 -1      4099 1.98377E+01 2.58583E-01-3.41819E-04 5.72665E-02 9.21801E-15-2.48273E-14
 -1      4100 1.97806E+01 3.04422E-01-1.31683E-03 5.54672E-02 8.07817E-14 1.28780E-14
 -1      4101 1.98640E+01 2.36738E-01 1.17564E-03 1.54410E-02 5.41107E-14 4.43484E-14
 -1      4102 1.97209E+01 3.54178E-01-3.02889E-04 4.52790E-02 1.03154E-13-1.17223E-14
 -1      4103 1.96491E+01 4.05129E-01-2.06614E-03 3.86582E-02 2.64083E-14 1.41912E-14
 -1      4104 1.97535E+01 3.26328E-01 1.69152E-03-3.70403E-03 5.28490E-14 4.65586E-15
 -1      4105 1.95778E+01 4.60164E-01-1.35210E-04 2.03696E-02-2.03086E-15 4.59366E-14
 -1      4106 1.94860E+01 5.14639E-01-3.09710E-03 5.02931E-03 4.72916E-14 7.49308E-14
 -1      4107 1.96209E+01 4.23852E-01 2.22512E-03-3.74192E-02 4.59057E-14-1.08971E-13
 -1      4108 1.94004E+01 5.73254E-01 2.28042E-04-2.62853E-02-2.31243E-14 1.01559E-13
 -1      4109 1.92818E+01 6.28448E-01-4.49961E-03-5.61512E-02-3.85504E-14 5.85841E-14
 -1      4110 1.94601E+01 5.24850E-01 2.73209E-03-9.43203E-02 2.46428E-15-7.78689E-14
 -1      4111 1.91795E+01 6.87525E-01 8.78296E-04-1.07488E-01 2.52260E-14-2.29514E-14
 -1      4112 1.90260E+01 7.38637E-01-6.38760E-03-1.60186E-01 5.34015E-14-5.60183E-14
 -1      4113 1.92648E+01 6.22017E-01 3.13522E-03-1.86742E-01-5.68088E-14-7.09906E-14
 -1      4114 1.89053E+01 7.92768E-01 1.94329E-03-2.41180E-01-4.20016E-14-9.81159E-14
 -1      4115 1.87069E+01 8.31925E-01-8.90050E-03-3.28245E-01-1.83627E-13-1.65468E-13
 -1      4116 1.90293E+01 7.03538E-01 3.29907E-03-3.31800E-01-5.97052E-14-1.83880E-13
 -1      4117 1.85677E+01 8.72211E-01 3.63034E-03-4.51909E-01-1.73531E-13-1.24024E-13
 -1      4118 1.83115E+01 8.86705E-01-1.24510E-02-5.88625E-01-7.57318E-14-1.16286E-13
 -1      4119 1.87494E+01 7.50754E-01 2.98329E-03-5.52609E-01-1.41907E-13-2.27879E-13
 -1      4120 1.81561E+01 9.03565E-01 7.16565E-03-7.73677E-01-1.97896E-14-1.94420E-13
 -1      4121 1.78128E+01 8.73006E-01-2.08692E-02-9.73914E-01-1.26199E-14-1.77194E-13
 -1      4122 1.84256E+01 7.35221E-01 2.01199E-03-8.80968E-01-1.25664E-13-2.38452E-13
 -1      4123 2.03459E+01 6.07954E-02 3.27693E-04 4.89078E-02 1.55037E-14-6.04198E-14
 -1      4124 2.03189E+01 3.10349E-02-1.08337E-04 5.59830E-02 5.47504E-14-5.39577E-14
 -1      4125 2.03129E+01 2.56498E-02-3.61327E-04 3.16460E-02 2.62722E-14-1.24306E-13
 -1      4126 2.00404E+01 8.06524E-02 4.37648E-04-9.46109E-02 7.90582E-14-7.99892E-14
 -1      4127 2.00711E+01 5.61379E-02-4.40751E-04-8.72146E-02 3.56539E-14-7.38801E-14
 -1      4128 2.03984E+01 8.26700E-01-6.03466E-04-1.34945E-02 8.02938E-14-6.28172E-14
 -1      4129 2.04007E+01 7.63050E-01-2.36911E-03-5.21644E-02 4.54033E-14-7.17865E-14
 -1      4130 1.77936E+01 8.06189E-01-1.89905E-02 1.10971E+00-7.39129E-14-3.29543E-13
 -1      4131 1.81312E+01 8.37172E-01-4.03677E-03 8.88251E-01-1.03751E-13-4.18292E-13
 -1      4132 1.84046E+01 6.59307E-01 4.66806E-03 1.09580E+00 4.38018E-16-4.07938E-13
 -1      4133 2.03851E+01 7.10150E-01-1.80519E-03 9.16395E-02 6.49771E-14-5.85914E-14
 -1      4134 2.03917E+01 8.02427E-01-1.62357E-05 6.57983E-02 6.98647E-14-6.11168E-14
 -1      4135 2.04191E+01 6.63126E-01 3.32727E-03 3.23657E-02 5.94956E-14-4.23066E-14
 -1      4136 2.03918E+01 5.93024E-01 4.04103E-05 5.01857E-02 3.63793E-14-6.22260E-14
 -1      4137 1.93700E+01 3.02113E-01 6.90639E-03-8.39054E-01-1.42458E-13-1.13145E-13
 -1      4138 1.93588E+01 3.50553E-01-3.36746E-03-7.29358E-01-1.22012E-13-9.16385E-14
 -1      4139 1.94300E+01 3.86063E-01 4.75843E-03-6.19285E-01-2.25520E-14-6.28220E-14
 -1      4140 1.94455E+01 3.98293E-01-3.20868E-03-5.34427E-01 3.03935E-14-8.27690E-14
 -1      4141 1.92573E+01 4.53880E-01 6.12725E-05-6.44028E-01-5.98509E-14-1.24684E-13
 -1      4142 1.94799E+01-1.99368E-01 1.34105E-02-1.47479E+00-1.20809E-13-3.65498E-14
 -1      4143 1.93503E+01-2.04355E-02 5.19841E-04-1.30775E+00-8.13850E-14-7.46596E-14
 -1      4144 1.97741E+01-7.04182E-01 1.38295E-02-1.84462E+00-7.41122E-14-6.17063E-15
 -1      4145 1.95353E+01-4.39276E-01 2.97182E-04-1.68560E+00-1.47235E-13-4.55543E-14
 -1      4146 1.91075E+01-1.83233E-01-1.86426E-02-1.68081E+00-9.16398E-14-1.52033E-13
 -1      4147 1.93377E+01-6.95740E-01-7.88541E-03-2.18357E+00 4.48565E-14-1.71722E-13
 -1      4148 1.99690E+01 1.36672E-01 5.22634E-04-1.12991E-01 4.44917E-14-2.39968E-14
 -1      4149 2.00011E+01 1.06994E-01-7.14793E-04-1.01755E-01 7.89543E-14-5.35254E-14
 -1      4150 2.00183E+01 1.02155E-01 3.54145E-04-6.76901E-02 5.10883E-14-1.42687E-13
 -1      4151 1.97855E+01 5.78666E-02 4.40603E-03 9.86526E-01 2.68995E-13-1.35008E-13
 -1      4152 1.98749E+01-8.36544E-02 3.03163E-03 1.06166E+00 2.41807E-14-5.70325E-14
 -1      4153 1.94910E+01-1.45201E-01 1.34961E-03 1.44018E+00-6.94515E-14 1.91941E-13
 -1      4154 1.96327E+01-3.57314E-01 1.18434E-02 1.60063E+00-1.97576E-13-1.79110E-15
 -1      4155 2.01791E+01-7.08113E-03 3.67470E-04-1.23883E-01 6.53467E-14-7.62295E-15
 -1      4156 2.02032E+01-9.21115E-03 6.00889E-05-1.19708E-01 2.93996E-14-4.89777E-15
 -1      4157 2.02346E+01-3.22724E-03-2.91316E-04-9.52376E-02 4.31692E-14-5.66496E-15
 -1      4158 2.01768E+01-1.00487E-04-3.11503E-04-1.01530E-01 3.88621E-14 2.24059E-15
 -1      4159 1.75272E+01 7.69584E-01 4.18006E-03-1.39779E+00 9.45294E-15-2.58044E-13
 -1      4160 1.98917E+01 1.99800E-01 6.80467E-04-1.41452E-01-6.29419E-15-1.14721E-14
 -1      4161 1.99255E+01 1.66901E-01-1.02714E-03-1.24767E-01 1.13241E-14 2.67295E-14
 -1      4162 1.99394E+01 1.64533E-01 6.98832E-04-8.60311E-02 1.50504E-14-3.98669E-14
 -1      4163 2.03994E+01 7.17672E-01 1.01211E-03-6.09457E-02 4.00296E-14-5.29873E-14
 -1      4164 2.04276E+01 6.75210E-01 3.90220E-03-1.15040E-03 7.93622E-14-3.60882E-14
 -1      4165 1.96839E+01-8.69408E-02-8.70855E-03 1.19046E+00 6.47116E-14 1.27364E-13
 -1      4166 2.04217E+01 6.06700E-01 2.24500E-03-2.42857E-02 4.94862E-14-5.34780E-14
 -1      4167 2.04081E+01 5.54621E-01-8.26081E-04 3.05800E-02 3.41939E-14-8.52449E-14
 -1      4168 1.96318E+01 1.30879E-01-1.42390E-03 1.00247E+00 1.03792E-13 2.12870E-13
 -1      4169 2.04284E+01 5.50272E-01-9.31352E-04 5.94219E-03 5.56163E-14-3.14289E-14
 -1      4170 2.04295E+01 5.34638E-01-1.99163E-03-6.29966E-03 5.80543E-14-3.85444E-14
 -1      4171 1.96173E+01 3.77762E-01 2.13356E-03-3.32764E-01-8.37001E-14-1.52167E-13
 -1      4172 1.96524E+01 3.53236E-01-2.30233E-03-2.85683E-01-7.42852E-14-1.57073E-13
 -1      4173 2.05397E+01-1.81828E+00 3.47789E-03 2.54972E+00-2.11505E-13-3.69742E-13
 -1      4174 2.04206E+01 3.12765E-01-6.04290E-04 1.35041E-02 3.25231E-14-5.20183E-14
 -1      4175 2.04066E+01 2.25882E-01-8.26607E-04 3.09116E-02 1.39643E-14-4.21732E-14
 -1      4176 1.97166E+01-6.21110E-01 5.53838E-03 1.82633E+00-1.77652E-13-7.27828E-14
 -1      4177 2.00058E+01-9.11259E-01 2.13275E-02 1.96656E+00-1.23598E-13-1.28226E-13
 -1      4178 1.92516E+01-3.74498E-01-1.73459E-02 1.85715E+00-1.81374E-13-8.13349E-14
 -1      4179 1.93692E+01 1.17370E-01 8.75904E-03-1.12263E+00-9.79881E-14-6.40458E-14
 -1      4180 1.93130E+01 2.20643E-01-2.93258E-03-9.85877E-01-1.07634E-13-9.60660E-14
 -1      4181 1.91414E+01 3.67983E-01-2.23315E-03-9.04609E-01-1.08100E-13-1.39380E-13
 -1      4182 1.90725E+01 1.67543E-01-7.97097E-03-1.24865E+00-9.98692E-14-9.06550E-14
 -1      4183 1.97151E+01 3.27721E-01 1.41626E-03-2.45488E-01-7.95074E-14-9.21219E-14
 -1      4184 1.97516E+01 2.96248E-01-1.82520E-03-2.11446E-01-5.88976E-14-4.36742E-14
 -1      4185 1.96432E+01 3.77362E-01 1.53559E-03-2.23615E-01-1.71069E-14-1.17786E-13
 -1      4186 2.03857E+01 2.91527E-01 9.52781E-04-2.91133E-02 4.16052E-14-4.20913E-14
 -1      4187 2.04062E+01 3.69889E-01 4.55349E-05-1.00944E-02 4.91708E-14-8.01093E-14
 -1      4188 2.03675E+01 2.08168E-01-1.16559E-03-5.78262E-02 5.03726E-14-3.27966E-14
 -1      4189 1.98071E+01 2.65507E-01 9.57957E-04-1.83918E-01-3.05925E-15-5.30565E-14
 -1      4190 1.98427E+01 2.31718E-01-1.39675E-03-1.59800E-01 5.27952E-14-2.20820E-15
 -1      4191 1.97537E+01 3.07509E-01 1.34490E-03-1.58547E-01-5.63801E-15-5.34770E-14
 -1      4192 1.71345E+01 6.90657E-01-2.87682E-02 1.62497E+00-9.55034E-14-6.77173E-14
 -1      4193 1.75653E+01 7.81677E-01-7.35248E-03 1.28686E+00-7.04458E-14-2.32997E-13
 -1      4194 1.79977E+01 5.44640E-01 1.14857E-02 1.53561E+00-1.66131E-13-4.47414E-13
 -1      4195 1.74153E+01 4.92920E-01 3.06041E-02 1.98429E+00-1.44574E-13-1.65991E-13
 -1      4196 1.95188E+01 4.03120E-01 3.20814E-03-4.54060E-01-4.68666E-14-1.09066E-13
 -1      4197 1.95480E+01 3.92231E-01-2.79249E-03-3.90183E-01-8.79121E-14-9.92886E-14
 -1      4198 1.95207E+01 4.34959E-01 1.51232E-03-3.18422E-01-8.48755E-14-2.32785E-13
 -1      4199 1.93893E+01 4.66931E-01 1.11173E-03-4.53975E-01-6.26916E-14-2.03792E-13
 -1      4200 2.03924E+01 1.56458E-01 5.33130E-04 3.51261E-02 1.42678E-14-4.83557E-14
 -1      4201 2.03693E+01 1.01517E-01-4.18757E-04 4.66217E-02 2.27519E-15-5.55732E-14
 -1      4202 2.04085E+01 2.01670E-01-2.67579E-04 1.86681E-02 2.89994E-14-1.05746E-13
 -1      4203 2.00831E+01-1.36425E+00-3.56081E-04 2.41661E+00-2.85266E-13-2.33982E-13
 -1      4204 1.93844E+01-9.53181E-01 8.93034E-03 2.54338E+00-3.63271E-13-1.01234E-13
 -1      4205 1.76285E+01-1.92779E-01-2.86391E-03 2.65857E+00-6.16438E-14 9.46053E-14
 -1      4206 2.01076E+01 3.55490E-02 3.86423E-04-8.31712E-02 3.65766E-14-1.95237E-14
 -1      4207 2.01379E+01 1.83097E-02-1.40790E-04-7.84606E-02 4.30366E-14 1.74839E-14
 -1      4208 2.00909E+01 5.11535E-02 3.04124E-05-5.63086E-02 8.48025E-14-1.14383E-13
 -1      4209 1.79559E+01 5.61967E-01-1.63307E-04-1.50176E+00-1.78932E-14-2.68793E-13
 -1      4210 2.03665E+01 8.90004E-02-1.51710E-04 2.67764E-02-1.85882E-15-1.21974E-13
 -1      4211 2.02920E+01 1.29084E-02 8.69176E-05-6.59309E-02 4.90350E-14 5.55976E-14
 -1      4212 2.03191E+01 3.40486E-02 1.63456E-04-5.96034E-02 7.22919E-14 6.53412E-14
 -1      4213 1.86332E+01 4.80097E-01 5.08214E-04 1.21386E+00 4.21239E-14-3.03709E-13
 -1      4214 2.04217E+01 4.66614E-01 2.18799E-03 8.53559E-03 3.03857E-14-8.83398E-14
 -1      4215 2.04155E+01 5.35203E-01-1.02583E-03 2.18709E-02 3.24420E-14-8.17096E-14
 -1      4216 2.04226E+01 5.57534E-01-1.22084E-03 1.28897E-02 4.52421E-14-4.27647E-14
 -1      4217 2.04122E+01 3.49701E-01-1.49446E-03-1.35803E-02 3.63560E-14-5.64887E-14
 -1      4218 2.03301E+01 9.10658E-02-5.36283E-04-8.89855E-02 8.01487E-14 2.45213E-15
 -1      4219 2.03535E+01 1.42871E-01 8.77377E-04-7.16232E-02 7.52572E-14 6.59270E-15
 -1      4220 2.03825E+01 1.93798E-01-3.01872E-04-4.95915E-02 3.87326E-14-1.03610E-14
 -1      4221 2.03410E+01 8.37112E-02-8.28085E-05-7.30005E-02 6.64389E-14 5.22634E-14
 -1      4222 2.04360E+01 4.44454E-01 2.61169E-03 1.75794E-03 2.51482E-14-3.49697E-14
 -1      4223 2.02337E+01-4.26424E-03 2.57261E-04-7.12177E-02 5.26854E-14 8.29977E-15
 -1      4224 2.02619E+01 3.70670E-04 5.87886E-05-6.69117E-02 5.38682E-14 3.09286E-14
 -1      4225 2.02865E+01 1.06192E-02-3.50336E-04-4.10841E-02 7.73803E-14 1.27243E-14
 -1      4226 1.85613E+01-3.10296E-01 8.51726E-03-2.28496E+00 1.00456E-13-2.99717E-13
 -1      4227 1.98519E+01 2.34492E-01 1.04376E-03-1.14779E-01 1.04528E-14-6.19345E-14
 -1      4228 1.94883E+01 2.31977E-01 2.37457E-03 9.83064E-01 1.15007E-13 2.40655E-14
 -1      4229 2.04302E+01 3.97501E-01 1.64619E-03 5.54262E-03 3.33576E-14-4.79983E-14
 -1      4230 2.04317E+01 3.53957E-01-6.89579E-05 3.43447E-03 1.79961E-14-7.73506E-14
 -1      4231 2.04211E+01 4.95128E-01-4.24792E-04-6.69909E-03 5.24512E-14-5.99024E-14
 -1      4232 1.94165E+01 1.28413E-01 1.43416E-04 1.16101E+00 2.73726E-14 1.75141E-13
 -1      4233 1.94885E+01 8.19426E-03 9.29541E-03 1.27573E+00 1.76827E-14 1.70967E-13
 -1      4234 1.92573E+01 3.01786E-01-1.68891E-03 1.05115E+00 1.01175E-13-4.43075E-14
 -1      4235 1.91649E+01 4.98822E-02-1.06030E-02 1.41627E+00-9.18782E-14 1.95347E-13
 -1      4236 1.86884E+01 3.92648E-01 1.22109E-02-1.27464E+00-8.32623E-14-2.29039E-13
 -1      4237 1.84352E+01 1.90769E-01-7.47754E-04-1.71187E+00-3.56956E-14-2.26625E-13
 -1      4238 2.02071E+01 2.61162E-03 1.39637E-04 4.86458E-03 1.48947E-14-7.01301E-14
 -1      4239 2.01730E+01 1.24871E-02 4.70639E-05 5.24092E-03 6.34590E-15-6.69284E-14
 -1      4240 2.01411E+01 2.54202E-02 1.56059E-04-9.34562E-03 7.00090E-14-8.58504E-14
 -1      4241 2.01033E+01 4.56171E-02-1.98068E-04-1.01346E-02 9.94109E-14-5.92117E-14
 -1      4242 2.00676E+01 6.90138E-02 1.43181E-04-1.44552E-02 7.85382E-14-2.63541E-14
 -1      4243 2.00276E+01 9.63749E-02-4.77093E-04-1.66110E-02 3.73742E-14-1.44500E-14
 -1      4244 1.99893E+01 1.26884E-01 5.92521E-05-2.32445E-02 8.86220E-15-2.51692E-14
 -1      4245 1.99442E+01 1.60576E-01-8.39495E-04-2.78074E-02 3.95012E-14-3.48363E-14
 -1      4246 1.99024E+01 1.96675E-01 6.05534E-06-3.82009E-02 3.13012E-14-1.88735E-14
 -1      4247 1.98500E+01 2.35299E-01-1.28695E-03-4.66830E-02 1.01726E-14 7.67955E-15
 -1      4248 1.98035E+01 2.75445E-01 3.45111E-05-6.27414E-02 1.20267E-14-3.67731E-14
 -1      4249 1.97412E+01 3.17371E-01-1.82334E-03-7.75439E-02 1.22908E-14-5.67779E-14
 -1      4250 1.96892E+01 3.59573E-01 2.03337E-04-1.01915E-01 1.35526E-14-5.53521E-14
 -1      4251 1.96140E+01 4.02514E-01-2.44849E-03-1.26628E-01 2.29265E-14-9.73483E-14
 -1      4252 1.95564E+01 4.43836E-01 5.94842E-04-1.62959E-01 1.64943E-14-8.48561E-14
 -1      4253 1.94652E+01 4.84297E-01-3.14995E-03-2.02753E-01-2.50358E-14-1.06227E-13
 -1      4254 1.94030E+01 5.20246E-01 1.32629E-03-2.55964E-01-8.05909E-14-1.30623E-13
 -1      4255 1.92929E+01 5.52821E-01-3.88693E-03-3.18043E-01-8.93880E-14-1.51674E-13
 -1      4256 1.92292E+01 5.76574E-01 2.56624E-03-3.94553E-01-8.04720E-14-1.23399E-13
 -1      4257 1.90979E+01 5.93046E-01-4.56298E-03-4.88648E-01-1.22542E-13-2.25303E-13
 -1      4258 1.90393E+01 5.94461E-01 4.55443E-03-5.96449E-01-1.20571E-13-1.78055E-13
 -1      4259 1.88865E+01 5.82602E-01-4.97147E-03-7.35352E-01-1.21660E-13-1.92535E-13
 -1      4260 1.88454E+01 5.47064E-01 7.69947E-03-8.83201E-01-1.20578E-13-1.54127E-13
 -1      4261 1.86751E+01 4.89169E-01-4.50910E-03-1.08591E+00-6.77987E-14-1.76004E-13
 -1      4262 2.04245E+01 3.53471E-01-7.82857E-04-7.51192E-03 1.48908E-14-4.68616E-14
 -1      4263 2.04291E+01 3.45252E-01-1.45837E-03-3.57265E-03 9.60688E-15-4.06139E-14
 -1      4264 2.04152E+01 2.72520E-01 1.88304E-03-2.15506E-02 1.76902E-14-3.80981E-14
 -1      4265 1.84856E+01 2.12170E-01 7.10176E-03 1.71044E+00-2.29727E-13-1.45086E-13
 -1      4266 1.84634E+01-6.45031E-02-8.69853E-03 2.01313E+00-2.68139E-13-1.36520E-13
 -1      4267 2.03433E+01 5.61971E-02-2.79546E-04-3.56839E-02 4.35315E-14 7.85820E-15
 -1      4268 2.03455E+01 6.53368E-02-1.86667E-04-5.76288E-02 4.72086E-14 3.71956E-14
 -1      4269 2.03700E+01 1.08062E-01 4.30850E-04-4.68966E-02 1.40081E-14 1.61850E-14
 -1      4270 1.83805E+01-3.82551E-01 5.82344E-04 2.45772E+00-3.10318E-13-1.11430E-13
 -1      4271 2.01705E+01 7.74616E-03 2.97717E-04-6.53208E-02 2.40200E-14 3.54786E-14
 -1      4272 2.02005E+01-7.11006E-04 3.83467E-06-6.14743E-02 2.25546E-14 3.94190E-15
 -1      4273 2.02740E+01 3.29200E-03 3.01093E-04-5.76973E-03 4.56226E-14-4.84908E-14
 -1      4274 2.02416E+01-8.22554E-04 1.31848E-05-4.30757E-03 2.16872E-14-4.61894E-14
 -1      4275 2.03848E+01 1.12028E-01 5.28540E-04-5.46199E-03 2.18853E-14-1.24214E-13
 -1      4276 2.03602E+01 6.81396E-02-5.87527E-05-1.26478E-03 9.67787E-15-9.85422E-14
 -1      4277 2.04279E+01 2.77620E-01 1.70107E-03-1.59670E-03 2.03317E-14-6.67607E-14
 -1      4278 2.03334E+01 3.66115E-02 2.78346E-04-5.25261E-03 3.07585E-14-8.31846E-14
 -1      4279 2.03042E+01 1.53598E-02 9.49536E-05-2.88173E-03 5.44916E-14-7.41043E-14
 -1      4280 2.02235E+01 1.02120E-03-2.35222E-04-3.42356E-02 1.69865E-14-4.86915E-14
 -1      4281 2.01574E+01 1.72560E-02-2.40172E-04-3.78133E-02 4.45313E-14-3.80722E-14
 -1      4282 1.84657E+01-2.25648E-02 7.30935E-03-1.99208E+00 1.86166E-14-2.33403E-13
 -1      4283 1.87289E+01 2.52409E-01 9.28615E-03 1.48947E+00-8.02523E-14-1.23533E-13
 -1      4284 2.04111E+01 1.95757E-01-4.73453E-04 2.97999E-03 6.70552E-15-8.98507E-14
 -1      4285 1.87316E+01 3.67594E-01-5.30821E-05 1.30246E+00-3.60263E-14-1.26697E-13
 -1      4286 2.03973E+01 1.91798E-01-6.22513E-04-3.64770E-02 2.82715E-15 6.29144E-15
 -1      4287 1.90898E+01 3.10870E-01 2.16641E-03 1.15732E+00 1.83529E-14 5.97395E-15
 -1      4288 2.03980E+01 1.72714E-01-2.54222E-04-2.19681E-02 1.02222E-15-3.50240E-14
 -1      4289 1.78863E+01-1.02988E-02 2.23080E-02 2.39498E+00-2.21994E-13-5.12264E-14
 -3
    1PSTEP                         3           1           1          
  100CL  101 1.000000000        4289                     0    1           1
 -4  TOSTRAIN    6    1
 -5  EXX         1    4    1    1
 -5  EYY         1    4    2    2
 -5  EZZ         1    4    3    3
 -5  EXY         1    4    1    2
 -5  EYZ         1    4    2    3
 -5  EZX         1    4    3    1
 -1         1 3.95743E-05 2.41338E-05-2.90974E-05 5.81966E-05-8.20436E-18-8.36064E-18
 -1         2 3.84277E-05-1.17112E-04 2.15597E-05-6.74732E-08 1.16324E-17 4.96679E-19
 -1         3 9.52008E-05-2.86096E-05-2.84886E-05-3.26994E-08-3.06442E-18-3.70715E-18
 -1         4 9.51711E-05-2.86568E-05-2.84258E-05 8.97077E-08 2.22872E-18-3.02981E-18
 -1         5 1.43319E-04-2.14752E-05-4.25192E-05 3.85272E-05-1.67077E-19 1.03764E-17
 -1         6 1.45382E-04 2.57496E-10-4.41773E-05-5.35221E-05-6.04782E-19 4.94328E-18
 -1         7 9.05863E-05-5.10368E-07-3.90597E-05-2.92560E-05-8.76679E-20-6.55471E-19
 -1         8 8.51111E-05 8.64506E-08-3.63331E-05-2.02791E-05-6.92979E-20-1.95861E-18
 -1         9 8.28071E-05 7.64906E-08-3.53479E-05-1.56488E-05-3.33916E-20-2.45880E-18
 -1        10 8.17746E-05 3.90381E-08-3.48822E-05-1.20881E-05-2.38228E-22-2.59442E-18
 -1        11 8.12618E-05 1.89886E-08-3.46566E-05-9.02111E-06 7.37845E-22-2.52101E-18
 -1        12 8.09966E-05 8.98072E-09-3.45440E-05-6.28985E-06 3.77178E-20-2.36510E-18
 -1        13 8.08584E-05 4.40444E-09-3.44874E-05-3.68902E-06 2.73317E-20-2.11525E-18
 -1        14 8.08009E-05 2.51525E-09-3.44645E-05-1.18470E-06 6.56022E-20-1.87541E-18
 -1        15 8.08029E-05 2.49790E-09-3.44652E-05 1.29033E-06 6.22693E-20-1.59235E-18
 -1        16 8.08647E-05 4.29467E-09-3.44896E-05 3.79977E-06 8.33021E-20-1.23324E-18
 -1        17 8.10079E-05 8.22209E-09-3.45473E-05 6.41292E-06 9.97365E-20-8.58590E-19
 -1        18 8.12775E-05 1.80827E-08-3.46610E-05 9.16356E-06 9.16483E-20-2.39939E-19
 -1        19 8.17983E-05 3.82188E-08-3.48899E-05 1.22662E-05 1.33295E-19 5.28110E-19
 -1        20 8.28326E-05 8.05509E-08-3.53604E-05 1.58805E-05 1.40184E-19 1.61783E-18
 -1        21 8.50734E-05 1.70183E-07-3.63712E-05 2.04901E-05 1.35975E-19 3.32084E-18
 -1        22 9.16233E-05-9.84973E-08-3.87320E-05 2.80015E-05-6.56451E-21 5.98408E-18
 -1        23 1.12943E-04-3.81156E-05-3.53877E-05-4.40368E-06-4.32728E-19 3.10311E-18
 -1        24 9.27715E-05-2.76872E-05-2.89893E-05 3.90982E-07-9.52879E-20 1.51663E-18
 -1        25 8.90822E-05-2.68410E-05-2.69181E-05 3.75572E-07-5.92129E-20 1.42725E-19
 -1        26 8.79741E-05-2.64760E-05-2.63792E-05 2.03666E-07 3.63463E-21-8.64132E-19
 -1        27 8.79959E-05-2.64529E-05-2.63699E-05 1.39417E-07 2.33844E-21-1.59627E-18
 -1        28 8.85256E-05-2.65882E-05-2.65383E-05 1.00280E-07-7.57693E-20-2.02373E-18
 -1        29 8.92777E-05-2.68001E-05-2.67701E-05 7.44101E-08-8.98401E-21-2.39543E-18
 -1        30 9.01024E-05-2.70399E-05-2.70202E-05 5.59072E-08 4.22459E-20-2.43407E-18
 -1        31 9.09172E-05-2.72801E-05-2.72660E-05 4.19386E-08 2.27443E-21-3.17343E-18
 -1        32 9.16784E-05-2.75060E-05-2.74956E-05 3.10717E-08-1.66889E-19-3.92470E-18
 -1        33 9.23676E-05-2.77115E-05-2.77035E-05 2.25131E-08 1.57723E-19-4.73064E-18
 -1        34 9.29833E-05-2.78957E-05-2.78895E-05 1.57765E-08-8.88626E-20-4.48160E-18
 -1        35 9.35360E-05-2.80616E-05-2.80568E-05 1.05418E-08 2.53572E-20-4.99507E-18
 -1        36 9.40460E-05-2.82151E-05-2.82114E-05 6.59971E-09 2.14315E-19-4.04670E-18
 -1        37 9.45420E-05-2.83649E-05-2.83620E-05 3.83800E-09-2.20002E-19-3.40328E-18
 -1        38 9.50615E-05-2.85221E-05-2.85200E-05 2.25145E-09-8.25500E-21-3.71734E-18
 -1        39 9.56522E-05-2.87010E-05-2.86999E-05 2.03969E-09-2.61907E-20-4.22038E-18
 -1        40 9.63759E-05-2.89214E-05-2.89204E-05 1.96976E-09-2.45418E-19-3.86084E-18
 -1        41 9.73663E-05-2.92204E-05-2.92231E-05 7.95472E-09-5.50319E-20-5.27443E-18
 -1        42 9.86436E-05-2.96073E-05-2.96135E-05 1.53630E-08 1.38467E-19-4.90260E-18
 -1        43 1.00392E-04-3.01354E-05-3.01487E-05 2.93204E-08-3.07111E-20-5.09522E-18
 -1        44 1.02805E-04-3.08628E-05-3.08885E-05 5.33170E-08 4.22641E-19-4.49977E-18
 -1        45 1.06136E-04-3.18640E-05-3.19102E-05 9.35022E-08-1.56283E-19-3.21941E-18
 -1        46 1.10696E-04-3.32299E-05-3.33069E-05 1.58770E-07 1.79669E-19-2.60913E-18
 -1        47 1.16815E-04-3.50564E-05-3.51711E-05 2.59400E-07-3.88757E-19-3.99888E-18
 -1        48 1.24712E-04-3.74081E-05-3.75453E-05 3.99447E-07 3.41306E-19-4.82822E-18
 -1        49 1.34179E-04-4.02285E-05-4.03093E-05 5.52695E-07 1.46190E-20-6.25873E-18
 -1        50 1.43952E-04-4.31600E-05-4.29925E-05 6.08685E-07-2.94117E-19-6.14565E-18
 -1        51 1.50831E-04-4.52772E-05-4.45902E-05 2.97553E-07 2.38976E-19-4.94240E-18
 -1        52 1.49370E-04-4.49301E-05-4.37025E-05-7.40835E-07-1.62597E-19-4.78484E-18
 -1        53 1.34493E-04-4.04650E-05-3.95256E-05-2.47869E-06-3.44782E-19-5.08040E-18
 -1        54 1.09548E-04-3.27147E-05-3.35194E-05-3.37462E-06 1.11764E-19-6.45556E-18
 -1        55 8.69022E-05-2.54162E-05-2.85942E-05-1.74912E-06-6.36466E-19-1.01273E-17
 -1        56 8.51267E-05-2.48860E-05-2.82494E-05 1.39105E-06-1.67832E-19-1.20510E-17
 -1        57 1.05795E-04-3.15057E-05-3.26692E-05 3.36240E-06 4.31601E-19-9.97540E-18
 -1        58 1.32341E-04-3.98206E-05-3.89497E-05 2.57414E-06-8.84084E-19-8.36847E-18
 -1        59 1.48401E-04-4.46511E-05-4.34052E-05 8.68575E-07 1.22893E-19-7.13075E-18
 -1        60 1.50755E-04-4.52592E-05-4.45250E-05-2.42699E-07 2.03685E-20-4.60831E-18
 -1        61 1.44254E-04-4.32520E-05-4.30513E-05-6.02457E-07 1.87517E-19-3.80686E-18
 -1        62 1.34453E-04-4.03091E-05-4.03764E-05-5.66752E-07-4.65229E-19-3.28029E-18
 -1        63 1.24740E-04-3.74145E-05-3.75487E-05-4.17726E-07 4.18636E-20-5.41249E-18
 -1        64 1.16505E-04-3.49623E-05-3.50773E-05-2.77287E-07 5.78580E-20-6.23920E-18
 -1        65 1.10019E-04-3.30267E-05-3.31036E-05-1.76159E-07 7.35410E-19-6.30122E-18
 -1        66 1.05090E-04-3.15514E-05-3.15965E-05-1.11415E-07-1.71768E-19-3.10807E-18
 -1        67 1.01411E-04-3.04471E-05-3.04721E-05-7.23590E-08 4.44787E-19-3.75044E-18
 -1        68 9.87077E-05-2.96335E-05-2.96501E-05-4.82748E-08-4.56061E-19-3.78099E-18
 -1        69 9.67964E-05-2.90560E-05-2.90757E-05-2.84767E-08 8.24718E-19-3.38342E-18
 -1        70 9.56003E-05-2.86942E-05-2.87190E-05-8.97336E-10-2.45524E-19-1.75274E-18
 -1        71 9.51290E-05-2.85466E-05-2.85439E-05 7.61322E-08 3.09744E-19-4.82638E-18
 -1        72 1.02151E-04-3.05797E-05-3.41416E-05-1.92809E-06 7.76623E-20 1.04457E-17
 -1        73 9.25285E-05-2.75070E-05-2.88950E-05-3.33157E-07-1.77149E-20 9.46874E-18
 -1        74 8.90681E-05-2.66942E-05-2.69571E-05-1.29918E-07 1.76057E-20 8.72697E-18
 -1        75 8.80074E-05-2.64308E-05-2.64221E-05-9.91415E-08-7.35355E-20 8.62641E-18
 -1        76 8.80335E-05-2.64346E-05-2.63974E-05-7.82723E-08 1.23501E-19 8.40609E-18
 -1        77 8.85624E-05-2.65833E-05-2.65565E-05-6.25147E-08 3.86482E-20 7.80120E-18
 -1        78 8.93133E-05-2.68023E-05-2.67838E-05-5.07669E-08-1.53966E-19 8.17317E-18
 -1        79 9.01370E-05-2.70460E-05-2.70317E-05-4.12774E-08 2.16265E-20 8.30895E-18
 -1        80 9.09518E-05-2.72886E-05-2.72767E-05-3.31896E-08 1.20777E-19 7.91390E-18
 -1        81 9.17147E-05-2.75164E-05-2.75063E-05-2.61639E-08 8.06831E-20 7.23590E-18
 -1        82 9.24075E-05-2.77237E-05-2.77152E-05-2.00615E-08 5.60098E-20 7.34911E-18
 -1        83 9.30286E-05-2.79097E-05-2.79029E-05-1.48233E-08 1.70381E-19 6.27176E-18
 -1        84 9.35877E-05-2.80773E-05-2.80722E-05-1.04327E-08-1.21234E-19 5.63035E-18
 -1        85 9.41027E-05-2.82318E-05-2.82284E-05-6.91133E-09-1.80996E-19 6.30337E-18
 -1        86 9.45968E-05-2.83800E-05-2.83785E-05-4.32939E-09 2.45713E-19 5.61652E-18
 -1        87 9.50965E-05-2.85298E-05-2.85304E-05-2.81871E-09-2.06907E-19 5.98354E-18
 -1        88 9.56298E-05-2.86896E-05-2.86923E-05-2.58351E-09 2.36754E-20 7.20487E-18
 -1        89 9.62232E-05-2.88672E-05-2.88720E-05-3.89804E-09 1.48704E-19 6.59182E-18
 -1        90 9.68979E-05-2.90690E-05-2.90757E-05-7.07667E-09 1.69433E-19 4.34902E-18
 -1        91 9.76641E-05-2.92978E-05-2.93058E-05-1.23938E-08-5.96023E-19 4.23434E-18
 -1        92 9.85128E-05-2.95510E-05-2.95590E-05-1.99221E-08 2.81443E-19 5.16295E-18
 -1        93 9.94051E-05-2.98170E-05-2.98226E-05-2.92546E-08 7.23473E-20 5.56022E-18
 -1        94 1.00260E-04-3.00719E-05-3.00713E-05-3.90906E-08 6.57347E-20 4.44309E-18
 -1        95 1.00944E-04-3.02760E-05-3.02641E-05-4.67319E-08-1.25788E-19 4.37618E-18
 -1        96 1.01262E-04-3.03721E-05-3.03429E-05-4.76881E-08 3.01130E-19 6.55876E-18
 -1        97 1.00975E-04-3.02887E-05-3.02374E-05-3.58476E-08 4.06981E-20 6.07373E-18
 -1        98 9.98299E-05-2.99507E-05-2.98772E-05-4.90574E-09 2.61173E-19 4.68388E-18
 -1        99 9.76401E-05-2.93014E-05-2.92140E-05 4.83046E-08 7.53487E-20 5.03028E-18
 -1       100 9.43896E-05-2.83338E-05-2.82527E-05 1.18926E-07 4.41781E-20 4.81575E-18
 -1       101 9.03439E-05-2.71242E-05-2.70786E-05 1.90095E-07-9.40042E-20 5.62885E-18
 -1       102 8.60990E-05-2.58480E-05-2.58663E-05 2.34742E-07 1.80348E-19 3.74140E-18
 -1       103 8.24988E-05-2.47580E-05-2.48517E-05 2.26575E-07 3.38168E-20 4.25294E-18
 -1       104 8.03958E-05-2.41135E-05-2.42655E-05 1.56289E-07-2.88622E-19 4.63220E-18
 -1       105 8.03362E-05-2.40843E-05-2.42521E-05 4.15647E-08-8.80658E-20 5.18719E-18
 -1       106 8.23286E-05-2.46778E-05-2.48119E-05-7.94236E-08-2.41408E-19 4.50199E-18
 -1       107 8.58388E-05-2.57340E-05-2.58016E-05-1.68248E-07-5.14258E-21 6.08699E-19
 -1       108 9.00140E-05-2.69938E-05-2.69902E-05-2.04994E-07-2.89424E-19-7.36310E-19
 -1       109 9.39994E-05-2.81967E-05-2.81408E-05-1.92964E-07 3.19376E-19-1.28918E-18
 -1       110 9.71829E-05-2.91564E-05-2.90765E-05-1.50134E-07-4.08145E-19-1.32894E-18
 -1       111 9.92838E-05-2.97886E-05-2.97089E-05-9.68948E-08-1.72254E-19 4.84212E-19
 -1       112 1.00308E-04-3.00959E-05-3.00309E-05-4.79579E-08-5.59712E-20 1.66825E-18
 -1       113 1.00439E-04-3.01346E-05-3.00893E-05-1.03386E-08-9.08670E-20 1.42531E-18
 -1       114 9.99327E-05-2.99821E-05-2.99552E-05 1.48938E-08 1.00015E-19 6.94636E-19
 -1       115 9.90417E-05-2.97146E-05-2.97023E-05 2.98401E-08-1.54798E-19-2.26566E-18
 -1       116 9.79828E-05-2.93970E-05-2.93958E-05 3.74364E-08 4.29225E-19-5.82705E-18
 -1       117 9.69304E-05-2.90809E-05-2.90898E-05 3.97993E-08-1.95478E-19-8.74701E-18
 -1       118 9.60279E-05-2.88084E-05-2.88291E-05 3.70425E-08 9.72516E-19-8.42855E-18
 -1       119 9.54071E-05-2.86195E-05-2.86487E-05 2.24774E-08-7.23450E-20-7.68218E-18
 -1       120 9.51742E-05-2.85401E-05-2.85579E-05-1.85185E-08 1.03115E-18-6.24550E-18
 -1       121 9.52501E-05-2.86142E-05-2.85593E-05-3.27086E-08-4.87043E-18 1.04146E-18
 -1       122 9.51763E-05-2.83789E-05-2.86523E-05 3.76042E-09-8.15947E-19-6.29771E-19
 -1       123 9.49897E-05-2.77579E-05-2.88337E-05 2.81819E-08-1.58441E-18 3.35756E-19
 -1       124 9.47242E-05-2.68687E-05-2.90919E-05 3.84640E-08-2.28549E-18 9.25603E-19
 -1       125 9.44144E-05-2.58287E-05-2.93964E-05 4.37425E-08-1.77928E-18-4.13026E-19
 -1       126 9.41019E-05-2.47765E-05-2.97047E-05 4.38648E-08-6.10090E-18-2.31626E-19
 -1       127 9.38146E-05-2.38091E-05-2.99870E-05 3.83574E-08-1.53815E-18 9.69944E-19
 -1       128 9.35992E-05-2.30829E-05-3.01971E-05 2.62106E-08 4.77580E-19 3.32903E-19
 -1       129 9.34941E-05-2.27280E-05-3.02974E-05 7.48317E-09 8.70654E-18 1.70861E-18
 -1       130 9.35281E-05-2.28407E-05-3.02609E-05-1.61708E-08 7.71893E-18-1.47508E-18
 -1       131 9.37100E-05-2.34534E-05-3.00800E-05-4.19674E-08 2.45257E-18-7.61013E-19
 -1       132 9.40181E-05-2.44889E-05-2.97791E-05-6.17079E-08 6.96751E-19 2.68956E-18
 -1       133 9.44147E-05-2.58219E-05-2.93970E-05-7.18387E-08 1.59472E-18 3.79397E-19
 -1       134 9.48170E-05-2.71769E-05-2.90141E-05-6.39153E-08 8.69737E-18 3.50632E-19
 -1       135 9.51446E-05-2.82360E-05-2.87155E-05-9.57371E-09 9.94595E-18 6.47662E-21
 -1       136 9.52670E-05-2.86980E-05-2.85408E-05 8.08820E-08 1.05276E-17 2.03356E-18
 -1       137 2.54108E-05-8.61815E-05 1.54612E-05-2.32537E-05 1.14597E-17 2.93110E-18
 -1       138 7.19444E-06-2.83994E-05 1.73922E-06-1.43990E-05 1.30214E-17 6.12490E-18
 -1       139 1.29476E-05 2.04410E-05-1.72142E-05 2.97300E-05 6.95583E-18 4.85180E-18
 -1       140 6.21831E-05 3.01251E-05-3.76389E-05 8.51139E-05 2.75794E-18 2.75963E-18
 -1       141 1.56359E-04-5.10443E-06-5.80091E-05 1.18111E-04 1.26462E-18 3.78878E-18
 -1       142 2.56107E-04-6.08904E-05-7.31241E-05 9.53690E-05-4.18275E-19-4.67308E-18
 -1       143 3.11950E-04-9.58840E-05-8.02994E-05 2.19992E-05-9.14769E-19-1.76552E-17
 -1       144 2.92308E-04-8.29631E-05-7.80636E-05-6.28391E-05 4.42131E-18-2.42745E-17
 -1       145 2.08060E-04-3.28545E-05-6.63383E-05-1.11987E-04 7.42361E-18-2.06062E-17
 -1       146 1.05749E-04 1.66934E-05-4.80988E-05-1.06018E-04 8.80830E-18-1.15167E-17
 -1       147 3.30476E-05 3.11437E-05-2.79671E-05-5.93031E-05 9.59350E-18-9.12551E-18
 -1       148 4.99253E-06-1.18981E-07-7.35053E-06-4.01870E-06 7.26458E-18-4.46005E-18
 -1       149 1.52777E-05-5.87034E-05 9.41086E-06 2.37319E-05 4.61972E-18-1.13672E-18
 -1       150 3.44655E-05-1.07310E-04 1.96008E-05 1.42376E-05-1.22227E-18-2.40008E-19
 -1       151 3.53368E-05-1.13276E-04 2.11742E-05-1.77997E-05-1.00938E-17-2.01144E-18
 -1       152 1.50192E-05-6.63728E-05 1.13961E-05-3.02669E-05-1.19004E-17-4.11796E-18
 -1       153 6.47386E-06-4.12469E-06-7.80853E-06 1.37228E-06-8.93112E-18-6.92788E-18
 -1       154 1.27556E-04 5.16584E-06-5.22171E-05 1.08869E-04-3.70026E-18-5.87671E-18
 -1       155 2.46275E-04-5.07957E-05-7.24421E-05 1.11477E-04-2.12923E-19-7.15743E-20
 -1       156 3.31044E-04-9.88790E-05-8.39117E-05 5.19291E-05 3.28966E-19 8.05909E-18
 -1       157 3.37273E-04-1.02549E-04-8.46955E-05-4.11110E-05-9.51456E-19 1.62721E-17
 -1       158 2.59849E-04-5.80892E-05-7.44620E-05-1.07000E-04-5.34827E-18 1.66870E-17
 -1       159 1.49126E-04-3.71326E-06-5.63190E-05-1.13448E-04-1.08401E-17 1.80426E-17
 -1       160 5.41436E-05 2.44916E-05-3.41634E-05-7.12567E-05-1.05091E-17 1.24044E-17
 -1       161 8.01095E-06 5.10657E-06-1.15840E-05-1.04550E-05-9.81499E-18 7.22561E-18
 -1       162 1.00995E-05-5.08089E-05 7.50875E-06 2.85021E-05 9.10984E-19 2.33061E-18
 -1       163 3.01158E-05-1.01899E-04 1.88267E-05 2.72651E-05 8.45064E-18-3.09878E-18
 -1       164 9.48484E-05-1.23419E-05-3.55629E-05-2.23558E-05-9.86185E-19-1.14881E-18
 -1       165 8.92395E-05-8.45626E-06-3.47834E-05-1.73971E-05-5.82501E-19-1.80802E-18
 -1       166 8.65360E-05-6.49813E-06-3.44142E-05-1.35957E-05-2.50338E-19-2.14855E-18
 -1       167 8.52008E-05-5.51963E-06-3.42333E-05-1.03739E-05-9.80374E-21-2.20326E-18
 -1       168 8.44586E-05-4.94571E-06-3.41462E-05-7.55163E-06 2.29154E-19-2.05771E-18
 -1       169 8.40366E-05-4.60234E-06-3.41050E-05-4.90737E-06 3.70887E-19-1.80503E-18
 -1       170 8.38213E-05-4.41847E-06-3.40879E-05-2.39687E-06 6.57518E-19-1.62029E-18
 -1       171 8.37577E-05-4.36271E-06-3.40835E-05 5.14028E-08 8.05544E-19-1.43575E-18
 -1       172 8.38310E-05-4.42679E-06-3.40886E-05 2.50165E-06 9.44153E-19-1.13072E-18
 -1       173 8.40584E-05-4.62172E-06-3.41063E-05 5.01847E-06 1.11938E-18-8.43049E-19
 -1       174 8.44866E-05-4.97413E-06-3.41464E-05 7.62964E-06 1.16006E-18-3.30680E-19
 -1       175 8.52552E-05-5.57457E-06-3.42337E-05 1.05198E-05 1.38021E-18 3.05713E-19
 -1       176 8.66456E-05-6.60855E-06-3.44170E-05 1.37856E-05 1.44097E-18 1.13029E-18
 -1       177 8.93771E-05-8.59589E-06-3.47874E-05 1.76368E-05 1.31681E-18 2.38476E-18
 -1       178 9.57596E-05-1.36087E-05-3.54200E-05 2.18964E-05 9.67867E-19 4.15157E-18
 -1       179 1.05579E-04-2.60930E-05-3.52559E-05 1.86666E-05 4.80870E-19 6.23422E-18
 -1       180 1.03372E-04-2.72932E-05-3.26029E-05-1.21313E-05-8.72867E-19 1.41110E-19
 -1       181 9.70809E-05-2.82821E-05-2.95205E-05-4.73573E-06-7.71396E-19-1.42381E-19
 -1       182 9.34770E-05-2.76278E-05-2.81731E-05-1.77435E-06-5.53754E-19-4.93039E-19
 -1       183 9.19391E-05-2.73957E-05-2.76261E-05-4.26072E-07-4.15322E-19-7.70965E-19
 -1       184 9.13619E-05-2.73201E-05-2.74281E-05 2.39112E-07-2.60904E-19-9.48232E-19
 -1       185 9.13203E-05-2.73588E-05-2.74034E-05 5.66758E-07-3.11280E-19-9.58355E-19
 -1       186 9.15670E-05-2.74619E-05-2.74695E-05 7.08986E-07-1.22051E-19-1.06270E-18
 -1       187 9.19585E-05-2.75958E-05-2.75821E-05 7.45834E-07-3.57873E-19-1.10551E-18
 -1       188 9.24106E-05-2.77396E-05-2.77153E-05 7.24372E-07-5.10144E-19-9.60014E-19
 -1       189 9.28753E-05-2.78818E-05-2.78542E-05 6.74631E-07-2.65855E-19-8.65443E-19
 -1       190 9.33284E-05-2.80166E-05-2.79908E-05 6.16941E-07-1.20016E-19-1.46539E-18
 -1       191 9.37620E-05-2.81426E-05-2.81226E-05 5.65856E-07-1.60974E-19-1.68431E-18
 -1       192 9.41804E-05-2.82617E-05-2.82507E-05 5.32607E-07 2.44640E-19-1.81855E-18
 -1       193 9.45970E-05-2.83780E-05-2.83790E-05 5.26883E-07 2.26667E-19-1.95232E-18
 -1       194 9.50341E-05-2.84980E-05-2.85144E-05 5.58324E-07-5.54612E-20-1.49965E-18
 -1       195 9.55219E-05-2.86301E-05-2.86662E-05 6.37983E-07-3.07056E-19-1.38459E-18
 -1       196 9.61003E-05-2.87854E-05-2.88465E-05 7.79082E-07-2.44427E-19-1.46661E-18
 -1       197 9.68606E-05-2.89875E-05-2.90845E-05 1.01486E-06-8.62511E-19-1.59181E-18
 -1       198 9.78007E-05-2.92370E-05-2.93790E-05 1.35032E-06-2.32259E-19-2.44093E-18
 -1       199 9.90355E-05-2.95636E-05-2.97664E-05 1.82608E-06-3.08562E-19-2.72895E-18
 -1       200 1.00672E-04-2.99966E-05-3.02804E-05 2.48706E-06 4.76022E-19-2.77253E-18
 -1       201 1.02842E-04-3.05731E-05-3.09616E-05 3.38387E-06 7.39038E-19-2.56014E-18
 -1       202 1.05697E-04-3.13414E-05-3.18556E-05 4.56236E-06 3.36355E-19-1.98849E-18
 -1       203 1.09396E-04-3.23655E-05-3.30044E-05 6.02994E-06-4.26658E-19-1.86536E-18
 -1       204 1.14062E-04-3.37318E-05-3.44265E-05 7.67758E-06-1.00280E-18-1.68843E-18
 -1       205 1.19704E-04-3.55568E-05-3.60758E-05 9.12599E-06-7.59856E-19-2.91668E-18
 -1       206 1.26072E-04-3.79740E-05-3.77810E-05 9.48633E-06 7.80749E-19-2.56902E-18
 -1       207 1.32440E-04-4.10199E-05-3.92032E-05 7.16484E-06 6.88681E-19-1.42677E-18
 -1       208 1.37310E-04-4.41710E-05-3.99219E-05 2.90589E-07 1.21285E-19-1.01343E-18
 -1       209 1.38262E-04-4.54730E-05-3.97795E-05-1.11301E-05-6.83489E-19-1.37087E-18
 -1       210 1.33263E-04-4.20215E-05-3.92469E-05-2.09655E-05-1.35227E-18-2.05110E-18
 -1       211 1.23290E-04-3.33085E-05-3.89755E-05-1.90589E-05-2.20088E-18-3.81014E-18
 -1       212 1.17320E-04-2.76002E-05-3.90100E-05-2.04022E-06-8.25275E-19-4.31413E-18
 -1       213 1.21954E-04-3.21021E-05-3.89419E-05 1.74024E-05-5.21402E-19-4.70645E-18
 -1       214 1.32001E-04-4.11215E-05-3.91252E-05 2.15800E-05 2.29658E-19-6.89716E-18
 -1       215 1.37857E-04-4.53443E-05-3.96814E-05 1.20976E-05 7.71435E-19-5.34788E-18
 -1       216 1.37334E-04-4.43189E-05-3.98687E-05 4.52173E-07 1.67513E-18-3.17780E-18
 -1       217 1.32616E-04-4.12048E-05-3.91998E-05-6.87767E-06 2.96455E-19-2.60773E-18
 -1       218 1.26221E-04-3.80965E-05-3.77932E-05-9.54184E-06 2.38427E-20-2.01348E-18
 -1       219 1.19712E-04-3.55934E-05-3.60646E-05-9.36914E-06-1.51473E-18-1.25803E-18
 -1       220 1.13870E-04-3.36866E-05-3.43646E-05-8.00314E-06-9.06233E-19-1.32359E-18
 -1       221 1.08976E-04-3.22423E-05-3.28777E-05-6.38395E-06-4.54759E-19-2.15716E-18
 -1       222 1.05042E-04-3.11425E-05-3.16599E-05-4.91654E-06 1.32863E-18-4.32035E-18
 -1       223 1.01963E-04-3.03004E-05-3.07009E-05-3.71430E-06 3.10600E-19-2.98763E-18
 -1       224 9.96006E-05-2.96536E-05-2.99668E-05-2.75773E-06 3.83663E-20-2.62615E-18
 -1       225 9.78311E-05-2.91573E-05-2.94230E-05-1.97440E-06-1.64807E-20-2.15273E-18
 -1       226 9.65612E-05-2.87829E-05-2.90417E-05-1.27817E-06-9.17873E-20-2.61647E-18
 -1       227 9.57191E-05-2.85202E-05-2.87945E-05-6.15039E-07-1.12823E-18-2.96797E-18
 -1       228 9.53381E-05-2.84447E-05-2.86705E-05-1.77379E-07 3.56999E-19-1.96110E-18
 -1       229 9.94757E-05-2.85436E-05-3.05792E-05 7.21782E-06 5.49129E-19 5.67348E-18
 -1       230 9.44069E-05-2.77748E-05-2.85212E-05 2.77163E-06 3.79709E-19 5.17200E-18
 -1       231 9.21002E-05-2.74108E-05-2.76765E-05 9.26143E-07 6.28326E-20 4.79503E-18
 -1       232 9.11433E-05-2.72584E-05-2.73533E-05 4.65462E-08 3.55671E-19 4.46381E-18
 -1       233 9.09158E-05-2.72382E-05-2.72777E-05-3.79219E-07 1.97826E-19 4.22547E-18
 -1       234 9.10922E-05-2.73163E-05-2.73263E-05-5.77618E-07-1.69896E-19 3.96732E-18
 -1       235 9.14771E-05-2.74460E-05-2.74387E-05-6.51150E-07 1.95952E-19 3.69889E-18
 -1       236 9.19559E-05-2.75972E-05-2.75806E-05-6.54423E-07 3.07588E-19 3.46596E-18
 -1       237 9.24624E-05-2.77525E-05-2.77320E-05-6.20535E-07 2.63860E-19 3.51160E-18
 -1       238 9.29609E-05-2.79023E-05-2.78819E-05-5.70885E-07 1.17627E-19 3.28961E-18
 -1       239 9.34354E-05-2.80428E-05-2.80252E-05-5.19881E-07 7.12384E-19 3.03128E-18
 -1       240 9.38833E-05-2.81739E-05-2.81611E-05-4.77452E-07 6.99661E-20 2.71191E-18
 -1       241 9.43113E-05-2.82980E-05-2.82914E-05-4.50461E-07-9.25803E-20 2.93893E-18
 -1       242 9.47325E-05-2.84194E-05-2.84198E-05-4.43497E-07 2.83535E-19 2.85153E-18
 -1       243 9.51637E-05-2.85435E-05-2.85514E-05-4.59158E-07-4.04978E-19 2.88084E-18
 -1       244 9.56234E-05-2.86763E-05-2.86915E-05-4.97886E-07-3.25728E-19 2.62460E-18
 -1       245 9.61294E-05-2.88238E-05-2.88451E-05-5.57319E-07 4.26668E-19 2.78089E-18
 -1       246 9.66954E-05-2.89911E-05-2.90161E-05-6.31129E-07 1.24097E-18 2.75657E-18
 -1       247 9.73268E-05-2.91812E-05-2.92055E-05-7.07377E-07-5.10827E-19 2.14275E-18
 -1       248 9.80148E-05-2.93935E-05-2.94097E-05-7.66543E-07-1.85937E-19 2.07094E-18
 -1       249 9.87298E-05-2.96214E-05-2.96189E-05-7.79725E-07-3.02562E-19 2.48333E-18
 -1       250 9.94133E-05-2.98498E-05-2.98145E-05-7.08015E-07 3.00412E-19 2.86353E-18
 -1       251 9.99716E-05-3.00519E-05-2.99674E-05-5.04832E-07 2.65063E-19 2.77801E-18
 -1       252 1.00274E-04-3.01875E-05-3.00387E-05-1.23821E-07-7.93183E-19 2.39734E-18
 -1       253 1.00159E-04-3.02026E-05-2.99826E-05 4.64927E-07 2.31843E-19 2.37712E-18
 -1       254 9.94620E-05-3.00347E-05-2.97550E-05 1.24937E-06 4.71691E-19 2.59573E-18
 -1       255 9.80600E-05-2.96266E-05-2.93279E-05 2.14543E-06-9.43697E-20 2.97148E-18
 -1       256 9.59383E-05-2.89508E-05-2.87076E-05 2.97657E-06-6.91476E-19 2.96685E-18
 -1       257 9.32615E-05-2.80428E-05-2.79499E-05 3.48787E-06 3.20677E-21 3.07215E-18
 -1       258 9.04098E-05-2.70268E-05-2.71645E-05 3.41731E-06 9.30073E-19 3.54403E-18
 -1       259 8.79344E-05-2.61117E-05-2.64974E-05 2.61844E-06-3.85824E-19 3.57439E-18
 -1       260 8.64107E-05-2.55340E-05-2.60922E-05 1.17588E-06 5.71102E-19 2.99977E-18
 -1       261 8.62294E-05-2.54632E-05-2.60432E-05-5.73725E-07-2.41338E-20 2.44816E-18
 -1       262 8.74319E-05-2.59192E-05-2.63601E-05-2.16073E-06 5.23969E-20 1.62978E-18
 -1       263 8.96914E-05-2.67620E-05-2.69647E-05-3.18533E-06 2.17962E-18 1.72888E-18
 -1       264 9.24522E-05-2.77605E-05-2.77194E-05-3.47603E-06 1.66783E-19 5.41118E-19
 -1       265 9.51389E-05-2.86905E-05-2.84738E-05-3.11376E-06 4.75735E-19-1.04599E-19
 -1       266 9.73235E-05-2.94041E-05-2.91070E-05-2.33782E-06-1.86447E-19-7.53239E-20
 -1       267 9.87923E-05-2.98455E-05-2.95500E-05-1.41728E-06-4.64348E-19 4.01609E-20
 -1       268 9.95240E-05-3.00301E-05-2.97863E-05-5.60055E-07-2.10659E-19 6.23683E-19
 -1       269 9.96245E-05-3.00111E-05-2.98380E-05 1.17887E-07-2.50406E-19-7.81088E-19
 -1       270 9.92581E-05-2.98525E-05-2.97486E-05 5.79911E-07 1.80633E-19-4.67944E-19
 -1       271 9.85977E-05-2.96133E-05-2.95672E-05 8.38728E-07 1.61695E-18-1.11862E-18
 -1       272 9.77981E-05-2.93407E-05-2.93403E-05 9.27434E-07 2.80568E-18-3.06335E-18
 -1       273 9.69861E-05-2.90705E-05-2.91075E-05 8.79211E-07 2.64976E-19-4.19848E-18
 -1       274 9.62632E-05-2.88300E-05-2.89009E-05 7.18025E-07-3.76584E-19-3.06967E-18
 -1       275 9.57024E-05-2.86371E-05-2.87432E-05 4.56572E-07-4.21345E-21-2.81552E-18
 -1       276 9.53537E-05-2.85306E-05-2.86358E-05 1.44784E-07-4.51547E-19-1.38471E-18
 -1       277 9.52667E-05-2.83126E-05-2.86925E-05 3.38034E-07-1.70290E-18 1.62124E-18
 -1       278 9.51187E-05-2.78771E-05-2.88167E-05 6.68504E-07-9.88904E-19-7.42625E-19
 -1       279 9.49022E-05-2.72638E-05-2.89866E-05 9.19755E-07-1.13505E-18-2.97290E-19
 -1       280 9.46506E-05-2.65313E-05-2.91935E-05 1.06686E-06-7.51285E-19 1.25372E-18
 -1       281 9.43834E-05-2.57558E-05-2.94125E-05 1.09396E-06-2.18300E-19-2.19145E-18
 -1       282 9.41171E-05-2.49950E-05-2.96257E-05 9.89104E-07 9.66182E-19 1.51208E-18
 -1       283 9.38874E-05-2.43578E-05-2.98014E-05 7.44248E-07 9.40853E-19 1.12250E-18
 -1       284 9.37287E-05-2.39399E-05-2.99133E-05 3.68655E-07 1.17752E-18 3.14055E-18
 -1       285 9.36735E-05-2.38225E-05-2.99402E-05-1.03034E-07 2.61428E-19-3.41681E-19
 -1       286 9.37444E-05-2.40529E-05-2.98714E-05-6.07194E-07 2.81813E-18-1.85410E-18
 -1       287 9.39410E-05-2.46125E-05-2.97147E-05-1.04781E-06 3.40462E-18-7.43737E-19
 -1       288 9.42517E-05-2.54523E-05-2.94867E-05-1.33909E-06 4.16861E-18 1.34615E-18
 -1       289 9.46310E-05-2.64348E-05-2.92269E-05-1.37898E-06 3.05338E-18 3.17998E-18
 -1       290 9.50033E-05-2.73797E-05-2.89809E-05-1.11344E-06 2.00975E-18-6.39928E-19
 -1       291 9.52274E-05-2.80011E-05-2.88112E-05-6.66828E-07 1.49403E-18-2.06939E-18
 -1       292 1.32236E-05-4.86157E-05 1.19953E-05 1.22945E-05 4.14273E-18 8.43433E-19
 -1       293 2.90059E-05-4.29114E-05 3.46829E-06 2.66255E-05 3.32926E-18 2.27217E-18
 -1       294 5.48704E-05-3.41664E-05-1.04449E-05 3.79052E-05 4.23178E-18 2.17687E-19
 -1       295 9.23913E-05-2.82461E-05-2.76608E-05 4.82143E-05 3.21534E-18-1.12867E-19
 -1       296 1.36930E-04-2.73556E-05-4.55982E-05 5.14487E-05 1.02396E-18-1.63583E-18
 -1       297 1.80554E-04-3.15233E-05-6.11836E-05 4.23842E-05 1.37860E-18-6.75488E-18
 -1       298 2.06821E-04-3.45496E-05-7.05870E-05 1.88196E-05 4.21526E-18-9.39434E-18
 -1       299 2.15661E-04-3.68398E-05-7.30372E-05-6.70742E-06 3.78666E-18-1.20008E-17
 -1       300 1.86375E-04-2.97629E-05-6.51591E-05-2.11696E-05 2.15273E-18-1.04882E-17
 -1       301 1.59042E-04-3.10493E-05-5.32232E-05-4.24096E-05 2.35160E-18-1.24033E-17
 -1       302 1.14703E-04-2.71599E-05-3.69296E-05-5.10677E-05 4.91681E-18-7.12609E-18
 -1       303 7.29354E-05-3.04517E-05-1.90995E-05-4.40140E-05 3.42286E-18-5.99752E-18
 -1       304 3.99378E-05-3.85131E-05-2.78313E-06-3.15111E-05 2.21309E-18-3.59385E-18
 -1       305 1.88887E-05-4.58314E-05 8.58351E-06-1.93162E-05-5.77253E-19-2.89601E-18
 -1       306 1.12978E-05-5.26387E-05 1.40696E-05-4.99657E-06-2.57080E-18-4.13373E-18
 -1       307 1.81324E-05-4.35129E-05 8.59716E-06 1.50434E-05-1.95580E-18-6.18546E-19
 -1       308 4.64240E-05-4.47038E-05-3.03703E-06 2.87467E-05-3.10861E-18-1.85924E-18
 -1       309 8.35723E-05-3.96712E-05-2.02373E-05 3.81807E-05-3.53340E-18-3.63758E-18
 -1       310 1.31566E-04-3.85285E-05-3.95308E-05 4.37554E-05-3.08892E-18-4.24787E-19
 -1       311 1.82368E-04-4.17418E-05-5.79203E-05 3.36176E-05-3.26759E-18 7.95999E-19
 -1       312 2.19698E-04-4.25551E-05-7.16724E-05 2.15556E-05-3.68025E-18 4.31966E-18
 -1       313 2.29468E-04-4.01101E-05-7.64572E-05 6.31892E-07-3.84151E-18 5.63200E-18
 -1       314 2.22361E-04-4.23275E-05-7.28498E-05-1.84474E-05-2.51368E-18 8.21707E-18
 -1       315 1.87693E-04-4.22396E-05-6.00382E-05-2.77795E-05-4.12553E-18 6.18228E-18
 -1       316 1.42512E-04-3.91534E-05-4.34972E-05-4.33228E-05-3.60116E-18 7.06193E-18
 -1       317 9.20640E-05-3.84690E-05-2.40754E-05-4.02023E-05-3.40783E-18 6.77393E-18
 -1       318 4.97892E-05-4.22847E-05-5.79319E-06-2.83882E-05-1.39400E-18 7.08204E-18
 -1       319 2.39184E-05-4.78477E-05 7.11597E-06-1.59577E-05 1.09161E-18 4.60950E-18
 -1       320 1.22178E-05-5.26639E-05 1.36730E-05-1.01883E-06 2.65158E-18 2.17179E-18
 -1       321 9.16449E-05-1.43961E-05-3.31696E-05-1.30705E-05-5.15994E-19-1.41403E-18
 -1       322 9.56846E-05-1.90963E-05-3.28867E-05-1.46379E-05-8.18985E-19-1.04264E-18
 -1       323 8.80087E-05-1.03740E-05-3.33272E-05-8.16749E-06 1.19725E-19-1.69221E-18
 -1       324 8.72068E-05-9.45940E-06-3.33688E-05-5.72270E-06 3.74385E-19-1.52610E-18
 -1       325 8.67503E-05-8.92901E-06-3.33970E-05-3.36882E-06 6.40155E-19-1.27223E-18
 -1       326 8.65468E-05-8.68895E-06-3.34111E-05-1.07285E-06 8.76834E-19-1.08816E-18
 -1       327 8.65551E-05-8.69828E-06-3.34108E-05 1.20441E-06 1.07697E-18-8.67851E-19
 -1       328 8.67770E-05-8.95893E-06-3.33957E-05 3.50220E-06 1.19366E-18-6.58495E-19
 -1       329 8.72453E-05-9.50267E-06-3.33670E-05 5.81848E-06 1.39840E-18-3.31064E-19
 -1       330 8.80788E-05-1.04540E-05-3.33233E-05 8.26045E-06 1.49962E-18 3.02450E-19
 -1       331 8.94823E-05-1.20331E-05-3.32599E-05 1.07757E-05 1.58798E-18 8.15177E-19
 -1       332 9.18838E-05-1.47346E-05-3.31463E-05 1.31545E-05 1.43169E-18 1.64434E-18
 -1       333 9.58711E-05-1.95804E-05-3.28003E-05 1.42891E-05 1.21763E-18 2.93460E-18
 -1       334 9.87594E-05-2.44426E-05-3.19354E-05 1.18585E-05 9.13604E-19 3.98931E-18
 -1       335 9.63149E-05-2.67695E-05-2.97776E-05 5.73447E-06 5.02390E-19 3.51349E-18
 -1       336 9.64191E-05-2.60236E-05-3.01251E-05-6.35757E-06-7.26212E-19-7.59975E-19
 -1       337 9.48987E-05-2.70213E-05-2.90649E-05-2.84197E-06-5.80712E-19-7.74343E-19
 -1       338 9.39233E-05-2.74186E-05-2.84872E-05-9.26396E-07-3.54059E-19-8.13310E-19
 -1       339 9.34060E-05-2.76310E-05-2.81825E-05 1.36540E-07-2.75890E-19-9.83492E-19
 -1       340 9.32176E-05-2.77833E-05-2.80405E-05 7.07145E-07-1.51686E-19-8.09607E-19
 -1       341 9.32419E-05-2.79121E-05-2.79975E-05 9.84995E-07-2.30645E-19-7.58263E-19
 -1       342 9.33937E-05-2.80265E-05-2.80144E-05 1.08891E-06-1.15774E-21-3.19072E-19
 -1       343 9.36162E-05-2.81279E-05-2.80666E-05 1.09409E-06-4.21644E-19-1.09634E-19
 -1       344 9.38737E-05-2.82167E-05-2.81391E-05 1.05066E-06-5.21079E-19-6.00288E-19
 -1       345 9.41467E-05-2.82934E-05-2.82232E-05 9.93660E-07-3.38152E-19-6.19727E-19
 -1       346 9.44272E-05-2.83596E-05-2.83149E-05 9.48930E-07-2.09435E-19-4.91726E-19
 -1       347 9.47163E-05-2.84175E-05-2.84137E-05 9.37018E-07 2.70921E-19-1.99309E-19
 -1       348 9.50219E-05-2.84696E-05-2.85220E-05 9.76150E-07 2.87453E-19-4.25765E-19
 -1       349 9.53580E-05-2.85190E-05-2.86443E-05 1.08473E-06-1.32444E-19-6.97360E-19
 -1       350 9.57439E-05-2.85686E-05-2.87877E-05 1.28308E-06-2.93108E-19-7.97409E-19
 -1       351 9.62283E-05-2.86233E-05-2.89710E-05 1.61723E-06-4.80396E-19-5.50147E-19
 -1       352 9.67962E-05-2.86801E-05-2.91889E-05 2.09041E-06-6.50152E-19-8.81443E-20
 -1       353 9.75026E-05-2.87438E-05-2.94628E-05 2.75678E-06-7.76929E-20 3.07394E-19
 -1       354 9.83864E-05-2.88164E-05-2.98085E-05 3.67063E-06-2.23344E-19 4.54973E-20
 -1       355 9.94906E-05-2.89041E-05-3.02419E-05 4.89430E-06 1.49492E-20-9.82268E-19
 -1       356 1.00864E-04-2.90257E-05-3.07762E-05 6.48909E-06 8.59484E-19-1.60815E-18
 -1       357 1.02566E-04-2.92346E-05-3.14150E-05 8.48908E-06-2.83533E-19-1.88437E-18
 -1       358 1.04691E-04-2.96660E-05-3.21420E-05 1.08426E-05-2.65014E-19-2.29754E-18
 -1       359 1.07420E-04-3.06246E-05-3.29071E-05 1.32975E-05-8.98425E-19-4.58523E-19
 -1       360 1.11137E-04-3.27069E-05-3.36222E-05 1.52075E-05-1.37471E-19 1.22454E-18
 -1       361 1.16571E-04-3.68450E-05-3.41907E-05 1.52742E-05 9.44979E-19-2.02032E-19
 -1       362 1.24705E-04-4.38442E-05-3.46835E-05 1.13048E-05 6.00543E-19-4.09245E-19
 -1       363 1.35527E-04-5.22477E-05-3.57482E-05 9.82320E-07-4.47319E-19-1.10888E-18
 -1       364 1.45055E-04-5.54786E-05-3.85884E-05-1.41141E-05-1.02195E-18 1.23671E-18
 -1       365 1.47152E-04-4.39366E-05-4.46826E-05-2.54425E-05-1.96152E-18 1.13844E-18
 -1       366 1.40544E-04-2.30589E-05-5.12796E-05-1.61082E-05-3.40571E-18 2.25549E-19
 -1       367 1.41314E-04-2.21258E-05-5.18477E-05 1.15791E-05-7.04414E-19-1.35896E-18
 -1       368 1.46933E-04-4.13009E-05-4.57965E-05 2.53256E-05-5.40778E-19-2.26939E-18
 -1       369 1.45925E-04-5.45644E-05-3.93477E-05 1.63211E-05 1.39404E-18-1.10829E-18
 -1       370 1.36365E-04-5.28799E-05-3.58388E-05 8.69214E-08 1.96353E-18-2.16930E-18
 -1       371 1.25325E-04-4.44906E-05-3.46747E-05-1.08738E-05 8.56165E-19-2.45193E-18
 -1       372 1.16903E-04-3.72797E-05-3.41477E-05-1.53143E-05 4.03393E-19-2.93200E-18
 -1       373 1.11211E-04-3.29028E-05-3.35702E-05-1.55426E-05 1.35160E-19-1.60779E-18
 -1       374 1.07307E-04-3.06670E-05-3.28421E-05-1.37749E-05-4.88351E-19-4.14044E-19
 -1       375 1.04427E-04-2.96132E-05-3.20525E-05-1.13822E-05-1.21603E-18 4.39284E-19
 -1       376 1.02166E-04-2.91134E-05-3.12956E-05-9.04358E-06-1.96982E-19 1.29034E-18
 -1       377 1.00334E-04-2.88414E-05-3.06279E-05-7.02176E-06 1.72992E-19-1.06715E-18
 -1       378 9.88395E-05-2.86467E-05-3.00724E-05-5.36015E-06 9.58239E-19-2.26771E-18
 -1       379 9.76265E-05-2.84647E-05-2.96320E-05-4.00245E-06-1.16198E-18-9.97564E-19
 -1       380 9.66515E-05-2.82680E-05-2.92992E-05-2.85914E-06-2.48823E-19-6.56394E-19
 -1       381 9.58605E-05-2.80546E-05-2.90528E-05-1.83582E-06-1.04811E-18-2.73456E-18
 -1       382 9.41257E-05-2.72739E-05-2.86265E-05 1.71085E-06 4.87362E-19 2.43968E-18
 -1       383 9.33672E-05-2.75266E-05-2.82057E-05 3.00026E-07 5.02031E-19 2.32008E-18
 -1       384 9.30232E-05-2.76675E-05-2.80043E-05-4.59908E-07 4.39769E-19 2.02710E-18
 -1       385 9.29693E-05-2.77916E-05-2.79311E-05-8.49632E-07 1.09664E-19 1.54102E-18
 -1       386 9.30915E-05-2.79090E-05-2.79347E-05-1.02053E-06 3.56705E-19 1.63332E-18
 -1       387 9.33131E-05-2.80193E-05-2.79831E-05-1.06388E-06 4.22031E-19 1.52939E-18
 -1       388 9.35849E-05-2.81206E-05-2.80565E-05-1.03810E-06 6.87025E-19 1.37833E-18
 -1       389 9.38776E-05-2.82119E-05-2.81429E-05-9.82209E-07 2.81552E-19 7.96471E-19
 -1       390 9.41762E-05-2.82937E-05-2.82358E-05-9.22948E-07 3.70998E-19 1.26169E-18
 -1       391 9.44757E-05-2.83680E-05-2.83322E-05-8.78838E-07 8.24757E-20 8.12185E-19
 -1       392 9.47786E-05-2.84381E-05-2.84317E-05-8.62534E-07-2.80888E-19 9.19766E-19
 -1       393 9.50921E-05-2.85084E-05-2.85357E-05-8.82031E-07-1.80852E-19 1.35009E-18
 -1       394 9.54267E-05-2.85845E-05-2.86462E-05-9.40952E-07 3.64316E-20 1.02538E-18
 -1       395 9.57944E-05-2.86731E-05-2.87656E-05-1.03797E-06-1.04782E-19 4.20556E-19
 -1       396 9.62067E-05-2.87819E-05-2.88956E-05-1.16533E-06 9.95382E-19 4.66035E-19
 -1       397 9.66728E-05-2.89197E-05-2.90364E-05-1.30657E-06 4.90900E-19 1.18908E-18
 -1       398 9.71967E-05-2.90956E-05-2.91860E-05-1.43357E-06-7.76019E-19 1.15025E-18
 -1       399 9.77735E-05-2.93180E-05-2.93386E-05-1.50348E-06-2.74148E-19 1.89242E-18
 -1       400 9.83847E-05-2.95920E-05-2.94843E-05-1.45686E-06 1.80316E-19 2.07228E-18
 -1       401 9.89930E-05-2.99142E-05-2.96085E-05-1.21914E-06 3.48424E-19 2.20120E-18
 -1       402 9.95361E-05-3.02659E-05-2.96925E-05-7.09028E-07 3.63964E-20 2.07496E-18
 -1       403 9.99218E-05-3.06023E-05-2.97155E-05 1.41792E-07-1.39947E-19 1.50694E-18
 -1       404 1.00028E-04-3.08430E-05-2.96594E-05 1.35371E-06 1.71430E-19 1.54474E-18
 -1       405 9.97169E-05-3.08700E-05-2.95143E-05 2.85071E-06 2.47340E-19 1.33349E-18
 -1       406 9.88645E-05-3.05475E-05-2.92851E-05 4.41219E-06-2.55642E-19 2.31983E-18
 -1       407 9.74283E-05-2.97759E-05-2.89960E-05 5.65707E-06-3.31837E-19 1.53565E-18
 -1       408 9.55282E-05-2.85799E-05-2.86884E-05 6.10778E-06 1.82606E-19 2.71622E-18
 -1       409 9.35047E-05-2.71858E-05-2.84128E-05 5.36535E-06 2.19523E-19 2.80614E-18
 -1       410 9.18734E-05-2.60028E-05-2.82163E-05 3.34832E-06 5.69075E-20 2.63584E-18
 -1       411 9.11400E-05-2.54624E-05-2.81318E-05 4.46583E-07 3.34270E-19 4.26479E-18
 -1       412 9.15522E-05-2.57827E-05-2.81725E-05-2.56525E-06 8.11696E-19 3.80280E-18
 -1       413 9.29591E-05-2.68313E-05-2.83301E-05-4.85989E-06 9.86755E-19 3.37169E-18
 -1       414 9.48963E-05-2.82087E-05-2.85759E-05-5.92676E-06 1.55652E-18 4.03364E-18
 -1       415 9.68256E-05-2.94778E-05-2.88649E-05-5.73232E-06 7.01671E-19 2.26255E-18
 -1       416 9.83491E-05-3.03569E-05-2.91458E-05-4.61606E-06 8.66666E-19 1.84930E-18
 -1       417 9.92902E-05-3.07728E-05-2.93735E-05-3.05766E-06-4.88841E-19 4.76139E-19
 -1       418 9.96569E-05-3.08008E-05-2.95190E-05-1.47701E-06 2.76820E-19-9.23313E-19
 -1       419 9.95595E-05-3.05739E-05-2.95732E-05-1.42051E-07 1.12925E-19-1.37106E-18
 -1       420 9.91395E-05-3.02172E-05-2.95440E-05 8.31212E-07-4.13717E-19-1.55808E-18
 -1       421 9.85293E-05-2.98201E-05-2.94504E-05 1.43363E-06 1.67758E-18-2.05958E-18
 -1       422 9.78355E-05-2.94346E-05-2.93162E-05 1.71134E-06 2.49335E-18-1.26473E-18
 -1       423 9.71366E-05-2.90835E-05-2.91653E-05 1.72637E-06 1.80769E-18 3.31706E-20
 -1       424 9.64868E-05-2.87733E-05-2.90183E-05 1.53425E-06-7.10128E-19 8.56196E-19
 -1       425 9.59242E-05-2.85115E-05-2.88880E-05 1.18377E-06-4.42723E-19-3.49169E-19
 -1       426 9.55393E-05-2.83620E-05-2.87877E-05 7.70563E-07-1.55344E-18 6.79256E-19
 -1       427 9.49601E-05-2.71191E-05-2.90734E-05 1.74756E-06-7.10854E-19 9.23559E-19
 -1       428 9.52468E-05-2.77054E-05-2.89439E-05 1.45141E-06-7.25554E-19-2.33308E-19
 -1       429 9.46435E-05-2.64869E-05-2.92099E-05 1.88876E-06-1.60208E-19-5.33469E-19
 -1       430 9.42982E-05-2.58205E-05-2.93487E-05 1.82844E-06 1.29748E-18 1.89916E-18
 -1       431 9.39550E-05-2.51926E-05-2.94719E-05 1.53918E-06 1.30482E-18-9.19804E-20
 -1       432 9.36556E-05-2.46809E-05-2.95639E-05 1.01642E-06-9.08720E-19 1.11979E-18
 -1       433 9.34530E-05-2.43684E-05-2.96118E-05 2.93336E-07-1.13037E-18 1.90193E-18
 -1       434 9.34018E-05-2.43265E-05-2.96078E-05-5.49608E-07 9.06525E-22 1.73339E-19
 -1       435 9.35378E-05-2.45882E-05-2.95533E-05-1.37088E-06 1.02530E-18-7.02436E-19
 -1       436 9.38777E-05-2.51565E-05-2.94542E-05-2.04119E-06 2.01486E-18 2.77373E-18
 -1       437 9.43954E-05-2.59685E-05-2.93264E-05-2.38740E-06 2.36418E-18 3.10951E-19
 -1       438 9.50133E-05-2.69122E-05-2.91845E-05-2.29352E-06 5.53273E-19 1.96285E-18
 -1       439 9.49193E-05-2.70700E-05-2.90411E-05 3.33166E-06 4.75291E-19 3.16685E-18
 -1       440 6.18394E-05-4.24299E-05-8.43308E-06 4.69107E-05 5.14573E-20-1.56550E-18
 -1       441 1.33469E-04-5.08381E-05-3.53768E-05 3.08332E-05 1.76315E-18-4.06989E-18
 -1       442 1.06529E-05-2.41918E-05 5.47451E-06 6.10832E-06-1.87975E-19 2.73136E-18
 -1       443 1.01787E-04-5.25724E-05-2.11198E-05 4.41047E-05 2.86085E-19-1.78655E-18
 -1       444 8.94268E-05-1.19271E-05-3.32767E-05-1.07660E-05-2.05098E-19-1.63681E-18
 -1       445 1.53350E-04-3.96368E-05-4.86459E-05 1.18968E-05 1.76268E-18-5.83775E-18
 -1       446 1.63883E-04-2.37122E-05-5.97668E-05 4.25001E-06 3.36643E-18-7.22413E-18
 -1       447 1.59492E-04-1.11936E-05-6.34623E-05-6.38116E-07 3.29655E-18-4.95606E-18
 -1       448 1.56257E-04-1.28282E-05-6.15847E-05 1.15266E-06 2.05109E-18-3.85760E-18
 -1       449 1.56413E-04-3.21401E-05-5.33022E-05-4.64871E-06-4.86673E-19-4.46376E-18
 -1       450 1.44360E-04-4.72708E-05-4.15642E-05-2.21689E-05 5.55177E-19-6.63777E-18
 -1       451 1.19938E-04-5.40932E-05-2.82096E-05-3.73400E-05 1.09786E-18-4.69648E-18
 -1       452 8.43275E-05-4.89954E-05-1.50912E-05-4.80211E-05 3.22402E-19-4.10833E-18
 -1       453 4.84029E-05-3.64501E-05-5.04271E-06-4.48974E-05 2.47122E-19-4.78097E-18
 -1       454 1.47474E-05-2.49015E-05 4.04340E-06-1.98128E-05-3.40031E-19-3.66183E-18
 -1       455 1.35474E-05-2.30106E-05 3.94532E-06 7.54862E-06 8.37001E-19-2.13463E-18
 -1       456 4.87497E-05-3.73821E-05-4.79669E-06 3.70513E-05 7.53542E-19 2.68827E-19
 -1       457 9.78606E-05-5.74834E-05-1.73038E-05 3.92132E-05 6.63862E-19-5.61212E-19
 -1       458 1.32740E-04-6.19366E-05-3.05957E-05 2.80079E-05-1.38670E-18 3.63938E-18
 -1       459 1.63865E-04-5.73325E-05-4.54788E-05 9.37052E-06-1.27478E-18 2.54893E-18
 -1       460 1.74982E-04-3.84388E-05-5.81172E-05-8.48533E-06-3.24011E-18 2.88934E-18
 -1       461 1.79798E-04-2.46954E-05-6.56914E-05-4.96854E-06-4.39801E-18 2.02473E-18
 -1       462 1.69522E-04-1.98967E-05-6.38335E-05 6.29282E-06-1.91557E-18-1.29734E-18
 -1       463 1.72758E-04-3.36784E-05-5.93180E-05 1.13946E-05-1.59856E-18-4.72856E-19
 -1       464 1.65561E-04-5.52033E-05-4.72738E-05-4.40337E-06-2.51747E-19-3.87729E-19
 -1       465 1.39859E-04-6.17903E-05-3.35958E-05-2.47076E-05 2.12499E-19 3.18696E-18
 -1       466 9.98157E-05-5.74850E-05-1.84153E-05-3.88267E-05-4.13458E-19 3.86250E-18
 -1       467 5.41434E-05-4.30092E-05-5.16749E-06-3.79475E-05 4.97102E-19 7.13488E-18
 -1       468 2.23751E-05-2.56423E-05 1.45419E-06-2.08641E-05-1.67167E-18 3.87115E-18
 -1       469 2.89607E-05-2.67361E-05-7.40361E-07 3.45558E-05-9.85258E-19 3.39872E-19
 -1       470 3.63202E-05-2.24147E-05-5.38524E-06 2.67480E-05 1.86585E-18 6.56133E-19
 -1       471 1.42308E-04-1.87150E-05-5.34596E-05 8.47437E-06-2.90268E-19-2.42813E-18
 -1       472 8.95588E-05-1.34043E-05-3.26566E-05-3.92522E-06 4.82956E-19-1.19394E-18
 -1       473 9.02632E-05-1.43687E-05-3.25465E-05-5.88190E-06 2.46839E-19-1.35852E-18
 -1       474 8.90638E-05-1.27236E-05-3.27350E-05 5.50879E-08 8.56223E-19-8.23754E-19
 -1       475 8.91980E-05-1.29068E-05-3.27143E-05 2.04683E-06 1.03335E-18-6.15999E-19
 -1       476 8.95900E-05-1.34439E-05-3.26532E-05 4.00019E-06 1.23576E-18-4.10066E-19
 -1       477 9.03094E-05-1.44299E-05-3.25408E-05 5.95423E-06 1.47901E-18 6.33306E-20
 -1       478 9.14556E-05-1.60133E-05-3.23556E-05 7.78136E-06 1.41796E-18 4.67872E-19
 -1       479 9.31698E-05-1.84332E-05-3.20505E-05 9.23010E-06 1.25616E-18 1.01090E-18
 -1       480 9.52993E-05-2.18844E-05-3.14750E-05 9.55512E-06 9.73143E-19 1.92686E-18
 -1       481 9.63404E-05-2.46154E-05-3.07280E-05 8.04168E-06 7.78255E-19 2.70908E-18
 -1       482 9.54723E-05-2.44305E-05-3.04367E-05-5.82624E-06-5.61020E-19-1.03546E-18
 -1       483 9.25476E-05-5.03333E-05-1.78349E-05 4.50473E-05-8.06269E-19-2.37619E-18
 -1       484 1.27295E-04-5.96777E-05-2.89340E-05 2.90062E-05 2.43204E-19-3.46429E-18
 -1       485 9.52648E-05-2.62183E-05-2.95831E-05-2.90077E-06-5.16044E-19-9.70248E-19
 -1       486 9.49110E-05-2.71550E-05-2.90343E-05-1.03163E-06-3.16839E-19-7.95084E-19
 -1       487 9.46382E-05-2.76838E-05-2.86931E-05 9.92752E-08-1.41551E-19-6.92943E-19
 -1       488 9.44869E-05-2.80061E-05-2.84912E-05 7.46827E-07-3.86284E-20-6.99242E-19
 -1       489 9.44401E-05-2.82121E-05-2.83833E-05 1.08420E-06-1.65580E-19-7.67318E-19
 -1       490 9.44685E-05-2.83456E-05-2.83385E-05 1.22914E-06-2.28843E-19-9.64109E-19
 -1       491 9.45466E-05-2.84300E-05-2.83359E-05 1.26299E-06-4.79154E-19-5.49763E-19
 -1       492 9.46559E-05-2.84786E-05-2.83619E-05 1.24324E-06-3.59113E-19-3.69306E-19
 -1       493 9.47849E-05-2.84997E-05-2.84081E-05 1.21174E-06 4.02775E-20 1.67513E-19
 -1       494 9.49278E-05-2.84984E-05-2.84698E-05 1.20036E-06 2.63602E-19 5.23212E-19
 -1       495 9.50829E-05-2.84772E-05-2.85452E-05 1.23518E-06-7.61263E-20 2.41419E-19
 -1       496 9.52517E-05-2.84362E-05-2.86349E-05 1.33974E-06-2.65580E-19-1.98236E-20
 -1       497 9.54377E-05-2.83734E-05-2.87413E-05 1.53734E-06-7.34328E-19-3.07403E-19
 -1       498 9.56544E-05-2.82773E-05-2.88750E-05 1.87468E-06-1.68804E-19-2.94748E-19
 -1       499 9.58830E-05-2.81471E-05-2.90283E-05 2.35277E-06-1.28566E-19 1.98399E-19
 -1       500 9.61317E-05-2.79665E-05-2.92117E-05 3.02164E-06-1.09692E-19 7.93484E-20
 -1       501 9.63913E-05-2.77172E-05-2.94291E-05 3.92825E-06-4.57363E-19-5.82326E-19
 -1       502 9.66443E-05-2.73805E-05-2.96808E-05 5.12646E-06-6.54095E-19-5.22650E-19
 -1       503 9.68640E-05-2.69461E-05-2.99601E-05 6.67359E-06 2.43195E-19-1.28600E-19
 -1       504 9.70246E-05-2.64353E-05-3.02468E-05 8.62042E-06-1.45681E-19-8.53208E-19
 -1       505 9.71322E-05-2.59540E-05-3.04987E-05 1.09918E-05-3.55150E-19-4.86102E-19
 -1       506 9.73076E-05-2.57953E-05-3.06420E-05 1.37535E-05 8.19759E-19-2.40259E-19
 -1       507 9.79659E-05-2.66164E-05-3.05715E-05 1.67525E-05 2.10346E-19-2.59247E-19
 -1       508 1.00106E-04-2.96372E-05-3.01953E-05 1.95786E-05 3.54442E-21 4.98926E-19
 -1       509 1.05714E-04-3.67348E-05-2.95283E-05 2.14535E-05 7.03913E-19 5.27563E-19
 -1       510 1.17661E-04-4.92488E-05-2.91996E-05 1.99126E-05 2.75272E-19 1.58483E-18
 -1       511 1.35916E-04-6.25894E-05-3.13657E-05 1.16378E-05 7.76504E-19 2.43765E-18
 -1       512 1.56698E-04-6.16347E-05-4.11356E-05-9.34778E-06-1.56928E-18 1.36150E-18
 -1       513 1.38801E-04-6.38408E-05-3.21205E-05-1.00156E-05 1.42757E-18-1.08651E-18
 -1       514 1.19198E-04-5.04554E-05-2.93284E-05-1.95777E-05 6.85739E-19-2.68423E-18
 -1       515 1.06652E-04-3.76799E-05-2.95148E-05-2.15402E-05 4.16208E-19-2.85039E-18
 -1       516 1.00525E-04-3.01640E-05-3.01440E-05-2.00280E-05 1.79905E-18-3.01218E-18
 -1       517 9.81057E-05-2.68711E-05-3.05236E-05-1.73045E-05 8.42349E-19-2.45036E-18
 -1       518 9.72834E-05-2.58946E-05-3.05896E-05-1.43690E-05 1.87530E-19-8.84077E-19
 -1       519 9.69997E-05-2.59581E-05-3.04402E-05-1.16283E-05-9.48807E-19 8.13104E-20
 -1       520 9.68089E-05-2.63655E-05-3.01841E-05-9.24574E-06-1.22338E-18-8.70196E-19
 -1       521 9.65710E-05-2.67924E-05-2.99001E-05-7.24925E-06 1.93021E-19-1.37335E-18
 -1       522 9.62682E-05-2.71088E-05-2.96356E-05-5.59629E-06-3.45252E-19-2.68711E-18
 -1       523 9.59121E-05-2.72680E-05-2.94147E-05-4.21451E-06-2.83481E-19-1.60338E-18
 -1       524 9.54051E-05-2.71029E-05-2.92690E-05-3.23058E-06-5.63157E-19-7.53026E-19
 -1       525 9.43779E-05-2.78391E-05-2.85152E-05-4.63444E-07 6.00741E-19 1.32948E-18
 -1       526 9.46105E-05-2.74609E-05-2.87749E-05 4.03192E-07 6.56488E-19 1.50211E-18
 -1       527 9.49908E-05-2.68173E-05-2.92132E-05 1.89247E-06 5.36600E-19 1.51477E-18
 -1       528 9.42812E-05-2.80786E-05-2.83720E-05-9.38127E-07 2.54340E-19 1.06772E-18
 -1       529 9.42856E-05-2.82377E-05-2.83061E-05-1.16611E-06 5.82740E-19 9.05185E-19
 -1       530 9.43574E-05-2.83449E-05-2.82912E-05-1.24513E-06 6.74893E-19 6.95120E-19
 -1       531 9.44709E-05-2.84158E-05-2.83096E-05-1.24235E-06 4.71483E-19 1.08615E-18
 -1       532 9.46093E-05-2.84606E-05-2.83497E-05-1.20454E-06 2.31841E-19 9.05201E-19
 -1       533 9.47631E-05-2.84866E-05-2.84044E-05-1.16462E-06 2.28329E-19 7.18720E-19
 -1       534 9.49288E-05-2.85001E-05-2.84695E-05-1.14561E-06 1.88714E-19 1.18641E-18
 -1       535 9.51075E-05-2.85073E-05-2.85429E-05-1.16318E-06-2.02140E-20 1.87808E-19
 -1       536 9.53041E-05-2.85150E-05-2.86237E-05-1.22676E-06 1.08437E-20 2.98563E-20
 -1       537 9.55266E-05-2.85318E-05-2.87118E-05-1.33964E-06 1.22328E-20-4.19308E-20
 -1       538 9.57854E-05-2.85689E-05-2.88067E-05-1.49801E-06 7.19015E-19-3.56879E-19
 -1       539 9.60931E-05-2.86410E-05-2.89077E-05-1.68887E-06 2.56702E-19 2.76218E-19
 -1       540 9.64642E-05-2.87674E-05-2.90127E-05-1.88700E-06-5.51667E-19 1.11512E-18
 -1       541 9.69138E-05-2.89716E-05-2.91181E-05-2.05130E-06-7.56420E-19 8.82400E-19
 -1       542 9.74560E-05-2.92796E-05-2.92189E-05-2.12125E-06-3.08972E-19 9.70230E-19
 -1       543 9.80993E-05-2.97147E-05-2.93088E-05-2.01527E-06-1.47755E-19 1.80987E-18
 -1       544 9.88392E-05-3.02865E-05-2.93817E-05-1.63379E-06 2.80959E-19 3.05292E-18
 -1       545 9.96445E-05-3.09723E-05-2.94339E-05-8.71732E-07 2.14947E-19 2.29733E-18
 -1       546 1.00439E-04-3.16911E-05-2.94673E-05 3.53020E-07 3.18899E-20 1.94344E-18
 -1       547 1.01082E-04-3.22781E-05-2.94918E-05 2.04916E-06 1.92725E-19 1.45707E-18
 -1       548 1.01366E-04-3.24801E-05-2.95263E-05 4.08067E-06 2.38386E-19 1.03281E-18
 -1       549 1.01054E-04-3.20058E-05-2.95937E-05 6.09644E-06-3.29754E-19 8.44327E-19
 -1       550 9.99892E-05-3.06607E-05-2.97110E-05 7.51137E-06-1.46283E-18 2.38906E-18
 -1       551 9.82701E-05-2.85587E-05-2.98721E-05 7.62931E-06 1.06225E-19 3.53210E-18
 -1       552 9.63677E-05-2.62621E-05-3.00389E-05 5.96698E-06-6.87023E-20 3.20801E-18
 -1       553 9.50165E-05-2.46446E-05-3.01523E-05 2.64171E-06-8.08268E-19 2.51765E-18
 -1       554 9.48337E-05-2.44376E-05-3.01628E-05-1.47862E-06 6.44616E-19 3.15006E-18
 -1       555 9.59042E-05-2.57425E-05-3.00632E-05-5.11452E-06 3.99535E-19 4.23398E-18
 -1       556 9.77170E-05-2.79543E-05-2.98939E-05-7.23576E-06 1.31279E-18 4.60737E-18
 -1       557 9.95212E-05-3.01812E-05-2.97155E-05-7.52700E-06 2.15388E-18 3.66784E-18
 -1       558 1.00753E-04-3.17525E-05-2.95732E-05-6.34950E-06 1.60767E-18 2.47170E-18
 -1       559 1.01221E-04-3.24413E-05-2.94807E-05-4.38271E-06 7.04016E-19 1.92453E-18
 -1       560 1.01031E-04-3.23792E-05-2.94266E-05-2.26406E-06-1.19217E-19 2.22991E-18
 -1       561 1.00412E-04-3.18481E-05-2.93889E-05-4.14073E-07 5.81877E-19 2.00121E-18
 -1       562 9.95884E-05-3.11175E-05-2.93480E-05 9.74889E-07-1.84666E-19-9.32341E-20
 -1       563 9.87181E-05-3.03721E-05-2.92934E-05 1.87243E-06 1.67387E-19-5.75862E-19
 -1       564 9.78934E-05-2.97075E-05-2.92237E-05 2.33387E-06 1.12828E-18 5.17611E-19
 -1       565 9.71559E-05-2.91530E-05-2.91442E-05 2.44517E-06 1.39410E-18 1.09097E-18
 -1       566 9.65133E-05-2.86976E-05-2.90632E-05 2.28874E-06 3.37700E-19 2.75264E-18
 -1       567 9.59535E-05-2.83188E-05-2.89851E-05 1.93120E-06-1.75059E-19 1.27939E-18
 -1       568 9.45489E-05-2.65245E-05-2.91534E-05 2.55109E-06 1.77567E-18 5.07423E-19
 -1       569 9.50107E-05-2.71447E-05-2.90842E-05 2.47809E-06 1.00617E-19 1.93377E-18
 -1       570 9.54086E-05-2.77043E-05-2.90160E-05 2.18272E-06 6.63192E-21 8.02611E-20
 -1       571 2.62603E-05-1.33138E-05-4.88644E-06 1.69489E-05-2.85015E-18 1.23519E-18
 -1       572 9.40349E-05-2.58614E-05-2.92179E-05 2.35644E-06 1.06701E-18-1.08776E-19
 -1       573 9.35181E-05-2.52212E-05-2.92714E-05 1.84996E-06 3.49078E-19-1.12793E-18
 -1       574 9.30781E-05-2.46938E-05-2.93092E-05 1.03563E-06 1.96593E-19 1.89506E-18
 -1       575 9.28116E-05-2.43796E-05-2.93299E-05-2.30338E-08 9.08420E-19 2.57468E-18
 -1       576 9.28100E-05-2.43662E-05-2.93349E-05-1.17246E-06 8.03577E-19-9.35719E-20
 -1       577 9.31360E-05-2.47072E-05-2.93280E-05-2.26081E-06 8.25053E-19-3.66632E-19
 -1       578 9.38007E-05-2.54031E-05-2.93145E-05-3.05133E-06-1.59692E-18 1.97287E-18
 -1       579 9.45622E-05-2.61997E-05-2.92981E-05-3.34889E-06-1.07727E-19 2.08492E-19
 -1       580 9.46218E-05-2.07675E-05-3.16729E-05-9.52219E-06-5.51251E-19-1.20582E-18
 -1       581 1.42413E-04-5.28344E-05-3.86727E-05 7.97529E-06 1.54783E-18-5.12074E-18
 -1       582 2.69377E-05-1.20263E-05-5.63757E-06-7.13407E-06-2.93607E-18 4.19885E-18
 -1       583 5.07611E-05-3.00325E-05-8.40390E-06-3.47746E-05-1.46383E-18 4.88346E-18
 -1       584 1.14858E-04-5.78462E-05-2.42607E-05-3.55500E-05-1.40835E-18-2.27930E-18
 -1       585 1.45274E-04-3.03024E-05-4.96589E-05-6.54402E-06 2.71913E-18-4.87457E-18
 -1       586 8.91786E-05-1.28823E-05-3.27165E-05-1.93718E-06 7.35976E-19-1.00896E-18
 -1       587 1.38614E-04-1.19790E-05-5.48473E-05-7.42486E-06 3.89815E-18-3.15869E-18
 -1       588 1.43822E-04-4.46103E-05-4.28544E-05 6.69686E-07-1.64727E-18-2.86800E-18
 -1       589 1.28183E-04-5.42797E-06-5.33724E-05 2.25208E-06 1.79285E-18-1.33375E-18
 -1       590 8.33994E-05-4.50330E-05-1.60706E-05 3.83290E-05 2.72443E-18 5.20396E-20
 -1       591 1.36646E-04-5.77625E-05-3.39116E-05-1.79837E-05-1.86718E-18-3.32757E-18
 -1       592 7.81224E-05-4.09063E-05-1.54971E-05-4.50166E-05-6.67833E-19-2.14342E-18
 -1       593 4.14588E-05-2.11514E-05-8.04794E-06-3.54334E-05 3.90270E-19-4.46889E-18
 -1       594 2.04768E-05-1.30777E-05-2.61547E-06-7.01200E-06 1.10477E-18-1.87480E-18
 -1       595 1.54040E-04-6.52038E-05-3.83669E-05 5.44253E-07 1.73509E-20-1.84336E-19
 -1       596 1.29599E-04-6.53866E-05-2.75152E-05 2.45033E-05-5.68518E-19 3.93614E-18
 -1       597 1.58743E-04-4.63073E-05-4.84249E-05 1.99021E-05 1.07716E-18-6.79956E-19
 -1       598 1.31503E-04-6.60226E-05-2.80214E-05-2.40230E-05 1.57972E-18 1.34474E-18
 -1       599 8.87219E-05-4.99027E-05-1.63377E-05-3.94378E-05 5.51101E-19 3.77268E-18
 -1       600 5.88018E-05-3.22849E-05-1.08445E-05 4.34367E-05-2.47694E-18-1.40491E-18
 -1       601 9.13457E-05-1.59046E-05-3.23667E-05-7.67550E-06-8.76143E-20-1.44303E-18
 -1       602 9.55467E-05-2.58396E-05-2.98524E-05 4.93597E-06 6.39100E-19 2.12683E-18
 -1       603 4.64577E-05-1.84903E-05-1.14364E-05 3.02001E-05-3.36398E-18 3.95406E-19
 -1       604 9.51668E-05-2.63843E-05-2.94657E-05 3.21192E-06 6.70477E-19 1.75906E-18
 -1       605 4.51970E-05-1.70028E-05-1.15269E-05-2.25325E-05-2.61741E-18 3.77163E-18
 -1       606 1.11029E-04-5.50437E-05-2.37394E-05 2.99302E-05 1.80280E-18 1.98080E-18
 -1       607 6.56406E-05-3.08445E-05-1.43688E-05 3.36031E-05 2.06692E-18 9.05372E-19
 -1       608 1.35657E-04-3.16816E-05-4.50228E-05 1.11075E-05-1.72919E-18-1.21962E-18
 -1       609 3.27218E-05-1.23259E-05-8.14604E-06 1.21263E-05 1.58177E-18 5.81806E-20
 -1       610 9.15715E-05-1.68476E-05-3.20302E-05 2.44083E-06 1.07655E-18-3.50675E-19
 -1       611 9.13153E-05-1.64462E-05-3.20922E-05 8.41086E-07 8.24001E-19-5.53317E-19
 -1       612 9.28963E-05-1.89928E-05-3.16792E-05 5.27014E-06 1.20050E-18 1.46188E-19
 -1       613 9.39848E-05-2.08958E-05-3.13309E-05 6.20672E-06 1.01444E-18 5.54630E-19
 -1       614 9.54886E-05-2.42067E-05-3.05372E-05 6.26071E-06 7.93728E-19 1.54237E-18
 -1       615 1.36180E-04-4.13939E-05-4.09033E-05-8.00521E-06 1.46431E-18-3.57736E-18
 -1       616 9.58513E-05-2.81277E-05-2.90242E-05 2.71861E-06 8.63083E-19 1.26831E-19
 -1       617 9.54139E-05-2.56940E-05-2.98777E-05-2.44369E-06-2.29716E-19-7.92124E-19
 -1       618 9.54776E-05-2.69350E-05-2.93747E-05-8.59611E-07-1.22235E-19-5.89972E-19
 -1       619 9.54250E-05-2.76885E-05-2.90297E-05 1.54684E-07 3.47019E-20-5.71348E-19
 -1       620 9.53518E-05-2.81500E-05-2.88007E-05 7.61698E-07-1.28338E-19-7.28824E-19
 -1       621 9.52912E-05-2.84262E-05-2.86565E-05 1.09224E-06-1.49144E-19-5.80987E-19
 -1       622 9.52512E-05-2.85795E-05-2.85736E-05 1.24628E-06 1.34490E-19 1.73965E-19
 -1       623 9.52303E-05-2.86479E-05-2.85354E-05 1.29844E-06-1.53504E-19 7.17370E-19
 -1       624 9.52242E-05-2.86547E-05-2.85299E-05 1.30425E-06 1.69704E-19 7.93957E-19
 -1       625 9.52284E-05-2.86143E-05-2.85490E-05 1.30562E-06-5.94422E-20 7.70358E-20
 -1       626 9.52383E-05-2.85338E-05-2.85876E-05 1.33531E-06-1.77086E-19-6.34182E-20
 -1       627 9.52488E-05-2.84153E-05-2.86429E-05 1.42041E-06-1.53310E-19 6.81011E-21
 -1       628 9.52536E-05-2.82555E-05-2.87134E-05 1.58502E-06-8.02044E-19-1.04500E-19
 -1       629 9.52411E-05-2.80330E-05-2.88032E-05 1.87006E-06 6.60796E-21 3.35267E-19
 -1       630 9.51957E-05-2.77530E-05-2.89037E-05 2.27486E-06-2.60852E-19 4.34640E-19
 -1       631 9.50943E-05-2.73856E-05-2.90175E-05 2.83709E-06-5.15479E-19-1.55126E-19
 -1       632 9.48990E-05-2.69013E-05-2.91412E-05 3.58792E-06-4.61652E-19 6.95900E-20
 -1       633 9.45557E-05-2.62658E-05-2.92661E-05 4.56097E-06-3.16904E-19 6.09002E-20
 -1       634 9.39905E-05-2.54457E-05-2.93750E-05 5.79163E-06-3.09378E-19 4.05367E-19
 -1       635 9.31112E-05-2.44245E-05-2.94355E-05 7.31626E-06-6.20456E-19-5.26825E-19
 -1       636 9.18232E-05-2.32379E-05-2.93917E-05 9.17500E-06 1.39526E-19-3.76014E-19
 -1       637 9.00734E-05-2.20440E-05-2.91531E-05 1.14273E-05 4.32194E-19 1.86095E-19
 -1       638 8.79499E-05-2.12477E-05-2.85803E-05 1.41991E-05 7.11308E-20 6.78764E-20
 -1       639 8.58852E-05-2.17146E-05-2.74802E-05 1.78092E-05 9.19302E-19-2.94079E-20
 -1       640 8.54539E-05-2.50769E-05-2.58287E-05 2.24344E-05 5.36625E-19 6.91675E-19
 -1       641 8.86576E-05-3.38601E-05-2.31411E-05 2.91162E-05 9.10097E-19 1.37933E-18
 -1       642 9.41763E-05-2.09765E-05-3.13711E-05-7.06697E-06-4.43929E-19-1.12301E-18
 -1       643 8.99002E-05-3.55266E-05-2.30718E-05-2.91371E-05 2.78065E-20 7.59484E-19
 -1       644 8.58634E-05-2.59142E-05-2.56122E-05-2.32501E-05 4.19568E-19-5.33389E-19
 -1       645 8.62806E-05-2.22196E-05-2.74325E-05-1.85036E-05 5.18763E-19-1.96291E-18
 -1       646 8.81018E-05-2.14951E-05-2.85406E-05-1.49341E-05 1.75834E-18-2.13183E-18
 -1       647 9.01350E-05-2.21624E-05-2.91286E-05-1.21403E-05 4.36919E-19-2.09932E-18
 -1       648 9.18448E-05-2.32753E-05-2.93848E-05-9.86232E-06-6.22217E-19-1.30402E-18
 -1       649 9.31014E-05-2.43764E-05-2.94518E-05-7.96179E-06-6.05074E-19-8.63435E-20
 -1       650 9.39422E-05-2.52791E-05-2.94257E-05-6.35899E-06-1.78105E-20-6.85669E-19
 -1       651 9.44337E-05-2.59107E-05-2.93659E-05-4.99072E-06-2.40102E-19 6.01610E-19
 -1       652 9.45213E-05-2.61006E-05-2.93219E-05-4.13206E-06-5.36247E-19 2.01037E-18
 -1       653 9.53596E-05-2.73572E-05-2.91432E-05 3.21894E-07 7.81539E-19 8.40587E-19
 -1       654 9.52694E-05-2.79251E-05-2.88616E-05-4.89981E-07 6.22624E-19 6.01092E-19
 -1       655 9.54162E-05-2.64283E-05-2.95644E-05 1.63984E-06 6.16178E-19 7.40074E-19
 -1       656 9.51484E-05-2.84766E-05-2.85737E-05-1.19048E-06 5.54114E-19 3.91078E-19
 -1       657 9.51283E-05-2.85867E-05-2.85179E-05-1.28501E-06 2.72889E-19 8.39605E-19
 -1       658 9.51292E-05-2.86318E-05-2.84990E-05-1.30265E-06 3.78002E-19 7.83369E-19
 -1       659 9.51462E-05-2.86315E-05-2.85064E-05-1.29001E-06 2.76453E-19 6.94629E-19
 -1       660 9.51762E-05-2.85999E-05-2.85327E-05-1.28077E-06 1.66089E-19-2.72423E-20
 -1       661 9.52184E-05-2.85481E-05-2.85730E-05-1.29891E-06 2.22144E-19 1.80283E-19
 -1       662 9.52748E-05-2.84862E-05-2.86236E-05-1.36082E-06 4.83803E-19 3.07645E-19
 -1       663 9.53503E-05-2.84252E-05-2.86821E-05-1.47624E-06 1.02407E-19-3.60100E-19
 -1       664 9.54537E-05-2.83791E-05-2.87462E-05-1.64816E-06 2.30934E-19 4.26490E-19
 -1       665 9.55986E-05-2.83669E-05-2.88134E-05-1.87153E-06-4.71632E-21 9.01906E-19
 -1       666 9.58051E-05-2.84151E-05-2.88813E-05-2.13088E-06-3.79240E-19 9.75705E-19
 -1       667 9.61010E-05-2.85586E-05-2.89467E-05-2.39679E-06-8.54082E-19 1.21059E-18
 -1       668 9.65228E-05-2.88414E-05-2.90064E-05-2.62155E-06-5.03145E-19 1.33471E-18
 -1       669 9.71147E-05-2.93129E-05-2.90581E-05-2.73452E-06-5.33261E-19 7.76344E-19
 -1       670 9.79222E-05-3.00177E-05-2.91025E-05-2.63880E-06-5.68197E-19-1.48500E-19
 -1       671 9.89792E-05-3.09749E-05-2.91456E-05-2.21213E-06 9.21165E-19-8.00303E-20
 -1       672 1.00280E-04-3.21434E-05-2.92028E-05-1.31802E-06 3.52719E-19 4.00522E-19
 -1       673 1.01738E-04-3.33715E-05-2.93018E-05 1.61950E-07-3.17747E-20 7.55118E-19
 -1       674 1.03138E-04-3.43490E-05-2.94826E-05 2.25918E-06 6.56491E-19 4.91858E-19
 -1       675 1.04113E-04-3.46053E-05-2.97903E-05 4.80521E-06-8.15541E-20 8.28522E-19
 -1       676 1.04217E-04-3.36215E-05-3.02538E-05 7.30777E-06-1.21253E-18 1.38302E-18
 -1       677 1.03132E-04-3.11133E-05-3.08620E-05 8.89062E-06-9.86792E-19 1.19083E-18
 -1       678 1.01050E-04-2.74957E-05-3.15207E-05 8.51566E-06-7.71129E-20 1.83303E-18
 -1       679 9.88455E-05-2.40318E-05-3.20610E-05 5.61906E-06 3.10365E-19 2.03539E-18
 -1       680 9.77318E-05-2.23547E-05-3.23038E-05 7.63687E-07-5.74205E-19 1.55861E-18
 -1       681 9.83996E-05-2.33728E-05-3.21548E-05-4.35139E-06 6.05389E-20 2.37461E-18
 -1       682 1.00430E-04-2.65368E-05-3.16679E-05-7.85645E-06 3.12693E-19 3.08671E-18
 -1       683 1.02650E-04-3.02803E-05-3.10141E-05-8.84672E-06 2.10109E-18 3.23457E-18
 -1       684 1.04038E-04-3.31671E-05-3.03735E-05-7.64836E-06 1.76076E-18 4.03644E-18
 -1       685 1.04224E-04-3.45548E-05-2.98591E-05-5.24375E-06 1.03944E-18 3.90511E-18
 -1       686 1.03422E-04-3.45789E-05-2.95059E-05-2.59319E-06-1.00320E-20 3.93803E-18
 -1       687 1.02076E-04-3.37318E-05-2.92922E-05-3.01382E-07 6.52636E-19 2.58657E-18
 -1       688 1.00587E-04-3.25148E-05-2.91754E-05 1.38590E-06 1.03698E-18 3.46720E-18
 -1       689 9.92093E-05-3.12774E-05-2.91147E-05 2.45506E-06 6.09698E-19 3.37697E-18
 -1       690 9.80533E-05-3.01986E-05-2.90812E-05 3.00134E-06-4.06277E-19 2.58405E-18
 -1       691 9.71418E-05-2.93376E-05-2.90585E-05 3.14329E-06 1.70583E-18 1.76407E-18
 -1       692 9.64259E-05-2.86712E-05-2.90372E-05 3.03518E-06 1.06054E-18 1.36079E-18
 -1       693 9.49840E-05-2.72463E-05-2.90309E-05 3.13447E-06 5.54939E-19 2.49299E-18
 -1       694 9.35215E-05-2.57798E-05-2.90327E-05 2.79041E-06 7.88974E-19-1.81972E-18
 -1       695 8.47767E-05-4.04380E-05-1.87092E-05 3.94487E-05-1.14200E-18-9.17059E-19
 -1       696 9.42943E-05-2.65518E-05-2.90329E-05 3.13434E-06-4.92185E-19 1.32263E-18
 -1       697 9.21482E-05-2.43761E-05-2.90457E-05 9.09411E-07 1.77523E-19 1.03220E-18
 -1       698 9.18574E-05-2.40258E-05-2.90715E-05-4.85368E-07 5.58395E-20 8.80268E-19
 -1       699 9.20172E-05-2.40723E-05-2.91202E-05-1.98988E-06 6.53477E-19-3.58691E-19
 -1       700 9.27061E-05-2.45894E-05-2.91928E-05-3.29820E-06 4.33998E-19-3.67798E-19
 -1       701 1.14997E-04-5.64880E-05-2.49595E-05 3.17692E-05-2.10938E-19-1.54577E-18
 -1       702 3.91403E-05-9.16585E-06-1.22683E-05 5.59290E-06-3.83970E-18 2.80797E-18
 -1       703 1.27708E-04-5.77389E-05-3.00163E-05-1.84115E-05-2.19477E-18-3.04333E-18
 -1       704 9.27575E-05-2.50103E-05-2.90350E-05 2.04494E-06 1.21942E-18 8.33965E-19
 -1       705 1.06205E-04-5.20189E-05-2.29688E-05-3.12575E-05 5.64918E-19 1.42372E-18
 -1       706 1.00628E-04-4.84870E-05-2.21883E-05-3.57151E-05-1.58170E-18-2.34465E-18
 -1       707 9.50864E-05-2.38588E-05-3.05267E-05-4.48051E-06-4.65267E-19-1.04518E-18
 -1       708 1.35856E-04-5.19911E-05-3.61276E-05-2.10888E-06-2.53619E-18-7.57195E-19
 -1       709 1.33441E-04-5.79345E-05-3.24765E-05 1.26945E-05 9.57736E-19-4.33750E-18
 -1       710 1.29209E-04-2.12140E-05-4.67823E-05-1.25041E-05 2.19498E-18-1.35261E-18
 -1       711 6.48461E-05-2.63135E-05-1.60974E-05-3.53295E-05-8.85824E-19-2.52183E-18
 -1       712 9.20927E-05-1.76746E-05-3.18995E-05 3.95077E-06 1.18282E-18 1.11008E-21
 -1       713 1.23095E-04-1.40144E-05-4.72711E-05 1.07733E-05-4.37228E-19 3.72059E-19
 -1       714 7.70825E-05-3.57223E-05-1.72527E-05-3.50275E-05-8.87876E-19 2.37646E-18
 -1       715 9.20539E-05-1.76190E-05-3.19062E-05-3.89809E-06 3.25922E-19-1.01512E-18
 -1       716 9.51949E-05-2.82718E-05-2.86813E-05-9.54782E-07 4.93104E-19 2.65320E-19
 -1       717 3.82329E-05-1.07602E-05-1.11820E-05-1.64909E-05 9.35574E-19-2.05612E-18
 -1       718 1.19627E-04-8.36130E-06-4.82205E-05-5.46193E-06 3.19617E-18-2.42384E-19
 -1       719 9.13082E-05-1.64366E-05-3.20932E-05-7.82899E-07 6.12139E-19-8.53703E-19
 -1       720 1.14442E-04-9.72047E-06-4.52656E-05 4.13580E-06 1.22089E-18 9.59993E-20
 -1       721 9.28718E-05-1.89155E-05-3.16997E-05-5.29158E-06-2.28266E-20-1.10922E-18
 -1       722 6.92750E-05-2.73299E-05-1.76866E-05 3.35946E-05-2.27656E-18 9.45633E-20
 -1       723 9.35633E-05-2.52787E-05-2.92637E-05-3.88757E-06 5.53945E-19 1.77844E-18
 -1       724 9.53191E-05-2.48883E-05-3.01785E-05 3.62721E-06 5.19476E-19 7.12543E-19
 -1       725 4.77063E-05-1.07982E-05-1.54390E-05-8.80177E-06-3.31359E-18 2.74881E-18
 -1       726 1.16269E-04-5.37857E-05-2.67522E-05-2.36450E-05-2.48975E-18-1.70928E-18
 -1       727 1.31755E-04-4.19088E-05-3.87487E-05 8.34739E-06-2.61842E-18 3.71649E-19
 -1       728 9.15507E-05-1.68176E-05-3.20339E-05-2.37954E-06 4.98631E-19-8.36917E-19
 -1       729 5.44800E-05-1.90486E-05-1.47610E-05 2.47312E-05 1.63709E-18 1.08277E-18
 -1       730 8.54679E-05-3.63518E-05-2.08652E-05-3.35120E-05-1.27616E-18-2.67272E-19
 -1       731 9.46369E-05-2.27115E-05-3.08276E-05 3.90740E-06 7.44767E-19 2.01685E-19
 -1       732 1.24558E-04-3.07294E-05-4.04362E-05-1.31834E-05 1.82198E-18-1.18278E-18
 -1       733 1.28287E-04-5.33402E-05-3.21785E-05-6.07648E-06-3.00787E-18-2.04214E-20
 -1       734 9.58757E-05-2.68648E-05-2.95763E-05-5.65209E-07-6.63490E-20-8.99089E-19
 -1       735 9.59672E-05-2.77395E-05-2.92406E-05 2.53153E-07-1.92491E-19-7.52769E-19
 -1       736 9.59530E-05-2.82806E-05-2.90025E-05 7.55726E-07-1.37118E-19-5.51233E-19
 -1       737 9.58868E-05-2.85934E-05-2.88401E-05 1.03716E-06 5.61770E-19-1.66198E-19
 -1       738 9.57967E-05-2.87470E-05-2.87356E-05 1.17590E-06 5.85121E-19 1.04864E-20
 -1       739 9.56963E-05-2.87868E-05-2.86755E-05 1.23406E-06 2.21829E-19 5.52684E-19
 -1       740 9.55905E-05-2.87422E-05-2.86493E-05 1.25955E-06-3.20937E-19 7.25944E-19
 -1       741 9.54789E-05-2.86307E-05-2.86492E-05 1.28935E-06-2.15871E-19 6.66024E-19
 -1       742 9.53561E-05-2.84601E-05-2.86697E-05 1.35250E-06-3.08331E-19 1.45165E-21
 -1       743 9.52126E-05-2.82310E-05-2.87064E-05 1.47250E-06-2.10289E-19 1.18765E-19
 -1       744 9.50218E-05-2.79188E-05-2.87584E-05 1.68197E-06-2.96765E-19 8.60495E-19
 -1       745 9.47770E-05-2.75370E-05-2.88171E-05 1.97960E-06-5.39195E-19 6.99196E-19
 -1       746 9.44370E-05-2.70507E-05-2.88798E-05 2.38859E-06-6.04326E-19 1.33927E-19
 -1       747 9.39524E-05-2.64282E-05-2.89388E-05 2.92258E-06 1.38933E-20 4.00816E-19
 -1       748 9.32547E-05-2.56309E-05-2.89815E-05 3.59154E-06-1.35612E-19 1.14357E-18
 -1       749 9.22508E-05-2.46158E-05-2.89863E-05 4.40056E-06-7.15567E-19 9.69020E-19
 -1       750 9.08186E-05-2.33439E-05-2.89176E-05 5.34994E-06-7.56308E-19 8.04128E-19
 -1       751 8.88055E-05-2.17976E-05-2.87176E-05 6.44083E-06 2.15023E-19 1.00081E-18
 -1       752 8.60333E-05-2.00133E-05-2.82944E-05 7.69622E-06 6.89858E-19 9.45109E-19
 -1       753 8.23124E-05-1.81345E-05-2.75047E-05 9.21259E-06 4.12352E-19 1.05470E-18
 -1       754 7.74523E-05-1.64902E-05-2.61171E-05 1.13009E-05 4.08111E-19 6.76369E-19
 -1       755 7.16765E-05-1.57454E-05-2.39087E-05 1.47104E-05 1.02997E-18-7.84448E-20
 -1       756 1.15676E-04-1.66085E-05-4.27624E-05-1.07012E-05 1.99061E-18-2.01653E-19
 -1       757 7.15232E-05-1.63510E-05-2.35900E-05-1.58509E-05-1.64321E-19 3.87872E-19
 -1       758 7.75792E-05-1.67754E-05-2.60432E-05-1.22219E-05 1.65644E-19 2.05439E-18
 -1       759 8.24227E-05-1.82984E-05-2.74800E-05-1.00122E-05 1.01336E-19-7.58938E-19
 -1       760 8.61753E-05-2.01135E-05-2.83121E-05-8.42198E-06 8.35298E-19-1.01978E-18
 -1       761 8.89812E-05-2.18338E-05-2.87774E-05-7.11369E-06-3.85175E-19-7.64046E-19
 -1       762 9.10085E-05-2.32747E-05-2.90291E-05-5.96611E-06-1.57413E-18-1.56694E-19
 -1       763 9.24222E-05-2.43727E-05-2.91639E-05-4.91788E-06 2.26107E-18-1.77455E-19
 -1       764 9.58647E-05-2.73329E-05-2.93709E-05 1.47777E-07 7.85995E-19 4.04967E-19
 -1       765 9.57090E-05-2.62434E-05-2.97703E-05 1.20839E-06 5.35582E-19 1.06803E-19
 -1       766 9.56697E-05-2.87574E-05-2.86767E-05-1.22520E-06 3.10419E-19 1.19282E-18
 -1       767 9.57567E-05-2.86565E-05-2.87573E-05-1.13317E-06 2.29016E-19 8.21651E-19
 -1       768 9.54958E-05-2.87186E-05-2.86188E-05-1.26841E-06 9.46597E-19 9.28918E-19
 -1       769 9.54151E-05-2.86249E-05-2.86244E-05-1.29216E-06 6.67813E-19 3.08125E-19
 -1       770 9.53410E-05-2.85033E-05-2.86448E-05-1.35033E-06-3.74081E-20-2.09247E-19
 -1       771 9.52770E-05-2.83680E-05-2.86753E-05-1.45902E-06 1.10299E-19 7.48121E-19
 -1       772 9.52295E-05-2.82350E-05-2.87119E-05-1.62853E-06-9.79263E-20 6.67120E-19
 -1       773 9.52105E-05-2.81254E-05-2.87507E-05-1.86316E-06-1.02550E-19 4.44442E-19
 -1       774 9.52401E-05-2.80684E-05-2.87878E-05-2.15997E-06-4.84431E-19 6.14840E-19
 -1       775 9.53501E-05-2.81047E-05-2.88194E-05-2.50625E-06-1.11198E-18 5.77652E-19
 -1       776 9.55877E-05-2.82891E-05-2.88422E-05-2.87555E-06-8.04789E-19 4.20339E-19
 -1       777 9.60175E-05-2.86903E-05-2.88545E-05-3.22204E-06-1.83543E-19 7.04916E-20
 -1       778 9.67218E-05-2.93856E-05-2.88585E-05-3.47306E-06 3.91522E-19 1.37960E-19
 -1       779 9.77929E-05-3.04451E-05-2.88636E-05-3.52029E-06 1.46652E-19-5.95986E-19
 -1       780 9.93117E-05-3.19002E-05-2.88911E-05-3.21182E-06 9.00629E-20-1.91177E-19
 -1       781 1.01303E-04-3.36853E-05-2.89796E-05-2.35262E-06-1.95832E-19 4.66312E-19
 -1       782 1.03658E-04-3.55518E-05-2.91891E-05-7.33720E-07 6.50880E-20 5.31871E-19
 -1       783 1.06035E-04-3.69735E-05-2.95992E-05 1.77128E-06-2.68623E-19 2.08511E-18
 -1       784 1.07813E-04-3.71504E-05-3.02888E-05 4.99895E-06-1.21419E-18 3.03949E-18
 -1       785 1.08238E-04-3.52367E-05-3.12858E-05 8.25680E-06-1.47940E-18 3.07834E-18
 -1       786 1.06699E-04-3.07903E-05-3.25352E-05 1.01304E-05-1.30480E-18 2.15133E-18
 -1       787 1.03744E-04-2.49721E-05-3.37676E-05 8.98521E-06-1.89596E-19 2.77861E-18
 -1       788 1.01152E-04-2.04464E-05-3.45966E-05 4.24471E-06 3.52937E-19 1.46642E-18
 -1       789 1.00789E-04-1.98387E-05-3.47066E-05-2.43253E-06-2.51621E-19 6.45376E-19
 -1       790 1.02948E-04-2.35568E-05-3.40387E-05-7.93064E-06 3.38318E-19 5.96124E-19
 -1       791 1.06042E-04-2.93812E-05-3.28624E-05-1.00136E-05 5.40598E-19 1.70232E-19
 -1       792 1.08048E-04-3.43609E-05-3.15866E-05-8.77600E-06 1.06441E-18 1.02467E-18
 -1       793 1.08158E-04-3.69970E-05-3.04990E-05-5.66785E-06 6.96345E-19 2.77790E-18
 -1       794 1.06673E-04-3.73144E-05-2.97265E-05-2.27904E-06 8.89099E-19 2.66500E-18
 -1       795 1.04385E-04-3.61300E-05-2.92530E-05 4.96617E-07 1.08809E-18-1.28019E-20
 -1       796 1.01988E-04-3.43089E-05-2.90060E-05 2.38437E-06-2.28302E-19 5.47701E-19
 -1       797 9.98914E-05-3.24467E-05-2.89053E-05 3.46022E-06-4.58384E-20 2.71479E-18
 -1       798 9.82463E-05-3.08439E-05-2.88871E-05 3.91312E-06 5.36409E-19 3.28483E-18
 -1       799 9.70412E-05-2.95793E-05-2.89114E-05 3.93306E-06 1.30555E-18 1.50392E-18
 -1       800 9.06252E-05-2.33527E-05-2.88318E-05-1.15761E-06-2.17472E-18 3.92072E-19
 -1       801 9.11249E-05-2.35465E-05-2.89619E-05-3.05581E-06-3.52462E-19 1.43831E-18
 -1       802 9.08492E-05-2.37230E-05-2.87680E-05 6.76857E-07-1.25909E-18 7.32167E-19
 -1       803 5.27787E-05-1.39276E-05-1.63384E-05 1.89211E-05-2.32219E-18 6.27135E-19
 -1       804 9.16251E-05-2.45177E-05-2.87605E-05 2.20495E-06 1.30700E-18 5.75480E-20
 -1       805 4.34775E-05-9.36159E-06-1.40597E-05 2.72162E-06 1.30504E-18-5.09543E-19
 -1       806 1.22344E-04-5.51020E-05-2.88347E-05 1.67131E-05 1.57360E-18-2.75171E-18
 -1       807 9.55814E-05-2.87692E-05-2.86338E-05-1.25640E-06 4.22454E-19 1.21079E-18
 -1       808 6.96497E-05-2.10789E-05-2.05679E-05-2.43092E-05-5.24006E-19 1.18603E-18
 -1       809 1.22853E-04-2.63482E-05-4.16481E-05 1.34053E-05-1.39468E-18 9.46758E-19
 -1       810 9.32223E-05-1.97688E-05-3.14812E-05 1.23388E-06 8.74284E-19-4.14677E-19
 -1       811 9.53719E-05-2.78536E-05-2.89360E-05 3.72701E-06 1.30636E-18 1.54125E-18
 -1       812 9.55717E-05-2.54870E-05-3.00362E-05-1.79549E-06-5.73030E-20-7.85139E-19
 -1       813 1.30382E-04-4.96794E-05-3.47259E-05-1.97100E-06 1.75120E-18-2.31028E-18
 -1       814 1.03837E-04-4.72924E-05-2.41241E-05 2.93763E-05-2.60330E-19 6.16700E-19
 -1       815 9.27002E-05-2.55168E-05-2.87930E-05 3.23298E-06 1.58136E-18-1.92854E-19
 -1       816 5.63537E-05-1.56189E-05-1.71855E-05-2.10328E-05 2.89497E-19-2.41408E-18
 -1       817 7.14905E-05-2.40412E-05-2.01875E-05-2.67116E-05-7.64573E-19-9.87700E-19
 -1       818 1.26995E-04-4.67265E-05-3.44987E-05 4.11968E-06-3.02977E-18-4.12849E-19
 -1       819 9.31127E-05-1.95696E-05-3.15196E-05 1.99559E-08 6.48079E-19-5.35687E-19
 -1       820 1.14380E-04-1.77006E-05-4.16757E-05 1.06451E-05-1.24162E-18-9.71441E-21
 -1       821 1.09531E-04-1.20530E-05-4.20164E-05-3.11571E-06 1.74862E-18 1.42877E-18
 -1       822 9.58820E-05-2.80154E-05-2.90857E-05-5.28334E-07 6.20128E-19 8.10925E-19
 -1       823 9.58335E-05-2.84280E-05-2.88881E-05-9.24942E-07 5.07922E-19 8.55665E-19
 -1       824 5.17794E-05-1.03934E-05-1.74817E-05 6.01996E-06-1.77877E-18 3.34636E-18
 -1       825 9.60994E-05-2.86702E-05-2.89000E-05 3.97061E-06 1.45923E-18 9.03847E-19
 -1       826 9.40090E-05-2.13019E-05-3.11631E-05-3.27606E-06-2.43156E-20-7.59687E-19
 -1       827 8.95055E-05-3.71651E-05-2.23083E-05 3.05496E-05-2.15637E-18 3.53329E-19
 -1       828 9.44350E-05-2.70826E-05-2.88647E-05 3.89820E-06 1.37999E-18 5.15492E-19
 -1       829 9.52846E-05-2.45490E-05-3.03135E-05 2.75281E-06 6.84692E-19 2.54609E-19
 -1       830 1.01050E-04-4.42372E-05-2.42609E-05-2.77099E-05-2.07974E-18-1.73305E-18
 -1       831 9.40240E-05-2.13327E-05-3.11554E-05 3.30154E-06 8.54363E-19 1.70282E-20
 -1       832 9.35785E-05-2.63265E-05-2.88223E-05 3.71295E-06 1.50103E-18 1.52423E-19
 -1       833 9.50137E-05-2.36302E-05-3.05918E-05-3.31063E-06-2.95032E-19-7.05127E-19
 -1       834 9.35287E-05-2.03484E-05-3.13648E-05 2.35356E-06 8.80734E-19-1.59143E-19
 -1       835 9.35158E-05-2.03217E-05-3.13699E-05-2.32656E-06 3.00873E-19-6.77606E-19
 -1       836 5.35435E-05-1.05132E-05-1.82681E-05-7.43834E-06 1.22058E-18-1.26232E-18
 -1       837 9.53051E-05-2.83655E-05-2.86884E-05-1.30596E-06 1.96892E-19 1.04893E-18
 -1       838 9.63619E-05-2.78632E-05-2.93567E-05 3.36753E-07 5.81100E-20-2.23305E-19
 -1       839 9.63693E-05-2.84220E-05-2.91203E-05 7.10322E-07 2.35345E-19-1.25404E-19
 -1       840 9.62846E-05-2.87303E-05-2.89519E-05 9.22366E-07 4.96246E-19-4.96330E-19
 -1       841 9.61452E-05-2.88578E-05-2.88375E-05 1.03150E-06 6.40634E-19-6.90429E-19
 -1       842 9.59719E-05-2.88524E-05-2.87655E-05 1.08513E-06 1.69119E-19-5.42092E-19
 -1       843 9.57744E-05-2.87455E-05-2.87267E-05 1.12040E-06-3.33514E-19-3.16966E-19
 -1       844 9.55530E-05-2.85555E-05-2.87132E-05 1.16587E-06-1.95018E-19-5.78719E-19
 -1       845 9.53005E-05-2.82901E-05-2.87188E-05 1.24321E-06 2.86317E-20-3.13276E-19
 -1       846 9.49848E-05-2.79277E-05-2.87388E-05 1.37637E-06 8.36726E-20-2.32027E-19
 -1       847 9.46103E-05-2.74915E-05-2.87652E-05 1.56421E-06-1.15187E-19-1.64660E-19
 -1       848 9.41296E-05-2.69487E-05-2.87918E-05 1.81711E-06-4.02703E-19 1.17841E-18
 -1       849 9.34939E-05-2.62727E-05-2.88091E-05 2.13399E-06-1.53685E-19 2.03177E-18
 -1       850 9.26373E-05-2.54302E-05-2.88031E-05 2.50466E-06-1.80498E-19 1.49466E-18
 -1       851 9.14715E-05-2.43829E-05-2.87523E-05 2.90684E-06 2.51420E-19 1.25063E-18
 -1       852 8.98799E-05-2.30918E-05-2.86236E-05 3.30331E-06-1.88962E-19 2.40436E-18
 -1       853 8.77098E-05-2.15242E-05-2.83656E-05 3.64193E-06-7.80706E-19 2.73425E-18
 -1       854 8.47606E-05-1.96664E-05-2.78981E-05 3.86282E-06 4.07357E-19 2.18507E-18
 -1       855 8.07609E-05-1.75378E-05-2.70964E-05 3.92590E-06 3.68701E-19 1.68003E-18
 -1       856 7.53268E-05-1.52072E-05-2.57644E-05 3.84914E-06 2.20727E-19 6.06725E-19
 -1       857 6.76679E-05-1.25282E-05-2.35830E-05 4.12277E-06 4.62738E-19-2.10038E-20
 -1       858 9.61630E-05-2.87926E-05-2.88730E-05-1.00781E-06 4.21444E-19 4.18259E-19
 -1       859 6.75413E-05-1.29447E-05-2.33599E-05-4.67381E-06-2.68038E-19 9.98207E-19
 -1       860 5.86977E-05-1.11086E-05-2.02278E-05-6.00304E-06-9.00704E-19 2.38075E-18
 -1       861 7.52281E-05-1.52805E-05-2.56862E-05-4.54918E-06-4.43814E-19-6.34237E-20
 -1       862 8.08343E-05-1.76128E-05-2.70959E-05-4.55515E-06 4.59883E-19 1.11457E-18
 -1       863 8.49585E-05-1.97168E-05-2.79619E-05-4.44935E-06 6.44491E-19 7.78381E-19
 -1       864 8.80003E-05-2.15136E-05-2.84968E-05-4.20271E-06 2.09642E-19 7.64698E-19
 -1       865 8.97387E-05-2.26363E-05-2.87592E-05-3.61495E-06-1.41074E-18 3.90613E-18
 -1       866 9.57926E-05-2.55598E-05-3.01001E-05-1.15346E-06-1.98391E-19-4.97113E-19
 -1       867 9.54902E-05-2.85611E-05-2.86839E-05-1.21072E-06 3.93350E-19 1.34545E-18
 -1       868 9.56731E-05-2.87224E-05-2.86931E-05-1.15696E-06 7.20656E-19 1.13173E-18
 -1       869 9.51220E-05-2.81532E-05-2.87009E-05-1.45875E-06 9.77578E-20 3.47849E-19
 -1       870 9.49493E-05-2.79450E-05-2.87161E-05-1.68150E-06-7.20970E-20 8.65144E-20
 -1       871 9.48026E-05-2.77690E-05-2.87287E-05-1.98296E-06-3.13311E-19 1.14130E-19
 -1       872 9.47097E-05-2.76653E-05-2.87333E-05-2.36728E-06-1.01052E-18 4.56781E-20
 -1       873 9.47157E-05-2.76901E-05-2.87252E-05-2.83163E-06-9.98660E-19 6.84839E-20
 -1       874 9.48891E-05-2.79198E-05-2.87011E-05-3.36168E-06-8.64746E-19 3.38940E-19
 -1       875 9.53268E-05-2.84512E-05-2.86610E-05-3.92392E-06-1.59904E-20-4.08029E-19
 -1       876 9.61567E-05-2.93957E-05-2.86119E-05-4.45310E-06 1.88921E-19-7.43620E-20
 -1       877 9.75305E-05-3.08607E-05-2.85729E-05-4.83334E-06-1.84898E-19 6.90849E-19
 -1       878 9.96001E-05-3.29073E-05-2.85830E-05-4.87131E-06-8.32540E-19 9.72935E-19
 -1       879 1.02450E-04-3.54603E-05-2.87106E-05-4.27176E-06-6.52893E-19 1.45888E-18
 -1       880 1.05983E-04-3.81715E-05-2.90616E-05-2.64922E-06-1.00716E-18 1.63904E-18
 -1       881 1.09707E-04-4.02010E-05-2.97877E-05 3.68648E-07-1.18491E-18 1.24586E-18
 -1       882 1.12608E-04-4.01226E-05-3.10716E-05 4.88931E-06-1.22042E-18 2.14751E-18
 -1       883 1.13191E-04-3.66069E-05-3.28504E-05 9.53249E-06-1.10351E-18 1.29556E-18
 -1       884 1.10634E-04-2.91398E-05-3.49912E-05 1.16052E-05-1.39957E-18 2.26675E-18
 -1       885 1.06570E-04-2.05046E-05-3.69464E-05 8.90916E-06 7.43735E-19 2.11866E-18
 -1       886 1.05607E-04-1.86808E-05-3.73210E-05-7.19627E-06 9.65244E-19 1.04839E-18
 -1       887 1.09799E-04-2.68749E-05-3.56240E-05-1.13834E-05 7.84879E-19 1.48442E-20
 -1       888 1.12993E-04-3.51318E-05-3.33924E-05-1.00957E-05-2.40020E-19-2.37594E-19
 -1       889 1.13121E-04-3.98269E-05-3.14188E-05-5.68426E-06-6.57924E-19 6.30044E-19
 -1       890 1.10730E-04-4.06447E-05-3.00388E-05-1.12560E-06 1.83134E-18-9.12558E-20
 -1       891 1.07146E-04-3.90047E-05-2.92039E-05 2.29118E-06 2.80658E-18-7.97972E-19
 -1       892 1.03530E-04-3.63691E-05-2.87831E-05 4.28574E-06 1.91122E-19-4.70039E-19
 -1       893 1.00518E-04-3.37205E-05-2.86275E-05 5.15046E-06-1.19493E-18-5.79941E-19
 -1       894 9.82774E-05-3.14924E-05-2.86219E-05 5.28074E-06 8.40813E-20-3.14814E-19
 -1       895 9.67325E-05-2.97852E-05-2.86911E-05 4.99315E-06 1.28520E-18 2.17519E-18
 -1       896 1.22167E-04-3.53790E-05-3.72974E-05 1.15110E-05-1.09902E-18 2.65313E-19
 -1       897 1.13407E-04-2.53541E-05-3.78634E-05-1.21486E-05 1.64933E-18 7.04966E-19
 -1       898 8.91232E-05-2.27251E-05-2.84593E-05 3.34534E-07-1.20138E-18 9.14699E-19
 -1       899 6.81742E-05-2.11932E-05-1.99830E-05 2.39821E-05-1.68387E-18-1.07864E-18
 -1       900 9.00588E-05-2.37126E-05-2.84339E-05 2.37551E-06 2.97567E-19-2.30362E-18
 -1       901 9.59829E-05-2.62829E-05-2.98711E-05 7.50808E-07 3.53800E-19 1.36437E-20
 -1       902 1.18235E-04-5.02415E-05-2.91329E-05-1.13947E-05-2.24736E-18-3.41721E-19
 -1       903 9.49177E-05-2.33087E-05-3.06865E-05 2.51687E-06 6.93193E-19-4.69270E-20
 -1       904 9.32112E-05-1.97517E-05-3.14837E-05-1.18942E-06 5.61631E-19-7.80933E-19
 -1       905 9.62002E-05-2.69529E-05-2.96773E-05-2.63418E-07-5.20445E-20-5.94389E-19
 -1       906 1.21849E-04-3.98244E-05-3.52012E-05-9.56146E-06-2.49134E-19-1.92772E-18
 -1       907 1.12430E-04-4.86528E-05-2.73142E-05 1.79765E-05 1.44366E-19-3.02420E-18
 -1       908 9.15168E-05-2.50434E-05-2.84890E-05 3.78713E-06 5.91228E-19-1.26368E-18
 -1       909 8.91349E-05-2.24525E-05-2.85748E-05-1.64645E-06-1.60179E-18 1.23301E-18
 -1       910 1.22444E-04-4.99155E-05-3.10918E-05 3.70230E-06 5.01392E-19-3.94345E-18
 -1       911 9.55964E-05-2.50333E-05-3.02431E-05 1.55274E-06 5.37716E-19-3.50396E-20
 -1       912 1.21015E-04-4.87018E-05-3.10021E-05-2.92325E-06-2.30033E-18-1.88050E-18
 -1       913 8.75030E-05-3.30145E-05-2.32765E-05-2.58302E-05-9.93234E-19 3.20824E-19
 -1       914 9.45560E-05-2.22492E-05-3.09885E-05 4.30481E-07 6.65297E-19-2.16963E-19
 -1       915 9.62722E-05-2.85725E-05-2.90142E-05-8.45749E-07 2.93161E-19 7.24244E-19
 -1       916 5.34876E-05-1.03005E-05-1.82328E-05 4.80591E-06 1.31834E-18 5.61186E-19
 -1       917 9.50703E-05-2.79473E-05-2.87661E-05 4.47940E-06 1.48278E-18 7.12597E-20
 -1       918 9.60167E-05-2.88646E-05-2.87795E-05-1.08590E-06 3.05442E-19 4.90452E-19
 -1       919 1.15261E-04-2.63516E-05-3.82517E-05 1.22892E-05-1.17787E-18-3.18828E-19
 -1       920 1.07817E-04-1.41543E-05-4.03049E-05 4.57090E-06 1.79282E-18 2.49649E-18
 -1       921 6.21060E-05-1.50836E-05-2.00252E-05 1.51781E-05-9.93214E-19 1.35430E-18
 -1       922 1.04195E-04-1.59524E-05-3.78876E-05 1.21974E-06 1.20825E-18 2.08759E-18
 -1       923 1.02280E-04-4.25412E-05-2.55565E-05 2.26558E-05-1.22275E-18 6.34944E-21
 -1       924 9.49314E-05-2.32112E-05-3.07369E-05-1.84918E-06 7.00757E-20-5.23159E-19
 -1       925 1.08994E-04-4.56766E-05-2.71153E-05-1.73482E-05-1.47998E-18-8.12442E-19
 -1       926 9.62453E-05-2.74231E-05-2.94954E-05-3.64572E-08 4.94803E-19 3.98826E-19
 -1       927 9.58502E-05-2.88311E-05-2.87225E-05-1.12421E-06 6.79771E-19 5.83196E-19
 -1       928 9.27579E-05-2.61326E-05-2.85536E-05 4.44435E-06 1.21429E-18 1.14431E-18
 -1       929 9.53417E-05-2.43498E-05-3.04249E-05-1.96804E-06-1.02238E-19-4.67281E-19
 -1       930 6.50007E-05-1.53819E-05-2.11535E-05-1.44915E-05-1.92574E-19-4.95104E-19
 -1       931 9.47099E-05-2.25983E-05-3.09040E-05 1.22127E-06 7.76504E-19-4.04649E-19
 -1       932 7.65977E-05-2.29196E-05-2.29473E-05-1.97750E-05-5.55975E-19-3.41450E-19
 -1       933 9.45606E-05-2.22494E-05-3.09899E-05-4.09906E-07 4.50550E-19-7.98860E-19
 -1       934 9.66402E-05-2.85729E-05-2.91717E-05 6.05517E-07 2.64500E-19 2.08115E-20
 -1       935 9.65197E-05-2.88390E-05-2.90060E-05 7.44416E-07 3.82510E-19-1.18323E-19
 -1       936 9.63267E-05-2.89162E-05-2.88902E-05 8.18264E-07 2.83645E-19-5.20674E-19
 -1       937 9.60845E-05-2.88517E-05-2.88141E-05 8.59269E-07 2.04105E-19-7.88850E-19
 -1       938 9.58032E-05-2.86762E-05-2.87687E-05 8.92331E-07-1.19680E-19-3.67030E-19
 -1       939 9.54823E-05-2.84078E-05-2.87462E-05 9.35450E-07-1.50017E-19-2.28434E-19
 -1       940 9.50911E-05-2.80324E-05-2.87394E-05 1.00439E-06 2.86759E-19 7.22217E-20
 -1       941 9.46460E-05-2.75825E-05-2.87415E-05 1.09828E-06 2.07739E-19 4.83437E-19
 -1       942 9.41014E-05-2.70328E-05-2.87437E-05 1.21792E-06 3.89418E-19 7.65087E-19
 -1       943 9.34165E-05-2.63659E-05-2.87360E-05 1.35234E-06-8.46984E-20 4.26486E-19
 -1       944 9.25382E-05-2.55600E-05-2.87050E-05 1.47838E-06-6.21780E-19 6.42841E-19
 -1       945 9.13974E-05-2.45909E-05-2.86314E-05 1.55629E-06 2.40983E-19 1.30742E-18
 -1       946 8.99057E-05-2.34351E-05-2.84875E-05 1.52440E-06 3.43410E-19 1.54744E-18
 -1       947 8.79496E-05-2.20754E-05-2.82320E-05 1.29355E-06 1.85826E-20 1.41943E-18
 -1       948 8.53818E-05-2.05080E-05-2.78035E-05 7.43332E-07-1.95707E-20 1.69777E-18
 -1       949 8.20085E-05-1.87534E-05-2.71081E-05-2.85247E-07-2.81435E-19 1.11782E-18
 -1       950 7.74795E-05-1.67683E-05-2.60044E-05-1.96617E-06-9.61205E-20 1.27083E-18
 -1       951 7.14376E-05-1.48783E-05-2.42523E-05-4.66587E-06 2.05028E-19 4.60081E-19
 -1       952 6.24735E-05-1.21874E-05-2.14765E-05 4.04702E-06-1.31591E-18 3.57101E-18
 -1       953 7.74767E-05-1.68787E-05-2.59692E-05 1.58563E-06 5.58118E-19 2.08847E-18
 -1       954 8.21673E-05-1.88075E-05-2.71552E-05-1.14379E-07 5.11604E-19 1.72213E-18
 -1       955 8.56689E-05-2.05135E-05-2.79249E-05-1.11092E-06 6.12219E-19 1.79421E-18
 -1       956 8.75532E-05-2.15370E-05-2.82858E-05-1.43844E-06 5.24246E-21 2.10060E-18
 -1       957 9.54200E-05-2.84143E-05-2.87167E-05-1.04327E-06 4.17438E-19 6.37794E-19
 -1       958 9.51280E-05-2.81411E-05-2.87087E-05-1.16803E-06 6.19211E-19 8.41001E-19
 -1       959 9.56979E-05-2.86474E-05-2.87359E-05-9.66265E-07 3.98832E-19 5.22993E-19
 -1       960 9.45224E-05-2.75572E-05-2.86994E-05-1.62964E-06-1.28724E-19 1.39001E-18
 -1       961 9.42353E-05-2.73044E-05-2.86847E-05-2.00061E-06-9.44499E-19 1.24347E-18
 -1       962 9.39978E-05-2.71384E-05-2.86541E-05-2.48799E-06-1.07343E-18 1.36674E-18
 -1       963 9.38662E-05-2.71296E-05-2.86014E-05-3.10716E-06-5.34679E-19 3.26488E-19
 -1       964 9.39281E-05-2.73758E-05-2.85224E-05-3.86697E-06-7.42111E-20-4.99912E-19
 -1       965 9.43130E-05-2.80049E-05-2.84177E-05-4.75957E-06 1.40176E-20 5.56943E-20
 -1       966 9.51999E-05-2.91718E-05-2.82979E-05-5.74161E-06-3.08567E-19 5.59428E-19
 -1       967 9.68197E-05-3.10420E-05-2.81903E-05-6.70341E-06-7.97496E-19 3.34429E-19
 -1       968 9.94422E-05-3.37512E-05-2.81534E-05-7.39919E-06-1.15037E-18 2.46095E-19
 -1       969 1.03277E-04-3.72549E-05-2.82947E-05-7.39785E-06-7.18126E-19-2.61013E-20
 -1       970 1.08322E-04-4.11573E-05-2.87805E-05-6.02853E-06-1.19996E-18-7.43082E-19
 -1       971 1.13884E-04-4.41024E-05-2.99202E-05-2.63419E-06-1.22989E-18-1.54461E-18
 -1       972 1.15580E-04-4.47993E-05-3.03366E-05 1.25477E-06 1.24419E-18-1.98382E-18
 -1       973 1.10090E-04-4.23472E-05-2.90283E-05 5.52168E-06 1.89416E-18-1.40858E-18
 -1       974 1.04800E-04-3.85269E-05-2.83988E-05 7.46205E-06 1.40798E-18 1.38790E-18
 -1       975 1.00666E-04-3.48482E-05-2.82074E-05 7.76887E-06 2.62984E-19 1.04408E-18
 -1       976 9.77975E-05-3.19020E-05-2.82402E-05 7.24068E-06-3.23508E-19 5.74917E-19
 -1       977 9.59863E-05-2.97667E-05-2.83792E-05 6.34934E-06-6.45366E-19 5.31079E-20
 -1       978 9.46919E-05-2.25667E-05-3.09092E-05-1.20551E-06 3.90094E-19-3.73600E-19
 -1       979 9.47744E-05-2.28311E-05-3.08305E-05 1.91567E-06 6.72600E-19-6.04292E-21
 -1       980 7.11677E-05-1.48414E-05-2.41223E-05 4.17589E-06-1.85493E-18 2.85263E-18
 -1       981 9.48260E-05-2.78474E-05-2.87051E-05-1.35784E-06 1.27164E-19 9.90474E-19
 -1       982 9.63154E-05-2.81440E-05-2.92164E-05-5.44351E-07 6.05031E-19 8.21151E-19
 -1       983 8.33128E-05-2.89946E-05-2.32403E-05 2.35429E-05-1.15333E-18 2.29253E-18
 -1       984 8.78679E-05-2.24947E-05-2.80194E-05 2.55898E-06 1.01420E-18-1.71296E-18
 -1       985 9.55908E-05-2.46762E-05-3.03921E-05-1.17322E-06 5.99596E-20-2.99370E-19
 -1       986 8.98312E-05-2.42817E-05-2.80935E-05 4.49369E-06 1.52239E-18-1.03820E-18
 -1       987 9.64830E-05-2.71808E-05-2.97012E-05-3.09971E-08 2.80863E-19 4.56615E-19
 -1       988 9.61505E-05-2.61221E-05-3.00125E-05-5.08172E-07-1.43721E-20 1.21879E-19
 -1       989 9.82972E-05-3.79187E-05-2.58492E-05-1.96351E-05 2.08764E-19-1.54015E-18
 -1       990 9.40085E-05-2.71401E-05-2.86576E-05 4.62776E-06 8.21800E-19 1.78845E-18
 -1       991 9.66487E-05-2.80511E-05-2.93990E-05 3.62394E-07 1.75821E-19 2.25441E-19
 -1       992 1.14249E-04-4.62608E-05-2.91321E-05 7.93125E-06 1.41592E-18-3.79674E-18
 -1       993 9.55747E-05-2.43062E-05-3.05442E-05 6.33801E-09 4.98952E-19-2.29255E-19
 -1       994 7.55489E-05-2.24609E-05-2.26980E-05 1.95906E-05-9.67896E-19-1.72013E-18
 -1       995 9.64017E-05-2.88886E-05-2.89342E-05-8.18482E-07 1.70236E-19-2.75537E-20
 -1       996 9.56113E-05-2.44447E-05-3.05011E-05 4.88285E-07 6.03853E-19-2.58304E-19
 -1       997 9.65527E-05-2.87080E-05-2.90763E-05-7.07758E-07 5.90476E-19-1.57120E-19
 -1       998 1.19258E-04-4.30632E-05-3.26984E-05-5.01476E-06-6.62803E-19-1.24180E-18
 -1       999 7.65463E-05-1.86172E-05-2.48277E-05-9.96356E-06-4.78124E-19-2.19988E-19
 -1      1000 9.47150E-05-2.82132E-05-2.84992E-05 5.53960E-06 2.57223E-18-9.27510E-19
 -1      1001 8.77121E-05-2.94784E-05-2.49622E-05-1.89607E-05 6.27833E-19-1.39588E-18
 -1      1002 1.09035E-04-4.41125E-05-2.78012E-05 1.34190E-05-4.21363E-19-2.65208E-18
 -1      1003 9.59590E-05-2.88213E-05-2.87733E-05-9.18316E-07 5.50347E-19 3.97952E-19
 -1      1004 9.15517E-05-2.57686E-05-2.81941E-05 5.41962E-06 1.03635E-18-1.23234E-18
 -1      1005 1.13249E-04-4.60676E-05-2.87877E-05-9.27976E-06-6.38785E-19-1.90273E-18
 -1      1006 9.62546E-05-2.65082E-05-2.98911E-05 3.56995E-07 2.17157E-19-2.80649E-19
 -1      1007 9.58602E-05-2.53314E-05-3.02274E-05 8.94171E-07 5.22846E-19-2.58151E-19
 -1      1008 9.68363E-05-2.82772E-05-2.93826E-05 3.00343E-07 3.93991E-21-6.17199E-20
 -1      1009 9.61973E-05-2.89120E-05-2.88365E-05-8.77792E-07 2.31334E-19 1.34801E-19
 -1      1010 9.65438E-05-2.76159E-05-2.95406E-05-1.66673E-07 2.59061E-19-1.10765E-19
 -1      1011 7.11458E-05-1.70741E-05-2.31384E-05 1.18860E-05-5.01293E-19-6.45327E-19
 -1      1012 9.66148E-05-2.89147E-05-2.90143E-05 5.02847E-07 3.04296E-19-2.23487E-19
 -1      1013 9.63678E-05-2.89255E-05-2.89039E-05 5.41820E-07 1.39486E-19-3.18549E-19
 -1      1014 9.60640E-05-2.87952E-05-2.88295E-05 5.64179E-07 3.05168E-19-4.50564E-19
 -1      1015 9.57127E-05-2.85538E-05-2.87824E-05 5.82388E-07 2.22160E-19-1.78670E-19
 -1      1016 9.52890E-05-2.81971E-05-2.87537E-05 6.04017E-07 2.31155E-19-9.91859E-21
 -1      1017 9.48202E-05-2.77656E-05-2.87377E-05 6.27767E-07 7.07501E-19 1.16809E-19
 -1      1018 9.42672E-05-2.72442E-05-2.87242E-05 6.48039E-07-2.96458E-20-4.74405E-19
 -1      1019 9.36008E-05-2.66264E-05-2.87034E-05 6.48720E-07 5.37182E-19-1.31751E-19
 -1      1020 9.27841E-05-2.59036E-05-2.86631E-05 6.01137E-07-2.73023E-19 3.70858E-19
 -1      1021 9.17718E-05-2.50685E-05-2.85872E-05 4.59356E-07 1.24136E-19 8.34794E-19
 -1      1022 9.05107E-05-2.41192E-05-2.84537E-05 1.54226E-07 4.01156E-19 4.24515E-19
 -1      1023 8.89397E-05-2.30655E-05-2.82320E-05-4.14019E-07 2.39053E-19 4.27118E-19
 -1      1024 8.69891E-05-2.19372E-05-2.78798E-05-1.38517E-06-9.28642E-19-5.23266E-19
 -1      1025 8.45762E-05-2.07929E-05-2.73363E-05-2.95048E-06-1.19430E-19-8.31918E-19
 -1      1026 8.16144E-05-1.97348E-05-2.65205E-05-5.31265E-06 4.45704E-20-6.41838E-19
 -1      1027 8.48357E-05-2.08265E-05-2.74343E-05 2.74786E-06 6.74799E-20-1.53076E-18
 -1      1028 9.52305E-05-2.81957E-05-2.87292E-05-7.93492E-07 5.66845E-19 3.87868E-19
 -1      1029 9.67837E-05-2.87194E-05-2.91704E-05 4.29825E-07 4.56053E-20-2.98661E-19
 -1      1030 9.55962E-05-2.85030E-05-2.87542E-05-7.03876E-07 6.09196E-20 3.31191E-19
 -1      1031 9.35153E-05-2.67245E-05-2.86246E-05-1.89547E-06-7.62292E-19-3.61829E-19
 -1      1032 9.39673E-05-2.70757E-05-2.86678E-05-1.45945E-06-3.84853E-19 9.39939E-20
 -1      1033 9.27503E-05-2.63664E-05-2.84502E-05-3.29609E-06 1.42138E-19-1.47441E-19
 -1      1034 9.25957E-05-2.65559E-05-2.83026E-05-4.34777E-06-6.18123E-19-1.88356E-19
 -1      1035 9.27810E-05-2.71897E-05-2.81103E-05-5.68413E-06-1.02342E-18 1.32994E-19
 -1      1036 9.35328E-05-2.84724E-05-2.78836E-05-7.30350E-06-2.77075E-19 3.05238E-19
 -1      1037 9.51947E-05-3.06791E-05-2.76490E-05-9.16418E-06-9.22541E-19 1.14625E-19
 -1      1038 9.81572E-05-3.40158E-05-2.74882E-05-1.09512E-05-1.64320E-19-5.81497E-19
 -1      1039 1.02966E-04-3.86883E-05-2.75359E-05-1.21490E-05-1.50448E-19-1.27870E-18
 -1      1040 9.57982E-05-2.49046E-05-3.03833E-05-5.92611E-07 2.13299E-19-3.87297E-19
 -1      1041 1.04972E-04-4.04595E-05-2.76654E-05 1.23328E-05-2.88856E-19-2.74842E-18
 -1      1042 9.62812E-05-3.17163E-05-2.76692E-05 9.85680E-06-7.89150E-19 5.54530E-19
 -1      1043 9.44115E-05-2.92242E-05-2.79360E-05 8.02818E-06 4.73016E-19 1.13130E-18
 -1      1044 9.48357E-05-2.78418E-05-2.87117E-05-9.35325E-07 2.17372E-19 6.41303E-19
 -1      1045 7.79241E-05-1.90695E-05-2.52201E-05 8.94584E-06-6.14819E-19 1.32494E-18
 -1      1046 9.47692E-05-3.46737E-05-2.57531E-05 1.88180E-05-2.01806E-18-2.31113E-19
 -1      1047 8.74800E-05-2.31721E-05-2.75625E-05 5.41909E-06 1.29693E-18-1.81327E-18
 -1      1048 9.67216E-05-2.75080E-05-2.96638E-05 7.95918E-08 1.99904E-19-2.44948E-19
 -1      1049 9.96607E-05-3.53991E-05-2.75387E-05 1.14983E-05-5.52557E-19-3.62633E-19
 -1      1050 9.44127E-05-2.74602E-05-2.86940E-05-1.14929E-06 4.51514E-21 4.31666E-19
 -1      1051 8.17152E-05-1.98326E-05-2.65239E-05 5.20044E-06-5.85942E-20 5.97508E-19
 -1      1052 9.30898E-05-2.64612E-05-2.85551E-05-2.49356E-06-4.19550E-19-4.02588E-19
 -1      1053 9.64969E-05-2.89419E-05-2.89522E-05-5.68957E-07 1.88215E-19 2.67743E-19
 -1      1054 8.78903E-05-2.96870E-05-2.50239E-05 1.89629E-05-1.00790E-18 1.71766E-18
 -1      1055 9.66968E-05-2.88256E-05-2.90877E-05-5.05753E-07 4.68242E-19 3.76507E-19
 -1      1056 8.35547E-05-2.34094E-05-2.57704E-05-1.22946E-05 2.37759E-19-2.09063E-18
 -1      1057 9.62737E-05-2.59442E-05-3.01410E-05 1.09902E-07 4.61303E-19-1.36141E-19
 -1      1058 9.45758E-05-3.27769E-05-2.64740E-05-1.51625E-05 7.60118E-19-1.04957E-18
 -1      1059 9.66174E-05-2.83113E-05-2.92741E-05-5.06610E-07 4.67004E-19-9.28876E-20
 -1      1060 9.59323E-05-2.87445E-05-2.87948E-05-6.49156E-07 1.13101E-19 2.19809E-19
 -1      1061 8.98633E-05-2.51851E-05-2.77108E-05 6.70652E-06 1.39692E-18-2.95383E-19
 -1      1062 9.64134E-05-2.65248E-05-2.99511E-05-1.69091E-07 3.36154E-19-2.54051E-19
 -1      1063 9.32238E-05-2.71050E-05-2.83382E-05 5.70773E-06 5.16718E-19 2.03204E-18
 -1      1064 9.65165E-05-2.68755E-05-2.98457E-05 9.50124E-08 2.43046E-19-5.44045E-19
 -1      1065 8.08643E-05-2.26200E-05-2.48923E-05 1.39483E-05-3.37084E-20-1.18874E-19
 -1      1066 9.65904E-05-2.89503E-05-2.89887E-05 2.04400E-07 1.70009E-19-6.89468E-19
 -1      1067 9.62957E-05-2.88902E-05-2.88882E-05 2.13341E-07 7.36757E-20-3.72533E-19
 -1      1068 9.59451E-05-2.86975E-05-2.88203E-05 2.12331E-07 1.55254E-19-5.50883E-19
 -1      1069 9.55248E-05-2.83849E-05-2.87743E-05 2.02387E-07 3.98436E-19-9.73981E-20
 -1      1070 9.50668E-05-2.79947E-05-2.87452E-05 1.80180E-07 1.71916E-19 6.62943E-20
 -1      1071 9.45424E-05-2.75240E-05-2.87222E-05 1.35217E-07 3.30036E-19-3.14086E-19
 -1      1072 9.39340E-05-2.69765E-05-2.86961E-05 4.96527E-08 2.36064E-19 3.17771E-19
 -1      1073 9.32198E-05-2.63557E-05-2.86562E-05-1.05209E-07 4.03310E-19-3.26523E-19
 -1      1074 9.23769E-05-2.56692E-05-2.85892E-05-3.72998E-07 2.45824E-19-5.17817E-19
 -1      1075 9.13834E-05-2.49343E-05-2.84785E-05-8.17371E-07-3.83365E-19-1.20175E-19
 -1      1076 9.02234E-05-2.41852E-05-2.83026E-05-1.52814E-06-9.30904E-20-6.86038E-19
 -1      1077 8.88939E-05-2.34834E-05-2.80339E-05-2.62824E-06-9.60277E-19-1.63789E-18
 -1      1078 8.74178E-05-2.29340E-05-2.76375E-05-4.27984E-06-9.04539E-19-1.27214E-18
 -1      1079 8.58553E-05-2.26835E-05-2.70777E-05-6.70122E-06-3.67064E-19-1.71553E-18
 -1      1080 9.68097E-05-2.88402E-05-2.91298E-05 1.83636E-07 1.08754E-19-7.56177E-19
 -1      1081 9.53986E-05-2.83017E-05-2.87557E-05-3.77546E-07 4.17430E-19-8.27493E-19
 -1      1082 9.63360E-05-2.60844E-05-3.01066E-05-1.18974E-07 4.28804E-19-3.57359E-19
 -1      1083 8.59431E-05-2.32948E-05-2.68445E-05 8.34220E-06-6.51841E-19-3.10504E-18
 -1      1084 9.62808E-05-2.61480E-05-3.00573E-05 2.76359E-07 2.56485E-19-4.40939E-19
 -1      1085 9.07755E-05-2.53541E-05-2.80364E-05-4.69833E-06-7.35921E-19-9.14949E-19
 -1      1086 9.13177E-05-2.53440E-05-2.82736E-05-3.32308E-06-1.86584E-19-8.71089E-19
 -1      1087 9.08204E-05-2.70235E-05-2.73412E-05-8.96446E-06-6.38363E-19-8.84101E-19
 -1      1088 9.19349E-05-2.92428E-05-2.68860E-05-1.18540E-05-5.36839E-19-6.70258E-19
 -1      1089 9.49540E-05-2.79206E-05-2.87285E-05-4.65609E-07 2.38084E-19-6.39333E-19
 -1      1090 9.34384E-05-2.77773E-05-2.81418E-05 6.71702E-06 6.44407E-19 4.76661E-19
 -1      1091 9.15442E-05-2.78335E-05-2.73120E-05 9.92272E-06-1.19594E-18 5.55384E-19
 -1      1092 9.62372E-05-2.89021E-05-2.88579E-05-6.09691E-07 2.66825E-19-1.24035E-19
 -1      1093 9.44605E-05-2.74834E-05-2.87043E-05-6.06423E-07-1.11891E-19-3.03212E-19
 -1      1094 9.67092E-05-2.71469E-05-2.98125E-05 3.77999E-09 1.55823E-19-2.78484E-19
 -1      1095 9.26543E-05-2.60249E-05-2.85551E-05-1.63523E-06-3.03140E-19-1.12080E-18
 -1      1096 9.68691E-05-2.78606E-05-2.95750E-05 7.04252E-08 1.44493E-19-5.29652E-19
 -1      1097 9.31175E-05-3.05426E-05-2.67983E-05 1.29861E-05-1.39561E-18-7.10970E-19
 -1      1098 9.05045E-05-2.58256E-05-2.77189E-05-6.56784E-06-5.90331E-19-4.79543E-19
 -1      1099 9.33080E-05-2.65081E-05-2.86283E-05-1.15216E-06-1.07222E-19-4.74313E-19
 -1      1100 9.67645E-05-2.78799E-05-2.95227E-05-2.02129E-07 2.30545E-19-3.49389E-19
 -1      1101 9.39124E-05-2.70055E-05-2.86742E-05-8.24226E-07 2.24486E-19-4.18072E-19
 -1      1102 8.32810E-05-2.26719E-05-2.59497E-05 1.10682E-05-1.45196E-18-2.11575E-18
 -1      1103 9.19743E-05-2.56093E-05-2.84416E-05-2.33327E-06-5.75768E-19-1.39118E-18
 -1      1104 9.69249E-05-2.85116E-05-2.93206E-05 1.40135E-07 7.33147E-20-7.45478E-19
 -1      1105 9.57997E-05-2.86129E-05-2.87944E-05-3.23240E-07 5.47113E-19-4.37445E-19
 -1      1106 9.67202E-05-2.89103E-05-2.90613E-05-2.41249E-07 4.56750E-19 1.14943E-19
 -1      1107 9.66379E-05-2.70657E-05-2.98154E-05 1.66789E-08 1.51342E-19-3.94939E-19
 -1      1108 9.68085E-05-2.85043E-05-2.92738E-05-3.91437E-07 3.01620E-19 2.29652E-19
 -1      1109 9.64710E-05-2.89478E-05-2.89384E-05-2.68730E-07 3.13361E-19-1.85506E-21
 -1      1110 9.10560E-05-2.64404E-05-2.76961E-05 7.67499E-06-3.11314E-19 1.03606E-18
 -1      1111 9.61393E-05-2.88183E-05-2.88518E-05-1.51616E-07 4.70018E-20-2.56387E-19
 -1      1112 9.68871E-05-2.79142E-05-2.95596E-05-7.82037E-08-2.80745E-20-1.74675E-19
 -1      1113 9.68824E-05-2.86777E-05-2.92299E-05-1.99431E-07 1.26787E-19-2.09083E-19
 -1      1114 1.16832E-04 2.57496E-10-4.18467E-05-4.14647E-05-1.96088E-19 2.07968E-18
 -1      1115 8.86332E-05 7.18908E-11-3.72443E-05-2.41738E-05-8.01505E-20-1.14207E-18
 -1      1116 8.40662E-05 4.14463E-11-3.57622E-05-1.78863E-05-4.43634E-20-2.17167E-18
 -1      1117 8.23318E-05 3.20125E-11-3.50713E-05-1.38459E-05-1.17261E-20-2.47711E-18
 -1      1118 8.15363E-05 2.73516E-11-3.47404E-05-1.05420E-05-7.38507E-21-2.52584E-18
 -1      1119 8.11400E-05 2.46179E-11-3.45776E-05-7.64693E-06 2.87197E-21-2.39163E-18
 -1      1120 8.09348E-05 2.29673E-11-3.44959E-05-4.98427E-06 1.94950E-20-2.23245E-18
 -1      1121 8.08355E-05 2.20761E-11-3.44576E-05-2.43443E-06 1.63368E-20-1.93915E-18
 -1      1122 8.08074E-05 2.18060E-11-3.44470E-05 5.26895E-08 2.28128E-20-1.69430E-18
 -1      1123 8.08398E-05 2.21198E-11-3.44590E-05 2.54232E-06 3.51982E-20-1.38291E-18
 -1      1124 8.09434E-05 2.30684E-11-3.44986E-05 5.10057E-06 3.79841E-20-1.00498E-18
 -1      1125 8.11546E-05 2.47804E-11-3.45813E-05 7.77958E-06 4.40854E-20-5.29435E-19
 -1      1126 8.15575E-05 2.76446E-11-3.47462E-05 1.07014E-05 5.30322E-20 1.88948E-19
 -1      1127 8.23567E-05 3.25083E-11-3.50811E-05 1.40514E-05 5.92129E-20 1.11788E-18
 -1      1128 8.40639E-05 4.19023E-11-3.57820E-05 1.81389E-05 6.98802E-20 2.50208E-18
 -1      1129 8.83290E-05 6.67120E-11-3.73148E-05 2.40156E-05 3.88576E-20 4.68068E-18
 -1      1130 1.06597E-04 1.63870E-10-4.06262E-05 3.61915E-05-1.22820E-20 8.13734E-18
 -1      1131 1.30193E-04-2.57495E-05-4.02644E-05-2.61049E-05-6.79744E-19 4.00647E-18
 -1      1132 9.74235E-05-2.88527E-05-3.15675E-05-6.81082E-07-2.44290E-19 2.62993E-18
 -1      1133 9.01197E-05-2.70145E-05-2.78811E-05 3.86715E-07-5.37998E-20 7.44740E-19
 -1      1134 8.82021E-05-2.65583E-05-2.66295E-05 2.50370E-07-5.18543E-20-3.94559E-19
 -1      1135 8.78366E-05-2.64295E-05-2.63711E-05 1.65386E-07-5.39884E-20-1.28781E-18
 -1      1136 8.81890E-05-2.65042E-05-2.64540E-05 1.17462E-07-5.48743E-20-1.80140E-18
 -1      1137 8.88692E-05-2.66869E-05-2.66549E-05 8.66954E-08-6.28699E-20-2.35774E-18
 -1      1138 8.96793E-05-2.69175E-05-2.68962E-05 6.52819E-08 6.17687E-20-2.32807E-18
 -1      1139 9.05110E-05-2.71600E-05-2.71444E-05 4.93871E-08 4.18173E-20-2.82987E-18
 -1      1140 9.13052E-05-2.73943E-05-2.73821E-05 3.71054E-08-4.51924E-20-3.51089E-18
 -1      1141 9.20329E-05-2.76105E-05-2.76008E-05 2.74328E-08-9.78718E-20-4.58727E-18
 -1      1142 9.26851E-05-2.78053E-05-2.77976E-05 1.97858E-08 9.00710E-20-4.54457E-18
 -1      1143 9.32671E-05-2.79800E-05-2.79740E-05 1.37939E-08-6.00917E-20-4.80232E-18
 -1      1144 9.37947E-05-2.81390E-05-2.81346E-05 9.21479E-09 1.39929E-19-4.82406E-18
 -1      1145 9.42925E-05-2.82896E-05-2.82868E-05 5.90596E-09-8.22150E-21-3.57497E-18
 -1      1146 9.47933E-05-2.84418E-05-2.84407E-05 3.82835E-09-8.37786E-20-3.64284E-18
 -1      1147 9.53395E-05-2.86082E-05-2.86090E-05 3.05938E-09-3.39913E-20-3.96943E-18
 -1      1148 9.59853E-05-2.88056E-05-2.88085E-05 3.75293E-09 1.25351E-20-4.01011E-18
 -1      1149 9.68248E-05-2.90610E-05-2.90686E-05 5.95260E-09-1.45770E-19-4.68143E-18
 -1      1150 9.79403E-05-2.94012E-05-2.94142E-05 1.37445E-08 5.46154E-20-5.38047E-18
 -1      1151 9.94258E-05-2.98532E-05-2.98749E-05 2.54402E-08 7.87633E-20-4.76506E-18
 -1      1152 1.01472E-04-3.04742E-05-3.05096E-05 4.54892E-08 1.01942E-19-4.95428E-18
 -1      1153 1.04301E-04-3.13305E-05-3.13866E-05 7.88210E-08 1.18441E-19-3.63982E-18
 -1      1154 1.08198E-04-3.25060E-05-3.25911E-05 1.32708E-07 1.14331E-19-2.98534E-18
 -1      1155 1.13496E-04-3.40979E-05-3.42169E-05 2.16115E-07-1.52165E-19-3.56363E-18
 -1      1156 1.20503E-04-3.61950E-05-3.63343E-05 3.35151E-07-2.22015E-21-4.12669E-18
 -1      1157 1.29293E-04-3.88166E-05-3.89115E-05 4.77546E-07 2.15355E-19-5.86771E-18
 -1      1158 1.39238E-04-4.17732E-05-4.16657E-05 5.75752E-07-9.66395E-20-6.14914E-18
 -1      1159 1.48199E-04-4.44170E-05-4.38718E-05 4.45414E-07-2.24331E-20-5.71334E-18
 -1      1160 1.51712E-04-4.53912E-05-4.43140E-05-2.28211E-07-1.23045E-19-4.97881E-18
 -1      1161 1.43790E-04-4.29098E-05-4.18004E-05-1.60808E-06-1.84097E-20-5.18511E-18
 -1      1162 1.22589E-04-3.64176E-05-3.65998E-05-2.96947E-06 6.47583E-20-5.57729E-18
 -1      1163 9.64189E-05-2.87911E-05-3.08703E-05-2.71856E-06-3.88748E-19-8.02945E-18
 -1      1164 8.28553E-05-2.49716E-05-2.81127E-05-1.35016E-07-3.92203E-19-1.19678E-17
 -1      1165 9.33181E-05-2.79011E-05-3.02426E-05 2.49763E-06 3.37384E-19-1.13089E-17
 -1      1166 1.19496E-04-3.55325E-05-3.58601E-05 3.05003E-06-1.12976E-19-9.60705E-18
 -1      1167 1.42213E-04-4.24015E-05-4.13755E-05 1.73515E-06-3.77340E-19-7.34420E-18
 -1      1168 1.51243E-04-4.52345E-05-4.41395E-05 3.14901E-07 5.51366E-20-6.02855E-18
 -1      1169 1.48382E-04-4.44657E-05-4.38756E-05-4.14859E-07 2.98897E-19-3.51826E-18
 -1      1170 1.39573E-04-4.18690E-05-4.17332E-05-5.79381E-07-7.54902E-20-3.47490E-18
 -1      1171 1.29467E-04-3.88659E-05-3.89487E-05-4.93389E-07-1.21880E-19-3.85522E-18
 -1      1172 1.20372E-04-3.61538E-05-3.62897E-05-3.53147E-07 1.99218E-19-5.86634E-18
 -1      1173 1.13005E-04-3.39501E-05-3.40685E-05-2.33876E-07 1.75644E-19-6.84440E-18
 -1      1174 1.07334E-04-3.22477E-05-3.23326E-05-1.50529E-07 5.91633E-19-4.16968E-18
 -1      1175 1.03074E-04-3.09647E-05-3.10212E-05-9.73849E-08 2.82730E-21-3.17348E-18
 -1      1176 9.99180E-05-3.00119E-05-3.00511E-05-6.43902E-08 2.39967E-19-3.67066E-18
 -1      1177 9.76318E-05-2.93204E-05-2.93544E-05-4.12191E-08 2.02914E-19-4.07724E-18
 -1      1178 9.60855E-05-2.88521E-05-2.88889E-05-1.61949E-08 5.27363E-19-2.25136E-18
 -1      1179 9.52547E-05-2.86009E-05-2.86244E-05 2.93880E-08 2.67565E-19-2.54949E-18
 -1      1180 9.51428E-05-2.86033E-05-2.84887E-05 8.16985E-08 1.06253E-18-4.87835E-18
 -1      1181 1.31029E-04-3.77311E-05-3.86510E-05 1.21734E-05-1.18955E-19 1.06303E-17
 -1      1182 9.65255E-05-2.81811E-05-3.13194E-05 8.02022E-07-7.06743E-21 1.00259E-17
 -1      1183 9.03302E-05-2.69221E-05-2.78583E-05 1.19788E-07-1.74767E-20 9.16941E-18
 -1      1184 8.82888E-05-2.64911E-05-2.66631E-05 7.48093E-09-3.23626E-20 8.72942E-18
 -1      1185 8.78808E-05-2.63982E-05-2.63982E-05-2.68397E-08 1.67802E-20 8.65056E-18
 -1      1186 8.82140E-05-2.64894E-05-2.64708E-05-3.44309E-08 5.30132E-20 8.20238E-18
 -1      1187 8.88863E-05-2.66816E-05-2.66664E-05-3.49763E-08-6.51736E-21 7.94485E-18
 -1      1188 8.96937E-05-2.69176E-05-2.69054E-05-3.27026E-08-7.81218E-20 8.45966E-18
 -1      1189 9.05259E-05-2.71636E-05-2.71528E-05-2.91575E-08 1.61259E-21 8.20044E-18
 -1      1190 9.13229E-05-2.74006E-05-2.73907E-05-2.49805E-08 9.79534E-20 7.60748E-18
 -1      1191 9.20558E-05-2.76193E-05-2.76104E-05-2.05595E-08 8.73707E-20 7.28271E-18
 -1      1192 9.27153E-05-2.78165E-05-2.78089E-05-1.61570E-08 5.14653E-20 6.89198E-18
 -1      1193 9.33063E-05-2.79936E-05-2.79874E-05-1.19601E-08 1.18517E-19 6.06035E-18
 -1      1194 9.38427E-05-2.81547E-05-2.81502E-05-8.11878E-09-2.33095E-19 6.00375E-18
 -1      1195 9.43455E-05-2.83059E-05-2.83032E-05-4.77955E-09 5.08638E-20 6.03723E-18
 -1      1196 9.48396E-05-2.84545E-05-2.84539E-05-2.11858E-09 6.81649E-20 5.53434E-18
 -1      1197 9.53528E-05-2.86089E-05-2.86105E-05-3.73183E-10-1.31315E-19 6.87636E-18
 -1      1198 9.59126E-05-2.87770E-05-2.87809E-05 1.32415E-10 5.50547E-20 7.27608E-18
 -1      1199 9.65435E-05-2.89660E-05-2.89723E-05-1.02381E-09 1.97639E-19 5.57327E-18
 -1      1200 9.72621E-05-2.91806E-05-2.91888E-05-4.33995E-09-1.66280E-19 4.18201E-18
 -1      1201 9.80704E-05-2.94212E-05-2.94303E-05-1.03070E-08-8.18499E-20 4.81736E-18
 -1      1202 9.89462E-05-2.96807E-05-2.96888E-05-1.92231E-08 3.42318E-20 5.63237E-18
 -1      1203 9.98320E-05-2.99419E-05-2.99458E-05-3.08574E-08 8.28310E-20 4.90762E-18
 -1      1204 1.00622E-04-3.01732E-05-3.01682E-05-4.39402E-08 6.96114E-21 4.33796E-18
 -1      1205 1.01155E-04-3.03266E-05-3.03068E-05-5.55399E-08 1.06352E-19 5.35407E-18
 -1      1206 1.01211E-04-3.03382E-05-3.02975E-05-6.05915E-08-3.31716E-20 6.58532E-18
 -1      1207 1.00538E-04-3.01347E-05-3.00694E-05-5.21357E-08 2.76824E-19 5.29775E-18
 -1      1208 9.89059E-05-2.96491E-05-2.95621E-05-2.30600E-08 5.70093E-20 5.15065E-18
 -1      1209 9.61962E-05-2.88476E-05-2.87522E-05 3.00437E-08 1.66404E-19 4.93749E-18
 -1      1210 9.25172E-05-2.77614E-05-2.76828E-05 1.01732E-07-1.74627E-19 5.08762E-18
 -1      1211 8.82934E-05-2.65130E-05-2.64828E-05 1.74280E-07 1.47377E-19 4.84468E-18
 -1      1212 8.42571E-05-2.53148E-05-2.53583E-05 2.20878E-07-3.20566E-20 3.37024E-18
 -1      1213 8.12891E-05-2.44254E-05-2.45457E-05 2.17205E-07-2.11891E-19 5.09341E-18
 -1      1214 8.01287E-05-2.40664E-05-2.42368E-05 1.56113E-07-1.97597E-19 4.97534E-18
 -1      1215 8.10800E-05-2.43348E-05-2.45069E-05 5.46985E-08-2.29384E-19 5.24319E-18
 -1      1216 8.38791E-05-2.51592E-05-2.52851E-05-5.33292E-08 3.09994E-20 2.50200E-18
 -1      1217 8.78069E-05-2.63289E-05-2.63820E-05-1.35181E-07-1.58773E-19-1.17261E-19
 -1      1218 9.19764E-05-2.75779E-05-2.75603E-05-1.73680E-07 1.61770E-19-6.64736E-19
 -1      1219 9.56292E-05-2.86760E-05-2.86105E-05-1.70462E-07 3.69162E-20-1.68430E-18
 -1      1220 9.83095E-05-2.94836E-05-2.93988E-05-1.39228E-07-1.05150E-19-4.63843E-19
 -1      1221 9.98830E-05-2.99588E-05-2.98776E-05-9.63063E-08-1.02485E-19 8.94771E-19
 -1      1222 1.00453E-04-3.01323E-05-3.00675E-05-5.42021E-08-4.39431E-20 2.43289E-18
 -1      1223 1.00249E-04-3.00730E-05-3.00284E-05-1.96212E-08-1.18469E-19 1.09319E-18
 -1      1224 9.95313E-05-2.98594E-05-2.98333E-05 5.58207E-09-2.21097E-20-1.54917E-18
 -1      1225 9.85375E-05-2.95632E-05-2.95520E-05 2.24143E-08-7.81666E-20-3.59350E-18
 -1      1226 9.74639E-05-2.92430E-05-2.92441E-05 3.27984E-08 2.29360E-19-7.46011E-18
 -1      1227 9.64681E-05-2.89459E-05-2.89587E-05 3.80004E-08 3.73399E-19-9.09379E-18
 -1      1228 9.56853E-05-2.87119E-05-2.87357E-05 3.54489E-08 3.13951E-19-7.49612E-18
 -1      1229 9.52406E-05-2.85770E-05-2.85983E-05 1.51175E-08 2.72256E-19-7.68289E-18
 -1      1230 9.51780E-05-2.85537E-05-2.85256E-05-2.04825E-08-2.31024E-19-4.85954E-18
 -1      1231 9.52553E-05-2.86321E-05-2.85266E-05-1.99978E-08-4.84283E-18-7.63928E-19
 -1      1232 9.52234E-05-2.85594E-05-2.86001E-05-1.68515E-08-2.98753E-18 2.43884E-19
 -1      1233 9.50910E-05-2.81185E-05-2.87390E-05 1.67114E-08-8.16055E-19-2.96736E-19
 -1      1234 9.48631E-05-2.73467E-05-2.89601E-05 3.31088E-08-1.94564E-18-3.04904E-19
 -1      1235 9.45717E-05-2.63629E-05-2.92430E-05 4.09717E-08-1.26568E-18 3.99142E-19
 -1      1236 9.42566E-05-2.52961E-05-2.95508E-05 4.33982E-08-5.69781E-18-6.10907E-19
 -1      1237 9.39530E-05-2.42644E-05-2.98478E-05 4.08615E-08-3.54943E-18 3.48822E-21
 -1      1238 9.36981E-05-2.33953E-05-3.00956E-05 3.18884E-08-1.57791E-18-1.64295E-20
 -1      1239 9.35352E-05-2.28361E-05-3.02522E-05 1.64367E-08 5.30469E-18 9.06138E-19
 -1      1240 9.34983E-05-2.27045E-05-3.02850E-05-4.70753E-09 9.82145E-18 2.58965E-20
 -1      1241 9.36068E-05-2.30692E-05-3.01762E-05-2.89356E-08 4.69936E-18-1.07813E-18
 -1      1242 9.38564E-05-2.39120E-05-2.99338E-05-5.19042E-08 2.31969E-18 3.86236E-19
 -1      1243 9.42135E-05-2.51285E-05-2.95899E-05-6.65108E-08-5.16240E-19 1.42822E-18
 -1      1244 9.46216E-05-2.65202E-05-2.92033E-05-6.63333E-08 4.57239E-18 2.23974E-19
 -1      1245 9.49886E-05-2.77726E-05-2.88583E-05-3.84309E-08 1.08902E-17-4.99328E-20
 -1      1246 9.52237E-05-2.85561E-05-2.86217E-05 4.37266E-08 1.04127E-17 4.57117E-19
 -1      1247 9.52136E-05-2.86681E-05-2.84862E-05 7.28424E-08 7.12192E-18-8.95801E-19
 -1      1248 3.48856E-05-1.09132E-04 1.88091E-05-1.37587E-05 1.19427E-17 6.53804E-19
 -1      1249 1.66043E-05-6.10989E-05 8.78985E-06-2.29099E-05 1.31587E-17 4.84926E-18
 -1      1250 7.85096E-06-3.39646E-06-7.63503E-06 4.42608E-06 1.07844E-17 6.09356E-18
 -1      1251 3.48438E-05 2.84250E-05-2.74088E-05 5.74398E-05 4.47403E-18 3.81334E-18
 -1      1252 1.08768E-04 1.55963E-05-4.79210E-05 1.05371E-04 1.67289E-18 3.07473E-18
 -1      1253 2.11025E-04-3.31434E-05-6.57648E-05 1.12334E-04 8.98702E-19 7.02190E-19
 -1      1254 2.93164E-04-8.15091E-05-7.70218E-05 6.18128E-05-1.04439E-18-1.09462E-17
 -1      1255 3.14081E-04-9.45972E-05-7.94508E-05-2.18834E-05 1.32513E-18-2.18647E-17
 -1      1256 2.57293E-04-5.88351E-05-7.25271E-05-9.21062E-05 6.50479E-18-2.34603E-17
 -1      1257 1.59527E-04-5.98441E-06-5.73389E-05-1.14660E-04 7.56146E-18-1.58819E-17
 -1      1258 6.76382E-05 2.75763E-05-3.80479E-05-8.50144E-05 9.73410E-18-1.07793E-17
 -1      1259 1.60878E-05 1.79452E-05-1.76012E-05-3.01470E-05 8.44322E-18-6.93889E-18
 -1      1260 9.18878E-06-3.10551E-05 1.18427E-06 1.40717E-05 6.35275E-18-3.32969E-18
 -1      1261 2.65366E-05-8.86172E-05 1.47435E-05 2.22492E-05 2.02695E-18-4.45751E-19
 -1      1262 3.93576E-05-1.19799E-04 2.06392E-05-1.40694E-06-6.06857E-18-1.24810E-18
 -1      1263 2.75554E-05-9.72754E-05 1.67442E-05-2.80630E-05-1.20889E-17-3.20030E-18
 -1      1264 9.03275E-06-3.73233E-05 2.00074E-06-2.00798E-05-1.04558E-17-5.67258E-18
 -1      1265 1.94995E-05 1.21881E-05-1.84178E-05 2.77278E-05-9.48338E-18-8.50421E-18
 -1      1266 8.10877E-05 1.83794E-05-4.06508E-05 8.56888E-05-5.73102E-18-6.89315E-18
 -1      1267 1.89660E-04-2.13052E-05-6.25342E-05 1.15757E-04-1.65934E-18-2.41743E-18
 -1      1268 2.98595E-04-7.77821E-05-7.84543E-05 8.70846E-05 1.20279E-19 3.06202E-18
 -1      1269 3.47284E-04-1.05775E-04-8.47457E-05 5.74399E-06-3.88788E-19 1.32711E-17
 -1      1270 3.09462E-04-8.39465E-05-7.98834E-05-7.93289E-05-3.08987E-18 1.66357E-17
 -1      1271 2.07876E-04-2.93953E-05-6.55793E-05-1.15371E-04-8.61771E-18 1.90040E-17
 -1      1272 1.00428E-04 1.38444E-05-4.52745E-05-9.58184E-05-1.02728E-17 1.58056E-17
 -1      1273 2.75912E-05 1.76313E-05-2.28108E-05-3.97243E-05-1.03202E-17 9.74596E-18
 -1      1274 7.19654E-06-2.37923E-05-1.84029E-06 1.36721E-05-5.52265E-18 4.60701E-18
 -1      1275 2.11901E-05-8.16020E-05 1.34335E-05 3.18847E-05 6.35105E-18-7.62330E-19
 -1      1276 3.75673E-05-1.17555E-04 2.04192E-05 1.51924E-05 1.01475E-17-3.22323E-19
 -1      1277 1.04417E-04-2.20128E-05-3.78835E-05-1.72777E-05-2.72956E-19 1.16700E-18
 -1      1278 9.03023E-05-6.67848E-06-3.60108E-05-2.04791E-05-4.85244E-19-1.63636E-18
 -1      1279 9.26347E-05-6.73665E-06-3.72148E-05-2.57655E-05-6.61321E-19-1.10077E-18
 -1      1280 8.58936E-05-4.09589E-06-3.51258E-05-1.64408E-05-3.06414E-19-2.29054E-18
 -1      1281 8.71434E-05-4.08893E-06-3.55940E-05-1.88612E-05-3.96729E-19-2.03643E-18
 -1      1282 9.21181E-05-1.04604E-05-3.50879E-05-1.90430E-05-7.51106E-19-1.39755E-18
 -1      1283 8.40939E-05-3.18948E-06-3.46858E-05-1.28278E-05-1.05059E-19-2.54316E-18
 -1      1284 8.46988E-05-3.15901E-06-3.49083E-05-1.46405E-05-1.78433E-19-2.46148E-18
 -1      1285 8.78545E-05-7.39331E-06-3.45701E-05-1.54178E-05-4.01732E-19-1.95770E-18
 -1      1286 8.31927E-05-2.72932E-06-3.44726E-05-9.69334E-06 2.37831E-20-2.50702E-18
 -1      1287 8.35038E-05-2.71264E-06-3.45804E-05-1.12419E-05-2.75683E-20-2.55190E-18
 -1      1288 8.58648E-05-5.98487E-06-3.43051E-05-1.19674E-05-1.42871E-19-2.16541E-18
 -1      1289 8.27046E-05-2.45808E-06-3.43682E-05-6.92085E-06 1.56612E-19-2.37405E-18
 -1      1290 8.28720E-05-2.44976E-06-3.44218E-05-8.29243E-06 1.11378E-19-2.44139E-18
 -1      1291 8.48292E-05-5.21813E-06-3.41760E-05-8.94843E-06 1.19832E-19-2.09093E-18
 -1      1292 8.24333E-05-2.29337E-06-3.43166E-05-4.29915E-06 2.33735E-19-2.11132E-18
 -1      1293 8.25226E-05-2.28942E-06-3.43433E-05-5.60149E-06 2.20821E-19-2.25170E-18
 -1      1294 8.42475E-05-4.76338E-06-3.41142E-05-6.22192E-06 2.78803E-19-1.94683E-18
 -1      1295 8.23031E-05-2.20427E-06-3.42951E-05-1.79170E-06 4.13628E-19-1.89023E-18
 -1      1296 8.23412E-05-2.20266E-06-3.43059E-05-3.04398E-06 3.52437E-19-2.00622E-18
 -1      1297 8.39292E-05-4.50089E-06-3.40864E-05-3.64792E-06 4.74886E-19-1.68720E-18
 -1      1298 8.22774E-05-2.17676E-06-3.42926E-05 6.70658E-07 4.68666E-19-1.64944E-18
 -1      1299 8.22761E-05-2.17680E-06-3.42923E-05-5.66470E-07 4.59004E-19-1.81209E-18
 -1      1300 8.37897E-05-4.38143E-06-3.40762E-05-1.17147E-06 7.13320E-19-1.52320E-18
 -1      1301 8.23496E-05-2.20695E-06-3.43073E-05 3.15172E-06 5.68230E-19-1.28901E-18
 -1      1302 8.23087E-05-2.20858E-06-3.42959E-05 1.89688E-06 5.29126E-19-1.49218E-18
 -1      1303 8.37945E-05-4.38556E-06-3.40765E-05 1.27505E-06 8.10498E-19-1.26659E-18
 -1      1304 8.25397E-05-2.29980E-06-3.43456E-05 5.71835E-06 6.78877E-19-9.61065E-19
 -1      1305 8.24469E-05-2.30321E-06-3.43184E-05 4.41008E-06 6.41709E-19-1.16464E-18
 -1      1306 8.39446E-05-4.51432E-06-3.40874E-05 3.75560E-06 9.87789E-19-9.66041E-19
 -1      1307 8.28942E-05-2.46506E-06-3.44240E-05 8.40205E-06 6.86176E-19-3.84513E-19
 -1      1308 8.27241E-05-2.47384E-06-3.43700E-05 7.02144E-06 6.77051E-19-7.08821E-19
 -1      1309 8.42733E-05-4.78702E-06-3.41150E-05 6.31616E-06 1.09043E-18-5.67618E-19
 -1      1310 8.35457E-05-2.74134E-06-3.45848E-05 1.14031E-05 8.41818E-19 3.30052E-19
 -1      1311 8.32276E-05-2.75856E-06-3.44755E-05 9.83788E-06 7.81467E-19-6.47980E-20
 -1      1312 8.48700E-05-5.25894E-06-3.41761E-05 9.06097E-06 1.18331E-18 1.42672E-20
 -1      1313 8.47634E-05-3.20548E-06-3.49165E-05 1.48513E-05 8.82238E-19 1.28773E-18
 -1      1314 8.41522E-05-3.24036E-06-3.46912E-05 1.30107E-05 8.43433E-19 7.25920E-19
 -1      1315 8.59461E-05-6.06272E-06-3.43062E-05 1.21285E-05 1.33665E-18 7.35436E-19
 -1      1316 8.72390E-05-4.08774E-06-3.56151E-05 1.91008E-05 8.22998E-19 2.79259E-18
 -1      1317 8.59640E-05-4.15323E-06-3.51334E-05 1.67045E-05 7.77470E-19 1.93325E-18
 -1      1318 8.79818E-05-7.51793E-06-3.45722E-05 1.56590E-05 1.28970E-18 1.79264E-18
 -1      1319 9.34473E-05-6.78999E-06-3.71109E-05 2.50996E-05 5.25478E-19 5.00210E-18
 -1      1320 9.01150E-05-6.43368E-06-3.60336E-05 2.11539E-05 5.83606E-19 3.69688E-18
 -1      1321 9.23400E-05-1.06918E-05-3.50730E-05 1.96853E-05 1.10564E-18 3.28469E-18
 -1      1322 1.23603E-04-2.49178E-05-3.90080E-05 2.83670E-05 7.11508E-20 8.23655E-18
 -1      1323 1.00060E-04-1.44190E-05-3.73478E-05 2.40532E-05 1.61995E-19 6.12659E-18
 -1      1324 1.01662E-04-1.93385E-05-3.53968E-05 2.14046E-05 7.64858E-19 5.24991E-18
 -1      1325 1.02580E-04-2.77972E-05-3.47508E-05 7.33121E-06 2.89712E-19 8.29542E-18
 -1      1326 1.05121E-04-3.02220E-05-3.35175E-05-7.96224E-06-5.87947E-19 1.56447E-18
 -1      1327 9.82319E-05-2.78343E-05-3.07536E-05-4.99075E-06-5.03032E-19 8.63656E-19
 -1      1328 9.54733E-05-2.78404E-05-2.92456E-05-2.49242E-06-4.20181E-19 6.18579E-19
 -1      1329 9.32382E-05-2.75486E-05-2.82055E-05-2.04572E-06-3.95009E-19 2.15993E-20
 -1      1330 9.94596E-05-2.80449E-05-3.09752E-05-7.89125E-06-8.89543E-19 3.65018E-20
 -1      1331 9.15470E-05-2.71903E-05-2.75707E-05-8.41109E-07-3.24553E-19-1.75362E-19
 -1      1332 9.08275E-05-2.70939E-05-2.72676E-05-7.30942E-07-2.79336E-19-6.37260E-19
 -1      1333 9.46902E-05-2.77616E-05-2.88080E-05-3.12585E-06-6.57615E-19-2.83743E-19
 -1      1334 9.00759E-05-2.69107E-05-2.70239E-05-1.76607E-07-2.26472E-19-8.25857E-19
 -1      1335 9.00007E-05-2.69366E-05-2.69883E-05-1.18482E-07-2.39535E-19-1.17773E-18
 -1      1336 9.24881E-05-2.74903E-05-2.78863E-05-1.05852E-06-5.02277E-19-6.69130E-19
 -1      1337 8.97405E-05-2.68690E-05-2.69138E-05 1.52093E-07-1.14591E-19-1.24825E-18
 -1      1338 8.99526E-05-2.69582E-05-2.69747E-05 1.80823E-07-1.78469E-19-1.43569E-18
 -1      1339 9.15275E-05-2.73458E-05-2.75188E-05-7.45173E-08-3.49705E-19-8.47245E-19
 -1      1340 8.99563E-05-2.69614E-05-2.69812E-05 3.12558E-07-1.92206E-19-1.50511E-18
 -1      1341 9.02968E-05-2.70803E-05-2.70798E-05 3.24435E-07-1.44604E-19-1.70759E-18
 -1      1342 9.12737E-05-2.73336E-05-2.74108E-05 4.13893E-07-3.46738E-19-9.87442E-19
 -1      1343 9.04401E-05-2.71224E-05-2.71274E-05 3.80326E-07-2.01520E-20-1.64764E-18
 -1      1344 9.08272E-05-2.72502E-05-2.72393E-05 3.82347E-07-7.20909E-20-1.76487E-18
 -1      1345 9.14079E-05-2.74073E-05-2.74336E-05 6.44541E-07-1.66776E-19-9.97252E-19
 -1      1346 9.10389E-05-2.73115E-05-2.73069E-05 3.95310E-07-1.52976E-19-1.66231E-18
 -1      1347 9.14282E-05-2.74364E-05-2.74197E-05 3.91730E-07-1.71022E-19-2.01730E-18
 -1      1348 9.17455E-05-2.75271E-05-2.75244E-05 7.31535E-07-2.32801E-19-1.14058E-18
 -1      1349 9.16668E-05-2.75052E-05-2.74950E-05 3.81085E-07-2.92014E-19-2.01542E-18
 -1      1350 9.20345E-05-2.76210E-05-2.76021E-05 3.74699E-07-3.70083E-19-2.39670E-18
 -1      1351 9.21780E-05-2.76666E-05-2.76481E-05 7.37565E-07-3.84713E-19-1.03156E-18
 -1      1352 9.22767E-05-2.76905E-05-2.76781E-05 3.52755E-07-3.12680E-19-2.42510E-18
 -1      1353 9.26123E-05-2.77946E-05-2.77763E-05 3.45483E-07-1.54770E-19-2.80719E-18
 -1      1354 9.26424E-05-2.78100E-05-2.77846E-05 7.00808E-07-4.30178E-19-1.03633E-18
 -1      1355 9.28464E-05-2.78616E-05-2.78495E-05 3.20562E-07 7.56694E-20-2.99470E-18
 -1      1356 9.31483E-05-2.79541E-05-2.79383E-05 3.13771E-07-8.00087E-20-3.06616E-18
 -1      1357 9.31040E-05-2.79487E-05-2.79225E-05 6.46254E-07-1.44984E-19-1.13485E-18
 -1      1358 9.33709E-05-2.80177E-05-2.80078E-05 2.91826E-07-1.99578E-19-3.03417E-18
 -1      1359 9.36437E-05-2.81002E-05-2.80884E-05 2.86544E-07-1.42842E-19-3.28036E-18
 -1      1360 9.35477E-05-2.80793E-05-2.80568E-05 5.91230E-07-1.83835E-19-1.70951E-18
 -1      1361 9.38573E-05-2.81610E-05-2.81550E-05 2.72175E-07 8.71496E-20-3.14635E-18
 -1      1362 9.41106E-05-2.82367E-05-2.82301E-05 2.69248E-07 1.93520E-19-2.95279E-18
 -1      1363 9.39723E-05-2.82019E-05-2.81866E-05 5.48548E-07 8.04855E-20-1.66496E-18
 -1      1364 9.43224E-05-2.82967E-05-2.82961E-05 2.66436E-07 2.40781E-19-2.83170E-18
 -1      1365 9.45702E-05-2.83699E-05-2.83699E-05 2.66665E-07-6.06061E-20-2.64708E-18
 -1      1366 9.43870E-05-2.83196E-05-2.83147E-05 5.28603E-07 2.26163E-19-2.09021E-18
 -1      1367 9.47917E-05-2.84325E-05-2.84389E-05 2.79389E-07-1.18600E-19-2.47790E-18
 -1      1368 9.50522E-05-2.85088E-05-2.85167E-05 2.83659E-07-1.33582E-19-2.75458E-18
 -1      1369 9.48097E-05-2.84376E-05-2.84463E-05 5.41003E-07 1.00146E-19-1.72424E-18
 -1      1370 9.52991E-05-2.85782E-05-2.85938E-05 3.16503E-07-2.48940E-19-2.55265E-18
 -1      1371 9.55961E-05-2.86647E-05-2.86826E-05 3.25938E-07-2.94260E-19-2.95074E-18
 -1      1372 9.52665E-05-2.85635E-05-2.85895E-05 5.96016E-07-2.92645E-19-1.39496E-18
 -1      1373 9.58888E-05-2.87463E-05-2.87742E-05 3.84724E-07-6.36416E-20-2.76647E-18
 -1      1374 9.62531E-05-2.88527E-05-2.88830E-05 4.00697E-07-2.31061E-19-2.78823E-18
 -1      1375 9.57924E-05-2.87071E-05-2.87551E-05 7.05978E-07-1.83298E-19-1.45110E-18
 -1      1376 9.66380E-05-2.89597E-05-2.90038E-05 4.97713E-07-6.90402E-19-2.74264E-18
 -1      1377 9.71362E-05-2.91046E-05-2.91529E-05 5.25061E-07-5.54379E-19-3.51282E-18
 -1      1378 9.64507E-05-2.88851E-05-2.89633E-05 8.92586E-07-5.54826E-19-1.55665E-18
 -1      1379 9.76140E-05-2.92368E-05-2.93034E-05 6.64727E-07-6.63415E-20-3.75125E-18
 -1      1380 9.82539E-05-2.94234E-05-2.94945E-05 7.01569E-07 8.02555E-20-3.75543E-18
 -1      1381 9.72904E-05-2.91115E-05-2.92291E-05 1.17810E-06-5.90269E-19-2.09380E-18
 -1      1382 9.88835E-05-2.95972E-05-2.96936E-05 9.00276E-07-1.62420E-19-3.64329E-18
 -1      1383 9.97571E-05-2.98526E-05-2.99543E-05 9.53093E-07-2.21299E-19-3.84676E-18
 -1      1384 9.83621E-05-2.93987E-05-2.95690E-05 1.58191E-06-2.48502E-19-2.78882E-18
 -1      1385 1.00595E-04-3.00827E-05-3.02203E-05 1.22966E-06 7.24379E-20-4.00148E-18
 -1      1386 1.01796E-04-3.04360E-05-3.05786E-05 1.30359E-06 2.81949E-19-3.67927E-18
 -1      1387 9.97790E-05-2.97782E-05-3.00186E-05 2.14853E-06 8.45345E-20-2.91707E-18
 -1      1388 1.02911E-04-3.07411E-05-3.09341E-05 1.67958E-06 6.35764E-19-3.19930E-18
 -1      1389 1.04563E-04-3.12302E-05-3.14259E-05 1.78100E-06 2.05918E-19-2.61566E-18
 -1      1390 1.01660E-04-3.02830E-05-3.06148E-05 2.92556E-06 6.58509E-19-2.55561E-18
 -1      1391 1.06035E-04-3.16331E-05-3.18970E-05 2.27599E-06 6.93012E-20-2.71006E-18
 -1      1392 1.08284E-04-3.23061E-05-3.25646E-05 2.41093E-06 2.81748E-19-2.27860E-18
 -1      1393 1.04149E-04-3.09562E-05-3.14010E-05 3.96212E-06 3.88001E-19-2.31593E-18
 -1      1394 1.10198E-04-3.28332E-05-3.31769E-05 3.02814E-06-1.09280E-19-2.32626E-18
 -1      1395 1.13195E-04-3.37453E-05-3.40613E-05 3.19782E-06-4.86025E-19-2.91633E-18
 -1      1396 1.07406E-04-3.18550E-05-3.24214E-05 5.28708E-06 8.80782E-20-2.05875E-18
 -1      1397 1.15613E-04-3.44248E-05-3.48292E-05 3.89050E-06-5.06754E-19-2.77520E-18
 -1      1398 1.19446E-04-3.56233E-05-3.59465E-05 4.08001E-06-3.23256E-19-3.30772E-18
 -1      1399 1.11584E-04-3.30557E-05-3.37068E-05 6.85468E-06-5.83487E-19-1.42489E-18
 -1      1400 1.22364E-04-3.64816E-05-3.68508E-05 4.68492E-06-2.85807E-19-4.13050E-18
 -1      1401 1.26905E-04-3.79651E-05-3.81408E-05 4.83877E-06-2.75474E-19-4.85593E-18
 -1      1402 1.16771E-04-3.46605E-05-3.52445E-05 8.43052E-06-1.16275E-18-2.42834E-18
 -1      1403 1.30163E-04-3.90140E-05-3.90910E-05 4.97283E-06 2.04899E-19-4.39621E-18
 -1      1404 1.34773E-04-4.06382E-05-4.03352E-05 4.95505E-06 8.50077E-20-4.24056E-18
 -1      1405 1.22873E-04-3.67931E-05-3.69273E-05 9.39502E-06 1.24793E-19-3.18977E-18
 -1      1406 1.37940E-04-4.18394E-05-4.11343E-05 3.93173E-06 2.48009E-19-3.84585E-18
 -1      1407 1.41102E-04-4.31469E-05-4.18814E-05 3.49135E-06 5.61636E-19-3.07338E-18
 -1      1408 1.29427E-04-3.95297E-05-3.85002E-05 8.51615E-06 6.49992E-19-2.03841E-18
 -1      1409 1.43344E-04-4.42840E-05-4.22490E-05 5.16198E-07 2.08873E-19-3.06223E-18
 -1      1410 1.42585E-04-4.43410E-05-4.18932E-05-6.05343E-07-9.46295E-20-2.85916E-18
 -1      1411 1.35297E-04-4.26021E-05-3.95812E-05 4.01086E-06 3.34552E-19-1.41333E-18
 -1      1412 1.42673E-04-4.47564E-05-4.16327E-05-5.49121E-06-2.66868E-19-2.88722E-18
 -1      1413 1.35841E-04-4.24555E-05-3.98575E-05-7.10010E-06-6.14999E-19-3.26743E-18
 -1      1414 1.38413E-04-4.47924E-05-3.98688E-05-5.24334E-06-1.83700E-19-8.62385E-19
 -1      1415 1.32998E-04-4.12800E-05-3.91689E-05-1.12215E-05-7.53482E-19-3.35679E-18
 -1      1416 1.21781E-04-3.67491E-05-3.66602E-05-1.20431E-05-6.91483E-19-4.12251E-18
 -1      1417 1.36187E-04-4.35415E-05-3.95367E-05-1.63580E-05-9.87415E-19-1.75947E-18
 -1      1418 1.16647E-04-3.38952E-05-3.59356E-05-1.11463E-05-1.12618E-18-5.31916E-18
 -1      1419 1.06468E-04-2.93437E-05-3.39004E-05-9.72357E-06-1.51095E-18-6.92746E-18
 -1      1420 1.28253E-04-3.76577E-05-3.91139E-05-2.11077E-05-2.11785E-18-2.89640E-18
 -1      1421 1.03652E-04-2.75811E-05-3.36266E-05-2.44558E-06-7.92082E-19-7.07463E-18
 -1      1422 1.02800E-04-2.71905E-05-3.34796E-05 3.69943E-07-5.06102E-19-7.79207E-18
 -1      1423 1.19655E-04-3.06331E-05-3.89911E-05-1.12770E-05-1.52964E-18-4.47296E-18
 -1      1424 1.05010E-04-2.86008E-05-3.36794E-05 8.63789E-06-5.00385E-19-7.84892E-18
 -1      1425 1.14285E-04-3.27763E-05-3.54984E-05 1.03730E-05-5.03985E-20-7.54537E-18
 -1      1426 1.18818E-04-2.99410E-05-3.89584E-05 8.28723E-06-6.52851E-19-4.15341E-18
 -1      1427 1.19354E-04-3.56615E-05-3.61666E-05 1.22722E-05 4.68277E-19-7.85200E-18
 -1      1428 1.31343E-04-4.06200E-05-3.87916E-05 1.15635E-05-1.76871E-19-7.47041E-18
 -1      1429 1.26818E-04-3.65574E-05-3.90434E-05 2.06221E-05 5.55865E-21-6.15631E-18
 -1      1430 1.34612E-04-4.19953E-05-3.95416E-05 7.62463E-06-2.66087E-19-6.50564E-18
 -1      1431 1.41986E-04-4.45882E-05-4.14283E-05 6.00609E-06 3.90204E-19-6.38599E-18
 -1      1432 1.35407E-04-4.31392E-05-3.94262E-05 1.72572E-05 3.12707E-19-6.59987E-18
 -1      1433 1.42104E-04-4.42382E-05-4.17282E-05 1.04474E-06 9.81261E-19-5.43065E-18
 -1      1434 1.43273E-04-4.43376E-05-4.21841E-05-1.38467E-07 8.01320E-19-4.41994E-18
 -1      1435 1.38218E-04-4.47599E-05-3.97987E-05 6.11493E-06 1.29959E-18-4.29319E-18
 -1      1436 1.41125E-04-4.32186E-05-4.18523E-05-3.30614E-06 1.90371E-19-3.49634E-18
 -1      1437 1.38144E-04-4.19612E-05-4.11599E-05-3.79747E-06 1.13807E-19-3.53372E-18
 -1      1438 1.35422E-04-4.27681E-05-3.95536E-05-3.50143E-06 1.04757E-18-2.52830E-18
 -1      1439 1.34975E-04-4.07422E-05-4.03718E-05-4.96783E-06 1.07209E-19-3.38623E-18
 -1      1440 1.30355E-04-3.91042E-05-3.91310E-05-5.01362E-06-3.63543E-19-2.92893E-18
 -1      1441 1.29611E-04-3.96816E-05-3.85057E-05-8.40900E-06 2.31611E-19-2.78360E-18
 -1      1442 1.27030E-04-3.80242E-05-3.81677E-05-4.96042E-06-7.71819E-19-2.36428E-18
 -1      1443 1.22375E-04-3.64975E-05-3.68482E-05-4.81783E-06-6.63836E-19-3.02327E-18
 -1      1444 1.22967E-04-3.68734E-05-3.69286E-05-9.55160E-06-6.24558E-19-1.73066E-18
 -1      1445 1.19356E-04-3.56050E-05-3.59155E-05-4.24821E-06-3.45848E-19-3.10467E-18
 -1      1446 1.15361E-04-3.43528E-05-3.47530E-05-4.06245E-06-3.90648E-19-3.41545E-18
 -1      1447 1.16687E-04-3.46571E-05-3.52085E-05-8.71869E-06-1.22597E-18-8.74065E-19
 -1      1448 1.12825E-04-3.36376E-05-3.39492E-05-3.38193E-06-3.87160E-19-4.13151E-18
 -1      1449 1.09651E-04-3.26688E-05-3.30136E-05-3.21298E-06-2.25258E-20-4.61474E-18
 -1      1450 1.11281E-04-3.29720E-05-3.36127E-05-7.19645E-06-8.24448E-19-1.56836E-18
 -1      1451 1.07616E-04-3.21060E-05-3.23634E-05-2.59595E-06 1.09832E-18-5.18662E-18
 -1      1452 1.05189E-04-3.13763E-05-3.16442E-05-2.46018E-06 3.11649E-19-3.94274E-18
 -1      1453 1.06868E-04-3.16940E-05-3.22602E-05-5.64252E-06 6.27493E-19-3.45055E-18
 -1      1454 1.03600E-04-3.09388E-05-3.11370E-05-1.95534E-06-1.00241E-19-3.23898E-18
 -1      1455 1.01781E-04-3.03957E-05-3.05975E-05-1.85099E-06-8.01538E-20-3.54665E-18
 -1      1456 1.03378E-04-3.07202E-05-3.11727E-05-4.30597E-06 8.13605E-19-3.80047E-18
 -1      1457 1.00567E-04-3.00593E-05-3.02120E-05-1.45000E-06 5.88000E-19-3.56928E-18
 -1      1458 9.92281E-05-2.96591E-05-2.98160E-05-1.36882E-06-3.20615E-20-3.90013E-18
 -1      1459 1.00677E-04-2.99746E-05-3.03272E-05-3.22856E-06 1.17880E-19-2.62590E-18
 -1      1460 9.83223E-05-2.94040E-05-2.95320E-05-1.04063E-06-4.74247E-19-2.96766E-18
 -1      1461 9.73753E-05-2.91182E-05-2.92540E-05-9.71947E-07 4.02791E-19-2.45529E-18
 -1      1462 9.86271E-05-2.94030E-05-2.96891E-05-2.36205E-06-2.36574E-19-2.91437E-18
 -1      1463 9.67307E-05-2.89307E-05-2.90565E-05-6.79787E-07 7.43245E-19-2.75604E-18
 -1      1464 9.61339E-05-2.87489E-05-2.88817E-05-6.12136E-07-2.97405E-20-2.35507E-18
 -1      1465 9.71202E-05-2.89692E-05-2.92274E-05-1.62604E-06 3.49203E-19-2.04607E-18
 -1      1466 9.57159E-05-2.86249E-05-2.87572E-05-3.32047E-07-9.41934E-19-2.67699E-18
 -1      1467 9.54561E-05-2.85452E-05-2.86674E-05-2.54391E-07-4.01082E-19-3.22034E-18
 -1      1468 9.60785E-05-2.86552E-05-2.89141E-05-9.45162E-07-6.42206E-19-3.16953E-18
 -1      1469 9.52758E-05-2.85094E-05-2.86110E-05-5.60296E-08 2.78412E-20-4.31589E-18
 -1      1470 9.52634E-05-2.85507E-05-2.85484E-05-3.84160E-08 1.23652E-18-2.89970E-18
 -1      1471 9.52814E-05-2.85392E-05-2.86075E-05-5.68318E-08 5.59126E-18 2.53944E-19
 -1      1472 9.54977E-05-2.84760E-05-2.87322E-05-3.91636E-07-5.25083E-19-2.42982E-18
 -1      1473 9.65468E-05-2.83536E-05-2.97626E-05 2.99685E-06 2.97600E-19 7.51133E-18
 -1      1474 1.02512E-04-2.93915E-05-3.21481E-05 4.46712E-06 3.23196E-19 7.90981E-18
 -1      1475 1.02303E-04-2.67094E-05-3.26989E-05 1.27899E-05 5.42842E-19 6.01743E-18
 -1      1476 9.19856E-05-2.74091E-05-2.77492E-05 1.15031E-06 2.45097E-19 6.86825E-18
 -1      1477 9.39478E-05-2.75747E-05-2.86648E-05 1.48270E-06 1.94725E-19 7.19549E-18
 -1      1478 9.64626E-05-2.80284E-05-2.95252E-05 4.88501E-06 4.34687E-19 5.47490E-18
 -1      1479 9.01545E-05-2.69856E-05-2.70509E-05 3.28731E-07 4.47670E-20 6.61480E-18
 -1      1480 9.07826E-05-2.70153E-05-2.73229E-05 4.98300E-07 6.87023E-20 6.66970E-18
 -1      1481 9.30059E-05-2.75838E-05-2.80923E-05 1.84642E-06 2.29678E-19 5.04472E-18
 -1      1482 8.96355E-05-2.68669E-05-2.68754E-05-5.22375E-08 2.83756E-19 6.39167E-18
 -1      1483 8.96877E-05-2.68178E-05-2.69035E-05 4.06300E-08 1.20598E-19 6.46207E-18
 -1      1484 9.14596E-05-2.73335E-05-2.75071E-05 4.79825E-07 1.41607E-19 4.67515E-18
 -1      1485 8.97668E-05-2.69225E-05-2.69163E-05-2.40604E-07 1.42447E-19 5.98468E-18
 -1      1486 8.95456E-05-2.68211E-05-2.68517E-05-1.89591E-07 1.59770E-19 6.23752E-18
 -1      1487 9.09200E-05-2.72370E-05-2.73093E-05-1.67981E-07 2.93679E-19 4.39309E-18
 -1      1488 9.02199E-05-2.70668E-05-2.70540E-05-3.24797E-07-1.86097E-19 6.02256E-18
 -1      1489 8.98751E-05-2.69413E-05-2.69528E-05-2.97485E-07-6.20596E-20 5.83573E-18
 -1      1490 9.09386E-05-2.72712E-05-2.72974E-05-4.78170E-07 3.87716E-20 4.16335E-18
 -1      1491 9.08175E-05-2.72508E-05-2.72342E-05-3.51405E-07 1.62833E-19 5.96870E-18
 -1      1492 9.04285E-05-2.71196E-05-2.71204E-05-3.38459E-07 1.34156E-20 5.88919E-18
 -1      1493 9.12461E-05-2.73780E-05-2.73795E-05-6.13699E-07 9.11388E-21 3.92044E-18
 -1      1494 9.14600E-05-2.74459E-05-2.74277E-05-3.45787E-07 2.24246E-19 5.65454E-18
 -1      1495 9.10699E-05-2.73194E-05-2.73135E-05-3.41538E-07 1.56363E-19 5.74779E-18
 -1      1496 9.16944E-05-2.75199E-05-2.75078E-05-6.51941E-07 2.32991E-19 3.61772E-18
 -1      1497 9.20920E-05-2.76362E-05-2.76183E-05-3.23540E-07 1.40663E-19 5.33186E-18
 -1      1498 9.17236E-05-2.75197E-05-2.75102E-05-3.24274E-07 2.38126E-19 5.61387E-18
 -1      1499 9.21971E-05-2.76740E-05-2.76551E-05-6.36573E-07 2.69060E-19 3.57292E-18
 -1      1500 9.26861E-05-2.78140E-05-2.77979E-05-2.94850E-07 1.26904E-19 5.39308E-18
 -1      1501 9.23493E-05-2.77092E-05-2.76987E-05-2.98014E-07 9.46116E-20 5.26569E-18
 -1      1502 9.27057E-05-2.78269E-05-2.78062E-05-5.94752E-07 1.42619E-19 3.37281E-18
 -1      1503 9.32333E-05-2.79768E-05-2.79635E-05-2.66611E-07 4.98908E-19 4.49033E-18
 -1      1504 9.29294E-05-2.78835E-05-2.78738E-05-2.70392E-07 4.06460E-19 5.13543E-18
 -1      1505 9.31954E-05-2.79723E-05-2.79531E-05-5.44345E-07 3.95119E-19 3.38582E-18
 -1      1506 9.37369E-05-2.81261E-05-2.81163E-05-2.43590E-07 5.71988E-20 4.18591E-18
 -1      1507 9.34616E-05-2.80421E-05-2.80347E-05-2.46660E-07 1.67041E-19 4.32220E-18
 -1      1508 9.36579E-05-2.81082E-05-2.80929E-05-4.97504E-07 3.93435E-19 2.77830E-18
 -1      1509 9.42090E-05-2.82655E-05-2.82597E-05-2.29094E-07-8.85828E-20 4.56331E-18
 -1      1510 9.39540E-05-2.81879E-05-2.81838E-05-2.30460E-07-1.81096E-19 4.30772E-18
 -1      1511 9.40957E-05-2.82358E-05-2.82259E-05-4.62620E-07-1.02935E-19 3.04840E-18
 -1      1512 9.46676E-05-2.84007E-05-2.83990E-05-2.25336E-07 2.82641E-19 4.17003E-18
 -1      1513 9.44217E-05-2.83257E-05-2.83257E-05-2.24257E-07 9.02495E-20 4.40131E-18
 -1      1514 9.45191E-05-2.83585E-05-2.83552E-05-4.45427E-07 9.53346E-20 2.81143E-18
 -1      1515 9.51344E-05-2.85384E-05-2.85408E-05-2.33566E-07-2.87997E-19 4.26892E-18
 -1      1516 9.48847E-05-2.84616E-05-2.84662E-05-2.29519E-07-2.96778E-20 4.16609E-18
 -1      1517 9.49434E-05-2.84812E-05-2.84851E-05-4.49536E-07 9.98893E-21 2.88123E-18
 -1      1518 9.56324E-05-2.86855E-05-2.86918E-05-2.53964E-07-5.88005E-20 4.91871E-18
 -1      1519 9.53656E-05-2.86026E-05-2.86121E-05-2.46678E-07-2.75999E-19 4.42996E-18
 -1      1520 9.53866E-05-2.86095E-05-2.86208E-05-4.76510E-07-4.44210E-19 2.76855E-18
 -1      1521 9.61836E-05-2.88491E-05-2.88585E-05-2.85282E-07 2.66106E-19 4.62329E-18
 -1      1522 9.58870E-05-2.87561E-05-2.87700E-05-2.74841E-07 1.90051E-19 4.74256E-18
 -1      1523 9.58672E-05-2.87497E-05-2.87675E-05-5.25460E-07 2.39709E-20 2.77561E-18
 -1      1524 9.68049E-05-2.90346E-05-2.90457E-05-3.24224E-07 6.26157E-19 3.61486E-18
 -1      1525 9.64689E-05-2.89285E-05-2.89457E-05-3.11249E-07 6.75375E-19 4.28136E-18
 -1      1526 9.64015E-05-2.89072E-05-2.89297E-05-5.92157E-07 8.92662E-19 2.79188E-18
 -1      1527 9.75037E-05-2.92448E-05-2.92552E-05-3.64554E-07-4.66715E-19 2.97464E-18
 -1      1528 9.71243E-05-2.91245E-05-2.91427E-05-3.50478E-07-6.82252E-20 3.04333E-18
 -1      1529 9.69998E-05-2.90862E-05-2.91098E-05-6.67631E-07 3.89733E-19 2.49604E-18
 -1      1530 9.82702E-05-2.94777E-05-2.94836E-05-3.96024E-07 2.03284E-19 3.21963E-18
 -1      1531 9.78533E-05-2.93454E-05-2.93607E-05-3.83448E-07-3.50768E-19 3.00485E-18
 -1      1532 9.76612E-05-2.92880E-05-2.93068E-05-7.36367E-07-4.51730E-19 2.26634E-18
 -1      1533 9.90694E-05-2.97238E-05-2.97196E-05-4.03376E-07-1.34279E-19 4.07103E-18
 -1      1534 9.86357E-05-2.95865E-05-2.95927E-05-3.96446E-07-5.92562E-20 3.65923E-18
 -1      1535 9.83678E-05-2.95089E-05-2.95139E-05-7.74397E-07-1.30602E-19 2.14893E-18
 -1      1536 9.98305E-05-2.99627E-05-2.99414E-05-3.65943E-07 1.26103E-19 3.76689E-18
 -1      1537 9.94215E-05-2.98346E-05-2.98230E-05-3.70619E-07 1.19765E-19 4.16427E-18
 -1      1538 9.90765E-05-2.97381E-05-2.97171E-05-7.48020E-07 7.52734E-23 2.56700E-18
 -1      1539 1.00439E-04-3.01605E-05-3.01139E-05-2.58826E-07 1.85264E-20 3.59400E-18
 -1      1540 1.00122E-04-3.00644E-05-3.00241E-05-2.82755E-07 1.73983E-19 3.57415E-18
 -1      1541 9.97123E-05-2.99545E-05-2.98926E-05-6.14528E-07 3.56965E-19 2.90435E-18
 -1      1542 1.00732E-04-3.02680E-05-3.01889E-05-5.70737E-08-7.80081E-20 4.58053E-18
 -1      1543 1.00602E-04-3.02356E-05-3.01555E-05-1.08612E-07-4.25937E-19 3.57963E-18
 -1      1544 1.00163E-04-3.01244E-05-3.00064E-05-3.27102E-07-3.22792E-19 2.73587E-18
 -1      1545 1.00512E-04-3.02226E-05-3.01086E-05 2.55577E-07 1.02304E-19 4.31178E-18
 -1      1546 1.00684E-04-3.02926E-05-3.01648E-05 1.69757E-07 8.77043E-20 4.52203E-18
 -1      1547 1.00281E-04-3.02001E-05-3.00159E-05 1.53394E-07-3.93569E-19 2.44444E-18
 -1      1548 9.95744E-05-2.99570E-05-2.98158E-05 6.72826E-07 3.84894E-19 3.72239E-18
 -1      1549 1.00166E-04-3.01683E-05-2.99941E-05 5.51897E-07 3.74064E-19 4.15003E-18
 -1      1550 9.98991E-05-3.01229E-05-2.98760E-05 8.37703E-07 5.17789E-19 2.44429E-18
 -1      1551 9.77704E-05-2.94174E-05-2.92727E-05 1.14928E-06-5.08121E-20 3.93637E-18
 -1      1552 9.88620E-05-2.97961E-05-2.95940E-05 1.00369E-06-4.91014E-20 3.67736E-18
 -1      1553 9.88668E-05-2.98324E-05-2.95500E-05 1.68014E-06 7.69940E-20 3.08498E-18
 -1      1554 9.50922E-05-2.85918E-05-2.84844E-05 1.58926E-06-1.92693E-19 3.82586E-18
 -1      1555 9.66801E-05-2.91336E-05-2.89440E-05 1.44511E-06-2.23633E-19 3.82340E-18
 -1      1556 9.71056E-05-2.92870E-05-2.90261E-05 2.55235E-06-3.72337E-19 2.85982E-18
 -1      1557 9.17590E-05-2.75405E-05-2.75209E-05 1.85473E-06 1.97229E-20 4.28530E-18
 -1      1558 9.37046E-05-2.81944E-05-2.80759E-05 1.75260E-06-1.17069E-19 4.13789E-18
 -1      1559 9.46826E-05-2.84919E-05-2.83350E-05 3.23835E-06-4.86677E-19 3.35489E-18
 -1      1560 8.82560E-05-2.64156E-05-2.65234E-05 1.80500E-06 6.15901E-19 3.75799E-18
 -1      1561 9.02683E-05-2.70782E-05-2.70898E-05 1.78874E-06 4.80689E-19 4.56442E-18
 -1      1562 9.18676E-05-2.75290E-05-2.75592E-05 3.47551E-06 5.28961E-19 2.89279E-18
 -1      1563 8.52688E-05-2.54441E-05-2.56821E-05 1.36423E-06-1.81937E-19 3.63688E-18
 -1      1564 8.69492E-05-2.59768E-05-2.61492E-05 1.46038E-06-1.68189E-19 3.58065E-18
 -1      1565 8.91345E-05-2.65657E-05-2.68275E-05 3.05217E-06 3.73760E-19 3.52120E-18
 -1      1566 8.34952E-05-2.48645E-05-2.51841E-05 5.83455E-07 8.88988E-20 3.81047E-18
 -1      1567 8.44501E-05-2.51358E-05-2.54456E-05 7.81769E-07 2.04079E-19 3.67530E-18
 -1      1568 8.70655E-05-2.58232E-05-2.62863E-05 1.93079E-06-2.42397E-20 3.02702E-18
 -1      1569 8.33904E-05-2.48354E-05-2.51492E-05-3.51054E-07-1.08450E-19 3.76976E-18
 -1      1570 8.33756E-05-2.47718E-05-2.51412E-05-1.00800E-07-2.17568E-19 3.13877E-18
 -1      1571 8.61663E-05-2.55013E-05-2.60563E-05 3.21268E-07 2.27329E-19 2.66836E-18
 -1      1572 8.49762E-05-2.53638E-05-2.55839E-05-1.18576E-06-6.53638E-20 2.99355E-18
 -1      1573 8.39986E-05-2.49828E-05-2.53097E-05-9.53866E-07 1.36577E-19 3.15983E-18
 -1      1574 8.66687E-05-2.56925E-05-2.61903E-05-1.36650E-06 1.97200E-20 2.18204E-18
 -1      1575 8.78302E-05-2.63008E-05-2.63782E-05-1.71055E-06 8.95129E-19 1.09357E-18
 -1      1576 8.61458E-05-2.57039E-05-2.59074E-05-1.55549E-06 9.34612E-19 2.85000E-18
 -1      1577 8.84304E-05-2.63380E-05-2.66539E-05-2.68807E-06 1.28683E-18 1.64111E-18
 -1      1578 9.12609E-05-2.74086E-05-2.73485E-05-1.84165E-06-1.78122E-20-2.24331E-19
 -1      1579 8.92704E-05-2.67386E-05-2.67895E-05-1.78730E-06 2.08750E-19 3.60492E-19
 -1      1580 9.09962E-05-2.72553E-05-2.73376E-05-3.35187E-06 1.07951E-18 1.00037E-18
 -1      1581 9.45649E-05-2.84534E-05-2.83010E-05-1.63010E-06 3.12284E-19-5.76035E-19
 -1      1582 9.26684E-05-2.78422E-05-2.77640E-05-1.66442E-06 1.38025E-19-3.74706E-19
 -1      1583 9.37803E-05-2.82191E-05-2.80961E-05-3.31314E-06 3.90103E-19 2.78687E-19
 -1      1584 9.72281E-05-2.92738E-05-2.90864E-05-1.20799E-06-4.32333E-19-4.57768E-19
 -1      1585 9.57127E-05-2.88077E-05-2.86526E-05-1.29807E-06 4.20009E-20-7.71197E-19
 -1      1586 9.62643E-05-2.90432E-05-2.87927E-05-2.73651E-06 1.17198E-19-2.60466E-19
 -1      1587 9.90039E-05-2.98016E-05-2.96256E-05-7.18834E-07-2.49024E-19 2.18243E-19
 -1      1588 9.80026E-05-2.95124E-05-2.93348E-05-8.29089E-07-2.84385E-19-7.34298E-19
 -1      1589 9.81195E-05-2.96240E-05-2.93323E-05-1.88073E-06-2.57227E-19-7.06247E-21
 -1      1590 9.98817E-05-3.00448E-05-2.99062E-05-2.70507E-07-1.47306E-19 1.07891E-18
 -1      1591 9.93932E-05-2.99216E-05-2.97610E-05-3.74327E-07-3.36778E-19 2.85996E-19
 -1      1592 9.92288E-05-2.99398E-05-2.96722E-05-9.86735E-07-4.64062E-19 1.58739E-19
 -1      1593 1.00003E-04-3.00558E-05-2.99626E-05 7.91388E-08 9.06540E-20 5.36048E-19
 -1      1594 9.99411E-05-3.00642E-05-2.99406E-05-3.83972E-09-1.05179E-19 5.29001E-19
 -1      1595 9.96395E-05-3.00241E-05-2.98158E-05-2.16774E-07-2.63745E-19 4.18052E-19
 -1      1596 9.95737E-05-2.99033E-05-2.98518E-05 3.13915E-07 1.79904E-19 4.41781E-20
 -1      1597 9.98184E-05-3.00015E-05-2.99195E-05 2.56215E-07-8.97673E-20 8.26089E-20
 -1      1598 9.94931E-05-2.99356E-05-2.97961E-05 3.53659E-07-7.05519E-20-5.80335E-19
 -1      1599 9.88059E-05-2.96536E-05-2.96354E-05 4.42655E-07 6.96306E-19-1.76319E-18
 -1      1600 9.92359E-05-2.98025E-05-2.97581E-05 4.08775E-07 8.93011E-19 6.61414E-20
 -1      1601 9.89632E-05-2.97360E-05-2.96598E-05 7.13644E-07 9.35710E-19-5.54171E-19
 -1      1602 9.78844E-05-2.93623E-05-2.93692E-05 4.83760E-07 1.56460E-18-4.64135E-18
 -1      1603 9.83951E-05-2.95298E-05-2.95162E-05 4.70082E-07 1.27302E-18-2.43980E-18
 -1      1604 9.82169E-05-2.94789E-05-2.94547E-05 8.86944E-07 2.12925E-18-2.10103E-18
 -1      1605 9.69602E-05-2.90733E-05-2.91000E-05 4.54623E-07 2.42709E-19-6.24871E-18
 -1      1606 9.74664E-05-2.92339E-05-2.92458E-05 4.58007E-07 5.18518E-19-4.98149E-18
 -1      1607 9.73963E-05-2.92063E-05-2.92240E-05 9.07289E-07 1.40970E-18-3.82081E-18
 -1      1608 9.61561E-05-2.88218E-05-2.88662E-05 3.66945E-07 4.25117E-19-6.12714E-18
 -1      1609 9.65875E-05-2.89543E-05-2.89898E-05 3.85872E-07-2.75064E-19-6.12141E-18
 -1      1610 9.66157E-05-2.89498E-05-2.90034E-05 8.03283E-07 6.54879E-20-3.78013E-18
 -1      1611 9.55745E-05-2.86396E-05-2.86963E-05 2.25997E-07-3.62317E-19-5.32100E-18
 -1      1612 9.58690E-05-2.87230E-05-2.87819E-05 2.61814E-07 3.76557E-19-5.39672E-18
 -1      1613 9.59645E-05-2.87337E-05-2.88205E-05 5.94272E-07-3.55241E-20-2.90341E-18
 -1      1614 9.52854E-05-2.85560E-05-2.85963E-05 5.79550E-08-5.04989E-19-3.72697E-18
 -1      1615 9.53973E-05-2.85741E-05-2.86414E-05 1.02348E-07-3.78208E-19-4.68833E-18
 -1      1616 9.55033E-05-2.85801E-05-2.86884E-05 3.04239E-07-2.32390E-19-2.51056E-18
 -1      1617 9.52281E-05-2.85631E-05-2.85632E-05-1.24621E-08-1.99045E-18-2.12909E-18
 -1      1618 9.52099E-05-2.83189E-05-2.86723E-05 1.81468E-07-1.32700E-18 7.79567E-19
 -1      1619 9.52498E-05-2.84544E-05-2.86234E-05 1.39169E-07-2.89451E-18 1.20013E-18
 -1      1620 9.50450E-05-2.77971E-05-2.88235E-05 3.56850E-07-1.04199E-18 3.38118E-19
 -1      1621 9.51442E-05-2.81015E-05-2.87358E-05 3.21423E-07-9.12739E-19-5.96891E-19
 -1      1622 9.51938E-05-2.81202E-05-2.87531E-05 5.03524E-07-1.70311E-18 1.71055E-19
 -1      1623 9.48063E-05-2.70578E-05-2.90361E-05 4.83442E-07-1.53648E-18-2.36973E-19
 -1      1624 9.49452E-05-2.74881E-05-2.89128E-05 4.62419E-07-1.50478E-18-9.15441E-20
 -1      1625 9.50075E-05-2.75928E-05-2.89004E-05 8.00147E-07-7.47112E-19-2.67668E-19
 -1      1626 9.45273E-05-2.61820E-05-2.92911E-05 5.54428E-07-6.96440E-19 4.78864E-19
 -1      1627 9.46892E-05-2.66845E-05-2.91463E-05 5.45075E-07-1.44634E-18 1.53949E-18
 -1      1628 9.47759E-05-2.69124E-05-2.90892E-05 9.99312E-07-8.07017E-19 6.14175E-19
 -1      1629 9.42391E-05-2.52789E-05-2.95545E-05 5.62677E-07-2.80568E-18-3.63012E-19
 -1      1630 9.44031E-05-2.57863E-05-2.94082E-05 5.65738E-07-1.45491E-18-1.39540E-18
 -1      1631 9.45162E-05-2.61453E-05-2.93029E-05 1.08669E-06-9.70830E-19-1.90074E-18
 -1      1632 9.39641E-05-2.44246E-05-2.98027E-05 5.01896E-07-4.25856E-19 1.40190E-18
 -1      1633 9.41160E-05-2.48902E-05-2.96688E-05 5.18813E-07-2.18421E-18 1.12833E-18
 -1      1634 9.42499E-05-2.53629E-05-2.95199E-05 1.04867E-06 6.49122E-19 8.36173E-19
 -1      1635 9.37442E-05-2.37515E-05-2.99966E-05 3.68446E-07 5.40663E-19 1.38487E-19
 -1      1636 9.38595E-05-2.40997E-05-2.98971E-05 3.99653E-07-4.04505E-19 9.38195E-19
 -1      1637 9.40023E-05-2.46486E-05-2.97153E-05 8.73767E-07 5.91514E-19 1.19418E-18
 -1      1638 9.36156E-05-2.33705E-05-3.01043E-05 1.68059E-07 4.68229E-18 2.38831E-18
 -1      1639 9.36734E-05-2.35392E-05-3.00567E-05 2.11820E-07 1.40044E-18 2.08755E-18
 -1      1640 9.38088E-05-2.41071E-05-2.98600E-05 5.62429E-07 1.24335E-18 2.09296E-18
 -1      1641 9.36082E-05-2.33684E-05-3.01015E-05-7.99961E-08 3.91452E-18-1.20710E-18
 -1      1642 9.35928E-05-2.33123E-05-3.01185E-05-2.84681E-08 3.97200E-18 1.19143E-18
 -1      1643 9.37027E-05-2.38297E-05-2.99299E-05 1.36217E-07 6.24350E-19 1.71279E-18
 -1      1644 9.37371E-05-2.37832E-05-2.99788E-05-3.41123E-07 2.89420E-18-1.93167E-18
 -1      1645 9.36429E-05-2.34882E-05-3.00638E-05-2.89805E-07 4.75630E-18-1.56119E-18
 -1      1646 9.37109E-05-2.38832E-05-2.99091E-05-3.55694E-07 2.00014E-18-5.54992E-19
 -1      1647 9.39904E-05-2.45668E-05-2.97520E-05-5.64590E-07 2.80375E-18 1.45499E-18
 -1      1648 9.38276E-05-2.40713E-05-2.98931E-05-5.24590E-07 3.16986E-18-8.20848E-19
 -1      1649 9.38460E-05-2.42858E-05-2.97959E-05-8.33011E-07 2.90147E-18-2.25212E-18
 -1      1650 9.43432E-05-2.56337E-05-2.94478E-05-7.04839E-07 2.48929E-18 3.66503E-19
 -1      1651 9.41303E-05-2.49971E-05-2.96273E-05-6.85118E-07 2.02916E-18 1.94557E-18
 -1      1652 9.40982E-05-2.50005E-05-2.96027E-05-1.20416E-06 3.61912E-18 1.18588E-18
 -1      1653 9.47297E-05-2.67801E-05-2.91255E-05-7.07943E-07 5.25242E-18 1.97876E-18
 -1      1654 9.45103E-05-2.61340E-05-2.93061E-05-7.20037E-07 2.83800E-18 1.79592E-18
 -1      1655 9.44420E-05-2.59358E-05-2.93573E-05-1.37433E-06 3.33567E-18 1.77503E-18
 -1      1656 9.50743E-05-2.77698E-05-2.88508E-05-5.38327E-07 5.69756E-18-4.26023E-20
 -1      1657 9.48958E-05-2.72625E-05-2.89933E-05-5.96551E-07 5.52138E-18-1.36745E-19
 -1      1658 9.48203E-05-2.69317E-05-2.91030E-05-1.26573E-06 2.21857E-18 1.08194E-18
 -1      1659 9.52479E-05-2.83387E-05-2.86741E-05-2.68493E-07 5.60228E-18 1.61471E-19
 -1      1660 9.51584E-05-2.80735E-05-2.87634E-05-3.47737E-07 5.58965E-18-1.05806E-18
 -1      1661 9.50923E-05-2.77069E-05-2.88952E-05-8.87433E-07 2.14555E-18-1.53198E-18
 -1      1662 9.52977E-05-2.82488E-05-2.87398E-05-4.19219E-07 1.32005E-18-8.71776E-19
 -1      1663 2.07403E-05-6.63337E-05 1.38602E-05-3.25006E-06 7.50386E-18 1.48718E-18
 -1      1664 2.48582E-05-7.95060E-05 1.67550E-05 4.56823E-06 7.65866E-18 4.19070E-19
 -1      1665 2.07517E-05-3.63119E-05 2.79535E-06 6.59611E-06 8.11966E-18 3.65368E-18
 -1      1666 2.50398E-05-6.04088E-05 9.30491E-06 1.65444E-06 7.22689E-18 3.23699E-18
 -1      1667 3.54728E-05-7.36481E-06-1.35981E-05 3.23615E-05 5.98344E-18 2.22770E-18
 -1      1668 2.90622E-05-2.85428E-05-4.54705E-06 1.34289E-05 8.28229E-18 3.37712E-18
 -1      1669 7.68267E-05 1.35845E-06-3.24087E-05 6.40179E-05 3.22635E-18 9.74935E-19
 -1      1670 5.21269E-05-3.83303E-06-2.26783E-05 4.12938E-05 4.69595E-18 2.14384E-18
 -1      1671 1.43184E-04-1.39999E-05-5.15777E-05 8.28445E-05 1.02618E-18 7.16590E-19
 -1      1672 1.00127E-04-7.32579E-07-4.18495E-05 6.98299E-05 1.52551E-18 7.61483E-19
 -1      1673 2.13312E-04-4.37019E-05-6.70082E-05 6.89147E-05 6.61639E-19-5.37866E-18
 -1      1674 1.69113E-04-2.15852E-05-5.97910E-05 7.93868E-05 1.22608E-18-1.03931E-18
 -1      1675 2.54688E-04-6.37661E-05-7.53877E-05 2.28047E-05 1.75971E-18-1.32624E-17
 -1      1676 2.30598E-04-5.00011E-05-7.19802E-05 5.42896E-05 1.96448E-18-7.52843E-18
 -1      1677 2.51277E-04-6.09525E-05-7.56114E-05-3.21986E-05 3.92303E-18-1.81574E-17
 -1      1678 2.60334E-04-6.60290E-05-7.66945E-05 4.68390E-06 1.64875E-18-1.51678E-17
 -1      1679 1.97654E-04-3.47607E-05-6.60370E-05-6.41540E-05 4.81612E-18-1.58014E-17
 -1      1680 2.33316E-04-5.35610E-05-7.15421E-05-4.27070E-05 3.82234E-18-1.73320E-17
 -1      1681 1.33397E-04-1.04756E-05-5.09027E-05-7.42327E-05 5.35325E-18-1.20050E-17
 -1      1682 1.78225E-04-2.96900E-05-5.95435E-05-7.53525E-05 4.77197E-18-1.60191E-17
 -1      1683 7.36854E-05 9.29297E-07-3.26808E-05-5.70621E-05 6.98972E-18-7.84607E-18
 -1      1684 1.07850E-04-3.95469E-06-4.22864E-05-7.59138E-05 7.11169E-18-9.00311E-18
 -1      1685 3.73911E-05-1.37312E-05-1.34571E-05-2.61127E-05 5.13133E-18-5.53705E-18
 -1      1686 5.35162E-05 3.43539E-07-2.32959E-05-4.93894E-05 6.40950E-18-7.44627E-18
 -1      1687 2.52359E-05-4.51501E-05 3.17610E-06-4.44747E-06 3.47368E-18-2.33951E-18
 -1      1688 2.46714E-05-1.99508E-05-4.82725E-06-1.71282E-05 4.67223E-18-3.77565E-18
 -1      1689 2.50799E-05-7.27481E-05 1.39888E-05-1.74839E-06-6.81862E-19-1.66611E-18
 -1      1690 1.95158E-05-5.23750E-05 9.15977E-06 5.63930E-07 1.97359E-18-1.67353E-18
 -1      1691 2.34264E-05-8.02553E-05 1.76121E-05-9.07728E-06-6.17932E-18-2.81088E-18
 -1      1692 2.32007E-05-7.78416E-05 1.68835E-05 2.53181E-06-2.25967E-18-2.31240E-18
 -1      1693 1.92093E-05-5.50037E-05 1.03000E-05-5.36888E-06-6.92873E-18-2.04797E-18
 -1      1694 2.45094E-05-7.36777E-05 1.49179E-05-2.38179E-06-5.89366E-18-1.64176E-18
 -1      1695 2.94203E-05-2.52835E-05-5.15202E-06 1.47045E-05-6.18588E-18-4.26058E-18
 -1      1696 2.81662E-05-5.08619E-05 3.96757E-06 5.69783E-07-7.20656E-18-2.85387E-18
 -1      1697 6.22810E-05-7.55762E-06-2.44323E-05 4.58846E-05-6.20875E-18-6.10033E-18
 -1      1698 4.34146E-05-1.97520E-05-1.42943E-05 2.23976E-05-5.97158E-18-5.40407E-18
 -1      1699 1.26957E-04-1.51094E-05-4.55848E-05 7.35801E-05-3.61598E-18-3.52027E-18
 -1      1700 8.58622E-05-8.35810E-06-3.45658E-05 5.33485E-05-5.16860E-18-4.33173E-18
 -1      1701 2.08870E-04-4.35797E-05-6.49326E-05 7.11416E-05-1.62080E-18 5.98005E-19
 -1      1702 1.56634E-04-2.19899E-05-5.53619E-05 7.14051E-05-3.34705E-18-2.56482E-18
 -1      1703 2.69141E-04-6.83102E-05-7.76835E-05 3.85412E-05-1.66167E-18 5.96142E-18
 -1      1704 2.32374E-04-4.94467E-05-7.22349E-05 6.40407E-05-1.94712E-18 2.04304E-18
 -1      1705 2.79422E-04-7.15054E-05-8.06449E-05-1.61410E-05-2.14321E-18 1.07364E-17
 -1      1706 2.76905E-04-7.00814E-05-8.02801E-05 2.26735E-05-1.99137E-18 7.22816E-18
 -1      1707 2.40014E-04-5.26243E-05-7.38344E-05-6.05960E-05-3.40682E-18 1.24412E-17
 -1      1708 2.73871E-04-7.01394E-05-7.87032E-05-3.23682E-05-1.53207E-18 1.21092E-17
 -1      1709 1.70211E-04-2.71341E-05-5.84529E-05-6.99229E-05-7.35225E-18 1.19093E-17
 -1      1710 2.17875E-04-4.75171E-05-6.69725E-05-6.58636E-05-5.11566E-18 1.12833E-17
 -1      1711 9.87274E-05-8.95808E-06-3.90859E-05-5.93415E-05-6.76525E-18 9.99329E-18
 -1      1712 1.42346E-04-1.96288E-05-4.96439E-05-7.59135E-05-7.09644E-18 1.17060E-17
 -1      1713 4.91377E-05-1.56996E-05-1.80929E-05-2.81511E-05-6.19859E-18 6.81014E-18
 -1      1714 7.33510E-05-6.89800E-06-2.88536E-05-5.31924E-05-7.04393E-18 9.27078E-18
 -1      1715 2.76942E-05-4.30420E-05 6.84586E-07-1.48123E-06-5.70053E-19 4.82174E-18
 -1      1716 3.11869E-05-1.92422E-05-8.44509E-06-1.85163E-05-5.71747E-18 6.84487E-18
 -1      1717 2.50180E-05-7.06903E-05 1.28626E-05 5.93670E-06 4.51214E-18 2.47122E-19
 -1      1718 1.97704E-05-4.96402E-05 7.48067E-06 4.99934E-06 1.36203E-18 3.92568E-18
 -1      1719 2.48474E-05-8.19659E-05 1.76201E-05 1.17620E-06 6.78172E-18 1.66823E-18
 -1      1720 2.21040E-05-7.55185E-05 1.63038E-05 1.08308E-05 5.25584E-18-1.97994E-19
 -1      1721 7.34539E-05-3.14005E-05-1.90064E-05 4.30414E-05 3.89042E-18-1.14773E-19
 -1      1722 1.24298E-05-5.42300E-05 1.30782E-05 5.60495E-06 3.44584E-18 1.80714E-18
 -1      1723 9.52772E-05-2.85464E-05-2.85998E-05 4.98023E-08-2.32342E-18-2.60069E-19
 -1      1724 9.53132E-05-2.84269E-05-2.86657E-05 2.33430E-07-8.83766E-19 2.97014E-19
 -1      1725 2.04554E-05-4.83163E-05 7.92608E-06 1.91599E-05 4.27709E-18 1.73472E-18
 -1      1726 4.14681E-05-4.04661E-05-3.30975E-06 3.13615E-05 4.22585E-18 1.36711E-18
 -1      1727 1.15422E-04-2.72300E-05-3.66604E-05 5.05716E-05 2.19466E-18-6.68309E-19
 -1      1728 1.61050E-04-2.85383E-05-5.35228E-05 4.79284E-05 1.13375E-18-3.95056E-18
 -1      1729 1.98171E-04-3.28257E-05-6.61409E-05 3.17349E-05 3.01480E-18-8.26958E-18
 -1      1730 2.16072E-04-3.51546E-05-7.20649E-05 6.35429E-06 3.94717E-18-1.06303E-17
 -1      1731 2.04426E-04-3.22350E-05-6.93286E-05-1.49821E-05 3.13529E-18-1.19550E-17
 -1      1732 1.77232E-04-3.02430E-05-5.94927E-05-3.34326E-05 2.36518E-18-1.18741E-17
 -1      1733 1.39182E-04-2.83783E-05-4.52353E-05-4.85009E-05 3.91329E-18-1.02449E-17
 -1      1734 9.39860E-05-2.83467E-05-2.80071E-05-4.78920E-05 4.23008E-18-6.39298E-18
 -1      1735 5.58408E-05-3.52970E-05-1.08262E-05-3.74708E-05 2.79013E-18-4.98140E-18
 -1      1736 2.88404E-05-4.46603E-05 3.11804E-06-2.43269E-05 9.71547E-19-3.27368E-18
 -1      1737 1.46513E-05-5.22558E-05 1.15288E-05-1.19462E-05-1.58988E-18-3.85188E-18
 -1      1738 1.34240E-05-5.06602E-05 1.16730E-05 4.36308E-06-2.63639E-18-2.64952E-18
 -1      1739 3.14527E-05-4.74846E-05 3.20527E-06 2.09113E-05-2.79733E-18-7.43907E-19
 -1      1740 6.43364E-05-4.37825E-05-1.14622E-05 3.24615E-05-3.33053E-18-3.60921E-18
 -1      1741 1.07544E-04-3.89700E-05-2.98809E-05 4.13189E-05-3.76167E-18-1.83383E-18
 -1      1742 1.59389E-04-3.97934E-05-4.88786E-05 4.00615E-05-3.19586E-18 2.91379E-19
 -1      1743 2.04443E-04-4.12746E-05-6.49414E-05 2.82012E-05-3.29062E-18 2.39372E-18
 -1      1744 2.30360E-04-4.09429E-05-7.43852E-05 1.13819E-05-4.12463E-18 5.45913E-18
 -1      1745 2.31565E-04-4.03966E-05-7.49714E-05-9.16547E-06-2.83544E-18 6.90480E-18
 -1      1746 2.08314E-04-4.11020E-05-6.65550E-05-2.34254E-05-3.68671E-18 7.83167E-18
 -1      1747 1.68552E-04-4.05912E-05-5.19577E-05-3.72023E-05-3.81271E-18 6.57806E-18
 -1      1748 1.17770E-04-3.84694E-05-3.37847E-05-4.23809E-05-3.56601E-18 7.41239E-18
 -1      1749 7.03897E-05-4.10179E-05-1.48369E-05-3.41174E-05-2.95699E-18 6.46625E-18
 -1      1750 3.61435E-05-4.73966E-05 9.00864E-07-2.11122E-05 3.81165E-19 6.86968E-18
 -1      1751 1.71728E-05-5.27959E-05 1.05677E-05-8.03178E-06 2.02102E-18 2.29144E-18
 -1      1752 1.06027E-04-2.31633E-05-3.55964E-05-1.68570E-05-7.24994E-19 8.28610E-19
 -1      1753 8.91373E-05-1.05801E-05-3.37931E-05-1.33299E-05-3.69019E-19-1.63861E-18
 -1      1754 9.04766E-05-1.16331E-05-3.39325E-05-1.51435E-05-5.68326E-19-1.48469E-18
 -1      1755 9.24770E-05-1.38711E-05-3.38499E-05-1.60096E-05-6.67062E-19-1.21803E-18
 -1      1756 9.41887E-05-1.58158E-05-3.40926E-05-1.76707E-05-9.16265E-19-9.66676E-19
 -1      1757 9.34031E-05-1.63417E-05-3.30420E-05-1.37875E-05-6.56422E-19-1.21269E-18
 -1      1758 8.62184E-05-7.67271E-06-3.37339E-05-7.87206E-06 1.71483E-19-1.71696E-18
 -1      1759 8.66180E-05-7.97286E-06-3.37670E-05-9.26089E-06 6.84343E-20-1.81460E-18
 -1      1760 8.56107E-05-7.04032E-06-3.37325E-05-5.32599E-06 3.80791E-19-1.49832E-18
 -1      1761 8.58420E-05-7.21759E-06-3.37469E-05-6.63130E-06 2.89695E-19-1.62876E-18
 -1      1762 8.76062E-05-9.87147E-06-3.33475E-05-6.93921E-06 1.96416E-19-1.60353E-18
 -1      1763 8.52795E-05-6.68220E-06-3.37370E-05-2.89149E-06 6.48579E-19-1.29515E-18
 -1      1764 8.53988E-05-6.77653E-06-3.37424E-05-4.13227E-06 4.96889E-19-1.39080E-18
 -1      1765 8.69770E-05-9.16062E-06-3.33824E-05-4.54195E-06 4.93054E-19-1.41093E-18
 -1      1766 8.51500E-05-6.53406E-06-3.37410E-05-5.17815E-07 8.73869E-19-1.11054E-18
 -1      1767 8.51852E-05-6.56256E-06-3.37422E-05-1.72850E-06 7.56989E-19-1.22319E-18
 -1      1768 8.66476E-05-8.78144E-06-3.34036E-05-2.21904E-06 7.25973E-19-1.18072E-18
 -1      1769 8.51948E-05-6.57138E-06-3.37424E-05 1.84695E-06 1.02018E-18-8.91542E-19
 -1      1770 8.51536E-05-6.53851E-06-3.37409E-05 6.35320E-07 9.61638E-19-1.02969E-18
 -1      1771 8.65502E-05-8.66773E-06-3.34105E-05 6.57124E-08 9.77712E-19-9.90360E-19
 -1      1772 8.54235E-05-6.80131E-06-3.37424E-05 4.25489E-06 1.16265E-18-6.46339E-19
 -1      1773 8.52969E-05-6.70076E-06-3.37369E-05 3.01110E-06 1.07129E-18-7.88627E-19
 -1      1774 8.66648E-05-8.80056E-06-3.34028E-05 2.35148E-06 1.08144E-18-7.29646E-19
 -1      1775 8.58761E-05-7.25393E-06-3.37462E-05 6.71813E-06 1.30423E-18-2.27428E-19
 -1      1776 8.56405E-05-7.07210E-06-3.37322E-05 5.42999E-06 1.24904E-18-4.86184E-19
 -1      1777 8.70101E-05-9.19720E-06-3.33809E-05 4.65657E-06 1.27711E-18-5.26636E-19
 -1      1778 8.66825E-05-8.04219E-06-3.37646E-05 9.38212E-06 1.44205E-18 3.79444E-19
 -1      1779 8.62656E-05-7.72677E-06-3.37321E-05 7.96054E-06 1.31529E-18 5.94247E-20
 -1      1780 8.76577E-05-9.92952E-06-3.33448E-05 7.03390E-06 1.41709E-18 8.02034E-21
 -1      1781 8.80825E-05-9.38493E-06-3.38171E-05 1.22621E-05 1.52840E-18 1.07025E-18
 -1      1782 8.73498E-05-8.82955E-06-3.37467E-05 1.06690E-05 1.47050E-18 6.27334E-19
 -1      1783 8.87707E-05-1.11628E-05-3.32918E-05 9.51146E-06 1.49945E-18 5.56289E-19
 -1      1784 9.06359E-05-1.18452E-05-3.39242E-05 1.53345E-05 1.38911E-18 2.05360E-18
 -1      1785 8.92682E-05-1.07471E-05-3.37861E-05 1.35091E-05 1.41793E-18 1.45346E-18
 -1      1786 9.06553E-05-1.32246E-05-3.32067E-05 1.19656E-05 1.47738E-18 1.26123E-18
 -1      1787 9.58698E-05-1.70780E-05-3.39877E-05 1.76818E-05 1.11891E-18 3.52244E-18
 -1      1788 9.28308E-05-1.43229E-05-3.38219E-05 1.61844E-05 1.26632E-18 2.68409E-18
 -1      1789 9.38733E-05-1.68565E-05-3.30096E-05 1.38648E-05 1.30520E-18 2.32259E-18
 -1      1790 1.01895E-04-2.50895E-05-3.33529E-05 1.44205E-05 7.54442E-19 5.06769E-18
 -1      1791 9.80470E-05-1.95731E-05-3.36200E-05 1.69774E-05 9.38149E-19 4.07523E-18
 -1      1792 9.73900E-05-2.18725E-05-3.24132E-05 1.32876E-05 1.12041E-18 3.47048E-18
 -1      1793 9.87553E-05-2.61397E-05-3.13355E-05 9.43625E-06 6.92926E-19 4.90294E-18
 -1      1794 1.00132E-04-1.95565E-05-3.42111E-05-1.88746E-05-8.68672E-19-3.21237E-19
 -1      1795 9.53580E-05-2.73002E-05-2.91852E-05 4.10829E-06 4.55585E-19 4.40853E-18
 -1      1796 9.77019E-05-2.73846E-05-3.01866E-05 6.40093E-06 5.48030E-19 4.60012E-18
 -1      1797 9.75586E-05-2.56070E-05-3.08172E-05 8.72692E-06 7.04599E-19 3.82123E-18
 -1      1798 9.97929E-05-2.25337E-05-3.28301E-05-1.44735E-05-8.71279E-19-4.94826E-19
 -1      1799 9.69376E-05-2.69731E-05-2.98697E-05-5.71097E-06-6.94144E-19-4.59912E-19
 -1      1800 9.51269E-05-2.70274E-05-2.91587E-05-3.90470E-06-5.79834E-19-6.47888E-19
 -1      1801 9.43066E-05-2.72275E-05-2.86512E-05-2.42883E-06-5.92883E-19-6.59071E-19
 -1      1802 9.35332E-05-2.73071E-05-2.83458E-05-1.57513E-06-4.65961E-19-8.06349E-19
 -1      1803 9.54865E-05-2.65386E-05-2.95694E-05-4.48251E-06-6.82973E-19-7.48003E-19
 -1      1804 9.30085E-05-2.73578E-05-2.80770E-05-7.47528E-07-3.13670E-19-7.82367E-19
 -1      1805 9.27061E-05-2.74209E-05-2.79546E-05-3.08856E-07-2.52135E-19-9.26737E-19
 -1      1806 9.42752E-05-2.72135E-05-2.87610E-05-1.83638E-06-4.76128E-19-8.26363E-19
 -1      1807 9.24307E-05-2.74481E-05-2.78188E-05 1.47300E-07-2.50249E-19-9.71050E-19
 -1      1808 9.23987E-05-2.75236E-05-2.77889E-05 3.72209E-07-2.93590E-19-9.15717E-19
 -1      1809 9.35745E-05-2.75199E-05-2.83255E-05-3.68381E-07-3.39766E-19-9.27197E-19
 -1      1810 9.22966E-05-2.75548E-05-2.77314E-05 6.13961E-07-2.79403E-19-9.10450E-19
 -1      1811 9.24120E-05-2.76392E-05-2.77509E-05 7.19724E-07-1.43032E-19-9.37081E-19
 -1      1812 9.32546E-05-2.77035E-05-2.81057E-05 4.37477E-07-2.67225E-19-9.80475E-19
 -1      1813 9.24202E-05-2.76772E-05-2.77403E-05 8.34497E-07-1.66116E-19-9.22316E-19
 -1      1814 9.26105E-05-2.77636E-05-2.77861E-05 8.71545E-07-2.52327E-19-1.03169E-18
 -1      1815 9.31947E-05-2.78452E-05-2.80154E-05 8.55462E-07-2.04734E-19-7.23214E-19
 -1      1816 9.26846E-05-2.78054E-05-2.78032E-05 9.11267E-07-2.33022E-19-7.57293E-19
 -1      1817 9.29069E-05-2.78883E-05-2.78616E-05 9.09455E-07-2.16404E-19-6.17026E-19
 -1      1818 9.32972E-05-2.79676E-05-2.80038E-05 1.04250E-06-1.19909E-19-5.58183E-19
 -1      1819 9.30175E-05-2.79308E-05-2.78945E-05 9.06927E-07-4.14272E-19-4.26158E-19
 -1      1820 9.32474E-05-2.80073E-05-2.79577E-05 8.85366E-07-2.27420E-19-3.27041E-19
 -1      1821 9.34934E-05-2.80760E-05-2.80393E-05 1.09452E-06-2.06870E-19-1.95337E-19
 -1      1822 9.33762E-05-2.80482E-05-2.79992E-05 8.62432E-07-2.81539E-19-6.25062E-19
 -1      1823 9.36012E-05-2.81171E-05-2.80628E-05 8.34081E-07-2.60570E-19-8.47992E-19
 -1      1824 9.37388E-05-2.81715E-05-2.81022E-05 1.07364E-06-5.18546E-19-3.86123E-19
 -1      1825 9.37383E-05-2.81555E-05-2.81089E-05 8.05994E-07-2.54615E-19-9.27055E-19
 -1      1826 9.39542E-05-2.82170E-05-2.81713E-05 7.80129E-07-1.32237E-19-1.07148E-18
 -1      1827 9.40068E-05-2.82544E-05-2.81807E-05 1.02217E-06-4.55935E-19-7.26058E-19
 -1      1828 9.40954E-05-2.82529E-05-2.82201E-05 7.58136E-07-1.39325E-19-1.00091E-18
 -1      1829 9.43042E-05-2.83086E-05-2.82816E-05 7.41881E-07 5.04341E-20-1.14873E-18
 -1      1830 9.42844E-05-2.83260E-05-2.82687E-05 9.70336E-07-2.34627E-19-5.30739E-19
 -1      1831 9.44500E-05-2.83425E-05-2.83333E-05 7.34955E-07 2.64657E-19-1.32099E-18
 -1      1832 9.46584E-05-2.83947E-05-2.83957E-05 7.34386E-07 2.71509E-19-1.14353E-18
 -1      1833 9.45686E-05-2.83882E-05-2.83639E-05 9.41203E-07 4.26749E-20-5.41704E-19
 -1      1834 9.48128E-05-2.84279E-05-2.84516E-05 7.50524E-07 2.59170E-19-1.24943E-18
 -1      1835 9.50317E-05-2.84798E-05-2.85179E-05 7.71571E-07 2.15785E-19-9.89563E-19
 -1      1836 9.48641E-05-2.84432E-05-2.84673E-05 9.54047E-07 2.34559E-19-2.52777E-19
 -1      1837 9.52018E-05-2.85139E-05-2.85806E-05 8.18913E-07 1.27826E-20-9.59366E-19
 -1      1838 9.54462E-05-2.85694E-05-2.86553E-05 8.68206E-07-1.10319E-19-8.43485E-19
 -1      1839 9.51820E-05-2.84940E-05-2.85824E-05 1.02708E-06 9.33751E-20-7.19688E-19
 -1      1840 9.56416E-05-2.86061E-05-2.87286E-05 9.56123E-07-1.85869E-19-9.42316E-19
 -1      1841 9.59320E-05-2.86702E-05-2.88174E-05 1.04164E-06-3.03526E-19-9.53029E-19
 -1      1842 9.55388E-05-2.85434E-05-2.87150E-05 1.17979E-06-1.90107E-19-7.54395E-19
 -1      1843 9.61780E-05-2.87145E-05-2.89111E-05 1.18932E-06-3.29430E-19-9.48426E-19
 -1      1844 9.65584E-05-2.87965E-05-2.90282E-05 1.33130E-06-4.27023E-19-8.85446E-19
 -1      1845 9.59680E-05-2.85958E-05-2.88776E-05 1.44371E-06-4.20727E-19-8.05367E-19
 -1      1846 9.68471E-05-2.88459E-05-2.91403E-05 1.54221E-06-7.51209E-19-8.14528E-19
 -1      1847 9.73172E-05-2.89475E-05-2.92842E-05 1.74026E-06-5.67968E-19-1.01795E-18
 -1      1848 9.64888E-05-2.86514E-05-2.90779E-05 1.84687E-06-5.48594E-19-3.89655E-19
 -1      1849 9.76766E-05-2.90063E-05-2.94261E-05 2.03880E-06-4.25171E-19-1.00824E-18
 -1      1850 9.82937E-05-2.91394E-05-2.96145E-05 2.31789E-06-2.45381E-19-9.99428E-19
 -1      1851 9.71188E-05-2.87117E-05-2.93231E-05 2.41422E-06-4.15737E-19-4.61571E-20
 -1      1852 9.87436E-05-2.92103E-05-2.97950E-05 2.72895E-06-2.02808E-19-1.18468E-18
 -1      1853 9.95605E-05-2.93886E-05-3.00433E-05 3.11314E-06 3.48906E-19-1.37970E-18
 -1      1854 9.79061E-05-2.87800E-05-2.96323E-05 3.20174E-06-2.10148E-19 2.39731E-19
 -1      1855 1.00123E-04-2.94752E-05-3.02722E-05 3.66594E-06 3.74561E-19-1.83100E-18
 -1      1856 1.01204E-04-2.97172E-05-3.05985E-05 4.18205E-06 4.25985E-19-2.09026E-18
 -1      1857 9.88921E-05-2.88606E-05-3.00214E-05 4.26757E-06 1.70449E-20-5.63408E-19
 -1      1858 1.01903E-04-2.98272E-05-3.08848E-05 4.90602E-06 7.49204E-19-2.53471E-18
 -1      1859 1.03324E-04-3.01610E-05-3.13087E-05 5.57690E-06 6.57648E-19-1.86490E-18
 -1      1860 1.00124E-04-2.89658E-05-3.05050E-05 5.67419E-06 3.08335E-19-1.31566E-18
 -1      1861 1.04188E-04-3.03132E-05-3.16576E-05 6.48970E-06 1.61442E-19-1.76171E-18
 -1      1862 1.06029E-04-3.07842E-05-3.21958E-05 7.31559E-06-2.76669E-19-2.07083E-18
 -1      1863 1.01657E-04-2.91317E-05-3.10919E-05 7.47096E-06 3.37705E-19-1.55737E-18
 -1      1864 1.07100E-04-3.10247E-05-3.26036E-05 8.39549E-06-3.11702E-19-1.92742E-18
 -1      1865 1.09425E-04-3.17082E-05-3.32596E-05 9.31270E-06-6.74615E-19-1.66923E-18
 -1      1866 1.03568E-04-2.94517E-05-3.17762E-05 9.65274E-06-1.91711E-19-2.48241E-18
 -1      1867 1.10785E-04-3.21432E-05-3.37059E-05 1.04427E-05-1.22365E-18-1.31097E-18
 -1      1868 1.13610E-04-3.31625E-05-3.44520E-05 1.12460E-05-8.91492E-19-1.11099E-18
 -1      1869 1.05992E-04-3.01439E-05-3.25249E-05 1.20746E-05-6.62841E-19-1.57269E-18
 -1      1870 1.15435E-04-3.40069E-05-3.48944E-05 1.21158E-05-3.07283E-19-5.59121E-19
 -1      1871 1.18659E-04-3.55354E-05-3.56468E-05 1.23425E-05 6.61136E-19-6.25461E-19
 -1      1872 1.09199E-04-3.16543E-05-3.32676E-05 1.42995E-05-4.01400E-19 7.08470E-19
 -1      1873 1.21286E-04-3.71387E-05-3.60295E-05 1.23110E-05 1.08841E-18-1.34465E-18
 -1      1874 1.24578E-04-3.93118E-05-3.66392E-05 1.11642E-05 8.62716E-19-8.56476E-19
 -1      1875 1.13716E-04-3.47479E-05-3.39079E-05 1.53690E-05 4.34359E-19 1.55679E-19
 -1      1876 1.28480E-04-4.20089E-05-3.69658E-05 9.14179E-06 3.81482E-19-7.20997E-19
 -1      1877 1.31087E-04-4.45002E-05-3.72855E-05 5.68407E-06 3.48051E-19-6.32839E-19
 -1      1878 1.20383E-04-4.03155E-05-3.44200E-05 1.35612E-05 7.06558E-19-2.69115E-19
 -1      1879 1.36262E-04-4.78155E-05-3.77865E-05 5.60705E-07-2.36732E-19-6.03961E-19
 -1      1880 1.36924E-04-4.90874E-05-3.78649E-05-5.24907E-06-7.75617E-19-1.01022E-18
 -1      1881 1.29717E-04-4.80418E-05-3.51442E-05 6.53783E-06 1.82840E-19-7.59362E-19
 -1      1882 1.41629E-04-5.06208E-05-3.90393E-05-1.25919E-05-9.18329E-19-3.81191E-19
 -1      1883 1.38942E-04-4.79017E-05-3.92093E-05-1.78060E-05-1.15050E-18-4.84404E-19
 -1      1884 1.39973E-04-5.39211E-05-3.70593E-05-6.29083E-06-8.24295E-19-1.64404E-19
 -1      1885 1.40165E-04-4.40813E-05-4.16312E-05-2.28569E-05-1.80688E-18-9.13141E-19
 -1      1886 1.34562E-04-3.66827E-05-4.22297E-05-2.21533E-05-2.07555E-18-8.78611E-19
 -1      1887 1.46231E-04-4.99854E-05-4.15255E-05-2.05514E-05-1.81090E-18 1.31544E-18
 -1      1888 1.32723E-04-3.01524E-05-4.46744E-05-1.73089E-05-2.68277E-18-1.70942E-18
 -1      1889 1.28970E-04-2.50555E-05-4.51490E-05-8.82490E-06-1.99857E-18-2.70182E-18
 -1      1890 1.45104E-04-3.41325E-05-4.80003E-05-2.24235E-05-2.82125E-18 6.76144E-19
 -1      1891 1.28863E-04-2.40697E-05-4.54092E-05 4.45258E-06-6.81862E-19-3.33244E-18
 -1      1892 1.31538E-04-2.81186E-05-4.50215E-05 1.43399E-05-3.82859E-19-3.06003E-18
 -1      1893 1.41942E-04-2.16191E-05-5.19572E-05-1.50993E-06-1.71058E-18-4.43184E-19
 -1      1894 1.33491E-04-3.45952E-05-4.26772E-05 2.13921E-05-6.65556E-19-3.70722E-18
 -1      1895 1.39579E-04-4.25033E-05-4.20127E-05 2.33208E-05-4.02023E-19-4.42858E-18
 -1      1896 1.44113E-04-3.11972E-05-4.88964E-05 1.97975E-05-7.24213E-19-2.18556E-18
 -1      1897 1.38415E-04-4.68956E-05-3.94797E-05 1.89144E-05 5.69550E-19-4.23465E-18
 -1      1898 1.41708E-04-5.02699E-05-3.92609E-05 1.40193E-05 1.17716E-18-2.95926E-18
 -1      1899 1.46553E-04-4.84747E-05-4.24923E-05 2.14698E-05 3.39343E-19-1.83923E-18
 -1      1900 1.37086E-04-4.92324E-05-3.78808E-05 6.24822E-06 1.50793E-18-3.08929E-18
 -1      1901 1.36700E-04-4.82186E-05-3.78080E-05 3.33675E-07 1.84502E-18-2.53522E-18
 -1      1902 1.40844E-04-5.40637E-05-3.74019E-05 8.04167E-06 1.49041E-18-1.50068E-18
 -1      1903 1.31416E-04-4.49018E-05-3.72610E-05-5.09617E-06 1.02742E-18-1.95404E-18
 -1      1904 1.28876E-04-4.24203E-05-3.69568E-05-8.78070E-06 5.27424E-19-1.83421E-18
 -1      1905 1.30453E-04-4.86891E-05-3.51865E-05-5.80107E-06 1.56804E-18-2.17765E-18
 -1      1906 1.24835E-04-3.96355E-05-3.66177E-05-1.10343E-05 3.78200E-19-2.23263E-18
 -1      1907 1.21523E-04-3.74057E-05-3.60137E-05-1.23600E-05 1.37881E-19-1.79007E-18
 -1      1908 1.20848E-04-4.08472E-05-3.43921E-05-1.33717E-05 6.45770E-19-3.05379E-18
 -1      1909 1.18770E-04-3.57090E-05-3.56254E-05-1.25352E-05-2.32606E-19-1.23074E-18
 -1      1910 1.15473E-04-3.41137E-05-3.48635E-05-1.24064E-05-9.90634E-19-1.72898E-18
 -1      1911 1.13914E-04-3.50620E-05-3.38596E-05-1.55678E-05 2.45299E-19-2.24779E-18
 -1      1912 1.13556E-04-3.32099E-05-3.44118E-05-1.16046E-05-1.24377E-18-7.51457E-19
 -1      1913 1.10631E-04-3.21361E-05-3.36436E-05-1.08466E-05-9.44610E-19-8.45580E-19
 -1      1914 1.09179E-04-3.17720E-05-3.32095E-05-1.47104E-05-9.34973E-20-1.43497E-18
 -1      1915 1.09195E-04-3.16632E-05-3.31820E-05-9.74531E-06-1.31272E-18-5.66189E-19
 -1      1916 1.06758E-04-3.09334E-05-3.24969E-05-8.84411E-06-8.04132E-19-5.23413E-19
 -1      1917 1.05805E-04-3.01381E-05-3.24480E-05-1.25862E-05-1.00942E-18 3.09609E-19
 -1      1918 1.05618E-04-3.06647E-05-3.20711E-05-7.77086E-06-2.36249E-19-4.24051E-19
 -1      1919 1.03662E-04-3.01507E-05-3.15018E-05-6.94465E-06 7.83628E-19-1.15368E-18
 -1      1920 1.03237E-04-2.93647E-05-3.16719E-05-1.02019E-05-6.21808E-19 8.97735E-19
 -1      1921 1.02733E-04-2.99724E-05-3.11353E-05-6.02206E-06 8.87148E-19-2.09925E-18
 -1      1922 1.01202E-04-2.95956E-05-3.06823E-05-5.33648E-06 7.56784E-19-1.79705E-18
 -1      1923 1.01191E-04-2.89791E-05-3.09579E-05-8.01660E-06-1.44869E-19 4.65236E-19
 -1      1924 1.00442E-04-2.94567E-05-3.03821E-05-4.58267E-06 1.03188E-18-2.23623E-18
 -1      1925 9.92657E-05-2.91701E-05-3.00329E-05-4.03082E-06 2.81572E-19-1.39624E-18
 -1      1926 9.95300E-05-2.87452E-05-3.03456E-05-6.17624E-06 8.80855E-19-2.62016E-18
 -1      1927 9.86495E-05-2.90476E-05-2.97973E-05-3.41747E-06-8.21794E-19-1.22756E-18
 -1      1928 9.77660E-05-2.88230E-05-2.95373E-05-2.96272E-06-5.55892E-19-1.63484E-18
 -1      1929 9.81809E-05-2.85565E-05-2.98477E-05-4.67020E-06-6.94832E-23-1.60994E-18
 -1      1930 9.72693E-05-2.87051E-05-2.93603E-05-2.44325E-06 1.19324E-19-1.51614E-18
 -1      1931 9.66316E-05-2.85290E-05-2.91768E-05-2.04064E-06-4.31256E-19-1.15680E-18
 -1      1932 9.70898E-05-2.83671E-05-2.94613E-05-3.42384E-06-4.98863E-19-1.01763E-18
 -1      1933 9.62395E-05-2.84189E-05-2.90487E-05-1.57377E-06-8.35036E-19-2.13518E-18
 -1      1934 9.58026E-05-2.82911E-05-2.89262E-05-1.20004E-06-6.12110E-19-2.02178E-18
 -1      1935 9.62220E-05-2.81712E-05-2.91744E-05-2.33862E-06-9.15557E-19-1.63485E-18
 -1      1936 9.54837E-05-2.82487E-05-2.88055E-05-6.67465E-07 1.10817E-19-2.20562E-18
 -1      1937 9.27174E-05-2.73453E-05-2.79825E-05 7.94012E-07 3.89830E-19 3.46659E-18
 -1      1938 9.31928E-05-2.73006E-05-2.81788E-05 1.37465E-06 2.02984E-19 3.63693E-18
 -1      1939 9.21807E-05-2.74152E-05-2.77350E-05-8.10743E-08 3.01041E-19 3.30193E-18
 -1      1940 9.23090E-05-2.73568E-05-2.77942E-05 2.08591E-07 4.41987E-19 3.37545E-18
 -1      1941 9.36477E-05-2.74166E-05-2.84014E-05 9.60685E-07 5.49202E-19 2.36393E-18
 -1      1942 9.20764E-05-2.75091E-05-2.76586E-05-5.43938E-07 1.43920E-19 2.94034E-18
 -1      1943 9.19989E-05-2.74304E-05-2.76500E-05-3.99435E-07 2.71740E-19 3.12822E-18
 -1      1944 9.31188E-05-2.75917E-05-2.80975E-05-9.99886E-08 4.26747E-19 2.22604E-18
 -1      1945 9.22304E-05-2.76275E-05-2.76788E-05-7.65454E-07 1.76950E-19 2.56939E-18
 -1      1946 9.20446E-05-2.75389E-05-2.76347E-05-7.02397E-07-1.00254E-20 2.68033E-18
 -1      1947 9.29495E-05-2.77264E-05-2.79632E-05-6.66528E-07 2.69690E-19 1.87114E-18
 -1      1948 9.25245E-05-2.77570E-05-2.77523E-05-8.46123E-07 3.90483E-19 2.50090E-18
 -1      1949 9.22892E-05-2.76672E-05-2.76907E-05-8.29932E-07 3.20835E-19 2.67113E-18
 -1      1950 9.30026E-05-2.78482E-05-2.79302E-05-9.42103E-07 3.08275E-19 1.61522E-18
 -1      1951 9.28854E-05-2.78869E-05-2.78531E-05-8.46891E-07 3.07179E-19 2.51352E-18
 -1      1952 9.26344E-05-2.78013E-05-2.77846E-05-8.56485E-07 3.81294E-19 2.51592E-18
 -1      1953 9.31866E-05-2.79627E-05-2.79573E-05-1.04625E-06 4.03056E-19 1.62484E-18
 -1      1954 9.32692E-05-2.80107E-05-2.79656E-05-8.06914E-07 4.15166E-19 2.20763E-18
 -1      1955 9.30211E-05-2.79320E-05-2.78961E-05-8.28557E-07 5.29349E-19 2.49420E-18
 -1      1956 9.34408E-05-2.80690E-05-2.80189E-05-1.05306E-06 5.13802E-19 1.51203E-18
 -1      1957 9.36527E-05-2.81256E-05-2.80812E-05-7.52417E-07 4.10927E-19 1.96532E-18
 -1      1958 9.34159E-05-2.80544E-05-2.80136E-05-7.76798E-07 1.66542E-19 1.90375E-18
 -1      1959 9.37274E-05-2.81656E-05-2.80992E-05-1.01087E-06 5.11019E-19 1.04727E-18
 -1      1960 9.40266E-05-2.82315E-05-2.81962E-05-7.01402E-07 2.60365E-19 2.01052E-18
 -1      1961 9.38027E-05-2.81671E-05-2.81314E-05-7.22068E-07 6.21781E-19 2.09412E-18
 -1      1962 9.40251E-05-2.82523E-05-2.81891E-05-9.52346E-07 3.70219E-19 1.01020E-18
 -1      1963 9.43915E-05-2.83305E-05-2.83101E-05-6.66326E-07-4.45735E-20 1.82089E-18
 -1      1964 9.41774E-05-2.82710E-05-2.82473E-05-6.78788E-07-3.90541E-20 1.81151E-18
 -1      1965 9.43247E-05-2.83305E-05-2.82838E-05-8.99998E-07 2.19512E-19 1.16743E-18
 -1      1966 9.47550E-05-2.84262E-05-2.84245E-05-6.55619E-07-3.22104E-20 2.09213E-18
 -1      1967 9.45442E-05-2.83690E-05-2.83622E-05-6.56857E-07-9.98119E-20 1.91086E-18
 -1      1968 9.46255E-05-2.84028E-05-2.83818E-05-8.69345E-07-2.61286E-20 7.40569E-19
 -1      1969 9.51288E-05-2.85236E-05-2.85425E-05-6.74402E-07-3.12073E-19 2.29046E-18
 -1      1970 9.49132E-05-2.84655E-05-2.84785E-05-6.62673E-07 5.58202E-20 2.30535E-18
 -1      1971 9.49325E-05-2.84731E-05-2.84835E-05-8.70683E-07-2.99508E-19 1.20323E-18
 -1      1972 9.55272E-05-2.86285E-05-2.86678E-05-7.24507E-07-2.29116E-19 1.80829E-18
 -1      1973 9.52976E-05-2.85660E-05-2.85997E-05-6.99436E-07-1.48190E-19 2.03924E-18
 -1      1974 9.52550E-05-2.85465E-05-2.85906E-05-9.09828E-07 6.94913E-20 1.21822E-18
 -1      1975 9.59648E-05-2.87472E-05-2.88042E-05-8.03834E-07 2.29613E-19 1.70715E-18
 -1      1976 9.57126E-05-2.86765E-05-2.87297E-05-7.66787E-07-2.87216E-19 1.57895E-18
 -1      1977 9.56046E-05-2.86289E-05-2.87055E-05-9.87971E-07-2.65594E-19 7.28716E-19
 -1      1978 9.64540E-05-2.88862E-05-2.89543E-05-9.05000E-07 1.15858E-18 1.66342E-18
 -1      1979 9.61723E-05-2.88039E-05-2.88718E-05-8.59765E-07 7.90107E-19 1.71419E-18
 -1      1980 9.59934E-05-2.87278E-05-2.88301E-05-1.10066E-06 5.59780E-19 4.72978E-19
 -1      1981 9.70017E-05-2.90517E-05-2.91188E-05-1.01334E-06 5.95754E-20 1.70233E-18
 -1      1982 9.66879E-05-2.89548E-05-2.90279E-05-9.67081E-07 1.11410E-18 2.25291E-18
 -1      1983 9.64323E-05-2.88512E-05-2.89656E-05-1.23590E-06 8.13301E-19 9.92594E-19
 -1      1984 9.76051E-05-2.92479E-05-2.92949E-05-1.10444E-06-6.41320E-19 1.85527E-18
 -1      1985 9.72635E-05-2.91351E-05-2.91975E-05-1.06882E-06-8.00207E-19 1.88425E-18
 -1      1986 9.69284E-05-2.90083E-05-2.91109E-05-1.37155E-06-2.32014E-19 9.94548E-19
 -1      1987 9.82465E-05-2.94758E-05-2.94749E-05-1.14175E-06-2.90546E-19 2.58782E-18
 -1      1988 9.78917E-05-2.93484E-05-2.93758E-05-1.13394E-06-3.55389E-19 2.26787E-18
 -1      1989 9.74817E-05-2.92077E-05-2.92623E-05-1.47225E-06-6.97799E-19 1.27697E-18
 -1      1990 9.88874E-05-2.97301E-05-2.96448E-05-1.07544E-06 2.35361E-19 2.14583E-18
 -1      1991 9.85481E-05-2.95939E-05-2.95528E-05-1.11841E-06-1.09358E-19 2.17497E-18
 -1      1992 9.80812E-05-2.94560E-05-2.94120E-05-1.48690E-06 1.39784E-19 2.17760E-18
 -1      1993 9.94623E-05-2.99953E-05-2.97832E-05-8.44569E-07 3.73952E-19 2.35759E-18
 -1      1994 9.91845E-05-2.98629E-05-2.97117E-05-9.65643E-07 4.29580E-19 2.45899E-18
 -1      1995 9.86996E-05-2.97542E-05-2.95476E-05-1.34834E-06 2.68418E-19 2.25566E-18
 -1      1996 9.98754E-05-3.02408E-05-2.98615E-05-3.85619E-07-4.27083E-19 2.00029E-18
 -1      1997 9.97236E-05-3.01338E-05-2.98284E-05-6.11773E-07 1.26865E-19 2.48055E-18
 -1      1998 9.92870E-05-3.00910E-05-2.96525E-05-9.78079E-07 1.60865E-19 2.05137E-18
 -1      1999 1.00002E-04-3.04152E-05-2.98473E-05 3.48942E-07 9.23729E-20 1.66247E-18
 -1      2000 1.00055E-04-3.03663E-05-2.98730E-05 5.32957E-10-4.65258E-19 1.62417E-18
 -1      2001 9.97655E-05-3.04344E-05-2.97068E-05-3.00109E-07 6.54349E-20 1.85398E-18
 -1      2002 9.97028E-05-3.04449E-05-2.97099E-05 1.35991E-06 3.88464E-19 1.55115E-18
 -1      2003 1.00042E-04-3.04967E-05-2.98135E-05 8.96642E-07 4.50856E-19 1.82542E-18
 -1      2004 1.00027E-04-3.07218E-05-2.96909E-05 7.31885E-07-1.46234E-19 1.86178E-18
 -1      2005 9.88494E-05-3.02405E-05-2.94306E-05 2.56195E-06 2.59142E-19 2.02157E-18
 -1      2006 9.95361E-05-3.04384E-05-2.96233E-05 2.03316E-06 3.64495E-19 2.02280E-18
 -1      2007 9.99359E-05-3.08540E-05-2.95904E-05 2.09260E-06 3.43444E-19 1.41266E-18
 -1      2008 9.73771E-05-2.97212E-05-2.90141E-05 3.75032E-06-4.77164E-19 2.63376E-18
 -1      2009 9.84198E-05-3.00971E-05-2.92919E-05 3.25911E-06-1.56999E-19 2.83373E-18
 -1      2010 9.93574E-05-3.07042E-05-2.94028E-05 3.63581E-06-2.11647E-19 1.61649E-18
 -1      2011 9.53481E-05-2.88604E-05-2.84988E-05 4.60272E-06-1.96735E-19 2.29126E-18
 -1      2012 9.66678E-05-2.94070E-05-2.88355E-05 4.29796E-06-6.47537E-19 2.39572E-18
 -1      2013 9.82017E-05-3.01553E-05-2.91424E-05 5.06035E-06-1.63340E-19 2.14540E-18
 -1      2014 9.30090E-05-2.77432E-05-2.79572E-05 4.75114E-06 3.62969E-19 3.48832E-18
 -1      2015 9.44206E-05-2.83886E-05-2.83040E-05 4.78635E-06 6.05877E-20 2.73507E-18
 -1      2016 9.65026E-05-2.91718E-05-2.88423E-05 5.93158E-06-7.74762E-20 1.77463E-18
 -1      2017 9.07961E-05-2.65978E-05-2.74847E-05 3.93386E-06 2.81010E-20 3.63677E-18
 -1      2018 9.20293E-05-2.72020E-05-2.77784E-05 4.39509E-06 7.08455E-19 3.55377E-18
 -1      2019 9.44924E-05-2.78805E-05-2.85485E-05 5.80014E-06 1.60643E-19 3.04227E-18
 -1      2020 8.92419E-05-2.57500E-05-2.71758E-05 2.16984E-06 6.78123E-19 2.93816E-18
 -1      2021 9.00125E-05-2.61429E-05-2.73548E-05 3.00719E-06 1.10773E-19 3.40212E-18
 -1      2022 9.26117E-05-2.65988E-05-2.83105E-05 4.41408E-06 1.89596E-19 2.63053E-18
 -1      2023 8.87838E-05-2.54892E-05-2.70954E-05-1.63185E-07 4.18361E-19 3.52153E-18
 -1      2024 8.88958E-05-2.55440E-05-2.71198E-05 8.51970E-07 5.98806E-19 3.65634E-18
 -1      2025 9.13914E-05-2.57434E-05-2.81688E-05 1.92430E-06 6.42256E-20 3.34099E-18
 -1      2026 8.95649E-05-2.59143E-05-2.72588E-05-2.44141E-06-2.21486E-20 2.89112E-18
 -1      2027 8.89917E-05-2.56138E-05-2.71238E-05-1.52375E-06 1.73132E-19 3.13023E-18
 -1      2028 9.12256E-05-2.56344E-05-2.81468E-05-1.07562E-06 6.23420E-19 3.98194E-18
 -1      2029 9.13553E-05-2.68731E-05-2.76273E-05-4.06325E-06 1.56230E-18 2.58029E-18
 -1      2030 9.02521E-05-2.63192E-05-2.73652E-05-3.47448E-06 3.35243E-19 2.36584E-18
 -1      2031 9.21649E-05-2.63140E-05-2.82469E-05-3.76427E-06 8.73142E-19 3.55468E-18
 -1      2032 9.36594E-05-2.80480E-05-2.81205E-05-4.70404E-06 8.59457E-19 2.13975E-18
 -1      2033 9.22976E-05-2.74068E-05-2.77895E-05-4.53982E-06 2.25252E-18 2.87731E-18
 -1      2034 9.38878E-05-2.75199E-05-2.84505E-05-5.45782E-06 1.54900E-18 3.89990E-18
 -1      2035 9.59334E-05-2.91190E-05-2.86412E-05-4.39857E-06 6.94838E-19 9.13012E-19
 -1      2036 9.45980E-05-2.85445E-05-2.83065E-05-4.60845E-06 4.38342E-19 1.71854E-18
 -1      2037 9.58723E-05-2.88383E-05-2.87200E-05-5.88403E-06 1.00387E-18 2.94425E-18
 -1      2038 9.77703E-05-2.98852E-05-2.91021E-05-3.43917E-06 3.25691E-19 1.00072E-18
 -1      2039 9.66765E-05-2.94698E-05-2.88177E-05-3.88394E-06 6.48258E-19 1.21544E-18
 -1      2040 9.76351E-05-2.99112E-05-2.90070E-05-5.20639E-06 7.92891E-19 1.83994E-18
 -1      2041 9.89740E-05-3.02919E-05-2.94437E-05-2.19767E-06-6.61255E-19 6.11617E-19
 -1      2042 9.82321E-05-3.00598E-05-2.92421E-05-2.72358E-06-4.67264E-19 5.26668E-19
 -1      2043 9.88841E-05-3.05597E-05-2.92626E-05-3.84635E-06 1.79680E-20 1.58694E-18
 -1      2044 9.95331E-05-3.03874E-05-2.96414E-05-9.83672E-07 1.12235E-19-3.25562E-20
 -1      2045 9.91571E-05-3.03156E-05-2.95321E-05-1.47307E-06-1.36981E-19 2.08140E-19
 -1      2046 9.95384E-05-3.07836E-05-2.94498E-05-2.26059E-06-1.68103E-19-2.53569E-19
 -1      2047 9.95499E-05-3.02629E-05-2.97005E-05 1.46045E-08-1.16573E-19-7.20296E-19
 -1      2048 9.94895E-05-3.03083E-05-2.96751E-05-3.72844E-07 2.35753E-19 3.76828E-20
 -1      2049 9.96632E-05-3.06859E-05-2.95496E-05-7.94449E-07 3.66825E-19-1.24086E-18
 -1      2050 9.91729E-05-3.00092E-05-2.96458E-05 7.23320E-07-1.04752E-19-1.30374E-18
 -1      2051 9.93472E-05-3.01275E-05-2.96858E-05 4.58719E-07-5.78198E-19-1.16783E-18
 -1      2052 9.93899E-05-3.03953E-05-2.95616E-05 3.61842E-07-5.35621E-19-1.02455E-18
 -1      2053 9.85520E-05-2.96970E-05-2.95114E-05 1.14554E-06 1.81981E-18-2.33253E-18
 -1      2054 9.88753E-05-2.98521E-05-2.95947E-05 9.97056E-07 1.19445E-18-1.14140E-18
 -1      2055 9.88595E-05-3.00191E-05-2.94993E-05 1.14830E-06 7.18121E-19-1.63456E-18
 -1      2056 9.78168E-05-2.93736E-05-2.93327E-05 1.32136E-06 2.87052E-18-2.12662E-18
 -1      2057 9.82119E-05-2.95396E-05-2.94378E-05 1.27065E-06 2.11912E-18-1.67536E-18
 -1      2058 9.81936E-05-2.96281E-05-2.93844E-05 1.58559E-06 1.73591E-18-1.77393E-18
 -1      2059 9.70696E-05-2.90674E-05-2.91415E-05 1.29834E-06 7.98747E-19-2.07874E-18
 -1      2060 9.74732E-05-2.92270E-05-2.92501E-05 1.32666E-06 2.49713E-18-1.55101E-18
 -1      2061 9.74859E-05-2.92599E-05-2.92410E-05 1.72929E-06 2.37032E-18-6.42400E-19
 -1      2062 9.63880E-05-2.87949E-05-2.89644E-05 1.11576E-06-5.45636E-19-5.36350E-19
 -1      2063 9.67498E-05-2.89358E-05-2.90615E-05 1.20935E-06-2.13246E-19-1.98642E-18
 -1      2064 9.68033E-05-2.89296E-05-2.90914E-05 1.63877E-06 4.98617E-19 1.01615E-19
 -1      2065 9.58235E-05-2.85664E-05-2.88195E-05 8.02368E-07-3.90947E-19-1.36622E-18
 -1      2066 9.61081E-05-2.86794E-05-2.88951E-05 9.52880E-07-5.52509E-19-1.27527E-18
 -1      2067 9.61885E-05-2.86418E-05-2.89530E-05 1.36671E-06-2.78640E-19 5.79316E-19
 -1      2068 9.54465E-05-2.84413E-05-2.87120E-05 4.38130E-07-8.14297E-19-3.09853E-19
 -1      2069 9.56396E-05-2.85079E-05-2.87678E-05 6.07900E-07-4.72089E-19-1.01205E-18
 -1      2070 9.57282E-05-2.84459E-05-2.88378E-05 9.74268E-07-1.07896E-18-3.31579E-20
 -1      2071 9.54008E-05-2.83365E-05-2.87404E-05 5.46820E-07-1.77314E-18 9.18885E-19
 -1      2072 9.47944E-05-2.68205E-05-2.91305E-05 1.40948E-06-6.24833E-19 1.22075E-18
 -1      2073 9.49423E-05-2.71860E-05-2.90338E-05 1.32545E-06-7.47823E-19 6.97362E-19
 -1      2074 9.50640E-05-2.74725E-05-2.89649E-05 1.18328E-06-8.93655E-19-5.22868E-19
 -1      2075 9.51928E-05-2.77854E-05-2.88845E-05 1.04449E-06-7.04682E-19-7.64197E-19
 -1      2076 9.51021E-05-2.74217E-05-2.90094E-05 1.60065E-06-5.77121E-19 1.54638E-19
 -1      2077 9.53235E-05-2.81138E-05-2.88007E-05 7.35246E-07-1.73190E-18-2.54631E-19
 -1      2078 9.45007E-05-2.61217E-05-2.93074E-05 1.48835E-06-4.92024E-19-2.45705E-18
 -1      2079 9.46598E-05-2.65083E-05-2.92054E-05 1.47283E-06-1.03133E-18 7.15459E-19
 -1      2080 9.48005E-05-2.68090E-05-2.91414E-05 1.82641E-06-7.84932E-19 8.06253E-19
 -1      2081 9.41937E-05-2.54143E-05-2.94829E-05 1.39985E-06 1.43874E-18 1.40384E-18
 -1      2082 9.43550E-05-2.57927E-05-2.93838E-05 1.46116E-06 4.32906E-19 4.77823E-19
 -1      2083 9.44703E-05-2.61511E-05-2.92796E-05 1.86868E-06 5.90818E-19 1.19335E-19
 -1      2084 9.39077E-05-2.47883E-05-2.96324E-05 1.12657E-06 9.87772E-19 8.44862E-19
 -1      2085 9.40510E-05-2.51051E-05-2.95509E-05 1.26976E-06 1.25448E-18 4.06821E-19
 -1      2086 9.41264E-05-2.54933E-05-2.94113E-05 1.69488E-06 1.56520E-18 2.15853E-19
 -1      2087 9.36815E-05-2.43293E-05-2.97350E-05 6.72313E-07 1.23210E-19 1.46651E-18
 -1      2088 9.37849E-05-2.45368E-05-2.96832E-05 8.92088E-07-5.07876E-20 1.40621E-18
 -1      2089 9.38057E-05-2.49125E-05-2.95196E-05 1.28840E-06 2.53944E-22 5.95296E-19
 -1      2090 9.35584E-05-2.41182E-05-2.97737E-05 7.22770E-08-4.65985E-19 2.87660E-19
 -1      2091 9.35999E-05-2.41762E-05-2.97611E-05 3.48396E-07-2.78178E-19 2.87366E-18
 -1      2092 9.35554E-05-2.44908E-05-2.95900E-05 6.62927E-07-9.48698E-19 1.77774E-18
 -1      2093 9.35764E-05-2.42131E-05-2.97394E-05-6.00011E-07 1.27383E-18-2.40607E-19
 -1      2094 9.35394E-05-2.40982E-05-2.97705E-05-3.04841E-07 1.09291E-19 2.86013E-19
 -1      2095 9.34288E-05-2.43074E-05-2.96121E-05-1.24990E-07-4.31335E-19 9.10316E-19
 -1      2096 9.37527E-05-2.46209E-05-2.96361E-05-1.22555E-06 2.38434E-18-1.31786E-18
 -1      2097 9.36331E-05-2.43421E-05-2.97071E-05-9.67020E-07 1.69816E-18-7.52290E-19
 -1      2098 9.34725E-05-2.44180E-05-2.95826E-05-9.64021E-07 4.12742E-19 2.84046E-20
 -1      2099 9.40876E-05-2.53186E-05-2.94747E-05-1.69736E-06 3.50959E-18 3.06021E-18
 -1      2100 9.38912E-05-2.48996E-05-2.95782E-05-1.52428E-06 2.55518E-18 8.58384E-19
 -1      2101 9.37092E-05-2.48381E-05-2.95054E-05-1.71774E-06 1.60907E-18-2.48014E-19
 -1      2102 9.45427E-05-2.62079E-05-2.92819E-05-1.88077E-06 3.05450E-18 1.68171E-18
 -1      2103 9.42953E-05-2.57149E-05-2.93998E-05-1.84986E-06 3.38796E-18 1.58365E-18
 -1      2104 9.41339E-05-2.55384E-05-2.93909E-05-2.23209E-06 1.95195E-18 2.69813E-18
 -1      2105 9.50336E-05-2.71420E-05-2.90859E-05-1.69726E-06 1.30564E-18 2.24035E-19
 -1      2106 9.47857E-05-2.66634E-05-2.92002E-05-1.82815E-06 1.22267E-18 2.46354E-18
 -1      2107 9.47061E-05-2.64297E-05-2.92561E-05-2.35873E-06 1.36543E-18 9.07278E-19
 -1      2108 9.36272E-05-2.73375E-05-2.83652E-05 2.02996E-06 2.68906E-19 3.98207E-18
 -1      2109 9.47251E-05-2.73391E-05-2.88196E-05 3.13262E-06 4.08124E-19 4.19922E-18
 -1      2110 9.54662E-05-2.68395E-05-2.94129E-05 4.53925E-06 4.52554E-19 3.38089E-18
 -1      2111 9.44024E-05-2.71703E-05-2.88271E-05 2.50201E-06 4.59409E-19 2.82346E-18
 -1      2112 5.91911E-05-3.84773E-05-9.30945E-06 4.31248E-05 2.18746E-18-6.23734E-19
 -1      2113 4.46177E-05-4.12053E-05-2.72048E-06 3.65543E-05 9.68159E-19 4.18011E-19
 -1      2114 1.34122E-04-3.87294E-05-4.02148E-05 4.07294E-05 1.56256E-18-3.17934E-18
 -1      2115 1.13083E-04-4.02464E-05-3.17483E-05 3.93027E-05 2.37423E-18-1.49882E-18
 -1      2116 1.16927E-05-3.52810E-05 8.72525E-06 1.02562E-05 2.06718E-18 1.97486E-18
 -1      2117 1.14657E-05-3.74353E-05 9.50040E-06 1.07897E-06 8.79432E-19 2.90998E-18
 -1      2118 9.76575E-05-4.10131E-05-2.41149E-05 4.60627E-05 1.81053E-18-9.09713E-19
 -1      2119 7.88321E-05-4.35545E-05-1.61282E-05 4.15000E-05 1.93378E-18-1.13460E-18
 -1      2120 8.72721E-05-8.72567E-06-3.37511E-05-1.05293E-05-1.02577E-19-1.79976E-18
 -1      2121 8.79637E-05-9.25384E-06-3.38201E-05-1.21165E-05-2.54007E-19-1.73266E-18
 -1      2122 9.04672E-05-1.30770E-05-3.32335E-05-1.19277E-05-3.46665E-19-1.53077E-18
 -1      2123 8.86749E-05-1.10354E-05-3.32977E-05-9.41615E-06-2.16953E-20-1.69997E-18
 -1      2124 1.64720E-04-3.48246E-05-5.45712E-05 2.69033E-05 1.54883E-18-6.93889E-18
 -1      2125 1.46151E-04-3.54879E-05-4.73440E-05 3.00983E-05 1.31460E-18-4.03950E-18
 -1      2126 1.82742E-04-2.82178E-05-6.49979E-05 1.27826E-05 3.34663E-18-8.37800E-18
 -1      2127 1.71796E-04-2.85999E-05-6.05143E-05 2.12869E-05 2.19212E-18-7.76094E-18
 -1      2128 1.85380E-04-2.38970E-05-6.80882E-05-1.17442E-06 3.41947E-18-7.49074E-18
 -1      2129 1.81503E-04-2.28507E-05-6.69968E-05 6.65407E-06 3.80402E-18-7.05578E-18
 -1      2130 1.70893E-04-2.18248E-05-6.34192E-05-8.78622E-06 2.01001E-18-6.73645E-18
 -1      2131 1.84506E-04-2.40362E-05-6.71237E-05-4.71674E-06 3.06838E-18-7.69011E-18
 -1      2132 1.59752E-04-1.12893E-05-6.26377E-05 4.93170E-07 2.62580E-18-4.41336E-18
 -1      2133 1.58559E-04-3.26447E-05-5.34670E-05-2.18459E-05 7.39830E-19-8.48600E-18
 -1      2134 1.68709E-04-3.00425E-05-5.89971E-05-1.37459E-05 8.54444E-19-7.34547E-18
 -1      2135 1.30198E-04-3.86224E-05-3.94293E-05-3.58316E-05 2.69949E-18-7.32683E-18
 -1      2136 1.49699E-04-3.84351E-05-4.71002E-05-3.25666E-05 1.41010E-18-9.60493E-18
 -1      2137 9.69207E-05-4.28996E-05-2.39637E-05-4.08556E-05 2.26327E-18-5.19994E-18
 -1      2138 1.17179E-04-4.08285E-05-3.22707E-05-4.37432E-05 3.13910E-18-6.05883E-18
 -1      2139 6.22187E-05-4.31050E-05-9.30919E-06-4.05507E-05 1.07827E-18-4.34274E-18
 -1      2140 7.97577E-05-4.05628E-05-1.68025E-05-4.64435E-05 1.97020E-18-4.90009E-18
 -1      2141 3.27701E-05-3.93331E-05 1.53858E-06-3.17729E-05-1.44843E-19-3.63801E-18
 -1      2142 4.54234E-05-3.74235E-05-3.92601E-06-3.95682E-05 1.30697E-18-4.24676E-18
 -1      2143 6.66939E-05-4.36748E-05-1.01116E-05-4.66188E-05-1.27055E-21-4.76255E-18
 -1      2144 1.30193E-05-3.75931E-05 8.85822E-06-1.09844E-05-1.27658E-18-3.90228E-18
 -1      2145 1.67941E-05-3.44670E-05 6.34246E-06-2.09726E-05-4.96150E-19-3.07981E-18
 -1      2146 1.57647E-05-3.28891E-05 6.27710E-06 1.18444E-05-7.06637E-19-1.48824E-18
 -1      2147 1.20792E-05-3.73101E-05 8.99281E-06-3.56843E-07-6.88572E-19-3.08151E-18
 -1      2148 1.34375E-05-2.51557E-05 4.30386E-06-6.11811E-06 2.88415E-19-3.15096E-18
 -1      2149 4.81078E-05-4.11272E-05-3.70772E-06 3.43322E-05-1.08971E-18-5.68783E-19
 -1      2150 3.24189E-05-3.83905E-05 1.66388E-06 2.58011E-05-2.97732E-19 1.71736E-19
 -1      2151 9.24353E-05-4.97616E-05-1.84962E-05 3.92315E-05-1.26166E-18-2.07947E-18
 -1      2152 7.20902E-05-4.99483E-05-1.05985E-05 3.47355E-05-8.25857E-19-1.76183E-18
 -1      2153 1.31425E-04-4.98242E-05-3.47000E-05 3.60296E-05-1.99434E-18 1.79952E-18
 -1      2154 1.07879E-04-5.08345E-05-2.56044E-05 3.35372E-05-2.31240E-18 3.57871E-19
 -1      2155 1.70936E-04-4.83035E-05-5.13809E-05 2.20716E-05-2.38344E-18 1.87448E-18
 -1      2156 1.47763E-04-4.88963E-05-4.27423E-05 2.51624E-05-1.74192E-18 1.28241E-18
 -1      2157 1.95192E-04-4.01588E-05-6.46424E-05 8.53610E-06-3.59015E-18 3.27717E-18
 -1      2158 1.78898E-04-4.14303E-05-5.82911E-05 1.10516E-05-3.34398E-18 1.71778E-18
 -1      2159 2.01596E-04-3.14679E-05-7.08983E-05-3.15994E-07-4.28768E-18 3.70789E-18
 -1      2160 1.98274E-04-3.36233E-05-6.86782E-05 5.51820E-06-4.23686E-18 3.02603E-18
 -1      2161 1.94394E-04-3.19104E-05-6.82590E-05-2.93010E-06-2.39117E-18 2.81977E-18
 -1      2162 1.96463E-04-2.96297E-05-6.99188E-05 8.23222E-07-2.70966E-18 1.87724E-18
 -1      2163 1.79977E-04-3.84419E-05-6.00042E-05-6.31258E-06-2.36534E-18 2.99723E-18
 -1      2164 1.94663E-04-3.74220E-05-6.57485E-05-4.61865E-06-2.56397E-18 3.17807E-18
 -1      2165 1.73155E-04-2.57819E-05-6.16665E-05 9.92603E-06-2.21626E-18-1.15260E-18
 -1      2166 1.54966E-04-4.87736E-05-4.55558E-05-2.22787E-05-1.53207E-18 3.63038E-18
 -1      2167 1.74282E-04-4.80860E-05-5.33442E-05-1.66887E-05-2.07904E-18 2.89008E-18
 -1      2168 1.15965E-04-5.04972E-05-2.91017E-05-3.23243E-05-1.31841E-18 5.03053E-18
 -1      2169 1.40207E-04-5.01934E-05-3.82463E-05-3.38864E-05-1.83891E-18 5.10295E-18
 -1      2170 7.49912E-05-4.95864E-05-1.24641E-05-3.40814E-05-1.09606E-18 5.17336E-18
 -1      2171 9.67509E-05-4.85914E-05-2.09774E-05-3.96107E-05-1.93759E-18 5.20819E-18
 -1      2172 3.79979E-05-4.38219E-05 7.86053E-07-2.66025E-05 7.31413E-19 6.38451E-18
 -1      2173 5.30795E-05-4.29020E-05-5.38892E-06-3.41253E-05-2.87568E-19 7.71875E-18
 -1      2174 1.65571E-05-3.73366E-05 7.39220E-06-9.94273E-06 2.77615E-19 2.47376E-18
 -1      2175 2.37004E-05-3.61657E-05 4.36888E-06-2.00624E-05-4.58668E-19 3.57363E-18
 -1      2176 2.95847E-05-3.45485E-05 1.48520E-06 3.23494E-05 1.11300E-18 8.05528E-19
 -1      2177 2.06151E-05-3.58616E-05 5.38591E-06 2.27042E-05 1.72583E-18 6.74662E-19
 -1      2178 9.55218E-05-2.80117E-05-2.89307E-05-1.23901E-06 4.41135E-21-2.98405E-18
 -1      2179 1.18323E-04-5.22286E-05-2.81408E-05 3.74002E-05 1.39972E-18-2.24167E-18
 -1      2180 9.71642E-05-2.43071E-05-3.12984E-05-1.00079E-05-7.78953E-19-6.39430E-19
 -1      2181 8.22051E-05-4.81395E-05-1.47841E-05 4.61325E-05 6.17911E-19-1.58771E-18
 -1      2182 1.45400E-04-4.55137E-05-4.21854E-05 2.19167E-05 1.56331E-18-5.23170E-18
 -1      2183 9.63287E-05-2.30928E-05-3.14500E-05-1.03907E-05-7.69027E-19-8.59103E-19
 -1      2184 9.54018E-05-2.80472E-05-2.88651E-05 1.11806E-06-1.31327E-18 5.86233E-19
 -1      2185 1.87461E-05-2.61000E-05 2.62958E-06 2.08121E-05 3.83706E-19 1.83594E-18
 -1      2186 9.53907E-05-2.76944E-05-2.90106E-05-1.48979E-06 4.10210E-19-1.87664E-18
 -1      2187 4.49567E-05-3.62358E-05-4.20357E-06 4.07349E-05-1.10030E-18-3.89635E-19
 -1      2188 1.57515E-05-2.59421E-05 3.67094E-06-7.56882E-06-1.52858E-18 3.59608E-18
 -1      2189 3.73424E-05-3.56613E-05-1.39548E-06-2.93570E-05-2.96038E-19 4.96870E-18
 -1      2190 7.72239E-05-5.10115E-05-1.17525E-05-3.90801E-05-1.73218E-19 6.05523E-18
 -1      2191 1.20437E-04-6.03046E-05-2.58726E-05-3.16788E-05-1.92276E-19 3.57998E-18
 -1      2192 1.72491E-04-4.49513E-05-5.37906E-05 3.39355E-06-8.60797E-19 4.90432E-19
 -1      2193 1.76564E-04-2.10645E-05-6.50514E-05 1.18551E-06-2.72660E-18 6.08990E-19
 -1      2194 1.79458E-04-3.07076E-05-6.22124E-05-7.50445E-06-4.09244E-18 2.61098E-18
 -1      2195 1.71485E-04-4.77353E-05-5.19825E-05 1.79596E-06-2.22526E-18 2.70923E-18
 -1      2196 1.49414E-04-5.97039E-05-3.81752E-05 1.82069E-05-1.15514E-18 2.84476E-18
 -1      2197 1.15035E-04-6.09071E-05-2.35827E-05 3.29619E-05-4.87467E-19 1.42810E-18
 -1      2198 2.81079E-05-3.18296E-05 1.13783E-06 2.18181E-05 3.50460E-19 1.32349E-19
 -1      2199 2.50323E-05-2.23499E-05-7.90150E-07 1.81467E-05 1.28982E-18-5.98005E-19
 -1      2200 4.15309E-05-3.01184E-05-5.01204E-06 3.12696E-05 1.41095E-18 5.91017E-19
 -1      2201 3.06848E-05-3.16612E-05-1.12963E-07-3.29762E-05 1.18161E-19-4.19620E-18
 -1      2202 1.02747E-04-5.24697E-05-2.15184E-05-4.26731E-05 8.66515E-19-4.24215E-18
 -1      2203 1.33093E-04-5.07389E-05-3.48723E-05-2.98554E-05 1.17526E-18-5.99403E-18
 -1      2204 1.62502E-04-2.37485E-05-5.88743E-05-4.52153E-06 4.14623E-19-5.52371E-18
 -1      2205 1.48749E-04-1.60127E-05-5.74498E-05 5.14212E-06 8.07222E-19-3.22201E-18
 -1      2206 1.50090E-04-2.50894E-05-5.34266E-05 1.95479E-06-3.98741E-19-3.24795E-18
 -1      2207 1.60052E-04-3.11566E-05-5.42758E-05 7.91122E-06 2.62400E-18-6.69241E-18
 -1      2208 1.64522E-04-1.71921E-05-6.20069E-05 1.93888E-06 3.45971E-18-6.29345E-18
 -1      2209 1.52652E-04-3.95048E-05-4.77226E-05-1.39893E-05-1.34096E-19-6.05840E-18
 -1      2210 7.26451E-05-4.82719E-05-1.07586E-05 3.90409E-05 5.87841E-19-9.78852E-19
 -1      2211 1.54464E-04-5.86967E-05-4.05091E-05-1.49715E-05-1.16467E-20 1.36881E-18
 -1      2212 9.54437E-05-2.74888E-05-2.91180E-05-2.09975E-06-5.59197E-20-6.20831E-19
 -1      2213 8.81551E-05-1.11876E-05-3.30254E-05-3.66341E-06 5.57525E-19-1.24385E-18
 -1      2214 8.83874E-05-1.14583E-05-3.30069E-05-4.80600E-06 4.35927E-19-1.39655E-18
 -1      2215 8.87381E-05-1.19433E-05-3.29573E-05-5.82375E-06 3.36483E-19-1.43747E-18
 -1      2216 8.91404E-05-1.24138E-05-3.29280E-05-7.00003E-06 1.66793E-19-1.49498E-18
 -1      2217 8.99063E-05-1.38258E-05-3.26048E-05-4.90473E-06 3.75484E-19-1.29067E-18
 -1      2218 8.78117E-05-1.07285E-05-3.30697E-05 6.16391E-07 9.90551E-19-8.75435E-19
 -1      2219 8.78075E-05-1.07237E-05-3.30700E-05-4.95431E-07 8.79237E-19-9.98486E-19
 -1      2220 8.79910E-05-1.09531E-05-3.30507E-05 2.76012E-06 1.13681E-18-5.99812E-19
 -1      2221 8.78773E-05-1.08202E-05-3.30604E-05 1.63995E-06 1.03370E-18-7.38838E-19
 -1      2222 8.91292E-05-1.27737E-05-3.27269E-05 1.05090E-06 9.19442E-19-7.41796E-19
 -1      2223 8.84218E-05-1.14997E-05-3.30042E-05 4.89107E-06 1.35197E-18-3.90198E-19
 -1      2224 8.81843E-05-1.12232E-05-3.30230E-05 3.76708E-06 1.22741E-18-5.74646E-19
 -1      2225 8.93929E-05-1.31291E-05-3.26862E-05 3.02344E-06 1.12581E-18-5.04137E-19
 -1      2226 8.91961E-05-1.24818E-05-3.29234E-05 7.07999E-06 1.52033E-18 1.94599E-19
 -1      2227 8.87807E-05-1.19954E-05-3.29536E-05 5.90733E-06 1.41296E-18-1.39721E-19
 -1      2228 8.99459E-05-1.38762E-05-3.26003E-05 4.97883E-06 1.31217E-18-1.79928E-19
 -1      2229 9.04593E-05-1.40903E-05-3.27938E-05 9.22951E-06 1.51356E-18 6.16872E-19
 -1      2230 8.97825E-05-1.32808E-05-3.28404E-05 8.05112E-06 1.47225E-18 3.82449E-19
 -1      2231 9.08766E-05-1.51355E-05-3.24533E-05 6.87483E-06 1.45487E-18 2.93867E-19
 -1      2232 9.24473E-05-1.66864E-05-3.25705E-05 1.10660E-05 1.34474E-18 1.34445E-18
 -1      2233 9.13574E-05-1.53118E-05-3.26550E-05 1.00476E-05 1.42003E-18 9.12910E-19
 -1      2234 9.22942E-05-1.70906E-05-3.22094E-05 8.53529E-06 1.30538E-18 7.58793E-19
 -1      2235 9.54821E-05-2.08175E-05-3.20932E-05 1.17122E-05 1.07422E-18 2.42450E-18
 -1      2236 9.37978E-05-1.84774E-05-3.23184E-05 1.14790E-05 1.21261E-18 1.75593E-18
 -1      2237 9.43283E-05-2.00401E-05-3.17881E-05 9.49294E-06 1.10444E-18 1.46408E-18
 -1      2238 9.74887E-05-2.45897E-05-3.13055E-05 9.85413E-06 8.68235E-19 3.35999E-18
 -1      2239 9.62552E-05-2.22234E-05-3.17248E-05 1.11002E-05 9.91280E-19 2.83886E-18
 -1      2240 9.57936E-05-2.31927E-05-3.11131E-05 8.80163E-06 8.79022E-19 2.34744E-18
 -1      2241 9.62961E-05-2.56638E-05-3.02776E-05 6.88804E-06 6.39947E-19 3.12184E-18
 -1      2242 9.58951E-05-2.50857E-05-3.02990E-05-6.19493E-06-6.46961E-19-8.90690E-19
 -1      2243 9.52355E-05-2.58446E-05-2.97555E-05-4.28892E-06-5.47805E-19-8.97805E-19
 -1      2244 9.62946E-05-5.14217E-05-1.92904E-05 4.51214E-05-5.20502E-19-2.23704E-18
 -1      2245 7.77912E-05-4.60421E-05-1.34502E-05 4.55417E-05-1.22820E-19-2.56196E-18
 -1      2246 1.29586E-04-5.55396E-05-3.19344E-05 3.03034E-05 1.28071E-18-4.09286E-18
 -1      2247 1.14754E-04-5.56910E-05-2.52425E-05 3.59104E-05 4.52316E-19-2.20483E-18
 -1      2248 9.51205E-05-2.65293E-05-2.93389E-05-2.94544E-06-5.39477E-19-8.21192E-19
 -1      2249 9.46525E-05-2.69016E-05-2.90357E-05-1.88341E-06-4.56154E-19-8.02793E-19
 -1      2250 9.53261E-05-2.53481E-05-2.99930E-05-4.30174E-06-5.84731E-19-1.01345E-18
 -1      2251 9.44566E-05-2.72304E-05-2.87727E-05-1.03180E-06-3.75021E-19-7.32328E-19
 -1      2252 9.41991E-05-2.74430E-05-2.86071E-05-4.28185E-07-3.08037E-19-8.65941E-19
 -1      2253 9.50238E-05-2.66944E-05-2.92970E-05-1.92576E-06-4.09065E-19-8.76530E-19
 -1      2254 9.40518E-05-2.76225E-05-2.84470E-05 8.28984E-08-2.28613E-19-8.06167E-19
 -1      2255 9.39550E-05-2.77648E-05-2.83645E-05 4.16167E-07-1.35072E-19-7.71704E-19
 -1      2256 9.47195E-05-2.74189E-05-2.88560E-05-4.40689E-07-2.16615E-19-7.43090E-19
 -1      2257 9.38729E-05-2.78731E-05-2.82729E-05 7.04293E-07-6.62553E-20-7.04787E-19
 -1      2258 9.38820E-05-2.79786E-05-2.82418E-05 8.74265E-07-1.42053E-19-7.48041E-19
 -1      2259 9.45220E-05-2.78436E-05-2.85870E-05 4.39295E-07-1.22526E-19-6.94244E-19
 -1      2260 9.38546E-05-2.80489E-05-2.81958E-05 1.02029E-06-2.21754E-19-7.13555E-19
 -1      2261 9.39279E-05-2.81311E-05-2.81964E-05 1.09181E-06-2.94550E-20-5.95969E-19
 -1      2262 9.44353E-05-2.81079E-05-2.84338E-05 9.25759E-07-1.29656E-19-6.91391E-19
 -1      2263 9.39398E-05-2.81785E-05-2.81805E-05 1.15032E-06-2.29555E-20-6.88913E-19
 -1      2264 9.40491E-05-2.82434E-05-2.82004E-05 1.16491E-06-3.23218E-19-7.09526E-19
 -1      2265 9.44352E-05-2.82779E-05-2.83586E-05 1.16284E-06-1.59536E-19-9.01007E-19
 -1      2266 9.40869E-05-2.82753E-05-2.82044E-05 1.17349E-06-5.57591E-19-5.10595E-19
 -1      2267 9.42143E-05-2.83264E-05-2.82357E-05 1.15906E-06-6.08657E-19-5.36541E-19
 -1      2268 9.44949E-05-2.83870E-05-2.83356E-05 1.24939E-06-3.54558E-19-7.83567E-19
 -1      2269 9.42684E-05-2.83467E-05-2.82529E-05 1.14418E-06-4.82091E-19-6.06575E-19
 -1      2270 9.44039E-05-2.83864E-05-2.82911E-05 1.12031E-06-3.29284E-19-6.10429E-19
 -1      2271 9.45928E-05-2.84537E-05-2.83478E-05 1.25440E-06-5.19052E-19-4.78458E-19
 -1      2272 9.44685E-05-2.83978E-05-2.83175E-05 1.10122E-06-2.05184E-19-3.10212E-19
 -1      2273 9.46081E-05-2.84280E-05-2.83603E-05 1.08234E-06-8.79456E-20-1.62091E-19
 -1      2274 9.47144E-05-2.84887E-05-2.83842E-05 1.22726E-06-1.01945E-19-2.80729E-19
 -1      2275 9.46800E-05-2.84320E-05-2.83938E-05 1.07374E-06 8.52596E-20 1.01211E-19
 -1      2276 9.48241E-05-2.84546E-05-2.84409E-05 1.07130E-06 3.39270E-19 3.25972E-19
 -1      2277 9.48514E-05-2.84987E-05-2.84383E-05 1.20462E-06 1.14925E-19 4.32931E-19
 -1      2278 9.49025E-05-2.84518E-05-2.84808E-05 1.08523E-06 1.00364E-19 1.86642E-19
 -1      2279 9.50550E-05-2.84685E-05-2.85330E-05 1.10926E-06 1.20903E-19 1.30774E-19
 -1      2280 9.50005E-05-2.84876E-05-2.85069E-05 1.21532E-06 1.07900E-19 2.79371E-19
 -1      2281 9.51406E-05-2.84590E-05-2.85798E-05 1.15673E-06-6.00729E-20-1.17021E-19
 -1      2282 9.53084E-05-2.84710E-05-2.86392E-05 1.21718E-06-3.09096E-19-2.94667E-19
 -1      2283 9.51619E-05-2.84565E-05-2.85894E-05 1.28404E-06-2.47992E-19 1.14770E-19
 -1      2284 9.54028E-05-2.84538E-05-2.86943E-05 1.30943E-06-4.04365E-19-5.20452E-19
 -1      2285 9.55959E-05-2.84622E-05-2.87641E-05 1.41716E-06-4.52921E-19-4.75554E-19
 -1      2286 9.53380E-05-2.84045E-05-2.86873E-05 1.43427E-06-4.11022E-19-2.37326E-19
 -1      2287 9.57068E-05-2.84339E-05-2.88333E-05 1.57499E-06-2.79713E-19-7.31050E-19
 -1      2288 9.59478E-05-2.84388E-05-2.89225E-05 1.75529E-06-3.62176E-19-5.62191E-19
 -1      2289 9.55376E-05-2.83259E-05-2.88070E-05 1.69962E-06-5.78795E-19-2.66610E-19
 -1      2290 9.60644E-05-2.83976E-05-2.90024E-05 1.98168E-06-2.70400E-19-1.48865E-19
 -1      2291 9.63473E-05-2.83996E-05-2.91077E-05 2.23275E-06-2.90830E-19 6.41984E-20
 -1      2292 9.57592E-05-2.82122E-05-2.89505E-05 2.10679E-06-2.28341E-20-5.77010E-20
 -1      2293 9.64748E-05-2.83392E-05-2.92040E-05 2.55155E-06-3.49945E-19 9.05327E-20
 -1      2294 9.68261E-05-2.83373E-05-2.93356E-05 2.90280E-06 1.95962E-19 8.39661E-20
 -1      2295 9.59971E-05-2.80572E-05-2.91186E-05 2.67817E-06-2.93490E-19 2.68908E-19
 -1      2296 9.69597E-05-2.82502E-05-2.94512E-05 3.33747E-06-1.00034E-19-4.14951E-20
 -1      2297 9.73983E-05-2.82445E-05-2.96158E-05 3.81527E-06-3.98738E-19-1.11771E-19
 -1      2298 9.62517E-05-2.78426E-05-2.93189E-05 3.46374E-06-2.30550E-19-4.23364E-19
 -1      2299 9.75293E-05-2.81222E-05-2.97521E-05 4.39352E-06-4.82381E-19-3.64617E-19
 -1      2300 9.80765E-05-2.81153E-05-2.99562E-05 5.02767E-06-2.48700E-19-6.08477E-19
 -1      2301 9.65104E-05-2.75500E-05-2.95536E-05 4.51368E-06-5.87737E-19-6.42749E-19
 -1      2302 9.81915E-05-2.79521E-05-3.01114E-05 5.77986E-06 5.12174E-20-7.39480E-19
 -1      2303 9.88713E-05-2.79553E-05-3.03594E-05 6.59845E-06 4.67102E-19-7.00820E-19
 -1      2304 9.67524E-05-2.71649E-05-2.98197E-05 5.88384E-06-2.02295E-19-2.92198E-19
 -1      2305 9.89572E-05-2.77582E-05-3.05259E-05 7.55267E-06 4.62142E-19-1.26152E-18
 -1      2306 9.98007E-05-2.78050E-05-3.08166E-05 8.56902E-06-2.10051E-19-1.16126E-18
 -1      2307 9.69517E-05-2.66923E-05-3.01041E-05 7.62892E-06 4.78325E-20-3.89317E-19
 -1      2308 9.98605E-05-2.76167E-05-3.09764E-05 9.74053E-06-3.18292E-19-1.28513E-18
 -1      2309 1.00918E-04-2.77914E-05-3.12980E-05 1.09258E-05-2.59349E-19-1.39835E-18
 -1      2310 9.70967E-05-2.61949E-05-3.03760E-05 9.78782E-06-2.45074E-19-9.30178E-19
 -1      2311 1.01013E-04-2.77360E-05-3.14180E-05 1.22964E-05 3.38916E-19-1.17745E-18
 -1      2312 1.02386E-04-2.82258E-05-3.17415E-05 1.35288E-05 1.17082E-19-3.53829E-19
 -1      2313 9.72422E-05-2.58694E-05-3.05775E-05 1.23576E-05 2.80470E-19-3.12472E-19
 -1      2314 1.02725E-04-2.85870E-05-3.17736E-05 1.50055E-05-2.25158E-19-1.28264E-19
 -1      2315 1.04626E-04-2.97549E-05-3.20527E-05 1.59915E-05-1.40295E-19 5.65305E-19
 -1      2316 9.76323E-05-2.61871E-05-3.06179E-05 1.52475E-05 5.61591E-19-1.71586E-19
 -1      2317 1.05714E-04-3.10693E-05-3.19519E-05 1.73216E-05-2.48959E-19 8.05956E-19
 -1      2318 1.08537E-04-3.34790E-05-3.21420E-05 1.74879E-05 4.00829E-19 4.39135E-19
 -1      2319 9.89277E-05-2.80835E-05-3.03933E-05 1.81870E-05 6.22520E-20-1.80334E-20
 -1      2320 1.11366E-04-3.65580E-05-3.19217E-05 1.81293E-05 6.08428E-19 3.98878E-19
 -1      2321 1.15637E-04-4.08042E-05-3.20660E-05 1.65641E-05 8.17784E-19-1.43154E-19
 -1      2322 1.02525E-04-3.30963E-05-2.98615E-05 2.05874E-05 2.82621E-19 4.64770E-19
 -1      2323 1.21630E-04-4.61826E-05-3.20474E-05 1.50611E-05 2.19117E-19 3.84811E-19
 -1      2324 1.27308E-04-5.14447E-05-3.25363E-05 1.06907E-05-1.33514E-19 1.68421E-19
 -1      2325 1.10925E-04-4.29754E-05-2.93064E-05 2.09890E-05 5.80429E-19 8.14052E-19
 -1      2326 1.36370E-04-5.72621E-05-3.36635E-05 5.67872E-06 4.89810E-19 2.31716E-19
 -1      2327 1.41265E-04-5.94261E-05-3.52099E-05-1.00908E-06 2.09058E-19 1.72093E-18
 -1      2328 1.25529E-04-5.57245E-05-3.01135E-05 1.62364E-05 4.56921E-19 2.25356E-18
 -1      2329 1.51380E-04-5.93847E-05-3.96299E-05-1.14840E-05-1.27081E-18 1.66326E-18
 -1      2330 1.51543E-04-5.15429E-05-4.31367E-05-1.70112E-05-1.98846E-18 2.01509E-18
 -1      2331 1.59904E-04-4.24775E-05-5.08145E-05-1.80876E-05-2.34903E-18 1.79529E-18
 -1      2332 1.57218E-04-2.91387E-05-5.51111E-05-1.42192E-05-3.31444E-18 1.55685E-18
 -1      2333 1.53670E-04-1.98291E-05-5.77469E-05-4.48565E-06-2.47037E-18-1.73430E-19
 -1      2334 1.54773E-04-2.18178E-05-5.76790E-05 7.80172E-06-1.42640E-18-8.65668E-19
 -1      2335 1.43689E-04-5.97472E-05-3.60765E-05 3.18731E-06 1.26653E-18-1.45859E-18
 -1      2336 1.38279E-04-5.82068E-05-3.40498E-05-4.21249E-06 1.36089E-18-2.09394E-18
 -1      2337 1.28500E-04-5.24188E-05-3.26386E-05-1.00267E-05 1.23566E-18-2.87760E-18
 -1      2338 1.22692E-04-4.71016E-05-3.21090E-05-1.46512E-05 9.15762E-19-3.40386E-18
 -1      2339 1.27799E-04-5.72851E-05-3.04511E-05-1.53870E-05 7.71594E-19-1.52324E-18
 -1      2340 1.16414E-04-4.15977E-05-3.20605E-05-1.64010E-05 7.46262E-19-3.53465E-18
 -1      2341 1.12001E-04-3.72344E-05-3.18939E-05-1.81798E-05 5.66811E-19-3.05420E-18
 -1      2342 1.12096E-04-4.39779E-05-2.93707E-05-2.08132E-05 6.17434E-19-3.28186E-18
 -1      2343 1.08922E-04-3.39862E-05-3.20952E-05-1.77388E-05 8.56463E-19-3.66336E-18
 -1      2344 1.05965E-04-3.14192E-05-3.19021E-05-1.76972E-05 1.16414E-18-2.51010E-18
 -1      2345 1.03190E-04-3.38443E-05-2.98226E-05-2.08773E-05 8.90787E-19-2.59228E-18
 -1      2346 1.04738E-04-2.99895E-05-3.20020E-05-1.64332E-05 9.13695E-19-2.58746E-18
 -1      2347 1.02739E-04-2.87285E-05-3.17175E-05-1.55152E-05 6.40898E-19-1.60821E-18
 -1      2348 9.91933E-05-2.84680E-05-3.03447E-05-1.86854E-05 1.22915E-18-2.95129E-18
 -1      2349 1.02320E-04-2.83027E-05-3.16819E-05-1.40727E-05-1.14967E-19-1.11176E-18
 -1      2350 1.00868E-04-2.77532E-05-3.13478E-05-1.28700E-05-4.51823E-19-5.78482E-19
 -1      2351 9.76842E-05-2.63638E-05-3.05676E-05-1.58346E-05 6.51050E-19-1.37595E-18
 -1      2352 1.00722E-04-2.77713E-05-3.12229E-05-1.15113E-05-7.09372E-19-4.91993E-19
 -1      2353 9.95930E-05-2.75533E-05-3.08884E-05-1.03327E-05-5.69420E-19 2.94955E-19
 -1      2354 9.71600E-05-2.59207E-05-3.05218E-05-1.29859E-05-1.66325E-19-2.66654E-19
 -1      2355 9.94939E-05-2.77133E-05-3.07244E-05-9.15698E-06-5.20525E-19-5.49377E-19
 -1      2356 9.85838E-05-2.76261E-05-3.04216E-05-8.12825E-06-5.44330E-19-1.16701E-18
 -1      2357 9.69199E-05-2.61618E-05-3.03151E-05-1.04209E-05-1.33139E-18-4.53848E-19
 -1      2358 9.84613E-05-2.77908E-05-3.02541E-05-7.15142E-06-1.75627E-19-1.89732E-18
 -1      2359 9.77193E-05-2.77403E-05-2.99981E-05-6.29675E-06 5.04372E-19-2.55739E-18
 -1      2360 9.66948E-05-2.65807E-05-3.00424E-05-8.23206E-06-8.36419E-19-7.66517E-19
 -1      2361 9.75643E-05-2.78566E-05-2.98478E-05-5.49459E-06 3.25790E-19-2.51461E-18
 -1      2362 9.69623E-05-2.78022E-05-2.96428E-05-4.78970E-06-5.63941E-19-2.35859E-18
 -1      2363 9.64150E-05-2.69524E-05-2.97665E-05-6.40999E-06 2.65164E-19-2.26977E-18
 -1      2364 9.67822E-05-2.78534E-05-2.95190E-05-4.11731E-06-5.73158E-19-1.43273E-18
 -1      2365 9.63023E-05-2.77805E-05-2.93627E-05-3.52146E-06 2.10203E-19-1.14723E-18
 -1      2366 9.60775E-05-2.71915E-05-2.95227E-05-4.89549E-06-3.40066E-19-2.60758E-18
 -1      2367 9.60410E-05-2.76742E-05-2.92821E-05-3.06987E-06-1.03421E-18-6.51100E-19
 -1      2368 9.56674E-05-2.75905E-05-2.91680E-05-2.52844E-06-9.82296E-19-1.79363E-18
 -1      2369 9.51840E-05-2.70206E-05-2.92247E-05-2.75417E-06 4.53367E-19 9.15479E-19
 -1      2370 9.56191E-05-2.71884E-05-2.93375E-05-3.70979E-06-7.15359E-19-1.14119E-18
 -1      2371 9.36962E-05-2.78398E-05-2.82205E-05-6.67590E-07 3.42729E-19 1.45057E-18
 -1      2372 9.37267E-05-2.77259E-05-2.82682E-05-4.32699E-07 5.68527E-19 1.65556E-18
 -1      2373 9.38520E-05-2.76036E-05-2.83875E-05-4.58240E-08 5.22638E-19 1.76582E-18
 -1      2374 9.40262E-05-2.74498E-05-2.85014E-05 3.96769E-07 5.39704E-19 1.88919E-18
 -1      2375 9.44435E-05-2.76488E-05-2.86386E-05-5.10871E-08 6.42387E-19 1.44479E-18
 -1      2376 9.42251E-05-2.72288E-05-2.87065E-05 1.06341E-06 5.23582E-19 1.90141E-18
 -1      2377 9.45846E-05-2.69861E-05-2.89320E-05 1.86731E-06 5.11196E-19 1.94106E-18
 -1      2378 9.47299E-05-2.71399E-05-2.89823E-05 1.10352E-06 6.18456E-19 1.47534E-18
 -1      2379 9.37004E-05-2.80087E-05-2.81506E-05-9.86145E-07 2.35745E-19 1.24571E-18
 -1      2380 9.36424E-05-2.79182E-05-2.81580E-05-8.75628E-07 1.80365E-19 1.22927E-18
 -1      2381 9.42940E-05-2.79574E-05-2.84393E-05-7.13801E-07 3.97280E-19 1.22838E-18
 -1      2382 9.38077E-05-2.81372E-05-2.81421E-05-1.11905E-06 5.34199E-19 1.16084E-18
 -1      2383 9.36994E-05-2.80631E-05-2.81253E-05-1.08223E-06 4.05245E-19 1.26570E-18
 -1      2384 9.42595E-05-2.81570E-05-2.83362E-05-1.06016E-06 3.80405E-19 1.08060E-18
 -1      2385 9.39759E-05-2.82373E-05-2.81716E-05-1.14401E-06 5.79862E-19 1.06910E-18
 -1      2386 9.38419E-05-2.81763E-05-2.81409E-05-1.14812E-06 5.03647E-19 1.03509E-18
 -1      2387 9.43059E-05-2.82904E-05-2.82968E-05-1.21029E-06 6.86575E-19 7.33101E-19
 -1      2388 9.41769E-05-2.83155E-05-2.82244E-05-1.11381E-06 4.59797E-19 1.01074E-18
 -1      2389 9.40319E-05-2.82656E-05-2.81858E-05-1.13683E-06 6.32988E-19 1.09307E-18
 -1      2390 9.44042E-05-2.83796E-05-2.82992E-05-1.24608E-06 6.17494E-19 9.25143E-19
 -1      2391 9.43943E-05-2.83768E-05-2.82912E-05-1.06498E-06 2.09004E-19 1.03149E-18
 -1      2392 9.42459E-05-2.83358E-05-2.82484E-05-1.09177E-06 3.16430E-19 9.37689E-19
 -1      2393 9.45338E-05-2.84377E-05-2.83288E-05-1.22414E-06 3.57785E-19 1.13409E-18
 -1      2394 9.46205E-05-2.84256E-05-2.83670E-05-1.02307E-06 3.00407E-19 8.71626E-19
 -1      2395 9.44713E-05-2.83913E-05-2.83217E-05-1.04311E-06 3.22853E-19 9.88343E-19
 -1      2396 9.46819E-05-2.84733E-05-2.83765E-05-1.18411E-06 2.21061E-19 6.70082E-19
 -1      2397 9.48548E-05-2.84665E-05-2.84496E-05-1.00579E-06-1.09017E-19 9.45221E-19
 -1      2398 9.47038E-05-2.84363E-05-2.84022E-05-1.01189E-06 1.30915E-19 9.70683E-19
 -1      2399 9.48425E-05-2.84931E-05-2.84365E-05-1.15384E-06 2.03921E-19 9.68189E-19
 -1      2400 9.51013E-05-2.85048E-05-2.85384E-05-1.02484E-06-2.28851E-19 5.15799E-19
 -1      2401 9.49448E-05-2.84755E-05-2.84885E-05-1.01243E-06-3.23557E-19 5.90724E-19
 -1      2402 9.50147E-05-2.85035E-05-2.85058E-05-1.15259E-06 5.92720E-20 7.34213E-19
 -1      2403 9.53674E-05-2.85466E-05-2.86342E-05-1.08662E-06 1.69198E-19 4.24260E-19
 -1      2404 9.52003E-05-2.85148E-05-2.85809E-05-1.05358E-06 7.03545E-20 3.74221E-19
 -1      2405 9.52020E-05-2.85111E-05-2.85830E-05-1.19288E-06-2.92315E-21-3.62946E-20
 -1      2406 9.56630E-05-2.85998E-05-2.87378E-05-1.19198E-06-1.50909E-19-1.67798E-20
 -1      2407 9.54794E-05-2.85610E-05-2.86803E-05-1.13890E-06 4.61682E-20 3.95348E-19
 -1      2408 9.54108E-05-2.85234E-05-2.86674E-05-1.28111E-06 8.44660E-20 5.93470E-20
 -1      2409 9.59990E-05-2.86738E-05-2.88501E-05-1.33498E-06 8.35273E-19 8.97850E-21
 -1      2410 9.57930E-05-2.86230E-05-2.87876E-05-1.26591E-06 3.10578E-19-2.05082E-19
 -1      2411 9.56507E-05-2.85504E-05-2.87590E-05-1.41707E-06 2.44462E-19-4.35790E-19
 -1      2412 9.63862E-05-2.87807E-05-2.89707E-05-1.50069E-06 2.57423E-19 6.23347E-19
 -1      2413 9.61531E-05-2.87118E-05-2.89033E-05-1.42432E-06 6.10103E-19 2.83590E-19
 -1      2414 9.59332E-05-2.86051E-05-2.88570E-05-1.59248E-06 5.30947E-19 2.55704E-20
 -1      2415 9.68334E-05-2.89350E-05-2.90975E-05-1.66222E-06-5.75401E-19 1.09676E-18
 -1      2416 9.65714E-05-2.88412E-05-2.90265E-05-1.59336E-06-2.08820E-19 9.35288E-19
 -1      2417 9.62721E-05-2.87044E-05-2.89600E-05-1.78838E-06-1.06990E-19 6.46168E-19
 -1      2418 9.73459E-05-2.91528E-05-2.92261E-05-1.77737E-06-8.39923E-19 9.67214E-19
 -1      2419 9.70571E-05-2.90273E-05-2.91541E-05-1.73853E-06-8.22413E-19 1.02401E-18
 -1      2420 9.66824E-05-2.88697E-05-2.90654E-05-1.97179E-06-6.89847E-19 1.07378E-18
 -1      2421 9.79210E-05-2.94497E-05-2.93490E-05-1.78599E-06 3.15028E-20 1.57026E-18
 -1      2422 9.76147E-05-2.92871E-05-2.92807E-05-1.80827E-06-1.08697E-19 1.44776E-18
 -1      2423 9.71790E-05-2.91258E-05-2.91688E-05-2.09202E-06-6.64130E-19 9.53330E-19
 -1      2424 9.85443E-05-2.98351E-05-2.94560E-05-1.60995E-06 1.19973E-19 2.16124E-18
 -1      2425 9.82391E-05-2.96352E-05-2.93981E-05-1.73229E-06 9.80011E-20 2.14437E-18
 -1      2426 9.77732E-05-2.94974E-05-2.92644E-05-2.07807E-06-1.77516E-19 1.42728E-18
 -1      2427 9.91822E-05-3.03033E-05-2.95349E-05-1.15896E-06 1.70661E-19 2.56508E-18
 -1      2428 9.89092E-05-3.00754E-05-2.94957E-05-1.42385E-06 3.37560E-19 2.64158E-18
 -1      2429 9.84677E-05-3.00010E-05-2.93460E-05-1.83908E-06 9.54194E-20 2.53879E-18
 -1      2430 9.97728E-05-3.08180E-05-2.95741E-05-3.46872E-07-6.31288E-20 2.06609E-18
 -1      2431 9.95786E-05-3.05890E-05-2.95622E-05-7.90306E-07 1.35459E-19 2.06216E-18
 -1      2432 9.92451E-05-3.06299E-05-2.94086E-05-1.27194E-06 3.67937E-19 2.49982E-18
 -1      2433 1.00217E-04-3.12947E-05-2.95654E-05 8.76489E-07-3.53731E-19 2.11409E-18
 -1      2434 1.00163E-04-3.11162E-05-2.95878E-05 2.42769E-07-3.44083E-19 1.93836E-18
 -1      2435 1.00052E-04-3.13323E-05-2.94512E-05-2.81366E-07-5.98345E-20 2.19435E-18
 -1      2436 1.00377E-04-3.15872E-05-2.95093E-05 2.47554E-06 2.96610E-19 1.59737E-18
 -1      2437 1.00534E-04-3.15387E-05-2.95684E-05 1.68912E-06 3.07155E-19 1.44365E-18
 -1      2438 1.00782E-04-3.19851E-05-2.94796E-05 1.18087E-06 9.66147E-20 1.47118E-18
 -1      2439 1.00088E-04-3.14979E-05-2.94173E-05 4.26926E-06-2.28623E-19 1.27987E-18
 -1      2440 1.00517E-04-3.16752E-05-2.95088E-05 3.44268E-06-1.25478E-19 1.29190E-18
 -1      2441 1.01258E-04-3.23789E-05-2.95084E-05 3.05479E-06 1.87530E-19 1.54697E-18
 -1      2442 9.92147E-05-3.08335E-05-2.93120E-05 5.88837E-06-3.55657E-19 1.28053E-18
 -1      2443 9.99374E-05-3.13130E-05-2.94236E-05 5.21962E-06-1.95491E-19 1.28832E-18
 -1      2444 1.01254E-04-3.22413E-05-2.95588E-05 5.09991E-06 1.40930E-19 4.19468E-19
 -1      2445 9.77426E-05-2.95220E-05-2.92208E-05 6.79970E-06-5.27940E-19 2.30940E-18
 -1      2446 9.86971E-05-3.02984E-05-2.93344E-05 6.54248E-06-7.43624E-19 1.91424E-18
 -1      2447 1.00567E-04-3.13286E-05-2.96511E-05 6.84758E-06-9.10682E-19 1.76359E-18
 -1      2448 9.58911E-05-2.77553E-05-2.91635E-05 6.45973E-06 4.02572E-20 3.12052E-18
 -1      2449 9.69055E-05-2.86829E-05-2.92605E-05 6.83335E-06 3.77864E-19 3.37529E-18
 -1      2450 9.91578E-05-2.96041E-05-2.97911E-05 7.64703E-06-8.50455E-19 3.05753E-18
 -1      2451 9.41480E-05-2.60391E-05-2.91434E-05 4.59832E-06-3.15593E-19 2.63533E-18
 -1      2452 9.49644E-05-2.68381E-05-2.92097E-05 5.65584E-06 1.22871E-19 2.72149E-18
 -1      2453 9.73102E-05-2.74082E-05-2.99566E-05 6.88837E-06 1.09106E-19 3.28061E-18
 -1      2454 9.31229E-05-2.50253E-05-2.91481E-05 1.48421E-06-2.98589E-19 3.31197E-18
 -1      2455 9.34898E-05-2.53930E-05-2.91763E-05 3.02140E-06-6.66618E-19 2.57914E-18
 -1      2456 9.56419E-05-2.54584E-05-3.00982E-05 4.37103E-06-6.53592E-19 2.95907E-18
 -1      2457 9.32392E-05-2.51610E-05-2.91624E-05-2.05693E-06 9.39710E-19 3.60637E-18
 -1      2458 9.30339E-05-2.49422E-05-2.91503E-05-4.59819E-07 2.85768E-19 3.83889E-18
 -1      2459 9.48534E-05-2.45509E-05-3.01610E-05 5.90167E-07-1.89755E-20 2.68887E-18
 -1      2460 9.44637E-05-2.63927E-05-2.91822E-05-4.98494E-06 5.35727E-19 4.10745E-18
 -1      2461 9.37607E-05-2.56813E-05-2.91314E-05-3.77766E-06 9.10160E-19 4.41267E-18
 -1      2462 9.53104E-05-2.50971E-05-3.01159E-05-3.35109E-06 5.93105E-19 3.63189E-18
 -1      2463 9.63168E-05-2.81977E-05-2.92157E-05-6.54970E-06 1.40016E-18 4.85318E-18
 -1      2464 9.53466E-05-2.72752E-05-2.91321E-05-6.00358E-06 1.37565E-18 4.44350E-18
 -1      2465 9.67910E-05-2.68479E-05-2.99801E-05-6.26374E-06 5.70810E-19 4.55662E-18
 -1      2466 9.81639E-05-2.99185E-05-2.92707E-05-6.58694E-06 1.09859E-18 3.07544E-18
 -1      2467 9.71950E-05-2.90859E-05-2.91670E-05-6.71056E-06 1.53447E-18 4.06560E-18
 -1      2468 9.86397E-05-2.90625E-05-2.98047E-05-7.46470E-06 2.10920E-18 4.21978E-18
 -1      2469 9.95294E-05-3.11007E-05-2.93428E-05-5.44448E-06 1.11988E-18 1.55618E-18
 -1      2470 9.87627E-05-3.05437E-05-2.92373E-05-6.04880E-06 1.30724E-18 2.48739E-18
 -1      2471 1.00181E-04-3.09618E-05-2.96433E-05-6.99153E-06 1.83898E-18 2.99776E-18
 -1      2472 1.00230E-04-3.16140E-05-2.94147E-05-3.69332E-06 3.91817E-19 8.62954E-19
 -1      2473 9.97555E-05-3.13710E-05-2.93261E-05-4.52129E-06 6.85005E-19 1.46304E-18
 -1      2474 1.01034E-04-3.20942E-05-2.95257E-05-5.38537E-06 9.45745E-19 1.88407E-18
 -1      2475 1.00320E-04-3.15713E-05-2.94649E-05-1.85532E-06 2.76030E-20-9.52592E-20
 -1      2476 1.00135E-04-3.15816E-05-2.94072E-05-2.68743E-06-1.70796E-20 3.35275E-19
 -1      2477 1.01164E-04-3.24097E-05-2.94528E-05-3.31769E-06 4.24560E-19 1.86780E-18
 -1      2478 9.99671E-05-3.11806E-05-2.94771E-05-2.71758E-07 9.91136E-20-2.76870E-19
 -1      2479 1.00015E-04-3.13492E-05-2.94564E-05-9.70496E-07 2.85295E-19-2.70063E-19
 -1      2480 1.00746E-04-3.21141E-05-2.94076E-05-1.32026E-06 1.03538E-19 2.30223E-18
 -1      2481 9.93510E-05-3.06350E-05-2.94451E-05 9.03432E-07-4.52297E-19-8.68572E-19
 -1      2482 9.95617E-05-3.08771E-05-2.94599E-05 3.96277E-07-3.44319E-19-1.04990E-18
 -1      2483 1.00013E-04-3.14834E-05-2.93688E-05 3.03071E-07 3.07351E-19 1.36131E-18
 -1      2484 9.86164E-05-3.00674E-05-2.93731E-05 1.64969E-06 5.39101E-19-7.96092E-19
 -1      2485 9.89226E-05-3.03251E-05-2.94162E-05 1.33755E-06 1.24049E-19-1.09319E-18
 -1      2486 9.91574E-05-3.07453E-05-2.93213E-05 1.44485E-06 2.07618E-20-9.08977E-19
 -1      2487 9.78618E-05-2.95475E-05-2.92725E-05 2.01689E-06 1.63534E-18-1.23990E-19
 -1      2488 9.82098E-05-2.97895E-05-2.93338E-05 1.87518E-06 1.26470E-18-6.19506E-19
 -1      2489 9.83036E-05-3.00400E-05-2.92590E-05 2.12059E-06 6.34941E-19 2.50752E-19
 -1      2490 9.71470E-05-2.90995E-05-2.91579E-05 2.07844E-06 1.20248E-18 9.02341E-19
 -1      2491 9.74972E-05-2.93140E-05-2.92268E-05 2.07421E-06 1.81065E-18 1.14858E-19
 -1      2492 9.75177E-05-2.94300E-05-2.91841E-05 2.40317E-06 1.16176E-18 5.94125E-19
 -1      2493 9.65032E-05-2.87207E-05-2.90439E-05 1.90368E-06-3.71743E-19 1.34855E-18
 -1      2494 9.68288E-05-2.89063E-05-2.91112E-05 2.00658E-06 1.18508E-18 1.04885E-18
 -1      2495 9.68254E-05-2.89255E-05-2.91035E-05 2.37758E-06 9.61723E-19 1.74281E-18
 -1      2496 9.59473E-05-2.84065E-05-2.89382E-05 1.55245E-06 1.01766E-19-3.03664E-19
 -1      2497 9.62316E-05-2.85617E-05-2.90000E-05 1.73038E-06-3.13805E-19 1.02986E-18
 -1      2498 9.62274E-05-2.85102E-05-2.90246E-05 2.11442E-06 2.04618E-20 2.74798E-18
 -1      2499 9.55861E-05-2.81261E-05-2.89094E-05 1.33859E-06-6.53644E-19-7.80089E-20
 -1      2500 9.44041E-05-2.61731E-05-2.92477E-05 2.18448E-06 1.61519E-18 1.22106E-18
 -1      2501 9.46134E-05-2.65056E-05-2.91848E-05 2.21402E-06 1.42775E-18 6.65501E-20
 -1      2502 9.48124E-05-2.68123E-05-2.91450E-05 2.18073E-06-6.75850E-20 8.88747E-19
 -1      2503 9.50015E-05-2.71291E-05-2.90829E-05 2.10193E-06-3.78353E-19 1.07538E-18
 -1      2504 9.47787E-05-2.68377E-05-2.91197E-05 2.52722E-06 6.84991E-19 1.61224E-18
 -1      2505 9.51684E-05-2.73998E-05-2.90430E-05 1.96225E-06-4.86438E-19 3.21285E-19
 -1      2506 9.53384E-05-2.76919E-05-2.89838E-05 1.80402E-06-4.84800E-19 8.16607E-20
 -1      2507 9.52017E-05-2.74249E-05-2.90494E-05 2.33397E-06 5.22598E-19 5.04620E-19
 -1      2508 2.67996E-05-1.95373E-05-2.73761E-06 2.53348E-05-2.05225E-18 5.07161E-19
 -1      2509 1.88965E-05-1.85930E-05 1.16264E-07 1.12465E-05-1.30369E-18 1.84992E-18
 -1      2510 9.39739E-05-2.55318E-05-2.93416E-05 1.93765E-06 1.41461E-18-4.36926E-19
 -1      2511 9.41865E-05-2.58451E-05-2.92859E-05 2.08953E-06 1.25473E-18 9.79016E-19
 -1      2512 9.42915E-05-2.61911E-05-2.91860E-05 2.46767E-06 1.16968E-18 7.04053E-19
 -1      2513 9.35675E-05-2.49608E-05-2.94149E-05 1.41873E-06-2.92349E-19-3.15280E-21
 -1      2514 9.37566E-05-2.52156E-05-2.93733E-05 1.69592E-06 3.17671E-19-7.32669E-19
 -1      2515 9.37762E-05-2.55315E-05-2.92453E-05 2.11801E-06 6.17455E-19-9.85801E-19
 -1      2516 9.32518E-05-2.45451E-05-2.94588E-05 6.47324E-07-4.66122E-19 1.65597E-18
 -1      2517 9.33831E-05-2.47003E-05-2.94369E-05 1.03261E-06-6.23630E-19 1.96394E-18
 -1      2518 9.32983E-05-2.49388E-05-2.92911E-05 1.45612E-06 2.79736E-19 1.25759E-18
 -1      2519 9.31028E-05-2.43699E-05-2.94688E-05-3.03323E-07 6.47879E-19 1.01468E-18
 -1      2520 9.31406E-05-2.43898E-05-2.94696E-05 1.47578E-07-7.77697E-20 1.93310E-18
 -1      2521 9.29455E-05-2.45096E-05-2.93205E-05 5.15277E-07 7.99209E-19 1.74785E-18
 -1      2522 9.31834E-05-2.44948E-05-2.94458E-05-1.28555E-06 6.05572E-19-3.36646E-20
 -1      2523 9.31024E-05-2.43633E-05-2.94685E-05-8.44372E-07 7.87100E-19-1.33253E-19
 -1      2524 9.28127E-05-2.43414E-05-2.93333E-05-5.96391E-07 1.11928E-18 8.30522E-19
 -1      2525 9.35303E-05-2.49479E-05-2.93946E-05-2.15849E-06 1.31979E-18 5.38179E-19
 -1      2526 9.33194E-05-2.46628E-05-2.94363E-05-1.79564E-06 8.62928E-19-8.02010E-19
 -1      2527 9.29742E-05-2.45034E-05-2.93322E-05-1.72551E-06 6.74577E-19-3.02895E-19
 -1      2528 9.41287E-05-2.57007E-05-2.93244E-05-2.71402E-06 9.97117E-20 9.85851E-19
 -1      2529 9.38084E-05-2.52893E-05-2.93782E-05-2.52786E-06 4.14513E-19 2.82651E-18
 -1      2530 9.34617E-05-2.50217E-05-2.93210E-05-2.67689E-06 8.90372E-20 5.44790E-19
 -1      2531 9.48232E-05-2.65674E-05-2.92471E-05-2.80962E-06 4.85165E-19 9.98824E-19
 -1      2532 9.44466E-05-2.60900E-05-2.93072E-05-2.85285E-06 1.08824E-18-7.53623E-19
 -1      2533 9.41834E-05-2.57793E-05-2.93057E-05-3.21830E-06-1.27550E-18 9.69054E-19
 -1      2534 9.50032E-05-2.66390E-05-2.92844E-05-3.30481E-06 3.98653E-19 2.16989E-19
 -1      2535 9.50587E-05-2.00202E-05-3.22079E-05-1.17425E-05-6.19260E-19-1.12505E-18
 -1      2536 9.54586E-05-2.33822E-05-3.09211E-05-7.98909E-06-6.73497E-19-1.00168E-18
 -1      2537 9.50573E-05-2.25325E-05-3.10496E-05-7.67237E-06-5.74646E-19-1.10502E-18
 -1      2538 9.32096E-05-1.75751E-05-3.24123E-05-1.13725E-05-5.24365E-19-1.26823E-18
 -1      2539 1.46674E-04-4.65376E-05-4.33705E-05 1.05743E-05 1.72197E-18-5.27913E-18
 -1      2540 1.38698E-04-5.20171E-05-3.72234E-05 1.85290E-05 1.56135E-18-4.64534E-18
 -1      2541 1.87377E-05-1.75973E-05-2.05920E-07-1.49495E-07-1.94836E-18 2.95276E-18
 -1      2542 2.42463E-05-1.82084E-05-2.14766E-06-1.39652E-05-2.28222E-18 4.21357E-18
 -1      2543 2.66116E-05-1.33342E-05-5.07661E-06 4.91721E-06-2.50550E-18 3.06499E-18
 -1      2544 3.64687E-05-2.74465E-05-3.58046E-06-2.81231E-05-1.20681E-18 4.44650E-18
 -1      2545 5.24273E-05-3.67243E-05-6.70396E-06-3.68519E-05-5.17537E-19 5.71620E-18
 -1      2546 1.00007E-04-5.29835E-05-1.99734E-05-4.14110E-05-4.49351E-19-2.67125E-18
 -1      2547 1.16940E-04-5.62981E-05-2.59980E-05-3.70815E-05-4.24999E-19-3.08045E-18
 -1      2548 1.53434E-04-2.71504E-05-5.44642E-05-3.36462E-07 3.34070E-18-5.45320E-18
 -1      2549 1.49088E-04-3.45258E-05-4.92757E-05 1.84234E-06 2.27894E-18-4.82893E-18
 -1      2550 8.78636E-05-1.08033E-05-3.30616E-05-1.51904E-06 8.08695E-19-1.04956E-18
 -1      2551 8.79681E-05-1.09255E-05-3.30525E-05-2.63866E-06 6.82314E-19-1.12838E-18
 -1      2552 8.93666E-05-1.30967E-05-3.26890E-05-2.93127E-06 5.95589E-19-1.08021E-18
 -1      2553 8.91198E-05-1.27618E-05-3.27280E-05-9.40996E-07 7.80621E-19-9.48071E-19
 -1      2554 1.48001E-04-1.14730E-05-5.90795E-05-3.52100E-06 3.46055E-18-4.05485E-18
 -1      2555 1.51176E-04-1.79576E-05-5.73138E-05-2.82412E-06 3.87772E-18-4.91999E-18
 -1      2556 1.44648E-04-4.60482E-05-4.24283E-05-9.72361E-06-9.25463E-19-4.33681E-18
 -1      2557 1.48522E-04-3.82238E-05-4.78481E-05-2.25005E-06-1.15736E-18-3.70810E-18
 -1      2558 1.41885E-04-9.28052E-06-5.74289E-05 3.18754E-06 1.86961E-18-2.93232E-18
 -1      2559 1.42813E-04-8.28428E-06-5.81692E-05-2.88505E-07 2.49239E-18-3.40883E-18
 -1      2560 8.95050E-05-5.09861E-05-1.64454E-05 3.88430E-05 1.48781E-18-1.28643E-19
 -1      2561 6.63733E-05-4.09702E-05-1.06160E-05 3.75552E-05 1.54562E-18-2.05405E-20
 -1      2562 1.28285E-04-5.55568E-05-3.12701E-05-2.71684E-05-5.66453E-19-3.70408E-18
 -1      2563 1.39557E-04-5.26250E-05-3.74992E-05-2.05363E-05-6.26381E-19-4.73301E-18
 -1      2564 6.42711E-05-3.85139E-05-1.06206E-05-4.43940E-05-4.05729E-19-3.65463E-18
 -1      2565 8.04346E-05-4.47678E-05-1.51437E-05-4.70283E-05-3.56389E-19-3.12502E-18
 -1      2566 2.85108E-05-2.22909E-05-2.26065E-06-2.75256E-05 5.71747E-21-3.98614E-18
 -1      2567 4.41617E-05-2.87297E-05-6.40098E-06-4.05483E-05 4.17799E-19-4.65360E-18
 -1      2568 6.02116E-05-3.16265E-05-1.16961E-05-4.10534E-05 4.29869E-20-3.51360E-18
 -1      2569 1.69241E-05-1.77690E-05 6.28756E-07 8.37986E-07 1.10310E-18-2.06464E-18
 -1      2570 1.72574E-05-1.87667E-05 6.56803E-07-1.38842E-05 4.54857E-19-2.80198E-18
 -1      2571 1.47349E-04-6.34287E-05-3.60740E-05-1.12843E-05 5.40195E-19 1.25636E-18
 -1      2572 1.58218E-04-6.07192E-05-4.23026E-05-2.88302E-06-5.16161E-19-1.24980E-18
 -1      2573 1.31674E-04-6.45357E-05-2.89199E-05 2.66412E-05-1.19495E-18 4.09519E-18
 -1      2574 1.13404E-04-6.04344E-05-2.26118E-05 3.17378E-05 1.56066E-19 1.98063E-18
 -1      2575 1.60389E-04-6.04829E-05-4.31877E-05-9.58538E-07-1.45536E-18 1.70169E-18
 -1      2576 1.47498E-04-6.19232E-05-3.67183E-05 8.70227E-06-1.30221E-18 2.32743E-18
 -1      2577 1.55720E-04-2.60770E-05-5.58463E-05 1.26376E-05-1.48400E-18-1.03698E-18
 -1      2578 1.62342E-04-5.03189E-05-4.80644E-05 8.86662E-06 3.58718E-19-4.54857E-19
 -1      2579 1.65281E-04-4.11324E-05-5.34721E-05 1.50468E-05-3.39025E-19-3.17637E-19
 -1      2580 1.15944E-04-6.11639E-05-2.34926E-05-3.06673E-05 7.07061E-19 2.26454E-18
 -1      2581 1.35096E-04-6.42381E-05-3.06358E-05-2.45067E-05 9.19243E-19 2.17264E-18
 -1      2582 7.21725E-05-4.60969E-05-1.10921E-05-3.83056E-05 6.29769E-19 5.41985E-18
 -1      2583 9.36986E-05-5.39271E-05-1.72182E-05-3.97314E-05-1.30020E-19 3.94323E-18
 -1      2584 6.00433E-05-3.74657E-05-9.45688E-06 4.58817E-05-1.24831E-18-1.75008E-18
 -1      2585 4.38201E-05-2.88652E-05-5.97618E-06 3.90040E-05-2.04601E-18-2.39287E-19
 -1      2586 7.57918E-05-4.18568E-05-1.41717E-05 4.46846E-05-1.49777E-18-2.28551E-18
 -1      2587 9.55790E-05-2.80084E-05-2.89607E-05 1.70732E-06-6.55716E-19 2.99991E-19
 -1      2588 9.08191E-05-1.50675E-05-3.24610E-05-6.79778E-06 6.76694E-20-1.40972E-18
 -1      2589 8.97146E-05-1.32065E-05-3.28464E-05-7.97303E-06 4.19871E-20-1.57215E-18
 -1      2590 9.04091E-05-1.40324E-05-3.27985E-05-9.14940E-06-1.55018E-19-1.53003E-18
 -1      2591 1.45080E-04-4.19505E-05-4.42524E-05 1.90021E-07 2.07338E-18-5.24779E-18
 -1      2592 9.59409E-05-2.62426E-05-2.98384E-05 5.40169E-06 5.40526E-19 2.81420E-18
 -1      2593 9.58881E-05-2.51569E-05-3.02892E-05 6.49266E-06 6.81014E-19 2.42817E-18
 -1      2594 9.52774E-05-2.64804E-05-2.94565E-05 4.10965E-06 5.86365E-19 2.66194E-18
 -1      2595 1.10582E-04-5.57605E-05-2.32441E-05 3.75482E-05-1.87618E-19-2.00228E-18
 -1      2596 9.56841E-05-2.80256E-05-2.89987E-05 2.06463E-06-3.84253E-19 9.00640E-19
 -1      2597 1.45813E-04-6.28944E-05-3.58426E-05 1.85794E-06-3.72271E-19 1.68983E-18
 -1      2598 1.58841E-04-2.45449E-05-5.82954E-05-1.07661E-05-3.66511E-18 1.09754E-18
 -1      2599 1.57765E-04-3.81288E-05-5.18375E-05 1.84089E-05-8.75832E-19-1.49459E-18
 -1      2600 7.00059E-05-4.02793E-05-1.22812E-05-3.74279E-05-2.68933E-19 4.37090E-18
 -1      2601 3.91104E-05-2.26635E-05-6.50632E-06 3.24364E-05-2.27958E-18 3.39872E-19
 -1      2602 3.60386E-05-1.56938E-05-8.20379E-06 2.42253E-05-3.11502E-18 4.85350E-19
 -1      2603 5.22691E-05-2.54327E-05-1.10932E-05 3.61916E-05-3.15562E-18-1.98206E-19
 -1      2604 9.20832E-05-1.62837E-05-3.25209E-05-1.03834E-05-3.88341E-19-1.41635E-18
 -1      2605 9.67504E-05-5.00813E-05-1.96908E-05-4.10361E-05-1.12613E-18-2.52238E-18
 -1      2606 1.42947E-04-2.09582E-05-5.24118E-05-7.13074E-06 3.32397E-18-3.84415E-18
 -1      2607 9.46985E-05-2.68429E-05-2.90518E-05 2.44236E-06 6.36251E-19 2.04748E-18
 -1      2608 9.50455E-05-2.66592E-05-2.92670E-05 3.32428E-06 5.92566E-19 2.41614E-18
 -1      2609 9.53002E-05-2.61341E-05-2.96537E-05 4.05170E-06 6.11981E-19 1.92296E-18
 -1      2610 9.50116E-05-2.65982E-05-2.93391E-05 2.53358E-06 6.16114E-19 1.60049E-18
 -1      2611 1.10460E-04-5.88795E-05-2.20003E-05-3.26183E-05 6.06052E-19 2.77205E-18
 -1      2612 3.62383E-05-1.46332E-05-8.60957E-06-1.54886E-05-2.53268E-18 4.11827E-18
 -1      2613 3.50323E-05-2.09396E-05-5.51961E-06-2.15008E-05-1.68020E-18 3.56770E-18
 -1      2614 4.70708E-05-2.33428E-05-9.93301E-06-2.84015E-05-1.83351E-18 3.86014E-18
 -1      2615 1.26132E-04-5.85037E-05-2.89135E-05-2.67994E-05-1.81816E-18-2.78536E-18
 -1      2616 1.43544E-04-6.58301E-05-3.32071E-05-1.23594E-05 1.14625E-18 5.74500E-19
 -1      2617 3.04561E-05-1.71113E-05-5.13574E-06-2.20081E-05 8.06058E-19-2.97817E-18
 -1      2618 1.05663E-04-5.63989E-05-2.07702E-05 3.38739E-05 1.28220E-18 1.16479E-18
 -1      2619 9.75167E-05-5.00234E-05-1.99589E-05 3.49192E-05 2.52585E-18 8.28292E-19
 -1      2620 1.19107E-04-6.02328E-05-2.54479E-05 2.71053E-05 7.09496E-19 2.62259E-18
 -1      2621 1.36240E-04-1.15976E-05-5.38273E-05 5.23970E-06 1.14011E-18-2.20345E-18
 -1      2622 5.84280E-05-3.45485E-05-9.83776E-06 3.53603E-05 1.28135E-18 8.20775E-19
 -1      2623 5.09586E-05-2.63287E-05-9.90988E-06 3.09737E-05 1.72308E-18 9.02302E-19
 -1      2624 7.45862E-05-3.83402E-05-1.51801E-05 3.53501E-05 2.43628E-18 3.44637E-19
 -1      2625 1.50971E-04-5.99690E-05-3.90164E-05 9.50896E-06 8.12768E-19-8.50209E-19
 -1      2626 1.44745E-04-6.43060E-05-3.49443E-05-5.30195E-06 9.30360E-19-5.70053E-19
 -1      2627 1.45998E-04-3.22442E-05-4.88905E-05 3.90529E-06-1.21803E-18-2.68319E-18
 -1      2628 1.38027E-04-2.54165E-05-4.90942E-05 9.99167E-06-1.14582E-18-2.08836E-18
 -1      2629 1.40325E-04-3.79307E-05-4.39965E-05 5.60510E-06-1.52434E-18-2.02727E-18
 -1      2630 1.41548E-04-5.14457E-05-3.85379E-05-8.64968E-06-1.86028E-18-3.37903E-18
 -1      2631 1.35974E-04-5.66918E-05-3.38841E-05 1.87352E-05 9.40365E-19-4.79728E-18
 -1      2632 1.63692E-04-4.99981E-05-4.89093E-05-1.00136E-05-2.46180E-18 2.05702E-18
 -1      2633 1.34082E-04-8.13288E-06-5.43444E-05-2.56219E-06 2.89262E-18-2.19016E-18
 -1      2634 2.46322E-05-1.77034E-05-2.49019E-06 1.02588E-05 1.53112E-18-8.45762E-19
 -1      2635 2.59916E-05-1.26785E-05-5.38872E-06 3.27533E-06 1.28828E-18-9.64559E-19
 -1      2636 3.41930E-05-1.74395E-05-6.73998E-06 1.88398E-05 1.93240E-18 3.81588E-19
 -1      2637 1.57631E-04-5.62486E-05-4.36180E-05 1.04644E-05 2.02176E-19-2.15782E-19
 -1      2638 1.52923E-04-4.36534E-05-4.71187E-05 2.19163E-05 3.61577E-19-1.37473E-18
 -1      2639 9.05786E-05-1.51751E-05-3.23381E-05 3.19751E-06 1.14219E-18-3.65382E-19
 -1      2640 9.03897E-05-1.49037E-05-3.23714E-05 2.26330E-06 1.06093E-18-4.80939E-19
 -1      2641 9.02565E-05-1.47012E-05-3.24008E-05 1.42403E-06 9.33525E-19-6.36037E-19
 -1      2642 9.01920E-05-1.46089E-05-3.24120E-05 4.66443E-07 8.48571E-19-6.47166E-19
 -1      2643 9.14415E-05-1.65941E-05-3.20646E-05 1.64297E-06 9.48795E-19-4.76085E-19
 -1      2644 9.21503E-05-1.75528E-05-3.20091E-05 6.47836E-06 1.31597E-18 2.89354E-19
 -1      2645 9.16270E-05-1.67553E-05-3.21104E-05 5.63972E-06 1.36842E-18 1.26314E-19
 -1      2646 9.35095E-05-1.97263E-05-3.16798E-05 7.64654E-06 1.16976E-18 7.53030E-19
 -1      2647 9.27770E-05-1.85201E-05-3.18413E-05 7.01324E-06 1.22370E-18 5.09272E-19
 -1      2648 9.34366E-05-1.98467E-05-3.15109E-05 5.74751E-06 1.10748E-18 3.50580E-19
 -1      2649 9.58858E-05-2.43799E-05-3.06375E-05 7.15285E-06 7.78556E-19 2.12350E-18
 -1      2650 9.53230E-05-2.30592E-05-3.09956E-05 7.84926E-06 8.69512E-19 1.79310E-18
 -1      2651 9.55003E-05-2.49934E-05-3.01955E-05 5.57252E-06 7.26662E-19 1.85988E-18
 -1      2652 1.39915E-04-3.64689E-05-4.50164E-05-6.76748E-06 2.29705E-18-4.71268E-18
 -1      2653 1.39606E-04-4.63043E-05-3.99732E-05-8.02129E-07 1.41799E-18-4.46513E-18
 -1      2654 9.56236E-05-2.79135E-05-2.90188E-05 2.45694E-06 7.32312E-19 8.61952E-20
 -1      2655 9.59054E-05-2.82046E-05-2.90089E-05 2.31131E-06 5.32367E-19 1.31220E-18
 -1      2656 9.61874E-05-2.84261E-05-2.90410E-05 2.50056E-06 6.73624E-19 2.03144E-18
 -1      2657 9.53527E-05-2.58990E-05-2.97383E-05-2.71117E-06-3.49005E-19-9.62912E-19
 -1      2658 9.51899E-05-2.64831E-05-2.94565E-05-1.72368E-06-2.62574E-19-8.93365E-19
 -1      2659 9.52143E-05-2.69983E-05-2.92120E-05-9.79979E-07-2.05834E-19-7.14787E-19
 -1      2660 9.50815E-05-2.73506E-05-2.90335E-05-3.70977E-07-1.14109E-19-7.35802E-19
 -1      2661 9.54184E-05-2.63234E-05-2.96176E-05-1.61982E-06-1.63245E-19-6.50207E-19
 -1      2662 9.50496E-05-2.76539E-05-2.88679E-05 1.01074E-07-4.38406E-20-6.54864E-19
 -1      2663 9.49742E-05-2.78754E-05-2.87593E-05 4.58171E-07-2.97806E-21-6.25197E-19
 -1      2664 9.54199E-05-2.73126E-05-2.91963E-05-3.31408E-07-5.01615E-20-5.92967E-19
 -1      2665 9.49337E-05-2.80568E-05-2.86513E-05 7.35800E-07-4.76746E-20-6.61988E-19
 -1      2666 9.49093E-05-2.81995E-05-2.85905E-05 9.28704E-07-1.37253E-19-7.32292E-19
 -1      2667 9.53617E-05-2.79191E-05-2.89109E-05 4.72514E-07-4.77013E-20-6.41964E-19
 -1      2668 9.48763E-05-2.83058E-05-2.85242E-05 1.07552E-06-1.42527E-19-6.92683E-19
 -1      2669 9.48893E-05-2.83974E-05-2.84959E-05 1.16511E-06-1.80159E-19-6.62369E-19
 -1      2670 9.53006E-05-2.82877E-05-2.87254E-05 9.36339E-07-1.88478E-19-7.06580E-19
 -1      2671 9.48676E-05-2.84548E-05-2.84595E-05 1.22923E-06-6.55971E-20-3.86016E-19
 -1      2672 9.49055E-05-2.85111E-05-2.84534E-05 1.25814E-06-6.85480E-20-1.56942E-19
 -1      2673 9.52555E-05-2.85024E-05-2.86128E-05 1.17496E-06 3.83141E-20-2.87199E-19
 -1      2674 9.48940E-05-2.85353E-05-2.84384E-05 1.27525E-06-2.64333E-19-1.53116E-20
 -1      2675 9.49477E-05-2.85659E-05-2.84474E-05 1.27381E-06-2.37934E-19 1.38510E-19
 -1      2676 9.52291E-05-2.86133E-05-2.85528E-05 1.27536E-06-2.69001E-20 5.50333E-19
 -1      2677 9.49442E-05-2.85661E-05-2.84480E-05 1.27034E-06-1.20804E-19 2.76541E-19
 -1      2678 9.50079E-05-2.85770E-05-2.84679E-05 1.26077E-06 1.17357E-19 3.15280E-19
 -1      2679 9.52186E-05-2.86510E-05-2.85314E-05 1.30233E-06 4.72593E-20 8.12429E-19
 -1      2680 9.50100E-05-2.85588E-05-2.84803E-05 1.25666E-06 8.02285E-21 3.99225E-19
 -1      2681 9.50807E-05-2.85539E-05-2.85085E-05 1.25584E-06 6.43774E-20 1.27767E-19
 -1      2682 9.52198E-05-2.86342E-05-2.85385E-05 1.30438E-06 5.60811E-20 4.41977E-19
 -1      2683 9.50859E-05-2.85199E-05-2.85302E-05 1.26670E-06-4.71001E-20 9.56812E-20
 -1      2684 9.51628E-05-2.85012E-05-2.85657E-05 1.28840E-06-6.77350E-20 5.37301E-20
 -1      2685 9.52283E-05-2.85739E-05-2.85675E-05 1.31868E-06-2.15989E-19-1.88096E-19
 -1      2686 9.51685E-05-2.84517E-05-2.85954E-05 1.32724E-06-1.83974E-19 2.18267E-20
 -1      2687 9.52523E-05-2.84195E-05-2.86383E-05 1.38369E-06-2.40066E-19-2.22808E-20
 -1      2688 9.52395E-05-2.84745E-05-2.86146E-05 1.37501E-06-3.12558E-20-1.12907E-20
 -1      2689 9.52552E-05-2.83529E-05-2.86756E-05 1.46242E-06-4.55443E-19-1.87502E-19
 -1      2690 9.53479E-05-2.83061E-05-2.87267E-05 1.56554E-06-7.92681E-19-3.17062E-19
 -1      2691 9.52478E-05-2.83352E-05-2.86775E-05 1.49902E-06-4.50930E-19-9.21299E-20
 -1      2692 9.53431E-05-2.82132E-05-2.87740E-05 1.70312E-06-4.27084E-19-1.07342E-19
 -1      2693 9.54495E-05-2.81444E-05-2.88382E-05 1.87749E-06-9.07889E-20 1.65605E-20
 -1      2694 9.52451E-05-2.81452E-05-2.87576E-05 1.72212E-06-4.34526E-19 1.39956E-19
 -1      2695 9.54275E-05-2.80262E-05-2.88914E-05 2.07599E-06-1.60558E-19 3.50830E-19
 -1      2696 9.55402E-05-2.79373E-05-2.89646E-05 2.31889E-06-2.62522E-19 3.33530E-19
 -1      2697 9.52179E-05-2.78931E-05-2.88529E-05 2.06663E-06-6.11292E-20 4.31711E-19
 -1      2698 9.54906E-05-2.77801E-05-2.90256E-05 2.59700E-06-3.63759E-19 2.79316E-20
 -1      2699 9.56123E-05-2.76603E-05-2.91124E-05 2.93427E-06-3.78765E-19 1.17403E-19
 -1      2700 9.51478E-05-2.75700E-05-2.89601E-05 2.54870E-06-3.81268E-19 6.02549E-20
 -1      2701 9.55157E-05-2.74504E-05-2.91800E-05 3.30880E-06-4.26670E-19-1.03365E-19
 -1      2702 9.56416E-05-2.72901E-05-2.92817E-05 3.76191E-06-4.61589E-19-5.20266E-19
 -1      2703 9.50047E-05-2.71445E-05-2.90791E-05 3.20385E-06-5.33798E-19-5.77087E-20
 -1      2704 9.54710E-05-2.70109E-05-2.93524E-05 4.25190E-06-4.95392E-19-5.29236E-19
 -1      2705 9.55916E-05-2.68003E-05-2.94680E-05 4.84490E-06-5.52639E-19-2.48974E-19
 -1      2706 9.47440E-05-2.65852E-05-2.92040E-05 4.06432E-06-4.40354E-19-7.45843E-20
 -1      2707 9.53098E-05-2.64353E-05-2.95344E-05 5.47147E-06-4.43420E-19-6.24149E-21
 -1      2708 9.54116E-05-2.61693E-05-2.96590E-05 6.22883E-06 4.78392E-20 2.49781E-19
 -1      2709 9.43031E-05-2.58580E-05-2.93221E-05 5.16469E-06-2.75041E-19 2.48331E-19
 -1      2710 9.49727E-05-2.57097E-05-2.97064E-05 7.01489E-06-9.58266E-20-1.57662E-19
 -1      2711 9.50428E-05-2.54002E-05-2.98281E-05 7.95665E-06-5.57751E-19-5.12828E-19
 -1      2712 9.36002E-05-2.49379E-05-2.94088E-05 6.54087E-06-3.91891E-19-4.75931E-20
 -1      2713 9.44004E-05-2.48628E-05-2.98305E-05 8.92765E-06-1.58437E-19-3.75606E-19
 -1      2714 9.44429E-05-2.45646E-05-2.99257E-05 1.00612E-05-2.68846E-19-4.03011E-19
 -1      2715 9.25423E-05-2.38339E-05-2.94203E-05 8.23088E-06-2.61194E-19-4.95244E-19
 -1      2716 9.35739E-05-2.40276E-05-2.98404E-05 1.12503E-05 1.48739E-19 9.64989E-20
 -1      2717 9.36527E-05-2.38892E-05-2.98693E-05 1.25583E-05 5.97721E-19 3.35848E-20
 -1      2718 9.10528E-05-2.26418E-05-2.92841E-05 1.02834E-05 2.81708E-19-2.75856E-19
 -1      2719 9.26113E-05-2.35568E-05-2.96307E-05 1.40223E-05 3.83365E-19-1.20768E-19
 -1      2720 9.29447E-05-2.39104E-05-2.95364E-05 1.54447E-05 2.80696E-19-3.89551E-19
 -1      2721 8.91391E-05-2.16406E-05-2.88855E-05 1.27876E-05 2.39672E-19 3.67884E-19
 -1      2722 9.19807E-05-2.42213E-05-2.90566E-05 1.72912E-05 6.53009E-19-8.07626E-20
 -1      2723 9.30845E-05-2.57224E-05-2.87875E-05 1.87090E-05 5.06618E-19 2.68023E-19
 -1      2724 8.70372E-05-2.14612E-05-2.80577E-05 1.59400E-05 6.14400E-19 5.72674E-20
 -1      2725 9.28369E-05-2.73543E-05-2.79945E-05 2.09520E-05 2.13561E-19 3.37615E-19
 -1      2726 9.57140E-05-3.10016E-05-2.75530E-05 2.22092E-05 6.20240E-19 7.60113E-19
 -1      2727 8.55848E-05-2.34051E-05-2.66093E-05 2.01003E-05 6.46344E-19-8.34460E-21
 -1      2728 9.74604E-05-3.52206E-05-2.64182E-05 2.46870E-05 1.08481E-18 1.25988E-18
 -1      2729 1.03203E-04-4.20487E-05-2.60010E-05 2.50914E-05 1.33387E-18 1.46108E-18
 -1      2730 8.64810E-05-2.95244E-05-2.45601E-05 2.56345E-05 6.37167E-19 1.04264E-18
 -1      2731 1.14726E-04-5.16607E-05-2.65403E-05 2.44334E-05 1.06054E-18 2.16578E-18
 -1      2732 1.24023E-04-5.92905E-05-2.75730E-05 2.16539E-05 7.78847E-19 2.79201E-18
 -1      2733 1.53040E-04-5.31786E-05-4.30366E-05 1.41956E-05-2.43310E-19-7.06637E-19
 -1      2734 9.43292E-05-2.08712E-05-3.15167E-05-8.25117E-06-4.95567E-19-1.22474E-18
 -1      2735 9.47142E-05-2.26449E-05-3.09117E-05-6.41158E-06-4.98623E-19-1.13192E-18
 -1      2736 1.05006E-04-4.34355E-05-2.61406E-05-2.50307E-05 6.82020E-19-6.00096E-19
 -1      2737 9.88384E-05-3.65409E-05-2.64254E-05-2.50694E-05 4.59357E-19-9.90896E-19
 -1      2738 9.65134E-05-3.19673E-05-2.74991E-05-2.26375E-05 2.85040E-19-1.39038E-18
 -1      2739 9.34024E-05-2.80745E-05-2.79322E-05-2.15763E-05 1.30328E-18-1.79310E-18
 -1      2740 8.75303E-05-3.07075E-05-2.43767E-05-2.62187E-05 1.50163E-19 2.10991E-19
 -1      2741 9.34769E-05-2.62089E-05-2.87374E-05-1.92819E-05 1.53100E-18-2.24958E-18
 -1      2742 9.22319E-05-2.45803E-05-2.90081E-05-1.79207E-05 3.33618E-19-2.26086E-18
 -1      2743 8.60518E-05-2.40342E-05-2.65532E-05-2.07823E-05 6.35175E-19-1.34791E-18
 -1      2744 9.30952E-05-2.41682E-05-2.94922E-05-1.60929E-05 9.83295E-19-2.31064E-18
 -1      2745 9.26796E-05-2.37257E-05-2.95857E-05-1.46925E-05 1.02353E-18-1.64489E-18
 -1      2746 8.72803E-05-2.18317E-05-2.80116E-05-1.66782E-05 9.95968E-19-2.31739E-18
 -1      2747 9.36760E-05-2.40024E-05-2.98301E-05-1.32238E-05 1.79361E-19-1.20640E-18
 -1      2748 9.35415E-05-2.40860E-05-2.98001E-05-1.19224E-05-3.42747E-19-8.45143E-19
 -1      2749 8.92348E-05-2.18216E-05-2.88527E-05-1.35122E-05 1.05968E-18-1.84568E-18
 -1      2750 9.43903E-05-2.45889E-05-2.98922E-05-1.07233E-05-1.17380E-18-1.68853E-19
 -1      2751 9.43053E-05-2.48434E-05-2.97969E-05-9.58174E-06-1.12117E-18-5.56622E-19
 -1      2752 9.10884E-05-2.27192E-05-2.92680E-05-1.09846E-05-1.88323E-19-1.91490E-18
 -1      2753 9.49325E-05-2.53456E-05-2.98040E-05-8.59177E-06-8.86777E-19 8.60609E-20
 -1      2754 9.48227E-05-2.56046E-05-2.96859E-05-7.62268E-06 7.08110E-20-1.08621E-19
 -1      2755 9.25444E-05-2.38288E-05-2.94245E-05-8.89916E-06-6.25994E-19-7.47463E-19
 -1      2756 9.52420E-05-2.60135E-05-2.96535E-05-6.79950E-06 5.00494E-20-5.05631E-19
 -1      2757 9.50980E-05-2.62086E-05-2.95386E-05-5.98781E-06-3.53579E-19-9.89369E-19
 -1      2758 9.35672E-05-2.48310E-05-2.94416E-05-7.14810E-06-2.11693E-19-6.00376E-19
 -1      2759 9.53459E-05-2.64958E-05-2.94948E-05-5.29102E-06-4.62044E-19-1.31717E-18
 -1      2760 9.51830E-05-2.66014E-05-2.93975E-05-4.61403E-06-3.66001E-19-6.49429E-19
 -1      2761 9.42125E-05-2.55939E-05-2.93969E-05-5.66699E-06-1.97903E-19-2.13012E-19
 -1      2762 9.52237E-05-2.66685E-05-2.93675E-05-4.19393E-06-8.91539E-19 2.43533E-19
 -1      2763 9.49902E-05-2.66173E-05-2.93016E-05-3.67779E-06-4.54321E-19 5.90835E-19
 -1      2764 9.45267E-05-2.61663E-05-2.93095E-05-3.72999E-06-3.52527E-19 1.61405E-18
 -1      2765 9.44740E-05-2.60037E-05-2.93415E-05-4.55347E-06-2.90753E-19 1.69174E-18
 -1      2766 9.48913E-05-2.76332E-05-2.88282E-05-7.98961E-08 6.36952E-19 1.10509E-18
 -1      2767 9.50065E-05-2.73691E-05-2.89665E-05 3.93759E-07 7.12857E-19 1.21810E-18
 -1      2768 9.47918E-05-2.80253E-05-2.86153E-05-7.21096E-07 3.93543E-19 8.78896E-19
 -1      2769 9.48410E-05-2.78553E-05-2.86946E-05-4.53794E-07 5.44553E-19 9.21348E-19
 -1      2770 9.52828E-05-2.76413E-05-2.89972E-05-1.01874E-07 7.42114E-19 6.20117E-19
 -1      2771 9.50430E-05-2.69951E-05-2.91699E-05 1.00866E-06 6.94696E-19 1.14365E-18
 -1      2772 9.52333E-05-2.65786E-05-2.93952E-05 1.79517E-06 6.34573E-19 1.18540E-18
 -1      2773 9.53519E-05-2.68951E-05-2.93467E-05 9.53096E-07 6.86205E-19 8.08895E-19
 -1      2774 9.47609E-05-2.84197E-05-2.84308E-05-1.22166E-06 7.03582E-19 6.06074E-19
 -1      2775 9.47263E-05-2.83466E-05-2.84439E-05-1.16769E-06 6.60838E-19 6.58091E-19
 -1      2776 9.48050E-05-2.85060E-05-2.84123E-05-1.26665E-06 2.74520E-19 1.06736E-18
 -1      2777 9.47494E-05-2.84600E-05-2.84077E-05-1.25823E-06 4.23474E-19 8.23337E-19
 -1      2778 9.51246E-05-2.85312E-05-2.85438E-05-1.24218E-06 3.80009E-19 6.52926E-19
 -1      2779 9.48729E-05-2.85478E-05-2.84230E-05-1.25605E-06 2.99843E-19 9.13770E-19
 -1      2780 9.48047E-05-2.85214E-05-2.84067E-05-1.26825E-06 3.65642E-19 9.47682E-19
 -1      2781 9.51188E-05-2.86088E-05-2.85071E-05-1.29597E-06 4.16788E-19 8.31663E-19
 -1      2782 9.49572E-05-2.85585E-05-2.84543E-05-1.22955E-06 1.05610E-19 6.82127E-19
 -1      2783 9.48811E-05-2.85461E-05-2.84300E-05-1.24476E-06 1.60075E-19 7.91867E-19
 -1      2784 9.51305E-05-2.86313E-05-2.85017E-05-1.29680E-06 2.21186E-19 8.16967E-19
 -1      2785 9.50545E-05-2.85479E-05-2.85002E-05-1.21543E-06 2.13022E-19 6.48509E-19
 -1      2786 9.49722E-05-2.85450E-05-2.84701E-05-1.22125E-06 7.89834E-20 3.92348E-19
 -1      2787 9.51558E-05-2.86155E-05-2.85188E-05-1.28467E-06 2.82118E-19 2.86362E-19
 -1      2788 9.51647E-05-2.85246E-05-2.85571E-05-1.23342E-06 1.82469E-19 4.89304E-19
 -1      2789 9.50758E-05-2.85270E-05-2.85226E-05-1.22142E-06 2.34733E-19 9.17364E-19
 -1      2790 9.51930E-05-2.85739E-05-2.85523E-05-1.28828E-06 1.51324E-19 1.16442E-20
 -1      2791 9.52913E-05-2.84970E-05-2.86229E-05-1.29637E-06 7.88559E-20 4.66719E-19
 -1      2792 9.51932E-05-2.85003E-05-2.85845E-05-1.26138E-06 3.84125E-19 4.26625E-19
 -1      2793 9.52428E-05-2.85171E-05-2.85979E-05-1.32775E-06 4.10126E-19 3.38573E-19
 -1      2794 9.54405E-05-2.84749E-05-2.86961E-05-1.41073E-06 8.35709E-20-5.79033E-20
 -1      2795 9.53294E-05-2.84738E-05-2.86541E-05-1.35081E-06-2.73803E-20 5.68175E-20
 -1      2796 9.53088E-05-2.84556E-05-2.86526E-05-1.41614E-06 2.40471E-19-1.24455E-19
 -1      2797 9.56220E-05-2.84711E-05-2.87754E-05-1.57601E-06 5.78913E-19 8.86950E-20
 -1      2798 9.54926E-05-2.84588E-05-2.87302E-05-1.49287E-06 1.53615E-19 2.06434E-19
 -1      2799 9.53979E-05-2.84021E-05-2.87139E-05-1.55985E-06 8.97311E-20-8.68905E-20
 -1      2800 9.58488E-05-2.85026E-05-2.88593E-05-1.78312E-06 9.81350E-20 6.54888E-19
 -1      2801 9.56947E-05-2.84701E-05-2.88115E-05-1.68313E-06 4.24392E-19 4.92483E-19
 -1      2802 9.55214E-05-2.83729E-05-2.87797E-05-1.75790E-06 2.64465E-19 6.92192E-19
 -1      2803 9.61383E-05-2.85926E-05-2.89454E-05-2.01162E-06-4.19173E-19 1.05114E-18
 -1      2804 9.59522E-05-2.85281E-05-2.88961E-05-1.90729E-06-3.38301E-20 8.82548E-19
 -1      2805 9.56959E-05-2.83909E-05-2.88474E-05-2.00018E-06-2.91576E-19 9.37057E-19
 -1      2806 9.65119E-05-2.87705E-05-2.90305E-05-2.22621E-06-6.09004E-19 9.86990E-19
 -1      2807 9.62861E-05-2.86598E-05-2.89814E-05-2.13796E-06-7.09486E-19 1.31193E-18
 -1      2808 9.59453E-05-2.84866E-05-2.89141E-05-2.26442E-06-6.40877E-19 1.02936E-18
 -1      2809 9.69949E-05-2.90718E-05-2.91105E-05-2.37272E-06-5.10984E-19 9.55722E-19
 -1      2810 9.67222E-05-2.88984E-05-2.90641E-05-2.33064E-06-2.93327E-19 1.17066E-18
 -1      2811 9.63016E-05-2.86997E-05-2.89767E-05-2.51226E-06-6.47364E-19 1.19469E-18
 -1      2812 9.76135E-05-2.95326E-05-2.91813E-05-2.37500E-06-4.45537E-19 1.16316E-18
 -1      2813 9.72895E-05-2.92817E-05-2.91403E-05-2.41969E-06-4.94502E-19 8.03544E-19
 -1      2814 9.68050E-05-2.90768E-05-2.90324E-05-2.68472E-06-5.61190E-19 1.14610E-18
 -1      2815 9.83879E-05-3.01795E-05-2.92405E-05-2.13474E-06-2.76624E-19 1.59461E-18
 -1      2816 9.80151E-05-2.98437E-05-2.92072E-05-2.31599E-06-4.85695E-19 8.33720E-19
 -1      2817 9.75005E-05-2.96650E-05-2.90803E-05-2.69814E-06-5.51417E-19 1.43452E-19
 -1      2818 9.93187E-05-3.10092E-05-2.92894E-05-1.53816E-06 8.15024E-19 1.25759E-18
 -1      2819 9.89131E-05-3.05998E-05-2.92645E-05-1.90917E-06 6.81403E-19 1.44001E-18
 -1      2820 9.84287E-05-3.04964E-05-2.91236E-05-2.44281E-06 1.97821E-19-1.14083E-19
 -1      2821 1.00364E-04-3.19571E-05-2.93370E-05-4.75738E-07 2.46358E-19 9.65428E-19
 -1      2822 9.99645E-05-3.15201E-05-2.93179E-05-1.07973E-06 1.33310E-19 1.41733E-18
 -1      2823 9.96056E-05-3.15600E-05-2.91728E-05-1.78864E-06 6.90224E-19 1.93792E-19
 -1      2824 1.01408E-04-3.28594E-05-2.94024E-05 1.11615E-06-1.74813E-19 9.41808E-19
 -1      2825 1.01087E-04-3.24926E-05-2.93820E-05 2.70225E-07 2.94202E-19 1.01447E-18
 -1      2826 1.00988E-04-3.27596E-05-2.92495E-05-6.06234E-07 5.06891E-20 4.21719E-19
 -1      2827 1.02239E-04-3.34272E-05-2.95150E-05 3.18424E-06 5.81404E-19 1.07208E-18
 -1      2828 1.02102E-04-3.32861E-05-2.94814E-05 2.15753E-06 2.50176E-19 1.29724E-18
 -1      2829 1.02429E-04-3.38636E-05-2.93878E-05 1.18342E-06 2.47326E-19 8.09626E-19
 -1      2830 1.02559E-04-3.32746E-05-2.97080E-05 5.46599E-06-6.18785E-20 1.31838E-18
 -1      2831 1.02723E-04-3.35456E-05-2.96481E-05 4.42775E-06 3.80679E-19 1.14851E-18
 -1      2832 1.03639E-04-3.44801E-05-2.96308E-05 3.51793E-06 3.41265E-19 3.97938E-19
 -1      2833 1.02071E-04-3.20480E-05-3.00035E-05 7.41810E-06-1.38196E-18 2.03445E-18
 -1      2834 1.02614E-04-3.28686E-05-2.99084E-05 6.66131E-06-7.05979E-19 1.67602E-18
 -1      2835 1.04208E-04-3.41154E-05-3.00166E-05 6.07274E-06-5.78593E-19 1.05340E-18
 -1      2836 1.00674E-04-2.96879E-05-3.03899E-05 8.24720E-06-5.22879E-19 2.31252E-18
 -1      2837 1.01542E-04-3.10056E-05-3.02660E-05 8.13789E-06-1.19029E-18 2.04821E-18
 -1      2838 1.03738E-04-3.23602E-05-3.05550E-05 8.16619E-06-1.23353E-18 1.39597E-18
 -1      2839 9.87007E-05-2.67208E-05-3.07984E-05 7.20033E-06-2.05986E-19 2.72570E-18
 -1      2840 9.96557E-05-2.81864E-05-3.06736E-05 8.01055E-06 1.25937E-19 2.54662E-18
 -1      2841 1.02147E-04-2.92953E-05-3.11940E-05 8.81783E-06-4.63574E-19 1.33642E-18
 -1      2842 9.69465E-05-2.42431E-05-3.11147E-05 4.07495E-06-2.84128E-19 2.38814E-18
 -1      2843 9.76227E-05-2.52878E-05-3.10306E-05 5.76606E-06 4.13851E-20 2.72059E-18
 -1      2844 9.99657E-05-2.57617E-05-3.17998E-05 7.19039E-06 1.02550E-21 1.72064E-18
 -1      2845 9.63110E-05-2.34169E-05-3.12276E-05-3.92151E-07-8.30903E-20 1.97955E-18
 -1      2846 9.64023E-05-2.35509E-05-3.12187E-05 1.72618E-06-7.26739E-19 1.53512E-18
 -1      2847 9.82650E-05-2.32002E-05-3.21957E-05 3.25476E-06 2.40941E-20 1.75805E-18
 -1      2848 9.71726E-05-2.46820E-05-3.10916E-05-4.71899E-06 1.04344E-19 2.80232E-18
 -1      2849 9.66373E-05-2.38368E-05-3.11631E-05-2.86113E-06 4.77411E-19 2.50778E-18
 -1      2850 9.80362E-05-2.28730E-05-3.22433E-05-1.83235E-06-2.39489E-19 1.93379E-18
 -1      2851 9.90743E-05-2.74075E-05-3.07585E-05-7.48974E-06 8.38527E-19 3.91537E-18
 -1      2852 9.81651E-05-2.59895E-05-3.08819E-05-6.43812E-06 5.63884E-19 3.87651E-18
 -1      2853 9.94201E-05-2.49552E-05-3.19218E-05-6.21900E-06-7.26897E-20 2.91067E-18
 -1      2854 1.01069E-04-3.03640E-05-3.03435E-05-8.12113E-06 1.98894E-18 3.89803E-18
 -1      2855 1.00159E-04-2.89596E-05-3.04762E-05-8.02110E-06 1.49795E-18 3.81818E-18
 -1      2856 1.01588E-04-2.83994E-05-3.13453E-05-8.47394E-06 1.25704E-18 2.99558E-18
 -1      2857 1.02374E-04-3.25319E-05-2.99566E-05-6.95053E-06 1.43006E-18 3.40619E-18
 -1      2858 1.01747E-04-3.15640E-05-3.00662E-05-7.59193E-06 1.94532E-18 3.91601E-18
 -1      2859 1.03409E-04-3.17170E-05-3.06924E-05-8.32894E-06 1.95711E-18 3.96088E-18
 -1      2860 1.02705E-04-3.35129E-05-2.96586E-05-4.79136E-06 9.01887E-19 3.18752E-18
 -1      2861 1.02461E-04-3.31070E-05-2.97335E-05-5.81115E-06 1.47263E-18 3.19329E-18
 -1      2862 1.04181E-04-3.38597E-05-3.01112E-05-6.47470E-06 1.39435E-18 3.67836E-18
 -1      2863 1.02216E-04-3.34574E-05-2.94598E-05-2.42812E-06 8.27429E-20 3.41390E-18
 -1      2864 1.02306E-04-3.35136E-05-2.95049E-05-3.50312E-06 4.92767E-19 3.42303E-18
 -1      2865 1.03844E-04-3.45698E-05-2.96766E-05-3.91030E-06 4.54971E-19 4.09933E-18
 -1      2866 1.01241E-04-3.27523E-05-2.93378E-05-3.69150E-07 9.66400E-19 2.72930E-18
 -1      2867 1.01549E-04-3.30868E-05-2.93658E-05-1.29434E-06 2.00742E-19 3.24808E-18
 -1      2868 1.02745E-04-3.41590E-05-2.93941E-05-1.42178E-06 1.69577E-19 2.94936E-18
 -1      2869 1.00090E-04-3.17764E-05-2.92615E-05 1.16479E-06 4.40647E-19 1.78380E-18
 -1      2870 1.00503E-04-3.22221E-05-2.92845E-05 4.78259E-07 9.45510E-19 2.70375E-18
 -1      2871 1.01312E-04-3.31258E-05-2.92304E-05 5.71294E-07 1.03976E-18 2.59117E-18
 -1      2872 9.89677E-05-3.07898E-05-2.92055E-05 2.14838E-06 5.59822E-19 6.63505E-19
 -1      2873 9.94057E-05-3.12362E-05-2.92310E-05 1.71051E-06 7.05487E-19 1.54129E-18
 -1      2874 9.98733E-05-3.18972E-05-2.91431E-05 1.94623E-06 9.19420E-19 3.99411E-18
 -1      2875 9.79780E-05-2.99246E-05-2.91548E-05 2.65407E-06 3.47382E-19 1.35024E-18
 -1      2876 9.83935E-05-3.03176E-05-2.91854E-05 2.43433E-06-3.28966E-20 9.07465E-19
 -1      2877 9.86075E-05-3.07386E-05-2.90970E-05 2.74819E-06-2.19116E-20 2.45373E-18
 -1      2878 9.71536E-05-2.92230E-05-2.91039E-05 2.78052E-06 1.68810E-18 1.38539E-18
 -1      2879 9.75210E-05-2.95456E-05-2.91383E-05 2.73513E-06 1.21897E-18 1.40654E-18
 -1      2880 9.75709E-05-2.97646E-05-2.90693E-05 3.08712E-06 5.75589E-19 2.24474E-18
 -1      2881 9.64722E-05-2.86664E-05-2.90526E-05 2.64857E-06 4.44444E-19 1.76053E-18
 -1      2882 9.67910E-05-2.89286E-05-2.90870E-05 2.73714E-06 1.53669E-18 8.46174E-19
 -1      2883 9.67567E-05-2.89988E-05-2.90469E-05 3.10144E-06 1.57000E-18 1.73147E-18
 -1      2884 9.61208E-05-2.83985E-05-2.90312E-05 2.88419E-06 6.44737E-19 9.71649E-19
 -1      2885 9.47366E-05-2.68771E-05-2.90882E-05 2.83390E-06 9.88132E-19 1.40676E-18
 -1      2886 9.50102E-05-2.71911E-05-2.90588E-05 2.80678E-06 3.00120E-19 2.78842E-18
 -1      2887 9.34909E-05-2.55020E-05-2.91493E-05 2.31118E-06 8.11223E-19-1.25080E-18
 -1      2888 9.38032E-05-2.58225E-05-2.91275E-05 2.56923E-06 1.09591E-18-1.23232E-18
 -1      2889 9.54071E-05-2.76412E-05-2.90450E-05 2.61161E-06 5.74253E-19 9.54399E-19
 -1      2890 8.79130E-05-4.52435E-05-1.81728E-05 4.27696E-05-9.49842E-19-1.76320E-18
 -1      2891 7.20572E-05-3.60813E-05-1.49792E-05 4.12850E-05-1.92096E-18-1.71789E-18
 -1      2892 9.41351E-05-2.62038E-05-2.91216E-05 2.73886E-06 2.63484E-20 5.56965E-19
 -1      2893 9.44413E-05-2.65362E-05-2.90951E-05 2.83824E-06 5.87720E-19 5.91978E-19
 -1      2894 9.46481E-05-2.69043E-05-2.90318E-05 3.14283E-06 2.15655E-19 1.42744E-18
 -1      2895 9.39122E-05-2.61669E-05-2.90324E-05 2.97892E-06-4.45853E-20-1.88770E-19
 -1      2896 9.24655E-05-2.43898E-05-2.91877E-05 4.27500E-07 9.68491E-19 2.13084E-18
 -1      2897 9.26325E-05-2.45452E-05-2.91780E-05 9.76036E-07 5.12039E-19 1.30484E-18
 -1      2898 9.23343E-05-2.42113E-05-2.92048E-05-8.43127E-07 5.96005E-19 8.22464E-20
 -1      2899 9.23422E-05-2.42165E-05-2.91998E-05-2.44122E-07 4.76311E-19 1.78619E-18
 -1      2900 9.20045E-05-2.41778E-05-2.90581E-05 2.21409E-07 4.02663E-19 9.97554E-19
 -1      2901 9.25961E-05-2.44065E-05-2.92274E-05-2.13611E-06 7.55878E-19-5.63527E-20
 -1      2902 9.24044E-05-2.42343E-05-2.92250E-05-1.56307E-06 6.03106E-19 3.72759E-19
 -1      2903 9.19370E-05-2.40180E-05-2.90952E-05-1.23855E-06 1.30330E-19 6.50641E-19
 -1      2904 9.32828E-05-2.50105E-05-2.92591E-05-3.17909E-06-6.74281E-19 3.40501E-19
 -1      2905 9.28989E-05-2.46643E-05-2.92566E-05-2.76080E-06 6.31443E-19-2.01582E-19
 -1      2906 9.23635E-05-2.42997E-05-2.91563E-05-2.66429E-06 8.39036E-19-4.82781E-19
 -1      2907 1.20222E-04-5.83550E-05-2.67653E-05 3.09366E-05-7.06214E-20-2.01943E-18
 -1      2908 1.04159E-04-5.30179E-05-2.15840E-05 3.80190E-05-3.69095E-19-1.24671E-18
 -1      2909 3.30051E-05-1.11229E-05-8.64375E-06 1.14548E-05-3.20597E-18 2.18577E-18
 -1      2910 3.29153E-05-1.04758E-05-9.04268E-06-6.90276E-07-3.58315E-18 3.75066E-18
 -1      2911 1.45570E-04-6.49460E-05-3.46333E-05 8.42815E-06-1.12126E-18 2.40388E-18
 -1      2912 1.21430E-04-5.73949E-05-2.73160E-05-2.68694E-05-1.87131E-18-2.83295E-18
 -1      2913 1.31792E-04-5.80856E-05-3.17942E-05-1.87517E-05-1.96697E-18-3.22428E-18
 -1      2914 1.36054E-04-6.47611E-05-3.01726E-05-1.61138E-05 1.84537E-18 4.61633E-19
 -1      2915 9.28943E-05-2.48595E-05-2.91706E-05 1.52642E-06 7.82242E-19 1.77298E-18
 -1      2916 9.31632E-05-2.51219E-05-2.91549E-05 1.94459E-06 1.20373E-18-2.62309E-19
 -1      2917 9.24526E-05-2.46784E-05-2.90400E-05 1.49374E-06 2.29994E-19 1.32308E-18
 -1      2918 1.23226E-04-5.88526E-05-2.74281E-05-2.15956E-05 9.52277E-19-2.07775E-19
 -1      2919 1.13550E-04-5.09607E-05-2.63017E-05-2.48521E-05 6.35751E-19-6.44142E-20
 -1      2920 9.68741E-05-4.34670E-05-2.29488E-05-3.05106E-05 3.34260E-19 1.48146E-18
 -1      2921 1.17488E-04-5.93416E-05-2.51277E-05-2.83314E-05 7.93458E-19 1.02772E-18
 -1      2922 8.98768E-05-4.47939E-05-1.89875E-05-4.01263E-05-1.17049E-18-2.41187E-18
 -1      2923 1.06940E-04-5.30300E-05-2.30669E-05-3.58974E-05-1.33958E-18-2.59256E-18
 -1      2924 9.52644E-05-2.40983E-05-3.04820E-05-5.16574E-06-4.69213E-19-1.09317E-18
 -1      2925 9.51722E-05-2.50781E-05-3.00585E-05-3.67712E-06-4.91877E-19-1.11026E-18
 -1      2926 9.52268E-05-2.47597E-05-3.01923E-05-3.43361E-06-3.80949E-19-8.98209E-19
 -1      2927 9.45864E-05-2.23707E-05-3.09428E-05-5.69916E-06-4.63055E-19-1.03893E-18
 -1      2928 1.36557E-04-5.44979E-05-3.52110E-05-9.41308E-06-1.86607E-18-2.22050E-18
 -1      2929 1.39043E-04-4.84682E-05-3.93204E-05-1.05660E-06-2.02727E-18-2.02621E-18
 -1      2930 1.32771E-04-5.54634E-05-3.31014E-05-1.00959E-05-2.03035E-18-1.81286E-18
 -1      2931 1.36960E-04-5.58419E-05-3.54020E-05 1.10911E-05 1.04804E-18-4.45709E-18
 -1      2932 1.30725E-04-5.82006E-05-3.08542E-05 1.99852E-05 3.34949E-19-3.98508E-18
 -1      2933 1.33236E-04-1.67826E-05-5.06510E-05-9.46714E-06 3.02391E-18-2.12499E-18
 -1      2934 1.36948E-04-2.51929E-05-4.82359E-05-1.01924E-05 2.34766E-18-2.97012E-18
 -1      2935 5.46153E-05-2.40559E-05-1.22830E-05-3.50954E-05-3.78571E-19-3.61620E-18
 -1      2936 7.02044E-05-3.31867E-05-1.56938E-05-3.98210E-05-6.63703E-19-1.78967E-18
 -1      2937 9.11921E-05-1.60895E-05-3.22147E-05 4.92097E-06 1.36322E-18 2.71150E-21
 -1      2938 9.08517E-05-1.55913E-05-3.22762E-05 3.99852E-06 1.20378E-18-1.98346E-19
 -1      2939 9.18303E-05-1.72008E-05-3.19689E-05 3.20056E-06 1.09353E-18-1.89552E-19
 -1      2940 9.24931E-05-1.82600E-05-3.17949E-05 4.62081E-06 1.20414E-18 9.58843E-20
 -1      2941 1.32877E-04-1.64494E-05-5.03689E-05 9.92170E-06-3.64436E-19-8.76785E-19
 -1      2942 1.25414E-04-9.55789E-06-5.03232E-05 6.77453E-06 5.03773E-19-2.23087E-19
 -1      2943 6.47149E-05-3.28872E-05-1.29695E-05-3.44911E-05-1.42016E-18 3.78285E-18
 -1      2944 8.19756E-05-4.26424E-05-1.67481E-05-3.74079E-05-1.31078E-19 2.98378E-18
 -1      2945 9.08164E-05-1.55430E-05-3.22812E-05-3.93418E-06 4.22326E-19-1.10608E-18
 -1      2946 9.11486E-05-1.60287E-05-3.22211E-05-4.85778E-06 2.65692E-19-1.21186E-18
 -1      2947 9.47519E-05-2.82698E-05-2.84920E-05-1.06565E-06 4.84791E-19 5.40549E-19
 -1      2948 9.47510E-05-2.81580E-05-2.85317E-05-9.30600E-07 4.08774E-19 7.39234E-19
 -1      2949 9.52070E-05-2.80979E-05-2.87677E-05-7.34354E-07 5.62323E-19 5.33884E-19
 -1      2950 9.51528E-05-2.83737E-05-2.86248E-05-1.08024E-06 5.23181E-19 2.64822E-19
 -1      2951 3.05049E-05-1.19624E-05-7.01326E-06-1.16981E-05 1.11798E-18-1.81562E-18
 -1      2952 3.83460E-05-1.57232E-05-9.50591E-06-2.56224E-05 7.94993E-19-2.97012E-18
 -1      2953 9.20396E-05-1.66585E-05-3.23137E-05-9.02953E-06-3.28656E-19-1.34985E-18
 -1      2954 1.23586E-04-6.69334E-06-5.07659E-05-1.73284E-06 2.45788E-18-8.27406E-19
 -1      2955 1.29022E-04-1.01597E-05-5.14790E-05-6.82125E-06 3.68883E-18-1.82361E-18
 -1      2956 1.24818E-04-1.44658E-05-4.77038E-05-9.07061E-06 2.84868E-18-8.79750E-19
 -1      2957 1.33729E-04-6.42436E-05-2.94818E-05 1.74615E-05-4.33046E-20 3.25118E-18
 -1      2958 9.13102E-05-1.63913E-05-3.20959E-05 2.90098E-08 7.26934E-19-6.41048E-19
 -1      2959 9.01878E-05-1.46038E-05-3.24126E-05-3.82754E-07 7.29533E-19-8.08157E-19
 -1      2960 9.02442E-05-1.46842E-05-3.24024E-05-1.34072E-06 6.55106E-19-9.83374E-19
 -1      2961 9.44793E-05-2.13978E-05-3.13149E-05 7.87235E-06 1.00060E-18 1.27040E-18
 -1      2962 1.33171E-04-3.14239E-05-4.38963E-05-1.06813E-05 1.76257E-18-2.22431E-18
 -1      2963 9.54365E-05-2.77067E-05-2.90260E-05 2.94979E-06 6.33179E-19 1.10751E-18
 -1      2964 9.78993E-05-4.38825E-05-2.31542E-05 2.94669E-05 1.78772E-18 1.66251E-18
 -1      2965 1.18577E-04-1.14653E-05-4.62913E-05 7.03744E-06 4.18011E-19-2.81877E-19
 -1      2966 1.21396E-04-8.34381E-06-4.90429E-05 3.11426E-06 1.23370E-18-5.33618E-19
 -1      2967 1.17071E-04-8.85096E-06-4.67838E-05-1.97366E-07 2.06845E-18 2.32742E-19
 -1      2968 9.80459E-05-5.05306E-05-1.97974E-05-3.45611E-05 3.09591E-19 2.59213E-18
 -1      2969 3.47559E-05-1.13158E-05-9.39568E-06-2.61838E-06 1.20047E-18-9.13949E-19
 -1      2970 9.31367E-05-2.53884E-05-2.90333E-05 2.43608E-06 1.15904E-18-6.78657E-19
 -1      2971 9.15708E-05-1.66703E-05-3.21195E-05-5.58529E-06 1.18758E-19-1.24522E-18
 -1      2972 9.20445E-05-1.73721E-05-3.20264E-05-6.41758E-06-5.42097E-20-1.29087E-18
 -1      2973 9.24420E-05-1.81839E-05-3.18039E-05-4.58051E-06 1.32246E-19-1.07262E-18
 -1      2974 9.28245E-05-1.84304E-05-3.18814E-05-7.47624E-06-2.67593E-19-1.26878E-18
 -1      2975 6.48525E-05-3.00005E-05-1.44969E-05 3.83411E-05-2.61310E-18-1.03486E-18
 -1      2976 5.78211E-05-2.28369E-05-1.46598E-05 3.22816E-05-3.13985E-18-1.25467E-19
 -1      2977 7.67227E-05-3.36773E-05-1.81669E-05 3.60037E-05-1.73494E-18-3.65124E-19
 -1      2978 1.00097E-04-4.89082E-05-2.16332E-05 3.62917E-05-5.23202E-19-9.32173E-19
 -1      2979 4.19358E-05-1.37080E-05-1.15641E-05 1.77049E-05-3.19541E-18 1.35398E-18
 -1      2980 1.25000E-04-5.77091E-05-2.87013E-05 2.25550E-05 3.75659E-19-3.31820E-18
 -1      2981 9.40849E-05-2.57501E-05-2.92873E-05-3.61646E-06-2.87548E-19 1.48858E-18
 -1      2982 9.36693E-05-2.53604E-05-2.92884E-05-3.45779E-06-9.46090E-19 2.17122E-18
 -1      2983 9.31375E-05-2.49161E-05-2.92286E-05-3.61853E-06 9.05354E-20 5.76367E-19
 -1      2984 9.40221E-05-2.56668E-05-2.92916E-05-4.01187E-06 4.22095E-19 1.87535E-18
 -1      2985 9.53200E-05-2.56620E-05-2.98601E-05 2.59465E-06 5.78332E-19 7.50122E-19
 -1      2986 9.51995E-05-2.58862E-05-2.97003E-05 2.76852E-06 5.42662E-19 1.20145E-18
 -1      2987 4.34651E-05-1.03167E-05-1.38669E-05-1.93135E-06-3.29273E-18 3.14535E-18
 -1      2988 3.85823E-05-1.16913E-05-1.08291E-05-7.75938E-06-3.09151E-18 3.74812E-18
 -1      2989 4.56659E-05-1.36283E-05-1.34921E-05-1.55570E-05-3.33548E-18 3.60603E-18
 -1      2990 9.52255E-05-2.55548E-05-2.98357E-05 3.46396E-06 5.73790E-19 1.33064E-18
 -1      2991 1.15874E-04-5.55909E-05-2.56569E-05-2.88873E-05-1.82726E-18-2.31837E-18
 -1      2992 1.21484E-04-5.59732E-05-2.83009E-05-2.11236E-05-2.37892E-18-2.36613E-18
 -1      2993 1.08825E-04-5.12880E-05-2.45512E-05-3.00033E-05-1.91684E-18-1.98490E-18
 -1      2994 1.37929E-04-4.33878E-05-4.06982E-05 4.72574E-06-1.93806E-18-1.07234E-18
 -1      2995 1.33094E-04-3.69205E-05-4.17808E-05 9.65811E-06-2.05321E-18-1.91165E-19
 -1      2996 1.34164E-04-4.69331E-05-3.74859E-05 2.85104E-06-2.82443E-18-3.21873E-19
 -1      2997 9.47442E-05-2.24137E-05-3.09674E-05 6.34434E-06 8.73270E-19 1.04533E-18
 -1      2998 1.36103E-04-5.04104E-05-3.68306E-05 2.07090E-06 9.55771E-19-3.84987E-18
 -1      2999 1.30034E-04-2.26011E-05-4.64098E-05 1.08998E-05-9.06749E-19-2.39975E-19
 -1      3000 9.03689E-05-1.48757E-05-3.23744E-05-2.17790E-06 6.42022E-19-9.10464E-19
 -1      3001 9.05523E-05-1.51394E-05-3.23417E-05-3.12933E-06 4.91034E-19-1.01098E-18
 -1      3002 9.18010E-05-1.71588E-05-3.19741E-05-3.14360E-06 4.02254E-19-9.55621E-19
 -1      3003 9.14280E-05-1.65749E-05-3.20669E-05-1.58278E-06 5.39032E-19-8.67701E-19
 -1      3004 4.65610E-05-2.11359E-05-1.01835E-05 2.54794E-05 1.76606E-18 9.88487E-19
 -1      3005 4.29908E-05-1.55906E-05-1.13648E-05 1.91905E-05 1.59989E-18 8.03834E-19
 -1      3006 5.93168E-05-2.52807E-05-1.44093E-05 2.91500E-05 1.86517E-18 9.93676E-19
 -1      3007 7.52964E-05-3.15335E-05-1.85738E-05-3.46292E-05-9.29672E-19-1.34996E-18
 -1      3008 8.24703E-05-3.86689E-05-1.83869E-05-3.86590E-05-7.56295E-19-8.02246E-19
 -1      3009 9.27528E-05-4.23827E-05-2.14363E-05-3.43869E-05-1.55478E-18-1.36219E-18
 -1      3010 6.10285E-05-2.65467E-05-1.41777E-05-2.95148E-05-1.84367E-18 3.22518E-18
 -1      3011 9.19400E-05-4.41853E-05-2.01000E-05-3.34684E-05 9.51853E-20 2.41299E-18
 -1      3012 9.42719E-05-2.18629E-05-3.10677E-05 5.00218E-06 9.07376E-19 4.19698E-19
 -1      3013 9.38236E-05-2.09176E-05-3.12503E-05 4.61307E-06 9.69969E-19 2.15787E-19
 -1      3014 9.53693E-05-2.53500E-05-2.99845E-05 4.68367E-06 7.05162E-19 1.67278E-18
 -1      3015 1.26499E-04-2.64259E-05-4.34638E-05-1.23551E-05 2.01986E-18-1.47209E-18
 -1      3016 1.30271E-04-3.51388E-05-4.07390E-05-1.11125E-05 1.50703E-18-1.79206E-18
 -1      3017 1.28575E-04-5.54042E-05-3.12109E-05-1.16748E-05-2.66883E-18-1.27817E-18
 -1      3018 1.31409E-04-5.27177E-05-3.40486E-05-4.36169E-06-2.63800E-18-1.82059E-19
 -1      3019 9.56859E-05-2.68647E-05-2.94807E-05-7.34035E-07-6.62448E-20-6.69010E-19
 -1      3020 9.56633E-05-2.73080E-05-2.93031E-05-2.02108E-07-4.70813E-20-7.24346E-19
 -1      3021 9.57066E-05-2.76876E-05-2.91399E-05 1.85995E-07-8.12058E-20-7.00917E-19
 -1      3022 9.56711E-05-2.79675E-05-2.90201E-05 5.11103E-07-1.51648E-19-7.84566E-19
 -1      3023 9.59044E-05-2.73033E-05-2.94037E-05-1.39892E-07-1.86680E-19-8.80039E-19
 -1      3024 9.56619E-05-2.81972E-05-2.89058E-05 7.44842E-07-1.25614E-19-5.92526E-19
 -1      3025 9.56316E-05-2.83689E-05-2.88287E-05 9.27736E-07-1.64405E-19-5.51847E-19
 -1      3026 9.59433E-05-2.80104E-05-2.91178E-05 5.15822E-07-1.44944E-19-6.03669E-19
 -1      3027 9.55969E-05-2.84982E-05-2.87517E-05 1.05446E-06 2.14700E-19-3.22274E-19
 -1      3028 9.55765E-05-2.85961E-05-2.87060E-05 1.14528E-06 3.72454E-19 2.52565E-20
 -1      3029 9.59051E-05-2.84369E-05-2.89184E-05 9.04047E-07 1.52246E-19-4.89095E-19
 -1      3030 9.55303E-05-2.86566E-05-2.86575E-05 1.20381E-06 3.08101E-19 3.19925E-19
 -1      3031 9.55192E-05-2.87026E-05-2.86347E-05 1.24048E-06 1.38218E-19 5.16417E-19
 -1      3032 9.58295E-05-2.86700E-05-2.87857E-05 1.11113E-06 6.20165E-19 2.53030E-20
 -1      3033 9.54682E-05-2.87145E-05-2.86078E-05 1.26129E-06 1.69053E-20 7.26231E-19
 -1      3034 9.54645E-05-2.87225E-05-2.86019E-05 1.27225E-06 2.62776E-19 8.01871E-19
 -1      3035 9.57367E-05-2.87667E-05-2.87039E-05 1.20727E-06 3.25055E-19 2.13514E-19
 -1      3036 9.54112E-05-2.86985E-05-2.85915E-05 1.27873E-06-9.03667E-20 7.86476E-19
 -1      3037 9.54126E-05-2.86774E-05-2.85984E-05 1.28552E-06-1.71140E-19 4.06840E-19
 -1      3038 9.56359E-05-2.87644E-05-2.86611E-05 1.24733E-06-9.92204E-20 7.04367E-19
 -1      3039 9.53566E-05-2.86247E-05-2.86007E-05 1.29572E-06-2.06389E-19 3.81183E-19
 -1      3040 9.53608E-05-2.85792E-05-2.86178E-05 1.31512E-06-2.70827E-19 2.78921E-19
 -1      3041 9.55292E-05-2.86864E-05-2.86483E-05 1.27361E-06-2.09230E-19 7.11044E-19
 -1      3042 9.52993E-05-2.85011E-05-2.86301E-05 1.34331E-06-2.55726E-19 3.87004E-20
 -1      3043 9.53037E-05-2.84328E-05-2.86556E-05 1.38909E-06-1.93465E-19 2.69297E-20
 -1      3044 9.54139E-05-2.85454E-05-2.86587E-05 1.31900E-06-2.59695E-19 2.93694E-19
 -1      3045 9.52319E-05-2.83288E-05-2.86759E-05 1.44704E-06-3.13276E-19 1.63309E-19
 -1      3046 9.52336E-05-2.82365E-05-2.87091E-05 1.53126E-06-6.04648E-19-4.20346E-20
 -1      3047 9.52826E-05-2.83454E-05-2.86874E-05 1.40976E-06-2.56423E-19 6.45617E-21
 -1      3048 9.51389E-05-2.80951E-05-2.87373E-05 1.63462E-06-6.46261E-19 4.26735E-19
 -1      3049 9.51305E-05-2.79673E-05-2.87798E-05 1.77813E-06-2.13283E-19 5.27220E-19
 -1      3050 9.51183E-05-2.80760E-05-2.87319E-05 1.57321E-06-2.63829E-19 3.72265E-19
 -1      3051 9.50077E-05-2.77935E-05-2.88117E-05 1.92824E-06-1.80230E-19 5.87864E-19
 -1      3052 9.49832E-05-2.76351E-05-2.88590E-05 2.12811E-06-3.26810E-19 3.42169E-19
 -1      3053 9.49037E-05-2.77280E-05-2.87875E-05 1.82653E-06-3.38513E-19 8.67870E-19
 -1      3054 9.48131E-05-2.74119E-05-2.88936E-05 2.33704E-06-4.86622E-19 3.22635E-19
 -1      3055 9.47595E-05-2.72065E-05-2.89465E-05 2.61192E-06-5.86193E-19-6.13276E-20
 -1      3056 9.46167E-05-2.72946E-05-2.88485E-05 2.17909E-06-6.00753E-19 4.79719E-19
 -1      3057 9.45166E-05-2.69182E-05-2.89805E-05 2.88823E-06-2.48075E-19 1.04169E-19
 -1      3058 9.44149E-05-2.66514E-05-2.90367E-05 3.25125E-06-3.69829E-20 4.63574E-19
 -1      3059 9.42118E-05-2.67406E-05-2.89098E-05 2.65007E-06-2.75113E-19-7.77648E-20
 -1      3060 9.40648E-05-2.62785E-05-2.90643E-05 3.60270E-06-3.87676E-19 8.51606E-19
 -1      3061 9.38875E-05-2.59332E-05-2.91189E-05 4.06724E-06-2.89494E-19 7.32074E-19
 -1      3062 9.36318E-05-2.60312E-05-2.89615E-05 3.25123E-06-1.37519E-23 8.79904E-19
 -1      3063 9.33833E-05-2.54539E-05-2.91299E-05 4.50049E-06-4.34106E-19 4.48120E-19
 -1      3064 9.30927E-05-2.50137E-05-2.91733E-05 5.07931E-06-5.30423E-19 5.99044E-19
 -1      3065 9.27973E-05-2.51258E-05-2.89865E-05 3.99018E-06-5.26482E-19 8.25130E-19
 -1      3066 9.23732E-05-2.44084E-05-2.91508E-05 5.60034E-06-7.26096E-19 3.43243E-19
 -1      3067 9.19225E-05-2.38647E-05-2.91657E-05 6.30492E-06-8.52878E-19-1.70828E-19
 -1      3068 9.16029E-05-2.39832E-05-2.89566E-05 4.86957E-06-7.11754E-19 9.79330E-19
 -1      3069 9.09116E-05-2.31259E-05-2.90819E-05 6.92205E-06-2.93302E-19 1.00392E-19
 -1      3070 9.02525E-05-2.24939E-05-2.90388E-05 7.76423E-06 2.76329E-19 2.79614E-19
 -1      3071 8.99136E-05-2.25753E-05-2.88256E-05 5.88976E-06-3.08307E-19 6.56131E-19
 -1      3072 8.88625E-05-2.16451E-05-2.88491E-05 8.49823E-06 4.04208E-19 2.18479E-19
 -1      3073 8.79662E-05-2.09943E-05-2.87010E-05 9.49917E-06 3.33651E-19 3.75602E-19
 -1      3074 8.75669E-05-2.09115E-05-2.85192E-05 7.06142E-06 5.14748E-19 1.12881E-18
 -1      3075 8.61068E-05-2.01235E-05-2.83352E-05 1.04086E-05 3.10677E-19 5.62058E-19
 -1      3076 8.50129E-05-1.96294E-05-2.80098E-05 1.16230E-05 6.82176E-20 6.56800E-19
 -1      3077 8.43827E-05-1.90820E-05-2.79204E-05 8.44168E-06 4.67917E-19 7.92072E-19
 -1      3078 8.26055E-05-1.89447E-05-2.73555E-05 1.28666E-05 9.51531E-20 3.45264E-19
 -1      3079 8.15103E-05-1.89907E-05-2.67496E-05 1.44362E-05 5.78020E-19 1.07312E-19
 -1      3080 8.01781E-05-1.73233E-05-2.68442E-05 1.02197E-05 3.48768E-19 9.55536E-19
 -1      3081 7.85153E-05-1.88545E-05-2.56264E-05 1.63538E-05 9.38453E-19 7.01780E-20
 -1      3082 7.86093E-05-2.03927E-05-2.48231E-05 1.83955E-05 7.83823E-19 3.27329E-19
 -1      3083 7.48762E-05-1.61863E-05-2.49888E-05 1.28964E-05 8.02680E-19 4.50152E-19
 -1      3084 8.66623E-05-3.94328E-05-1.97373E-05 3.33946E-05 1.64642E-18 1.02692E-18
 -1      3085 1.17382E-04-1.24348E-05-4.54564E-05-8.01432E-06 2.53051E-18-6.10181E-19
 -1      3086 1.22332E-04-1.85493E-05-4.47879E-05-1.17955E-05 2.23140E-18-1.36918E-18
 -1      3087 1.20344E-04-2.36414E-05-4.17112E-05-1.20637E-05 1.82753E-18-1.20461E-18
 -1      3088 5.11288E-05-1.86114E-05-1.34601E-05-2.68883E-05 7.50154E-20-2.72501E-18
 -1      3089 7.87251E-05-2.10217E-05-2.45344E-05-1.94966E-05 2.12281E-19-1.24858E-19
 -1      3090 7.89325E-05-1.94530E-05-2.55457E-05-1.73545E-05 2.21208E-19-4.20029E-19
 -1      3091 8.18157E-05-1.93899E-05-2.66892E-05-1.52740E-05 3.93700E-19-4.11572E-20
 -1      3092 8.27585E-05-1.92139E-05-2.73023E-05-1.36951E-05 1.17907E-18 3.66363E-19
 -1      3093 7.49362E-05-1.65618E-05-2.48839E-05-1.39411E-05 4.14781E-20 9.37143E-19
 -1      3094 8.51571E-05-1.98390E-05-2.79773E-05-1.23906E-05 1.28927E-18-1.29713E-18
 -1      3095 8.62015E-05-2.02681E-05-2.83125E-05-1.11614E-05 6.94761E-19-1.02914E-18
 -1      3096 8.02879E-05-1.75477E-05-2.67954E-05-1.10832E-05 1.80921E-19 5.17636E-19
 -1      3097 8.80747E-05-2.11058E-05-2.86971E-05-1.02181E-05 4.03992E-19-1.96319E-18
 -1      3098 8.89491E-05-2.17145E-05-2.88558E-05-9.20236E-06 1.65123E-19-1.03150E-18
 -1      3099 8.45059E-05-1.92137E-05-2.79170E-05-9.20280E-06 1.02147E-19-9.94020E-19
 -1      3100 9.03557E-05-2.25335E-05-2.90649E-05-8.44397E-06-1.63246E-19-1.03030E-18
 -1      3101 9.09976E-05-2.31191E-05-2.91214E-05-7.57830E-06-7.44767E-19-2.61631E-19
 -1      3102 8.77231E-05-2.09798E-05-2.85575E-05-7.76136E-06 6.83552E-19-8.80655E-19
 -1      3103 9.20175E-05-2.38068E-05-2.92292E-05-6.93542E-06-1.01944E-18-7.53395E-20
 -1      3104 9.24416E-05-2.42841E-05-2.92334E-05-6.18416E-06-4.17859E-19-8.98130E-19
 -1      3105 9.00995E-05-2.25660E-05-2.89108E-05-6.53337E-06-1.02837E-18-5.17815E-20
 -1      3106 9.31632E-05-2.48180E-05-2.92873E-05-5.61914E-06 9.23462E-19-9.81587E-19
 -1      3107 9.34230E-05-2.51487E-05-2.92712E-05-4.97147E-06 7.07994E-19 4.21431E-19
 -1      3108 9.17772E-05-2.38288E-05-2.91016E-05-5.44576E-06-4.30634E-20-7.74021E-19
 -1      3109 9.55808E-05-2.76572E-05-2.91159E-05-1.75134E-07 7.16489E-19 5.93246E-19
 -1      3110 9.56239E-05-2.73133E-05-2.92624E-05 2.56351E-07 7.79814E-19 5.41495E-19
 -1      3111 9.55514E-05-2.68411E-05-2.94568E-05 7.60261E-07 7.07104E-19 4.62928E-19
 -1      3112 9.55703E-05-2.62966E-05-2.96724E-05 1.44598E-06 5.47179E-19 3.64335E-19
 -1      3113 9.57728E-05-2.67967E-05-2.95646E-05 6.58356E-07 6.69347E-19 1.40211E-19
 -1      3114 9.54044E-05-2.86984E-05-2.85869E-05-1.26696E-06 3.82080E-19 9.71307E-19
 -1      3115 9.54046E-05-2.86670E-05-2.85999E-05-1.24894E-06 4.19058E-19 8.24835E-19
 -1      3116 9.54491E-05-2.86293E-05-2.86366E-05-1.21247E-06 2.73574E-19 7.04290E-19
 -1      3117 9.54598E-05-2.85571E-05-2.86687E-05-1.15290E-06 3.27714E-19 5.55609E-19
 -1      3118 9.57019E-05-2.87067E-05-2.87151E-05-1.18280E-06 2.79483E-19 9.69553E-19
 -1      3119 9.53387E-05-2.86581E-05-2.85750E-05-1.27721E-06 6.17050E-19 4.68909E-19
 -1      3120 9.53243E-05-2.86756E-05-2.85643E-05-1.27667E-06 7.44917E-19 7.92534E-19
 -1      3121 9.53189E-05-2.85839E-05-2.85979E-05-1.29806E-06 3.35875E-19-9.20860E-20
 -1      3122 9.52982E-05-2.86146E-05-2.85800E-05-1.28501E-06 4.17412E-19 1.23137E-20
 -1      3123 9.54502E-05-2.86716E-05-2.86208E-05-1.27925E-06 8.57670E-19 6.01923E-19
 -1      3124 9.53097E-05-2.84911E-05-2.86335E-05-1.35808E-06 2.81922E-19-7.67322E-20
 -1      3125 9.52819E-05-2.85291E-05-2.86101E-05-1.32389E-06 1.84235E-19-3.72597E-19
 -1      3126 9.53740E-05-2.85639E-05-2.86340E-05-1.31941E-06 2.03246E-19-6.23257E-20
 -1      3127 9.53153E-05-2.83924E-05-2.86779E-05-1.47016E-06 5.78907E-20 3.20386E-19
 -1      3128 9.52779E-05-2.84311E-05-2.86506E-05-1.40961E-06 2.84925E-19 3.80369E-19
 -1      3129 9.53058E-05-2.84355E-05-2.86597E-05-1.40229E-06 1.61014E-20 1.99475E-19
 -1      3130 9.53434E-05-2.83030E-05-2.87281E-05-1.64096E-06-1.10884E-20 4.98824E-19
 -1      3131 9.52918E-05-2.83344E-05-2.86981E-05-1.55217E-06 8.60145E-20 2.80563E-19
 -1      3132 9.52503E-05-2.83014E-05-2.86934E-05-1.54108E-06 4.09184E-20 9.37040E-19
 -1      3133 9.54069E-05-2.82428E-05-2.87809E-05-1.87012E-06 5.56958E-20 4.69061E-19
 -1      3134 9.53342E-05-2.82562E-05-2.87496E-05-1.75518E-06 9.16532E-20 3.18346E-19
 -1      3135 9.52168E-05-2.81800E-05-2.87313E-05-1.74310E-06-6.32874E-20 4.34812E-19
 -1      3136 9.55259E-05-2.82399E-05-2.88332E-05-2.14846E-06-3.82727E-19 6.24133E-19
 -1      3137 9.54221E-05-2.82205E-05-2.88019E-05-2.01451E-06-2.65638E-19 7.22700E-19
 -1      3138 9.52209E-05-2.80966E-05-2.87694E-05-2.00913E-06-3.32629E-19 6.13599E-19
 -1      3139 9.57305E-05-2.83327E-05-2.88814E-05-2.45500E-06-1.03366E-18 8.30847E-19
 -1      3140 9.55814E-05-2.82606E-05-2.88518E-05-2.31588E-06-7.48575E-19 7.54403E-19
 -1      3141 9.52885E-05-2.80861E-05-2.88039E-05-2.33146E-06-8.07603E-19 5.10185E-19
 -1      3142 9.60626E-05-2.85709E-05-2.89224E-05-2.75273E-06-6.72715E-19 1.03609E-18
 -1      3143 9.58497E-05-2.84212E-05-2.88961E-05-2.63110E-06-7.71770E-19 1.04540E-18
 -1      3144 9.54584E-05-2.81962E-05-2.88311E-05-2.69071E-06-8.94639E-19 5.01011E-19
 -1      3145 9.65769E-05-2.90139E-05-2.89543E-05-2.98350E-06-2.31246E-19 5.58633E-19
 -1      3146 9.62780E-05-2.87580E-05-2.89322E-05-2.91307E-06-2.93257E-19 7.98016E-19
 -1      3147 9.57860E-05-2.84889E-05-2.88486E-05-3.05104E-06-4.77062E-19 9.08600E-20
 -1      3148 9.73371E-05-2.97228E-05-2.89788E-05-3.06248E-06 5.49008E-20-1.82358E-19
 -1      3149 9.69293E-05-2.93341E-05-2.89603E-05-3.08990E-06 7.75946E-20 5.53877E-19
 -1      3150 9.63444E-05-2.90369E-05-2.88564E-05-3.35355E-06-5.25797E-21 1.82169E-19
 -1      3151 9.84056E-05-3.07423E-05-2.90037E-05-2.87414E-06 4.95660E-19-6.43166E-19
 -1      3152 9.78722E-05-3.02066E-05-2.89851E-05-3.05898E-06-8.95009E-20-6.55827E-19
 -1      3153 9.72209E-05-2.99144E-05-2.88603E-05-3.50816E-06 3.24488E-19-4.41548E-19
 -1      3154 9.98186E-05-3.20659E-05-2.90478E-05-2.27344E-06 4.06837E-19 2.89057E-19
 -1      3155 9.91632E-05-3.14012E-05-2.90203E-05-2.68397E-06 4.50451E-19-2.20504E-19
 -1      3156 9.85033E-05-3.11723E-05-2.88752E-05-3.38518E-06 2.11945E-19-4.10663E-19
 -1      3157 1.01542E-04-3.35808E-05-2.91445E-05-1.10221E-06-2.42220E-19 5.87505E-19
 -1      3158 1.00810E-04-3.28664E-05-2.90926E-05-1.80137E-06 6.96122E-20 5.85056E-19
 -1      3159 1.00248E-04-3.27941E-05-2.89311E-05-2.81097E-06-1.72559E-19 3.32027E-19
 -1      3160 1.03410E-04-3.49988E-05-2.93442E-05 7.61762E-07 5.91059E-19 3.82226E-19
 -1      3161 1.02712E-04-3.44079E-05-2.92452E-05-2.52154E-07 3.29544E-19 8.50565E-19
 -1      3162 1.02420E-04-3.46232E-05-2.90771E-05-1.58167E-06 7.06793E-20 3.71096E-19
 -1      3163 1.05067E-04-3.58085E-05-2.97094E-05 3.29686E-06-1.39533E-19 1.11748E-18
 -1      3164 1.04589E-04-3.56188E-05-2.95373E-05 2.03499E-06 4.30020E-19 1.11625E-18
 -1      3165 1.04805E-04-3.62709E-05-2.93839E-05 4.77027E-07-8.00674E-20 1.15192E-18
 -1      3166 1.05982E-04-3.53387E-05-3.02925E-05 6.16868E-06-1.08698E-18 1.87494E-18
 -1      3167 1.05946E-04-3.58740E-05-3.00299E-05 4.88736E-06-6.80708E-19 1.65578E-18
 -1      3168 1.06921E-04-3.70675E-05-2.99321E-05 3.35678E-06-9.14277E-19 2.37956E-18
 -1      3169 1.05623E-04-3.30188E-05-3.11022E-05 8.59583E-06-1.52348E-18 2.07922E-18
 -1      3170 1.06189E-04-3.44967E-05-3.07526E-05 7.71925E-06-1.48231E-18 2.16053E-18
 -1      3171 1.08077E-04-3.62077E-05-3.07771E-05 6.63702E-06-1.26709E-18 3.02333E-18
 -1      3172 1.03826E-04-2.89202E-05-3.20552E-05 9.31575E-06-7.37065E-19 2.14498E-18
 -1      3173 1.04877E-04-3.11242E-05-3.16708E-05 9.40631E-06-1.07137E-18 1.70230E-18
 -1      3174 1.07559E-04-3.29866E-05-3.19087E-05 9.30661E-06-1.35946E-18 2.76590E-18
 -1      3175 1.01273E-04-2.43008E-05-3.29308E-05 7.25352E-06 8.20365E-20 2.64576E-18
 -1      3176 1.02384E-04-2.64648E-05-3.26116E-05 8.65558E-06 3.87534E-21 2.31424E-18
 -1      3177 1.05328E-04-2.78770E-05-3.31626E-05 9.74579E-06-7.26501E-19 1.81969E-18
 -1      3178 9.94458E-05-2.13380E-05-3.34481E-05 2.45444E-06-1.80044E-20 1.77390E-18
 -1      3179 1.00008E-04-2.24007E-05-3.33031E-05 4.90199E-06 1.94329E-19 2.03372E-18
 -1      3180 1.02498E-04-2.27123E-05-3.42058E-05 6.77237E-06 8.64063E-20 2.60380E-18
 -1      3181 9.96090E-05-2.17323E-05-3.34085E-05-3.38226E-06-1.43311E-19 1.55531E-18
 -1      3182 9.92717E-05-2.10866E-05-3.34966E-05-7.94098E-07-3.87379E-19 1.50231E-18
 -1      3183 1.00974E-04-2.01420E-05-3.46819E-05 9.30237E-07 1.86233E-19 7.69575E-19
 -1      3184 1.01687E-04-2.52797E-05-3.28205E-05-7.81066E-06 1.38397E-19 1.38959E-18
 -1      3185 1.00663E-04-2.32933E-05-3.31086E-05-6.08377E-06 2.61492E-19 1.70237E-18
 -1      3186 1.01908E-04-2.17003E-05-3.43991E-05-5.31162E-06-1.49472E-20 5.44566E-19
 -1      3187 1.04313E-04-3.00250E-05-3.19090E-05-9.32559E-06 1.30285E-18 1.55362E-18
 -1      3188 1.03189E-04-2.77277E-05-3.22906E-05-8.91798E-06 2.72399E-19 1.25232E-18
 -1      3189 1.04589E-04-2.64533E-05-3.34648E-05-9.16795E-06 4.50253E-19 4.54666E-19
 -1      3190 1.06010E-04-3.38695E-05-3.09590E-05-8.13473E-06 1.74616E-18 2.40231E-18
 -1      3191 1.05295E-04-3.21502E-05-3.13282E-05-8.82333E-06 2.09713E-18 1.94681E-18
 -1      3192 1.07152E-04-3.18611E-05-3.22260E-05-9.52065E-06 6.21517E-19 8.12099E-19
 -1      3193 1.06169E-04-3.57909E-05-3.01678E-05-5.43118E-06 1.18550E-18 2.99209E-18
 -1      3194 1.06058E-04-3.50108E-05-3.04595E-05-6.67743E-06 1.85681E-18 2.94366E-18
 -1      3195 1.08179E-04-3.56822E-05-3.10337E-05-7.26140E-06 1.10893E-18 1.82527E-18
 -1      3196 1.05045E-04-3.59106E-05-2.96117E-05-2.45010E-06-4.26765E-20 3.29424E-18
 -1      3197 1.05436E-04-3.59404E-05-2.98089E-05-3.77314E-06 5.78126E-19 3.16245E-18
 -1      3198 1.07428E-04-3.71636E-05-3.01005E-05-3.95493E-06 6.86061E-19 2.79316E-18
 -1      3199 1.03242E-04-3.48775E-05-2.92721E-05 6.51698E-08 8.07379E-19 1.49976E-18
 -1      3200 1.03912E-04-3.53988E-05-2.93890E-05-1.04910E-06 5.26359E-19 1.98369E-18
 -1      3201 1.05493E-04-3.67304E-05-2.94785E-05-8.50409E-07 9.67002E-19 1.52065E-18
 -1      3202 1.01306E-04-3.33609E-05-2.90923E-05 1.84971E-06 5.39876E-19 2.46299E-18
 -1      3203 1.02053E-04-3.40740E-05-2.91537E-05 1.04773E-06 1.58803E-19 1.80983E-18
 -1      3204 1.03127E-04-3.52248E-05-2.91212E-05 1.48097E-06 4.78909E-19 1.62567E-19
 -1      3205 9.95694E-05-3.18211E-05-2.90126E-05 2.92687E-06-1.28863E-19 3.48625E-18
 -1      3206 1.00263E-04-3.25288E-05-2.90415E-05 2.43163E-06 4.45955E-19 3.14114E-18
 -1      3207 1.00878E-04-3.33799E-05-2.89504E-05 2.95403E-06-1.02012E-21 1.37752E-18
 -1      3208 9.81675E-05-3.04925E-05-2.89871E-05 3.43377E-06-9.60381E-20 3.48604E-18
 -1      3209 9.87499E-05-3.10983E-05-2.90001E-05 3.19301E-06 2.07023E-19 3.66206E-18
 -1      3210 9.90152E-05-3.16450E-05-2.88932E-05 3.70960E-06 1.26788E-19 3.35404E-18
 -1      3211 9.71148E-05-2.94446E-05-2.89876E-05 3.52772E-06 1.52611E-18 1.39727E-18
 -1      3212 9.75721E-05-2.99236E-05-2.89940E-05 3.47982E-06 4.85603E-19 2.44416E-18
 -1      3213 9.76105E-05-3.02183E-05-2.88972E-05 3.94024E-06 9.75788E-19 2.14901E-18
 -1      3214 9.13268E-05-2.37303E-05-2.89788E-05-1.58152E-06-6.63357E-19-2.45164E-19
 -1      3215 9.12467E-05-2.37026E-05-2.89507E-05-8.08402E-07-7.12929E-19 8.49080E-19
 -1      3216 8.37507E-05-3.52716E-05-2.02747E-05-3.13303E-05-4.20975E-19 1.46928E-18
 -1      3217 9.19415E-05-2.40928E-05-2.90804E-05-3.17571E-06 6.46806E-19 7.60799E-19
 -1      3218 9.15558E-05-2.38239E-05-2.90380E-05-2.50179E-06 2.08044E-19 6.28858E-20
 -1      3219 9.08559E-05-2.34110E-05-2.88940E-05-2.11151E-06-1.73734E-18 4.92905E-19
 -1      3220 9.13394E-05-2.38872E-05-2.89210E-05 8.06089E-08-6.80627E-19 8.82814E-19
 -1      3221 9.15214E-05-2.40594E-05-2.89078E-05 7.94274E-07-6.00412E-20 4.57990E-19
 -1      3222 9.07366E-05-2.35117E-05-2.87973E-05-2.32132E-07-2.14440E-18 9.98228E-19
 -1      3223 4.96310E-05-1.60016E-05-1.38957E-05 2.43860E-05-3.12952E-18 5.50995E-19
 -1      3224 4.55214E-05-1.15159E-05-1.42733E-05 1.26394E-05-3.27489E-18 1.61000E-18
 -1      3225 6.07375E-05-2.05605E-05-1.68479E-05 2.63406E-05-2.23236E-18 2.86191E-19
 -1      3226 9.52951E-05-2.45452E-05-3.03471E-05 4.84526E-06 6.76703E-19 1.07408E-18
 -1      3227 9.18583E-05-2.44531E-05-2.89026E-05 1.54304E-06 4.38329E-19 2.46684E-19
 -1      3228 9.22234E-05-2.47683E-05-2.88999E-05 2.11818E-06 1.29456E-18 3.89902E-19
 -1      3229 9.12367E-05-2.41073E-05-2.87624E-05 1.46115E-06 5.32414E-19 2.22685E-19
 -1      3230 7.81081E-05-3.22012E-05-1.89447E-05 3.13277E-05 1.16171E-18 8.42057E-19
 -1      3231 9.47482E-05-2.29696E-05-3.07498E-05 4.95522E-06 7.21665E-19 6.00140E-19
 -1      3232 3.85660E-05-1.08748E-05-1.11225E-05 7.34765E-06 1.26507E-18-5.05996E-19
 -1      3233 4.01184E-05-9.98518E-06-1.25565E-05-6.10684E-06 1.07825E-18-1.33439E-18
 -1      3234 1.26922E-04-5.68106E-05-3.04913E-05 1.54168E-05 1.42153E-18-3.51116E-18
 -1      3235 1.18992E-04-5.52829E-05-2.70698E-05 2.35913E-05 6.14853E-19-2.70913E-18
 -1      3236 9.53674E-05-2.87013E-05-2.85692E-05-1.27599E-06 3.73905E-19 9.66799E-19
 -1      3237 9.53596E-05-2.86987E-05-2.85685E-05-1.27545E-06 3.40844E-19 1.01840E-18
 -1      3238 9.56167E-05-2.87631E-05-2.86538E-05-1.24238E-06 3.66563E-19 1.34673E-18
 -1      3239 9.55318E-05-2.87437E-05-2.86253E-05-1.26248E-06 6.84587E-19 1.10566E-18
 -1      3240 7.99500E-05-2.85119E-05-2.17359E-05-2.67796E-05-4.99008E-19 1.20093E-18
 -1      3241 7.78685E-05-2.35774E-05-2.31704E-05-2.35545E-05-1.45293E-19 5.05573E-19
 -1      3242 7.06951E-05-1.85346E-05-2.21142E-05-1.97704E-05-4.04538E-19 4.16634E-19
 -1      3243 7.25854E-05-2.80282E-05-1.89211E-05-2.95573E-05-6.40675E-19 1.59083E-18
 -1      3244 1.29380E-04-2.88468E-05-4.33763E-05 1.23564E-05-1.55060E-18 2.45375E-19
 -1      3245 1.22816E-04-2.02251E-05-4.44209E-05 1.21601E-05-8.55397E-19 4.13511E-19
 -1      3246 9.23913E-05-1.83367E-05-3.17530E-05 1.81267E-06 9.86861E-19-3.89047E-19
 -1      3247 9.22736E-05-1.81351E-05-3.17854E-05 1.05864E-06 8.39338E-19-5.04873E-19
 -1      3248 9.51526E-05-2.75452E-05-2.89835E-05 3.43484E-06 9.98122E-19 2.30220E-18
 -1      3249 9.56448E-05-2.79855E-05-2.89899E-05 3.20749E-06 1.18893E-18 8.20728E-19
 -1      3250 9.59257E-05-2.82899E-05-2.89858E-05 3.39160E-06 1.41157E-18 1.61279E-18
 -1      3251 5.83657E-05-1.90307E-05-1.62505E-05-2.32455E-05-1.48675E-18 2.49314E-18
 -1      3252 9.54923E-05-2.55549E-05-2.99613E-05-2.14131E-06-1.26327E-19-7.92525E-19
 -1      3253 9.55394E-05-2.62529E-05-2.97061E-05-1.32493E-06-4.34541E-20-7.73798E-19
 -1      3254 9.57168E-05-2.61880E-05-2.98000E-05-1.15811E-06 1.58247E-20-8.52413E-19
 -1      3255 9.50059E-05-2.37630E-05-3.05146E-05 3.81442E-06 6.42429E-19 4.09719E-19
 -1      3256 9.34787E-05-1.98484E-05-3.15521E-05-6.23810E-06-2.26241E-19-1.11546E-18
 -1      3257 1.32657E-04-4.62571E-05-3.76535E-05-4.38961E-06 1.45491E-18-2.68234E-18
 -1      3258 1.32294E-04-5.30557E-05-3.37513E-05 4.62182E-06 1.66233E-18-3.06954E-18
 -1      3259 1.08672E-04-5.18724E-05-2.44154E-05 3.09756E-05 1.09797E-19-5.03932E-19
 -1      3260 9.46367E-05-4.38748E-05-2.15306E-05 3.43640E-05-7.71144E-19 3.47813E-20
 -1      3261 1.13577E-04-5.15755E-05-2.64119E-05 2.34934E-05 1.02412E-18-1.27693E-18
 -1      3262 9.26950E-05-2.52646E-05-2.89118E-05 2.63394E-06 1.26404E-18 3.41537E-19
 -1      3263 9.31398E-05-2.56496E-05-2.89152E-05 2.99919E-06 9.26982E-19-9.93184E-19
 -1      3264 9.21584E-05-2.50145E-05-2.87750E-05 2.74687E-06 1.49090E-18-4.13974E-19
 -1      3265 4.80173E-05-1.33160E-05-1.43424E-05-1.89748E-05 3.45854E-19-2.31346E-18
 -1      3266 5.96839E-05-2.07835E-05-1.65008E-05-2.81976E-05-2.23326E-19-2.55042E-18
 -1      3267 6.34818E-05-1.97896E-05-1.86712E-05-2.43250E-05 7.54389E-22-1.90328E-18
 -1      3268 6.90012E-05-2.53066E-05-1.82522E-05-3.06516E-05-6.60289E-19-1.84696E-18
 -1      3269 7.80920E-05-3.00901E-05-2.04425E-05-2.99903E-05-1.03494E-18-6.97426E-19
 -1      3270 1.27647E-04-5.00055E-05-3.33683E-05-1.39429E-06-2.79984E-18-2.91115E-19
 -1      3271 1.31401E-04-4.91895E-05-3.52941E-05 1.04884E-06-3.07505E-18-4.64651E-19
 -1      3272 1.28761E-04-4.43833E-05-3.65386E-05 5.96425E-06-2.97968E-18-1.45134E-19
 -1      3273 9.22137E-05-1.80348E-05-3.18040E-05 4.08808E-07 7.26256E-19-4.68766E-19
 -1      3274 9.22101E-05-1.80298E-05-3.18045E-05-3.59294E-07 6.38063E-19-6.33458E-19
 -1      3275 9.31660E-05-1.96147E-05-3.15042E-05 6.28483E-07 7.31973E-19-4.66688E-19
 -1      3276 6.39027E-05-1.70585E-05-1.98007E-05 1.91340E-05 1.14921E-18 1.52519E-19
 -1      3277 7.13609E-05-2.23145E-05-2.07967E-05 2.38116E-05 8.73979E-19 8.63656E-19
 -1      3278 7.26754E-05-2.72628E-05-1.89928E-05 2.79464E-05 8.91079E-19 6.99649E-19
 -1      3279 1.18794E-04-1.63765E-05-4.43290E-05 1.05249E-05-8.92032E-19-3.95141E-19
 -1      3280 1.14461E-04-1.35425E-05-4.35142E-05 7.73028E-06 9.72500E-20-3.39898E-19
 -1      3281 1.18535E-04-2.17697E-05-4.17162E-05 1.17658E-05-1.31338E-18-4.25369E-20
 -1      3282 1.14609E-04-1.06369E-05-4.49710E-05-4.26934E-06 2.34490E-18 3.84275E-19
 -1      3283 1.12735E-04-1.43113E-05-4.24376E-05-6.64937E-06 1.81906E-18 6.37015E-19
 -1      3284 1.11840E-04-1.05696E-05-4.36841E-05 2.56921E-07 1.67157E-18 8.79164E-19
 -1      3285 1.27824E-04-3.41738E-05-4.03414E-05 1.10236E-05-1.95336E-18 1.13915E-18
 -1      3286 1.23131E-04-5.41649E-05-2.94973E-05-1.49631E-05-3.00638E-18-6.26487E-19
 -1      3287 9.55866E-05-2.79474E-05-2.89783E-05-4.92448E-07 6.72095E-19 7.69786E-19
 -1      3288 9.58546E-05-2.76747E-05-2.92240E-05-2.04750E-07 7.27411E-19 6.55099E-19
 -1      3289 9.55496E-05-2.81633E-05-2.88827E-05-7.45601E-07 5.50365E-19 6.57774E-19
 -1      3290 9.39670E-05-2.55868E-05-2.93069E-05-4.42443E-06 3.86688E-19 1.52592E-18
 -1      3291 9.57810E-05-2.85421E-05-2.88202E-05-1.03537E-06 4.10010E-19 8.18787E-19
 -1      3292 9.54998E-05-2.84652E-05-2.87299E-05-1.06147E-06 4.91875E-19 6.59507E-19
 -1      3293 9.55234E-05-2.83347E-05-2.87886E-05-9.27401E-07 5.06448E-19 6.63334E-19
 -1      3294 5.18832E-05-1.21272E-05-1.68729E-05 1.21307E-05-2.06834E-18 2.05315E-18
 -1      3295 4.63794E-05-9.98777E-06-1.49814E-05 5.95713E-06-3.05752E-18 3.24138E-18
 -1      3296 4.93317E-05-1.04571E-05-1.63799E-05-7.47851E-07-2.50829E-18 2.98251E-18
 -1      3297 9.62967E-05-2.86651E-05-2.89739E-05 3.48816E-06 1.65551E-18 1.58957E-18
 -1      3298 9.66535E-05-2.90418E-05-2.89774E-05 3.55815E-06 1.75073E-18 1.35251E-18
 -1      3299 9.65550E-05-2.91121E-05-2.89043E-05 3.94551E-06 1.33296E-18 1.13491E-18
 -1      3300 9.56966E-05-2.82518E-05-2.89144E-05 3.86304E-06 1.28985E-18 1.29501E-18
 -1      3301 5.81784E-05-1.59878E-05-1.78845E-05-1.76007E-05-1.90212E-18 1.78549E-18
 -1      3302 9.30584E-05-1.94984E-05-3.15342E-05-3.61528E-06 1.69642E-19-8.91074E-19
 -1      3303 9.34226E-05-2.01675E-05-3.14211E-05-4.22695E-06 2.30262E-20-9.67297E-19
 -1      3304 8.76368E-05-3.89575E-05-2.06472E-05 3.47722E-05-1.49639E-18-2.12579E-19
 -1      3305 7.94629E-05-3.23948E-05-2.00394E-05 3.22653E-05-2.38022E-18 3.55807E-19
 -1      3306 9.65475E-05-4.19766E-05-2.32104E-05 2.95133E-05-1.23773E-18 8.47576E-19
 -1      3307 9.25277E-05-2.44856E-05-2.91687E-05-4.05893E-06 1.87071E-18 4.34115E-19
 -1      3308 9.17339E-05-2.39207E-05-2.90561E-05-4.00394E-06 1.44928E-18 1.25330E-18
 -1      3309 9.43440E-05-2.68170E-05-2.89487E-05 3.50954E-06 6.94091E-19 1.08531E-18
 -1      3310 9.47366E-05-2.71638E-05-2.89546E-05 3.49544E-06 8.35176E-19 8.63528E-19
 -1      3311 9.49113E-05-2.74796E-05-2.88993E-05 3.82390E-06 1.03515E-18 7.12019E-19
 -1      3312 9.53684E-05-2.55358E-05-2.99395E-05 2.19377E-06 5.93523E-19 4.24352E-19
 -1      3313 9.52884E-05-2.46952E-05-3.02506E-05 3.20503E-06 5.86936E-19 4.02025E-19
 -1      3314 1.01349E-04-4.64954E-05-2.32604E-05-3.15868E-05-1.75193E-18-1.66198E-18
 -1      3315 1.08270E-04-4.88715E-05-2.54036E-05-2.56675E-05-2.24241E-18-1.78322E-18
 -1      3316 9.31745E-05-4.04567E-05-2.25502E-05-3.09681E-05-1.78134E-18-8.72351E-19
 -1      3317 9.34427E-05-2.02057E-05-3.14113E-05 4.25327E-06 1.05143E-18 5.59422E-20
 -1      3318 9.30899E-05-1.95503E-05-3.15261E-05 3.65204E-06 1.00301E-18 3.62644E-20
 -1      3319 9.43336E-05-2.19729E-05-3.09972E-05 3.61912E-06 7.99588E-19 6.74522E-20
 -1      3320 1.27253E-04-5.29457E-05-3.17846E-05 7.42924E-06 1.72335E-18-2.19127E-18
 -1      3321 1.28096E-04-4.06283E-05-3.76655E-05-8.00383E-06 1.43906E-18-1.30300E-18
 -1      3322 4.75676E-05-1.37888E-05-1.40545E-05 1.36737E-05 1.48630E-18 3.92600E-19
 -1      3323 9.40429E-05-2.14099E-05-3.11353E-05-5.00407E-06-2.70744E-19-1.03906E-18
 -1      3324 9.35247E-05-2.60543E-05-2.89261E-05 3.24503E-06 7.54516E-19-8.91107E-19
 -1      3325 9.39612E-05-2.64402E-05-2.89318E-05 3.40933E-06 2.51463E-19 1.20087E-18
 -1      3326 9.40129E-05-2.67129E-05-2.88420E-05 3.82039E-06 1.69222E-18 6.91624E-19
 -1      3327 9.31453E-05-2.59271E-05-2.88066E-05 3.49084E-06 1.48122E-18-5.72741E-20
 -1      3328 9.49479E-05-2.35916E-05-3.05711E-05 3.35661E-06 6.93509E-19 1.89860E-19
 -1      3329 9.50295E-05-2.37227E-05-3.05624E-05-3.91142E-06-3.41266E-19-8.76258E-19
 -1      3330 9.51974E-05-2.46763E-05-3.02386E-05-2.87126E-06-2.58263E-19-7.59203E-19
 -1      3331 9.52855E-05-2.45528E-05-3.03076E-05-2.52879E-06-2.10520E-19-7.41145E-19
 -1      3332 9.25661E-05-1.86332E-05-3.16965E-05 2.42184E-06 9.72091E-19-2.68742E-19
 -1      3333 9.33776E-05-2.00057E-05-3.14271E-05 1.79925E-06 8.59299E-19-3.11889E-19
 -1      3334 9.28018E-05-1.90457E-05-3.16283E-05 3.12680E-06 1.03402E-18-5.80871E-20
 -1      3335 9.30480E-05-2.48593E-05-2.92162E-05-4.37987E-06 1.80811E-18 9.38782E-19
 -1      3336 9.25443E-05-1.86007E-05-3.17010E-05-2.37497E-06 4.08229E-19-7.70749E-19
 -1      3337 9.27728E-05-1.90031E-05-3.16343E-05-3.08305E-06 3.35008E-19-8.72567E-19
 -1      3338 9.37595E-05-2.07470E-05-3.12721E-05-2.81075E-06 1.06684E-19-7.44512E-19
 -1      3339 4.80850E-05-9.68360E-06-1.62250E-05-2.54890E-06 1.16110E-18-6.48721E-19
 -1      3340 4.66253E-05-1.07260E-05-1.49642E-05-1.17615E-05 8.43539E-19-1.73991E-18
 -1      3341 5.51617E-05-1.31557E-05-1.76850E-05-1.38436E-05 7.49439E-19-1.80572E-18
 -1      3342 9.54962E-05-2.54134E-05-3.00336E-05 1.95306E-06 5.94803E-19 2.18334E-19
 -1      3343 9.52923E-05-2.83626E-05-2.86812E-05-1.38473E-06 5.80437E-20 6.45467E-19
 -1      3344 9.53248E-05-2.84382E-05-2.86676E-05-1.32794E-06 2.37871E-20 6.98923E-19
 -1      3345 9.61705E-05-2.77817E-05-2.93022E-05 2.82967E-07-7.81791E-20-5.35520E-19
 -1      3346 9.61646E-05-2.80890E-05-2.91795E-05 5.47918E-07-7.67324E-21-3.61532E-19
 -1      3347 9.61673E-05-2.83373E-05-2.90646E-05 7.23112E-07 3.98303E-20-3.84787E-19
 -1      3348 9.61346E-05-2.85194E-05-2.89799E-05 8.76242E-07 3.59696E-19-2.06650E-19
 -1      3349 9.63551E-05-2.81430E-05-2.92353E-05 5.31961E-07 1.62172E-19-4.28651E-20
 -1      3350 9.60914E-05-2.86529E-05-2.88987E-05 9.71986E-07 4.87778E-19-2.65273E-19
 -1      3351 9.60463E-05-2.87458E-05-2.88433E-05 1.05203E-06 5.64811E-19-3.03332E-19
 -1      3352 9.63166E-05-2.85763E-05-2.90335E-05 8.21875E-07 3.62636E-19-2.31491E-19
 -1      3353 9.59759E-05-2.87974E-05-2.87889E-05 1.09791E-06 6.07600E-19-5.84334E-19
 -1      3354 9.59253E-05-2.88259E-05-2.87560E-05 1.13574E-06 4.68654E-19-2.10410E-19
 -1      3355 9.62056E-05-2.87941E-05-2.88926E-05 9.80201E-07 4.89967E-19-7.37671E-19
 -1      3356 9.58381E-05-2.88177E-05-2.87224E-05 1.15556E-06 1.97665E-19-4.96210E-21
 -1      3357 9.57847E-05-2.87981E-05-2.87069E-05 1.17515E-06-8.22746E-20 1.28357E-19
 -1      3358 9.60508E-05-2.88551E-05-2.87999E-05 1.05980E-06 4.59575E-19-4.73039E-19
 -1      3359 9.56855E-05-2.87444E-05-2.86896E-05 1.18750E-06-2.70260E-19 2.36132E-19
 -1      3360 9.56289E-05-2.86867E-05-2.86875E-05 1.20738E-06-2.22553E-19 2.25346E-19
 -1      3361 9.58673E-05-2.87990E-05-2.87449E-05 1.10287E-06-9.93632E-20-3.69029E-19
 -1      3362 9.55179E-05-2.85954E-05-2.86826E-05 1.22656E-06-3.26818E-19-4.99802E-20
 -1      3363 9.54556E-05-2.85047E-05-2.86909E-05 1.26119E-06-3.37560E-19-2.81641E-19
 -1      3364 9.56600E-05-2.86506E-05-2.87190E-05 1.14220E-06-2.93336E-19-3.70049E-19
 -1      3365 9.53289E-05-2.83788E-05-2.86955E-05 1.29825E-06-1.38869E-19-2.02787E-19
 -1      3366 9.52564E-05-2.82559E-05-2.87119E-05 1.35920E-06 4.91662E-20 9.34148E-21
 -1      3367 9.54254E-05-2.84227E-05-2.87153E-05 1.20286E-06-4.25286E-20-5.40640E-19
 -1      3368 9.50986E-05-2.80849E-05-2.87238E-05 1.42604E-06 1.01740E-19 1.59764E-20
 -1      3369 9.50012E-05-2.79173E-05-2.87477E-05 1.52944E-06-1.52273E-20 3.34519E-19
 -1      3370 9.51449E-05-2.81098E-05-2.87283E-05 1.30723E-06 5.80182E-20-1.29668E-19
 -1      3371 9.48129E-05-2.77106E-05-2.87630E-05 1.62700E-06-1.20657E-19 4.78026E-19
 -1      3372 9.46889E-05-2.75078E-05-2.87899E-05 1.77031E-06-3.77916E-19 3.95323E-19
 -1      3373 9.48036E-05-2.77097E-05-2.87519E-05 1.46767E-06 1.06474E-20-2.05968E-19
 -1      3374 9.44476E-05-2.72489E-05-2.88058E-05 1.90454E-06-7.08381E-19 8.57797E-19
 -1      3375 9.42751E-05-2.69927E-05-2.88339E-05 2.09864E-06-5.77666E-19 6.56073E-19
 -1      3376 9.43819E-05-2.72207E-05-2.87788E-05 1.68787E-06-2.98997E-19 6.59452E-19
 -1      3377 9.39557E-05-2.66677E-05-2.88459E-05 2.27071E-06-3.23858E-19 1.10858E-18
 -1      3378 9.37098E-05-2.63433E-05-2.88712E-05 2.52012E-06-1.24460E-19 1.18029E-18
 -1      3379 9.38314E-05-2.66117E-05-2.88013E-05 1.97296E-06-2.45529E-19 1.56331E-18
 -1      3380 9.32791E-05-2.59344E-05-2.88726E-05 2.72760E-06-1.46924E-19 1.14987E-18
 -1      3381 9.29254E-05-2.55237E-05-2.88883E-05 3.03401E-06 1.05991E-19 1.26457E-18
 -1      3382 9.30962E-05-2.58529E-05-2.88077E-05 2.31739E-06-2.16088E-19 1.84841E-18
 -1      3383 9.23387E-05-2.50105E-05-2.88687E-05 3.26965E-06 2.11682E-20 1.17277E-18
 -1      3384 9.18301E-05-2.44935E-05-2.88635E-05 3.63089E-06-2.39205E-19 1.37440E-18
 -1      3385 9.21007E-05-2.49087E-05-2.87805E-05 2.70509E-06 8.21015E-20 9.29810E-19
 -1      3386 9.10286E-05-2.38547E-05-2.88068E-05 3.88171E-06-4.62649E-19 1.98413E-18
 -1      3387 9.03031E-05-2.32131E-05-2.87623E-05 4.29130E-06-5.11337E-19 2.23897E-18
 -1      3388 9.07442E-05-2.37404E-05-2.86927E-05 3.10642E-06 1.97928E-19 1.85102E-18
 -1      3389 8.92098E-05-2.24318E-05-2.86431E-05 4.53917E-06-6.74727E-19 2.19541E-18
 -1      3390 8.81897E-05-2.16563E-05-2.85299E-05 4.98853E-06-1.82207E-19 1.86434E-18
 -1      3391 8.88950E-05-2.23125E-05-2.85023E-05 3.47665E-06-6.42342E-19 2.87530E-18
 -1      3392 8.67036E-05-2.07278E-05-2.83084E-05 5.21485E-06 2.93575E-19 1.44317E-18
 -1      3393 8.52970E-05-1.98309E-05-2.80797E-05 5.70244E-06 6.72684E-19 1.51505E-18
 -1      3394 8.63815E-05-2.06025E-05-2.81441E-05 3.75933E-06-1.34981E-19 2.16717E-18
 -1      3395 8.32822E-05-1.87746E-05-2.76940E-05 5.90305E-06 6.11905E-19 1.31375E-18
 -1      3396 8.13885E-05-1.78123E-05-2.72769E-05 6.45972E-06 4.26154E-19 1.31895E-18
 -1      3397 8.29754E-05-1.86133E-05-2.75164E-05 3.90193E-06 5.06931E-19 1.92882E-18
 -1      3398 7.86486E-05-1.66853E-05-2.66282E-05 6.67101E-06 3.28071E-19 8.49918E-19
 -1      3399 7.61495E-05-1.57733E-05-2.59061E-05 7.41654E-06 3.78164E-19 7.29836E-19
 -1      3400 7.83616E-05-1.63891E-05-2.64596E-05 3.89405E-06 2.15246E-19 1.07919E-18
 -1      3401 7.23728E-05-1.46968E-05-2.48178E-05 7.78606E-06 4.27159E-19 6.07273E-19
 -1      3402 6.93117E-05-1.41519E-05-2.36364E-05 8.99619E-06 5.65616E-19-1.94023E-20
 -1      3403 7.21137E-05-1.40520E-05-2.47038E-05 3.87069E-06 3.63958E-19 3.63324E-19
 -1      3404 9.59216E-05-2.87808E-05-2.87743E-05-1.11944E-06 1.99250E-19 8.56311E-19
 -1      3405 9.59653E-05-2.87172E-05-2.88177E-05-1.06347E-06 2.51436E-19 7.17403E-19
 -1      3406 6.91086E-05-1.44339E-05-2.34092E-05-1.00875E-05-1.63480E-19 9.62150E-19
 -1      3407 7.22691E-05-1.48765E-05-2.46899E-05-8.71651E-06 1.72027E-19 9.90145E-19
 -1      3408 6.30004E-05-1.55705E-05-2.01691E-05-1.51089E-05-9.44419E-19 1.38718E-18
 -1      3409 6.45342E-05-1.37349E-05-2.18528E-05-1.11447E-05-3.02861E-19 1.19921E-18
 -1      3410 6.39270E-05-1.21897E-05-2.18736E-05-5.21012E-06-6.17006E-19 2.20465E-18
 -1      3411 5.36556E-05-1.06735E-05-1.78787E-05-7.30615E-06-2.22352E-18 1.90376E-18
 -1      3412 7.61614E-05-1.59444E-05-2.58268E-05-8.23320E-06-2.99641E-19 1.17551E-18
 -1      3413 7.86489E-05-1.68042E-05-2.65775E-05-7.42708E-06-3.06161E-19-3.42413E-19
 -1      3414 7.18285E-05-1.41133E-05-2.45782E-05-4.58616E-06-2.51564E-19-2.39867E-19
 -1      3415 8.14729E-05-1.79251E-05-2.72625E-05-7.17483E-06-3.51702E-19 4.41630E-19
 -1      3416 8.33878E-05-1.88624E-05-2.77030E-05-6.58321E-06 4.37832E-19 2.63840E-19
 -1      3417 7.83582E-05-1.64692E-05-2.64222E-05-4.55727E-06 3.71917E-20 4.42925E-19
 -1      3418 8.54659E-05-1.99057E-05-2.81193E-05-6.36050E-06 1.12338E-18-1.27688E-19
 -1      3419 8.68916E-05-2.07733E-05-2.83711E-05-5.84413E-06 3.11608E-19-7.57999E-19
 -1      3420 8.31156E-05-1.86785E-05-2.75482E-05-4.51219E-06 4.26435E-19 9.66198E-19
 -1      3421 8.84233E-05-2.16597E-05-2.86254E-05-5.60250E-06 3.74713E-20-5.57870E-19
 -1      3422 8.94432E-05-2.23895E-05-2.87655E-05-5.10793E-06-5.18665E-19 2.37675E-19
 -1      3423 8.66327E-05-2.06328E-05-2.82418E-05-4.33045E-06 5.69782E-19 4.00899E-19
 -1      3424 9.03300E-05-2.29374E-05-2.88841E-05-4.76796E-06-1.51571E-18 1.15134E-18
 -1      3425 9.10556E-05-2.34994E-05-2.89688E-05-4.31660E-06 4.02309E-19 1.69759E-18
 -1      3426 9.04706E-05-2.31074E-05-2.88634E-05-3.33635E-06-9.35559E-19 3.25423E-18
 -1      3427 8.89372E-05-2.20727E-05-2.86307E-05-3.90866E-06-5.70855E-19 2.47697E-18
 -1      3428 9.56806E-05-2.55015E-05-3.00718E-05-1.48596E-06-9.23211E-20-5.65335E-19
 -1      3429 9.58443E-05-2.62415E-05-2.98388E-05-8.64788E-07-1.18501E-19-7.61388E-19
 -1      3430 9.54174E-05-2.85290E-05-2.86637E-05-1.28290E-06 1.76805E-19 7.42331E-19
 -1      3431 9.54549E-05-2.85957E-05-2.86553E-05-1.25041E-06 5.72499E-19 1.15747E-18
 -1      3432 9.53947E-05-2.84632E-05-2.86857E-05-1.25624E-06 3.58291E-19 1.37657E-18
 -1      3433 9.55465E-05-2.86718E-05-2.86582E-05-1.22713E-06 7.98022E-19 1.05129E-18
 -1      3434 9.55873E-05-2.87217E-05-2.86574E-05-1.21059E-06 8.31827E-19 1.08702E-18
 -1      3435 9.55774E-05-2.86417E-05-2.86878E-05-1.18249E-06 5.94652E-19 1.22457E-18
 -1      3436 9.51769E-05-2.81893E-05-2.87056E-05-1.54583E-06-7.49993E-20 6.57394E-19
 -1      3437 9.52009E-05-2.82652E-05-2.86891E-05-1.45924E-06 1.61024E-19 5.66579E-19
 -1      3438 9.52116E-05-2.82592E-05-2.86944E-05-1.37966E-06 4.73227E-20 5.96361E-19
 -1      3439 9.50812E-05-2.80302E-05-2.87324E-05-1.77464E-06-1.75835E-19 4.71868E-19
 -1      3440 9.50908E-05-2.80951E-05-2.87149E-05-1.65560E-06-1.83947E-19 2.45053E-19
 -1      3441 9.50342E-05-2.80489E-05-2.87085E-05-1.56699E-06 1.26368E-20 1.03925E-19
 -1      3442 9.50234E-05-2.79140E-05-2.87570E-05-2.07420E-06-4.96207E-19 5.34237E-19
 -1      3443 9.50083E-05-2.79523E-05-2.87407E-05-1.92340E-06-3.12759E-19 3.59432E-19
 -1      3444 9.48741E-05-2.78567E-05-2.87226E-05-1.82881E-06-1.63840E-19 1.88394E-19
 -1      3445 9.50336E-05-2.78815E-05-2.87748E-05-2.44036E-06-1.09101E-18 4.17416E-19
 -1      3446 9.49777E-05-2.78713E-05-2.87617E-05-2.26303E-06-7.78141E-19 5.21301E-19
 -1      3447 9.47527E-05-2.77166E-05-2.87314E-05-2.17164E-06-6.57931E-19 1.07756E-19
 -1      3448 9.51582E-05-2.79886E-05-2.87819E-05-2.85871E-06-9.47710E-19 5.49542E-20
 -1      3449 9.50378E-05-2.79004E-05-2.87736E-05-2.66636E-06-1.05222E-18 3.70165E-19
 -1      3450 9.47058E-05-2.76769E-05-2.87298E-05-2.59626E-06-1.06779E-18-8.62622E-20
 -1      3451 9.54643E-05-2.83083E-05-2.87758E-05-3.29940E-06-4.89971E-19 1.23330E-19
 -1      3452 9.52465E-05-2.81046E-05-2.87733E-05-3.11253E-06-7.82954E-19 2.20894E-19
 -1      3453 9.47892E-05-2.78038E-05-2.87137E-05-3.09435E-06-9.30320E-19 3.68511E-19
 -1      3454 9.60418E-05-2.89285E-05-2.87577E-05-3.70954E-06-8.00650E-20-5.08608E-21
 -1      3455 9.56852E-05-2.85661E-05-2.87598E-05-3.56126E-06-3.16977E-19 9.79928E-20
 -1      3456 9.50846E-05-2.81839E-05-2.86814E-05-3.64237E-06-4.04039E-19 1.05578E-19
 -1      3457 9.70008E-05-2.99412E-05-2.87360E-05-4.00230E-06 1.14609E-19 8.85256E-20
 -1      3458 9.64590E-05-2.93781E-05-2.87378E-05-3.94300E-06 2.79740E-19 3.10595E-20
 -1      3459 9.57035E-05-2.89215E-05-2.86361E-05-4.19162E-06 7.96161E-20-5.62435E-19
 -1      3460 9.84568E-05-3.14166E-05-2.87312E-05-4.04337E-06 3.46299E-20 4.29052E-19
 -1      3461 9.76895E-05-3.06283E-05-2.87217E-05-4.14524E-06 5.35630E-20 3.29175E-19
 -1      3462 9.67852E-05-3.01262E-05-2.85907E-05-4.65248E-06 1.07842E-19 2.78542E-19
 -1      3463 1.00496E-04-3.33518E-05-2.87826E-05-3.63670E-06-4.68905E-19 9.82456E-19
 -1      3464 9.94913E-05-3.23617E-05-2.87413E-05-3.99599E-06-4.55651E-19 4.68731E-19
 -1      3465 9.84825E-05-3.18827E-05-2.85738E-05-4.87208E-06-6.46532E-19 8.18254E-19
 -1      3466 1.03100E-04-3.55807E-05-2.89548E-05-2.52760E-06-4.99003E-19 1.08701E-18
 -1      3467 1.01916E-04-3.45095E-05-2.88499E-05-3.25316E-06-1.45974E-19 9.69952E-19
 -1      3468 1.00919E-04-3.41847E-05-2.86388E-05-4.60681E-06-6.22540E-19 1.38923E-18
 -1      3469 1.06042E-04-3.76517E-05-2.93415E-05-4.52426E-07-6.88424E-19 2.11465E-18
 -1      3470 1.04853E-04-3.67797E-05-2.91296E-05-1.62572E-06-6.64429E-19 1.31711E-18
 -1      3471 1.04099E-04-3.68235E-05-2.88727E-05-3.51608E-06-8.57832E-19 1.65904E-18
 -1      3472 1.08753E-04-3.87142E-05-3.00584E-05 2.67990E-06-1.36617E-18 2.26138E-18
 -1      3473 1.07873E-04-3.85051E-05-2.96926E-05 1.11595E-06-8.96940E-19 2.12621E-18
 -1      3474 1.07747E-04-3.91989E-05-2.94043E-05-1.20805E-06-1.03962E-18 1.13853E-18
 -1      3475 1.10298E-04-3.76195E-05-3.11838E-05 6.40220E-06-1.33542E-18 2.64552E-18
 -1      3476 1.10116E-04-3.85959E-05-3.06479E-05 4.81892E-06-1.26221E-18 2.90306E-18
 -1      3477 1.11053E-04-4.02225E-05-3.03894E-05 2.56198E-06-1.28397E-18 1.69109E-18
 -1      3478 1.09907E-04-3.34918E-05-3.27155E-05 9.66454E-06-1.30852E-18 2.05818E-18
 -1      3479 1.10718E-04-3.60806E-05-3.20221E-05 8.64868E-06-1.13200E-18 2.36194E-18
 -1      3480 1.12965E-04-3.84767E-05-3.19716E-05 7.20823E-06-1.17943E-18 1.59951E-18
 -1      3481 1.07167E-04-2.67389E-05-3.44197E-05 1.02327E-05-1.02075E-18 2.36058E-18
 -1      3482 1.08670E-04-3.02861E-05-3.37196E-05 1.06750E-05-1.26956E-18 2.21427E-18
 -1      3483 1.12221E-04-3.31155E-05-3.38590E-05 1.06338E-05-1.07348E-18 1.87657E-18
 -1      3484 1.03782E-04-2.02233E-05-3.57844E-05 6.48393E-06 8.79836E-19 1.87014E-18
 -1      3485 1.05162E-04-2.30619E-05-3.53065E-05 8.79562E-06 2.83189E-19 2.68381E-18
 -1      3486 1.08896E-04-2.48488E-05-3.60172E-05 1.05019E-05-5.31321E-19 2.00810E-18
 -1      3487 1.04300E-04-2.14316E-05-3.56379E-05-7.38665E-06 6.03312E-19 5.98002E-19
 -1      3488 1.03167E-04-1.91020E-05-3.60227E-05-4.71286E-06 2.73777E-19 5.02545E-19
 -1      3489 1.07902E-04-2.85030E-05-3.41588E-05-1.04345E-05 7.74365E-19 3.36778E-20
 -1      3490 1.06274E-04-2.49188E-05-3.48310E-05-9.57924E-06 5.51286E-19 3.92191E-19
 -1      3491 1.07883E-04-2.26997E-05-3.65236E-05-9.54540E-06 9.30002E-19 5.03607E-19
 -1      3492 1.10454E-04-3.49046E-05-3.24460E-05-9.29061E-06 3.15655E-19 5.87876E-19
 -1      3493 1.09356E-04-3.19617E-05-3.31571E-05-1.00327E-05 4.54638E-19-4.58734E-20
 -1      3494 1.11521E-04-3.09602E-05-3.45129E-05-1.09052E-05 3.07943E-19-1.83098E-19
 -1      3495 1.10607E-04-3.84198E-05-3.09460E-05-5.64712E-06-1.69772E-19 1.87437E-18
 -1      3496 1.10523E-04-3.69975E-05-3.15370E-05-7.25367E-06 3.40483E-19 8.22414E-19
 -1      3497 1.13203E-04-3.75856E-05-3.23783E-05-7.92748E-06-3.31815E-19 2.17820E-19
 -1      3498 1.08705E-04-3.89127E-05-2.98810E-05-1.73894E-06 1.72226E-18 1.18563E-18
 -1      3499 1.09437E-04-3.88418E-05-3.02914E-05-3.41013E-06 8.09981E-19 1.68633E-18
 -1      3500 1.11924E-04-4.02463E-05-3.07066E-05-3.37440E-06 4.51801E-19 1.57899E-19
 -1      3501 1.05794E-04-3.74826E-05-2.92323E-05 1.33077E-06 1.61485E-18-5.98699E-19
 -1      3502 1.06937E-04-3.82326E-05-2.94782E-05 1.67944E-08 1.95326E-18 5.57315E-19
 -1      3503 1.08854E-04-3.98376E-05-2.96008E-05 6.50067E-07 2.29570E-18-7.84253E-19
 -1      3504 1.02799E-04-3.52702E-05-2.88998E-05 3.27233E-06-1.76591E-19 7.40045E-20
 -1      3505 1.04003E-04-3.63279E-05-2.90241E-05 2.41510E-06 6.31744E-19-6.17439E-19
 -1      3506 1.05219E-04-3.76931E-05-2.89782E-05 3.35002E-06 1.72435E-18-7.26037E-19
 -1      3507 1.00242E-04-3.30355E-05-2.87715E-05 4.25514E-06-3.61653E-19 1.22353E-18
 -1      3508 1.01299E-04-3.40759E-05-2.88186E-05 3.79328E-06-5.68561E-19 1.22729E-19
 -1      3509 1.01911E-04-3.50476E-05-2.86957E-05 4.75808E-06-4.98090E-19-2.38286E-19
 -1      3510 9.82908E-05-3.11362E-05-2.87588E-05 4.56145E-06 4.22877E-19 1.60182E-18
 -1      3511 9.91223E-05-3.20111E-05-2.87630E-05 4.39272E-06 5.25253E-20 1.79641E-18
 -1      3512 9.93056E-05-3.26050E-05-2.86192E-05 5.23881E-06-7.38908E-19-5.70146E-19
 -1      3513 9.68975E-05-2.96742E-05-2.88063E-05 4.43993E-06 1.16975E-18 1.61137E-18
 -1      3514 9.75227E-05-3.03506E-05-2.87871E-05 4.46646E-06 1.05818E-18 2.45252E-18
 -1      3515 9.74462E-05-3.06416E-05-2.86539E-05 5.14523E-06 6.14206E-19 1.08060E-18
 -1      3516 1.27234E-04-3.84440E-05-3.80913E-05 1.01521E-05-1.88179E-18 5.09358E-19
 -1      3517 1.22354E-04-3.10276E-05-3.94317E-05 1.24173E-05-1.14762E-18 9.63632E-19
 -1      3518 1.25310E-04-4.14372E-05-3.59615E-05 8.17065E-06-2.11327E-18-2.64962E-20
 -1      3519 1.14327E-04-2.11406E-05-4.02074E-05-1.12268E-05 1.71527E-18 5.67578E-19
 -1      3520 1.18878E-04-2.75898E-05-3.91329E-05-1.29658E-05 1.77475E-18-4.27778E-19
 -1      3521 8.98635E-05-2.30429E-05-2.86501E-05-4.38705E-07-1.74147E-18 1.17123E-18
 -1      3522 9.00222E-05-2.32410E-05-2.86164E-05 5.08857E-07-1.79056E-18 9.14632E-19
 -1      3523 6.84127E-05-2.40692E-05-1.87763E-05 2.86282E-05-1.80103E-18 3.87518E-20
 -1      3524 6.04086E-05-1.76404E-05-1.81900E-05 2.14938E-05-1.83132E-18-1.29331E-19
 -1      3525 9.45198E-05-2.24291E-05-3.08842E-05-3.33242E-06-1.57504E-19-7.21116E-19
 -1      3526 9.40250E-05-2.13464E-05-3.11410E-05-4.33235E-06-1.74315E-19-8.55374E-19
 -1      3527 9.04214E-05-2.37242E-05-2.86013E-05 1.50752E-06-4.15240E-19-1.16948E-18
 -1      3528 9.08842E-05-2.41196E-05-2.86001E-05 2.28117E-06 7.39626E-19-1.02251E-18
 -1      3529 8.96150E-05-2.32179E-05-2.84442E-05 1.37684E-06-4.18813E-19-1.02861E-18
 -1      3530 9.59322E-05-2.68361E-05-2.96208E-05 4.47866E-07 6.42930E-19 2.55846E-19
 -1      3531 9.58471E-05-2.62407E-05-2.98246E-05 9.93914E-07 4.53322E-19 1.55990E-19
 -1      3532 1.17446E-04-5.17773E-05-2.80571E-05-1.71872E-05-2.36277E-18-6.85997E-19
 -1      3533 1.22962E-04-5.19904E-05-3.05502E-05-8.96553E-06-2.83671E-18-5.45360E-19
 -1      3534 9.50753E-05-2.38974E-05-3.05057E-05 2.63737E-06 7.00151E-19 1.53020E-19
 -1      3535 9.47511E-05-2.30134E-05-3.07571E-05 3.18797E-06 7.05758E-19 4.06894E-20
 -1      3536 9.44838E-05-2.23338E-05-3.09193E-05 2.92345E-06 7.90065E-19-2.33028E-20
 -1      3537 9.22642E-05-1.81221E-05-3.17871E-05-1.00742E-06 6.10179E-19-8.04038E-19
 -1      3538 9.23767E-05-1.83138E-05-3.17562E-05-1.76014E-06 5.19359E-19-7.73812E-19
 -1      3539 9.33628E-05-1.99800E-05-3.14310E-05-1.76234E-06 4.09411E-19-6.90515E-19
 -1      3540 9.60421E-05-2.68848E-05-2.96305E-05-4.27128E-07-9.96459E-20-7.77091E-19
 -1      3541 9.60923E-05-2.73708E-05-2.94592E-05-4.78266E-09-1.47845E-19-6.29377E-19
 -1      3542 9.62746E-05-2.74125E-05-2.95129E-05 4.81223E-08-2.50141E-20-4.64867E-19
 -1      3543 1.22901E-04-3.59043E-05-3.76535E-05-1.09328E-05 8.63656E-19-1.76945E-18
 -1      3544 1.26160E-04-4.41100E-05-3.50130E-05-6.15655E-06 6.27996E-19-2.59907E-18
 -1      3545 1.18011E-04-3.26734E-05-3.66132E-05-1.12538E-05 7.86285E-19-7.56731E-19
 -1      3546 1.16725E-04-5.19819E-05-2.79821E-05 1.77683E-05 1.03755E-18-3.35909E-18
 -1      3547 1.08335E-04-4.78144E-05-2.58014E-05 2.33976E-05-1.44320E-19-1.51893E-18
 -1      3548 9.15250E-05-2.47784E-05-2.86226E-05 2.99067E-06 1.00674E-18-3.40947E-19
 -1      3549 9.21450E-05-2.52777E-05-2.86440E-05 3.49428E-06 1.40089E-18-1.27149E-18
 -1      3550 9.07810E-05-2.43773E-05-2.84578E-05 3.12119E-06 4.25717E-19-8.67690E-19
 -1      3551 9.01085E-05-2.29982E-05-2.87746E-05-2.37254E-06-1.52018E-18 1.68881E-18
 -1      3552 8.98931E-05-2.29214E-05-2.87046E-05-1.40509E-06-2.08548E-18 6.95179E-19
 -1      3553 8.91137E-05-2.25657E-05-2.85128E-05-6.64546E-07-1.26733E-18 1.02393E-18
 -1      3554 8.94160E-05-2.25306E-05-2.86644E-05-2.61658E-06-1.84697E-18 3.25600E-18
 -1      3555 1.25785E-04-5.02133E-05-3.27746E-05 1.54754E-06 8.29579E-19-3.48811E-18
 -1      3556 1.22698E-04-5.20072E-05-3.00856E-05 9.65064E-06 8.39205E-19-3.02331E-18
 -1      3557 9.56402E-05-2.56363E-05-3.00103E-05 1.38325E-06 4.94076E-19 1.06704E-19
 -1      3558 9.54309E-05-2.47759E-05-3.02790E-05 2.13496E-06 6.19942E-19 1.30831E-19
 -1      3559 9.52626E-05-2.41791E-05-3.04616E-05 2.02837E-06 5.92007E-19-8.31202E-20
 -1      3560 9.57738E-05-2.56325E-05-3.00550E-05 1.15002E-06 4.57070E-19 3.11304E-20
 -1      3561 1.24647E-04-5.09607E-05-3.15143E-05-4.44602E-06-2.59563E-18-7.59954E-19
 -1      3562 1.23884E-04-4.79042E-05-3.26836E-05 4.48715E-07-2.67585E-18-8.24309E-19
 -1      3563 1.19614E-04-4.96050E-05-3.00307E-05-7.57618E-06-2.25076E-18-1.26469E-18
 -1      3564 7.94977E-05-2.88265E-05-2.17483E-05-2.66253E-05-1.02664E-18-2.32405E-20
 -1      3565 8.67229E-05-3.45343E-05-2.20953E-05-2.94498E-05-1.23210E-18 1.56185E-19
 -1      3566 9.38860E-05-2.10368E-05-3.12327E-05 8.07232E-07 8.16967E-19-2.77332E-19
 -1      3567 9.38376E-05-2.09373E-05-3.12523E-05 2.48269E-07 6.14844E-19-4.22592E-19
 -1      3568 9.62072E-05-2.86826E-05-2.89413E-05-9.31432E-07 4.25099E-19 4.13258E-19
 -1      3569 9.60208E-05-2.86244E-05-2.88853E-05-9.92245E-07 3.03259E-19 7.80683E-19
 -1      3570 9.60592E-05-2.84883E-05-2.89542E-05-8.76103E-07 4.15026E-19 7.62366E-19
 -1      3571 6.21595E-05-1.27441E-05-2.11645E-05 1.03701E-05 1.16495E-18-1.65701E-20
 -1      3572 5.24948E-05-1.35308E-05-1.63057E-05 1.37699E-05 1.66612E-18 8.08175E-19
 -1      3573 9.52478E-05-2.78914E-05-2.88538E-05 4.07975E-06 9.75907E-19 6.34030E-19
 -1      3574 9.55694E-05-2.83171E-05-2.88319E-05 4.24602E-06 1.38687E-18 1.30941E-19
 -1      3575 9.47270E-05-2.75130E-05-2.88127E-05 4.18279E-06 8.34532E-19 6.46123E-19
 -1      3576 6.13805E-05-1.16201E-05-2.11306E-05 4.66567E-06 7.82685E-19 1.82536E-19
 -1      3577 9.58478E-05-2.88073E-05-2.87302E-05-1.15048E-06 3.87098E-19 8.13050E-19
 -1      3578 9.60809E-05-2.88286E-05-2.88244E-05-1.04939E-06 3.39231E-19 5.15820E-19
 -1      3579 9.58032E-05-2.88195E-05-2.87061E-05-1.17404E-06 4.47798E-19 7.81228E-19
 -1      3580 1.19167E-04-2.65937E-05-3.98839E-05 1.28084E-05-1.31854E-18 2.32140E-20
 -1      3581 1.14789E-04-2.18965E-05-3.99550E-05 1.16306E-05-1.33842E-18-2.33463E-20
 -1      3582 1.18910E-04-3.08334E-05-3.78292E-05 1.19660E-05-1.22412E-18-1.42288E-19
 -1      3583 1.11199E-04-1.23541E-05-4.27076E-05 4.28592E-06 1.38299E-18 1.06260E-18
 -1      3584 1.08762E-04-1.30259E-05-4.12246E-05 9.38846E-07 1.74550E-18 1.62562E-18
 -1      3585 1.10985E-04-1.56600E-05-4.10342E-05 7.38551E-06 4.37095E-19 1.49274E-18
 -1      3586 9.59982E-05-2.62665E-05-2.98833E-05-6.94903E-07-1.79624E-19-6.05704E-19
 -1      3587 9.58408E-05-2.82218E-05-2.89836E-05-7.36441E-07 5.39167E-19 8.36707E-19
 -1      3588 5.80984E-05-1.46444E-05-1.82577E-05 1.70244E-05-1.44090E-18 1.32370E-18
 -1      3589 5.66490E-05-1.27439E-05-1.87352E-05 1.08228E-05-1.25665E-18 2.00890E-18
 -1      3590 6.48986E-05-1.80661E-05-1.99814E-05 1.93037E-05-1.43085E-18 1.88068E-19
 -1      3591 1.02436E-04-1.78976E-05-3.62689E-05-6.04565E-07 4.46982E-19 1.12610E-18
 -1      3592 1.02651E-04-1.82918E-05-3.62032E-05 2.73167E-06 6.33746E-19 1.64728E-18
 -1      3593 9.63993E-05-2.91827E-05-2.88002E-05 4.45989E-06 1.46161E-18 1.14229E-18
 -1      3594 1.03028E-04-4.48971E-05-2.48935E-05 2.58784E-05-1.24261E-18-8.02696E-20
 -1      3595 9.60419E-05-3.99484E-05-2.39868E-05 2.64483E-05-1.82884E-18 1.42169E-19
 -1      3596 1.07276E-04-4.53073E-05-2.64310E-05 2.00061E-05-6.82345E-19-1.06707E-18
 -1      3597 9.39811E-05-3.84808E-05-2.36917E-05-2.67768E-05-1.74006E-18-7.33610E-19
 -1      3598 7.85332E-05-2.90900E-05-2.09899E-05 2.78792E-05-2.06787E-18-4.02394E-19
 -1      3599 1.07360E-04-1.53907E-05-3.95828E-05-5.13201E-06 1.37227E-18 1.76252E-18
 -1      3600 1.10409E-04-1.77350E-05-3.98973E-05-8.93110E-06 1.44880E-18 1.36476E-18
 -1      3601 9.42498E-05-2.18054E-05-3.10517E-05-2.11033E-06 1.97690E-19-5.46419E-19
 -1      3602 9.44556E-05-2.22865E-05-3.09453E-05-2.52940E-06-1.48156E-20-6.37872E-19
 -1      3603 1.05412E-04-1.80759E-05-3.74960E-05 5.18232E-06 9.69383E-19 2.51482E-18
 -1      3604 1.05081E-04-4.49869E-05-2.57770E-05-2.24546E-05-1.76384E-18-1.41028E-18
 -1      3605 1.12263E-04-4.94388E-05-2.69093E-05-2.05801E-05-2.06039E-18-1.28481E-18
 -1      3606 1.13762E-04-4.80233E-05-2.80954E-05-1.42706E-05-1.95925E-18-1.87088E-19
 -1      3607 9.60610E-05-2.73543E-05-2.94371E-05 6.92095E-08 6.55649E-19 4.79963E-19
 -1      3608 9.61106E-05-2.68627E-05-2.96779E-05 3.41234E-07 4.26184E-19 1.64625E-19
 -1      3609 9.60716E-05-2.77404E-05-2.92906E-05-2.83682E-07 5.28644E-19 6.77843E-19
 -1      3610 9.31607E-05-1.96064E-05-3.15053E-05-5.86505E-07 6.29157E-19-7.06155E-19
 -1      3611 5.49177E-05-1.08563E-05-1.88598E-05-4.40518E-07-1.09744E-18 3.17153E-18
 -1      3612 9.56762E-05-2.87749E-05-2.86701E-05-1.19906E-06 7.89918E-19 7.65291E-19
 -1      3613 9.57195E-05-2.87992E-05-2.86799E-05-1.18687E-06 5.06418E-19 8.01191E-19
 -1      3614 9.59261E-05-2.88478E-05-2.87496E-05-1.10594E-06 4.80908E-19 5.19352E-19
 -1      3615 9.57559E-05-2.87767E-05-2.87068E-05-1.14021E-06 7.17270E-19 8.64671E-19
 -1      3616 4.86706E-05-9.91248E-06-1.61342E-05 3.39798E-06 1.35227E-18 2.92120E-19
 -1      3617 5.38137E-05-1.08802E-05-1.82080E-05-1.42094E-06 1.02608E-18-1.51037E-19
 -1      3618 9.26941E-05-2.58198E-05-2.86720E-05 3.82571E-06 1.49475E-18 5.67153E-19
 -1      3619 9.31927E-05-2.62231E-05-2.86904E-05 4.06366E-06 1.56925E-18 3.91087E-19
 -1      3620 9.21453E-05-2.56000E-05-2.85198E-05 4.13607E-06 9.63099E-19-3.31891E-19
 -1      3621 9.47064E-05-2.28497E-05-3.07888E-05-2.63473E-06-3.97082E-20-5.61616E-19
 -1      3622 9.51617E-05-2.40025E-05-3.05064E-05-2.61909E-06-2.65005E-19-5.31351E-19
 -1      3623 9.54325E-05-2.49057E-05-3.02334E-05-1.87942E-06-1.79577E-19-5.60964E-19
 -1      3624 9.51374E-05-2.37661E-05-3.05831E-05-1.92032E-06 3.86212E-20-5.57740E-19
 -1      3625 9.37765E-05-2.07870E-05-3.12652E-05 2.83417E-06 8.66749E-19-1.29456E-20
 -1      3626 1.22748E-04-4.54180E-05-3.31516E-05-2.99342E-06-6.96085E-20-3.18823E-18
 -1      3627 1.18011E-04-4.96922E-05-2.92012E-05 1.10498E-05 5.83460E-19-3.63105E-18
 -1      3628 5.89078E-05-1.29719E-05-1.96716E-05-1.11505E-05 7.92108E-19-9.19004E-19
 -1      3629 6.13876E-05-1.56210E-05-1.92364E-05-1.77820E-05 2.42099E-19-1.34514E-18
 -1      3630 9.41009E-05-2.14912E-05-3.11314E-05 1.75098E-06 8.42281E-19-2.92328E-19
 -1      3631 9.39661E-05-2.12044E-05-3.11912E-05 1.24793E-06 8.38485E-19-3.97643E-19
 -1      3632 9.46288E-05-2.23650E-05-3.09504E-05 8.31912E-07 7.61826E-19-2.67272E-19
 -1      3633 6.78624E-05-1.96580E-05-2.05850E-05-2.05434E-05-4.51124E-19-9.47062E-19
 -1      3634 9.55492E-05-2.49262E-05-3.02618E-05-1.55333E-06-1.22474E-19-4.87751E-19
 -1      3635 1.04919E-04-1.72018E-05-3.76711E-05-3.04049E-06 1.08669E-18 1.01621E-18
 -1      3636 7.43398E-05-2.33383E-05-2.15942E-05-2.31251E-05-6.66986E-19-9.16000E-19
 -1      3637 8.17487E-05-2.78560E-05-2.30277E-05-2.28570E-05-7.58934E-19 1.07130E-19
 -1      3638 7.07226E-05-1.94230E-05-2.20243E-05-1.76887E-05-4.26210E-19-9.18349E-19
 -1      3639 9.45560E-05-2.21928E-05-3.09929E-05 1.10209E-08 4.49864E-19-4.98928E-19
 -1      3640 9.38322E-05-2.09329E-05-3.12527E-05-2.13089E-07 5.76250E-19-6.82303E-19
 -1      3641 9.38767E-05-2.10262E-05-3.12344E-05-7.67345E-07 5.54512E-19-8.23040E-19
 -1      3642 9.65088E-05-2.84877E-05-2.91485E-05 6.51074E-07 2.02097E-19 4.93077E-21
 -1      3643 9.64670E-05-2.86596E-05-2.90619E-05 7.65886E-07 3.41035E-19-2.31130E-19
 -1      3644 9.64063E-05-2.87785E-05-2.89811E-05 8.27703E-07 5.20248E-19-2.95786E-19
 -1      3645 9.63366E-05-2.88531E-05-2.89217E-05 8.90429E-07 5.27873E-19-3.78232E-19
 -1      3646 9.65725E-05-2.87062E-05-2.90865E-05 6.78526E-07 3.26520E-19-4.68827E-20
 -1      3647 9.62397E-05-2.88838E-05-2.88657E-05 9.20508E-07 4.67444E-19-3.96912E-19
 -1      3648 9.61528E-05-2.88865E-05-2.88277E-05 9.54237E-07 2.20984E-19-5.82557E-19
 -1      3649 9.64162E-05-2.88778E-05-2.89462E-05 7.83352E-07 3.60363E-19-2.81398E-19
 -1      3650 9.60312E-05-2.88511E-05-2.87914E-05 9.69185E-07 1.60127E-19-6.69998E-19
 -1      3651 9.59319E-05-2.87988E-05-2.87701E-05 9.92100E-07-7.95985E-20-6.53790E-19
 -1      3652 9.61998E-05-2.88841E-05-2.88507E-05 8.39567E-07 1.75755E-19-6.71605E-19
 -1      3653 9.57908E-05-2.87116E-05-2.87490E-05 1.00473E-06-3.00495E-19-3.95649E-19
 -1      3654 9.56793E-05-2.86145E-05-2.87406E-05 1.03076E-06-1.65445E-19-2.43996E-19
 -1      3655 9.59399E-05-2.87641E-05-2.87902E-05 8.75700E-07 9.80108E-20-6.44805E-19
 -1      3656 9.55182E-05-2.84835E-05-2.87308E-05 1.05046E-06 3.35399E-20-4.80355E-19
 -1      3657 9.53912E-05-2.83464E-05-2.87320E-05 1.09009E-06 1.41414E-21-2.96676E-19
 -1      3658 9.56411E-05-2.85420E-05-2.87566E-05 9.13168E-07-2.09632E-19-3.16175E-19
 -1      3659 9.51954E-05-2.81644E-05-2.87301E-05 1.12512E-06 5.60782E-20-2.57831E-19
 -1      3660 9.50357E-05-2.79767E-05-2.87384E-05 1.18976E-06 1.10194E-19-1.24660E-19
 -1      3661 9.52886E-05-2.82209E-05-2.87423E-05 9.68651E-07 5.61180E-20-1.61964E-19
 -1      3662 9.48120E-05-2.77579E-05-2.87410E-05 1.24068E-06 2.91964E-20-1.27861E-19
 -1      3663 9.46233E-05-2.75337E-05-2.87524E-05 1.32855E-06-4.68309E-20-1.22982E-19
 -1      3664 9.48742E-05-2.78075E-05-2.87403E-05 1.05014E-06 2.16164E-19 3.98290E-19
 -1      3665 9.43498E-05-2.72648E-05-2.87553E-05 1.39663E-06 1.66340E-19 1.98434E-19
 -1      3666 9.41073E-05-2.69878E-05-2.87663E-05 1.51200E-06 8.67345E-20 1.05343E-18
 -1      3667 9.43848E-05-2.73082E-05-2.87429E-05 1.15713E-06 3.63150E-19 7.13630E-19
 -1      3668 9.37631E-05-2.66588E-05-2.87648E-05 1.59316E-06-4.60804E-20 7.50084E-19
 -1      3669 9.34425E-05-2.63174E-05-2.87705E-05 1.73362E-06-1.46198E-20 1.12571E-18
 -1      3670 9.37771E-05-2.67001E-05-2.87407E-05 1.28483E-06 2.62693E-20 5.80860E-19
 -1      3671 9.30006E-05-2.59158E-05-2.87579E-05 1.81843E-06-4.87081E-19 1.42277E-18
 -1      3672 9.25687E-05-2.54953E-05-2.87510E-05 1.97624E-06-6.09502E-19 1.30430E-18
 -1      3673 9.30048E-05-2.59640E-05-2.87221E-05 1.41634E-06-2.35761E-19 4.85481E-19
 -1      3674 9.19942E-05-2.50065E-05-2.87179E-05 2.04790E-06-2.73474E-19 1.43665E-18
 -1      3675 9.14066E-05-2.44905E-05-2.86877E-05 2.20815E-06 1.98432E-19 1.20966E-18
 -1      3676 9.20080E-05-2.50770E-05-2.86708E-05 1.52042E-06-3.49916E-19 9.38392E-19
 -1      3677 9.06547E-05-2.38998E-05-2.86202E-05 2.24019E-06 3.37927E-19 1.56287E-18
 -1      3678 8.98525E-05-2.32718E-05-2.85497E-05 2.37900E-06 1.13289E-19 1.72696E-18
 -1      3679 9.07092E-05-2.40152E-05-2.85636E-05 1.54662E-06 4.47531E-19 1.44867E-18
 -1      3680 8.88654E-05-2.25672E-05-2.84272E-05 2.33315E-06-4.76096E-20 1.56784E-18
 -1      3681 8.77714E-05-2.18140E-05-2.82909E-05 2.41689E-06-4.06402E-19 2.07885E-18
 -1      3682 8.90095E-05-2.27586E-05-2.83662E-05 1.41977E-06 1.32474E-19 1.35993E-18
 -1      3683 8.64739E-05-2.09904E-05-2.80823E-05 2.24208E-06-3.84468E-19 2.00546E-18
 -1      3684 8.49862E-05-2.01075E-05-2.78399E-05 2.22975E-06 1.25609E-19 2.43626E-18
 -1      3685 8.67817E-05-2.12965E-05-2.80276E-05 1.03518E-06-4.39646E-21 1.58121E-18
 -1      3686 8.32768E-05-1.91732E-05-2.74977E-05 1.86022E-06 1.00081E-19 1.84121E-18
 -1      3687 8.12565E-05-1.81667E-05-2.70872E-05 1.71045E-06 1.58366E-19 1.54093E-18
 -1      3688 8.38615E-05-1.96390E-05-2.74709E-05 2.55084E-07-2.81039E-19 1.47554E-18
 -1      3689 7.89768E-05-1.71500E-05-2.65375E-05 1.07814E-06 6.74251E-20 1.46988E-18
 -1      3690 7.62160E-05-1.60414E-05-2.58608E-05 7.61926E-07 3.35273E-20 7.40591E-19
 -1      3691 8.00107E-05-1.77976E-05-2.65784E-05-1.09965E-06-6.51806E-20 1.25867E-18
 -1      3692 7.30793E-05-1.49162E-05-2.49828E-05-1.67996E-07 2.15718E-19 4.01553E-19
 -1      3693 6.90683E-05-1.36832E-05-2.38280E-05-5.11966E-07 4.08108E-19-9.49471E-20
 -1      3694 7.47900E-05-1.57568E-05-2.51587E-05-3.22074E-06 3.09730E-20 7.25227E-19
 -1      3695 6.05450E-05-1.17749E-05-2.08540E-05-7.31377E-07-1.39436E-18 3.53469E-18
 -1      3696 6.46747E-05-1.25906E-05-2.24027E-05-5.26273E-07-1.20526E-18 2.73428E-18
 -1      3697 5.77609E-05-1.13508E-05-1.95595E-05 4.99351E-06-1.22508E-18 3.59208E-18
 -1      3698 7.61557E-05-1.60926E-05-2.58056E-05-1.32153E-06-1.71149E-19 1.23908E-18
 -1      3699 7.89901E-05-1.71995E-05-2.65214E-05-1.60133E-06 5.70778E-19 1.75792E-18
 -1      3700 8.13728E-05-1.82349E-05-2.71101E-05-2.22893E-06 5.12987E-19 1.37020E-18
 -1      3701 8.34571E-05-1.92293E-05-2.75540E-05-2.35728E-06 9.06234E-20 1.97597E-18
 -1      3702 8.00758E-05-1.78577E-05-2.65857E-05 6.95482E-07 5.79524E-19 1.80339E-18
 -1      3703 8.52570E-05-2.01453E-05-2.79353E-05-2.72628E-06 2.86276E-19 1.42857E-18
 -1      3704 8.67739E-05-2.10047E-05-2.82118E-05-2.72818E-06 1.07466E-19 9.67774E-19
 -1      3705 8.41331E-05-1.96928E-05-2.75580E-05-6.40478E-07 4.56011E-19 1.74240E-18
 -1      3706 8.77234E-05-2.15208E-05-2.83855E-05-2.79826E-06 1.57400E-19 1.66834E-18
 -1      3707 8.86239E-05-2.20934E-05-2.85288E-05-2.55853E-06-2.27302E-19 2.95870E-18
 -1      3708 8.84117E-05-2.20318E-05-2.84355E-05-1.54501E-06-5.63191E-19 1.24243E-18
 -1      3709 8.66630E-05-2.09911E-05-2.81077E-05-1.28675E-06 1.64818E-19 1.98350E-18
 -1      3710 9.53635E-05-2.83862E-05-2.87021E-05-1.17650E-06 3.54635E-19 7.41148E-19
 -1      3711 9.54566E-05-2.84909E-05-2.87013E-05-1.12669E-06 2.34730E-19 7.61992E-19
 -1      3712 9.51255E-05-2.81423E-05-2.87042E-05-1.31504E-06 3.70337E-19 5.43089E-19
 -1      3713 9.52175E-05-2.82577E-05-2.86993E-05-1.23764E-06 5.08093E-19 8.09209E-19
 -1      3714 9.52729E-05-2.82777E-05-2.87124E-05-1.10330E-06 5.80753E-19 7.62560E-19
 -1      3715 9.55958E-05-2.86018E-05-2.87096E-05-1.09066E-06 4.05169E-19 7.16761E-19
 -1      3716 9.56877E-05-2.86867E-05-2.87157E-05-1.06017E-06 5.81843E-19 5.71827E-19
 -1      3717 9.55563E-05-2.85308E-05-2.87257E-05-1.00315E-06 3.47881E-19 6.65799E-19
 -1      3718 9.46629E-05-2.76565E-05-2.87130E-05-1.80812E-06-1.36405E-19 7.60481E-19
 -1      3719 9.47363E-05-2.77574E-05-2.87084E-05-1.65740E-06-2.13898E-20 7.03171E-19
 -1      3720 9.44739E-05-2.74778E-05-2.87077E-05-2.18656E-06-9.78567E-19 6.10850E-19
 -1      3721 9.45200E-05-2.75438E-05-2.87074E-05-1.99353E-06-5.17466E-19 6.49869E-19
 -1      3722 9.43796E-05-2.74304E-05-2.86925E-05-1.81062E-06-3.77350E-19 1.40727E-18
 -1      3723 9.43604E-05-2.74073E-05-2.86880E-05-2.66402E-06-1.14472E-18 7.92355E-19
 -1      3724 9.43564E-05-2.74093E-05-2.86946E-05-2.42844E-06-1.14668E-18 7.28296E-19
 -1      3725 9.41154E-05-2.72207E-05-2.86701E-05-2.23906E-06-1.02061E-18 1.18251E-18
 -1      3726 9.43853E-05-2.75190E-05-2.86492E-05-3.24142E-06-9.56678E-19 2.83687E-19
 -1      3727 9.42965E-05-2.74173E-05-2.86645E-05-2.96791E-06-9.11822E-19 2.55823E-19
 -1      3728 9.39264E-05-2.71329E-05-2.86287E-05-2.79172E-06-8.77934E-19 8.01012E-19
 -1      3729 9.46417E-05-2.79110E-05-2.85893E-05-3.90684E-06 8.26466E-20-4.23787E-19
 -1      3730 9.44192E-05-2.76539E-05-2.86134E-05-3.60846E-06-4.85104E-19-1.26460E-19
 -1      3731 9.38832E-05-2.72510E-05-2.85628E-05-3.48097E-06-2.53680E-19 6.24834E-20
 -1      3732 9.52591E-05-2.87045E-05-2.85122E-05-4.62414E-06 6.38739E-20-1.81092E-19
 -1      3733 9.48383E-05-2.82304E-05-2.85418E-05-4.32839E-06 1.90548E-19-4.99260E-19
 -1      3734 9.40927E-05-2.76879E-05-2.84707E-05-4.30787E-06 7.70832E-20-2.29159E-19
 -1      3735 9.64036E-05-3.00329E-05-2.84329E-05-5.31383E-06-1.83240E-19 2.89880E-19
 -1      3736 9.57077E-05-2.92783E-05-2.84586E-05-5.07220E-06 8.18421E-20-9.52401E-20
 -1      3737 9.47068E-05-2.85849E-05-2.83574E-05-5.24787E-06-2.93572E-19 1.73381E-19
 -1      3738 9.82664E-05-3.20136E-05-2.83850E-05-5.82413E-06-8.93553E-19 3.50924E-19
 -1      3739 9.72190E-05-3.09311E-05-2.83873E-05-5.72492E-06-6.65763E-19 3.52443E-19
 -1      3740 9.59286E-05-3.01029E-05-2.82417E-05-6.22567E-06-4.67319E-19 5.17089E-19
 -1      3741 1.01022E-04-3.46766E-05-2.84325E-05-5.88250E-06-7.62105E-19 8.86118E-19
 -1      3742 9.95800E-05-3.32828E-05-2.83764E-05-6.06867E-06-7.51183E-19 4.90875E-19
 -1      3743 9.80074E-05-3.23913E-05-2.81656E-05-7.06929E-06-1.05871E-18 3.43978E-19
 -1      3744 1.04717E-04-3.78237E-05-2.86827E-05-5.07656E-06-9.43296E-19 9.32146E-19
 -1      3745 1.02935E-04-3.62742E-05-2.85135E-05-5.74178E-06-8.00053E-19 7.07578E-19
 -1      3746 1.01188E-04-3.55022E-05-2.82115E-05-7.44072E-06-9.08997E-19 1.12648E-19
 -1      3747 1.09145E-04-4.08221E-05-2.93047E-05-2.82525E-06-1.08203E-18 2.43188E-19
 -1      3748 1.07246E-04-3.95605E-05-2.89385E-05-4.22569E-06-1.16121E-18 3.10310E-19
 -1      3749 1.05609E-04-3.92215E-05-2.85200E-05-6.80984E-06-9.79721E-19-1.03141E-19
 -1      3750 1.13641E-04-4.23462E-05-3.05475E-05 1.30344E-06-1.36908E-18 1.62875E-19
 -1      3751 1.11973E-04-4.21147E-05-2.98681E-05-1.06274E-06-1.31810E-18-1.03308E-19
 -1      3752 1.10947E-04-4.25291E-05-2.93211E-05-4.36854E-06-1.06984E-18-1.33590E-18
 -1      3753 1.17759E-04-4.26715E-05-3.21987E-05 4.08511E-06-1.84687E-18-6.17435E-19
 -1      3754 1.16933E-04-4.41209E-05-3.11779E-05 1.45674E-06-1.53225E-18-5.45493E-19
 -1      3755 1.10713E-04-2.30119E-05-3.76452E-05 1.05959E-05-7.26728E-20 1.04288E-18
 -1      3756 1.12697E-04-2.78895E-05-3.65858E-05 1.17943E-05-1.09643E-18 1.06179E-18
 -1      3757 9.58363E-05-2.88330E-05-2.87215E-05 4.76305E-06 2.02720E-18 1.01250E-18
 -1      3758 1.13170E-04-4.26132E-05-3.02013E-05-3.67630E-09 1.27556E-18-7.12250E-19
 -1      3759 1.14433E-04-4.23794E-05-3.09211E-05-2.27205E-06 5.30822E-20-1.00255E-18
 -1      3760 1.08655E-04-4.05483E-05-2.91241E-05 3.80059E-06 2.49947E-18-6.60538E-19
 -1      3761 1.10489E-04-4.16307E-05-2.95477E-05 2.21989E-06 1.98371E-18-9.67384E-19
 -1      3762 1.12661E-04-4.35523E-05-2.96394E-05 3.49554E-06 1.82453E-18-1.97714E-18
 -1      3763 1.04233E-04-3.73497E-05-2.86031E-05 5.76871E-06 7.03874E-19 7.81797E-19
 -1      3764 1.06062E-04-3.88838E-05-2.88078E-05 4.92018E-06 2.33076E-18 7.64416E-19
 -1      3765 1.07198E-04-4.04011E-05-2.86850E-05 6.58531E-06 1.46616E-18 1.22082E-19
 -1      3766 1.00654E-04-3.42277E-05-2.84268E-05 6.38632E-06-5.02542E-19-6.14723E-20
 -1      3767 1.02176E-04-3.56878E-05-2.84964E-05 6.07864E-06 6.05910E-20-4.23785E-20
 -1      3768 1.02543E-04-3.66894E-05-2.82881E-05 7.66792E-06 8.31226E-19 9.42961E-19
 -1      3769 9.80868E-05-3.16692E-05-2.84381E-05 6.21046E-06-2.26056E-20-6.79981E-19
 -1      3770 9.92196E-05-3.28578E-05-2.84325E-05 6.23567E-06-6.29528E-19-8.76600E-19
 -1      3771 9.90916E-05-3.33694E-05-2.82157E-05 7.52816E-06 1.68832E-19 1.01490E-18
 -1      3772 9.64113E-05-2.97665E-05-2.85398E-05 5.63771E-06 9.23252E-21 1.20490E-18
 -1      3773 9.71746E-05-3.06554E-05-2.84980E-05 5.83853E-06-1.42987E-19-1.63499E-19
 -1      3774 9.67909E-05-3.08217E-05-2.83059E-05 6.79841E-06-5.72605E-19 5.64231E-19
 -1      3775 9.40936E-05-2.14727E-05-3.11364E-05-1.73662E-06 3.39527E-19-5.33956E-19
 -1      3776 9.48094E-05-2.28423E-05-3.08282E-05-1.54067E-06 2.10208E-19-3.83189E-19
 -1      3777 9.39641E-05-2.11941E-05-3.11946E-05-1.21634E-06 4.92776E-19-5.89329E-19
 -1      3778 9.43745E-05-2.20874E-05-3.09915E-05 2.57558E-06 7.66357E-19 3.06946E-21
 -1      3779 9.41638E-05-2.16169E-05-3.10966E-05 2.14843E-06 7.78135E-19-1.17039E-19
 -1      3780 9.47555E-05-2.26833E-05-3.08692E-05 1.57037E-06 7.30133E-19-1.90379E-19
 -1      3781 9.48361E-05-2.30324E-05-3.07613E-05 2.22554E-06 6.51881E-19-1.57984E-20
 -1      3782 6.91737E-05-1.38842E-05-2.37141E-05 2.14325E-08-1.14827E-18 2.31302E-18
 -1      3783 7.29304E-05-1.50086E-05-2.48785E-05-4.12584E-07-7.52351E-19 1.64162E-18
 -1      3784 7.46487E-05-1.58532E-05-2.50808E-05 2.82402E-06-3.42948E-19 2.10476E-18
 -1      3785 1.09447E-04-2.17450E-05-3.76449E-05-9.50712E-06 1.21083E-18 1.19184E-18
 -1      3786 1.06026E-04-1.49948E-05-3.90968E-05 3.00833E-06 1.80971E-18 2.58917E-18
 -1      3787 1.07115E-04-1.72601E-05-3.86008E-05 6.78529E-06 1.14946E-18 2.56447E-18
 -1      3788 9.48878E-05-2.78904E-05-2.87098E-05-1.52124E-06-2.47371E-20 5.63920E-19
 -1      3789 9.49745E-05-2.80057E-05-2.87037E-05-1.40969E-06 1.03066E-19 4.90655E-19
 -1      3790 9.49772E-05-2.79941E-05-2.87069E-05-1.25988E-06 3.28793E-19 7.53709E-19
 -1      3791 9.60818E-05-2.83011E-05-2.90520E-05-7.36891E-07 5.52563E-19 7.76195E-19
 -1      3792 9.61054E-05-2.80620E-05-2.91546E-05-5.24702E-07 6.12045E-19 8.04621E-19
 -1      3793 9.62696E-05-2.77842E-05-2.93522E-05-3.01121E-07 5.35346E-19 6.49982E-19
 -1      3794 9.62826E-05-2.83584E-05-2.91124E-05-7.02367E-07 4.40438E-19 8.53893E-19
 -1      3795 8.58926E-05-3.28607E-05-2.27022E-05 2.70843E-05-1.71838E-18 7.71144E-19
 -1      3796 7.58946E-05-2.51810E-05-2.16551E-05 2.38275E-05-1.24938E-18 2.04611E-20
 -1      3797 8.84855E-05-2.26024E-05-2.82423E-05 1.40987E-06 1.21399E-19-8.96179E-19
 -1      3798 8.90423E-05-2.31224E-05-2.82354E-05 2.43523E-06 9.93840E-19-1.82137E-18
 -1      3799 9.52567E-05-2.39419E-05-3.05636E-05-1.50138E-06 5.54952E-20-4.56722E-19
 -1      3800 9.54603E-05-2.45011E-05-3.04115E-05-1.56937E-06 1.74458E-20-4.93715E-19
 -1      3801 9.56749E-05-2.51090E-05-3.02482E-05-1.16229E-06-1.04791E-19-4.04497E-19
 -1      3802 8.98823E-05-2.39935E-05-2.82615E-05 3.43343E-06 8.25682E-19-1.62148E-18
 -1      3803 9.07226E-05-2.46590E-05-2.82957E-05 4.11850E-06 7.42551E-19-9.24336E-19
 -1      3804 8.88628E-05-2.34064E-05-2.80541E-05 3.55918E-06 1.45702E-18-1.15088E-18
 -1      3805 9.63423E-05-2.70515E-05-2.96923E-05-1.54629E-07 1.42466E-19-1.39111E-19
 -1      3806 9.64270E-05-2.75380E-05-2.95291E-05 1.51644E-07 1.83528E-19 1.85193E-20
 -1      3807 9.59723E-05-2.58357E-05-3.00570E-05-8.23266E-07-1.54631E-19-1.85896E-19
 -1      3808 9.61708E-05-2.65438E-05-2.98462E-05-3.86571E-07-3.88070E-20-2.50796E-19
 -1      3809 9.63103E-05-2.66427E-05-2.98543E-05-2.64408E-07 1.14143E-19 3.24238E-19
 -1      3810 9.58656E-05-2.53891E-05-3.01991E-05-8.30262E-07 1.92983E-20-7.85258E-20
 -1      3811 9.29618E-05-3.56244E-05-2.46111E-05-2.28095E-05-4.34812E-19-1.10222E-18
 -1      3812 9.97048E-05-4.09921E-05-2.50951E-05-2.35638E-05-1.19076E-18-1.86796E-18
 -1      3813 1.03664E-04-4.17388E-05-2.64533E-05-1.83835E-05-7.07302E-19-1.09225E-18
 -1      3814 9.37596E-05-2.67260E-05-2.87372E-05 4.16469E-06 1.31963E-18 7.91910E-19
 -1      3815 9.42380E-05-2.70999E-05-2.87620E-05 4.25090E-06 1.42851E-18 1.30724E-18
 -1      3816 9.45518E-05-2.75754E-05-2.87118E-05 4.57068E-06 1.40731E-18 1.33265E-18
 -1      3817 9.33928E-05-2.66555E-05-2.86045E-05 4.55896E-06 5.56741E-19 8.31433E-19
 -1      3818 9.65084E-05-2.79433E-05-2.93806E-05 3.41746E-07 1.42272E-19 3.93668E-20
 -1      3819 9.65133E-05-2.82481E-05-2.92599E-05 5.37006E-07 1.69226E-19-5.81456E-20
 -1      3820 9.65632E-05-2.76205E-05-2.95463E-05 1.73545E-07 2.17386E-19 4.32401E-19
 -1      3821 1.17873E-04-4.80927E-05-3.00201E-05 6.12032E-06 1.07678E-18-3.87482E-18
 -1      3822 1.13701E-04-4.74765E-05-2.82973E-05 1.27318E-05 7.24575E-19-3.07932E-18
 -1      3823 1.11469E-04-2.62920E-05-3.67562E-05-1.17285E-05 1.18603E-18 5.30014E-19
 -1      3824 9.50655E-05-2.33076E-05-3.07634E-05 2.01160E-07 5.56468E-19-1.75900E-19
 -1      3825 9.50709E-05-2.33080E-05-3.07654E-05-1.80412E-07 3.73457E-19-5.39516E-19
 -1      3826 9.66377E-05-2.83124E-05-2.92825E-05 4.89385E-07 1.88612E-19 1.30313E-19
 -1      3827 7.92576E-05-2.56068E-05-2.29603E-05 2.13447E-05-9.83651E-19 3.94023E-19
 -1      3828 7.23222E-05-2.19448E-05-2.14074E-05 2.17491E-05-1.47466E-18-1.68472E-18
 -1      3829 6.87520E-05-1.88664E-05-2.13637E-05 1.76787E-05-1.52500E-18-5.40539E-19
 -1      3830 9.62133E-05-2.88803E-05-2.88567E-05-9.54816E-07 8.48524E-20 2.14318E-19
 -1      3831 9.62866E-05-2.88357E-05-2.89057E-05-9.07878E-07 3.61492E-19 1.84174E-19
 -1      3832 1.06793E-04-1.40281E-05-3.99043E-05-9.92897E-07 1.61847E-18 1.75945E-18
 -1      3833 6.82802E-05-1.49181E-05-2.27497E-05-9.20367E-06-5.10139E-20 2.35105E-19
 -1      3834 6.53825E-05-1.34244E-05-2.21935E-05-4.92187E-06 3.84196E-19-3.80702E-19
 -1      3835 6.18753E-05-1.35270E-05-2.07089E-05 9.32830E-06-5.45153E-19 2.03292E-18
 -1      3836 1.10397E-04-1.94268E-05-3.92031E-05 9.69912E-06-3.94386E-19 1.52434E-18
 -1      3837 9.50924E-05-2.33775E-05-3.07420E-05 4.77224E-07 6.43058E-19-1.88763E-19
 -1      3838 9.55968E-05-2.43352E-05-3.05249E-05 2.49455E-07 5.81016E-19-1.16823E-19
 -1      3839 9.51604E-05-2.35524E-05-3.07009E-05 8.36398E-07 6.75008E-19-3.44848E-19
 -1      3840 9.64694E-05-2.87984E-05-2.90031E-05-7.66050E-07 3.93810E-19-3.99069E-20
 -1      3841 9.63624E-05-2.87571E-05-2.89746E-05-8.60059E-07 6.26213E-19 9.82584E-20
 -1      3842 9.64168E-05-2.86318E-05-2.90477E-05-7.70126E-07 4.45875E-19 1.94347E-19
 -1      3843 1.16188E-04-4.14818E-05-3.20357E-05-5.34310E-06-7.70559E-19-4.98062E-20
 -1      3844 1.16208E-04-3.91945E-05-3.30955E-05-7.53816E-06-6.50508E-19-6.24450E-19
 -1      3845 6.08425E-05-1.13618E-05-2.10279E-05-1.18617E-06 1.05638E-18-5.37178E-19
 -1      3846 7.13289E-05-1.70752E-05-2.31429E-05-1.20048E-05-4.65352E-19-2.94678E-19
 -1      3847 7.62281E-05-2.05367E-05-2.39004E-05-1.46547E-05-6.56113E-19-3.24864E-19
 -1      3848 7.41563E-05-1.69897E-05-2.45373E-05-7.56421E-06 4.23914E-20 2.66216E-19
 -1      3849 1.17018E-04-4.61950E-05-3.04070E-05-2.92585E-06-1.64118E-18-1.99360E-18
 -1      3850 1.19971E-04-4.10973E-05-3.37556E-05 7.36359E-06-1.97570E-18 1.17513E-19
 -1      3851 1.15884E-04-3.17490E-05-3.61438E-05 1.15222E-05-1.22889E-18 8.22514E-19
 -1      3852 1.17010E-04-3.61883E-05-3.48707E-05 1.00819E-05-1.05583E-18 5.64911E-19
 -1      3853 9.49131E-05-2.80522E-05-2.86363E-05 4.99747E-06 2.45137E-18-1.74315E-19
 -1      3854 9.57410E-05-2.90395E-05-2.85901E-05 5.31561E-06 1.78928E-18 7.57100E-19
 -1      3855 9.52902E-05-2.89987E-05-2.84353E-05 5.96251E-06 7.83619E-19-7.56043E-19
 -1      3856 9.43101E-05-2.76471E-05-2.85776E-05 5.07038E-06 1.86819E-18 7.77916E-19
 -1      3857 8.21958E-05-2.63935E-05-2.39673E-05-1.96308E-05-7.97402E-21-6.28664E-19
 -1      3858 8.77235E-05-3.11866E-05-2.41468E-05-2.22979E-05-8.16361E-20-5.38544E-19
 -1      3859 9.30888E-05-3.36852E-05-2.53634E-05-1.93185E-05 5.50140E-19-1.36087E-18
 -1      3860 1.17148E-04-3.72593E-05-3.42904E-05-9.87544E-06-4.18586E-19-3.98562E-19
 -1      3861 1.15761E-04-3.27697E-05-3.55854E-05-1.07546E-05 2.57352E-19-5.49535E-19
 -1      3862 9.51477E-05-2.36430E-05-3.06520E-05-1.20876E-06 2.24405E-19-2.52449E-19
 -1      3863 9.46342E-05-2.23663E-05-3.09529E-05-8.13065E-07 4.68197E-19-6.20932E-19
 -1      3864 1.10507E-04-4.63426E-05-2.75739E-05 1.56890E-05-2.35424E-19-2.28906E-18
 -1      3865 1.05774E-04-4.33576E-05-2.67233E-05 1.78295E-05-7.66185E-19-1.07917E-18
 -1      3866 1.11738E-04-4.50905E-05-2.84817E-05 1.04226E-05 5.78768E-19-2.87735E-18
 -1      3867 9.51939E-05-2.39584E-05-3.05379E-05 1.75217E-06 6.06176E-19-5.91465E-21
 -1      3868 1.17476E-04-4.39584E-05-3.14733E-05-1.97786E-06 3.11572E-19-1.97752E-18
 -1      3869 1.20486E-04-4.17241E-05-3.38855E-05-7.09974E-06-4.94482E-19-1.61046E-18
 -1      3870 9.46751E-05-2.77020E-05-2.87025E-05-1.48997E-06-6.93686E-20 1.21887E-18
 -1      3871 9.27427E-05-3.58429E-05-2.42889E-05 2.37067E-05-1.38989E-18 1.29257E-18
 -1      3872 8.83176E-05-2.21471E-05-2.83670E-05-5.21232E-07-1.08533E-18 1.17379E-18
 -1      3873 9.58186E-05-2.87710E-05-2.87329E-05-1.04010E-06 5.73552E-19 7.26269E-19
 -1      3874 9.59076E-05-2.88262E-05-2.87493E-05-1.01871E-06 6.21195E-19 5.55046E-19
 -1      3875 9.58242E-05-2.87345E-05-2.87537E-05-9.41435E-07 4.73876E-19 4.61186E-19
 -1      3876 8.75778E-05-2.19423E-05-2.81347E-05 5.84625E-07-1.66221E-19-3.49025E-19
 -1      3877 9.14966E-05-2.54007E-05-2.83409E-05 4.59130E-06 4.26533E-19-1.92356E-18
 -1      3878 9.21957E-05-2.59518E-05-2.83777E-05 4.90303E-06 1.04649E-18 9.76853E-20
 -1      3879 9.07016E-05-2.50380E-05-2.81411E-05 4.98801E-06 1.24302E-18-1.17163E-18
 -1      3880 1.15858E-04-4.81356E-05-2.89576E-05-1.03416E-05-1.47495E-18-6.66273E-19
 -1      3881 1.17063E-04-4.74796E-05-2.98055E-05-6.30338E-06-1.55415E-18-1.74204E-18
 -1      3882 1.13478E-04-4.50960E-05-2.93735E-05-5.92682E-06-6.16705E-19-1.82653E-18
 -1      3883 1.11072E-04-4.58960E-05-2.79713E-05-1.34068E-05-1.12363E-18-1.20908E-18
 -1      3884 9.62557E-05-2.69862E-05-2.96931E-05 1.62128E-07 3.88315E-19 1.14483E-20
 -1      3885 9.61186E-05-2.63845E-05-2.98833E-05 5.61767E-07 2.87869E-19-2.05043E-19
 -1      3886 6.73261E-05-1.35542E-05-2.28501E-05 4.15309E-06-1.93517E-18 3.31263E-18
 -1      3887 1.21079E-04-4.63202E-05-3.19707E-05-9.09695E-07 1.11676E-19-2.74653E-18
 -1      3888 1.18833E-04-4.72000E-05-3.06925E-05 2.45591E-06 1.04382E-18-3.07962E-18
 -1      3889 1.14872E-04-4.56131E-05-2.97283E-05 4.85303E-06 1.48361E-18-3.03555E-18
 -1      3890 9.59116E-05-2.58005E-05-3.00526E-05 8.20692E-07 3.87279E-19-1.36457E-19
 -1      3891 9.57278E-05-2.51651E-05-3.02362E-05 1.22324E-06 5.43843E-19-6.99866E-20
 -1      3892 9.60482E-05-2.59089E-05-3.00569E-05 6.22721E-07 3.80456E-19-2.94313E-19
 -1      3893 9.67449E-05-2.81560E-05-2.93930E-05 3.26603E-07 1.06439E-19 8.56173E-20
 -1      3894 9.67409E-05-2.84318E-05-2.92777E-05 4.53761E-07 1.57443E-19-4.93125E-20
 -1      3895 9.61106E-05-2.88862E-05-2.88097E-05-9.77961E-07 2.12664E-19 2.73400E-19
 -1      3896 9.62925E-05-2.89004E-05-2.88837E-05-8.49601E-07 1.69668E-19 1.56859E-20
 -1      3897 9.60271E-05-2.88727E-05-2.87793E-05-1.00367E-06 5.14210E-19 4.11965E-19
 -1      3898 9.63975E-05-2.75031E-05-2.95210E-05-9.32852E-08 3.84592E-19 8.59825E-20
 -1      3899 9.64015E-05-2.70731E-05-2.97112E-05 8.40029E-08 2.10453E-19-1.33505E-19
 -1      3900 9.64339E-05-2.78945E-05-2.93789E-05-3.55761E-07 4.04022E-19 3.16532E-19
 -1      3901 6.70941E-05-1.60665E-05-2.16413E-05 1.35062E-05-6.48182E-19 9.57213E-20
 -1      3902 6.66628E-05-1.46712E-05-2.22815E-05 8.28017E-06-7.14373E-19 1.26854E-18
 -1      3903 7.08663E-05-1.59115E-05-2.36059E-05 7.91072E-06-1.57407E-18 1.19899E-18
 -1      3904 7.29985E-05-1.96156E-05-2.28792E-05 1.55750E-05-9.75098E-19-1.37800E-18
 -1      3905 9.65702E-05-2.88731E-05-2.90119E-05 6.19565E-07 2.72678E-19-3.25971E-19
 -1      3906 9.64737E-05-2.89180E-05-2.89525E-05 6.62713E-07 2.58801E-19-4.69231E-19
 -1      3907 9.63500E-05-2.89190E-05-2.88985E-05 6.76830E-07 1.52268E-19-4.53924E-19
 -1      3908 9.62286E-05-2.88896E-05-2.88591E-05 7.02556E-07 1.32101E-19-5.82132E-19
 -1      3909 9.64856E-05-2.89203E-05-2.89574E-05 5.23348E-07 2.18188E-19-2.39593E-19
 -1      3910 9.60763E-05-2.88230E-05-2.88230E-05 7.09594E-07 2.93674E-19-5.90142E-19
 -1      3911 9.59350E-05-2.87356E-05-2.87990E-05 7.29799E-07 2.06665E-19-5.15480E-19
 -1      3912 9.62115E-05-2.88605E-05-2.88653E-05 5.53331E-07 2.06275E-19-3.57041E-19
 -1      3913 9.57588E-05-2.86153E-05-2.87766E-05 7.36481E-07 9.75545E-20-4.25249E-19
 -1      3914 9.55976E-05-2.84799E-05-2.87641E-05 7.59507E-07-4.65410E-20-7.78789E-20
 -1      3915 9.58860E-05-2.86745E-05-2.88050E-05 5.73298E-07 2.59553E-19-4.57514E-19
 -1      3916 9.53853E-05-2.83037E-05-2.87508E-05 7.70366E-07-5.05113E-20-1.08063E-20
 -1      3917 9.51883E-05-2.81135E-05-2.87462E-05 8.03362E-07 3.68137E-19 6.18271E-20
 -1      3918 9.55017E-05-2.83762E-05-2.87674E-05 5.92912E-07 1.41789E-19 7.97631E-20
 -1      3919 9.49527E-05-2.78996E-05-2.87393E-05 8.18344E-07 5.74903E-19 2.03062E-19
 -1      3920 9.47291E-05-2.76732E-05-2.87389E-05 8.60178E-07 4.47049E-19 4.93881E-19
 -1      3921 9.50586E-05-2.79814E-05-2.87455E-05 6.15811E-07 5.83094E-19 5.79930E-20
 -1      3922 9.44514E-05-2.74133E-05-2.87334E-05 8.77338E-07 2.56947E-19 2.55834E-19
 -1      3923 9.41774E-05-2.71386E-05-2.87329E-05 9.27497E-07 2.81798E-19 4.71801E-20
 -1      3924 9.45524E-05-2.75053E-05-2.87311E-05 6.38298E-07 2.14446E-19 1.17029E-19
 -1      3925 9.38426E-05-2.68280E-05-2.87240E-05 9.39797E-07 3.30162E-19 2.67776E-19
 -1      3926 9.34981E-05-2.64981E-05-2.87182E-05 9.91459E-07-1.31098E-20 2.16162E-19
 -1      3927 9.39485E-05-2.69359E-05-2.87145E-05 6.49695E-07 3.20715E-19-5.25113E-19
 -1      3928 9.30874E-05-2.61304E-05-2.86998E-05 9.86050E-07-2.67694E-19 3.36254E-19
 -1      3929 9.26457E-05-2.57368E-05-2.86820E-05 1.02581E-06-3.03783E-19 3.29813E-19
 -1      3930 9.32141E-05-2.62658E-05-2.86846E-05 6.27807E-07 1.16031E-19 1.89119E-20
 -1      3931 9.21362E-05-2.53057E-05-2.86460E-05 9.81752E-07-2.42586E-19 4.84840E-19
 -1      3932 9.15628E-05-2.48393E-05-2.86065E-05 9.87239E-07 2.53318E-19 8.04874E-19
 -1      3933 9.23087E-05-2.54871E-05-2.86273E-05 5.35564E-07-4.52465E-20 6.64681E-19
 -1      3934 9.09274E-05-2.43401E-05-2.85420E-05 8.72747E-07 5.95545E-19 8.17497E-19
 -1      3935 9.01778E-05-2.37935E-05-2.84668E-05 8.09750E-07 5.27711E-19 1.03196E-18
 -1      3936 9.11837E-05-2.45953E-05-2.85238E-05 3.15726E-07 1.34795E-19 5.95197E-19
 -1      3937 8.93852E-05-2.32263E-05-2.83582E-05 5.78771E-07 1.85190E-19 1.06708E-18
 -1      3938 8.84026E-05-2.25959E-05-2.82272E-05 3.98061E-07 1.05470E-20 1.19459E-18
 -1      3939 8.97828E-05-2.35943E-05-2.83478E-05-1.15783E-07 4.20247E-19 2.29141E-19
 -1      3940 8.74166E-05-2.19698E-05-2.80526E-05-1.37463E-08-2.66833E-19 3.21191E-19
 -1      3941 8.61269E-05-2.12597E-05-2.78356E-05-3.79213E-07-3.58569E-19 3.67635E-19
 -1      3942 8.80417E-05-2.25041E-05-2.80631E-05-8.78141E-07-2.35440E-19 1.10561E-19
 -1      3943 8.49041E-05-2.05974E-05-2.75634E-05-1.05701E-06-2.26209E-19 1.05947E-19
 -1      3944 8.32083E-05-1.98231E-05-2.72146E-05-1.69617E-06-3.26917E-19 8.72965E-20
 -1      3945 8.58863E-05-2.13689E-05-2.76184E-05-2.13539E-06-7.02005E-19-5.08241E-19
 -1      3946 8.17189E-05-1.92093E-05-2.67976E-05-2.75434E-06-1.56201E-19 3.18346E-19
 -1      3947 7.94486E-05-1.83516E-05-2.62570E-05-3.82107E-06-4.61004E-20 5.08691E-19
 -1      3948 8.32416E-05-2.02844E-05-2.69383E-05-4.08969E-06 1.09651E-19-7.19148E-19
 -1      3949 7.68122E-05-1.76089E-05-2.53758E-05-5.80606E-06-1.29735E-19 6.21535E-19
 -1      3950 8.34247E-05-1.98825E-05-2.72898E-05 1.41799E-06 3.25254E-19 2.06854E-19
 -1      3951 8.51754E-05-2.06608E-05-2.76765E-05 8.06177E-07 6.95692E-19 2.77014E-19
 -1      3952 9.51791E-05-2.81641E-05-2.87186E-05-9.81825E-07 5.19145E-19 7.27222E-19
 -1      3953 9.53256E-05-2.83085E-05-2.87236E-05-9.19035E-07 4.93190E-19 7.26226E-19
 -1      3954 9.67147E-05-2.86400E-05-2.91731E-05 5.13075E-07 2.19648E-19-1.82977E-19
 -1      3955 9.66547E-05-2.87836E-05-2.90886E-05 5.88899E-07 2.07145E-19-2.96463E-19
 -1      3956 9.66931E-05-2.88172E-05-2.90903E-05 4.68181E-07 2.23742E-19-2.58703E-19
 -1      3957 9.55088E-05-2.84556E-05-2.87353E-05-8.75106E-07 3.23101E-19 7.38682E-19
 -1      3958 9.56484E-05-2.85774E-05-2.87459E-05-8.34526E-07 2.16704E-19 6.68765E-19
 -1      3959 9.54126E-05-2.83494E-05-2.87413E-05-7.46810E-07 2.80151E-19 3.59984E-19
 -1      3960 9.37561E-05-2.69207E-05-2.86379E-05-2.19367E-06-8.68258E-19 4.34593E-19
 -1      3961 9.38746E-05-2.70244E-05-2.86550E-05-1.95215E-06-9.70530E-19 5.88328E-19
 -1      3962 9.40999E-05-2.71812E-05-2.86752E-05-1.73092E-06-6.23179E-19 9.13363E-19
 -1      3963 9.42436E-05-2.73245E-05-2.86840E-05-1.54828E-06-2.02095E-19 8.48786E-19
 -1      3964 9.37463E-05-2.68996E-05-2.86472E-05-1.67133E-06-5.99605E-19 3.67240E-20
 -1      3965 9.33461E-05-2.68576E-05-2.84838E-05-3.58955E-06 6.94421E-20-3.28533E-19
 -1      3966 9.33128E-05-2.67621E-05-2.85268E-05-3.20329E-06-2.12655E-20 1.90393E-19
 -1      3967 9.34696E-05-2.72677E-05-2.83571E-05-4.56799E-06-3.14394E-19 1.53336E-20
 -1      3968 9.32729E-05-2.69812E-05-2.84142E-05-4.10454E-06-3.04012E-19-5.19908E-19
 -1      3969 9.26634E-05-2.64587E-05-2.83782E-05-3.80987E-06-2.05180E-20-2.82419E-19
 -1      3970 9.40192E-05-2.81730E-05-2.82004E-05-5.73682E-06-9.30616E-19 7.20304E-19
 -1      3971 9.35683E-05-2.76112E-05-2.82671E-05-5.21040E-06-7.12675E-19 3.71940E-19
 -1      3972 9.26620E-05-2.68690E-05-2.82080E-05-5.00243E-06-9.67518E-19 1.32481E-20
 -1      3973 9.52247E-05-2.97607E-05-2.80327E-05-7.04204E-06-3.77322E-19 6.42567E-19
 -1      3974 9.44042E-05-2.88300E-05-2.80959E-05-6.49825E-06-3.08036E-19 9.17893E-19
 -1      3975 9.31030E-05-2.78262E-05-2.79972E-05-6.48167E-06-5.36069E-19 1.34471E-19
 -1      3976 9.74014E-05-3.22506E-05-2.78973E-05-8.32896E-06-1.24008E-18 2.72026E-19
 -1      3977 9.60674E-05-3.08500E-05-2.79292E-05-7.87918E-06-8.55051E-19 4.74411E-19
 -1      3978 9.42606E-05-2.95664E-05-2.77649E-05-8.22737E-06-6.13192E-19 2.36315E-19
 -1      3979 1.00850E-04-3.57342E-05-2.78902E-05-9.24741E-06-3.62935E-19-8.23270E-19
 -1      3980 9.88980E-05-3.38499E-05-2.78361E-05-9.07890E-06-8.08118E-19-2.86033E-19
 -1      3981 9.65147E-05-3.23272E-05-2.75615E-05-1.00545E-05-4.99946E-19-3.06657E-19
 -1      3982 1.05731E-04-4.00989E-05-2.81519E-05-9.23856E-06-9.13188E-19-1.07464E-18
 -1      3983 1.03249E-04-3.78541E-05-2.79459E-05-9.60151E-06-4.09630E-19-8.41641E-19
 -1      3984 1.00331E-04-3.63411E-05-2.75025E-05-1.15822E-05-1.00018E-19-1.15328E-18
 -1      3985 1.10788E-04-4.34730E-05-2.87874E-05-7.60276E-06-7.82175E-19-1.74181E-18
 -1      3986 9.52496E-05-2.37664E-05-3.06406E-05-8.82734E-07 2.87243E-19-3.34291E-19
 -1      3987 9.56938E-05-2.47677E-05-3.03902E-05-8.87281E-07 1.90005E-19-2.16742E-19
 -1      3988 1.05057E-04-3.94306E-05-2.80528E-05 9.73190E-06 7.25773E-19-6.82562E-19
 -1      3989 1.07772E-04-4.15468E-05-2.83641E-05 8.91266E-06 6.49072E-19-1.51871E-18
 -1      3990 1.12084E-04-4.42466E-05-2.90753E-05 6.72019E-06 1.76587E-18-2.83901E-18
 -1      3991 9.71141E-05-3.17963E-05-2.79655E-05 8.48472E-06-5.79268E-19 1.41401E-18
 -1      3992 9.85720E-05-3.33349E-05-2.79344E-05 8.87403E-06-1.83384E-19 1.53540E-18
 -1      3993 9.52495E-05-2.94926E-05-2.81643E-05 7.15278E-06-1.59610E-19 7.09872E-19
 -1      3994 9.61548E-05-3.05743E-05-2.80833E-05 7.67413E-06-6.10972E-20 1.07259E-18
 -1      3995 9.52216E-05-3.04525E-05-2.77987E-05 8.93185E-06 6.17015E-20 5.25964E-19
 -1      3996 9.51900E-05-2.36040E-05-3.06857E-05-5.44430E-07 3.50776E-19-6.38061E-19
 -1      3997 9.48299E-05-2.78389E-05-2.87079E-05-1.14727E-06 1.68089E-19 8.24550E-19
 -1      3998 9.49815E-05-2.79963E-05-2.87107E-05-1.05350E-06 4.15088E-19 8.09024E-19
 -1      3999 9.50344E-05-2.80186E-05-2.87203E-05-8.61777E-07 4.85997E-19 5.32244E-19
 -1      4000 9.53331E-05-2.41264E-05-3.05204E-05 1.38920E-06 6.16958E-19-1.00036E-19
 -1      4001 9.53109E-05-2.40085E-05-3.05635E-05 1.09624E-06 6.57309E-19-3.80890E-19
 -1      4002 7.44403E-05-1.70398E-05-2.46670E-05 6.76336E-06-1.57610E-18 1.64306E-18
 -1      4003 7.75228E-05-1.78788E-05-2.55690E-05 5.16337E-06-4.70616E-20 1.36817E-18
 -1      4004 1.00712E-04-3.83201E-05-2.67444E-05-1.57412E-05 1.37090E-19-1.27791E-18
 -1      4005 1.05836E-04-4.20231E-05-2.73124E-05-1.46688E-05-6.12187E-19-1.04018E-18
 -1      4006 9.82798E-05-3.85822E-05-2.56037E-05 2.07865E-05-8.60850E-19 4.23728E-19
 -1      4007 8.93668E-05-3.18929E-05-2.45561E-05 2.11250E-05-1.44986E-18 1.69839E-18
 -1      4008 8.75858E-05-2.28202E-05-2.77928E-05 3.97150E-06 1.14210E-18-1.45231E-18
 -1      4009 8.87275E-05-2.37263E-05-2.78351E-05 4.93211E-06 1.74796E-18-1.21277E-18
 -1      4010 9.66027E-05-2.73337E-05-2.96839E-05 2.12530E-08 1.83273E-19 1.57326E-19
 -1      4011 9.66827E-05-2.77833E-05-2.95313E-05 2.24846E-07 1.11818E-19 9.82896E-20
 -1      4012 9.67727E-05-2.78929E-05-2.95192E-05 2.01554E-07 1.08655E-19-7.67256E-20
 -1      4013 1.00232E-04-3.50483E-05-2.78814E-05 9.54511E-06-2.13576E-19 9.40492E-19
 -1      4014 1.02344E-04-3.70538E-05-2.79589E-05 9.61310E-06 4.67982E-19 3.49927E-19
 -1      4015 9.77444E-05-3.35357E-05-2.75861E-05 1.06921E-05-5.50872E-19 4.25909E-19
 -1      4016 9.44662E-05-2.75015E-05-2.86959E-05-1.39002E-06-1.61701E-19 1.02901E-18
 -1      4017 9.46184E-05-2.76601E-05-2.87000E-05-1.25646E-06 9.43919E-20 9.36226E-19
 -1      4018 9.41946E-05-2.72677E-05-2.86815E-05-1.29967E-06-1.68153E-19 1.64816E-19
 -1      4019 7.95098E-05-1.84547E-05-2.62400E-05 3.51484E-06 2.00408E-19 1.64948E-18
 -1      4020 8.18442E-05-1.92526E-05-2.68310E-05 2.46379E-06 3.95009E-19 1.46196E-18
 -1      4021 8.00325E-05-1.94231E-05-2.58893E-05 6.98691E-06-2.92878E-19 1.15211E-18
 -1      4022 9.34800E-05-2.67830E-05-2.85763E-05-2.80450E-06-3.70109E-19-2.26742E-19
 -1      4023 9.35448E-05-2.68119E-05-2.86052E-05-2.49441E-06-5.88662E-19 2.40840E-19
 -1      4024 9.29195E-05-2.64123E-05-2.85043E-05-2.88489E-06-3.28520E-19-1.60072E-19
 -1      4025 1.09632E-04-4.31182E-05-2.84674E-05 9.25593E-06 6.72266E-19-2.13484E-18
 -1      4026 9.63502E-05-2.89286E-05-2.88945E-05-7.25741E-07 1.78225E-19 7.01607E-20
 -1      4027 9.64524E-05-2.89125E-05-2.89448E-05-6.89897E-07 2.10746E-19 1.77967E-19
 -1      4028 8.60276E-05-2.95477E-05-2.42008E-05 2.11313E-05-1.02271E-18 2.66468E-18
 -1      4029 8.19847E-05-2.63277E-05-2.38930E-05 1.94651E-05-4.74795E-19 6.76892E-19
 -1      4030 9.09605E-05-3.19875E-05-2.53702E-05 1.87843E-05-1.83911E-18 8.64093E-19
 -1      4031 1.02243E-04-3.98229E-05-2.67029E-05 1.66113E-05-7.62740E-19-1.42987E-18
 -1      4032 7.93151E-05-1.91271E-05-2.56950E-05-7.54794E-06-1.91444E-19-5.01096E-19
 -1      4033 9.33062E-05-2.65920E-05-2.85912E-05-2.18662E-06-4.60464E-19-5.83928E-19
 -1      4034 8.34466E-05-2.02975E-05-2.69948E-05 3.89554E-06-1.33254E-19-2.94335E-19
 -1      4035 9.57295E-05-2.48320E-05-3.03735E-05 7.11497E-07 5.72333E-19-3.59569E-19
 -1      4036 9.65526E-05-2.88609E-05-2.90112E-05-6.64107E-07 3.62728E-19 1.55592E-19
 -1      4037 9.66279E-05-2.87614E-05-2.90839E-05-6.02181E-07 5.12327E-19 1.35872E-19
 -1      4038 9.65907E-05-2.88841E-05-2.90180E-05-5.38647E-07 2.97819E-19 3.49839E-19
 -1      4039 9.60723E-05-2.88666E-05-2.88036E-05-8.98254E-07 3.96420E-19 3.85444E-19
 -1      4040 1.06848E-04-4.22552E-05-2.77094E-05 1.29359E-05-4.84834E-19-3.02324E-18
 -1      4041 8.66951E-05-2.15140E-05-2.79547E-05 8.46162E-07 6.29875E-19-1.54753E-19
 -1      4042 7.49418E-05-1.81519E-05-2.42242E-05 1.03572E-05-6.37014E-19 4.35823E-19
 -1      4043 1.07858E-04-4.23364E-05-2.80812E-05-1.09041E-05-4.78653E-19-1.72703E-18
 -1      4044 1.02059E-04-3.79004E-05-2.75865E-05 1.20077E-05-4.79799E-19-2.03960E-18
 -1      4045 9.68048E-05-2.84983E-05-2.92740E-05 3.68472E-07-1.32149E-20-2.31643E-19
 -1      4046 8.65206E-05-2.16852E-05-2.77384E-05 2.63638E-06 5.83162E-19-1.86260E-18
 -1      4047 9.56751E-05-2.45416E-05-3.04727E-05-3.05995E-07 3.25801E-19-5.22302E-19
 -1      4048 8.60776E-05-2.20047E-05-2.74865E-05 4.15665E-06 4.69131E-19-1.99852E-18
 -1      4049 8.04999E-05-2.31823E-05-2.44739E-05-1.56093E-05-1.28382E-19-1.10406E-18
 -1      4050 8.52168E-05-2.62168E-05-2.53479E-05-1.55913E-05 4.87408E-19-1.93285E-18
 -1      4051 7.99296E-05-2.10974E-05-2.52891E-05-1.13553E-05-2.74657E-19-1.45449E-18
 -1      4052 9.46274E-05-2.76508E-05-2.87030E-05-1.03875E-06 2.37405E-20 5.00867E-19
 -1      4053 9.59375E-05-2.52180E-05-3.03179E-05 2.79750E-07 5.58424E-19-2.17905E-19
 -1      4054 9.59265E-05-2.51523E-05-3.03398E-05 7.84552E-08 5.34684E-19-1.46015E-19
 -1      4055 9.62659E-05-3.53520E-05-2.61571E-05-1.73856E-05 5.88486E-19-9.61109E-19
 -1      4056 9.89642E-05-3.58189E-05-2.70107E-05-1.36821E-05 3.47154E-19-6.97975E-19
 -1      4057 9.64655E-05-3.33859E-05-2.70064E-05-1.29169E-05 2.90877E-19-4.03196E-19
 -1      4058 9.12496E-05-3.12114E-05-2.57265E-05-1.69991E-05 5.94405E-19-1.42233E-18
 -1      4059 9.64494E-05-2.84522E-05-2.91443E-05-6.77391E-07 3.13930E-19 4.23235E-19
 -1      4060 9.64704E-05-2.82148E-05-2.92481E-05-5.17689E-07 5.30204E-19 3.80237E-19
 -1      4061 9.65742E-05-2.79645E-05-2.94042E-05-3.44334E-07 3.79969E-19-1.29258E-19
 -1      4062 9.65772E-05-2.85096E-05-2.91726E-05-6.11964E-07 5.10373E-19-1.85256E-19
 -1      4063 9.58164E-05-2.86942E-05-2.87651E-05-8.09140E-07 1.90901E-19 3.31119E-19
 -1      4064 9.59473E-05-2.87840E-05-2.87849E-05-7.80690E-07 3.40488E-19 2.17057E-19
 -1      4065 9.57610E-05-2.86240E-05-2.87735E-05-6.75600E-07 6.82828E-20 1.91397E-19
 -1      4066 8.97755E-05-2.47271E-05-2.78989E-05 5.58859E-06 1.87535E-18-3.73939E-19
 -1      4067 9.07095E-05-2.54689E-05-2.79567E-05 6.02408E-06 1.60769E-18-6.04263E-19
 -1      4068 8.87290E-05-2.42066E-05-2.76366E-05 6.08291E-06 1.67199E-18-1.06664E-18
 -1      4069 9.64463E-05-2.68593E-05-2.98281E-05-9.56074E-08 3.35868E-19 1.57871E-19
 -1      4070 9.65697E-05-2.70375E-05-2.98038E-05-3.93151E-08 2.44264E-19-2.69370E-19
 -1      4071 9.62798E-05-2.63177E-05-2.99840E-05-3.42886E-07 2.16240E-19-5.77678E-20
 -1      4072 9.29465E-05-2.65966E-05-2.84448E-05 5.06965E-06 9.60605E-19 2.01127E-18
 -1      4073 9.36512E-05-2.71123E-05-2.85029E-05 5.14540E-06 1.62232E-19 1.41620E-18
 -1      4074 9.40069E-05-2.76828E-05-2.84200E-05 5.62420E-06 1.44813E-18-4.92469E-19
 -1      4075 9.23831E-05-2.64556E-05-2.82614E-05 5.59146E-06 7.96610E-19 1.23909E-18
 -1      4076 9.59766E-05-2.55207E-05-3.01996E-05-5.58466E-07 1.25077E-19-9.99838E-20
 -1      4077 9.65327E-05-2.72574E-05-2.96940E-05-3.48437E-08 2.75101E-19-2.78477E-19
 -1      4078 9.63855E-05-2.66850E-05-2.98713E-05 2.25923E-07 1.86780E-19-3.35344E-19
 -1      4079 7.85392E-05-2.26421E-05-2.38361E-05 1.66824E-05 4.45437E-20-5.95579E-19
 -1      4080 7.59806E-05-2.00102E-05-2.40256E-05 1.31224E-05-1.70050E-19-3.28122E-19
 -1      4081 7.91793E-05-2.07231E-05-2.50384E-05 1.14474E-05-4.25864E-19 7.27699E-19
 -1      4082 9.66039E-05-2.89304E-05-2.90021E-05 3.49893E-07 2.69128E-19-3.32193E-19
 -1      4083 9.64796E-05-2.89386E-05-2.89461E-05 3.76129E-07 1.79763E-19-4.54853E-19
 -1      4084 9.63336E-05-2.89067E-05-2.88969E-05 3.74149E-07 1.50153E-19-2.96085E-19
 -1      4085 9.61806E-05-2.88426E-05-2.88589E-05 3.90013E-07 1.95780E-19-3.75089E-19
 -1      4086 9.64367E-05-2.89204E-05-2.89368E-05 2.10600E-07 1.50779E-19-4.92468E-19
 -1      4087 9.60055E-05-2.87458E-05-2.88256E-05 3.86926E-07 2.44345E-19-5.06419E-19
 -1      4088 9.58293E-05-2.86262E-05-2.88013E-05 3.98930E-07 2.29047E-19-4.90688E-19
 -1      4089 9.61156E-05-2.87936E-05-2.88527E-05 2.13135E-07 6.31613E-20-3.98288E-19
 -1      4090 9.56189E-05-2.84693E-05-2.87788E-05 3.92099E-07 2.43107E-19-2.32493E-19
 -1      4091 9.54053E-05-2.82912E-05-2.87637E-05 4.03339E-07 1.99865E-19-1.52278E-19
 -1      4092 9.57344E-05-2.85428E-05-2.87964E-05 2.08316E-07 3.53209E-19-4.44354E-19
 -1      4093 9.51765E-05-2.80953E-05-2.87499E-05 3.93301E-07 3.29828E-19-1.74274E-19
 -1      4094 9.49405E-05-2.78813E-05-2.87411E-05 4.02435E-07 5.28641E-19-2.27664E-19
 -1      4095 9.52977E-05-2.81903E-05-2.87593E-05 1.92884E-07 3.15670E-19 9.90832E-20
 -1      4096 9.46787E-05-2.76436E-05-2.87304E-05 3.84748E-07 4.32905E-19-3.86215E-19
 -1      4097 9.44000E-05-2.73868E-05-2.87227E-05 3.88154E-07 2.16969E-20-3.71892E-19
 -1      4098 9.48115E-05-2.77603E-05-2.87337E-05 1.59836E-07 1.51418E-19-2.58759E-19
 -1      4099 9.40962E-05-2.71077E-05-2.87106E-05 3.54507E-07 5.70639E-20-1.53693E-19
 -1      4100 9.37602E-05-2.68064E-05-2.86991E-05 3.43368E-07 5.00077E-19 7.97207E-20
 -1      4101 9.42507E-05-2.72515E-05-2.87098E-05 9.55871E-08 3.34971E-19 2.74538E-19
 -1      4102 9.34036E-05-2.64857E-05-2.86802E-05 2.80298E-07 6.38574E-19-7.25669E-20
 -1      4103 9.29915E-05-2.61381E-05-2.86588E-05 2.39312E-07 1.63480E-19 8.78501E-20
 -1      4104 9.35957E-05-2.66678E-05-2.86774E-05-2.29297E-08 3.27160E-19 2.88221E-20
 -1      4105 9.25707E-05-2.57769E-05-2.86264E-05 1.26097E-07-1.25720E-20 2.84369E-19
 -1      4106 9.20597E-05-2.53820E-05-2.85871E-05 3.11338E-08 2.92758E-19 4.63858E-19
 -1      4107 9.28242E-05-2.60147E-05-2.86248E-05-2.31642E-07 2.84179E-19-6.74582E-19
 -1      4108 9.15636E-05-2.49854E-05-2.85327E-05-1.62719E-07-1.43151E-19 6.28697E-19
 -1      4109 9.09268E-05-2.45464E-05-2.84647E-05-3.47603E-07-2.38645E-19 3.62663E-19
 -1      4110 9.19135E-05-2.53048E-05-2.85369E-05-5.83887E-07 1.52549E-20-4.82045E-19
 -1      4111 9.03475E-05-2.41266E-05-2.83773E-05-6.65400E-07 1.56161E-19-1.42080E-19
 -1      4112 8.95539E-05-2.36536E-05-2.82656E-05-9.91629E-07 3.30581E-19-3.46780E-19
 -1      4113 9.08442E-05-2.45637E-05-2.83948E-05-1.15602E-06-3.51673E-19-4.39466E-19
 -1      4114 8.88897E-05-2.32352E-05-2.81308E-05-1.49302E-06-2.60009E-19-6.07385E-19
 -1      4115 8.79045E-05-2.27498E-05-2.79549E-05-2.03199E-06-1.13674E-18-1.02432E-18
 -1      4116 8.96058E-05-2.38392E-05-2.81740E-05-2.05400E-06-3.69604E-19-1.13830E-18
 -1      4117 8.71665E-05-2.23771E-05-2.77540E-05-2.79753E-06-1.07424E-18-7.67768E-19
 -1      4118 8.59487E-05-2.19191E-05-2.74853E-05-3.64387E-06-4.68815E-19-7.19867E-19
 -1      4119 8.82060E-05-2.32141E-05-2.78431E-05-3.42091E-06-8.78469E-19-1.41068E-18
 -1      4120 8.51567E-05-2.16449E-05-2.71940E-05-4.78943E-06-1.22507E-19-1.20356E-18
 -1      4121 8.36056E-05-2.12599E-05-2.67934E-05-6.02899E-06-7.81222E-20-1.09692E-18
 -1      4122 8.66876E-05-2.28241E-05-2.73630E-05-5.45361E-06-7.77919E-19-1.47613E-18
 -1      4123 9.67978E-05-2.87765E-05-2.91508E-05 3.02762E-07 9.59752E-20-3.74028E-19
 -1      4124 9.67126E-05-2.88791E-05-2.90719E-05 3.46562E-07 3.38931E-19-3.34024E-19
 -1      4125 9.66920E-05-2.88958E-05-2.90568E-05 1.95904E-07 1.62638E-19-7.69515E-19
 -1      4126 9.53147E-05-2.82457E-05-2.87423E-05-5.85686E-07 4.89408E-19-4.95171E-19
 -1      4127 9.54973E-05-2.84051E-05-2.87554E-05-5.39900E-07 2.20714E-19-4.57353E-19
 -1      4128 9.59549E-05-2.52030E-05-3.03244E-05-8.35375E-08 4.97057E-19-3.88868E-19
 -1      4129 9.60594E-05-2.55069E-05-3.02452E-05-3.22923E-07 2.81068E-19-4.44392E-19
 -1      4130 8.36068E-05-2.15533E-05-2.66615E-05 6.86964E-06-4.57557E-19-2.04003E-18
 -1      4131 8.51487E-05-2.19094E-05-2.71169E-05 5.49869E-06-6.42262E-19-2.58942E-18
 -1      4132 8.66924E-05-2.31594E-05-2.72119E-05 6.78354E-06 2.71150E-21-2.52534E-18
 -1      4133 9.60600E-05-2.57373E-05-3.01447E-05 5.67292E-07 4.02239E-19-3.62709E-19
 -1      4134 9.59571E-05-2.53099E-05-3.02774E-05 4.07323E-07 4.32496E-19-3.78342E-19
 -1      4135 9.62816E-05-2.60171E-05-3.01016E-05 2.00359E-07 3.68306E-19-2.61899E-19
 -1      4136 9.62564E-05-2.63072E-05-2.99781E-05 3.10673E-07 2.25205E-19-3.85208E-19
 -1      4137 9.17965E-05-2.62426E-05-2.80701E-05-5.19414E-06-8.81883E-19-7.00423E-19
 -1      4138 9.16886E-05-2.59813E-05-2.81722E-05-4.51507E-06-7.55312E-19-5.67285E-19
 -1      4139 9.19655E-05-2.59256E-05-2.82860E-05-3.83367E-06-1.39607E-19-3.88898E-19
 -1      4140 9.20331E-05-2.58780E-05-2.83635E-05-3.30836E-06 1.88150E-19-5.12379E-19
 -1      4141 9.10530E-05-2.53492E-05-2.81586E-05-3.98684E-06-3.70505E-19-7.71854E-19
 -1      4142 9.30271E-05-2.87970E-05-2.74797E-05-9.12966E-06-7.47864E-19-2.26258E-19
 -1      4143 9.21727E-05-2.77413E-05-2.76116E-05-8.09559E-06-5.03810E-19-4.62178E-19
 -1      4144 9.51488E-05-3.16218E-05-2.71769E-05-1.14191E-05-4.58789E-19-3.81975E-20
 -1      4145 9.36522E-05-2.99997E-05-2.72786E-05-1.04347E-05-9.11453E-19-2.82001E-19
 -1      4146 9.12763E-05-2.81423E-05-2.71234E-05-1.04050E-05-5.67293E-19-9.41155E-19
 -1      4147 9.30894E-05-3.09271E-05-2.66689E-05-1.35173E-05 2.77685E-19-1.06304E-18
 -1      4148 9.48945E-05-2.78771E-05-2.87199E-05-6.99471E-07 2.75425E-19-1.48552E-19
 -1      4149 9.50913E-05-2.80624E-05-2.87292E-05-6.29912E-07 4.88765E-19-3.31348E-19
 -1      4150 9.51786E-05-2.81116E-05-2.87418E-05-4.19034E-07 3.16261E-19-8.83301E-19
 -1      4151 9.41277E-05-2.79957E-05-2.83267E-05 6.10707E-06 1.66521E-18-8.35761E-19
 -1      4152 9.47574E-05-2.87953E-05-2.82587E-05 6.57217E-06 1.49691E-19-3.53059E-19
 -1      4153 9.30200E-05-2.85377E-05-2.76305E-05 8.91540E-06-4.29938E-19 1.18820E-18
 -1      4154 9.39827E-05-2.97652E-05-2.74799E-05 9.90864E-06-1.22309E-18-1.10879E-20
 -1      4155 9.61006E-05-2.88615E-05-2.88154E-05-7.66893E-07 4.04527E-19-4.71897E-20
 -1      4156 9.62190E-05-2.89057E-05-2.88483E-05-7.41052E-07 1.81997E-19-3.03196E-20
 -1      4157 9.63601E-05-2.89215E-05-2.89033E-05-5.89566E-07 2.67238E-19-3.50688E-20
 -1      4158 9.60805E-05-2.88240E-05-2.88253E-05-6.28516E-07 2.40575E-19 1.38703E-20
 -1      4159 8.23574E-05-2.13801E-05-2.61183E-05-8.65300E-06 5.85214E-20-1.59742E-18
 -1      4160 9.44359E-05-2.74662E-05-2.86989E-05-8.75655E-07-3.89640E-20-7.10177E-20
 -1      4161 9.46464E-05-2.76688E-05-2.87083E-05-7.72366E-07 7.01014E-20 1.65468E-19
 -1      4162 9.47134E-05-2.77023E-05-2.87166E-05-5.32573E-07 9.31690E-20-2.46795E-19
 -1      4163 9.61134E-05-2.57260E-05-3.01624E-05-3.77283E-07 2.47802E-19-3.28017E-19
 -1      4164 9.63043E-05-2.59726E-05-3.01283E-05-7.12154E-09 4.91290E-19-2.23403E-19
 -1      4165 9.38696E-05-2.85214E-05-2.80371E-05 7.36950E-06 4.00595E-19 7.88440E-19
 -1      4166 9.63761E-05-2.62880E-05-3.00298E-05-1.50340E-07 3.06343E-19-3.31054E-19
 -1      4167 9.63904E-05-2.65122E-05-2.99507E-05 1.89305E-07 2.11677E-19-5.27706E-19
 -1      4168 9.32999E-05-2.74202E-05-2.82392E-05 6.20580E-06 6.42521E-19 1.31777E-18
 -1      4169 9.64935E-05-2.65618E-05-2.99740E-05 3.67850E-08 3.44291E-19-1.94560E-19
 -1      4170 9.65226E-05-2.66363E-05-2.99583E-05-3.89979E-08 3.59384E-19-2.38608E-19
 -1      4171 9.28731E-05-2.62289E-05-2.85542E-05-2.05997E-06-5.18144E-19-9.41985E-19
 -1      4172 9.30817E-05-2.63896E-05-2.85905E-05-1.76851E-06-4.59861E-19-9.72358E-19
 -1      4173 1.00401E-04-3.80058E-05-2.67283E-05 1.57840E-05-1.30931E-18-2.28888E-18
 -1      4174 9.67952E-05-2.76821E-05-2.96220E-05 8.35970E-08 2.01334E-19-3.22018E-19
 -1      4175 9.68527E-05-2.80755E-05-2.94789E-05 1.91358E-07 8.64459E-20-2.61072E-19
 -1      4176 9.47681E-05-3.11322E-05-2.72529E-05 1.13059E-05-1.09975E-18-4.50564E-19
 -1      4177 9.65368E-05-3.29494E-05-2.71763E-05 1.21739E-05-7.65128E-19-7.93786E-19
 -1      4178 9.22341E-05-2.92608E-05-2.70499E-05 1.14967E-05-1.12280E-18-5.03502E-19
 -1      4179 9.20543E-05-2.71240E-05-2.77963E-05-6.94960E-06-6.06593E-19-3.96474E-19
 -1      4180 9.16559E-05-2.65352E-05-2.79192E-05-6.10305E-06-6.66309E-19-5.94694E-19
 -1      4181 9.06269E-05-2.55893E-05-2.78811E-05-5.59996E-06-6.69189E-19-8.62826E-19
 -1      4182 9.05936E-05-2.64373E-05-2.75238E-05-7.72972E-06-6.18238E-19-5.61197E-19
 -1      4183 9.34113E-05-2.66059E-05-2.86259E-05-1.51969E-06-4.92189E-19-5.70279E-19
 -1      4184 9.36348E-05-2.68033E-05-2.86485E-05-1.30895E-06-3.64604E-19-2.70364E-19
 -1      4185 9.29979E-05-2.62670E-05-2.85935E-05-1.38429E-06-1.05899E-19-7.29150E-19
 -1      4186 9.66571E-05-2.77356E-05-2.95344E-05-1.80225E-07 2.57556E-19-2.60565E-19
 -1      4187 9.66440E-05-2.73904E-05-2.96799E-05-6.24888E-08 3.04390E-19-4.95915E-19
 -1      4188 9.66923E-05-2.81035E-05-2.93993E-05-3.57971E-07 3.11830E-19-2.03026E-19
 -1      4189 9.39391E-05-2.70330E-05-2.86707E-05-1.13854E-06-1.89381E-20-3.28445E-19
 -1      4190 9.41603E-05-2.72414E-05-2.86845E-05-9.89241E-07 3.26827E-19-1.36699E-20
 -1      4191 9.36241E-05-2.67572E-05-2.86525E-05-9.81479E-07-3.49020E-20-3.31048E-19
 -1      4192 8.06472E-05-2.11479E-05-2.56015E-05 1.00593E-05-5.91211E-19-4.19203E-19
 -1      4193 8.25379E-05-2.13605E-05-2.62449E-05 7.96630E-06-4.36093E-19-1.44236E-18
 -1      4194 8.49088E-05-2.31339E-05-2.64343E-05 9.50616E-06-1.02843E-18-2.76970E-18
 -1      4195 8.21821E-05-2.25755E-05-2.54374E-05 1.22837E-05-8.94983E-19-1.02757E-18
 -1      4196 9.23661E-05-2.59689E-05-2.84446E-05-2.81085E-06-2.90127E-19-6.75170E-19
 -1      4197 9.25295E-05-2.60540E-05-2.84994E-05-2.41542E-06-5.44218E-19-6.14644E-19
 -1      4198 9.23321E-05-2.58176E-05-2.85008E-05-1.97118E-06-5.25420E-19-1.44105E-18
 -1      4199 9.16613E-05-2.54771E-05-2.83607E-05-2.81032E-06-3.88091E-19-1.26157E-18
 -1      4200 9.68823E-05-2.83877E-05-2.93530E-05 2.17447E-07 8.83248E-20-2.99345E-19
 -1      4201 9.68521E-05-2.86149E-05-2.92460E-05 2.88611E-07 1.40845E-20-3.44025E-19
 -1      4202 9.68954E-05-2.81942E-05-2.94443E-05 1.15565E-07 1.79520E-19-6.54619E-19
 -1      4203 9.75833E-05-3.51861E-05-2.67429E-05 1.49600E-05-1.76593E-18-1.44846E-18
 -1      4204 9.36557E-05-3.22437E-05-2.62878E-05 1.57447E-05-2.24882E-18-6.26689E-19
 -1      4205 8.42245E-05-2.60974E-05-2.49218E-05 1.64578E-05-3.81603E-19 5.85654E-19
 -1      4206 9.56992E-05-2.85564E-05-2.87741E-05-5.14869E-07 2.26426E-19-1.20861E-19
 -1      4207 9.58687E-05-2.86810E-05-2.87952E-05-4.85708E-07 2.66417E-19 1.08234E-19
 -1      4208 9.55977E-05-2.84577E-05-2.87742E-05-3.48577E-07 5.24968E-19-7.08086E-19
 -1      4209 8.47015E-05-2.29750E-05-2.64548E-05-9.29662E-06-1.10768E-19-1.66395E-18
 -1      4210 9.68564E-05-2.86710E-05-2.92229E-05 1.65759E-07-1.15070E-20-7.55074E-19
 -1      4211 9.66099E-05-2.89272E-05-2.90066E-05-4.08143E-07 3.03550E-19 3.44175E-19
 -1      4212 9.67090E-05-2.88655E-05-2.90752E-05-3.68974E-07 4.47521E-19 4.04493E-19
 -1      4213 8.80432E-05-2.43335E-05-2.73024E-05 7.51440E-06 2.60765E-19-1.88010E-18
 -1      4214 9.65765E-05-2.69550E-05-2.98301E-05 5.28393E-08 1.88102E-19-5.46866E-19
 -1      4215 9.64537E-05-2.66150E-05-2.99345E-05 1.35391E-07 2.00831E-19-5.05822E-19
 -1      4216 9.64559E-05-2.65185E-05-2.99775E-05 7.97936E-08 2.80070E-19-2.64734E-19
 -1      4217 9.67034E-05-2.74929E-05-2.96669E-05-8.40684E-08 2.25061E-19-3.49692E-19
 -1      4218 9.66808E-05-2.86086E-05-2.91757E-05-5.50862E-07 4.96158E-19 1.51797E-20
 -1      4219 9.67162E-05-2.83974E-05-2.92764E-05-4.43382E-07 4.65878E-19 4.08119E-20
 -1      4220 9.67830E-05-2.81945E-05-2.93961E-05-3.06995E-07 2.39773E-19-6.41396E-20
 -1      4221 9.67426E-05-2.86599E-05-2.91786E-05-4.51908E-07 4.11288E-19 3.23536E-19
 -1      4222 9.66758E-05-2.70816E-05-2.98168E-05 1.08825E-08 1.55680E-19-2.16479E-19
 -1      4223 9.63568E-05-2.89260E-05-2.88980E-05-4.40871E-07 3.26147E-19 5.13795E-20
 -1      4224 9.64847E-05-2.89439E-05-2.89459E-05-4.14216E-07 3.33470E-19 1.91463E-19
 -1      4225 9.65879E-05-2.89297E-05-2.89976E-05-2.54330E-07 4.79021E-19 7.87694E-20
 -1      4226 8.88182E-05-2.80059E-05-2.60323E-05-1.41450E-05 6.21868E-19-1.85539E-18
 -1      4227 9.41966E-05-2.72448E-05-2.86899E-05-7.10538E-07 6.47077E-20-3.83404E-19
 -1      4228 9.24665E-05-2.67391E-05-2.81605E-05 6.08564E-06 7.11948E-19 1.48976E-19
 -1      4229 9.67164E-05-2.72955E-05-2.97460E-05 3.43115E-08 2.06499E-19-2.97132E-19
 -1      4230 9.67880E-05-2.75025E-05-2.96941E-05 2.12610E-08 1.11404E-19-4.78837E-19
 -1      4231 9.65364E-05-2.68146E-05-2.98823E-05-4.14706E-08 3.24698E-19-3.70824E-19
 -1      4232 9.22761E-05-2.71266E-05-2.79207E-05 7.18720E-06 1.69450E-19 1.08421E-18
 -1      4233 9.27776E-05-2.78150E-05-2.78082E-05 7.89739E-06 1.09466E-19 1.05837E-18
 -1      4234 9.12726E-05-2.60709E-05-2.79496E-05 6.50715E-06 6.26320E-19-2.74285E-19
 -1      4235 9.12052E-05-2.71257E-05-2.75001E-05 8.76740E-06-5.68768E-19 1.20929E-18
 -1      4236 8.84142E-05-2.48455E-05-2.72005E-05-7.89061E-06-5.15433E-19-1.41786E-18
 -1      4237 8.75154E-05-2.54266E-05-2.66121E-05-1.05973E-05-2.20971E-19-1.40292E-18
 -1      4238 9.62203E-05-2.88550E-05-2.88703E-05 3.01141E-08 9.22055E-20-4.34139E-19
 -1      4239 9.60438E-05-2.87591E-05-2.88361E-05 3.24438E-08 3.92842E-20-4.14319E-19
 -1      4240 9.58737E-05-2.86522E-05-2.88086E-05-5.78538E-08 4.33389E-19-5.31455E-19
 -1      4241 9.56649E-05-2.85014E-05-2.87851E-05-6.27379E-08 6.15401E-19-3.66549E-19
 -1      4242 9.54611E-05-2.83395E-05-2.87659E-05-8.94848E-08 4.86189E-19-1.63144E-19
 -1      4243 9.52324E-05-2.81512E-05-2.87508E-05-1.02830E-07 2.31364E-19-8.94521E-20
 -1      4244 9.50058E-05-2.79520E-05-2.87371E-05-1.43894E-07 5.48613E-20-1.55809E-19
 -1      4245 9.47443E-05-2.77259E-05-2.87251E-05-1.72141E-07 2.44531E-19-2.15653E-19
 -1      4246 9.44922E-05-2.74954E-05-2.87129E-05-2.36482E-07 1.93769E-19-1.16836E-19
 -1      4247 9.41895E-05-2.72348E-05-2.86994E-05-2.88990E-07 6.29732E-20 4.75399E-20
 -1      4248 9.39088E-05-2.69791E-05-2.86840E-05-3.88399E-07 7.44511E-20-2.27643E-19
 -1      4249 9.35550E-05-2.66878E-05-2.86638E-05-4.80034E-07 7.60858E-20-3.51482E-19
 -1      4250 9.32443E-05-2.64155E-05-2.86402E-05-6.30899E-07 8.38972E-20-3.42656E-19
 -1      4251 9.28287E-05-2.60998E-05-2.86067E-05-7.83888E-07 1.41926E-19-6.02632E-19
 -1      4252 9.24909E-05-2.58251E-05-2.85690E-05-1.00879E-06 1.02108E-19-5.25299E-19
 -1      4253 9.20042E-05-2.54968E-05-2.85143E-05-1.25514E-06-1.54983E-19-6.57593E-19
 -1      4254 9.16501E-05-2.52431E-05-2.84555E-05-1.58454E-06-4.98896E-19-8.08620E-19
 -1      4255 9.10866E-05-2.49232E-05-2.83695E-05-1.96884E-06-5.53354E-19-9.38937E-19
 -1      4256 9.07401E-05-2.47283E-05-2.82817E-05-2.44247E-06-4.98160E-19-7.63900E-19
 -1      4257 9.01018E-05-2.44522E-05-2.81517E-05-3.02496E-06-7.58590E-19-1.39473E-18
 -1      4258 8.98076E-05-2.43748E-05-2.80266E-05-3.69230E-06-7.46392E-19-1.10224E-18
 -1      4259 8.91106E-05-2.41993E-05-2.78367E-05-4.55218E-06-7.53133E-19-1.19188E-18
 -1      4260 8.89474E-05-2.43279E-05-2.76668E-05-5.46744E-06-7.46435E-19-9.54119E-19
 -1      4261 8.82367E-05-2.43429E-05-2.73990E-05-6.72232E-06-4.19707E-19-1.08955E-18
 -1      4262 9.67557E-05-2.74936E-05-2.96866E-05-4.65024E-08 9.21812E-20-2.90095E-19
 -1      4263 9.67901E-05-2.75382E-05-2.96845E-05-2.21164E-08 5.94713E-20-2.51420E-19
 -1      4264 9.68234E-05-2.78696E-05-2.95450E-05-1.33408E-07 1.09511E-19-2.35845E-19
 -1      4265 8.77133E-05-2.54078E-05-2.66773E-05 1.05884E-05-1.42212E-18-8.98149E-19
 -1      4266 8.80257E-05-2.66711E-05-2.63256E-05 1.24622E-05-1.65991E-18-8.45125E-19
 -1      4267 9.67930E-05-2.87939E-05-2.91435E-05-2.20901E-07 2.69480E-19 4.86460E-20
 -1      4268 9.67904E-05-2.87536E-05-2.91593E-05-3.56749E-07 2.92244E-19 2.30258E-19
 -1      4269 9.68452E-05-2.85861E-05-2.92524E-05-2.90312E-07 8.67167E-20 1.00193E-19
 -1      4270 8.80720E-05-2.80804E-05-2.57086E-05 1.52145E-05-1.92101E-18-6.89816E-19
 -1      4271 9.60387E-05-2.87786E-05-2.88247E-05-4.04367E-07 1.48695E-19 2.19629E-19
 -1      4272 9.61938E-05-2.88612E-05-2.88568E-05-3.80555E-07 1.39624E-19 2.44021E-20
 -1      4273 9.65376E-05-2.89476E-05-2.89661E-05-3.57174E-08 2.82426E-19-3.00181E-19
 -1      4274 9.63895E-05-2.89204E-05-2.89153E-05-2.66659E-08 1.34254E-19-2.85934E-19
 -1      4275 9.69097E-05-2.85884E-05-2.92787E-05-3.38123E-08 1.35480E-19-7.68946E-19
 -1      4276 9.68560E-05-2.87614E-05-2.91836E-05-7.82962E-09 5.99105E-20-6.10023E-19
 -1      4277 9.68765E-05-2.78631E-05-2.95711E-05-9.88433E-09 1.25863E-19-4.13281E-19
 -1      4278 9.67732E-05-2.88738E-05-2.90987E-05-3.25162E-08 1.90410E-19-5.14952E-19
 -1      4279 9.66648E-05-2.89331E-05-2.90276E-05-1.78393E-08 3.37329E-19-4.58741E-19
 -1      4280 9.63013E-05-2.88855E-05-2.88933E-05-2.11935E-07 1.05154E-19-3.01424E-19
 -1      4281 9.59634E-05-2.87138E-05-2.88221E-05-2.34083E-07 2.75670E-19-2.35685E-19
 -1      4282 8.79537E-05-2.64975E-05-2.63125E-05-1.23319E-05 1.15253E-19-1.44487E-18
 -1      4283 8.88115E-05-2.55669E-05-2.70720E-05 9.22054E-06-4.96798E-19-7.64725E-19
 -1      4284 9.69166E-05-2.82258E-05-2.94406E-05 1.84475E-08 4.15105E-20-5.56219E-19
 -1      4285 8.86728E-05-2.50088E-05-2.72848E-05 8.06286E-06-2.23020E-19-7.84314E-19
 -1      4286 9.68570E-05-2.82248E-05-2.94160E-05-2.25810E-07 1.75014E-20 3.89469E-20
 -1      4287 9.04565E-05-2.57939E-05-2.77049E-05 7.16435E-06 1.13615E-19 3.69808E-20
 -1      4288 9.68871E-05-2.83172E-05-2.93880E-05-1.35993E-07 6.32816E-21-2.16815E-19
 -1      4289 8.51559E-05-2.56328E-05-2.54310E-05 1.48261E-05-1.37425E-18-3.17115E-19
 -3
    1PSTEP                         4           1           1          
  100CL  101 1.000000000        4289                     0    1           1
 -4  ERROR       1    1
 -5  STR(%)      1    1    0    0
 -1         1 3.22879E+01
 -1         2 2.44643E+01
 -1         3 2.94369E-02
 -1         4 9.18272E-02
 -1         5 1.40422E+01
 -1         6 1.31466E+01
 -1         7 1.31466E+01
 -1         8 3.66216E+00
 -1         9 1.82272E+00
 -1        10 1.28775E+00
 -1        11 1.04521E+00
 -1        12 8.99179E-01
 -1        13 8.08461E-01
 -1        14 7.54159E-01
 -1        15 7.56091E-01
 -1        16 8.12691E-01
 -1        17 9.00010E-01
 -1        18 1.05171E+00
 -1        19 1.30501E+00
 -1        20 1.82923E+00
 -1        21 3.50715E+00
 -1        22 8.64344E+00
 -1        23 1.31466E+01
 -1        24 4.32123E+00
 -1        25 3.34554E+00
 -1        26 2.11680E+00
 -1        27 1.36901E+00
 -1        28 1.02018E+00
 -1        29 7.83080E-01
 -1        30 6.05815E-01
 -1        31 4.68962E-01
 -1        32 3.62906E-01
 -1        33 2.87617E-01
 -1        34 2.29136E-01
 -1        35 1.85019E-01
 -1        36 1.53320E-01
 -1        37 1.37585E-01
 -1        38 1.51605E-01
 -1        39 1.88795E-01
 -1        40 2.58255E-01
 -1        41 3.31701E-01
 -1        42 4.45659E-01
 -1        43 5.97474E-01
 -1        44 7.91561E-01
 -1        45 1.02525E+00
 -1        46 1.32540E+00
 -1        47 1.81736E+00
 -1        48 2.37088E+00
 -1        49 3.10076E+00
 -1        50 3.63118E+00
 -1        51 3.63118E+00
 -1        52 3.35341E+00
 -1        53 4.12717E+00
 -1        54 9.14788E+00
 -1        55 1.00806E+01
 -1        56 1.00806E+01
 -1        57 9.63637E+00
 -1        58 4.58023E+00
 -1        59 3.38098E+00
 -1        60 3.65333E+00
 -1        61 3.65333E+00
 -1        62 3.16534E+00
 -1        63 2.41876E+00
 -1        64 1.85651E+00
 -1        65 1.35331E+00
 -1        66 1.10848E+00
 -1        67 8.78618E-01
 -1        68 6.79998E-01
 -1        69 5.07385E-01
 -1        70 4.02468E-01
 -1        71 2.86485E-01
 -1        72 1.40422E+01
 -1        73 3.39839E+00
 -1        74 2.42100E+00
 -1        75 1.67157E+00
 -1        76 1.15240E+00
 -1        77 9.11161E-01
 -1        78 7.38217E-01
 -1        79 5.97256E-01
 -1        80 4.81214E-01
 -1        81 3.86374E-01
 -1        82 3.13343E-01
 -1        83 2.57273E-01
 -1        84 2.13103E-01
 -1        85 1.79939E-01
 -1        86 1.57164E-01
 -1        87 1.46202E-01
 -1        88 1.45036E-01
 -1        89 1.63558E-01
 -1        90 1.82380E-01
 -1        91 1.96392E-01
 -1        92 2.03308E-01
 -1        93 2.07216E-01
 -1        94 2.71187E-01
 -1        95 3.24180E-01
 -1        96 3.99510E-01
 -1        97 5.40505E-01
 -1        98 6.29081E-01
 -1        99 7.91147E-01
 -1       100 9.69543E-01
 -1       101 1.07119E+00
 -1       102 1.59359E+00
 -1       103 1.96216E+00
 -1       104 2.04686E+00
 -1       105 2.31559E+00
 -1       106 2.31559E+00
 -1       107 2.21470E+00
 -1       108 1.80015E+00
 -1       109 1.28183E+00
 -1       110 7.96100E-01
 -1       111 5.40663E-01
 -1       112 3.31998E-01
 -1       113 3.73872E-01
 -1       114 3.73872E-01
 -1       115 3.71822E-01
 -1       116 3.17251E-01
 -1       117 2.43641E-01
 -1       118 2.24470E-01
 -1       119 1.68517E-01
 -1       120 1.05664E-01
 -1       121 4.92298E-02
 -1       122 4.92298E-02
 -1       123 4.60536E-02
 -1       124 3.18143E-02
 -1       125 1.58617E-02
 -1       126 2.41218E-02
 -1       127 4.38799E-02
 -1       128 6.06297E-02
 -1       129 6.99148E-02
 -1       130 6.99148E-02
 -1       131 6.87932E-02
 -1       132 5.45420E-02
 -1       133 2.52312E-02
 -1       134 6.90931E-02
 -1       135 7.15048E-02
 -1       136 7.15048E-02
 -1       137 2.44643E+01
 -1       138 4.62410E+01
 -1       139 4.62410E+01
 -1       140 1.82084E+01
 -1       141 1.18228E+01
 -1       142 1.21049E+01
 -1       143 1.21049E+01
 -1       144 1.32662E+01
 -1       145 1.32662E+01
 -1       146 1.26448E+01
 -1       147 3.01556E+01
 -1       148 3.13647E+01
 -1       149 2.86590E+01
 -1       150 2.47817E+01
 -1       151 2.68423E+01
 -1       152 2.78040E+01
 -1       153 3.22879E+01
 -1       154 1.41176E+01
 -1       155 1.26299E+01
 -1       156 1.26299E+01
 -1       157 1.26506E+01
 -1       158 1.26506E+01
 -1       159 1.28262E+01
 -1       160 2.62255E+01
 -1       161 2.96916E+01
 -1       162 2.96916E+01
 -1       163 2.51270E+01
 -1       164 6.07639E+00
 -1       165 2.29675E+00
 -1       166 1.50612E+00
 -1       167 1.15674E+00
 -1       168 9.72753E-01
 -1       169 8.64176E-01
 -1       170 7.95999E-01
 -1       171 7.56091E-01
 -1       172 7.99382E-01
 -1       173 8.66753E-01
 -1       174 9.80211E-01
 -1       175 1.17044E+00
 -1       176 1.52573E+00
 -1       177 2.25766E+00
 -1       178 3.93254E+00
 -1       179 1.40422E+01
 -1       180 4.32123E+00
 -1       181 3.34554E+00
 -1       182 2.11680E+00
 -1       183 1.45245E+00
 -1       184 1.03165E+00
 -1       185 7.83080E-01
 -1       186 6.05815E-01
 -1       187 4.79126E-01
 -1       188 3.82104E-01
 -1       189 3.03739E-01
 -1       190 2.47866E-01
 -1       191 2.02017E-01
 -1       192 1.64369E-01
 -1       193 1.37585E-01
 -1       194 1.34328E-01
 -1       195 1.56151E-01
 -1       196 2.08003E-01
 -1       197 2.60518E-01
 -1       198 3.43106E-01
 -1       199 4.84571E-01
 -1       200 7.02407E-01
 -1       201 9.93702E-01
 -1       202 1.36430E+00
 -1       203 1.79855E+00
 -1       204 2.23787E+00
 -1       205 2.58229E+00
 -1       206 3.10076E+00
 -1       207 3.63118E+00
 -1       208 3.35341E+00
 -1       209 3.05848E+00
 -1       210 4.82528E+00
 -1       211 9.14788E+00
 -1       212 1.00806E+01
 -1       213 9.63637E+00
 -1       214 5.21103E+00
 -1       215 2.93735E+00
 -1       216 3.38098E+00
 -1       217 3.65333E+00
 -1       218 3.16534E+00
 -1       219 2.60877E+00
 -1       220 2.25360E+00
 -1       221 1.81005E+00
 -1       222 1.36017E+00
 -1       223 9.67313E-01
 -1       224 6.79998E-01
 -1       225 5.07385E-01
 -1       226 4.02468E-01
 -1       227 2.86485E-01
 -1       228 1.21063E-01
 -1       229 3.39839E+00
 -1       230 2.42100E+00
 -1       231 1.67157E+00
 -1       232 1.15240E+00
 -1       233 9.11161E-01
 -1       234 7.38217E-01
 -1       235 5.97256E-01
 -1       236 4.81214E-01
 -1       237 3.86374E-01
 -1       238 3.13343E-01
 -1       239 2.57273E-01
 -1       240 2.13103E-01
 -1       241 1.79939E-01
 -1       242 1.57164E-01
 -1       243 1.46202E-01
 -1       244 1.41241E-01
 -1       245 1.45036E-01
 -1       246 1.63558E-01
 -1       247 1.84261E-01
 -1       248 2.21143E-01
 -1       249 2.60838E-01
 -1       250 2.84209E-01
 -1       251 2.84209E-01
 -1       252 3.24180E-01
 -1       253 3.99510E-01
 -1       254 5.40505E-01
 -1       255 6.29081E-01
 -1       256 9.46426E-01
 -1       257 1.30915E+00
 -1       258 1.63574E+00
 -1       259 1.78861E+00
 -1       260 1.96216E+00
 -1       261 2.04686E+00
 -1       262 2.31559E+00
 -1       263 2.21470E+00
 -1       264 1.80015E+00
 -1       265 1.28183E+00
 -1       266 8.51587E-01
 -1       267 5.40663E-01
 -1       268 3.31998E-01
 -1       269 3.23309E-01
 -1       270 3.73872E-01
 -1       271 3.71822E-01
 -1       272 3.17251E-01
 -1       273 2.43641E-01
 -1       274 2.24470E-01
 -1       275 1.68517E-01
 -1       276 1.05664E-01
 -1       277 8.44760E-02
 -1       278 8.44760E-02
 -1       279 7.39037E-02
 -1       280 5.00227E-02
 -1       281 3.68692E-02
 -1       282 7.40607E-02
 -1       283 1.07373E-01
 -1       284 1.29641E-01
 -1       285 1.33634E-01
 -1       286 1.33634E-01
 -1       287 1.28605E-01
 -1       288 9.78865E-02
 -1       289 9.33506E-02
 -1       290 2.11777E-01
 -1       291 2.11777E-01
 -1       292 2.88193E+01
 -1       293 2.76670E+01
 -1       294 4.62410E+01
 -1       295 1.94574E+01
 -1       296 1.10963E+01
 -1       297 1.18228E+01
 -1       298 1.21049E+01
 -1       299 1.15955E+01
 -1       300 1.32662E+01
 -1       301 1.21713E+01
 -1       302 1.26448E+01
 -1       303 3.13647E+01
 -1       304 3.65654E+01
 -1       305 3.65654E+01
 -1       306 2.89541E+01
 -1       307 2.89541E+01
 -1       308 3.15444E+01
 -1       309 3.22879E+01
 -1       310 1.41176E+01
 -1       311 1.21209E+01
 -1       312 1.26299E+01
 -1       313 1.23446E+01
 -1       314 1.26506E+01
 -1       315 1.24597E+01
 -1       316 1.28262E+01
 -1       317 2.82918E+01
 -1       318 3.41994E+01
 -1       319 3.41994E+01
 -1       320 2.88193E+01
 -1       321 1.04582E+00
 -1       322 2.47807E+00
 -1       323 7.94178E-01
 -1       324 6.94224E-01
 -1       325 6.31415E-01
 -1       326 5.87476E-01
 -1       327 5.90622E-01
 -1       328 6.34048E-01
 -1       329 7.00448E-01
 -1       330 7.95386E-01
 -1       331 9.29278E-01
 -1       332 1.14252E+00
 -1       333 1.32742E+00
 -1       334 2.19812E+00
 -1       335 1.91458E+00
 -1       336 1.73335E+00
 -1       337 1.27216E+00
 -1       338 9.12611E-01
 -1       339 6.62361E-01
 -1       340 5.46367E-01
 -1       341 4.51383E-01
 -1       342 3.68469E-01
 -1       343 3.02344E-01
 -1       344 2.48006E-01
 -1       345 2.02202E-01
 -1       346 1.64369E-01
 -1       347 1.35028E-01
 -1       348 1.17166E-01
 -1       349 1.28465E-01
 -1       350 1.56151E-01
 -1       351 2.08003E-01
 -1       352 3.04106E-01
 -1       353 4.43204E-01
 -1       354 6.31407E-01
 -1       355 8.82038E-01
 -1       356 1.20618E+00
 -1       357 1.60532E+00
 -1       358 2.05757E+00
 -1       359 2.49946E+00
 -1       360 2.81391E+00
 -1       361 3.27491E+00
 -1       362 4.05932E+00
 -1       363 4.80027E+00
 -1       364 5.34098E+00
 -1       365 4.75523E+00
 -1       366 9.20480E+00
 -1       367 8.06030E+00
 -1       368 5.30936E+00
 -1       369 4.33941E+00
 -1       370 4.80336E+00
 -1       371 4.06818E+00
 -1       372 3.25573E+00
 -1       373 2.76830E+00
 -1       374 2.47036E+00
 -1       375 2.03484E+00
 -1       376 1.57879E+00
 -1       377 1.16886E+00
 -1       378 8.30735E-01
 -1       379 5.66703E-01
 -1       380 3.68526E-01
 -1       381 2.46950E-01
 -1       382 1.13931E+00
 -1       383 8.20534E-01
 -1       384 6.37567E-01
 -1       385 5.25162E-01
 -1       386 4.27593E-01
 -1       387 3.46142E-01
 -1       388 2.82836E-01
 -1       389 2.29164E-01
 -1       390 1.84154E-01
 -1       391 1.46958E-01
 -1       392 1.16645E-01
 -1       393 1.07131E-01
 -1       394 1.15654E-01
 -1       395 1.27977E-01
 -1       396 1.42562E-01
 -1       397 1.60625E-01
 -1       398 1.90808E-01
 -1       399 2.23332E-01
 -1       400 2.60838E-01
 -1       401 2.84209E-01
 -1       402 2.75196E-01
 -1       403 2.37453E-01
 -1       404 2.30983E-01
 -1       405 4.60301E-01
 -1       406 7.11543E-01
 -1       407 1.03715E+00
 -1       408 1.30915E+00
 -1       409 1.63574E+00
 -1       410 1.78861E+00
 -1       411 1.73018E+00
 -1       412 1.78358E+00
 -1       413 1.69285E+00
 -1       414 1.41128E+00
 -1       415 1.11502E+00
 -1       416 8.01953E-01
 -1       417 5.39393E-01
 -1       418 3.07580E-01
 -1       419 1.93763E-01
 -1       420 2.32050E-01
 -1       421 2.38404E-01
 -1       422 2.02758E-01
 -1       423 1.95559E-01
 -1       424 1.88075E-01
 -1       425 1.55033E-01
 -1       426 1.16428E-01
 -1       427 8.69250E-02
 -1       428 1.55033E-01
 -1       429 6.38796E-02
 -1       430 8.57060E-02
 -1       431 1.35587E-01
 -1       432 1.75299E-01
 -1       433 1.92263E-01
 -1       434 1.99982E-01
 -1       435 1.99982E-01
 -1       436 1.88754E-01
 -1       437 1.35864E-01
 -1       438 1.84899E-01
 -1       439 1.36178E+00
 -1       440 2.76670E+01
 -1       441 9.12420E+00
 -1       442 3.77837E+01
 -1       443 1.58850E+01
 -1       444 9.09651E-01
 -1       445 7.79547E+00
 -1       446 9.48453E+00
 -1       447 1.10130E+01
 -1       448 1.08284E+01
 -1       449 7.94384E+00
 -1       450 6.60493E+00
 -1       451 1.20786E+01
 -1       452 2.16409E+01
 -1       453 3.65654E+01
 -1       454 3.55437E+01
 -1       455 3.55437E+01
 -1       456 2.58183E+01
 -1       457 2.23095E+01
 -1       458 1.27716E+01
 -1       459 7.44105E+00
 -1       460 9.14274E+00
 -1       461 1.03684E+01
 -1       462 1.14201E+01
 -1       463 9.80554E+00
 -1       464 6.48922E+00
 -1       465 1.13999E+01
 -1       466 1.99633E+01
 -1       467 3.41994E+01
 -1       468 3.77837E+01
 -1       469 2.93266E+01
 -1       470 2.58183E+01
 -1       471 8.69114E+00
 -1       472 4.85833E-01
 -1       473 5.13582E-01
 -1       474 4.31380E-01
 -1       475 4.57069E-01
 -1       476 4.86442E-01
 -1       477 5.10099E-01
 -1       478 5.10099E-01
 -1       479 5.02683E-01
 -1       480 6.38447E-01
 -1       481 1.31683E+00
 -1       482 8.03712E-01
 -1       483 1.21730E+01
 -1       484 8.55062E+00
 -1       485 7.06147E-01
 -1       486 5.93285E-01
 -1       487 4.81203E-01
 -1       488 3.82631E-01
 -1       489 3.31357E-01
 -1       490 2.82760E-01
 -1       491 2.36847E-01
 -1       492 1.95741E-01
 -1       493 1.60090E-01
 -1       494 1.29562E-01
 -1       495 1.03113E-01
 -1       496 9.44285E-02
 -1       497 1.11706E-01
 -1       498 1.61149E-01
 -1       499 2.44389E-01
 -1       500 3.53935E-01
 -1       501 4.99177E-01
 -1       502 6.91879E-01
 -1       503 9.46609E-01
 -1       504 1.28121E+00
 -1       505 1.71740E+00
 -1       506 2.28070E+00
 -1       507 2.98880E+00
 -1       508 3.83904E+00
 -1       509 4.96712E+00
 -1       510 7.14887E+00
 -1       511 6.80394E+00
 -1       512 6.88546E+00
 -1       513 7.87599E+00
 -1       514 6.82979E+00
 -1       515 4.87611E+00
 -1       516 3.84995E+00
 -1       517 2.97531E+00
 -1       518 2.26199E+00
 -1       519 1.69298E+00
 -1       520 1.24612E+00
 -1       521 8.99381E-01
 -1       522 6.33060E-01
 -1       523 4.28087E-01
 -1       524 2.85869E-01
 -1       525 4.49046E-01
 -1       526 5.66502E-01
 -1       527 6.95803E-01
 -1       528 3.74159E-01
 -1       529 3.20592E-01
 -1       530 2.68784E-01
 -1       531 2.21681E-01
 -1       532 1.80534E-01
 -1       533 1.45223E-01
 -1       534 1.14633E-01
 -1       535 8.83040E-02
 -1       536 8.74637E-02
 -1       537 9.61234E-02
 -1       538 1.06620E-01
 -1       539 1.39788E-01
 -1       540 1.70683E-01
 -1       541 2.01224E-01
 -1       542 2.20072E-01
 -1       543 2.34640E-01
 -1       544 2.33032E-01
 -1       545 2.70088E-01
 -1       546 3.23099E-01
 -1       547 4.17087E-01
 -1       548 6.16716E-01
 -1       549 8.45096E-01
 -1       550 1.07870E+00
 -1       551 1.20790E+00
 -1       552 1.31893E+00
 -1       553 1.29249E+00
 -1       554 1.26363E+00
 -1       555 1.32191E+00
 -1       556 1.25030E+00
 -1       557 1.12567E+00
 -1       558 9.24507E-01
 -1       559 6.90506E-01
 -1       560 4.99939E-01
 -1       561 3.37559E-01
 -1       562 2.89959E-01
 -1       563 2.34668E-01
 -1       564 1.86628E-01
 -1       565 1.73311E-01
 -1       566 1.48970E-01
 -1       567 1.55033E-01
 -1       568 1.14240E-01
 -1       569 1.53656E-01
 -1       570 1.53656E-01
 -1       571 2.93266E+01
 -1       572 1.46503E-01
 -1       573 2.10121E-01
 -1       574 2.52834E-01
 -1       575 2.54739E-01
 -1       576 2.87229E-01
 -1       577 2.87229E-01
 -1       578 2.54404E-01
 -1       579 2.07914E-01
 -1       580 8.73480E-01
 -1       581 4.91856E+00
 -1       582 3.77837E+01
 -1       583 2.38740E+01
 -1       584 9.45085E+00
 -1       585 5.50739E+00
 -1       586 4.57035E-01
 -1       587 7.34871E+00
 -1       588 4.04019E+00
 -1       589 8.73391E+00
 -1       590 1.58107E+01
 -1       591 5.60262E+00
 -1       592 1.41585E+01
 -1       593 2.56805E+01
 -1       594 3.55437E+01
 -1       595 6.08376E+00
 -1       596 1.01287E+01
 -1       597 4.40055E+00
 -1       598 1.02759E+01
 -1       599 1.52606E+01
 -1       600 1.88513E+01
 -1       601 5.30649E-01
 -1       602 7.47603E-01
 -1       603 1.68818E+01
 -1       604 6.33019E-01
 -1       605 1.79229E+01
 -1       606 9.19344E+00
 -1       607 1.67288E+01
 -1       608 5.59275E+00
 -1       609 2.27606E+01
 -1       610 3.58225E-01
 -1       611 3.42877E-01
 -1       612 3.60932E-01
 -1       613 3.39760E-01
 -1       614 5.93659E-01
 -1       615 3.19471E+00
 -1       616 1.90186E-01
 -1       617 4.00309E-01
 -1       618 3.87427E-01
 -1       619 3.46144E-01
 -1       620 2.95911E-01
 -1       621 2.45025E-01
 -1       622 2.12046E-01
 -1       623 1.79879E-01
 -1       624 1.48843E-01
 -1       625 1.18976E-01
 -1       626 9.00299E-02
 -1       627 6.08362E-02
 -1       628 6.61241E-02
 -1       629 1.08310E-01
 -1       630 1.69240E-01
 -1       631 2.45617E-01
 -1       632 3.60968E-01
 -1       633 5.30891E-01
 -1       634 7.64282E-01
 -1       635 1.08236E+00
 -1       636 1.50972E+00
 -1       637 2.10224E+00
 -1       638 2.89578E+00
 -1       639 4.15644E+00
 -1       640 8.41386E+00
 -1       641 1.16533E+01
 -1       642 5.30649E-01
 -1       643 6.82979E+00
 -1       644 4.97071E+00
 -1       645 3.95534E+00
 -1       646 2.86797E+00
 -1       647 2.07270E+00
 -1       648 1.46304E+00
 -1       649 1.02332E+00
 -1       650 6.92125E-01
 -1       651 4.47168E-01
 -1       652 2.96789E-01
 -1       653 3.90281E-01
 -1       654 3.36221E-01
 -1       655 4.32479E-01
 -1       656 2.37465E-01
 -1       657 2.03514E-01
 -1       658 1.70103E-01
 -1       659 1.38193E-01
 -1       660 1.08364E-01
 -1       661 8.04944E-02
 -1       662 5.66792E-02
 -1       663 6.31985E-02
 -1       664 8.20400E-02
 -1       665 1.17571E-01
 -1       666 1.53274E-01
 -1       667 1.88872E-01
 -1       668 2.18973E-01
 -1       669 2.55663E-01
 -1       670 2.90961E-01
 -1       671 3.10754E-01
 -1       672 4.14700E-01
 -1       673 5.27823E-01
 -1       674 6.16716E-01
 -1       675 8.37357E-01
 -1       676 1.03005E+00
 -1       677 1.12616E+00
 -1       678 1.29271E+00
 -1       679 1.43988E+00
 -1       680 1.29671E+00
 -1       681 1.43421E+00
 -1       682 1.36910E+00
 -1       683 1.15993E+00
 -1       684 1.04953E+00
 -1       685 9.18867E-01
 -1       686 6.90506E-01
 -1       687 5.49345E-01
 -1       688 4.42674E-01
 -1       689 3.30073E-01
 -1       690 2.49027E-01
 -1       691 2.54363E-01
 -1       692 2.57232E-01
 -1       693 1.90186E-01
 -1       694 2.19984E-01
 -1       695 9.79249E+00
 -1       696 1.91085E-01
 -1       697 3.42199E-01
 -1       698 3.63921E-01
 -1       699 3.97236E-01
 -1       700 3.97236E-01
 -1       701 7.18392E+00
 -1       702 1.30258E+01
 -1       703 5.20863E+00
 -1       704 3.02643E-01
 -1       705 8.29563E+00
 -1       706 7.83806E+00
 -1       707 4.02404E-01
 -1       708 3.11306E+00
 -1       709 5.08000E+00
 -1       710 4.52793E+00
 -1       711 1.37733E+01
 -1       712 3.60932E-01
 -1       713 5.55007E+00
 -1       714 1.28383E+01
 -1       715 3.58481E-01
 -1       716 2.79916E-01
 -1       717 1.68972E+01
 -1       718 5.97545E+00
 -1       719 3.42545E-01
 -1       720 4.22353E+00
 -1       721 3.77112E-01
 -1       722 1.00997E+01
 -1       723 3.75352E-01
 -1       724 4.19028E-01
 -1       725 1.30258E+01
 -1       726 4.44079E+00
 -1       727 2.91866E+00
 -1       728 3.57437E-01
 -1       729 1.39141E+01
 -1       730 7.00145E+00
 -1       731 2.41520E-01
 -1       732 2.79209E+00
 -1       733 3.87635E+00
 -1       734 2.57348E-01
 -1       735 2.49704E-01
 -1       736 2.26667E-01
 -1       737 1.96304E-01
 -1       738 1.68757E-01
 -1       739 1.44229E-01
 -1       740 1.17058E-01
 -1       741 8.85933E-02
 -1       742 5.91625E-02
 -1       743 5.92354E-02
 -1       744 8.36283E-02
 -1       745 1.41426E-01
 -1       746 2.20506E-01
 -1       747 3.26152E-01
 -1       748 4.69133E-01
 -1       749 6.64714E-01
 -1       750 9.35360E-01
 -1       751 1.31628E+00
 -1       752 1.86685E+00
 -1       753 2.68337E+00
 -1       754 3.90214E+00
 -1       755 8.41386E+00
 -1       756 4.01783E+00
 -1       757 5.41806E+00
 -1       758 3.95534E+00
 -1       759 2.69279E+00
 -1       760 1.85629E+00
 -1       761 1.28743E+00
 -1       762 8.88492E-01
 -1       763 6.75862E-01
 -1       764 2.70878E-01
 -1       765 2.70387E-01
 -1       766 1.62400E-01
 -1       767 1.86166E-01
 -1       768 1.06431E-01
 -1       769 7.71723E-02
 -1       770 4.74546E-02
 -1       771 3.53449E-02
 -1       772 5.57716E-02
 -1       773 9.11869E-02
 -1       774 1.31688E-01
 -1       775 1.74937E-01
 -1       776 2.18614E-01
 -1       777 2.59181E-01
 -1       778 3.19857E-01
 -1       779 3.91365E-01
 -1       780 4.54398E-01
 -1       781 5.90852E-01
 -1       782 7.87433E-01
 -1       783 9.27340E-01
 -1       784 1.04106E+00
 -1       785 1.36770E+00
 -1       786 1.31473E+00
 -1       787 1.69443E+00
 -1       788 1.77496E+00
 -1       789 1.81019E+00
 -1       790 1.83599E+00
 -1       791 1.36910E+00
 -1       792 1.34696E+00
 -1       793 1.17341E+00
 -1       794 9.41555E-01
 -1       795 8.22003E-01
 -1       796 6.33584E-01
 -1       797 4.44884E-01
 -1       798 3.65716E-01
 -1       799 2.56337E-01
 -1       800 5.02764E-01
 -1       801 6.06061E-01
 -1       802 4.52905E-01
 -1       803 9.24992E+00
 -1       804 4.19983E-01
 -1       805 1.08315E+01
 -1       806 4.29281E+00
 -1       807 1.35137E-01
 -1       808 1.01569E+01
 -1       809 3.34017E+00
 -1       810 2.88386E-01
 -1       811 2.57232E-01
 -1       812 2.34861E-01
 -1       813 3.26468E+00
 -1       814 6.31031E+00
 -1       815 3.14483E-01
 -1       816 9.52402E+00
 -1       817 6.23597E+00
 -1       818 2.94444E+00
 -1       819 2.81899E-01
 -1       820 2.90427E+00
 -1       821 3.63211E+00
 -1       822 2.50575E-01
 -1       823 2.20178E-01
 -1       824 7.00005E+00
 -1       825 3.35008E-01
 -1       826 2.82282E-01
 -1       827 6.14722E+00
 -1       828 2.20259E-01
 -1       829 2.29511E-01
 -1       830 4.61731E+00
 -1       831 2.79178E-01
 -1       832 2.24354E-01
 -1       833 2.64141E-01
 -1       834 2.88386E-01
 -1       835 2.88956E-01
 -1       836 8.05552E+00
 -1       837 5.98118E-02
 -1       838 1.82252E-01
 -1       839 1.73389E-01
 -1       840 1.55255E-01
 -1       841 1.33710E-01
 -1       842 1.16101E-01
 -1       843 9.51557E-02
 -1       844 7.23075E-02
 -1       845 7.77839E-02
 -1       846 8.34295E-02
 -1       847 1.19466E-01
 -1       848 1.80981E-01
 -1       849 2.60397E-01
 -1       850 3.64168E-01
 -1       851 5.01410E-01
 -1       852 6.86014E-01
 -1       853 9.40883E-01
 -1       854 1.31059E+00
 -1       855 1.89381E+00
 -1       856 2.82175E+00
 -1       857 6.15864E+00
 -1       858 1.49608E-01
 -1       859 4.16406E+00
 -1       860 7.51213E+00
 -1       861 3.04299E+00
 -1       862 1.94742E+00
 -1       863 1.33138E+00
 -1       864 9.36933E-01
 -1       865 6.88529E-01
 -1       866 1.43407E-01
 -1       867 6.22351E-02
 -1       868 8.69350E-02
 -1       869 5.92057E-02
 -1       870 8.69878E-02
 -1       871 1.21502E-01
 -1       872 1.59485E-01
 -1       873 2.03447E-01
 -1       874 2.64927E-01
 -1       875 3.34916E-01
 -1       876 4.16016E-01
 -1       877 5.40902E-01
 -1       878 6.76433E-01
 -1       879 7.94183E-01
 -1       880 1.11566E+00
 -1       881 1.36408E+00
 -1       882 1.60449E+00
 -1       883 2.94444E+00
 -1       884 2.45461E+00
 -1       885 2.47930E+00
 -1       886 3.31497E+00
 -1       887 2.06301E+00
 -1       888 1.87684E+00
 -1       889 1.51094E+00
 -1       890 1.36292E+00
 -1       891 1.16568E+00
 -1       892 8.65627E-01
 -1       893 6.79273E-01
 -1       894 5.45377E-01
 -1       895 4.81488E-01
 -1       896 2.94444E+00
 -1       897 2.79209E+00
 -1       898 5.87312E-01
 -1       899 6.69989E+00
 -1       900 5.87312E-01
 -1       901 1.73891E-01
 -1       902 2.50833E+00
 -1       903 1.34581E-01
 -1       904 2.88956E-01
 -1       905 1.75271E-01
 -1       906 2.06301E+00
 -1       907 3.35914E+00
 -1       908 4.51190E-01
 -1       909 5.21962E-01
 -1       910 2.82776E+00
 -1       911 1.31020E-01
 -1       912 2.50833E+00
 -1       913 4.66131E+00
 -1       914 2.16197E-01
 -1       915 1.71980E-01
 -1       916 7.79925E+00
 -1       917 3.39582E-01
 -1       918 1.30355E-01
 -1       919 2.45461E+00
 -1       920 2.47930E+00
 -1       921 5.47337E+00
 -1       922 2.31487E+00
 -1       923 4.04679E+00
 -1       924 2.03515E-01
 -1       925 3.40253E+00
 -1       926 1.91290E-01
 -1       927 1.09941E-01
 -1       928 3.20450E-01
 -1       929 1.76425E-01
 -1       930 5.73322E+00
 -1       931 2.16197E-01
 -1       932 3.95226E+00
 -1       933 2.18925E-01
 -1       934 1.32784E-01
 -1       935 1.21685E-01
 -1       936 1.05375E-01
 -1       937 9.26857E-02
 -1       938 8.02874E-02
 -1       939 8.79532E-02
 -1       940 9.11939E-02
 -1       941 1.05074E-01
 -1       942 1.34635E-01
 -1       943 1.86699E-01
 -1       944 2.50397E-01
 -1       945 3.43131E-01
 -1       946 4.80724E-01
 -1       947 6.76158E-01
 -1       948 9.54496E-01
 -1       949 1.35257E+00
 -1       950 1.97988E+00
 -1       951 3.86768E+00
 -1       952 4.80349E+00
 -1       953 2.10192E+00
 -1       954 1.43210E+00
 -1       955 1.01389E+00
 -1       956 6.35111E-01
 -1       957 7.72013E-02
 -1       958 7.94851E-02
 -1       959 7.59805E-02
 -1       960 1.21502E-01
 -1       961 1.59485E-01
 -1       962 2.03858E-01
 -1       963 2.61010E-01
 -1       964 3.28168E-01
 -1       965 4.46002E-01
 -1       966 5.88225E-01
 -1       967 7.38060E-01
 -1       968 9.81647E-01
 -1       969 1.24728E+00
 -1       970 2.22311E+00
 -1       971 1.91903E+00
 -1       972 1.86476E+00
 -1       973 1.36292E+00
 -1       974 1.29427E+00
 -1       975 1.03659E+00
 -1       976 7.78051E-01
 -1       977 5.93312E-01
 -1       978 2.18925E-01
 -1       979 1.84316E-01
 -1       980 3.52761E+00
 -1       981 8.69878E-02
 -1       982 1.87626E-01
 -1       983 5.35903E+00
 -1       984 8.38522E-01
 -1       985 1.50874E-01
 -1       986 6.51703E-01
 -1       987 1.23640E-01
 -1       988 9.11141E-02
 -1       989 3.32097E+00
 -1       990 3.03583E-01
 -1       991 1.35072E-01
 -1       992 1.86476E+00
 -1       993 1.61056E-01
 -1       994 4.54557E+00
 -1       995 1.18862E-01
 -1       996 1.54038E-01
 -1       997 1.33816E-01
 -1       998 1.87684E+00
 -1       999 3.86768E+00
 -1      1000 4.81488E-01
 -1      1001 3.15545E+00
 -1      1002 2.84680E+00
 -1      1003 8.82753E-02
 -1      1004 5.53847E-01
 -1      1005 2.26000E+00
 -1      1006 1.17325E-01
 -1      1007 1.38195E-01
 -1      1008 1.01072E-01
 -1      1009 1.03715E-01
 -1      1010 1.38260E-01
 -1      1011 4.02216E+00
 -1      1012 9.44386E-02
 -1      1013 8.31333E-02
 -1      1014 8.41910E-02
 -1      1015 9.06769E-02
 -1      1016 9.11939E-02
 -1      1017 1.05111E-01
 -1      1018 1.32199E-01
 -1      1019 1.70590E-01
 -1      1020 2.23750E-01
 -1      1021 2.95988E-01
 -1      1022 3.92589E-01
 -1      1023 5.19810E-01
 -1      1024 6.84734E-01
 -1      1025 1.03108E+00
 -1      1026 1.61936E+00
 -1      1027 1.01389E+00
 -1      1028 9.19876E-02
 -1      1029 1.01317E-01
 -1      1030 8.73074E-02
 -1      1031 2.03858E-01
 -1      1032 1.54949E-01
 -1      1033 3.35268E-01
 -1      1034 4.42055E-01
 -1      1035 5.82682E-01
 -1      1036 8.31632E-01
 -1      1037 1.14324E+00
 -1      1038 1.47586E+00
 -1      1039 2.31002E+00
 -1      1040 1.61056E-01
 -1      1041 2.71929E+00
 -1      1042 1.17157E+00
 -1      1043 8.80791E-01
 -1      1044 1.00301E-01
 -1      1045 2.60256E+00
 -1      1046 3.86295E+00
 -1      1047 1.06814E+00
 -1      1048 9.07143E-02
 -1      1049 1.60726E+00
 -1      1050 1.16601E-01
 -1      1051 1.48942E+00
 -1      1052 2.61010E-01
 -1      1053 9.32040E-02
 -1      1054 3.38174E+00
 -1      1055 1.03349E-01
 -1      1056 2.70283E+00
 -1      1057 1.08898E-01
 -1      1058 2.70283E+00
 -1      1059 1.41695E-01
 -1      1060 7.78111E-02
 -1      1061 1.07936E+00
 -1      1062 7.51285E-02
 -1      1063 3.86169E-01
 -1      1064 8.43324E-02
 -1      1065 2.96520E+00
 -1      1066 8.27033E-02
 -1      1067 8.46574E-02
 -1      1068 9.16094E-02
 -1      1069 9.24745E-02
 -1      1070 1.01466E-01
 -1      1071 1.21320E-01
 -1      1072 1.48911E-01
 -1      1073 1.85142E-01
 -1      1074 2.51012E-01
 -1      1075 3.65944E-01
 -1      1076 5.34977E-01
 -1      1077 7.78542E-01
 -1      1078 1.11980E+00
 -1      1079 1.86165E+00
 -1      1080 7.98314E-02
 -1      1081 9.24745E-02
 -1      1082 1.08898E-01
 -1      1083 1.85684E+00
 -1      1084 1.00572E-01
 -1      1085 7.78542E-01
 -1      1086 5.51971E-01
 -1      1087 1.86165E+00
 -1      1088 2.35512E+00
 -1      1089 1.01466E-01
 -1      1090 6.30939E-01
 -1      1091 1.94274E+00
 -1      1092 8.84426E-02
 -1      1093 1.21320E-01
 -1      1094 6.18763E-02
 -1      1095 2.96746E-01
 -1      1096 6.67301E-02
 -1      1097 2.80384E+00
 -1      1098 1.11980E+00
 -1      1099 2.16525E-01
 -1      1100 1.02230E-01
 -1      1101 1.58200E-01
 -1      1102 2.80384E+00
 -1      1103 4.05967E-01
 -1      1104 8.16766E-02
 -1      1105 9.16094E-02
 -1      1106 8.13862E-02
 -1      1107 6.19875E-02
 -1      1108 1.07701E-01
 -1      1109 8.84426E-02
 -1      1110 1.11464E+00
 -1      1111 8.84426E-02
 -1      1112 9.44250E-02
 -1      1113 8.16766E-02
 -1      1114 1.31466E+01
 -1      1115 8.40436E+00
 -1      1116 2.74244E+00
 -1      1117 1.55523E+00
 -1      1118 1.16648E+00
 -1      1119 9.72193E-01
 -1      1120 8.53820E-01
 -1      1121 7.81310E-01
 -1      1122 7.55125E-01
 -1      1123 7.84391E-01
 -1      1124 8.56351E-01
 -1      1125 9.75858E-01
 -1      1126 1.17836E+00
 -1      1127 1.56712E+00
 -1      1128 2.66819E+00
 -1      1129 6.07529E+00
 -1      1130 1.13428E+01
 -1      1131 1.31466E+01
 -1      1132 8.73389E+00
 -1      1133 3.83338E+00
 -1      1134 2.73117E+00
 -1      1135 1.74291E+00
 -1      1136 1.19460E+00
 -1      1137 9.01631E-01
 -1      1138 6.94447E-01
 -1      1139 5.37388E-01
 -1      1140 4.15934E-01
 -1      1141 3.25261E-01
 -1      1142 2.58376E-01
 -1      1143 2.07078E-01
 -1      1144 1.69169E-01
 -1      1145 1.45452E-01
 -1      1146 1.44595E-01
 -1      1147 1.70200E-01
 -1      1148 2.23525E-01
 -1      1149 2.94978E-01
 -1      1150 3.88680E-01
 -1      1151 5.21567E-01
 -1      1152 6.94517E-01
 -1      1153 9.08406E-01
 -1      1154 1.17533E+00
 -1      1155 1.57138E+00
 -1      1156 2.09412E+00
 -1      1157 2.73582E+00
 -1      1158 3.36597E+00
 -1      1159 3.63118E+00
 -1      1160 3.49230E+00
 -1      1161 3.74029E+00
 -1      1162 6.63752E+00
 -1      1163 9.61423E+00
 -1      1164 1.00806E+01
 -1      1165 9.85847E+00
 -1      1166 7.10830E+00
 -1      1167 3.98060E+00
 -1      1168 3.51715E+00
 -1      1169 3.65333E+00
 -1      1170 3.40933E+00
 -1      1171 2.79205E+00
 -1      1172 2.13764E+00
 -1      1173 1.60491E+00
 -1      1174 1.23089E+00
 -1      1175 9.93548E-01
 -1      1176 7.79308E-01
 -1      1177 5.93691E-01
 -1      1178 4.54927E-01
 -1      1179 3.44477E-01
 -1      1180 1.89156E-01
 -1      1181 1.40422E+01
 -1      1182 8.72031E+00
 -1      1183 2.90970E+00
 -1      1184 2.04629E+00
 -1      1185 1.41199E+00
 -1      1186 1.03178E+00
 -1      1187 8.24689E-01
 -1      1188 6.67737E-01
 -1      1189 5.39235E-01
 -1      1190 4.33794E-01
 -1      1191 3.49858E-01
 -1      1192 2.85308E-01
 -1      1193 2.35188E-01
 -1      1194 1.96521E-01
 -1      1195 1.68552E-01
 -1      1196 1.51683E-01
 -1      1197 1.45619E-01
 -1      1198 1.54297E-01
 -1      1199 1.72969E-01
 -1      1200 1.89386E-01
 -1      1201 1.99850E-01
 -1      1202 2.05262E-01
 -1      1203 2.39201E-01
 -1      1204 2.97683E-01
 -1      1205 3.61845E-01
 -1      1206 4.70007E-01
 -1      1207 5.84793E-01
 -1      1208 7.10114E-01
 -1      1209 8.80345E-01
 -1      1210 1.02037E+00
 -1      1211 1.33239E+00
 -1      1212 1.77788E+00
 -1      1213 2.00451E+00
 -1      1214 2.18123E+00
 -1      1215 2.31559E+00
 -1      1216 2.26514E+00
 -1      1217 2.00742E+00
 -1      1218 1.54099E+00
 -1      1219 1.03897E+00
 -1      1220 6.68381E-01
 -1      1221 4.36330E-01
 -1      1222 3.52935E-01
 -1      1223 3.73872E-01
 -1      1224 3.72847E-01
 -1      1225 3.44537E-01
 -1      1226 2.80446E-01
 -1      1227 2.34056E-01
 -1      1228 1.96494E-01
 -1      1229 1.37091E-01
 -1      1230 6.75503E-02
 -1      1231 3.93333E-02
 -1      1232 4.92298E-02
 -1      1233 4.76417E-02
 -1      1234 3.89340E-02
 -1      1235 2.38380E-02
 -1      1236 1.99917E-02
 -1      1237 3.40008E-02
 -1      1238 5.22548E-02
 -1      1239 6.52723E-02
 -1      1240 6.99148E-02
 -1      1241 6.93540E-02
 -1      1242 6.16676E-02
 -1      1243 3.98866E-02
 -1      1244 4.71621E-02
 -1      1245 7.02989E-02
 -1      1246 7.15048E-02
 -1      1247 8.16660E-02
 -1      1248 2.44643E+01
 -1      1249 3.53527E+01
 -1      1250 4.62410E+01
 -1      1251 3.22247E+01
 -1      1252 1.50156E+01
 -1      1253 1.19639E+01
 -1      1254 1.21049E+01
 -1      1255 1.26856E+01
 -1      1256 1.32662E+01
 -1      1257 1.29555E+01
 -1      1258 2.14002E+01
 -1      1259 3.07601E+01
 -1      1260 3.00118E+01
 -1      1261 2.67203E+01
 -1      1262 2.58120E+01
 -1      1263 2.73232E+01
 -1      1264 3.00459E+01
 -1      1265 3.22879E+01
 -1      1266 2.32028E+01
 -1      1267 1.33738E+01
 -1      1268 1.26299E+01
 -1      1269 1.26403E+01
 -1      1270 1.26506E+01
 -1      1271 1.27384E+01
 -1      1272 1.95258E+01
 -1      1273 2.79585E+01
 -1      1274 2.96916E+01
 -1      1275 2.74093E+01
 -1      1276 2.47956E+01
 -1      1277 1.31466E+01
 -1      1278 4.86927E+00
 -1      1279 9.61147E+00
 -1      1280 2.05973E+00
 -1      1281 2.97945E+00
 -1      1282 4.18657E+00
 -1      1283 1.39693E+00
 -1      1284 1.66442E+00
 -1      1285 1.90144E+00
 -1      1286 1.10097E+00
 -1      1287 1.22224E+00
 -1      1288 1.33143E+00
 -1      1289 9.35966E-01
 -1      1290 1.00898E+00
 -1      1291 1.06475E+00
 -1      1292 8.36318E-01
 -1      1293 8.81678E-01
 -1      1294 9.18465E-01
 -1      1295 7.75079E-01
 -1      1296 8.02230E-01
 -1      1297 8.30088E-01
 -1      1298 7.56091E-01
 -1      1299 7.55125E-01
 -1      1300 7.76045E-01
 -1      1301 8.06037E-01
 -1      1302 7.77737E-01
 -1      1303 7.77737E-01
 -1      1304 8.83381E-01
 -1      1305 8.39722E-01
 -1      1306 8.33068E-01
 -1      1307 1.01596E+00
 -1      1308 9.40111E-01
 -1      1309 9.23482E-01
 -1      1310 1.23773E+00
 -1      1311 1.11107E+00
 -1      1312 1.07533E+00
 -1      1313 1.67748E+00
 -1      1314 1.41537E+00
 -1      1315 1.34808E+00
 -1      1316 2.88241E+00
 -1      1317 2.04345E+00
 -1      1318 1.89169E+00
 -1      1319 6.28799E+00
 -1      1320 3.71984E+00
 -1      1321 3.09510E+00
 -1      1322 1.40422E+01
 -1      1323 1.13428E+01
 -1      1324 8.98738E+00
 -1      1325 1.40422E+01
 -1      1326 8.73389E+00
 -1      1327 4.32123E+00
 -1      1328 3.83338E+00
 -1      1329 3.34554E+00
 -1      1330 3.83338E+00
 -1      1331 2.73117E+00
 -1      1332 2.11680E+00
 -1      1333 2.73117E+00
 -1      1334 1.78463E+00
 -1      1335 1.41073E+00
 -1      1336 1.78463E+00
 -1      1337 1.20033E+00
 -1      1338 1.02591E+00
 -1      1339 1.24205E+00
 -1      1340 9.01631E-01
 -1      1341 7.83080E-01
 -1      1342 9.07363E-01
 -1      1343 6.94447E-01
 -1      1344 6.05815E-01
 -1      1345 6.94447E-01
 -1      1346 5.42470E-01
 -1      1347 4.74044E-01
 -1      1348 5.42470E-01
 -1      1349 4.25533E-01
 -1      1350 3.72505E-01
 -1      1351 4.30615E-01
 -1      1352 3.33323E-01
 -1      1353 2.95678E-01
 -1      1354 3.42922E-01
 -1      1355 2.67741E-01
 -1      1356 2.38501E-01
 -1      1357 2.75802E-01
 -1      1358 2.15577E-01
 -1      1359 1.93518E-01
 -1      1360 2.24941E-01
 -1      1361 1.74694E-01
 -1      1362 1.58845E-01
 -1      1363 1.83193E-01
 -1      1364 1.45452E-01
 -1      1365 1.37585E-01
 -1      1366 1.50977E-01
 -1      1367 1.35956E-01
 -1      1368 1.42967E-01
 -1      1369 1.35956E-01
 -1      1370 1.53878E-01
 -1      1371 1.72473E-01
 -1      1372 1.45240E-01
 -1      1373 1.98399E-01
 -1      1374 2.33129E-01
 -1      1375 1.82077E-01
 -1      1376 2.59387E-01
 -1      1377 2.96109E-01
 -1      1378 2.34260E-01
 -1      1379 3.37403E-01
 -1      1380 3.94383E-01
 -1      1381 3.01812E-01
 -1      1382 4.65115E-01
 -1      1383 5.41023E-01
 -1      1384 4.13838E-01
 -1      1385 6.49941E-01
 -1      1386 7.46984E-01
 -1      1387 5.93489E-01
 -1      1388 8.92631E-01
 -1      1389 1.00948E+00
 -1      1390 8.48054E-01
 -1      1391 1.19478E+00
 -1      1392 1.34485E+00
 -1      1393 1.17900E+00
 -1      1394 1.56197E+00
 -1      1395 1.80795E+00
 -1      1396 1.58142E+00
 -1      1397 2.02761E+00
 -1      1398 2.30437E+00
 -1      1399 2.01821E+00
 -1      1400 2.47659E+00
 -1      1401 2.84153E+00
 -1      1402 2.41008E+00
 -1      1403 3.10076E+00
 -1      1404 3.36597E+00
 -1      1405 2.84153E+00
 -1      1406 3.63118E+00
 -1      1407 3.63118E+00
 -1      1408 3.36597E+00
 -1      1409 3.49230E+00
 -1      1410 3.35341E+00
 -1      1411 3.49230E+00
 -1      1412 3.20594E+00
 -1      1413 3.59282E+00
 -1      1414 3.20594E+00
 -1      1415 4.47622E+00
 -1      1416 6.98658E+00
 -1      1417 3.94188E+00
 -1      1418 9.14788E+00
 -1      1419 9.61423E+00
 -1      1420 6.98658E+00
 -1      1421 1.00806E+01
 -1      1422 1.00806E+01
 -1      1423 9.61423E+00
 -1      1424 9.85847E+00
 -1      1425 9.63637E+00
 -1      1426 9.85847E+00
 -1      1427 7.42370E+00
 -1      1428 4.89563E+00
 -1      1429 7.42370E+00
 -1      1430 3.75879E+00
 -1      1431 3.15916E+00
 -1      1432 4.07419E+00
 -1      1433 3.38098E+00
 -1      1434 3.51715E+00
 -1      1435 3.15916E+00
 -1      1436 3.65333E+00
 -1      1437 3.65333E+00
 -1      1438 3.51715E+00
 -1      1439 3.40933E+00
 -1      1440 3.16534E+00
 -1      1441 3.40933E+00
 -1      1442 2.88706E+00
 -1      1443 2.51377E+00
 -1      1444 2.88706E+00
 -1      1445 2.33618E+00
 -1      1446 2.05506E+00
 -1      1447 2.43119E+00
 -1      1448 1.83328E+00
 -1      1449 1.58168E+00
 -1      1450 2.03183E+00
 -1      1451 1.35674E+00
 -1      1452 1.23432E+00
 -1      1453 1.58511E+00
 -1      1454 1.03790E+00
 -1      1455 9.22965E-01
 -1      1456 1.16374E+00
 -1      1457 7.79308E-01
 -1      1458 6.79998E-01
 -1      1459 8.23656E-01
 -1      1460 5.93691E-01
 -1      1461 5.07385E-01
 -1      1462 5.93691E-01
 -1      1463 4.54927E-01
 -1      1464 4.02468E-01
 -1      1465 4.54927E-01
 -1      1466 3.44477E-01
 -1      1467 2.86485E-01
 -1      1468 3.44477E-01
 -1      1469 2.03774E-01
 -1      1470 1.06445E-01
 -1      1471 9.62840E-02
 -1      1472 2.03774E-01
 -1      1473 3.39839E+00
 -1      1474 8.72031E+00
 -1      1475 8.72031E+00
 -1      1476 2.42100E+00
 -1      1477 2.90970E+00
 -1      1478 2.90970E+00
 -1      1479 1.67157E+00
 -1      1480 2.04629E+00
 -1      1481 2.04629E+00
 -1      1482 1.15240E+00
 -1      1483 1.41199E+00
 -1      1484 1.41199E+00
 -1      1485 9.11161E-01
 -1      1486 1.03178E+00
 -1      1487 1.03178E+00
 -1      1488 7.38217E-01
 -1      1489 8.24689E-01
 -1      1490 8.24689E-01
 -1      1491 5.97256E-01
 -1      1492 6.67737E-01
 -1      1493 6.67737E-01
 -1      1494 4.81214E-01
 -1      1495 5.39235E-01
 -1      1496 5.39235E-01
 -1      1497 3.86374E-01
 -1      1498 4.33794E-01
 -1      1499 4.33794E-01
 -1      1500 3.13343E-01
 -1      1501 3.49858E-01
 -1      1502 3.49858E-01
 -1      1503 2.57273E-01
 -1      1504 2.85308E-01
 -1      1505 2.85308E-01
 -1      1506 2.13103E-01
 -1      1507 2.35188E-01
 -1      1508 2.35188E-01
 -1      1509 1.79939E-01
 -1      1510 1.96521E-01
 -1      1511 1.96521E-01
 -1      1512 1.57164E-01
 -1      1513 1.68552E-01
 -1      1514 1.68552E-01
 -1      1515 1.46202E-01
 -1      1516 1.51683E-01
 -1      1517 1.51683E-01
 -1      1518 1.43138E-01
 -1      1519 1.43721E-01
 -1      1520 1.43721E-01
 -1      1521 1.54297E-01
 -1      1522 1.45036E-01
 -1      1523 1.43138E-01
 -1      1524 1.72969E-01
 -1      1525 1.63558E-01
 -1      1526 1.54297E-01
 -1      1527 1.90327E-01
 -1      1528 1.83320E-01
 -1      1529 1.73910E-01
 -1      1530 2.12225E-01
 -1      1531 2.08767E-01
 -1      1532 2.02702E-01
 -1      1533 2.34027E-01
 -1      1534 2.32073E-01
 -1      1535 2.40990E-01
 -1      1536 2.77698E-01
 -1      1537 2.45712E-01
 -1      1538 2.72523E-01
 -1      1539 3.04194E-01
 -1      1540 2.77698E-01
 -1      1541 2.84209E-01
 -1      1542 3.61845E-01
 -1      1543 3.24180E-01
 -1      1544 3.04194E-01
 -1      1545 4.70007E-01
 -1      1546 3.99510E-01
 -1      1547 3.61845E-01
 -1      1548 5.84793E-01
 -1      1549 5.40505E-01
 -1      1550 4.70007E-01
 -1      1551 7.10114E-01
 -1      1552 6.29081E-01
 -1      1553 5.84793E-01
 -1      1554 9.57985E-01
 -1      1555 8.68787E-01
 -1      1556 7.87753E-01
 -1      1557 1.19017E+00
 -1      1558 1.13935E+00
 -1      1559 1.12779E+00
 -1      1560 1.61467E+00
 -1      1561 1.35347E+00
 -1      1562 1.47245E+00
 -1      1563 1.87539E+00
 -1      1564 1.69110E+00
 -1      1565 1.71218E+00
 -1      1566 2.00451E+00
 -1      1567 1.96216E+00
 -1      1568 1.87539E+00
 -1      1569 2.18123E+00
 -1      1570 2.04686E+00
 -1      1571 2.00451E+00
 -1      1572 2.31559E+00
 -1      1573 2.31559E+00
 -1      1574 2.18123E+00
 -1      1575 2.21470E+00
 -1      1576 2.26514E+00
 -1      1577 2.26514E+00
 -1      1578 1.80015E+00
 -1      1579 2.00742E+00
 -1      1580 2.00742E+00
 -1      1581 1.28183E+00
 -1      1582 1.54099E+00
 -1      1583 1.54099E+00
 -1      1584 8.23843E-01
 -1      1585 1.06671E+00
 -1      1586 1.06671E+00
 -1      1587 5.40663E-01
 -1      1588 6.68381E-01
 -1      1589 6.96125E-01
 -1      1590 3.31998E-01
 -1      1591 4.36330E-01
 -1      1592 4.36330E-01
 -1      1593 3.48591E-01
 -1      1594 3.27654E-01
 -1      1595 3.27654E-01
 -1      1596 3.73872E-01
 -1      1597 3.73872E-01
 -1      1598 3.48591E-01
 -1      1599 3.71822E-01
 -1      1600 3.72847E-01
 -1      1601 3.72847E-01
 -1      1602 3.17251E-01
 -1      1603 3.44537E-01
 -1      1604 3.44537E-01
 -1      1605 2.43641E-01
 -1      1606 2.80446E-01
 -1      1607 2.80446E-01
 -1      1608 2.24470E-01
 -1      1609 2.34056E-01
 -1      1610 2.34056E-01
 -1      1611 1.68517E-01
 -1      1612 1.96494E-01
 -1      1613 1.96494E-01
 -1      1614 1.05664E-01
 -1      1615 1.37091E-01
 -1      1616 1.37091E-01
 -1      1617 7.74468E-02
 -1      1618 6.68529E-02
 -1      1619 6.68529E-02
 -1      1620 6.52648E-02
 -1      1621 6.68529E-02
 -1      1622 8.44760E-02
 -1      1623 5.28590E-02
 -1      1624 5.99786E-02
 -1      1625 7.91898E-02
 -1      1626 3.29422E-02
 -1      1627 4.09185E-02
 -1      1628 6.19632E-02
 -1      1629 3.04955E-02
 -1      1630 2.63655E-02
 -1      1631 4.34460E-02
 -1      1632 5.89703E-02
 -1      1633 4.90912E-02
 -1      1634 5.54649E-02
 -1      1635 8.40014E-02
 -1      1636 7.56264E-02
 -1      1637 9.07168E-02
 -1      1638 9.97781E-02
 -1      1639 9.51355E-02
 -1      1640 1.18507E-01
 -1      1641 1.01774E-01
 -1      1642 1.01774E-01
 -1      1643 1.31638E-01
 -1      1644 1.01214E-01
 -1      1645 1.01774E-01
 -1      1646 1.33634E-01
 -1      1647 9.15735E-02
 -1      1648 9.86991E-02
 -1      1649 1.31120E-01
 -1      1650 6.15588E-02
 -1      1651 7.62142E-02
 -1      1652 1.13246E-01
 -1      1653 8.12218E-02
 -1      1654 5.92909E-02
 -1      1655 9.56185E-02
 -1      1656 1.41641E-01
 -1      1657 1.40435E-01
 -1      1658 1.52564E-01
 -1      1659 1.41641E-01
 -1      1660 1.41641E-01
 -1      1661 2.11777E-01
 -1      1662 1.66420E-01
 -1      1663 2.66418E+01
 -1      1664 2.66418E+01
 -1      1665 3.69540E+01
 -1      1666 2.60656E+01
 -1      1667 4.62410E+01
 -1      1668 4.62410E+01
 -1      1669 1.88329E+01
 -1      1670 3.28492E+01
 -1      1671 1.14595E+01
 -1      1672 1.46523E+01
 -1      1673 1.19639E+01
 -1      1674 1.18228E+01
 -1      1675 1.21049E+01
 -1      1676 1.21049E+01
 -1      1677 1.24308E+01
 -1      1678 1.18502E+01
 -1      1679 1.32662E+01
 -1      1680 1.32662E+01
 -1      1681 1.24080E+01
 -1      1682 1.27187E+01
 -1      1683 2.14002E+01
 -1      1684 1.26448E+01
 -1      1685 3.13647E+01
 -1      1686 3.07601E+01
 -1      1687 3.26122E+01
 -1      1688 3.39650E+01
 -1      1689 3.06735E+01
 -1      1690 3.26122E+01
 -1      1691 2.78982E+01
 -1      1692 2.68679E+01
 -1      1693 2.83791E+01
 -1      1694 2.78982E+01
 -1      1695 3.19162E+01
 -1      1696 2.96742E+01
 -1      1697 3.22879E+01
 -1      1698 3.22879E+01
 -1      1699 1.41176E+01
 -1      1700 2.32028E+01
 -1      1701 1.23754E+01
 -1      1702 1.31193E+01
 -1      1703 1.26299E+01
 -1      1704 1.26299E+01
 -1      1705 1.24976E+01
 -1      1706 1.24872E+01
 -1      1707 1.26506E+01
 -1      1708 1.26506E+01
 -1      1709 1.26430E+01
 -1      1710 1.25552E+01
 -1      1711 1.95258E+01
 -1      1712 1.28262E+01
 -1      1713 2.89917E+01
 -1      1714 2.72586E+01
 -1      1715 3.19455E+01
 -1      1716 3.19455E+01
 -1      1717 2.96632E+01
 -1      1718 3.19455E+01
 -1      1719 2.66418E+01
 -1      1720 2.69731E+01
 -1      1721 3.28492E+01
 -1      1722 2.88193E+01
 -1      1723 7.74468E-02
 -1      1724 9.50699E-02
 -1      1725 2.82431E+01
 -1      1726 3.69540E+01
 -1      1727 1.52768E+01
 -1      1728 1.14595E+01
 -1      1729 1.19639E+01
 -1      1730 1.18502E+01
 -1      1731 1.24308E+01
 -1      1732 1.27187E+01
 -1      1733 1.24080E+01
 -1      1734 2.20047E+01
 -1      1735 3.39650E+01
 -1      1736 3.65654E+01
 -1      1737 3.27598E+01
 -1      1738 2.89541E+01
 -1      1739 3.02493E+01
 -1      1740 3.19162E+01
 -1      1741 2.32028E+01
 -1      1742 1.31193E+01
 -1      1743 1.23754E+01
 -1      1744 1.24872E+01
 -1      1745 1.24976E+01
 -1      1746 1.25552E+01
 -1      1747 1.26430E+01
 -1      1748 2.05590E+01
 -1      1749 3.12456E+01
 -1      1750 3.41994E+01
 -1      1751 3.15093E+01
 -1      1752 9.61147E+00
 -1      1753 1.27597E+00
 -1      1754 1.67129E+00
 -1      1755 2.38741E+00
 -1      1756 4.27723E+00
 -1      1757 1.76195E+00
 -1      1758 8.83466E-01
 -1      1759 9.75458E-01
 -1      1760 7.79200E-01
 -1      1761 8.33488E-01
 -1      1762 7.44201E-01
 -1      1763 7.13707E-01
 -1      1764 7.47795E-01
 -1      1765 6.62819E-01
 -1      1766 6.71784E-01
 -1      1767 6.91738E-01
 -1      1768 6.09446E-01
 -1      1769 6.95002E-01
 -1      1770 6.73356E-01
 -1      1771 5.89049E-01
 -1      1772 7.50400E-01
 -1      1773 7.16715E-01
 -1      1774 6.12335E-01
 -1      1775 8.40330E-01
 -1      1776 7.83601E-01
 -1      1777 6.67248E-01
 -1      1778 9.82914E-01
 -1      1779 8.87799E-01
 -1      1780 7.47917E-01
 -1      1781 1.22750E+00
 -1      1782 1.04986E+00
 -1      1783 8.62332E-01
 -1      1784 1.70009E+00
 -1      1785 1.33412E+00
 -1      1786 1.03590E+00
 -1      1787 2.62998E+00
 -1      1788 1.79254E+00
 -1      1789 1.23497E+00
 -1      1790 8.12017E+00
 -1      1791 3.06533E+00
 -1      1792 1.76277E+00
 -1      1793 2.79825E+00
 -1      1794 5.19881E+00
 -1      1795 2.16779E+00
 -1      1796 2.65648E+00
 -1      1797 2.05635E+00
 -1      1798 3.39965E+00
 -1      1799 2.53945E+00
 -1      1800 1.92508E+00
 -1      1801 1.69448E+00
 -1      1802 1.36231E+00
 -1      1803 1.50276E+00
 -1      1804 1.18253E+00
 -1      1805 9.72129E-01
 -1      1806 1.09239E+00
 -1      1807 8.47003E-01
 -1      1808 7.22721E-01
 -1      1809 7.87486E-01
 -1      1810 6.64723E-01
 -1      1811 5.76091E-01
 -1      1812 6.04364E-01
 -1      1813 5.28599E-01
 -1      1814 4.65255E-01
 -1      1815 4.98875E-01
 -1      1816 4.23798E-01
 -1      1817 3.75287E-01
 -1      1818 4.09926E-01
 -1      1819 3.42224E-01
 -1      1820 3.03041E-01
 -1      1821 3.35407E-01
 -1      1822 2.75873E-01
 -1      1823 2.47936E-01
 -1      1824 2.75175E-01
 -1      1825 2.25034E-01
 -1      1826 2.02109E-01
 -1      1827 2.25104E-01
 -1      1828 1.83193E-01
 -1      1829 1.64369E-01
 -1      1830 1.83285E-01
 -1      1831 1.49699E-01
 -1      1832 1.36307E-01
 -1      1833 1.49699E-01
 -1      1834 1.27375E-01
 -1      1835 1.25747E-01
 -1      1836 1.26097E-01
 -1      1837 1.31397E-01
 -1      1838 1.42308E-01
 -1      1839 1.22815E-01
 -1      1840 1.56151E-01
 -1      1841 1.82077E-01
 -1      1842 1.42308E-01
 -1      1843 2.08003E-01
 -1      1844 2.34260E-01
 -1      1845 1.82077E-01
 -1      1846 2.82312E-01
 -1      1847 3.23606E-01
 -1      1848 2.56055E-01
 -1      1849 3.93155E-01
 -1      1850 4.63887E-01
 -1      1851 3.73655E-01
 -1      1852 5.57989E-01
 -1      1853 6.66907E-01
 -1      1854 5.37305E-01
 -1      1855 7.92222E-01
 -1      1856 9.37870E-01
 -1      1857 7.56722E-01
 -1      1858 1.09994E+00
 -1      1859 1.28524E+00
 -1      1860 1.04411E+00
 -1      1861 1.48481E+00
 -1      1862 1.70193E+00
 -1      1863 1.40575E+00
 -1      1864 1.92806E+00
 -1      1865 2.14772E+00
 -1      1866 1.83144E+00
 -1      1867 2.36866E+00
 -1      1868 2.54088E+00
 -1      1869 2.27851E+00
 -1      1870 2.69810E+00
 -1      1871 2.95733E+00
 -1      1872 2.65668E+00
 -1      1873 3.18784E+00
 -1      1874 3.45305E+00
 -1      1875 3.04441E+00
 -1      1876 3.84525E+00
 -1      1877 3.70636E+00
 -1      1878 3.66712E+00
 -1      1879 4.07684E+00
 -1      1880 3.92937E+00
 -1      1881 4.42980E+00
 -1      1882 4.19973E+00
 -1      1883 5.08313E+00
 -1      1884 5.07063E+00
 -1      1885 4.79025E+00
 -1      1886 6.95155E+00
 -1      1887 5.04810E+00
 -1      1888 9.17634E+00
 -1      1889 9.64269E+00
 -1      1890 6.98001E+00
 -1      1891 9.07044E+00
 -1      1892 8.84833E+00
 -1      1893 8.63255E+00
 -1      1894 7.47286E+00
 -1      1895 5.26019E+00
 -1      1896 6.68483E+00
 -1      1897 4.77522E+00
 -1      1898 3.63838E+00
 -1      1899 4.82438E+00
 -1      1900 3.87035E+00
 -1      1901 4.09217E+00
 -1      1902 4.57139E+00
 -1      1903 3.72458E+00
 -1      1904 3.86075E+00
 -1      1905 4.43577E+00
 -1      1906 3.45453E+00
 -1      1907 3.21053E+00
 -1      1908 3.66195E+00
 -1      1909 2.96682E+00
 -1      1910 2.68854E+00
 -1      1911 3.01202E+00
 -1      1912 2.53956E+00
 -1      1913 2.36198E+00
 -1      1914 2.61933E+00
 -1      1915 2.14422E+00
 -1      1916 1.92244E+00
 -1      1917 2.25260E+00
 -1      1918 1.69442E+00
 -1      1919 1.46948E+00
 -1      1920 1.80681E+00
 -1      1921 1.26451E+00
 -1      1922 1.06809E+00
 -1      1923 1.37383E+00
 -1      1924 8.99024E-01
 -1      1925 7.55367E-01
 -1      1926 9.99798E-01
 -1      1927 6.23350E-01
 -1      1928 5.37044E-01
 -1      1929 6.98719E-01
 -1      1930 4.37956E-01
 -1      1931 3.85497E-01
 -1      1932 4.67615E-01
 -1      1933 3.24709E-01
 -1      1934 2.66717E-01
 -1      1935 3.07738E-01
 -1      1936 2.49131E-01
 -1      1937 1.14586E+00
 -1      1938 1.40544E+00
 -1      1939 8.65847E-01
 -1      1940 9.86466E-01
 -1      1941 9.79924E-01
 -1      1942 6.87892E-01
 -1      1943 7.74364E-01
 -1      1944 7.29050E-01
 -1      1945 5.61209E-01
 -1      1946 6.31690E-01
 -1      1947 5.81365E-01
 -1      1948 4.54404E-01
 -1      1949 5.12425E-01
 -1      1950 4.76378E-01
 -1      1951 3.66258E-01
 -1      1952 4.13678E-01
 -1      1953 3.86868E-01
 -1      1954 2.98089E-01
 -1      1955 3.34605E-01
 -1      1956 3.14489E-01
 -1      1957 2.43219E-01
 -1      1958 2.71254E-01
 -1      1959 2.56000E-01
 -1      1960 1.98628E-01
 -1      1961 2.20714E-01
 -1      1962 2.06659E-01
 -1      1963 1.63448E-01
 -1      1964 1.80031E-01
 -1      1965 1.65556E-01
 -1      1966 1.36905E-01
 -1      1967 1.48292E-01
 -1      1968 1.31802E-01
 -1      1969 1.26667E-01
 -1      1970 1.32148E-01
 -1      1971 1.11888E-01
 -1      1972 1.28447E-01
 -1      1973 1.30928E-01
 -1      1974 1.11392E-01
 -1      1975 1.36506E-01
 -1      1976 1.34609E-01
 -1      1977 1.21815E-01
 -1      1978 1.53060E-01
 -1      1979 1.43799E-01
 -1      1980 1.35270E-01
 -1      1981 1.72443E-01
 -1      1982 1.62091E-01
 -1      1983 1.51594E-01
 -1      1984 2.05975E-01
 -1      1985 1.87534E-01
 -1      1986 1.75716E-01
 -1      1987 2.42085E-01
 -1      1988 2.22237E-01
 -1      1989 2.07070E-01
 -1      1990 2.72523E-01
 -1      1991 2.60838E-01
 -1      1992 2.42085E-01
 -1      1993 2.84209E-01
 -1      1994 2.84209E-01
 -1      1995 2.72523E-01
 -1      1996 2.99688E-01
 -1      1997 2.79702E-01
 -1      1998 2.79702E-01
 -1      1999 3.18482E-01
 -1      2000 2.80817E-01
 -1      2001 2.56325E-01
 -1      2002 3.85744E-01
 -1      2003 3.15246E-01
 -1      2004 2.34218E-01
 -1      2005 5.44691E-01
 -1      2006 5.00403E-01
 -1      2007 3.45642E-01
 -1      2008 8.28984E-01
 -1      2009 6.70312E-01
 -1      2010 5.85922E-01
 -1      2011 1.17315E+00
 -1      2012 9.91788E-01
 -1      2013 8.74346E-01
 -1      2014 1.47245E+00
 -1      2015 1.30915E+00
 -1      2016 1.17315E+00
 -1      2017 1.71218E+00
 -1      2018 1.63574E+00
 -1      2019 1.47245E+00
 -1      2020 1.87539E+00
 -1      2021 1.78861E+00
 -1      2022 1.71218E+00
 -1      2023 1.88852E+00
 -1      2024 1.84617E+00
 -1      2025 1.75939E+00
 -1      2026 2.04959E+00
 -1      2027 1.91522E+00
 -1      2028 1.75688E+00
 -1      2029 1.95377E+00
 -1      2030 2.00422E+00
 -1      2031 1.73822E+00
 -1      2032 1.60571E+00
 -1      2033 1.81299E+00
 -1      2034 1.55206E+00
 -1      2035 1.19843E+00
 -1      2036 1.45758E+00
 -1      2037 1.26315E+00
 -1      2038 8.26770E-01
 -1      2039 1.04189E+00
 -1      2040 9.58485E-01
 -1      2041 5.40028E-01
 -1      2042 6.95490E-01
 -1      2043 6.70673E-01
 -1      2044 3.19789E-01
 -1      2045 4.24122E-01
 -1      2046 4.23487E-01
 -1      2047 2.58536E-01
 -1      2048 2.62881E-01
 -1      2049 2.50672E-01
 -1      2050 3.02961E-01
 -1      2051 2.77680E-01
 -1      2052 2.12907E-01
 -1      2053 3.05113E-01
 -1      2054 3.06138E-01
 -1      2055 2.35227E-01
 -1      2056 2.60005E-01
 -1      2057 2.87290E-01
 -1      2058 2.20581E-01
 -1      2059 2.19600E-01
 -1      2060 2.56405E-01
 -1      2061 1.99159E-01
 -1      2062 2.06273E-01
 -1      2063 2.15858E-01
 -1      2064 1.91817E-01
 -1      2065 1.61775E-01
 -1      2066 1.89752E-01
 -1      2067 1.71554E-01
 -1      2068 1.11046E-01
 -1      2069 1.42472E-01
 -1      2070 1.35730E-01
 -1      2071 1.00452E-01
 -1      2072 6.84739E-02
 -1      2073 8.04143E-02
 -1      2074 1.14468E-01
 -1      2075 1.19755E-01
 -1      2076 1.20979E-01
 -1      2077 1.00452E-01
 -1      2078 5.03744E-02
 -1      2079 5.69511E-02
 -1      2080 7.54023E-02
 -1      2081 7.98833E-02
 -1      2082 6.12876E-02
 -1      2083 7.47928E-02
 -1      2084 1.21480E-01
 -1      2085 1.04824E-01
 -1      2086 1.10647E-01
 -1      2087 1.52470E-01
 -1      2088 1.41336E-01
 -1      2089 1.55443E-01
 -1      2090 1.62949E-01
 -1      2091 1.60952E-01
 -1      2092 1.83781E-01
 -1      2093 1.66808E-01
 -1      2094 1.66808E-01
 -1      2095 1.96123E-01
 -1      2096 1.64294E-01
 -1      2097 1.66808E-01
 -1      2098 1.99982E-01
 -1      2099 1.43320E-01
 -1      2100 1.58680E-01
 -1      2101 1.94368E-01
 -1      2102 1.14607E-01
 -1      2103 1.16875E-01
 -1      2104 1.62309E-01
 -1      2105 1.98338E-01
 -1      2106 1.39125E-01
 -1      2107 1.60381E-01
 -1      2108 1.51668E+00
 -1      2109 1.89139E+00
 -1      2110 1.63818E+00
 -1      2111 1.25055E+00
 -1      2112 3.69540E+01
 -1      2113 2.76670E+01
 -1      2114 1.01102E+01
 -1      2115 1.42908E+01
 -1      2116 3.33015E+01
 -1      2117 3.33015E+01
 -1      2118 1.76712E+01
 -1      2119 3.10630E+01
 -1      2120 1.03320E+00
 -1      2121 1.20789E+00
 -1      2122 9.77736E-01
 -1      2123 8.51915E-01
 -1      2124 9.80914E+00
 -1      2125 9.44587E+00
 -1      2126 1.07947E+01
 -1      2127 1.06537E+01
 -1      2128 1.13042E+01
 -1      2129 1.15590E+01
 -1      2130 1.20473E+01
 -1      2131 1.12119E+01
 -1      2132 1.09207E+01
 -1      2133 1.00576E+01
 -1      2134 1.06050E+01
 -1      2135 9.62488E+00
 -1      2136 9.38810E+00
 -1      2137 2.17216E+01
 -1      2138 1.23617E+01
 -1      2139 2.91032E+01
 -1      2140 2.65028E+01
 -1      2141 3.65654E+01
 -1      2142 3.65654E+01
 -1      2143 2.91032E+01
 -1      2144 3.22489E+01
 -1      2145 3.60545E+01
 -1      2146 3.22489E+01
 -1      2147 3.22489E+01
 -1      2148 3.55437E+01
 -1      2149 2.86813E+01
 -1      2150 2.73862E+01
 -1      2151 2.72987E+01
 -1      2152 2.69270E+01
 -1      2153 1.34446E+01
 -1      2154 2.25298E+01
 -1      2155 9.78096E+00
 -1      2156 1.07793E+01
 -1      2157 1.08863E+01
 -1      2158 1.06318E+01
 -1      2159 1.13565E+01
 -1      2160 1.14992E+01
 -1      2161 1.20354E+01
 -1      2162 1.18823E+01
 -1      2163 1.11326E+01
 -1      2164 1.12281E+01
 -1      2165 1.06128E+01
 -1      2166 9.65772E+00
 -1      2167 9.47448E+00
 -1      2168 1.98458E+01
 -1      2169 1.21131E+01
 -1      2170 2.70814E+01
 -1      2171 2.41276E+01
 -1      2172 3.41994E+01
 -1      2173 3.41994E+01
 -1      2174 3.33015E+01
 -1      2175 3.59916E+01
 -1      2176 2.84968E+01
 -1      2177 2.90729E+01
 -1      2178 2.29364E-01
 -1      2179 1.25046E+01
 -1      2180 2.91181E+00
 -1      2181 2.17760E+01
 -1      2182 8.45984E+00
 -1      2183 2.10571E+00
 -1      2184 1.35730E-01
 -1      2185 3.35551E+01
 -1      2186 2.29364E-01
 -1      2187 2.84968E+01
 -1      2188 3.77837E+01
 -1      2189 3.59916E+01
 -1      2190 2.70814E+01
 -1      2191 1.56816E+01
 -1      2192 8.14738E+00
 -1      2193 1.08943E+01
 -1      2194 9.75559E+00
 -1      2195 8.29189E+00
 -1      2196 1.01063E+01
 -1      2197 1.75406E+01
 -1      2198 2.73862E+01
 -1      2199 3.06810E+01
 -1      2200 2.58183E+01
 -1      2201 3.60545E+01
 -1      2202 1.68598E+01
 -1      2203 9.34177E+00
 -1      2204 1.09787E+01
 -1      2205 9.75979E+00
 -1      2206 8.31749E+00
 -1      2207 8.64000E+00
 -1      2208 1.02488E+01
 -1      2209 7.27438E+00
 -1      2210 2.40639E+01
 -1      2211 8.94456E+00
 -1      2212 2.15924E-01
 -1      2213 5.58624E-01
 -1      2214 5.90028E-01
 -1      2215 6.03903E-01
 -1      2216 6.53880E-01
 -1      2217 4.99707E-01
 -1      2218 5.11001E-01
 -1      2219 5.09428E-01
 -1      2220 5.45558E-01
 -1      2221 5.23845E-01
 -1      2222 4.44224E-01
 -1      2223 5.93445E-01
 -1      2224 5.60245E-01
 -1      2225 4.71756E-01
 -1      2226 6.52743E-01
 -1      2227 6.05274E-01
 -1      2228 4.98271E-01
 -1      2229 7.19689E-01
 -1      2230 6.52743E-01
 -1      2231 5.10099E-01
 -1      2232 8.22600E-01
 -1      2233 7.15981E-01
 -1      2234 5.06391E-01
 -1      2235 9.82933E-01
 -1      2236 8.90482E-01
 -1      2237 5.70565E-01
 -1      2238 1.75747E+00
 -1      2239 1.32212E+00
 -1      2240 9.77636E-01
 -1      2241 1.61570E+00
 -1      2242 1.26853E+00
 -1      2243 1.03794E+00
 -1      2244 1.40290E+01
 -1      2245 1.99200E+01
 -1      2246 8.83741E+00
 -1      2247 1.22178E+01
 -1      2248 9.89154E-01
 -1      2249 8.09379E-01
 -1      2250 7.54929E-01
 -1      2251 7.52948E-01
 -1      2252 6.27823E-01
 -1      2253 6.49716E-01
 -1      2254 5.71782E-01
 -1      2255 5.13785E-01
 -1      2256 5.37244E-01
 -1      2257 4.64499E-01
 -1      2258 4.17007E-01
 -1      2259 4.31917E-01
 -1      2260 3.91370E-01
 -1      2261 3.49913E-01
 -1      2262 3.56994E-01
 -1      2263 3.25615E-01
 -1      2264 2.92552E-01
 -1      2265 3.07059E-01
 -1      2266 2.69595E-01
 -1      2267 2.42427E-01
 -1      2268 2.59804E-01
 -1      2269 2.21874E-01
 -1      2270 1.98972E-01
 -1      2271 2.16294E-01
 -1      2272 1.81146E-01
 -1      2273 1.62230E-01
 -1      2274 1.77916E-01
 -1      2275 1.46966E-01
 -1      2276 1.32295E-01
 -1      2277 1.44826E-01
 -1      2278 1.19071E-01
 -1      2279 1.10139E-01
 -1      2280 1.16337E-01
 -1      2281 1.05797E-01
 -1      2282 1.11447E-01
 -1      2283 9.87708E-02
 -1      2284 1.20086E-01
 -1      2285 1.33929E-01
 -1      2286 1.03067E-01
 -1      2287 1.58650E-01
 -1      2288 1.84576E-01
 -1      2289 1.36427E-01
 -1      2290 2.26196E-01
 -1      2291 2.74247E-01
 -1      2292 2.02769E-01
 -1      2293 3.29020E-01
 -1      2294 3.98569E-01
 -1      2295 2.99162E-01
 -1      2296 4.71190E-01
 -1      2297 5.65292E-01
 -1      2298 4.26556E-01
 -1      2299 6.61643E-01
 -1      2300 7.86958E-01
 -1      2301 5.95528E-01
 -1      2302 9.14323E-01
 -1      2303 1.07639E+00
 -1      2304 8.19244E-01
 -1      2305 1.24369E+00
 -1      2306 1.44326E+00
 -1      2307 1.11391E+00
 -1      2308 1.66136E+00
 -1      2309 1.88749E+00
 -1      2310 1.49930E+00
 -1      2311 2.16914E+00
 -1      2312 2.39008E+00
 -1      2313 1.99905E+00
 -1      2314 2.74413E+00
 -1      2315 2.90136E+00
 -1      2316 2.63475E+00
 -1      2317 3.32647E+00
 -1      2318 3.55698E+00
 -1      2319 3.41392E+00
 -1      2320 4.12102E+00
 -1      2321 4.51322E+00
 -1      2322 4.40308E+00
 -1      2323 5.60409E+00
 -1      2324 5.97457E+00
 -1      2325 6.05800E+00
 -1      2326 5.80210E+00
 -1      2327 6.07246E+00
 -1      2328 6.97640E+00
 -1      2329 6.11322E+00
 -1      2330 5.82034E+00
 -1      2331 6.94898E+00
 -1      2332 9.17377E+00
 -1      2333 1.03125E+01
 -1      2334 9.74021E+00
 -1      2335 6.10770E+00
 -1      2336 6.33968E+00
 -1      2337 5.81658E+00
 -1      2338 5.44898E+00
 -1      2339 7.35289E+00
 -1      2340 4.47214E+00
 -1      2341 4.06592E+00
 -1      2342 5.85295E+00
 -1      2343 3.55284E+00
 -1      2344 3.30913E+00
 -1      2345 4.36303E+00
 -1      2346 2.87181E+00
 -1      2347 2.72283E+00
 -1      2348 3.41263E+00
 -1      2349 2.36617E+00
 -1      2350 2.14841E+00
 -1      2351 2.61865E+00
 -1      2352 1.86391E+00
 -1      2353 1.63589E+00
 -1      2354 1.97749E+00
 -1      2355 1.41246E+00
 -1      2356 1.20749E+00
 -1      2357 1.46955E+00
 -1      2358 1.03412E+00
 -1      2359 8.65058E-01
 -1      2360 1.07275E+00
 -1      2361 7.31898E-01
 -1      2362 5.99882E-01
 -1      2363 7.66221E-01
 -1      2364 4.97395E-01
 -1      2365 3.98307E-01
 -1      2366 5.30574E-01
 -1      2367 3.27198E-01
 -1      2368 2.66410E-01
 -1      2369 2.35384E-01
 -1      2370 3.56978E-01
 -1      2371 4.87104E-01
 -1      2372 5.43306E-01
 -1      2373 6.02034E-01
 -1      2374 6.93518E-01
 -1      2375 5.07774E-01
 -1      2376 7.58169E-01
 -1      2377 9.17559E-01
 -1      2378 6.31153E-01
 -1      2379 4.00876E-01
 -1      2380 4.49661E-01
 -1      2381 4.11602E-01
 -1      2382 3.33367E-01
 -1      2383 3.74092E-01
 -1      2384 3.47375E-01
 -1      2385 2.75810E-01
 -1      2386 3.07463E-01
 -1      2387 2.94688E-01
 -1      2388 2.25423E-01
 -1      2389 2.52258E-01
 -1      2390 2.45232E-01
 -1      2391 1.82344E-01
 -1      2392 2.04849E-01
 -1      2393 2.01107E-01
 -1      2394 1.46091E-01
 -1      2395 1.64689E-01
 -1      2396 1.62879E-01
 -1      2397 1.15639E-01
 -1      2398 1.30796E-01
 -1      2399 1.29928E-01
 -1      2400 9.77175E-02
 -1      2401 1.02475E-01
 -1      2402 1.01469E-01
 -1      2403 1.01559E-01
 -1      2404 9.72974E-02
 -1      2405 8.78839E-02
 -1      2406 1.12050E-01
 -1      2407 1.05889E-01
 -1      2408 9.17936E-02
 -1      2409 1.24591E-01
 -1      2410 1.17299E-01
 -1      2411 1.01372E-01
 -1      2412 1.50206E-01
 -1      2413 1.41175E-01
 -1      2414 1.23204E-01
 -1      2415 1.80745E-01
 -1      2416 1.65654E-01
 -1      2417 1.55236E-01
 -1      2418 2.12278E-01
 -1      2419 1.96016E-01
 -1      2420 1.85953E-01
 -1      2421 2.40455E-01
 -1      2422 2.21702E-01
 -1      2423 2.10648E-01
 -1      2424 2.59425E-01
 -1      2425 2.47739E-01
 -1      2426 2.27356E-01
 -1      2427 2.54114E-01
 -1      2428 2.58620E-01
 -1      2429 2.33836E-01
 -1      2430 2.53771E-01
 -1      2431 2.72642E-01
 -1      2432 2.51560E-01
 -1      2433 2.77041E-01
 -1      2434 2.80276E-01
 -1      2435 2.96594E-01
 -1      2436 4.38694E-01
 -1      2437 3.24035E-01
 -1      2438 3.70093E-01
 -1      2439 6.64129E-01
 -1      2440 5.38508E-01
 -1      2441 5.16901E-01
 -1      2442 9.41122E-01
 -1      2443 7.78319E-01
 -1      2444 7.30906E-01
 -1      2445 1.19392E+00
 -1      2446 1.05792E+00
 -1      2447 9.61896E-01
 -1      2448 1.42182E+00
 -1      2449 1.25853E+00
 -1      2450 1.14330E+00
 -1      2451 1.55377E+00
 -1      2452 1.47734E+00
 -1      2453 1.26342E+00
 -1      2454 1.51134E+00
 -1      2455 1.54055E+00
 -1      2456 1.30571E+00
 -1      2457 1.52360E+00
 -1      2458 1.49691E+00
 -1      2459 1.27806E+00
 -1      2460 1.50738E+00
 -1      2461 1.55274E+00
 -1      2462 1.29277E+00
 -1      2463 1.33079E+00
 -1      2464 1.47157E+00
 -1      2465 1.28610E+00
 -1      2466 1.12034E+00
 -1      2467 1.26847E+00
 -1      2468 1.18798E+00
 -1      2469 8.63230E-01
 -1      2470 1.01976E+00
 -1      2471 1.02509E+00
 -1      2472 6.14950E-01
 -1      2473 7.46229E-01
 -1      2474 8.07507E-01
 -1      2475 4.03760E-01
 -1      2476 5.19666E-01
 -1      2477 5.95223E-01
 -1      2478 2.65661E-01
 -1      2479 3.22569E-01
 -1      2480 4.18749E-01
 -1      2481 2.61005E-01
 -1      2482 2.41861E-01
 -1      2483 3.13759E-01
 -1      2484 2.36536E-01
 -1      2485 2.33359E-01
 -1      2486 2.62314E-01
 -1      2487 1.94693E-01
 -1      2488 2.12516E-01
 -1      2489 2.10648E-01
 -1      2490 1.84435E-01
 -1      2491 1.88035E-01
 -1      2492 1.79970E-01
 -1      2493 1.68522E-01
 -1      2494 1.72265E-01
 -1      2495 1.61141E-01
 -1      2496 1.55033E-01
 -1      2497 1.71554E-01
 -1      2498 1.52002E-01
 -1      2499 1.55033E-01
 -1      2500 9.99732E-02
 -1      2501 8.90600E-02
 -1      2502 1.08768E-01
 -1      2503 1.20291E-01
 -1      2504 1.33948E-01
 -1      2505 1.20291E-01
 -1      2506 1.54345E-01
 -1      2507 1.53656E-01
 -1      2508 2.93266E+01
 -1      2509 3.35551E+01
 -1      2510 1.41045E-01
 -1      2511 1.16104E-01
 -1      2512 1.30372E-01
 -1      2513 1.92710E-01
 -1      2514 1.72854E-01
 -1      2515 1.78312E-01
 -1      2516 2.22549E-01
 -1      2517 2.14067E-01
 -1      2518 2.31478E-01
 -1      2519 2.27360E-01
 -1      2520 2.23501E-01
 -1      2521 2.53787E-01
 -1      2522 2.43606E-01
 -1      2523 2.43606E-01
 -1      2524 2.70984E-01
 -1      2525 2.37992E-01
 -1      2526 2.43606E-01
 -1      2527 2.87229E-01
 -1      2528 1.95134E-01
 -1      2529 2.21579E-01
 -1      2530 2.70816E-01
 -1      2531 1.96406E-01
 -1      2532 1.71889E-01
 -1      2533 2.31159E-01
 -1      2534 2.46892E-01
 -1      2535 1.67578E+00
 -1      2536 1.30342E+00
 -1      2537 8.38596E-01
 -1      2538 9.59650E-01
 -1      2539 6.35702E+00
 -1      2540 7.02138E+00
 -1      2541 3.77837E+01
 -1      2542 3.77837E+01
 -1      2543 3.35551E+01
 -1      2544 3.08288E+01
 -1      2545 2.90367E+01
 -1      2546 1.55459E+01
 -1      2547 1.07647E+01
 -1      2548 7.49596E+00
 -1      2549 6.65143E+00
 -1      2550 5.22256E-01
 -1      2551 5.44225E-01
 -1      2552 4.71434E-01
 -1      2553 4.44208E-01
 -1      2554 9.18086E+00
 -1      2555 8.41662E+00
 -1      2556 5.32256E+00
 -1      2557 5.99202E+00
 -1      2558 9.78117E+00
 -1      2559 9.87346E+00
 -1      2560 1.90601E+01
 -1      2561 2.08145E+01
 -1      2562 8.84061E+00
 -1      2563 6.10378E+00
 -1      2564 2.53619E+01
 -1      2565 1.78997E+01
 -1      2566 3.06121E+01
 -1      2567 3.11229E+01
 -1      2568 1.99195E+01
 -1      2569 3.55437E+01
 -1      2570 3.55437E+01
 -1      2571 8.74183E+00
 -1      2572 6.28649E+00
 -1      2573 1.14502E+01
 -1      2574 1.62191E+01
 -1      2575 7.16325E+00
 -1      2576 9.82855E+00
 -1      2577 8.93292E+00
 -1      2578 5.44488E+00
 -1      2579 7.10304E+00
 -1      2580 1.51196E+01
 -1      2581 1.08379E+01
 -1      2582 2.47300E+01
 -1      2583 1.76120E+01
 -1      2584 2.32592E+01
 -1      2585 2.40889E+01
 -1      2586 1.55122E+01
 -1      2587 1.55033E-01
 -1      2588 5.22116E-01
 -1      2589 6.62414E-01
 -1      2590 7.20150E-01
 -1      2591 5.21298E+00
 -1      2592 1.33109E+00
 -1      2593 1.03221E+00
 -1      2594 1.05469E+00
 -1      2595 1.03618E+01
 -1      2596 1.54345E-01
 -1      2597 6.84470E+00
 -1      2598 9.78662E+00
 -1      2599 7.55745E+00
 -1      2600 1.95673E+01
 -1      2601 2.31042E+01
 -1      2602 2.31042E+01
 -1      2603 1.78666E+01
 -1      2604 8.91566E-01
 -1      2605 1.18047E+01
 -1      2606 6.42805E+00
 -1      2607 8.86167E-01
 -1      2608 9.97401E-01
 -1      2609 6.90311E-01
 -1      2610 6.64411E-01
 -1      2611 1.27683E+01
 -1      2612 2.78533E+01
 -1      2613 2.78533E+01
 -1      2614 2.08984E+01
 -1      2615 7.52674E+00
 -1      2616 8.17984E+00
 -1      2617 3.06121E+01
 -1      2618 1.57515E+01
 -1      2619 1.25021E+01
 -1      2620 9.66108E+00
 -1      2621 8.71253E+00
 -1      2622 2.12735E+01
 -1      2623 2.12735E+01
 -1      2624 1.62697E+01
 -1      2625 5.21158E+00
 -1      2626 6.97987E+00
 -1      2627 6.76829E+00
 -1      2628 7.14194E+00
 -1      2629 4.81647E+00
 -1      2630 4.82141E+00
 -1      2631 6.73459E+00
 -1      2632 8.01410E+00
 -1      2633 8.04131E+00
 -1      2634 2.91521E+01
 -1      2635 2.91521E+01
 -1      2636 2.42894E+01
 -1      2637 5.24215E+00
 -1      2638 4.85495E+00
 -1      2639 4.22333E-01
 -1      2640 4.07647E-01
 -1      2641 3.99973E-01
 -1      2642 3.87128E-01
 -1      2643 3.50551E-01
 -1      2644 4.35516E-01
 -1      2645 4.35516E-01
 -1      2646 4.21221E-01
 -1      2647 4.24929E-01
 -1      2648 3.50346E-01
 -1      2649 9.55242E-01
 -1      2650 6.16053E-01
 -1      2651 6.70631E-01
 -1      2652 4.35105E+00
 -1      2653 4.05664E+00
 -1      2654 1.71921E-01
 -1      2655 1.72609E-01
 -1      2656 1.69578E-01
 -1      2657 5.53228E-01
 -1      2658 4.96797E-01
 -1      2659 4.90356E-01
 -1      2660 4.34315E-01
 -1      2661 3.93868E-01
 -1      2662 4.13674E-01
 -1      2663 3.64388E-01
 -1      2664 3.66786E-01
 -1      2665 3.39271E-01
 -1      2666 3.13634E-01
 -1      2667 3.21028E-01
 -1      2668 2.88191E-01
 -1      2669 2.63893E-01
 -1      2670 2.70468E-01
 -1      2671 2.47403E-01
 -1      2672 2.24446E-01
 -1      2673 2.28535E-01
 -1      2674 2.08363E-01
 -1      2675 1.87810E-01
 -1      2676 1.95962E-01
 -1      2677 1.72292E-01
 -1      2678 1.54466E-01
 -1      2679 1.64361E-01
 -1      2680 1.39533E-01
 -1      2681 1.24269E-01
 -1      2682 1.33909E-01
 -1      2683 1.09796E-01
 -1      2684 9.65715E-02
 -1      2685 1.04503E-01
 -1      2686 8.19746E-02
 -1      2687 7.76324E-02
 -1      2688 7.54331E-02
 -1      2689 8.02763E-02
 -1      2690 8.89151E-02
 -1      2691 6.34801E-02
 -1      2692 1.10008E-01
 -1      2693 1.34729E-01
 -1      2694 8.72171E-02
 -1      2695 1.65194E-01
 -1      2696 2.06814E-01
 -1      2697 1.38775E-01
 -1      2698 2.45003E-01
 -1      2699 2.99776E-01
 -1      2700 2.07428E-01
 -1      2701 3.57451E-01
 -1      2702 4.30072E-01
 -1      2703 3.03292E-01
 -1      2704 5.15034E-01
 -1      2705 6.11385E-01
 -1      2706 4.45929E-01
 -1      2707 7.28080E-01
 -1      2708 8.55445E-01
 -1      2709 6.47586E-01
 -1      2710 1.01448E+00
 -1      2711 1.18178E+00
 -1      2712 9.23321E-01
 -1      2713 1.39546E+00
 -1      2714 1.61356E+00
 -1      2715 1.29604E+00
 -1      2716 1.90982E+00
 -1      2717 2.19147E+00
 -1      2718 1.80598E+00
 -1      2719 2.58824E+00
 -1      2720 2.94229E+00
 -1      2721 2.49901E+00
 -1      2722 3.57262E+00
 -1      2723 3.99774E+00
 -1      2724 3.52611E+00
 -1      2725 6.12645E+00
 -1      2726 6.69049E+00
 -1      2727 6.28515E+00
 -1      2728 8.31021E+00
 -1      2729 9.40108E+00
 -1      2730 1.00336E+01
 -1      2731 8.17115E+00
 -1      2732 7.99869E+00
 -1      2733 5.69656E+00
 -1      2734 7.02065E-01
 -1      2735 6.67181E-01
 -1      2736 6.82979E+00
 -1      2737 5.85295E+00
 -1      2738 4.92341E+00
 -1      2739 4.41033E+00
 -1      2740 5.90025E+00
 -1      2741 3.90265E+00
 -1      2742 3.46533E+00
 -1      2743 4.46303E+00
 -1      2744 2.92164E+00
 -1      2745 2.56498E+00
 -1      2746 3.41166E+00
 -1      2747 2.16734E+00
 -1      2748 1.88284E+00
 -1      2749 2.47034E+00
 -1      2750 1.57801E+00
 -1      2751 1.35458E+00
 -1      2752 1.76787E+00
 -1      2753 1.13472E+00
 -1      2754 9.61351E-01
 -1      2755 1.24318E+00
 -1      2756 7.95753E-01
 -1      2757 6.62593E-01
 -1      2758 8.57723E-01
 -1      2759 5.40114E-01
 -1      2760 4.37628E-01
 -1      2761 5.69647E-01
 -1      2762 3.62438E-01
 -1      2763 2.91329E-01
 -1      2764 2.52352E-01
 -1      2765 3.71979E-01
 -1      2766 4.19663E-01
 -1      2767 4.78391E-01
 -1      2768 3.55190E-01
 -1      2769 3.92633E-01
 -1      2770 3.63251E-01
 -1      2771 4.99490E-01
 -1      2772 5.64141E-01
 -1      2773 4.11380E-01
 -1      2774 2.53124E-01
 -1      2775 2.79028E-01
 -1      2776 2.12598E-01
 -1      2777 2.36149E-01
 -1      2778 2.20490E-01
 -1      2779 1.75318E-01
 -1      2780 1.95892E-01
 -1      2781 1.86808E-01
 -1      2782 1.41708E-01
 -1      2783 1.59363E-01
 -1      2784 1.54148E-01
 -1      2785 1.11499E-01
 -1      2786 1.26794E-01
 -1      2787 1.23279E-01
 -1      2788 8.43992E-02
 -1      2789 9.75638E-02
 -1      2790 9.44294E-02
 -1      2791 7.20715E-02
 -1      2792 7.24916E-02
 -1      2793 6.85868E-02
 -1      2794 7.96610E-02
 -1      2795 7.53311E-02
 -1      2796 5.99389E-02
 -1      2797 9.43302E-02
 -1      2798 8.90817E-02
 -1      2799 7.26193E-02
 -1      2800 1.28680E-01
 -1      2801 1.12096E-01
 -1      2802 9.98058E-02
 -1      2803 1.61979E-01
 -1      2804 1.46531E-01
 -1      2805 1.35423E-01
 -1      2806 1.95048E-01
 -1      2807 1.79778E-01
 -1      2808 1.71073E-01
 -1      2809 2.19522E-01
 -1      2810 2.10098E-01
 -1      2811 2.03923E-01
 -1      2812 2.45152E-01
 -1      2813 2.37868E-01
 -1      2814 2.37318E-01
 -1      2815 2.61996E-01
 -1      2816 2.62801E-01
 -1      2817 2.73312E-01
 -1      2818 2.90421E-01
 -1      2819 2.71893E-01
 -1      2820 3.00858E-01
 -1      2821 3.68900E-01
 -1      2822 3.42394E-01
 -1      2823 3.62727E-01
 -1      2824 4.72455E-01
 -1      2825 4.25461E-01
 -1      2826 4.71262E-01
 -1      2827 6.16716E-01
 -1      2828 5.16901E-01
 -1      2829 5.72270E-01
 -1      2830 8.41226E-01
 -1      2831 7.27037E-01
 -1      2832 7.27037E-01
 -1      2833 1.05437E+00
 -1      2834 9.37571E-01
 -1      2835 9.33702E-01
 -1      2836 1.16703E+00
 -1      2837 1.10243E+00
 -1      2838 1.07810E+00
 -1      2839 1.30582E+00
 -1      2840 1.25030E+00
 -1      2841 1.20943E+00
 -1      2842 1.36619E+00
 -1      2843 1.37940E+00
 -1      2844 1.36629E+00
 -1      2845 1.28017E+00
 -1      2846 1.29460E+00
 -1      2847 1.36829E+00
 -1      2848 1.37806E+00
 -1      2849 1.34892E+00
 -1      2850 1.36546E+00
 -1      2851 1.30970E+00
 -1      2852 1.34551E+00
 -1      2853 1.40166E+00
 -1      2854 1.14280E+00
 -1      2855 1.20511E+00
 -1      2856 1.26452E+00
 -1      2857 9.87018E-01
 -1      2858 1.08760E+00
 -1      2859 1.10473E+00
 -1      2860 8.04687E-01
 -1      2861 9.21687E-01
 -1      2862 9.84197E-01
 -1      2863 5.95223E-01
 -1      2864 6.90506E-01
 -1      2865 8.04687E-01
 -1      2866 4.43452E-01
 -1      2867 5.24642E-01
 -1      2868 6.19926E-01
 -1      2869 3.66317E-01
 -1      2870 3.90116E-01
 -1      2871 4.96009E-01
 -1      2872 2.82371E-01
 -1      2873 3.10016E-01
 -1      2874 3.86374E-01
 -1      2875 2.17828E-01
 -1      2876 2.41848E-01
 -1      2877 2.89550E-01
 -1      2878 2.13837E-01
 -1      2879 2.20496E-01
 -1      2880 2.51695E-01
 -1      2881 2.03101E-01
 -1      2882 2.15271E-01
 -1      2883 2.55797E-01
 -1      2884 2.23709E-01
 -1      2885 1.52213E-01
 -1      2886 1.71921E-01
 -1      2887 2.15053E-01
 -1      2888 1.83244E-01
 -1      2889 1.71921E-01
 -1      2890 1.09828E+01
 -1      2891 1.43219E+01
 -1      2892 1.68794E-01
 -1      2893 1.52663E-01
 -1      2894 1.90636E-01
 -1      2895 2.05535E-01
 -1      2896 2.98469E-01
 -1      2897 2.97517E-01
 -1      2898 3.25575E-01
 -1      2899 3.09330E-01
 -1      2900 3.53060E-01
 -1      2901 3.42233E-01
 -1      2902 3.42233E-01
 -1      2903 3.80579E-01
 -1      2904 3.25820E-01
 -1      2905 3.42233E-01
 -1      2906 3.97236E-01
 -1      2907 7.86727E+00
 -1      2908 9.67846E+00
 -1      2909 2.11762E+01
 -1      2910 2.54048E+01
 -1      2911 8.50708E+00
 -1      2912 7.32974E+00
 -1      2913 5.40563E+00
 -1      2914 9.07595E+00
 -1      2915 2.77739E-01
 -1      2916 2.56382E-01
 -1      2917 3.22421E-01
 -1      2918 8.08581E+00
 -1      2919 7.56271E+00
 -1      2920 7.56271E+00
 -1      2921 9.28577E+00
 -1      2922 1.09983E+01
 -1      2923 8.64446E+00
 -1      2924 6.03058E-01
 -1      2925 5.54275E-01
 -1      2926 4.01356E-01
 -1      2927 4.66527E-01
 -1      2928 4.35784E+00
 -1      2929 3.57663E+00
 -1      2930 4.16085E+00
 -1      2931 4.99928E+00
 -1      2932 6.81531E+00
 -1      2933 5.93832E+00
 -1      2934 5.01766E+00
 -1      2935 1.97269E+01
 -1      2936 1.39659E+01
 -1      2937 4.35516E-01
 -1      2938 4.23687E-01
 -1      2939 3.59578E-01
 -1      2940 3.60932E-01
 -1      2941 7.12060E+00
 -1      2942 7.14199E+00
 -1      2943 1.83561E+01
 -1      2944 1.40495E+01
 -1      2945 4.22157E-01
 -1      2946 4.36032E-01
 -1      2947 3.00254E-01
 -1      2948 3.27037E-01
 -1      2949 3.08068E-01
 -1      2950 2.58690E-01
 -1      2951 2.62205E+01
 -1      2952 2.12888E+01
 -1      2953 7.20150E-01
 -1      2954 7.35468E+00
 -1      2955 6.66208E+00
 -1      2956 5.25169E+00
 -1      2957 8.46633E+00
 -1      2958 3.42711E-01
 -1      2959 3.86963E-01
 -1      2960 3.99790E-01
 -1      2961 5.48171E-01
 -1      2962 3.86132E+00
 -1      2963 1.90186E-01
 -1      2964 1.04234E+01
 -1      2965 4.88680E+00
 -1      2966 6.47872E+00
 -1      2967 5.09949E+00
 -1      2968 1.17781E+01
 -1      2969 1.98289E+01
 -1      2970 2.61314E-01
 -1      2971 4.45347E-01
 -1      2972 4.53881E-01
 -1      2973 3.67796E-01
 -1      2974 5.30649E-01
 -1      2975 1.44755E+01
 -1      2976 1.34908E+01
 -1      2977 9.94610E+00
 -1      2978 8.48820E+00
 -1      2979 1.49538E+01
 -1      2980 6.13196E+00
 -1      2981 2.91633E-01
 -1      2982 3.14878E-01
 -1      2983 3.86294E-01
 -1      2984 3.36071E-01
 -1      2985 4.25753E-01
 -1      2986 5.57416E-01
 -1      2987 1.30258E+01
 -1      2988 2.54048E+01
 -1      2989 1.54743E+01
 -1      2990 5.26023E-01
 -1      2991 6.94582E+00
 -1      2992 4.82471E+00
 -1      2993 6.13943E+00
 -1      2994 3.47943E+00
 -1      2995 4.25570E+00
 -1      2996 3.01586E+00
 -1      2997 4.66709E-01
 -1      2998 4.13736E+00
 -1      2999 5.57141E+00
 -1      3000 4.07236E-01
 -1      3001 4.21635E-01
 -1      3002 3.57959E-01
 -1      3003 3.49991E-01
 -1      3004 1.98662E+01
 -1      3005 1.83373E+01
 -1      3006 1.53214E+01
 -1      3007 1.03874E+01
 -1      3008 1.05800E+01
 -1      3009 7.41975E+00
 -1      3010 1.53806E+01
 -1      3011 1.05670E+01
 -1      3012 2.90640E-01
 -1      3013 3.01226E-01
 -1      3014 6.13339E-01
 -1      3015 3.66001E+00
 -1      3016 2.99340E+00
 -1      3017 4.54249E+00
 -1      3018 3.49471E+00
 -1      3019 3.22388E-01
 -1      3020 3.01746E-01
 -1      3021 2.97924E-01
 -1      3022 2.72808E-01
 -1      3023 2.53526E-01
 -1      3024 2.61289E-01
 -1      3025 2.35846E-01
 -1      3026 2.38185E-01
 -1      3027 2.20665E-01
 -1      3028 2.04175E-01
 -1      3029 2.11486E-01
 -1      3030 1.90401E-01
 -1      3031 1.74318E-01
 -1      3032 1.82531E-01
 -1      3033 1.62054E-01
 -1      3034 1.46536E-01
 -1      3035 1.56493E-01
 -1      3036 1.32950E-01
 -1      3037 1.18017E-01
 -1      3038 1.30643E-01
 -1      3039 1.03785E-01
 -1      3040 8.93116E-02
 -1      3041 1.02826E-01
 -1      3042 7.45962E-02
 -1      3043 5.99994E-02
 -1      3044 7.38779E-02
 -1      3045 6.00358E-02
 -1      3046 6.26797E-02
 -1      3047 5.91990E-02
 -1      3048 7.48762E-02
 -1      3049 9.59692E-02
 -1      3050 7.14319E-02
 -1      3051 1.24868E-01
 -1      3052 1.55333E-01
 -1      3053 1.12527E-01
 -1      3054 1.94873E-01
 -1      3055 2.33061E-01
 -1      3056 1.80966E-01
 -1      3057 2.85884E-01
 -1      3058 3.43560E-01
 -1      3059 2.73329E-01
 -1      3060 4.15051E-01
 -1      3061 5.00012E-01
 -1      3062 3.97643E-01
 -1      3063 5.97802E-01
 -1      3064 7.14498E-01
 -1      3065 5.66924E-01
 -1      3066 8.49821E-01
 -1      3067 1.00886E+00
 -1      3068 8.00037E-01
 -1      3069 1.19932E+00
 -1      3070 1.41300E+00
 -1      3071 1.12582E+00
 -1      3072 1.68829E+00
 -1      3073 1.98455E+00
 -1      3074 1.59157E+00
 -1      3075 2.39281E+00
 -1      3076 2.78958E+00
 -1      3077 2.27511E+00
 -1      3078 3.39896E+00
 -1      3079 4.02929E+00
 -1      3080 3.29276E+00
 -1      3081 6.28515E+00
 -1      3082 8.41386E+00
 -1      3083 6.15800E+00
 -1      3084 1.37320E+01
 -1      3085 4.99664E+00
 -1      3086 4.27288E+00
 -1      3087 3.40496E+00
 -1      3088 1.53353E+01
 -1      3089 5.19439E+00
 -1      3090 4.68670E+00
 -1      3091 3.95534E+00
 -1      3092 3.41166E+00
 -1      3093 4.68670E+00
 -1      3094 2.78038E+00
 -1      3095 2.38274E+00
 -1      3096 3.32407E+00
 -1      3097 1.96450E+00
 -1      3098 1.65967E+00
 -1      3099 2.27454E+00
 -1      3100 1.37524E+00
 -1      3101 1.15538E+00
 -1      3102 1.57186E+00
 -1      3103 9.55907E-01
 -1      3104 7.90308E-01
 -1      3105 1.08796E+00
 -1      3106 6.83993E-01
 -1      3107 5.61515E-01
 -1      3108 7.82177E-01
 -1      3109 3.03549E-01
 -1      3110 3.30579E-01
 -1      3111 3.30334E-01
 -1      3112 3.51433E-01
 -1      3113 2.70632E-01
 -1      3114 1.66251E-01
 -1      3115 1.82957E-01
 -1      3116 1.94840E-01
 -1      3117 2.11816E-01
 -1      3118 1.74283E-01
 -1      3119 1.07398E-01
 -1      3120 1.22312E-01
 -1      3121 7.88333E-02
 -1      3122 9.27684E-02
 -1      3123 9.18018E-02
 -1      3124 5.20669E-02
 -1      3125 6.39745E-02
 -1      3126 6.23134E-02
 -1      3127 4.92717E-02
 -1      3128 4.60121E-02
 -1      3129 4.13997E-02
 -1      3130 6.89058E-02
 -1      3131 5.94850E-02
 -1      3132 4.55582E-02
 -1      3133 1.04379E-01
 -1      3134 8.66135E-02
 -1      3135 7.34792E-02
 -1      3136 1.42481E-01
 -1      3137 1.24630E-01
 -1      3138 1.11438E-01
 -1      3139 1.81905E-01
 -1      3140 1.64105E-01
 -1      3141 1.53312E-01
 -1      3142 2.18794E-01
 -1      3143 2.03743E-01
 -1      3144 1.96775E-01
 -1      3145 2.57422E-01
 -1      3146 2.39077E-01
 -1      3147 2.38897E-01
 -1      3148 3.05409E-01
 -1      3149 2.87760E-01
 -1      3150 2.89519E-01
 -1      3151 3.51059E-01
 -1      3152 3.41163E-01
 -1      3153 3.55611E-01
 -1      3154 4.34549E-01
 -1      3155 3.82576E-01
 -1      3156 4.22881E-01
 -1      3157 5.59337E-01
 -1      3158 5.02776E-01
 -1      3159 5.22625E-01
 -1      3160 7.02075E-01
 -1      3161 6.57628E-01
 -1      3162 6.89142E-01
 -1      3163 8.82349E-01
 -1      3164 7.72028E-01
 -1      3165 8.57387E-01
 -1      3166 1.03555E+00
 -1      3167 9.39207E-01
 -1      3168 9.84198E-01
 -1      3169 1.24693E+00
 -1      3170 1.19887E+00
 -1      3171 1.20438E+00
 -1      3172 1.30372E+00
 -1      3173 1.22044E+00
 -1      3174 1.34121E+00
 -1      3175 1.56715E+00
 -1      3176 1.49357E+00
 -1      3177 1.50458E+00
 -1      3178 1.53583E+00
 -1      3179 1.60742E+00
 -1      3180 1.73469E+00
 -1      3181 1.62220E+00
 -1      3182 1.55345E+00
 -1      3183 1.79258E+00
 -1      3184 1.60255E+00
 -1      3185 1.63510E+00
 -1      3186 1.82309E+00
 -1      3187 1.26452E+00
 -1      3188 1.36910E+00
 -1      3189 1.60255E+00
 -1      3190 1.19824E+00
 -1      3191 1.25345E+00
 -1      3192 1.35803E+00
 -1      3193 1.04614E+00
 -1      3194 1.11147E+00
 -1      3195 1.26018E+00
 -1      3196 8.16031E-01
 -1      3197 9.30211E-01
 -1      3198 1.05748E+00
 -1      3199 6.85674E-01
 -1      3200 7.56255E-01
 -1      3201 8.81779E-01
 -1      3202 5.38129E-01
 -1      3203 5.91464E-01
 -1      3204 7.27794E-01
 -1      3205 3.87479E-01
 -1      3206 4.43779E-01
 -1      3207 5.39234E-01
 -1      3208 3.07371E-01
 -1      3209 3.47894E-01
 -1      3210 4.05300E-01
 -1      3211 2.55350E-01
 -1      3212 2.52682E-01
 -1      3213 3.11027E-01
 -1      3214 4.50000E-01
 -1      3215 4.33342E-01
 -1      3216 9.83406E+00
 -1      3217 5.01649E-01
 -1      3218 5.01649E-01
 -1      3219 5.54412E-01
 -1      3220 4.08413E-01
 -1      3221 3.97552E-01
 -1      3222 4.77835E-01
 -1      3223 1.30659E+01
 -1      3224 1.11379E+01
 -1      3225 9.67481E+00
 -1      3226 5.06343E-01
 -1      3227 3.81091E-01
 -1      3228 3.61313E-01
 -1      3229 4.36444E-01
 -1      3230 1.41910E+01
 -1      3231 3.79394E-01
 -1      3232 1.67960E+01
 -1      3233 1.38644E+01
 -1      3234 4.68641E+00
 -1      3235 5.73837E+00
 -1      3236 1.36665E-01
 -1      3237 1.52620E-01
 -1      3238 1.48769E-01
 -1      3239 1.20784E-01
 -1      3240 8.49337E+00
 -1      3241 7.56383E+00
 -1      3242 7.78750E+00
 -1      3243 1.14976E+01
 -1      3244 4.46646E+00
 -1      3245 4.44512E+00
 -1      3246 3.23305E-01
 -1      3247 3.15631E-01
 -1      3248 2.23709E-01
 -1      3249 2.23709E-01
 -1      3250 2.57232E-01
 -1      3251 1.40399E+01
 -1      3252 3.17585E-01
 -1      3253 3.11144E-01
 -1      3254 2.46105E-01
 -1      3255 3.30274E-01
 -1      3256 4.53881E-01
 -1      3257 3.22970E+00
 -1      3258 4.17234E+00
 -1      3259 6.74712E+00
 -1      3260 8.05140E+00
 -1      3261 5.30156E+00
 -1      3262 3.08563E-01
 -1      3263 2.67234E-01
 -1      3264 3.67233E-01
 -1      3265 1.32106E+01
 -1      3266 1.16487E+01
 -1      3267 7.87999E+00
 -1      3268 1.00046E+01
 -1      3269 6.61871E+00
 -1      3270 3.41039E+00
 -1      3271 3.02875E+00
 -1      3272 2.93155E+00
 -1      3273 3.12388E-01
 -1      3274 3.12222E-01
 -1      3275 2.85142E-01
 -1      3276 1.11640E+01
 -1      3277 1.11640E+01
 -1      3278 1.27837E+01
 -1      3279 4.22717E+00
 -1      3280 3.56390E+00
 -1      3281 3.12222E+00
 -1      3282 4.80378E+00
 -1      3283 3.82497E+00
 -1      3284 3.92782E+00
 -1      3285 3.12942E+00
 -1      3286 4.15857E+00
 -1      3287 2.93398E-01
 -1      3288 2.60727E-01
 -1      3289 2.65246E-01
 -1      3290 4.11260E-01
 -1      3291 2.03172E-01
 -1      3292 2.28821E-01
 -1      3293 2.50047E-01
 -1      3294 8.12498E+00
 -1      3295 1.00129E+01
 -1      3296 1.00129E+01
 -1      3297 2.96120E-01
 -1      3298 2.94686E-01
 -1      3299 2.95673E-01
 -1      3300 2.96120E-01
 -1      3301 1.15914E+01
 -1      3302 3.20382E-01
 -1      3303 3.29697E-01
 -1      3304 7.96986E+00
 -1      3305 8.12346E+00
 -1      3306 6.22877E+00
 -1      3307 5.36549E-01
 -1      3308 6.40961E-01
 -1      3309 2.05672E-01
 -1      3310 2.05222E-01
 -1      3311 2.38745E-01
 -1      3312 3.30995E-01
 -1      3313 3.24269E-01
 -1      3314 6.22769E+00
 -1      3315 4.52905E+00
 -1      3316 5.80938E+00
 -1      3317 3.20055E-01
 -1      3318 3.20055E-01
 -1      3319 2.60349E-01
 -1      3320 3.77875E+00
 -1      3321 3.02839E+00
 -1      3322 1.23728E+01
 -1      3323 3.89758E-01
 -1      3324 2.22169E-01
 -1      3325 2.07720E-01
 -1      3326 2.22307E-01
 -1      3327 2.69419E-01
 -1      3328 2.35516E-01
 -1      3329 3.33272E-01
 -1      3330 3.32225E-01
 -1      3331 2.49501E-01
 -1      3332 3.23305E-01
 -1      3333 2.88386E-01
 -1      3334 3.24659E-01
 -1      3335 5.25607E-01
 -1      3336 3.23196E-01
 -1      3337 3.23718E-01
 -1      3338 2.85619E-01
 -1      3339 9.44351E+00
 -1      3340 1.24764E+01
 -1      3341 8.78977E+00
 -1      3342 2.49949E-01
 -1      3343 4.75783E-02
 -1      3344 5.36332E-02
 -1      3345 2.15978E-01
 -1      3346 2.04459E-01
 -1      3347 2.00028E-01
 -1      3348 1.84847E-01
 -1      3349 1.77821E-01
 -1      3350 1.75780E-01
 -1      3351 1.62006E-01
 -1      3352 1.64322E-01
 -1      3353 1.51233E-01
 -1      3354 1.38969E-01
 -1      3355 1.44482E-01
 -1      3356 1.30165E-01
 -1      3357 1.16580E-01
 -1      3358 1.24905E-01
 -1      3359 1.06107E-01
 -1      3360 9.18745E-02
 -1      3361 1.05628E-01
 -1      3362 8.04504E-02
 -1      3363 6.57350E-02
 -1      3364 8.37316E-02
 -1      3365 6.84732E-02
 -1      3366 6.85097E-02
 -1      3367 7.50457E-02
 -1      3368 7.13325E-02
 -1      3369 8.35289E-02
 -1      3370 8.06067E-02
 -1      3371 1.01547E-01
 -1      3372 1.30446E-01
 -1      3373 1.01448E-01
 -1      3374 1.61204E-01
 -1      3375 2.00744E-01
 -1      3376 1.50224E-01
 -1      3377 2.40451E-01
 -1      3378 2.93274E-01
 -1      3379 2.20689E-01
 -1      3380 3.45160E-01
 -1      3381 4.16651E-01
 -1      3382 3.12282E-01
 -1      3383 4.85272E-01
 -1      3384 5.83062E-01
 -1      3385 4.32789E-01
 -1      3386 6.75364E-01
 -1      3387 8.10687E-01
 -1      3388 5.93712E-01
 -1      3389 9.38121E-01
 -1      3390 1.12858E+00
 -1      3391 8.13448E-01
 -1      3392 1.31343E+00
 -1      3393 1.58872E+00
 -1      3394 1.12574E+00
 -1      3395 1.88033E+00
 -1      3396 2.28859E+00
 -1      3397 1.60220E+00
 -1      3398 2.75256E+00
 -1      3399 3.36195E+00
 -1      3400 2.35778E+00
 -1      3401 5.03039E+00
 -1      3402 7.28625E+00
 -1      3403 4.49020E+00
 -1      3404 1.56004E-01
 -1      3405 1.67887E-01
 -1      3406 4.79106E+00
 -1      3407 4.05970E+00
 -1      3408 8.83453E+00
 -1      3409 6.46509E+00
 -1      3410 5.83809E+00
 -1      3411 1.02690E+01
 -1      3412 3.49917E+00
 -1      3413 2.86789E+00
 -1      3414 3.60352E+00
 -1      3415 2.32011E+00
 -1      3416 1.90186E+00
 -1      3417 2.49521E+00
 -1      3418 1.59383E+00
 -1      3419 1.30940E+00
 -1      3420 1.63940E+00
 -1      3421 1.11218E+00
 -1      3422 9.12713E-01
 -1      3423 1.13415E+00
 -1      3424 7.88510E-01
 -1      3425 6.82195E-01
 -1      3426 6.47295E-01
 -1      3427 8.12731E-01
 -1      3428 1.89134E-01
 -1      3429 2.00378E-01
 -1      3430 5.48449E-02
 -1      3431 6.97037E-02
 -1      3432 6.10234E-02
 -1      3433 8.20536E-02
 -1      3434 9.66831E-02
 -1      3435 7.45851E-02
 -1      3436 5.74887E-02
 -1      3437 4.72753E-02
 -1      3438 5.95087E-02
 -1      3439 8.90873E-02
 -1      3440 7.13797E-02
 -1      3441 7.30967E-02
 -1      3442 1.26595E-01
 -1      3443 1.06344E-01
 -1      3444 1.04245E-01
 -1      3445 1.67211E-01
 -1      3446 1.45587E-01
 -1      3447 1.40494E-01
 -1      3448 2.11031E-01
 -1      3449 1.89192E-01
 -1      3450 1.81466E-01
 -1      3451 2.62054E-01
 -1      3452 2.41770E-01
 -1      3453 2.34187E-01
 -1      3454 3.27386E-01
 -1      3455 2.97048E-01
 -1      3456 2.99921E-01
 -1      3457 4.03690E-01
 -1      3458 3.67937E-01
 -1      3459 3.75466E-01
 -1      3460 4.97650E-01
 -1      3461 4.66133E-01
 -1      3462 4.78459E-01
 -1      3463 6.33642E-01
 -1      3464 5.65416E-01
 -1      3465 6.08668E-01
 -1      3466 7.90808E-01
 -1      3467 6.92518E-01
 -1      3468 7.35308E-01
 -1      3469 1.02150E+00
 -1      3470 9.51547E-01
 -1      3471 9.54922E-01
 -1      3472 1.20257E+00
 -1      3473 1.14571E+00
 -1      3474 1.23987E+00
 -1      3475 1.48609E+00
 -1      3476 1.32277E+00
 -1      3477 1.48429E+00
 -1      3478 2.12958E+00
 -1      3479 2.15607E+00
 -1      3480 2.27446E+00
 -1      3481 2.07452E+00
 -1      3482 1.88467E+00
 -1      3483 2.69952E+00
 -1      3484 2.12713E+00
 -1      3485 2.08686E+00
 -1      3486 2.46695E+00
 -1      3487 2.57548E+00
 -1      3488 2.56258E+00
 -1      3489 1.71606E+00
 -1      3490 1.94950E+00
 -1      3491 2.68899E+00
 -1      3492 1.61190E+00
 -1      3493 1.62297E+00
 -1      3494 1.96992E+00
 -1      3495 1.34217E+00
 -1      3496 1.42895E+00
 -1      3497 1.69389E+00
 -1      3498 1.15224E+00
 -1      3499 1.26816E+00
 -1      3500 1.43693E+00
 -1      3501 9.93842E-01
 -1      3502 1.05362E+00
 -1      3503 1.26430E+00
 -1      3504 7.49605E-01
 -1      3505 8.43815E-01
 -1      3506 1.01565E+00
 -1      3507 5.62079E-01
 -1      3508 6.56429E-01
 -1      3509 7.72450E-01
 -1      3510 4.55546E-01
 -1      3511 4.95130E-01
 -1      3512 6.12325E-01
 -1      3513 3.68913E-01
 -1      3514 4.23602E-01
 -1      3515 5.13432E-01
 -1      3516 2.93155E+00
 -1      3517 3.14230E+00
 -1      3518 2.94444E+00
 -1      3519 3.40496E+00
 -1      3520 2.79209E+00
 -1      3521 5.45038E-01
 -1      3522 5.20108E-01
 -1      3523 8.39980E+00
 -1      3524 7.97490E+00
 -1      3525 2.73212E-01
 -1      3526 3.20626E-01
 -1      3527 5.20108E-01
 -1      3528 5.03647E-01
 -1      3529 5.87312E-01
 -1      3530 2.22384E-01
 -1      3531 2.22139E-01
 -1      3532 3.47456E+00
 -1      3533 3.19234E+00
 -1      3534 1.82046E-01
 -1      3535 1.88050E-01
 -1      3536 2.06879E-01
 -1      3537 3.15751E-01
 -1      3538 3.23196E-01
 -1      3539 2.88956E-01
 -1      3540 2.16310E-01
 -1      3541 2.12488E-01
 -1      3542 1.78762E-01
 -1      3543 2.42755E+00
 -1      3544 2.66384E+00
 -1      3545 2.42755E+00
 -1      3546 3.82598E+00
 -1      3547 4.83473E+00
 -1      3548 4.35586E-01
 -1      3549 3.82837E-01
 -1      3550 5.19251E-01
 -1      3551 5.64011E-01
 -1      3552 5.12363E-01
 -1      3553 5.54637E-01
 -1      3554 6.05245E-01
 -1      3555 3.04622E+00
 -1      3556 3.56029E+00
 -1      3557 2.00704E-01
 -1      3558 1.80266E-01
 -1      3559 1.32801E-01
 -1      3560 1.52456E-01
 -1      3561 3.19234E+00
 -1      3562 2.72638E+00
 -1      3563 2.50833E+00
 -1      3564 5.44864E+00
 -1      3565 5.83138E+00
 -1      3566 2.52292E-01
 -1      3567 2.49048E-01
 -1      3568 1.60794E-01
 -1      3569 1.79073E-01
 -1      3570 1.96079E-01
 -1      3571 8.10655E+00
 -1      3572 1.08567E+01
 -1      3573 2.98407E-01
 -1      3574 3.37295E-01
 -1      3575 2.79920E-01
 -1      3576 6.97895E+00
 -1      3577 1.46377E-01
 -1      3578 1.39981E-01
 -1      3579 1.32746E-01
 -1      3580 2.89739E+00
 -1      3581 2.67944E+00
 -1      3582 2.69952E+00
 -1      3583 3.35141E+00
 -1      3584 3.05571E+00
 -1      3585 2.69179E+00
 -1      3586 1.59339E-01
 -1      3587 2.35377E-01
 -1      3588 7.36164E+00
 -1      3589 6.23671E+00
 -1      3590 6.08663E+00
 -1      3591 2.06253E+00
 -1      3592 2.04492E+00
 -1      3593 4.08248E-01
 -1      3594 5.17855E+00
 -1      3595 5.09701E+00
 -1      3596 3.70297E+00
 -1      3597 4.63931E+00
 -1      3598 6.42355E+00
 -1      3599 3.47354E+00
 -1      3600 3.66640E+00
 -1      3601 2.46235E-01
 -1      3602 2.42899E-01
 -1      3603 2.39708E+00
 -1      3604 4.00992E+00
 -1      3605 3.92166E+00
 -1      3606 2.95543E+00
 -1      3607 2.31084E-01
 -1      3608 1.82591E-01
 -1      3609 2.20933E-01
 -1      3610 2.85427E-01
 -1      3611 7.25609E+00
 -1      3612 1.08186E-01
 -1      3613 1.22539E-01
 -1      3614 1.20148E-01
 -1      3615 9.84378E-02
 -1      3616 9.31538E+00
 -1      3617 7.92738E+00
 -1      3618 3.17467E-01
 -1      3619 2.72402E-01
 -1      3620 3.85820E-01
 -1      3621 2.29353E-01
 -1      3622 2.20283E-01
 -1      3623 2.05643E-01
 -1      3624 1.89970E-01
 -1      3625 2.83782E-01
 -1      3626 2.44539E+00
 -1      3627 3.09345E+00
 -1      3628 6.89437E+00
 -1      3629 7.62862E+00
 -1      3630 2.52292E-01
 -1      3631 2.52292E-01
 -1      3632 2.16197E-01
 -1      3633 5.98459E+00
 -1      3634 1.59916E-01
 -1      3635 2.81492E+00
 -1      3636 5.09411E+00
 -1      3637 4.30678E+00
 -1      3638 4.84274E+00
 -1      3639 2.17561E-01
 -1      3640 2.50412E-01
 -1      3641 2.53940E-01
 -1      3642 1.53087E-01
 -1      3643 1.44019E-01
 -1      3644 1.38470E-01
 -1      3645 1.27697E-01
 -1      3646 1.27234E-01
 -1      3647 1.19542E-01
 -1      3648 1.10738E-01
 -1      3649 1.13530E-01
 -1      3650 1.04393E-01
 -1      3651 9.39207E-02
 -1      3652 9.90303E-02
 -1      3653 8.77215E-02
 -1      3654 7.62974E-02
 -1      3655 8.64865E-02
 -1      3656 8.01304E-02
 -1      3657 8.28686E-02
 -1      3658 8.41203E-02
 -1      3659 8.44889E-02
 -1      3660 8.73117E-02
 -1      3661 8.95736E-02
 -1      3662 9.42518E-02
 -1      3663 1.12270E-01
 -1      3664 9.81340E-02
 -1      3665 1.27051E-01
 -1      3666 1.57808E-01
 -1      3667 1.19855E-01
 -1      3668 1.83840E-01
 -1      3669 2.23548E-01
 -1      3670 1.60667E-01
 -1      3671 2.55397E-01
 -1      3672 3.07283E-01
 -1      3673 2.18548E-01
 -1      3674 3.53650E-01
 -1      3675 4.22271E-01
 -1      3676 2.96764E-01
 -1      3677 4.91067E-01
 -1      3678 5.83369E-01
 -1      3679 4.11928E-01
 -1      3680 6.81086E-01
 -1      3681 8.08521E-01
 -1      3682 5.78441E-01
 -1      3683 9.47690E-01
 -1      3684 1.13254E+00
 -1      3685 8.15327E-01
 -1      3686 1.33158E+00
 -1      3687 1.62319E+00
 -1      3688 1.15353E+00
 -1      3689 1.93685E+00
 -1      3690 2.40082E+00
 -1      3691 1.66622E+00
 -1      3692 3.34471E+00
 -1      3693 5.01316E+00
 -1      3694 2.92378E+00
 -1      3695 6.15781E+00
 -1      3696 4.48377E+00
 -1      3697 5.90177E+00
 -1      3698 2.57245E+00
 -1      3699 2.02467E+00
 -1      3700 1.68976E+00
 -1      3701 1.38174E+00
 -1      3702 1.76701E+00
 -1      3703 1.17263E+00
 -1      3704 9.75410E-01
 -1      3705 1.22299E+00
 -1      3706 7.86022E-01
 -1      3707 6.61820E-01
 -1      3708 5.78536E-01
 -1      3709 8.24498E-01
 -1      3710 6.85065E-02
 -1      3711 6.97182E-02
 -1      3712 6.93454E-02
 -1      3713 6.96484E-02
 -1      3714 7.83432E-02
 -1      3715 6.91078E-02
 -1      3716 8.14578E-02
 -1      3717 7.65909E-02
 -1      3718 1.21502E-01
 -1      3719 1.04245E-01
 -1      3720 1.59485E-01
 -1      3721 1.40494E-01
 -1      3722 1.40494E-01
 -1      3723 2.03652E-01
 -1      3724 1.81671E-01
 -1      3725 1.81671E-01
 -1      3726 2.62968E-01
 -1      3727 2.32229E-01
 -1      3728 2.32434E-01
 -1      3729 3.31542E-01
 -1      3730 2.96547E-01
 -1      3731 2.94589E-01
 -1      3732 4.31009E-01
 -1      3733 3.90459E-01
 -1      3734 3.87085E-01
 -1      3735 5.64564E-01
 -1      3736 5.02121E-01
 -1      3737 5.17114E-01
 -1      3738 7.07247E-01
 -1      3739 6.39481E-01
 -1      3740 6.63142E-01
 -1      3741 8.87915E-01
 -1      3742 8.29040E-01
 -1      3743 8.59853E-01
 -1      3744 1.18147E+00
 -1      3745 1.02073E+00
 -1      3746 1.11446E+00
 -1      3747 1.79360E+00
 -1      3748 1.66939E+00
 -1      3749 1.73520E+00
 -1      3750 1.76176E+00
 -1      3751 1.64156E+00
 -1      3752 2.07107E+00
 -1      3753 2.72638E+00
 -1      3754 2.05641E+00
 -1      3755 2.46695E+00
 -1      3756 2.45461E+00
 -1      3757 4.10535E-01
 -1      3758 1.61384E+00
 -1      3759 1.68785E+00
 -1      3760 1.26430E+00
 -1      3761 1.36292E+00
 -1      3762 1.61384E+00
 -1      3763 1.07995E+00
 -1      3764 1.22997E+00
 -1      3765 1.32859E+00
 -1      3766 8.57932E-01
 -1      3767 9.51109E-01
 -1      3768 1.16543E+00
 -1      3769 6.61714E-01
 -1      3770 7.28662E-01
 -1      3771 9.07321E-01
 -1      3772 5.37400E-01
 -1      3773 5.69344E-01
 -1      3774 6.85681E-01
 -1      3775 2.53940E-01
 -1      3776 2.11220E-01
 -1      3777 2.53940E-01
 -1      3778 2.31747E-01
 -1      3779 2.36351E-01
 -1      3780 2.00257E-01
 -1      3781 1.59448E-01
 -1      3782 3.84583E+00
 -1      3783 3.28530E+00
 -1      3784 2.81476E+00
 -1      3785 3.05353E+00
 -1      3786 2.39708E+00
 -1      3787 2.47930E+00
 -1      3788 8.69878E-02
 -1      3789 7.30967E-02
 -1      3790 8.32364E-02
 -1      3791 2.03902E-01
 -1      3792 2.19101E-01
 -1      3793 1.89458E-01
 -1      3794 1.79803E-01
 -1      3795 5.75312E+00
 -1      3796 6.02946E+00
 -1      3797 7.12917E-01
 -1      3798 7.12917E-01
 -1      3799 1.77195E-01
 -1      3800 1.63649E-01
 -1      3801 1.47141E-01
 -1      3802 6.19507E-01
 -1      3803 5.51447E-01
 -1      3804 7.45113E-01
 -1      3805 1.49456E-01
 -1      3806 1.52946E-01
 -1      3807 1.17261E-01
 -1      3808 1.33193E-01
 -1      3809 1.07377E-01
 -1      3810 1.20994E-01
 -1      3811 3.99114E+00
 -1      3812 3.96914E+00
 -1      3813 3.36175E+00
 -1      3814 2.63969E-01
 -1      3815 2.61921E-01
 -1      3816 3.21583E-01
 -1      3817 3.12017E-01
 -1      3818 1.58662E-01
 -1      3819 1.54230E-01
 -1      3820 1.29356E-01
 -1      3821 2.34626E+00
 -1      3822 2.61195E+00
 -1      3823 2.42755E+00
 -1      3824 1.88627E-01
 -1      3825 1.89990E-01
 -1      3826 1.33928E-01
 -1      3827 4.95230E+00
 -1      3828 5.62273E+00
 -1      3829 5.00947E+00
 -1      3830 1.24608E-01
 -1      3831 1.34235E-01
 -1      3832 2.97349E+00
 -1      3833 4.80045E+00
 -1      3834 5.94593E+00
 -1      3835 5.13843E+00
 -1      3836 2.69179E+00
 -1      3837 1.85118E-01
 -1      3838 1.57547E-01
 -1      3839 1.85118E-01
 -1      3840 1.26339E-01
 -1      3841 1.41712E-01
 -1      3842 1.52898E-01
 -1      3843 1.69389E+00
 -1      3844 1.87684E+00
 -1      3845 7.10708E+00
 -1      3846 4.80045E+00
 -1      3847 3.90997E+00
 -1      3848 3.86768E+00
 -1      3849 2.21368E+00
 -1      3850 2.94444E+00
 -1      3851 2.69952E+00
 -1      3852 2.94444E+00
 -1      3853 4.10535E-01
 -1      3854 4.81488E-01
 -1      3855 5.37400E-01
 -1      3856 3.92536E-01
 -1      3857 3.55386E+00
 -1      3858 3.90838E+00
 -1      3859 3.23821E+00
 -1      3860 1.96992E+00
 -1      3861 2.06301E+00
 -1      3862 1.84900E-01
 -1      3863 2.18925E-01
 -1      3864 3.10297E+00
 -1      3865 3.44680E+00
 -1      3866 2.35578E+00
 -1      3867 1.57668E-01
 -1      3868 1.87080E+00
 -1      3869 1.96992E+00
 -1      3870 1.04245E-01
 -1      3871 4.70291E+00
 -1      3872 6.11211E-01
 -1      3873 8.76051E-02
 -1      3874 9.91080E-02
 -1      3875 8.21279E-02
 -1      3876 7.36816E-01
 -1      3877 5.02518E-01
 -1      3878 4.37148E-01
 -1      3879 6.02775E-01
 -1      3880 2.38416E+00
 -1      3881 2.38416E+00
 -1      3882 2.08951E+00
 -1      3883 2.83127E+00
 -1      3884 1.54308E-01
 -1      3885 1.45608E-01
 -1      3886 4.16555E+00
 -1      3887 2.35230E+00
 -1      3888 2.34626E+00
 -1      3889 1.86476E+00
 -1      3890 1.56043E-01
 -1      3891 1.34608E-01
 -1      3892 1.27760E-01
 -1      3893 1.18072E-01
 -1      3894 1.16928E-01
 -1      3895 1.17035E-01
 -1      3896 1.11289E-01
 -1      3897 1.06828E-01
 -1      3898 1.64775E-01
 -1      3899 1.27793E-01
 -1      3900 1.62943E-01
 -1      3901 4.74777E+00
 -1      3902 4.41283E+00
 -1      3903 3.77489E+00
 -1      3904 4.28386E+00
 -1      3905 1.08062E-01
 -1      3906 9.99068E-02
 -1      3907 9.42541E-02
 -1      3908 8.79095E-02
 -1      3909 8.87859E-02
 -1      3910 8.84383E-02
 -1      3911 8.22392E-02
 -1      3912 8.36621E-02
 -1      3913 8.54821E-02
 -1      3914 8.93151E-02
 -1      3915 8.74340E-02
 -1      3916 8.95736E-02
 -1      3917 9.11939E-02
 -1      3918 9.09354E-02
 -1      3919 9.81525E-02
 -1      3920 1.05093E-01
 -1      3921 9.81525E-02
 -1      3922 1.18636E-01
 -1      3923 1.33417E-01
 -1      3924 1.18655E-01
 -1      3925 1.52613E-01
 -1      3926 1.78645E-01
 -1      3927 1.51395E-01
 -1      3928 2.05225E-01
 -1      3929 2.37074E-01
 -1      3930 1.97170E-01
 -1      3931 2.73193E-01
 -1      3932 3.19560E-01
 -1      3933 2.59869E-01
 -1      3934 3.67860E-01
 -1      3935 4.36657E-01
 -1      3936 3.44289E-01
 -1      3937 5.00267E-01
 -1      3938 5.97984E-01
 -1      3939 4.56200E-01
 -1      3940 6.80446E-01
 -1      3941 8.19615E-01
 -1      3942 6.02272E-01
 -1      3943 9.92787E-01
 -1      3944 1.19182E+00
 -1      3945 8.57906E-01
 -1      3946 1.48596E+00
 -1      3947 1.79962E+00
 -1      3948 1.32522E+00
 -1      3949 2.92378E+00
 -1      3950 1.22299E+00
 -1      3951 1.01389E+00
 -1      3952 8.57364E-02
 -1      3953 8.45945E-02
 -1      3954 1.17050E-01
 -1      3955 1.11501E-01
 -1      3956 9.78776E-02
 -1      3957 8.22544E-02
 -1      3958 8.16440E-02
 -1      3959 8.96475E-02
 -1      3960 2.03858E-01
 -1      3961 1.81671E-01
 -1      3962 1.57217E-01
 -1      3963 1.38225E-01
 -1      3964 1.79403E-01
 -1      3965 3.31718E-01
 -1      3966 2.98139E-01
 -1      3967 4.44029E-01
 -1      3968 3.85112E-01
 -1      3969 3.88662E-01
 -1      3970 5.85454E-01
 -1      3971 5.14342E-01
 -1      3972 5.12369E-01
 -1      3973 7.84846E-01
 -1      3974 7.09929E-01
 -1      3975 7.07157E-01
 -1      3976 1.06245E+00
 -1      3977 9.40652E-01
 -1      3978 9.87438E-01
 -1      3979 1.36157E+00
 -1      3980 1.22875E+00
 -1      3981 1.30955E+00
 -1      3982 2.26656E+00
 -1      3983 1.77865E+00
 -1      3984 1.89294E+00
 -1      3985 2.24155E+00
 -1      3986 1.89990E-01
 -1      3987 1.55965E-01
 -1      3988 2.00678E+00
 -1      3989 2.04111E+00
 -1      3990 1.61384E+00
 -1      3991 9.74812E-01
 -1      3992 1.10408E+00
 -1      3993 7.37051E-01
 -1      3994 8.29421E-01
 -1      3995 1.02618E+00
 -1      3996 1.89990E-01
 -1      3997 9.36442E-02
 -1      3998 8.98929E-02
 -1      3999 9.61442E-02
 -1      4000 1.61256E-01
 -1      4001 1.77196E-01
 -1      4002 3.06509E+00
 -1      4003 2.35224E+00
 -1      4004 2.81549E+00
 -1      4005 2.85628E+00
 -1      4006 3.95487E+00
 -1      4007 4.61099E+00
 -1      4008 9.53332E-01
 -1      4009 8.59923E-01
 -1      4010 1.07177E-01
 -1      4011 1.12893E-01
 -1      4012 9.58930E-02
 -1      4013 1.32192E+00
 -1      4014 1.45076E+00
 -1      4015 1.38942E+00
 -1      4016 1.19051E-01
 -1      4017 1.01794E-01
 -1      4018 1.35775E-01
 -1      4019 1.79567E+00
 -1      4020 1.46076E+00
 -1      4021 2.04599E+00
 -1      4022 2.61010E-01
 -1      4023 2.32434E-01
 -1      4024 2.98139E-01
 -1      4025 2.10486E+00
 -1      4026 9.84594E-02
 -1      4027 1.06033E-01
 -1      4028 4.37038E+00
 -1      4029 3.96365E+00
 -1      4030 3.62235E+00
 -1      4031 3.35488E+00
 -1      4032 2.74352E+00
 -1      4033 2.32434E-01
 -1      4034 1.25165E+00
 -1      4035 1.46117E-01
 -1      4036 1.11106E-01
 -1      4037 1.18583E-01
 -1      4038 9.82767E-02
 -1      4039 9.59951E-02
 -1      4040 2.78305E+00
 -1      4041 9.26204E-01
 -1      4042 3.31236E+00
 -1      4043 2.28501E+00
 -1      4044 2.16327E+00
 -1      4045 1.01194E-01
 -1      4046 9.26204E-01
 -1      4047 1.61056E-01
 -1      4048 1.04101E+00
 -1      4049 3.32754E+00
 -1      4050 2.92914E+00
 -1      4051 3.28525E+00
 -1      4052 1.08451E-01
 -1      4053 1.31468E-01
 -1      4054 1.34977E-01
 -1      4055 3.01190E+00
 -1      4056 2.50642E+00
 -1      4057 2.08934E+00
 -1      4058 2.92914E+00
 -1      4059 1.56837E-01
 -1      4060 1.64660E-01
 -1      4061 1.39977E-01
 -1      4062 1.37756E-01
 -1      4063 7.68958E-02
 -1      4064 8.30432E-02
 -1      4065 8.25593E-02
 -1      4066 8.65533E-01
 -1      4067 8.16605E-01
 -1      4068 1.07375E+00
 -1      4069 9.93843E-02
 -1      4070 8.29214E-02
 -1      4071 8.31213E-02
 -1      4072 3.53309E-01
 -1      4073 3.44876E-01
 -1      4074 4.33828E-01
 -1      4075 4.70008E-01
 -1      4076 1.26085E-01
 -1      4077 1.11296E-01
 -1      4078 1.00829E-01
 -1      4079 3.75538E+00
 -1      4080 3.49368E+00
 -1      4081 2.78388E+00
 -1      4082 8.85710E-02
 -1      4083 8.29183E-02
 -1      4084 8.38953E-02
 -1      4085 8.44242E-02
 -1      4086 8.36804E-02
 -1      4087 8.79002E-02
 -1      4088 9.11432E-02
 -1      4089 8.81334E-02
 -1      4090 9.15757E-02
 -1      4091 9.18342E-02
 -1      4092 9.20419E-02
 -1      4093 9.63299E-02
 -1      4094 1.03288E-01
 -1      4095 9.69702E-02
 -1      4096 1.13215E-01
 -1      4097 1.26759E-01
 -1      4098 1.11393E-01
 -1      4099 1.40555E-01
 -1      4100 1.59751E-01
 -1      4101 1.35115E-01
 -1      4102 1.77866E-01
 -1      4103 2.04446E-01
 -1      4104 1.67026E-01
 -1      4105 2.37381E-01
 -1      4106 2.73500E-01
 -1      4107 2.18077E-01
 -1      4108 3.30966E-01
 -1      4109 3.79267E-01
 -1      4110 3.08478E-01
 -1      4111 4.63783E-01
 -1      4112 5.27393E-01
 -1      4113 4.50460E-01
 -1      4114 6.49176E-01
 -1      4115 7.31638E-01
 -1      4116 6.56759E-01
 -1      4117 9.02268E-01
 -1      4118 1.07544E+00
 -1      4119 9.49172E-01
 -1      4120 1.44636E+00
 -1      4121 1.74051E+00
 -1      4122 1.49073E+00
 -1      4123 9.05740E-02
 -1      4124 8.71350E-02
 -1      4125 8.12674E-02
 -1      4126 9.22311E-02
 -1      4127 8.98909E-02
 -1      4128 1.34977E-01
 -1      4129 1.34977E-01
 -1      4130 1.67313E+00
 -1      4131 1.43536E+00
 -1      4132 1.46249E+00
 -1      4133 1.19383E-01
 -1      4134 1.27305E-01
 -1      4135 1.04735E-01
 -1      4136 1.08948E-01
 -1      4137 6.80612E-01
 -1      4138 6.10299E-01
 -1      4139 4.97013E-01
 -1      4140 4.43620E-01
 -1      4141 6.65257E-01
 -1      4142 1.50245E+00
 -1      4143 1.34664E+00
 -1      4144 1.91549E+00
 -1      4145 1.74918E+00
 -1      4146 2.10838E+00
 -1      4147 2.52897E+00
 -1      4148 1.00883E-01
 -1      4149 9.67268E-02
 -1      4150 9.69702E-02
 -1      4151 5.56213E-01
 -1      4152 6.12125E-01
 -1      4153 1.41177E+00
 -1      4154 1.55716E+00
 -1      4155 8.83589E-02
 -1      4156 9.60787E-02
 -1      4157 9.08233E-02
 -1      4158 8.31268E-02
 -1      4159 2.16110E+00
 -1      4160 1.18960E-01
 -1      4161 1.10810E-01
 -1      4162 1.11393E-01
 -1      4163 1.18092E-01
 -1      4164 1.08898E-01
 -1      4165 7.55865E-01
 -1      4166 9.20134E-02
 -1      4167 9.24521E-02
 -1      4168 5.08554E-01
 -1      4169 8.53873E-02
 -1      4170 8.53873E-02
 -1      4171 2.78878E-01
 -1      4172 2.50302E-01
 -1      4173 3.29112E+00
 -1      4174 7.87222E-02
 -1      4175 8.39008E-02
 -1      4176 1.98771E+00
 -1      4177 2.20555E+00
 -1      4178 2.37329E+00
 -1      4179 9.75717E-01
 -1      4180 8.51242E-01
 -1      4181 9.49172E-01
 -1      4182 1.49073E+00
 -1      4183 2.10191E-01
 -1      4184 1.85737E-01
 -1      4185 2.56635E-01
 -1      4186 1.20245E-01
 -1      4187 9.32811E-02
 -1      4188 1.21962E-01
 -1      4189 1.56575E-01
 -1      4190 1.37401E-01
 -1      4191 1.87363E-01
 -1      4192 2.70320E+00
 -1      4193 2.14663E+00
 -1      4194 2.33034E+00
 -1      4195 2.88452E+00
 -1      4196 3.70618E-01
 -1      4197 3.33489E-01
 -1      4198 3.51356E-01
 -1      4199 4.78969E-01
 -1      4200 9.13741E-02
 -1      4201 9.14966E-02
 -1      4202 7.42033E-02
 -1      4203 2.73511E+00
 -1      4204 3.33340E+00
 -1      4205 3.17347E+00
 -1      4206 8.94584E-02
 -1      4207 8.47103E-02
 -1      4208 9.20419E-02
 -1      4209 2.28224E+00
 -1      4210 8.07540E-02
 -1      4211 8.72951E-02
 -1      4212 9.23678E-02
 -1      4213 1.46810E+00
 -1      4214 7.31599E-02
 -1      4215 8.12797E-02
 -1      4216 8.54429E-02
 -1      4217 8.21087E-02
 -1      4218 1.20759E-01
 -1      4219 1.24698E-01
 -1      4220 1.04965E-01
 -1      4221 1.05525E-01
 -1      4222 6.19319E-02
 -1      4223 8.84426E-02
 -1      4224 9.08233E-02
 -1      4225 8.49144E-02
 -1      4226 2.70283E+00
 -1      4227 1.39760E-01
 -1      4228 5.92393E-01
 -1      4229 7.62953E-02
 -1      4230 6.43032E-02
 -1      4231 9.98063E-02
 -1      4232 8.72792E-01
 -1      4233 9.97718E-01
 -1      4234 8.34245E-01
 -1      4235 1.52869E+00
 -1      4236 1.86165E+00
 -1      4237 2.28224E+00
 -1      4238 8.65500E-02
 -1      4239 9.00260E-02
 -1      4240 9.16094E-02
 -1      4241 9.20419E-02
 -1      4242 9.24745E-02
 -1      4243 9.69702E-02
 -1      4244 1.01466E-01
 -1      4245 1.11393E-01
 -1      4246 1.21320E-01
 -1      4247 1.35115E-01
 -1      4248 1.53555E-01
 -1      4249 1.71671E-01
 -1      4250 2.00833E-01
 -1      4251 2.33769E-01
 -1      4252 2.73879E-01
 -1      4253 3.31345E-01
 -1      4254 3.85956E-01
 -1      4255 4.70472E-01
 -1      4256 5.43474E-01
 -1      4257 6.65257E-01
 -1      4258 7.78542E-01
 -1      4259 9.49172E-01
 -1      4260 1.11980E+00
 -1      4261 1.49073E+00
 -1      4262 7.82063E-02
 -1      4263 7.81507E-02
 -1      4264 9.83275E-02
 -1      4265 2.37329E+00
 -1      4266 2.80384E+00
 -1      4267 8.15314E-02
 -1      4268 9.25130E-02
 -1      4269 9.46887E-02
 -1      4270 3.33340E+00
 -1      4271 8.31268E-02
 -1      4272 8.84426E-02
 -1      4273 8.55729E-02
 -1      4274 8.65500E-02
 -1      4275 8.16766E-02
 -1      4276 8.07540E-02
 -1      4277 8.05776E-02
 -1      4278 8.06088E-02
 -1      4279 8.20448E-02
 -1      4280 8.84426E-02
 -1      4281 9.00260E-02
 -1      4282 2.52897E+00
 -1      4283 1.89979E+00
 -1      4284 8.80508E-02
 -1      4285 1.48574E+00
 -1      4286 1.01063E-01
 -1      4287 1.09700E+00
 -1      4288 8.80508E-02
 -1      4289 3.09279E+00
 -3
 9999
