    1C
    1UUSER                                                              
    1UDATE              26.october.2022                                 
    1UTIME              23:55:04                                        
    1UHOST                                                              
    1UPGM               CalculiX                                        
    1UVERSION           Version 2.17                             
    1UCOMPILETIME       Thu Jul 23 21:43:50 CEST 2020                    
    1UDIR                                                               
    1UDBN                                                               
    1UMAT    1SOLIDMATERIAL                                             
    2C                          4304                                     1
 -1         1 1.08788E+02 2.63639E+01 0.00000E+00
 -1         2 1.21462E+02 2.22652E+01 0.00000E+00
 -1         3 1.50000E+02 0.00000E+00 0.00000E+00
 -1         4 1.50000E+02 5.00000E+01 0.00000E+00
 -1         5 0.00000E+00 0.00000E+00 0.00000E+00
 -1         6 0.00000E+00 5.00000E+01 0.00000E+00
 -1         7 0.00000E+00 4.70500E+01 0.00000E+00
 -1         8 0.00000E+00 4.41000E+01 0.00000E+00
 -1         9 0.00000E+00 4.11500E+01 0.00000E+00
 -1        10 0.00000E+00 3.82000E+01 0.00000E+00
 -1        11 0.00000E+00 3.52500E+01 0.00000E+00
 -1        12 0.00000E+00 3.23500E+01 0.00000E+00
 -1        13 0.00000E+00 2.94000E+01 0.00000E+00
 -1        14 0.00000E+00 2.64500E+01 0.00000E+00
 -1        15 0.00000E+00 2.35000E+01 0.00000E+00
 -1        16 0.00000E+00 2.05500E+01 0.00000E+00
 -1        17 0.00000E+00 1.76000E+01 0.00000E+00
 -1        18 0.00000E+00 1.47000E+01 0.00000E+00
 -1        19 0.00000E+00 1.17500E+01 0.00000E+00
 -1        20 0.00000E+00 8.80000E+00 0.00000E+00
 -1        21 0.00000E+00 5.85000E+00 0.00000E+00
 -1        22 0.00000E+00 2.90000E+00 0.00000E+00
 -1        23 3.15000E+00 5.00000E+01 0.00000E+00
 -1        24 6.15000E+00 5.00000E+01 0.00000E+00
 -1        25 9.15000E+00 5.00000E+01 0.00000E+00
 -1        26 1.21500E+01 5.00000E+01 0.00000E+00
 -1        27 1.51500E+01 5.00000E+01 0.00000E+00
 -1        28 1.81500E+01 5.00000E+01 0.00000E+00
 -1        29 2.11500E+01 5.00000E+01 0.00000E+00
 -1        30 2.41500E+01 5.00000E+01 0.00000E+00
 -1        31 2.71500E+01 5.00000E+01 0.00000E+00
 -1        32 3.01500E+01 5.00000E+01 0.00000E+00
 -1        33 3.31500E+01 5.00000E+01 0.00000E+00
 -1        34 3.61500E+01 5.00000E+01 0.00000E+00
 -1        35 3.91500E+01 5.00000E+01 0.00000E+00
 -1        36 4.21500E+01 5.00000E+01 0.00000E+00
 -1        37 4.51500E+01 5.00000E+01 0.00000E+00
 -1        38 4.81500E+01 5.00000E+01 0.00000E+00
 -1        39 5.11500E+01 5.00000E+01 0.00000E+00
 -1        40 5.41500E+01 5.00000E+01 0.00000E+00
 -1        41 5.71500E+01 5.00000E+01 0.00000E+00
 -1        42 6.01500E+01 5.00000E+01 0.00000E+00
 -1        43 6.31500E+01 5.00000E+01 0.00000E+00
 -1        44 6.61500E+01 5.00000E+01 0.00000E+00
 -1        45 6.91500E+01 5.00000E+01 0.00000E+00
 -1        46 7.21500E+01 5.00000E+01 0.00000E+00
 -1        47 7.51500E+01 5.00000E+01 0.00000E+00
 -1        48 7.81500E+01 5.00000E+01 0.00000E+00
 -1        49 8.11500E+01 5.00000E+01 0.00000E+00
 -1        50 8.41500E+01 5.00000E+01 0.00000E+00
 -1        51 8.71500E+01 5.00000E+01 0.00000E+00
 -1        52 9.01500E+01 5.00000E+01 0.00000E+00
 -1        53 9.31500E+01 5.00000E+01 0.00000E+00
 -1        54 9.61500E+01 5.00000E+01 0.00000E+00
 -1        55 9.91500E+01 5.00000E+01 0.00000E+00
 -1        56 1.02150E+02 5.00000E+01 0.00000E+00
 -1        57 1.05150E+02 5.00000E+01 0.00000E+00
 -1        58 1.08150E+02 5.00000E+01 0.00000E+00
 -1        59 1.11150E+02 5.00000E+01 0.00000E+00
 -1        60 1.14150E+02 5.00000E+01 0.00000E+00
 -1        61 1.17150E+02 5.00000E+01 0.00000E+00
 -1        62 1.20150E+02 5.00000E+01 0.00000E+00
 -1        63 1.23150E+02 5.00000E+01 0.00000E+00
 -1        64 1.26150E+02 5.00000E+01 0.00000E+00
 -1        65 1.29150E+02 5.00000E+01 0.00000E+00
 -1        66 1.32150E+02 5.00000E+01 0.00000E+00
 -1        67 1.35150E+02 5.00000E+01 0.00000E+00
 -1        68 1.38150E+02 5.00000E+01 0.00000E+00
 -1        69 1.41150E+02 5.00000E+01 0.00000E+00
 -1        70 1.44150E+02 5.00000E+01 0.00000E+00
 -1        71 1.47150E+02 5.00000E+01 0.00000E+00
 -1        72 3.15000E+00 0.00000E+00 0.00000E+00
 -1        73 6.15000E+00 0.00000E+00 0.00000E+00
 -1        74 9.15000E+00 0.00000E+00 0.00000E+00
 -1        75 1.21500E+01 0.00000E+00 0.00000E+00
 -1        76 1.51500E+01 0.00000E+00 0.00000E+00
 -1        77 1.81500E+01 0.00000E+00 0.00000E+00
 -1        78 2.11500E+01 0.00000E+00 0.00000E+00
 -1        79 2.41500E+01 0.00000E+00 0.00000E+00
 -1        80 2.71500E+01 0.00000E+00 0.00000E+00
 -1        81 3.01500E+01 0.00000E+00 0.00000E+00
 -1        82 3.31500E+01 0.00000E+00 0.00000E+00
 -1        83 3.61500E+01 0.00000E+00 0.00000E+00
 -1        84 3.91500E+01 0.00000E+00 0.00000E+00
 -1        85 4.21500E+01 0.00000E+00 0.00000E+00
 -1        86 4.51500E+01 0.00000E+00 0.00000E+00
 -1        87 4.81500E+01 0.00000E+00 0.00000E+00
 -1        88 5.11500E+01 0.00000E+00 0.00000E+00
 -1        89 5.41500E+01 0.00000E+00 0.00000E+00
 -1        90 5.71500E+01 0.00000E+00 0.00000E+00
 -1        91 6.01500E+01 0.00000E+00 0.00000E+00
 -1        92 6.31500E+01 0.00000E+00 0.00000E+00
 -1        93 6.61500E+01 0.00000E+00 0.00000E+00
 -1        94 6.91500E+01 0.00000E+00 0.00000E+00
 -1        95 7.21500E+01 0.00000E+00 0.00000E+00
 -1        96 7.51500E+01 0.00000E+00 0.00000E+00
 -1        97 7.81500E+01 0.00000E+00 0.00000E+00
 -1        98 8.11500E+01 0.00000E+00 0.00000E+00
 -1        99 8.41500E+01 0.00000E+00 0.00000E+00
 -1       100 8.71500E+01 0.00000E+00 0.00000E+00
 -1       101 9.01500E+01 0.00000E+00 0.00000E+00
 -1       102 9.31500E+01 0.00000E+00 0.00000E+00
 -1       103 9.61500E+01 0.00000E+00 0.00000E+00
 -1       104 9.91500E+01 0.00000E+00 0.00000E+00
 -1       105 1.02150E+02 0.00000E+00 0.00000E+00
 -1       106 1.05150E+02 0.00000E+00 0.00000E+00
 -1       107 1.08150E+02 0.00000E+00 0.00000E+00
 -1       108 1.11150E+02 0.00000E+00 0.00000E+00
 -1       109 1.14150E+02 0.00000E+00 0.00000E+00
 -1       110 1.17150E+02 0.00000E+00 0.00000E+00
 -1       111 1.20150E+02 0.00000E+00 0.00000E+00
 -1       112 1.23150E+02 0.00000E+00 0.00000E+00
 -1       113 1.26150E+02 0.00000E+00 0.00000E+00
 -1       114 1.29150E+02 0.00000E+00 0.00000E+00
 -1       115 1.32150E+02 0.00000E+00 0.00000E+00
 -1       116 1.35150E+02 0.00000E+00 0.00000E+00
 -1       117 1.38150E+02 0.00000E+00 0.00000E+00
 -1       118 1.41150E+02 0.00000E+00 0.00000E+00
 -1       119 1.44150E+02 0.00000E+00 0.00000E+00
 -1       120 1.47150E+02 0.00000E+00 0.00000E+00
 -1       121 1.50000E+02 2.95000E+00 0.00000E+00
 -1       122 1.50000E+02 5.90000E+00 0.00000E+00
 -1       123 1.50000E+02 8.85000E+00 0.00000E+00
 -1       124 1.50000E+02 1.18000E+01 0.00000E+00
 -1       125 1.50000E+02 1.47500E+01 0.00000E+00
 -1       126 1.50000E+02 1.76500E+01 0.00000E+00
 -1       127 1.50000E+02 2.06000E+01 0.00000E+00
 -1       128 1.50000E+02 2.35500E+01 0.00000E+00
 -1       129 1.50000E+02 2.65000E+01 0.00000E+00
 -1       130 1.50000E+02 2.94500E+01 0.00000E+00
 -1       131 1.50000E+02 3.24000E+01 0.00000E+00
 -1       132 1.50000E+02 3.53000E+01 0.00000E+00
 -1       133 1.50000E+02 3.82500E+01 0.00000E+00
 -1       134 1.50000E+02 4.12000E+01 0.00000E+00
 -1       135 1.50000E+02 4.41500E+01 0.00000E+00
 -1       136 1.50000E+02 4.71000E+01 0.00000E+00
 -1       137 1.21304E+02 2.07871E+01 0.00000E+00
 -1       138 1.20864E+02 1.94331E+01 0.00000E+00
 -1       139 1.20123E+02 1.81475E+01 0.00000E+00
 -1       140 1.19159E+02 1.70745E+01 0.00000E+00
 -1       141 1.18028E+02 1.62416E+01 0.00000E+00
 -1       142 1.16687E+02 1.56282E+01 0.00000E+00
 -1       143 1.15227E+02 1.53071E+01 0.00000E+00
 -1       144 1.13763E+02 1.53003E+01 0.00000E+00
 -1       145 1.12267E+02 1.56184E+01 0.00000E+00
 -1       146 1.10947E+02 1.62121E+01 0.00000E+00
 -1       147 1.09766E+02 1.70745E+01 0.00000E+00
 -1       148 1.08801E+02 1.81478E+01 0.00000E+00
 -1       149 1.08051E+02 1.94559E+01 0.00000E+00
 -1       150 1.07610E+02 2.08338E+01 0.00000E+00
 -1       151 1.07462E+02 2.22663E+01 0.00000E+00
 -1       152 1.07615E+02 2.37217E+01 0.00000E+00
 -1       153 1.08071E+02 2.51208E+01 0.00000E+00
 -1       154 1.09737E+02 2.74297E+01 0.00000E+00
 -1       155 1.10877E+02 2.82776E+01 0.00000E+00
 -1       156 1.12210E+02 2.88930E+01 0.00000E+00
 -1       157 1.13686E+02 2.92220E+01 0.00000E+00
 -1       158 1.15232E+02 2.92228E+01 0.00000E+00
 -1       159 1.16690E+02 2.89012E+01 0.00000E+00
 -1       160 1.18026E+02 2.82902E+01 0.00000E+00
 -1       161 1.19184E+02 2.74330E+01 0.00000E+00
 -1       162 1.20144E+02 2.63538E+01 0.00000E+00
 -1       163 1.20874E+02 2.50750E+01 0.00000E+00
 -1       164 1.21323E+02 2.36568E+01 0.00000E+00
 -1       165 2.59800E+00 4.55750E+01 0.00000E+00
 -1       166 2.59800E+00 4.26250E+01 0.00000E+00
 -1       167 2.59800E+00 3.96750E+01 0.00000E+00
 -1       168 2.59800E+00 3.67250E+01 0.00000E+00
 -1       169 2.59800E+00 3.38250E+01 0.00000E+00
 -1       170 2.59800E+00 3.08750E+01 0.00000E+00
 -1       171 2.59800E+00 2.79250E+01 0.00000E+00
 -1       172 2.59800E+00 2.49750E+01 0.00000E+00
 -1       173 2.59800E+00 2.20250E+01 0.00000E+00
 -1       174 2.59800E+00 1.90750E+01 0.00000E+00
 -1       175 2.59800E+00 1.61750E+01 0.00000E+00
 -1       176 2.59800E+00 1.32250E+01 0.00000E+00
 -1       177 2.59800E+00 1.02750E+01 0.00000E+00
 -1       178 2.59800E+00 7.32500E+00 0.00000E+00
 -1       179 2.59800E+00 4.37500E+00 0.00000E+00
 -1       180 2.87400E+00 2.18750E+00 0.00000E+00
 -1       181 4.65000E+00 4.74020E+01 0.00000E+00
 -1       182 7.65000E+00 4.74020E+01 0.00000E+00
 -1       183 1.06500E+01 4.74020E+01 0.00000E+00
 -1       184 1.36500E+01 4.74020E+01 0.00000E+00
 -1       185 1.66500E+01 4.74020E+01 0.00000E+00
 -1       186 1.96500E+01 4.74020E+01 0.00000E+00
 -1       187 2.26500E+01 4.74020E+01 0.00000E+00
 -1       188 2.56500E+01 4.74020E+01 0.00000E+00
 -1       189 2.86500E+01 4.74020E+01 0.00000E+00
 -1       190 3.16500E+01 4.74020E+01 0.00000E+00
 -1       191 3.46500E+01 4.74020E+01 0.00000E+00
 -1       192 3.76500E+01 4.74020E+01 0.00000E+00
 -1       193 4.06500E+01 4.74020E+01 0.00000E+00
 -1       194 4.36500E+01 4.74020E+01 0.00000E+00
 -1       195 4.66500E+01 4.74020E+01 0.00000E+00
 -1       196 4.96500E+01 4.74020E+01 0.00000E+00
 -1       197 5.26500E+01 4.74020E+01 0.00000E+00
 -1       198 5.56500E+01 4.74020E+01 0.00000E+00
 -1       199 5.86500E+01 4.74020E+01 0.00000E+00
 -1       200 6.16500E+01 4.74020E+01 0.00000E+00
 -1       201 6.46500E+01 4.74020E+01 0.00000E+00
 -1       202 6.76500E+01 4.74020E+01 0.00000E+00
 -1       203 7.06500E+01 4.74020E+01 0.00000E+00
 -1       204 7.36500E+01 4.74020E+01 0.00000E+00
 -1       205 7.66500E+01 4.74020E+01 0.00000E+00
 -1       206 7.96500E+01 4.74020E+01 0.00000E+00
 -1       207 8.26500E+01 4.74020E+01 0.00000E+00
 -1       208 8.56500E+01 4.74020E+01 0.00000E+00
 -1       209 8.86500E+01 4.74020E+01 0.00000E+00
 -1       210 9.16500E+01 4.74020E+01 0.00000E+00
 -1       211 9.46500E+01 4.74020E+01 0.00000E+00
 -1       212 9.76500E+01 4.74020E+01 0.00000E+00
 -1       213 1.00650E+02 4.74020E+01 0.00000E+00
 -1       214 1.03650E+02 4.74020E+01 0.00000E+00
 -1       215 1.06650E+02 4.74020E+01 0.00000E+00
 -1       216 1.09650E+02 4.74020E+01 0.00000E+00
 -1       217 1.12650E+02 4.74020E+01 0.00000E+00
 -1       218 1.15650E+02 4.74020E+01 0.00000E+00
 -1       219 1.18650E+02 4.74020E+01 0.00000E+00
 -1       220 1.21650E+02 4.74020E+01 0.00000E+00
 -1       221 1.24650E+02 4.74020E+01 0.00000E+00
 -1       222 1.27650E+02 4.74020E+01 0.00000E+00
 -1       223 1.30650E+02 4.74020E+01 0.00000E+00
 -1       224 1.33650E+02 4.74020E+01 0.00000E+00
 -1       225 1.36650E+02 4.74020E+01 0.00000E+00
 -1       226 1.39650E+02 4.74020E+01 0.00000E+00
 -1       227 1.42650E+02 4.74020E+01 0.00000E+00
 -1       228 1.45650E+02 4.74020E+01 0.00000E+00
 -1       229 5.87400E+00 2.18750E+00 0.00000E+00
 -1       230 8.87400E+00 2.18750E+00 0.00000E+00
 -1       231 1.18740E+01 2.18750E+00 0.00000E+00
 -1       232 1.48740E+01 2.18750E+00 0.00000E+00
 -1       233 1.78740E+01 2.18750E+00 0.00000E+00
 -1       234 2.08740E+01 2.18750E+00 0.00000E+00
 -1       235 2.38740E+01 2.18750E+00 0.00000E+00
 -1       236 2.68740E+01 2.18750E+00 0.00000E+00
 -1       237 2.98740E+01 2.18750E+00 0.00000E+00
 -1       238 3.28740E+01 2.18750E+00 0.00000E+00
 -1       239 3.58740E+01 2.18750E+00 0.00000E+00
 -1       240 3.88740E+01 2.18750E+00 0.00000E+00
 -1       241 4.18740E+01 2.18750E+00 0.00000E+00
 -1       242 4.48740E+01 2.18750E+00 0.00000E+00
 -1       243 4.78740E+01 2.18750E+00 0.00000E+00
 -1       244 5.08740E+01 2.18750E+00 0.00000E+00
 -1       245 5.38740E+01 2.18750E+00 0.00000E+00
 -1       246 5.68740E+01 2.18750E+00 0.00000E+00
 -1       247 5.98740E+01 2.18750E+00 0.00000E+00
 -1       248 6.28740E+01 2.18750E+00 0.00000E+00
 -1       249 6.58740E+01 2.18750E+00 0.00000E+00
 -1       250 6.88740E+01 2.18750E+00 0.00000E+00
 -1       251 7.18740E+01 2.18750E+00 0.00000E+00
 -1       252 7.48740E+01 2.18750E+00 0.00000E+00
 -1       253 7.78740E+01 2.18750E+00 0.00000E+00
 -1       254 8.08740E+01 2.18750E+00 0.00000E+00
 -1       255 8.38740E+01 2.18750E+00 0.00000E+00
 -1       256 8.68740E+01 2.18750E+00 0.00000E+00
 -1       257 8.98740E+01 2.18750E+00 0.00000E+00
 -1       258 9.28740E+01 2.18750E+00 0.00000E+00
 -1       259 9.58740E+01 2.18750E+00 0.00000E+00
 -1       260 9.88740E+01 2.18750E+00 0.00000E+00
 -1       261 1.01874E+02 2.18750E+00 0.00000E+00
 -1       262 1.04874E+02 2.18750E+00 0.00000E+00
 -1       263 1.07874E+02 2.18750E+00 0.00000E+00
 -1       264 1.10874E+02 2.18750E+00 0.00000E+00
 -1       265 1.13874E+02 2.18750E+00 0.00000E+00
 -1       266 1.16874E+02 2.18750E+00 0.00000E+00
 -1       267 1.19874E+02 2.18750E+00 0.00000E+00
 -1       268 1.22874E+02 2.18750E+00 0.00000E+00
 -1       269 1.25874E+02 2.18750E+00 0.00000E+00
 -1       270 1.28874E+02 2.18750E+00 0.00000E+00
 -1       271 1.31874E+02 2.18750E+00 0.00000E+00
 -1       272 1.34874E+02 2.18750E+00 0.00000E+00
 -1       273 1.37874E+02 2.18750E+00 0.00000E+00
 -1       274 1.40874E+02 2.18750E+00 0.00000E+00
 -1       275 1.43874E+02 2.18750E+00 0.00000E+00
 -1       276 1.46874E+02 2.18750E+00 0.00000E+00
 -1       277 1.47402E+02 4.42500E+00 0.00000E+00
 -1       278 1.47402E+02 7.37500E+00 0.00000E+00
 -1       279 1.47402E+02 1.03250E+01 0.00000E+00
 -1       280 1.47402E+02 1.32750E+01 0.00000E+00
 -1       281 1.47402E+02 1.61750E+01 0.00000E+00
 -1       282 1.47402E+02 1.91250E+01 0.00000E+00
 -1       283 1.47402E+02 2.20750E+01 0.00000E+00
 -1       284 1.47402E+02 2.50250E+01 0.00000E+00
 -1       285 1.47402E+02 2.79750E+01 0.00000E+00
 -1       286 1.47402E+02 3.09250E+01 0.00000E+00
 -1       287 1.47402E+02 3.38250E+01 0.00000E+00
 -1       288 1.47402E+02 3.67750E+01 0.00000E+00
 -1       289 1.47402E+02 3.97250E+01 0.00000E+00
 -1       290 1.47402E+02 4.26750E+01 0.00000E+00
 -1       291 1.46526E+02 4.50385E+01 0.00000E+00
 -1       292 1.22672E+02 2.13885E+01 0.00000E+00
 -1       293 1.22237E+02 1.97349E+01 0.00000E+00
 -1       294 1.21544E+02 1.81851E+01 0.00000E+00
 -1       295 1.20543E+02 1.68006E+01 0.00000E+00
 -1       296 1.19313E+02 1.56820E+01 0.00000E+00
 -1       297 1.17862E+02 1.48324E+01 0.00000E+00
 -1       298 1.16253E+02 1.41199E+01 0.00000E+00
 -1       299 1.14500E+02 1.40913E+01 0.00000E+00
 -1       300 1.12745E+02 1.41915E+01 0.00000E+00
 -1       301 1.11110E+02 1.48095E+01 0.00000E+00
 -1       302 1.09641E+02 1.56642E+01 0.00000E+00
 -1       303 1.08382E+02 1.68008E+01 0.00000E+00
 -1       304 1.07229E+02 1.81151E+01 0.00000E+00
 -1       305 1.06676E+02 1.97757E+01 0.00000E+00
 -1       306 1.06330E+02 2.14256E+01 0.00000E+00
 -1       307 1.06333E+02 2.31209E+01 0.00000E+00
 -1       308 1.06691E+02 2.47967E+01 0.00000E+00
 -1       309 1.07379E+02 2.63477E+01 0.00000E+00
 -1       310 1.08357E+02 2.77032E+01 0.00000E+00
 -1       311 1.09584E+02 2.88266E+01 0.00000E+00
 -1       312 1.11000E+02 2.97621E+01 0.00000E+00
 -1       313 1.12684E+02 3.02408E+01 0.00000E+00
 -1       314 1.14458E+02 3.04348E+01 0.00000E+00
 -1       315 1.16240E+02 3.03278E+01 0.00000E+00
 -1       316 1.17897E+02 2.97744E+01 0.00000E+00
 -1       317 1.19326E+02 2.88361E+01 0.00000E+00
 -1       318 1.20570E+02 2.76993E+01 0.00000E+00
 -1       319 1.21562E+02 2.63151E+01 0.00000E+00
 -1       320 1.22414E+02 2.47824E+01 0.00000E+00
 -1       321 1.22599E+02 2.30821E+01 0.00000E+00
 -1       322 5.19600E+00 4.11500E+01 0.00000E+00
 -1       323 5.19600E+00 4.41000E+01 0.00000E+00
 -1       324 5.19600E+00 3.52750E+01 0.00000E+00
 -1       325 5.19600E+00 3.23250E+01 0.00000E+00
 -1       326 5.19600E+00 2.93750E+01 0.00000E+00
 -1       327 5.19600E+00 2.64250E+01 0.00000E+00
 -1       328 5.19600E+00 2.34750E+01 0.00000E+00
 -1       329 5.19600E+00 2.05250E+01 0.00000E+00
 -1       330 5.19600E+00 1.76250E+01 0.00000E+00
 -1       331 5.19600E+00 1.46750E+01 0.00000E+00
 -1       332 5.19600E+00 1.17250E+01 0.00000E+00
 -1       333 5.19600E+00 8.77500E+00 0.00000E+00
 -1       334 5.19600E+00 5.82500E+00 0.00000E+00
 -1       335 5.53500E+00 4.00625E+00 0.00000E+00
 -1       336 8.53500E+00 4.00625E+00 0.00000E+00
 -1       337 9.15000E+00 4.48040E+01 0.00000E+00
 -1       338 1.21500E+01 4.48040E+01 0.00000E+00
 -1       339 1.51500E+01 4.48040E+01 0.00000E+00
 -1       340 1.81500E+01 4.48040E+01 0.00000E+00
 -1       341 2.11500E+01 4.48040E+01 0.00000E+00
 -1       342 2.41500E+01 4.48040E+01 0.00000E+00
 -1       343 2.71500E+01 4.48040E+01 0.00000E+00
 -1       344 3.01500E+01 4.48040E+01 0.00000E+00
 -1       345 3.31500E+01 4.48040E+01 0.00000E+00
 -1       346 3.61500E+01 4.48040E+01 0.00000E+00
 -1       347 3.91500E+01 4.48040E+01 0.00000E+00
 -1       348 4.21500E+01 4.48040E+01 0.00000E+00
 -1       349 4.51500E+01 4.48040E+01 0.00000E+00
 -1       350 4.81500E+01 4.48040E+01 0.00000E+00
 -1       351 5.11500E+01 4.48040E+01 0.00000E+00
 -1       352 5.41500E+01 4.48040E+01 0.00000E+00
 -1       353 5.71500E+01 4.48040E+01 0.00000E+00
 -1       354 6.01500E+01 4.48040E+01 0.00000E+00
 -1       355 6.31500E+01 4.48040E+01 0.00000E+00
 -1       356 6.61500E+01 4.48040E+01 0.00000E+00
 -1       357 6.91500E+01 4.48040E+01 0.00000E+00
 -1       358 7.21500E+01 4.48040E+01 0.00000E+00
 -1       359 7.51500E+01 4.48040E+01 0.00000E+00
 -1       360 7.81500E+01 4.48040E+01 0.00000E+00
 -1       361 8.11500E+01 4.48040E+01 0.00000E+00
 -1       362 8.41500E+01 4.48040E+01 0.00000E+00
 -1       363 8.71500E+01 4.48040E+01 0.00000E+00
 -1       364 9.01500E+01 4.48040E+01 0.00000E+00
 -1       365 9.31500E+01 4.48040E+01 0.00000E+00
 -1       366 9.61500E+01 4.48040E+01 0.00000E+00
 -1       367 9.91500E+01 4.48040E+01 0.00000E+00
 -1       368 1.02150E+02 4.48040E+01 0.00000E+00
 -1       369 1.05150E+02 4.48040E+01 0.00000E+00
 -1       370 1.08150E+02 4.48040E+01 0.00000E+00
 -1       371 1.11150E+02 4.48040E+01 0.00000E+00
 -1       372 1.14150E+02 4.48040E+01 0.00000E+00
 -1       373 1.17150E+02 4.48040E+01 0.00000E+00
 -1       374 1.20150E+02 4.48040E+01 0.00000E+00
 -1       375 1.23150E+02 4.48040E+01 0.00000E+00
 -1       376 1.26150E+02 4.48040E+01 0.00000E+00
 -1       377 1.29150E+02 4.48040E+01 0.00000E+00
 -1       378 1.32150E+02 4.48040E+01 0.00000E+00
 -1       379 1.35150E+02 4.48040E+01 0.00000E+00
 -1       380 1.38150E+02 4.48040E+01 0.00000E+00
 -1       381 1.41150E+02 4.48040E+01 0.00000E+00
 -1       382 1.43838E+02 4.49212E+01 0.00000E+00
 -1       383 1.15350E+01 4.00625E+00 0.00000E+00
 -1       384 1.45350E+01 4.00625E+00 0.00000E+00
 -1       385 1.75350E+01 4.00625E+00 0.00000E+00
 -1       386 2.05350E+01 4.00625E+00 0.00000E+00
 -1       387 2.35350E+01 4.00625E+00 0.00000E+00
 -1       388 2.65350E+01 4.00625E+00 0.00000E+00
 -1       389 2.95350E+01 4.00625E+00 0.00000E+00
 -1       390 3.25350E+01 4.00625E+00 0.00000E+00
 -1       391 3.55350E+01 4.00625E+00 0.00000E+00
 -1       392 3.85350E+01 4.00625E+00 0.00000E+00
 -1       393 4.15350E+01 4.00625E+00 0.00000E+00
 -1       394 4.45350E+01 4.00625E+00 0.00000E+00
 -1       395 4.75350E+01 4.00625E+00 0.00000E+00
 -1       396 5.05350E+01 4.00625E+00 0.00000E+00
 -1       397 5.35350E+01 4.00625E+00 0.00000E+00
 -1       398 5.65350E+01 4.00625E+00 0.00000E+00
 -1       399 5.95350E+01 4.00625E+00 0.00000E+00
 -1       400 6.25350E+01 4.00625E+00 0.00000E+00
 -1       401 6.55350E+01 4.00625E+00 0.00000E+00
 -1       402 6.85350E+01 4.00625E+00 0.00000E+00
 -1       403 7.15350E+01 4.00625E+00 0.00000E+00
 -1       404 7.45350E+01 4.00625E+00 0.00000E+00
 -1       405 7.75350E+01 4.00625E+00 0.00000E+00
 -1       406 8.05350E+01 4.00625E+00 0.00000E+00
 -1       407 8.35350E+01 4.00625E+00 0.00000E+00
 -1       408 8.65350E+01 4.00625E+00 0.00000E+00
 -1       409 8.95350E+01 4.00625E+00 0.00000E+00
 -1       410 9.25350E+01 4.00625E+00 0.00000E+00
 -1       411 9.55350E+01 4.00625E+00 0.00000E+00
 -1       412 9.85350E+01 4.00625E+00 0.00000E+00
 -1       413 1.01535E+02 4.00625E+00 0.00000E+00
 -1       414 1.04535E+02 4.00625E+00 0.00000E+00
 -1       415 1.07535E+02 4.00625E+00 0.00000E+00
 -1       416 1.10535E+02 4.00625E+00 0.00000E+00
 -1       417 1.13535E+02 4.00625E+00 0.00000E+00
 -1       418 1.16535E+02 4.00625E+00 0.00000E+00
 -1       419 1.19535E+02 4.00625E+00 0.00000E+00
 -1       420 1.22535E+02 4.00625E+00 0.00000E+00
 -1       421 1.25535E+02 4.00625E+00 0.00000E+00
 -1       422 1.28535E+02 4.00625E+00 0.00000E+00
 -1       423 1.31535E+02 4.00625E+00 0.00000E+00
 -1       424 1.34535E+02 4.00625E+00 0.00000E+00
 -1       425 1.37535E+02 4.00625E+00 0.00000E+00
 -1       426 1.40535E+02 4.00625E+00 0.00000E+00
 -1       427 1.43535E+02 4.00625E+00 0.00000E+00
 -1       428 1.45469E+02 4.21562E+00 0.00000E+00
 -1       429 1.44804E+02 1.18000E+01 0.00000E+00
 -1       430 1.44804E+02 8.85000E+00 0.00000E+00
 -1       431 1.45136E+02 6.53281E+00 0.00000E+00
 -1       432 1.44804E+02 1.47000E+01 0.00000E+00
 -1       433 1.44804E+02 1.76500E+01 0.00000E+00
 -1       434 1.44804E+02 2.06000E+01 0.00000E+00
 -1       435 1.44804E+02 2.35500E+01 0.00000E+00
 -1       436 1.44804E+02 2.65000E+01 0.00000E+00
 -1       437 1.44804E+02 2.94500E+01 0.00000E+00
 -1       438 1.44804E+02 3.23500E+01 0.00000E+00
 -1       439 1.44804E+02 3.53000E+01 0.00000E+00
 -1       440 1.44804E+02 3.82500E+01 0.00000E+00
 -1       441 1.44804E+02 4.12000E+01 0.00000E+00
 -1       442 1.23150E+02 1.83966E+01 0.00000E+00
 -1       443 1.23930E+02 2.22915E+01 0.00000E+00
 -1       444 1.23708E+02 2.02318E+01 0.00000E+00
 -1       445 1.22297E+02 1.65859E+01 0.00000E+00
 -1       446 1.20856E+02 1.52204E+01 0.00000E+00
 -1       447 5.19600E+00 3.82125E+01 0.00000E+00
 -1       448 1.17651E+02 1.31378E+01 0.00000E+00
 -1       449 1.15402E+02 1.25583E+01 0.00000E+00
 -1       450 1.13647E+02 1.26585E+01 0.00000E+00
 -1       451 1.11410E+02 1.31312E+01 0.00000E+00
 -1       452 1.09555E+02 1.38270E+01 0.00000E+00
 -1       453 1.07862E+02 1.49592E+01 0.00000E+00
 -1       454 1.06831E+02 1.66033E+01 0.00000E+00
 -1       455 1.05643E+02 1.85091E+01 0.00000E+00
 -1       456 1.05070E+02 2.03007E+01 0.00000E+00
 -1       457 1.05035E+02 2.22755E+01 0.00000E+00
 -1       458 1.04998E+02 2.42816E+01 0.00000E+00
 -1       459 1.05850E+02 2.60981E+01 0.00000E+00
 -1       460 1.06817E+02 2.77839E+01 0.00000E+00
 -1       461 1.08038E+02 2.92827E+01 0.00000E+00
 -1       462 1.09439E+02 3.05857E+01 0.00000E+00
 -1       463 1.11465E+02 3.13288E+01 0.00000E+00
 -1       464 1.13394E+02 3.19595E+01 0.00000E+00
 -1       465 1.15442E+02 3.19260E+01 0.00000E+00
 -1       466 1.17532E+02 3.14395E+01 0.00000E+00
 -1       467 1.19461E+02 3.05988E+01 0.00000E+00
 -1       468 1.20879E+02 2.92862E+01 0.00000E+00
 -1       469 1.22256E+02 2.78600E+01 0.00000E+00
 -1       470 1.23107E+02 2.63273E+01 0.00000E+00
 -1       471 1.24045E+02 2.40997E+01 0.00000E+00
 -1       472 1.19285E+02 1.40664E+01 0.00000E+00
 -1       473 1.00350E+01 6.60425E+00 0.00000E+00
 -1       474 7.79400E+00 3.08500E+01 0.00000E+00
 -1       475 7.79400E+00 3.38000E+01 0.00000E+00
 -1       476 7.79400E+00 2.49500E+01 0.00000E+00
 -1       477 7.79400E+00 2.20000E+01 0.00000E+00
 -1       478 7.79400E+00 1.91000E+01 0.00000E+00
 -1       479 7.79400E+00 1.61500E+01 0.00000E+00
 -1       480 7.79400E+00 1.32000E+01 0.00000E+00
 -1       481 7.79400E+00 1.02500E+01 0.00000E+00
 -1       482 1.30350E+01 6.60425E+00 0.00000E+00
 -1       483 1.06500E+01 4.22060E+01 0.00000E+00
 -1       484 1.21086E+02 1.32610E+01 0.00000E+00
 -1       485 1.36500E+01 4.22060E+01 0.00000E+00
 -1       486 1.66500E+01 4.22060E+01 0.00000E+00
 -1       487 1.96500E+01 4.22060E+01 0.00000E+00
 -1       488 2.26500E+01 4.22060E+01 0.00000E+00
 -1       489 2.56500E+01 4.22060E+01 0.00000E+00
 -1       490 2.86500E+01 4.22060E+01 0.00000E+00
 -1       491 3.16500E+01 4.22060E+01 0.00000E+00
 -1       492 3.46500E+01 4.22060E+01 0.00000E+00
 -1       493 3.76500E+01 4.22060E+01 0.00000E+00
 -1       494 4.06500E+01 4.22060E+01 0.00000E+00
 -1       495 4.36500E+01 4.22060E+01 0.00000E+00
 -1       496 4.66500E+01 4.22060E+01 0.00000E+00
 -1       497 4.96500E+01 4.22060E+01 0.00000E+00
 -1       498 5.26500E+01 4.22060E+01 0.00000E+00
 -1       499 5.56500E+01 4.22060E+01 0.00000E+00
 -1       500 5.86500E+01 4.22060E+01 0.00000E+00
 -1       501 6.16500E+01 4.22060E+01 0.00000E+00
 -1       502 6.46500E+01 4.22060E+01 0.00000E+00
 -1       503 6.76500E+01 4.22060E+01 0.00000E+00
 -1       504 7.06500E+01 4.22060E+01 0.00000E+00
 -1       505 7.36500E+01 4.22060E+01 0.00000E+00
 -1       506 7.66500E+01 4.22060E+01 0.00000E+00
 -1       507 7.96500E+01 4.22060E+01 0.00000E+00
 -1       508 8.26500E+01 4.22060E+01 0.00000E+00
 -1       509 8.56500E+01 4.22060E+01 0.00000E+00
 -1       510 8.86500E+01 4.22060E+01 0.00000E+00
 -1       511 9.16500E+01 4.22060E+01 0.00000E+00
 -1       512 9.46500E+01 4.22060E+01 0.00000E+00
 -1       513 9.76500E+01 4.22060E+01 0.00000E+00
 -1       514 1.00650E+02 4.22060E+01 0.00000E+00
 -1       515 1.03650E+02 4.22060E+01 0.00000E+00
 -1       516 1.06650E+02 4.22060E+01 0.00000E+00
 -1       517 1.09650E+02 4.22060E+01 0.00000E+00
 -1       518 1.12650E+02 4.22060E+01 0.00000E+00
 -1       519 1.15650E+02 4.22060E+01 0.00000E+00
 -1       520 1.18650E+02 4.22060E+01 0.00000E+00
 -1       521 1.21650E+02 4.22060E+01 0.00000E+00
 -1       522 1.24650E+02 4.22060E+01 0.00000E+00
 -1       523 1.27650E+02 4.22060E+01 0.00000E+00
 -1       524 1.30650E+02 4.22060E+01 0.00000E+00
 -1       525 1.33650E+02 4.22060E+01 0.00000E+00
 -1       526 1.36650E+02 4.22060E+01 0.00000E+00
 -1       527 1.39650E+02 4.22060E+01 0.00000E+00
 -1       528 1.90350E+01 6.60425E+00 0.00000E+00
 -1       529 2.20350E+01 6.60425E+00 0.00000E+00
 -1       530 2.50350E+01 6.60425E+00 0.00000E+00
 -1       531 2.80350E+01 6.60425E+00 0.00000E+00
 -1       532 3.10350E+01 6.60425E+00 0.00000E+00
 -1       533 3.40350E+01 6.60425E+00 0.00000E+00
 -1       534 3.70350E+01 6.60425E+00 0.00000E+00
 -1       535 4.00350E+01 6.60425E+00 0.00000E+00
 -1       536 4.30350E+01 6.60425E+00 0.00000E+00
 -1       537 4.60350E+01 6.60425E+00 0.00000E+00
 -1       538 4.90350E+01 6.60425E+00 0.00000E+00
 -1       539 5.20350E+01 6.60425E+00 0.00000E+00
 -1       540 5.50350E+01 6.60425E+00 0.00000E+00
 -1       541 5.80350E+01 6.60425E+00 0.00000E+00
 -1       542 6.10350E+01 6.60425E+00 0.00000E+00
 -1       543 6.40350E+01 6.60425E+00 0.00000E+00
 -1       544 6.70350E+01 6.60425E+00 0.00000E+00
 -1       545 7.00350E+01 6.60425E+00 0.00000E+00
 -1       546 7.30350E+01 6.60425E+00 0.00000E+00
 -1       547 7.60350E+01 6.60425E+00 0.00000E+00
 -1       548 7.90350E+01 6.60425E+00 0.00000E+00
 -1       549 8.20350E+01 6.60425E+00 0.00000E+00
 -1       550 8.50350E+01 6.60425E+00 0.00000E+00
 -1       551 8.80350E+01 6.60425E+00 0.00000E+00
 -1       552 9.10350E+01 6.60425E+00 0.00000E+00
 -1       553 9.40350E+01 6.60425E+00 0.00000E+00
 -1       554 9.70350E+01 6.60425E+00 0.00000E+00
 -1       555 1.00035E+02 6.60425E+00 0.00000E+00
 -1       556 1.03035E+02 6.60425E+00 0.00000E+00
 -1       557 1.06035E+02 6.60425E+00 0.00000E+00
 -1       558 1.09035E+02 6.60425E+00 0.00000E+00
 -1       559 1.12035E+02 6.60425E+00 0.00000E+00
 -1       560 1.15035E+02 6.60425E+00 0.00000E+00
 -1       561 1.18035E+02 6.60425E+00 0.00000E+00
 -1       562 1.21035E+02 6.60425E+00 0.00000E+00
 -1       563 1.24035E+02 6.60425E+00 0.00000E+00
 -1       564 1.27035E+02 6.60425E+00 0.00000E+00
 -1       565 1.30035E+02 6.60425E+00 0.00000E+00
 -1       566 1.33035E+02 6.60425E+00 0.00000E+00
 -1       567 1.36035E+02 6.60425E+00 0.00000E+00
 -1       568 1.39035E+02 6.60425E+00 0.00000E+00
 -1       569 1.42035E+02 6.60425E+00 0.00000E+00
 -1       570 1.42206E+02 1.61750E+01 0.00000E+00
 -1       571 1.42206E+02 1.91250E+01 0.00000E+00
 -1       572 1.42206E+02 1.03250E+01 0.00000E+00
 -1       573 1.42206E+02 1.32500E+01 0.00000E+00
 -1       574 1.42206E+02 2.20750E+01 0.00000E+00
 -1       575 1.42206E+02 2.50250E+01 0.00000E+00
 -1       576 1.42206E+02 2.79750E+01 0.00000E+00
 -1       577 1.42206E+02 3.08750E+01 0.00000E+00
 -1       578 1.42206E+02 3.38250E+01 0.00000E+00
 -1       579 1.42206E+02 3.67750E+01 0.00000E+00
 -1       580 1.42206E+02 3.97250E+01 0.00000E+00
 -1       581 1.25524E+02 2.10776E+01 0.00000E+00
 -1       582 1.24124E+02 1.68318E+01 0.00000E+00
 -1       583 1.60350E+01 6.60425E+00 0.00000E+00
 -1       584 1.25639E+02 2.28858E+01 0.00000E+00
 -1       585 1.24910E+02 1.88641E+01 0.00000E+00
 -1       586 7.92300E+00 4.16780E+01 0.00000E+00
 -1       587 1.22681E+02 2.96478E+01 0.00000E+00
 -1       588 7.79400E+00 2.79000E+01 0.00000E+00
 -1       589 1.16913E+02 1.13495E+01 0.00000E+00
 -1       590 1.09821E+02 1.17163E+01 0.00000E+00
 -1       591 1.14436E+02 1.10633E+01 0.00000E+00
 -1       592 1.12174E+02 1.12168E+01 0.00000E+00
 -1       593 1.07568E+02 1.26891E+01 0.00000E+00
 -1       594 1.06036E+02 1.49588E+01 0.00000E+00
 -1       595 1.04848E+02 1.68646E+01 0.00000E+00
 -1       596 1.03963E+02 1.89590E+01 0.00000E+00
 -1       597 1.03338E+02 2.12579E+01 0.00000E+00
 -1       598 1.03301E+02 2.32640E+01 0.00000E+00
 -1       599 1.03871E+02 2.59180E+01 0.00000E+00
 -1       600 1.04838E+02 2.76038E+01 0.00000E+00
 -1       601 1.05968E+02 2.97228E+01 0.00000E+00
 -1       602 1.07369E+02 3.10258E+01 0.00000E+00
 -1       603 1.09861E+02 3.25674E+01 0.00000E+00
 -1       604 1.11790E+02 3.31981E+01 0.00000E+00
 -1       605 1.14445E+02 3.35739E+01 0.00000E+00
 -1       606 1.16838E+02 3.31900E+01 0.00000E+00
 -1       607 1.19182E+02 3.25914E+01 0.00000E+00
 -1       608 1.21263E+02 3.09604E+01 0.00000E+00
 -1       609 1.24034E+02 2.78453E+01 0.00000E+00
 -1       610 1.24925E+02 2.57812E+01 0.00000E+00
 -1       611 1.19451E+02 1.23324E+01 0.00000E+00
 -1       612 7.61550E+00 6.21462E+00 0.00000E+00
 -1       613 1.22699E+02 1.47190E+01 0.00000E+00
 -1       614 7.79400E+00 3.67375E+01 0.00000E+00
 -1       615 1.26519E+02 2.45673E+01 0.00000E+00
 -1       616 1.41678E+02 4.22645E+01 0.00000E+00
 -1       617 1.03920E+01 2.05500E+01 0.00000E+00
 -1       618 1.03920E+01 2.35000E+01 0.00000E+00
 -1       619 1.03920E+01 1.46750E+01 0.00000E+00
 -1       620 1.03920E+01 1.17250E+01 0.00000E+00
 -1       621 1.15350E+01 9.20225E+00 0.00000E+00
 -1       622 1.24997E+02 2.99775E+01 0.00000E+00
 -1       623 1.51500E+01 3.96080E+01 0.00000E+00
 -1       624 1.81500E+01 3.96080E+01 0.00000E+00
 -1       625 2.11500E+01 3.96080E+01 0.00000E+00
 -1       626 2.41500E+01 3.96080E+01 0.00000E+00
 -1       627 2.71500E+01 3.96080E+01 0.00000E+00
 -1       628 3.01500E+01 3.96080E+01 0.00000E+00
 -1       629 3.31500E+01 3.96080E+01 0.00000E+00
 -1       630 3.61500E+01 3.96080E+01 0.00000E+00
 -1       631 3.91500E+01 3.96080E+01 0.00000E+00
 -1       632 4.21500E+01 3.96080E+01 0.00000E+00
 -1       633 4.51500E+01 3.96080E+01 0.00000E+00
 -1       634 4.81500E+01 3.96080E+01 0.00000E+00
 -1       635 5.11500E+01 3.96080E+01 0.00000E+00
 -1       636 5.41500E+01 3.96080E+01 0.00000E+00
 -1       637 5.71500E+01 3.96080E+01 0.00000E+00
 -1       638 6.01500E+01 3.96080E+01 0.00000E+00
 -1       639 6.31500E+01 3.96080E+01 0.00000E+00
 -1       640 6.61500E+01 3.96080E+01 0.00000E+00
 -1       641 6.91500E+01 3.96080E+01 0.00000E+00
 -1       642 7.21500E+01 3.96080E+01 0.00000E+00
 -1       643 7.51500E+01 3.96080E+01 0.00000E+00
 -1       644 7.81500E+01 3.96080E+01 0.00000E+00
 -1       645 8.11500E+01 3.96080E+01 0.00000E+00
 -1       646 8.41500E+01 3.96080E+01 0.00000E+00
 -1       647 8.71500E+01 3.96080E+01 0.00000E+00
 -1       648 9.01500E+01 3.96080E+01 0.00000E+00
 -1       649 9.31500E+01 3.96080E+01 0.00000E+00
 -1       650 9.61500E+01 3.96080E+01 0.00000E+00
 -1       651 9.91500E+01 3.96080E+01 0.00000E+00
 -1       652 1.02150E+02 3.96080E+01 0.00000E+00
 -1       653 1.05150E+02 3.96080E+01 0.00000E+00
 -1       654 1.08150E+02 3.96080E+01 0.00000E+00
 -1       655 1.11150E+02 3.96080E+01 0.00000E+00
 -1       656 1.14150E+02 3.96080E+01 0.00000E+00
 -1       657 1.17150E+02 3.96080E+01 0.00000E+00
 -1       658 1.20150E+02 3.96080E+01 0.00000E+00
 -1       659 1.23150E+02 3.96080E+01 0.00000E+00
 -1       660 1.26150E+02 3.96080E+01 0.00000E+00
 -1       661 1.29150E+02 3.96080E+01 0.00000E+00
 -1       662 1.32150E+02 3.96080E+01 0.00000E+00
 -1       663 1.35150E+02 3.96080E+01 0.00000E+00
 -1       664 1.38150E+02 3.96080E+01 0.00000E+00
 -1       665 2.35350E+01 9.20225E+00 0.00000E+00
 -1       666 1.39206E+02 1.03250E+01 0.00000E+00
 -1       667 2.05350E+01 9.20225E+00 0.00000E+00
 -1       668 2.95350E+01 9.20225E+00 0.00000E+00
 -1       669 3.25350E+01 9.20225E+00 0.00000E+00
 -1       670 3.55350E+01 9.20225E+00 0.00000E+00
 -1       671 3.85350E+01 9.20225E+00 0.00000E+00
 -1       672 4.15350E+01 9.20225E+00 0.00000E+00
 -1       673 4.45350E+01 9.20225E+00 0.00000E+00
 -1       674 4.75350E+01 9.20225E+00 0.00000E+00
 -1       675 5.05350E+01 9.20225E+00 0.00000E+00
 -1       676 5.35350E+01 9.20225E+00 0.00000E+00
 -1       677 5.65350E+01 9.20225E+00 0.00000E+00
 -1       678 5.95350E+01 9.20225E+00 0.00000E+00
 -1       679 6.25350E+01 9.20225E+00 0.00000E+00
 -1       680 6.55350E+01 9.20225E+00 0.00000E+00
 -1       681 6.85350E+01 9.20225E+00 0.00000E+00
 -1       682 7.15350E+01 9.20225E+00 0.00000E+00
 -1       683 7.45350E+01 9.20225E+00 0.00000E+00
 -1       684 7.75350E+01 9.20225E+00 0.00000E+00
 -1       685 8.05350E+01 9.20225E+00 0.00000E+00
 -1       686 8.35350E+01 9.20225E+00 0.00000E+00
 -1       687 8.65350E+01 9.20225E+00 0.00000E+00
 -1       688 8.95350E+01 9.20225E+00 0.00000E+00
 -1       689 9.25350E+01 9.20225E+00 0.00000E+00
 -1       690 9.55350E+01 9.20225E+00 0.00000E+00
 -1       691 9.85350E+01 9.20225E+00 0.00000E+00
 -1       692 1.01535E+02 9.20225E+00 0.00000E+00
 -1       693 1.04535E+02 9.20225E+00 0.00000E+00
 -1       694 1.07535E+02 9.20225E+00 0.00000E+00
 -1       695 1.13535E+02 8.82207E+00 0.00000E+00
 -1       696 1.16535E+02 8.98964E+00 0.00000E+00
 -1       697 1.19535E+02 8.98964E+00 0.00000E+00
 -1       698 1.22535E+02 8.98964E+00 0.00000E+00
 -1       699 1.25535E+02 8.98964E+00 0.00000E+00
 -1       700 1.28535E+02 8.98964E+00 0.00000E+00
 -1       701 1.31535E+02 8.98964E+00 0.00000E+00
 -1       702 1.34535E+02 8.98964E+00 0.00000E+00
 -1       703 1.36870E+02 9.65732E+00 0.00000E+00
 -1       704 1.25250E+02 1.45352E+01 0.00000E+00
 -1       705 1.39608E+02 2.35500E+01 0.00000E+00
 -1       706 1.01833E+02 1.96149E+01 0.00000E+00
 -1       707 1.39608E+02 1.76500E+01 0.00000E+00
 -1       708 1.39608E+02 2.65000E+01 0.00000E+00
 -1       709 1.39608E+02 2.06000E+01 0.00000E+00
 -1       710 1.39608E+02 2.94000E+01 0.00000E+00
 -1       711 1.39608E+02 3.23500E+01 0.00000E+00
 -1       712 1.39608E+02 3.53000E+01 0.00000E+00
 -1       713 1.26429E+02 1.71083E+01 0.00000E+00
 -1       714 1.27044E+02 1.93218E+01 0.00000E+00
 -1       715 1.23579E+02 3.12901E+01 0.00000E+00
 -1       716 1.27461E+02 2.18630E+01 0.00000E+00
 -1       717 1.07220E+01 3.94717E+01 0.00000E+00
 -1       718 1.02903E+02 1.72766E+01 0.00000E+00
 -1       719 1.04964E+02 1.25828E+01 0.00000E+00
 -1       720 1.75350E+01 9.20225E+00 0.00000E+00
 -1       721 2.65350E+01 9.20225E+00 0.00000E+00
 -1       722 1.23379E+02 1.23446E+01 0.00000E+00
 -1       723 1.03920E+01 1.76125E+01 0.00000E+00
 -1       724 1.03920E+01 3.23250E+01 0.00000E+00
 -1       725 1.45350E+01 9.20225E+00 0.00000E+00
 -1       726 1.21384E+02 3.32576E+01 0.00000E+00
 -1       727 1.40178E+02 3.96665E+01 0.00000E+00
 -1       728 1.10535E+02 9.01216E+00 0.00000E+00
 -1       729 1.03776E+02 1.44886E+01 0.00000E+00
 -1       730 1.15913E+02 3.50754E+01 0.00000E+00
 -1       731 1.01772E+02 2.22323E+01 0.00000E+00
 -1       732 1.01745E+02 2.49866E+01 0.00000E+00
 -1       733 1.02867E+02 2.76142E+01 0.00000E+00
 -1       734 1.03997E+02 2.97331E+01 0.00000E+00
 -1       735 1.05272E+02 3.18754E+01 0.00000E+00
 -1       736 1.07625E+02 3.33977E+01 0.00000E+00
 -1       737 1.10241E+02 3.46722E+01 0.00000E+00
 -1       738 1.26054E+02 2.74930E+01 0.00000E+00
 -1       739 1.12895E+02 3.50480E+01 0.00000E+00
 -1       740 1.18476E+02 3.47148E+01 0.00000E+00
 -1       741 1.21745E+02 1.14160E+01 0.00000E+00
 -1       742 1.18801E+02 1.02415E+01 0.00000E+00
 -1       743 1.03920E+01 3.52625E+01 0.00000E+00
 -1       744 1.03920E+01 2.64500E+01 0.00000E+00
 -1       745 1.28341E+02 2.35445E+01 0.00000E+00
 -1       746 1.39608E+02 1.47250E+01 0.00000E+00
 -1       747 1.14363E+02 3.65495E+01 0.00000E+00
 -1       748 1.27648E+02 2.62791E+01 0.00000E+00
 -1       749 1.38879E+02 3.74540E+01 0.00000E+00
 -1       750 1.03920E+01 2.93875E+01 0.00000E+00
 -1       751 1.20678E+02 3.53811E+01 0.00000E+00
 -1       752 1.29900E+01 1.32000E+01 0.00000E+00
 -1       753 1.00575E+02 2.70395E+01 0.00000E+00
 -1       754 1.96500E+01 3.70100E+01 0.00000E+00
 -1       755 2.26500E+01 3.70100E+01 0.00000E+00
 -1       756 2.56500E+01 3.70100E+01 0.00000E+00
 -1       757 2.86500E+01 3.70100E+01 0.00000E+00
 -1       758 3.16500E+01 3.70100E+01 0.00000E+00
 -1       759 3.46500E+01 3.70100E+01 0.00000E+00
 -1       760 3.76500E+01 3.70100E+01 0.00000E+00
 -1       761 4.06500E+01 3.70100E+01 0.00000E+00
 -1       762 4.36500E+01 3.70100E+01 0.00000E+00
 -1       763 4.66500E+01 3.70100E+01 0.00000E+00
 -1       764 4.96500E+01 3.70100E+01 0.00000E+00
 -1       765 5.26500E+01 3.70100E+01 0.00000E+00
 -1       766 5.56500E+01 3.70100E+01 0.00000E+00
 -1       767 5.86500E+01 3.70100E+01 0.00000E+00
 -1       768 6.16500E+01 3.70100E+01 0.00000E+00
 -1       769 6.46500E+01 3.70100E+01 0.00000E+00
 -1       770 6.76500E+01 3.70100E+01 0.00000E+00
 -1       771 7.06500E+01 3.70100E+01 0.00000E+00
 -1       772 7.36500E+01 3.70100E+01 0.00000E+00
 -1       773 7.66500E+01 3.70100E+01 0.00000E+00
 -1       774 7.96500E+01 3.70100E+01 0.00000E+00
 -1       775 8.26500E+01 3.70100E+01 0.00000E+00
 -1       776 8.56500E+01 3.70100E+01 0.00000E+00
 -1       777 8.86500E+01 3.70100E+01 0.00000E+00
 -1       778 9.16500E+01 3.70100E+01 0.00000E+00
 -1       779 9.46500E+01 3.70100E+01 0.00000E+00
 -1       780 9.76500E+01 3.70100E+01 0.00000E+00
 -1       781 1.00650E+02 3.70100E+01 0.00000E+00
 -1       782 1.03650E+02 3.70100E+01 0.00000E+00
 -1       783 1.06650E+02 3.70100E+01 0.00000E+00
 -1       784 1.12650E+02 3.75578E+01 0.00000E+00
 -1       785 1.15650E+02 3.73902E+01 0.00000E+00
 -1       786 1.24650E+02 3.70100E+01 0.00000E+00
 -1       787 1.27650E+02 3.70100E+01 0.00000E+00
 -1       788 1.30650E+02 3.70100E+01 0.00000E+00
 -1       789 1.33650E+02 3.70100E+01 0.00000E+00
 -1       790 1.36264E+02 3.72320E+01 0.00000E+00
 -1       791 2.20350E+01 1.18003E+01 0.00000E+00
 -1       792 3.40350E+01 1.18003E+01 0.00000E+00
 -1       793 3.10350E+01 1.18003E+01 0.00000E+00
 -1       794 4.00350E+01 1.18003E+01 0.00000E+00
 -1       795 4.30350E+01 1.18003E+01 0.00000E+00
 -1       796 4.60350E+01 1.18003E+01 0.00000E+00
 -1       797 4.90350E+01 1.18003E+01 0.00000E+00
 -1       798 5.20350E+01 1.18003E+01 0.00000E+00
 -1       799 5.50350E+01 1.18003E+01 0.00000E+00
 -1       800 5.80350E+01 1.18003E+01 0.00000E+00
 -1       801 6.10350E+01 1.18003E+01 0.00000E+00
 -1       802 6.40350E+01 1.18003E+01 0.00000E+00
 -1       803 6.70350E+01 1.18003E+01 0.00000E+00
 -1       804 7.00350E+01 1.18003E+01 0.00000E+00
 -1       805 7.30350E+01 1.18003E+01 0.00000E+00
 -1       806 7.60350E+01 1.18003E+01 0.00000E+00
 -1       807 7.90350E+01 1.18003E+01 0.00000E+00
 -1       808 8.20350E+01 1.18003E+01 0.00000E+00
 -1       809 8.50350E+01 1.18003E+01 0.00000E+00
 -1       810 8.80350E+01 1.18003E+01 0.00000E+00
 -1       811 9.10350E+01 1.18003E+01 0.00000E+00
 -1       812 9.40350E+01 1.18003E+01 0.00000E+00
 -1       813 9.70350E+01 1.18003E+01 0.00000E+00
 -1       814 1.00035E+02 1.18003E+01 0.00000E+00
 -1       815 1.27035E+02 1.15876E+01 0.00000E+00
 -1       816 1.30035E+02 1.15876E+01 0.00000E+00
 -1       817 1.33035E+02 1.15876E+01 0.00000E+00
 -1       818 1.37625E+01 1.12011E+01 0.00000E+00
 -1       819 1.37010E+02 2.79500E+01 0.00000E+00
 -1       820 1.37010E+02 2.50000E+01 0.00000E+00
 -1       821 1.28873E+02 1.76216E+01 0.00000E+00
 -1       822 1.28008E+02 1.48281E+01 0.00000E+00
 -1       823 1.01223E+02 1.52194E+01 0.00000E+00
 -1       824 1.25795E+02 3.22613E+01 0.00000E+00
 -1       825 1.23599E+02 3.42289E+01 0.00000E+00
 -1       826 1.90350E+01 1.18003E+01 0.00000E+00
 -1       827 1.37010E+02 3.09000E+01 0.00000E+00
 -1       828 1.37010E+02 3.38500E+01 0.00000E+00
 -1       829 1.27566E+02 2.96036E+01 0.00000E+00
 -1       830 1.29275E+02 2.02605E+01 0.00000E+00
 -1       831 3.70350E+01 1.18003E+01 0.00000E+00
 -1       832 1.66500E+01 3.70100E+01 0.00000E+00
 -1       833 1.00154E+02 1.75578E+01 0.00000E+00
 -1       834 1.07961E+02 3.60288E+01 0.00000E+00
 -1       835 9.97087E+01 2.35896E+01 0.00000E+00
 -1       836 1.35210E+01 3.61362E+01 0.00000E+00
 -1       837 1.01475E+02 2.97174E+01 0.00000E+00
 -1       838 1.02750E+02 3.18597E+01 0.00000E+00
 -1       839 1.11328E+02 3.65583E+01 0.00000E+00
 -1       840 9.97699E+01 2.09722E+01 0.00000E+00
 -1       841 1.29900E+01 2.20250E+01 0.00000E+00
 -1       842 1.02346E+02 1.22740E+01 0.00000E+00
 -1       843 1.05244E+02 3.44986E+01 0.00000E+00
 -1       844 1.29900E+01 2.49750E+01 0.00000E+00
 -1       845 1.36637E+02 3.55410E+01 0.00000E+00
 -1       846 9.85378E+01 2.56424E+01 0.00000E+00
 -1       847 1.30156E+02 2.19420E+01 0.00000E+00
 -1       848 1.09650E+02 3.73902E+01 0.00000E+00
 -1       849 1.21650E+02 3.70100E+01 0.00000E+00
 -1       850 2.80350E+01 1.18003E+01 0.00000E+00
 -1       851 1.35370E+02 1.22553E+01 0.00000E+00
 -1       852 1.37273E+02 1.40573E+01 0.00000E+00
 -1       853 1.37010E+02 1.91250E+01 0.00000E+00
 -1       854 2.50350E+01 1.18003E+01 0.00000E+00
 -1       855 1.35210E+01 3.31987E+01 0.00000E+00
 -1       856 1.37141E+02 1.65912E+01 0.00000E+00
 -1       857 1.37010E+02 2.20625E+01 0.00000E+00
 -1       858 1.29160E+02 2.83897E+01 0.00000E+00
 -1       859 1.29900E+01 1.61375E+01 0.00000E+00
 -1       860 1.29900E+01 1.90812E+01 0.00000E+00
 -1       861 1.63988E+01 1.15007E+01 0.00000E+00
 -1       862 1.35210E+01 3.02612E+01 0.00000E+00
 -1       863 2.41500E+01 3.44120E+01 0.00000E+00
 -1       864 2.71500E+01 3.44120E+01 0.00000E+00
 -1       865 3.01500E+01 3.44120E+01 0.00000E+00
 -1       866 3.31500E+01 3.44120E+01 0.00000E+00
 -1       867 3.61500E+01 3.44120E+01 0.00000E+00
 -1       868 3.91500E+01 3.44120E+01 0.00000E+00
 -1       869 4.21500E+01 3.44120E+01 0.00000E+00
 -1       870 4.51500E+01 3.44120E+01 0.00000E+00
 -1       871 4.81500E+01 3.44120E+01 0.00000E+00
 -1       872 5.11500E+01 3.44120E+01 0.00000E+00
 -1       873 5.41500E+01 3.44120E+01 0.00000E+00
 -1       874 5.71500E+01 3.44120E+01 0.00000E+00
 -1       875 6.01500E+01 3.44120E+01 0.00000E+00
 -1       876 6.31500E+01 3.44120E+01 0.00000E+00
 -1       877 6.61500E+01 3.44120E+01 0.00000E+00
 -1       878 6.91500E+01 3.44120E+01 0.00000E+00
 -1       879 7.21500E+01 3.44120E+01 0.00000E+00
 -1       880 7.51500E+01 3.44120E+01 0.00000E+00
 -1       881 7.81500E+01 3.44120E+01 0.00000E+00
 -1       882 8.11500E+01 3.44120E+01 0.00000E+00
 -1       883 8.41500E+01 3.44120E+01 0.00000E+00
 -1       884 8.71500E+01 3.44120E+01 0.00000E+00
 -1       885 9.01500E+01 3.44120E+01 0.00000E+00
 -1       886 9.31500E+01 3.44120E+01 0.00000E+00
 -1       887 9.61500E+01 3.44120E+01 0.00000E+00
 -1       888 9.91500E+01 3.44120E+01 0.00000E+00
 -1       889 1.34412E+02 2.94250E+01 0.00000E+00
 -1       890 1.29150E+02 3.44120E+01 0.00000E+00
 -1       891 1.32150E+02 3.44120E+01 0.00000E+00
 -1       892 1.81500E+01 3.44120E+01 0.00000E+00
 -1       893 4.45350E+01 1.43982E+01 0.00000E+00
 -1       894 4.15350E+01 1.43982E+01 0.00000E+00
 -1       895 5.05350E+01 1.43982E+01 0.00000E+00
 -1       896 5.35350E+01 1.43982E+01 0.00000E+00
 -1       897 5.65350E+01 1.43982E+01 0.00000E+00
 -1       898 5.95350E+01 1.43982E+01 0.00000E+00
 -1       899 6.25350E+01 1.43982E+01 0.00000E+00
 -1       900 6.55350E+01 1.43982E+01 0.00000E+00
 -1       901 6.85350E+01 1.43982E+01 0.00000E+00
 -1       902 7.15350E+01 1.43982E+01 0.00000E+00
 -1       903 7.45350E+01 1.43982E+01 0.00000E+00
 -1       904 7.75350E+01 1.43982E+01 0.00000E+00
 -1       905 8.05350E+01 1.43982E+01 0.00000E+00
 -1       906 8.35350E+01 1.43982E+01 0.00000E+00
 -1       907 8.65350E+01 1.43982E+01 0.00000E+00
 -1       908 8.95350E+01 1.43982E+01 0.00000E+00
 -1       909 9.25350E+01 1.43982E+01 0.00000E+00
 -1       910 9.55350E+01 1.43982E+01 0.00000E+00
 -1       911 9.85350E+01 1.43982E+01 0.00000E+00
 -1       912 1.31535E+02 1.41856E+01 0.00000E+00
 -1       913 1.34412E+02 2.64750E+01 0.00000E+00
 -1       914 2.35350E+01 1.43982E+01 0.00000E+00
 -1       915 1.30145E+02 2.54563E+01 0.00000E+00
 -1       916 9.87639E+01 2.91388E+01 0.00000E+00
 -1       917 9.78571E+01 2.22368E+01 0.00000E+00
 -1       918 1.26289E+02 3.50215E+01 0.00000E+00
 -1       919 2.05350E+01 1.43982E+01 0.00000E+00
 -1       920 1.32555E+01 2.76181E+01 0.00000E+00
 -1       921 3.25350E+01 1.43982E+01 0.00000E+00
 -1       922 1.30719E+02 1.55191E+01 0.00000E+00
 -1       923 2.11500E+01 3.44120E+01 0.00000E+00
 -1       924 9.75915E+01 1.89984E+01 0.00000E+00
 -1       925 4.75350E+01 1.43982E+01 0.00000E+00
 -1       926 1.28665E+02 3.22556E+01 0.00000E+00
 -1       927 9.98803E+01 3.21174E+01 0.00000E+00
 -1       928 1.34412E+02 3.23750E+01 0.00000E+00
 -1       929 1.02263E+02 3.48174E+01 0.00000E+00
 -1       930 1.31267E+02 1.86070E+01 0.00000E+00
 -1       931 1.32147E+02 2.02885E+01 0.00000E+00
 -1       932 9.66863E+01 2.42897E+01 0.00000E+00
 -1       933 1.34394E+02 3.49765E+01 0.00000E+00
 -1       934 3.85350E+01 1.43982E+01 0.00000E+00
 -1       935 1.33870E+02 1.48533E+01 0.00000E+00
 -1       936 1.55880E+01 2.35000E+01 0.00000E+00
 -1       937 1.56263E+01 1.34996E+01 0.00000E+00
 -1       938 2.65350E+01 1.43982E+01 0.00000E+00
 -1       939 1.30259E+02 3.10417E+01 0.00000E+00
 -1       940 1.34481E+02 1.77237E+01 0.00000E+00
 -1       941 1.34412E+02 2.35375E+01 0.00000E+00
 -1       942 1.34447E+02 2.06306E+01 0.00000E+00
 -1       943 2.95350E+01 1.43982E+01 0.00000E+00
 -1       944 1.75351E+01 1.43983E+01 0.00000E+00
 -1       945 3.55350E+01 1.43982E+01 0.00000E+00
 -1       946 1.58355E+01 3.38054E+01 0.00000E+00
 -1       947 1.55880E+01 2.05562E+01 0.00000E+00
 -1       948 1.58355E+01 3.08679E+01 0.00000E+00
 -1       949 2.86500E+01 3.18140E+01 0.00000E+00
 -1       950 3.16500E+01 3.18140E+01 0.00000E+00
 -1       951 3.46500E+01 3.18140E+01 0.00000E+00
 -1       952 3.76500E+01 3.18140E+01 0.00000E+00
 -1       953 4.06500E+01 3.18140E+01 0.00000E+00
 -1       954 4.36500E+01 3.18140E+01 0.00000E+00
 -1       955 4.66500E+01 3.18140E+01 0.00000E+00
 -1       956 4.96500E+01 3.18140E+01 0.00000E+00
 -1       957 5.26500E+01 3.18140E+01 0.00000E+00
 -1       958 5.56500E+01 3.18140E+01 0.00000E+00
 -1       959 5.86500E+01 3.18140E+01 0.00000E+00
 -1       960 6.16500E+01 3.18140E+01 0.00000E+00
 -1       961 6.46500E+01 3.18140E+01 0.00000E+00
 -1       962 6.76500E+01 3.18140E+01 0.00000E+00
 -1       963 7.06500E+01 3.18140E+01 0.00000E+00
 -1       964 7.36500E+01 3.18140E+01 0.00000E+00
 -1       965 7.66500E+01 3.18140E+01 0.00000E+00
 -1       966 7.96500E+01 3.18140E+01 0.00000E+00
 -1       967 8.26500E+01 3.18140E+01 0.00000E+00
 -1       968 8.56500E+01 3.18140E+01 0.00000E+00
 -1       969 8.86500E+01 3.18140E+01 0.00000E+00
 -1       970 9.16500E+01 3.18140E+01 0.00000E+00
 -1       971 9.46500E+01 3.18140E+01 0.00000E+00
 -1       972 9.72651E+01 3.19657E+01 0.00000E+00
 -1       973 5.50350E+01 1.69963E+01 0.00000E+00
 -1       974 5.20350E+01 1.69963E+01 0.00000E+00
 -1       975 6.10350E+01 1.69963E+01 0.00000E+00
 -1       976 6.40350E+01 1.69963E+01 0.00000E+00
 -1       977 6.70350E+01 1.69963E+01 0.00000E+00
 -1       978 7.00350E+01 1.69963E+01 0.00000E+00
 -1       979 7.30350E+01 1.69963E+01 0.00000E+00
 -1       980 7.60350E+01 1.69963E+01 0.00000E+00
 -1       981 7.90350E+01 1.69963E+01 0.00000E+00
 -1       982 8.20350E+01 1.69963E+01 0.00000E+00
 -1       983 8.50350E+01 1.69963E+01 0.00000E+00
 -1       984 8.80350E+01 1.69963E+01 0.00000E+00
 -1       985 9.10350E+01 1.69963E+01 0.00000E+00
 -1       986 9.40350E+01 1.69963E+01 0.00000E+00
 -1       987 2.26500E+01 3.18140E+01 0.00000E+00
 -1       988 1.31859E+02 2.79500E+01 0.00000E+00
 -1       989 1.81500E+01 3.14745E+01 0.00000E+00
 -1       990 1.32200E+02 2.37057E+01 0.00000E+00
 -1       991 1.90351E+01 1.69963E+01 0.00000E+00
 -1       992 9.53469E+01 2.08126E+01 0.00000E+00
 -1       993 1.31781E+02 3.19185E+01 0.00000E+00
 -1       994 1.52625E+01 1.67398E+01 0.00000E+00
 -1       995 1.58535E+01 2.61431E+01 0.00000E+00
 -1       996 2.04000E+01 3.16443E+01 0.00000E+00
 -1       997 5.80350E+01 1.69963E+01 0.00000E+00
 -1       998 2.56500E+01 3.18140E+01 0.00000E+00
 -1       999 2.20351E+01 1.69963E+01 0.00000E+00
 -1      1000 9.64377E+01 2.75337E+01 0.00000E+00
 -1      1001 4.30350E+01 1.69963E+01 0.00000E+00
 -1      1002 1.81860E+01 2.20281E+01 0.00000E+00
 -1      1003 4.90350E+01 1.69963E+01 0.00000E+00
 -1      1004 2.50351E+01 1.69963E+01 0.00000E+00
 -1      1005 3.40350E+01 1.69963E+01 0.00000E+00
 -1      1006 1.84515E+01 2.46712E+01 0.00000E+00
 -1      1007 3.10350E+01 1.69963E+01 0.00000E+00
 -1      1008 4.60350E+01 1.69963E+01 0.00000E+00
 -1      1009 4.00350E+01 1.69963E+01 0.00000E+00
 -1      1010 1.58445E+01 2.85055E+01 0.00000E+00
 -1      1011 3.31500E+01 2.92160E+01 0.00000E+00
 -1      1012 3.61500E+01 2.92160E+01 0.00000E+00
 -1      1013 3.91500E+01 2.92160E+01 0.00000E+00
 -1      1014 4.21500E+01 2.92160E+01 0.00000E+00
 -1      1015 4.51500E+01 2.92160E+01 0.00000E+00
 -1      1016 4.81500E+01 2.92160E+01 0.00000E+00
 -1      1017 5.11500E+01 2.92160E+01 0.00000E+00
 -1      1018 5.41500E+01 2.92160E+01 0.00000E+00
 -1      1019 5.71500E+01 2.92160E+01 0.00000E+00
 -1      1020 6.01500E+01 2.92160E+01 0.00000E+00
 -1      1021 6.31500E+01 2.92160E+01 0.00000E+00
 -1      1022 6.61500E+01 2.92160E+01 0.00000E+00
 -1      1023 6.91500E+01 2.92160E+01 0.00000E+00
 -1      1024 7.21500E+01 2.92160E+01 0.00000E+00
 -1      1025 7.51500E+01 2.92160E+01 0.00000E+00
 -1      1026 7.81500E+01 2.92160E+01 0.00000E+00
 -1      1027 8.11500E+01 2.92160E+01 0.00000E+00
 -1      1028 8.41500E+01 2.92160E+01 0.00000E+00
 -1      1029 8.71500E+01 2.92160E+01 0.00000E+00
 -1      1030 9.01500E+01 2.92160E+01 0.00000E+00
 -1      1031 9.31500E+01 2.92160E+01 0.00000E+00
 -1      1032 2.71500E+01 2.92160E+01 0.00000E+00
 -1      1033 5.65350E+01 1.95942E+01 0.00000E+00
 -1      1034 6.85350E+01 1.95942E+01 0.00000E+00
 -1      1035 5.35350E+01 1.95942E+01 0.00000E+00
 -1      1036 4.45350E+01 1.95942E+01 0.00000E+00
 -1      1037 9.40165E+01 2.57166E+01 0.00000E+00
 -1      1038 6.55350E+01 1.95942E+01 0.00000E+00
 -1      1039 6.25350E+01 1.95942E+01 0.00000E+00
 -1      1040 7.15350E+01 1.95942E+01 0.00000E+00
 -1      1041 7.45350E+01 1.95942E+01 0.00000E+00
 -1      1042 7.75350E+01 1.95942E+01 0.00000E+00
 -1      1043 8.05350E+01 1.95942E+01 0.00000E+00
 -1      1044 8.35350E+01 1.95942E+01 0.00000E+00
 -1      1045 8.65350E+01 1.95942E+01 0.00000E+00
 -1      1046 8.95350E+01 1.95942E+01 0.00000E+00
 -1      1047 9.24409E+01 2.02034E+01 0.00000E+00
 -1      1048 1.81590E+01 2.91121E+01 0.00000E+00
 -1      1049 3.70350E+01 1.69963E+01 0.00000E+00
 -1      1050 2.80350E+01 1.69963E+01 0.00000E+00
 -1      1051 5.95350E+01 1.95942E+01 0.00000E+00
 -1      1052 2.41500E+01 2.92160E+01 0.00000E+00
 -1      1053 9.32287E+01 2.29600E+01 0.00000E+00
 -1      1054 2.11860E+01 2.20281E+01 0.00000E+00
 -1      1055 3.01500E+01 2.92160E+01 0.00000E+00
 -1      1056 4.15350E+01 1.95942E+01 0.00000E+00
 -1      1057 5.05350E+01 1.95942E+01 0.00000E+00
 -1      1058 4.75350E+01 1.95942E+01 0.00000E+00
 -1      1059 2.04090E+01 2.92819E+01 0.00000E+00
 -1      1060 2.41860E+01 2.20281E+01 0.00000E+00
 -1      1061 3.25350E+01 1.95942E+01 0.00000E+00
 -1      1062 1.83053E+01 2.68917E+01 0.00000E+00
 -1      1063 3.55350E+01 1.95942E+01 0.00000E+00
 -1      1064 3.76500E+01 2.66180E+01 0.00000E+00
 -1      1065 4.06500E+01 2.66180E+01 0.00000E+00
 -1      1066 4.36500E+01 2.66180E+01 0.00000E+00
 -1      1067 4.66500E+01 2.66180E+01 0.00000E+00
 -1      1068 4.96500E+01 2.66180E+01 0.00000E+00
 -1      1069 5.26500E+01 2.66180E+01 0.00000E+00
 -1      1070 5.56500E+01 2.66180E+01 0.00000E+00
 -1      1071 5.86500E+01 2.66180E+01 0.00000E+00
 -1      1072 6.16500E+01 2.66180E+01 0.00000E+00
 -1      1073 6.46500E+01 2.66180E+01 0.00000E+00
 -1      1074 6.76500E+01 2.66180E+01 0.00000E+00
 -1      1075 7.06500E+01 2.66180E+01 0.00000E+00
 -1      1076 7.36500E+01 2.66180E+01 0.00000E+00
 -1      1077 7.66500E+01 2.66180E+01 0.00000E+00
 -1      1078 7.96500E+01 2.66180E+01 0.00000E+00
 -1      1079 8.26500E+01 2.66180E+01 0.00000E+00
 -1      1080 8.56500E+01 2.66180E+01 0.00000E+00
 -1      1081 8.86500E+01 2.66180E+01 0.00000E+00
 -1      1082 9.13332E+01 2.61673E+01 0.00000E+00
 -1      1083 2.56500E+01 2.66180E+01 0.00000E+00
 -1      1084 5.80350E+01 2.21922E+01 0.00000E+00
 -1      1085 7.00350E+01 2.21922E+01 0.00000E+00
 -1      1086 6.40350E+01 2.21922E+01 0.00000E+00
 -1      1087 7.60350E+01 2.21922E+01 0.00000E+00
 -1      1088 7.90350E+01 2.21922E+01 0.00000E+00
 -1      1089 8.20350E+01 2.21922E+01 0.00000E+00
 -1      1090 8.50350E+01 2.21922E+01 0.00000E+00
 -1      1091 8.80350E+01 2.21922E+01 0.00000E+00
 -1      1092 9.06319E+01 2.25761E+01 0.00000E+00
 -1      1093 2.05553E+01 2.70614E+01 0.00000E+00
 -1      1094 2.95350E+01 1.95943E+01 0.00000E+00
 -1      1095 2.86500E+01 2.66180E+01 0.00000E+00
 -1      1096 3.85350E+01 1.95942E+01 0.00000E+00
 -1      1097 6.70350E+01 2.21922E+01 0.00000E+00
 -1      1098 3.16500E+01 2.66180E+01 0.00000E+00
 -1      1099 6.10350E+01 2.21922E+01 0.00000E+00
 -1      1100 2.16243E+01 2.52177E+01 0.00000E+00
 -1      1101 5.50350E+01 2.21922E+01 0.00000E+00
 -1      1102 7.30350E+01 2.21922E+01 0.00000E+00
 -1      1103 3.46500E+01 2.66180E+01 0.00000E+00
 -1      1104 4.30350E+01 2.21922E+01 0.00000E+00
 -1      1105 5.20350E+01 2.21922E+01 0.00000E+00
 -1      1106 4.60350E+01 2.21922E+01 0.00000E+00
 -1      1107 3.10350E+01 2.21923E+01 0.00000E+00
 -1      1108 2.68605E+01 2.08112E+01 0.00000E+00
 -1      1109 3.40350E+01 2.21923E+01 0.00000E+00
 -1      1110 4.21500E+01 2.40200E+01 0.00000E+00
 -1      1111 5.11500E+01 2.40200E+01 0.00000E+00
 -1      1112 4.00350E+01 2.21922E+01 0.00000E+00
 -1      1113 2.71500E+01 2.40200E+01 0.00000E+00
 -1      1114 4.90350E+01 2.21922E+01 0.00000E+00
 -1      1115 3.70350E+01 2.21923E+01 0.00000E+00
 -1      1116 4.81500E+01 2.40200E+01 0.00000E+00
 -1      1117 2.49308E+01 2.52497E+01 0.00000E+00
 -1      1118 0.00000E+00 4.85250E+01 0.00000E+00
 -1      1119 0.00000E+00 4.55750E+01 0.00000E+00
 -1      1120 0.00000E+00 4.26250E+01 0.00000E+00
 -1      1121 0.00000E+00 3.96750E+01 0.00000E+00
 -1      1122 0.00000E+00 3.67250E+01 0.00000E+00
 -1      1123 0.00000E+00 3.38000E+01 0.00000E+00
 -1      1124 0.00000E+00 3.08750E+01 0.00000E+00
 -1      1125 0.00000E+00 2.79250E+01 0.00000E+00
 -1      1126 0.00000E+00 2.49750E+01 0.00000E+00
 -1      1127 0.00000E+00 2.20250E+01 0.00000E+00
 -1      1128 0.00000E+00 1.90750E+01 0.00000E+00
 -1      1129 0.00000E+00 1.61500E+01 0.00000E+00
 -1      1130 0.00000E+00 1.32250E+01 0.00000E+00
 -1      1131 0.00000E+00 1.02750E+01 0.00000E+00
 -1      1132 0.00000E+00 7.32500E+00 0.00000E+00
 -1      1133 0.00000E+00 4.37500E+00 0.00000E+00
 -1      1134 0.00000E+00 1.45000E+00 0.00000E+00
 -1      1135 1.57500E+00 5.00000E+01 0.00000E+00
 -1      1136 4.65000E+00 5.00000E+01 0.00000E+00
 -1      1137 7.65000E+00 5.00000E+01 0.00000E+00
 -1      1138 1.06500E+01 5.00000E+01 0.00000E+00
 -1      1139 1.36500E+01 5.00000E+01 0.00000E+00
 -1      1140 1.66500E+01 5.00000E+01 0.00000E+00
 -1      1141 1.96500E+01 5.00000E+01 0.00000E+00
 -1      1142 2.26500E+01 5.00000E+01 0.00000E+00
 -1      1143 2.56500E+01 5.00000E+01 0.00000E+00
 -1      1144 2.86500E+01 5.00000E+01 0.00000E+00
 -1      1145 3.16500E+01 5.00000E+01 0.00000E+00
 -1      1146 3.46500E+01 5.00000E+01 0.00000E+00
 -1      1147 3.76500E+01 5.00000E+01 0.00000E+00
 -1      1148 4.06500E+01 5.00000E+01 0.00000E+00
 -1      1149 4.36500E+01 5.00000E+01 0.00000E+00
 -1      1150 4.66500E+01 5.00000E+01 0.00000E+00
 -1      1151 4.96500E+01 5.00000E+01 0.00000E+00
 -1      1152 5.26500E+01 5.00000E+01 0.00000E+00
 -1      1153 5.56500E+01 5.00000E+01 0.00000E+00
 -1      1154 5.86500E+01 5.00000E+01 0.00000E+00
 -1      1155 6.16500E+01 5.00000E+01 0.00000E+00
 -1      1156 6.46500E+01 5.00000E+01 0.00000E+00
 -1      1157 6.76500E+01 5.00000E+01 0.00000E+00
 -1      1158 7.06500E+01 5.00000E+01 0.00000E+00
 -1      1159 7.36500E+01 5.00000E+01 0.00000E+00
 -1      1160 7.66500E+01 5.00000E+01 0.00000E+00
 -1      1161 7.96500E+01 5.00000E+01 0.00000E+00
 -1      1162 8.26500E+01 5.00000E+01 0.00000E+00
 -1      1163 8.56500E+01 5.00000E+01 0.00000E+00
 -1      1164 8.86500E+01 5.00000E+01 0.00000E+00
 -1      1165 9.16500E+01 5.00000E+01 0.00000E+00
 -1      1166 9.46500E+01 5.00000E+01 0.00000E+00
 -1      1167 9.76500E+01 5.00000E+01 0.00000E+00
 -1      1168 1.00650E+02 5.00000E+01 0.00000E+00
 -1      1169 1.03650E+02 5.00000E+01 0.00000E+00
 -1      1170 1.06650E+02 5.00000E+01 0.00000E+00
 -1      1171 1.09650E+02 5.00000E+01 0.00000E+00
 -1      1172 1.12650E+02 5.00000E+01 0.00000E+00
 -1      1173 1.15650E+02 5.00000E+01 0.00000E+00
 -1      1174 1.18650E+02 5.00000E+01 0.00000E+00
 -1      1175 1.21650E+02 5.00000E+01 0.00000E+00
 -1      1176 1.24650E+02 5.00000E+01 0.00000E+00
 -1      1177 1.27650E+02 5.00000E+01 0.00000E+00
 -1      1178 1.30650E+02 5.00000E+01 0.00000E+00
 -1      1179 1.33650E+02 5.00000E+01 0.00000E+00
 -1      1180 1.36650E+02 5.00000E+01 0.00000E+00
 -1      1181 1.39650E+02 5.00000E+01 0.00000E+00
 -1      1182 1.42650E+02 5.00000E+01 0.00000E+00
 -1      1183 1.45650E+02 5.00000E+01 0.00000E+00
 -1      1184 1.48575E+02 5.00000E+01 0.00000E+00
 -1      1185 1.57500E+00 0.00000E+00 0.00000E+00
 -1      1186 4.65000E+00 0.00000E+00 0.00000E+00
 -1      1187 7.65000E+00 0.00000E+00 0.00000E+00
 -1      1188 1.06500E+01 0.00000E+00 0.00000E+00
 -1      1189 1.36500E+01 0.00000E+00 0.00000E+00
 -1      1190 1.66500E+01 0.00000E+00 0.00000E+00
 -1      1191 1.96500E+01 0.00000E+00 0.00000E+00
 -1      1192 2.26500E+01 0.00000E+00 0.00000E+00
 -1      1193 2.56500E+01 0.00000E+00 0.00000E+00
 -1      1194 2.86500E+01 0.00000E+00 0.00000E+00
 -1      1195 3.16500E+01 0.00000E+00 0.00000E+00
 -1      1196 3.46500E+01 0.00000E+00 0.00000E+00
 -1      1197 3.76500E+01 0.00000E+00 0.00000E+00
 -1      1198 4.06500E+01 0.00000E+00 0.00000E+00
 -1      1199 4.36500E+01 0.00000E+00 0.00000E+00
 -1      1200 4.66500E+01 0.00000E+00 0.00000E+00
 -1      1201 4.96500E+01 0.00000E+00 0.00000E+00
 -1      1202 5.26500E+01 0.00000E+00 0.00000E+00
 -1      1203 5.56500E+01 0.00000E+00 0.00000E+00
 -1      1204 5.86500E+01 0.00000E+00 0.00000E+00
 -1      1205 6.16500E+01 0.00000E+00 0.00000E+00
 -1      1206 6.46500E+01 0.00000E+00 0.00000E+00
 -1      1207 6.76500E+01 0.00000E+00 0.00000E+00
 -1      1208 7.06500E+01 0.00000E+00 0.00000E+00
 -1      1209 7.36500E+01 0.00000E+00 0.00000E+00
 -1      1210 7.66500E+01 0.00000E+00 0.00000E+00
 -1      1211 7.96500E+01 0.00000E+00 0.00000E+00
 -1      1212 8.26500E+01 0.00000E+00 0.00000E+00
 -1      1213 8.56500E+01 0.00000E+00 0.00000E+00
 -1      1214 8.86500E+01 0.00000E+00 0.00000E+00
 -1      1215 9.16500E+01 0.00000E+00 0.00000E+00
 -1      1216 9.46500E+01 0.00000E+00 0.00000E+00
 -1      1217 9.76500E+01 0.00000E+00 0.00000E+00
 -1      1218 1.00650E+02 0.00000E+00 0.00000E+00
 -1      1219 1.03650E+02 0.00000E+00 0.00000E+00
 -1      1220 1.06650E+02 0.00000E+00 0.00000E+00
 -1      1221 1.09650E+02 0.00000E+00 0.00000E+00
 -1      1222 1.12650E+02 0.00000E+00 0.00000E+00
 -1      1223 1.15650E+02 0.00000E+00 0.00000E+00
 -1      1224 1.18650E+02 0.00000E+00 0.00000E+00
 -1      1225 1.21650E+02 0.00000E+00 0.00000E+00
 -1      1226 1.24650E+02 0.00000E+00 0.00000E+00
 -1      1227 1.27650E+02 0.00000E+00 0.00000E+00
 -1      1228 1.30650E+02 0.00000E+00 0.00000E+00
 -1      1229 1.33650E+02 0.00000E+00 0.00000E+00
 -1      1230 1.36650E+02 0.00000E+00 0.00000E+00
 -1      1231 1.39650E+02 0.00000E+00 0.00000E+00
 -1      1232 1.42650E+02 0.00000E+00 0.00000E+00
 -1      1233 1.45650E+02 0.00000E+00 0.00000E+00
 -1      1234 1.48575E+02 0.00000E+00 0.00000E+00
 -1      1235 1.50000E+02 1.47500E+00 0.00000E+00
 -1      1236 1.50000E+02 4.42500E+00 0.00000E+00
 -1      1237 1.50000E+02 7.37500E+00 0.00000E+00
 -1      1238 1.50000E+02 1.03250E+01 0.00000E+00
 -1      1239 1.50000E+02 1.32750E+01 0.00000E+00
 -1      1240 1.50000E+02 1.62000E+01 0.00000E+00
 -1      1241 1.50000E+02 1.91250E+01 0.00000E+00
 -1      1242 1.50000E+02 2.20750E+01 0.00000E+00
 -1      1243 1.50000E+02 2.50250E+01 0.00000E+00
 -1      1244 1.50000E+02 2.79750E+01 0.00000E+00
 -1      1245 1.50000E+02 3.09250E+01 0.00000E+00
 -1      1246 1.50000E+02 3.38500E+01 0.00000E+00
 -1      1247 1.50000E+02 3.67750E+01 0.00000E+00
 -1      1248 1.50000E+02 3.97250E+01 0.00000E+00
 -1      1249 1.50000E+02 4.26750E+01 0.00000E+00
 -1      1250 1.50000E+02 4.56250E+01 0.00000E+00
 -1      1251 1.50000E+02 4.85500E+01 0.00000E+00
 -1      1252 1.21423E+02 2.15219E+01 0.00000E+00
 -1      1253 1.21119E+02 2.00989E+01 0.00000E+00
 -1      1254 1.20528E+02 1.87706E+01 0.00000E+00
 -1      1255 1.19669E+02 1.75861E+01 0.00000E+00
 -1      1256 1.18614E+02 1.66296E+01 0.00000E+00
 -1      1257 1.17374E+02 1.58995E+01 0.00000E+00
 -1      1258 1.15966E+02 1.54286E+01 0.00000E+00
 -1      1259 1.14495E+02 1.52653E+01 0.00000E+00
 -1      1260 1.13006E+02 1.54184E+01 0.00000E+00
 -1      1261 1.11591E+02 1.58810E+01 0.00000E+00
 -1      1262 1.10334E+02 1.66124E+01 0.00000E+00
 -1      1263 1.09256E+02 1.75862E+01 0.00000E+00
 -1      1264 1.08391E+02 1.87816E+01 0.00000E+00
 -1      1265 1.07795E+02 2.01335E+01 0.00000E+00
 -1      1266 1.07499E+02 2.15463E+01 0.00000E+00
 -1      1267 1.07501E+02 2.29980E+01 0.00000E+00
 -1      1268 1.07806E+02 2.44332E+01 0.00000E+00
 -1      1269 1.08397E+02 2.57607E+01 0.00000E+00
 -1      1270 1.09235E+02 2.69211E+01 0.00000E+00
 -1      1271 1.10286E+02 2.78827E+01 0.00000E+00
 -1      1272 1.11528E+02 2.86203E+01 0.00000E+00
 -1      1273 1.12939E+02 2.90975E+01 0.00000E+00
 -1      1274 1.14459E+02 2.92652E+01 0.00000E+00
 -1      1275 1.15970E+02 2.91010E+01 0.00000E+00
 -1      1276 1.17374E+02 2.86308E+01 0.00000E+00
 -1      1277 1.18627E+02 2.78915E+01 0.00000E+00
 -1      1278 1.19692E+02 2.69182E+01 0.00000E+00
 -1      1279 1.20543E+02 2.57336E+01 0.00000E+00
 -1      1280 1.21136E+02 2.43779E+01 0.00000E+00
 -1      1281 1.21427E+02 2.29645E+01 0.00000E+00
 -1      1282 1.57500E+00 4.85250E+01 0.00000E+00
 -1      1283 1.29900E+00 4.48375E+01 0.00000E+00
 -1      1284 1.29900E+00 4.63125E+01 0.00000E+00
 -1      1285 1.29900E+00 4.18875E+01 0.00000E+00
 -1      1286 1.29900E+00 4.33625E+01 0.00000E+00
 -1      1287 2.59800E+00 4.41000E+01 0.00000E+00
 -1      1288 1.29900E+00 3.89375E+01 0.00000E+00
 -1      1289 1.29900E+00 4.04125E+01 0.00000E+00
 -1      1290 2.59800E+00 4.11500E+01 0.00000E+00
 -1      1291 1.29900E+00 3.59875E+01 0.00000E+00
 -1      1292 1.29900E+00 3.74625E+01 0.00000E+00
 -1      1293 2.59800E+00 3.82000E+01 0.00000E+00
 -1      1294 1.29900E+00 3.30875E+01 0.00000E+00
 -1      1295 1.29900E+00 3.45375E+01 0.00000E+00
 -1      1296 2.59800E+00 3.52750E+01 0.00000E+00
 -1      1297 1.29900E+00 3.01375E+01 0.00000E+00
 -1      1298 1.29900E+00 3.16125E+01 0.00000E+00
 -1      1299 2.59800E+00 3.23500E+01 0.00000E+00
 -1      1300 1.29900E+00 2.71875E+01 0.00000E+00
 -1      1301 1.29900E+00 2.86625E+01 0.00000E+00
 -1      1302 2.59800E+00 2.94000E+01 0.00000E+00
 -1      1303 1.29900E+00 2.42375E+01 0.00000E+00
 -1      1304 1.29900E+00 2.57125E+01 0.00000E+00
 -1      1305 2.59800E+00 2.64500E+01 0.00000E+00
 -1      1306 1.29900E+00 2.12875E+01 0.00000E+00
 -1      1307 1.29900E+00 2.27625E+01 0.00000E+00
 -1      1308 2.59800E+00 2.35000E+01 0.00000E+00
 -1      1309 1.29900E+00 1.83375E+01 0.00000E+00
 -1      1310 1.29900E+00 1.98125E+01 0.00000E+00
 -1      1311 2.59800E+00 2.05500E+01 0.00000E+00
 -1      1312 1.29900E+00 1.54375E+01 0.00000E+00
 -1      1313 1.29900E+00 1.68875E+01 0.00000E+00
 -1      1314 2.59800E+00 1.76250E+01 0.00000E+00
 -1      1315 1.29900E+00 1.24875E+01 0.00000E+00
 -1      1316 1.29900E+00 1.39625E+01 0.00000E+00
 -1      1317 2.59800E+00 1.47000E+01 0.00000E+00
 -1      1318 1.29900E+00 9.53750E+00 0.00000E+00
 -1      1319 1.29900E+00 1.10125E+01 0.00000E+00
 -1      1320 2.59800E+00 1.17500E+01 0.00000E+00
 -1      1321 1.29900E+00 6.58750E+00 0.00000E+00
 -1      1322 1.29900E+00 8.06250E+00 0.00000E+00
 -1      1323 2.59800E+00 8.80000E+00 0.00000E+00
 -1      1324 1.29900E+00 3.63750E+00 0.00000E+00
 -1      1325 1.29900E+00 5.11250E+00 0.00000E+00
 -1      1326 2.59800E+00 5.85000E+00 0.00000E+00
 -1      1327 1.43700E+00 1.09375E+00 0.00000E+00
 -1      1328 1.43700E+00 2.54375E+00 0.00000E+00
 -1      1329 2.73600E+00 3.28125E+00 0.00000E+00
 -1      1330 3.01200E+00 1.09375E+00 0.00000E+00
 -1      1331 3.90000E+00 4.87010E+01 0.00000E+00
 -1      1332 5.40000E+00 4.87010E+01 0.00000E+00
 -1      1333 6.90000E+00 4.87010E+01 0.00000E+00
 -1      1334 8.40000E+00 4.87010E+01 0.00000E+00
 -1      1335 6.15000E+00 4.74020E+01 0.00000E+00
 -1      1336 9.90000E+00 4.87010E+01 0.00000E+00
 -1      1337 1.14000E+01 4.87010E+01 0.00000E+00
 -1      1338 9.15000E+00 4.74020E+01 0.00000E+00
 -1      1339 1.29000E+01 4.87010E+01 0.00000E+00
 -1      1340 1.44000E+01 4.87010E+01 0.00000E+00
 -1      1341 1.21500E+01 4.74020E+01 0.00000E+00
 -1      1342 1.59000E+01 4.87010E+01 0.00000E+00
 -1      1343 1.74000E+01 4.87010E+01 0.00000E+00
 -1      1344 1.51500E+01 4.74020E+01 0.00000E+00
 -1      1345 1.89000E+01 4.87010E+01 0.00000E+00
 -1      1346 2.04000E+01 4.87010E+01 0.00000E+00
 -1      1347 1.81500E+01 4.74020E+01 0.00000E+00
 -1      1348 2.19000E+01 4.87010E+01 0.00000E+00
 -1      1349 2.34000E+01 4.87010E+01 0.00000E+00
 -1      1350 2.11500E+01 4.74020E+01 0.00000E+00
 -1      1351 2.49000E+01 4.87010E+01 0.00000E+00
 -1      1352 2.64000E+01 4.87010E+01 0.00000E+00
 -1      1353 2.41500E+01 4.74020E+01 0.00000E+00
 -1      1354 2.79000E+01 4.87010E+01 0.00000E+00
 -1      1355 2.94000E+01 4.87010E+01 0.00000E+00
 -1      1356 2.71500E+01 4.74020E+01 0.00000E+00
 -1      1357 3.09000E+01 4.87010E+01 0.00000E+00
 -1      1358 3.24000E+01 4.87010E+01 0.00000E+00
 -1      1359 3.01500E+01 4.74020E+01 0.00000E+00
 -1      1360 3.39000E+01 4.87010E+01 0.00000E+00
 -1      1361 3.54000E+01 4.87010E+01 0.00000E+00
 -1      1362 3.31500E+01 4.74020E+01 0.00000E+00
 -1      1363 3.69000E+01 4.87010E+01 0.00000E+00
 -1      1364 3.84000E+01 4.87010E+01 0.00000E+00
 -1      1365 3.61500E+01 4.74020E+01 0.00000E+00
 -1      1366 3.99000E+01 4.87010E+01 0.00000E+00
 -1      1367 4.14000E+01 4.87010E+01 0.00000E+00
 -1      1368 3.91500E+01 4.74020E+01 0.00000E+00
 -1      1369 4.29000E+01 4.87010E+01 0.00000E+00
 -1      1370 4.44000E+01 4.87010E+01 0.00000E+00
 -1      1371 4.21500E+01 4.74020E+01 0.00000E+00
 -1      1372 4.59000E+01 4.87010E+01 0.00000E+00
 -1      1373 4.74000E+01 4.87010E+01 0.00000E+00
 -1      1374 4.51500E+01 4.74020E+01 0.00000E+00
 -1      1375 4.89000E+01 4.87010E+01 0.00000E+00
 -1      1376 5.04000E+01 4.87010E+01 0.00000E+00
 -1      1377 4.81500E+01 4.74020E+01 0.00000E+00
 -1      1378 5.19000E+01 4.87010E+01 0.00000E+00
 -1      1379 5.34000E+01 4.87010E+01 0.00000E+00
 -1      1380 5.11500E+01 4.74020E+01 0.00000E+00
 -1      1381 5.49000E+01 4.87010E+01 0.00000E+00
 -1      1382 5.64000E+01 4.87010E+01 0.00000E+00
 -1      1383 5.41500E+01 4.74020E+01 0.00000E+00
 -1      1384 5.79000E+01 4.87010E+01 0.00000E+00
 -1      1385 5.94000E+01 4.87010E+01 0.00000E+00
 -1      1386 5.71500E+01 4.74020E+01 0.00000E+00
 -1      1387 6.09000E+01 4.87010E+01 0.00000E+00
 -1      1388 6.24000E+01 4.87010E+01 0.00000E+00
 -1      1389 6.01500E+01 4.74020E+01 0.00000E+00
 -1      1390 6.39000E+01 4.87010E+01 0.00000E+00
 -1      1391 6.54000E+01 4.87010E+01 0.00000E+00
 -1      1392 6.31500E+01 4.74020E+01 0.00000E+00
 -1      1393 6.69000E+01 4.87010E+01 0.00000E+00
 -1      1394 6.84000E+01 4.87010E+01 0.00000E+00
 -1      1395 6.61500E+01 4.74020E+01 0.00000E+00
 -1      1396 6.99000E+01 4.87010E+01 0.00000E+00
 -1      1397 7.14000E+01 4.87010E+01 0.00000E+00
 -1      1398 6.91500E+01 4.74020E+01 0.00000E+00
 -1      1399 7.29000E+01 4.87010E+01 0.00000E+00
 -1      1400 7.44000E+01 4.87010E+01 0.00000E+00
 -1      1401 7.21500E+01 4.74020E+01 0.00000E+00
 -1      1402 7.59000E+01 4.87010E+01 0.00000E+00
 -1      1403 7.74000E+01 4.87010E+01 0.00000E+00
 -1      1404 7.51500E+01 4.74020E+01 0.00000E+00
 -1      1405 7.89000E+01 4.87010E+01 0.00000E+00
 -1      1406 8.04000E+01 4.87010E+01 0.00000E+00
 -1      1407 7.81500E+01 4.74020E+01 0.00000E+00
 -1      1408 8.19000E+01 4.87010E+01 0.00000E+00
 -1      1409 8.34000E+01 4.87010E+01 0.00000E+00
 -1      1410 8.11500E+01 4.74020E+01 0.00000E+00
 -1      1411 8.49000E+01 4.87010E+01 0.00000E+00
 -1      1412 8.64000E+01 4.87010E+01 0.00000E+00
 -1      1413 8.41500E+01 4.74020E+01 0.00000E+00
 -1      1414 8.79000E+01 4.87010E+01 0.00000E+00
 -1      1415 8.94000E+01 4.87010E+01 0.00000E+00
 -1      1416 8.71500E+01 4.74020E+01 0.00000E+00
 -1      1417 9.09000E+01 4.87010E+01 0.00000E+00
 -1      1418 9.24000E+01 4.87010E+01 0.00000E+00
 -1      1419 9.01500E+01 4.74020E+01 0.00000E+00
 -1      1420 9.39000E+01 4.87010E+01 0.00000E+00
 -1      1421 9.54000E+01 4.87010E+01 0.00000E+00
 -1      1422 9.31500E+01 4.74020E+01 0.00000E+00
 -1      1423 9.69000E+01 4.87010E+01 0.00000E+00
 -1      1424 9.84000E+01 4.87010E+01 0.00000E+00
 -1      1425 9.61500E+01 4.74020E+01 0.00000E+00
 -1      1426 9.99000E+01 4.87010E+01 0.00000E+00
 -1      1427 1.01400E+02 4.87010E+01 0.00000E+00
 -1      1428 9.91500E+01 4.74020E+01 0.00000E+00
 -1      1429 1.02900E+02 4.87010E+01 0.00000E+00
 -1      1430 1.04400E+02 4.87010E+01 0.00000E+00
 -1      1431 1.02150E+02 4.74020E+01 0.00000E+00
 -1      1432 1.05900E+02 4.87010E+01 0.00000E+00
 -1      1433 1.07400E+02 4.87010E+01 0.00000E+00
 -1      1434 1.05150E+02 4.74020E+01 0.00000E+00
 -1      1435 1.08900E+02 4.87010E+01 0.00000E+00
 -1      1436 1.10400E+02 4.87010E+01 0.00000E+00
 -1      1437 1.08150E+02 4.74020E+01 0.00000E+00
 -1      1438 1.11900E+02 4.87010E+01 0.00000E+00
 -1      1439 1.13400E+02 4.87010E+01 0.00000E+00
 -1      1440 1.11150E+02 4.74020E+01 0.00000E+00
 -1      1441 1.14900E+02 4.87010E+01 0.00000E+00
 -1      1442 1.16400E+02 4.87010E+01 0.00000E+00
 -1      1443 1.14150E+02 4.74020E+01 0.00000E+00
 -1      1444 1.17900E+02 4.87010E+01 0.00000E+00
 -1      1445 1.19400E+02 4.87010E+01 0.00000E+00
 -1      1446 1.17150E+02 4.74020E+01 0.00000E+00
 -1      1447 1.20900E+02 4.87010E+01 0.00000E+00
 -1      1448 1.22400E+02 4.87010E+01 0.00000E+00
 -1      1449 1.20150E+02 4.74020E+01 0.00000E+00
 -1      1450 1.23900E+02 4.87010E+01 0.00000E+00
 -1      1451 1.25400E+02 4.87010E+01 0.00000E+00
 -1      1452 1.23150E+02 4.74020E+01 0.00000E+00
 -1      1453 1.26900E+02 4.87010E+01 0.00000E+00
 -1      1454 1.28400E+02 4.87010E+01 0.00000E+00
 -1      1455 1.26150E+02 4.74020E+01 0.00000E+00
 -1      1456 1.29900E+02 4.87010E+01 0.00000E+00
 -1      1457 1.31400E+02 4.87010E+01 0.00000E+00
 -1      1458 1.29150E+02 4.74020E+01 0.00000E+00
 -1      1459 1.32900E+02 4.87010E+01 0.00000E+00
 -1      1460 1.34400E+02 4.87010E+01 0.00000E+00
 -1      1461 1.32150E+02 4.74020E+01 0.00000E+00
 -1      1462 1.35900E+02 4.87010E+01 0.00000E+00
 -1      1463 1.37400E+02 4.87010E+01 0.00000E+00
 -1      1464 1.35150E+02 4.74020E+01 0.00000E+00
 -1      1465 1.38900E+02 4.87010E+01 0.00000E+00
 -1      1466 1.40400E+02 4.87010E+01 0.00000E+00
 -1      1467 1.38150E+02 4.74020E+01 0.00000E+00
 -1      1468 1.41900E+02 4.87010E+01 0.00000E+00
 -1      1469 1.43400E+02 4.87010E+01 0.00000E+00
 -1      1470 1.41150E+02 4.74020E+01 0.00000E+00
 -1      1471 1.44900E+02 4.87010E+01 0.00000E+00
 -1      1472 1.46400E+02 4.87010E+01 0.00000E+00
 -1      1473 1.44150E+02 4.74020E+01 0.00000E+00
 -1      1474 1.48575E+02 4.85500E+01 0.00000E+00
 -1      1475 1.47825E+02 4.72510E+01 0.00000E+00
 -1      1476 6.01200E+00 1.09375E+00 0.00000E+00
 -1      1477 4.51200E+00 1.09375E+00 0.00000E+00
 -1      1478 4.37400E+00 2.18750E+00 0.00000E+00
 -1      1479 9.01200E+00 1.09375E+00 0.00000E+00
 -1      1480 7.51200E+00 1.09375E+00 0.00000E+00
 -1      1481 7.37400E+00 2.18750E+00 0.00000E+00
 -1      1482 1.20120E+01 1.09375E+00 0.00000E+00
 -1      1483 1.05120E+01 1.09375E+00 0.00000E+00
 -1      1484 1.03740E+01 2.18750E+00 0.00000E+00
 -1      1485 1.50120E+01 1.09375E+00 0.00000E+00
 -1      1486 1.35120E+01 1.09375E+00 0.00000E+00
 -1      1487 1.33740E+01 2.18750E+00 0.00000E+00
 -1      1488 1.80120E+01 1.09375E+00 0.00000E+00
 -1      1489 1.65120E+01 1.09375E+00 0.00000E+00
 -1      1490 1.63740E+01 2.18750E+00 0.00000E+00
 -1      1491 2.10120E+01 1.09375E+00 0.00000E+00
 -1      1492 1.95120E+01 1.09375E+00 0.00000E+00
 -1      1493 1.93740E+01 2.18750E+00 0.00000E+00
 -1      1494 2.40120E+01 1.09375E+00 0.00000E+00
 -1      1495 2.25120E+01 1.09375E+00 0.00000E+00
 -1      1496 2.23740E+01 2.18750E+00 0.00000E+00
 -1      1497 2.70120E+01 1.09375E+00 0.00000E+00
 -1      1498 2.55120E+01 1.09375E+00 0.00000E+00
 -1      1499 2.53740E+01 2.18750E+00 0.00000E+00
 -1      1500 3.00120E+01 1.09375E+00 0.00000E+00
 -1      1501 2.85120E+01 1.09375E+00 0.00000E+00
 -1      1502 2.83740E+01 2.18750E+00 0.00000E+00
 -1      1503 3.30120E+01 1.09375E+00 0.00000E+00
 -1      1504 3.15120E+01 1.09375E+00 0.00000E+00
 -1      1505 3.13740E+01 2.18750E+00 0.00000E+00
 -1      1506 3.60120E+01 1.09375E+00 0.00000E+00
 -1      1507 3.45120E+01 1.09375E+00 0.00000E+00
 -1      1508 3.43740E+01 2.18750E+00 0.00000E+00
 -1      1509 3.90120E+01 1.09375E+00 0.00000E+00
 -1      1510 3.75120E+01 1.09375E+00 0.00000E+00
 -1      1511 3.73740E+01 2.18750E+00 0.00000E+00
 -1      1512 4.20120E+01 1.09375E+00 0.00000E+00
 -1      1513 4.05120E+01 1.09375E+00 0.00000E+00
 -1      1514 4.03740E+01 2.18750E+00 0.00000E+00
 -1      1515 4.50120E+01 1.09375E+00 0.00000E+00
 -1      1516 4.35120E+01 1.09375E+00 0.00000E+00
 -1      1517 4.33740E+01 2.18750E+00 0.00000E+00
 -1      1518 4.80120E+01 1.09375E+00 0.00000E+00
 -1      1519 4.65120E+01 1.09375E+00 0.00000E+00
 -1      1520 4.63740E+01 2.18750E+00 0.00000E+00
 -1      1521 5.10120E+01 1.09375E+00 0.00000E+00
 -1      1522 4.95120E+01 1.09375E+00 0.00000E+00
 -1      1523 4.93740E+01 2.18750E+00 0.00000E+00
 -1      1524 5.40120E+01 1.09375E+00 0.00000E+00
 -1      1525 5.25120E+01 1.09375E+00 0.00000E+00
 -1      1526 5.23740E+01 2.18750E+00 0.00000E+00
 -1      1527 5.70120E+01 1.09375E+00 0.00000E+00
 -1      1528 5.55120E+01 1.09375E+00 0.00000E+00
 -1      1529 5.53740E+01 2.18750E+00 0.00000E+00
 -1      1530 6.00120E+01 1.09375E+00 0.00000E+00
 -1      1531 5.85120E+01 1.09375E+00 0.00000E+00
 -1      1532 5.83740E+01 2.18750E+00 0.00000E+00
 -1      1533 6.30120E+01 1.09375E+00 0.00000E+00
 -1      1534 6.15120E+01 1.09375E+00 0.00000E+00
 -1      1535 6.13740E+01 2.18750E+00 0.00000E+00
 -1      1536 6.60120E+01 1.09375E+00 0.00000E+00
 -1      1537 6.45120E+01 1.09375E+00 0.00000E+00
 -1      1538 6.43740E+01 2.18750E+00 0.00000E+00
 -1      1539 6.90120E+01 1.09375E+00 0.00000E+00
 -1      1540 6.75120E+01 1.09375E+00 0.00000E+00
 -1      1541 6.73740E+01 2.18750E+00 0.00000E+00
 -1      1542 7.20120E+01 1.09375E+00 0.00000E+00
 -1      1543 7.05120E+01 1.09375E+00 0.00000E+00
 -1      1544 7.03740E+01 2.18750E+00 0.00000E+00
 -1      1545 7.50120E+01 1.09375E+00 0.00000E+00
 -1      1546 7.35120E+01 1.09375E+00 0.00000E+00
 -1      1547 7.33740E+01 2.18750E+00 0.00000E+00
 -1      1548 7.80120E+01 1.09375E+00 0.00000E+00
 -1      1549 7.65120E+01 1.09375E+00 0.00000E+00
 -1      1550 7.63740E+01 2.18750E+00 0.00000E+00
 -1      1551 8.10120E+01 1.09375E+00 0.00000E+00
 -1      1552 7.95120E+01 1.09375E+00 0.00000E+00
 -1      1553 7.93740E+01 2.18750E+00 0.00000E+00
 -1      1554 8.40120E+01 1.09375E+00 0.00000E+00
 -1      1555 8.25120E+01 1.09375E+00 0.00000E+00
 -1      1556 8.23740E+01 2.18750E+00 0.00000E+00
 -1      1557 8.70120E+01 1.09375E+00 0.00000E+00
 -1      1558 8.55120E+01 1.09375E+00 0.00000E+00
 -1      1559 8.53740E+01 2.18750E+00 0.00000E+00
 -1      1560 9.00120E+01 1.09375E+00 0.00000E+00
 -1      1561 8.85120E+01 1.09375E+00 0.00000E+00
 -1      1562 8.83740E+01 2.18750E+00 0.00000E+00
 -1      1563 9.30120E+01 1.09375E+00 0.00000E+00
 -1      1564 9.15120E+01 1.09375E+00 0.00000E+00
 -1      1565 9.13740E+01 2.18750E+00 0.00000E+00
 -1      1566 9.60120E+01 1.09375E+00 0.00000E+00
 -1      1567 9.45120E+01 1.09375E+00 0.00000E+00
 -1      1568 9.43740E+01 2.18750E+00 0.00000E+00
 -1      1569 9.90120E+01 1.09375E+00 0.00000E+00
 -1      1570 9.75120E+01 1.09375E+00 0.00000E+00
 -1      1571 9.73740E+01 2.18750E+00 0.00000E+00
 -1      1572 1.02012E+02 1.09375E+00 0.00000E+00
 -1      1573 1.00512E+02 1.09375E+00 0.00000E+00
 -1      1574 1.00374E+02 2.18750E+00 0.00000E+00
 -1      1575 1.05012E+02 1.09375E+00 0.00000E+00
 -1      1576 1.03512E+02 1.09375E+00 0.00000E+00
 -1      1577 1.03374E+02 2.18750E+00 0.00000E+00
 -1      1578 1.08012E+02 1.09375E+00 0.00000E+00
 -1      1579 1.06512E+02 1.09375E+00 0.00000E+00
 -1      1580 1.06374E+02 2.18750E+00 0.00000E+00
 -1      1581 1.11012E+02 1.09375E+00 0.00000E+00
 -1      1582 1.09512E+02 1.09375E+00 0.00000E+00
 -1      1583 1.09374E+02 2.18750E+00 0.00000E+00
 -1      1584 1.14012E+02 1.09375E+00 0.00000E+00
 -1      1585 1.12512E+02 1.09375E+00 0.00000E+00
 -1      1586 1.12374E+02 2.18750E+00 0.00000E+00
 -1      1587 1.17012E+02 1.09375E+00 0.00000E+00
 -1      1588 1.15512E+02 1.09375E+00 0.00000E+00
 -1      1589 1.15374E+02 2.18750E+00 0.00000E+00
 -1      1590 1.20012E+02 1.09375E+00 0.00000E+00
 -1      1591 1.18512E+02 1.09375E+00 0.00000E+00
 -1      1592 1.18374E+02 2.18750E+00 0.00000E+00
 -1      1593 1.23012E+02 1.09375E+00 0.00000E+00
 -1      1594 1.21512E+02 1.09375E+00 0.00000E+00
 -1      1595 1.21374E+02 2.18750E+00 0.00000E+00
 -1      1596 1.26012E+02 1.09375E+00 0.00000E+00
 -1      1597 1.24512E+02 1.09375E+00 0.00000E+00
 -1      1598 1.24374E+02 2.18750E+00 0.00000E+00
 -1      1599 1.29012E+02 1.09375E+00 0.00000E+00
 -1      1600 1.27512E+02 1.09375E+00 0.00000E+00
 -1      1601 1.27374E+02 2.18750E+00 0.00000E+00
 -1      1602 1.32012E+02 1.09375E+00 0.00000E+00
 -1      1603 1.30512E+02 1.09375E+00 0.00000E+00
 -1      1604 1.30374E+02 2.18750E+00 0.00000E+00
 -1      1605 1.35012E+02 1.09375E+00 0.00000E+00
 -1      1606 1.33512E+02 1.09375E+00 0.00000E+00
 -1      1607 1.33374E+02 2.18750E+00 0.00000E+00
 -1      1608 1.38012E+02 1.09375E+00 0.00000E+00
 -1      1609 1.36512E+02 1.09375E+00 0.00000E+00
 -1      1610 1.36374E+02 2.18750E+00 0.00000E+00
 -1      1611 1.41012E+02 1.09375E+00 0.00000E+00
 -1      1612 1.39512E+02 1.09375E+00 0.00000E+00
 -1      1613 1.39374E+02 2.18750E+00 0.00000E+00
 -1      1614 1.44012E+02 1.09375E+00 0.00000E+00
 -1      1615 1.42512E+02 1.09375E+00 0.00000E+00
 -1      1616 1.42374E+02 2.18750E+00 0.00000E+00
 -1      1617 1.47012E+02 1.09375E+00 0.00000E+00
 -1      1618 1.45512E+02 1.09375E+00 0.00000E+00
 -1      1619 1.45374E+02 2.18750E+00 0.00000E+00
 -1      1620 1.48575E+02 1.47500E+00 0.00000E+00
 -1      1621 1.48701E+02 5.16250E+00 0.00000E+00
 -1      1622 1.48701E+02 3.68750E+00 0.00000E+00
 -1      1623 1.48701E+02 8.11250E+00 0.00000E+00
 -1      1624 1.48701E+02 6.63750E+00 0.00000E+00
 -1      1625 1.47402E+02 5.90000E+00 0.00000E+00
 -1      1626 1.48701E+02 1.10625E+01 0.00000E+00
 -1      1627 1.48701E+02 9.58750E+00 0.00000E+00
 -1      1628 1.47402E+02 8.85000E+00 0.00000E+00
 -1      1629 1.48701E+02 1.40125E+01 0.00000E+00
 -1      1630 1.48701E+02 1.25375E+01 0.00000E+00
 -1      1631 1.47402E+02 1.18000E+01 0.00000E+00
 -1      1632 1.48701E+02 1.69125E+01 0.00000E+00
 -1      1633 1.48701E+02 1.54625E+01 0.00000E+00
 -1      1634 1.47402E+02 1.47250E+01 0.00000E+00
 -1      1635 1.48701E+02 1.98625E+01 0.00000E+00
 -1      1636 1.48701E+02 1.83875E+01 0.00000E+00
 -1      1637 1.47402E+02 1.76500E+01 0.00000E+00
 -1      1638 1.48701E+02 2.28125E+01 0.00000E+00
 -1      1639 1.48701E+02 2.13375E+01 0.00000E+00
 -1      1640 1.47402E+02 2.06000E+01 0.00000E+00
 -1      1641 1.48701E+02 2.57625E+01 0.00000E+00
 -1      1642 1.48701E+02 2.42875E+01 0.00000E+00
 -1      1643 1.47402E+02 2.35500E+01 0.00000E+00
 -1      1644 1.48701E+02 2.87125E+01 0.00000E+00
 -1      1645 1.48701E+02 2.72375E+01 0.00000E+00
 -1      1646 1.47402E+02 2.65000E+01 0.00000E+00
 -1      1647 1.48701E+02 3.16625E+01 0.00000E+00
 -1      1648 1.48701E+02 3.01875E+01 0.00000E+00
 -1      1649 1.47402E+02 2.94500E+01 0.00000E+00
 -1      1650 1.48701E+02 3.45625E+01 0.00000E+00
 -1      1651 1.48701E+02 3.31125E+01 0.00000E+00
 -1      1652 1.47402E+02 3.23750E+01 0.00000E+00
 -1      1653 1.48701E+02 3.75125E+01 0.00000E+00
 -1      1654 1.48701E+02 3.60375E+01 0.00000E+00
 -1      1655 1.47402E+02 3.53000E+01 0.00000E+00
 -1      1656 1.48701E+02 4.04625E+01 0.00000E+00
 -1      1657 1.48701E+02 3.89875E+01 0.00000E+00
 -1      1658 1.47402E+02 3.82500E+01 0.00000E+00
 -1      1659 1.48701E+02 4.34125E+01 0.00000E+00
 -1      1660 1.48701E+02 4.19375E+01 0.00000E+00
 -1      1661 1.47402E+02 4.12000E+01 0.00000E+00
 -1      1662 1.48263E+02 4.60692E+01 0.00000E+00
 -1      1663 1.48263E+02 4.45942E+01 0.00000E+00
 -1      1664 1.46964E+02 4.38568E+01 0.00000E+00
 -1      1665 1.46088E+02 4.62202E+01 0.00000E+00
 -1      1666 1.21988E+02 2.10878E+01 0.00000E+00
 -1      1667 1.22067E+02 2.18269E+01 0.00000E+00
 -1      1668 1.21550E+02 1.95840E+01 0.00000E+00
 -1      1669 1.21771E+02 2.02610E+01 0.00000E+00
 -1      1670 1.20833E+02 1.81663E+01 0.00000E+00
 -1      1671 1.21204E+02 1.88091E+01 0.00000E+00
 -1      1672 1.19851E+02 1.69375E+01 0.00000E+00
 -1      1673 1.20333E+02 1.74740E+01 0.00000E+00
 -1      1674 1.18670E+02 1.59618E+01 0.00000E+00
 -1      1675 1.19236E+02 1.63782E+01 0.00000E+00
 -1      1676 1.17275E+02 1.52303E+01 0.00000E+00
 -1      1677 1.17945E+02 1.55370E+01 0.00000E+00
 -1      1678 1.15740E+02 1.47135E+01 0.00000E+00
 -1      1679 1.16470E+02 1.48741E+01 0.00000E+00
 -1      1680 1.14132E+02 1.46958E+01 0.00000E+00
 -1      1681 1.14864E+02 1.46992E+01 0.00000E+00
 -1      1682 1.12506E+02 1.49049E+01 0.00000E+00
 -1      1683 1.13254E+02 1.47459E+01 0.00000E+00
 -1      1684 1.11028E+02 1.55108E+01 0.00000E+00
 -1      1685 1.11688E+02 1.52139E+01 0.00000E+00
 -1      1686 1.09703E+02 1.63694E+01 0.00000E+00
 -1      1687 1.10294E+02 1.59382E+01 0.00000E+00
 -1      1688 1.08592E+02 1.74743E+01 0.00000E+00
 -1      1689 1.09074E+02 1.69377E+01 0.00000E+00
 -1      1690 1.07640E+02 1.87855E+01 0.00000E+00
 -1      1691 1.08015E+02 1.81314E+01 0.00000E+00
 -1      1692 1.07143E+02 2.03048E+01 0.00000E+00
 -1      1693 1.07363E+02 1.96158E+01 0.00000E+00
 -1      1694 1.06896E+02 2.18459E+01 0.00000E+00
 -1      1695 1.06970E+02 2.11297E+01 0.00000E+00
 -1      1696 1.06974E+02 2.34213E+01 0.00000E+00
 -1      1697 1.06898E+02 2.26936E+01 0.00000E+00
 -1      1698 1.07381E+02 2.49587E+01 0.00000E+00
 -1      1699 1.07153E+02 2.42592E+01 0.00000E+00
 -1      1700 1.08083E+02 2.63558E+01 0.00000E+00
 -1      1701 1.07725E+02 2.57342E+01 0.00000E+00
 -1      1702 1.09047E+02 2.75665E+01 0.00000E+00
 -1      1703 1.08572E+02 2.70335E+01 0.00000E+00
 -1      1704 1.10231E+02 2.85521E+01 0.00000E+00
 -1      1705 1.09660E+02 2.81282E+01 0.00000E+00
 -1      1706 1.11605E+02 2.93275E+01 0.00000E+00
 -1      1707 1.10939E+02 2.90198E+01 0.00000E+00
 -1      1708 1.13185E+02 2.97314E+01 0.00000E+00
 -1      1709 1.12447E+02 2.95669E+01 0.00000E+00
 -1      1710 1.14845E+02 2.98288E+01 0.00000E+00
 -1      1711 1.14072E+02 2.98284E+01 0.00000E+00
 -1      1712 1.16465E+02 2.96145E+01 0.00000E+00
 -1      1713 1.15736E+02 2.97753E+01 0.00000E+00
 -1      1714 1.17962E+02 2.90323E+01 0.00000E+00
 -1      1715 1.17294E+02 2.93378E+01 0.00000E+00
 -1      1716 1.19255E+02 2.81345E+01 0.00000E+00
 -1      1717 1.18676E+02 2.85631E+01 0.00000E+00
 -1      1718 1.20357E+02 2.70266E+01 0.00000E+00
 -1      1719 1.19877E+02 2.75661E+01 0.00000E+00
 -1      1720 1.21218E+02 2.56951E+01 0.00000E+00
 -1      1721 1.20853E+02 2.63345E+01 0.00000E+00
 -1      1722 1.21868E+02 2.42196E+01 0.00000E+00
 -1      1723 1.21644E+02 2.49287E+01 0.00000E+00
 -1      1724 1.22031E+02 2.26737E+01 0.00000E+00
 -1      1725 1.21961E+02 2.33695E+01 0.00000E+00
 -1      1726 1.19928E+02 1.62413E+01 0.00000E+00
 -1      1727 1.21043E+02 1.74928E+01 0.00000E+00
 -1      1728 1.48437E+02 2.56875E+00 0.00000E+00
 -1      1729 1.47138E+02 3.30625E+00 0.00000E+00
 -1      1730 1.22455E+02 2.05617E+01 0.00000E+00
 -1      1731 1.21890E+02 1.89600E+01 0.00000E+00
 -1      1732 1.22635E+02 2.22353E+01 0.00000E+00
 -1      1733 1.18587E+02 1.52572E+01 0.00000E+00
 -1      1734 1.17058E+02 1.44761E+01 0.00000E+00
 -1      1735 1.15377E+02 1.41056E+01 0.00000E+00
 -1      1736 1.13623E+02 1.41414E+01 0.00000E+00
 -1      1737 1.11927E+02 1.45005E+01 0.00000E+00
 -1      1738 1.10375E+02 1.52369E+01 0.00000E+00
 -1      1739 1.09011E+02 1.62325E+01 0.00000E+00
 -1      1740 1.07805E+02 1.74579E+01 0.00000E+00
 -1      1741 1.06952E+02 1.89454E+01 0.00000E+00
 -1      1742 1.06503E+02 2.06006E+01 0.00000E+00
 -1      1743 1.06332E+02 2.22732E+01 0.00000E+00
 -1      1744 1.06512E+02 2.39588E+01 0.00000E+00
 -1      1745 1.07035E+02 2.55722E+01 0.00000E+00
 -1      1746 1.07868E+02 2.70255E+01 0.00000E+00
 -1      1747 1.08970E+02 2.82649E+01 0.00000E+00
 -1      1748 1.10292E+02 2.92944E+01 0.00000E+00
 -1      1749 1.11842E+02 3.00015E+01 0.00000E+00
 -1      1750 1.13571E+02 3.03378E+01 0.00000E+00
 -1      1751 1.15349E+02 3.03813E+01 0.00000E+00
 -1      1752 1.17069E+02 3.00511E+01 0.00000E+00
 -1      1753 1.18612E+02 2.93052E+01 0.00000E+00
 -1      1754 1.19948E+02 2.82677E+01 0.00000E+00
 -1      1755 1.21066E+02 2.70072E+01 0.00000E+00
 -1      1756 1.21988E+02 2.55488E+01 0.00000E+00
 -1      1757 1.22506E+02 2.39323E+01 0.00000E+00
 -1      1758 2.87400E+00 4.77875E+01 0.00000E+00
 -1      1759 3.89700E+00 4.04125E+01 0.00000E+00
 -1      1760 3.89700E+00 4.18875E+01 0.00000E+00
 -1      1761 3.89700E+00 4.33625E+01 0.00000E+00
 -1      1762 3.89700E+00 4.48375E+01 0.00000E+00
 -1      1763 5.19600E+00 4.26250E+01 0.00000E+00
 -1      1764 3.89700E+00 3.45500E+01 0.00000E+00
 -1      1765 3.89700E+00 3.60000E+01 0.00000E+00
 -1      1766 3.89700E+00 3.16000E+01 0.00000E+00
 -1      1767 3.89700E+00 3.30750E+01 0.00000E+00
 -1      1768 5.19600E+00 3.38000E+01 0.00000E+00
 -1      1769 3.89700E+00 2.86500E+01 0.00000E+00
 -1      1770 3.89700E+00 3.01250E+01 0.00000E+00
 -1      1771 5.19600E+00 3.08500E+01 0.00000E+00
 -1      1772 3.89700E+00 2.57000E+01 0.00000E+00
 -1      1773 3.89700E+00 2.71750E+01 0.00000E+00
 -1      1774 5.19600E+00 2.79000E+01 0.00000E+00
 -1      1775 3.89700E+00 2.27500E+01 0.00000E+00
 -1      1776 3.89700E+00 2.42250E+01 0.00000E+00
 -1      1777 5.19600E+00 2.49500E+01 0.00000E+00
 -1      1778 3.89700E+00 1.98000E+01 0.00000E+00
 -1      1779 3.89700E+00 2.12750E+01 0.00000E+00
 -1      1780 5.19600E+00 2.20000E+01 0.00000E+00
 -1      1781 3.89700E+00 1.69000E+01 0.00000E+00
 -1      1782 3.89700E+00 1.83500E+01 0.00000E+00
 -1      1783 5.19600E+00 1.90750E+01 0.00000E+00
 -1      1784 3.89700E+00 1.39500E+01 0.00000E+00
 -1      1785 3.89700E+00 1.54250E+01 0.00000E+00
 -1      1786 5.19600E+00 1.61500E+01 0.00000E+00
 -1      1787 3.89700E+00 1.10000E+01 0.00000E+00
 -1      1788 3.89700E+00 1.24750E+01 0.00000E+00
 -1      1789 5.19600E+00 1.32000E+01 0.00000E+00
 -1      1790 3.89700E+00 8.05000E+00 0.00000E+00
 -1      1791 3.89700E+00 9.52500E+00 0.00000E+00
 -1      1792 5.19600E+00 1.02500E+01 0.00000E+00
 -1      1793 3.89700E+00 5.10000E+00 0.00000E+00
 -1      1794 3.89700E+00 6.57500E+00 0.00000E+00
 -1      1795 5.19600E+00 7.30000E+00 0.00000E+00
 -1      1796 4.20450E+00 3.09687E+00 0.00000E+00
 -1      1797 4.06650E+00 4.19063E+00 0.00000E+00
 -1      1798 5.36550E+00 4.91563E+00 0.00000E+00
 -1      1799 5.70450E+00 3.09687E+00 0.00000E+00
 -1      1800 3.62400E+00 4.64885E+01 0.00000E+00
 -1      1801 8.70450E+00 3.09687E+00 0.00000E+00
 -1      1802 7.20450E+00 3.09687E+00 0.00000E+00
 -1      1803 7.03500E+00 4.00625E+00 0.00000E+00
 -1      1804 4.92300E+00 4.57510E+01 0.00000E+00
 -1      1805 8.40000E+00 4.61030E+01 0.00000E+00
 -1      1806 9.90000E+00 4.61030E+01 0.00000E+00
 -1      1807 1.14000E+01 4.61030E+01 0.00000E+00
 -1      1808 1.29000E+01 4.61030E+01 0.00000E+00
 -1      1809 1.06500E+01 4.48040E+01 0.00000E+00
 -1      1810 1.44000E+01 4.61030E+01 0.00000E+00
 -1      1811 1.59000E+01 4.61030E+01 0.00000E+00
 -1      1812 1.36500E+01 4.48040E+01 0.00000E+00
 -1      1813 1.74000E+01 4.61030E+01 0.00000E+00
 -1      1814 1.89000E+01 4.61030E+01 0.00000E+00
 -1      1815 1.66500E+01 4.48040E+01 0.00000E+00
 -1      1816 2.04000E+01 4.61030E+01 0.00000E+00
 -1      1817 2.19000E+01 4.61030E+01 0.00000E+00
 -1      1818 1.96500E+01 4.48040E+01 0.00000E+00
 -1      1819 2.34000E+01 4.61030E+01 0.00000E+00
 -1      1820 2.49000E+01 4.61030E+01 0.00000E+00
 -1      1821 2.26500E+01 4.48040E+01 0.00000E+00
 -1      1822 2.64000E+01 4.61030E+01 0.00000E+00
 -1      1823 2.79000E+01 4.61030E+01 0.00000E+00
 -1      1824 2.56500E+01 4.48040E+01 0.00000E+00
 -1      1825 2.94000E+01 4.61030E+01 0.00000E+00
 -1      1826 3.09000E+01 4.61030E+01 0.00000E+00
 -1      1827 2.86500E+01 4.48040E+01 0.00000E+00
 -1      1828 3.24000E+01 4.61030E+01 0.00000E+00
 -1      1829 3.39000E+01 4.61030E+01 0.00000E+00
 -1      1830 3.16500E+01 4.48040E+01 0.00000E+00
 -1      1831 3.54000E+01 4.61030E+01 0.00000E+00
 -1      1832 3.69000E+01 4.61030E+01 0.00000E+00
 -1      1833 3.46500E+01 4.48040E+01 0.00000E+00
 -1      1834 3.84000E+01 4.61030E+01 0.00000E+00
 -1      1835 3.99000E+01 4.61030E+01 0.00000E+00
 -1      1836 3.76500E+01 4.48040E+01 0.00000E+00
 -1      1837 4.14000E+01 4.61030E+01 0.00000E+00
 -1      1838 4.29000E+01 4.61030E+01 0.00000E+00
 -1      1839 4.06500E+01 4.48040E+01 0.00000E+00
 -1      1840 4.44000E+01 4.61030E+01 0.00000E+00
 -1      1841 4.59000E+01 4.61030E+01 0.00000E+00
 -1      1842 4.36500E+01 4.48040E+01 0.00000E+00
 -1      1843 4.74000E+01 4.61030E+01 0.00000E+00
 -1      1844 4.89000E+01 4.61030E+01 0.00000E+00
 -1      1845 4.66500E+01 4.48040E+01 0.00000E+00
 -1      1846 5.04000E+01 4.61030E+01 0.00000E+00
 -1      1847 5.19000E+01 4.61030E+01 0.00000E+00
 -1      1848 4.96500E+01 4.48040E+01 0.00000E+00
 -1      1849 5.34000E+01 4.61030E+01 0.00000E+00
 -1      1850 5.49000E+01 4.61030E+01 0.00000E+00
 -1      1851 5.26500E+01 4.48040E+01 0.00000E+00
 -1      1852 5.64000E+01 4.61030E+01 0.00000E+00
 -1      1853 5.79000E+01 4.61030E+01 0.00000E+00
 -1      1854 5.56500E+01 4.48040E+01 0.00000E+00
 -1      1855 5.94000E+01 4.61030E+01 0.00000E+00
 -1      1856 6.09000E+01 4.61030E+01 0.00000E+00
 -1      1857 5.86500E+01 4.48040E+01 0.00000E+00
 -1      1858 6.24000E+01 4.61030E+01 0.00000E+00
 -1      1859 6.39000E+01 4.61030E+01 0.00000E+00
 -1      1860 6.16500E+01 4.48040E+01 0.00000E+00
 -1      1861 6.54000E+01 4.61030E+01 0.00000E+00
 -1      1862 6.69000E+01 4.61030E+01 0.00000E+00
 -1      1863 6.46500E+01 4.48040E+01 0.00000E+00
 -1      1864 6.84000E+01 4.61030E+01 0.00000E+00
 -1      1865 6.99000E+01 4.61030E+01 0.00000E+00
 -1      1866 6.76500E+01 4.48040E+01 0.00000E+00
 -1      1867 7.14000E+01 4.61030E+01 0.00000E+00
 -1      1868 7.29000E+01 4.61030E+01 0.00000E+00
 -1      1869 7.06500E+01 4.48040E+01 0.00000E+00
 -1      1870 7.44000E+01 4.61030E+01 0.00000E+00
 -1      1871 7.59000E+01 4.61030E+01 0.00000E+00
 -1      1872 7.36500E+01 4.48040E+01 0.00000E+00
 -1      1873 7.74000E+01 4.61030E+01 0.00000E+00
 -1      1874 7.89000E+01 4.61030E+01 0.00000E+00
 -1      1875 7.66500E+01 4.48040E+01 0.00000E+00
 -1      1876 8.04000E+01 4.61030E+01 0.00000E+00
 -1      1877 8.19000E+01 4.61030E+01 0.00000E+00
 -1      1878 7.96500E+01 4.48040E+01 0.00000E+00
 -1      1879 8.34000E+01 4.61030E+01 0.00000E+00
 -1      1880 8.49000E+01 4.61030E+01 0.00000E+00
 -1      1881 8.26500E+01 4.48040E+01 0.00000E+00
 -1      1882 8.64000E+01 4.61030E+01 0.00000E+00
 -1      1883 8.79000E+01 4.61030E+01 0.00000E+00
 -1      1884 8.56500E+01 4.48040E+01 0.00000E+00
 -1      1885 8.94000E+01 4.61030E+01 0.00000E+00
 -1      1886 9.09000E+01 4.61030E+01 0.00000E+00
 -1      1887 8.86500E+01 4.48040E+01 0.00000E+00
 -1      1888 9.24000E+01 4.61030E+01 0.00000E+00
 -1      1889 9.39000E+01 4.61030E+01 0.00000E+00
 -1      1890 9.16500E+01 4.48040E+01 0.00000E+00
 -1      1891 9.54000E+01 4.61030E+01 0.00000E+00
 -1      1892 9.69000E+01 4.61030E+01 0.00000E+00
 -1      1893 9.46500E+01 4.48040E+01 0.00000E+00
 -1      1894 9.84000E+01 4.61030E+01 0.00000E+00
 -1      1895 9.99000E+01 4.61030E+01 0.00000E+00
 -1      1896 9.76500E+01 4.48040E+01 0.00000E+00
 -1      1897 1.01400E+02 4.61030E+01 0.00000E+00
 -1      1898 1.02900E+02 4.61030E+01 0.00000E+00
 -1      1899 1.00650E+02 4.48040E+01 0.00000E+00
 -1      1900 1.04400E+02 4.61030E+01 0.00000E+00
 -1      1901 1.05900E+02 4.61030E+01 0.00000E+00
 -1      1902 1.03650E+02 4.48040E+01 0.00000E+00
 -1      1903 1.07400E+02 4.61030E+01 0.00000E+00
 -1      1904 1.08900E+02 4.61030E+01 0.00000E+00
 -1      1905 1.06650E+02 4.48040E+01 0.00000E+00
 -1      1906 1.10400E+02 4.61030E+01 0.00000E+00
 -1      1907 1.11900E+02 4.61030E+01 0.00000E+00
 -1      1908 1.09650E+02 4.48040E+01 0.00000E+00
 -1      1909 1.13400E+02 4.61030E+01 0.00000E+00
 -1      1910 1.14900E+02 4.61030E+01 0.00000E+00
 -1      1911 1.12650E+02 4.48040E+01 0.00000E+00
 -1      1912 1.16400E+02 4.61030E+01 0.00000E+00
 -1      1913 1.17900E+02 4.61030E+01 0.00000E+00
 -1      1914 1.15650E+02 4.48040E+01 0.00000E+00
 -1      1915 1.19400E+02 4.61030E+01 0.00000E+00
 -1      1916 1.20900E+02 4.61030E+01 0.00000E+00
 -1      1917 1.18650E+02 4.48040E+01 0.00000E+00
 -1      1918 1.22400E+02 4.61030E+01 0.00000E+00
 -1      1919 1.23900E+02 4.61030E+01 0.00000E+00
 -1      1920 1.21650E+02 4.48040E+01 0.00000E+00
 -1      1921 1.25400E+02 4.61030E+01 0.00000E+00
 -1      1922 1.26900E+02 4.61030E+01 0.00000E+00
 -1      1923 1.24650E+02 4.48040E+01 0.00000E+00
 -1      1924 1.28400E+02 4.61030E+01 0.00000E+00
 -1      1925 1.29900E+02 4.61030E+01 0.00000E+00
 -1      1926 1.27650E+02 4.48040E+01 0.00000E+00
 -1      1927 1.31400E+02 4.61030E+01 0.00000E+00
 -1      1928 1.32900E+02 4.61030E+01 0.00000E+00
 -1      1929 1.30650E+02 4.48040E+01 0.00000E+00
 -1      1930 1.34400E+02 4.61030E+01 0.00000E+00
 -1      1931 1.35900E+02 4.61030E+01 0.00000E+00
 -1      1932 1.33650E+02 4.48040E+01 0.00000E+00
 -1      1933 1.37400E+02 4.61030E+01 0.00000E+00
 -1      1934 1.38900E+02 4.61030E+01 0.00000E+00
 -1      1935 1.36650E+02 4.48040E+01 0.00000E+00
 -1      1936 1.40400E+02 4.61030E+01 0.00000E+00
 -1      1937 1.41900E+02 4.61030E+01 0.00000E+00
 -1      1938 1.39650E+02 4.48040E+01 0.00000E+00
 -1      1939 1.43244E+02 4.61616E+01 0.00000E+00
 -1      1940 1.44744E+02 4.61616E+01 0.00000E+00
 -1      1941 1.45182E+02 4.49799E+01 0.00000E+00
 -1      1942 1.42494E+02 4.48626E+01 0.00000E+00
 -1      1943 1.17045E+01 3.09687E+00 0.00000E+00
 -1      1944 1.02045E+01 3.09687E+00 0.00000E+00
 -1      1945 1.00350E+01 4.00625E+00 0.00000E+00
 -1      1946 1.47045E+01 3.09687E+00 0.00000E+00
 -1      1947 1.32045E+01 3.09687E+00 0.00000E+00
 -1      1948 1.30350E+01 4.00625E+00 0.00000E+00
 -1      1949 1.77045E+01 3.09687E+00 0.00000E+00
 -1      1950 1.62045E+01 3.09687E+00 0.00000E+00
 -1      1951 1.60350E+01 4.00625E+00 0.00000E+00
 -1      1952 2.07045E+01 3.09687E+00 0.00000E+00
 -1      1953 1.92045E+01 3.09687E+00 0.00000E+00
 -1      1954 1.90350E+01 4.00625E+00 0.00000E+00
 -1      1955 2.37045E+01 3.09687E+00 0.00000E+00
 -1      1956 2.22045E+01 3.09687E+00 0.00000E+00
 -1      1957 2.20350E+01 4.00625E+00 0.00000E+00
 -1      1958 2.67045E+01 3.09687E+00 0.00000E+00
 -1      1959 2.52045E+01 3.09687E+00 0.00000E+00
 -1      1960 2.50350E+01 4.00625E+00 0.00000E+00
 -1      1961 2.97045E+01 3.09687E+00 0.00000E+00
 -1      1962 2.82045E+01 3.09687E+00 0.00000E+00
 -1      1963 2.80350E+01 4.00625E+00 0.00000E+00
 -1      1964 3.27045E+01 3.09687E+00 0.00000E+00
 -1      1965 3.12045E+01 3.09687E+00 0.00000E+00
 -1      1966 3.10350E+01 4.00625E+00 0.00000E+00
 -1      1967 3.57045E+01 3.09687E+00 0.00000E+00
 -1      1968 3.42045E+01 3.09687E+00 0.00000E+00
 -1      1969 3.40350E+01 4.00625E+00 0.00000E+00
 -1      1970 3.87045E+01 3.09687E+00 0.00000E+00
 -1      1971 3.72045E+01 3.09687E+00 0.00000E+00
 -1      1972 3.70350E+01 4.00625E+00 0.00000E+00
 -1      1973 4.17045E+01 3.09687E+00 0.00000E+00
 -1      1974 4.02045E+01 3.09687E+00 0.00000E+00
 -1      1975 4.00350E+01 4.00625E+00 0.00000E+00
 -1      1976 4.47045E+01 3.09687E+00 0.00000E+00
 -1      1977 4.32045E+01 3.09687E+00 0.00000E+00
 -1      1978 4.30350E+01 4.00625E+00 0.00000E+00
 -1      1979 4.77045E+01 3.09687E+00 0.00000E+00
 -1      1980 4.62045E+01 3.09687E+00 0.00000E+00
 -1      1981 4.60350E+01 4.00625E+00 0.00000E+00
 -1      1982 5.07045E+01 3.09687E+00 0.00000E+00
 -1      1983 4.92045E+01 3.09687E+00 0.00000E+00
 -1      1984 4.90350E+01 4.00625E+00 0.00000E+00
 -1      1985 5.37045E+01 3.09687E+00 0.00000E+00
 -1      1986 5.22045E+01 3.09687E+00 0.00000E+00
 -1      1987 5.20350E+01 4.00625E+00 0.00000E+00
 -1      1988 5.67045E+01 3.09687E+00 0.00000E+00
 -1      1989 5.52045E+01 3.09687E+00 0.00000E+00
 -1      1990 5.50350E+01 4.00625E+00 0.00000E+00
 -1      1991 5.97045E+01 3.09687E+00 0.00000E+00
 -1      1992 5.82045E+01 3.09687E+00 0.00000E+00
 -1      1993 5.80350E+01 4.00625E+00 0.00000E+00
 -1      1994 6.27045E+01 3.09687E+00 0.00000E+00
 -1      1995 6.12045E+01 3.09687E+00 0.00000E+00
 -1      1996 6.10350E+01 4.00625E+00 0.00000E+00
 -1      1997 6.57045E+01 3.09687E+00 0.00000E+00
 -1      1998 6.42045E+01 3.09687E+00 0.00000E+00
 -1      1999 6.40350E+01 4.00625E+00 0.00000E+00
 -1      2000 6.87045E+01 3.09687E+00 0.00000E+00
 -1      2001 6.72045E+01 3.09687E+00 0.00000E+00
 -1      2002 6.70350E+01 4.00625E+00 0.00000E+00
 -1      2003 7.17045E+01 3.09687E+00 0.00000E+00
 -1      2004 7.02045E+01 3.09687E+00 0.00000E+00
 -1      2005 7.00350E+01 4.00625E+00 0.00000E+00
 -1      2006 7.47045E+01 3.09687E+00 0.00000E+00
 -1      2007 7.32045E+01 3.09687E+00 0.00000E+00
 -1      2008 7.30350E+01 4.00625E+00 0.00000E+00
 -1      2009 7.77045E+01 3.09687E+00 0.00000E+00
 -1      2010 7.62045E+01 3.09687E+00 0.00000E+00
 -1      2011 7.60350E+01 4.00625E+00 0.00000E+00
 -1      2012 8.07045E+01 3.09687E+00 0.00000E+00
 -1      2013 7.92045E+01 3.09687E+00 0.00000E+00
 -1      2014 7.90350E+01 4.00625E+00 0.00000E+00
 -1      2015 8.37045E+01 3.09687E+00 0.00000E+00
 -1      2016 8.22045E+01 3.09687E+00 0.00000E+00
 -1      2017 8.20350E+01 4.00625E+00 0.00000E+00
 -1      2018 8.67045E+01 3.09687E+00 0.00000E+00
 -1      2019 8.52045E+01 3.09687E+00 0.00000E+00
 -1      2020 8.50350E+01 4.00625E+00 0.00000E+00
 -1      2021 8.97045E+01 3.09687E+00 0.00000E+00
 -1      2022 8.82045E+01 3.09687E+00 0.00000E+00
 -1      2023 8.80350E+01 4.00625E+00 0.00000E+00
 -1      2024 9.27045E+01 3.09687E+00 0.00000E+00
 -1      2025 9.12045E+01 3.09687E+00 0.00000E+00
 -1      2026 9.10350E+01 4.00625E+00 0.00000E+00
 -1      2027 9.57045E+01 3.09687E+00 0.00000E+00
 -1      2028 9.42045E+01 3.09687E+00 0.00000E+00
 -1      2029 9.40350E+01 4.00625E+00 0.00000E+00
 -1      2030 9.87045E+01 3.09687E+00 0.00000E+00
 -1      2031 9.72045E+01 3.09687E+00 0.00000E+00
 -1      2032 9.70350E+01 4.00625E+00 0.00000E+00
 -1      2033 1.01704E+02 3.09687E+00 0.00000E+00
 -1      2034 1.00204E+02 3.09687E+00 0.00000E+00
 -1      2035 1.00035E+02 4.00625E+00 0.00000E+00
 -1      2036 1.04704E+02 3.09687E+00 0.00000E+00
 -1      2037 1.03204E+02 3.09687E+00 0.00000E+00
 -1      2038 1.03035E+02 4.00625E+00 0.00000E+00
 -1      2039 1.07704E+02 3.09687E+00 0.00000E+00
 -1      2040 1.06204E+02 3.09687E+00 0.00000E+00
 -1      2041 1.06035E+02 4.00625E+00 0.00000E+00
 -1      2042 1.10704E+02 3.09687E+00 0.00000E+00
 -1      2043 1.09204E+02 3.09687E+00 0.00000E+00
 -1      2044 1.09035E+02 4.00625E+00 0.00000E+00
 -1      2045 1.13704E+02 3.09687E+00 0.00000E+00
 -1      2046 1.12204E+02 3.09687E+00 0.00000E+00
 -1      2047 1.12035E+02 4.00625E+00 0.00000E+00
 -1      2048 1.16704E+02 3.09687E+00 0.00000E+00
 -1      2049 1.15204E+02 3.09687E+00 0.00000E+00
 -1      2050 1.15035E+02 4.00625E+00 0.00000E+00
 -1      2051 1.19704E+02 3.09687E+00 0.00000E+00
 -1      2052 1.18204E+02 3.09687E+00 0.00000E+00
 -1      2053 1.18035E+02 4.00625E+00 0.00000E+00
 -1      2054 1.22704E+02 3.09687E+00 0.00000E+00
 -1      2055 1.21204E+02 3.09687E+00 0.00000E+00
 -1      2056 1.21035E+02 4.00625E+00 0.00000E+00
 -1      2057 1.25704E+02 3.09687E+00 0.00000E+00
 -1      2058 1.24204E+02 3.09687E+00 0.00000E+00
 -1      2059 1.24035E+02 4.00625E+00 0.00000E+00
 -1      2060 1.28704E+02 3.09687E+00 0.00000E+00
 -1      2061 1.27204E+02 3.09687E+00 0.00000E+00
 -1      2062 1.27035E+02 4.00625E+00 0.00000E+00
 -1      2063 1.31704E+02 3.09687E+00 0.00000E+00
 -1      2064 1.30204E+02 3.09687E+00 0.00000E+00
 -1      2065 1.30035E+02 4.00625E+00 0.00000E+00
 -1      2066 1.34704E+02 3.09687E+00 0.00000E+00
 -1      2067 1.33204E+02 3.09687E+00 0.00000E+00
 -1      2068 1.33035E+02 4.00625E+00 0.00000E+00
 -1      2069 1.37704E+02 3.09687E+00 0.00000E+00
 -1      2070 1.36204E+02 3.09687E+00 0.00000E+00
 -1      2071 1.36035E+02 4.00625E+00 0.00000E+00
 -1      2072 1.40704E+02 3.09687E+00 0.00000E+00
 -1      2073 1.39204E+02 3.09687E+00 0.00000E+00
 -1      2074 1.39035E+02 4.00625E+00 0.00000E+00
 -1      2075 1.43704E+02 3.09687E+00 0.00000E+00
 -1      2076 1.42204E+02 3.09687E+00 0.00000E+00
 -1      2077 1.42035E+02 4.00625E+00 0.00000E+00
 -1      2078 1.46171E+02 3.20156E+00 0.00000E+00
 -1      2079 1.44671E+02 3.20156E+00 0.00000E+00
 -1      2080 1.44502E+02 4.11094E+00 0.00000E+00
 -1      2081 1.46435E+02 4.32031E+00 0.00000E+00
 -1      2082 1.46103E+02 1.25375E+01 0.00000E+00
 -1      2083 1.46103E+02 1.10625E+01 0.00000E+00
 -1      2084 1.46103E+02 9.58750E+00 0.00000E+00
 -1      2085 1.46103E+02 8.11250E+00 0.00000E+00
 -1      2086 1.44804E+02 1.03250E+01 0.00000E+00
 -1      2087 1.46269E+02 6.95391E+00 0.00000E+00
 -1      2088 1.46269E+02 5.47891E+00 0.00000E+00
 -1      2089 1.45302E+02 5.37422E+00 0.00000E+00
 -1      2090 1.44970E+02 7.69141E+00 0.00000E+00
 -1      2091 1.46103E+02 1.54375E+01 0.00000E+00
 -1      2092 1.46103E+02 1.39875E+01 0.00000E+00
 -1      2093 1.44804E+02 1.32500E+01 0.00000E+00
 -1      2094 1.46103E+02 1.83875E+01 0.00000E+00
 -1      2095 1.46103E+02 1.69125E+01 0.00000E+00
 -1      2096 1.44804E+02 1.61750E+01 0.00000E+00
 -1      2097 1.46103E+02 2.13375E+01 0.00000E+00
 -1      2098 1.46103E+02 1.98625E+01 0.00000E+00
 -1      2099 1.44804E+02 1.91250E+01 0.00000E+00
 -1      2100 1.46103E+02 2.42875E+01 0.00000E+00
 -1      2101 1.46103E+02 2.28125E+01 0.00000E+00
 -1      2102 1.44804E+02 2.20750E+01 0.00000E+00
 -1      2103 1.46103E+02 2.72375E+01 0.00000E+00
 -1      2104 1.46103E+02 2.57625E+01 0.00000E+00
 -1      2105 1.44804E+02 2.50250E+01 0.00000E+00
 -1      2106 1.46103E+02 3.01875E+01 0.00000E+00
 -1      2107 1.46103E+02 2.87125E+01 0.00000E+00
 -1      2108 1.44804E+02 2.79750E+01 0.00000E+00
 -1      2109 1.46103E+02 3.30875E+01 0.00000E+00
 -1      2110 1.46103E+02 3.16375E+01 0.00000E+00
 -1      2111 1.44804E+02 3.09000E+01 0.00000E+00
 -1      2112 1.46103E+02 3.60375E+01 0.00000E+00
 -1      2113 1.46103E+02 3.45625E+01 0.00000E+00
 -1      2114 1.44804E+02 3.38250E+01 0.00000E+00
 -1      2115 1.46103E+02 3.89875E+01 0.00000E+00
 -1      2116 1.46103E+02 3.75125E+01 0.00000E+00
 -1      2117 1.44804E+02 3.67750E+01 0.00000E+00
 -1      2118 1.46103E+02 4.19375E+01 0.00000E+00
 -1      2119 1.46103E+02 4.04625E+01 0.00000E+00
 -1      2120 1.44804E+02 3.97250E+01 0.00000E+00
 -1      2121 1.22347E+02 1.82908E+01 0.00000E+00
 -1      2122 1.22694E+02 1.90658E+01 0.00000E+00
 -1      2123 1.23301E+02 2.18400E+01 0.00000E+00
 -1      2124 1.23265E+02 2.26868E+01 0.00000E+00
 -1      2125 1.22973E+02 1.99833E+01 0.00000E+00
 -1      2126 1.23190E+02 2.08102E+01 0.00000E+00
 -1      2127 1.21420E+02 1.66932E+01 0.00000E+00
 -1      2128 1.21921E+02 1.73855E+01 0.00000E+00
 -1      2129 1.20084E+02 1.54512E+01 0.00000E+00
 -1      2130 1.20699E+02 1.60105E+01 0.00000E+00
 -1      2131 3.89700E+00 3.74688E+01 0.00000E+00
 -1      2132 3.89700E+00 3.89437E+01 0.00000E+00
 -1      2133 5.19600E+00 3.96813E+01 0.00000E+00
 -1      2134 5.19600E+00 3.67438E+01 0.00000E+00
 -1      2135 1.16952E+02 1.36288E+01 0.00000E+00
 -1      2136 1.17756E+02 1.39851E+01 0.00000E+00
 -1      2137 1.14951E+02 1.33248E+01 0.00000E+00
 -1      2138 1.15828E+02 1.33391E+01 0.00000E+00
 -1      2139 1.13196E+02 1.34250E+01 0.00000E+00
 -1      2140 1.14074E+02 1.33749E+01 0.00000E+00
 -1      2141 1.14525E+02 1.26084E+01 0.00000E+00
 -1      2142 1.11260E+02 1.39704E+01 0.00000E+00
 -1      2143 1.12078E+02 1.36614E+01 0.00000E+00
 -1      2144 1.09598E+02 1.47456E+01 0.00000E+00
 -1      2145 1.10332E+02 1.43182E+01 0.00000E+00
 -1      2146 1.08122E+02 1.58800E+01 0.00000E+00
 -1      2147 1.08752E+02 1.53117E+01 0.00000E+00
 -1      2148 1.07030E+02 1.73592E+01 0.00000E+00
 -1      2149 1.07606E+02 1.67020E+01 0.00000E+00
 -1      2150 1.06159E+02 1.91424E+01 0.00000E+00
 -1      2151 1.06436E+02 1.83121E+01 0.00000E+00
 -1      2152 1.05700E+02 2.08631E+01 0.00000E+00
 -1      2153 1.05873E+02 2.00382E+01 0.00000E+00
 -1      2154 1.05684E+02 2.26982E+01 0.00000E+00
 -1      2155 1.05683E+02 2.18505E+01 0.00000E+00
 -1      2156 1.05844E+02 2.45392E+01 0.00000E+00
 -1      2157 1.05666E+02 2.37013E+01 0.00000E+00
 -1      2158 1.06615E+02 2.62229E+01 0.00000E+00
 -1      2159 1.06270E+02 2.54474E+01 0.00000E+00
 -1      2160 1.07587E+02 2.77436E+01 0.00000E+00
 -1      2161 1.07098E+02 2.70658E+01 0.00000E+00
 -1      2162 1.08811E+02 2.90546E+01 0.00000E+00
 -1      2163 1.08198E+02 2.84929E+01 0.00000E+00
 -1      2164 1.10220E+02 3.01739E+01 0.00000E+00
 -1      2165 1.09512E+02 2.97062E+01 0.00000E+00
 -1      2166 1.12074E+02 3.07848E+01 0.00000E+00
 -1      2167 1.11233E+02 3.05454E+01 0.00000E+00
 -1      2168 1.13926E+02 3.11971E+01 0.00000E+00
 -1      2169 1.13039E+02 3.11002E+01 0.00000E+00
 -1      2170 1.15841E+02 3.11269E+01 0.00000E+00
 -1      2171 1.14950E+02 3.11804E+01 0.00000E+00
 -1      2172 1.17715E+02 3.06069E+01 0.00000E+00
 -1      2173 1.16886E+02 3.08836E+01 0.00000E+00
 -1      2174 1.19394E+02 2.97174E+01 0.00000E+00
 -1      2175 1.18679E+02 3.01866E+01 0.00000E+00
 -1      2176 1.20724E+02 2.84928E+01 0.00000E+00
 -1      2177 1.20103E+02 2.90611E+01 0.00000E+00
 -1      2178 1.21909E+02 2.70876E+01 0.00000E+00
 -1      2179 1.21413E+02 2.77796E+01 0.00000E+00
 -1      2180 1.22760E+02 2.55548E+01 0.00000E+00
 -1      2181 1.22335E+02 2.63212E+01 0.00000E+00
 -1      2182 1.22681E+02 2.70936E+01 0.00000E+00
 -1      2183 1.23322E+02 2.35909E+01 0.00000E+00
 -1      2184 1.23229E+02 2.44411E+01 0.00000E+00
 -1      2185 1.18573E+02 1.44494E+01 0.00000E+00
 -1      2186 1.19299E+02 1.48742E+01 0.00000E+00
 -1      2187 1.21577E+02 1.59031E+01 0.00000E+00
 -1      2188 6.42300E+00 4.57510E+01 0.00000E+00
 -1      2189 1.20070E+02 1.46434E+01 0.00000E+00
 -1      2190 1.18468E+02 1.36021E+01 0.00000E+00
 -1      2191 7.17300E+00 4.44520E+01 0.00000E+00
 -1      2192 1.23429E+02 1.93142E+01 0.00000E+00
 -1      2193 1.23819E+02 2.12617E+01 0.00000E+00
 -1      2194 1.45665E+02 4.31193E+01 0.00000E+00
 -1      2195 1.22724E+02 1.74913E+01 0.00000E+00
 -1      2196 1.23988E+02 2.31956E+01 0.00000E+00
 -1      2197 1.23576E+02 2.52135E+01 0.00000E+00
 -1      2198 1.21567E+02 2.85731E+01 0.00000E+00
 -1      2199 1.20170E+02 2.99425E+01 0.00000E+00
 -1      2200 1.18497E+02 3.10191E+01 0.00000E+00
 -1      2201 1.16487E+02 3.16827E+01 0.00000E+00
 -1      2202 1.14418E+02 3.19427E+01 0.00000E+00
 -1      2203 1.12429E+02 3.16441E+01 0.00000E+00
 -1      2204 1.10452E+02 3.09572E+01 0.00000E+00
 -1      2205 1.08739E+02 2.99342E+01 0.00000E+00
 -1      2206 1.07428E+02 2.85333E+01 0.00000E+00
 -1      2207 1.06333E+02 2.69410E+01 0.00000E+00
 -1      2208 1.05424E+02 2.51899E+01 0.00000E+00
 -1      2209 1.05017E+02 2.32785E+01 0.00000E+00
 -1      2210 1.05053E+02 2.12881E+01 0.00000E+00
 -1      2211 1.05357E+02 1.94049E+01 0.00000E+00
 -1      2212 1.06237E+02 1.75562E+01 0.00000E+00
 -1      2213 1.07347E+02 1.57812E+01 0.00000E+00
 -1      2214 1.08709E+02 1.43931E+01 0.00000E+00
 -1      2215 1.12528E+02 1.28948E+01 0.00000E+00
 -1      2216 1.16526E+02 1.28480E+01 0.00000E+00
 -1      2217 1.10482E+02 1.34791E+01 0.00000E+00
 -1      2218 1.07850E+01 5.30525E+00 0.00000E+00
 -1      2219 9.28500E+00 5.30525E+00 0.00000E+00
 -1      2220 6.49500E+00 3.01125E+01 0.00000E+00
 -1      2221 6.49500E+00 3.15875E+01 0.00000E+00
 -1      2222 6.49500E+00 3.30625E+01 0.00000E+00
 -1      2223 6.49500E+00 3.45375E+01 0.00000E+00
 -1      2224 7.79400E+00 3.23250E+01 0.00000E+00
 -1      2225 6.49500E+00 2.42125E+01 0.00000E+00
 -1      2226 6.49500E+00 2.56875E+01 0.00000E+00
 -1      2227 6.49500E+00 2.12625E+01 0.00000E+00
 -1      2228 6.49500E+00 2.27375E+01 0.00000E+00
 -1      2229 7.79400E+00 2.34750E+01 0.00000E+00
 -1      2230 6.49500E+00 1.83625E+01 0.00000E+00
 -1      2231 6.49500E+00 1.98125E+01 0.00000E+00
 -1      2232 7.79400E+00 2.05500E+01 0.00000E+00
 -1      2233 6.49500E+00 1.54125E+01 0.00000E+00
 -1      2234 6.49500E+00 1.68875E+01 0.00000E+00
 -1      2235 7.79400E+00 1.76250E+01 0.00000E+00
 -1      2236 6.49500E+00 1.24625E+01 0.00000E+00
 -1      2237 6.49500E+00 1.39375E+01 0.00000E+00
 -1      2238 7.79400E+00 1.46750E+01 0.00000E+00
 -1      2239 6.49500E+00 9.51250E+00 0.00000E+00
 -1      2240 6.49500E+00 1.09875E+01 0.00000E+00
 -1      2241 7.79400E+00 1.17250E+01 0.00000E+00
 -1      2242 1.37850E+01 5.30525E+00 0.00000E+00
 -1      2243 1.22850E+01 5.30525E+00 0.00000E+00
 -1      2244 1.15350E+01 6.60425E+00 0.00000E+00
 -1      2245 9.90000E+00 4.35050E+01 0.00000E+00
 -1      2246 1.14000E+01 4.35050E+01 0.00000E+00
 -1      2247 1.20185E+02 1.36637E+01 0.00000E+00
 -1      2248 1.20971E+02 1.42407E+01 0.00000E+00
 -1      2249 1.29000E+01 4.35050E+01 0.00000E+00
 -1      2250 1.44000E+01 4.35050E+01 0.00000E+00
 -1      2251 1.21500E+01 4.22060E+01 0.00000E+00
 -1      2252 1.59000E+01 4.35050E+01 0.00000E+00
 -1      2253 1.74000E+01 4.35050E+01 0.00000E+00
 -1      2254 1.51500E+01 4.22060E+01 0.00000E+00
 -1      2255 1.89000E+01 4.35050E+01 0.00000E+00
 -1      2256 2.04000E+01 4.35050E+01 0.00000E+00
 -1      2257 1.81500E+01 4.22060E+01 0.00000E+00
 -1      2258 2.19000E+01 4.35050E+01 0.00000E+00
 -1      2259 2.34000E+01 4.35050E+01 0.00000E+00
 -1      2260 2.11500E+01 4.22060E+01 0.00000E+00
 -1      2261 2.49000E+01 4.35050E+01 0.00000E+00
 -1      2262 2.64000E+01 4.35050E+01 0.00000E+00
 -1      2263 2.41500E+01 4.22060E+01 0.00000E+00
 -1      2264 2.79000E+01 4.35050E+01 0.00000E+00
 -1      2265 2.94000E+01 4.35050E+01 0.00000E+00
 -1      2266 2.71500E+01 4.22060E+01 0.00000E+00
 -1      2267 3.09000E+01 4.35050E+01 0.00000E+00
 -1      2268 3.24000E+01 4.35050E+01 0.00000E+00
 -1      2269 3.01500E+01 4.22060E+01 0.00000E+00
 -1      2270 3.39000E+01 4.35050E+01 0.00000E+00
 -1      2271 3.54000E+01 4.35050E+01 0.00000E+00
 -1      2272 3.31500E+01 4.22060E+01 0.00000E+00
 -1      2273 3.69000E+01 4.35050E+01 0.00000E+00
 -1      2274 3.84000E+01 4.35050E+01 0.00000E+00
 -1      2275 3.61500E+01 4.22060E+01 0.00000E+00
 -1      2276 3.99000E+01 4.35050E+01 0.00000E+00
 -1      2277 4.14000E+01 4.35050E+01 0.00000E+00
 -1      2278 3.91500E+01 4.22060E+01 0.00000E+00
 -1      2279 4.29000E+01 4.35050E+01 0.00000E+00
 -1      2280 4.44000E+01 4.35050E+01 0.00000E+00
 -1      2281 4.21500E+01 4.22060E+01 0.00000E+00
 -1      2282 4.59000E+01 4.35050E+01 0.00000E+00
 -1      2283 4.74000E+01 4.35050E+01 0.00000E+00
 -1      2284 4.51500E+01 4.22060E+01 0.00000E+00
 -1      2285 4.89000E+01 4.35050E+01 0.00000E+00
 -1      2286 5.04000E+01 4.35050E+01 0.00000E+00
 -1      2287 4.81500E+01 4.22060E+01 0.00000E+00
 -1      2288 5.19000E+01 4.35050E+01 0.00000E+00
 -1      2289 5.34000E+01 4.35050E+01 0.00000E+00
 -1      2290 5.11500E+01 4.22060E+01 0.00000E+00
 -1      2291 5.49000E+01 4.35050E+01 0.00000E+00
 -1      2292 5.64000E+01 4.35050E+01 0.00000E+00
 -1      2293 5.41500E+01 4.22060E+01 0.00000E+00
 -1      2294 5.79000E+01 4.35050E+01 0.00000E+00
 -1      2295 5.94000E+01 4.35050E+01 0.00000E+00
 -1      2296 5.71500E+01 4.22060E+01 0.00000E+00
 -1      2297 6.09000E+01 4.35050E+01 0.00000E+00
 -1      2298 6.24000E+01 4.35050E+01 0.00000E+00
 -1      2299 6.01500E+01 4.22060E+01 0.00000E+00
 -1      2300 6.39000E+01 4.35050E+01 0.00000E+00
 -1      2301 6.54000E+01 4.35050E+01 0.00000E+00
 -1      2302 6.31500E+01 4.22060E+01 0.00000E+00
 -1      2303 6.69000E+01 4.35050E+01 0.00000E+00
 -1      2304 6.84000E+01 4.35050E+01 0.00000E+00
 -1      2305 6.61500E+01 4.22060E+01 0.00000E+00
 -1      2306 6.99000E+01 4.35050E+01 0.00000E+00
 -1      2307 7.14000E+01 4.35050E+01 0.00000E+00
 -1      2308 6.91500E+01 4.22060E+01 0.00000E+00
 -1      2309 7.29000E+01 4.35050E+01 0.00000E+00
 -1      2310 7.44000E+01 4.35050E+01 0.00000E+00
 -1      2311 7.21500E+01 4.22060E+01 0.00000E+00
 -1      2312 7.59000E+01 4.35050E+01 0.00000E+00
 -1      2313 7.74000E+01 4.35050E+01 0.00000E+00
 -1      2314 7.51500E+01 4.22060E+01 0.00000E+00
 -1      2315 7.89000E+01 4.35050E+01 0.00000E+00
 -1      2316 8.04000E+01 4.35050E+01 0.00000E+00
 -1      2317 7.81500E+01 4.22060E+01 0.00000E+00
 -1      2318 8.19000E+01 4.35050E+01 0.00000E+00
 -1      2319 8.34000E+01 4.35050E+01 0.00000E+00
 -1      2320 8.11500E+01 4.22060E+01 0.00000E+00
 -1      2321 8.49000E+01 4.35050E+01 0.00000E+00
 -1      2322 8.64000E+01 4.35050E+01 0.00000E+00
 -1      2323 8.41500E+01 4.22060E+01 0.00000E+00
 -1      2324 8.79000E+01 4.35050E+01 0.00000E+00
 -1      2325 8.94000E+01 4.35050E+01 0.00000E+00
 -1      2326 8.71500E+01 4.22060E+01 0.00000E+00
 -1      2327 9.09000E+01 4.35050E+01 0.00000E+00
 -1      2328 9.24000E+01 4.35050E+01 0.00000E+00
 -1      2329 9.01500E+01 4.22060E+01 0.00000E+00
 -1      2330 9.39000E+01 4.35050E+01 0.00000E+00
 -1      2331 9.54000E+01 4.35050E+01 0.00000E+00
 -1      2332 9.31500E+01 4.22060E+01 0.00000E+00
 -1      2333 9.69000E+01 4.35050E+01 0.00000E+00
 -1      2334 9.84000E+01 4.35050E+01 0.00000E+00
 -1      2335 9.61500E+01 4.22060E+01 0.00000E+00
 -1      2336 9.99000E+01 4.35050E+01 0.00000E+00
 -1      2337 1.01400E+02 4.35050E+01 0.00000E+00
 -1      2338 9.91500E+01 4.22060E+01 0.00000E+00
 -1      2339 1.02900E+02 4.35050E+01 0.00000E+00
 -1      2340 1.04400E+02 4.35050E+01 0.00000E+00
 -1      2341 1.02150E+02 4.22060E+01 0.00000E+00
 -1      2342 1.05900E+02 4.35050E+01 0.00000E+00
 -1      2343 1.07400E+02 4.35050E+01 0.00000E+00
 -1      2344 1.05150E+02 4.22060E+01 0.00000E+00
 -1      2345 1.08900E+02 4.35050E+01 0.00000E+00
 -1      2346 1.10400E+02 4.35050E+01 0.00000E+00
 -1      2347 1.08150E+02 4.22060E+01 0.00000E+00
 -1      2348 1.11900E+02 4.35050E+01 0.00000E+00
 -1      2349 1.13400E+02 4.35050E+01 0.00000E+00
 -1      2350 1.11150E+02 4.22060E+01 0.00000E+00
 -1      2351 1.14900E+02 4.35050E+01 0.00000E+00
 -1      2352 1.16400E+02 4.35050E+01 0.00000E+00
 -1      2353 1.14150E+02 4.22060E+01 0.00000E+00
 -1      2354 1.17900E+02 4.35050E+01 0.00000E+00
 -1      2355 1.19400E+02 4.35050E+01 0.00000E+00
 -1      2356 1.17150E+02 4.22060E+01 0.00000E+00
 -1      2357 1.20900E+02 4.35050E+01 0.00000E+00
 -1      2358 1.22400E+02 4.35050E+01 0.00000E+00
 -1      2359 1.20150E+02 4.22060E+01 0.00000E+00
 -1      2360 1.23900E+02 4.35050E+01 0.00000E+00
 -1      2361 1.25400E+02 4.35050E+01 0.00000E+00
 -1      2362 1.23150E+02 4.22060E+01 0.00000E+00
 -1      2363 1.26900E+02 4.35050E+01 0.00000E+00
 -1      2364 1.28400E+02 4.35050E+01 0.00000E+00
 -1      2365 1.26150E+02 4.22060E+01 0.00000E+00
 -1      2366 1.29900E+02 4.35050E+01 0.00000E+00
 -1      2367 1.31400E+02 4.35050E+01 0.00000E+00
 -1      2368 1.29150E+02 4.22060E+01 0.00000E+00
 -1      2369 1.32900E+02 4.35050E+01 0.00000E+00
 -1      2370 1.34400E+02 4.35050E+01 0.00000E+00
 -1      2371 1.32150E+02 4.22060E+01 0.00000E+00
 -1      2372 1.35900E+02 4.35050E+01 0.00000E+00
 -1      2373 1.37400E+02 4.35050E+01 0.00000E+00
 -1      2374 1.35150E+02 4.22060E+01 0.00000E+00
 -1      2375 1.38900E+02 4.35050E+01 0.00000E+00
 -1      2376 1.40400E+02 4.35050E+01 0.00000E+00
 -1      2377 1.38150E+02 4.22060E+01 0.00000E+00
 -1      2378 1.97850E+01 5.30525E+00 0.00000E+00
 -1      2379 1.82850E+01 5.30525E+00 0.00000E+00
 -1      2380 2.27850E+01 5.30525E+00 0.00000E+00
 -1      2381 2.12850E+01 5.30525E+00 0.00000E+00
 -1      2382 2.05350E+01 6.60425E+00 0.00000E+00
 -1      2383 2.57850E+01 5.30525E+00 0.00000E+00
 -1      2384 2.42850E+01 5.30525E+00 0.00000E+00
 -1      2385 2.35350E+01 6.60425E+00 0.00000E+00
 -1      2386 2.87850E+01 5.30525E+00 0.00000E+00
 -1      2387 2.72850E+01 5.30525E+00 0.00000E+00
 -1      2388 2.65350E+01 6.60425E+00 0.00000E+00
 -1      2389 3.17850E+01 5.30525E+00 0.00000E+00
 -1      2390 3.02850E+01 5.30525E+00 0.00000E+00
 -1      2391 2.95350E+01 6.60425E+00 0.00000E+00
 -1      2392 3.47850E+01 5.30525E+00 0.00000E+00
 -1      2393 3.32850E+01 5.30525E+00 0.00000E+00
 -1      2394 3.25350E+01 6.60425E+00 0.00000E+00
 -1      2395 3.77850E+01 5.30525E+00 0.00000E+00
 -1      2396 3.62850E+01 5.30525E+00 0.00000E+00
 -1      2397 3.55350E+01 6.60425E+00 0.00000E+00
 -1      2398 4.07850E+01 5.30525E+00 0.00000E+00
 -1      2399 3.92850E+01 5.30525E+00 0.00000E+00
 -1      2400 3.85350E+01 6.60425E+00 0.00000E+00
 -1      2401 4.37850E+01 5.30525E+00 0.00000E+00
 -1      2402 4.22850E+01 5.30525E+00 0.00000E+00
 -1      2403 4.15350E+01 6.60425E+00 0.00000E+00
 -1      2404 4.67850E+01 5.30525E+00 0.00000E+00
 -1      2405 4.52850E+01 5.30525E+00 0.00000E+00
 -1      2406 4.45350E+01 6.60425E+00 0.00000E+00
 -1      2407 4.97850E+01 5.30525E+00 0.00000E+00
 -1      2408 4.82850E+01 5.30525E+00 0.00000E+00
 -1      2409 4.75350E+01 6.60425E+00 0.00000E+00
 -1      2410 5.27850E+01 5.30525E+00 0.00000E+00
 -1      2411 5.12850E+01 5.30525E+00 0.00000E+00
 -1      2412 5.05350E+01 6.60425E+00 0.00000E+00
 -1      2413 5.57850E+01 5.30525E+00 0.00000E+00
 -1      2414 5.42850E+01 5.30525E+00 0.00000E+00
 -1      2415 5.35350E+01 6.60425E+00 0.00000E+00
 -1      2416 5.87850E+01 5.30525E+00 0.00000E+00
 -1      2417 5.72850E+01 5.30525E+00 0.00000E+00
 -1      2418 5.65350E+01 6.60425E+00 0.00000E+00
 -1      2419 6.17850E+01 5.30525E+00 0.00000E+00
 -1      2420 6.02850E+01 5.30525E+00 0.00000E+00
 -1      2421 5.95350E+01 6.60425E+00 0.00000E+00
 -1      2422 6.47850E+01 5.30525E+00 0.00000E+00
 -1      2423 6.32850E+01 5.30525E+00 0.00000E+00
 -1      2424 6.25350E+01 6.60425E+00 0.00000E+00
 -1      2425 6.77850E+01 5.30525E+00 0.00000E+00
 -1      2426 6.62850E+01 5.30525E+00 0.00000E+00
 -1      2427 6.55350E+01 6.60425E+00 0.00000E+00
 -1      2428 7.07850E+01 5.30525E+00 0.00000E+00
 -1      2429 6.92850E+01 5.30525E+00 0.00000E+00
 -1      2430 6.85350E+01 6.60425E+00 0.00000E+00
 -1      2431 7.37850E+01 5.30525E+00 0.00000E+00
 -1      2432 7.22850E+01 5.30525E+00 0.00000E+00
 -1      2433 7.15350E+01 6.60425E+00 0.00000E+00
 -1      2434 7.67850E+01 5.30525E+00 0.00000E+00
 -1      2435 7.52850E+01 5.30525E+00 0.00000E+00
 -1      2436 7.45350E+01 6.60425E+00 0.00000E+00
 -1      2437 7.97850E+01 5.30525E+00 0.00000E+00
 -1      2438 7.82850E+01 5.30525E+00 0.00000E+00
 -1      2439 7.75350E+01 6.60425E+00 0.00000E+00
 -1      2440 8.27850E+01 5.30525E+00 0.00000E+00
 -1      2441 8.12850E+01 5.30525E+00 0.00000E+00
 -1      2442 8.05350E+01 6.60425E+00 0.00000E+00
 -1      2443 8.57850E+01 5.30525E+00 0.00000E+00
 -1      2444 8.42850E+01 5.30525E+00 0.00000E+00
 -1      2445 8.35350E+01 6.60425E+00 0.00000E+00
 -1      2446 8.87850E+01 5.30525E+00 0.00000E+00
 -1      2447 8.72850E+01 5.30525E+00 0.00000E+00
 -1      2448 8.65350E+01 6.60425E+00 0.00000E+00
 -1      2449 9.17850E+01 5.30525E+00 0.00000E+00
 -1      2450 9.02850E+01 5.30525E+00 0.00000E+00
 -1      2451 8.95350E+01 6.60425E+00 0.00000E+00
 -1      2452 9.47850E+01 5.30525E+00 0.00000E+00
 -1      2453 9.32850E+01 5.30525E+00 0.00000E+00
 -1      2454 9.25350E+01 6.60425E+00 0.00000E+00
 -1      2455 9.77850E+01 5.30525E+00 0.00000E+00
 -1      2456 9.62850E+01 5.30525E+00 0.00000E+00
 -1      2457 9.55350E+01 6.60425E+00 0.00000E+00
 -1      2458 1.00785E+02 5.30525E+00 0.00000E+00
 -1      2459 9.92850E+01 5.30525E+00 0.00000E+00
 -1      2460 9.85350E+01 6.60425E+00 0.00000E+00
 -1      2461 1.03785E+02 5.30525E+00 0.00000E+00
 -1      2462 1.02285E+02 5.30525E+00 0.00000E+00
 -1      2463 1.01535E+02 6.60425E+00 0.00000E+00
 -1      2464 1.06785E+02 5.30525E+00 0.00000E+00
 -1      2465 1.05285E+02 5.30525E+00 0.00000E+00
 -1      2466 1.04535E+02 6.60425E+00 0.00000E+00
 -1      2467 1.09785E+02 5.30525E+00 0.00000E+00
 -1      2468 1.08285E+02 5.30525E+00 0.00000E+00
 -1      2469 1.07535E+02 6.60425E+00 0.00000E+00
 -1      2470 1.12785E+02 5.30525E+00 0.00000E+00
 -1      2471 1.11285E+02 5.30525E+00 0.00000E+00
 -1      2472 1.10535E+02 6.60425E+00 0.00000E+00
 -1      2473 1.15785E+02 5.30525E+00 0.00000E+00
 -1      2474 1.14285E+02 5.30525E+00 0.00000E+00
 -1      2475 1.13535E+02 6.60425E+00 0.00000E+00
 -1      2476 1.18785E+02 5.30525E+00 0.00000E+00
 -1      2477 1.17285E+02 5.30525E+00 0.00000E+00
 -1      2478 1.16535E+02 6.60425E+00 0.00000E+00
 -1      2479 1.21785E+02 5.30525E+00 0.00000E+00
 -1      2480 1.20285E+02 5.30525E+00 0.00000E+00
 -1      2481 1.19535E+02 6.60425E+00 0.00000E+00
 -1      2482 1.24785E+02 5.30525E+00 0.00000E+00
 -1      2483 1.23285E+02 5.30525E+00 0.00000E+00
 -1      2484 1.22535E+02 6.60425E+00 0.00000E+00
 -1      2485 1.27785E+02 5.30525E+00 0.00000E+00
 -1      2486 1.26285E+02 5.30525E+00 0.00000E+00
 -1      2487 1.25535E+02 6.60425E+00 0.00000E+00
 -1      2488 1.30785E+02 5.30525E+00 0.00000E+00
 -1      2489 1.29285E+02 5.30525E+00 0.00000E+00
 -1      2490 1.28535E+02 6.60425E+00 0.00000E+00
 -1      2491 1.33785E+02 5.30525E+00 0.00000E+00
 -1      2492 1.32285E+02 5.30525E+00 0.00000E+00
 -1      2493 1.31535E+02 6.60425E+00 0.00000E+00
 -1      2494 1.36785E+02 5.30525E+00 0.00000E+00
 -1      2495 1.35285E+02 5.30525E+00 0.00000E+00
 -1      2496 1.34535E+02 6.60425E+00 0.00000E+00
 -1      2497 1.39785E+02 5.30525E+00 0.00000E+00
 -1      2498 1.38285E+02 5.30525E+00 0.00000E+00
 -1      2499 1.37535E+02 6.60425E+00 0.00000E+00
 -1      2500 1.42785E+02 5.30525E+00 0.00000E+00
 -1      2501 1.41285E+02 5.30525E+00 0.00000E+00
 -1      2502 1.40535E+02 6.60425E+00 0.00000E+00
 -1      2503 1.44336E+02 5.26953E+00 0.00000E+00
 -1      2504 1.43505E+02 1.69125E+01 0.00000E+00
 -1      2505 1.43505E+02 1.54375E+01 0.00000E+00
 -1      2506 1.43505E+02 1.98625E+01 0.00000E+00
 -1      2507 1.43505E+02 1.83875E+01 0.00000E+00
 -1      2508 1.42206E+02 1.76500E+01 0.00000E+00
 -1      2509 1.43505E+02 1.10625E+01 0.00000E+00
 -1      2510 1.43505E+02 9.58750E+00 0.00000E+00
 -1      2511 1.43505E+02 1.39750E+01 0.00000E+00
 -1      2512 1.43505E+02 1.25250E+01 0.00000E+00
 -1      2513 1.42206E+02 1.17875E+01 0.00000E+00
 -1      2514 1.42206E+02 1.47125E+01 0.00000E+00
 -1      2515 1.43505E+02 2.28125E+01 0.00000E+00
 -1      2516 1.43505E+02 2.13375E+01 0.00000E+00
 -1      2517 1.42206E+02 2.06000E+01 0.00000E+00
 -1      2518 1.43505E+02 2.57625E+01 0.00000E+00
 -1      2519 1.43505E+02 2.42875E+01 0.00000E+00
 -1      2520 1.42206E+02 2.35500E+01 0.00000E+00
 -1      2521 1.43505E+02 2.87125E+01 0.00000E+00
 -1      2522 1.43505E+02 2.72375E+01 0.00000E+00
 -1      2523 1.42206E+02 2.65000E+01 0.00000E+00
 -1      2524 1.43505E+02 3.16125E+01 0.00000E+00
 -1      2525 1.43505E+02 3.01625E+01 0.00000E+00
 -1      2526 1.42206E+02 2.94250E+01 0.00000E+00
 -1      2527 1.43505E+02 3.45625E+01 0.00000E+00
 -1      2528 1.43505E+02 3.30875E+01 0.00000E+00
 -1      2529 1.42206E+02 3.23500E+01 0.00000E+00
 -1      2530 1.43505E+02 3.75125E+01 0.00000E+00
 -1      2531 1.43505E+02 3.60375E+01 0.00000E+00
 -1      2532 1.42206E+02 3.53000E+01 0.00000E+00
 -1      2533 1.43505E+02 4.04625E+01 0.00000E+00
 -1      2534 1.43505E+02 3.89875E+01 0.00000E+00
 -1      2535 1.42206E+02 3.82500E+01 0.00000E+00
 -1      2536 1.24616E+02 2.06547E+01 0.00000E+00
 -1      2537 1.24727E+02 2.16845E+01 0.00000E+00
 -1      2538 1.23210E+02 1.67088E+01 0.00000E+00
 -1      2539 1.23637E+02 1.76142E+01 0.00000E+00
 -1      2540 1.67850E+01 5.30525E+00 0.00000E+00
 -1      2541 1.52850E+01 5.30525E+00 0.00000E+00
 -1      2542 1.75350E+01 6.60425E+00 0.00000E+00
 -1      2543 1.44321E+02 4.30606E+01 0.00000E+00
 -1      2544 1.24785E+02 2.25886E+01 0.00000E+00
 -1      2545 1.24842E+02 2.34928E+01 0.00000E+00
 -1      2546 1.25582E+02 2.19817E+01 0.00000E+00
 -1      2547 1.24030E+02 1.86304E+01 0.00000E+00
 -1      2548 1.24309E+02 1.95480E+01 0.00000E+00
 -1      2549 6.55950E+00 4.28890E+01 0.00000E+00
 -1      2550 8.53650E+00 4.32410E+01 0.00000E+00
 -1      2551 9.28650E+00 4.19420E+01 0.00000E+00
 -1      2552 6.55950E+00 4.14140E+01 0.00000E+00
 -1      2553 1.22468E+02 2.87539E+01 0.00000E+00
 -1      2554 1.21780E+02 2.94670E+01 0.00000E+00
 -1      2555 6.49500E+00 2.71625E+01 0.00000E+00
 -1      2556 6.49500E+00 2.86375E+01 0.00000E+00
 -1      2557 7.79400E+00 2.93750E+01 0.00000E+00
 -1      2558 7.79400E+00 2.64250E+01 0.00000E+00
 -1      2559 1.16157E+02 1.19539E+01 0.00000E+00
 -1      2560 1.17282E+02 1.22436E+01 0.00000E+00
 -1      2561 1.09688E+02 1.27717E+01 0.00000E+00
 -1      2562 1.10616E+02 1.24238E+01 0.00000E+00
 -1      2563 1.14042E+02 1.18609E+01 0.00000E+00
 -1      2564 1.14919E+02 1.18108E+01 0.00000E+00
 -1      2565 1.11792E+02 1.21740E+01 0.00000E+00
 -1      2566 1.12910E+02 1.19376E+01 0.00000E+00
 -1      2567 1.07715E+02 1.38242E+01 0.00000E+00
 -1      2568 1.08562E+02 1.32580E+01 0.00000E+00
 -1      2569 1.06433E+02 1.57810E+01 0.00000E+00
 -1      2570 1.06949E+02 1.49590E+01 0.00000E+00
 -1      2571 1.05246E+02 1.76868E+01 0.00000E+00
 -1      2572 1.05839E+02 1.67339E+01 0.00000E+00
 -1      2573 1.05442E+02 1.59117E+01 0.00000E+00
 -1      2574 1.04516E+02 1.96299E+01 0.00000E+00
 -1      2575 1.04803E+02 1.87341E+01 0.00000E+00
 -1      2576 1.04187E+02 2.17667E+01 0.00000E+00
 -1      2577 1.04204E+02 2.07793E+01 0.00000E+00
 -1      2578 1.04150E+02 2.37728E+01 0.00000E+00
 -1      2579 1.04168E+02 2.27697E+01 0.00000E+00
 -1      2580 1.03319E+02 2.22610E+01 0.00000E+00
 -1      2581 1.04861E+02 2.60080E+01 0.00000E+00
 -1      2582 1.04435E+02 2.50998E+01 0.00000E+00
 -1      2583 1.05828E+02 2.76938E+01 0.00000E+00
 -1      2584 1.05344E+02 2.68509E+01 0.00000E+00
 -1      2585 1.04355E+02 2.67609E+01 0.00000E+00
 -1      2586 1.07003E+02 2.95027E+01 0.00000E+00
 -1      2587 1.06393E+02 2.87533E+01 0.00000E+00
 -1      2588 1.08404E+02 3.08057E+01 0.00000E+00
 -1      2589 1.07704E+02 3.01542E+01 0.00000E+00
 -1      2590 1.06669E+02 3.03743E+01 0.00000E+00
 -1      2591 1.10663E+02 3.19481E+01 0.00000E+00
 -1      2592 1.09650E+02 3.15766E+01 0.00000E+00
 -1      2593 1.12592E+02 3.25788E+01 0.00000E+00
 -1      2594 1.11628E+02 3.22634E+01 0.00000E+00
 -1      2595 1.10826E+02 3.28828E+01 0.00000E+00
 -1      2596 1.14943E+02 3.27499E+01 0.00000E+00
 -1      2597 1.13919E+02 3.27667E+01 0.00000E+00
 -1      2598 1.17185E+02 3.23147E+01 0.00000E+00
 -1      2599 1.16140E+02 3.25580E+01 0.00000E+00
 -1      2600 1.19322E+02 3.15951E+01 0.00000E+00
 -1      2601 1.18357E+02 3.20154E+01 0.00000E+00
 -1      2602 1.21071E+02 3.01233E+01 0.00000E+00
 -1      2603 1.20362E+02 3.07796E+01 0.00000E+00
 -1      2604 1.21972E+02 3.03041E+01 0.00000E+00
 -1      2605 1.23571E+02 2.70863E+01 0.00000E+00
 -1      2606 1.23145E+02 2.78526E+01 0.00000E+00
 -1      2607 1.24485E+02 2.49405E+01 0.00000E+00
 -1      2608 1.24016E+02 2.60542E+01 0.00000E+00
 -1      2609 1.18551E+02 1.27351E+01 0.00000E+00
 -1      2610 1.19368E+02 1.31994E+01 0.00000E+00
 -1      2611 1.20268E+02 1.27967E+01 0.00000E+00
 -1      2612 8.07525E+00 5.11044E+00 0.00000E+00
 -1      2613 6.57525E+00 5.11044E+00 0.00000E+00
 -1      2614 6.40575E+00 6.01981E+00 0.00000E+00
 -1      2615 8.82525E+00 6.40944E+00 0.00000E+00
 -1      2616 1.21777E+02 1.49697E+01 0.00000E+00
 -1      2617 1.22498E+02 1.56524E+01 0.00000E+00
 -1      2618 1.18182E+02 1.18409E+01 0.00000E+00
 -1      2619 7.79400E+00 3.52687E+01 0.00000E+00
 -1      2620 6.49500E+00 3.60062E+01 0.00000E+00
 -1      2621 6.49500E+00 3.74750E+01 0.00000E+00
 -1      2622 1.45350E+01 6.60425E+00 0.00000E+00
 -1      2623 6.40575E+00 7.49481E+00 0.00000E+00
 -1      2624 1.21892E+02 1.39900E+01 0.00000E+00
 -1      2625 1.23358E+02 2.87465E+01 0.00000E+00
 -1      2626 1.26079E+02 2.37265E+01 0.00000E+00
 -1      2627 1.25282E+02 2.43335E+01 0.00000E+00
 -1      2628 1.25722E+02 2.51743E+01 0.00000E+00
 -1      2629 1.43586E+02 6.56853E+00 0.00000E+00
 -1      2630 1.23411E+02 1.57754E+01 0.00000E+00
 -1      2631 1.43419E+02 7.72713E+00 0.00000E+00
 -1      2632 1.25217E+02 1.99708E+01 0.00000E+00
 -1      2633 1.24517E+02 1.78479E+01 0.00000E+00
 -1      2634 7.70475E+00 8.23231E+00 0.00000E+00
 -1      2635 6.55950E+00 3.99453E+01 0.00000E+00
 -1      2636 1.20222E+02 3.17759E+01 0.00000E+00
 -1      2637 1.18010E+02 3.28907E+01 0.00000E+00
 -1      2638 1.13118E+02 3.33860E+01 0.00000E+00
 -1      2639 1.08615E+02 3.17966E+01 0.00000E+00
 -1      2640 1.05403E+02 2.86633E+01 0.00000E+00
 -1      2641 1.03586E+02 2.45910E+01 0.00000E+00
 -1      2642 1.04405E+02 1.79118E+01 0.00000E+00
 -1      2643 1.06802E+02 1.38239E+01 0.00000E+00
 -1      2644 1.10998E+02 1.14666E+01 0.00000E+00
 -1      2645 1.13305E+02 1.11401E+01 0.00000E+00
 -1      2646 1.08695E+02 1.22027E+01 0.00000E+00
 -1      2647 1.15674E+02 1.12064E+01 0.00000E+00
 -1      2648 1.42758E+02 4.35929E+01 0.00000E+00
 -1      2649 1.43241E+02 4.17323E+01 0.00000E+00
 -1      2650 1.41942E+02 4.09948E+01 0.00000E+00
 -1      2651 1.41414E+02 4.35342E+01 0.00000E+00
 -1      2652 1.42120E+02 8.46463E+00 0.00000E+00
 -1      2653 1.03650E+02 2.01085E+01 0.00000E+00
 -1      2654 1.15641E+02 3.33819E+01 0.00000E+00
 -1      2655 1.24480E+02 2.68133E+01 0.00000E+00
 -1      2656 1.40664E+02 4.22352E+01 0.00000E+00
 -1      2657 9.09300E+00 1.98250E+01 0.00000E+00
 -1      2658 9.09300E+00 2.12750E+01 0.00000E+00
 -1      2659 9.09300E+00 2.27500E+01 0.00000E+00
 -1      2660 9.09300E+00 2.42250E+01 0.00000E+00
 -1      2661 1.03920E+01 2.20250E+01 0.00000E+00
 -1      2662 9.09300E+00 1.39375E+01 0.00000E+00
 -1      2663 9.09300E+00 1.54125E+01 0.00000E+00
 -1      2664 9.09300E+00 1.09875E+01 0.00000E+00
 -1      2665 9.09300E+00 1.24625E+01 0.00000E+00
 -1      2666 1.03920E+01 1.32000E+01 0.00000E+00
 -1      2667 1.22850E+01 7.90325E+00 0.00000E+00
 -1      2668 1.07850E+01 7.90325E+00 0.00000E+00
 -1      2669 7.85850E+00 3.92077E+01 0.00000E+00
 -1      2670 1.24516E+02 2.89114E+01 0.00000E+00
 -1      2671 1.23839E+02 2.98126E+01 0.00000E+00
 -1      2672 1.44000E+01 4.09070E+01 0.00000E+00
 -1      2673 1.59000E+01 4.09070E+01 0.00000E+00
 -1      2674 1.74000E+01 4.09070E+01 0.00000E+00
 -1      2675 1.89000E+01 4.09070E+01 0.00000E+00
 -1      2676 1.66500E+01 3.96080E+01 0.00000E+00
 -1      2677 2.04000E+01 4.09070E+01 0.00000E+00
 -1      2678 2.19000E+01 4.09070E+01 0.00000E+00
 -1      2679 1.96500E+01 3.96080E+01 0.00000E+00
 -1      2680 2.34000E+01 4.09070E+01 0.00000E+00
 -1      2681 2.49000E+01 4.09070E+01 0.00000E+00
 -1      2682 2.26500E+01 3.96080E+01 0.00000E+00
 -1      2683 2.64000E+01 4.09070E+01 0.00000E+00
 -1      2684 2.79000E+01 4.09070E+01 0.00000E+00
 -1      2685 2.56500E+01 3.96080E+01 0.00000E+00
 -1      2686 2.94000E+01 4.09070E+01 0.00000E+00
 -1      2687 3.09000E+01 4.09070E+01 0.00000E+00
 -1      2688 2.86500E+01 3.96080E+01 0.00000E+00
 -1      2689 3.24000E+01 4.09070E+01 0.00000E+00
 -1      2690 3.39000E+01 4.09070E+01 0.00000E+00
 -1      2691 3.16500E+01 3.96080E+01 0.00000E+00
 -1      2692 3.54000E+01 4.09070E+01 0.00000E+00
 -1      2693 3.69000E+01 4.09070E+01 0.00000E+00
 -1      2694 3.46500E+01 3.96080E+01 0.00000E+00
 -1      2695 3.84000E+01 4.09070E+01 0.00000E+00
 -1      2696 3.99000E+01 4.09070E+01 0.00000E+00
 -1      2697 3.76500E+01 3.96080E+01 0.00000E+00
 -1      2698 4.14000E+01 4.09070E+01 0.00000E+00
 -1      2699 4.29000E+01 4.09070E+01 0.00000E+00
 -1      2700 4.06500E+01 3.96080E+01 0.00000E+00
 -1      2701 4.44000E+01 4.09070E+01 0.00000E+00
 -1      2702 4.59000E+01 4.09070E+01 0.00000E+00
 -1      2703 4.36500E+01 3.96080E+01 0.00000E+00
 -1      2704 4.74000E+01 4.09070E+01 0.00000E+00
 -1      2705 4.89000E+01 4.09070E+01 0.00000E+00
 -1      2706 4.66500E+01 3.96080E+01 0.00000E+00
 -1      2707 5.04000E+01 4.09070E+01 0.00000E+00
 -1      2708 5.19000E+01 4.09070E+01 0.00000E+00
 -1      2709 4.96500E+01 3.96080E+01 0.00000E+00
 -1      2710 5.34000E+01 4.09070E+01 0.00000E+00
 -1      2711 5.49000E+01 4.09070E+01 0.00000E+00
 -1      2712 5.26500E+01 3.96080E+01 0.00000E+00
 -1      2713 5.64000E+01 4.09070E+01 0.00000E+00
 -1      2714 5.79000E+01 4.09070E+01 0.00000E+00
 -1      2715 5.56500E+01 3.96080E+01 0.00000E+00
 -1      2716 5.94000E+01 4.09070E+01 0.00000E+00
 -1      2717 6.09000E+01 4.09070E+01 0.00000E+00
 -1      2718 5.86500E+01 3.96080E+01 0.00000E+00
 -1      2719 6.24000E+01 4.09070E+01 0.00000E+00
 -1      2720 6.39000E+01 4.09070E+01 0.00000E+00
 -1      2721 6.16500E+01 3.96080E+01 0.00000E+00
 -1      2722 6.54000E+01 4.09070E+01 0.00000E+00
 -1      2723 6.69000E+01 4.09070E+01 0.00000E+00
 -1      2724 6.46500E+01 3.96080E+01 0.00000E+00
 -1      2725 6.84000E+01 4.09070E+01 0.00000E+00
 -1      2726 6.99000E+01 4.09070E+01 0.00000E+00
 -1      2727 6.76500E+01 3.96080E+01 0.00000E+00
 -1      2728 7.14000E+01 4.09070E+01 0.00000E+00
 -1      2729 7.29000E+01 4.09070E+01 0.00000E+00
 -1      2730 7.06500E+01 3.96080E+01 0.00000E+00
 -1      2731 7.44000E+01 4.09070E+01 0.00000E+00
 -1      2732 7.59000E+01 4.09070E+01 0.00000E+00
 -1      2733 7.36500E+01 3.96080E+01 0.00000E+00
 -1      2734 7.74000E+01 4.09070E+01 0.00000E+00
 -1      2735 7.89000E+01 4.09070E+01 0.00000E+00
 -1      2736 7.66500E+01 3.96080E+01 0.00000E+00
 -1      2737 8.04000E+01 4.09070E+01 0.00000E+00
 -1      2738 8.19000E+01 4.09070E+01 0.00000E+00
 -1      2739 7.96500E+01 3.96080E+01 0.00000E+00
 -1      2740 8.34000E+01 4.09070E+01 0.00000E+00
 -1      2741 8.49000E+01 4.09070E+01 0.00000E+00
 -1      2742 8.26500E+01 3.96080E+01 0.00000E+00
 -1      2743 8.64000E+01 4.09070E+01 0.00000E+00
 -1      2744 8.79000E+01 4.09070E+01 0.00000E+00
 -1      2745 8.56500E+01 3.96080E+01 0.00000E+00
 -1      2746 8.94000E+01 4.09070E+01 0.00000E+00
 -1      2747 9.09000E+01 4.09070E+01 0.00000E+00
 -1      2748 8.86500E+01 3.96080E+01 0.00000E+00
 -1      2749 9.24000E+01 4.09070E+01 0.00000E+00
 -1      2750 9.39000E+01 4.09070E+01 0.00000E+00
 -1      2751 9.16500E+01 3.96080E+01 0.00000E+00
 -1      2752 9.54000E+01 4.09070E+01 0.00000E+00
 -1      2753 9.69000E+01 4.09070E+01 0.00000E+00
 -1      2754 9.46500E+01 3.96080E+01 0.00000E+00
 -1      2755 9.84000E+01 4.09070E+01 0.00000E+00
 -1      2756 9.99000E+01 4.09070E+01 0.00000E+00
 -1      2757 9.76500E+01 3.96080E+01 0.00000E+00
 -1      2758 1.01400E+02 4.09070E+01 0.00000E+00
 -1      2759 1.02900E+02 4.09070E+01 0.00000E+00
 -1      2760 1.00650E+02 3.96080E+01 0.00000E+00
 -1      2761 1.04400E+02 4.09070E+01 0.00000E+00
 -1      2762 1.05900E+02 4.09070E+01 0.00000E+00
 -1      2763 1.03650E+02 3.96080E+01 0.00000E+00
 -1      2764 1.07400E+02 4.09070E+01 0.00000E+00
 -1      2765 1.08900E+02 4.09070E+01 0.00000E+00
 -1      2766 1.06650E+02 3.96080E+01 0.00000E+00
 -1      2767 1.10400E+02 4.09070E+01 0.00000E+00
 -1      2768 1.11900E+02 4.09070E+01 0.00000E+00
 -1      2769 1.09650E+02 3.96080E+01 0.00000E+00
 -1      2770 1.13400E+02 4.09070E+01 0.00000E+00
 -1      2771 1.14900E+02 4.09070E+01 0.00000E+00
 -1      2772 1.12650E+02 3.96080E+01 0.00000E+00
 -1      2773 1.16400E+02 4.09070E+01 0.00000E+00
 -1      2774 1.17900E+02 4.09070E+01 0.00000E+00
 -1      2775 1.15650E+02 3.96080E+01 0.00000E+00
 -1      2776 1.19400E+02 4.09070E+01 0.00000E+00
 -1      2777 1.20900E+02 4.09070E+01 0.00000E+00
 -1      2778 1.18650E+02 3.96080E+01 0.00000E+00
 -1      2779 1.22400E+02 4.09070E+01 0.00000E+00
 -1      2780 1.23900E+02 4.09070E+01 0.00000E+00
 -1      2781 1.21650E+02 3.96080E+01 0.00000E+00
 -1      2782 1.25400E+02 4.09070E+01 0.00000E+00
 -1      2783 1.26900E+02 4.09070E+01 0.00000E+00
 -1      2784 1.24650E+02 3.96080E+01 0.00000E+00
 -1      2785 1.28400E+02 4.09070E+01 0.00000E+00
 -1      2786 1.29900E+02 4.09070E+01 0.00000E+00
 -1      2787 1.27650E+02 3.96080E+01 0.00000E+00
 -1      2788 1.31400E+02 4.09070E+01 0.00000E+00
 -1      2789 1.32900E+02 4.09070E+01 0.00000E+00
 -1      2790 1.30650E+02 3.96080E+01 0.00000E+00
 -1      2791 1.34400E+02 4.09070E+01 0.00000E+00
 -1      2792 1.35900E+02 4.09070E+01 0.00000E+00
 -1      2793 1.33650E+02 3.96080E+01 0.00000E+00
 -1      2794 1.37400E+02 4.09070E+01 0.00000E+00
 -1      2795 1.38900E+02 4.09070E+01 0.00000E+00
 -1      2796 1.36650E+02 3.96080E+01 0.00000E+00
 -1      2797 2.42850E+01 7.90325E+00 0.00000E+00
 -1      2798 2.27850E+01 7.90325E+00 0.00000E+00
 -1      2799 1.40706E+02 1.03250E+01 0.00000E+00
 -1      2800 1.40620E+02 8.46463E+00 0.00000E+00
 -1      2801 1.39120E+02 8.46463E+00 0.00000E+00
 -1      2802 2.12850E+01 7.90325E+00 0.00000E+00
 -1      2803 1.97850E+01 7.90325E+00 0.00000E+00
 -1      2804 2.20350E+01 9.20225E+00 0.00000E+00
 -1      2805 3.02850E+01 7.90325E+00 0.00000E+00
 -1      2806 2.87850E+01 7.90325E+00 0.00000E+00
 -1      2807 3.32850E+01 7.90325E+00 0.00000E+00
 -1      2808 3.17850E+01 7.90325E+00 0.00000E+00
 -1      2809 3.10350E+01 9.20225E+00 0.00000E+00
 -1      2810 3.62850E+01 7.90325E+00 0.00000E+00
 -1      2811 3.47850E+01 7.90325E+00 0.00000E+00
 -1      2812 3.40350E+01 9.20225E+00 0.00000E+00
 -1      2813 3.92850E+01 7.90325E+00 0.00000E+00
 -1      2814 3.77850E+01 7.90325E+00 0.00000E+00
 -1      2815 3.70350E+01 9.20225E+00 0.00000E+00
 -1      2816 4.22850E+01 7.90325E+00 0.00000E+00
 -1      2817 4.07850E+01 7.90325E+00 0.00000E+00
 -1      2818 4.00350E+01 9.20225E+00 0.00000E+00
 -1      2819 4.52850E+01 7.90325E+00 0.00000E+00
 -1      2820 4.37850E+01 7.90325E+00 0.00000E+00
 -1      2821 4.30350E+01 9.20225E+00 0.00000E+00
 -1      2822 4.82850E+01 7.90325E+00 0.00000E+00
 -1      2823 4.67850E+01 7.90325E+00 0.00000E+00
 -1      2824 4.60350E+01 9.20225E+00 0.00000E+00
 -1      2825 5.12850E+01 7.90325E+00 0.00000E+00
 -1      2826 4.97850E+01 7.90325E+00 0.00000E+00
 -1      2827 4.90350E+01 9.20225E+00 0.00000E+00
 -1      2828 5.42850E+01 7.90325E+00 0.00000E+00
 -1      2829 5.27850E+01 7.90325E+00 0.00000E+00
 -1      2830 5.20350E+01 9.20225E+00 0.00000E+00
 -1      2831 5.72850E+01 7.90325E+00 0.00000E+00
 -1      2832 5.57850E+01 7.90325E+00 0.00000E+00
 -1      2833 5.50350E+01 9.20225E+00 0.00000E+00
 -1      2834 6.02850E+01 7.90325E+00 0.00000E+00
 -1      2835 5.87850E+01 7.90325E+00 0.00000E+00
 -1      2836 5.80350E+01 9.20225E+00 0.00000E+00
 -1      2837 6.32850E+01 7.90325E+00 0.00000E+00
 -1      2838 6.17850E+01 7.90325E+00 0.00000E+00
 -1      2839 6.10350E+01 9.20225E+00 0.00000E+00
 -1      2840 6.62850E+01 7.90325E+00 0.00000E+00
 -1      2841 6.47850E+01 7.90325E+00 0.00000E+00
 -1      2842 6.40350E+01 9.20225E+00 0.00000E+00
 -1      2843 6.92850E+01 7.90325E+00 0.00000E+00
 -1      2844 6.77850E+01 7.90325E+00 0.00000E+00
 -1      2845 6.70350E+01 9.20225E+00 0.00000E+00
 -1      2846 7.22850E+01 7.90325E+00 0.00000E+00
 -1      2847 7.07850E+01 7.90325E+00 0.00000E+00
 -1      2848 7.00350E+01 9.20225E+00 0.00000E+00
 -1      2849 7.52850E+01 7.90325E+00 0.00000E+00
 -1      2850 7.37850E+01 7.90325E+00 0.00000E+00
 -1      2851 7.30350E+01 9.20225E+00 0.00000E+00
 -1      2852 7.82850E+01 7.90325E+00 0.00000E+00
 -1      2853 7.67850E+01 7.90325E+00 0.00000E+00
 -1      2854 7.60350E+01 9.20225E+00 0.00000E+00
 -1      2855 8.12850E+01 7.90325E+00 0.00000E+00
 -1      2856 7.97850E+01 7.90325E+00 0.00000E+00
 -1      2857 7.90350E+01 9.20225E+00 0.00000E+00
 -1      2858 8.42850E+01 7.90325E+00 0.00000E+00
 -1      2859 8.27850E+01 7.90325E+00 0.00000E+00
 -1      2860 8.20350E+01 9.20225E+00 0.00000E+00
 -1      2861 8.72850E+01 7.90325E+00 0.00000E+00
 -1      2862 8.57850E+01 7.90325E+00 0.00000E+00
 -1      2863 8.50350E+01 9.20225E+00 0.00000E+00
 -1      2864 9.02850E+01 7.90325E+00 0.00000E+00
 -1      2865 8.87850E+01 7.90325E+00 0.00000E+00
 -1      2866 8.80350E+01 9.20225E+00 0.00000E+00
 -1      2867 9.32850E+01 7.90325E+00 0.00000E+00
 -1      2868 9.17850E+01 7.90325E+00 0.00000E+00
 -1      2869 9.10350E+01 9.20225E+00 0.00000E+00
 -1      2870 9.62850E+01 7.90325E+00 0.00000E+00
 -1      2871 9.47850E+01 7.90325E+00 0.00000E+00
 -1      2872 9.40350E+01 9.20225E+00 0.00000E+00
 -1      2873 9.92850E+01 7.90325E+00 0.00000E+00
 -1      2874 9.77850E+01 7.90325E+00 0.00000E+00
 -1      2875 9.70350E+01 9.20225E+00 0.00000E+00
 -1      2876 1.02285E+02 7.90325E+00 0.00000E+00
 -1      2877 1.00785E+02 7.90325E+00 0.00000E+00
 -1      2878 1.00035E+02 9.20225E+00 0.00000E+00
 -1      2879 1.05285E+02 7.90325E+00 0.00000E+00
 -1      2880 1.03785E+02 7.90325E+00 0.00000E+00
 -1      2881 1.03035E+02 9.20225E+00 0.00000E+00
 -1      2882 1.08285E+02 7.90325E+00 0.00000E+00
 -1      2883 1.06785E+02 7.90325E+00 0.00000E+00
 -1      2884 1.06035E+02 9.20225E+00 0.00000E+00
 -1      2885 1.14285E+02 7.71316E+00 0.00000E+00
 -1      2886 1.12785E+02 7.71316E+00 0.00000E+00
 -1      2887 1.17285E+02 7.79694E+00 0.00000E+00
 -1      2888 1.15785E+02 7.79694E+00 0.00000E+00
 -1      2889 1.20285E+02 7.79694E+00 0.00000E+00
 -1      2890 1.18785E+02 7.79694E+00 0.00000E+00
 -1      2891 1.18035E+02 8.98964E+00 0.00000E+00
 -1      2892 1.23285E+02 7.79694E+00 0.00000E+00
 -1      2893 1.21785E+02 7.79694E+00 0.00000E+00
 -1      2894 1.21035E+02 8.98964E+00 0.00000E+00
 -1      2895 1.26285E+02 7.79694E+00 0.00000E+00
 -1      2896 1.24785E+02 7.79694E+00 0.00000E+00
 -1      2897 1.24035E+02 8.98964E+00 0.00000E+00
 -1      2898 1.29285E+02 7.79694E+00 0.00000E+00
 -1      2899 1.27785E+02 7.79694E+00 0.00000E+00
 -1      2900 1.27035E+02 8.98964E+00 0.00000E+00
 -1      2901 1.32285E+02 7.79694E+00 0.00000E+00
 -1      2902 1.30785E+02 7.79694E+00 0.00000E+00
 -1      2903 1.30035E+02 8.98964E+00 0.00000E+00
 -1      2904 1.35285E+02 7.79694E+00 0.00000E+00
 -1      2905 1.33785E+02 7.79694E+00 0.00000E+00
 -1      2906 1.33035E+02 8.98964E+00 0.00000E+00
 -1      2907 1.37953E+02 8.13078E+00 0.00000E+00
 -1      2908 1.36453E+02 8.13078E+00 0.00000E+00
 -1      2909 1.35703E+02 9.32348E+00 0.00000E+00
 -1      2910 1.38038E+02 9.99116E+00 0.00000E+00
 -1      2911 1.23974E+02 1.46271E+01 0.00000E+00
 -1      2912 1.24687E+02 1.56835E+01 0.00000E+00
 -1      2913 1.40907E+02 2.42875E+01 0.00000E+00
 -1      2914 1.40907E+02 2.28125E+01 0.00000E+00
 -1      2915 1.02586E+02 2.04364E+01 0.00000E+00
 -1      2916 1.02898E+02 1.92870E+01 0.00000E+00
 -1      2917 1.40907E+02 1.83875E+01 0.00000E+00
 -1      2918 1.40907E+02 1.69125E+01 0.00000E+00
 -1      2919 1.40907E+02 2.72375E+01 0.00000E+00
 -1      2920 1.40907E+02 2.57625E+01 0.00000E+00
 -1      2921 1.39608E+02 2.50250E+01 0.00000E+00
 -1      2922 1.40907E+02 2.13375E+01 0.00000E+00
 -1      2923 1.40907E+02 1.98625E+01 0.00000E+00
 -1      2924 1.39608E+02 1.91250E+01 0.00000E+00
 -1      2925 1.39608E+02 2.20750E+01 0.00000E+00
 -1      2926 1.40907E+02 3.01375E+01 0.00000E+00
 -1      2927 1.40907E+02 2.86875E+01 0.00000E+00
 -1      2928 1.39608E+02 2.79500E+01 0.00000E+00
 -1      2929 1.40907E+02 3.30875E+01 0.00000E+00
 -1      2930 1.40907E+02 3.16125E+01 0.00000E+00
 -1      2931 1.39608E+02 3.08750E+01 0.00000E+00
 -1      2932 1.40907E+02 3.60375E+01 0.00000E+00
 -1      2933 1.40907E+02 3.45625E+01 0.00000E+00
 -1      2934 1.39608E+02 3.38250E+01 0.00000E+00
 -1      2935 1.25276E+02 1.69700E+01 0.00000E+00
 -1      2936 1.25669E+02 1.79862E+01 0.00000E+00
 -1      2937 1.25977E+02 1.90929E+01 0.00000E+00
 -1      2938 1.26284E+02 2.01997E+01 0.00000E+00
 -1      2939 1.26736E+02 1.82150E+01 0.00000E+00
 -1      2940 1.23130E+02 3.04689E+01 0.00000E+00
 -1      2941 1.22421E+02 3.11253E+01 0.00000E+00
 -1      2942 1.24288E+02 3.06338E+01 0.00000E+00
 -1      2943 1.26493E+02 2.14703E+01 0.00000E+00
 -1      2944 1.26550E+02 2.23744E+01 0.00000E+00
 -1      2945 8.91450E+00 8.42712E+00 0.00000E+00
 -1      2946 9.32250E+00 4.05749E+01 0.00000E+00
 -1      2947 1.06860E+01 4.08389E+01 0.00000E+00
 -1      2948 1.21860E+01 4.08389E+01 0.00000E+00
 -1      2949 9.25800E+00 3.81046E+01 0.00000E+00
 -1      2950 1.03433E+02 1.81178E+01 0.00000E+00
 -1      2951 1.03875E+02 1.70706E+01 0.00000E+00
 -1      2952 1.05500E+02 1.37708E+01 0.00000E+00
 -1      2953 1.06266E+02 1.26359E+01 0.00000E+00
 -1      2954 1.82850E+01 7.90325E+00 0.00000E+00
 -1      2955 1.67850E+01 7.90325E+00 0.00000E+00
 -1      2956 1.90350E+01 9.20225E+00 0.00000E+00
 -1      2957 2.72850E+01 7.90325E+00 0.00000E+00
 -1      2958 2.57850E+01 7.90325E+00 0.00000E+00
 -1      2959 2.50350E+01 9.20225E+00 0.00000E+00
 -1      2960 2.80350E+01 9.20225E+00 0.00000E+00
 -1      2961 1.22232E+02 1.28028E+01 0.00000E+00
 -1      2962 1.23039E+02 1.35318E+01 0.00000E+00
 -1      2963 9.09300E+00 1.68813E+01 0.00000E+00
 -1      2964 9.09300E+00 1.83563E+01 0.00000E+00
 -1      2965 1.03920E+01 1.90812E+01 0.00000E+00
 -1      2966 1.03920E+01 1.61437E+01 0.00000E+00
 -1      2967 9.09300E+00 3.15875E+01 0.00000E+00
 -1      2968 9.09300E+00 3.30625E+01 0.00000E+00
 -1      2969 1.52850E+01 7.90325E+00 0.00000E+00
 -1      2970 1.37850E+01 7.90325E+00 0.00000E+00
 -1      2971 1.30350E+01 9.20225E+00 0.00000E+00
 -1      2972 1.60350E+01 9.20225E+00 0.00000E+00
 -1      2973 1.21323E+02 3.21090E+01 0.00000E+00
 -1      2974 1.20283E+02 3.29245E+01 0.00000E+00
 -1      2975 1.12854E+02 1.00194E+01 0.00000E+00
 -1      2976 1.13986E+02 9.94271E+00 0.00000E+00
 -1      2977 1.40928E+02 4.09655E+01 0.00000E+00
 -1      2978 1.41192E+02 3.96958E+01 0.00000E+00
 -1      2979 1.39914E+02 4.09362E+01 0.00000E+00
 -1      2980 1.07552E+02 1.09457E+01 0.00000E+00
 -1      2981 1.08678E+02 1.04593E+01 0.00000E+00
 -1      2982 1.15486E+02 1.00265E+01 0.00000E+00
 -1      2983 1.16724E+02 1.01696E+01 0.00000E+00
 -1      2984 1.10178E+02 1.03642E+01 0.00000E+00
 -1      2985 1.11354E+02 1.01145E+01 0.00000E+00
 -1      2986 1.12035E+02 8.91711E+00 0.00000E+00
 -1      2987 1.09035E+02 9.10720E+00 0.00000E+00
 -1      2988 1.04312E+02 1.56766E+01 0.00000E+00
 -1      2989 1.04906E+02 1.47237E+01 0.00000E+00
 -1      2990 1.04370E+02 1.35357E+01 0.00000E+00
 -1      2991 1.16375E+02 3.41327E+01 0.00000E+00
 -1      2992 1.15179E+02 3.43246E+01 0.00000E+00
 -1      2993 1.02537E+02 2.27482E+01 0.00000E+00
 -1      2994 1.02555E+02 2.17451E+01 0.00000E+00
 -1      2995 1.02808E+02 2.54523E+01 0.00000E+00
 -1      2996 1.02523E+02 2.41253E+01 0.00000E+00
 -1      2997 1.03853E+02 2.76090E+01 0.00000E+00
 -1      2998 1.03369E+02 2.67661E+01 0.00000E+00
 -1      2999 1.04983E+02 2.97280E+01 0.00000E+00
 -1      3000 1.04418E+02 2.86685E+01 0.00000E+00
 -1      3001 1.03432E+02 2.86736E+01 0.00000E+00
 -1      3002 1.06321E+02 3.14506E+01 0.00000E+00
 -1      3003 1.05620E+02 3.07991E+01 0.00000E+00
 -1      3004 1.08743E+02 3.29826E+01 0.00000E+00
 -1      3005 1.07497E+02 3.22118E+01 0.00000E+00
 -1      3006 1.11016E+02 3.39352E+01 0.00000E+00
 -1      3007 1.10051E+02 3.36198E+01 0.00000E+00
 -1      3008 1.25490E+02 2.66371E+01 0.00000E+00
 -1      3009 1.25044E+02 2.76692E+01 0.00000E+00
 -1      3010 1.13670E+02 3.43109E+01 0.00000E+00
 -1      3011 1.12343E+02 3.41230E+01 0.00000E+00
 -1      3012 1.11568E+02 3.48601E+01 0.00000E+00
 -1      3013 1.18829E+02 3.36531E+01 0.00000E+00
 -1      3014 1.17657E+02 3.39524E+01 0.00000E+00
 -1      3015 1.20598E+02 1.18742E+01 0.00000E+00
 -1      3016 1.21415E+02 1.23385E+01 0.00000E+00
 -1      3017 1.22562E+02 1.18803E+01 0.00000E+00
 -1      3018 1.17857E+02 1.07955E+01 0.00000E+00
 -1      3019 1.19126E+02 1.12869E+01 0.00000E+00
 -1      3020 9.09300E+00 3.45313E+01 0.00000E+00
 -1      3021 9.09300E+00 3.60000E+01 0.00000E+00
 -1      3022 1.03920E+01 3.37938E+01 0.00000E+00
 -1      3023 1.03920E+01 2.49750E+01 0.00000E+00
 -1      3024 9.09300E+00 2.57000E+01 0.00000E+00
 -1      3025 9.09300E+00 2.71750E+01 0.00000E+00
 -1      3026 1.22482E+02 3.22739E+01 0.00000E+00
 -1      3027 1.03340E+02 1.58826E+01 0.00000E+00
 -1      3028 1.25526E+02 2.87353E+01 0.00000E+00
 -1      3029 1.26990E+02 2.32151E+01 0.00000E+00
 -1      3030 1.27430E+02 2.40559E+01 0.00000E+00
 -1      3031 1.27901E+02 2.27037E+01 0.00000E+00
 -1      3032 1.24315E+02 1.34399E+01 0.00000E+00
 -1      3033 1.39164E+02 3.96372E+01 0.00000E+00
 -1      3034 1.20273E+02 1.08288E+01 0.00000E+00
 -1      3035 1.25839E+02 1.58218E+01 0.00000E+00
 -1      3036 1.11285E+02 7.80820E+00 0.00000E+00
 -1      3037 1.09785E+02 7.80820E+00 0.00000E+00
 -1      3038 1.15035E+02 8.90585E+00 0.00000E+00
 -1      3039 1.02368E+02 1.84457E+01 0.00000E+00
 -1      3040 1.39608E+02 1.61875E+01 0.00000E+00
 -1      3041 1.40907E+02 1.54500E+01 0.00000E+00
 -1      3042 1.40907E+02 1.39875E+01 0.00000E+00
 -1      3043 1.40706E+02 1.17875E+01 0.00000E+00
 -1      3044 1.14404E+02 3.50617E+01 0.00000E+00
 -1      3045 1.13629E+02 3.57988E+01 0.00000E+00
 -1      3046 1.15138E+02 3.58125E+01 0.00000E+00
 -1      3047 1.41192E+02 3.82207E+01 0.00000E+00
 -1      3048 1.26287E+02 2.60301E+01 0.00000E+00
 -1      3049 1.26851E+02 2.68860E+01 0.00000E+00
 -1      3050 1.27084E+02 2.54232E+01 0.00000E+00
 -1      3051 1.27252E+02 2.05924E+01 0.00000E+00
 -1      3052 1.17194E+02 3.48951E+01 0.00000E+00
 -1      3053 1.08933E+02 3.40350E+01 0.00000E+00
 -1      3054 1.04635E+02 3.08043E+01 0.00000E+00
 -1      3055 9.66450E+00 9.72612E+00 0.00000E+00
 -1      3056 1.39529E+02 3.85602E+01 0.00000E+00
 -1      3057 1.40542E+02 3.71145E+01 0.00000E+00
 -1      3058 1.39243E+02 3.63770E+01 0.00000E+00
 -1      3059 1.38514E+02 3.85310E+01 0.00000E+00
 -1      3060 1.09635E+01 1.04636E+01 0.00000E+00
 -1      3061 9.09300E+00 2.86437E+01 0.00000E+00
 -1      3062 9.09300E+00 3.01187E+01 0.00000E+00
 -1      3063 1.03920E+01 3.08563E+01 0.00000E+00
 -1      3064 1.03920E+01 2.79188E+01 0.00000E+00
 -1      3065 1.02306E+02 2.63004E+01 0.00000E+00
 -1      3066 1.06250E+02 1.08925E+01 0.00000E+00
 -1      3067 1.21031E+02 3.43194E+01 0.00000E+00
 -1      3068 1.19930E+02 3.39862E+01 0.00000E+00
 -1      3069 1.19577E+02 3.50480E+01 0.00000E+00
 -1      3070 1.01803E+02 2.09236E+01 0.00000E+00
 -1      3071 1.01759E+02 2.36095E+01 0.00000E+00
 -1      3072 1.29360E+01 3.95399E+01 0.00000E+00
 -1      3073 1.06449E+02 3.26366E+01 0.00000E+00
 -1      3074 1.16910E+01 1.24625E+01 0.00000E+00
 -1      3075 1.16910E+01 1.39375E+01 0.00000E+00
 -1      3076 1.01721E+02 2.73268E+01 0.00000E+00
 -1      3077 1.01160E+02 2.60130E+01 0.00000E+00
 -1      3078 1.89000E+01 3.83090E+01 0.00000E+00
 -1      3079 2.04000E+01 3.83090E+01 0.00000E+00
 -1      3080 2.19000E+01 3.83090E+01 0.00000E+00
 -1      3081 2.34000E+01 3.83090E+01 0.00000E+00
 -1      3082 2.11500E+01 3.70100E+01 0.00000E+00
 -1      3083 2.49000E+01 3.83090E+01 0.00000E+00
 -1      3084 2.64000E+01 3.83090E+01 0.00000E+00
 -1      3085 2.41500E+01 3.70100E+01 0.00000E+00
 -1      3086 2.79000E+01 3.83090E+01 0.00000E+00
 -1      3087 2.94000E+01 3.83090E+01 0.00000E+00
 -1      3088 2.71500E+01 3.70100E+01 0.00000E+00
 -1      3089 3.09000E+01 3.83090E+01 0.00000E+00
 -1      3090 3.24000E+01 3.83090E+01 0.00000E+00
 -1      3091 3.01500E+01 3.70100E+01 0.00000E+00
 -1      3092 3.39000E+01 3.83090E+01 0.00000E+00
 -1      3093 3.54000E+01 3.83090E+01 0.00000E+00
 -1      3094 3.31500E+01 3.70100E+01 0.00000E+00
 -1      3095 3.69000E+01 3.83090E+01 0.00000E+00
 -1      3096 3.84000E+01 3.83090E+01 0.00000E+00
 -1      3097 3.61500E+01 3.70100E+01 0.00000E+00
 -1      3098 3.99000E+01 3.83090E+01 0.00000E+00
 -1      3099 4.14000E+01 3.83090E+01 0.00000E+00
 -1      3100 3.91500E+01 3.70100E+01 0.00000E+00
 -1      3101 4.29000E+01 3.83090E+01 0.00000E+00
 -1      3102 4.44000E+01 3.83090E+01 0.00000E+00
 -1      3103 4.21500E+01 3.70100E+01 0.00000E+00
 -1      3104 4.59000E+01 3.83090E+01 0.00000E+00
 -1      3105 4.74000E+01 3.83090E+01 0.00000E+00
 -1      3106 4.51500E+01 3.70100E+01 0.00000E+00
 -1      3107 4.89000E+01 3.83090E+01 0.00000E+00
 -1      3108 5.04000E+01 3.83090E+01 0.00000E+00
 -1      3109 4.81500E+01 3.70100E+01 0.00000E+00
 -1      3110 5.19000E+01 3.83090E+01 0.00000E+00
 -1      3111 5.34000E+01 3.83090E+01 0.00000E+00
 -1      3112 5.11500E+01 3.70100E+01 0.00000E+00
 -1      3113 5.49000E+01 3.83090E+01 0.00000E+00
 -1      3114 5.64000E+01 3.83090E+01 0.00000E+00
 -1      3115 5.41500E+01 3.70100E+01 0.00000E+00
 -1      3116 5.79000E+01 3.83090E+01 0.00000E+00
 -1      3117 5.94000E+01 3.83090E+01 0.00000E+00
 -1      3118 5.71500E+01 3.70100E+01 0.00000E+00
 -1      3119 6.09000E+01 3.83090E+01 0.00000E+00
 -1      3120 6.24000E+01 3.83090E+01 0.00000E+00
 -1      3121 6.01500E+01 3.70100E+01 0.00000E+00
 -1      3122 6.39000E+01 3.83090E+01 0.00000E+00
 -1      3123 6.54000E+01 3.83090E+01 0.00000E+00
 -1      3124 6.31500E+01 3.70100E+01 0.00000E+00
 -1      3125 6.69000E+01 3.83090E+01 0.00000E+00
 -1      3126 6.84000E+01 3.83090E+01 0.00000E+00
 -1      3127 6.61500E+01 3.70100E+01 0.00000E+00
 -1      3128 6.99000E+01 3.83090E+01 0.00000E+00
 -1      3129 7.14000E+01 3.83090E+01 0.00000E+00
 -1      3130 6.91500E+01 3.70100E+01 0.00000E+00
 -1      3131 7.29000E+01 3.83090E+01 0.00000E+00
 -1      3132 7.44000E+01 3.83090E+01 0.00000E+00
 -1      3133 7.21500E+01 3.70100E+01 0.00000E+00
 -1      3134 7.59000E+01 3.83090E+01 0.00000E+00
 -1      3135 7.74000E+01 3.83090E+01 0.00000E+00
 -1      3136 7.51500E+01 3.70100E+01 0.00000E+00
 -1      3137 7.89000E+01 3.83090E+01 0.00000E+00
 -1      3138 8.04000E+01 3.83090E+01 0.00000E+00
 -1      3139 7.81500E+01 3.70100E+01 0.00000E+00
 -1      3140 8.19000E+01 3.83090E+01 0.00000E+00
 -1      3141 8.34000E+01 3.83090E+01 0.00000E+00
 -1      3142 8.11500E+01 3.70100E+01 0.00000E+00
 -1      3143 8.49000E+01 3.83090E+01 0.00000E+00
 -1      3144 8.64000E+01 3.83090E+01 0.00000E+00
 -1      3145 8.41500E+01 3.70100E+01 0.00000E+00
 -1      3146 8.79000E+01 3.83090E+01 0.00000E+00
 -1      3147 8.94000E+01 3.83090E+01 0.00000E+00
 -1      3148 8.71500E+01 3.70100E+01 0.00000E+00
 -1      3149 9.09000E+01 3.83090E+01 0.00000E+00
 -1      3150 9.24000E+01 3.83090E+01 0.00000E+00
 -1      3151 9.01500E+01 3.70100E+01 0.00000E+00
 -1      3152 9.39000E+01 3.83090E+01 0.00000E+00
 -1      3153 9.54000E+01 3.83090E+01 0.00000E+00
 -1      3154 9.31500E+01 3.70100E+01 0.00000E+00
 -1      3155 9.69000E+01 3.83090E+01 0.00000E+00
 -1      3156 9.84000E+01 3.83090E+01 0.00000E+00
 -1      3157 9.61500E+01 3.70100E+01 0.00000E+00
 -1      3158 9.99000E+01 3.83090E+01 0.00000E+00
 -1      3159 1.01400E+02 3.83090E+01 0.00000E+00
 -1      3160 9.91500E+01 3.70100E+01 0.00000E+00
 -1      3161 1.02900E+02 3.83090E+01 0.00000E+00
 -1      3162 1.04400E+02 3.83090E+01 0.00000E+00
 -1      3163 1.02150E+02 3.70100E+01 0.00000E+00
 -1      3164 1.05900E+02 3.83090E+01 0.00000E+00
 -1      3165 1.07400E+02 3.83090E+01 0.00000E+00
 -1      3166 1.05150E+02 3.70100E+01 0.00000E+00
 -1      3167 1.11900E+02 3.85829E+01 0.00000E+00
 -1      3168 1.13400E+02 3.85829E+01 0.00000E+00
 -1      3169 1.14900E+02 3.84991E+01 0.00000E+00
 -1      3170 1.16400E+02 3.84991E+01 0.00000E+00
 -1      3171 1.17813E+02 3.71614E+01 0.00000E+00
 -1      3172 1.19313E+02 3.71614E+01 0.00000E+00
 -1      3173 1.23900E+02 3.83090E+01 0.00000E+00
 -1      3174 1.25400E+02 3.83090E+01 0.00000E+00
 -1      3175 1.26900E+02 3.83090E+01 0.00000E+00
 -1      3176 1.28400E+02 3.83090E+01 0.00000E+00
 -1      3177 1.26150E+02 3.70100E+01 0.00000E+00
 -1      3178 1.29900E+02 3.83090E+01 0.00000E+00
 -1      3179 1.31400E+02 3.83090E+01 0.00000E+00
 -1      3180 1.29150E+02 3.70100E+01 0.00000E+00
 -1      3181 1.32900E+02 3.83090E+01 0.00000E+00
 -1      3182 1.34400E+02 3.83090E+01 0.00000E+00
 -1      3183 1.32150E+02 3.70100E+01 0.00000E+00
 -1      3184 1.35707E+02 3.84200E+01 0.00000E+00
 -1      3185 1.37207E+02 3.84200E+01 0.00000E+00
 -1      3186 1.37572E+02 3.73430E+01 0.00000E+00
 -1      3187 1.34957E+02 3.71210E+01 0.00000E+00
 -1      3188 2.27850E+01 1.05013E+01 0.00000E+00
 -1      3189 2.12850E+01 1.05013E+01 0.00000E+00
 -1      3190 3.47850E+01 1.05013E+01 0.00000E+00
 -1      3191 3.32850E+01 1.05013E+01 0.00000E+00
 -1      3192 3.17850E+01 1.05013E+01 0.00000E+00
 -1      3193 3.02850E+01 1.05013E+01 0.00000E+00
 -1      3194 3.25350E+01 1.18003E+01 0.00000E+00
 -1      3195 4.07850E+01 1.05013E+01 0.00000E+00
 -1      3196 3.92850E+01 1.05013E+01 0.00000E+00
 -1      3197 4.37850E+01 1.05013E+01 0.00000E+00
 -1      3198 4.22850E+01 1.05013E+01 0.00000E+00
 -1      3199 4.15350E+01 1.18003E+01 0.00000E+00
 -1      3200 4.67850E+01 1.05013E+01 0.00000E+00
 -1      3201 4.52850E+01 1.05013E+01 0.00000E+00
 -1      3202 4.45350E+01 1.18003E+01 0.00000E+00
 -1      3203 4.97850E+01 1.05013E+01 0.00000E+00
 -1      3204 4.82850E+01 1.05013E+01 0.00000E+00
 -1      3205 4.75350E+01 1.18003E+01 0.00000E+00
 -1      3206 5.27850E+01 1.05013E+01 0.00000E+00
 -1      3207 5.12850E+01 1.05013E+01 0.00000E+00
 -1      3208 5.05350E+01 1.18003E+01 0.00000E+00
 -1      3209 5.57850E+01 1.05013E+01 0.00000E+00
 -1      3210 5.42850E+01 1.05013E+01 0.00000E+00
 -1      3211 5.35350E+01 1.18003E+01 0.00000E+00
 -1      3212 5.87850E+01 1.05013E+01 0.00000E+00
 -1      3213 5.72850E+01 1.05013E+01 0.00000E+00
 -1      3214 5.65350E+01 1.18003E+01 0.00000E+00
 -1      3215 6.17850E+01 1.05013E+01 0.00000E+00
 -1      3216 6.02850E+01 1.05013E+01 0.00000E+00
 -1      3217 5.95350E+01 1.18003E+01 0.00000E+00
 -1      3218 6.47850E+01 1.05013E+01 0.00000E+00
 -1      3219 6.32850E+01 1.05013E+01 0.00000E+00
 -1      3220 6.25350E+01 1.18003E+01 0.00000E+00
 -1      3221 6.77850E+01 1.05013E+01 0.00000E+00
 -1      3222 6.62850E+01 1.05013E+01 0.00000E+00
 -1      3223 6.55350E+01 1.18003E+01 0.00000E+00
 -1      3224 7.07850E+01 1.05013E+01 0.00000E+00
 -1      3225 6.92850E+01 1.05013E+01 0.00000E+00
 -1      3226 6.85350E+01 1.18003E+01 0.00000E+00
 -1      3227 7.37850E+01 1.05013E+01 0.00000E+00
 -1      3228 7.22850E+01 1.05013E+01 0.00000E+00
 -1      3229 7.15350E+01 1.18003E+01 0.00000E+00
 -1      3230 7.67850E+01 1.05013E+01 0.00000E+00
 -1      3231 7.52850E+01 1.05013E+01 0.00000E+00
 -1      3232 7.45350E+01 1.18003E+01 0.00000E+00
 -1      3233 7.97850E+01 1.05013E+01 0.00000E+00
 -1      3234 7.82850E+01 1.05013E+01 0.00000E+00
 -1      3235 7.75350E+01 1.18003E+01 0.00000E+00
 -1      3236 8.27850E+01 1.05013E+01 0.00000E+00
 -1      3237 8.12850E+01 1.05013E+01 0.00000E+00
 -1      3238 8.05350E+01 1.18003E+01 0.00000E+00
 -1      3239 8.57850E+01 1.05013E+01 0.00000E+00
 -1      3240 8.42850E+01 1.05013E+01 0.00000E+00
 -1      3241 8.35350E+01 1.18003E+01 0.00000E+00
 -1      3242 8.87850E+01 1.05013E+01 0.00000E+00
 -1      3243 8.72850E+01 1.05013E+01 0.00000E+00
 -1      3244 8.65350E+01 1.18003E+01 0.00000E+00
 -1      3245 9.17850E+01 1.05013E+01 0.00000E+00
 -1      3246 9.02850E+01 1.05013E+01 0.00000E+00
 -1      3247 8.95350E+01 1.18003E+01 0.00000E+00
 -1      3248 9.47850E+01 1.05013E+01 0.00000E+00
 -1      3249 9.32850E+01 1.05013E+01 0.00000E+00
 -1      3250 9.25350E+01 1.18003E+01 0.00000E+00
 -1      3251 9.77850E+01 1.05013E+01 0.00000E+00
 -1      3252 9.62850E+01 1.05013E+01 0.00000E+00
 -1      3253 9.55350E+01 1.18003E+01 0.00000E+00
 -1      3254 1.00785E+02 1.05013E+01 0.00000E+00
 -1      3255 9.92850E+01 1.05013E+01 0.00000E+00
 -1      3256 9.85350E+01 1.18003E+01 0.00000E+00
 -1      3257 1.04750E+02 1.08925E+01 0.00000E+00
 -1      3258 1.27785E+02 1.02886E+01 0.00000E+00
 -1      3259 1.26285E+02 1.02886E+01 0.00000E+00
 -1      3260 1.30785E+02 1.02886E+01 0.00000E+00
 -1      3261 1.29285E+02 1.02886E+01 0.00000E+00
 -1      3262 1.28535E+02 1.15876E+01 0.00000E+00
 -1      3263 1.33785E+02 1.02886E+01 0.00000E+00
 -1      3264 1.32285E+02 1.02886E+01 0.00000E+00
 -1      3265 1.31535E+02 1.15876E+01 0.00000E+00
 -1      3266 1.26488E+01 1.02017E+01 0.00000E+00
 -1      3267 1.20772E+01 1.14631E+01 0.00000E+00
 -1      3268 1.33763E+01 1.22006E+01 0.00000E+00
 -1      3269 1.41488E+01 1.02017E+01 0.00000E+00
 -1      3270 1.38309E+02 2.86750E+01 0.00000E+00
 -1      3271 1.38309E+02 2.72250E+01 0.00000E+00
 -1      3272 1.38309E+02 2.57500E+01 0.00000E+00
 -1      3273 1.38309E+02 2.42750E+01 0.00000E+00
 -1      3274 1.37010E+02 2.64750E+01 0.00000E+00
 -1      3275 1.27651E+02 1.73650E+01 0.00000E+00
 -1      3276 1.27958E+02 1.84717E+01 0.00000E+00
 -1      3277 1.26629E+02 1.46817E+01 0.00000E+00
 -1      3278 1.27218E+02 1.59682E+01 0.00000E+00
 -1      3279 1.02063E+02 1.62480E+01 0.00000E+00
 -1      3280 1.02500E+02 1.48540E+01 0.00000E+00
 -1      3281 1.25207E+02 1.19661E+01 0.00000E+00
 -1      3282 1.26142E+02 1.30614E+01 0.00000E+00
 -1      3283 1.25396E+02 3.11194E+01 0.00000E+00
 -1      3284 1.24687E+02 3.17757E+01 0.00000E+00
 -1      3285 1.05570E+01 3.73671E+01 0.00000E+00
 -1      3286 1.23589E+02 3.27595E+01 0.00000E+00
 -1      3287 1.22492E+02 3.37433E+01 0.00000E+00
 -1      3288 1.24697E+02 3.32451E+01 0.00000E+00
 -1      3289 1.97850E+01 1.05013E+01 0.00000E+00
 -1      3290 1.82850E+01 1.05013E+01 0.00000E+00
 -1      3291 2.05350E+01 1.18003E+01 0.00000E+00
 -1      3292 1.38309E+02 3.16250E+01 0.00000E+00
 -1      3293 1.38309E+02 3.01500E+01 0.00000E+00
 -1      3294 1.37010E+02 2.94250E+01 0.00000E+00
 -1      3295 1.38309E+02 3.45750E+01 0.00000E+00
 -1      3296 1.38309E+02 3.31000E+01 0.00000E+00
 -1      3297 1.37010E+02 3.23750E+01 0.00000E+00
 -1      3298 1.39407E+02 1.25250E+01 0.00000E+00
 -1      3299 1.26810E+02 2.85483E+01 0.00000E+00
 -1      3300 1.26282E+02 2.97906E+01 0.00000E+00
 -1      3301 1.28159E+02 1.97911E+01 0.00000E+00
 -1      3302 1.28368E+02 2.10617E+01 0.00000E+00
 -1      3303 1.17668E+02 9.61557E+00 0.00000E+00
 -1      3304 3.77850E+01 1.05013E+01 0.00000E+00
 -1      3305 3.62850E+01 1.05013E+01 0.00000E+00
 -1      3306 3.55350E+01 1.18003E+01 0.00000E+00
 -1      3307 3.85350E+01 1.18003E+01 0.00000E+00
 -1      3308 1.59000E+01 3.83090E+01 0.00000E+00
 -1      3309 1.74000E+01 3.83090E+01 0.00000E+00
 -1      3310 1.81500E+01 3.70100E+01 0.00000E+00
 -1      3311 1.00994E+02 1.85863E+01 0.00000E+00
 -1      3312 1.01528E+02 1.74172E+01 0.00000E+00
 -1      3313 1.00689E+02 1.63886E+01 0.00000E+00
 -1      3314 1.09101E+02 3.53505E+01 0.00000E+00
 -1      3315 1.07793E+02 3.47132E+01 0.00000E+00
 -1      3316 1.00727E+02 2.42881E+01 0.00000E+00
 -1      3317 1.00740E+02 2.29109E+01 0.00000E+00
 -1      3318 1.21215E+01 3.78040E+01 0.00000E+00
 -1      3319 1.43355E+01 3.78721E+01 0.00000E+00
 -1      3320 1.50855E+01 3.65731E+01 0.00000E+00
 -1      3321 1.19565E+01 3.56994E+01 0.00000E+00
 -1      3322 1.02736E+02 2.97253E+01 0.00000E+00
 -1      3323 1.02171E+02 2.86658E+01 0.00000E+00
 -1      3324 1.04011E+02 3.18676E+01 0.00000E+00
 -1      3325 1.03374E+02 3.07964E+01 0.00000E+00
 -1      3326 1.02113E+02 3.07886E+01 0.00000E+00
 -1      3327 1.12111E+02 3.58031E+01 0.00000E+00
 -1      3328 1.10784E+02 3.56153E+01 0.00000E+00
 -1      3329 1.00771E+02 2.16022E+01 0.00000E+00
 -1      3330 1.00802E+02 2.02936E+01 0.00000E+00
 -1      3331 9.97393E+01 2.22809E+01 0.00000E+00
 -1      3332 1.16910E+01 2.12875E+01 0.00000E+00
 -1      3333 1.16910E+01 2.27625E+01 0.00000E+00
 -1      3334 1.03061E+02 1.33813E+01 0.00000E+00
 -1      3335 1.03655E+02 1.24284E+01 0.00000E+00
 -1      3336 1.06434E+02 3.39481E+01 0.00000E+00
 -1      3337 1.05258E+02 3.31870E+01 0.00000E+00
 -1      3338 1.03440E+02 1.07381E+01 0.00000E+00
 -1      3339 1.16910E+01 2.42375E+01 0.00000E+00
 -1      3340 1.16910E+01 2.57125E+01 0.00000E+00
 -1      3341 1.29900E+01 2.35000E+01 0.00000E+00
 -1      3342 1.37758E+02 3.64975E+01 0.00000E+00
 -1      3343 1.38123E+02 3.54205E+01 0.00000E+00
 -1      3344 1.36824E+02 3.46955E+01 0.00000E+00
 -1      3345 1.36451E+02 3.63865E+01 0.00000E+00
 -1      3346 9.95562E+01 2.63409E+01 0.00000E+00
 -1      3347 1.00142E+02 2.53145E+01 0.00000E+00
 -1      3348 9.91233E+01 2.46160E+01 0.00000E+00
 -1      3349 1.28808E+02 2.19025E+01 0.00000E+00
 -1      3350 1.29248E+02 2.27432E+01 0.00000E+00
 -1      3351 1.29716E+02 2.11012E+01 0.00000E+00
 -1      3352 1.11239E+02 3.80831E+01 0.00000E+00
 -1      3353 1.11989E+02 3.70580E+01 0.00000E+00
 -1      3354 1.08900E+02 3.84991E+01 0.00000E+00
 -1      3355 1.10400E+02 3.84991E+01 0.00000E+00
 -1      3356 1.20900E+02 3.83090E+01 0.00000E+00
 -1      3357 1.22400E+02 3.83090E+01 0.00000E+00
 -1      3358 1.10489E+02 3.69742E+01 0.00000E+00
 -1      3359 1.09945E+02 3.60312E+01 0.00000E+00
 -1      3360 2.95350E+01 1.18003E+01 0.00000E+00
 -1      3361 2.87850E+01 1.05013E+01 0.00000E+00
 -1      3362 2.72850E+01 1.05013E+01 0.00000E+00
 -1      3363 1.01940E+02 1.07381E+01 0.00000E+00
 -1      3364 1.01190E+02 1.20371E+01 0.00000E+00
 -1      3365 1.19168E+02 9.61557E+00 0.00000E+00
 -1      3366 1.34953E+02 1.06225E+01 0.00000E+00
 -1      3367 1.34203E+02 1.19215E+01 0.00000E+00
 -1      3368 1.36120E+02 1.09563E+01 0.00000E+00
 -1      3369 1.38239E+02 1.21912E+01 0.00000E+00
 -1      3370 1.37072E+02 1.18573E+01 0.00000E+00
 -1      3371 1.38440E+02 1.43912E+01 0.00000E+00
 -1      3372 1.38309E+02 1.98625E+01 0.00000E+00
 -1      3373 1.38309E+02 1.83875E+01 0.00000E+00
 -1      3374 2.57850E+01 1.05013E+01 0.00000E+00
 -1      3375 2.42850E+01 1.05013E+01 0.00000E+00
 -1      3376 2.65350E+01 1.18003E+01 0.00000E+00
 -1      3377 1.19565E+01 3.27619E+01 0.00000E+00
 -1      3378 1.19565E+01 3.42306E+01 0.00000E+00
 -1      3379 1.35210E+01 3.46675E+01 0.00000E+00
 -1      3380 1.38375E+02 1.71206E+01 0.00000E+00
 -1      3381 1.38375E+02 1.56581E+01 0.00000E+00
 -1      3382 1.37207E+02 1.53242E+01 0.00000E+00
 -1      3383 1.37076E+02 1.78581E+01 0.00000E+00
 -1      3384 1.28441E+02 1.62248E+01 0.00000E+00
 -1      3385 1.38309E+02 2.28062E+01 0.00000E+00
 -1      3386 1.38309E+02 2.13312E+01 0.00000E+00
 -1      3387 1.37010E+02 2.05938E+01 0.00000E+00
 -1      3388 1.37010E+02 2.35313E+01 0.00000E+00
 -1      3389 1.15781E+02 3.62328E+01 0.00000E+00
 -1      3390 1.15007E+02 3.69699E+01 0.00000E+00
 -1      3391 1.01784E+02 1.37467E+01 0.00000E+00
 -1      3392 1.27521E+02 1.32079E+01 0.00000E+00
 -1      3393 1.06603E+02 3.52637E+01 0.00000E+00
 -1      3394 1.27995E+02 2.49118E+01 0.00000E+00
 -1      3395 1.13507E+02 3.70536E+01 0.00000E+00
 -1      3396 1.12773E+02 3.63029E+01 0.00000E+00
 -1      3397 1.01025E+02 2.83784E+01 0.00000E+00
 -1      3398 1.26681E+02 3.09325E+01 0.00000E+00
 -1      3399 1.17063E+02 3.60525E+01 0.00000E+00
 -1      3400 2.35350E+01 1.18003E+01 0.00000E+00
 -1      3401 1.24457E+02 1.06671E+01 0.00000E+00
 -1      3402 1.23150E+02 3.70100E+01 0.00000E+00
 -1      3403 1.20668E+02 9.61557E+00 0.00000E+00
 -1      3404 1.22140E+02 1.02028E+01 0.00000E+00
 -1      3405 1.22139E+02 3.48050E+01 0.00000E+00
 -1      3406 1.29074E+02 1.89410E+01 0.00000E+00
 -1      3407 1.22957E+02 1.06671E+01 0.00000E+00
 -1      3408 1.27607E+02 2.79414E+01 0.00000E+00
 -1      3409 1.28363E+02 2.89967E+01 0.00000E+00
 -1      3410 1.28404E+02 2.73344E+01 0.00000E+00
 -1      3411 1.16910E+01 1.54063E+01 0.00000E+00
 -1      3412 1.16910E+01 1.68750E+01 0.00000E+00
 -1      3413 1.29900E+01 1.46687E+01 0.00000E+00
 -1      3414 1.16910E+01 1.83469E+01 0.00000E+00
 -1      3415 1.16910E+01 1.98156E+01 0.00000E+00
 -1      3416 1.29900E+01 2.05531E+01 0.00000E+00
 -1      3417 1.29900E+01 1.76094E+01 0.00000E+00
 -1      3418 1.69669E+01 1.03515E+01 0.00000E+00
 -1      3419 1.54669E+01 1.03515E+01 0.00000E+00
 -1      3420 1.50806E+01 1.13509E+01 0.00000E+00
 -1      3421 1.77169E+01 1.16505E+01 0.00000E+00
 -1      3422 1.08150E+02 3.72001E+01 0.00000E+00
 -1      3423 1.19565E+01 3.12931E+01 0.00000E+00
 -1      3424 1.35210E+01 3.17300E+01 0.00000E+00
 -1      3425 1.19565E+01 2.98244E+01 0.00000E+00
 -1      3426 9.99619E+01 1.92650E+01 0.00000E+00
 -1      3427 1.03997E+02 3.31791E+01 0.00000E+00
 -1      3428 1.14150E+02 3.74740E+01 0.00000E+00
 -1      3429 2.34000E+01 3.57110E+01 0.00000E+00
 -1      3430 2.49000E+01 3.57110E+01 0.00000E+00
 -1      3431 2.64000E+01 3.57110E+01 0.00000E+00
 -1      3432 2.79000E+01 3.57110E+01 0.00000E+00
 -1      3433 2.56500E+01 3.44120E+01 0.00000E+00
 -1      3434 2.94000E+01 3.57110E+01 0.00000E+00
 -1      3435 3.09000E+01 3.57110E+01 0.00000E+00
 -1      3436 2.86500E+01 3.44120E+01 0.00000E+00
 -1      3437 3.24000E+01 3.57110E+01 0.00000E+00
 -1      3438 3.39000E+01 3.57110E+01 0.00000E+00
 -1      3439 3.16500E+01 3.44120E+01 0.00000E+00
 -1      3440 3.54000E+01 3.57110E+01 0.00000E+00
 -1      3441 3.69000E+01 3.57110E+01 0.00000E+00
 -1      3442 3.46500E+01 3.44120E+01 0.00000E+00
 -1      3443 3.84000E+01 3.57110E+01 0.00000E+00
 -1      3444 3.99000E+01 3.57110E+01 0.00000E+00
 -1      3445 3.76500E+01 3.44120E+01 0.00000E+00
 -1      3446 4.14000E+01 3.57110E+01 0.00000E+00
 -1      3447 4.29000E+01 3.57110E+01 0.00000E+00
 -1      3448 4.06500E+01 3.44120E+01 0.00000E+00
 -1      3449 4.44000E+01 3.57110E+01 0.00000E+00
 -1      3450 4.59000E+01 3.57110E+01 0.00000E+00
 -1      3451 4.36500E+01 3.44120E+01 0.00000E+00
 -1      3452 4.74000E+01 3.57110E+01 0.00000E+00
 -1      3453 4.89000E+01 3.57110E+01 0.00000E+00
 -1      3454 4.66500E+01 3.44120E+01 0.00000E+00
 -1      3455 5.04000E+01 3.57110E+01 0.00000E+00
 -1      3456 5.19000E+01 3.57110E+01 0.00000E+00
 -1      3457 4.96500E+01 3.44120E+01 0.00000E+00
 -1      3458 5.34000E+01 3.57110E+01 0.00000E+00
 -1      3459 5.49000E+01 3.57110E+01 0.00000E+00
 -1      3460 5.26500E+01 3.44120E+01 0.00000E+00
 -1      3461 5.64000E+01 3.57110E+01 0.00000E+00
 -1      3462 5.79000E+01 3.57110E+01 0.00000E+00
 -1      3463 5.56500E+01 3.44120E+01 0.00000E+00
 -1      3464 5.94000E+01 3.57110E+01 0.00000E+00
 -1      3465 6.09000E+01 3.57110E+01 0.00000E+00
 -1      3466 5.86500E+01 3.44120E+01 0.00000E+00
 -1      3467 6.24000E+01 3.57110E+01 0.00000E+00
 -1      3468 6.39000E+01 3.57110E+01 0.00000E+00
 -1      3469 6.16500E+01 3.44120E+01 0.00000E+00
 -1      3470 6.54000E+01 3.57110E+01 0.00000E+00
 -1      3471 6.69000E+01 3.57110E+01 0.00000E+00
 -1      3472 6.46500E+01 3.44120E+01 0.00000E+00
 -1      3473 6.84000E+01 3.57110E+01 0.00000E+00
 -1      3474 6.99000E+01 3.57110E+01 0.00000E+00
 -1      3475 6.76500E+01 3.44120E+01 0.00000E+00
 -1      3476 7.14000E+01 3.57110E+01 0.00000E+00
 -1      3477 7.29000E+01 3.57110E+01 0.00000E+00
 -1      3478 7.06500E+01 3.44120E+01 0.00000E+00
 -1      3479 7.44000E+01 3.57110E+01 0.00000E+00
 -1      3480 7.59000E+01 3.57110E+01 0.00000E+00
 -1      3481 7.36500E+01 3.44120E+01 0.00000E+00
 -1      3482 7.74000E+01 3.57110E+01 0.00000E+00
 -1      3483 7.89000E+01 3.57110E+01 0.00000E+00
 -1      3484 7.66500E+01 3.44120E+01 0.00000E+00
 -1      3485 8.04000E+01 3.57110E+01 0.00000E+00
 -1      3486 8.19000E+01 3.57110E+01 0.00000E+00
 -1      3487 7.96500E+01 3.44120E+01 0.00000E+00
 -1      3488 8.34000E+01 3.57110E+01 0.00000E+00
 -1      3489 8.49000E+01 3.57110E+01 0.00000E+00
 -1      3490 8.26500E+01 3.44120E+01 0.00000E+00
 -1      3491 8.64000E+01 3.57110E+01 0.00000E+00
 -1      3492 8.79000E+01 3.57110E+01 0.00000E+00
 -1      3493 8.56500E+01 3.44120E+01 0.00000E+00
 -1      3494 8.94000E+01 3.57110E+01 0.00000E+00
 -1      3495 9.09000E+01 3.57110E+01 0.00000E+00
 -1      3496 8.86500E+01 3.44120E+01 0.00000E+00
 -1      3497 9.24000E+01 3.57110E+01 0.00000E+00
 -1      3498 9.39000E+01 3.57110E+01 0.00000E+00
 -1      3499 9.16500E+01 3.44120E+01 0.00000E+00
 -1      3500 9.54000E+01 3.57110E+01 0.00000E+00
 -1      3501 9.69000E+01 3.57110E+01 0.00000E+00
 -1      3502 9.46500E+01 3.44120E+01 0.00000E+00
 -1      3503 9.84000E+01 3.57110E+01 0.00000E+00
 -1      3504 9.99000E+01 3.57110E+01 0.00000E+00
 -1      3505 9.76500E+01 3.44120E+01 0.00000E+00
 -1      3506 1.20063E+02 3.58624E+01 0.00000E+00
 -1      3507 1.08806E+02 3.67095E+01 0.00000E+00
 -1      3508 1.35711E+02 3.01625E+01 0.00000E+00
 -1      3509 1.35711E+02 2.86875E+01 0.00000E+00
 -1      3510 1.28400E+02 3.57110E+01 0.00000E+00
 -1      3511 1.29900E+02 3.57110E+01 0.00000E+00
 -1      3512 1.31400E+02 3.57110E+01 0.00000E+00
 -1      3513 1.32900E+02 3.57110E+01 0.00000E+00
 -1      3514 1.30650E+02 3.44120E+01 0.00000E+00
 -1      3515 1.74000E+01 3.57110E+01 0.00000E+00
 -1      3516 1.89000E+01 3.57110E+01 0.00000E+00
 -1      3517 4.52850E+01 1.30992E+01 0.00000E+00
 -1      3518 4.37850E+01 1.30992E+01 0.00000E+00
 -1      3519 4.22850E+01 1.30992E+01 0.00000E+00
 -1      3520 4.07850E+01 1.30992E+01 0.00000E+00
 -1      3521 4.30350E+01 1.43982E+01 0.00000E+00
 -1      3522 5.12850E+01 1.30992E+01 0.00000E+00
 -1      3523 4.97850E+01 1.30992E+01 0.00000E+00
 -1      3524 5.42850E+01 1.30992E+01 0.00000E+00
 -1      3525 5.27850E+01 1.30992E+01 0.00000E+00
 -1      3526 5.20350E+01 1.43982E+01 0.00000E+00
 -1      3527 5.72850E+01 1.30992E+01 0.00000E+00
 -1      3528 5.57850E+01 1.30992E+01 0.00000E+00
 -1      3529 5.50350E+01 1.43982E+01 0.00000E+00
 -1      3530 6.02850E+01 1.30992E+01 0.00000E+00
 -1      3531 5.87850E+01 1.30992E+01 0.00000E+00
 -1      3532 5.80350E+01 1.43982E+01 0.00000E+00
 -1      3533 6.32850E+01 1.30992E+01 0.00000E+00
 -1      3534 6.17850E+01 1.30992E+01 0.00000E+00
 -1      3535 6.10350E+01 1.43982E+01 0.00000E+00
 -1      3536 6.62850E+01 1.30992E+01 0.00000E+00
 -1      3537 6.47850E+01 1.30992E+01 0.00000E+00
 -1      3538 6.40350E+01 1.43982E+01 0.00000E+00
 -1      3539 6.92850E+01 1.30992E+01 0.00000E+00
 -1      3540 6.77850E+01 1.30992E+01 0.00000E+00
 -1      3541 6.70350E+01 1.43982E+01 0.00000E+00
 -1      3542 7.22850E+01 1.30992E+01 0.00000E+00
 -1      3543 7.07850E+01 1.30992E+01 0.00000E+00
 -1      3544 7.00350E+01 1.43982E+01 0.00000E+00
 -1      3545 7.52850E+01 1.30992E+01 0.00000E+00
 -1      3546 7.37850E+01 1.30992E+01 0.00000E+00
 -1      3547 7.30350E+01 1.43982E+01 0.00000E+00
 -1      3548 7.82850E+01 1.30992E+01 0.00000E+00
 -1      3549 7.67850E+01 1.30992E+01 0.00000E+00
 -1      3550 7.60350E+01 1.43982E+01 0.00000E+00
 -1      3551 8.12850E+01 1.30992E+01 0.00000E+00
 -1      3552 7.97850E+01 1.30992E+01 0.00000E+00
 -1      3553 7.90350E+01 1.43982E+01 0.00000E+00
 -1      3554 8.42850E+01 1.30992E+01 0.00000E+00
 -1      3555 8.27850E+01 1.30992E+01 0.00000E+00
 -1      3556 8.20350E+01 1.43982E+01 0.00000E+00
 -1      3557 8.72850E+01 1.30992E+01 0.00000E+00
 -1      3558 8.57850E+01 1.30992E+01 0.00000E+00
 -1      3559 8.50350E+01 1.43982E+01 0.00000E+00
 -1      3560 9.02850E+01 1.30992E+01 0.00000E+00
 -1      3561 8.87850E+01 1.30992E+01 0.00000E+00
 -1      3562 8.80350E+01 1.43982E+01 0.00000E+00
 -1      3563 9.32850E+01 1.30992E+01 0.00000E+00
 -1      3564 9.17850E+01 1.30992E+01 0.00000E+00
 -1      3565 9.10350E+01 1.43982E+01 0.00000E+00
 -1      3566 9.62850E+01 1.30992E+01 0.00000E+00
 -1      3567 9.47850E+01 1.30992E+01 0.00000E+00
 -1      3568 9.40350E+01 1.43982E+01 0.00000E+00
 -1      3569 9.92850E+01 1.30992E+01 0.00000E+00
 -1      3570 9.77850E+01 1.30992E+01 0.00000E+00
 -1      3571 9.70350E+01 1.43982E+01 0.00000E+00
 -1      3572 1.32285E+02 1.28866E+01 0.00000E+00
 -1      3573 1.30785E+02 1.28866E+01 0.00000E+00
 -1      3574 1.29021E+02 1.32079E+01 0.00000E+00
 -1      3575 1.35711E+02 2.72125E+01 0.00000E+00
 -1      3576 1.35711E+02 2.57375E+01 0.00000E+00
 -1      3577 1.34412E+02 2.79500E+01 0.00000E+00
 -1      3578 2.42850E+01 1.30992E+01 0.00000E+00
 -1      3579 2.27850E+01 1.30992E+01 0.00000E+00
 -1      3580 1.00629E+02 1.35098E+01 0.00000E+00
 -1      3581 1.29243E+02 2.45004E+01 0.00000E+00
 -1      3582 1.28896E+02 2.58677E+01 0.00000E+00
 -1      3583 1.00120E+02 2.94281E+01 0.00000E+00
 -1      3584 9.96693E+01 2.80891E+01 0.00000E+00
 -1      3585 9.87829E+01 2.29132E+01 0.00000E+00
 -1      3586 9.88135E+01 2.16045E+01 0.00000E+00
 -1      3587 1.26042E+02 3.36414E+01 0.00000E+00
 -1      3588 1.24944E+02 3.46252E+01 0.00000E+00
 -1      3589 2.12850E+01 1.30992E+01 0.00000E+00
 -1      3590 1.97850E+01 1.30992E+01 0.00000E+00
 -1      3591 2.20350E+01 1.43982E+01 0.00000E+00
 -1      3592 1.18237E+01 2.70341E+01 0.00000E+00
 -1      3593 1.18237E+01 2.85028E+01 0.00000E+00
 -1      3594 1.33883E+01 2.89397E+01 0.00000E+00
 -1      3595 1.31228E+01 2.62966E+01 0.00000E+00
 -1      3596 3.32850E+01 1.30992E+01 0.00000E+00
 -1      3597 3.17850E+01 1.30992E+01 0.00000E+00
 -1      3598 1.29364E+02 1.51736E+01 0.00000E+00
 -1      3599 1.29796E+02 1.65703E+01 0.00000E+00
 -1      3600 9.98791E+01 1.48088E+01 0.00000E+00
 -1      3601 2.04000E+01 3.57110E+01 0.00000E+00
 -1      3602 2.19000E+01 3.57110E+01 0.00000E+00
 -1      3603 2.26500E+01 3.44120E+01 0.00000E+00
 -1      3604 9.86807E+01 1.99853E+01 0.00000E+00
 -1      3605 9.88727E+01 1.82781E+01 0.00000E+00
 -1      3606 4.82850E+01 1.30992E+01 0.00000E+00
 -1      3607 4.67850E+01 1.30992E+01 0.00000E+00
 -1      3608 4.60350E+01 1.43982E+01 0.00000E+00
 -1      3609 4.90350E+01 1.43982E+01 0.00000E+00
 -1      3610 9.93445E+01 1.59780E+01 0.00000E+00
 -1      3611 1.28116E+02 3.09296E+01 0.00000E+00
 -1      3612 1.27230E+02 3.22585E+01 0.00000E+00
 -1      3613 1.25470E+02 3.60157E+01 0.00000E+00
 -1      3614 1.26970E+02 3.60157E+01 0.00000E+00
 -1      3615 1.01315E+02 3.19885E+01 0.00000E+00
 -1      3616 1.00678E+02 3.09174E+01 0.00000E+00
 -1      3617 1.35711E+02 3.31125E+01 0.00000E+00
 -1      3618 1.35711E+02 3.16375E+01 0.00000E+00
 -1      3619 1.34412E+02 3.09000E+01 0.00000E+00
 -1      3620 1.03753E+02 3.46580E+01 0.00000E+00
 -1      3621 1.02507E+02 3.33385E+01 0.00000E+00
 -1      3622 1.30070E+02 1.81143E+01 0.00000E+00
 -1      3623 1.30271E+02 1.94337E+01 0.00000E+00
 -1      3624 1.30711E+02 2.02745E+01 0.00000E+00
 -1      3625 1.31152E+02 2.11152E+01 0.00000E+00
 -1      3626 1.31707E+02 1.94477E+01 0.00000E+00
 -1      3627 9.80632E+01 1.66983E+01 0.00000E+00
 -1      3628 1.00707E+02 3.46147E+01 0.00000E+00
 -1      3629 1.01457E+02 3.59137E+01 0.00000E+00
 -1      3630 1.02957E+02 3.59137E+01 0.00000E+00
 -1      3631 1.04447E+02 3.57543E+01 0.00000E+00
 -1      3632 1.05947E+02 3.57543E+01 0.00000E+00
 -1      3633 9.81975E+01 2.39396E+01 0.00000E+00
 -1      3634 9.72717E+01 2.32632E+01 0.00000E+00
 -1      3635 9.76121E+01 2.49660E+01 0.00000E+00
 -1      3636 1.27720E+02 3.47167E+01 0.00000E+00
 -1      3637 1.01072E+02 3.34674E+01 0.00000E+00
 -1      3638 1.96500E+01 3.44120E+01 0.00000E+00
 -1      3639 1.34022E+02 3.59933E+01 0.00000E+00
 -1      3640 1.35329E+02 3.61043E+01 0.00000E+00
 -1      3641 1.35515E+02 3.52588E+01 0.00000E+00
 -1      3642 1.33272E+02 3.46942E+01 0.00000E+00
 -1      3643 1.07306E+02 3.65194E+01 0.00000E+00
 -1      3644 4.00350E+01 1.43982E+01 0.00000E+00
 -1      3645 3.92850E+01 1.30992E+01 0.00000E+00
 -1      3646 3.77850E+01 1.30992E+01 0.00000E+00
 -1      3647 1.33453E+02 1.32205E+01 0.00000E+00
 -1      3648 1.32703E+02 1.45195E+01 0.00000E+00
 -1      3649 1.34620E+02 1.35543E+01 0.00000E+00
 -1      3650 1.42890E+01 2.27625E+01 0.00000E+00
 -1      3651 1.42890E+01 2.42375E+01 0.00000E+00
 -1      3652 1.46944E+01 1.23503E+01 0.00000E+00
 -1      3653 1.43081E+01 1.33498E+01 0.00000E+00
 -1      3654 1.60125E+01 1.25001E+01 0.00000E+00
 -1      3655 1.29771E+02 1.45069E+01 0.00000E+00
 -1      3656 2.57850E+01 1.30992E+01 0.00000E+00
 -1      3657 2.50350E+01 1.43982E+01 0.00000E+00
 -1      3658 2.72850E+01 1.30992E+01 0.00000E+00
 -1      3659 1.29710E+02 2.97157E+01 0.00000E+00
 -1      3660 1.28913E+02 3.03227E+01 0.00000E+00
 -1      3661 1.29462E+02 3.16487E+01 0.00000E+00
 -1      3662 1.35746E+02 1.84243E+01 0.00000E+00
 -1      3663 1.35811E+02 1.71574E+01 0.00000E+00
 -1      3664 1.30993E+02 1.70630E+01 0.00000E+00
 -1      3665 1.35711E+02 2.42687E+01 0.00000E+00
 -1      3666 1.35711E+02 2.28000E+01 0.00000E+00
 -1      3667 1.34412E+02 2.50063E+01 0.00000E+00
 -1      3668 1.30150E+02 2.36992E+01 0.00000E+00
 -1      3669 1.35728E+02 2.13465E+01 0.00000E+00
 -1      3670 1.35728E+02 1.98778E+01 0.00000E+00
 -1      3671 1.34464E+02 1.91771E+01 0.00000E+00
 -1      3672 1.34429E+02 2.20840E+01 0.00000E+00
 -1      3673 3.02850E+01 1.30992E+01 0.00000E+00
 -1      3674 2.87850E+01 1.30992E+01 0.00000E+00
 -1      3675 3.10350E+01 1.43982E+01 0.00000E+00
 -1      3676 9.86509E+01 2.73906E+01 0.00000E+00
 -1      3677 9.77243E+01 2.06176E+01 0.00000E+00
 -1      3678 1.24125E+02 3.56194E+01 0.00000E+00
 -1      3679 1.90350E+01 1.43983E+01 0.00000E+00
 -1      3680 1.82850E+01 1.30993E+01 0.00000E+00
 -1      3681 1.22625E+02 3.56194E+01 0.00000E+00
 -1      3682 1.27477E+02 3.36385E+01 0.00000E+00
 -1      3683 1.29653E+02 2.69230E+01 0.00000E+00
 -1      3684 1.43081E+01 1.48185E+01 0.00000E+00
 -1      3685 3.47850E+01 1.30992E+01 0.00000E+00
 -1      3686 3.40350E+01 1.43982E+01 0.00000E+00
 -1      3687 3.62850E+01 1.30992E+01 0.00000E+00
 -1      3688 9.93221E+01 3.06281E+01 0.00000E+00
 -1      3689 1.35702E+02 3.44132E+01 0.00000E+00
 -1      3690 1.46783E+01 3.49708E+01 0.00000E+00
 -1      3691 1.62428E+01 3.54077E+01 0.00000E+00
 -1      3692 1.69928E+01 3.41087E+01 0.00000E+00
 -1      3693 1.46783E+01 3.35021E+01 0.00000E+00
 -1      3694 1.34403E+02 3.36758E+01 0.00000E+00
 -1      3695 1.42890E+01 1.98188E+01 0.00000E+00
 -1      3696 1.42890E+01 2.12906E+01 0.00000E+00
 -1      3697 1.55880E+01 2.20281E+01 0.00000E+00
 -1      3698 1.69669E+01 1.29495E+01 0.00000E+00
 -1      3699 1.46783E+01 3.05646E+01 0.00000E+00
 -1      3700 1.46783E+01 3.20333E+01 0.00000E+00
 -1      3701 1.58355E+01 3.23366E+01 0.00000E+00
 -1      3702 9.95151E+01 3.32647E+01 0.00000E+00
 -1      3703 2.79000E+01 3.31130E+01 0.00000E+00
 -1      3704 2.94000E+01 3.31130E+01 0.00000E+00
 -1      3705 3.09000E+01 3.31130E+01 0.00000E+00
 -1      3706 3.24000E+01 3.31130E+01 0.00000E+00
 -1      3707 3.01500E+01 3.18140E+01 0.00000E+00
 -1      3708 3.39000E+01 3.31130E+01 0.00000E+00
 -1      3709 3.54000E+01 3.31130E+01 0.00000E+00
 -1      3710 3.31500E+01 3.18140E+01 0.00000E+00
 -1      3711 3.69000E+01 3.31130E+01 0.00000E+00
 -1      3712 3.84000E+01 3.31130E+01 0.00000E+00
 -1      3713 3.61500E+01 3.18140E+01 0.00000E+00
 -1      3714 3.99000E+01 3.31130E+01 0.00000E+00
 -1      3715 4.14000E+01 3.31130E+01 0.00000E+00
 -1      3716 3.91500E+01 3.18140E+01 0.00000E+00
 -1      3717 4.29000E+01 3.31130E+01 0.00000E+00
 -1      3718 4.44000E+01 3.31130E+01 0.00000E+00
 -1      3719 4.21500E+01 3.18140E+01 0.00000E+00
 -1      3720 4.59000E+01 3.31130E+01 0.00000E+00
 -1      3721 4.74000E+01 3.31130E+01 0.00000E+00
 -1      3722 4.51500E+01 3.18140E+01 0.00000E+00
 -1      3723 4.89000E+01 3.31130E+01 0.00000E+00
 -1      3724 5.04000E+01 3.31130E+01 0.00000E+00
 -1      3725 4.81500E+01 3.18140E+01 0.00000E+00
 -1      3726 5.19000E+01 3.31130E+01 0.00000E+00
 -1      3727 5.34000E+01 3.31130E+01 0.00000E+00
 -1      3728 5.11500E+01 3.18140E+01 0.00000E+00
 -1      3729 5.49000E+01 3.31130E+01 0.00000E+00
 -1      3730 5.64000E+01 3.31130E+01 0.00000E+00
 -1      3731 5.41500E+01 3.18140E+01 0.00000E+00
 -1      3732 5.79000E+01 3.31130E+01 0.00000E+00
 -1      3733 5.94000E+01 3.31130E+01 0.00000E+00
 -1      3734 5.71500E+01 3.18140E+01 0.00000E+00
 -1      3735 6.09000E+01 3.31130E+01 0.00000E+00
 -1      3736 6.24000E+01 3.31130E+01 0.00000E+00
 -1      3737 6.01500E+01 3.18140E+01 0.00000E+00
 -1      3738 6.39000E+01 3.31130E+01 0.00000E+00
 -1      3739 6.54000E+01 3.31130E+01 0.00000E+00
 -1      3740 6.31500E+01 3.18140E+01 0.00000E+00
 -1      3741 6.69000E+01 3.31130E+01 0.00000E+00
 -1      3742 6.84000E+01 3.31130E+01 0.00000E+00
 -1      3743 6.61500E+01 3.18140E+01 0.00000E+00
 -1      3744 6.99000E+01 3.31130E+01 0.00000E+00
 -1      3745 7.14000E+01 3.31130E+01 0.00000E+00
 -1      3746 6.91500E+01 3.18140E+01 0.00000E+00
 -1      3747 7.29000E+01 3.31130E+01 0.00000E+00
 -1      3748 7.44000E+01 3.31130E+01 0.00000E+00
 -1      3749 7.21500E+01 3.18140E+01 0.00000E+00
 -1      3750 7.59000E+01 3.31130E+01 0.00000E+00
 -1      3751 7.74000E+01 3.31130E+01 0.00000E+00
 -1      3752 7.51500E+01 3.18140E+01 0.00000E+00
 -1      3753 7.89000E+01 3.31130E+01 0.00000E+00
 -1      3754 8.04000E+01 3.31130E+01 0.00000E+00
 -1      3755 7.81500E+01 3.18140E+01 0.00000E+00
 -1      3756 8.19000E+01 3.31130E+01 0.00000E+00
 -1      3757 8.34000E+01 3.31130E+01 0.00000E+00
 -1      3758 8.11500E+01 3.18140E+01 0.00000E+00
 -1      3759 8.49000E+01 3.31130E+01 0.00000E+00
 -1      3760 8.64000E+01 3.31130E+01 0.00000E+00
 -1      3761 8.41500E+01 3.18140E+01 0.00000E+00
 -1      3762 8.79000E+01 3.31130E+01 0.00000E+00
 -1      3763 8.94000E+01 3.31130E+01 0.00000E+00
 -1      3764 8.71500E+01 3.18140E+01 0.00000E+00
 -1      3765 9.09000E+01 3.31130E+01 0.00000E+00
 -1      3766 9.24000E+01 3.31130E+01 0.00000E+00
 -1      3767 9.01500E+01 3.18140E+01 0.00000E+00
 -1      3768 9.39000E+01 3.31130E+01 0.00000E+00
 -1      3769 9.54000E+01 3.31130E+01 0.00000E+00
 -1      3770 9.31500E+01 3.18140E+01 0.00000E+00
 -1      3771 9.67076E+01 3.31888E+01 0.00000E+00
 -1      3772 9.82076E+01 3.31888E+01 0.00000E+00
 -1      3773 9.85727E+01 3.20415E+01 0.00000E+00
 -1      3774 9.59576E+01 3.18898E+01 0.00000E+00
 -1      3775 1.28908E+02 3.33338E+01 0.00000E+00
 -1      3776 1.33281E+02 3.33935E+01 0.00000E+00
 -1      3777 1.65807E+01 1.39489E+01 0.00000E+00
 -1      3778 5.57850E+01 1.56973E+01 0.00000E+00
 -1      3779 5.42850E+01 1.56973E+01 0.00000E+00
 -1      3780 5.27850E+01 1.56973E+01 0.00000E+00
 -1      3781 5.12850E+01 1.56973E+01 0.00000E+00
 -1      3782 5.35350E+01 1.69963E+01 0.00000E+00
 -1      3783 6.17850E+01 1.56973E+01 0.00000E+00
 -1      3784 6.02850E+01 1.56973E+01 0.00000E+00
 -1      3785 6.47850E+01 1.56973E+01 0.00000E+00
 -1      3786 6.32850E+01 1.56973E+01 0.00000E+00
 -1      3787 6.25350E+01 1.69963E+01 0.00000E+00
 -1      3788 6.77850E+01 1.56973E+01 0.00000E+00
 -1      3789 6.62850E+01 1.56973E+01 0.00000E+00
 -1      3790 6.55350E+01 1.69963E+01 0.00000E+00
 -1      3791 7.07850E+01 1.56973E+01 0.00000E+00
 -1      3792 6.92850E+01 1.56973E+01 0.00000E+00
 -1      3793 6.85350E+01 1.69963E+01 0.00000E+00
 -1      3794 7.37850E+01 1.56973E+01 0.00000E+00
 -1      3795 7.22850E+01 1.56973E+01 0.00000E+00
 -1      3796 7.15350E+01 1.69963E+01 0.00000E+00
 -1      3797 7.67850E+01 1.56973E+01 0.00000E+00
 -1      3798 7.52850E+01 1.56973E+01 0.00000E+00
 -1      3799 7.45350E+01 1.69963E+01 0.00000E+00
 -1      3800 7.97850E+01 1.56973E+01 0.00000E+00
 -1      3801 7.82850E+01 1.56973E+01 0.00000E+00
 -1      3802 7.75350E+01 1.69963E+01 0.00000E+00
 -1      3803 8.27850E+01 1.56973E+01 0.00000E+00
 -1      3804 8.12850E+01 1.56973E+01 0.00000E+00
 -1      3805 8.05350E+01 1.69963E+01 0.00000E+00
 -1      3806 8.57850E+01 1.56973E+01 0.00000E+00
 -1      3807 8.42850E+01 1.56973E+01 0.00000E+00
 -1      3808 8.35350E+01 1.69963E+01 0.00000E+00
 -1      3809 8.87850E+01 1.56973E+01 0.00000E+00
 -1      3810 8.72850E+01 1.56973E+01 0.00000E+00
 -1      3811 8.65350E+01 1.69963E+01 0.00000E+00
 -1      3812 9.17850E+01 1.56973E+01 0.00000E+00
 -1      3813 9.02850E+01 1.56973E+01 0.00000E+00
 -1      3814 8.95350E+01 1.69963E+01 0.00000E+00
 -1      3815 9.47850E+01 1.56973E+01 0.00000E+00
 -1      3816 9.32850E+01 1.56973E+01 0.00000E+00
 -1      3817 9.25350E+01 1.69963E+01 0.00000E+00
 -1      3818 9.65632E+01 1.66983E+01 0.00000E+00
 -1      3819 2.19000E+01 3.31130E+01 0.00000E+00
 -1      3820 2.34000E+01 3.31130E+01 0.00000E+00
 -1      3821 1.36322E+02 1.31563E+01 0.00000E+00
 -1      3822 1.33136E+02 2.86875E+01 0.00000E+00
 -1      3823 1.33136E+02 2.72125E+01 0.00000E+00
 -1      3824 1.69928E+01 3.26399E+01 0.00000E+00
 -1      3825 1.81500E+01 3.29432E+01 0.00000E+00
 -1      3826 1.69928E+01 3.11712E+01 0.00000E+00
 -1      3827 1.32600E+02 1.66214E+01 0.00000E+00
 -1      3828 1.32874E+02 1.81653E+01 0.00000E+00
 -1      3829 1.31178E+02 2.28238E+01 0.00000E+00
 -1      3830 1.31173E+02 2.45810E+01 0.00000E+00
 -1      3831 1.97850E+01 1.56973E+01 0.00000E+00
 -1      3832 1.82851E+01 1.56973E+01 0.00000E+00
 -1      3833 9.66020E+01 2.15247E+01 0.00000E+00
 -1      3834 9.64692E+01 1.99055E+01 0.00000E+00
 -1      3835 1.31965E+02 3.31652E+01 0.00000E+00
 -1      3836 1.33096E+02 3.21468E+01 0.00000E+00
 -1      3837 1.33096E+02 3.06717E+01 0.00000E+00
 -1      3838 1.30465E+02 3.31652E+01 0.00000E+00
 -1      3839 1.54444E+01 1.51197E+01 0.00000E+00
 -1      3840 1.41263E+01 1.64386E+01 0.00000E+00
 -1      3841 1.41263E+01 1.79105E+01 0.00000E+00
 -1      3842 1.63988E+01 1.55690E+01 0.00000E+00
 -1      3843 1.57207E+01 2.48216E+01 0.00000E+00
 -1      3844 1.44218E+01 2.55591E+01 0.00000E+00
 -1      3845 1.45545E+01 2.68806E+01 0.00000E+00
 -1      3846 1.31002E+02 2.67032E+01 0.00000E+00
 -1      3847 1.30510E+02 2.81699E+01 0.00000E+00
 -1      3848 1.92750E+01 3.30281E+01 0.00000E+00
 -1      3849 2.07750E+01 3.30281E+01 0.00000E+00
 -1      3850 2.15250E+01 3.17291E+01 0.00000E+00
 -1      3851 1.92750E+01 3.15594E+01 0.00000E+00
 -1      3852 1.34176E+02 1.62885E+01 0.00000E+00
 -1      3853 1.35506E+02 1.57222E+01 0.00000E+00
 -1      3854 1.30223E+02 3.20871E+01 0.00000E+00
 -1      3855 5.87850E+01 1.56973E+01 0.00000E+00
 -1      3856 5.72850E+01 1.56973E+01 0.00000E+00
 -1      3857 5.95350E+01 1.69963E+01 0.00000E+00
 -1      3858 2.49000E+01 3.31130E+01 0.00000E+00
 -1      3859 2.64000E+01 3.31130E+01 0.00000E+00
 -1      3860 2.41500E+01 3.18140E+01 0.00000E+00
 -1      3861 2.27850E+01 1.56973E+01 0.00000E+00
 -1      3862 2.12850E+01 1.56973E+01 0.00000E+00
 -1      3863 2.05351E+01 1.69963E+01 0.00000E+00
 -1      3864 1.33314E+02 1.90061E+01 0.00000E+00
 -1      3865 9.76008E+01 2.83362E+01 0.00000E+00
 -1      3866 9.74878E+01 2.65880E+01 0.00000E+00
 -1      3867 4.37850E+01 1.56973E+01 0.00000E+00
 -1      3868 4.22850E+01 1.56973E+01 0.00000E+00
 -1      3869 9.80145E+01 3.05522E+01 0.00000E+00
 -1      3870 9.58132E+01 1.79973E+01 0.00000E+00
 -1      3871 1.35572E+02 1.44553E+01 0.00000E+00
 -1      3872 9.65620E+01 2.59117E+01 0.00000E+00
 -1      3873 2.71500E+01 3.18140E+01 0.00000E+00
 -1      3874 9.46909E+01 1.89044E+01 0.00000E+00
 -1      3875 1.54253E+01 1.86480E+01 0.00000E+00
 -1      3876 9.60166E+01 2.25511E+01 0.00000E+00
 -1      3877 1.68870E+01 2.12922E+01 0.00000E+00
 -1      3878 1.68870E+01 2.27641E+01 0.00000E+00
 -1      3879 5.65350E+01 1.69963E+01 0.00000E+00
 -1      3880 5.05350E+01 1.69963E+01 0.00000E+00
 -1      3881 4.97850E+01 1.56973E+01 0.00000E+00
 -1      3882 4.82850E+01 1.56973E+01 0.00000E+00
 -1      3883 2.57850E+01 1.56973E+01 0.00000E+00
 -1      3884 2.42850E+01 1.56973E+01 0.00000E+00
 -1      3885 2.35351E+01 1.69963E+01 0.00000E+00
 -1      3886 3.47850E+01 1.56973E+01 0.00000E+00
 -1      3887 3.32850E+01 1.56973E+01 0.00000E+00
 -1      3888 2.80350E+01 1.43982E+01 0.00000E+00
 -1      3889 1.31820E+02 2.99342E+01 0.00000E+00
 -1      3890 1.32030E+02 2.58278E+01 0.00000E+00
 -1      3891 1.33306E+02 2.50903E+01 0.00000E+00
 -1      3892 1.32295E+02 1.51862E+01 0.00000E+00
 -1      3893 1.83188E+01 2.33497E+01 0.00000E+00
 -1      3894 1.70198E+01 2.40856E+01 0.00000E+00
 -1      3895 1.71525E+01 2.54072E+01 0.00000E+00
 -1      3896 1.33297E+02 2.04595E+01 0.00000E+00
 -1      3897 1.33306E+02 2.36216E+01 0.00000E+00
 -1      3898 1.71488E+01 1.68680E+01 0.00000E+00
 -1      3899 3.17850E+01 1.56973E+01 0.00000E+00
 -1      3900 3.02850E+01 1.56973E+01 0.00000E+00
 -1      3901 3.25350E+01 1.69963E+01 0.00000E+00
 -1      3902 1.31127E+02 1.48524E+01 0.00000E+00
 -1      3903 3.70350E+01 1.43982E+01 0.00000E+00
 -1      3904 1.21164E+02 3.61955E+01 0.00000E+00
 -1      3905 4.67850E+01 1.56973E+01 0.00000E+00
 -1      3906 4.52850E+01 1.56973E+01 0.00000E+00
 -1      3907 4.75350E+01 1.69963E+01 0.00000E+00
 -1      3908 1.32174E+02 2.19971E+01 0.00000E+00
 -1      3909 4.07850E+01 1.56973E+01 0.00000E+00
 -1      3910 3.92850E+01 1.56973E+01 0.00000E+00
 -1      3911 4.15350E+01 1.69963E+01 0.00000E+00
 -1      3912 1.45500E+01 2.80618E+01 0.00000E+00
 -1      3913 1.46827E+01 2.93834E+01 0.00000E+00
 -1      3914 1.58400E+01 2.96867E+01 0.00000E+00
 -1      3915 1.58490E+01 2.73243E+01 0.00000E+00
 -1      3916 4.45350E+01 1.69963E+01 0.00000E+00
 -1      3917 9.68514E+01 2.97497E+01 0.00000E+00
 -1      3918 3.24000E+01 3.05150E+01 0.00000E+00
 -1      3919 3.39000E+01 3.05150E+01 0.00000E+00
 -1      3920 3.54000E+01 3.05150E+01 0.00000E+00
 -1      3921 3.69000E+01 3.05150E+01 0.00000E+00
 -1      3922 3.46500E+01 2.92160E+01 0.00000E+00
 -1      3923 3.84000E+01 3.05150E+01 0.00000E+00
 -1      3924 3.99000E+01 3.05150E+01 0.00000E+00
 -1      3925 3.76500E+01 2.92160E+01 0.00000E+00
 -1      3926 4.14000E+01 3.05150E+01 0.00000E+00
 -1      3927 4.29000E+01 3.05150E+01 0.00000E+00
 -1      3928 4.06500E+01 2.92160E+01 0.00000E+00
 -1      3929 4.44000E+01 3.05150E+01 0.00000E+00
 -1      3930 4.59000E+01 3.05150E+01 0.00000E+00
 -1      3931 4.36500E+01 2.92160E+01 0.00000E+00
 -1      3932 4.74000E+01 3.05150E+01 0.00000E+00
 -1      3933 4.89000E+01 3.05150E+01 0.00000E+00
 -1      3934 4.66500E+01 2.92160E+01 0.00000E+00
 -1      3935 5.04000E+01 3.05150E+01 0.00000E+00
 -1      3936 5.19000E+01 3.05150E+01 0.00000E+00
 -1      3937 4.96500E+01 2.92160E+01 0.00000E+00
 -1      3938 5.34000E+01 3.05150E+01 0.00000E+00
 -1      3939 5.49000E+01 3.05150E+01 0.00000E+00
 -1      3940 5.26500E+01 2.92160E+01 0.00000E+00
 -1      3941 5.64000E+01 3.05150E+01 0.00000E+00
 -1      3942 5.79000E+01 3.05150E+01 0.00000E+00
 -1      3943 5.56500E+01 2.92160E+01 0.00000E+00
 -1      3944 5.94000E+01 3.05150E+01 0.00000E+00
 -1      3945 6.09000E+01 3.05150E+01 0.00000E+00
 -1      3946 5.86500E+01 2.92160E+01 0.00000E+00
 -1      3947 6.24000E+01 3.05150E+01 0.00000E+00
 -1      3948 6.39000E+01 3.05150E+01 0.00000E+00
 -1      3949 6.16500E+01 2.92160E+01 0.00000E+00
 -1      3950 6.54000E+01 3.05150E+01 0.00000E+00
 -1      3951 6.69000E+01 3.05150E+01 0.00000E+00
 -1      3952 6.46500E+01 2.92160E+01 0.00000E+00
 -1      3953 6.84000E+01 3.05150E+01 0.00000E+00
 -1      3954 6.99000E+01 3.05150E+01 0.00000E+00
 -1      3955 6.76500E+01 2.92160E+01 0.00000E+00
 -1      3956 7.14000E+01 3.05150E+01 0.00000E+00
 -1      3957 7.29000E+01 3.05150E+01 0.00000E+00
 -1      3958 7.06500E+01 2.92160E+01 0.00000E+00
 -1      3959 7.44000E+01 3.05150E+01 0.00000E+00
 -1      3960 7.59000E+01 3.05150E+01 0.00000E+00
 -1      3961 7.36500E+01 2.92160E+01 0.00000E+00
 -1      3962 7.74000E+01 3.05150E+01 0.00000E+00
 -1      3963 7.89000E+01 3.05150E+01 0.00000E+00
 -1      3964 7.66500E+01 2.92160E+01 0.00000E+00
 -1      3965 8.04000E+01 3.05150E+01 0.00000E+00
 -1      3966 8.19000E+01 3.05150E+01 0.00000E+00
 -1      3967 7.96500E+01 2.92160E+01 0.00000E+00
 -1      3968 8.34000E+01 3.05150E+01 0.00000E+00
 -1      3969 8.49000E+01 3.05150E+01 0.00000E+00
 -1      3970 8.26500E+01 2.92160E+01 0.00000E+00
 -1      3971 8.64000E+01 3.05150E+01 0.00000E+00
 -1      3972 8.79000E+01 3.05150E+01 0.00000E+00
 -1      3973 8.56500E+01 2.92160E+01 0.00000E+00
 -1      3974 8.94000E+01 3.05150E+01 0.00000E+00
 -1      3975 9.09000E+01 3.05150E+01 0.00000E+00
 -1      3976 8.86500E+01 2.92160E+01 0.00000E+00
 -1      3977 9.24000E+01 3.05150E+01 0.00000E+00
 -1      3978 9.39000E+01 3.05150E+01 0.00000E+00
 -1      3979 9.16500E+01 2.92160E+01 0.00000E+00
 -1      3980 9.55438E+01 2.96738E+01 0.00000E+00
 -1      3981 2.64000E+01 3.05150E+01 0.00000E+00
 -1      3982 2.79000E+01 3.05150E+01 0.00000E+00
 -1      3983 5.72850E+01 1.82952E+01 0.00000E+00
 -1      3984 5.57850E+01 1.82952E+01 0.00000E+00
 -1      3985 6.92850E+01 1.82952E+01 0.00000E+00
 -1      3986 6.77850E+01 1.82952E+01 0.00000E+00
 -1      3987 5.42850E+01 1.82952E+01 0.00000E+00
 -1      3988 5.27850E+01 1.82952E+01 0.00000E+00
 -1      3989 5.50350E+01 1.95942E+01 0.00000E+00
 -1      3990 4.52850E+01 1.82952E+01 0.00000E+00
 -1      3991 4.37850E+01 1.82952E+01 0.00000E+00
 -1      3992 9.52271E+01 2.66251E+01 0.00000E+00
 -1      3993 9.53514E+01 2.50031E+01 0.00000E+00
 -1      3994 6.62850E+01 1.82952E+01 0.00000E+00
 -1      3995 6.47850E+01 1.82952E+01 0.00000E+00
 -1      3996 6.70350E+01 1.95942E+01 0.00000E+00
 -1      3997 6.32850E+01 1.82952E+01 0.00000E+00
 -1      3998 6.17850E+01 1.82952E+01 0.00000E+00
 -1      3999 6.40350E+01 1.95942E+01 0.00000E+00
 -1      4000 7.22850E+01 1.82952E+01 0.00000E+00
 -1      4001 7.07850E+01 1.82952E+01 0.00000E+00
 -1      4002 7.00350E+01 1.95942E+01 0.00000E+00
 -1      4003 7.52850E+01 1.82952E+01 0.00000E+00
 -1      4004 7.37850E+01 1.82952E+01 0.00000E+00
 -1      4005 7.30350E+01 1.95942E+01 0.00000E+00
 -1      4006 7.82850E+01 1.82952E+01 0.00000E+00
 -1      4007 7.67850E+01 1.82952E+01 0.00000E+00
 -1      4008 7.60350E+01 1.95942E+01 0.00000E+00
 -1      4009 8.12850E+01 1.82952E+01 0.00000E+00
 -1      4010 7.97850E+01 1.82952E+01 0.00000E+00
 -1      4011 7.90350E+01 1.95942E+01 0.00000E+00
 -1      4012 8.42850E+01 1.82952E+01 0.00000E+00
 -1      4013 8.27850E+01 1.82952E+01 0.00000E+00
 -1      4014 8.20350E+01 1.95942E+01 0.00000E+00
 -1      4015 8.72850E+01 1.82952E+01 0.00000E+00
 -1      4016 8.57850E+01 1.82952E+01 0.00000E+00
 -1      4017 8.50350E+01 1.95942E+01 0.00000E+00
 -1      4018 9.02850E+01 1.82952E+01 0.00000E+00
 -1      4019 8.87850E+01 1.82952E+01 0.00000E+00
 -1      4020 8.80350E+01 1.95942E+01 0.00000E+00
 -1      4021 9.32380E+01 1.85998E+01 0.00000E+00
 -1      4022 9.17380E+01 1.85998E+01 0.00000E+00
 -1      4023 9.09880E+01 1.98988E+01 0.00000E+00
 -1      4024 9.38939E+01 2.05080E+01 0.00000E+00
 -1      4025 1.69972E+01 2.99900E+01 0.00000E+00
 -1      4026 1.81545E+01 3.02933E+01 0.00000E+00
 -1      4027 1.70018E+01 2.88088E+01 0.00000E+00
 -1      4028 3.62850E+01 1.56973E+01 0.00000E+00
 -1      4029 3.55350E+01 1.69963E+01 0.00000E+00
 -1      4030 3.77850E+01 1.56973E+01 0.00000E+00
 -1      4031 2.87850E+01 1.56973E+01 0.00000E+00
 -1      4032 2.72850E+01 1.56973E+01 0.00000E+00
 -1      4033 2.65350E+01 1.69963E+01 0.00000E+00
 -1      4034 2.95350E+01 1.69963E+01 0.00000E+00
 -1      4035 1.31059E+02 2.94958E+01 0.00000E+00
 -1      4036 1.33323E+02 2.21681E+01 0.00000E+00
 -1      4037 1.73115E+01 1.87763E+01 0.00000E+00
 -1      4038 1.86105E+01 1.95122E+01 0.00000E+00
 -1      4039 6.02850E+01 1.82952E+01 0.00000E+00
 -1      4040 5.87850E+01 1.82952E+01 0.00000E+00
 -1      4041 5.80350E+01 1.95942E+01 0.00000E+00
 -1      4042 2.34000E+01 3.05150E+01 0.00000E+00
 -1      4043 2.49000E+01 3.05150E+01 0.00000E+00
 -1      4044 2.56500E+01 2.92160E+01 0.00000E+00
 -1      4045 9.49575E+01 2.36248E+01 0.00000E+00
 -1      4046 9.42878E+01 2.18863E+01 0.00000E+00
 -1      4047 9.28348E+01 2.15817E+01 0.00000E+00
 -1      4048 9.36226E+01 2.43383E+01 0.00000E+00
 -1      4049 2.16105E+01 1.95122E+01 0.00000E+00
 -1      4050 2.01105E+01 1.95122E+01 0.00000E+00
 -1      4051 1.96860E+01 2.20281E+01 0.00000E+00
 -1      4052 2.94000E+01 3.05150E+01 0.00000E+00
 -1      4053 3.09000E+01 3.05150E+01 0.00000E+00
 -1      4054 3.16500E+01 2.92160E+01 0.00000E+00
 -1      4055 9.47938E+01 2.83748E+01 0.00000E+00
 -1      4056 4.30350E+01 1.95942E+01 0.00000E+00
 -1      4057 4.22850E+01 1.82952E+01 0.00000E+00
 -1      4058 4.07850E+01 1.82952E+01 0.00000E+00
 -1      4059 6.10350E+01 1.95942E+01 0.00000E+00
 -1      4060 5.20350E+01 1.95942E+01 0.00000E+00
 -1      4061 5.12850E+01 1.82952E+01 0.00000E+00
 -1      4062 4.97850E+01 1.82952E+01 0.00000E+00
 -1      4063 4.67850E+01 1.82952E+01 0.00000E+00
 -1      4064 4.60350E+01 1.95942E+01 0.00000E+00
 -1      4065 4.82850E+01 1.82952E+01 0.00000E+00
 -1      4066 3.85350E+01 1.69963E+01 0.00000E+00
 -1      4067 1.92840E+01 2.91970E+01 0.00000E+00
 -1      4068 1.92795E+01 3.03782E+01 0.00000E+00
 -1      4069 2.04045E+01 3.04631E+01 0.00000E+00
 -1      4070 2.46105E+01 1.95122E+01 0.00000E+00
 -1      4071 2.31105E+01 1.95122E+01 0.00000E+00
 -1      4072 2.26860E+01 2.20281E+01 0.00000E+00
 -1      4073 1.98188E+01 2.33497E+01 0.00000E+00
 -1      4074 3.32850E+01 1.82952E+01 0.00000E+00
 -1      4075 3.17850E+01 1.82952E+01 0.00000E+00
 -1      4076 2.86500E+01 2.92160E+01 0.00000E+00
 -1      4077 9.35832E+01 2.74663E+01 0.00000E+00
 -1      4078 1.70794E+01 2.65174E+01 0.00000E+00
 -1      4079 1.70749E+01 2.76986E+01 0.00000E+00
 -1      4080 1.82321E+01 2.80019E+01 0.00000E+00
 -1      4081 1.83784E+01 2.57815E+01 0.00000E+00
 -1      4082 2.15295E+01 3.05479E+01 0.00000E+00
 -1      4083 1.31020E+02 3.14801E+01 0.00000E+00
 -1      4084 2.22795E+01 2.92489E+01 0.00000E+00
 -1      4085 3.62850E+01 1.82952E+01 0.00000E+00
 -1      4086 3.47850E+01 1.82952E+01 0.00000E+00
 -1      4087 3.40350E+01 1.95942E+01 0.00000E+00
 -1      4088 3.69000E+01 2.79170E+01 0.00000E+00
 -1      4089 3.84000E+01 2.79170E+01 0.00000E+00
 -1      4090 3.99000E+01 2.79170E+01 0.00000E+00
 -1      4091 4.14000E+01 2.79170E+01 0.00000E+00
 -1      4092 3.91500E+01 2.66180E+01 0.00000E+00
 -1      4093 4.29000E+01 2.79170E+01 0.00000E+00
 -1      4094 4.44000E+01 2.79170E+01 0.00000E+00
 -1      4095 4.21500E+01 2.66180E+01 0.00000E+00
 -1      4096 4.59000E+01 2.79170E+01 0.00000E+00
 -1      4097 4.74000E+01 2.79170E+01 0.00000E+00
 -1      4098 4.51500E+01 2.66180E+01 0.00000E+00
 -1      4099 4.89000E+01 2.79170E+01 0.00000E+00
 -1      4100 5.04000E+01 2.79170E+01 0.00000E+00
 -1      4101 4.81500E+01 2.66180E+01 0.00000E+00
 -1      4102 5.19000E+01 2.79170E+01 0.00000E+00
 -1      4103 5.34000E+01 2.79170E+01 0.00000E+00
 -1      4104 5.11500E+01 2.66180E+01 0.00000E+00
 -1      4105 5.49000E+01 2.79170E+01 0.00000E+00
 -1      4106 5.64000E+01 2.79170E+01 0.00000E+00
 -1      4107 5.41500E+01 2.66180E+01 0.00000E+00
 -1      4108 5.79000E+01 2.79170E+01 0.00000E+00
 -1      4109 5.94000E+01 2.79170E+01 0.00000E+00
 -1      4110 5.71500E+01 2.66180E+01 0.00000E+00
 -1      4111 6.09000E+01 2.79170E+01 0.00000E+00
 -1      4112 6.24000E+01 2.79170E+01 0.00000E+00
 -1      4113 6.01500E+01 2.66180E+01 0.00000E+00
 -1      4114 6.39000E+01 2.79170E+01 0.00000E+00
 -1      4115 6.54000E+01 2.79170E+01 0.00000E+00
 -1      4116 6.31500E+01 2.66180E+01 0.00000E+00
 -1      4117 6.69000E+01 2.79170E+01 0.00000E+00
 -1      4118 6.84000E+01 2.79170E+01 0.00000E+00
 -1      4119 6.61500E+01 2.66180E+01 0.00000E+00
 -1      4120 6.99000E+01 2.79170E+01 0.00000E+00
 -1      4121 7.14000E+01 2.79170E+01 0.00000E+00
 -1      4122 6.91500E+01 2.66180E+01 0.00000E+00
 -1      4123 7.29000E+01 2.79170E+01 0.00000E+00
 -1      4124 7.44000E+01 2.79170E+01 0.00000E+00
 -1      4125 7.21500E+01 2.66180E+01 0.00000E+00
 -1      4126 7.59000E+01 2.79170E+01 0.00000E+00
 -1      4127 7.74000E+01 2.79170E+01 0.00000E+00
 -1      4128 7.51500E+01 2.66180E+01 0.00000E+00
 -1      4129 7.89000E+01 2.79170E+01 0.00000E+00
 -1      4130 8.04000E+01 2.79170E+01 0.00000E+00
 -1      4131 7.81500E+01 2.66180E+01 0.00000E+00
 -1      4132 8.19000E+01 2.79170E+01 0.00000E+00
 -1      4133 8.34000E+01 2.79170E+01 0.00000E+00
 -1      4134 8.11500E+01 2.66180E+01 0.00000E+00
 -1      4135 8.49000E+01 2.79170E+01 0.00000E+00
 -1      4136 8.64000E+01 2.79170E+01 0.00000E+00
 -1      4137 8.41500E+01 2.66180E+01 0.00000E+00
 -1      4138 8.79000E+01 2.79170E+01 0.00000E+00
 -1      4139 8.94000E+01 2.79170E+01 0.00000E+00
 -1      4140 8.71500E+01 2.66180E+01 0.00000E+00
 -1      4141 9.07416E+01 2.76916E+01 0.00000E+00
 -1      4142 9.22416E+01 2.76916E+01 0.00000E+00
 -1      4143 9.26749E+01 2.59419E+01 0.00000E+00
 -1      4144 8.99916E+01 2.63926E+01 0.00000E+00
 -1      4145 2.49000E+01 2.79170E+01 0.00000E+00
 -1      4146 2.64000E+01 2.79170E+01 0.00000E+00
 -1      4147 5.87850E+01 2.08932E+01 0.00000E+00
 -1      4148 5.72850E+01 2.08932E+01 0.00000E+00
 -1      4149 7.07850E+01 2.08932E+01 0.00000E+00
 -1      4150 6.92850E+01 2.08932E+01 0.00000E+00
 -1      4151 6.47850E+01 2.08932E+01 0.00000E+00
 -1      4152 6.32850E+01 2.08932E+01 0.00000E+00
 -1      4153 7.67850E+01 2.08932E+01 0.00000E+00
 -1      4154 7.52850E+01 2.08932E+01 0.00000E+00
 -1      4155 7.97850E+01 2.08932E+01 0.00000E+00
 -1      4156 7.82850E+01 2.08932E+01 0.00000E+00
 -1      4157 7.75350E+01 2.21922E+01 0.00000E+00
 -1      4158 8.27850E+01 2.08932E+01 0.00000E+00
 -1      4159 8.12850E+01 2.08932E+01 0.00000E+00
 -1      4160 8.05350E+01 2.21922E+01 0.00000E+00
 -1      4161 8.57850E+01 2.08932E+01 0.00000E+00
 -1      4162 8.42850E+01 2.08932E+01 0.00000E+00
 -1      4163 8.35350E+01 2.21922E+01 0.00000E+00
 -1      4164 8.87850E+01 2.08932E+01 0.00000E+00
 -1      4165 8.72850E+01 2.08932E+01 0.00000E+00
 -1      4166 8.65350E+01 2.21922E+01 0.00000E+00
 -1      4167 9.15364E+01 2.13898E+01 0.00000E+00
 -1      4168 9.00834E+01 2.10852E+01 0.00000E+00
 -1      4169 8.93334E+01 2.23842E+01 0.00000E+00
 -1      4170 9.19303E+01 2.27681E+01 0.00000E+00
 -1      4171 1.93571E+01 2.80868E+01 0.00000E+00
 -1      4172 2.04821E+01 2.81717E+01 0.00000E+00
 -1      4173 1.94303E+01 2.69766E+01 0.00000E+00
 -1      4174 3.10350E+01 1.95943E+01 0.00000E+00
 -1      4175 3.02850E+01 1.82953E+01 0.00000E+00
 -1      4176 2.87850E+01 1.82953E+01 0.00000E+00
 -1      4177 2.79000E+01 2.79170E+01 0.00000E+00
 -1      4178 2.94000E+01 2.79170E+01 0.00000E+00
 -1      4179 2.71500E+01 2.66180E+01 0.00000E+00
 -1      4180 3.92850E+01 1.82952E+01 0.00000E+00
 -1      4181 3.77850E+01 1.82952E+01 0.00000E+00
 -1      4182 3.70350E+01 1.95942E+01 0.00000E+00
 -1      4183 4.00350E+01 1.95942E+01 0.00000E+00
 -1      4184 6.77850E+01 2.08932E+01 0.00000E+00
 -1      4185 6.62850E+01 2.08932E+01 0.00000E+00
 -1      4186 6.85350E+01 2.21922E+01 0.00000E+00
 -1      4187 3.09000E+01 2.79170E+01 0.00000E+00
 -1      4188 3.24000E+01 2.79170E+01 0.00000E+00
 -1      4189 3.01500E+01 2.66180E+01 0.00000E+00
 -1      4190 6.17850E+01 2.08932E+01 0.00000E+00
 -1      4191 6.02850E+01 2.08932E+01 0.00000E+00
 -1      4192 6.25350E+01 2.21922E+01 0.00000E+00
 -1      4193 2.14052E+01 2.36229E+01 0.00000E+00
 -1      4194 2.00379E+01 2.49445E+01 0.00000E+00
 -1      4195 5.57850E+01 2.08932E+01 0.00000E+00
 -1      4196 5.42850E+01 2.08932E+01 0.00000E+00
 -1      4197 5.65350E+01 2.21922E+01 0.00000E+00
 -1      4198 7.37850E+01 2.08932E+01 0.00000E+00
 -1      4199 7.22850E+01 2.08932E+01 0.00000E+00
 -1      4200 7.15350E+01 2.21922E+01 0.00000E+00
 -1      4201 7.45350E+01 2.21922E+01 0.00000E+00
 -1      4202 3.39000E+01 2.79170E+01 0.00000E+00
 -1      4203 3.54000E+01 2.79170E+01 0.00000E+00
 -1      4204 3.31500E+01 2.66180E+01 0.00000E+00
 -1      4205 2.23526E+01 2.81387E+01 0.00000E+00
 -1      4206 4.37850E+01 2.08932E+01 0.00000E+00
 -1      4207 4.22850E+01 2.08932E+01 0.00000E+00
 -1      4208 5.95350E+01 2.21922E+01 0.00000E+00
 -1      4209 2.31026E+01 2.68397E+01 0.00000E+00
 -1      4210 5.27850E+01 2.08932E+01 0.00000E+00
 -1      4211 5.12850E+01 2.08932E+01 0.00000E+00
 -1      4212 5.35350E+01 2.21922E+01 0.00000E+00
 -1      4213 4.90350E+01 1.95942E+01 0.00000E+00
 -1      4214 4.67850E+01 2.08932E+01 0.00000E+00
 -1      4215 4.52850E+01 2.08932E+01 0.00000E+00
 -1      4216 4.45350E+01 2.21922E+01 0.00000E+00
 -1      4217 1.99648E+01 2.60547E+01 0.00000E+00
 -1      4218 3.61500E+01 2.66180E+01 0.00000E+00
 -1      4219 3.17850E+01 2.08933E+01 0.00000E+00
 -1      4220 3.02850E+01 2.08933E+01 0.00000E+00
 -1      4221 9.22810E+01 2.45637E+01 0.00000E+00
 -1      4222 2.29052E+01 2.36229E+01 0.00000E+00
 -1      4223 2.74478E+01 1.89037E+01 0.00000E+00
 -1      4224 2.59478E+01 1.89037E+01 0.00000E+00
 -1      4225 2.55233E+01 2.14197E+01 0.00000E+00
 -1      4226 2.81978E+01 2.02027E+01 0.00000E+00
 -1      4227 6.55350E+01 2.21922E+01 0.00000E+00
 -1      4228 3.47850E+01 2.08933E+01 0.00000E+00
 -1      4229 3.32850E+01 2.08933E+01 0.00000E+00
 -1      4230 3.25350E+01 2.21923E+01 0.00000E+00
 -1      4231 5.98425E+01 2.44051E+01 0.00000E+00
 -1      4232 5.83425E+01 2.44051E+01 0.00000E+00
 -1      4233 4.14000E+01 2.53190E+01 0.00000E+00
 -1      4234 4.29000E+01 2.53190E+01 0.00000E+00
 -1      4235 4.48425E+01 2.44051E+01 0.00000E+00
 -1      4236 4.63425E+01 2.44051E+01 0.00000E+00
 -1      4237 5.04000E+01 2.53190E+01 0.00000E+00
 -1      4238 5.19000E+01 2.53190E+01 0.00000E+00
 -1      4239 5.38425E+01 2.44051E+01 0.00000E+00
 -1      4240 5.53425E+01 2.44051E+01 0.00000E+00
 -1      4241 5.68425E+01 2.44051E+01 0.00000E+00
 -1      4242 6.13425E+01 2.44051E+01 0.00000E+00
 -1      4243 6.28425E+01 2.44051E+01 0.00000E+00
 -1      4244 6.43425E+01 2.44051E+01 0.00000E+00
 -1      4245 6.58425E+01 2.44051E+01 0.00000E+00
 -1      4246 6.73425E+01 2.44051E+01 0.00000E+00
 -1      4247 6.88425E+01 2.44051E+01 0.00000E+00
 -1      4248 7.03425E+01 2.44051E+01 0.00000E+00
 -1      4249 7.18425E+01 2.44051E+01 0.00000E+00
 -1      4250 7.33425E+01 2.44051E+01 0.00000E+00
 -1      4251 7.48425E+01 2.44051E+01 0.00000E+00
 -1      4252 7.63425E+01 2.44051E+01 0.00000E+00
 -1      4253 7.78425E+01 2.44051E+01 0.00000E+00
 -1      4254 7.93425E+01 2.44051E+01 0.00000E+00
 -1      4255 8.08425E+01 2.44051E+01 0.00000E+00
 -1      4256 8.23425E+01 2.44051E+01 0.00000E+00
 -1      4257 8.38425E+01 2.44051E+01 0.00000E+00
 -1      4258 8.53425E+01 2.44051E+01 0.00000E+00
 -1      4259 8.68425E+01 2.44051E+01 0.00000E+00
 -1      4260 8.83425E+01 2.44051E+01 0.00000E+00
 -1      4261 8.96409E+01 2.45971E+01 0.00000E+00
 -1      4262 9.09826E+01 2.43717E+01 0.00000E+00
 -1      4263 4.15350E+01 2.21922E+01 0.00000E+00
 -1      4264 4.07850E+01 2.08932E+01 0.00000E+00
 -1      4265 3.92850E+01 2.08932E+01 0.00000E+00
 -1      4266 3.28425E+01 2.44051E+01 0.00000E+00
 -1      4267 3.43425E+01 2.44051E+01 0.00000E+00
 -1      4268 2.64000E+01 2.53190E+01 0.00000E+00
 -1      4269 2.79000E+01 2.53190E+01 0.00000E+00
 -1      4270 2.98425E+01 2.44051E+01 0.00000E+00
 -1      4271 3.13425E+01 2.44051E+01 0.00000E+00
 -1      4272 4.97850E+01 2.08932E+01 0.00000E+00
 -1      4273 4.82850E+01 2.08932E+01 0.00000E+00
 -1      4274 5.05350E+01 2.21922E+01 0.00000E+00
 -1      4275 3.88425E+01 2.44051E+01 0.00000E+00
 -1      4276 4.03425E+01 2.44051E+01 0.00000E+00
 -1      4277 2.90925E+01 2.31061E+01 0.00000E+00
 -1      4278 2.83425E+01 2.18071E+01 0.00000E+00
 -1      4279 3.77850E+01 2.08933E+01 0.00000E+00
 -1      4280 3.62850E+01 2.08933E+01 0.00000E+00
 -1      4281 3.55350E+01 2.21923E+01 0.00000E+00
 -1      4282 3.85350E+01 2.21923E+01 0.00000E+00
 -1      4283 4.74000E+01 2.53190E+01 0.00000E+00
 -1      4284 4.89000E+01 2.53190E+01 0.00000E+00
 -1      4285 4.75350E+01 2.21922E+01 0.00000E+00
 -1      4286 5.30925E+01 2.31061E+01 0.00000E+00
 -1      4287 3.58425E+01 2.44051E+01 0.00000E+00
 -1      4288 4.96500E+01 2.40200E+01 0.00000E+00
 -1      4289 3.73425E+01 2.44051E+01 0.00000E+00
 -1      4290 2.45584E+01 2.36389E+01 0.00000E+00
 -1      4291 2.32775E+01 2.52337E+01 0.00000E+00
 -1      4292 4.40925E+01 2.31061E+01 0.00000E+00
 -1      4293 4.70925E+01 2.31061E+01 0.00000E+00
 -1      4294 4.85925E+01 2.31061E+01 0.00000E+00
 -1      4295 4.25925E+01 2.31061E+01 0.00000E+00
 -1      4296 4.10925E+01 2.31061E+01 0.00000E+00
 -1      4297 2.58956E+01 2.30305E+01 0.00000E+00
 -1      4298 2.10898E+01 2.61396E+01 0.00000E+00
 -1      4299 2.52904E+01 2.59339E+01 0.00000E+00
 -1      4300 2.60404E+01 2.46349E+01 0.00000E+00
 -1      4301 2.36372E+01 2.59178E+01 0.00000E+00
 -1      4302 2.70053E+01 2.24156E+01 0.00000E+00
 -1      4303 5.00925E+01 2.31061E+01 0.00000E+00
 -1      4304 5.15925E+01 2.31061E+01 0.00000E+00
 -3
    3C                          2070                                     1
 -1       165    8    0    1
 -2         6         7        23      1118      1282      1135
 -1       166    8    0    1
 -2         7         8       165      1119      1283      1284
 -1       167    8    0    1
 -2         8         9       166      1120      1285      1286
 -1       168    8    0    1
 -2         8       166       165      1286      1287      1283
 -1       169    8    0    1
 -2         9        10       167      1121      1288      1289
 -1       170    8    0    1
 -2         9       167       166      1289      1290      1285
 -1       171    8    0    1
 -2        10        11       168      1122      1291      1292
 -1       172    8    0    1
 -2        10       168       167      1292      1293      1288
 -1       173    8    0    1
 -2        11        12       169      1123      1294      1295
 -1       174    8    0    1
 -2        11       169       168      1295      1296      1291
 -1       175    8    0    1
 -2        12        13       170      1124      1297      1298
 -1       176    8    0    1
 -2        12       170       169      1298      1299      1294
 -1       177    8    0    1
 -2        13        14       171      1125      1300      1301
 -1       178    8    0    1
 -2        13       171       170      1301      1302      1297
 -1       179    8    0    1
 -2        14        15       172      1126      1303      1304
 -1       180    8    0    1
 -2        14       172       171      1304      1305      1300
 -1       181    8    0    1
 -2        15        16       173      1127      1306      1307
 -1       182    8    0    1
 -2        15       173       172      1307      1308      1303
 -1       183    8    0    1
 -2        16        17       174      1128      1309      1310
 -1       184    8    0    1
 -2        16       174       173      1310      1311      1306
 -1       185    8    0    1
 -2        17        18       175      1129      1312      1313
 -1       186    8    0    1
 -2        17       175       174      1313      1314      1309
 -1       187    8    0    1
 -2        18        19       176      1130      1315      1316
 -1       188    8    0    1
 -2        18       176       175      1316      1317      1312
 -1       189    8    0    1
 -2        19        20       177      1131      1318      1319
 -1       190    8    0    1
 -2        19       177       176      1319      1320      1315
 -1       191    8    0    1
 -2        20        21       178      1132      1321      1322
 -1       192    8    0    1
 -2        20       178       177      1322      1323      1318
 -1       193    8    0    1
 -2        21        22       179      1133      1324      1325
 -1       194    8    0    1
 -2        21       179       178      1325      1326      1321
 -1       195    8    0    1
 -2        22         5       180      1134      1327      1328
 -1       196    8    0    1
 -2       179        22       180      1324      1328      1329
 -1       197    8    0    1
 -2         5        72       180      1185      1330      1327
 -1       198    8    0    1
 -2        24        23       181      1136      1331      1332
 -1       199    8    0    1
 -2        25        24       182      1137      1333      1334
 -1       200    8    0    1
 -2        24       181       182      1332      1335      1333
 -1       201    8    0    1
 -2        26        25       183      1138      1336      1337
 -1       202    8    0    1
 -2        25       182       183      1334      1338      1336
 -1       203    8    0    1
 -2        27        26       184      1139      1339      1340
 -1       204    8    0    1
 -2        26       183       184      1337      1341      1339
 -1       205    8    0    1
 -2        28        27       185      1140      1342      1343
 -1       206    8    0    1
 -2        27       184       185      1340      1344      1342
 -1       207    8    0    1
 -2        29        28       186      1141      1345      1346
 -1       208    8    0    1
 -2        28       185       186      1343      1347      1345
 -1       209    8    0    1
 -2        30        29       187      1142      1348      1349
 -1       210    8    0    1
 -2        29       186       187      1346      1350      1348
 -1       211    8    0    1
 -2        31        30       188      1143      1351      1352
 -1       212    8    0    1
 -2        30       187       188      1349      1353      1351
 -1       213    8    0    1
 -2        32        31       189      1144      1354      1355
 -1       214    8    0    1
 -2        31       188       189      1352      1356      1354
 -1       215    8    0    1
 -2        33        32       190      1145      1357      1358
 -1       216    8    0    1
 -2        32       189       190      1355      1359      1357
 -1       217    8    0    1
 -2        34        33       191      1146      1360      1361
 -1       218    8    0    1
 -2        33       190       191      1358      1362      1360
 -1       219    8    0    1
 -2        35        34       192      1147      1363      1364
 -1       220    8    0    1
 -2        34       191       192      1361      1365      1363
 -1       221    8    0    1
 -2        36        35       193      1148      1366      1367
 -1       222    8    0    1
 -2        35       192       193      1364      1368      1366
 -1       223    8    0    1
 -2        37        36       194      1149      1369      1370
 -1       224    8    0    1
 -2        36       193       194      1367      1371      1369
 -1       225    8    0    1
 -2        38        37       195      1150      1372      1373
 -1       226    8    0    1
 -2        37       194       195      1370      1374      1372
 -1       227    8    0    1
 -2        39        38       196      1151      1375      1376
 -1       228    8    0    1
 -2        38       195       196      1373      1377      1375
 -1       229    8    0    1
 -2        40        39       197      1152      1378      1379
 -1       230    8    0    1
 -2        39       196       197      1376      1380      1378
 -1       231    8    0    1
 -2        41        40       198      1153      1381      1382
 -1       232    8    0    1
 -2        40       197       198      1379      1383      1381
 -1       233    8    0    1
 -2        42        41       199      1154      1384      1385
 -1       234    8    0    1
 -2        41       198       199      1382      1386      1384
 -1       235    8    0    1
 -2        43        42       200      1155      1387      1388
 -1       236    8    0    1
 -2        42       199       200      1385      1389      1387
 -1       237    8    0    1
 -2        44        43       201      1156      1390      1391
 -1       238    8    0    1
 -2        43       200       201      1388      1392      1390
 -1       239    8    0    1
 -2        45        44       202      1157      1393      1394
 -1       240    8    0    1
 -2        44       201       202      1391      1395      1393
 -1       241    8    0    1
 -2        46        45       203      1158      1396      1397
 -1       242    8    0    1
 -2        45       202       203      1394      1398      1396
 -1       243    8    0    1
 -2        47        46       204      1159      1399      1400
 -1       244    8    0    1
 -2        46       203       204      1397      1401      1399
 -1       245    8    0    1
 -2        48        47       205      1160      1402      1403
 -1       246    8    0    1
 -2        47       204       205      1400      1404      1402
 -1       247    8    0    1
 -2        49        48       206      1161      1405      1406
 -1       248    8    0    1
 -2        48       205       206      1403      1407      1405
 -1       249    8    0    1
 -2        50        49       207      1162      1408      1409
 -1       250    8    0    1
 -2        49       206       207      1406      1410      1408
 -1       251    8    0    1
 -2        51        50       208      1163      1411      1412
 -1       252    8    0    1
 -2        50       207       208      1409      1413      1411
 -1       253    8    0    1
 -2        52        51       209      1164      1414      1415
 -1       254    8    0    1
 -2        51       208       209      1412      1416      1414
 -1       255    8    0    1
 -2        53        52       210      1165      1417      1418
 -1       256    8    0    1
 -2        52       209       210      1415      1419      1417
 -1       257    8    0    1
 -2        54        53       211      1166      1420      1421
 -1       258    8    0    1
 -2        53       210       211      1418      1422      1420
 -1       259    8    0    1
 -2        55        54       212      1167      1423      1424
 -1       260    8    0    1
 -2        54       211       212      1421      1425      1423
 -1       261    8    0    1
 -2        56        55       213      1168      1426      1427
 -1       262    8    0    1
 -2        55       212       213      1424      1428      1426
 -1       263    8    0    1
 -2        57        56       214      1169      1429      1430
 -1       264    8    0    1
 -2        56       213       214      1427      1431      1429
 -1       265    8    0    1
 -2        58        57       215      1170      1432      1433
 -1       266    8    0    1
 -2        57       214       215      1430      1434      1432
 -1       267    8    0    1
 -2        59        58       216      1171      1435      1436
 -1       268    8    0    1
 -2        58       215       216      1433      1437      1435
 -1       269    8    0    1
 -2        60        59       217      1172      1438      1439
 -1       270    8    0    1
 -2        59       216       217      1436      1440      1438
 -1       271    8    0    1
 -2        61        60       218      1173      1441      1442
 -1       272    8    0    1
 -2        60       217       218      1439      1443      1441
 -1       273    8    0    1
 -2        62        61       219      1174      1444      1445
 -1       274    8    0    1
 -2        61       218       219      1442      1446      1444
 -1       275    8    0    1
 -2        63        62       220      1175      1447      1448
 -1       276    8    0    1
 -2        62       219       220      1445      1449      1447
 -1       277    8    0    1
 -2        64        63       221      1176      1450      1451
 -1       278    8    0    1
 -2        63       220       221      1448      1452      1450
 -1       279    8    0    1
 -2        65        64       222      1177      1453      1454
 -1       280    8    0    1
 -2        64       221       222      1451      1455      1453
 -1       281    8    0    1
 -2        66        65       223      1178      1456      1457
 -1       282    8    0    1
 -2        65       222       223      1454      1458      1456
 -1       283    8    0    1
 -2        67        66       224      1179      1459      1460
 -1       284    8    0    1
 -2        66       223       224      1457      1461      1459
 -1       285    8    0    1
 -2        68        67       225      1180      1462      1463
 -1       286    8    0    1
 -2        67       224       225      1460      1464      1462
 -1       287    8    0    1
 -2        69        68       226      1181      1465      1466
 -1       288    8    0    1
 -2        68       225       226      1463      1467      1465
 -1       289    8    0    1
 -2        70        69       227      1182      1468      1469
 -1       290    8    0    1
 -2        69       226       227      1466      1470      1468
 -1       291    8    0    1
 -2        71        70       228      1183      1471      1472
 -1       292    8    0    1
 -2        70       227       228      1469      1473      1471
 -1       293    8    0    1
 -2         4        71       136      1184      1474      1251
 -1       294    8    0    1
 -2       136        71       228      1474      1472      1475
 -1       295    8    0    1
 -2        72        73       229      1186      1476      1477
 -1       296    8    0    1
 -2        72       229       180      1477      1478      1330
 -1       297    8    0    1
 -2        73        74       230      1187      1479      1480
 -1       298    8    0    1
 -2        73       230       229      1480      1481      1476
 -1       299    8    0    1
 -2        74        75       231      1188      1482      1483
 -1       300    8    0    1
 -2        74       231       230      1483      1484      1479
 -1       301    8    0    1
 -2        75        76       232      1189      1485      1486
 -1       302    8    0    1
 -2        75       232       231      1486      1487      1482
 -1       303    8    0    1
 -2        76        77       233      1190      1488      1489
 -1       304    8    0    1
 -2        76       233       232      1489      1490      1485
 -1       305    8    0    1
 -2        77        78       234      1191      1491      1492
 -1       306    8    0    1
 -2        77       234       233      1492      1493      1488
 -1       307    8    0    1
 -2        78        79       235      1192      1494      1495
 -1       308    8    0    1
 -2        78       235       234      1495      1496      1491
 -1       309    8    0    1
 -2        79        80       236      1193      1497      1498
 -1       310    8    0    1
 -2        79       236       235      1498      1499      1494
 -1       311    8    0    1
 -2        80        81       237      1194      1500      1501
 -1       312    8    0    1
 -2        80       237       236      1501      1502      1497
 -1       313    8    0    1
 -2        81        82       238      1195      1503      1504
 -1       314    8    0    1
 -2        81       238       237      1504      1505      1500
 -1       315    8    0    1
 -2        82        83       239      1196      1506      1507
 -1       316    8    0    1
 -2        82       239       238      1507      1508      1503
 -1       317    8    0    1
 -2        83        84       240      1197      1509      1510
 -1       318    8    0    1
 -2        83       240       239      1510      1511      1506
 -1       319    8    0    1
 -2        84        85       241      1198      1512      1513
 -1       320    8    0    1
 -2        84       241       240      1513      1514      1509
 -1       321    8    0    1
 -2        85        86       242      1199      1515      1516
 -1       322    8    0    1
 -2        85       242       241      1516      1517      1512
 -1       323    8    0    1
 -2        86        87       243      1200      1518      1519
 -1       324    8    0    1
 -2        86       243       242      1519      1520      1515
 -1       325    8    0    1
 -2        87        88       244      1201      1521      1522
 -1       326    8    0    1
 -2        87       244       243      1522      1523      1518
 -1       327    8    0    1
 -2        88        89       245      1202      1524      1525
 -1       328    8    0    1
 -2        88       245       244      1525      1526      1521
 -1       329    8    0    1
 -2        89        90       246      1203      1527      1528
 -1       330    8    0    1
 -2        89       246       245      1528      1529      1524
 -1       331    8    0    1
 -2        90        91       247      1204      1530      1531
 -1       332    8    0    1
 -2        90       247       246      1531      1532      1527
 -1       333    8    0    1
 -2        91        92       248      1205      1533      1534
 -1       334    8    0    1
 -2        91       248       247      1534      1535      1530
 -1       335    8    0    1
 -2        92        93       249      1206      1536      1537
 -1       336    8    0    1
 -2        92       249       248      1537      1538      1533
 -1       337    8    0    1
 -2        93        94       250      1207      1539      1540
 -1       338    8    0    1
 -2        93       250       249      1540      1541      1536
 -1       339    8    0    1
 -2        94        95       251      1208      1542      1543
 -1       340    8    0    1
 -2        94       251       250      1543      1544      1539
 -1       341    8    0    1
 -2        95        96       252      1209      1545      1546
 -1       342    8    0    1
 -2        95       252       251      1546      1547      1542
 -1       343    8    0    1
 -2        96        97       253      1210      1548      1549
 -1       344    8    0    1
 -2        96       253       252      1549      1550      1545
 -1       345    8    0    1
 -2        97        98       254      1211      1551      1552
 -1       346    8    0    1
 -2        97       254       253      1552      1553      1548
 -1       347    8    0    1
 -2        98        99       255      1212      1554      1555
 -1       348    8    0    1
 -2        98       255       254      1555      1556      1551
 -1       349    8    0    1
 -2        99       100       256      1213      1557      1558
 -1       350    8    0    1
 -2        99       256       255      1558      1559      1554
 -1       351    8    0    1
 -2       100       101       257      1214      1560      1561
 -1       352    8    0    1
 -2       100       257       256      1561      1562      1557
 -1       353    8    0    1
 -2       101       102       258      1215      1563      1564
 -1       354    8    0    1
 -2       101       258       257      1564      1565      1560
 -1       355    8    0    1
 -2       102       103       259      1216      1566      1567
 -1       356    8    0    1
 -2       102       259       258      1567      1568      1563
 -1       357    8    0    1
 -2       103       104       260      1217      1569      1570
 -1       358    8    0    1
 -2       103       260       259      1570      1571      1566
 -1       359    8    0    1
 -2       104       105       261      1218      1572      1573
 -1       360    8    0    1
 -2       104       261       260      1573      1574      1569
 -1       361    8    0    1
 -2       105       106       262      1219      1575      1576
 -1       362    8    0    1
 -2       105       262       261      1576      1577      1572
 -1       363    8    0    1
 -2       106       107       263      1220      1578      1579
 -1       364    8    0    1
 -2       106       263       262      1579      1580      1575
 -1       365    8    0    1
 -2       107       108       264      1221      1581      1582
 -1       366    8    0    1
 -2       107       264       263      1582      1583      1578
 -1       367    8    0    1
 -2       108       109       265      1222      1584      1585
 -1       368    8    0    1
 -2       108       265       264      1585      1586      1581
 -1       369    8    0    1
 -2       109       110       266      1223      1587      1588
 -1       370    8    0    1
 -2       109       266       265      1588      1589      1584
 -1       371    8    0    1
 -2       110       111       267      1224      1590      1591
 -1       372    8    0    1
 -2       110       267       266      1591      1592      1587
 -1       373    8    0    1
 -2       111       112       268      1225      1593      1594
 -1       374    8    0    1
 -2       111       268       267      1594      1595      1590
 -1       375    8    0    1
 -2       112       113       269      1226      1596      1597
 -1       376    8    0    1
 -2       112       269       268      1597      1598      1593
 -1       377    8    0    1
 -2       113       114       270      1227      1599      1600
 -1       378    8    0    1
 -2       113       270       269      1600      1601      1596
 -1       379    8    0    1
 -2       114       115       271      1228      1602      1603
 -1       380    8    0    1
 -2       114       271       270      1603      1604      1599
 -1       381    8    0    1
 -2       115       116       272      1229      1605      1606
 -1       382    8    0    1
 -2       115       272       271      1606      1607      1602
 -1       383    8    0    1
 -2       116       117       273      1230      1608      1609
 -1       384    8    0    1
 -2       116       273       272      1609      1610      1605
 -1       385    8    0    1
 -2       117       118       274      1231      1611      1612
 -1       386    8    0    1
 -2       117       274       273      1612      1613      1608
 -1       387    8    0    1
 -2       118       119       275      1232      1614      1615
 -1       388    8    0    1
 -2       118       275       274      1615      1616      1611
 -1       389    8    0    1
 -2       119       120       276      1233      1617      1618
 -1       390    8    0    1
 -2       119       276       275      1618      1619      1614
 -1       391    8    0    1
 -2       120         3       121      1234      1235      1620
 -1       392    8    0    1
 -2       121       122       277      1236      1621      1622
 -1       393    8    0    1
 -2       122       123       278      1237      1623      1624
 -1       394    8    0    1
 -2       122       278       277      1624      1625      1621
 -1       395    8    0    1
 -2       123       124       279      1238      1626      1627
 -1       396    8    0    1
 -2       123       279       278      1627      1628      1623
 -1       397    8    0    1
 -2       124       125       280      1239      1629      1630
 -1       398    8    0    1
 -2       124       280       279      1630      1631      1626
 -1       399    8    0    1
 -2       125       126       281      1240      1632      1633
 -1       400    8    0    1
 -2       125       281       280      1633      1634      1629
 -1       401    8    0    1
 -2       126       127       282      1241      1635      1636
 -1       402    8    0    1
 -2       126       282       281      1636      1637      1632
 -1       403    8    0    1
 -2       127       128       283      1242      1638      1639
 -1       404    8    0    1
 -2       127       283       282      1639      1640      1635
 -1       405    8    0    1
 -2       128       129       284      1243      1641      1642
 -1       406    8    0    1
 -2       128       284       283      1642      1643      1638
 -1       407    8    0    1
 -2       129       130       285      1244      1644      1645
 -1       408    8    0    1
 -2       129       285       284      1645      1646      1641
 -1       409    8    0    1
 -2       130       131       286      1245      1647      1648
 -1       410    8    0    1
 -2       130       286       285      1648      1649      1644
 -1       411    8    0    1
 -2       131       132       287      1246      1650      1651
 -1       412    8    0    1
 -2       131       287       286      1651      1652      1647
 -1       413    8    0    1
 -2       132       133       288      1247      1653      1654
 -1       414    8    0    1
 -2       132       288       287      1654      1655      1650
 -1       415    8    0    1
 -2       133       134       289      1248      1656      1657
 -1       416    8    0    1
 -2       133       289       288      1657      1658      1653
 -1       417    8    0    1
 -2       134       135       290      1249      1659      1660
 -1       418    8    0    1
 -2       134       290       289      1660      1661      1656
 -1       419    8    0    1
 -2       135       136       291      1250      1662      1663
 -1       420    8    0    1
 -2       290       135       291      1659      1663      1664
 -1       421    8    0    1
 -2       136       228       291      1475      1665      1662
 -1       422    8    0    1
 -2         2       137       292      1252      1666      1667
 -1       423    8    0    1
 -2       137       138       293      1253      1668      1669
 -1       424    8    0    1
 -2       138       139       294      1254      1670      1671
 -1       425    8    0    1
 -2       139       140       295      1255      1672      1673
 -1       426    8    0    1
 -2       140       141       296      1256      1674      1675
 -1       427    8    0    1
 -2       141       142       297      1257      1676      1677
 -1       428    8    0    1
 -2       142       143       298      1258      1678      1679
 -1       429    8    0    1
 -2       143       144       299      1259      1680      1681
 -1       430    8    0    1
 -2       144       145       300      1260      1682      1683
 -1       431    8    0    1
 -2       145       146       301      1261      1684      1685
 -1       432    8    0    1
 -2       146       147       302      1262      1686      1687
 -1       433    8    0    1
 -2       147       148       303      1263      1688      1689
 -1       434    8    0    1
 -2       148       149       304      1264      1690      1691
 -1       435    8    0    1
 -2       149       150       305      1265      1692      1693
 -1       436    8    0    1
 -2       150       151       306      1266      1694      1695
 -1       437    8    0    1
 -2       151       152       307      1267      1696      1697
 -1       438    8    0    1
 -2       152       153       308      1268      1698      1699
 -1       439    8    0    1
 -2       153         1       309      1269      1700      1701
 -1       440    8    0    1
 -2         1       154       310      1270      1702      1703
 -1       441    8    0    1
 -2       154       155       311      1271      1704      1705
 -1       442    8    0    1
 -2       155       156       312      1272      1706      1707
 -1       443    8    0    1
 -2       156       157       313      1273      1708      1709
 -1       444    8    0    1
 -2       157       158       314      1274      1710      1711
 -1       445    8    0    1
 -2       158       159       315      1275      1712      1713
 -1       446    8    0    1
 -2       159       160       316      1276      1714      1715
 -1       447    8    0    1
 -2       160       161       317      1277      1716      1717
 -1       448    8    0    1
 -2       161       162       318      1278      1718      1719
 -1       449    8    0    1
 -2       162       163       319      1279      1720      1721
 -1       450    8    0    1
 -2       163       164       320      1280      1722      1723
 -1       451    8    0    1
 -2       164         2       321      1281      1724      1725
 -1       452    8    0    1
 -2       295       140       296      1672      1675      1726
 -1       453    8    0    1
 -2       294       139       295      1670      1673      1727
 -1       454    8    0    1
 -2       120       121       276      1620      1728      1617
 -1       455    8    0    1
 -2       121       277       276      1622      1729      1728
 -1       456    8    0    1
 -2       292       137       293      1666      1669      1730
 -1       457    8    0    1
 -2       293       138       294      1668      1671      1731
 -1       458    8    0    1
 -2         2       292       321      1667      1732      1724
 -1       459    8    0    1
 -2       141       297       296      1677      1733      1674
 -1       460    8    0    1
 -2       142       298       297      1679      1734      1676
 -1       461    8    0    1
 -2       143       299       298      1681      1735      1678
 -1       462    8    0    1
 -2       144       300       299      1683      1736      1680
 -1       463    8    0    1
 -2       145       301       300      1685      1737      1682
 -1       464    8    0    1
 -2       146       302       301      1687      1738      1684
 -1       465    8    0    1
 -2       147       303       302      1689      1739      1686
 -1       466    8    0    1
 -2       148       304       303      1691      1740      1688
 -1       467    8    0    1
 -2       149       305       304      1693      1741      1690
 -1       468    8    0    1
 -2       150       306       305      1695      1742      1692
 -1       469    8    0    1
 -2       151       307       306      1697      1743      1694
 -1       470    8    0    1
 -2       152       308       307      1699      1744      1696
 -1       471    8    0    1
 -2       153       309       308      1701      1745      1698
 -1       472    8    0    1
 -2         1       310       309      1703      1746      1700
 -1       473    8    0    1
 -2       154       311       310      1705      1747      1702
 -1       474    8    0    1
 -2       155       312       311      1707      1748      1704
 -1       475    8    0    1
 -2       156       313       312      1709      1749      1706
 -1       476    8    0    1
 -2       157       314       313      1711      1750      1708
 -1       477    8    0    1
 -2       158       315       314      1713      1751      1710
 -1       478    8    0    1
 -2       159       316       315      1715      1752      1712
 -1       479    8    0    1
 -2       160       317       316      1717      1753      1714
 -1       480    8    0    1
 -2       161       318       317      1719      1754      1716
 -1       481    8    0    1
 -2       162       319       318      1721      1755      1718
 -1       482    8    0    1
 -2       163       320       319      1723      1756      1720
 -1       483    8    0    1
 -2       164       321       320      1725      1757      1722
 -1       484    8    0    1
 -2        23         7       165      1282      1284      1758
 -1       485    8    0    1
 -2       166       167       322      1290      1759      1760
 -1       486    8    0    1
 -2       165       166       323      1287      1761      1762
 -1       487    8    0    1
 -2       166       322       323      1760      1763      1761
 -1       488    8    0    1
 -2       168       169       324      1296      1764      1765
 -1       489    8    0    1
 -2       169       170       325      1299      1766      1767
 -1       490    8    0    1
 -2       169       325       324      1767      1768      1764
 -1       491    8    0    1
 -2       170       171       326      1302      1769      1770
 -1       492    8    0    1
 -2       170       326       325      1770      1771      1766
 -1       493    8    0    1
 -2       171       172       327      1305      1772      1773
 -1       494    8    0    1
 -2       171       327       326      1773      1774      1769
 -1       495    8    0    1
 -2       172       173       328      1308      1775      1776
 -1       496    8    0    1
 -2       172       328       327      1776      1777      1772
 -1       497    8    0    1
 -2       173       174       329      1311      1778      1779
 -1       498    8    0    1
 -2       173       329       328      1779      1780      1775
 -1       499    8    0    1
 -2       174       175       330      1314      1781      1782
 -1       500    8    0    1
 -2       174       330       329      1782      1783      1778
 -1       501    8    0    1
 -2       175       176       331      1317      1784      1785
 -1       502    8    0    1
 -2       175       331       330      1785      1786      1781
 -1       503    8    0    1
 -2       176       177       332      1320      1787      1788
 -1       504    8    0    1
 -2       176       332       331      1788      1789      1784
 -1       505    8    0    1
 -2       177       178       333      1323      1790      1791
 -1       506    8    0    1
 -2       177       333       332      1791      1792      1787
 -1       507    8    0    1
 -2       178       179       334      1326      1793      1794
 -1       508    8    0    1
 -2       178       334       333      1794      1795      1790
 -1       509    8    0    1
 -2       179       180       335      1329      1796      1797
 -1       510    8    0    1
 -2       334       179       335      1793      1797      1798
 -1       511    8    0    1
 -2       180       229       335      1478      1799      1796
 -1       512    8    0    1
 -2       181        23       165      1331      1758      1800
 -1       513    8    0    1
 -2       229       230       336      1481      1801      1802
 -1       514    8    0    1
 -2       229       336       335      1802      1803      1799
 -1       515    8    0    1
 -2       181       165       323      1800      1762      1804
 -1       516    8    0    1
 -2       183       182       337      1338      1805      1806
 -1       517    8    0    1
 -2       184       183       338      1341      1807      1808
 -1       518    8    0    1
 -2       183       337       338      1806      1809      1807
 -1       519    8    0    1
 -2       185       184       339      1344      1810      1811
 -1       520    8    0    1
 -2       184       338       339      1808      1812      1810
 -1       521    8    0    1
 -2       186       185       340      1347      1813      1814
 -1       522    8    0    1
 -2       185       339       340      1811      1815      1813
 -1       523    8    0    1
 -2       187       186       341      1350      1816      1817
 -1       524    8    0    1
 -2       186       340       341      1814      1818      1816
 -1       525    8    0    1
 -2       188       187       342      1353      1819      1820
 -1       526    8    0    1
 -2       187       341       342      1817      1821      1819
 -1       527    8    0    1
 -2       189       188       343      1356      1822      1823
 -1       528    8    0    1
 -2       188       342       343      1820      1824      1822
 -1       529    8    0    1
 -2       190       189       344      1359      1825      1826
 -1       530    8    0    1
 -2       189       343       344      1823      1827      1825
 -1       531    8    0    1
 -2       191       190       345      1362      1828      1829
 -1       532    8    0    1
 -2       190       344       345      1826      1830      1828
 -1       533    8    0    1
 -2       192       191       346      1365      1831      1832
 -1       534    8    0    1
 -2       191       345       346      1829      1833      1831
 -1       535    8    0    1
 -2       193       192       347      1368      1834      1835
 -1       536    8    0    1
 -2       192       346       347      1832      1836      1834
 -1       537    8    0    1
 -2       194       193       348      1371      1837      1838
 -1       538    8    0    1
 -2       193       347       348      1835      1839      1837
 -1       539    8    0    1
 -2       195       194       349      1374      1840      1841
 -1       540    8    0    1
 -2       194       348       349      1838      1842      1840
 -1       541    8    0    1
 -2       196       195       350      1377      1843      1844
 -1       542    8    0    1
 -2       195       349       350      1841      1845      1843
 -1       543    8    0    1
 -2       197       196       351      1380      1846      1847
 -1       544    8    0    1
 -2       196       350       351      1844      1848      1846
 -1       545    8    0    1
 -2       198       197       352      1383      1849      1850
 -1       546    8    0    1
 -2       197       351       352      1847      1851      1849
 -1       547    8    0    1
 -2       199       198       353      1386      1852      1853
 -1       548    8    0    1
 -2       198       352       353      1850      1854      1852
 -1       549    8    0    1
 -2       200       199       354      1389      1855      1856
 -1       550    8    0    1
 -2       199       353       354      1853      1857      1855
 -1       551    8    0    1
 -2       201       200       355      1392      1858      1859
 -1       552    8    0    1
 -2       200       354       355      1856      1860      1858
 -1       553    8    0    1
 -2       202       201       356      1395      1861      1862
 -1       554    8    0    1
 -2       201       355       356      1859      1863      1861
 -1       555    8    0    1
 -2       203       202       357      1398      1864      1865
 -1       556    8    0    1
 -2       202       356       357      1862      1866      1864
 -1       557    8    0    1
 -2       204       203       358      1401      1867      1868
 -1       558    8    0    1
 -2       203       357       358      1865      1869      1867
 -1       559    8    0    1
 -2       205       204       359      1404      1870      1871
 -1       560    8    0    1
 -2       204       358       359      1868      1872      1870
 -1       561    8    0    1
 -2       206       205       360      1407      1873      1874
 -1       562    8    0    1
 -2       205       359       360      1871      1875      1873
 -1       563    8    0    1
 -2       207       206       361      1410      1876      1877
 -1       564    8    0    1
 -2       206       360       361      1874      1878      1876
 -1       565    8    0    1
 -2       208       207       362      1413      1879      1880
 -1       566    8    0    1
 -2       207       361       362      1877      1881      1879
 -1       567    8    0    1
 -2       209       208       363      1416      1882      1883
 -1       568    8    0    1
 -2       208       362       363      1880      1884      1882
 -1       569    8    0    1
 -2       210       209       364      1419      1885      1886
 -1       570    8    0    1
 -2       209       363       364      1883      1887      1885
 -1       571    8    0    1
 -2       211       210       365      1422      1888      1889
 -1       572    8    0    1
 -2       210       364       365      1886      1890      1888
 -1       573    8    0    1
 -2       212       211       366      1425      1891      1892
 -1       574    8    0    1
 -2       211       365       366      1889      1893      1891
 -1       575    8    0    1
 -2       213       212       367      1428      1894      1895
 -1       576    8    0    1
 -2       212       366       367      1892      1896      1894
 -1       577    8    0    1
 -2       214       213       368      1431      1897      1898
 -1       578    8    0    1
 -2       213       367       368      1895      1899      1897
 -1       579    8    0    1
 -2       215       214       369      1434      1900      1901
 -1       580    8    0    1
 -2       214       368       369      1898      1902      1900
 -1       581    8    0    1
 -2       216       215       370      1437      1903      1904
 -1       582    8    0    1
 -2       215       369       370      1901      1905      1903
 -1       583    8    0    1
 -2       217       216       371      1440      1906      1907
 -1       584    8    0    1
 -2       216       370       371      1904      1908      1906
 -1       585    8    0    1
 -2       218       217       372      1443      1909      1910
 -1       586    8    0    1
 -2       217       371       372      1907      1911      1909
 -1       587    8    0    1
 -2       219       218       373      1446      1912      1913
 -1       588    8    0    1
 -2       218       372       373      1910      1914      1912
 -1       589    8    0    1
 -2       220       219       374      1449      1915      1916
 -1       590    8    0    1
 -2       219       373       374      1913      1917      1915
 -1       591    8    0    1
 -2       221       220       375      1452      1918      1919
 -1       592    8    0    1
 -2       220       374       375      1916      1920      1918
 -1       593    8    0    1
 -2       222       221       376      1455      1921      1922
 -1       594    8    0    1
 -2       221       375       376      1919      1923      1921
 -1       595    8    0    1
 -2       223       222       377      1458      1924      1925
 -1       596    8    0    1
 -2       222       376       377      1922      1926      1924
 -1       597    8    0    1
 -2       224       223       378      1461      1927      1928
 -1       598    8    0    1
 -2       223       377       378      1925      1929      1927
 -1       599    8    0    1
 -2       225       224       379      1464      1930      1931
 -1       600    8    0    1
 -2       224       378       379      1928      1932      1930
 -1       601    8    0    1
 -2       226       225       380      1467      1933      1934
 -1       602    8    0    1
 -2       225       379       380      1931      1935      1933
 -1       603    8    0    1
 -2       227       226       381      1470      1936      1937
 -1       604    8    0    1
 -2       226       380       381      1934      1938      1936
 -1       605    8    0    1
 -2       228       227       382      1473      1939      1940
 -1       606    8    0    1
 -2       291       228       382      1665      1940      1941
 -1       607    8    0    1
 -2       227       381       382      1937      1942      1939
 -1       608    8    0    1
 -2       230       231       383      1484      1943      1944
 -1       609    8    0    1
 -2       230       383       336      1944      1945      1801
 -1       610    8    0    1
 -2       231       232       384      1487      1946      1947
 -1       611    8    0    1
 -2       231       384       383      1947      1948      1943
 -1       612    8    0    1
 -2       232       233       385      1490      1949      1950
 -1       613    8    0    1
 -2       232       385       384      1950      1951      1946
 -1       614    8    0    1
 -2       233       234       386      1493      1952      1953
 -1       615    8    0    1
 -2       233       386       385      1953      1954      1949
 -1       616    8    0    1
 -2       234       235       387      1496      1955      1956
 -1       617    8    0    1
 -2       234       387       386      1956      1957      1952
 -1       618    8    0    1
 -2       235       236       388      1499      1958      1959
 -1       619    8    0    1
 -2       235       388       387      1959      1960      1955
 -1       620    8    0    1
 -2       236       237       389      1502      1961      1962
 -1       621    8    0    1
 -2       236       389       388      1962      1963      1958
 -1       622    8    0    1
 -2       237       238       390      1505      1964      1965
 -1       623    8    0    1
 -2       237       390       389      1965      1966      1961
 -1       624    8    0    1
 -2       238       239       391      1508      1967      1968
 -1       625    8    0    1
 -2       238       391       390      1968      1969      1964
 -1       626    8    0    1
 -2       239       240       392      1511      1970      1971
 -1       627    8    0    1
 -2       239       392       391      1971      1972      1967
 -1       628    8    0    1
 -2       240       241       393      1514      1973      1974
 -1       629    8    0    1
 -2       240       393       392      1974      1975      1970
 -1       630    8    0    1
 -2       241       242       394      1517      1976      1977
 -1       631    8    0    1
 -2       241       394       393      1977      1978      1973
 -1       632    8    0    1
 -2       242       243       395      1520      1979      1980
 -1       633    8    0    1
 -2       242       395       394      1980      1981      1976
 -1       634    8    0    1
 -2       243       244       396      1523      1982      1983
 -1       635    8    0    1
 -2       243       396       395      1983      1984      1979
 -1       636    8    0    1
 -2       244       245       397      1526      1985      1986
 -1       637    8    0    1
 -2       244       397       396      1986      1987      1982
 -1       638    8    0    1
 -2       245       246       398      1529      1988      1989
 -1       639    8    0    1
 -2       245       398       397      1989      1990      1985
 -1       640    8    0    1
 -2       246       247       399      1532      1991      1992
 -1       641    8    0    1
 -2       246       399       398      1992      1993      1988
 -1       642    8    0    1
 -2       247       248       400      1535      1994      1995
 -1       643    8    0    1
 -2       247       400       399      1995      1996      1991
 -1       644    8    0    1
 -2       248       249       401      1538      1997      1998
 -1       645    8    0    1
 -2       248       401       400      1998      1999      1994
 -1       646    8    0    1
 -2       249       250       402      1541      2000      2001
 -1       647    8    0    1
 -2       249       402       401      2001      2002      1997
 -1       648    8    0    1
 -2       250       251       403      1544      2003      2004
 -1       649    8    0    1
 -2       250       403       402      2004      2005      2000
 -1       650    8    0    1
 -2       251       252       404      1547      2006      2007
 -1       651    8    0    1
 -2       251       404       403      2007      2008      2003
 -1       652    8    0    1
 -2       252       253       405      1550      2009      2010
 -1       653    8    0    1
 -2       252       405       404      2010      2011      2006
 -1       654    8    0    1
 -2       253       254       406      1553      2012      2013
 -1       655    8    0    1
 -2       253       406       405      2013      2014      2009
 -1       656    8    0    1
 -2       254       255       407      1556      2015      2016
 -1       657    8    0    1
 -2       254       407       406      2016      2017      2012
 -1       658    8    0    1
 -2       255       256       408      1559      2018      2019
 -1       659    8    0    1
 -2       255       408       407      2019      2020      2015
 -1       660    8    0    1
 -2       256       257       409      1562      2021      2022
 -1       661    8    0    1
 -2       256       409       408      2022      2023      2018
 -1       662    8    0    1
 -2       257       258       410      1565      2024      2025
 -1       663    8    0    1
 -2       257       410       409      2025      2026      2021
 -1       664    8    0    1
 -2       258       259       411      1568      2027      2028
 -1       665    8    0    1
 -2       258       411       410      2028      2029      2024
 -1       666    8    0    1
 -2       259       260       412      1571      2030      2031
 -1       667    8    0    1
 -2       259       412       411      2031      2032      2027
 -1       668    8    0    1
 -2       260       261       413      1574      2033      2034
 -1       669    8    0    1
 -2       260       413       412      2034      2035      2030
 -1       670    8    0    1
 -2       261       262       414      1577      2036      2037
 -1       671    8    0    1
 -2       261       414       413      2037      2038      2033
 -1       672    8    0    1
 -2       262       263       415      1580      2039      2040
 -1       673    8    0    1
 -2       262       415       414      2040      2041      2036
 -1       674    8    0    1
 -2       263       264       416      1583      2042      2043
 -1       675    8    0    1
 -2       263       416       415      2043      2044      2039
 -1       676    8    0    1
 -2       264       265       417      1586      2045      2046
 -1       677    8    0    1
 -2       264       417       416      2046      2047      2042
 -1       678    8    0    1
 -2       265       266       418      1589      2048      2049
 -1       679    8    0    1
 -2       265       418       417      2049      2050      2045
 -1       680    8    0    1
 -2       266       267       419      1592      2051      2052
 -1       681    8    0    1
 -2       266       419       418      2052      2053      2048
 -1       682    8    0    1
 -2       267       268       420      1595      2054      2055
 -1       683    8    0    1
 -2       267       420       419      2055      2056      2051
 -1       684    8    0    1
 -2       268       269       421      1598      2057      2058
 -1       685    8    0    1
 -2       268       421       420      2058      2059      2054
 -1       686    8    0    1
 -2       269       270       422      1601      2060      2061
 -1       687    8    0    1
 -2       269       422       421      2061      2062      2057
 -1       688    8    0    1
 -2       270       271       423      1604      2063      2064
 -1       689    8    0    1
 -2       270       423       422      2064      2065      2060
 -1       690    8    0    1
 -2       271       272       424      1607      2066      2067
 -1       691    8    0    1
 -2       271       424       423      2067      2068      2063
 -1       692    8    0    1
 -2       272       273       425      1610      2069      2070
 -1       693    8    0    1
 -2       272       425       424      2070      2071      2066
 -1       694    8    0    1
 -2       273       274       426      1613      2072      2073
 -1       695    8    0    1
 -2       273       426       425      2073      2074      2069
 -1       696    8    0    1
 -2       274       275       427      1616      2075      2076
 -1       697    8    0    1
 -2       274       427       426      2076      2077      2072
 -1       698    8    0    1
 -2       275       276       428      1619      2078      2079
 -1       699    8    0    1
 -2       427       275       428      2075      2079      2080
 -1       700    8    0    1
 -2       276       277       428      1729      2081      2078
 -1       701    8    0    1
 -2       279       280       429      1631      2082      2083
 -1       702    8    0    1
 -2       278       279       430      1628      2084      2085
 -1       703    8    0    1
 -2       279       429       430      2083      2086      2084
 -1       704    8    0    1
 -2       277       278       431      1625      2087      2088
 -1       705    8    0    1
 -2       428       277       431      2081      2088      2089
 -1       706    8    0    1
 -2       278       430       431      2085      2090      2087
 -1       707    8    0    1
 -2       280       281       432      1634      2091      2092
 -1       708    8    0    1
 -2       280       432       429      2092      2093      2082
 -1       709    8    0    1
 -2       281       282       433      1637      2094      2095
 -1       710    8    0    1
 -2       281       433       432      2095      2096      2091
 -1       711    8    0    1
 -2       282       283       434      1640      2097      2098
 -1       712    8    0    1
 -2       282       434       433      2098      2099      2094
 -1       713    8    0    1
 -2       283       284       435      1643      2100      2101
 -1       714    8    0    1
 -2       283       435       434      2101      2102      2097
 -1       715    8    0    1
 -2       284       285       436      1646      2103      2104
 -1       716    8    0    1
 -2       284       436       435      2104      2105      2100
 -1       717    8    0    1
 -2       285       286       437      1649      2106      2107
 -1       718    8    0    1
 -2       285       437       436      2107      2108      2103
 -1       719    8    0    1
 -2       286       287       438      1652      2109      2110
 -1       720    8    0    1
 -2       286       438       437      2110      2111      2106
 -1       721    8    0    1
 -2       287       288       439      1655      2112      2113
 -1       722    8    0    1
 -2       287       439       438      2113      2114      2109
 -1       723    8    0    1
 -2       288       289       440      1658      2115      2116
 -1       724    8    0    1
 -2       288       440       439      2116      2117      2112
 -1       725    8    0    1
 -2       289       290       441      1661      2118      2119
 -1       726    8    0    1
 -2       289       441       440      2119      2120      2115
 -1       727    8    0    1
 -2       293       294       442      1731      2121      2122
 -1       728    8    0    1
 -2       321       292       443      1732      2123      2124
 -1       729    8    0    1
 -2       292       293       444      1730      2125      2126
 -1       730    8    0    1
 -2       294       295       445      1727      2127      2128
 -1       731    8    0    1
 -2       295       296       446      1726      2129      2130
 -1       732    8    0    1
 -2       167       168       447      1293      2131      2132
 -1       733    8    0    1
 -2       322       167       447      1759      2132      2133
 -1       734    8    0    1
 -2       168       324       447      1765      2134      2131
 -1       735    8    0    1
 -2       297       298       448      1734      2135      2136
 -1       736    8    0    1
 -2       298       299       449      1735      2137      2138
 -1       737    8    0    1
 -2       299       300       450      1736      2139      2140
 -1       738    8    0    1
 -2       299       450       449      2140      2141      2137
 -1       739    8    0    1
 -2       300       301       451      1737      2142      2143
 -1       740    8    0    1
 -2       301       302       452      1738      2144      2145
 -1       741    8    0    1
 -2       302       303       453      1739      2146      2147
 -1       742    8    0    1
 -2       303       304       454      1740      2148      2149
 -1       743    8    0    1
 -2       304       305       455      1741      2150      2151
 -1       744    8    0    1
 -2       305       306       456      1742      2152      2153
 -1       745    8    0    1
 -2       306       307       457      1743      2154      2155
 -1       746    8    0    1
 -2       307       308       458      1744      2156      2157
 -1       747    8    0    1
 -2       308       309       459      1745      2158      2159
 -1       748    8    0    1
 -2       309       310       460      1746      2160      2161
 -1       749    8    0    1
 -2       310       311       461      1747      2162      2163
 -1       750    8    0    1
 -2       311       312       462      1748      2164      2165
 -1       751    8    0    1
 -2       312       313       463      1749      2166      2167
 -1       752    8    0    1
 -2       313       314       464      1750      2168      2169
 -1       753    8    0    1
 -2       314       315       465      1751      2170      2171
 -1       754    8    0    1
 -2       315       316       466      1752      2172      2173
 -1       755    8    0    1
 -2       316       317       467      1753      2174      2175
 -1       756    8    0    1
 -2       317       318       468      1754      2176      2177
 -1       757    8    0    1
 -2       318       319       469      1755      2178      2179
 -1       758    8    0    1
 -2       319       320       470      1756      2180      2181
 -1       759    8    0    1
 -2       319       470       469      2181      2182      2178
 -1       760    8    0    1
 -2       320       321       471      1757      2183      2184
 -1       761    8    0    1
 -2       296       297       472      1733      2185      2186
 -1       762    8    0    1
 -2       445       295       446      2127      2130      2187
 -1       763    8    0    1
 -2       181       323       182      1804      2188      1335
 -1       764    8    0    1
 -2       446       296       472      2129      2186      2189
 -1       765    8    0    1
 -2       297       448       472      2136      2190      2185
 -1       766    8    0    1
 -2       337       182       323      1805      2188      2191
 -1       767    8    0    1
 -2       444       293       442      2125      2122      2192
 -1       768    8    0    1
 -2       443       292       444      2123      2126      2193
 -1       769    8    0    1
 -2       441       290       291      2118      1664      2194
 -1       770    8    0    1
 -2       442       294       445      2121      2128      2195
 -1       771    8    0    1
 -2       321       443       471      2124      2196      2183
 -1       772    8    0    1
 -2       470       320       471      2180      2184      2197
 -1       773    8    0    1
 -2       468       318       469      2176      2179      2198
 -1       774    8    0    1
 -2       467       317       468      2174      2177      2199
 -1       775    8    0    1
 -2       466       316       467      2172      2175      2200
 -1       776    8    0    1
 -2       465       315       466      2170      2173      2201
 -1       777    8    0    1
 -2       464       314       465      2168      2171      2202
 -1       778    8    0    1
 -2       463       313       464      2166      2169      2203
 -1       779    8    0    1
 -2       462       312       463      2164      2167      2204
 -1       780    8    0    1
 -2       461       311       462      2162      2165      2205
 -1       781    8    0    1
 -2       460       310       461      2160      2163      2206
 -1       782    8    0    1
 -2       459       309       460      2158      2161      2207
 -1       783    8    0    1
 -2       458       308       459      2156      2159      2208
 -1       784    8    0    1
 -2       457       307       458      2154      2157      2209
 -1       785    8    0    1
 -2       456       306       457      2152      2155      2210
 -1       786    8    0    1
 -2       455       305       456      2150      2153      2211
 -1       787    8    0    1
 -2       454       304       455      2148      2151      2212
 -1       788    8    0    1
 -2       453       303       454      2146      2149      2213
 -1       789    8    0    1
 -2       452       302       453      2144      2147      2214
 -1       790    8    0    1
 -2       450       300       451      2139      2143      2215
 -1       791    8    0    1
 -2       448       298       449      2135      2138      2216
 -1       792    8    0    1
 -2       451       301       452      2142      2145      2217
 -1       793    8    0    1
 -2       336       383       473      1945      2218      2219
 -1       794    8    0    1
 -2       325       326       474      1771      2220      2221
 -1       795    8    0    1
 -2       324       325       475      1768      2222      2223
 -1       796    8    0    1
 -2       325       474       475      2221      2224      2222
 -1       797    8    0    1
 -2       327       328       476      1777      2225      2226
 -1       798    8    0    1
 -2       328       329       477      1780      2227      2228
 -1       799    8    0    1
 -2       328       477       476      2228      2229      2225
 -1       800    8    0    1
 -2       329       330       478      1783      2230      2231
 -1       801    8    0    1
 -2       329       478       477      2231      2232      2227
 -1       802    8    0    1
 -2       330       331       479      1786      2233      2234
 -1       803    8    0    1
 -2       330       479       478      2234      2235      2230
 -1       804    8    0    1
 -2       331       332       480      1789      2236      2237
 -1       805    8    0    1
 -2       331       480       479      2237      2238      2233
 -1       806    8    0    1
 -2       332       333       481      1792      2239      2240
 -1       807    8    0    1
 -2       332       481       480      2240      2241      2236
 -1       808    8    0    1
 -2       383       384       482      1948      2242      2243
 -1       809    8    0    1
 -2       383       482       473      2243      2244      2218
 -1       810    8    0    1
 -2       338       337       483      1809      2245      2246
 -1       811    8    0    1
 -2       446       472       484      2189      2247      2248
 -1       812    8    0    1
 -2       339       338       485      1812      2249      2250
 -1       813    8    0    1
 -2       338       483       485      2246      2251      2249
 -1       814    8    0    1
 -2       340       339       486      1815      2252      2253
 -1       815    8    0    1
 -2       339       485       486      2250      2254      2252
 -1       816    8    0    1
 -2       341       340       487      1818      2255      2256
 -1       817    8    0    1
 -2       340       486       487      2253      2257      2255
 -1       818    8    0    1
 -2       342       341       488      1821      2258      2259
 -1       819    8    0    1
 -2       341       487       488      2256      2260      2258
 -1       820    8    0    1
 -2       343       342       489      1824      2261      2262
 -1       821    8    0    1
 -2       342       488       489      2259      2263      2261
 -1       822    8    0    1
 -2       344       343       490      1827      2264      2265
 -1       823    8    0    1
 -2       343       489       490      2262      2266      2264
 -1       824    8    0    1
 -2       345       344       491      1830      2267      2268
 -1       825    8    0    1
 -2       344       490       491      2265      2269      2267
 -1       826    8    0    1
 -2       346       345       492      1833      2270      2271
 -1       827    8    0    1
 -2       345       491       492      2268      2272      2270
 -1       828    8    0    1
 -2       347       346       493      1836      2273      2274
 -1       829    8    0    1
 -2       346       492       493      2271      2275      2273
 -1       830    8    0    1
 -2       348       347       494      1839      2276      2277
 -1       831    8    0    1
 -2       347       493       494      2274      2278      2276
 -1       832    8    0    1
 -2       349       348       495      1842      2279      2280
 -1       833    8    0    1
 -2       348       494       495      2277      2281      2279
 -1       834    8    0    1
 -2       350       349       496      1845      2282      2283
 -1       835    8    0    1
 -2       349       495       496      2280      2284      2282
 -1       836    8    0    1
 -2       351       350       497      1848      2285      2286
 -1       837    8    0    1
 -2       350       496       497      2283      2287      2285
 -1       838    8    0    1
 -2       352       351       498      1851      2288      2289
 -1       839    8    0    1
 -2       351       497       498      2286      2290      2288
 -1       840    8    0    1
 -2       353       352       499      1854      2291      2292
 -1       841    8    0    1
 -2       352       498       499      2289      2293      2291
 -1       842    8    0    1
 -2       354       353       500      1857      2294      2295
 -1       843    8    0    1
 -2       353       499       500      2292      2296      2294
 -1       844    8    0    1
 -2       355       354       501      1860      2297      2298
 -1       845    8    0    1
 -2       354       500       501      2295      2299      2297
 -1       846    8    0    1
 -2       356       355       502      1863      2300      2301
 -1       847    8    0    1
 -2       355       501       502      2298      2302      2300
 -1       848    8    0    1
 -2       357       356       503      1866      2303      2304
 -1       849    8    0    1
 -2       356       502       503      2301      2305      2303
 -1       850    8    0    1
 -2       358       357       504      1869      2306      2307
 -1       851    8    0    1
 -2       357       503       504      2304      2308      2306
 -1       852    8    0    1
 -2       359       358       505      1872      2309      2310
 -1       853    8    0    1
 -2       358       504       505      2307      2311      2309
 -1       854    8    0    1
 -2       360       359       506      1875      2312      2313
 -1       855    8    0    1
 -2       359       505       506      2310      2314      2312
 -1       856    8    0    1
 -2       361       360       507      1878      2315      2316
 -1       857    8    0    1
 -2       360       506       507      2313      2317      2315
 -1       858    8    0    1
 -2       362       361       508      1881      2318      2319
 -1       859    8    0    1
 -2       361       507       508      2316      2320      2318
 -1       860    8    0    1
 -2       363       362       509      1884      2321      2322
 -1       861    8    0    1
 -2       362       508       509      2319      2323      2321
 -1       862    8    0    1
 -2       364       363       510      1887      2324      2325
 -1       863    8    0    1
 -2       363       509       510      2322      2326      2324
 -1       864    8    0    1
 -2       365       364       511      1890      2327      2328
 -1       865    8    0    1
 -2       364       510       511      2325      2329      2327
 -1       866    8    0    1
 -2       366       365       512      1893      2330      2331
 -1       867    8    0    1
 -2       365       511       512      2328      2332      2330
 -1       868    8    0    1
 -2       367       366       513      1896      2333      2334
 -1       869    8    0    1
 -2       366       512       513      2331      2335      2333
 -1       870    8    0    1
 -2       368       367       514      1899      2336      2337
 -1       871    8    0    1
 -2       367       513       514      2334      2338      2336
 -1       872    8    0    1
 -2       369       368       515      1902      2339      2340
 -1       873    8    0    1
 -2       368       514       515      2337      2341      2339
 -1       874    8    0    1
 -2       370       369       516      1905      2342      2343
 -1       875    8    0    1
 -2       369       515       516      2340      2344      2342
 -1       876    8    0    1
 -2       371       370       517      1908      2345      2346
 -1       877    8    0    1
 -2       370       516       517      2343      2347      2345
 -1       878    8    0    1
 -2       372       371       518      1911      2348      2349
 -1       879    8    0    1
 -2       371       517       518      2346      2350      2348
 -1       880    8    0    1
 -2       373       372       519      1914      2351      2352
 -1       881    8    0    1
 -2       372       518       519      2349      2353      2351
 -1       882    8    0    1
 -2       374       373       520      1917      2354      2355
 -1       883    8    0    1
 -2       373       519       520      2352      2356      2354
 -1       884    8    0    1
 -2       375       374       521      1920      2357      2358
 -1       885    8    0    1
 -2       374       520       521      2355      2359      2357
 -1       886    8    0    1
 -2       376       375       522      1923      2360      2361
 -1       887    8    0    1
 -2       375       521       522      2358      2362      2360
 -1       888    8    0    1
 -2       377       376       523      1926      2363      2364
 -1       889    8    0    1
 -2       376       522       523      2361      2365      2363
 -1       890    8    0    1
 -2       378       377       524      1929      2366      2367
 -1       891    8    0    1
 -2       377       523       524      2364      2368      2366
 -1       892    8    0    1
 -2       379       378       525      1932      2369      2370
 -1       893    8    0    1
 -2       378       524       525      2367      2371      2369
 -1       894    8    0    1
 -2       380       379       526      1935      2372      2373
 -1       895    8    0    1
 -2       379       525       526      2370      2374      2372
 -1       896    8    0    1
 -2       381       380       527      1938      2375      2376
 -1       897    8    0    1
 -2       380       526       527      2373      2377      2375
 -1       898    8    0    1
 -2       385       386       528      1954      2378      2379
 -1       899    8    0    1
 -2       386       387       529      1957      2380      2381
 -1       900    8    0    1
 -2       386       529       528      2381      2382      2378
 -1       901    8    0    1
 -2       387       388       530      1960      2383      2384
 -1       902    8    0    1
 -2       387       530       529      2384      2385      2380
 -1       903    8    0    1
 -2       388       389       531      1963      2386      2387
 -1       904    8    0    1
 -2       388       531       530      2387      2388      2383
 -1       905    8    0    1
 -2       389       390       532      1966      2389      2390
 -1       906    8    0    1
 -2       389       532       531      2390      2391      2386
 -1       907    8    0    1
 -2       390       391       533      1969      2392      2393
 -1       908    8    0    1
 -2       390       533       532      2393      2394      2389
 -1       909    8    0    1
 -2       391       392       534      1972      2395      2396
 -1       910    8    0    1
 -2       391       534       533      2396      2397      2392
 -1       911    8    0    1
 -2       392       393       535      1975      2398      2399
 -1       912    8    0    1
 -2       392       535       534      2399      2400      2395
 -1       913    8    0    1
 -2       393       394       536      1978      2401      2402
 -1       914    8    0    1
 -2       393       536       535      2402      2403      2398
 -1       915    8    0    1
 -2       394       395       537      1981      2404      2405
 -1       916    8    0    1
 -2       394       537       536      2405      2406      2401
 -1       917    8    0    1
 -2       395       396       538      1984      2407      2408
 -1       918    8    0    1
 -2       395       538       537      2408      2409      2404
 -1       919    8    0    1
 -2       396       397       539      1987      2410      2411
 -1       920    8    0    1
 -2       396       539       538      2411      2412      2407
 -1       921    8    0    1
 -2       397       398       540      1990      2413      2414
 -1       922    8    0    1
 -2       397       540       539      2414      2415      2410
 -1       923    8    0    1
 -2       398       399       541      1993      2416      2417
 -1       924    8    0    1
 -2       398       541       540      2417      2418      2413
 -1       925    8    0    1
 -2       399       400       542      1996      2419      2420
 -1       926    8    0    1
 -2       399       542       541      2420      2421      2416
 -1       927    8    0    1
 -2       400       401       543      1999      2422      2423
 -1       928    8    0    1
 -2       400       543       542      2423      2424      2419
 -1       929    8    0    1
 -2       401       402       544      2002      2425      2426
 -1       930    8    0    1
 -2       401       544       543      2426      2427      2422
 -1       931    8    0    1
 -2       402       403       545      2005      2428      2429
 -1       932    8    0    1
 -2       402       545       544      2429      2430      2425
 -1       933    8    0    1
 -2       403       404       546      2008      2431      2432
 -1       934    8    0    1
 -2       403       546       545      2432      2433      2428
 -1       935    8    0    1
 -2       404       405       547      2011      2434      2435
 -1       936    8    0    1
 -2       404       547       546      2435      2436      2431
 -1       937    8    0    1
 -2       405       406       548      2014      2437      2438
 -1       938    8    0    1
 -2       405       548       547      2438      2439      2434
 -1       939    8    0    1
 -2       406       407       549      2017      2440      2441
 -1       940    8    0    1
 -2       406       549       548      2441      2442      2437
 -1       941    8    0    1
 -2       407       408       550      2020      2443      2444
 -1       942    8    0    1
 -2       407       550       549      2444      2445      2440
 -1       943    8    0    1
 -2       408       409       551      2023      2446      2447
 -1       944    8    0    1
 -2       408       551       550      2447      2448      2443
 -1       945    8    0    1
 -2       409       410       552      2026      2449      2450
 -1       946    8    0    1
 -2       409       552       551      2450      2451      2446
 -1       947    8    0    1
 -2       410       411       553      2029      2452      2453
 -1       948    8    0    1
 -2       410       553       552      2453      2454      2449
 -1       949    8    0    1
 -2       411       412       554      2032      2455      2456
 -1       950    8    0    1
 -2       411       554       553      2456      2457      2452
 -1       951    8    0    1
 -2       412       413       555      2035      2458      2459
 -1       952    8    0    1
 -2       412       555       554      2459      2460      2455
 -1       953    8    0    1
 -2       413       414       556      2038      2461      2462
 -1       954    8    0    1
 -2       413       556       555      2462      2463      2458
 -1       955    8    0    1
 -2       414       415       557      2041      2464      2465
 -1       956    8    0    1
 -2       414       557       556      2465      2466      2461
 -1       957    8    0    1
 -2       415       416       558      2044      2467      2468
 -1       958    8    0    1
 -2       415       558       557      2468      2469      2464
 -1       959    8    0    1
 -2       416       417       559      2047      2470      2471
 -1       960    8    0    1
 -2       416       559       558      2471      2472      2467
 -1       961    8    0    1
 -2       417       418       560      2050      2473      2474
 -1       962    8    0    1
 -2       417       560       559      2474      2475      2470
 -1       963    8    0    1
 -2       418       419       561      2053      2476      2477
 -1       964    8    0    1
 -2       418       561       560      2477      2478      2473
 -1       965    8    0    1
 -2       419       420       562      2056      2479      2480
 -1       966    8    0    1
 -2       419       562       561      2480      2481      2476
 -1       967    8    0    1
 -2       420       421       563      2059      2482      2483
 -1       968    8    0    1
 -2       420       563       562      2483      2484      2479
 -1       969    8    0    1
 -2       421       422       564      2062      2485      2486
 -1       970    8    0    1
 -2       421       564       563      2486      2487      2482
 -1       971    8    0    1
 -2       422       423       565      2065      2488      2489
 -1       972    8    0    1
 -2       422       565       564      2489      2490      2485
 -1       973    8    0    1
 -2       423       424       566      2068      2491      2492
 -1       974    8    0    1
 -2       423       566       565      2492      2493      2488
 -1       975    8    0    1
 -2       424       425       567      2071      2494      2495
 -1       976    8    0    1
 -2       424       567       566      2495      2496      2491
 -1       977    8    0    1
 -2       425       426       568      2074      2497      2498
 -1       978    8    0    1
 -2       425       568       567      2498      2499      2494
 -1       979    8    0    1
 -2       426       427       569      2077      2500      2501
 -1       980    8    0    1
 -2       426       569       568      2501      2502      2497
 -1       981    8    0    1
 -2       427       428       431      2080      2089      2503
 -1       982    8    0    1
 -2       432       433       570      2096      2504      2505
 -1       983    8    0    1
 -2       433       434       571      2099      2506      2507
 -1       984    8    0    1
 -2       433       571       570      2507      2508      2504
 -1       985    8    0    1
 -2       430       429       572      2086      2509      2510
 -1       986    8    0    1
 -2       429       432       573      2093      2511      2512
 -1       987    8    0    1
 -2       572       429       573      2509      2512      2513
 -1       988    8    0    1
 -2       432       570       573      2505      2514      2511
 -1       989    8    0    1
 -2       434       435       574      2102      2515      2516
 -1       990    8    0    1
 -2       434       574       571      2516      2517      2506
 -1       991    8    0    1
 -2       435       436       575      2105      2518      2519
 -1       992    8    0    1
 -2       435       575       574      2519      2520      2515
 -1       993    8    0    1
 -2       436       437       576      2108      2521      2522
 -1       994    8    0    1
 -2       436       576       575      2522      2523      2518
 -1       995    8    0    1
 -2       437       438       577      2111      2524      2525
 -1       996    8    0    1
 -2       437       577       576      2525      2526      2521
 -1       997    8    0    1
 -2       438       439       578      2114      2527      2528
 -1       998    8    0    1
 -2       438       578       577      2528      2529      2524
 -1       999    8    0    1
 -2       439       440       579      2117      2530      2531
 -1      1000    8    0    1
 -2       439       579       578      2531      2532      2527
 -1      1001    8    0    1
 -2       440       441       580      2120      2533      2534
 -1      1002    8    0    1
 -2       440       580       579      2534      2535      2530
 -1      1003    8    0    1
 -2       443       444       581      2193      2536      2537
 -1      1004    8    0    1
 -2       442       445       582      2195      2538      2539
 -1      1005    8    0    1
 -2       384       385       583      1951      2540      2541
 -1      1006    8    0    1
 -2       385       528       583      2379      2542      2540
 -1      1007    8    0    1
 -2       441       291       382      2194      1941      2543
 -1      1008    8    0    1
 -2       471       443       584      2196      2544      2545
 -1      1009    8    0    1
 -2       443       581       584      2537      2546      2544
 -1      1010    8    0    1
 -2       444       442       585      2192      2547      2548
 -1      1011    8    0    1
 -2       337       323       586      2191      2549      2550
 -1      1012    8    0    1
 -2       483       337       586      2245      2550      2551
 -1      1013    8    0    1
 -2       323       322       586      1763      2552      2549
 -1      1014    8    0    1
 -2       468       469       587      2198      2553      2554
 -1      1015    8    0    1
 -2       326       327       588      1774      2555      2556
 -1      1016    8    0    1
 -2       474       326       588      2220      2556      2557
 -1      1017    8    0    1
 -2       327       476       588      2226      2558      2555
 -1      1018    8    0    1
 -2       448       449       589      2216      2559      2560
 -1      1019    8    0    1
 -2       451       452       590      2217      2561      2562
 -1      1020    8    0    1
 -2       449       450       591      2141      2563      2564
 -1      1021    8    0    1
 -2       450       451       592      2215      2565      2566
 -1      1022    8    0    1
 -2       452       453       593      2214      2567      2568
 -1      1023    8    0    1
 -2       453       454       594      2213      2569      2570
 -1      1024    8    0    1
 -2       454       455       595      2212      2571      2572
 -1      1025    8    0    1
 -2       454       595       594      2572      2573      2569
 -1      1026    8    0    1
 -2       455       456       596      2211      2574      2575
 -1      1027    8    0    1
 -2       456       457       597      2210      2576      2577
 -1      1028    8    0    1
 -2       457       458       598      2209      2578      2579
 -1      1029    8    0    1
 -2       457       598       597      2579      2580      2576
 -1      1030    8    0    1
 -2       458       459       599      2208      2581      2582
 -1      1031    8    0    1
 -2       459       460       600      2207      2583      2584
 -1      1032    8    0    1
 -2       459       600       599      2584      2585      2581
 -1      1033    8    0    1
 -2       460       461       601      2206      2586      2587
 -1      1034    8    0    1
 -2       461       462       602      2205      2588      2589
 -1      1035    8    0    1
 -2       461       602       601      2589      2590      2586
 -1      1036    8    0    1
 -2       462       463       603      2204      2591      2592
 -1      1037    8    0    1
 -2       463       464       604      2203      2593      2594
 -1      1038    8    0    1
 -2       463       604       603      2594      2595      2591
 -1      1039    8    0    1
 -2       464       465       605      2202      2596      2597
 -1      1040    8    0    1
 -2       465       466       606      2201      2598      2599
 -1      1041    8    0    1
 -2       466       467       607      2200      2600      2601
 -1      1042    8    0    1
 -2       467       468       608      2199      2602      2603
 -1      1043    8    0    1
 -2       468       587       608      2554      2604      2602
 -1      1044    8    0    1
 -2       469       470       609      2182      2605      2606
 -1      1045    8    0    1
 -2       470       471       610      2197      2607      2608
 -1      1046    8    0    1
 -2       472       448       611      2190      2609      2610
 -1      1047    8    0    1
 -2       472       611       484      2610      2611      2247
 -1      1048    8    0    1
 -2       335       336       612      1803      2612      2613
 -1      1049    8    0    1
 -2       334       335       612      1798      2613      2614
 -1      1050    8    0    1
 -2       336       473       612      2219      2615      2612
 -1      1051    8    0    1
 -2       445       446       613      2187      2616      2617
 -1      1052    8    0    1
 -2       448       589       611      2560      2618      2609
 -1      1053    8    0    1
 -2       324       475       614      2223      2619      2620
 -1      1054    8    0    1
 -2       324       614       447      2620      2621      2134
 -1      1055    8    0    1
 -2       482       384       583      2242      2541      2622
 -1      1056    8    0    1
 -2       333       334       612      1795      2614      2623
 -1      1057    8    0    1
 -2       613       446       484      2616      2248      2624
 -1      1058    8    0    1
 -2       587       469       609      2553      2606      2625
 -1      1059    8    0    1
 -2       471       584       615      2545      2626      2627
 -1      1060    8    0    1
 -2       471       615       610      2627      2628      2607
 -1      1061    8    0    1
 -2       427       431       569      2503      2629      2500
 -1      1062    8    0    1
 -2       582       445       613      2538      2617      2630
 -1      1063    8    0    1
 -2       431       430       569      2090      2631      2629
 -1      1064    8    0    1
 -2       444       585       581      2548      2632      2536
 -1      1065    8    0    1
 -2       442       582       585      2539      2633      2547
 -1      1066    8    0    1
 -2       333       612       481      2623      2634      2239
 -1      1067    8    0    1
 -2       586       322       447      2552      2133      2635
 -1      1068    8    0    1
 -2       607       467       608      2600      2603      2636
 -1      1069    8    0    1
 -2       606       466       607      2598      2601      2637
 -1      1070    8    0    1
 -2       604       464       605      2593      2597      2638
 -1      1071    8    0    1
 -2       602       462       603      2588      2592      2639
 -1      1072    8    0    1
 -2       600       460       601      2583      2587      2640
 -1      1073    8    0    1
 -2       598       458       599      2578      2582      2641
 -1      1074    8    0    1
 -2       595       455       596      2571      2575      2642
 -1      1075    8    0    1
 -2       593       453       594      2567      2570      2643
 -1      1076    8    0    1
 -2       592       451       590      2565      2562      2644
 -1      1077    8    0    1
 -2       591       450       592      2563      2566      2645
 -1      1078    8    0    1
 -2       590       452       593      2561      2568      2646
 -1      1079    8    0    1
 -2       589       449       591      2559      2564      2647
 -1      1080    8    0    1
 -2       441       382       616      2543      2648      2649
 -1      1081    8    0    1
 -2       580       441       616      2533      2649      2650
 -1      1082    8    0    1
 -2       382       381       616      1942      2651      2648
 -1      1083    8    0    1
 -2       569       430       572      2631      2510      2652
 -1      1084    8    0    1
 -2       596       456       597      2574      2577      2653
 -1      1085    8    0    1
 -2       605       465       606      2596      2599      2654
 -1      1086    8    0    1
 -2       609       470       610      2605      2608      2655
 -1      1087    8    0    1
 -2       616       381       527      2651      2376      2656
 -1      1088    8    0    1
 -2       477       478       617      2232      2657      2658
 -1      1089    8    0    1
 -2       476       477       618      2229      2659      2660
 -1      1090    8    0    1
 -2       477       617       618      2658      2661      2659
 -1      1091    8    0    1
 -2       479       480       619      2238      2662      2663
 -1      1092    8    0    1
 -2       480       481       620      2241      2664      2665
 -1      1093    8    0    1
 -2       480       620       619      2665      2666      2662
 -1      1094    8    0    1
 -2       473       482       621      2244      2667      2668
 -1      1095    8    0    1
 -2       586       447       614      2635      2621      2669
 -1      1096    8    0    1
 -2       587       609       622      2625      2670      2671
 -1      1097    8    0    1
 -2       486       485       623      2254      2672      2673
 -1      1098    8    0    1
 -2       487       486       624      2257      2674      2675
 -1      1099    8    0    1
 -2       486       623       624      2673      2676      2674
 -1      1100    8    0    1
 -2       488       487       625      2260      2677      2678
 -1      1101    8    0    1
 -2       487       624       625      2675      2679      2677
 -1      1102    8    0    1
 -2       489       488       626      2263      2680      2681
 -1      1103    8    0    1
 -2       488       625       626      2678      2682      2680
 -1      1104    8    0    1
 -2       490       489       627      2266      2683      2684
 -1      1105    8    0    1
 -2       489       626       627      2681      2685      2683
 -1      1106    8    0    1
 -2       491       490       628      2269      2686      2687
 -1      1107    8    0    1
 -2       490       627       628      2684      2688      2686
 -1      1108    8    0    1
 -2       492       491       629      2272      2689      2690
 -1      1109    8    0    1
 -2       491       628       629      2687      2691      2689
 -1      1110    8    0    1
 -2       493       492       630      2275      2692      2693
 -1      1111    8    0    1
 -2       492       629       630      2690      2694      2692
 -1      1112    8    0    1
 -2       494       493       631      2278      2695      2696
 -1      1113    8    0    1
 -2       493       630       631      2693      2697      2695
 -1      1114    8    0    1
 -2       495       494       632      2281      2698      2699
 -1      1115    8    0    1
 -2       494       631       632      2696      2700      2698
 -1      1116    8    0    1
 -2       496       495       633      2284      2701      2702
 -1      1117    8    0    1
 -2       495       632       633      2699      2703      2701
 -1      1118    8    0    1
 -2       497       496       634      2287      2704      2705
 -1      1119    8    0    1
 -2       496       633       634      2702      2706      2704
 -1      1120    8    0    1
 -2       498       497       635      2290      2707      2708
 -1      1121    8    0    1
 -2       497       634       635      2705      2709      2707
 -1      1122    8    0    1
 -2       499       498       636      2293      2710      2711
 -1      1123    8    0    1
 -2       498       635       636      2708      2712      2710
 -1      1124    8    0    1
 -2       500       499       637      2296      2713      2714
 -1      1125    8    0    1
 -2       499       636       637      2711      2715      2713
 -1      1126    8    0    1
 -2       501       500       638      2299      2716      2717
 -1      1127    8    0    1
 -2       500       637       638      2714      2718      2716
 -1      1128    8    0    1
 -2       502       501       639      2302      2719      2720
 -1      1129    8    0    1
 -2       501       638       639      2717      2721      2719
 -1      1130    8    0    1
 -2       503       502       640      2305      2722      2723
 -1      1131    8    0    1
 -2       502       639       640      2720      2724      2722
 -1      1132    8    0    1
 -2       504       503       641      2308      2725      2726
 -1      1133    8    0    1
 -2       503       640       641      2723      2727      2725
 -1      1134    8    0    1
 -2       505       504       642      2311      2728      2729
 -1      1135    8    0    1
 -2       504       641       642      2726      2730      2728
 -1      1136    8    0    1
 -2       506       505       643      2314      2731      2732
 -1      1137    8    0    1
 -2       505       642       643      2729      2733      2731
 -1      1138    8    0    1
 -2       507       506       644      2317      2734      2735
 -1      1139    8    0    1
 -2       506       643       644      2732      2736      2734
 -1      1140    8    0    1
 -2       508       507       645      2320      2737      2738
 -1      1141    8    0    1
 -2       507       644       645      2735      2739      2737
 -1      1142    8    0    1
 -2       509       508       646      2323      2740      2741
 -1      1143    8    0    1
 -2       508       645       646      2738      2742      2740
 -1      1144    8    0    1
 -2       510       509       647      2326      2743      2744
 -1      1145    8    0    1
 -2       509       646       647      2741      2745      2743
 -1      1146    8    0    1
 -2       511       510       648      2329      2746      2747
 -1      1147    8    0    1
 -2       510       647       648      2744      2748      2746
 -1      1148    8    0    1
 -2       512       511       649      2332      2749      2750
 -1      1149    8    0    1
 -2       511       648       649      2747      2751      2749
 -1      1150    8    0    1
 -2       513       512       650      2335      2752      2753
 -1      1151    8    0    1
 -2       512       649       650      2750      2754      2752
 -1      1152    8    0    1
 -2       514       513       651      2338      2755      2756
 -1      1153    8    0    1
 -2       513       650       651      2753      2757      2755
 -1      1154    8    0    1
 -2       515       514       652      2341      2758      2759
 -1      1155    8    0    1
 -2       514       651       652      2756      2760      2758
 -1      1156    8    0    1
 -2       516       515       653      2344      2761      2762
 -1      1157    8    0    1
 -2       515       652       653      2759      2763      2761
 -1      1158    8    0    1
 -2       517       516       654      2347      2764      2765
 -1      1159    8    0    1
 -2       516       653       654      2762      2766      2764
 -1      1160    8    0    1
 -2       518       517       655      2350      2767      2768
 -1      1161    8    0    1
 -2       517       654       655      2765      2769      2767
 -1      1162    8    0    1
 -2       519       518       656      2353      2770      2771
 -1      1163    8    0    1
 -2       518       655       656      2768      2772      2770
 -1      1164    8    0    1
 -2       520       519       657      2356      2773      2774
 -1      1165    8    0    1
 -2       519       656       657      2771      2775      2773
 -1      1166    8    0    1
 -2       521       520       658      2359      2776      2777
 -1      1167    8    0    1
 -2       520       657       658      2774      2778      2776
 -1      1168    8    0    1
 -2       522       521       659      2362      2779      2780
 -1      1169    8    0    1
 -2       521       658       659      2777      2781      2779
 -1      1170    8    0    1
 -2       523       522       660      2365      2782      2783
 -1      1171    8    0    1
 -2       522       659       660      2780      2784      2782
 -1      1172    8    0    1
 -2       524       523       661      2368      2785      2786
 -1      1173    8    0    1
 -2       523       660       661      2783      2787      2785
 -1      1174    8    0    1
 -2       525       524       662      2371      2788      2789
 -1      1175    8    0    1
 -2       524       661       662      2786      2790      2788
 -1      1176    8    0    1
 -2       526       525       663      2374      2791      2792
 -1      1177    8    0    1
 -2       525       662       663      2789      2793      2791
 -1      1178    8    0    1
 -2       527       526       664      2377      2794      2795
 -1      1179    8    0    1
 -2       526       663       664      2792      2796      2794
 -1      1180    8    0    1
 -2       529       530       665      2385      2797      2798
 -1      1181    8    0    1
 -2       569       572       666      2652      2799      2800
 -1      1182    8    0    1
 -2       569       666       568      2800      2801      2502
 -1      1183    8    0    1
 -2       528       529       667      2382      2802      2803
 -1      1184    8    0    1
 -2       529       665       667      2798      2804      2802
 -1      1185    8    0    1
 -2       531       532       668      2391      2805      2806
 -1      1186    8    0    1
 -2       532       533       669      2394      2807      2808
 -1      1187    8    0    1
 -2       532       669       668      2808      2809      2805
 -1      1188    8    0    1
 -2       533       534       670      2397      2810      2811
 -1      1189    8    0    1
 -2       533       670       669      2811      2812      2807
 -1      1190    8    0    1
 -2       534       535       671      2400      2813      2814
 -1      1191    8    0    1
 -2       534       671       670      2814      2815      2810
 -1      1192    8    0    1
 -2       535       536       672      2403      2816      2817
 -1      1193    8    0    1
 -2       535       672       671      2817      2818      2813
 -1      1194    8    0    1
 -2       536       537       673      2406      2819      2820
 -1      1195    8    0    1
 -2       536       673       672      2820      2821      2816
 -1      1196    8    0    1
 -2       537       538       674      2409      2822      2823
 -1      1197    8    0    1
 -2       537       674       673      2823      2824      2819
 -1      1198    8    0    1
 -2       538       539       675      2412      2825      2826
 -1      1199    8    0    1
 -2       538       675       674      2826      2827      2822
 -1      1200    8    0    1
 -2       539       540       676      2415      2828      2829
 -1      1201    8    0    1
 -2       539       676       675      2829      2830      2825
 -1      1202    8    0    1
 -2       540       541       677      2418      2831      2832
 -1      1203    8    0    1
 -2       540       677       676      2832      2833      2828
 -1      1204    8    0    1
 -2       541       542       678      2421      2834      2835
 -1      1205    8    0    1
 -2       541       678       677      2835      2836      2831
 -1      1206    8    0    1
 -2       542       543       679      2424      2837      2838
 -1      1207    8    0    1
 -2       542       679       678      2838      2839      2834
 -1      1208    8    0    1
 -2       543       544       680      2427      2840      2841
 -1      1209    8    0    1
 -2       543       680       679      2841      2842      2837
 -1      1210    8    0    1
 -2       544       545       681      2430      2843      2844
 -1      1211    8    0    1
 -2       544       681       680      2844      2845      2840
 -1      1212    8    0    1
 -2       545       546       682      2433      2846      2847
 -1      1213    8    0    1
 -2       545       682       681      2847      2848      2843
 -1      1214    8    0    1
 -2       546       547       683      2436      2849      2850
 -1      1215    8    0    1
 -2       546       683       682      2850      2851      2846
 -1      1216    8    0    1
 -2       547       548       684      2439      2852      2853
 -1      1217    8    0    1
 -2       547       684       683      2853      2854      2849
 -1      1218    8    0    1
 -2       548       549       685      2442      2855      2856
 -1      1219    8    0    1
 -2       548       685       684      2856      2857      2852
 -1      1220    8    0    1
 -2       549       550       686      2445      2858      2859
 -1      1221    8    0    1
 -2       549       686       685      2859      2860      2855
 -1      1222    8    0    1
 -2       550       551       687      2448      2861      2862
 -1      1223    8    0    1
 -2       550       687       686      2862      2863      2858
 -1      1224    8    0    1
 -2       551       552       688      2451      2864      2865
 -1      1225    8    0    1
 -2       551       688       687      2865      2866      2861
 -1      1226    8    0    1
 -2       552       553       689      2454      2867      2868
 -1      1227    8    0    1
 -2       552       689       688      2868      2869      2864
 -1      1228    8    0    1
 -2       553       554       690      2457      2870      2871
 -1      1229    8    0    1
 -2       553       690       689      2871      2872      2867
 -1      1230    8    0    1
 -2       554       555       691      2460      2873      2874
 -1      1231    8    0    1
 -2       554       691       690      2874      2875      2870
 -1      1232    8    0    1
 -2       555       556       692      2463      2876      2877
 -1      1233    8    0    1
 -2       555       692       691      2877      2878      2873
 -1      1234    8    0    1
 -2       556       557       693      2466      2879      2880
 -1      1235    8    0    1
 -2       556       693       692      2880      2881      2876
 -1      1236    8    0    1
 -2       557       558       694      2469      2882      2883
 -1      1237    8    0    1
 -2       557       694       693      2883      2884      2879
 -1      1238    8    0    1
 -2       559       560       695      2475      2885      2886
 -1      1239    8    0    1
 -2       560       561       696      2478      2887      2888
 -1      1240    8    0    1
 -2       561       562       697      2481      2889      2890
 -1      1241    8    0    1
 -2       561       697       696      2890      2891      2887
 -1      1242    8    0    1
 -2       562       563       698      2484      2892      2893
 -1      1243    8    0    1
 -2       562       698       697      2893      2894      2889
 -1      1244    8    0    1
 -2       563       564       699      2487      2895      2896
 -1      1245    8    0    1
 -2       563       699       698      2896      2897      2892
 -1      1246    8    0    1
 -2       564       565       700      2490      2898      2899
 -1      1247    8    0    1
 -2       564       700       699      2899      2900      2895
 -1      1248    8    0    1
 -2       565       566       701      2493      2901      2902
 -1      1249    8    0    1
 -2       565       701       700      2902      2903      2898
 -1      1250    8    0    1
 -2       566       567       702      2496      2904      2905
 -1      1251    8    0    1
 -2       566       702       701      2905      2906      2901
 -1      1252    8    0    1
 -2       567       568       703      2499      2907      2908
 -1      1253    8    0    1
 -2       702       567       703      2904      2908      2909
 -1      1254    8    0    1
 -2       568       666       703      2801      2910      2907
 -1      1255    8    0    1
 -2       582       613       704      2630      2911      2912
 -1      1256    8    0    1
 -2       574       575       705      2520      2913      2914
 -1      1257    8    0    1
 -2       596       597       706      2653      2915      2916
 -1      1258    8    0    1
 -2       570       571       707      2508      2917      2918
 -1      1259    8    0    1
 -2       575       576       708      2523      2919      2920
 -1      1260    8    0    1
 -2       575       708       705      2920      2921      2913
 -1      1261    8    0    1
 -2       571       574       709      2517      2922      2923
 -1      1262    8    0    1
 -2       707       571       709      2917      2923      2924
 -1      1263    8    0    1
 -2       574       705       709      2914      2925      2922
 -1      1264    8    0    1
 -2       576       577       710      2526      2926      2927
 -1      1265    8    0    1
 -2       576       710       708      2927      2928      2919
 -1      1266    8    0    1
 -2       577       578       711      2529      2929      2930
 -1      1267    8    0    1
 -2       577       711       710      2930      2931      2926
 -1      1268    8    0    1
 -2       578       579       712      2532      2932      2933
 -1      1269    8    0    1
 -2       578       712       711      2933      2934      2929
 -1      1270    8    0    1
 -2       585       582       713      2633      2935      2936
 -1      1271    8    0    1
 -2       581       585       714      2632      2937      2938
 -1      1272    8    0    1
 -2       585       713       714      2936      2939      2937
 -1      1273    8    0    1
 -2       608       587       715      2604      2940      2941
 -1      1274    8    0    1
 -2       587       622       715      2671      2942      2940
 -1      1275    8    0    1
 -2       584       581       716      2546      2943      2944
 -1      1276    8    0    1
 -2       481       612       473      2634      2615      2945
 -1      1277    8    0    1
 -2       483       586       717      2551      2946      2947
 -1      1278    8    0    1
 -2       485       483       717      2251      2947      2948
 -1      1279    8    0    1
 -2       586       614       717      2669      2949      2946
 -1      1280    8    0    1
 -2       595       596       718      2642      2950      2951
 -1      1281    8    0    1
 -2       593       594       719      2643      2952      2953
 -1      1282    8    0    1
 -2       583       528       720      2542      2954      2955
 -1      1283    8    0    1
 -2       528       667       720      2803      2956      2954
 -1      1284    8    0    1
 -2       530       531       721      2388      2957      2958
 -1      1285    8    0    1
 -2       665       530       721      2797      2958      2959
 -1      1286    8    0    1
 -2       531       668       721      2806      2960      2957
 -1      1287    8    0    1
 -2       613       484       722      2624      2961      2962
 -1      1288    8    0    1
 -2       478       479       723      2235      2963      2964
 -1      1289    8    0    1
 -2       617       478       723      2657      2964      2965
 -1      1290    8    0    1
 -2       479       619       723      2663      2966      2963
 -1      1291    8    0    1
 -2       475       474       724      2224      2967      2968
 -1      1292    8    0    1
 -2       482       583       725      2622      2969      2970
 -1      1293    8    0    1
 -2       621       482       725      2667      2970      2971
 -1      1294    8    0    1
 -2       583       720       725      2955      2972      2969
 -1      1295    8    0    1
 -2       607       608       726      2636      2973      2974
 -1      1296    8    0    1
 -2       591       592       695      2645      2975      2976
 -1      1297    8    0    1
 -2       580       616       727      2650      2977      2978
 -1      1298    8    0    1
 -2       616       527       727      2656      2979      2977
 -1      1299    8    0    1
 -2       590       593       694      2646      2980      2981
 -1      1300    8    0    1
 -2       589       591       696      2647      2982      2983
 -1      1301    8    0    1
 -2       592       590       728      2644      2984      2985
 -1      1302    8    0    1
 -2       695       592       728      2975      2985      2986
 -1      1303    8    0    1
 -2       590       694       728      2981      2987      2984
 -1      1304    8    0    1
 -2       594       595       729      2573      2988      2989
 -1      1305    8    0    1
 -2       594       729       719      2989      2990      2952
 -1      1306    8    0    1
 -2       605       606       730      2654      2991      2992
 -1      1307    8    0    1
 -2       597       598       731      2580      2993      2994
 -1      1308    8    0    1
 -2       598       599       732      2641      2995      2996
 -1      1309    8    0    1
 -2       599       600       733      2585      2997      2998
 -1      1310    8    0    1
 -2       600       601       734      2640      2999      3000
 -1      1311    8    0    1
 -2       600       734       733      3000      3001      2997
 -1      1312    8    0    1
 -2       601       602       735      2590      3002      3003
 -1      1313    8    0    1
 -2       602       603       736      2639      3004      3005
 -1      1314    8    0    1
 -2       603       604       737      2595      3006      3007
 -1      1315    8    0    1
 -2       609       610       738      2655      3008      3009
 -1      1316    8    0    1
 -2       604       605       739      2638      3010      3011
 -1      1317    8    0    1
 -2       604       739       737      3011      3012      3006
 -1      1318    8    0    1
 -2       606       607       740      2637      3013      3014
 -1      1319    8    0    1
 -2       484       611       741      2611      3015      3016
 -1      1320    8    0    1
 -2       484       741       722      3016      3017      2961
 -1      1321    8    0    1
 -2       611       589       742      2618      3018      3019
 -1      1322    8    0    1
 -2       614       475       743      2619      3020      3021
 -1      1323    8    0    1
 -2       475       724       743      2968      3022      3020
 -1      1324    8    0    1
 -2       476       618       744      2660      3023      3024
 -1      1325    8    0    1
 -2       476       744       588      3024      3025      2558
 -1      1326    8    0    1
 -2       726       608       715      2973      2941      3026
 -1      1327    8    0    1
 -2       595       718       729      2951      3027      2988
 -1      1328    8    0    1
 -2       622       609       738      2670      3009      3028
 -1      1329    8    0    1
 -2       615       584       745      2626      3029      3030
 -1      1330    8    0    1
 -2       584       716       745      2944      3031      3029
 -1      1331    8    0    1
 -2       613       722       704      2962      3032      2911
 -1      1332    8    0    1
 -2       527       664       727      2795      3033      2979
 -1      1333    8    0    1
 -2       611       742       741      3019      3034      3015
 -1      1334    8    0    1
 -2       582       704       713      2912      3035      2935
 -1      1335    8    0    1
 -2       559       695       728      2886      2986      3036
 -1      1336    8    0    1
 -2       694       558       728      2882      3037      2987
 -1      1337    8    0    1
 -2       695       560       696      2885      2888      3038
 -1      1338    8    0    1
 -2       558       559       728      2472      3036      3037
 -1      1339    8    0    1
 -2       596       706       718      2916      3039      2950
 -1      1340    8    0    1
 -2       570       707       746      2918      3040      3041
 -1      1341    8    0    1
 -2       570       746       573      3041      3042      2514
 -1      1342    8    0    1
 -2       572       573       666      2513      3043      2799
 -1      1343    8    0    1
 -2       739       605       747      3010      3044      3045
 -1      1344    8    0    1
 -2       605       730       747      2992      3046      3044
 -1      1345    8    0    1
 -2       579       580       727      2535      2978      3047
 -1      1346    8    0    1
 -2       738       610       748      3008      3048      3049
 -1      1347    8    0    1
 -2       610       615       748      2628      3050      3048
 -1      1348    8    0    1
 -2       581       714       716      2938      3051      2943
 -1      1349    8    0    1
 -2       606       740       730      3014      3052      2991
 -1      1350    8    0    1
 -2       736       603       737      3004      3007      3053
 -1      1351    8    0    1
 -2       734       601       735      2999      3003      3054
 -1      1352    8    0    1
 -2       481       473       621      2945      2668      3055
 -1      1353    8    0    1
 -2       579       727       749      3047      3056      3057
 -1      1354    8    0    1
 -2       712       579       749      2932      3057      3058
 -1      1355    8    0    1
 -2       727       664       749      3033      3059      3056
 -1      1356    8    0    1
 -2       481       621       620      3055      3060      2664
 -1      1357    8    0    1
 -2       474       588       750      2557      3061      3062
 -1      1358    8    0    1
 -2       724       474       750      2967      3062      3063
 -1      1359    8    0    1
 -2       588       744       750      3025      3064      3061
 -1      1360    8    0    1
 -2       732       599       733      2995      2998      3065
 -1      1361    8    0    1
 -2       696       591       695      2982      2976      3038
 -1      1362    8    0    1
 -2       593       719       694      2953      3066      2980
 -1      1363    8    0    1
 -2       607       726       751      2974      3067      3068
 -1      1364    8    0    1
 -2       607       751       740      3068      3069      3013
 -1      1365    8    0    1
 -2       706       597       731      2915      2994      3070
 -1      1366    8    0    1
 -2       731       598       732      2993      2996      3071
 -1      1367    8    0    1
 -2       623       485       717      2672      2948      3072
 -1      1368    8    0    1
 -2       735       602       736      3002      3005      3073
 -1      1369    8    0    1
 -2       619       620       752      2666      3074      3075
 -1      1370    8    0    1
 -2       732       733       753      3065      3076      3077
 -1      1371    8    0    1
 -2       625       624       754      2679      3078      3079
 -1      1372    8    0    1
 -2       626       625       755      2682      3080      3081
 -1      1373    8    0    1
 -2       625       754       755      3079      3082      3080
 -1      1374    8    0    1
 -2       627       626       756      2685      3083      3084
 -1      1375    8    0    1
 -2       626       755       756      3081      3085      3083
 -1      1376    8    0    1
 -2       628       627       757      2688      3086      3087
 -1      1377    8    0    1
 -2       627       756       757      3084      3088      3086
 -1      1378    8    0    1
 -2       629       628       758      2691      3089      3090
 -1      1379    8    0    1
 -2       628       757       758      3087      3091      3089
 -1      1380    8    0    1
 -2       630       629       759      2694      3092      3093
 -1      1381    8    0    1
 -2       629       758       759      3090      3094      3092
 -1      1382    8    0    1
 -2       631       630       760      2697      3095      3096
 -1      1383    8    0    1
 -2       630       759       760      3093      3097      3095
 -1      1384    8    0    1
 -2       632       631       761      2700      3098      3099
 -1      1385    8    0    1
 -2       631       760       761      3096      3100      3098
 -1      1386    8    0    1
 -2       633       632       762      2703      3101      3102
 -1      1387    8    0    1
 -2       632       761       762      3099      3103      3101
 -1      1388    8    0    1
 -2       634       633       763      2706      3104      3105
 -1      1389    8    0    1
 -2       633       762       763      3102      3106      3104
 -1      1390    8    0    1
 -2       635       634       764      2709      3107      3108
 -1      1391    8    0    1
 -2       634       763       764      3105      3109      3107
 -1      1392    8    0    1
 -2       636       635       765      2712      3110      3111
 -1      1393    8    0    1
 -2       635       764       765      3108      3112      3110
 -1      1394    8    0    1
 -2       637       636       766      2715      3113      3114
 -1      1395    8    0    1
 -2       636       765       766      3111      3115      3113
 -1      1396    8    0    1
 -2       638       637       767      2718      3116      3117
 -1      1397    8    0    1
 -2       637       766       767      3114      3118      3116
 -1      1398    8    0    1
 -2       639       638       768      2721      3119      3120
 -1      1399    8    0    1
 -2       638       767       768      3117      3121      3119
 -1      1400    8    0    1
 -2       640       639       769      2724      3122      3123
 -1      1401    8    0    1
 -2       639       768       769      3120      3124      3122
 -1      1402    8    0    1
 -2       641       640       770      2727      3125      3126
 -1      1403    8    0    1
 -2       640       769       770      3123      3127      3125
 -1      1404    8    0    1
 -2       642       641       771      2730      3128      3129
 -1      1405    8    0    1
 -2       641       770       771      3126      3130      3128
 -1      1406    8    0    1
 -2       643       642       772      2733      3131      3132
 -1      1407    8    0    1
 -2       642       771       772      3129      3133      3131
 -1      1408    8    0    1
 -2       644       643       773      2736      3134      3135
 -1      1409    8    0    1
 -2       643       772       773      3132      3136      3134
 -1      1410    8    0    1
 -2       645       644       774      2739      3137      3138
 -1      1411    8    0    1
 -2       644       773       774      3135      3139      3137
 -1      1412    8    0    1
 -2       646       645       775      2742      3140      3141
 -1      1413    8    0    1
 -2       645       774       775      3138      3142      3140
 -1      1414    8    0    1
 -2       647       646       776      2745      3143      3144
 -1      1415    8    0    1
 -2       646       775       776      3141      3145      3143
 -1      1416    8    0    1
 -2       648       647       777      2748      3146      3147
 -1      1417    8    0    1
 -2       647       776       777      3144      3148      3146
 -1      1418    8    0    1
 -2       649       648       778      2751      3149      3150
 -1      1419    8    0    1
 -2       648       777       778      3147      3151      3149
 -1      1420    8    0    1
 -2       650       649       779      2754      3152      3153
 -1      1421    8    0    1
 -2       649       778       779      3150      3154      3152
 -1      1422    8    0    1
 -2       651       650       780      2757      3155      3156
 -1      1423    8    0    1
 -2       650       779       780      3153      3157      3155
 -1      1424    8    0    1
 -2       652       651       781      2760      3158      3159
 -1      1425    8    0    1
 -2       651       780       781      3156      3160      3158
 -1      1426    8    0    1
 -2       653       652       782      2763      3161      3162
 -1      1427    8    0    1
 -2       652       781       782      3159      3163      3161
 -1      1428    8    0    1
 -2       654       653       783      2766      3164      3165
 -1      1429    8    0    1
 -2       653       782       783      3162      3166      3164
 -1      1430    8    0    1
 -2       656       655       784      2772      3167      3168
 -1      1431    8    0    1
 -2       657       656       785      2775      3169      3170
 -1      1432    8    0    1
 -2       658       657       740      2778      3171      3172
 -1      1433    8    0    1
 -2       660       659       786      2784      3173      3174
 -1      1434    8    0    1
 -2       661       660       787      2787      3175      3176
 -1      1435    8    0    1
 -2       660       786       787      3174      3177      3175
 -1      1436    8    0    1
 -2       662       661       788      2790      3178      3179
 -1      1437    8    0    1
 -2       661       787       788      3176      3180      3178
 -1      1438    8    0    1
 -2       663       662       789      2793      3181      3182
 -1      1439    8    0    1
 -2       662       788       789      3179      3183      3181
 -1      1440    8    0    1
 -2       664       663       790      2796      3184      3185
 -1      1441    8    0    1
 -2       749       664       790      3059      3185      3186
 -1      1442    8    0    1
 -2       663       789       790      3182      3187      3184
 -1      1443    8    0    1
 -2       667       665       791      2804      3188      3189
 -1      1444    8    0    1
 -2       669       670       792      2812      3190      3191
 -1      1445    8    0    1
 -2       668       669       793      2809      3192      3193
 -1      1446    8    0    1
 -2       669       792       793      3191      3194      3192
 -1      1447    8    0    1
 -2       671       672       794      2818      3195      3196
 -1      1448    8    0    1
 -2       672       673       795      2821      3197      3198
 -1      1449    8    0    1
 -2       672       795       794      3198      3199      3195
 -1      1450    8    0    1
 -2       673       674       796      2824      3200      3201
 -1      1451    8    0    1
 -2       673       796       795      3201      3202      3197
 -1      1452    8    0    1
 -2       674       675       797      2827      3203      3204
 -1      1453    8    0    1
 -2       674       797       796      3204      3205      3200
 -1      1454    8    0    1
 -2       675       676       798      2830      3206      3207
 -1      1455    8    0    1
 -2       675       798       797      3207      3208      3203
 -1      1456    8    0    1
 -2       676       677       799      2833      3209      3210
 -1      1457    8    0    1
 -2       676       799       798      3210      3211      3206
 -1      1458    8    0    1
 -2       677       678       800      2836      3212      3213
 -1      1459    8    0    1
 -2       677       800       799      3213      3214      3209
 -1      1460    8    0    1
 -2       678       679       801      2839      3215      3216
 -1      1461    8    0    1
 -2       678       801       800      3216      3217      3212
 -1      1462    8    0    1
 -2       679       680       802      2842      3218      3219
 -1      1463    8    0    1
 -2       679       802       801      3219      3220      3215
 -1      1464    8    0    1
 -2       680       681       803      2845      3221      3222
 -1      1465    8    0    1
 -2       680       803       802      3222      3223      3218
 -1      1466    8    0    1
 -2       681       682       804      2848      3224      3225
 -1      1467    8    0    1
 -2       681       804       803      3225      3226      3221
 -1      1468    8    0    1
 -2       682       683       805      2851      3227      3228
 -1      1469    8    0    1
 -2       682       805       804      3228      3229      3224
 -1      1470    8    0    1
 -2       683       684       806      2854      3230      3231
 -1      1471    8    0    1
 -2       683       806       805      3231      3232      3227
 -1      1472    8    0    1
 -2       684       685       807      2857      3233      3234
 -1      1473    8    0    1
 -2       684       807       806      3234      3235      3230
 -1      1474    8    0    1
 -2       685       686       808      2860      3236      3237
 -1      1475    8    0    1
 -2       685       808       807      3237      3238      3233
 -1      1476    8    0    1
 -2       686       687       809      2863      3239      3240
 -1      1477    8    0    1
 -2       686       809       808      3240      3241      3236
 -1      1478    8    0    1
 -2       687       688       810      2866      3242      3243
 -1      1479    8    0    1
 -2       687       810       809      3243      3244      3239
 -1      1480    8    0    1
 -2       688       689       811      2869      3245      3246
 -1      1481    8    0    1
 -2       688       811       810      3246      3247      3242
 -1      1482    8    0    1
 -2       689       690       812      2872      3248      3249
 -1      1483    8    0    1
 -2       689       812       811      3249      3250      3245
 -1      1484    8    0    1
 -2       690       691       813      2875      3251      3252
 -1      1485    8    0    1
 -2       690       813       812      3252      3253      3248
 -1      1486    8    0    1
 -2       691       692       814      2878      3254      3255
 -1      1487    8    0    1
 -2       691       814       813      3255      3256      3251
 -1      1488    8    0    1
 -2       693       694       719      2884      3066      3257
 -1      1489    8    0    1
 -2       699       700       815      2900      3258      3259
 -1      1490    8    0    1
 -2       700       701       816      2903      3260      3261
 -1      1491    8    0    1
 -2       700       816       815      3261      3262      3258
 -1      1492    8    0    1
 -2       701       702       817      2906      3263      3264
 -1      1493    8    0    1
 -2       701       817       816      3264      3265      3260
 -1      1494    8    0    1
 -2       620       621       818      3060      3266      3267
 -1      1495    8    0    1
 -2       752       620       818      3074      3267      3268
 -1      1496    8    0    1
 -2       621       725       818      2971      3269      3266
 -1      1497    8    0    1
 -2       708       710       819      2928      3270      3271
 -1      1498    8    0    1
 -2       705       708       820      2921      3272      3273
 -1      1499    8    0    1
 -2       708       819       820      3271      3274      3272
 -1      1500    8    0    1
 -2       714       713       821      2939      3275      3276
 -1      1501    8    0    1
 -2       713       704       822      3035      3277      3278
 -1      1502    8    0    1
 -2       729       718       823      3027      3279      3280
 -1      1503    8    0    1
 -2       704       722       815      3032      3281      3282
 -1      1504    8    0    1
 -2       715       622       824      2942      3283      3284
 -1      1505    8    0    1
 -2       717       614       743      2949      3021      3285
 -1      1506    8    0    1
 -2       726       715       825      3026      3286      3287
 -1      1507    8    0    1
 -2       715       824       825      3284      3288      3286
 -1      1508    8    0    1
 -2       720       667       826      2956      3289      3290
 -1      1509    8    0    1
 -2       667       791       826      3189      3291      3289
 -1      1510    8    0    1
 -2       710       711       827      2931      3292      3293
 -1      1511    8    0    1
 -2       710       827       819      3293      3294      3270
 -1      1512    8    0    1
 -2       711       712       828      2934      3295      3296
 -1      1513    8    0    1
 -2       711       828       827      3296      3297      3292
 -1      1514    8    0    1
 -2       666       573       746      3043      3042      3298
 -1      1515    8    0    1
 -2       622       738       829      3028      3299      3300
 -1      1516    8    0    1
 -2       716       714       830      3051      3301      3302
 -1      1517    8    0    1
 -2       589       696       742      2983      3303      3018
 -1      1518    8    0    1
 -2       670       671       831      2815      3304      3305
 -1      1519    8    0    1
 -2       792       670       831      3190      3305      3306
 -1      1520    8    0    1
 -2       671       794       831      3196      3307      3304
 -1      1521    8    0    1
 -2       624       623       832      2676      3308      3309
 -1      1522    8    0    1
 -2       624       832       754      3309      3310      3078
 -1      1523    8    0    1
 -2       718       706       833      3039      3311      3312
 -1      1524    8    0    1
 -2       718       833       823      3312      3313      3279
 -1      1525    8    0    1
 -2       736       737       834      3053      3314      3315
 -1      1526    8    0    1
 -2       731       732       835      3071      3316      3317
 -1      1527    8    0    1
 -2       623       717       836      3072      3318      3319
 -1      1528    8    0    1
 -2       832       623       836      3308      3319      3320
 -1      1529    8    0    1
 -2       717       743       836      3285      3321      3318
 -1      1530    8    0    1
 -2       733       734       837      3001      3322      3323
 -1      1531    8    0    1
 -2       734       735       838      3054      3324      3325
 -1      1532    8    0    1
 -2       734       838       837      3325      3326      3322
 -1      1533    8    0    1
 -2       737       739       839      3012      3327      3328
 -1      1534    8    0    1
 -2       706       731       840      3070      3329      3330
 -1      1535    8    0    1
 -2       731       835       840      3317      3331      3329
 -1      1536    8    0    1
 -2       618       617       841      2661      3332      3333
 -1      1537    8    0    1
 -2       719       729       842      2990      3334      3335
 -1      1538    8    0    1
 -2       735       736       843      3073      3336      3337
 -1      1539    8    0    1
 -2       693       719       842      3257      3335      3338
 -1      1540    8    0    1
 -2       744       618       844      3023      3339      3340
 -1      1541    8    0    1
 -2       618       841       844      3333      3341      3339
 -1      1542    8    0    1
 -2       712       749       845      3058      3342      3343
 -1      1543    8    0    1
 -2       828       712       845      3295      3343      3344
 -1      1544    8    0    1
 -2       749       790       845      3186      3345      3342
 -1      1545    8    0    1
 -2       732       753       846      3077      3346      3347
 -1      1546    8    0    1
 -2       732       846       835      3347      3348      3316
 -1      1547    8    0    1
 -2       745       716       847      3031      3349      3350
 -1      1548    8    0    1
 -2       716       830       847      3302      3351      3349
 -1      1549    8    0    1
 -2       784       655       839      3167      3352      3353
 -1      1550    8    0    1
 -2       655       654       848      2769      3354      3355
 -1      1551    8    0    1
 -2       659       658       849      2781      3356      3357
 -1      1552    8    0    1
 -2       737       839       848      3328      3358      3359
 -1      1553    8    0    1
 -2       668       793       850      3193      3360      3361
 -1      1554    8    0    1
 -2       668       850       721      3361      3362      2960
 -1      1555    8    0    1
 -2       814       692       842      3254      3363      3364
 -1      1556    8    0    1
 -2       692       693       842      2881      3338      3363
 -1      1557    8    0    1
 -2       696       697       742      2891      3365      3303
 -1      1558    8    0    1
 -2       817       702       851      3263      3366      3367
 -1      1559    8    0    1
 -2       702       703       851      2909      3368      3366
 -1      1560    8    0    1
 -2       703       666       852      2910      3369      3370
 -1      1561    8    0    1
 -2       666       746       852      3298      3371      3369
 -1      1562    8    0    1
 -2       707       709       853      2924      3372      3373
 -1      1563    8    0    1
 -2       665       721       854      2959      3374      3375
 -1      1564    8    0    1
 -2       721       850       854      3362      3376      3374
 -1      1565    8    0    1
 -2       743       724       855      3022      3377      3378
 -1      1566    8    0    1
 -2       743       855       836      3378      3379      3321
 -1      1567    8    0    1
 -2       746       707       856      3040      3380      3381
 -1      1568    8    0    1
 -2       852       746       856      3371      3381      3382
 -1      1569    8    0    1
 -2       707       853       856      3373      3383      3380
 -1      1570    8    0    1
 -2       821       713       822      3275      3278      3384
 -1      1571    8    0    1
 -2       709       705       857      2925      3385      3386
 -1      1572    8    0    1
 -2       853       709       857      3372      3386      3387
 -1      1573    8    0    1
 -2       705       820       857      3273      3388      3385
 -1      1574    8    0    1
 -2       747       730       785      3046      3389      3390
 -1      1575    8    0    1
 -2       729       823       842      3280      3391      3334
 -1      1576    8    0    1
 -2       704       815       822      3282      3392      3277
 -1      1577    8    0    1
 -2       736       834       843      3315      3393      3336
 -1      1578    8    0    1
 -2       748       615       745      3050      3030      3394
 -1      1579    8    0    1
 -2       739       747       784      3045      3395      3396
 -1      1580    8    0    1
 -2       733       837       753      3323      3397      3076
 -1      1581    8    0    1
 -2       824       622       829      3283      3300      3398
 -1      1582    8    0    1
 -2       730       740       785      3052      3399      3389
 -1      1583    8    0    1
 -2       791       665       854      3188      3375      3400
 -1      1584    8    0    1
 -2       815       722       699      3281      3401      3259
 -1      1585    8    0    1
 -2       786       659       849      3173      3357      3402
 -1      1586    8    0    1
 -2       741       742       698      3034      3403      3404
 -1      1587    8    0    1
 -2       751       726       825      3067      3287      3405
 -1      1588    8    0    1
 -2       830       714       821      3301      3276      3406
 -1      1589    8    0    1
 -2       698       699       722      2897      3401      3407
 -1      1590    8    0    1
 -2       829       738       858      3299      3408      3409
 -1      1591    8    0    1
 -2       738       748       858      3049      3410      3408
 -1      1592    8    0    1
 -2       723       619       859      2966      3411      3412
 -1      1593    8    0    1
 -2       619       752       859      3075      3413      3411
 -1      1594    8    0    1
 -2       617       723       860      2965      3414      3415
 -1      1595    8    0    1
 -2       841       617       860      3332      3415      3416
 -1      1596    8    0    1
 -2       723       859       860      3412      3417      3414
 -1      1597    8    0    1
 -2       725       720       861      2972      3418      3419
 -1      1598    8    0    1
 -2       818       725       861      3269      3419      3420
 -1      1599    8    0    1
 -2       720       826       861      3290      3421      3418
 -1      1600    8    0    1
 -2       848       654       783      3354      3165      3422
 -1      1601    8    0    1
 -2       839       655       848      3352      3355      3358
 -1      1602    8    0    1
 -2       741       698       722      3404      3407      3017
 -1      1603    8    0    1
 -2       855       724       862      3377      3423      3424
 -1      1604    8    0    1
 -2       724       750       862      3063      3425      3423
 -1      1605    8    0    1
 -2       740       657       785      3171      3170      3399
 -1      1606    8    0    1
 -2       833       706       840      3311      3330      3426
 -1      1607    8    0    1
 -2       838       735       843      3324      3337      3427
 -1      1608    8    0    1
 -2       839       739       784      3327      3396      3353
 -1      1609    8    0    1
 -2       656       784       785      3168      3428      3169
 -1      1610    8    0    1
 -2       756       755       863      3085      3429      3430
 -1      1611    8    0    1
 -2       757       756       864      3088      3431      3432
 -1      1612    8    0    1
 -2       756       863       864      3430      3433      3431
 -1      1613    8    0    1
 -2       758       757       865      3091      3434      3435
 -1      1614    8    0    1
 -2       757       864       865      3432      3436      3434
 -1      1615    8    0    1
 -2       759       758       866      3094      3437      3438
 -1      1616    8    0    1
 -2       758       865       866      3435      3439      3437
 -1      1617    8    0    1
 -2       760       759       867      3097      3440      3441
 -1      1618    8    0    1
 -2       759       866       867      3438      3442      3440
 -1      1619    8    0    1
 -2       761       760       868      3100      3443      3444
 -1      1620    8    0    1
 -2       760       867       868      3441      3445      3443
 -1      1621    8    0    1
 -2       762       761       869      3103      3446      3447
 -1      1622    8    0    1
 -2       761       868       869      3444      3448      3446
 -1      1623    8    0    1
 -2       763       762       870      3106      3449      3450
 -1      1624    8    0    1
 -2       762       869       870      3447      3451      3449
 -1      1625    8    0    1
 -2       764       763       871      3109      3452      3453
 -1      1626    8    0    1
 -2       763       870       871      3450      3454      3452
 -1      1627    8    0    1
 -2       765       764       872      3112      3455      3456
 -1      1628    8    0    1
 -2       764       871       872      3453      3457      3455
 -1      1629    8    0    1
 -2       766       765       873      3115      3458      3459
 -1      1630    8    0    1
 -2       765       872       873      3456      3460      3458
 -1      1631    8    0    1
 -2       767       766       874      3118      3461      3462
 -1      1632    8    0    1
 -2       766       873       874      3459      3463      3461
 -1      1633    8    0    1
 -2       768       767       875      3121      3464      3465
 -1      1634    8    0    1
 -2       767       874       875      3462      3466      3464
 -1      1635    8    0    1
 -2       769       768       876      3124      3467      3468
 -1      1636    8    0    1
 -2       768       875       876      3465      3469      3467
 -1      1637    8    0    1
 -2       770       769       877      3127      3470      3471
 -1      1638    8    0    1
 -2       769       876       877      3468      3472      3470
 -1      1639    8    0    1
 -2       771       770       878      3130      3473      3474
 -1      1640    8    0    1
 -2       770       877       878      3471      3475      3473
 -1      1641    8    0    1
 -2       772       771       879      3133      3476      3477
 -1      1642    8    0    1
 -2       771       878       879      3474      3478      3476
 -1      1643    8    0    1
 -2       773       772       880      3136      3479      3480
 -1      1644    8    0    1
 -2       772       879       880      3477      3481      3479
 -1      1645    8    0    1
 -2       774       773       881      3139      3482      3483
 -1      1646    8    0    1
 -2       773       880       881      3480      3484      3482
 -1      1647    8    0    1
 -2       775       774       882      3142      3485      3486
 -1      1648    8    0    1
 -2       774       881       882      3483      3487      3485
 -1      1649    8    0    1
 -2       776       775       883      3145      3488      3489
 -1      1650    8    0    1
 -2       775       882       883      3486      3490      3488
 -1      1651    8    0    1
 -2       777       776       884      3148      3491      3492
 -1      1652    8    0    1
 -2       776       883       884      3489      3493      3491
 -1      1653    8    0    1
 -2       778       777       885      3151      3494      3495
 -1      1654    8    0    1
 -2       777       884       885      3492      3496      3494
 -1      1655    8    0    1
 -2       779       778       886      3154      3497      3498
 -1      1656    8    0    1
 -2       778       885       886      3495      3499      3497
 -1      1657    8    0    1
 -2       780       779       887      3157      3500      3501
 -1      1658    8    0    1
 -2       779       886       887      3498      3502      3500
 -1      1659    8    0    1
 -2       781       780       888      3160      3503      3504
 -1      1660    8    0    1
 -2       780       887       888      3501      3505      3503
 -1      1661    8    0    1
 -2       658       740       849      3172      3506      3356
 -1      1662    8    0    1
 -2       737       848       834      3359      3507      3314
 -1      1663    8    0    1
 -2       819       827       889      3294      3508      3509
 -1      1664    8    0    1
 -2       788       787       890      3180      3510      3511
 -1      1665    8    0    1
 -2       789       788       891      3183      3512      3513
 -1      1666    8    0    1
 -2       788       890       891      3511      3514      3512
 -1      1667    8    0    1
 -2       754       832       892      3310      3515      3516
 -1      1668    8    0    1
 -2       795       796       893      3202      3517      3518
 -1      1669    8    0    1
 -2       794       795       894      3199      3519      3520
 -1      1670    8    0    1
 -2       795       893       894      3518      3521      3519
 -1      1671    8    0    1
 -2       797       798       895      3208      3522      3523
 -1      1672    8    0    1
 -2       798       799       896      3211      3524      3525
 -1      1673    8    0    1
 -2       798       896       895      3525      3526      3522
 -1      1674    8    0    1
 -2       799       800       897      3214      3527      3528
 -1      1675    8    0    1
 -2       799       897       896      3528      3529      3524
 -1      1676    8    0    1
 -2       800       801       898      3217      3530      3531
 -1      1677    8    0    1
 -2       800       898       897      3531      3532      3527
 -1      1678    8    0    1
 -2       801       802       899      3220      3533      3534
 -1      1679    8    0    1
 -2       801       899       898      3534      3535      3530
 -1      1680    8    0    1
 -2       802       803       900      3223      3536      3537
 -1      1681    8    0    1
 -2       802       900       899      3537      3538      3533
 -1      1682    8    0    1
 -2       803       804       901      3226      3539      3540
 -1      1683    8    0    1
 -2       803       901       900      3540      3541      3536
 -1      1684    8    0    1
 -2       804       805       902      3229      3542      3543
 -1      1685    8    0    1
 -2       804       902       901      3543      3544      3539
 -1      1686    8    0    1
 -2       805       806       903      3232      3545      3546
 -1      1687    8    0    1
 -2       805       903       902      3546      3547      3542
 -1      1688    8    0    1
 -2       806       807       904      3235      3548      3549
 -1      1689    8    0    1
 -2       806       904       903      3549      3550      3545
 -1      1690    8    0    1
 -2       807       808       905      3238      3551      3552
 -1      1691    8    0    1
 -2       807       905       904      3552      3553      3548
 -1      1692    8    0    1
 -2       808       809       906      3241      3554      3555
 -1      1693    8    0    1
 -2       808       906       905      3555      3556      3551
 -1      1694    8    0    1
 -2       809       810       907      3244      3557      3558
 -1      1695    8    0    1
 -2       809       907       906      3558      3559      3554
 -1      1696    8    0    1
 -2       810       811       908      3247      3560      3561
 -1      1697    8    0    1
 -2       810       908       907      3561      3562      3557
 -1      1698    8    0    1
 -2       811       812       909      3250      3563      3564
 -1      1699    8    0    1
 -2       811       909       908      3564      3565      3560
 -1      1700    8    0    1
 -2       812       813       910      3253      3566      3567
 -1      1701    8    0    1
 -2       812       910       909      3567      3568      3563
 -1      1702    8    0    1
 -2       813       814       911      3256      3569      3570
 -1      1703    8    0    1
 -2       813       911       910      3570      3571      3566
 -1      1704    8    0    1
 -2       816       817       912      3265      3572      3573
 -1      1705    8    0    1
 -2       815       816       822      3262      3574      3392
 -1      1706    8    0    1
 -2       820       819       913      3274      3575      3576
 -1      1707    8    0    1
 -2       819       889       913      3509      3577      3575
 -1      1708    8    0    1
 -2       791       854       914      3400      3578      3579
 -1      1709    8    0    1
 -2       842       823       814      3391      3580      3364
 -1      1710    8    0    1
 -2       748       745       915      3394      3581      3582
 -1      1711    8    0    1
 -2       753       837       916      3397      3583      3584
 -1      1712    8    0    1
 -2       840       835       917      3331      3585      3586
 -1      1713    8    0    1
 -2       825       824       918      3288      3587      3588
 -1      1714    8    0    1
 -2       826       791       919      3291      3589      3590
 -1      1715    8    0    1
 -2       791       914       919      3579      3591      3589
 -1      1716    8    0    1
 -2       750       744       920      3064      3592      3593
 -1      1717    8    0    1
 -2       862       750       920      3425      3593      3594
 -1      1718    8    0    1
 -2       744       844       920      3340      3595      3592
 -1      1719    8    0    1
 -2       793       792       921      3194      3596      3597
 -1      1720    8    0    1
 -2       821       822       922      3384      3598      3599
 -1      1721    8    0    1
 -2       814       823       911      3580      3600      3569
 -1      1722    8    0    1
 -2       755       754       923      3082      3601      3602
 -1      1723    8    0    1
 -2       755       923       863      3602      3603      3429
 -1      1724    8    0    1
 -2       833       840       924      3426      3604      3605
 -1      1725    8    0    1
 -2       796       797       925      3205      3606      3607
 -1      1726    8    0    1
 -2       893       796       925      3517      3607      3608
 -1      1727    8    0    1
 -2       797       895       925      3523      3609      3606
 -1      1728    8    0    1
 -2       823       833       911      3313      3610      3600
 -1      1729    8    0    1
 -2       824       829       926      3398      3611      3612
 -1      1730    8    0    1
 -2       787       786       918      3177      3613      3614
 -1      1731    8    0    1
 -2       837       838       927      3326      3615      3616
 -1      1732    8    0    1
 -2       827       828       928      3297      3617      3618
 -1      1733    8    0    1
 -2       827       928       889      3618      3619      3508
 -1      1734    8    0    1
 -2       838       843       929      3427      3620      3621
 -1      1735    8    0    1
 -2       830       821       930      3406      3622      3623
 -1      1736    8    0    1
 -2       847       830       931      3351      3624      3625
 -1      1737    8    0    1
 -2       830       930       931      3623      3626      3624
 -1      1738    8    0    1
 -2       833       924       911      3605      3627      3610
 -1      1739    8    0    1
 -2       781       888       929      3504      3628      3629
 -1      1740    8    0    1
 -2       782       781       929      3163      3629      3630
 -1      1741    8    0    1
 -2       783       782       843      3166      3631      3632
 -1      1742    8    0    1
 -2       917       835       932      3585      3633      3634
 -1      1743    8    0    1
 -2       835       846       932      3348      3635      3633
 -1      1744    8    0    1
 -2       890       787       918      3510      3614      3636
 -1      1745    8    0    1
 -2       838       929       927      3621      3637      3615
 -1      1746    8    0    1
 -2       754       892       923      3516      3638      3601
 -1      1747    8    0    1
 -2       790       789       933      3187      3639      3640
 -1      1748    8    0    1
 -2       845       790       933      3345      3640      3641
 -1      1749    8    0    1
 -2       789       891       933      3513      3642      3639
 -1      1750    8    0    1
 -2       843       782       929      3631      3630      3620
 -1      1751    8    0    1
 -2       783       843       834      3632      3393      3643
 -1      1752    8    0    1
 -2       742       697       698      3365      2894      3403
 -1      1753    8    0    1
 -2       794       894       934      3520      3644      3645
 -1      1754    8    0    1
 -2       794       934       831      3645      3646      3307
 -1      1755    8    0    1
 -2       912       817       935      3572      3647      3648
 -1      1756    8    0    1
 -2       817       851       935      3367      3649      3647
 -1      1757    8    0    1
 -2       844       841       936      3341      3650      3651
 -1      1758    8    0    1
 -2       752       818       937      3268      3652      3653
 -1      1759    8    0    1
 -2       818       861       937      3420      3654      3652
 -1      1760    8    0    1
 -2       822       816       912      3574      3573      3655
 -1      1761    8    0    1
 -2       914       854       938      3578      3656      3657
 -1      1762    8    0    1
 -2       854       850       938      3376      3658      3656
 -1      1763    8    0    1
 -2       829       858       939      3409      3659      3660
 -1      1764    8    0    1
 -2       829       939       926      3660      3661      3611
 -1      1765    8    0    1
 -2       856       853       940      3383      3662      3663
 -1      1766    8    0    1
 -2       930       821       922      3622      3599      3664
 -1      1767    8    0    1
 -2       857       820       941      3388      3665      3666
 -1      1768    8    0    1
 -2       820       913       941      3576      3667      3665
 -1      1769    8    0    1
 -2       915       745       847      3581      3350      3668
 -1      1770    8    0    1
 -2       853       857       942      3387      3669      3670
 -1      1771    8    0    1
 -2       940       853       942      3662      3670      3671
 -1      1772    8    0    1
 -2       857       941       942      3666      3672      3669
 -1      1773    8    0    1
 -2       834       848       783      3507      3422      3643
 -1      1774    8    0    1
 -2       850       793       943      3360      3673      3674
 -1      1775    8    0    1
 -2       793       921       943      3597      3675      3673
 -1      1776    8    0    1
 -2       753       916       846      3584      3676      3346
 -1      1777    8    0    1
 -2       840       917       924      3586      3677      3604
 -1      1778    8    0    1
 -2       825       918       786      3588      3613      3678
 -1      1779    8    0    1
 -2       826       919       944      3590      3679      3680
 -1      1780    8    0    1
 -2       786       849       825      3402      3681      3678
 -1      1781    8    0    1
 -2       824       926       918      3612      3682      3587
 -1      1782    8    0    1
 -2       858       748       915      3410      3582      3683
 -1      1783    8    0    1
 -2       859       752       937      3413      3653      3684
 -1      1784    8    0    1
 -2       921       792       945      3596      3685      3686
 -1      1785    8    0    1
 -2       792       831       945      3306      3687      3685
 -1      1786    8    0    1
 -2       916       837       927      3583      3616      3688
 -1      1787    8    0    1
 -2       828       845       933      3344      3641      3689
 -1      1788    8    0    1
 -2       832       836       946      3320      3690      3691
 -1      1789    8    0    1
 -2       892       832       946      3515      3691      3692
 -1      1790    8    0    1
 -2       836       855       946      3379      3693      3690
 -1      1791    8    0    1
 -2       828       933       928      3689      3694      3617
 -1      1792    8    0    1
 -2       841       860       947      3416      3695      3696
 -1      1793    8    0    1
 -2       841       947       936      3696      3697      3650
 -1      1794    8    0    1
 -2       826       944       861      3680      3698      3421
 -1      1795    8    0    1
 -2       855       862       948      3424      3699      3700
 -1      1796    8    0    1
 -2       855       948       946      3700      3701      3693
 -1      1797    8    0    1
 -2       929       888       927      3628      3702      3637
 -1      1798    8    0    1
 -2       865       864       949      3436      3703      3704
 -1      1799    8    0    1
 -2       866       865       950      3439      3705      3706
 -1      1800    8    0    1
 -2       865       949       950      3704      3707      3705
 -1      1801    8    0    1
 -2       867       866       951      3442      3708      3709
 -1      1802    8    0    1
 -2       866       950       951      3706      3710      3708
 -1      1803    8    0    1
 -2       868       867       952      3445      3711      3712
 -1      1804    8    0    1
 -2       867       951       952      3709      3713      3711
 -1      1805    8    0    1
 -2       869       868       953      3448      3714      3715
 -1      1806    8    0    1
 -2       868       952       953      3712      3716      3714
 -1      1807    8    0    1
 -2       870       869       954      3451      3717      3718
 -1      1808    8    0    1
 -2       869       953       954      3715      3719      3717
 -1      1809    8    0    1
 -2       871       870       955      3454      3720      3721
 -1      1810    8    0    1
 -2       870       954       955      3718      3722      3720
 -1      1811    8    0    1
 -2       872       871       956      3457      3723      3724
 -1      1812    8    0    1
 -2       871       955       956      3721      3725      3723
 -1      1813    8    0    1
 -2       873       872       957      3460      3726      3727
 -1      1814    8    0    1
 -2       872       956       957      3724      3728      3726
 -1      1815    8    0    1
 -2       874       873       958      3463      3729      3730
 -1      1816    8    0    1
 -2       873       957       958      3727      3731      3729
 -1      1817    8    0    1
 -2       875       874       959      3466      3732      3733
 -1      1818    8    0    1
 -2       874       958       959      3730      3734      3732
 -1      1819    8    0    1
 -2       876       875       960      3469      3735      3736
 -1      1820    8    0    1
 -2       875       959       960      3733      3737      3735
 -1      1821    8    0    1
 -2       877       876       961      3472      3738      3739
 -1      1822    8    0    1
 -2       876       960       961      3736      3740      3738
 -1      1823    8    0    1
 -2       878       877       962      3475      3741      3742
 -1      1824    8    0    1
 -2       877       961       962      3739      3743      3741
 -1      1825    8    0    1
 -2       879       878       963      3478      3744      3745
 -1      1826    8    0    1
 -2       878       962       963      3742      3746      3744
 -1      1827    8    0    1
 -2       880       879       964      3481      3747      3748
 -1      1828    8    0    1
 -2       879       963       964      3745      3749      3747
 -1      1829    8    0    1
 -2       881       880       965      3484      3750      3751
 -1      1830    8    0    1
 -2       880       964       965      3748      3752      3750
 -1      1831    8    0    1
 -2       882       881       966      3487      3753      3754
 -1      1832    8    0    1
 -2       881       965       966      3751      3755      3753
 -1      1833    8    0    1
 -2       883       882       967      3490      3756      3757
 -1      1834    8    0    1
 -2       882       966       967      3754      3758      3756
 -1      1835    8    0    1
 -2       884       883       968      3493      3759      3760
 -1      1836    8    0    1
 -2       883       967       968      3757      3761      3759
 -1      1837    8    0    1
 -2       885       884       969      3496      3762      3763
 -1      1838    8    0    1
 -2       884       968       969      3760      3764      3762
 -1      1839    8    0    1
 -2       886       885       970      3499      3765      3766
 -1      1840    8    0    1
 -2       885       969       970      3763      3767      3765
 -1      1841    8    0    1
 -2       887       886       971      3502      3768      3769
 -1      1842    8    0    1
 -2       886       970       971      3766      3770      3768
 -1      1843    8    0    1
 -2       888       887       972      3505      3771      3772
 -1      1844    8    0    1
 -2       927       888       972      3702      3772      3773
 -1      1845    8    0    1
 -2       887       971       972      3769      3774      3771
 -1      1846    8    0    1
 -2       890       918       926      3636      3682      3775
 -1      1847    8    0    1
 -2       933       891       928      3642      3776      3694
 -1      1848    8    0    1
 -2       937       861       944      3654      3698      3777
 -1      1849    8    0    1
 -2       896       897       973      3529      3778      3779
 -1      1850    8    0    1
 -2       895       896       974      3526      3780      3781
 -1      1851    8    0    1
 -2       896       973       974      3779      3782      3780
 -1      1852    8    0    1
 -2       898       899       975      3535      3783      3784
 -1      1853    8    0    1
 -2       899       900       976      3538      3785      3786
 -1      1854    8    0    1
 -2       899       976       975      3786      3787      3783
 -1      1855    8    0    1
 -2       900       901       977      3541      3788      3789
 -1      1856    8    0    1
 -2       900       977       976      3789      3790      3785
 -1      1857    8    0    1
 -2       901       902       978      3544      3791      3792
 -1      1858    8    0    1
 -2       901       978       977      3792      3793      3788
 -1      1859    8    0    1
 -2       902       903       979      3547      3794      3795
 -1      1860    8    0    1
 -2       902       979       978      3795      3796      3791
 -1      1861    8    0    1
 -2       903       904       980      3550      3797      3798
 -1      1862    8    0    1
 -2       903       980       979      3798      3799      3794
 -1      1863    8    0    1
 -2       904       905       981      3553      3800      3801
 -1      1864    8    0    1
 -2       904       981       980      3801      3802      3797
 -1      1865    8    0    1
 -2       905       906       982      3556      3803      3804
 -1      1866    8    0    1
 -2       905       982       981      3804      3805      3800
 -1      1867    8    0    1
 -2       906       907       983      3559      3806      3807
 -1      1868    8    0    1
 -2       906       983       982      3807      3808      3803
 -1      1869    8    0    1
 -2       907       908       984      3562      3809      3810
 -1      1870    8    0    1
 -2       907       984       983      3810      3811      3806
 -1      1871    8    0    1
 -2       908       909       985      3565      3812      3813
 -1      1872    8    0    1
 -2       908       985       984      3813      3814      3809
 -1      1873    8    0    1
 -2       909       910       986      3568      3815      3816
 -1      1874    8    0    1
 -2       909       986       985      3816      3817      3812
 -1      1875    8    0    1
 -2       910       911       924      3571      3627      3818
 -1      1876    8    0    1
 -2       863       923       987      3603      3819      3820
 -1      1877    8    0    1
 -2       851       703       852      3368      3370      3821
 -1      1878    8    0    1
 -2       913       889       988      3577      3822      3823
 -1      1879    8    0    1
 -2       892       946       989      3692      3824      3825
 -1      1880    8    0    1
 -2       946       948       989      3701      3826      3824
 -1      1881    8    0    1
 -2       930       922       940      3664      3827      3828
 -1      1882    8    0    1
 -2       747       785       784      3390      3428      3395
 -1      1883    8    0    1
 -2       915       847       990      3668      3829      3830
 -1      1884    8    0    1
 -2       944       919       991      3679      3831      3832
 -1      1885    8    0    1
 -2       924       917       992      3677      3833      3834
 -1      1886    8    0    1
 -2       928       891       993      3776      3835      3836
 -1      1887    8    0    1
 -2       889       928       993      3619      3836      3837
 -1      1888    8    0    1
 -2       891       890       993      3514      3838      3835
 -1      1889    8    0    1
 -2       859       937       994      3684      3839      3840
 -1      1890    8    0    1
 -2       860       859       994      3417      3840      3841
 -1      1891    8    0    1
 -2       937       944       994      3777      3842      3839
 -1      1892    8    0    1
 -2       844       936       995      3651      3843      3844
 -1      1893    8    0    1
 -2       844       995       920      3844      3845      3595
 -1      1894    8    0    1
 -2       858       915       988      3683      3846      3847
 -1      1895    8    0    1
 -2       923       892       996      3638      3848      3849
 -1      1896    8    0    1
 -2       987       923       996      3819      3849      3850
 -1      1897    8    0    1
 -2       892       989       996      3825      3851      3848
 -1      1898    8    0    1
 -2       856       940       935      3663      3852      3853
 -1      1899    8    0    1
 -2       890       926       993      3775      3854      3838
 -1      1900    8    0    1
 -2       897       898       997      3532      3855      3856
 -1      1901    8    0    1
 -2       898       975       997      3784      3857      3855
 -1      1902    8    0    1
 -2       864       863       998      3433      3858      3859
 -1      1903    8    0    1
 -2       863       987       998      3820      3860      3858
 -1      1904    8    0    1
 -2       919       914       999      3591      3861      3862
 -1      1905    8    0    1
 -2       919       999       991      3862      3863      3831
 -1      1906    8    0    1
 -2       930       940       931      3828      3864      3626
 -1      1907    8    0    1
 -2       846       916      1000      3676      3865      3866
 -1      1908    8    0    1
 -2       894       893      1001      3521      3867      3868
 -1      1909    8    0    1
 -2       916       927       972      3688      3773      3869
 -1      1910    8    0    1
 -2       910       924       986      3818      3870      3815
 -1      1911    8    0    1
 -2       851       852       935      3821      3871      3649
 -1      1912    8    0    1
 -2       932       846      1000      3635      3866      3872
 -1      1913    8    0    1
 -2       949       864       998      3703      3859      3873
 -1      1914    8    0    1
 -2       986       924       992      3870      3834      3874
 -1      1915    8    0    1
 -2       860       994       947      3841      3875      3695
 -1      1916    8    0    1
 -2       917       932       992      3634      3876      3833
 -1      1917    8    0    1
 -2       936       947      1002      3697      3877      3878
 -1      1918    8    0    1
 -2       973       897       997      3778      3856      3879
 -1      1919    8    0    1
 -2       895       974      1003      3781      3880      3881
 -1      1920    8    0    1
 -2       895      1003       925      3881      3882      3609
 -1      1921    8    0    1
 -2       935       852       856      3871      3382      3853
 -1      1922    8    0    1
 -2       914       938      1004      3657      3883      3884
 -1      1923    8    0    1
 -2       914      1004       999      3884      3885      3861
 -1      1924    8    0    1
 -2       921       945      1005      3686      3886      3887
 -1      1925    8    0    1
 -2       938       850       943      3658      3674      3888
 -1      1926    8    0    1
 -2       988       889       993      3822      3837      3889
 -1      1927    8    0    1
 -2       913       988       990      3823      3890      3891
 -1      1928    8    0    1
 -2       940       922       935      3827      3892      3852
 -1      1929    8    0    1
 -2       936      1002      1006      3878      3893      3894
 -1      1930    8    0    1
 -2       936      1006       995      3894      3895      3843
 -1      1931    8    0    1
 -2       931       940       942      3864      3671      3896
 -1      1932    8    0    1
 -2       941       913       990      3667      3891      3897
 -1      1933    8    0    1
 -2       915       990       988      3830      3890      3846
 -1      1934    8    0    1
 -2       944       991       994      3832      3898      3842
 -1      1935    8    0    1
 -2       943       921      1007      3675      3899      3900
 -1      1936    8    0    1
 -2       921      1005      1007      3887      3901      3899
 -1      1937    8    0    1
 -2       922       822       912      3598      3655      3902
 -1      1938    8    0    1
 -2       831       934       945      3646      3903      3687
 -1      1939    8    0    1
 -2       849       740       751      3506      3069      3904
 -1      1940    8    0    1
 -2       849       751       825      3904      3405      3681
 -1      1941    8    0    1
 -2       893       925      1008      3608      3905      3906
 -1      1942    8    0    1
 -2       925      1003      1008      3882      3907      3905
 -1      1943    8    0    1
 -2       990       847       931      3829      3625      3908
 -1      1944    8    0    1
 -2       934       894      1009      3644      3909      3910
 -1      1945    8    0    1
 -2       894      1001      1009      3868      3911      3909
 -1      1946    8    0    1
 -2       862       920      1010      3594      3912      3913
 -1      1947    8    0    1
 -2       948       862      1010      3699      3913      3914
 -1      1948    8    0    1
 -2       920       995      1010      3845      3915      3912
 -1      1949    8    0    1
 -2      1001       893      1008      3867      3906      3916
 -1      1950    8    0    1
 -2      1000       916       972      3865      3869      3917
 -1      1951    8    0    1
 -2       951       950      1011      3710      3918      3919
 -1      1952    8    0    1
 -2       952       951      1012      3713      3920      3921
 -1      1953    8    0    1
 -2       951      1011      1012      3919      3922      3920
 -1      1954    8    0    1
 -2       953       952      1013      3716      3923      3924
 -1      1955    8    0    1
 -2       952      1012      1013      3921      3925      3923
 -1      1956    8    0    1
 -2       954       953      1014      3719      3926      3927
 -1      1957    8    0    1
 -2       953      1013      1014      3924      3928      3926
 -1      1958    8    0    1
 -2       955       954      1015      3722      3929      3930
 -1      1959    8    0    1
 -2       954      1014      1015      3927      3931      3929
 -1      1960    8    0    1
 -2       956       955      1016      3725      3932      3933
 -1      1961    8    0    1
 -2       955      1015      1016      3930      3934      3932
 -1      1962    8    0    1
 -2       957       956      1017      3728      3935      3936
 -1      1963    8    0    1
 -2       956      1016      1017      3933      3937      3935
 -1      1964    8    0    1
 -2       958       957      1018      3731      3938      3939
 -1      1965    8    0    1
 -2       957      1017      1018      3936      3940      3938
 -1      1966    8    0    1
 -2       959       958      1019      3734      3941      3942
 -1      1967    8    0    1
 -2       958      1018      1019      3939      3943      3941
 -1      1968    8    0    1
 -2       960       959      1020      3737      3944      3945
 -1      1969    8    0    1
 -2       959      1019      1020      3942      3946      3944
 -1      1970    8    0    1
 -2       961       960      1021      3740      3947      3948
 -1      1971    8    0    1
 -2       960      1020      1021      3945      3949      3947
 -1      1972    8    0    1
 -2       962       961      1022      3743      3950      3951
 -1      1973    8    0    1
 -2       961      1021      1022      3948      3952      3950
 -1      1974    8    0    1
 -2       963       962      1023      3746      3953      3954
 -1      1975    8    0    1
 -2       962      1022      1023      3951      3955      3953
 -1      1976    8    0    1
 -2       964       963      1024      3749      3956      3957
 -1      1977    8    0    1
 -2       963      1023      1024      3954      3958      3956
 -1      1978    8    0    1
 -2       965       964      1025      3752      3959      3960
 -1      1979    8    0    1
 -2       964      1024      1025      3957      3961      3959
 -1      1980    8    0    1
 -2       966       965      1026      3755      3962      3963
 -1      1981    8    0    1
 -2       965      1025      1026      3960      3964      3962
 -1      1982    8    0    1
 -2       967       966      1027      3758      3965      3966
 -1      1983    8    0    1
 -2       966      1026      1027      3963      3967      3965
 -1      1984    8    0    1
 -2       968       967      1028      3761      3968      3969
 -1      1985    8    0    1
 -2       967      1027      1028      3966      3970      3968
 -1      1986    8    0    1
 -2       969       968      1029      3764      3971      3972
 -1      1987    8    0    1
 -2       968      1028      1029      3969      3973      3971
 -1      1988    8    0    1
 -2       970       969      1030      3767      3974      3975
 -1      1989    8    0    1
 -2       969      1029      1030      3972      3976      3974
 -1      1990    8    0    1
 -2       971       970      1031      3770      3977      3978
 -1      1991    8    0    1
 -2       970      1030      1031      3975      3979      3977
 -1      1992    8    0    1
 -2       972       971      1000      3774      3980      3917
 -1      1993    8    0    1
 -2       949       998      1032      3873      3981      3982
 -1      1994    8    0    1
 -2       973       997      1033      3879      3983      3984
 -1      1995    8    0    1
 -2       977       978      1034      3793      3985      3986
 -1      1996    8    0    1
 -2       974       973      1035      3782      3987      3988
 -1      1997    8    0    1
 -2       973      1033      1035      3984      3989      3987
 -1      1998    8    0    1
 -2      1001      1008      1036      3916      3990      3991
 -1      1999    8    0    1
 -2       932      1000      1037      3872      3992      3993
 -1      2000    8    0    1
 -2       976       977      1038      3790      3994      3995
 -1      2001    8    0    1
 -2       977      1034      1038      3986      3996      3994
 -1      2002    8    0    1
 -2       975       976      1039      3787      3997      3998
 -1      2003    8    0    1
 -2       976      1038      1039      3995      3999      3997
 -1      2004    8    0    1
 -2       978       979      1040      3796      4000      4001
 -1      2005    8    0    1
 -2       978      1040      1034      4001      4002      3985
 -1      2006    8    0    1
 -2       979       980      1041      3799      4003      4004
 -1      2007    8    0    1
 -2       979      1041      1040      4004      4005      4000
 -1      2008    8    0    1
 -2       980       981      1042      3802      4006      4007
 -1      2009    8    0    1
 -2       980      1042      1041      4007      4008      4003
 -1      2010    8    0    1
 -2       981       982      1043      3805      4009      4010
 -1      2011    8    0    1
 -2       981      1043      1042      4010      4011      4006
 -1      2012    8    0    1
 -2       982       983      1044      3808      4012      4013
 -1      2013    8    0    1
 -2       982      1044      1043      4013      4014      4009
 -1      2014    8    0    1
 -2       983       984      1045      3811      4015      4016
 -1      2015    8    0    1
 -2       983      1045      1044      4016      4017      4012
 -1      2016    8    0    1
 -2       984       985      1046      3814      4018      4019
 -1      2017    8    0    1
 -2       984      1046      1045      4019      4020      4015
 -1      2018    8    0    1
 -2       985       986      1047      3817      4021      4022
 -1      2019    8    0    1
 -2      1046       985      1047      4018      4022      4023
 -1      2020    8    0    1
 -2       986       992      1047      3874      4024      4021
 -1      2021    8    0    1
 -2       989       948      1048      3826      4025      4026
 -1      2022    8    0    1
 -2       948      1010      1048      3914      4027      4025
 -1      2023    8    0    1
 -2      1005       945      1049      3886      4028      4029
 -1      2024    8    0    1
 -2       945       934      1049      3903      4030      4028
 -1      2025    8    0    1
 -2       938       943      1050      3888      4031      4032
 -1      2026    8    0    1
 -2      1004       938      1050      3883      4032      4033
 -1      2027    8    0    1
 -2       943      1007      1050      3900      4034      4031
 -1      2028    8    0    1
 -2       939       858       988      3659      3847      4035
 -1      2029    8    0    1
 -2       942       941       990      3672      3897      4036
 -1      2030    8    0    1
 -2       947       994       991      3875      3898      4037
 -1      2031    8    0    1
 -2       942       990       931      4036      3908      3896
 -1      2032    8    0    1
 -2       947       991      1002      4037      4038      3877
 -1      2033    8    0    1
 -2       997       975      1051      3857      4039      4040
 -1      2034    8    0    1
 -2       997      1051      1033      4040      4041      3983
 -1      2035    8    0    1
 -2       998       987      1052      3860      4042      4043
 -1      2036    8    0    1
 -2       998      1052      1032      4043      4044      3981
 -1      2037    8    0    1
 -2       992       932      1053      3876      4045      4046
 -1      2038    8    0    1
 -2      1047       992      1053      4024      4046      4047
 -1      2039    8    0    1
 -2       932      1037      1053      3993      4048      4045
 -1      2040    8    0    1
 -2       922       912       935      3902      3648      3892
 -1      2041    8    0    1
 -2       991       999      1054      3863      4049      4050
 -1      2042    8    0    1
 -2       991      1054      1002      4050      4051      4038
 -1      2043    8    0    1
 -2       950       949      1055      3707      4052      4053
 -1      2044    8    0    1
 -2       950      1055      1011      4053      4054      3918
 -1      2045    8    0    1
 -2      1000       971      1031      3980      3978      4055
 -1      2046    8    0    1
 -2      1001      1036      1056      3991      4056      4057
 -1      2047    8    0    1
 -2      1001      1056      1009      4057      4058      3911
 -1      2048    8    0    1
 -2       975      1039      1051      3998      4059      4039
 -1      2049    8    0    1
 -2       974      1035      1057      3988      4060      4061
 -1      2050    8    0    1
 -2       974      1057      1003      4061      4062      3880
 -1      2051    8    0    1
 -2      1036      1008      1058      3990      4063      4064
 -1      2052    8    0    1
 -2      1008      1003      1058      3907      4065      4063
 -1      2053    8    0    1
 -2      1049       934      1009      4030      3910      4066
 -1      2054    8    0    1
 -2       989      1048      1059      4026      4067      4068
 -1      2055    8    0    1
 -2       989      1059       996      4068      4069      3851
 -1      2056    8    0    1
 -2       999      1004      1060      3885      4070      4071
 -1      2057    8    0    1
 -2       999      1060      1054      4071      4072      4049
 -1      2058    8    0    1
 -2      1002      1054      1006      4051      4073      3893
 -1      2059    8    0    1
 -2      1007      1005      1061      3901      4074      4075
 -1      2060    8    0    1
 -2       949      1032      1055      3982      4076      4052
 -1      2061    8    0    1
 -2      1037      1000      1031      3992      4055      4077
 -1      2062    8    0    1
 -2      1010       995      1062      3915      4078      4079
 -1      2063    8    0    1
 -2      1048      1010      1062      4027      4079      4080
 -1      2064    8    0    1
 -2       995      1006      1062      3895      4081      4078
 -1      2065    8    0    1
 -2       987       996      1059      3850      4069      4082
 -1      2066    8    0    1
 -2       993       926       939      3854      3661      4083
 -1      2067    8    0    1
 -2      1052       987      1059      4042      4082      4084
 -1      2068    8    0    1
 -2       939       988       993      4035      3889      4083
 -1      2069    8    0    1
 -2      1005      1049      1063      4029      4085      4086
 -1      2070    8    0    1
 -2      1005      1063      1061      4086      4087      4074
 -1      2071    8    0    1
 -2      1013      1012      1064      3925      4088      4089
 -1      2072    8    0    1
 -2      1014      1013      1065      3928      4090      4091
 -1      2073    8    0    1
 -2      1013      1064      1065      4089      4092      4090
 -1      2074    8    0    1
 -2      1015      1014      1066      3931      4093      4094
 -1      2075    8    0    1
 -2      1014      1065      1066      4091      4095      4093
 -1      2076    8    0    1
 -2      1016      1015      1067      3934      4096      4097
 -1      2077    8    0    1
 -2      1015      1066      1067      4094      4098      4096
 -1      2078    8    0    1
 -2      1017      1016      1068      3937      4099      4100
 -1      2079    8    0    1
 -2      1016      1067      1068      4097      4101      4099
 -1      2080    8    0    1
 -2      1018      1017      1069      3940      4102      4103
 -1      2081    8    0    1
 -2      1017      1068      1069      4100      4104      4102
 -1      2082    8    0    1
 -2      1019      1018      1070      3943      4105      4106
 -1      2083    8    0    1
 -2      1018      1069      1070      4103      4107      4105
 -1      2084    8    0    1
 -2      1020      1019      1071      3946      4108      4109
 -1      2085    8    0    1
 -2      1019      1070      1071      4106      4110      4108
 -1      2086    8    0    1
 -2      1021      1020      1072      3949      4111      4112
 -1      2087    8    0    1
 -2      1020      1071      1072      4109      4113      4111
 -1      2088    8    0    1
 -2      1022      1021      1073      3952      4114      4115
 -1      2089    8    0    1
 -2      1021      1072      1073      4112      4116      4114
 -1      2090    8    0    1
 -2      1023      1022      1074      3955      4117      4118
 -1      2091    8    0    1
 -2      1022      1073      1074      4115      4119      4117
 -1      2092    8    0    1
 -2      1024      1023      1075      3958      4120      4121
 -1      2093    8    0    1
 -2      1023      1074      1075      4118      4122      4120
 -1      2094    8    0    1
 -2      1025      1024      1076      3961      4123      4124
 -1      2095    8    0    1
 -2      1024      1075      1076      4121      4125      4123
 -1      2096    8    0    1
 -2      1026      1025      1077      3964      4126      4127
 -1      2097    8    0    1
 -2      1025      1076      1077      4124      4128      4126
 -1      2098    8    0    1
 -2      1027      1026      1078      3967      4129      4130
 -1      2099    8    0    1
 -2      1026      1077      1078      4127      4131      4129
 -1      2100    8    0    1
 -2      1028      1027      1079      3970      4132      4133
 -1      2101    8    0    1
 -2      1027      1078      1079      4130      4134      4132
 -1      2102    8    0    1
 -2      1029      1028      1080      3973      4135      4136
 -1      2103    8    0    1
 -2      1028      1079      1080      4133      4137      4135
 -1      2104    8    0    1
 -2      1030      1029      1081      3976      4138      4139
 -1      2105    8    0    1
 -2      1029      1080      1081      4136      4140      4138
 -1      2106    8    0    1
 -2      1031      1030      1082      3979      4141      4142
 -1      2107    8    0    1
 -2      1037      1031      1082      4077      4142      4143
 -1      2108    8    0    1
 -2      1030      1081      1082      4139      4144      4141
 -1      2109    8    0    1
 -2      1032      1052      1083      4044      4145      4146
 -1      2110    8    0    1
 -2      1033      1051      1084      4041      4147      4148
 -1      2111    8    0    1
 -2      1034      1040      1085      4002      4149      4150
 -1      2112    8    0    1
 -2      1039      1038      1086      3999      4151      4152
 -1      2113    8    0    1
 -2      1041      1042      1087      4008      4153      4154
 -1      2114    8    0    1
 -2      1042      1043      1088      4011      4155      4156
 -1      2115    8    0    1
 -2      1042      1088      1087      4156      4157      4153
 -1      2116    8    0    1
 -2      1043      1044      1089      4014      4158      4159
 -1      2117    8    0    1
 -2      1043      1089      1088      4159      4160      4155
 -1      2118    8    0    1
 -2      1044      1045      1090      4017      4161      4162
 -1      2119    8    0    1
 -2      1044      1090      1089      4162      4163      4158
 -1      2120    8    0    1
 -2      1045      1046      1091      4020      4164      4165
 -1      2121    8    0    1
 -2      1045      1091      1090      4165      4166      4161
 -1      2122    8    0    1
 -2      1046      1047      1092      4023      4167      4168
 -1      2123    8    0    1
 -2      1091      1046      1092      4164      4168      4169
 -1      2124    8    0    1
 -2      1047      1053      1092      4047      4170      4167
 -1      2125    8    0    1
 -2      1059      1048      1093      4067      4171      4172
 -1      2126    8    0    1
 -2      1048      1062      1093      4080      4173      4171
 -1      2127    8    0    1
 -2      1007      1061      1094      4075      4174      4175
 -1      2128    8    0    1
 -2      1007      1094      1050      4175      4176      4034
 -1      2129    8    0    1
 -2      1055      1032      1095      4076      4177      4178
 -1      2130    8    0    1
 -2      1032      1083      1095      4146      4179      4177
 -1      2131    8    0    1
 -2      1049      1009      1096      4066      4180      4181
 -1      2132    8    0    1
 -2      1063      1049      1096      4085      4181      4182
 -1      2133    8    0    1
 -2      1009      1056      1096      4058      4183      4180
 -1      2134    8    0    1
 -2      1038      1034      1097      3996      4184      4185
 -1      2135    8    0    1
 -2      1034      1085      1097      4150      4186      4184
 -1      2136    8    0    1
 -2      1011      1055      1098      4054      4187      4188
 -1      2137    8    0    1
 -2      1055      1095      1098      4178      4189      4187
 -1      2138    8    0    1
 -2      1051      1039      1099      4059      4190      4191
 -1      2139    8    0    1
 -2      1039      1086      1099      4152      4192      4190
 -1      2140    8    0    1
 -2      1006      1054      1100      4073      4193      4194
 -1      2141    8    0    1
 -2      1035      1033      1101      3989      4195      4196
 -1      2142    8    0    1
 -2      1033      1084      1101      4148      4197      4195
 -1      2143    8    0    1
 -2      1040      1041      1102      4005      4198      4199
 -1      2144    8    0    1
 -2      1085      1040      1102      4149      4199      4200
 -1      2145    8    0    1
 -2      1041      1087      1102      4154      4201      4198
 -1      2146    8    0    1
 -2      1012      1011      1103      3922      4202      4203
 -1      2147    8    0    1
 -2      1011      1098      1103      4188      4204      4202
 -1      2148    8    0    1
 -2      1052      1059      1093      4084      4172      4205
 -1      2149    8    0    1
 -2      1056      1036      1104      4056      4206      4207
 -1      2150    8    0    1
 -2      1084      1051      1099      4147      4191      4208
 -1      2151    8    0    1
 -2      1052      1093      1083      4205      4209      4145
 -1      2152    8    0    1
 -2      1057      1035      1105      4060      4210      4211
 -1      2153    8    0    1
 -2      1035      1101      1105      4196      4212      4210
 -1      2154    8    0    1
 -2      1058      1003      1057      4065      4062      4213
 -1      2155    8    0    1
 -2      1036      1058      1106      4064      4214      4215
 -1      2156    8    0    1
 -2      1036      1106      1104      4215      4216      4206
 -1      2157    8    0    1
 -2      1006      1100      1062      4194      4217      4081
 -1      2158    8    0    1
 -2      1012      1103      1064      4203      4218      4088
 -1      2159    8    0    1
 -2      1094      1061      1107      4174      4219      4220
 -1      2160    8    0    1
 -2      1037      1082      1053      4143      4221      4048
 -1      2161    8    0    1
 -2      1054      1060      1100      4072      4222      4193
 -1      2162    8    0    1
 -2      1004      1050      1108      4033      4223      4224
 -1      2163    8    0    1
 -2      1060      1004      1108      4070      4224      4225
 -1      2164    8    0    1
 -2      1050      1094      1108      4176      4226      4223
 -1      2165    8    0    1
 -2      1086      1038      1097      4151      4185      4227
 -1      2166    8    0    1
 -2      1061      1063      1109      4087      4228      4229
 -1      2167    8    0    1
 -2      1061      1109      1107      4229      4230      4219
 -1      2168    8    0    1
 -2      1084      1099      1071      4208      4231      4232
 -1      2169    8    0    1
 -2      1066      1065      1110      4095      4233      4234
 -1      2170    8    0    1
 -2      1067      1066      1106      4098      4235      4236
 -1      2171    8    0    1
 -2      1069      1068      1111      4104      4237      4238
 -1      2172    8    0    1
 -2      1070      1069      1101      4107      4239      4240
 -1      2173    8    0    1
 -2      1071      1070      1084      4110      4241      4232
 -1      2174    8    0    1
 -2      1072      1071      1099      4113      4231      4242
 -1      2175    8    0    1
 -2      1073      1072      1086      4116      4243      4244
 -1      2176    8    0    1
 -2      1074      1073      1097      4119      4245      4246
 -1      2177    8    0    1
 -2      1075      1074      1085      4122      4247      4248
 -1      2178    8    0    1
 -2      1076      1075      1102      4125      4249      4250
 -1      2179    8    0    1
 -2      1077      1076      1087      4128      4251      4252
 -1      2180    8    0    1
 -2      1078      1077      1088      4131      4253      4254
 -1      2181    8    0    1
 -2      1079      1078      1089      4134      4255      4256
 -1      2182    8    0    1
 -2      1080      1079      1090      4137      4257      4258
 -1      2183    8    0    1
 -2      1081      1080      1091      4140      4259      4260
 -1      2184    8    0    1
 -2      1082      1081      1092      4144      4261      4262
 -1      2185    8    0    1
 -2      1087      1076      1102      4251      4250      4201
 -1      2186    8    0    1
 -2      1056      1104      1112      4207      4263      4264
 -1      2187    8    0    1
 -2      1056      1112      1096      4264      4265      4183
 -1      2188    8    0    1
 -2      1085      1074      1097      4247      4246      4186
 -1      2189    8    0    1
 -2      1072      1099      1086      4242      4192      4243
 -1      2190    8    0    1
 -2      1087      1088      1077      4157      4253      4252
 -1      2191    8    0    1
 -2      1090      1091      1080      4166      4259      4258
 -1      2192    8    0    1
 -2      1090      1079      1089      4257      4256      4163
 -1      2193    8    0    1
 -2      1053      1082      1092      4221      4262      4170
 -1      2194    8    0    1
 -2      1103      1098      1109      4204      4266      4267
 -1      2195    8    0    1
 -2      1095      1083      1113      4179      4268      4269
 -1      2196    8    0    1
 -2      1101      1084      1070      4197      4241      4240
 -1      2197    8    0    1
 -2      1098      1095      1107      4189      4270      4271
 -1      2198    8    0    1
 -2      1058      1057      1114      4213      4272      4273
 -1      2199    8    0    1
 -2      1057      1105      1114      4211      4274      4272
 -1      2200    8    0    1
 -2      1088      1089      1078      4160      4255      4254
 -1      2201    8    0    1
 -2      1065      1064      1112      4092      4275      4276
 -1      2202    8    0    1
 -2      1086      1097      1073      4227      4245      4244
 -1      2203    8    0    1
 -2      1094      1107      1113      4220      4277      4278
 -1      2204    8    0    1
 -2      1098      1107      1109      4271      4230      4266
 -1      2205    8    0    1
 -2      1107      1095      1113      4270      4269      4277
 -1      2206    8    0    1
 -2      1075      1085      1102      4248      4200      4249
 -1      2207    8    0    1
 -2      1081      1091      1092      4260      4169      4261
 -1      2208    8    0    1
 -2      1063      1096      1115      4182      4279      4280
 -1      2209    8    0    1
 -2      1109      1063      1115      4228      4280      4281
 -1      2210    8    0    1
 -2      1096      1112      1115      4265      4282      4279
 -1      2211    8    0    1
 -2      1068      1067      1116      4101      4283      4284
 -1      2212    8    0    1
 -2      1106      1058      1114      4214      4273      4285
 -1      2213    8    0    1
 -2      1101      1069      1111      4239      4238      4286
 -1      2214    8    0    1
 -2      1103      1109      1115      4267      4281      4287
 -1      2215    8    0    1
 -2      1111      1068      1116      4237      4284      4288
 -1      2216    8    0    1
 -2      1064      1103      1115      4218      4287      4289
 -1      2217    8    0    1
 -2      1064      1115      1112      4289      4282      4275
 -1      2218    8    0    1
 -2      1100      1060      1117      4222      4290      4291
 -1      2219    8    0    1
 -2      1066      1110      1106      4234      4292      4235
 -1      2220    8    0    1
 -2      1067      1106      1116      4236      4293      4283
 -1      2221    8    0    1
 -2      1106      1114      1116      4285      4294      4293
 -1      2222    8    0    1
 -2      1112      1104      1110      4263      4295      4296
 -1      2223    8    0    1
 -2      1065      1112      1110      4276      4296      4233
 -1      2224    8    0    1
 -2      1117      1060      1108      4290      4225      4297
 -1      2225    8    0    1
 -2      1093      1062      1100      4173      4217      4298
 -1      2226    8    0    1
 -2      1113      1083      1117      4268      4299      4300
 -1      2227    8    0    1
 -2      1083      1093      1100      4209      4298      4301
 -1      2228    8    0    1
 -2      1108      1094      1113      4226      4278      4302
 -1      2229    8    0    1
 -2      1111      1116      1114      4288      4294      4303
 -1      2230    8    0    1
 -2      1110      1104      1106      4295      4216      4292
 -1      2231    8    0    1
 -2      1105      1101      1111      4212      4286      4304
 -1      2232    8    0    1
 -2      1083      1100      1117      4301      4291      4299
 -1      2233    8    0    1
 -2      1114      1105      1111      4274      4304      4303
 -1      2234    8    0    1
 -2      1117      1108      1113      4297      4302      4300
 -3
    1PSTEP                         1           1           1          
  100CL  101 1.000000000        4304                     0    1           1
 -4  DISP        4    1
 -5  D1          1    2    1    0
 -5  D2          1    2    2    0
 -5  D3          1    2    3    0
 -5  ALL         1    2    0    0    1ALL
 -1         1 9.54438E-03-3.07290E-04-4.12848E-14
 -1         2 1.36073E-02 2.82613E-04-4.90844E-14
 -1         3 1.52025E-02 8.76414E-04-6.50653E-14
 -1         4 1.45894E-02 3.26852E-05-7.29033E-14
 -1         5 0.00000E+00 0.00000E+00 0.00000E+00
 -1         6 0.00000E+00 0.00000E+00 0.00000E+00
 -1         7 0.00000E+00 0.00000E+00 0.00000E+00
 -1         8 0.00000E+00 0.00000E+00 0.00000E+00
 -1         9 0.00000E+00 0.00000E+00 0.00000E+00
 -1        10 0.00000E+00 0.00000E+00 0.00000E+00
 -1        11 0.00000E+00 0.00000E+00 0.00000E+00
 -1        12 0.00000E+00 0.00000E+00 0.00000E+00
 -1        13 0.00000E+00 0.00000E+00 0.00000E+00
 -1        14 0.00000E+00 0.00000E+00 0.00000E+00
 -1        15 0.00000E+00 0.00000E+00 0.00000E+00
 -1        16 0.00000E+00 0.00000E+00 0.00000E+00
 -1        17 0.00000E+00 0.00000E+00 0.00000E+00
 -1        18 0.00000E+00 0.00000E+00 0.00000E+00
 -1        19 0.00000E+00 0.00000E+00 0.00000E+00
 -1        20 0.00000E+00 0.00000E+00 0.00000E+00
 -1        21 0.00000E+00 0.00000E+00 0.00000E+00
 -1        22 0.00000E+00 0.00000E+00 0.00000E+00
 -1        23 4.11392E-04-2.60757E-04 6.23077E-18
 -1        24 7.03377E-04-4.01026E-04-9.27738E-17
 -1        25 9.73439E-04-4.98424E-04-2.91068E-16
 -1        26 1.23792E-03-5.67190E-04-5.83460E-16
 -1        27 1.50142E-03-6.16462E-04-9.65516E-16
 -1        28 1.76605E-03-6.51617E-04-1.43545E-15
 -1        29 2.03276E-03-6.76364E-04-1.99017E-15
 -1        30 2.30190E-03-6.93393E-04-2.62620E-15
 -1        31 2.57353E-03-7.04716E-04-3.34106E-15
 -1        32 2.84751E-03-7.11845E-04-4.13359E-15
 -1        33 3.12360E-03-7.15919E-04-4.99751E-15
 -1        34 3.40154E-03-7.17778E-04-5.92345E-15
 -1        35 3.68106E-03-7.18029E-04-6.91351E-15
 -1        36 3.96189E-03-7.17097E-04-7.96401E-15
 -1        37 4.24385E-03-7.15260E-04-9.07022E-15
 -1        38 4.52676E-03-7.12687E-04-1.02311E-14
 -1        39 4.81055E-03-7.09463E-04-1.14444E-14
 -1        40 5.09518E-03-7.05616E-04-1.27049E-14
 -1        41 5.38074E-03-7.01143E-04-1.40158E-14
 -1        42 5.66739E-03-6.96035E-04-1.53778E-14
 -1        43 5.95539E-03-6.90308E-04-1.67904E-14
 -1        44 6.24514E-03-6.84041E-04-1.82597E-14
 -1        45 6.53717E-03-6.77425E-04-1.97884E-14
 -1        46 6.83214E-03-6.70817E-04-2.13723E-14
 -1        47 7.13083E-03-6.64818E-04-2.29978E-14
 -1        48 7.43412E-03-6.60350E-04-2.46664E-14
 -1        49 7.74289E-03-6.58750E-04-2.63683E-14
 -1        50 8.05790E-03-6.61837E-04-2.81047E-14
 -1        51 8.37954E-03-6.71922E-04-2.98762E-14
 -1        52 8.70746E-03-6.91692E-04-3.16797E-14
 -1        53 9.04019E-03-7.23855E-04-3.35043E-14
 -1        54 9.37461E-03-7.70421E-04-3.53651E-14
 -1        55 9.70580E-03-8.31540E-04-3.72567E-14
 -1        56 1.00273E-02-9.04024E-04-3.91818E-14
 -1        57 1.03327E-02-9.80099E-04-4.11504E-14
 -1        58 1.06174E-02-1.04736E-03-4.31361E-14
 -1        59 1.08820E-02-1.09096E-03-4.51478E-14
 -1        60 1.11329E-02-1.09808E-03-4.71763E-14
 -1        61 1.13812E-02-1.06282E-03-4.92221E-14
 -1        62 1.16383E-02-9.88655E-04-5.12984E-14
 -1        63 1.19117E-02-8.86729E-04-5.34112E-14
 -1        64 1.22029E-02-7.71184E-04-5.55435E-14
 -1        65 1.25079E-02-6.54299E-04-5.77079E-14
 -1        66 1.28201E-02-5.43656E-04-5.98813E-14
 -1        67 1.31326E-02-4.41724E-04-6.20556E-14
 -1        68 1.34402E-02-3.46960E-04-6.42281E-14
 -1        69 1.37400E-02-2.55441E-04-6.64124E-14
 -1        70 1.40319E-02-1.62507E-04-6.85950E-14
 -1        71 1.43185E-02-6.46880E-05-7.07913E-14
 -1        72 4.13839E-04 2.61462E-04 5.02968E-17
 -1        73 7.03202E-04 4.03733E-04 3.14046E-17
 -1        74 9.73977E-04 5.00200E-04-5.96379E-17
 -1        75 1.23874E-03 5.68904E-04-2.24836E-16
 -1        76 1.50238E-03 6.18221E-04-4.66614E-16
 -1        77 1.76708E-03 6.53468E-04-7.84884E-16
 -1        78 2.03382E-03 6.78327E-04-1.17875E-15
 -1        79 2.30299E-03 6.95480E-04-1.64480E-15
 -1        80 2.57463E-03 7.06931E-04-2.18536E-15
 -1        81 2.84861E-03 7.14192E-04-2.79950E-15
 -1        82 3.12471E-03 7.18399E-04-3.48626E-15
 -1        83 3.40265E-03 7.20390E-04-4.24087E-15
 -1        84 3.68215E-03 7.20772E-04-5.06283E-15
 -1        85 3.96298E-03 7.19967E-04-5.95140E-15
 -1        86 4.24491E-03 7.18249E-04-6.90533E-15
 -1        87 4.52780E-03 7.15781E-04-7.92498E-15
 -1        88 4.81154E-03 7.12639E-04-9.00402E-15
 -1        89 5.09613E-03 7.08835E-04-1.01449E-14
 -1        90 5.38163E-03 7.04344E-04-1.13450E-14
 -1        91 5.66822E-03 6.99124E-04-1.26065E-14
 -1        92 5.95620E-03 6.93145E-04-1.39275E-14
 -1        93 6.24601E-03 6.86421E-04-1.52987E-14
 -1        94 6.53829E-03 6.79062E-04-1.67270E-14
 -1        95 6.83386E-03 6.71332E-04-1.82035E-14
 -1        96 7.13381E-03 6.63741E-04-1.97200E-14
 -1        97 7.43951E-03 6.57170E-04-2.12752E-14
 -1        98 7.75261E-03 6.53037E-04-2.28666E-14
 -1        99 8.07499E-03 6.53515E-04-2.44925E-14
 -1       100 8.40860E-03 6.61790E-04-2.61347E-14
 -1       101 8.75507E-03 6.82287E-04-2.77968E-14
 -1       102 9.11503E-03 7.20729E-04-2.94759E-14
 -1       103 9.48691E-03 7.83667E-04-3.11632E-14
 -1       104 9.86547E-03 8.76936E-04-3.28642E-14
 -1       105 1.02406E-02 1.00243E-03-3.45829E-14
 -1       106 1.05977E-02 1.15323E-03-3.63306E-14
 -1       107 1.09223E-02 1.30928E-03-3.81082E-14
 -1       108 1.12082E-02 1.43869E-03-3.99028E-14
 -1       109 1.14651E-02 1.50875E-03-4.17261E-14
 -1       110 1.17167E-02 1.50294E-03-4.35826E-14
 -1       111 1.19890E-02 1.43093E-03-4.54671E-14
 -1       112 1.22958E-02 1.32211E-03-4.73756E-14
 -1       113 1.26340E-02 1.20905E-03-4.92921E-14
 -1       114 1.29901E-02 1.11412E-03-5.12249E-14
 -1       115 1.33485E-02 1.04591E-03-5.31758E-14
 -1       116 1.36974E-02 1.00248E-03-5.51424E-14
 -1       117 1.40302E-02 9.76248E-04-5.71167E-14
 -1       118 1.43450E-02 9.57775E-04-5.91156E-14
 -1       119 1.46438E-02 9.38005E-04-6.11294E-14
 -1       120 1.49318E-02 9.10295E-04-6.31498E-14
 -1       121 1.52401E-02 7.91345E-04-6.55038E-14
 -1       122 1.52856E-02 7.09507E-04-6.59469E-14
 -1       123 1.53387E-02 6.38167E-04-6.63979E-14
 -1       124 1.53927E-02 5.82088E-04-6.68413E-14
 -1       125 1.54392E-02 5.42778E-04-6.72798E-14
 -1       126 1.54693E-02 5.19056E-04-6.77225E-14
 -1       127 1.54770E-02 5.06063E-04-6.81768E-14
 -1       128 1.54574E-02 4.98356E-04-6.86267E-14
 -1       129 1.54096E-02 4.89230E-04-6.91012E-14
 -1       130 1.53363E-02 4.72596E-04-6.95749E-14
 -1       131 1.52428E-02 4.44080E-04-7.00818E-14
 -1       132 1.51375E-02 4.02391E-04-7.05928E-14
 -1       133 1.50235E-02 3.46115E-04-7.10913E-14
 -1       134 1.49082E-02 2.77538E-04-7.15588E-14
 -1       135 1.47961E-02 1.99432E-04-7.20315E-14
 -1       136 1.46896E-02 1.16125E-04-7.24769E-14
 -1       137 1.35683E-02 4.64448E-04-4.88033E-14
 -1       138 1.34370E-02 6.31957E-04-4.83491E-14
 -1       139 1.32078E-02 7.91814E-04-4.77204E-14
 -1       140 1.29040E-02 9.26354E-04-4.69770E-14
 -1       141 1.25437E-02 1.03107E-03-4.61608E-14
 -1       142 1.21116E-02 1.10565E-03-4.52399E-14
 -1       143 1.16408E-02 1.13856E-03-4.42672E-14
 -1       144 1.11647E-02 1.12525E-03-4.33224E-14
 -1       145 1.06809E-02 1.06414E-03-4.23965E-14
 -1       146 1.02548E-02 9.67320E-04-4.16159E-14
 -1       147 9.87634E-03 8.38601E-04-4.09549E-14
 -1       148 9.56917E-03 6.89078E-04-4.04527E-14
 -1       149 9.33106E-03 5.18385E-04-4.01124E-14
 -1       150 9.19110E-03 3.45885E-04-3.99764E-14
 -1       151 9.14239E-03 1.72804E-04-4.00303E-14
 -1       152 9.18693E-03 8.37739E-07-4.02791E-14
 -1       153 9.32500E-03-1.62573E-04-4.07083E-14
 -1       154 9.83712E-03-4.31383E-04-4.19923E-14
 -1       155 1.01913E-02-5.29668E-04-4.27995E-14
 -1       156 1.06072E-02-5.99813E-04-4.37196E-14
 -1       157 1.10720E-02-6.33601E-04-4.47125E-14
 -1       158 1.15628E-02-6.24885E-04-4.57290E-14
 -1       159 1.20282E-02-5.74850E-04-4.66602E-14
 -1       160 1.24582E-02-4.88613E-04-4.74867E-14
 -1       161 1.28350E-02-3.72955E-04-4.81693E-14
 -1       162 1.31510E-02-2.31646E-04-4.86954E-14
 -1       163 1.33951E-02-6.77084E-05-4.90345E-14
 -1       164 1.35511E-02 1.09215E-04-4.91600E-14
 -1       165 2.40403E-04-1.25537E-04-2.93006E-17
 -1       166 2.25273E-04-9.46392E-05-3.98681E-17
 -1       167 2.19521E-04-7.27955E-05-4.47166E-17
 -1       168 2.16707E-04-5.51250E-05-4.65733E-17
 -1       169 2.15222E-04-3.99834E-05-4.67223E-17
 -1       170 2.14389E-04-2.59258E-05-4.60007E-17
 -1       171 2.13972E-04-1.26492E-05-4.49097E-17
 -1       172 2.13850E-04 2.73458E-07-4.35172E-17
 -1       173 2.13990E-04 1.32083E-05-4.18197E-17
 -1       174 2.14430E-04 2.65242E-05-3.92549E-17
 -1       175 2.15271E-04 4.04084E-05-3.58702E-17
 -1       176 2.16818E-04 5.59319E-05-3.12182E-17
 -1       177 2.19671E-04 7.38362E-05-2.45267E-17
 -1       178 2.25442E-04 9.60376E-05-1.43725E-17
 -1       179 2.39334E-04 1.27614E-04 1.58565E-18
 -1       180 2.97710E-04 1.85520E-04 1.92344E-17
 -1       181 4.68624E-04-2.63585E-04-7.60636E-17
 -1       182 7.66760E-04-3.82199E-04-2.38196E-16
 -1       183 1.05060E-03-4.65100E-04-4.90713E-16
 -1       184 1.32797E-03-5.23896E-04-8.31661E-16
 -1       185 1.60255E-03-5.65594E-04-1.25826E-15
 -1       186 1.87640E-03-5.94879E-04-1.76883E-15
 -1       187 2.15066E-03-6.15053E-04-2.36064E-15
 -1       188 2.42593E-03-6.28531E-04-3.03012E-15
 -1       189 2.70245E-03-6.37114E-04-3.77628E-15
 -1       190 2.98031E-03-6.42146E-04-4.59644E-15
 -1       191 3.25946E-03-6.44623E-04-5.48171E-15
 -1       192 3.53979E-03-6.45266E-04-6.42983E-15
 -1       193 3.82117E-03-6.44583E-04-7.44180E-15
 -1       194 4.10350E-03-6.42914E-04-8.51129E-15
 -1       195 4.38667E-03-6.40468E-04-9.63627E-15
 -1       196 4.67063E-03-6.37354E-04-1.08132E-14
 -1       197 4.95535E-03-6.33610E-04-1.20408E-14
 -1       198 5.24088E-03-6.29225E-04-1.33191E-14
 -1       199 5.52732E-03-6.24170E-04-1.46491E-14
 -1       200 5.81488E-03-6.18418E-04-1.60291E-14
 -1       201 6.10380E-03-6.11985E-04-1.74644E-14
 -1       202 6.39446E-03-6.04971E-04-1.89549E-14
 -1       203 6.68730E-03-5.97609E-04-2.05017E-14
 -1       204 6.98286E-03-5.90343E-04-2.20988E-14
 -1       205 7.28174E-03-5.83903E-04-2.37360E-14
 -1       206 7.58456E-03-5.79406E-04-2.54107E-14
 -1       207 7.89190E-03-5.78448E-04-2.71202E-14
 -1       208 8.20414E-03-5.83175E-04-2.88657E-14
 -1       209 8.52130E-03-5.96257E-04-3.06420E-14
 -1       210 8.84284E-03-6.20698E-04-3.24474E-14
 -1       211 9.16736E-03-6.59313E-04-3.42798E-14
 -1       212 9.49242E-03-7.13763E-04-3.61444E-14
 -1       213 9.81454E-03-7.83089E-04-3.80371E-14
 -1       214 1.01297E-02-8.62032E-04-3.99651E-14
 -1       215 1.04342E-02-9.39979E-04-4.19264E-14
 -1       216 1.07265E-02-1.00181E-03-4.39115E-14
 -1       217 1.10084E-02-1.03160E-03-4.59183E-14
 -1       218 1.12850E-02-1.01830E-03-4.79463E-14
 -1       219 1.15633E-02-9.60552E-04-4.99938E-14
 -1       220 1.18488E-02-8.67097E-04-5.20790E-14
 -1       221 1.21442E-02-7.52729E-04-5.41872E-14
 -1       222 1.24481E-02-6.32372E-04-5.63194E-14
 -1       223 1.27572E-02-5.16693E-04-5.84696E-14
 -1       224 1.30671E-02-4.10593E-04-6.06302E-14
 -1       225 1.33743E-02-3.13943E-04-6.27909E-14
 -1       226 1.36764E-02-2.23271E-04-6.49593E-14
 -1       227 1.39727E-02-1.33542E-04-6.71335E-14
 -1       228 1.42634E-02-3.98633E-05-6.93160E-14
 -1       229 6.04565E-04 3.31081E-04-1.61343E-17
 -1       230 8.93650E-04 4.32719E-04-1.18798E-16
 -1       231 1.17252E-03 5.04483E-04-2.93632E-16
 -1       232 1.44685E-03 5.55581E-04-5.42653E-16
 -1       233 1.71963E-03 5.91831E-04-8.66420E-16
 -1       234 1.99249E-03 6.17208E-04-1.26456E-15
 -1       235 2.26626E-03 6.34577E-04-1.73516E-15
 -1       236 2.54135E-03 6.46062E-04-2.27874E-15
 -1       237 2.81789E-03 6.53251E-04-2.89485E-15
 -1       238 3.09588E-03 6.57330E-04-3.58189E-15
 -1       239 3.37521E-03 6.59171E-04-4.33694E-15
 -1       240 3.65574E-03 6.59401E-04-5.15907E-15
 -1       241 3.93733E-03 6.58452E-04-6.04915E-15
 -1       242 4.21986E-03 6.56603E-04-7.00339E-15
 -1       243 4.50322E-03 6.54017E-04-8.02105E-15
 -1       244 4.78738E-03 6.50761E-04-9.09925E-15
 -1       245 5.07233E-03 6.46839E-04-1.02382E-14
 -1       246 5.35816E-03 6.42209E-04-1.14357E-14
 -1       247 5.64501E-03 6.36808E-04-1.26924E-14
 -1       248 5.93315E-03 6.30576E-04-1.40096E-14
 -1       249 6.22295E-03 6.23493E-04-1.53815E-14
 -1       250 6.51491E-03 6.15619E-04-1.68071E-14
 -1       251 6.80968E-03 6.07157E-04-1.82791E-14
 -1       252 7.10812E-03 5.98543E-04-1.97915E-14
 -1       253 7.41124E-03 5.90561E-04-2.13434E-14
 -1       254 7.72024E-03 5.84523E-04-2.29320E-14
 -1       255 8.03646E-03 5.82488E-04-2.45517E-14
 -1       256 8.36121E-03 5.87541E-04-2.61927E-14
 -1       257 8.69561E-03 6.04079E-04-2.78550E-14
 -1       258 9.04008E-03 6.37955E-04-2.95374E-14
 -1       259 9.39378E-03 6.96167E-04-3.12297E-14
 -1       260 9.75374E-03 7.85499E-04-3.29359E-14
 -1       261 1.01143E-02 9.09378E-04-3.46649E-14
 -1       262 1.04672E-02 1.06269E-03-3.64202E-14
 -1       263 1.08037E-02 1.22630E-03-3.82017E-14
 -1       264 1.11189E-02 1.36682E-03-4.00059E-14
 -1       265 1.14168E-02 1.44735E-03-4.18332E-14
 -1       266 1.17100E-02 1.44705E-03-4.36883E-14
 -1       267 1.20131E-02 1.37430E-03-4.55702E-14
 -1       268 1.23342E-02 1.26079E-03-4.74812E-14
 -1       269 1.26716E-02 1.14243E-03-4.94082E-14
 -1       270 1.30174E-02 1.04384E-03-5.13483E-14
 -1       271 1.33626E-02 9.74328E-04-5.33047E-14
 -1       272 1.37000E-02 9.31689E-04-5.52779E-14
 -1       273 1.40258E-02 9.07758E-04-5.72572E-14
 -1       274 1.43386E-02 8.92426E-04-5.92569E-14
 -1       275 1.46395E-02 8.75958E-04-6.12706E-14
 -1       276 1.49313E-02 8.50818E-04-6.32875E-14
 -1       277 1.50148E-02 7.83572E-04-6.39761E-14
 -1       278 1.50674E-02 7.08533E-04-6.44175E-14
 -1       279 1.51255E-02 6.43133E-04-6.48618E-14
 -1       280 1.51808E-02 5.88847E-04-6.52995E-14
 -1       281 1.52232E-02 5.46209E-04-6.57291E-14
 -1       282 1.52458E-02 5.11868E-04-6.61748E-14
 -1       283 1.52414E-02 4.83198E-04-6.66285E-14
 -1       284 1.52072E-02 4.55799E-04-6.70903E-14
 -1       285 1.51443E-02 4.25210E-04-6.75565E-14
 -1       286 1.50573E-02 3.87775E-04-6.80317E-14
 -1       287 1.49547E-02 3.42087E-04-6.85060E-14
 -1       288 1.48402E-02 2.85835E-04-6.89827E-14
 -1       289 1.47221E-02 2.20274E-04-6.94456E-14
 -1       290 1.46057E-02 1.46882E-04-6.98962E-14
 -1       291 1.44327E-02 5.47014E-05-6.96112E-14
 -1       292 1.36257E-02 3.39845E-04-4.97915E-14
 -1       293 1.35010E-02 4.48341E-04-4.93001E-14
 -1       294 1.32606E-02 5.80631E-04-4.86533E-14
 -1       295 1.29337E-02 7.41405E-04-4.78348E-14
 -1       296 1.25699E-02 9.11789E-04-4.69091E-14
 -1       297 1.21872E-02 1.07022E-03-4.58807E-14
 -1       298 1.17883E-02 1.18816E-03-4.47719E-14
 -1       299 1.14105E-02 1.21441E-03-4.36533E-14
 -1       300 1.10243E-02 1.15472E-03-4.25487E-14
 -1       301 1.06225E-02 1.01082E-03-4.15810E-14
 -1       302 1.02295E-02 8.27357E-04-4.07492E-14
 -1       303 9.85221E-03 6.35853E-04-4.00787E-14
 -1       304 9.52274E-03 4.49582E-04-3.94976E-14
 -1       305 9.26477E-03 3.22802E-04-3.93187E-14
 -1       306 9.13273E-03 2.16109E-04-3.92703E-14
 -1       307 9.13015E-03 1.21149E-04-3.94403E-14
 -1       308 9.25874E-03 1.81185E-05-3.98283E-14
 -1       309 9.49709E-03-1.07154E-04-4.04086E-14
 -1       310 9.80913E-03-2.55544E-04-4.11536E-14
 -1       311 1.01626E-02-4.15630E-04-4.20400E-14
 -1       312 1.05417E-02-5.65646E-04-4.30378E-14
 -1       313 1.09200E-02-6.74890E-04-4.41741E-14
 -1       314 1.13093E-02-7.09880E-04-4.53560E-14
 -1       315 1.16953E-02-6.57765E-04-4.65245E-14
 -1       316 1.20840E-02-5.27093E-04-4.75722E-14
 -1       317 1.24830E-02-3.56457E-04-4.84294E-14
 -1       318 1.28622E-02-1.74673E-04-4.91370E-14
 -1       319 1.32039E-02-6.31673E-06-4.96427E-14
 -1       320 1.34671E-02 1.44462E-04-5.00305E-14
 -1       321 1.36131E-02 2.43472E-04-4.99475E-14
 -1       322 4.55394E-04-1.64835E-04-1.48282E-16
 -1       323 4.74251E-04-2.13017E-04-1.32960E-16
 -1       324 4.40450E-04-9.40458E-05-1.58073E-16
 -1       325 4.37495E-04-6.49341E-05-1.57531E-16
 -1       326 4.35876E-04-3.79201E-05-1.55244E-16
 -1       327 4.35168E-04-1.20217E-05-1.51507E-16
 -1       328 4.35198E-04 1.35422E-05-1.46510E-16
 -1       329 4.35972E-04 3.94980E-05-1.40011E-16
 -1       330 4.37634E-04 6.61634E-05-1.31741E-16
 -1       331 4.40686E-04 9.54461E-05-1.20587E-16
 -1       332 4.46067E-04 1.28363E-04-1.05994E-16
 -1       333 4.55895E-04 1.67345E-04-8.56147E-17
 -1       334 4.75885E-04 2.17086E-04-5.66191E-17
 -1       335 5.32011E-04 2.70014E-04-4.07965E-17
 -1       336 8.24484E-04 3.73570E-04-1.51067E-16
 -1       337 8.63250E-04-3.57470E-04-3.95232E-16
 -1       338 1.14960E-03-4.26231E-04-6.97393E-16
 -1       339 1.43237E-03-4.75430E-04-1.08370E-15
 -1       340 1.71307E-03-5.10160E-04-1.55235E-15
 -1       341 1.99282E-03-5.34239E-04-2.10145E-15
 -1       342 2.27239E-03-5.50481E-04-2.72809E-15
 -1       343 2.55224E-03-5.60990E-04-3.42983E-15
 -1       344 2.83264E-03-5.67343E-04-4.20529E-15
 -1       345 3.11370E-03-5.70710E-04-5.05026E-15
 -1       346 3.39547E-03-5.71947E-04-5.95843E-15
 -1       347 3.67792E-03-5.71663E-04-6.92952E-15
 -1       348 3.96102E-03-5.70273E-04-7.96166E-15
 -1       349 4.24472E-03-5.68042E-04-9.05045E-15
 -1       350 4.52901E-03-5.65116E-04-1.01924E-14
 -1       351 4.81387E-03-5.61555E-04-1.13856E-14
 -1       352 5.09933E-03-5.57359E-04-1.26303E-14
 -1       353 5.38546E-03-5.52490E-04-1.39270E-14
 -1       354 5.67236E-03-5.46899E-04-1.52747E-14
 -1       355 5.96022E-03-5.40557E-04-1.66777E-14
 -1       356 6.24924E-03-5.33495E-04-1.81334E-14
 -1       357 6.53973E-03-5.25844E-04-1.96438E-14
 -1       358 6.83204E-03-5.17903E-04-2.12081E-14
 -1       359 7.12658E-03-5.10212E-04-2.28159E-14
 -1       360 7.42382E-03-5.03647E-04-2.44622E-14
 -1       361 7.72427E-03-4.99515E-04-2.61450E-14
 -1       362 8.02843E-03-4.99658E-04-2.78647E-14
 -1       363 8.33674E-03-5.06499E-04-2.96191E-14
 -1       364 8.64949E-03-5.22991E-04-3.13997E-14
 -1       365 8.96666E-03-5.52338E-04-3.32067E-14
 -1       366 9.28765E-03-5.97354E-04-3.50421E-14
 -1       367 9.61102E-03-6.59269E-04-3.69094E-14
 -1       368 9.93417E-03-7.35969E-04-3.88047E-14
 -1       369 1.02535E-02-8.20036E-04-4.07321E-14
 -1       370 1.05653E-02-8.97765E-04-4.26874E-14
 -1       371 1.08682E-02-9.51004E-04-4.46691E-14
 -1       372 1.11640E-02-9.62878E-04-4.66791E-14
 -1       373 1.14584E-02-9.25348E-04-4.87053E-14
 -1       374 1.17573E-02-8.43373E-04-5.07596E-14
 -1       375 1.20634E-02-7.31981E-04-5.28419E-14
 -1       376 1.23760E-02-6.09040E-04-5.49509E-14
 -1       377 1.26914E-02-4.88612E-04-5.70808E-14
 -1       378 1.30058E-02-3.78198E-04-5.92189E-14
 -1       379 1.33163E-02-2.79222E-04-6.13667E-14
 -1       380 1.36213E-02-1.88916E-04-6.35169E-14
 -1       381 1.39201E-02-1.02281E-04-6.56781E-14
 -1       382 1.41784E-02-2.64513E-05-6.76389E-14
 -1       383 1.10995E-03 4.47907E-04-3.31308E-16
 -1       384 1.39069E-03 5.00981E-04-5.83826E-16
 -1       385 1.66897E-03 5.38595E-04-9.09724E-16
 -1       386 1.94634E-03 5.64865E-04-1.30933E-15
 -1       387 2.22373E-03 5.82793E-04-1.78109E-15
 -1       388 2.50167E-03 5.94607E-04-2.32446E-15
 -1       389 2.78044E-03 6.01971E-04-2.93991E-15
 -1       390 3.06014E-03 6.06124E-04-3.62527E-15
 -1       391 3.34079E-03 6.07979E-04-4.37905E-15
 -1       392 3.62233E-03 6.08189E-04-5.19990E-15
 -1       393 3.90469E-03 6.07204E-04-6.08777E-15
 -1       394 4.18780E-03 6.05315E-04-7.04020E-15
 -1       395 4.47161E-03 6.02689E-04-8.05554E-15
 -1       396 4.75609E-03 5.99396E-04-9.13020E-15
 -1       397 5.04126E-03 5.95436E-04-1.02657E-14
 -1       398 5.32719E-03 5.90760E-04-1.14585E-14
 -1       399 5.61400E-03 5.85294E-04-1.27105E-14
 -1       400 5.90190E-03 5.78959E-04-1.40237E-14
 -1       401 6.19119E-03 5.71711E-04-1.53932E-14
 -1       402 6.48224E-03 5.63577E-04-1.68138E-14
 -1       403 6.77555E-03 5.54712E-04-1.82818E-14
 -1       404 7.07176E-03 5.45490E-04-1.97916E-14
 -1       405 7.37162E-03 5.36613E-04-2.13391E-14
 -1       406 7.67601E-03 5.29278E-04-2.29230E-14
 -1       407 7.98592E-03 5.25399E-04-2.45394E-14
 -1       408 8.30243E-03 5.27880E-04-2.61788E-14
 -1       409 8.62655E-03 5.40917E-04-2.78408E-14
 -1       410 8.95912E-03 5.70207E-04-2.95246E-14
 -1       411 9.30047E-03 6.22801E-04-3.12216E-14
 -1       412 9.64995E-03 7.06074E-04-3.29297E-14
 -1       413 1.00051E-02 8.25013E-04-3.46635E-14
 -1       414 1.03608E-02 9.77220E-04-3.64234E-14
 -1       415 1.07095E-02 1.14637E-03-3.82092E-14
 -1       416 1.10442E-02 1.29897E-03-4.00198E-14
 -1       417 1.13645E-02 1.39323E-03-4.18513E-14
 -1       418 1.16796E-02 1.40142E-03-4.37044E-14
 -1       419 1.20017E-02 1.32933E-03-4.55878E-14
 -1       420 1.23369E-02 1.21170E-03-4.75000E-14
 -1       421 1.26818E-02 1.08865E-03-4.94321E-14
 -1       422 1.30285E-02 9.86989E-04-5.13759E-14
 -1       423 1.33701E-02 9.16339E-04-5.33367E-14
 -1       424 1.37023E-02 8.74135E-04-5.53133E-14
 -1       425 1.40235E-02 8.51828E-04-5.72970E-14
 -1       426 1.43335E-02 8.39016E-04-5.92999E-14
 -1       427 1.46335E-02 8.25716E-04-6.13110E-14
 -1       428 1.48257E-02 8.07106E-04-6.26444E-14
 -1       429 1.49138E-02 6.27520E-04-6.33217E-14
 -1       430 1.48516E-02 6.92737E-04-6.28851E-14
 -1       431 1.48357E-02 7.47980E-04-6.27649E-14
 -1       432 1.49675E-02 5.72155E-04-6.37458E-14
 -1       433 1.50050E-02 5.24002E-04-6.41799E-14
 -1       434 1.50168E-02 4.81939E-04-6.46214E-14
 -1       435 1.49979E-02 4.42559E-04-6.50722E-14
 -1       436 1.49475E-02 4.01936E-04-6.55312E-14
 -1       437 1.48689E-02 3.56578E-04-6.59943E-14
 -1       438 1.47705E-02 3.05135E-04-6.64469E-14
 -1       439 1.46567E-02 2.45011E-04-6.69043E-14
 -1       440 1.45367E-02 1.77409E-04-6.73507E-14
 -1       441 1.44165E-02 1.03440E-04-6.77905E-14
 -1       442 1.33794E-02 4.54514E-04-4.97400E-14
 -1       443 1.36535E-02 2.98773E-04-5.07456E-14
 -1       444 1.35847E-02 3.64908E-04-5.03406E-14
 -1       445 1.30606E-02 5.91837E-04-4.89492E-14
 -1       446 1.26908E-02 7.79879E-04-4.78433E-14
 -1       447 4.45598E-04-1.26516E-04-1.55597E-16
 -1       448 1.19604E-02 1.14189E-03-4.55380E-14
 -1       449 1.15656E-02 1.25100E-03-4.40426E-14
 -1       450 1.12765E-02 1.23542E-03-4.29455E-14
 -1       451 1.08801E-02 1.09395E-03-4.15944E-14
 -1       452 1.05155E-02 8.93596E-04-4.05139E-14
 -1       453 1.01223E-02 6.64597E-04-3.95858E-14
 -1       454 9.74775E-03 4.80684E-04-3.91146E-14
 -1       455 9.38022E-03 3.08231E-04-3.85799E-14
 -1       456 9.17593E-03 2.20115E-04-3.84073E-14
 -1       457 9.09866E-03 1.61695E-04-3.85764E-14
 -1       458 9.16826E-03 1.03820E-04-3.87498E-14
 -1       459 9.38004E-03 1.20010E-05-3.94459E-14
 -1       460 9.68682E-03-1.20963E-04-4.02058E-14
 -1       461 1.00447E-02-2.90573E-04-4.11156E-14
 -1       462 1.04063E-02-4.69755E-04-4.21310E-14
 -1       463 1.07887E-02-6.45633E-04-4.35050E-14
 -1       464 1.11275E-02-7.39239E-04-4.48267E-14
 -1       465 1.14573E-02-7.28954E-04-4.61751E-14
 -1       466 1.18220E-02-6.07905E-04-4.75176E-14
 -1       467 1.22100E-02-4.10316E-04-4.87238E-14
 -1       468 1.25984E-02-2.08092E-04-4.95326E-14
 -1       469 1.29864E-02-9.67713E-06-5.02947E-14
 -1       470 1.32898E-02 1.23942E-04-5.06833E-14
 -1       471 1.35775E-02 2.47650E-04-5.10458E-14
 -1       472 1.23101E-02 9.78196E-04-4.66906E-14
 -1       473 9.31238E-04 3.46106E-04-2.96495E-16
 -1       474 6.65867E-04-7.51649E-05-3.29655E-16
 -1       475 6.69819E-04-1.15936E-04-3.32332E-16
 -1       476 6.63205E-04 1.10564E-06-3.15127E-16
 -1       477 6.63921E-04 3.87839E-05-3.03915E-16
 -1       478 6.66053E-04 7.68526E-05-2.90031E-16
 -1       479 6.70134E-04 1.17778E-04-2.72084E-16
 -1       480 6.77128E-04 1.62406E-04-2.49065E-16
 -1       481 6.89024E-04 2.12775E-04-2.18887E-16
 -1       482 1.21711E-03 4.06609E-04-5.30568E-16
 -1       483 9.76272E-04-3.28751E-04-5.65103E-16
 -1       484 1.24934E-02 8.72454E-04-4.77464E-14
 -1       485 1.26223E-03-3.83648E-04-9.12725E-16
 -1       486 1.54721E-03-4.23356E-04-1.34113E-15
 -1       487 1.83132E-03-4.51401E-04-1.84920E-15
 -1       488 2.11485E-03-4.70640E-04-2.43436E-15
 -1       489 2.39811E-03-4.83350E-04-3.09364E-15
 -1       490 2.68135E-03-4.91287E-04-3.82573E-15
 -1       491 2.96472E-03-4.95780E-04-4.62750E-15
 -1       492 3.24834E-03-4.97813E-04-5.49616E-15
 -1       493 3.53225E-03-4.98098E-04-6.42809E-15
 -1       494 3.81646E-03-4.97132E-04-7.42136E-15
 -1       495 4.10099E-03-4.95240E-04-8.47263E-15
 -1       496 4.38583E-03-4.92618E-04-9.57859E-15
 -1       497 4.67099E-03-4.89358E-04-1.07377E-14
 -1       498 4.95648E-03-4.85480E-04-1.19487E-14
 -1       499 5.24235E-03-4.80954E-04-1.32125E-14
 -1       500 5.52864E-03-4.75724E-04-1.45273E-14
 -1       501 5.81545E-03-4.69735E-04-1.58971E-14
 -1       502 6.10289E-03-4.62964E-04-1.73228E-14
 -1       503 6.39112E-03-4.55462E-04-1.87995E-14
 -1       504 6.68034E-03-4.47398E-04-2.03277E-14
 -1       505 6.97083E-03-4.39131E-04-2.19053E-14
 -1       506 7.26291E-03-4.31282E-04-2.35246E-14
 -1       507 7.55703E-03-4.24830E-04-2.51810E-14
 -1       508 7.85374E-03-4.21213E-04-2.68731E-14
 -1       509 8.15374E-03-4.22422E-04-2.86010E-14
 -1       510 8.45792E-03-4.31052E-04-3.03599E-14
 -1       511 8.76730E-03-4.50256E-04-3.21455E-14
 -1       512 9.08286E-03-4.83483E-04-3.39548E-14
 -1       513 9.40511E-03-5.33808E-04-3.57941E-14
 -1       514 9.73334E-03-6.02576E-04-3.76611E-14
 -1       515 1.00647E-02-6.87072E-04-3.95549E-14
 -1       516 1.03942E-02-7.77591E-04-4.14794E-14
 -1       517 1.07163E-02-8.55856E-04-4.34318E-14
 -1       518 1.10291E-02-8.98402E-04-4.54174E-14
 -1       519 1.13366E-02-8.86783E-04-4.74280E-14
 -1       520 1.16469E-02-8.18778E-04-4.94583E-14
 -1       521 1.19654E-02-7.09560E-04-5.15137E-14
 -1       522 1.22912E-02-5.82080E-04-5.35962E-14
 -1       523 1.26193E-02-4.55629E-04-5.57021E-14
 -1       524 1.29440E-02-3.40708E-04-5.78265E-14
 -1       525 1.32619E-02-2.39874E-04-5.99547E-14
 -1       526 1.35717E-02-1.50591E-04-6.20899E-14
 -1       527 1.38737E-02-6.77533E-05-6.42293E-14
 -1       528 1.78394E-03 4.81170E-04-1.21288E-15
 -1       529 2.06591E-03 5.02496E-04-1.66173E-15
 -1       530 2.34764E-03 5.16758E-04-2.18174E-15
 -1       531 2.62946E-03 5.25855E-04-2.77227E-15
 -1       532 2.91158E-03 5.31217E-04-3.43328E-15
 -1       533 3.19411E-03 5.33905E-04-4.16279E-15
 -1       534 3.47711E-03 5.34690E-04-4.95997E-15
 -1       535 3.76058E-03 5.34113E-04-5.82353E-15
 -1       536 4.04450E-03 5.32534E-04-6.75137E-15
 -1       537 4.32887E-03 5.30172E-04-7.74314E-15
 -1       538 4.61368E-03 5.27135E-04-8.79510E-15
 -1       539 4.89895E-03 5.23448E-04-9.90472E-15
 -1       540 5.18470E-03 5.19074E-04-1.10733E-14
 -1       541 5.47102E-03 5.13940E-04-1.23006E-14
 -1       542 5.75800E-03 5.07956E-04-1.35883E-14
 -1       543 6.04580E-03 5.01041E-04-1.49335E-14
 -1       544 6.33462E-03 4.93164E-04-1.63310E-14
 -1       545 6.62471E-03 4.84385E-04-1.77768E-14
 -1       546 6.91640E-03 4.74925E-04-1.92680E-14
 -1       547 7.21006E-03 4.65257E-04-2.07996E-14
 -1       548 7.50618E-03 4.56231E-04-2.23665E-14
 -1       549 7.80533E-03 4.49253E-04-2.39691E-14
 -1       550 8.10824E-03 4.46504E-04-2.55986E-14
 -1       551 8.41589E-03 4.51219E-04-2.72542E-14
 -1       552 8.72964E-03 4.67966E-04-2.89327E-14
 -1       553 9.05135E-03 5.02854E-04-3.06287E-14
 -1       554 9.38341E-03 5.63414E-04-3.23357E-14
 -1       555 9.72813E-03 6.57608E-04-3.40636E-14
 -1       556 1.00860E-02 7.90859E-04-3.58186E-14
 -1       557 1.04528E-02 9.59597E-04-3.76009E-14
 -1       558 1.08178E-02 1.14106E-03-3.94102E-14
 -1       559 1.11702E-02 1.28787E-03-4.12416E-14
 -1       560 1.15108E-02 1.34705E-03-4.30925E-14
 -1       561 1.18533E-02 1.30044E-03-4.49698E-14
 -1       562 1.22085E-02 1.18182E-03-4.68735E-14
 -1       563 1.25719E-02 1.04544E-03-4.88045E-14
 -1       564 1.29315E-02 9.29740E-04-5.07524E-14
 -1       565 1.32787E-02 8.48793E-04-5.27104E-14
 -1       566 1.36111E-02 8.00701E-04-5.46877E-14
 -1       567 1.39299E-02 7.76752E-04-5.66784E-14
 -1       568 1.42376E-02 7.66451E-04-5.86760E-14
 -1       569 1.45362E-02 7.59526E-04-6.06894E-14
 -1       570 1.47561E-02 5.38373E-04-6.21973E-14
 -1       571 1.47861E-02 4.86905E-04-6.26244E-14
 -1       572 1.46381E-02 6.63121E-04-6.13502E-14
 -1       573 1.47033E-02 5.96704E-04-6.17755E-14
 -1       574 1.47848E-02 4.39920E-04-6.30623E-14
 -1       575 1.47486E-02 3.93245E-04-6.35091E-14
 -1       576 1.46795E-02 3.42653E-04-6.39598E-14
 -1       577 1.45857E-02 2.86236E-04-6.43985E-14
 -1       578 1.44726E-02 2.21067E-04-6.48401E-14
 -1       579 1.43506E-02 1.48728E-04-6.52750E-14
 -1       580 1.42268E-02 7.08471E-05-6.57053E-14
 -1       581 1.36737E-02 3.31280E-04-5.16622E-14
 -1       582 1.32612E-02 4.91792E-04-5.01818E-14
 -1       583 1.50121E-03 4.50287E-04-8.35429E-16
 -1       584 1.36777E-02 2.99334E-04-5.19691E-14
 -1       585 1.35232E-02 3.90484E-04-5.09650E-14
 -1       586 7.12603E-04-2.51895E-04-3.23739E-16
 -1       587 1.27720E-02-8.04871E-05-5.07950E-14
 -1       588 6.63811E-04-3.65371E-05-3.23712E-16
 -1       589 1.17678E-02 1.22740E-03-4.48502E-14
 -1       590 1.07378E-02 1.01006E-03-4.04579E-14
 -1       591 1.14176E-02 1.27360E-03-4.32560E-14
 -1       592 1.10983E-02 1.19473E-03-4.18583E-14
 -1       593 1.03419E-02 7.68983E-04-3.91789E-14
 -1       594 9.89420E-03 5.15063E-04-3.84735E-14
 -1       595 9.53413E-03 3.43475E-04-3.79434E-14
 -1       596 9.24790E-03 2.31083E-04-3.76152E-14
 -1       597 9.08411E-03 1.67970E-04-3.74616E-14
 -1       598 9.07742E-03 1.34585E-04-3.76298E-14
 -1       599 9.25363E-03 6.86922E-05-3.82248E-14
 -1       600 9.49004E-03-1.82107E-05-3.89742E-14
 -1       601 9.84624E-03-1.78384E-04-3.98718E-14
 -1       602 1.01573E-02-3.36371E-04-4.08725E-14
 -1       603 1.06223E-02-5.81339E-04-4.26058E-14
 -1       604 1.09181E-02-7.06423E-04-4.39165E-14
 -1       605 1.12839E-02-7.64717E-04-4.56972E-14
 -1       606 1.16196E-02-6.90262E-04-4.72503E-14
 -1       607 1.19828E-02-5.16907E-04-4.87637E-14
 -1       608 1.24269E-02-2.65863E-04-4.99879E-14
 -1       609 1.31529E-02 9.82005E-05-5.14930E-14
 -1       610 1.34603E-02 2.16896E-04-5.18452E-14
 -1       611 1.21821E-02 1.04186E-03-4.65820E-14
 -1       612 7.03803E-04 2.90954E-04-1.52415E-16
 -1       613 1.28614E-02 6.76233E-04-4.89767E-14
 -1       614 6.76587E-04-1.60100E-04-3.30882E-16
 -1       615 1.36342E-02 2.75425E-04-5.27746E-14
 -1       616 1.40713E-02-1.39900E-05-6.56938E-14
 -1       617 8.99833E-04 7.41464E-05-5.10547E-16
 -1       618 8.97754E-04 2.51890E-05-5.30697E-16
 -1       619 9.11871E-04 1.78301E-04-4.54982E-16
 -1       620 9.24211E-04 2.36877E-04-4.15886E-16
 -1       621 1.04887E-03 3.14010E-04-4.64428E-16
 -1       622 1.30040E-02 2.31196E-05-5.24059E-14
 -1       623 1.38329E-03-3.37119E-04-1.13751E-15
 -1       624 1.66949E-03-3.68067E-04-1.60481E-15
 -1       625 1.95571E-03-3.89829E-04-2.14918E-15
 -1       626 2.24175E-03-4.04583E-04-2.76756E-15
 -1       627 2.52761E-03-4.14108E-04-3.45726E-15
 -1       628 2.81332E-03-4.19808E-04-4.21721E-15
 -1       629 3.09895E-03-4.22752E-04-5.04451E-15
 -1       630 3.38453E-03-4.23733E-04-5.93642E-15
 -1       631 3.67010E-03-4.23318E-04-6.89155E-15
 -1       632 3.95568E-03-4.21892E-04-7.90467E-15
 -1       633 4.24129E-03-4.19696E-04-8.97383E-15
 -1       634 4.52695E-03-4.16863E-04-1.00986E-14
 -1       635 4.81265E-03-4.13439E-04-1.12748E-14
 -1       636 5.09843E-03-4.09413E-04-1.25056E-14
 -1       637 5.38428E-03-4.04735E-04-1.37893E-14
 -1       638 5.67024E-03-3.99339E-04-1.51262E-14
 -1       639 5.95634E-03-3.93171E-04-1.65193E-14
 -1       640 6.24262E-03-3.86217E-04-1.79657E-14
 -1       641 6.52917E-03-3.78545E-04-1.94608E-14
 -1       642 6.81610E-03-3.70350E-04-2.10047E-14
 -1       643 7.10361E-03-3.62017E-04-2.25943E-14
 -1       644 7.39201E-03-3.54193E-04-2.42226E-14
 -1       645 7.68178E-03-3.47878E-04-2.58896E-14
 -1       646 7.97367E-03-3.44520E-04-2.75911E-14
 -1       647 8.26879E-03-3.46119E-04-2.93274E-14
 -1       648 8.56874E-03-3.55332E-04-3.10905E-14
 -1       649 8.87560E-03-3.75532E-04-3.28790E-14
 -1       650 9.19170E-03-4.10728E-04-3.46925E-14
 -1       651 9.51889E-03-4.65067E-04-3.65327E-14
 -1       652 9.85703E-03-5.41267E-04-3.83959E-14
 -1       653 1.02021E-02-6.36901E-04-4.02881E-14
 -1       654 1.05458E-02-7.38799E-04-4.22121E-14
 -1       655 1.08798E-02-8.19620E-04-4.41640E-14
 -1       656 1.12029E-02-8.45725E-04-4.61520E-14
 -1       657 1.15251E-02-7.98610E-04-4.81645E-14
 -1       658 1.18555E-02-6.90771E-04-5.02028E-14
 -1       659 1.21976E-02-5.53261E-04-5.22637E-14
 -1       660 1.25428E-02-4.16265E-04-5.43418E-14
 -1       661 1.28821E-02-2.95022E-04-5.64429E-14
 -1       662 1.32105E-02-1.92652E-04-5.85551E-14
 -1       663 1.35268E-02-1.05595E-04-6.06710E-14
 -1       664 1.38323E-02-2.78814E-05-6.27967E-14
 -1       665 2.19064E-03 4.37491E-04-2.03013E-15
 -1       666 1.43514E-02 6.60970E-04-5.93330E-14
 -1       667 1.90565E-03 4.20778E-04-1.53244E-15
 -1       668 2.76008E-03 4.55167E-04-3.23307E-15
 -1       669 3.04476E-03 4.58856E-04-3.93882E-15
 -1       670 3.32951E-03 4.60376E-04-4.71224E-15
 -1       671 3.61439E-03 4.60354E-04-5.55309E-15
 -1       672 3.89940E-03 4.59219E-04-6.45879E-15
 -1       673 4.18457E-03 4.57246E-04-7.42685E-15
 -1       674 4.46991E-03 4.54586E-04-8.45568E-15
 -1       675 4.75542E-03 4.51300E-04-9.54096E-15
 -1       676 5.04113E-03 4.47375E-04-1.06866E-14
 -1       677 5.32706E-03 4.42754E-04-1.18905E-14
 -1       678 5.61324E-03 4.37351E-04-1.31532E-14
 -1       679 5.89971E-03 4.31075E-04-1.44738E-14
 -1       680 6.18653E-03 4.23866E-04-1.58475E-14
 -1       681 6.47375E-03 4.15721E-04-1.72722E-14
 -1       682 6.76147E-03 4.06756E-04-1.87422E-14
 -1       683 7.04976E-03 3.97265E-04-2.02559E-14
 -1       684 7.33877E-03 3.87817E-04-2.18078E-14
 -1       685 7.62867E-03 3.79374E-04-2.33970E-14
 -1       686 7.91980E-03 3.73445E-04-2.50187E-14
 -1       687 8.21282E-03 3.72281E-04-2.66638E-14
 -1       688 8.50890E-03 3.79104E-04-2.83341E-14
 -1       689 8.81022E-03 3.98399E-04-3.00283E-14
 -1       690 9.12040E-03 4.36281E-04-3.17319E-14
 -1       691 9.44485E-03 5.00911E-04-3.34593E-14
 -1       692 9.78971E-03 6.02474E-04-3.52078E-14
 -1       693 1.01592E-02 7.50791E-04-3.69828E-14
 -1       694 1.05481E-02 9.43826E-04-3.87907E-14
 -1       695 1.13208E-02 1.28845E-03-4.24280E-14
 -1       696 1.16871E-02 1.28510E-03-4.43203E-14
 -1       697 1.20660E-02 1.16649E-03-4.62176E-14
 -1       698 1.24545E-02 1.00850E-03-4.81448E-14
 -1       699 1.28353E-02 8.73240E-04-5.00931E-14
 -1       700 1.31942E-02 7.81784E-04-5.20537E-14
 -1       701 1.35299E-02 7.29719E-04-5.40259E-14
 -1       702 1.38467E-02 7.05700E-04-5.60176E-14
 -1       703 1.41039E-02 6.78881E-04-5.76741E-14
 -1       704 1.31435E-02 5.81867E-04-5.06293E-14
 -1       705 1.45507E-02 3.92510E-04-6.15033E-14
 -1       706 9.10077E-03 1.82625E-04-3.64082E-14
 -1       707 1.45487E-02 4.94965E-04-6.06501E-14
 -1       708 1.44928E-02 3.39824E-04-6.19410E-14
 -1       709 1.45691E-02 4.42273E-04-6.10744E-14
 -1       710 1.44032E-02 2.80581E-04-6.23663E-14
 -1       711 1.42895E-02 2.10874E-04-6.27965E-14
 -1       712 1.41640E-02 1.32604E-04-6.32199E-14
 -1       713 1.34770E-02 4.39937E-04-5.17461E-14
 -1       714 1.36647E-02 3.71036E-04-5.24476E-14
 -1       715 1.27021E-02-1.23465E-04-5.15995E-14
 -1       716 1.37507E-02 3.27552E-04-5.30635E-14
 -1       717 9.61616E-04-2.66841E-04-5.91036E-16
 -1       718 9.33729E-03 2.64397E-04-3.68199E-14
 -1       719 9.99963E-03 5.90377E-04-3.75878E-14
 -1       720 1.62031E-03 3.96312E-04-1.10570E-15
 -1       721 2.47541E-03 4.48438E-04-2.59667E-15
 -1       722 1.27360E-02 7.84593E-04-4.91217E-14
 -1       723 9.04270E-04 1.24672E-04-4.85885E-16
 -1       724 9.03901E-04-1.22260E-04-5.65432E-16
 -1       725 1.33461E-03 3.61654E-04-7.49577E-16
 -1       726 1.22454E-02-3.79768E-04-5.03366E-14
 -1       727 1.40312E-02 2.09603E-05-6.42475E-14
 -1       728 1.09439E-02 1.15248E-03-4.05978E-14
 -1       729 9.68759E-03 4.21694E-04-3.70684E-14
 -1       730 1.14517E-02-7.53835E-04-4.68421E-14
 -1       731 9.01961E-03 1.41532E-04-3.66184E-14
 -1       732 9.08303E-03 9.75985E-05-3.68578E-14
 -1       733 9.33179E-03 1.68747E-05-3.77744E-14
 -1       734 9.62399E-03-1.03986E-04-3.86581E-14
 -1       735 9.94991E-03-2.71401E-04-3.96486E-14
 -1       736 1.03532E-02-4.77157E-04-4.12702E-14
 -1       737 1.07442E-02-6.69907E-04-4.30697E-14
 -1       738 1.33637E-02 1.78299E-04-5.28223E-14
 -1       739 1.10823E-02-7.68845E-04-4.48371E-14
 -1       740 1.17819E-02-6.32674E-04-4.85264E-14
 -1       741 1.24551E-02 9.30087E-04-4.79418E-14
 -1       742 1.19995E-02 1.16345E-03-4.59074E-14
 -1       743 9.11328E-04-1.75685E-04-5.67465E-16
 -1       744 8.97695E-04-2.31666E-05-5.46418E-16
 -1       745 1.37632E-02 3.08450E-04-5.38754E-14
 -1       746 1.44981E-02 5.54603E-04-6.02326E-14
 -1       747 1.12502E-02-7.96066E-04-4.59694E-14
 -1       748 1.35820E-02 2.44326E-04-5.37569E-14
 -1       749 1.39985E-02 5.52270E-05-6.30118E-14
 -1       750 8.99633E-04-7.18551E-05-5.58178E-16
 -1       751 1.20406E-02-5.20871E-04-5.00975E-14
 -1       752 1.16158E-03 2.43743E-04-6.76020E-16
 -1       753 9.12139E-03 4.27120E-05-3.63396E-14
 -1       754 1.79735E-03-3.09568E-04-1.87368E-15
 -1       755 2.08503E-03-3.25620E-04-2.45086E-15
 -1       756 2.37284E-03-3.36338E-04-3.09992E-15
 -1       757 2.66056E-03-3.43061E-04-3.81828E-15
 -1       758 2.94807E-03-3.46859E-04-4.60484E-15
 -1       759 3.23534E-03-3.48555E-04-5.45707E-15
 -1       760 3.52236E-03-3.48752E-04-6.37242E-15
 -1       761 3.80913E-03-3.47875E-04-7.34811E-15
 -1       762 4.09568E-03-3.46204E-04-8.38003E-15
 -1       763 4.38200E-03-3.43904E-04-9.46848E-15
 -1       764 4.66811E-03-3.41053E-04-1.06112E-14
 -1       765 4.95400E-03-3.37662E-04-1.18071E-14
 -1       766 5.23966E-03-3.33696E-04-1.30597E-14
 -1       767 5.52507E-03-3.29094E-04-1.43644E-14
 -1       768 5.81019E-03-3.23787E-04-1.57242E-14
 -1       769 6.09498E-03-3.17723E-04-1.71392E-14
 -1       770 6.37942E-03-3.10894E-04-1.86051E-14
 -1       771 6.66348E-03-3.03366E-04-2.01166E-14
 -1       772 6.94722E-03-2.95330E-04-2.16740E-14
 -1       773 7.23075E-03-2.87140E-04-2.32762E-14
 -1       774 7.51437E-03-2.79389E-04-2.49171E-14
 -1       775 7.79864E-03-2.72974E-04-2.65921E-14
 -1       776 8.08455E-03-2.69202E-04-2.83007E-14
 -1       777 8.37370E-03-2.69929E-04-3.00418E-14
 -1       778 8.66851E-03-2.77780E-04-3.18102E-14
 -1       779 8.97235E-03-2.96477E-04-3.36012E-14
 -1       780 9.28933E-03-3.31195E-04-3.54159E-14
 -1       781 9.62333E-03-3.88548E-04-3.72516E-14
 -1       782 9.97523E-03-4.74888E-04-3.91118E-14
 -1       783 1.03392E-02-5.89206E-04-4.10037E-14
 -1       784 1.10507E-02-8.02760E-04-4.49423E-14
 -1       785 1.13874E-02-7.92460E-04-4.69194E-14
 -1       786 1.24682E-02-3.71510E-04-5.30004E-14
 -1       787 1.28256E-02-2.39314E-04-5.50775E-14
 -1       788 1.31658E-02-1.34999E-04-5.71703E-14
 -1       789 1.34883E-02-5.16262E-05-5.92687E-14
 -1       790 1.37473E-02 3.20188E-06-6.11327E-14
 -1       791 2.03277E-03 3.57700E-04-1.87014E-15
 -1       792 3.18010E-03 3.85198E-04-4.45963E-15
 -1       793 2.89352E-03 3.82883E-04-3.70952E-15
 -1       794 3.75280E-03 3.85233E-04-6.15970E-15
 -1       795 4.03896E-03 3.83758E-04-7.10475E-15
 -1       796 4.32501E-03 3.81589E-04-8.11111E-15
 -1       797 4.61096E-03 3.78823E-04-9.17583E-15
 -1       798 4.89682E-03 3.75480E-04-1.02966E-14
 -1       799 5.18257E-03 3.71527E-04-1.14768E-14
 -1       800 5.46820E-03 3.66894E-04-1.27163E-14
 -1       801 5.75368E-03 3.61502E-04-1.40134E-14
 -1       802 6.03894E-03 3.55280E-04-1.53648E-14
 -1       803 6.32392E-03 3.48197E-04-1.67666E-14
 -1       804 6.60851E-03 3.40300E-04-1.82154E-14
 -1       805 6.89258E-03 3.31764E-04-1.97095E-14
 -1       806 7.17597E-03 3.22951E-04-2.12473E-14
 -1       807 7.45855E-03 3.14488E-04-2.28239E-14
 -1       808 7.74022E-03 3.07356E-04-2.44349E-14
 -1       809 8.02109E-03 3.02995E-04-2.60714E-14
 -1       810 8.30168E-03 3.03424E-04-2.77329E-14
 -1       811 8.58336E-03 3.11421E-04-2.94209E-14
 -1       812 8.86901E-03 3.30864E-04-3.11265E-14
 -1       813 9.16389E-03 3.67556E-04-3.28478E-14
 -1       814 9.47643E-03 4.30593E-04-3.45938E-14
 -1       815 1.31433E-02 6.93495E-04-5.14164E-14
 -1       816 1.34782E-02 6.42089E-04-5.33902E-14
 -1       817 1.37875E-02 6.22727E-04-5.53834E-14
 -1       818 1.24623E-03 3.00937E-04-7.16329E-16
 -1       819 1.42270E-02 2.83628E-04-6.03614E-14
 -1       820 1.43132E-02 3.43778E-04-5.99374E-14
 -1       821 1.36932E-02 4.21223E-04-5.34407E-14
 -1       822 1.34511E-02 5.22408E-04-5.24909E-14
 -1       823 9.36828E-03 3.11134E-04-3.56277E-14
 -1       824 1.28919E-02-7.21467E-05-5.32265E-14
 -1       825 1.24782E-02-2.89131E-04-5.19582E-14
 -1       826 1.74572E-03 3.39173E-04-1.39455E-15
 -1       827 1.41099E-02 2.10921E-04-6.07784E-14
 -1       828 1.39773E-02 1.26388E-04-6.11904E-14
 -1       829 1.33068E-02 1.19074E-04-5.41141E-14
 -1       830 1.38188E-02 3.64709E-04-5.40647E-14
 -1       831 3.46652E-03 3.85821E-04-5.27640E-15
 -1       832 1.51023E-03-2.86619E-04-1.37021E-15
 -1       833 9.12097E-03 2.15634E-04-3.52209E-14
 -1       834 1.04821E-02-6.07837E-04-4.17446E-14
 -1       835 8.94037E-03 1.09890E-04-3.55145E-14
 -1       836 1.20815E-03-2.33454E-04-9.27308E-16
 -1       837 9.36733E-03-5.96044E-05-3.71201E-14
 -1       838 9.64388E-03-1.86151E-04-3.80902E-14
 -1       839 1.08984E-02-7.56433E-04-4.39707E-14
 -1       840 8.95127E-03 1.45826E-04-3.53121E-14
 -1       841 1.13837E-03 5.90794E-05-7.92735E-16
 -1       842 9.70509E-03 4.82623E-04-3.59983E-14
 -1       843 1.00899E-02-4.13738E-04-3.98803E-14
 -1       844 1.13701E-03 1.19711E-06-8.18281E-16
 -1       845 1.38625E-02 6.66190E-05-6.11625E-14
 -1       846 8.92396E-03 6.71325E-05-3.50005E-14
 -1       847 1.38824E-02 3.44424E-04-5.48835E-14
 -1       848 1.07053E-02-7.22332E-04-4.29665E-14
 -1       849 1.21017E-02-5.27955E-04-5.09439E-14
 -1       850 2.60676E-03 3.78193E-04-3.02768E-15
 -1       851 1.40400E-02 6.00535E-04-5.70393E-14
 -1       852 1.42711E-02 5.58134E-04-5.85689E-14
 -1       853 1.43488E-02 4.47163E-04-5.91090E-14
 -1       854 2.31983E-03 3.70202E-04-2.41470E-15
 -1       855 1.19744E-03-1.68296E-04-9.25848E-16
 -1       856 1.43203E-02 4.98773E-04-5.88384E-14
 -1       857 1.43552E-02 3.95503E-04-5.95215E-14
 -1       858 1.35449E-02 1.93902E-04-5.50525E-14
 -1       859 1.14987E-03 1.79185E-04-7.23207E-16
 -1       860 1.14246E-03 1.17990E-04-7.61574E-16
 -1       861 1.49561E-03 3.24215E-04-1.02714E-15
 -1       862 1.19077E-03-1.06252E-04-9.15907E-16
 -1       863 2.21849E-03-2.58874E-04-2.75409E-15
 -1       864 2.50759E-03-2.66101E-04-3.43201E-15
 -1       865 2.79662E-03-2.70458E-04-4.17781E-15
 -1       866 3.08539E-03-2.72720E-04-4.99020E-15
 -1       867 3.37378E-03-2.73476E-04-5.86622E-15
 -1       868 3.66177E-03-2.73154E-04-6.80204E-15
 -1       869 3.94932E-03-2.72050E-04-7.79759E-15
 -1       870 4.23643E-03-2.70349E-04-8.84973E-15
 -1       871 4.52310E-03-2.68151E-04-9.95760E-15
 -1       872 4.80932E-03-2.65491E-04-1.11198E-14
 -1       873 5.09504E-03-2.62353E-04-1.23370E-14
 -1       874 5.38022E-03-2.58689E-04-1.36110E-14
 -1       875 5.66477E-03-2.54433E-04-1.49384E-14
 -1       876 5.94860E-03-2.49516E-04-1.63217E-14
 -1       877 6.23159E-03-2.43885E-04-1.77576E-14
 -1       878 6.51360E-03-2.37522E-04-1.92410E-14
 -1       879 6.79451E-03-2.30471E-04-2.07659E-14
 -1       880 7.07428E-03-2.22869E-04-2.23371E-14
 -1       881 7.35294E-03-2.14978E-04-2.39524E-14
 -1       882 7.63072E-03-2.07231E-04-2.56028E-14
 -1       883 7.90822E-03-2.00296E-04-2.72872E-14
 -1       884 8.18654E-03-1.95178E-04-2.90042E-14
 -1       885 8.46761E-03-1.93416E-04-3.07486E-14
 -1       886 8.75461E-03-1.97490E-04-3.25179E-14
 -1       887 9.05231E-03-2.11610E-04-3.43077E-14
 -1       888 9.36726E-03-2.43038E-04-3.61196E-14
 -1       889 1.39414E-02 2.20128E-04-5.87811E-14
 -1       890 1.31367E-02-6.56143E-05-5.58022E-14
 -1       891 1.34617E-02 1.25591E-05-5.78847E-14
 -1       892 1.64169E-03-2.31827E-04-1.60964E-15
 -1       893 4.17928E-03 3.08006E-04-7.76254E-15
 -1       894 3.89238E-03 3.09605E-04-6.77919E-15
 -1       895 4.75204E-03 3.03189E-04-9.90400E-15
 -1       896 5.03786E-03 3.00016E-04-1.10617E-14
 -1       897 5.32326E-03 2.96290E-04-1.22782E-14
 -1       898 5.60814E-03 2.91948E-04-1.35515E-14
 -1       899 5.89239E-03 2.86929E-04-1.48809E-14
 -1       900 6.17583E-03 2.81196E-04-1.62606E-14
 -1       901 6.45826E-03 2.74763E-04-1.76896E-14
 -1       902 6.73938E-03 2.67732E-04-1.91642E-14
 -1       903 7.01884E-03 2.60333E-04-2.06839E-14
 -1       904 7.29624E-03 2.52971E-04-2.22466E-14
 -1       905 7.57114E-03 2.46275E-04-2.38463E-14
 -1       906 7.84312E-03 2.41135E-04-2.54750E-14
 -1       907 8.11189E-03 2.38741E-04-2.71276E-14
 -1       908 8.37759E-03 2.40609E-04-2.88065E-14
 -1       909 8.64105E-03 2.48657E-04-3.05097E-14
 -1       910 8.90490E-03 2.65519E-04-3.22292E-14
 -1       911 9.17495E-03 2.96947E-04-3.39706E-14
 -1       912 1.37505E-02 5.35390E-04-5.47429E-14
 -1       913 1.40651E-02 2.93108E-04-5.83767E-14
 -1       914 2.16433E-03 2.92056E-04-2.22598E-15
 -1       915 1.37925E-02 2.84786E-04-5.53439E-14
 -1       916 9.08881E-03-2.64770E-05-3.54381E-14
 -1       917 8.83440E-03 1.17470E-04-3.42992E-14
 -1       918 1.27676E-02-1.98673E-04-5.38974E-14
 -1       919 1.87599E-03 2.78806E-04-1.70385E-15
 -1       920 1.16273E-03-5.13808E-05-8.68541E-16
 -1       921 3.02961E-03 3.09289E-04-4.20082E-15
 -1       922 1.37384E-02 4.90499E-04-5.43848E-14
 -1       923 1.92967E-03-2.47820E-04-2.14600E-15
 -1       924 8.88096E-03 1.66839E-04-3.38503E-14
 -1       925 4.46583E-03 3.05850E-04-8.80624E-15
 -1       926 1.32200E-02 2.22406E-05-5.51980E-14
 -1       927 9.34503E-03-1.50221E-04-3.63663E-14
 -1       928 1.37965E-02 1.29963E-04-5.91829E-14
 -1       929 9.73648E-03-3.26310E-04-3.80562E-14
 -1       930 1.39035E-02 4.11364E-04-5.51744E-14
 -1       931 1.39977E-02 3.86164E-04-5.59973E-14
 -1       932 8.77558E-03 8.00433E-05-3.37907E-14
 -1       933 1.36640E-02 3.98755E-05-5.95183E-14
 -1       934 3.60513E-03 3.10522E-04-5.85487E-15
 -1       935 1.39894E-02 5.20972E-04-5.64004E-14
 -1       936 1.38119E-03 3.41254E-05-1.13568E-15
 -1       937 1.41047E-03 2.66037E-04-9.79007E-16
 -1       938 2.45288E-03 3.00844E-04-2.81668E-15
 -1       939 1.34665E-02 1.09860E-04-5.61433E-14
 -1       940 1.41241E-02 4.54733E-04-5.72117E-14
 -1       941 1.41423E-02 3.49521E-04-5.79703E-14
 -1       942 1.41621E-02 3.98692E-04-5.75915E-14
 -1       943 2.74136E-03 3.06288E-04-3.47545E-15
 -1       944 1.58843E-03 2.59784E-04-1.25053E-15
 -1       945 3.31754E-03 3.10533E-04-4.99517E-15
 -1       946 1.41847E-03-2.00843E-04-1.24550E-15
 -1       947 1.38429E-03 1.00001E-04-1.09853E-15
 -1       948 1.41023E-03-1.32017E-04-1.23360E-15
 -1       949 2.64553E-03-1.94077E-04-3.76251E-15
 -1       950 2.93544E-03-1.96554E-04-4.53438E-15
 -1       951 3.22501E-03-1.97668E-04-5.37163E-15
 -1       952 3.51409E-03-1.97800E-04-6.26952E-15
 -1       953 3.80262E-03-1.97227E-04-7.22735E-15
 -1       954 4.09056E-03-1.96128E-04-8.24312E-15
 -1       955 4.37789E-03-1.94611E-04-9.31563E-15
 -1       956 4.66458E-03-1.92726E-04-1.04427E-14
 -1       957 4.95058E-03-1.90475E-04-1.16252E-14
 -1       958 5.23584E-03-1.87829E-04-1.28651E-14
 -1       959 5.52023E-03-1.84734E-04-1.41615E-14
 -1       960 5.80361E-03-1.81123E-04-1.55119E-14
 -1       961 6.08581E-03-1.76927E-04-1.69156E-14
 -1       962 6.36661E-03-1.72082E-04-1.83714E-14
 -1       963 6.64578E-03-1.66548E-04-1.98691E-14
 -1       964 6.92306E-03-1.60315E-04-2.14104E-14
 -1       965 7.19826E-03-1.53422E-04-2.29960E-14
 -1       966 7.47128E-03-1.45972E-04-2.46234E-14
 -1       967 7.74217E-03-1.38154E-04-2.62815E-14
 -1       968 8.01135E-03-1.30293E-04-2.79727E-14
 -1       969 8.27974E-03-1.22946E-04-2.96950E-14
 -1       970 8.54913E-03-1.17153E-04-3.14428E-14
 -1       971 8.82274E-03-1.14954E-04-3.32113E-14
 -1       972 9.07593E-03-1.25406E-04-3.47798E-14
 -1       973 5.17859E-03 2.25250E-04-1.18356E-14
 -1       974 4.89314E-03 2.27998E-04-1.06423E-14
 -1       975 5.74704E-03 2.18343E-04-1.43944E-14
 -1       976 6.02967E-03 2.14113E-04-1.57548E-14
 -1       977 6.31087E-03 2.09361E-04-1.71639E-14
 -1       978 6.59029E-03 2.04153E-04-1.86181E-14
 -1       979 6.86745E-03 1.98644E-04-2.01200E-14
 -1       980 7.14181E-03 1.93108E-04-2.16650E-14
 -1       981 7.41269E-03 1.87968E-04-2.32521E-14
 -1       982 7.67933E-03 1.83804E-04-2.48719E-14
 -1       983 7.94086E-03 1.81350E-04-2.65177E-14
 -1       984 8.19634E-03 1.81445E-04-2.81879E-14
 -1       985 8.44493E-03 1.84976E-04-2.98854E-14
 -1       986 8.68599E-03 1.93100E-04-3.16053E-14
 -1       987 2.06578E-03-1.82861E-04-2.42094E-15
 -1       988 1.37963E-02 2.36203E-04-5.68411E-14
 -1       989 1.63224E-03-1.57749E-04-1.59593E-15
 -1       990 1.39853E-02 3.30686E-04-5.65023E-14
 -1       991 1.72187E-03 2.02539E-04-1.53247E-15
 -1       992 8.69219E-03 1.26946E-04-3.27037E-14
 -1       993 1.35633E-02 1.02585E-04-5.73088E-14
 -1       994 1.36261E-03 1.85396E-04-9.97256E-16
 -1       995 1.40607E-03-2.48578E-05-1.20026E-15
 -1       996 1.84856E-03-1.71179E-04-1.98761E-15
 -1       997 5.46328E-03 2.22046E-04-1.30870E-14
 -1       998 2.35551E-03-1.89729E-04-3.05785E-15
 -1       999 2.01033E-03 2.15246E-04-2.03195E-15
 -1      1000 8.83594E-03 1.27023E-05-3.39186E-14
 -1      1001 4.03305E-03 2.33757E-04-7.40965E-15
 -1      1002 1.62951E-03 7.33046E-05-1.49606E-15
 -1      1003 4.60702E-03 2.30326E-04-9.50878E-15
 -1      1004 2.29968E-03 2.23967E-04-2.59980E-15
 -1      1005 3.16811E-03 2.34661E-04-4.70878E-15
 -1      1006 1.65314E-03 8.95357E-06-1.57627E-15
 -1      1007 2.87887E-03 2.32973E-04-3.93877E-15
 -1      1008 4.32031E-03 2.32253E-04-8.43138E-15
 -1      1009 3.74525E-03 2.34769E-04-6.44657E-15
 -1      1010 1.40711E-03-7.80960E-05-1.21912E-15
 -1      1011 3.07669E-03-1.21633E-04-4.88800E-15
 -1      1012 3.36665E-03-1.21995E-04-5.74789E-15
 -1      1013 3.65603E-03-1.21819E-04-6.66752E-15
 -1      1014 3.94473E-03-1.21251E-04-7.64708E-15
 -1      1015 4.23272E-03-1.20380E-04-8.68518E-15
 -1      1016 4.51997E-03-1.19257E-04-9.77800E-15
 -1      1017 4.80640E-03-1.17893E-04-1.09260E-14
 -1      1018 5.09196E-03-1.16274E-04-1.21307E-14
 -1      1019 5.37652E-03-1.14367E-04-1.33930E-14
 -1      1020 5.65993E-03-1.12118E-04-1.47109E-14
 -1      1021 5.94196E-03-1.09465E-04-1.60829E-14
 -1      1022 6.22236E-03-1.06333E-04-1.75070E-14
 -1      1023 6.50079E-03-1.02643E-04-1.89765E-14
 -1      1024 6.77691E-03-9.83120E-05-2.04918E-14
 -1      1025 7.05031E-03-9.32524E-05-2.20495E-14
 -1      1026 7.32060E-03-8.73730E-05-2.36485E-14
 -1      1027 7.58741E-03-8.05778E-05-2.52843E-14
 -1      1028 7.85046E-03-7.27686E-05-2.69511E-14
 -1      1029 8.10962E-03-6.38643E-05-2.86506E-14
 -1      1030 8.36513E-03-5.38772E-05-3.03762E-14
 -1      1031 8.61804E-03-4.32926E-05-3.21235E-14
 -1      1032 2.49565E-03-1.18394E-04-3.36104E-15
 -1      1033 5.31913E-03 1.51489E-04-1.26187E-14
 -1      1034 6.44491E-03 1.40141E-04-1.80723E-14
 -1      1035 5.03430E-03 1.53542E-04-1.13909E-14
 -1      1036 4.17469E-03 1.57972E-04-8.05181E-15
 -1      1037 8.61291E-03 3.88521E-05-3.23465E-14
 -1      1038 6.16611E-03 1.43415E-04-1.66329E-14
 -1      1039 5.88530E-03 1.46426E-04-1.52430E-14
 -1      1040 6.72121E-03 1.36720E-04-1.95555E-14
 -1      1041 6.99441E-03 1.33353E-04-2.10841E-14
 -1      1042 7.26375E-03 1.30347E-04-2.26563E-14
 -1      1043 7.52835E-03 1.28123E-04-2.42643E-14
 -1      1044 7.78708E-03 1.27211E-04-2.59018E-14
 -1      1045 8.03854E-03 1.28198E-04-2.75654E-14
 -1      1046 8.28096E-03 1.31707E-04-2.92563E-14
 -1      1047 8.49601E-03 1.27119E-04-3.09675E-14
 -1      1048 1.62827E-03-9.93906E-05-1.57878E-15
 -1      1049 3.45693E-03 2.35146E-04-5.54539E-15
 -1      1050 2.58932E-03 2.29615E-04-3.23570E-15
 -1      1051 5.60287E-03 1.49121E-04-1.39041E-14
 -1      1052 2.20523E-03-1.14874E-04-2.69758E-15
 -1      1053 8.53421E-03 8.38474E-05-3.16573E-14
 -1      1054 1.91747E-03 7.88072E-05-1.99784E-15
 -1      1055 2.78628E-03-1.20525E-04-4.09155E-15
 -1      1056 3.88669E-03 1.58847E-04-7.05073E-15
 -1      1057 4.74855E-03 1.55301E-04-1.02211E-14
 -1      1058 4.46199E-03 1.56779E-04-9.10907E-15
 -1      1059 1.84436E-03-1.09606E-04-1.96700E-15
 -1      1060 2.20720E-03 8.27162E-05-2.56807E-15
 -1      1061 3.01894E-03 1.58516E-04-4.41969E-15
 -1      1062 1.63975E-03-4.53286E-05-1.57988E-15
 -1      1063 3.30876E-03 1.59283E-04-5.23263E-15
 -1      1064 3.50999E-03-4.60086E-05-6.11874E-15
 -1      1065 3.79931E-03-4.58150E-05-7.06170E-15
 -1      1066 4.08787E-03-4.54899E-05-8.06312E-15
 -1      1067 4.37566E-03-4.50515E-05-9.12223E-15
 -1      1068 4.66258E-03-4.45128E-05-1.02367E-14
 -1      1069 4.94859E-03-4.38658E-05-1.14062E-14
 -1      1070 5.23356E-03-4.30975E-05-1.26331E-14
 -1      1071 5.51733E-03-4.21698E-05-1.39179E-14
 -1      1072 5.79969E-03-4.10415E-05-1.52566E-14
 -1      1073 6.08036E-03-3.96525E-05-1.66500E-14
 -1      1074 6.35898E-03-3.79232E-05-1.80910E-14
 -1      1075 6.63512E-03-3.57490E-05-1.95778E-14
 -1      1076 6.90828E-03-3.29932E-05-2.11098E-14
 -1      1077 7.17790E-03-2.94778E-05-2.26834E-14
 -1      1078 7.44331E-03-2.49727E-05-2.42934E-14
 -1      1079 7.70379E-03-1.91872E-05-2.59362E-14
 -1      1080 7.95849E-03-1.17657E-05-2.76105E-14
 -1      1081 8.20641E-03-2.32924E-06-2.93168E-14
 -1      1082 8.41571E-03 1.73531E-05-3.08254E-14
 -1      1083 2.34771E-03-4.41356E-05-2.97435E-15
 -1      1084 5.45969E-03 7.89643E-05-1.34108E-14
 -1      1085 6.57911E-03 7.36477E-05-1.89885E-14
 -1      1086 6.02347E-03 7.63994E-05-1.60987E-14
 -1      1087 7.12241E-03 7.17495E-05-2.20561E-14
 -1      1088 7.38758E-03 7.17666E-05-2.36523E-14
 -1      1089 7.64709E-03 7.29576E-05-2.52779E-14
 -1      1090 7.89959E-03 7.58304E-05-2.69355E-14
 -1      1091 8.14322E-03 8.09244E-05-2.86203E-14
 -1      1092 8.34386E-03 8.07687E-05-3.01286E-14
 -1      1093 1.85573E-03-5.23269E-05-1.96671E-15
 -1      1094 2.72873E-03 1.56744E-04-3.67280E-15
 -1      1095 2.63856E-03-4.51965E-05-3.66291E-15
 -1      1096 3.59804E-03 1.59327E-04-6.10969E-15
 -1      1097 6.30253E-03 7.50046E-05-1.75210E-14
 -1      1098 2.92945E-03-4.57831E-05-4.41793E-15
 -1      1099 5.74240E-03 7.77365E-05-1.47282E-14
 -1      1100 1.95793E-03-4.75750E-06-2.13514E-15
 -1      1101 5.17562E-03 8.00601E-05-1.21481E-14
 -1      1102 6.85264E-03 7.24848E-05-2.05009E-14
 -1      1103 3.21999E-03-4.60204E-05-5.23745E-15
 -1      1104 4.02926E-03 8.30300E-05-7.66835E-15
 -1      1105 4.89042E-03 8.10172E-05-1.09427E-14
 -1      1106 4.31715E-03 8.25111E-05-8.70423E-15
 -1      1107 2.87071E-03 8.25328E-05-4.12726E-15
 -1      1108 2.46778E-03 1.19548E-04-3.09939E-15
 -1      1109 3.16124E-03 8.32278E-05-4.91785E-15
 -1      1110 3.94363E-03 2.99597E-05-7.45235E-15
 -1      1111 4.80568E-03 2.94487E-05-1.06919E-14
 -1      1112 3.74062E-03 8.33688E-05-6.68928E-15
 -1      1113 2.49288E-03 2.88570E-05-3.25076E-15
 -1      1114 4.60422E-03 8.18334E-05-9.79571E-15
 -1      1115 3.45124E-03 8.34622E-05-5.77169E-15
 -1      1116 4.51920E-03 2.96656E-05-9.55641E-15
 -1      1117 2.27758E-03-5.87132E-06-2.79275E-15
 -1      1118 0.00000E+00 0.00000E+00 0.00000E+00
 -1      1119 0.00000E+00 0.00000E+00 0.00000E+00
 -1      1120 0.00000E+00 0.00000E+00 0.00000E+00
 -1      1121 0.00000E+00 0.00000E+00 0.00000E+00
 -1      1122 0.00000E+00 0.00000E+00 0.00000E+00
 -1      1123 0.00000E+00 0.00000E+00 0.00000E+00
 -1      1124 0.00000E+00 0.00000E+00 0.00000E+00
 -1      1125 0.00000E+00 0.00000E+00 0.00000E+00
 -1      1126 0.00000E+00 0.00000E+00 0.00000E+00
 -1      1127 0.00000E+00 0.00000E+00 0.00000E+00
 -1      1128 0.00000E+00 0.00000E+00 0.00000E+00
 -1      1129 0.00000E+00 0.00000E+00 0.00000E+00
 -1      1130 0.00000E+00 0.00000E+00 0.00000E+00
 -1      1131 0.00000E+00 0.00000E+00 0.00000E+00
 -1      1132 0.00000E+00 0.00000E+00 0.00000E+00
 -1      1133 0.00000E+00 0.00000E+00 0.00000E+00
 -1      1134 0.00000E+00 0.00000E+00 0.00000E+00
 -1      1135 2.11670E-04-1.48339E-04 1.45012E-18
 -1      1136 5.51637E-04-3.37538E-04-5.70561E-17
 -1      1137 8.33448E-04-4.59046E-04-2.03125E-16
 -1      1138 1.10301E-03-5.40742E-04-4.49022E-16
 -1      1139 1.36840E-03-5.98003E-04-7.86589E-16
 -1      1140 1.63319E-03-6.38716E-04-1.21264E-15
 -1      1141 1.89921E-03-6.67524E-04-1.72501E-15
 -1      1142 2.16731E-03-6.87546E-04-2.32004E-15
 -1      1143 2.43779E-03-7.01059E-04-2.99462E-15
 -1      1144 2.71064E-03-7.09778E-04-3.74698E-15
 -1      1145 2.98570E-03-7.14994E-04-4.57512E-15
 -1      1146 3.26272E-03-7.17671E-04-5.47059E-15
 -1      1147 3.54144E-03-7.18515E-04-6.42819E-15
 -1      1148 3.82161E-03-7.18026E-04-7.44756E-15
 -1      1149 4.10300E-03-7.16540E-04-8.52537E-15
 -1      1150 4.38543E-03-7.14271E-04-9.65782E-15
 -1      1151 4.66878E-03-7.11333E-04-1.08448E-14
 -1      1152 4.95300E-03-7.07775E-04-1.20819E-14
 -1      1153 5.23812E-03-7.03596E-04-1.33671E-14
 -1      1154 5.52425E-03-6.98781E-04-1.47047E-14
 -1      1155 5.81162E-03-6.93318E-04-1.60924E-14
 -1      1156 6.10054E-03-6.87239E-04-1.75340E-14
 -1      1157 6.39149E-03-6.80659E-04-1.90336E-14
 -1      1158 6.68505E-03-6.73830E-04-2.05875E-14
 -1      1159 6.98194E-03-6.67203E-04-2.21919E-14
 -1      1160 7.28298E-03-6.61516E-04-2.38396E-14
 -1      1161 7.58904E-03-6.57881E-04-2.55238E-14
 -1      1162 7.90092E-03-6.57879E-04-2.72404E-14
 -1      1163 8.21917E-03-6.63614E-04-2.89973E-14
 -1      1164 8.54380E-03-6.77698E-04-3.07846E-14
 -1      1165 8.87391E-03-7.03039E-04-3.25968E-14
 -1      1166 9.20724E-03-7.42322E-04-3.44371E-14
 -1      1167 9.53985E-03-7.97036E-04-3.63136E-14
 -1      1168 9.86612E-03-8.66030E-04-3.82213E-14
 -1      1169 1.01796E-02-9.43910E-04-4.01709E-14
 -1      1170 1.04748E-02-1.02014E-03-4.21467E-14
 -1      1171 1.07496E-02-1.08002E-03-4.41440E-14
 -1      1172 1.10073E-02-1.10833E-03-4.61660E-14
 -1      1173 1.12568E-02-1.09467E-03-4.82047E-14
 -1      1174 1.15095E-02-1.03773E-03-5.02637E-14
 -1      1175 1.17749E-02-9.45713E-04-5.23577E-14
 -1      1176 1.20573E-02-8.32673E-04-5.44781E-14
 -1      1177 1.23555E-02-7.13026E-04-5.66293E-14
 -1      1178 1.26641E-02-5.97304E-04-5.87982E-14
 -1      1179 1.29763E-02-4.90539E-04-6.09739E-14
 -1      1180 1.32862E-02-3.92816E-04-6.31431E-14
 -1      1181 1.35898E-02-3.00874E-04-6.53210E-14
 -1      1182 1.38856E-02-2.09856E-04-6.75081E-14
 -1      1183 1.41746E-02-1.15057E-04-6.96972E-14
 -1      1184 1.44530E-02-1.71900E-05-7.18522E-14
 -1      1185 2.28429E-04 1.60717E-04 2.52619E-17
 -1      1186 5.53811E-04 3.42170E-04 3.27836E-17
 -1      1187 8.34380E-04 4.61216E-04-2.28360E-17
 -1      1188 1.10391E-03 5.42432E-04-1.51978E-16
 -1      1189 1.36930E-03 5.99684E-04-3.56120E-16
 -1      1190 1.63414E-03 6.40485E-04-6.36305E-16
 -1      1191 1.90021E-03 6.69400E-04-9.92506E-16
 -1      1192 2.16836E-03 6.89542E-04-1.42158E-15
 -1      1193 2.43886E-03 7.03184E-04-1.92499E-15
 -1      1194 2.71173E-03 7.12036E-04-2.50218E-15
 -1      1195 2.98679E-03 7.17388E-04-3.15245E-15
 -1      1196 3.26382E-03 7.20202E-04-3.87319E-15
 -1      1197 3.54254E-03 7.21182E-04-4.66184E-15
 -1      1198 3.82270E-03 7.20825E-04-5.51803E-15
 -1      1199 4.10407E-03 7.19467E-04-6.43778E-15
 -1      1200 4.38648E-03 7.17315E-04-7.42463E-15
 -1      1201 4.66979E-03 7.14478E-04-8.47357E-15
 -1      1202 4.95397E-03 7.10991E-04-9.58376E-15
 -1      1203 5.23904E-03 7.06837E-04-1.07543E-14
 -1      1204 5.52512E-03 7.01971E-04-1.19844E-14
 -1      1205 5.81245E-03 6.96344E-04-1.32767E-14
 -1      1206 6.10141E-03 6.89930E-04-1.46226E-14
 -1      1207 6.39253E-03 6.82770E-04-1.60187E-14
 -1      1208 6.68655E-03 6.75017E-04-1.74700E-14
 -1      1209 6.98443E-03 6.67018E-04-1.89680E-14
 -1      1210 7.28738E-03 6.59416E-04-2.05044E-14
 -1      1211 7.59690E-03 6.53293E-04-2.20754E-14
 -1      1212 7.91473E-03 6.50375E-04-2.36819E-14
 -1      1213 8.24274E-03 6.53286E-04-2.53170E-14
 -1      1214 8.58270E-03 6.65842E-04-2.69691E-14
 -1      1215 8.93568E-03 6.93282E-04-2.86378E-14
 -1      1216 9.30125E-03 7.42192E-04-3.03217E-14
 -1      1217 9.67612E-03 8.19635E-04-3.20188E-14
 -1      1218 1.00528E-02 9.30731E-04-3.37279E-14
 -1      1219 1.04193E-02 1.07417E-03-3.54582E-14
 -1      1220 1.07608E-02 1.23657E-03-3.72196E-14
 -1      1221 1.10663E-02 1.38981E-03-3.90092E-14
 -1      1222 1.13372E-02 1.49735E-03-4.08172E-14
 -1      1223 1.15903E-02 1.53056E-03-4.26575E-14
 -1      1224 1.18515E-02 1.48540E-03-4.45305E-14
 -1      1225 1.21411E-02 1.38485E-03-4.64260E-14
 -1      1226 1.24642E-02 1.26458E-03-4.83384E-14
 -1      1227 1.28118E-02 1.15491E-03-5.02614E-14
 -1      1228 1.31691E-02 1.07165E-03-5.21999E-14
 -1      1229 1.35225E-02 1.01699E-03-5.41570E-14
 -1      1230 1.38631E-02 9.84789E-04-5.61295E-14
 -1      1231 1.41868E-02 9.65453E-04-5.81168E-14
 -1      1232 1.44936E-02 9.48927E-04-6.01271E-14
 -1      1233 1.47868E-02 9.26636E-04-6.21427E-14
 -1      1234 1.50655E-02 8.95446E-04-6.41100E-14
 -1      1235 1.52191E-02 8.35549E-04-6.52853E-14
 -1      1236 1.52605E-02 7.51477E-04-6.57232E-14
 -1      1237 1.53113E-02 6.74684E-04-6.61696E-14
 -1      1238 1.53674E-02 6.10990E-04-6.66163E-14
 -1      1239 1.54205E-02 5.63271E-04-6.70626E-14
 -1      1240 1.54614E-02 5.31669E-04-6.75026E-14
 -1      1241 1.54823E-02 5.13012E-04-6.79565E-14
 -1      1242 1.54772E-02 5.02355E-04-6.84043E-14
 -1      1243 1.54433E-02 4.93613E-04-6.88624E-14
 -1      1244 1.53814E-02 4.80426E-04-6.93352E-14
 -1      1245 1.52960E-02 4.57602E-04-6.98200E-14
 -1      1246 1.51943E-02 4.22284E-04-7.03376E-14
 -1      1247 1.50825E-02 3.73320E-04-7.08498E-14
 -1      1248 1.49660E-02 3.10956E-04-7.13261E-14
 -1      1249 1.48511E-02 2.37736E-04-7.17920E-14
 -1      1250 1.47413E-02 1.56997E-04-7.22568E-14
 -1      1251 1.46383E-02 7.33386E-05-7.26985E-14
 -1      1252 1.36416E-02 3.60715E-04-4.89705E-14
 -1      1253 1.35398E-02 5.14274E-04-4.85977E-14
 -1      1254 1.33342E-02 6.70327E-04-4.80580E-14
 -1      1255 1.30400E-02 8.26241E-04-4.73708E-14
 -1      1256 1.26899E-02 9.67697E-04-4.65871E-14
 -1      1257 1.22917E-02 1.08530E-03-4.57220E-14
 -1      1258 1.18533E-02 1.16181E-03-4.47681E-14
 -1      1259 1.14027E-02 1.18097E-03-4.37962E-14
 -1      1260 1.09459E-02 1.13431E-03-4.28530E-14
 -1      1261 1.05041E-02 1.03136E-03-4.19952E-14
 -1      1262 1.00985E-02 8.90734E-04-4.12722E-14
 -1      1263 9.73778E-03 7.29632E-04-4.06876E-14
 -1      1264 9.43792E-03 5.61624E-04-4.02617E-14
 -1      1265 9.22384E-03 3.98562E-04-4.00230E-14
 -1      1266 9.11486E-03 2.46738E-04-3.99808E-14
 -1      1267 9.11336E-03 9.95332E-05-4.01332E-14
 -1      1268 9.22069E-03-4.77839E-05-4.04794E-14
 -1      1269 9.42517E-03-1.94413E-04-4.09916E-14
 -1      1270 9.70678E-03-3.36993E-04-4.16390E-14
 -1      1271 1.00473E-02-4.68908E-04-4.23968E-14
 -1      1272 1.04350E-02-5.79517E-04-4.32660E-14
 -1      1273 1.08627E-02-6.54465E-04-4.42311E-14
 -1      1274 1.13171E-02-6.76338E-04-4.52387E-14
 -1      1275 1.17720E-02-6.37778E-04-4.62146E-14
 -1      1276 1.22070E-02-5.47296E-04-4.70934E-14
 -1      1277 1.26130E-02-4.19546E-04-4.78462E-14
 -1      1278 1.29770E-02-2.69505E-04-4.84542E-14
 -1      1279 1.32842E-02-1.08461E-04-4.88887E-14
 -1      1280 1.35105E-02 5.41521E-05-4.91190E-14
 -1      1281 1.36318E-02 2.08761E-04-4.91410E-14
 -1      1282 1.66699E-04-1.10349E-04-1.17907E-17
 -1      1283 1.12539E-04-5.69838E-05-2.48553E-17
 -1      1284 1.17620E-04-6.75905E-05-2.10606E-17
 -1      1285 1.08423E-04-4.35036E-05-3.06965E-17
 -1      1286 1.10284E-04-4.96174E-05-2.90702E-17
 -1      1287 2.26326E-04-1.07644E-04-6.85351E-17
 -1      1288 1.06840E-04-3.36190E-05-3.33663E-17
 -1      1289 1.07688E-04-3.83432E-05-3.27022E-17
 -1      1290 2.19109E-04-8.24800E-05-7.84014E-17
 -1      1291 1.06060E-04-2.53651E-05-3.45183E-17
 -1      1292 1.06490E-04-2.93963E-05-3.43421E-17
 -1      1293 2.15860E-04-6.32960E-05-8.31176E-17
 -1      1294 1.05662E-04-1.81013E-05-3.44776E-17
 -1      1295 1.05891E-04-2.16708E-05-3.45860E-17
 -1      1296 2.14209E-04-4.72121E-05-8.47304E-17
 -1      1297 1.05442E-04-1.12456E-05-3.42337E-17
 -1      1298 1.05565E-04-1.46326E-05-3.43963E-17
 -1      1299 2.13300E-04-3.27695E-05-8.45542E-17
 -1      1300 1.05343E-04-4.69171E-06-3.35832E-17
 -1      1301 1.05395E-04-7.94680E-06-3.38271E-17
 -1      1302 2.12804E-04-1.92000E-05-8.34971E-17
 -1      1303 1.05331E-04 1.74424E-06-3.25803E-17
 -1      1304 1.05329E-04-1.47095E-06-3.29055E-17
 -1      1305 2.12590E-04-6.16324E-06-8.17353E-17
 -1      1306 1.05403E-04 8.22963E-06-3.13877E-17
 -1      1307 1.05347E-04 4.96816E-06-3.17129E-17
 -1      1308 2.12598E-04 6.71271E-06-7.91468E-17
 -1      1309 1.05580E-04 1.49401E-05-2.95581E-17
 -1      1310 1.05453E-04 1.15387E-05-3.01137E-17
 -1      1311 2.12829E-04 1.97751E-05-7.56095E-17
 -1      1312 1.05912E-04 2.19615E-05-2.70102E-17
 -1      1313 1.05678E-04 1.83692E-05-2.77827E-17
 -1      1314 2.13338E-04 3.32831E-05-7.08120E-17
 -1      1315 1.06536E-04 2.98300E-05-2.37305E-17
 -1      1316 1.06097E-04 2.57524E-05-2.48824E-17
 -1      1317 2.14277E-04 4.78155E-05-6.45507E-17
 -1      1318 1.07725E-04 3.89293E-05-1.92175E-17
 -1      1319 1.06874E-04 3.41357E-05-2.09115E-17
 -1      1320 2.15979E-04 6.42311E-05-5.64463E-17
 -1      1321 1.10263E-04 5.03553E-05-1.23870E-17
 -1      1322 1.08425E-04 4.41721E-05-1.52601E-17
 -1      1323 2.19202E-04 8.37294E-05-4.51028E-17
 -1      1324 1.16936E-04 6.76260E-05-2.27682E-18
 -1      1325 1.12186E-04 5.77826E-05-7.10152E-18
 -1      1326 2.26314E-04 1.09463E-04-2.89889E-17
 -1      1327 1.57580E-04 1.09865E-04 1.27800E-17
 -1      1328 1.35660E-04 8.60973E-05 3.71339E-18
 -1      1329 2.56035E-04 1.52108E-04-1.02864E-17
 -1      1330 3.35084E-04 2.20751E-04 1.52601E-17
 -1      1331 4.21537E-04-2.61758E-04-6.00241E-17
 -1      1332 5.74630E-04-3.36826E-04-1.10765E-16
 -1      1333 7.21813E-04-3.97436E-04-1.88258E-16
 -1      1334 8.64975E-04-4.46738E-04-2.89861E-16
 -1      1335 6.12060E-04-3.30926E-04-1.71087E-16
 -1      1336 1.00499E-03-4.87817E-04-4.14165E-16
 -1      1337 1.14283E-03-5.21813E-04-5.61427E-16
 -1      1338 9.05281E-04-4.31638E-04-3.77939E-16
 -1      1339 1.27931E-03-5.50593E-04-7.30657E-16
 -1      1340 1.41494E-03-5.74635E-04-9.22114E-16
 -1      1341 1.18770E-03-5.01073E-04-6.74496E-16
 -1      1342 1.55017E-03-5.95001E-04-1.13509E-15
 -1      1343 1.68525E-03-6.12026E-04-1.36975E-15
 -1      1344 1.46461E-03-5.49857E-04-1.05795E-15
 -1      1345 1.82042E-03-6.26337E-04-1.62535E-15
 -1      1346 1.95578E-03-6.38227E-04-1.90124E-15
 -1      1347 1.73926E-03-5.84157E-04-1.52633E-15
 -1      1348 2.09147E-03-6.48098E-04-2.19758E-15
 -1      1349 2.22752E-03-6.56198E-04-2.51429E-15
 -1      1350 2.01353E-03-6.07954E-04-2.07692E-15
 -1      1351 2.36400E-03-6.62800E-04-2.85049E-15
 -1      1352 2.50091E-03-6.68110E-04-3.20540E-15
 -1      1353 2.28840E-03-6.24056E-04-2.70742E-15
 -1      1354 2.63826E-03-6.72319E-04-3.58008E-15
 -1      1355 2.77604E-03-6.75591E-04-3.97345E-15
 -1      1356 2.56435E-03-6.34526E-04-3.41495E-15
 -1      1357 2.91426E-03-6.78061E-04-4.38412E-15
 -1      1358 3.05289E-03-6.79858E-04-4.81309E-15
 -1      1359 2.84156E-03-6.40902E-04-4.19697E-15
 -1      1360 3.19191E-03-6.81076E-04-5.25797E-15
 -1      1361 3.33130E-03-6.81812E-04-5.71932E-15
 -1      1362 3.12006E-03-6.44329E-04-5.04884E-15
 -1      1363 3.47104E-03-6.82130E-04-6.19609E-15
 -1      1364 3.61110E-03-6.82103E-04-6.68787E-15
 -1      1365 3.39979E-03-6.45646E-04-5.96550E-15
 -1      1366 3.75147E-03-6.81771E-04-7.19519E-15
 -1      1367 3.89211E-03-6.81185E-04-7.71768E-15
 -1      1368 3.68063E-03-6.45451E-04-6.94566E-15
 -1      1369 4.03303E-03-6.80368E-04-8.25448E-15
 -1      1370 4.17418E-03-6.79356E-04-8.80452E-15
 -1      1371 3.96248E-03-6.44152E-04-7.98549E-15
 -1      1372 4.31557E-03-6.78157E-04-9.36793E-15
 -1      1373 4.45718E-03-6.76795E-04-9.94590E-15
 -1      1374 4.24522E-03-6.42014E-04-9.08114E-15
 -1      1375 4.59900E-03-6.75268E-04-1.05371E-14
 -1      1376 4.74104E-03-6.73591E-04-1.11411E-14
 -1      1377 4.52878E-03-6.39182E-04-1.02317E-14
 -1      1378 4.88328E-03-6.71754E-04-1.17571E-14
 -1      1379 5.02574E-03-6.69768E-04-1.23848E-14
 -1      1380 4.81312E-03-6.35722E-04-1.14344E-14
 -1      1381 5.16842E-03-6.67617E-04-1.30259E-14
 -1      1382 5.31133E-03-6.65310E-04-1.36802E-14
 -1      1383 5.09826E-03-6.31637E-04-1.26870E-14
 -1      1384 5.45451E-03-6.62829E-04-1.43468E-14
 -1      1385 5.59797E-03-6.60186E-04-1.50259E-14
 -1      1386 5.38427E-03-6.26895E-04-1.39908E-14
 -1      1387 5.74175E-03-6.57363E-04-1.57184E-14
 -1      1388 5.88587E-03-6.54380E-04-1.64247E-14
 -1      1389 5.67131E-03-6.21456E-04-1.53465E-14
 -1      1390 6.03040E-03-6.51224E-04-1.71440E-14
 -1      1391 6.17537E-03-6.47926E-04-1.78776E-14
 -1      1392 5.95960E-03-6.15301E-04-1.67553E-14
 -1      1393 6.32085E-03-6.44485E-04-1.86256E-14
 -1      1394 6.46690E-03-6.40951E-04-1.93866E-14
 -1      1395 6.24945E-03-6.08469E-04-1.82194E-14
 -1      1396 6.61360E-03-6.37342E-04-2.01612E-14
 -1      1397 6.76101E-03-6.33734E-04-2.09489E-14
 -1      1398 6.54127E-03-6.01107E-04-1.97380E-14
 -1      1399 6.90923E-03-6.30175E-04-2.17481E-14
 -1      1400 7.05833E-03-6.26777E-04-2.25590E-14
 -1      1401 6.83554E-03-5.93529E-04-2.13083E-14
 -1      1402 7.20842E-03-6.23632E-04-2.33803E-14
 -1      1403 7.35957E-03-6.20894E-04-2.42105E-14
 -1      1404 7.13284E-03-5.86297E-04-2.29233E-14
 -1      1405 7.51189E-03-6.18718E-04-2.50490E-14
 -1      1406 7.66544E-03-6.17308E-04-2.58968E-14
 -1      1407 7.43375E-03-5.80311E-04-2.45777E-14
 -1      1408 7.82030E-03-6.16899E-04-2.67542E-14
 -1      1409 7.97652E-03-6.17747E-04-2.76210E-14
 -1      1410 7.73885E-03-5.76919E-04-2.62691E-14
 -1      1411 8.13412E-03-6.20181E-04-2.84955E-14
 -1      1412 8.29311E-03-6.24500E-04-2.93796E-14
 -1      1413 8.04861E-03-5.78009E-04-2.79979E-14
 -1      1414 8.45343E-03-6.31127E-04-3.02706E-14
 -1      1415 8.61499E-03-6.40373E-04-3.11677E-14
 -1      1416 8.36319E-03-5.86054E-04-2.97590E-14
 -1      1417 8.77762E-03-6.52719E-04-3.20727E-14
 -1      1418 8.94110E-03-6.68426E-04-3.29834E-14
 -1      1419 8.68233E-03-6.04041E-04-3.15501E-14
 -1      1420 9.10511E-03-6.87939E-04-3.39025E-14
 -1      1421 9.26925E-03-7.11355E-04-3.48286E-14
 -1      1422 9.00506E-03-6.35136E-04-3.33686E-14
 -1      1423 9.43306E-03-7.38906E-04-3.57636E-14
 -1      1424 9.59598E-03-7.70364E-04-3.67057E-14
 -1      1425 9.32950E-03-6.81952E-04-3.52171E-14
 -1      1426 9.75742E-03-8.05493E-04-3.76576E-14
 -1      1427 9.91675E-03-8.43562E-04-3.86187E-14
 -1      1428 9.65279E-03-7.45268E-04-3.70968E-14
 -1      1429 1.00734E-02-8.83612E-04-3.95868E-14
 -1      1430 1.02268E-02-9.24301E-04-4.05643E-14
 -1      1431 9.97127E-03-8.22280E-04-3.90087E-14
 -1      1432 1.03765E-02-9.63874E-04-4.15473E-14
 -1      1433 1.05224E-02-1.00049E-03-4.25347E-14
 -1      1434 1.02811E-02-9.04957E-04-4.09514E-14
 -1      1435 1.06646E-02-1.03190E-03-4.35309E-14
 -1      1436 1.08032E-02-1.05619E-03-4.45332E-14
 -1      1437 1.05797E-02-9.79680E-04-4.29223E-14
 -1      1438 1.09389E-02-1.07136E-03-4.55396E-14
 -1      1439 1.10726E-02-1.07609E-03-4.65531E-14
 -1      1440 1.08671E-02-1.02956E-03-4.49175E-14
 -1      1441 1.12052E-02-1.06945E-03-4.75690E-14
 -1      1442 1.13378E-02-1.05126E-03-4.85887E-14
 -1      1443 1.11465E-02-1.03967E-03-4.69355E-14
 -1      1444 1.14714E-02-1.02211E-03-4.96179E-14
 -1      1445 1.16070E-02-9.83026E-04-5.06560E-14
 -1      1446 1.14241E-02-1.00311E-03-4.89749E-14
 -1      1447 1.17452E-02-9.35800E-04-5.16993E-14
 -1      1448 1.18864E-02-8.82181E-04-5.27476E-14
 -1      1449 1.17062E-02-9.24055E-04-5.10414E-14
 -1      1450 1.20307E-02-8.24376E-04-5.38057E-14
 -1      1451 1.21781E-02-7.64174E-04-5.48711E-14
 -1      1452 1.19969E-02-8.15646E-04-5.31367E-14
 -1      1453 1.23281E-02-7.03384E-04-5.59405E-14
 -1      1454 1.24803E-02-6.43326E-04-5.70163E-14
 -1      1455 1.22966E-02-6.94212E-04-5.52571E-14
 -1      1456 1.26341E-02-5.84990E-04-5.80963E-14
 -1      1457 1.27887E-02-5.29047E-04-5.91767E-14
 -1      1458 1.26030E-02-5.73477E-04-5.73984E-14
 -1      1459 1.29436E-02-4.75663E-04-6.02584E-14
 -1      1460 1.30982E-02-4.24929E-04-6.13437E-14
 -1      1461 1.29122E-02-4.61458E-04-5.95520E-14
 -1      1462 1.32521E-02-3.76415E-04-6.24280E-14
 -1      1463 1.34048E-02-3.29815E-04-6.35081E-14
 -1      1464 1.32205E-02-3.60275E-04-6.17109E-14
 -1      1465 1.35561E-02-2.84379E-04-6.45952E-14
 -1      1466 1.37058E-02-2.39597E-04-6.56859E-14
 -1      1467 1.35250E-02-2.67640E-04-6.38752E-14
 -1      1468 1.38539E-02-1.94653E-04-6.67782E-14
 -1      1469 1.40004E-02-1.48999E-04-6.78679E-14
 -1      1470 1.38241E-02-1.78772E-04-6.60482E-14
 -1      1471 1.41456E-02-1.02025E-04-6.89622E-14
 -1      1472 1.42897E-02-5.33811E-05-7.00612E-14
 -1      1473 1.41176E-02-8.81840E-05-6.82282E-14
 -1      1474 1.45025E-02 2.41588E-05-7.16399E-14
 -1      1475 1.44761E-02 3.54153E-05-7.08964E-14
 -1      1476 6.43072E-04 3.72044E-04-1.18178E-17
 -1      1477 4.92949E-04 3.03713E-04 1.04219E-17
 -1      1478 4.44877E-04 2.65916E-04-8.68717E-18
 -1      1479 9.28645E-04 4.72024E-04-1.10209E-16
 -1      1480 7.87789E-04 4.26526E-04-5.20688E-17
 -1      1481 7.44729E-04 3.90755E-04-7.71952E-17
 -1      1482 1.20352E-03 5.41457E-04-2.80971E-16
 -1      1483 1.06686E-03 5.09772E-04-1.86117E-16
 -1      1484 1.03076E-03 4.76211E-04-2.16583E-16
 -1      1485 1.47404E-03 5.90659E-04-5.26692E-16
 -1      1486 1.33900E-03 5.68199E-04-3.94433E-16
 -1      1487 1.30865E-03 5.36046E-04-4.28829E-16
 -1      1488 1.74353E-03 6.25550E-04-8.47602E-16
 -1      1489 1.60874E-03 6.09653E-04-6.77626E-16
 -1      1490 1.58285E-03 5.78336E-04-7.15235E-16
 -1      1491 2.01369E-03 6.49992E-04-1.24255E-15
 -1      1492 1.87844E-03 6.38906E-04-1.03582E-15
 -1      1493 1.85598E-03 6.08054E-04-1.07583E-15
 -1      1494 2.28531E-03 6.66726E-04-1.71103E-15
 -1      1495 2.14928E-03 6.59192E-04-1.46796E-15
 -1      1496 2.12944E-03 6.28577E-04-1.51016E-15
 -1      1497 2.55871E-03 6.77782E-04-2.25322E-15
 -1      1498 2.42177E-03 6.72864E-04-1.97262E-15
 -1      1499 2.40395E-03 6.42345E-04-2.01719E-15
 -1      1500 2.83395E-03 6.84689E-04-2.86774E-15
 -1      1501 2.69610E-03 6.81679E-04-2.55171E-15
 -1      1502 2.67980E-03 6.51174E-04-2.59707E-15
 -1      1503 3.11093E-03 6.88589E-04-3.55380E-15
 -1      1504 2.97223E-03 6.86958E-04-3.20204E-15
 -1      1505 2.95707E-03 6.56420E-04-3.24832E-15
 -1      1506 3.38949E-03 6.90323E-04-4.30859E-15
 -1      1507 3.25003E-03 6.89685E-04-3.92268E-15
 -1      1508 3.23572E-03 6.59089E-04-3.96936E-15
 -1      1509 3.66944E-03 6.90496E-04-5.13191E-15
 -1      1510 3.52931E-03 6.90575E-04-4.71160E-15
 -1      1511 3.51564E-03 6.59910E-04-4.75833E-15
 -1      1512 3.95059E-03 6.89524E-04-6.02040E-15
 -1      1513 3.80988E-03 6.90133E-04-5.56768E-15
 -1      1514 3.79668E-03 6.59399E-04-5.61492E-15
 -1      1515 4.23277E-03 6.87677E-04-6.97253E-15
 -1      1516 4.09156E-03 6.88698E-04-6.48823E-15
 -1      1517 4.07873E-03 6.57898E-04-6.53565E-15
 -1      1518 4.51588E-03 6.85109E-04-7.99122E-15
 -1      1519 4.37422E-03 6.86477E-04-7.47400E-15
 -1      1520 4.36167E-03 6.55615E-04-7.52125E-15
 -1      1521 4.79983E-03 6.81884E-04-9.06936E-15
 -1      1522 4.65775E-03 6.83576E-04-8.52294E-15
 -1      1523 4.64543E-03 6.52656E-04-8.56922E-15
 -1      1524 5.08464E-03 6.78004E-04-1.02096E-14
 -1      1525 4.94213E-03 6.80025E-04-9.63178E-15
 -1      1526 4.93000E-03 6.49048E-04-9.67790E-15
 -1      1527 5.37037E-03 6.73426E-04-1.14080E-14
 -1      1528 5.22738E-03 6.75801E-04-1.08018E-14
 -1      1529 5.21541E-03 6.44761E-04-1.08461E-14
 -1      1530 5.65721E-03 6.68088E-04-1.26678E-14
 -1      1531 5.51364E-03 6.70849E-04-1.20301E-14
 -1      1532 5.50178E-03 6.39732E-04-1.20738E-14
 -1      1533 5.94544E-03 6.61935E-04-1.39853E-14
 -1      1534 5.80113E-03 6.65107E-04-1.33192E-14
 -1      1535 5.78933E-03 6.33885E-04-1.33607E-14
 -1      1536 6.23547E-03 6.54948E-04-1.53572E-14
 -1      1537 6.09020E-03 6.58531E-04-1.46648E-14
 -1      1538 6.07837E-03 6.27166E-04-1.47048E-14
 -1      1539 6.52788E-03 6.47193E-04-1.67787E-14
 -1      1540 6.38134E-03 6.51140E-04-1.60613E-14
 -1      1541 6.36933E-03 6.19571E-04-1.61013E-14
 -1      1542 6.82342E-03 6.38878E-04-1.82519E-14
 -1      1543 6.67521E-03 6.43061E-04-1.75101E-14
 -1      1544 6.66281E-03 6.11203E-04-1.75478E-14
 -1      1545 7.12306E-03 6.30443E-04-1.97687E-14
 -1      1546 6.97266E-03 6.34606E-04-1.90053E-14
 -1      1547 6.95955E-03 6.02343E-04-1.90411E-14
 -1      1548 7.42798E-03 6.22682E-04-2.13201E-14
 -1      1549 7.27478E-03 6.26373E-04-2.05391E-14
 -1      1550 7.26048E-03 5.93551E-04-2.05732E-14
 -1      1551 7.73956E-03 6.16915E-04-2.29083E-14
 -1      1552 7.58284E-03 6.19397E-04-2.21108E-14
 -1      1553 7.56670E-03 5.85814E-04-2.21428E-14
 -1      1554 8.05935E-03 6.15223E-04-2.45269E-14
 -1      1555 7.89833E-03 6.15348E-04-2.37140E-14
 -1      1556 7.87944E-03 5.80750E-04-2.37457E-14
 -1      1557 8.38885E-03 6.20738E-04-2.61715E-14
 -1      1558 8.22279E-03 6.16798E-04-2.53468E-14
 -1      1559 8.20001E-03 5.80877E-04-2.53762E-14
 -1      1560 8.72921E-03 6.37945E-04-2.78318E-14
 -1      1561 8.55760E-03 6.27529E-04-2.69993E-14
 -1      1562 8.52955E-03 5.89933E-04-2.70283E-14
 -1      1563 9.08070E-03 6.72857E-04-2.95093E-14
 -1      1564 8.90357E-03 6.52798E-04-2.86688E-14
 -1      1565 8.86876E-03 6.13166E-04-2.86991E-14
 -1      1566 9.44185E-03 7.32707E-04-3.12010E-14
 -1      1567 9.26022E-03 6.99322E-04-3.03533E-14
 -1      1568 9.21741E-03 6.57375E-04-3.03860E-14
 -1      1569 9.80851E-03 8.24515E-04-3.29092E-14
 -1      1570 9.62486E-03 7.74497E-04-3.20532E-14
 -1      1571 9.57365E-03 7.30215E-04-3.20868E-14
 -1      1572 1.01732E-02 9.51736E-04-3.46324E-14
 -1      1573 9.99174E-03 8.84086E-04-3.37673E-14
 -1      1574 9.93339E-03 8.37988E-04-3.38049E-14
 -1      1575 1.05256E-02 1.10873E-03-3.63804E-14
 -1      1576 1.03517E-02 1.02770E-03-3.55029E-14
 -1      1577 1.02899E-02 9.81187E-04-3.55450E-14
 -1      1578 1.08556E-02 1.27518E-03-3.81597E-14
 -1      1579 1.06940E-02 1.19281E-03-3.72664E-14
 -1      1580 1.06349E-02 1.14821E-03-3.73119E-14
 -1      1581 1.11585E-02 1.41633E-03-3.99630E-14
 -1      1582 1.10104E-02 1.35124E-03-3.90576E-14
 -1      1583 1.09612E-02 1.31110E-03-3.91063E-14
 -1      1584 1.14405E-02 1.49479E-03-4.17851E-14
 -1      1585 1.13012E-02 1.46487E-03-4.08721E-14
 -1      1586 1.12678E-02 1.43046E-03-4.09232E-14
 -1      1587 1.17176E-02 1.49035E-03-4.36456E-14
 -1      1588 1.15783E-02 1.50261E-03-4.27115E-14
 -1      1589 1.15631E-02 1.47277E-03-4.27643E-14
 -1      1590 1.20079E-02 1.41274E-03-4.55284E-14
 -1      1591 1.18601E-02 1.45871E-03-4.45840E-14
 -1      1592 1.18611E-02 1.43051E-03-4.46359E-14
 -1      1593 1.23213E-02 1.29501E-03-4.74346E-14
 -1      1594 1.21615E-02 1.35643E-03-4.64788E-14
 -1      1595 1.21736E-02 1.32710E-03-4.65322E-14
 -1      1596 1.26563E-02 1.17394E-03-4.93560E-14
 -1      1597 1.24865E-02 1.23311E-03-4.83938E-14
 -1      1598 1.25032E-02 1.20139E-03-4.84497E-14
 -1      1599 1.30037E-02 1.07429E-03-5.12912E-14
 -1      1600 1.28291E-02 1.12073E-03-5.03209E-14
 -1      1601 1.28448E-02 1.08682E-03-5.03804E-14
 -1      1602 1.33525E-02 1.00490E-03-5.32428E-14
 -1      1603 1.31786E-02 1.03593E-03-5.22651E-14
 -1      1604 1.31899E-02 1.00075E-03-5.23274E-14
 -1      1605 1.36939E-02 9.62916E-04-5.52094E-14
 -1      1606 1.35246E-02 9.81019E-04-5.42246E-14
 -1      1607 1.35306E-02 9.45601E-04-5.42914E-14
 -1      1608 1.40226E-02 9.39643E-04-5.71945E-14
 -1      1609 1.38601E-02 9.49604E-04-5.62005E-14
 -1      1610 1.38618E-02 9.14809E-04-5.62684E-14
 -1      1611 1.43370E-02 9.24618E-04-5.91900E-14
 -1      1612 1.41816E-02 9.31724E-04-5.81893E-14
 -1      1613 1.41810E-02 8.98152E-04-5.82603E-14
 -1      1614 1.46381E-02 9.07927E-04-6.12034E-14
 -1      1615 1.44890E-02 9.16980E-04-6.01944E-14
 -1      1616 1.44880E-02 8.84972E-04-6.02655E-14
 -1      1617 1.49292E-02 8.82089E-04-6.32203E-14
 -1      1618 1.47846E-02 8.96370E-04-6.22121E-14
 -1      1619 1.47844E-02 8.65980E-04-6.22798E-14
 -1      1620 1.50833E-02 8.53454E-04-6.43277E-14
 -1      1621 1.51492E-02 7.50400E-04-6.49600E-14
 -1      1622 1.51256E-02 7.89919E-04-6.47401E-14
 -1      1623 1.52035E-02 6.78067E-04-6.54040E-14
 -1      1624 1.51754E-02 7.12956E-04-6.51821E-14
 -1      1625 1.50391E-02 7.47022E-04-6.41949E-14
 -1      1626 1.52617E-02 6.17293E-04-6.58497E-14
 -1      1627 1.52327E-02 6.46093E-04-6.56262E-14
 -1      1628 1.50967E-02 6.76930E-04-6.46368E-14
 -1      1629 1.53147E-02 5.69548E-04-6.62892E-14
 -1      1630 1.52894E-02 5.91780E-04-6.60717E-14
 -1      1631 1.51563E-02 6.17147E-04-6.50796E-14
 -1      1632 1.53527E-02 5.34691E-04-6.67274E-14
 -1      1633 1.53360E-02 5.50738E-04-6.65076E-14
 -1      1634 1.52079E-02 5.68622E-04-6.55145E-14
 -1      1635 1.53690E-02 5.08858E-04-6.71796E-14
 -1      1636 1.53641E-02 5.20793E-04-6.69523E-14
 -1      1637 1.52428E-02 5.29816E-04-6.59550E-14
 -1      1638 1.53573E-02 4.88425E-04-6.76274E-14
 -1      1639 1.53669E-02 4.98273E-04-6.74041E-14
 -1      1640 1.52533E-02 4.97927E-04-6.64014E-14
 -1      1641 1.53157E-02 4.68249E-04-6.80928E-14
 -1      1642 1.53402E-02 4.78624E-04-6.78565E-14
 -1      1643 1.52343E-02 4.69460E-04-6.68543E-14
 -1      1644 1.52464E-02 4.43368E-04-6.85623E-14
 -1      1645 1.52843E-02 4.56667E-04-6.83283E-14
 -1      1646 1.51850E-02 4.40046E-04-6.73165E-14
 -1      1647 1.51545E-02 4.09910E-04-6.90483E-14
 -1      1648 1.52029E-02 4.27889E-04-6.88020E-14
 -1      1649 1.51083E-02 4.05678E-04-6.77864E-14
 -1      1650 1.50488E-02 3.66484E-04-6.95424E-14
 -1      1651 1.51031E-02 3.89571E-04-6.92975E-14
 -1      1652 1.50113E-02 3.63833E-04-6.82631E-14
 -1      1653 1.49329E-02 3.11065E-04-7.00345E-14
 -1      1654 1.49915E-02 3.40166E-04-6.97901E-14
 -1      1655 1.49005E-02 3.12808E-04-6.87441E-14
 -1      1656 1.48149E-02 2.45200E-04-7.04968E-14
 -1      1657 1.48738E-02 2.79340E-04-7.02709E-14
 -1      1658 1.47822E-02 2.51950E-04-6.92144E-14
 -1      1659 1.46999E-02 1.70829E-04-7.09612E-14
 -1      1660 1.47568E-02 2.08922E-04-7.07294E-14
 -1      1661 1.46634E-02 1.82636E-04-6.96726E-14
 -1      1662 1.45599E-02 8.34339E-05-7.10443E-14
 -1      1663 1.46139E-02 1.23951E-04-7.08218E-14
 -1      1664 1.45182E-02 9.97372E-05-6.97595E-14
 -1      1665 1.43467E-02 6.61836E-06-6.94710E-14
 -1      1666 1.36392E-02 3.63070E-04-4.92969E-14
 -1      1667 1.36671E-02 3.15264E-04-4.94381E-14
 -1      1668 1.34863E-02 4.80588E-04-4.88256E-14
 -1      1669 1.35716E-02 4.25301E-04-4.90534E-14
 -1      1670 1.32187E-02 6.25125E-04-4.81919E-14
 -1      1671 1.33562E-02 5.54079E-04-4.85068E-14
 -1      1672 1.28765E-02 7.92705E-04-4.74127E-14
 -1      1673 1.30409E-02 7.13153E-04-4.77879E-14
 -1      1674 1.25043E-02 9.62874E-04-4.65433E-14
 -1      1675 1.26780E-02 8.85009E-04-4.69507E-14
 -1      1676 1.21100E-02 1.11537E-03-4.55732E-14
 -1      1677 1.22949E-02 1.04867E-03-4.60326E-14
 -1      1678 1.17058E-02 1.21493E-03-4.45273E-14
 -1      1679 1.18865E-02 1.17825E-03-4.50177E-14
 -1      1680 1.13167E-02 1.22254E-03-4.34936E-14
 -1      1681 1.14964E-02 1.22911E-03-4.39642E-14
 -1      1682 1.09149E-02 1.14008E-03-4.24792E-14
 -1      1683 1.11032E-02 1.19078E-03-4.29392E-14
 -1      1684 1.05087E-02 9.86572E-04-4.16039E-14
 -1      1685 1.06923E-02 1.06335E-03-4.19915E-14
 -1      1686 1.01105E-02 7.98070E-04-4.08586E-14
 -1      1687 1.02937E-02 8.88045E-04-4.11848E-14
 -1      1688 9.73849E-03 6.09306E-04-4.02719E-14
 -1      1689 9.90525E-03 6.94760E-04-4.05213E-14
 -1      1690 9.41995E-03 4.30845E-04-3.98101E-14
 -1      1691 9.56258E-03 5.05304E-04-3.99783E-14
 -1      1692 9.19061E-03 3.05534E-04-3.96507E-14
 -1      1693 9.27972E-03 3.62702E-04-3.97192E-14
 -1      1694 9.08878E-03 1.98575E-04-3.96522E-14
 -1      1695 9.12011E-03 2.45444E-04-3.96268E-14
 -1      1696 9.11830E-03 9.83713E-05-3.98628E-14
 -1      1697 9.08787E-03 1.44857E-04-3.97389E-14
 -1      1698 9.27667E-03-1.42933E-05-4.02753E-14
 -1      1699 9.18815E-03 4.00764E-05-4.00605E-14
 -1      1700 9.53656E-03-1.48324E-04-4.08593E-14
 -1      1701 9.40587E-03-8.34723E-05-4.05699E-14
 -1      1702 9.86435E-03-3.03115E-04-4.15856E-14
 -1      1703 9.70616E-03-2.29358E-04-4.12353E-14
 -1      1704 1.02277E-02-4.63686E-04-4.24324E-14
 -1      1705 1.00570E-02-3.89731E-04-4.20298E-14
 -1      1706 1.06154E-02-6.07684E-04-4.33960E-14
 -1      1707 1.04376E-02-5.43911E-04-4.29319E-14
 -1      1708 1.10054E-02-7.02544E-04-4.44593E-14
 -1      1709 1.08226E-02-6.66753E-04-4.39647E-14
 -1      1710 1.14070E-02-7.17622E-04-4.55562E-14
 -1      1711 1.12205E-02-7.21708E-04-4.50479E-14
 -1      1712 1.18014E-02-6.46728E-04-4.66005E-14
 -1      1713 1.16201E-02-6.90591E-04-4.61368E-14
 -1      1714 1.21997E-02-5.05093E-04-4.75344E-14
 -1      1715 1.20163E-02-5.77260E-04-4.71231E-14
 -1      1716 1.26011E-02-3.30982E-04-4.82987E-14
 -1      1717 1.24199E-02-4.14559E-04-4.79592E-14
 -1      1718 1.29772E-02-1.50249E-04-4.89150E-14
 -1      1719 1.28070E-02-2.33177E-04-4.86520E-14
 -1      1720 1.33068E-02 1.44659E-05-4.93357E-14
 -1      1721 1.31625E-02-5.87993E-05-4.91684E-14
 -1      1722 1.35458E-02 1.57862E-04-4.95920E-14
 -1      1723 1.34470E-02 1.00405E-04-4.95294E-14
 -1      1724 1.36607E-02 2.60180E-04-4.95141E-14
 -1      1725 1.36249E-02 2.13252E-04-4.95488E-14
 -1      1726 1.27201E-02 7.98205E-04-4.73791E-14
 -1      1727 1.30904E-02 6.16001E-04-4.82502E-14
 -1      1728 1.50844E-02 8.24190E-04-6.43983E-14
 -1      1729 1.49707E-02 8.18499E-04-6.36319E-14
 -1      1730 1.36093E-02 3.65502E-04-4.95454E-14
 -1      1731 1.34037E-02 4.69786E-04-4.89792E-14
 -1      1732 1.36744E-02 2.92659E-04-4.98679E-14
 -1      1733 1.23362E-02 9.90187E-04-4.64034E-14
 -1      1734 1.19486E-02 1.15614E-03-4.53362E-14
 -1      1735 1.15894E-02 1.24789E-03-4.42198E-14
 -1      1736 1.12294E-02 1.23113E-03-4.31060E-14
 -1      1737 1.08607E-02 1.10937E-03-4.20707E-14
 -1      1738 1.04679E-02 9.16926E-04-4.11697E-14
 -1      1739 1.00711E-02 7.01908E-04-4.04184E-14
 -1      1740 9.69258E-03 4.96744E-04-3.97922E-14
 -1      1741 9.37002E-03 3.43868E-04-3.94115E-14
 -1      1742 9.15339E-03 2.43404E-04-3.92980E-14
 -1      1743 9.07845E-03 1.69365E-04-3.93585E-14
 -1      1744 9.15076E-03 9.66708E-05-3.96395E-14
 -1      1745 9.35719E-03-1.44080E-06-4.01273E-14
 -1      1746 9.66068E-03-1.37892E-04-4.07929E-14
 -1      1747 1.00168E-02-3.07520E-04-4.16103E-14
 -1      1748 1.03949E-02-4.87862E-04-4.25526E-14
 -1      1749 1.07643E-02-6.46216E-04-4.36203E-14
 -1      1750 1.11285E-02-7.36487E-04-4.47774E-14
 -1      1751 1.14909E-02-7.28289E-04-4.59487E-14
 -1      1752 1.18546E-02-6.18722E-04-4.70542E-14
 -1      1753 1.22406E-02-4.40043E-04-4.80036E-14
 -1      1754 1.26415E-02-2.37751E-04-4.87833E-14
 -1      1755 1.30264E-02-4.63421E-05-4.93896E-14
 -1      1756 1.33581E-02 1.14368E-04-4.98355E-14
 -1      1757 1.35860E-02 2.18808E-04-4.99874E-14
 -1      1758 2.85237E-04-1.76244E-04-4.98326E-17
 -1      1759 3.32191E-04-1.16797E-04-1.22515E-16
 -1      1760 3.36326E-04-1.33043E-04-1.17731E-16
 -1      1761 3.42204E-04-1.52030E-04-1.11388E-16
 -1      1762 3.51755E-04-1.74031E-04-1.01712E-16
 -1      1763 4.58326E-04-1.88106E-04-1.70952E-16
 -1      1764 3.24572E-04-6.53978E-05-1.29278E-16
 -1      1765 3.25705E-04-7.66982E-05-1.28993E-16
 -1      1766 3.23084E-04-4.39012E-05-1.28613E-16
 -1      1767 3.23735E-04-5.43932E-05-1.29156E-16
 -1      1768 4.36523E-04-7.93037E-05-1.89952E-16
 -1      1769 3.22304E-04-2.37782E-05-1.26635E-16
 -1      1770 3.22633E-04-3.36944E-05-1.27800E-16
 -1      1771 4.34530E-04-5.13296E-05-1.88434E-16
 -1      1772 3.22012E-04-4.33775E-06-1.23531E-16
 -1      1773 3.22108E-04-1.39932E-05-1.25307E-16
 -1      1774 4.33515E-04-2.49300E-05-1.85128E-16
 -1      1775 3.22133E-04 1.49862E-05-1.19235E-16
 -1      1776 3.22020E-04 5.32081E-06-1.21607E-16
 -1      1777 4.33219E-04 7.58422E-07-1.80222E-16
 -1      1778 3.22695E-04 3.47405E-05-1.13462E-16
 -1      1779 3.22346E-04 2.47920E-05-1.16660E-16
 -1      1780 4.33572E-04 2.64755E-05-1.73472E-16
 -1      1781 3.23818E-04 5.51820E-05-1.06103E-16
 -1      1782 3.23158E-04 4.48175E-05-1.10209E-16
 -1      1783 4.34642E-04 5.27371E-05-1.64894E-16
 -1      1784 3.25868E-04 7.78360E-05-9.63856E-17
 -1      1785 3.24674E-04 6.62539E-05-1.01725E-16
 -1      1786 4.36689E-04 8.06215E-05-1.53957E-16
 -1      1787 3.29548E-04 1.03675E-04-8.34158E-17
 -1      1788 3.27404E-04 9.03245E-05-9.05309E-17
 -1      1789 4.40326E-04 1.11594E-04-1.39442E-16
 -1      1790 3.36574E-04 1.35131E-04-6.52148E-17
 -1      1791 3.32396E-04 1.18634E-04-7.53114E-17
 -1      1792 4.46784E-04 1.47364E-04-1.20021E-16
 -1      1793 3.52294E-04 1.77622E-04-3.95463E-17
 -1      1794 3.42801E-04 1.54778E-04-5.37358E-17
 -1      1795 4.59307E-04 1.91483E-04-9.34311E-17
 -1      1796 4.07691E-04 2.33704E-04-2.03017E-17
 -1      1797 3.78081E-04 2.02680E-04-3.23634E-17
 -1      1798 4.95844E-04 2.44020E-04-6.88197E-17
 -1      1799 5.58535E-04 3.02529E-04-4.78675E-17
 -1      1800 3.40015E-04-1.90926E-04-7.88622E-17
 -1      1801 8.53547E-04 4.07154E-04-1.55841E-16
 -1      1802 7.07148E-04 3.59408E-04-9.31601E-17
 -1      1803 6.73384E-04 3.28841E-04-1.06604E-16
 -1      1804 4.58945E-04-2.36741E-04-1.33221E-16
 -1      1805 8.07208E-04-3.74150E-04-3.40602E-16
 -1      1806 9.52468E-04-4.15337E-04-4.68538E-16
 -1      1807 1.09530E-03-4.50026E-04-6.17860E-16
 -1      1808 1.23697E-03-4.78926E-04-7.88771E-16
 -1      1809 1.00389E-03-3.97953E-04-5.61210E-16
 -1      1810 1.37736E-03-5.03413E-04-9.81095E-16
 -1      1811 1.51704E-03-5.23782E-04-1.19456E-15
 -1      1812 1.28958E-03-4.55928E-04-9.04862E-16
 -1      1813 1.65619E-03-5.40954E-04-1.42848E-15
 -1      1814 1.79502E-03-5.55167E-04-1.68309E-15
 -1      1815 1.57197E-03-4.96868E-04-1.33182E-15
 -1      1816 1.93373E-03-5.67028E-04-1.95769E-15
 -1      1817 2.07237E-03-5.76741E-04-2.25215E-15
 -1      1818 1.85256E-03-5.25388E-04-1.83989E-15
 -1      1819 2.21110E-03-5.84722E-04-2.56627E-15
 -1      1820 2.34992E-03-5.91142E-04-2.89960E-15
 -1      1821 2.13244E-03-5.44824E-04-2.42727E-15
 -1      1822 2.48895E-03-5.96293E-04-3.25204E-15
 -1      1823 2.62814E-03-6.00316E-04-3.62289E-15
 -1      1824 2.41228E-03-5.57620E-04-3.09128E-15
 -1      1825 2.76758E-03-6.03419E-04-4.01209E-15
 -1      1826 2.90723E-03-6.05712E-04-4.41834E-15
 -1      1827 2.69248E-03-5.65595E-04-3.82933E-15
 -1      1828 3.04714E-03-6.07345E-04-4.84236E-15
 -1      1829 3.18727E-03-6.08403E-04-5.28234E-15
 -1      1830 2.97325E-03-5.70101E-04-4.63864E-15
 -1      1831 3.32765E-03-6.08988E-04-5.73834E-15
 -1      1832 3.46824E-03-6.09166E-04-6.21050E-15
 -1      1833 3.25469E-03-5.72134E-04-5.51410E-15
 -1      1834 3.60907E-03-6.09004E-04-6.69854E-15
 -1      1835 3.75009E-03-6.08550E-04-7.20150E-15
 -1      1836 3.53680E-03-5.72410E-04-6.45375E-15
 -1      1837 3.89133E-03-6.07845E-04-7.71857E-15
 -1      1838 4.03274E-03-6.06923E-04-8.25085E-15
 -1      1839 3.81958E-03-5.71428E-04-7.45488E-15
 -1      1840 4.17435E-03-6.05804E-04-8.79688E-15
 -1      1841 4.31614E-03-6.04512E-04-9.35582E-15
 -1      1842 4.10299E-03-5.69517E-04-8.51405E-15
 -1      1843 4.45810E-03-6.03052E-04-9.92830E-15
 -1      1844 4.60023E-03-6.01438E-04-1.05148E-14
 -1      1845 4.38698E-03-5.66870E-04-9.62834E-15
 -1      1846 4.74254E-03-5.99666E-04-1.11148E-14
 -1      1847 4.88502E-03-5.97742E-04-1.17262E-14
 -1      1848 4.67157E-03-5.63582E-04-1.07961E-14
 -1      1849 5.02768E-03-5.95655E-04-1.23497E-14
 -1      1850 5.17054E-03-5.93409E-04-1.29869E-14
 -1      1851 4.95674E-03-5.59672E-04-1.20152E-14
 -1      1852 5.31359E-03-5.90988E-04-1.36374E-14
 -1      1853 5.45687E-03-5.88396E-04-1.43003E-14
 -1      1854 5.24255E-03-5.55112E-04-1.32852E-14
 -1      1855 5.60039E-03-5.85615E-04-1.49771E-14
 -1      1856 5.74417E-03-5.82654E-04-1.56664E-14
 -1      1857 5.52910E-03-5.49846E-04-1.46087E-14
 -1      1858 5.88825E-03-5.79499E-04-1.63693E-14
 -1      1859 6.03266E-03-5.76166E-04-1.70864E-14
 -1      1860 5.81651E-03-5.43825E-04-1.59851E-14
 -1      1861 6.17742E-03-5.72651E-04-1.78162E-14
 -1      1862 6.32261E-03-5.68981E-04-1.85601E-14
 -1      1863 6.10499E-03-5.37032E-04-1.74154E-14
 -1      1864 6.46824E-03-5.65172E-04-1.93171E-14
 -1      1865 6.61440E-03-5.61269E-04-2.00868E-14
 -1      1866 6.39480E-03-5.29532E-04-1.88985E-14
 -1      1867 6.76110E-03-5.57316E-04-2.08692E-14
 -1      1868 6.90845E-03-5.53384E-04-2.16635E-14
 -1      1869 6.68624E-03-5.21519E-04-2.04341E-14
 -1      1870 7.05646E-03-5.49560E-04-2.24692E-14
 -1      1871 7.20526E-03-5.45950E-04-2.32852E-14
 -1      1872 6.97970E-03-5.13390E-04-2.20175E-14
 -1      1873 7.35484E-03-5.42700E-04-2.41103E-14
 -1      1874 7.50535E-03-5.39958E-04-2.49425E-14
 -1      1875 7.27562E-03-5.05832E-04-2.36442E-14
 -1      1876 7.65676E-03-5.37949E-04-2.57881E-14
 -1      1877 7.80921E-03-5.36874E-04-2.66419E-14
 -1      1878 7.57446E-03-4.99921E-04-2.53089E-14
 -1      1879 7.96269E-03-5.37050E-04-2.75024E-14
 -1      1880 8.11726E-03-5.38735E-04-2.83730E-14
 -1      1881 7.87671E-03-4.97234E-04-2.70102E-14
 -1      1882 8.27295E-03-5.42342E-04-2.92505E-14
 -1      1883 8.42971E-03-5.48180E-04-3.01365E-14
 -1      1884 8.18284E-03-4.99938E-04-2.87450E-14
 -1      1885 8.58761E-03-5.56735E-04-3.10302E-14
 -1      1886 8.74642E-03-5.68342E-04-3.19295E-14
 -1      1887 8.49322E-03-5.10812E-04-3.05116E-14
 -1      1888 8.90629E-03-5.83486E-04-3.28370E-14
 -1      1889 9.06673E-03-6.02460E-04-3.37500E-14
 -1      1890 8.80799E-03-5.33111E-04-3.23072E-14
 -1      1891 9.22796E-03-6.25603E-04-3.46727E-14
 -1      1892 9.38922E-03-6.53038E-04-3.56011E-14
 -1      1893 9.12693E-03-5.70132E-04-3.41301E-14
 -1      1894 9.55077E-03-6.84732E-04-3.65364E-14
 -1      1895 9.71159E-03-7.20429E-04-3.74821E-14
 -1      1896 9.44912E-03-6.24292E-04-3.59818E-14
 -1      1897 9.87192E-03-7.59464E-04-3.84336E-14
 -1      1898 1.00307E-02-8.00954E-04-3.93925E-14
 -1      1899 9.77265E-03-6.95577E-04-3.78624E-14
 -1      1900 1.01879E-02-8.43416E-04-4.03604E-14
 -1      1901 1.03429E-02-8.85209E-04-4.13337E-14
 -1      1902 1.00944E-02-7.79466E-04-3.97716E-14
 -1      1903 1.04956E-02-9.24133E-04-4.23162E-14
 -1      1904 1.06458E-02-9.57997E-04-4.33051E-14
 -1      1905 1.04105E-02-8.65116E-04-4.17143E-14
 -1      1906 1.07933E-02-9.84418E-04-4.42987E-14
 -1      1907 1.09392E-02-1.00136E-03-4.52995E-14
 -1      1908 1.07179E-02-9.35516E-04-4.36832E-14
 -1      1909 1.10830E-02-1.00716E-03-4.63052E-14
 -1      1910 1.12266E-02-1.00083E-03-4.73155E-14
 -1      1911 1.10166E-02-9.71482E-04-4.56772E-14
 -1      1912 1.13695E-02-9.82162E-04-4.83327E-14
 -1      1913 1.15139E-02-9.51771E-04-4.93577E-14
 -1      1914 1.13107E-02-9.59120E-04-4.76949E-14
 -1      1915 1.16591E-02-9.11000E-04-5.03898E-14
 -1      1916 1.18065E-02-8.61662E-04-5.14258E-14
 -1      1917 1.16065E-02-8.96740E-04-4.97375E-14
 -1      1918 1.19557E-02-8.06001E-04-5.24693E-14
 -1      1919 1.21069E-02-7.46165E-04-5.35201E-14
 -1      1920 1.19089E-02-7.95584E-04-5.18060E-14
 -1      1921 1.22600E-02-6.84363E-04-5.45769E-14
 -1      1922 1.24141E-02-6.22286E-04-5.56400E-14
 -1      1923 1.22188E-02-6.73836E-04-5.39002E-14
 -1      1924 1.25695E-02-5.61446E-04-5.67064E-14
 -1      1925 1.27250E-02-5.02750E-04-5.77758E-14
 -1      1926 1.25333E-02-5.48740E-04-5.60186E-14
 -1      1927 1.28809E-02-4.46821E-04-5.88511E-14
 -1      1928 1.30359E-02-3.93848E-04-5.99252E-14
 -1      1929 1.28486E-02-4.31535E-04-5.81515E-14
 -1      1930 1.31906E-02-3.43702E-04-6.09983E-14
 -1      1931 1.33439E-02-2.96093E-04-6.20770E-14
 -1      1932 1.31612E-02-3.26516E-04-6.02931E-14
 -1      1933 1.34962E-02-2.50409E-04-6.31580E-14
 -1      1934 1.36471E-02-2.06102E-04-6.42377E-14
 -1      1935 1.34689E-02-2.32569E-04-6.24404E-14
 -1      1936 1.37966E-02-1.62360E-04-6.53215E-14
 -1      1937 1.39446E-02-1.18540E-04-6.64087E-14
 -1      1938 1.37708E-02-1.45316E-04-6.45992E-14
 -1      1939 1.40739E-02-8.02889E-05-6.73906E-14
 -1      1940 1.42195E-02-3.43599E-05-6.84805E-14
 -1      1941 1.43053E-02 1.23569E-05-6.86261E-14
 -1      1942 1.40491E-02-6.52787E-05-6.66596E-14
 -1      1943 1.13858E-03 4.80125E-04-3.33717E-16
 -1      1944 9.96822E-04 4.46871E-04-2.35692E-16
 -1      1945 9.64442E-04 4.17418E-04-2.52172E-16
 -1      1946 1.41768E-03 5.31607E-04-5.84697E-16
 -1      1947 1.27853E-03 5.08159E-04-4.49822E-16
 -1      1948 1.24890E-03 4.80024E-04-4.68579E-16
 -1      1949 1.69403E-03 5.67890E-04-9.09700E-16
 -1      1950 1.55601E-03 5.51404E-04-7.38044E-16
 -1      1951 1.52915E-03 5.24235E-04-7.57912E-16
 -1      1952 1.96956E-03 5.93150E-04-1.30740E-15
 -1      1953 1.83181E-03 5.81728E-04-1.09944E-15
 -1      1954 1.80737E-03 5.55199E-04-1.12056E-15
 -1      1955 2.24536E-03 6.10333E-04-1.77895E-15
 -1      1956 2.10738E-03 6.02626E-04-1.53406E-15
 -1      1957 2.08495E-03 5.76504E-04-1.55571E-15
 -1      1958 2.52197E-03 6.21606E-04-2.32213E-15
 -1      1959 2.38354E-03 6.16615E-04-2.04157E-15
 -1      1960 2.36273E-03 5.90743E-04-2.06340E-15
 -1      1961 2.79965E-03 6.28584E-04-2.93761E-15
 -1      1962 2.66067E-03 6.25563E-04-2.62073E-15
 -1      1963 2.64115E-03 5.99835E-04-2.64246E-15
 -1      1964 3.07848E-03 6.32468E-04-3.62325E-15
 -1      1965 2.93892E-03 6.30862E-04-3.27184E-15
 -1      1966 2.92042E-03 6.05209E-04-3.29261E-15
 -1      1967 3.35843E-03 6.34137E-04-4.37729E-15
 -1      1968 3.21832E-03 6.33542E-04-3.99186E-15
 -1      1969 3.20060E-03 6.07921E-04-4.01251E-15
 -1      1970 3.63942E-03 6.34223E-04-5.19997E-15
 -1      1971 3.49880E-03 6.34352E-04-4.78011E-15
 -1      1972 3.48169E-03 6.08736E-04-4.80005E-15
 -1      1973 3.92136E-03 6.33158E-04-6.08752E-15
 -1      1974 3.78028E-03 6.33817E-04-5.63520E-15
 -1      1975 3.76364E-03 6.08191E-04-5.65429E-15
 -1      1976 4.20415E-03 6.31219E-04-7.03987E-15
 -1      1977 4.06266E-03 6.32288E-04-6.55624E-15
 -1      1978 4.04637E-03 6.06646E-04-6.57357E-15
 -1      1979 4.48772E-03 6.28564E-04-8.05589E-15
 -1      1980 4.34585E-03 6.29976E-04-7.54021E-15
 -1      1981 4.32983E-03 6.04316E-04-7.55758E-15
 -1      1982 4.77205E-03 6.25255E-04-9.13200E-15
 -1      1983 4.62980E-03 6.26990E-04-8.58618E-15
 -1      1984 4.61398E-03 6.01312E-04-8.60183E-15
 -1      1985 5.05714E-03 6.21286E-04-1.02693E-14
 -1      1986 4.91450E-03 6.23354E-04-9.69374E-15
 -1      1987 4.89881E-03 5.97660E-04-9.70739E-15
 -1      1988 5.34307E-03 6.16605E-04-1.14648E-14
 -1      1989 5.19999E-03 6.19036E-04-1.08597E-14
 -1      1990 5.18438E-03 5.93324E-04-1.08718E-14
 -1      1991 5.63000E-03 6.11132E-04-1.27206E-14
 -1      1992 5.48640E-03 6.13967E-04-1.20855E-14
 -1      1993 5.47079E-03 5.88233E-04-1.20952E-14
 -1      1994 5.91815E-03 6.04788E-04-1.40338E-14
 -1      1995 5.77390E-03 6.08066E-04-1.33701E-14
 -1      1996 5.75819E-03 5.82297E-04-1.33782E-14
 -1      1997 6.20785E-03 5.97527E-04-1.54041E-14
 -1      1998 6.06278E-03 6.01265E-04-1.47119E-14
 -1      1999 6.04685E-03 5.75441E-04-1.47185E-14
 -1      2000 6.49957E-03 5.89374E-04-1.68224E-14
 -1      2001 6.35342E-03 5.93546E-04-1.61072E-14
 -1      2002 6.33709E-03 5.67632E-04-1.61111E-14
 -1      2003 6.79388E-03 5.80485E-04-1.82914E-14
 -1      2004 6.64635E-03 5.84992E-04-1.75513E-14
 -1      2005 6.62937E-03 5.58936E-04-1.75536E-14
 -1      2006 7.09152E-03 5.71236E-04-1.98039E-14
 -1      2007 6.94222E-03 5.75857E-04-1.90420E-14
 -1      2008 6.92424E-03 5.49582E-04-1.90428E-14
 -1      2009 7.39335E-03 5.62336E-04-2.13515E-14
 -1      2010 7.24183E-03 5.66665E-04-2.05734E-14
 -1      2011 7.22239E-03 5.40060E-04-2.05719E-14
 -1      2012 7.70040E-03 5.55004E-04-2.29381E-14
 -1      2013 7.54613E-03 5.58358E-04-2.21408E-14
 -1      2014 7.52462E-03 5.31263E-04-2.21371E-14
 -1      2015 8.01377E-03 5.51201E-04-2.45515E-14
 -1      2016 7.85619E-03 5.52494E-04-2.37417E-14
 -1      2017 7.83186E-03 5.24685E-04-2.37370E-14
 -1      2018 8.33458E-03 5.53926E-04-2.61941E-14
 -1      2019 8.17314E-03 5.51513E-04-2.53701E-14
 -1      2020 8.14508E-03 5.22678E-04-2.53640E-14
 -1      2021 8.66376E-03 5.67547E-04-2.78555E-14
 -1      2022 8.49804E-03 5.59063E-04-2.70223E-14
 -1      2023 8.46529E-03 5.28776E-04-2.70157E-14
 -1      2024 9.00182E-03 5.98044E-04-2.95350E-14
 -1      2025 8.83167E-03 5.80303E-04-2.86927E-14
 -1      2026 8.79337E-03 5.48017E-04-2.86867E-14
 -1      2027 9.34842E-03 6.52837E-04-3.12294E-14
 -1      2028 9.17417E-03 6.21998E-04-3.03807E-14
 -1      2029 9.12992E-03 5.87078E-04-3.03757E-14
 -1      2030 9.70181E-03 7.39618E-04-3.29414E-14
 -1      2031 9.52459E-03 6.91939E-04-3.20829E-14
 -1      2032 9.47489E-03 6.53839E-04-3.20791E-14
 -1      2033 1.00583E-02 8.63303E-04-3.46717E-14
 -1      2034 9.88025E-03 7.96945E-04-3.38035E-14
 -1      2035 9.82706E-03 7.55622E-04-3.38005E-14
 -1      2036 1.04117E-02 1.02056E-03-3.64282E-14
 -1      2037 1.02362E-02 9.38629E-04-3.55472E-14
 -1      2038 1.01831E-02 8.95210E-04-3.55467E-14
 -1      2039 1.07542E-02 1.19301E-03-3.82115E-14
 -1      2040 1.05850E-02 1.10679E-03-3.73166E-14
 -1      2041 1.05366E-02 1.06416E-03-3.73196E-14
 -1      2042 1.10800E-02 1.34536E-03-4.00186E-14
 -1      2043 1.09193E-02 1.27421E-03-3.91108E-14
 -1      2044 1.08793E-02 1.23626E-03-3.91163E-14
 -1      2045 1.13904E-02 1.43585E-03-4.18479E-14
 -1      2046 1.12362E-02 1.40016E-03-4.09318E-14
 -1      2047 1.12061E-02 1.36949E-03-4.09374E-14
 -1      2048 1.16959E-02 1.43882E-03-4.37064E-14
 -1      2049 1.15423E-02 1.44815E-03-4.27728E-14
 -1      2050 1.15215E-02 1.42370E-03-4.27816E-14
 -1      2051 1.20095E-02 1.36191E-03-4.55897E-14
 -1      2052 1.18506E-02 1.40831E-03-4.46441E-14
 -1      2053 1.18381E-02 1.38615E-03-4.46529E-14
 -1      2054 1.23377E-02 1.24050E-03-4.74976E-14
 -1      2055 1.21717E-02 1.30422E-03-4.65411E-14
 -1      2056 1.21667E-02 1.28079E-03-4.65494E-14
 -1      2057 1.26778E-02 1.11479E-03-4.94249E-14
 -1      2058 1.25069E-02 1.17640E-03-4.84588E-14
 -1      2059 1.25080E-02 1.15049E-03-4.84693E-14
 -1      2060 1.30224E-02 1.01173E-03-5.13670E-14
 -1      2061 1.28503E-02 1.05978E-03-5.03950E-14
 -1      2062 1.28549E-02 1.03191E-03-5.04067E-14
 -1      2063 1.33641E-02 9.40793E-04-5.33243E-14
 -1      2064 1.31943E-02 9.72410E-04-5.23437E-14
 -1      2065 1.31994E-02 9.43595E-04-5.23592E-14
 -1      2066 1.36979E-02 8.99024E-04-5.52963E-14
 -1      2067 1.35324E-02 9.16813E-04-5.43095E-14
 -1      2068 1.35361E-02 8.87896E-04-5.43269E-14
 -1      2069 1.40209E-02 8.77351E-04-5.72835E-14
 -1      2070 1.38609E-02 8.86322E-04-5.62869E-14
 -1      2071 1.38624E-02 8.57923E-04-5.63070E-14
 -1      2072 1.43326E-02 8.64911E-04-5.92819E-14
 -1      2073 1.41782E-02 8.70583E-04-5.82808E-14
 -1      2074 1.41779E-02 8.43191E-04-5.83001E-14
 -1      2075 1.46337E-02 8.51393E-04-6.12931E-14
 -1      2076 1.44844E-02 8.58787E-04-6.02872E-14
 -1      2077 1.44829E-02 8.32821E-04-6.03074E-14
 -1      2078 1.48762E-02 8.30595E-04-6.29677E-14
 -1      2079 1.47303E-02 8.42372E-04-6.19580E-14
 -1      2080 1.47285E-02 8.17828E-04-6.19800E-14
 -1      2081 1.49192E-02 7.97582E-04-6.33099E-14
 -1      2082 1.50509E-02 6.10769E-04-6.43098E-14
 -1      2083 1.50212E-02 6.39545E-04-6.40914E-14
 -1      2084 1.49904E-02 6.70759E-04-6.38710E-14
 -1      2085 1.49594E-02 7.04269E-04-6.36497E-14
 -1      2086 1.48844E-02 6.60244E-04-6.31034E-14
 -1      2087 1.49516E-02 7.31007E-04-6.35897E-14
 -1      2088 1.49235E-02 7.68258E-04-6.33703E-14
 -1      2089 1.48287E-02 7.78323E-04-6.27057E-14
 -1      2090 1.48431E-02 7.21078E-04-6.28249E-14
 -1      2091 1.51006E-02 5.61018E-04-6.47387E-14
 -1      2092 1.50775E-02 5.84837E-04-6.45233E-14
 -1      2093 1.49451E-02 5.99979E-04-6.35354E-14
 -1      2094 1.51318E-02 5.18596E-04-6.51826E-14
 -1      2095 1.51191E-02 5.39007E-04-6.49603E-14
 -1      2096 1.49933E-02 5.48144E-04-6.39660E-14
 -1      2097 1.51360E-02 4.81809E-04-6.56265E-14
 -1      2098 1.51376E-02 4.99844E-04-6.54043E-14
 -1      2099 1.50199E-02 5.03030E-04-6.44045E-14
 -1      2100 1.51093E-02 4.46989E-04-6.60805E-14
 -1      2101 1.51266E-02 4.64544E-04-6.58534E-14
 -1      2102 1.50172E-02 4.62327E-04-6.48490E-14
 -1      2103 1.50519E-02 4.10186E-04-6.65425E-14
 -1      2104 1.50843E-02 4.29189E-04-6.63098E-14
 -1      2105 1.49823E-02 4.22326E-04-6.53027E-14
 -1      2106 1.49679E-02 3.68020E-04-6.70060E-14
 -1      2107 1.50128E-02 3.90023E-04-6.67738E-14
 -1      2108 1.49164E-02 3.79266E-04-6.57603E-14
 -1      2109 1.48660E-02 3.19214E-04-6.74717E-14
 -1      2110 1.49189E-02 3.44638E-04-6.72353E-14
 -1      2111 1.48259E-02 3.30685E-04-6.62157E-14
 -1      2112 1.47505E-02 2.61279E-04-6.79384E-14
 -1      2113 1.48093E-02 2.91281E-04-6.77069E-14
 -1      2114 1.47177E-02 2.74755E-04-6.66715E-14
 -1      2115 1.46301E-02 1.95334E-04-6.83946E-14
 -1      2116 1.46905E-02 2.29208E-04-6.81684E-14
 -1      2117 1.45987E-02 2.10752E-04-6.71260E-14
 -1      2118 1.45109E-02 1.22469E-04-6.88428E-14
 -1      2119 1.45701E-02 1.59620E-04-6.86197E-14
 -1      2120 1.44769E-02 1.39920E-04-6.75719E-14
 -1      2121 1.33217E-02 4.61425E-04-4.91991E-14
 -1      2122 1.34548E-02 4.09854E-04-4.95225E-14
 -1      2123 1.36802E-02 3.05039E-04-5.02664E-14
 -1      2124 1.36737E-02 2.85569E-04-5.03442E-14
 -1      2125 1.35694E-02 3.64273E-04-4.98192E-14
 -1      2126 1.36410E-02 3.35328E-04-5.00659E-14
 -1      2127 1.29702E-02 6.14704E-04-4.84002E-14
 -1      2128 1.31426E-02 5.34957E-04-4.88105E-14
 -1      2129 1.25866E-02 8.17588E-04-4.73844E-14
 -1      2130 1.27672E-02 7.20692E-04-4.78503E-14
 -1      2131 3.27127E-04-8.90037E-05-1.27773E-16
 -1      2132 3.29239E-04-1.02148E-04-1.25632E-16
 -1      2133 4.46319E-04-1.45132E-04-1.83135E-16
 -1      2134 4.39992E-04-1.09968E-04-1.88611E-16
 -1      2135 1.18486E-02 1.19374E-03-4.51626E-14
 -1      2136 1.20138E-02 1.11933E-03-4.57179E-14
 -1      2137 1.14931E-02 1.27725E-03-4.38531E-14
 -1      2138 1.16406E-02 1.25674E-03-4.44127E-14
 -1      2139 1.11882E-02 1.23316E-03-4.27544E-14
 -1      2140 1.13393E-02 1.26901E-03-4.33030E-14
 -1      2141 1.14222E-02 1.28628E-03-4.34985E-14
 -1      2142 1.08115E-02 1.06586E-03-4.15945E-14
 -1      2143 1.09790E-02 1.15329E-03-4.20751E-14
 -1      2144 1.04368E-02 8.43633E-04-4.06383E-14
 -1      2145 1.06151E-02 9.53086E-04-4.10515E-14
 -1      2146 1.00353E-02 6.07976E-04-3.98389E-14
 -1      2147 1.02211E-02 7.14659E-04-4.01702E-14
 -1      2148 9.64884E-03 4.17610E-04-3.93116E-14
 -1      2149 9.82555E-03 5.08477E-04-3.96014E-14
 -1      2150 9.30745E-03 2.75533E-04-3.89535E-14
 -1      2151 9.44675E-03 3.25413E-04-3.90418E-14
 -1      2152 9.11955E-03 2.02733E-04-3.88427E-14
 -1      2153 9.19347E-03 2.30263E-04-3.88669E-14
 -1      2154 9.07522E-03 1.56688E-04-3.90106E-14
 -1      2155 9.07616E-03 1.75563E-04-3.89264E-14
 -1      2156 9.18898E-03 1.04054E-04-3.92940E-14
 -1      2157 9.11620E-03 1.29890E-04-3.91009E-14
 -1      2158 9.43748E-03 6.11866E-06-3.99350E-14
 -1      2159 9.30614E-03 5.54834E-05-3.96446E-14
 -1      2160 9.77304E-03-1.40002E-04-4.06914E-14
 -1      2161 9.60794E-03-6.55475E-05-4.03190E-14
 -1      2162 1.01464E-02-3.25320E-04-4.15905E-14
 -1      2163 9.97111E-03-2.33953E-04-4.11484E-14
 -1      2164 1.05178E-02-5.17609E-04-4.26001E-14
 -1      2165 1.03466E-02-4.25424E-04-4.21011E-14
 -1      2166 1.08814E-02-6.89085E-04-4.38557E-14
 -1      2167 1.07219E-02-6.18892E-04-4.32872E-14
 -1      2168 1.12133E-02-7.67310E-04-4.51043E-14
 -1      2169 1.10634E-02-7.43334E-04-4.45150E-14
 -1      2170 1.15393E-02-7.29846E-04-4.63599E-14
 -1      2171 1.13892E-02-7.62241E-04-4.57772E-14
 -1      2172 1.18953E-02-5.80969E-04-4.75529E-14
 -1      2173 1.17324E-02-6.61459E-04-4.70288E-14
 -1      2174 1.22841E-02-3.66819E-04-4.85799E-14
 -1      2175 1.21036E-02-4.69744E-04-4.81533E-14
 -1      2176 1.26858E-02-1.51902E-04-4.93335E-14
 -1      2177 1.24978E-02-2.54570E-04-4.89800E-14
 -1      2178 1.30782E-02 4.21259E-05-4.99660E-14
 -1      2179 1.28982E-02-4.16926E-05-4.97136E-14
 -1      2180 1.33933E-02 1.74121E-04-5.03580E-14
 -1      2181 1.32455E-02 1.13978E-04-5.01641E-14
 -1      2182 1.31406E-02 1.00392E-04-5.04899E-14
 -1      2183 1.36301E-02 2.61924E-04-5.04955E-14
 -1      2184 1.35505E-02 2.36867E-04-5.05378E-14
 -1      2185 1.22038E-02 1.02675E-03-4.62968E-14
 -1      2186 1.23790E-02 9.29577E-04-4.68098E-14
 -1      2187 1.28568E-02 6.48503E-04-4.84054E-14
 -1      2188 6.07865E-04-2.98159E-04-2.10769E-16
 -1      2189 1.24628E-02 8.64007E-04-4.72773E-14
 -1      2190 1.20938E-02 1.07186E-03-4.61220E-14
 -1      2191 6.63585E-04-2.92451E-04-2.73626E-16
 -1      2192 1.35139E-02 3.73787E-04-5.00397E-14
 -1      2193 1.36699E-02 3.17559E-04-5.05415E-14
 -1      2194 1.44228E-02 7.79237E-05-6.87024E-14
 -1      2195 1.32259E-02 4.79165E-04-4.93488E-14
 -1      2196 1.36609E-02 2.83511E-04-5.08957E-14
 -1      2197 1.34729E-02 2.23975E-04-5.08674E-14
 -1      2198 1.27728E-02-7.25295E-05-4.99123E-14
 -1      2199 1.23653E-02-2.94394E-04-4.91303E-14
 -1      2200 1.19778E-02-5.21516E-04-4.81269E-14
 -1      2201 1.16149E-02-7.04822E-04-4.68549E-14
 -1      2202 1.12927E-02-7.77586E-04-4.55113E-14
 -1      2203 1.09857E-02-7.27090E-04-4.41779E-14
 -1      2204 1.06343E-02-5.69543E-04-4.28310E-14
 -1      2205 1.02643E-02-3.64728E-04-4.16363E-14
 -1      2206 9.88686E-03-1.69942E-04-4.06713E-14
 -1      2207 9.52824E-03-1.06839E-05-3.98341E-14
 -1      2208 9.24306E-03 9.47290E-05-3.91033E-14
 -1      2209 9.08708E-03 1.45029E-04-3.86670E-14
 -1      2210 9.08990E-03 1.79496E-04-3.84945E-14
 -1      2211 9.24632E-03 2.30186E-04-3.84971E-14
 -1      2212 9.55288E-03 3.48467E-04-3.88506E-14
 -1      2213 9.95710E-03 5.36822E-04-3.93546E-14
 -1      2214 1.03537E-02 7.63102E-04-4.00539E-14
 -1      2215 1.11032E-02 1.20448E-03-4.22737E-14
 -1      2216 1.17368E-02 1.23611E-03-4.47946E-14
 -1      2217 1.07353E-02 1.00542E-03-4.10577E-14
 -1      2218 1.01656E-03 3.99861E-04-3.36306E-16
 -1      2219 8.72099E-04 3.63473E-04-2.41249E-16
 -1      2220 5.47809E-04-5.53195E-05-2.65670E-16
 -1      2221 5.48842E-04-7.20403E-05-2.67378E-16
 -1      2222 5.50258E-04-8.93647E-05-2.68408E-16
 -1      2223 5.52126E-04-1.07343E-04-2.68638E-16
 -1      2224 6.65313E-04-9.55222E-05-3.61649E-16
 -1      2225 5.46431E-04 8.86084E-06-2.52890E-16
 -1      2226 5.46412E-04-6.98311E-06-2.56956E-16
 -1      2227 5.47183E-04 4.08842E-05-2.42983E-16
 -1      2228 5.46685E-04 2.48036E-05-2.48296E-16
 -1      2229 6.61376E-04 1.99389E-05-3.38759E-16
 -1      2230 5.49004E-04 7.35166E-05-2.30894E-16
 -1      2231 5.47944E-04 5.70191E-05-2.37332E-16
 -1      2232 6.62697E-04 5.78085E-05-3.25328E-16
 -1      2233 5.52389E-04 1.08998E-04-2.14957E-16
 -1      2234 5.50469E-04 9.09191E-05-2.23468E-16
 -1      2235 6.65552E-04 9.72894E-05-3.08456E-16
 -1      2236 5.58259E-04 1.48338E-04-1.94330E-16
 -1      2237 5.54946E-04 1.28111E-04-2.05429E-16
 -1      2238 6.70633E-04 1.40070E-04-2.86799E-16
 -1      2239 5.68577E-04 1.93937E-04-1.66954E-16
 -1      2240 5.62744E-04 1.70219E-04-1.81780E-16
 -1      2241 6.79270E-04 1.87619E-04-2.58935E-16
 -1      2242 1.30200E-03 4.56803E-04-5.79140E-16
 -1      2243 1.15969E-03 4.30863E-04-4.48792E-16
 -1      2244 1.07174E-03 3.81385E-04-4.25400E-16
 -1      2245 9.15158E-04-3.46435E-04-5.04737E-16
 -1      2246 1.05923E-03-3.79735E-04-6.56579E-16
 -1      2247 1.23655E-02 9.12360E-04-4.72302E-14
 -1      2248 1.25458E-02 8.05410E-04-4.78082E-14
 -1      2249 1.20251E-03-4.08128E-04-8.29184E-16
 -1      2250 1.34531E-03-4.32010E-04-1.02257E-15
 -1      2251 1.11692E-03-3.60492E-04-7.54659E-16
 -1      2252 1.48746E-03-4.52223E-04-1.23618E-15
 -1      2253 1.62923E-03-4.69050E-04-1.47018E-15
 -1      2254 1.40327E-03-4.07335E-04-1.14203E-15
 -1      2255 1.77065E-03-4.83162E-04-1.72366E-15
 -1      2256 1.91182E-03-4.94780E-04-1.99724E-15
 -1      2257 1.68838E-03-4.40544E-04-1.60931E-15
 -1      2258 2.05283E-03-5.04395E-04-2.29013E-15
 -1      2259 2.19374E-03-5.12180E-04-2.60200E-15
 -1      2260 1.97255E-03-4.63547E-04-2.15482E-15
 -1      2261 2.33463E-03-5.18494E-04-2.93267E-15
 -1      2262 2.47550E-03-5.23479E-04-3.28219E-15
 -1      2263 2.25617E-03-4.78974E-04-2.77657E-15
 -1      2264 2.61643E-03-5.27395E-04-3.64918E-15
 -1      2265 2.75741E-03-5.30357E-04-4.03403E-15
 -1      2266 2.53957E-03-4.88848E-04-3.47152E-15
 -1      2267 2.89850E-03-5.32550E-04-4.43675E-15
 -1      2268 3.03967E-03-5.34065E-04-4.85616E-15
 -1      2269 2.82297E-03-4.94703E-04-4.23773E-15
 -1      2270 3.18096E-03-5.35033E-04-5.29188E-15
 -1      2271 3.32235E-03-5.35520E-04-5.74391E-15
 -1      2272 3.10653E-03-4.97683E-04-5.07225E-15
 -1      2273 3.46388E-03-5.35620E-04-6.21179E-15
 -1      2274 3.60551E-03-5.35379E-04-6.69519E-15
 -1      2275 3.39033E-03-4.98626E-04-5.97221E-15
 -1      2276 3.74727E-03-5.34858E-04-7.19302E-15
 -1      2277 3.88914E-03-5.34091E-04-7.70575E-15
 -1      2278 3.67442E-03-4.98125E-04-6.93392E-15
 -1      2279 4.03113E-03-5.33112E-04-8.23304E-15
 -1      2280 4.17323E-03-5.31944E-04-8.77487E-15
 -1      2281 3.95881E-03-4.96579E-04-7.95475E-15
 -1      2282 4.31545E-03-5.30603E-04-9.33037E-15
 -1      2283 4.45777E-03-5.29102E-04-9.89798E-15
 -1      2284 4.24351E-03-4.94240E-04-9.03294E-15
 -1      2285 4.60022E-03-5.27444E-04-1.04793E-14
 -1      2286 4.74277E-03-5.25635E-04-1.10751E-14
 -1      2287 4.52852E-03-4.91241E-04-1.01659E-14
 -1      2288 4.88545E-03-5.23668E-04-1.16827E-14
 -1      2289 5.02826E-03-5.21545E-04-1.23021E-14
 -1      2290 4.81387E-03-4.87632E-04-1.13504E-14
 -1      2291 5.17119E-03-5.19252E-04-1.29362E-14
 -1      2292 5.31427E-03-5.16790E-04-1.35831E-14
 -1      2293 5.09957E-03-4.83396E-04-1.25887E-14
 -1      2294 5.45750E-03-5.14141E-04-1.42428E-14
 -1      2295 5.60090E-03-5.11307E-04-1.49160E-14
 -1      2296 5.38567E-03-4.78482E-04-1.38792E-14
 -1      2297 5.74447E-03-5.08274E-04-1.56022E-14
 -1      2298 5.88827E-03-5.05046E-04-1.63029E-14
 -1      2299 5.67224E-03-4.72823E-04-1.52216E-14
 -1      2300 6.03227E-03-5.01615E-04-1.70157E-14
 -1      2301 6.17654E-03-4.97996E-04-1.77427E-14
 -1      2302 5.95939E-03-4.66368E-04-1.66187E-14
 -1      2303 6.32108E-03-4.94194E-04-1.84838E-14
 -1      2304 6.46595E-03-4.90236E-04-1.92357E-14
 -1      2305 6.24726E-03-4.59115E-04-1.80699E-14
 -1      2306 6.61114E-03-4.86152E-04-2.00024E-14
 -1      2307 6.75675E-03-4.81987E-04-2.07800E-14
 -1      2308 6.53601E-03-4.51158E-04-1.95723E-14
 -1      2309 6.90276E-03-4.77807E-04-2.15685E-14
 -1      2310 7.04928E-03-4.73686E-04-2.23697E-14
 -1      2311 6.82587E-03-4.42742E-04-2.11234E-14
 -1      2312 7.19630E-03-4.69737E-04-2.31820E-14
 -1      2313 7.34394E-03-4.66073E-04-2.40021E-14
 -1      2314 7.11715E-03-4.34336E-04-2.27205E-14
 -1      2315 7.49219E-03-4.62871E-04-2.48315E-14
 -1      2316 7.64117E-03-4.60296E-04-2.56723E-14
 -1      2317 7.41021E-03-4.26723E-04-2.43578E-14
 -1      2318 7.79092E-03-4.58601E-04-2.65202E-14
 -1      2319 7.94153E-03-4.58018E-04-2.73761E-14
 -1      2320 7.70553E-03-4.21104E-04-2.60309E-14
 -1      2321 8.09306E-03-4.58883E-04-2.82421E-14
 -1      2322 8.24558E-03-4.61506E-04-2.91156E-14
 -1      2323 8.00375E-03-4.19199E-04-2.77403E-14
 -1      2324 8.39923E-03-4.66295E-04-2.99965E-14
 -1      2325 8.55397E-03-4.73645E-04-3.08856E-14
 -1      2326 8.30566E-03-4.23342E-04-2.94836E-14
 -1      2327 8.71004E-03-4.83993E-04-3.17805E-14
 -1      2328 8.86727E-03-4.97797E-04-3.26819E-14
 -1      2329 8.61227E-03-4.36502E-04-3.12554E-14
 -1      2330 9.02598E-03-5.15435E-04-3.35907E-14
 -1      2331 9.18578E-03-5.37347E-04-3.45065E-14
 -1      2332 8.92466E-03-4.62157E-04-3.30534E-14
 -1      2333 9.34706E-03-5.63708E-04-3.54290E-14
 -1      2334 9.50911E-03-5.94746E-04-3.63588E-14
 -1      2335 9.24373E-03-5.03877E-04-3.48791E-14
 -1      2336 9.67230E-03-6.30220E-04-3.72949E-14
 -1      2337 9.83558E-03-6.69809E-04-3.82388E-14
 -1      2338 9.56958E-03-5.64338E-04-3.67320E-14
 -1      2339 9.99915E-03-7.12621E-04-3.91906E-14
 -1      2340 1.01618E-02-7.57346E-04-4.01485E-14
 -1      2341 9.90054E-03-6.43427E-04-3.86114E-14
 -1      2342 1.03233E-02-8.02296E-04-4.11153E-14
 -1      2343 1.04829E-02-8.44962E-04-4.20889E-14
 -1      2344 1.02323E-02-7.35310E-04-4.05221E-14
 -1      2345 1.06401E-02-8.83034E-04-4.30704E-14
 -1      2346 1.07951E-02-9.13299E-04-4.40578E-14
 -1      2347 1.05589E-02-8.25557E-04-4.24602E-14
 -1      2348 1.09473E-02-9.33581E-04-4.50519E-14
 -1      2349 1.10985E-02-9.41304E-04-4.60530E-14
 -1      2350 1.08755E-02-8.91575E-04-4.44291E-14
 -1      2351 1.12480E-02-9.35415E-04-4.70573E-14
 -1      2352 1.13984E-02-9.15587E-04-4.80696E-14
 -1      2353 1.11831E-02-9.09820E-04-4.64241E-14
 -1      2354 1.15492E-02-8.82494E-04-4.90918E-14
 -1      2355 1.17024E-02-8.38284E-04-5.01181E-14
 -1      2356 1.14893E-02-8.68322E-04-4.84460E-14
 -1      2357 1.18573E-02-7.84898E-04-5.11481E-14
 -1      2358 1.20146E-02-7.25476E-04-5.21848E-14
 -1      2359 1.18023E-02-7.74780E-04-5.04938E-14
 -1      2360 1.21736E-02-6.62317E-04-5.32291E-14
 -1      2361 1.23337E-02-5.98090E-04-5.42793E-14
 -1      2362 1.21250E-02-6.50685E-04-5.25621E-14
 -1      2363 1.24946E-02-5.34519E-04-5.53341E-14
 -1      2364 1.26552E-02-4.73068E-04-5.63947E-14
 -1      2365 1.24533E-02-5.19284E-04-5.46545E-14
 -1      2366 1.28155E-02-4.14622E-04-5.74566E-14
 -1      2367 1.29744E-02-3.59514E-04-5.85228E-14
 -1      2368 1.27811E-02-3.96180E-04-5.67667E-14
 -1      2369 1.31323E-02-3.07871E-04-5.95918E-14
 -1      2370 1.32883E-02-2.59343E-04-6.06579E-14
 -1      2371 1.31032E-02-2.87642E-04-5.88899E-14
 -1      2372 1.34428E-02-2.13536E-04-6.17291E-14
 -1      2373 1.35955E-02-1.69763E-04-6.28031E-14
 -1      2374 1.34175E-02-1.93098E-04-6.10226E-14
 -1      2375 1.37465E-02-1.27355E-04-6.38777E-14
 -1      2376 1.38958E-02-8.54953E-05-6.49559E-14
 -1      2377 1.37235E-02-1.08205E-04-6.31600E-14
 -1      2378 1.86511E-03 5.25255E-04-1.28241E-15
 -1      2379 1.72490E-03 5.12529E-04-1.07981E-15
 -1      2380 2.14515E-03 5.44460E-04-1.74288E-15
 -1      2381 2.00518E-03 5.35839E-04-1.50361E-15
 -1      2382 1.92446E-03 4.94626E-04-1.44879E-15
 -1      2383 2.42516E-03 5.57128E-04-2.27411E-15
 -1      2384 2.28515E-03 5.51507E-04-1.99947E-15
 -1      2385 2.20653E-03 5.11804E-04-1.93351E-15
 -1      2386 2.70552E-03 5.65049E-04-2.87637E-15
 -1      2387 2.56530E-03 5.61601E-04-2.56651E-15
 -1      2388 2.48844E-03 5.22982E-04-2.48808E-15
 -1      2389 2.98644E-03 5.69554E-04-3.54930E-15
 -1      2390 2.84592E-03 5.67667E-04-3.20394E-15
 -1      2391 2.77049E-03 5.29812E-04-3.11350E-15
 -1      2392 3.26800E-03 5.71625E-04-4.29108E-15
 -1      2393 3.12715E-03 5.70849E-04-3.91217E-15
 -1      2394 3.05288E-03 5.33525E-04-3.80914E-15
 -1      2395 3.55023E-03 5.71967E-04-5.09999E-15
 -1      2396 3.40904E-03 5.71979E-04-4.68650E-15
 -1      2397 3.33568E-03 5.35024E-04-4.57234E-15
 -1      2398 3.83309E-03 5.71067E-04-5.97435E-15
 -1      2399 3.69159E-03 5.71649E-04-5.52913E-15
 -1      2400 3.61893E-03 5.34952E-04-5.40190E-15
 -1      2401 4.11657E-03 5.69244E-04-6.91390E-15
 -1      2402 3.97476E-03 5.70256E-04-6.43596E-15
 -1      2403 3.90264E-03 5.33747E-04-6.29757E-15
 -1      2404 4.40063E-03 5.66682E-04-7.91670E-15
 -1      2405 4.25853E-03 5.68046E-04-7.40745E-15
 -1      2406 4.18679E-03 5.31688E-04-7.25654E-15
 -1      2407 4.68527E-03 5.63464E-04-8.97927E-15
 -1      2408 4.54288E-03 5.65151E-04-8.44096E-15
 -1      2409 4.47140E-03 5.28930E-04-8.27857E-15
 -1      2410 4.97049E-03 5.59594E-04-1.01019E-14
 -1      2411 4.82781E-03 5.61610E-04-9.53296E-15
 -1      2412 4.75645E-03 5.25529E-04-9.35866E-15
 -1      2413 5.25636E-03 5.55022E-04-1.12834E-14
 -1      2414 5.11334E-03 5.57397E-04-1.06858E-14
 -1      2415 5.04198E-03 5.21471E-04-1.04987E-14
 -1      2416 5.54298E-03 5.49661E-04-1.25237E-14
 -1      2417 5.39957E-03 5.52441E-04-1.18954E-14
 -1      2418 5.32804E-03 5.16692E-04-1.16973E-14
 -1      2419 5.83049E-03 5.43417E-04-1.38230E-14
 -1      2420 5.68661E-03 5.46650E-04-1.31662E-14
 -1      2421 5.61472E-03 5.11096E-04-1.29541E-14
 -1      2422 6.11913E-03 5.36213E-04-1.51791E-14
 -1      2423 5.97465E-03 5.39933E-04-1.44943E-14
 -1      2424 5.90216E-03 5.04587E-04-1.42704E-14
 -1      2425 6.40917E-03 5.28026E-04-1.65850E-14
 -1      2426 6.26394E-03 5.32234E-04-1.58761E-14
 -1      2427 6.19052E-03 4.97091E-04-1.56404E-14
 -1      2428 6.70100E-03 5.18941E-04-1.80412E-14
 -1      2429 6.55482E-03 5.23579E-04-1.73072E-14
 -1      2430 6.48004E-03 4.88599E-04-1.70613E-14
 -1      2431 6.99506E-03 5.09225E-04-1.95415E-14
 -1      2432 6.84769E-03 5.14131E-04-1.87856E-14
 -1      2433 6.77099E-03 4.79224E-04-1.85287E-14
 -1      2434 7.29192E-03 4.99430E-04-2.10783E-14
 -1      2435 7.14307E-03 5.04285E-04-2.03046E-14
 -1      2436 7.06373E-03 4.69275E-04-2.00383E-14
 -1      2437 7.59223E-03 4.90544E-04-2.26561E-14
 -1      2438 7.44156E-03 4.94791E-04-2.18635E-14
 -1      2439 7.35867E-03 4.59369E-04-2.15877E-14
 -1      2440 7.89673E-03 4.84194E-04-2.42616E-14
 -1      2441 7.74386E-03 4.86925E-04-2.34551E-14
 -1      2442 7.65632E-03 4.50582E-04-2.31734E-14
 -1      2443 8.20630E-03 4.82912E-04-2.58974E-14
 -1      2444 8.05079E-03 4.82730E-04-2.50762E-14
 -1      2445 7.95729E-03 4.44653E-04-2.47900E-14
 -1      2446 8.52191E-03 4.90461E-04-2.75555E-14
 -1      2447 8.36326E-03 4.85309E-04-2.67235E-14
 -1      2448 8.26240E-03 4.44252E-04-2.64317E-14
 -1      2449 8.84470E-03 5.12136E-04-2.92334E-14
 -1      2450 8.68235E-03 4.99153E-04-2.83919E-14
 -1      2451 8.57280E-03 4.53284E-04-2.80969E-14
 -1      2452 9.17596E-03 5.54887E-04-3.09283E-14
 -1      2453 9.00929E-03 5.30383E-04-3.00783E-14
 -1      2454 8.89011E-03 4.77194E-04-2.97819E-14
 -1      2455 9.51687E-03 6.26836E-04-3.26399E-14
 -1      2456 9.34537E-03 5.86656E-04-3.17818E-14
 -1      2457 9.21663E-03 5.23114E-04-3.14828E-14
 -1      2458 9.86782E-03 7.35401E-04-3.43712E-14
 -1      2459 9.69151E-03 6.76108E-04-3.35029E-14
 -1      2460 9.55511E-03 5.99481E-04-3.32032E-14
 -1      2461 1.02267E-02 8.83047E-04-3.61294E-14
 -1      2462 1.00471E-02 8.04456E-04-3.52471E-14
 -1      2463 9.90760E-03 7.14257E-04-3.49453E-14
 -1      2464 1.05870E-02 1.05978E-03-3.79135E-14
 -1      2465 1.04078E-02 9.69255E-04-3.70187E-14
 -1      2466 1.02727E-02 8.70527E-04-3.67150E-14
 -1      2467 1.09379E-02 1.23461E-03-3.97204E-14
 -1      2468 1.07643E-02 1.15044E-03-3.88138E-14
 -1      2469 1.06420E-02 1.05655E-03-3.85087E-14
 -1      2470 1.12725E-02 1.35921E-03-4.15526E-14
 -1      2471 1.11065E-02 1.30674E-03-4.06336E-14
 -1      2472 1.10012E-02 1.23479E-03-4.03273E-14
 -1      2473 1.15969E-02 1.39123E-03-4.34095E-14
 -1      2474 1.14339E-02 1.38821E-03-4.24793E-14
 -1      2475 1.13428E-02 1.34760E-03-4.21724E-14
 -1      2476 1.19268E-02 1.32643E-03-4.52887E-14
 -1      2477 1.17595E-02 1.36904E-03-4.43445E-14
 -1      2478 1.16774E-02 1.35188E-03-4.40371E-14
 -1      2479 1.22713E-02 1.20194E-03-4.71944E-14
 -1      2480 1.20971E-02 1.26804E-03-4.62388E-14
 -1      2481 1.20231E-02 1.25705E-03-4.59265E-14
 -1      2482 1.26252E-02 1.06735E-03-4.91227E-14
 -1      2483 1.24482E-02 1.13335E-03-4.81566E-14
 -1      2484 1.23843E-02 1.11626E-03-4.78425E-14
 -1      2485 1.29778E-02 9.55572E-04-5.10691E-14
 -1      2486 1.28027E-02 1.00750E-03-5.00936E-14
 -1      2487 1.27492E-02 9.81876E-04-4.97809E-14
 -1      2488 1.33214E-02 8.78534E-04-5.30302E-14
 -1      2489 1.31514E-02 9.12730E-04-5.20493E-14
 -1      2490 1.31049E-02 8.80440E-04-5.17351E-14
 -1      2491 1.36531E-02 8.33616E-04-5.50056E-14
 -1      2492 1.34890E-02 8.52588E-04-5.40167E-14
 -1      2493 1.34456E-02 8.16310E-04-5.37039E-14
 -1      2494 1.39730E-02 8.11640E-04-5.69927E-14
 -1      2495 1.38146E-02 8.20416E-04-5.59965E-14
 -1      2496 1.37712E-02 7.82409E-04-5.56861E-14
 -1      2497 1.42822E-02 8.01614E-04-5.89913E-14
 -1      2498 1.41289E-02 8.05788E-04-5.79902E-14
 -1      2499 1.40843E-02 7.68042E-04-5.76794E-14
 -1      2500 1.45821E-02 7.92998E-04-6.10023E-14
 -1      2501 1.44332E-02 7.97738E-04-5.99956E-14
 -1      2502 1.43873E-02 7.62195E-04-5.96830E-14
 -1      2503 1.47331E-02 7.87021E-04-6.20393E-14
 -1      2504 1.48862E-02 5.31344E-04-6.31912E-14
 -1      2505 1.48655E-02 5.57359E-04-6.29762E-14
 -1      2506 1.49077E-02 4.84104E-04-6.36268E-14
 -1      2507 1.49006E-02 5.07181E-04-6.34091E-14
 -1      2508 1.47794E-02 5.11776E-04-6.24177E-14
 -1      2509 1.47789E-02 6.45986E-04-6.23370E-14
 -1      2510 1.47455E-02 6.79996E-04-6.21191E-14
 -1      2511 1.48399E-02 5.84902E-04-6.27616E-14
 -1      2512 1.48107E-02 6.14329E-04-6.25491E-14
 -1      2513 1.46738E-02 6.28814E-04-6.15659E-14
 -1      2514 1.47356E-02 5.66408E-04-6.19896E-14
 -1      2515 1.48976E-02 4.40314E-04-6.40707E-14
 -1      2516 1.49069E-02 4.62152E-04-6.38482E-14
 -1      2517 1.47953E-02 4.63067E-04-6.28517E-14
 -1      2518 1.48537E-02 3.95999E-04-6.45227E-14
 -1      2519 1.48798E-02 4.18603E-04-6.42951E-14
 -1      2520 1.47768E-02 4.16858E-04-6.32920E-14
 -1      2521 1.47789E-02 3.47417E-04-6.49729E-14
 -1      2522 1.48198E-02 3.72531E-04-6.47467E-14
 -1      2523 1.47232E-02 3.68708E-04-6.37370E-14
 -1      2524 1.46817E-02 2.93089E-04-6.54170E-14
 -1      2525 1.47328E-02 3.21204E-04-6.51953E-14
 -1      2526 1.46398E-02 3.15346E-04-6.41780E-14
 -1      2527 1.45672E-02 2.30322E-04-6.58688E-14
 -1      2528 1.46259E-02 2.62651E-04-6.56439E-14
 -1      2529 1.45342E-02 2.54454E-04-6.46192E-14
 -1      2530 1.44450E-02 1.60540E-04-6.63124E-14
 -1      2531 1.45066E-02 1.96206E-04-6.60918E-14
 -1      2532 1.44144E-02 1.85391E-04-6.50613E-14
 -1      2533 1.43222E-02 8.50417E-05-6.67495E-14
 -1      2534 1.43834E-02 1.23360E-04-6.65308E-14
 -1      2535 1.42896E-02 1.09951E-04-6.54960E-14
 -1      2536 1.36590E-02 3.24460E-04-5.09999E-14
 -1      2537 1.36957E-02 3.12285E-04-5.12046E-14
 -1      2538 1.31558E-02 4.97785E-04-4.95717E-14
 -1      2539 1.33179E-02 4.34537E-04-4.99647E-14
 -1      2540 1.58440E-03 4.97114E-04-8.94968E-16
 -1      2541 1.44347E-03 4.78799E-04-7.27879E-16
 -1      2542 1.64175E-03 4.69254E-04-1.03577E-15
 -1      2543 1.42961E-02 3.86826E-05-6.77182E-14
 -1      2544 1.36944E-02 3.00441E-04-5.13546E-14
 -1      2545 1.36616E-02 2.91704E-04-5.15080E-14
 -1      2546 1.37138E-02 3.12513E-04-5.18158E-14
 -1      2547 1.34664E-02 3.81963E-04-5.03528E-14
 -1      2548 1.35737E-02 3.51110E-04-5.06535E-14
 -1      2549 5.88491E-04-2.38015E-04-2.47144E-16
 -1      2550 7.81287E-04-3.04879E-04-3.87724E-16
 -1      2551 8.40741E-04-2.93652E-04-4.63374E-16
 -1      2552 5.78961E-04-2.10223E-04-2.56549E-16
 -1      2553 1.28525E-02-9.76336E-06-5.05418E-14
 -1      2554 1.26580E-02-1.10744E-04-5.01615E-14
 -1      2555 5.46625E-04-2.29093E-05-2.60371E-16
 -1      2556 5.47081E-04-3.89563E-05-2.63298E-16
 -1      2557 6.62550E-04-5.58361E-05-3.57055E-16
 -1      2558 6.61325E-04-1.77117E-05-3.49343E-16
 -1      2559 1.16571E-02 1.27098E-03-4.44509E-14
 -1      2560 1.18259E-02 1.20856E-03-4.51979E-14
 -1      2561 1.06757E-02 9.54937E-04-4.04923E-14
 -1      2562 1.08396E-02 1.06285E-03-4.10282E-14
 -1      2563 1.13592E-02 1.28848E-03-4.31074E-14
 -1      2564 1.14795E-02 1.29669E-03-4.36538E-14
 -1      2565 1.10283E-02 1.16879E-03-4.17337E-14
 -1      2566 1.11961E-02 1.24645E-03-4.24062E-14
 -1      2567 1.02770E-02 6.97417E-04-3.93881E-14
 -1      2568 1.04630E-02 8.17455E-04-3.98499E-14
 -1      2569 9.84757E-03 4.60983E-04-3.88019E-14
 -1      2570 1.00304E-02 5.56459E-04-3.90350E-14
 -1      2571 9.45700E-03 2.88412E-04-3.82669E-14
 -1      2572 9.64545E-03 3.65912E-04-3.85324E-14
 -1      2573 9.71756E-03 3.93122E-04-3.82154E-14
 -1      2574 9.19142E-03 2.01294E-04-3.80158E-14
 -1      2575 9.29842E-03 2.31671E-04-3.81015E-14
 -1      2576 9.06134E-03 1.63245E-04-3.80216E-14
 -1      2577 9.09975E-03 1.73199E-04-3.79384E-14
 -1      2578 9.09287E-03 1.40694E-04-3.81935E-14
 -1      2579 9.05873E-03 1.50962E-04-3.81068E-14
 -1      2580 9.04135E-03 1.51448E-04-3.75505E-14
 -1      2581 9.30624E-03 8.10456E-05-3.88404E-14
 -1      2582 9.19259E-03 1.11907E-04-3.84935E-14
 -1      2583 9.59454E-03-2.42457E-05-3.95976E-14
 -1      2584 9.43855E-03 3.52553E-05-3.92176E-14
 -1      2585 9.35700E-03 5.90884E-05-3.86052E-14
 -1      2586 9.97187E-03-1.99352E-04-4.05050E-14
 -1      2587 9.79658E-03-1.12696E-04-4.00514E-14
 -1      2588 1.03138E-02-3.87667E-04-4.15148E-14
 -1      2589 1.01442E-02-2.90154E-04-4.10071E-14
 -1      2590 1.00243E-02-2.34857E-04-4.03831E-14
 -1      2591 1.07357E-02-6.24769E-04-4.30689E-14
 -1      2592 1.05628E-02-5.27628E-04-4.23826E-14
 -1      2593 1.10342E-02-7.51731E-04-4.43837E-14
 -1      2594 1.08914E-02-6.97128E-04-4.37248E-14
 -1      2595 1.07975E-02-6.63518E-04-4.32712E-14
 -1      2596 1.13573E-02-7.80247E-04-4.59486E-14
 -1      2597 1.12205E-02-7.85196E-04-4.52742E-14
 -1      2598 1.16840E-02-6.72250E-04-4.73946E-14
 -1      2599 1.15284E-02-7.39154E-04-4.67229E-14
 -1      2600 1.20483E-02-4.65978E-04-4.87477E-14
 -1      2601 1.18729E-02-5.73752E-04-4.81451E-14
 -1      2602 1.24698E-02-2.14644E-04-4.97583E-14
 -1      2603 1.22854E-02-3.24583E-04-4.93574E-14
 -1      2604 1.25747E-02-1.51115E-04-5.03891E-14
 -1      2605 1.32170E-02 1.49619E-04-5.10924E-14
 -1      2606 1.30617E-02 8.74967E-05-5.08947E-14
 -1      2607 1.35415E-02 2.56512E-04-5.14475E-14
 -1      2608 1.33888E-02 2.11454E-04-5.12663E-14
 -1      2609 1.20415E-02 1.10227E-03-4.60704E-14
 -1      2610 1.21984E-02 1.00914E-03-4.66504E-14
 -1      2611 1.23057E-02 9.54700E-04-4.71784E-14
 -1      2612 7.57862E-04 3.34263E-04-1.73771E-16
 -1      2613 6.11454E-04 2.84895E-04-1.10426E-16
 -1      2614 5.84733E-04 2.58126E-04-1.18869E-16
 -1      2615 8.13689E-04 3.22941E-04-2.39067E-16
 -1      2616 1.27482E-02 6.94139E-04-4.84207E-14
 -1      2617 1.29343E-02 5.98878E-04-4.89745E-14
 -1      2618 1.19441E-02 1.16071E-03-4.57237E-14
 -1      2619 6.70251E-04-1.37988E-04-3.62367E-16
 -1      2620 5.54611E-04-1.26244E-04-2.67784E-16
 -1      2621 5.57760E-04-1.46232E-04-2.65752E-16
 -1      2622 1.35775E-03 4.32786E-04-6.94689E-16
 -1      2623 5.72238E-04 2.27932E-04-1.39713E-16
 -1      2624 1.26527E-02 7.53158E-04-4.83742E-14
 -1      2625 1.29568E-02 4.38868E-05-5.11463E-14
 -1      2626 1.36841E-02 2.97342E-04-5.23689E-14
 -1      2627 1.36221E-02 2.82788E-04-5.19084E-14
 -1      2628 1.35718E-02 2.70397E-04-5.23101E-14
 -1      2629 1.46863E-02 7.55676E-04-6.17274E-14
 -1      2630 1.30576E-02 5.47380E-04-4.95865E-14
 -1      2631 1.46953E-02 7.26163E-04-6.17859E-14
 -1      2632 1.36371E-02 3.37855E-04-5.13144E-14
 -1      2633 1.34105E-02 4.05917E-04-5.05764E-14
 -1      2634 6.89520E-04 2.51291E-04-2.09983E-16
 -1      2635 5.71832E-04-1.85249E-04-2.63163E-16
 -1      2636 1.21684E-02-3.92507E-04-4.93759E-14
 -1      2637 1.17746E-02-6.27078E-04-4.80120E-14
 -1      2638 1.11142E-02-7.75821E-04-4.48150E-14
 -1      2639 1.04236E-02-4.58748E-04-4.17470E-14
 -1      2640 9.67402E-03-6.37650E-05-3.94309E-14
 -1      2641 9.12373E-03 1.24696E-04-3.79311E-14
 -1      2642 9.37071E-03 2.51826E-04-3.77845E-14
 -1      2643 1.01454E-02 6.21470E-04-3.88335E-14
 -1      2644 1.09427E-02 1.12632E-03-4.11622E-14
 -1      2645 1.12676E-02 1.27259E-03-4.25622E-14
 -1      2646 1.05680E-02 8.89591E-04-3.98226E-14
 -1      2647 1.15814E-02 1.29230E-03-4.40573E-14
 -1      2648 1.41238E-02-2.15354E-05-6.66668E-14
 -1      2649 1.42448E-02 4.36434E-05-6.67443E-14
 -1      2650 1.41489E-02 2.85880E-05-6.57042E-14
 -1      2651 1.39946E-02-5.80124E-05-6.56892E-14
 -1      2652 1.45868E-02 7.09641E-04-6.10229E-14
 -1      2653 9.12641E-03 1.78047E-04-3.75432E-14
 -1      2654 1.14402E-02-7.65776E-04-4.64831E-14
 -1      2655 1.33234E-02 1.92778E-04-5.16732E-14
 -1      2656 1.39728E-02-4.10150E-05-6.49641E-14
 -1      2657 7.80240E-04 7.73642E-05-4.19518E-16
 -1      2658 7.78984E-04 5.54947E-05-4.28924E-16
 -1      2659 7.78141E-04 3.35737E-05-4.37354E-16
 -1      2660 7.77721E-04 1.19008E-05-4.45051E-16
 -1      2661 8.96563E-04 4.96996E-05-5.47956E-16
 -1      2662 7.91554E-04 1.73189E-04-3.68683E-16
 -1      2663 7.87557E-04 1.47768E-04-3.83794E-16
 -1      2664 8.03394E-04 2.28391E-04-3.32593E-16
 -1      2665 7.96784E-04 1.99999E-04-3.51973E-16
 -1      2666 9.14854E-04 2.07893E-04-4.60312E-16
 -1      2667 1.12977E-03 3.62026E-04-5.19983E-16
 -1      2668 9.86179E-04 3.32955E-04-3.98959E-16
 -1      2669 6.88563E-04-2.04067E-04-3.59237E-16
 -1      2670 1.30642E-02 8.85645E-05-5.19529E-14
 -1      2671 1.28765E-02 2.58506E-06-5.15984E-14
 -1      2672 1.32010E-03-3.62876E-04-1.04949E-15
 -1      2673 1.46333E-03-3.81826E-04-1.26334E-15
 -1      2674 1.60637E-03-3.97890E-04-1.49681E-15
 -1      2675 1.74929E-03-4.11284E-04-1.74962E-15
 -1      2676 1.52495E-03-3.55490E-04-1.38623E-15
 -1      2677 1.89206E-03-4.22471E-04-2.02190E-15
 -1      2678 2.03471E-03-4.31637E-04-2.31304E-15
 -1      2679 1.81164E-03-3.81358E-04-1.89116E-15
 -1      2680 2.17726E-03-4.39155E-04-2.62293E-15
 -1      2681 2.31972E-03-4.45177E-04-2.95117E-15
 -1      2682 2.09809E-03-3.99159E-04-2.47159E-15
 -1      2683 2.46213E-03-4.49989E-04-3.29686E-15
 -1      2684 2.60449E-03-4.53711E-04-3.66047E-15
 -1      2685 2.38427E-03-4.10893E-04-3.12479E-15
 -1      2686 2.74684E-03-4.56559E-04-4.04207E-15
 -1      2687 2.88917E-03-4.58625E-04-4.44069E-15
 -1      2688 2.67022E-03-4.18164E-04-3.84918E-15
 -1      2689 3.03152E-03-4.60067E-04-4.85598E-15
 -1      2690 3.17387E-03-4.60955E-04-5.28733E-15
 -1      2691 2.95600E-03-4.22208E-04-4.64249E-15
 -1      2692 3.31625E-03-4.61401E-04-5.73479E-15
 -1      2693 3.45865E-03-4.61455E-04-6.19905E-15
 -1      2694 3.24169E-03-4.23952E-04-5.50112E-15
 -1      2695 3.60109E-03-4.61194E-04-6.67757E-15
 -1      2696 3.74356E-03-4.60654E-04-7.17108E-15
 -1      2697 3.52732E-03-4.24067E-04-6.42368E-15
 -1      2698 3.88607E-03-4.59884E-04-7.67996E-15
 -1      2699 4.02861E-03-4.58906E-04-8.20250E-15
 -1      2700 3.81293E-03-4.23021E-04-7.40705E-15
 -1      2701 4.17121E-03-4.57748E-04-8.73855E-15
 -1      2702 4.31384E-03-4.56423E-04-9.28948E-15
 -1      2703 4.09856E-03-4.21118E-04-8.44778E-15
 -1      2704 4.45651E-03-4.54944E-04-9.85378E-15
 -1      2705 4.59924E-03-4.53314E-04-1.04310E-14
 -1      2706 4.38422E-03-4.18537E-04-9.54395E-15
 -1      2707 4.74201E-03-4.51535E-04-1.10219E-14
 -1      2708 4.88484E-03-4.49606E-04-1.16254E-14
 -1      2709 4.66992E-03-4.15361E-04-1.06951E-14
 -1      2710 5.02771E-03-4.47519E-04-1.22427E-14
 -1      2711 5.17065E-03-4.45271E-04-1.28734E-14
 -1      2712 4.95568E-03-4.11599E-04-1.18991E-14
 -1      2713 5.31365E-03-4.42848E-04-1.35167E-14
 -1      2714 5.45673E-03-4.40247E-04-1.41734E-14
 -1      2715 5.24151E-03-4.07210E-04-1.31568E-14
 -1      2716 5.59988E-03-4.37455E-04-1.48436E-14
 -1      2717 5.74311E-03-4.34467E-04-1.55274E-14
 -1      2718 5.52744E-03-4.02130E-04-1.44676E-14
 -1      2719 5.88644E-03-4.31275E-04-1.62246E-14
 -1      2720 6.02988E-03-4.27881E-04-1.69349E-14
 -1      2721 5.81349E-03-3.96287E-04-1.58320E-14
 -1      2722 6.17342E-03-4.24284E-04-1.76583E-14
 -1      2723 6.31712E-03-4.20495E-04-1.83964E-14
 -1      2724 6.09970E-03-3.89636E-04-1.72505E-14
 -1      2725 6.46095E-03-4.16531E-04-1.91461E-14
 -1      2726 6.60498E-03-4.12415E-04-1.99067E-14
 -1      2727 6.38612E-03-3.82189E-04-1.87212E-14
 -1      2728 6.74918E-03-4.08192E-04-2.06812E-14
 -1      2729 6.89364E-03-4.03905E-04-2.14658E-14
 -1      2730 6.67285E-03-3.74062E-04-2.02402E-14
 -1      2731 7.03834E-03-3.99634E-04-2.22620E-14
 -1      2732 7.18336E-03-3.95456E-04-2.30689E-14
 -1      2733 6.96004E-03-3.65527E-04-2.18071E-14
 -1      2734 7.32872E-03-3.91496E-04-2.38855E-14
 -1      2735 7.47452E-03-3.87875E-04-2.47108E-14
 -1      2736 7.24793E-03-3.57084E-04-2.34153E-14
 -1      2737 7.62078E-03-3.84776E-04-2.55463E-14
 -1      2738 7.76764E-03-3.82385E-04-2.63898E-14
 -1      2739 7.53690E-03-3.49539E-04-2.50624E-14
 -1      2740 7.91516E-03-3.80944E-04-2.72416E-14
 -1      2741 8.06350E-03-3.80728E-04-2.81022E-14
 -1      2742 7.82755E-03-3.44107E-04-2.67455E-14
 -1      2743 8.21278E-03-3.82039E-04-2.89729E-14
 -1      2744 8.36315E-03-3.85266E-04-2.98495E-14
 -1      2745 8.12083E-03-3.42513E-04-2.84634E-14
 -1      2746 8.51487E-03-3.90752E-04-3.07329E-14
 -1      2747 8.66803E-03-3.99025E-04-3.16234E-14
 -1      2748 8.41812E-03-3.47107E-04-3.02131E-14
 -1      2749 8.82303E-03-4.10428E-04-3.25189E-14
 -1      2750 8.97984E-03-4.25630E-04-3.34227E-14
 -1      2751 8.72136E-03-3.60969E-04-3.19879E-14
 -1      2752 9.13898E-03-4.44897E-04-3.43326E-14
 -1      2753 9.30017E-03-4.68959E-04-3.52484E-14
 -1      2754 9.03293E-03-3.87941E-04-3.37883E-14
 -1      2755 9.46398E-03-4.97891E-04-3.61722E-14
 -1      2756 9.62965E-03-5.32198E-04-3.71006E-14
 -1      2757 9.35520E-03-4.32440E-04-3.56147E-14
 -1      2758 9.79766E-03-5.71571E-04-3.80382E-14
 -1      2759 9.96655E-03-6.15681E-04-3.89818E-14
 -1      2760 9.68938E-03-4.98582E-04-3.74682E-14
 -1      2761 1.01365E-02-6.63553E-04-3.99332E-14
 -1      2762 1.03055E-02-7.13122E-04-4.08913E-14
 -1      2763 1.00334E-02-5.87578E-04-3.93471E-14
 -1      2764 1.04733E-02-7.62470E-04-4.18543E-14
 -1      2765 1.06385E-02-8.07461E-04-4.28277E-14
 -1      2766 1.03803E-02-6.92448E-04-4.12544E-14
 -1      2767 1.08002E-02-8.45623E-04-4.38100E-14
 -1      2768 1.09593E-02-8.71591E-04-4.47976E-14
 -1      2769 1.07194E-02-7.92269E-04-4.31924E-14
 -1      2770 1.11153E-02-8.83302E-04-4.57937E-14
 -1      2771 1.12711E-02-8.78076E-04-4.67942E-14
 -1      2772 1.10447E-02-8.52763E-04-4.51629E-14
 -1      2773 1.14264E-02-8.55617E-04-4.78014E-14
 -1      2774 1.15842E-02-8.17586E-04-4.88204E-14
 -1      2775 1.13620E-02-8.43161E-04-4.71637E-14
 -1      2776 1.17439E-02-7.66080E-04-4.98389E-14
 -1      2777 1.19073E-02-7.05646E-04-5.08648E-14
 -1      2778 1.16841E-02-7.60142E-04-4.91879E-14
 -1      2779 1.20734E-02-6.38908E-04-5.18984E-14
 -1      2780 1.22412E-02-5.70512E-04-5.29361E-14
 -1      2781 1.20200E-02-6.28846E-04-5.12369E-14
 -1      2782 1.24103E-02-5.02358E-04-5.39793E-14
 -1      2783 1.25786E-02-4.36973E-04-5.50259E-14
 -1      2784 1.23658E-02-4.85089E-04-5.33075E-14
 -1      2785 1.27461E-02-3.75354E-04-5.60784E-14
 -1      2786 1.29114E-02-3.17958E-04-5.71350E-14
 -1      2787 1.27106E-02-3.52620E-04-5.53955E-14
 -1      2788 1.30746E-02-2.65028E-04-5.81956E-14
 -1      2789 1.32351E-02-2.16010E-04-5.92559E-14
 -1      2790 1.30464E-02-2.40031E-04-5.75036E-14
 -1      2791 1.33932E-02-1.70642E-04-6.03172E-14
 -1      2792 1.35485E-02-1.27974E-04-6.13811E-14
 -1      2793 1.33697E-02-1.45964E-04-5.96159E-14
 -1      2794 1.37017E-02-8.74860E-05-6.24455E-14
 -1      2795 1.38525E-02-4.81376E-05-6.35156E-14
 -1      2796 1.36810E-02-6.49197E-05-6.17356E-14
 -1      2797 2.26907E-03 4.78504E-04-2.12706E-15
 -1      2798 2.12726E-03 4.71703E-04-1.86431E-15
 -1      2799 1.44966E-02 6.61701E-04-6.03441E-14
 -1      2800 1.44412E-02 7.10434E-04-6.00138E-14
 -1      2801 1.42938E-02 7.10622E-04-5.90097E-14
 -1      2802 1.98535E-03 4.63268E-04-1.61911E-15
 -1      2803 1.84331E-03 4.53037E-04-1.39134E-15
 -1      2804 2.04756E-03 4.31322E-04-1.79341E-15
 -1      2805 2.83609E-03 4.94112E-04-3.35407E-15
 -1      2806 2.69433E-03 4.91624E-04-3.02118E-15
 -1      2807 3.11976E-03 4.97115E-04-4.07183E-15
 -1      2808 2.97791E-03 4.95916E-04-3.70410E-15
 -1      2809 2.90232E-03 4.58040E-04-3.59788E-15
 -1      2810 3.40365E-03 4.98116E-04-4.85622E-15
 -1      2811 3.26168E-03 4.97829E-04-4.45589E-15
 -1      2812 3.18710E-03 4.60400E-04-4.33715E-15
 -1      2813 3.68782E-03 4.97693E-04-5.70785E-15
 -1      2814 3.54571E-03 4.98057E-04-5.27391E-15
 -1      2815 3.47197E-03 4.60961E-04-5.14383E-15
 -1      2816 3.97228E-03 4.96239E-04-6.62400E-15
 -1      2817 3.83002E-03 4.97079E-04-6.15808E-15
 -1      2818 3.75695E-03 4.60243E-04-6.01692E-15
 -1      2819 4.25704E-03 4.93994E-04-7.60272E-15
 -1      2820 4.11463E-03 4.95206E-04-7.10537E-15
 -1      2821 4.04206E-03 4.58588E-04-6.95310E-15
 -1      2822 4.54211E-03 4.91083E-04-8.64209E-15
 -1      2823 4.39954E-03 4.92617E-04-8.11474E-15
 -1      2824 4.32734E-03 4.56201E-04-7.95059E-15
 -1      2825 4.82750E-03 4.87540E-04-9.73998E-15
 -1      2826 4.68476E-03 4.89390E-04-9.18407E-15
 -1      2827 4.61279E-03 4.53178E-04-9.00808E-15
 -1      2828 5.11324E-03 4.83337E-04-1.08973E-14
 -1      2829 4.97032E-03 4.85523E-04-1.03108E-14
 -1      2830 4.89842E-03 4.49536E-04-1.01232E-14
 -1      2831 5.39938E-03 4.78396E-04-1.21128E-14
 -1      2832 5.25625E-03 4.80962E-04-1.14980E-14
 -1      2833 5.18427E-03 4.45231E-04-1.12976E-14
 -1      2834 5.68598E-03 4.72620E-04-1.33878E-14
 -1      2835 5.54261E-03 4.75617E-04-1.27431E-14
 -1      2836 5.47035E-03 4.40182E-04-1.25311E-14
 -1      2837 5.97314E-03 4.65913E-04-1.47188E-14
 -1      2838 5.82948E-03 4.69386E-04-1.40460E-14
 -1      2839 5.75671E-03 4.34289E-04-1.38222E-14
 -1      2840 6.26098E-03 4.58211E-04-1.61029E-14
 -1      2841 6.11696E-03 4.62186E-04-1.54044E-14
 -1      2842 6.04339E-03 4.27461E-04-1.51685E-14
 -1      2843 6.54965E-03 4.49525E-04-1.75370E-14
 -1      2844 6.40519E-03 4.53985E-04-1.68146E-14
 -1      2845 6.33045E-03 4.19651E-04-1.65672E-14
 -1      2846 6.83934E-03 4.39997E-04-1.90175E-14
 -1      2847 6.69434E-03 4.44850E-04-1.82718E-14
 -1      2848 6.61796E-03 4.10892E-04-1.80146E-14
 -1      2849 7.13027E-03 4.29981E-04-2.05367E-14
 -1      2850 6.98461E-03 4.35019E-04-1.97725E-14
 -1      2851 6.90600E-03 4.01360E-04-1.95059E-14
 -1      2852 7.42272E-03 4.20155E-04-2.20980E-14
 -1      2853 7.27626E-03 4.24992E-04-2.13111E-14
 -1      2854 7.19465E-03 3.91454E-04-2.10370E-14
 -1      2855 7.71705E-03 4.11663E-04-2.36920E-14
 -1      2856 7.56958E-03 4.15657E-04-2.28912E-14
 -1      2857 7.48405E-03 3.81897E-04-2.26070E-14
 -1      2858 8.01378E-03 4.06319E-04-2.53168E-14
 -1      2859 7.86503E-03 4.08464E-04-2.45010E-14
 -1      2860 7.77445E-03 3.73880E-04-2.42125E-14
 -1      2861 8.31374E-03 4.06851E-04-2.69672E-14
 -1      2862 8.16325E-03 4.05647E-04-2.61392E-14
 -1      2863 8.06630E-03 3.69235E-04-2.58454E-14
 -1      2864 8.61830E-03 4.17190E-04-2.86386E-14
 -1      2865 8.46531E-03 4.10489E-04-2.77991E-14
 -1      2866 8.36047E-03 3.70657E-04-2.75021E-14
 -1      2867 8.92973E-03 4.42785E-04-3.03298E-14
 -1      2868 8.77299E-03 4.27631E-04-2.94837E-14
 -1      2869 8.65864E-03 3.81973E-04-2.91823E-14
 -1      2870 9.25150E-03 4.90839E-04-3.20411E-14
 -1      2871 9.08915E-03 4.63358E-04-3.11837E-14
 -1      2872 8.96383E-03 4.08487E-04-3.08826E-14
 -1      2873 9.58822E-03 5.70260E-04-3.37695E-14
 -1      2874 9.41795E-03 5.25806E-04-3.29019E-14
 -1      2875 9.28094E-03 4.57473E-04-3.25999E-14
 -1      2876 9.94393E-03 6.90120E-04-3.55216E-14
 -1      2877 9.76404E-03 6.24320E-04-3.46421E-14
 -1      2878 9.61663E-03 5.38688E-04-3.43377E-14
 -1      2879 1.03181E-02 8.55269E-04-3.73017E-14
 -1      2880 1.01299E-02 7.67078E-04-3.64077E-14
 -1      2881 9.97702E-03 6.63481E-04-3.60996E-14
 -1      2882 1.07005E-02 1.05376E-03-3.91064E-14
 -1      2883 1.05105E-02 9.52955E-04-3.82015E-14
 -1      2884 1.03624E-02 8.40399E-04-3.78899E-14
 -1      2885 1.14204E-02 1.34058E-03-4.27705E-14
 -1      2886 1.12474E-02 1.30728E-03-4.18387E-14
 -1      2887 1.17647E-02 1.30878E-03-4.46540E-14
 -1      2888 1.15894E-02 1.33913E-03-4.37145E-14
 -1      2889 1.21277E-02 1.18090E-03-4.65552E-14
 -1      2890 1.19433E-02 1.25172E-03-4.56015E-14
 -1      2891 1.18639E-02 1.25132E-03-4.52750E-14
 -1      2892 1.25045E-02 1.02671E-03-4.84819E-14
 -1      2893 1.23157E-02 1.10228E-03-4.75162E-14
 -1      2894 1.22475E-02 1.09231E-03-4.71867E-14
 -1      2895 1.28776E-02 8.98279E-04-5.04259E-14
 -1      2896 1.26937E-02 9.57954E-04-4.94513E-14
 -1      2897 1.26382E-02 9.32950E-04-4.91216E-14
 -1      2898 1.32327E-02 8.10765E-04-5.23887E-14
 -1      2899 1.30582E-02 8.49513E-04-5.14059E-14
 -1      2900 1.30136E-02 8.16307E-04-5.10758E-14
 -1      2901 1.35678E-02 7.60889E-04-5.43643E-14
 -1      2902 1.34029E-02 7.81955E-04-5.33754E-14
 -1      2903 1.33634E-02 7.45376E-04-5.30437E-14
 -1      2904 1.38863E-02 7.37914E-04-5.63537E-14
 -1      2905 1.37289E-02 7.46867E-04-5.53562E-14
 -1      2906 1.36902E-02 7.09944E-04-5.50266E-14
 -1      2907 1.41683E-02 7.20901E-04-5.81779E-14
 -1      2908 1.40166E-02 7.23284E-04-5.71776E-14
 -1      2909 1.39773E-02 6.87154E-04-5.68477E-14
 -1      2910 1.42298E-02 6.66734E-04-5.85046E-14
 -1      2911 1.29939E-02 5.96680E-04-4.98094E-14
 -1      2912 1.31881E-02 5.08747E-04-5.04114E-14
 -1      2913 1.46553E-02 3.92351E-04-6.25109E-14
 -1      2914 1.46740E-02 4.16699E-04-6.22937E-14
 -1      2915 9.07046E-03 1.63972E-04-3.69394E-14
 -1      2916 9.15494E-03 1.83483E-04-3.70165E-14
 -1      2917 1.46736E-02 4.90021E-04-6.16429E-14
 -1      2918 1.46564E-02 5.16927E-04-6.14277E-14
 -1      2919 1.45908E-02 3.40581E-04-6.29484E-14
 -1      2920 1.46273E-02 3.67324E-04-6.27294E-14
 -1      2921 1.45323E-02 3.67368E-04-6.17283E-14
 -1      2922 1.46832E-02 4.40457E-04-6.20726E-14
 -1      2923 1.46829E-02 4.64870E-04-6.18562E-14
 -1      2924 1.45689E-02 4.67124E-04-6.08668E-14
 -1      2925 1.45710E-02 4.17244E-04-6.12959E-14
 -1      2926 1.44981E-02 2.82480E-04-6.33801E-14
 -1      2927 1.45475E-02 3.12627E-04-6.31660E-14
 -1      2928 1.44565E-02 3.12192E-04-6.21577E-14
 -1      2929 1.43837E-02 2.14785E-04-6.38167E-14
 -1      2930 1.44428E-02 2.49718E-04-6.35979E-14
 -1      2931 1.43524E-02 2.47879E-04-6.25845E-14
 -1      2932 1.42590E-02 1.39384E-04-6.42469E-14
 -1      2933 1.43221E-02 1.77900E-04-6.40311E-14
 -1      2934 1.42302E-02 1.73475E-04-6.30098E-14
 -1      2935 1.33761E-02 4.32412E-04-5.09669E-14
 -1      2936 1.35055E-02 3.89623E-04-5.13577E-14
 -1      2937 1.36117E-02 3.56335E-04-5.17068E-14
 -1      2938 1.36910E-02 3.37983E-04-5.20567E-14
 -1      2939 1.35929E-02 3.83103E-04-5.20981E-14
 -1      2940 1.27118E-02-7.97247E-05-5.11947E-14
 -1      2941 1.25445E-02-1.72308E-04-5.07914E-14
 -1      2942 1.28434E-02-2.79303E-05-5.20034E-14
 -1      2943 1.37357E-02 3.21918E-04-5.23621E-14
 -1      2944 1.37387E-02 3.15789E-04-5.25160E-14
 -1      2945 8.03064E-04 2.78298E-04-2.81743E-16
 -1      2946 8.33579E-04-2.63986E-04-4.75951E-16
 -1      2947 9.65146E-04-2.98928E-04-6.06096E-16
 -1      2948 1.10818E-03-3.26724E-04-7.70570E-16
 -1      2949 8.14015E-04-2.12349E-04-4.81277E-16
 -1      2950 9.28408E-03 2.22324E-04-3.72245E-14
 -1      2951 9.42831E-03 2.70843E-04-3.73883E-14
 -1      2952 9.97623E-03 5.31077E-04-3.80403E-14
 -1      2953 1.01864E-02 6.59684E-04-3.83868E-14
 -1      2954 1.70111E-03 4.40592E-04-1.18147E-15
 -1      2955 1.55866E-03 4.25731E-04-9.89578E-16
 -1      2956 1.76206E-03 4.11262E-04-1.33177E-15
 -1      2957 2.55257E-03 4.88283E-04-2.70564E-15
 -1      2958 2.41084E-03 4.83988E-04-2.40770E-15
 -1      2959 2.33266E-03 4.44691E-04-2.32500E-15
 -1      2960 2.61754E-03 4.53143E-04-2.92679E-15
 -1      2961 1.25930E-02 8.09570E-04-4.84433E-14
 -1      2962 1.27685E-02 7.11477E-04-4.90598E-14
 -1      2963 7.84419E-04 1.23506E-04-3.97021E-16
 -1      2964 7.82039E-04 1.00062E-04-4.08839E-16
 -1      2965 8.99663E-04 9.94863E-05-5.24835E-16
 -1      2966 9.05385E-04 1.51643E-04-4.96131E-16
 -1      2967 7.81774E-04-9.80092E-05-4.69256E-16
 -1      2968 7.84077E-04-1.21369E-04-4.71194E-16
 -1      2969 1.41600E-03 4.07918E-04-8.15320E-16
 -1      2970 1.27296E-03 3.86892E-04-6.58788E-16
 -1      2971 1.18963E-03 3.41572E-04-6.20082E-16
 -1      2972 1.47606E-03 3.82265E-04-9.40586E-16
 -1      2973 1.22986E-02-3.15742E-04-5.01613E-14
 -1      2974 1.20910E-02-4.46736E-04-4.95499E-14
 -1      2975 1.12295E-02 1.27008E-03-4.21519E-14
 -1      2976 1.13683E-02 1.30672E-03-4.28478E-14
 -1      2977 1.40509E-02 2.76607E-06-6.49725E-14
 -1      2978 1.41300E-02 4.55513E-05-6.49807E-14
 -1      2979 1.39522E-02-2.27733E-05-6.42441E-14
 -1      2980 1.04832E-02 8.57208E-04-3.89928E-14
 -1      2981 1.06654E-02 9.75931E-04-3.96273E-14
 -1      2982 1.15548E-02 1.31035E-03-4.37976E-14
 -1      2983 1.17081E-02 1.27888E-03-4.45916E-14
 -1      2984 1.08735E-02 1.09708E-03-4.05345E-14
 -1      2985 1.10351E-02 1.18977E-03-4.12314E-14
 -1      2986 1.11432E-02 1.25258E-03-4.15158E-14
 -1      2987 1.07610E-02 1.05950E-03-3.96965E-14
 -1      2988 9.62531E-03 3.53967E-04-3.75135E-14
 -1      2989 9.80150E-03 4.37332E-04-3.77783E-14
 -1      2990 9.85407E-03 4.84846E-04-3.73369E-14
 -1      2991 1.15166E-02-7.46238E-04-4.70570E-14
 -1      2992 1.13681E-02-7.86168E-04-4.62800E-14
 -1      2993 9.02299E-03 1.43320E-04-3.71291E-14
 -1      2994 9.02673E-03 1.49389E-04-3.70457E-14
 -1      2995 9.14799E-03 1.07159E-04-3.75441E-14
 -1      2996 9.05904E-03 1.27633E-04-3.72490E-14
 -1      2997 9.40803E-03 3.08074E-05-3.83796E-14
 -1      2998 9.28707E-03 6.80273E-05-3.80059E-14
 -1      2999 9.74502E-03-1.11948E-04-3.92736E-14
 -1      3000 9.57051E-03-3.27007E-05-3.88247E-14
 -1      3001 9.47353E-03-1.57718E-05-3.82224E-14
 -1      3002 1.00750E-02-2.84122E-04-4.02701E-14
 -1      3003 9.92525E-03-2.04971E-04-3.97713E-14
 -1      3004 1.05111E-02-5.27678E-04-4.19497E-14
 -1      3005 1.02928E-02-4.00984E-04-4.10840E-14
 -1      3006 1.08489E-02-7.03169E-04-4.35046E-14
 -1      3007 1.07149E-02-6.37568E-04-4.28494E-14
 -1      3008 1.34174E-02 2.22943E-04-5.23360E-14
 -1      3009 1.32638E-02 1.70800E-04-5.21611E-14
 -1      3010 1.11835E-02-7.93822E-04-4.52799E-14
 -1      3011 1.10215E-02-7.62215E-04-4.43880E-14
 -1      3012 1.09290E-02-7.45701E-04-4.39606E-14
 -1      3013 1.18506E-02-5.89016E-04-4.86483E-14
 -1      3014 1.16854E-02-6.77793E-04-4.78949E-14
 -1      3015 1.22952E-02 9.81300E-04-4.72740E-14
 -1      3016 1.24423E-02 8.93207E-04-4.78573E-14
 -1      3017 1.25773E-02 8.47559E-04-4.85401E-14
 -1      3018 1.18669E-02 1.21346E-03-4.53850E-14
 -1      3019 1.20554E-02 1.11422E-03-4.62580E-14
 -1      3020 7.87143E-04-1.45534E-04-4.71980E-16
 -1      3021 7.91030E-04-1.70730E-04-4.70991E-16
 -1      3022 9.04930E-04-1.49139E-04-5.95552E-16
 -1      3023 8.95543E-04 1.00892E-06-5.66591E-16
 -1      3024 7.77693E-04-9.72428E-06-4.51679E-16
 -1      3025 7.78055E-04-3.13809E-05-4.57493E-16
 -1      3026 1.24501E-02-2.40754E-04-5.09676E-14
 -1      3027 9.50672E-03 3.13427E-04-3.69547E-14
 -1      3028 1.31885E-02 1.28929E-04-5.26169E-14
 -1      3029 1.37360E-02 3.09521E-04-5.29161E-14
 -1      3030 1.37204E-02 3.02773E-04-5.33206E-14
 -1      3031 1.37822E-02 3.19744E-04-5.34646E-14
 -1      3032 1.29301E-02 6.60394E-04-4.98787E-14
 -1      3033 1.39327E-02-2.99054E-06-6.35269E-14
 -1      3034 1.22018E-02 1.05583E-03-4.69318E-14
 -1      3035 1.33185E-02 4.82051E-04-5.11906E-14
 -1      3036 1.10717E-02 1.24071E-03-4.09248E-14
 -1      3037 1.08897E-02 1.15595E-03-4.00079E-14
 -1      3038 1.15007E-02 1.32580E-03-4.33795E-14
 -1      3039 9.19245E-03 1.99094E-04-3.66230E-14
 -1      3040 1.45309E-02 5.22463E-04-6.04453E-14
 -1      3041 1.46325E-02 5.45308E-04-6.12172E-14
 -1      3042 1.46032E-02 5.75863E-04-6.10055E-14
 -1      3043 1.45334E-02 6.25477E-04-6.05554E-14
 -1      3044 1.12673E-02-8.01346E-04-4.58470E-14
 -1      3045 1.11736E-02-8.05395E-04-4.54133E-14
 -1      3046 1.13441E-02-7.98594E-04-4.64158E-14
 -1      3047 1.41928E-02 8.65525E-05-6.47678E-14
 -1      3048 1.35283E-02 2.54780E-04-5.28004E-14
 -1      3049 1.34886E-02 2.33451E-04-5.32918E-14
 -1      3050 1.36237E-02 2.75434E-04-5.32636E-14
 -1      3051 1.37434E-02 3.38185E-04-5.27557E-14
 -1      3052 1.16028E-02-7.19257E-04-4.76885E-14
 -1      3053 1.05745E-02-5.84575E-04-4.21765E-14
 -1      3054 9.80014E-03-1.66670E-04-3.91601E-14
 -1      3055 8.64834E-04 2.66620E-04-3.52786E-16
 -1      3056 1.40153E-02 3.79140E-05-6.36327E-14
 -1      3057 1.41773E-02 1.02236E-04-6.41453E-14
 -1      3058 1.40831E-02 9.54181E-05-6.31173E-14
 -1      3059 1.39161E-02 1.50075E-05-6.29078E-14
 -1      3060 9.82932E-04 2.75860E-04-4.63808E-16
 -1      3061 7.78832E-04-5.31746E-05-4.62385E-16
 -1      3062 7.80043E-04-7.53726E-05-4.66329E-16
 -1      3063 8.99384E-04-9.71412E-05-5.90741E-16
 -1      3064 8.96435E-04-4.75484E-05-5.80929E-16
 -1      3065 9.18073E-03 8.25689E-05-3.73205E-14
 -1      3066 1.03040E-02 7.63373E-04-3.81978E-14
 -1      3067 1.21173E-02-4.54645E-04-5.02177E-14
 -1      3068 1.19837E-02-5.20836E-04-4.94325E-14
 -1      3069 1.18965E-02-5.85187E-04-4.93126E-14
 -1      3070 9.02430E-03 1.53247E-04-3.65212E-14
 -1      3071 9.01490E-03 1.28338E-04-3.67447E-14
 -1      3072 1.16983E-03-3.07023E-04-8.68974E-16
 -1      3073 1.01721E-02-3.64166E-04-4.04656E-14
 -1      3074 1.04028E-03 2.43349E-04-5.61332E-16
 -1      3075 1.03368E-03 2.11620E-04-5.84737E-16
 -1      3076 9.21593E-03 5.10596E-05-3.70612E-14
 -1      3077 9.09120E-03 8.48207E-05-3.66053E-14
 -1      3078 1.73168E-03-3.40524E-04-1.76257E-15
 -1      3079 1.87535E-03-3.50713E-04-2.03322E-15
 -1      3080 2.01901E-03-3.59179E-04-2.32237E-15
 -1      3081 2.16266E-03-3.66074E-04-2.62989E-15
 -1      3082 1.94021E-03-3.19385E-04-2.17610E-15
 -1      3083 2.30627E-03-3.71672E-04-2.95540E-15
 -1      3084 2.44982E-03-3.76099E-04-3.29801E-15
 -1      3085 2.22826E-03-3.32444E-04-2.78813E-15
 -1      3086 2.59331E-03-3.79574E-04-3.65894E-15
 -1      3087 2.73675E-03-3.82194E-04-4.03699E-15
 -1      3088 2.51625E-03-3.40868E-04-3.47162E-15
 -1      3089 2.88014E-03-3.84128E-04-4.43169E-15
 -1      3090 3.02347E-03-3.85448E-04-4.84301E-15
 -1      3091 2.80402E-03-3.45876E-04-4.22393E-15
 -1      3092 3.16676E-03-3.86281E-04-5.27042E-15
 -1      3093 3.30999E-03-3.86679E-04-5.71399E-15
 -1      3094 3.09154E-03-3.48416E-04-5.04257E-15
 -1      3095 3.45319E-03-3.86731E-04-6.17334E-15
 -1      3096 3.59635E-03-3.86474E-04-6.64762E-15
 -1      3097 3.37877E-03-3.49199E-04-5.92576E-15
 -1      3098 3.73947E-03-3.85969E-04-7.13679E-15
 -1      3099 3.88256E-03-3.85240E-04-7.64094E-15
 -1      3100 3.66573E-03-3.48733E-04-6.86995E-15
 -1      3101 4.02563E-03-3.84325E-04-8.15958E-15
 -1      3102 4.16866E-03-3.83236E-04-8.69141E-15
 -1      3103 3.95244E-03-3.47364E-04-7.87360E-15
 -1      3104 4.31167E-03-3.81996E-04-9.23724E-15
 -1      3105 4.45466E-03-3.80609E-04-9.79745E-15
 -1      3106 4.23891E-03-3.45309E-04-8.93361E-15
 -1      3107 4.59762E-03-3.79083E-04-1.03704E-14
 -1      3108 4.74057E-03-3.77416E-04-1.09571E-14
 -1      3109 4.52516E-03-3.42682E-04-1.00491E-14
 -1      3110 4.88349E-03-3.75608E-04-1.15581E-14
 -1      3111 5.02640E-03-3.73652E-04-1.21721E-14
 -1      3112 4.81118E-03-3.39522E-04-1.12188E-14
 -1      3113 5.16928E-03-3.71542E-04-1.27984E-14
 -1      3114 5.31214E-03-3.69268E-04-1.34395E-14
 -1      3115 5.09698E-03-3.35809E-04-1.24436E-14
 -1      3116 5.45498E-03-3.66823E-04-1.40935E-14
 -1      3117 5.59781E-03-3.64194E-04-1.47609E-14
 -1      3118 5.38254E-03-3.31488E-04-1.37213E-14
 -1      3119 5.74060E-03-3.61377E-04-1.54426E-14
 -1      3120 5.88338E-03-3.58360E-04-1.61367E-14
 -1      3121 5.66782E-03-3.26486E-04-1.50538E-14
 -1      3122 6.02613E-03-3.55144E-04-1.68444E-14
 -1      3123 6.16887E-03-3.51722E-04-1.75656E-14
 -1      3124 5.95279E-03-3.20734E-04-1.64408E-14
 -1      3125 6.31158E-03-3.48106E-04-1.82995E-14
 -1      3126 6.45429E-03-3.44297E-04-1.90458E-14
 -1      3127 6.23740E-03-3.14189E-04-1.78802E-14
 -1      3128 6.59697E-03-3.40325E-04-1.98037E-14
 -1      3129 6.73968E-03-3.36204E-04-2.05727E-14
 -1      3130 6.52164E-03-3.06869E-04-1.93691E-14
 -1      3131 6.88239E-03-3.31988E-04-2.13535E-14
 -1      3132 7.02517E-03-3.27714E-04-2.21451E-14
 -1      3133 6.80549E-03-2.98887E-04-2.09024E-14
 -1      3134 7.16799E-03-3.23466E-04-2.29479E-14
 -1      3135 7.31096E-03-3.19315E-04-2.37598E-14
 -1      3136 7.08904E-03-2.90502E-04-2.24819E-14
 -1      3137 7.45407E-03-3.15382E-04-2.45812E-14
 -1      3138 7.59745E-03-3.11788E-04-2.54125E-14
 -1      3139 7.37248E-03-2.82168E-04-2.41033E-14
 -1      3140 7.74115E-03-3.08697E-04-2.62511E-14
 -1      3141 7.88534E-03-3.06302E-04-2.70989E-14
 -1      3142 7.65623E-03-2.74610E-04-2.57593E-14
 -1      3143 8.03013E-03-3.04808E-04-2.79560E-14
 -1      3144 8.17575E-03-3.04520E-04-2.88214E-14
 -1      3145 7.94106E-03-2.68911E-04-2.74511E-14
 -1      3146 8.32241E-03-3.05674E-04-2.96942E-14
 -1      3147 8.47040E-03-3.08743E-04-3.05732E-14
 -1      3148 8.22827E-03-2.66626E-04-2.91770E-14
 -1      3149 8.62008E-03-3.13978E-04-3.14571E-14
 -1      3150 8.77176E-03-3.22090E-04-3.23492E-14
 -1      3151 8.51993E-03-2.69965E-04-3.09297E-14
 -1      3152 8.92598E-03-3.33318E-04-3.32471E-14
 -1      3153 9.08297E-03-3.48679E-04-3.41513E-14
 -1      3154 8.81910E-03-2.82090E-04-3.27082E-14
 -1      3155 9.24348E-03-3.68361E-04-3.50611E-14
 -1      3156 9.40738E-03-3.93672E-04-3.59773E-14
 -1      3157 9.12981E-03-3.07516E-04-3.45098E-14
 -1      3158 9.57557E-03-4.24686E-04-3.68996E-14
 -1      3159 9.74703E-03-4.62596E-04-3.78279E-14
 -1      3160 9.45657E-03-3.52549E-04-3.63351E-14
 -1      3161 9.92251E-03-5.07106E-04-3.87645E-14
 -1      3162 1.00997E-02-5.58136E-04-3.97077E-14
 -1      3163 9.80243E-03-4.24914E-04-3.81838E-14
 -1      3164 1.02789E-02-6.14416E-04-4.06586E-14
 -1      3165 1.04566E-02-6.72755E-04-4.16151E-14
 -1      3166 1.01649E-02-5.29406E-04-4.00640E-14
 -1      3167 1.09686E-02-8.23539E-04-4.45649E-14
 -1      3168 1.11315E-02-8.40471E-04-4.55550E-14
 -1      3169 1.12916E-02-8.35297E-04-4.65445E-14
 -1      3170 1.14538E-02-8.08984E-04-4.75501E-14
 -1      3171 1.16285E-02-7.35280E-04-4.83549E-14
 -1      3172 1.18041E-02-6.65876E-04-4.93700E-14
 -1      3173 1.23208E-02-4.66445E-04-5.26399E-14
 -1      3174 1.24990E-02-3.93956E-04-5.36749E-14
 -1      3175 1.26762E-02-3.27081E-04-5.47179E-14
 -1      3176 1.28496E-02-2.66328E-04-5.57630E-14
 -1      3177 1.26430E-02-2.99749E-04-5.40420E-14
 -1      3178 1.30199E-02-2.11944E-04-5.68108E-14
 -1      3179 1.31857E-02-1.62782E-04-5.78644E-14
 -1      3180 1.29952E-02-1.80882E-04-5.61267E-14
 -1      3181 1.33481E-02-1.18617E-04-5.89181E-14
 -1      3182 1.35065E-02-7.78875E-05-5.99708E-14
 -1      3183 1.33284E-02-8.83644E-05-5.82223E-14
 -1      3184 1.36370E-02-4.87407E-05-6.09081E-14
 -1      3185 1.37898E-02-1.22989E-05-6.19671E-14
 -1      3186 1.38746E-02 3.04512E-05-6.20749E-14
 -1      3187 1.36193E-02-2.15487E-05-6.02041E-14
 -1      3188 2.11105E-03 3.98747E-04-1.97197E-15
 -1      3189 1.96782E-03 3.90856E-04-1.72044E-15
 -1      3190 3.25493E-03 4.23380E-04-4.60668E-15
 -1      3191 3.11207E-03 4.22729E-04-4.21742E-15
 -1      3192 2.96918E-03 4.21592E-04-3.84496E-15
 -1      3193 2.82627E-03 4.19911E-04-3.48999E-15
 -1      3194 3.03666E-03 3.84842E-04-4.09648E-15
 -1      3195 3.82631E-03 4.22615E-04-6.32784E-15
 -1      3196 3.68348E-03 4.23216E-04-5.87306E-15
 -1      3197 4.11199E-03 4.20813E-04-7.28419E-15
 -1      3198 3.96915E-03 4.21808E-04-6.79865E-15
 -1      3199 3.89592E-03 3.84860E-04-6.64262E-15
 -1      3200 4.39769E-03 4.18333E-04-8.30026E-15
 -1      3201 4.25484E-03 4.19652E-04-7.78471E-15
 -1      3202 4.18206E-03 3.82960E-04-7.61743E-15
 -1      3203 4.68342E-03 4.15249E-04-9.37535E-15
 -1      3204 4.54055E-03 4.16866E-04-8.83070E-15
 -1      3205 4.46809E-03 3.80436E-04-8.65276E-15
 -1      3206 4.96921E-03 4.11560E-04-1.05091E-14
 -1      3207 4.82631E-03 4.13482E-04-9.93514E-15
 -1      3208 4.75402E-03 3.77340E-04-9.74561E-15
 -1      3209 5.25505E-03 4.07212E-04-1.17007E-14
 -1      3210 5.11212E-03 4.09473E-04-1.10969E-14
 -1      3211 5.03986E-03 3.73656E-04-1.08965E-14
 -1      3212 5.54095E-03 4.02121E-04-1.29523E-14
 -1      3213 5.39799E-03 4.04765E-04-1.23192E-14
 -1      3214 5.32558E-03 3.69327E-04-1.21061E-14
 -1      3215 5.82690E-03 3.96192E-04-1.42594E-14
 -1      3216 5.68391E-03 3.99267E-04-1.35993E-14
 -1      3217 5.61116E-03 3.64267E-04-1.33751E-14
 -1      3218 6.11291E-03 3.89346E-04-1.56207E-14
 -1      3219 5.96990E-03 3.92888E-04-1.49334E-14
 -1      3220 5.89656E-03 3.58391E-04-1.46984E-14
 -1      3221 6.39896E-03 3.81551E-04-1.70320E-14
 -1      3222 6.25593E-03 3.85567E-04-1.63194E-14
 -1      3223 6.18171E-03 3.51633E-04-1.60734E-14
 -1      3224 6.68502E-03 3.72869E-04-1.84921E-14
 -1      3225 6.54198E-03 3.77316E-04-1.77566E-14
 -1      3226 6.46651E-03 3.43986E-04-1.74983E-14
 -1      3227 6.97106E-03 3.63511E-04-1.99948E-14
 -1      3228 6.82803E-03 3.68260E-04-1.92387E-14
 -1      3229 6.75085E-03 3.35538E-04-1.89699E-14
 -1      3230 7.25702E-03 3.53911E-04-2.15379E-14
 -1      3231 7.11402E-03 3.58712E-04-2.07614E-14
 -1      3232 7.03456E-03 3.26534E-04-2.04853E-14
 -1      3233 7.54293E-03 3.44828E-04-2.31200E-14
 -1      3234 7.39995E-03 3.49255E-04-2.23243E-14
 -1      3235 7.31747E-03 3.17439E-04-2.20409E-14
 -1      3236 7.82888E-03 3.37461E-04-2.47337E-14
 -1      3237 7.68585E-03 3.40849E-04-2.39232E-14
 -1      3238 7.59945E-03 3.09020E-04-2.36338E-14
 -1      3239 8.11524E-03 3.33601E-04-2.63750E-14
 -1      3240 7.97192E-03 3.34966E-04-2.55502E-14
 -1      3241 7.88045E-03 3.02450E-04-2.52563E-14
 -1      3242 8.40294E-03 3.35815E-04-2.80397E-14
 -1      3243 8.25879E-03 3.33754E-04-2.72058E-14
 -1      3244 8.16077E-03 2.99406E-04-2.69053E-14
 -1      3245 8.69391E-03 3.47685E-04-2.97281E-14
 -1      3246 8.54779E-03 3.40234E-04-2.88804E-14
 -1      3247 8.44130E-03 3.02209E-04-2.85789E-14
 -1      3248 8.99187E-03 3.74242E-04-3.14352E-14
 -1      3249 8.84167E-03 3.58626E-04-3.05789E-14
 -1      3250 8.72420E-03 3.14042E-04-3.02751E-14
 -1      3251 9.30303E-03 4.22679E-04-3.31609E-14
 -1      3252 9.14531E-03 3.94842E-04-3.22952E-14
 -1      3253 9.01377E-03 3.39450E-04-3.19885E-14
 -1      3254 9.63669E-03 5.04071E-04-3.49069E-14
 -1      3255 9.46657E-03 4.57821E-04-3.40317E-14
 -1      3256 9.31756E-03 3.85740E-04-3.37235E-14
 -1      3257 1.01040E-02 6.64056E-04-3.72961E-14
 -1      3258 1.31608E-02 7.30909E-04-5.17411E-14
 -1      3259 1.29800E-02 7.73656E-04-5.07574E-14
 -1      3260 1.35002E-02 6.80116E-04-5.37170E-14
 -1      3261 1.33344E-02 7.01245E-04-5.27269E-14
 -1      3262 1.33124E-02 6.53129E-04-5.24087E-14
 -1      3263 1.38156E-02 6.59947E-04-5.57072E-14
 -1      3264 1.36604E-02 6.67382E-04-5.47105E-14
 -1      3265 1.36360E-02 6.22413E-04-5.43923E-14
 -1      3266 1.14499E-03 3.10649E-04-6.06259E-16
 -1      3267 1.08235E-03 2.71712E-04-5.78774E-16
 -1      3268 1.20144E-03 2.73122E-04-7.20032E-16
 -1      3269 1.28815E-03 3.32621E-04-7.56217E-16
 -1      3270 1.43189E-02 2.82713E-04-6.13664E-14
 -1      3271 1.43671E-02 3.13652E-04-6.11564E-14
 -1      3272 1.44081E-02 3.42272E-04-6.09420E-14
 -1      3273 1.44391E-02 3.68960E-04-6.07314E-14
 -1      3274 1.42810E-02 3.16751E-04-6.01571E-14
 -1      3275 1.35973E-02 4.10426E-04-5.25943E-14
 -1      3276 1.36881E-02 3.81778E-04-5.29464E-14
 -1      3277 1.33013E-02 5.27851E-04-5.15633E-14
 -1      3278 1.34611E-02 4.62612E-04-5.21222E-14
 -1      3279 9.35623E-03 2.67003E-04-3.62307E-14
 -1      3280 9.52220E-03 3.39926E-04-3.63535E-14
 -1      3281 1.29354E-02 7.16706E-04-5.02747E-14
 -1      3282 1.31263E-02 6.23387E-04-5.10305E-14
 -1      3283 1.29334E-02-8.61160E-06-5.28184E-14
 -1      3284 1.27855E-02-7.99449E-05-5.24128E-14
 -1      3285 9.32143E-04-2.20476E-04-6.09051E-16
 -1      3286 1.25624E-02-1.98413E-04-5.17807E-14
 -1      3287 1.23456E-02-3.26008E-04-5.11470E-14
 -1      3288 1.26730E-02-1.68696E-04-5.25966E-14
 -1      3289 1.82454E-03 3.81208E-04-1.48609E-15
 -1      3290 1.68119E-03 3.69631E-04-1.26953E-15
 -1      3291 1.88827E-03 3.50481E-04-1.64533E-15
 -1      3292 1.42024E-02 2.11324E-04-6.17885E-14
 -1      3293 1.42630E-02 2.48488E-04-6.15781E-14
 -1      3294 1.41760E-02 2.51096E-04-6.05768E-14
 -1      3295 1.40725E-02 1.29597E-04-6.22063E-14
 -1      3296 1.41383E-02 1.71524E-04-6.19987E-14
 -1      3297 1.40478E-02 1.72063E-04-6.09916E-14
 -1      3298 1.44303E-02 6.03333E-04-5.97886E-14
 -1      3299 1.33309E-02 1.67938E-04-5.34708E-14
 -1      3300 1.31579E-02 9.52012E-05-5.32611E-14
 -1      3301 1.37600E-02 3.56020E-04-5.32582E-14
 -1      3302 1.38034E-02 3.41318E-04-5.35675E-14
 -1      3303 1.18228E-02 1.25063E-03-4.51218E-14
 -1      3304 3.54063E-03 4.23569E-04-5.43505E-15
 -1      3305 3.39779E-03 4.23647E-04-5.01240E-15
 -1      3306 3.32324E-03 3.86124E-04-4.87995E-15
 -1      3307 3.60965E-03 3.85999E-04-5.72888E-15
 -1      3308 1.44459E-03-3.13828E-04-1.27818E-15
 -1      3309 1.58809E-03-3.28293E-04-1.51075E-15
 -1      3310 1.65241E-03-3.00206E-04-1.63682E-15
 -1      3311 9.10043E-03 1.84559E-04-3.58196E-14
 -1      3312 9.21866E-03 2.17979E-04-3.60264E-14
 -1      3313 9.23099E-03 2.43031E-04-3.54306E-14
 -1      3314 1.06275E-02-6.44088E-04-4.24182E-14
 -1      3315 1.04443E-02-5.47049E-04-4.15202E-14
 -1      3316 8.99090E-03 1.13978E-04-3.61901E-14
 -1      3317 8.96254E-03 1.28061E-04-3.60733E-14
 -1      3318 1.08175E-03-2.54052E-04-7.78633E-16
 -1      3319 1.29263E-03-2.85266E-04-1.05731E-15
 -1      3320 1.35709E-03-2.61809E-04-1.16404E-15
 -1      3321 1.05674E-03-2.05814E-04-7.64213E-16
 -1      3322 9.49560E-03-5.80730E-05-3.78957E-14
 -1      3323 9.35403E-03-1.83872E-06-3.74551E-14
 -1      3324 9.80414E-03-2.09686E-04-3.88758E-14
 -1      3325 9.64895E-03-1.27835E-04-3.83838E-14
 -1      3326 9.50703E-03-1.04323E-04-3.76127E-14
 -1      3327 1.09975E-02-7.79557E-04-4.44162E-14
 -1      3328 1.08399E-02-7.30127E-04-4.35304E-14
 -1      3329 8.96773E-03 1.40718E-04-3.59689E-14
 -1      3330 9.00493E-03 1.53500E-04-3.58654E-14
 -1      3331 8.91856E-03 1.27714E-04-3.54193E-14
 -1      3332 1.01664E-03 6.82313E-05-6.70145E-16
 -1      3333 1.01548E-03 4.12377E-05-6.82519E-16
 -1      3334 9.70949E-03 4.35772E-04-3.65419E-14
 -1      3335 9.85813E-03 5.16942E-04-3.67982E-14
 -1      3336 1.02372E-02-4.37162E-04-4.05856E-14
 -1      3337 1.00435E-02-3.35434E-04-3.97740E-14
 -1      3338 9.94378E-03 6.02731E-04-3.64991E-14
 -1      3339 1.01489E-03 1.44501E-05-6.93673E-16
 -1      3340 1.01485E-03-1.22422E-05-7.03579E-16
 -1      3341 1.13558E-03 3.01726E-05-8.32328E-16
 -1      3342 1.39314E-02 6.09937E-05-6.20893E-14
 -1      3343 1.40161E-02 1.01114E-04-6.21945E-14
 -1      3344 1.39220E-02 9.88841E-05-6.11844E-14
 -1      3345 1.38059E-02 3.69757E-05-6.11550E-14
 -1      3346 9.00779E-03 6.72599E-05-3.56743E-14
 -1      3347 8.99746E-03 9.28860E-05-3.59327E-14
 -1      3348 8.91748E-03 9.54885E-05-3.52650E-14
 -1      3349 1.38296E-02 3.34227E-04-5.39725E-14
 -1      3350 1.38431E-02 3.28485E-04-5.43769E-14
 -1      3351 1.38709E-02 3.50578E-04-5.44760E-14
 -1      3352 1.08976E-02-7.98822E-04-4.40806E-14
 -1      3353 1.09831E-02-7.96670E-04-4.44670E-14
 -1      3354 1.06328E-02-7.36591E-04-4.25968E-14
 -1      3355 1.08033E-02-7.85055E-04-4.35722E-14
 -1      3356 1.19638E-02-6.20024E-04-5.05785E-14
 -1      3357 1.21410E-02-5.43227E-04-5.16079E-14
 -1      3358 1.08107E-02-7.51228E-04-4.34770E-14
 -1      3359 1.07416E-02-7.05553E-04-4.30276E-14
 -1      3360 2.74987E-03 3.81576E-04-3.38106E-15
 -1      3361 2.68332E-03 4.17547E-04-3.15220E-15
 -1      3362 2.54034E-03 4.14417E-04-2.83092E-15
 -1      3363 9.75988E-03 5.34407E-04-3.56114E-14
 -1      3364 9.59256E-03 4.42240E-04-3.53009E-14
 -1      3365 1.20160E-02 1.17508E-03-4.60724E-14
 -1      3366 1.39455E-02 6.46675E-04-5.65323E-14
 -1      3367 1.39174E-02 6.05023E-04-5.62143E-14
 -1      3368 1.40720E-02 6.36463E-04-5.73574E-14
 -1      3369 1.43122E-02 6.07319E-04-5.89550E-14
 -1      3370 1.41920E-02 6.12535E-04-5.81214E-14
 -1      3371 1.43890E-02 5.54015E-04-5.94016E-14
 -1      3372 1.44660E-02 4.43308E-04-6.00919E-14
 -1      3373 1.44533E-02 4.69925E-04-5.98820E-14
 -1      3374 2.39730E-03 4.10336E-04-2.52672E-15
 -1      3375 2.25421E-03 4.05195E-04-2.24040E-15
 -1      3376 2.46286E-03 3.75525E-04-2.73322E-15
 -1      3377 1.04776E-03-1.45831E-04-7.62248E-16
 -1      3378 1.05169E-03-1.75353E-04-7.64146E-16
 -1      3379 1.20031E-03-2.01255E-04-9.53569E-16
 -1      3380 1.44405E-02 4.94711E-04-5.97464E-14
 -1      3381 1.44125E-02 5.25190E-04-5.95371E-14
 -1      3382 1.43022E-02 5.24739E-04-5.87040E-14
 -1      3383 1.43436E-02 4.69919E-04-5.89738E-14
 -1      3384 1.35858E-02 4.52229E-04-5.29679E-14
 -1      3385 1.44593E-02 3.93747E-04-6.05175E-14
 -1      3386 1.44683E-02 4.18508E-04-6.03037E-14
 -1      3387 1.43646E-02 4.19775E-04-5.93173E-14
 -1      3388 1.43471E-02 3.70674E-04-5.97358E-14
 -1      3389 1.14122E-02-7.90974E-04-4.68907E-14
 -1      3390 1.13180E-02-8.13349E-04-4.64531E-14
 -1      3391 9.53671E-03 3.75875E-04-3.58211E-14
 -1      3392 1.32945E-02 5.90269E-04-5.19562E-14
 -1      3393 1.03039E-02-5.11640E-04-4.08188E-14
 -1      3394 1.37040E-02 2.90811E-04-5.38142E-14
 -1      3395 1.11517E-02-8.19073E-04-4.54660E-14
 -1      3396 1.10737E-02-8.01494E-04-4.49022E-14
 -1      3397 9.23363E-03 1.19654E-05-3.67372E-14
 -1      3398 1.30995E-02 4.44040E-05-5.36739E-14
 -1      3399 1.15626E-02-7.44372E-04-4.77275E-14
 -1      3400 2.17564E-03 3.65619E-04-2.15472E-15
 -1      3401 1.27650E-02 8.21186E-04-4.96138E-14
 -1      3402 1.22760E-02-4.49009E-04-5.19738E-14
 -1      3403 1.22151E-02 1.08661E-03-4.70311E-14
 -1      3404 1.24330E-02 9.67826E-04-4.80547E-14
 -1      3405 1.22421E-02-4.04900E-04-5.10301E-14
 -1      3406 1.37792E-02 3.80121E-04-5.37560E-14
 -1      3407 1.25660E-02 8.95176E-04-4.86409E-14
 -1      3408 1.34552E-02 2.05410E-04-5.39373E-14
 -1      3409 1.34341E-02 1.73000E-04-5.45853E-14
 -1      3410 1.35689E-02 2.33558E-04-5.44023E-14
 -1      3411 1.02836E-03 1.81228E-04-6.05554E-16
 -1      3412 1.02420E-03 1.51892E-04-6.24419E-16
 -1      3413 1.15312E-03 2.11892E-04-7.24708E-16
 -1      3414 1.02091E-03 1.23339E-04-6.41522E-16
 -1      3415 1.01844E-03 9.55608E-05-6.56796E-16
 -1      3416 1.13823E-03 8.86515E-05-8.03651E-16
 -1      3417 1.14382E-03 1.48819E-04-7.68361E-16
 -1      3418 1.55628E-03 3.61560E-04-1.08943E-15
 -1      3419 1.41292E-03 3.45397E-04-9.06230E-16
 -1      3420 1.36911E-03 3.15175E-04-8.87040E-16
 -1      3421 1.61929E-03 3.33947E-04-1.22588E-15
 -1      3422 1.05341E-02-6.64209E-04-4.19893E-14
 -1      3423 1.04466E-03-1.17109E-04-7.58996E-16
 -1      3424 1.19183E-03-1.37495E-04-9.47877E-16
 -1      3425 1.04238E-03-8.90343E-05-7.53873E-16
 -1      3426 9.00592E-03 1.66303E-04-3.52726E-14
 -1      3427 9.87986E-03-2.85922E-04-3.89896E-14
 -1      3428 1.12194E-02-8.25085E-04-4.59361E-14
 -1      3429 2.15050E-03-2.93379E-04-2.62426E-15
 -1      3430 2.29486E-03-2.98249E-04-2.94675E-15
 -1      3431 2.43922E-03-3.02154E-04-3.28695E-15
 -1      3432 2.58355E-03-3.05188E-04-3.64471E-15
 -1      3433 2.36235E-03-2.63536E-04-3.10562E-15
 -1      3434 2.72782E-03-3.07515E-04-4.01872E-15
 -1      3435 2.87203E-03-3.09206E-04-4.41005E-15
 -1      3436 2.65164E-03-2.69118E-04-3.81691E-15
 -1      3437 3.01616E-03-3.10389E-04-4.81760E-15
 -1      3438 3.16020E-03-3.11116E-04-5.24121E-15
 -1      3439 2.94070E-03-2.72248E-04-4.59534E-15
 -1      3440 3.30415E-03-3.11482E-04-5.68069E-15
 -1      3441 3.44801E-03-3.11523E-04-6.13553E-15
 -1      3442 3.22941E-03-2.73609E-04-5.43875E-15
 -1      3443 3.59178E-03-3.11308E-04-6.60565E-15
 -1      3444 3.73546E-03-3.10859E-04-7.09038E-15
 -1      3445 3.51769E-03-2.73710E-04-6.34414E-15
 -1      3446 3.87906E-03-3.10224E-04-7.58965E-15
 -1      3447 4.02256E-03-3.09413E-04-8.10383E-15
 -1      3448 3.80553E-03-2.72908E-04-7.30954E-15
 -1      3449 4.16598E-03-3.08458E-04-8.63240E-15
 -1      3450 4.30931E-03-3.07361E-04-9.17415E-15
 -1      3451 4.09291E-03-2.71438E-04-8.33337E-15
 -1      3452 4.45255E-03-3.06139E-04-9.72933E-15
 -1      3453 4.59571E-03-3.04789E-04-1.02989E-14
 -1      3454 4.37985E-03-2.69439E-04-9.41348E-15
 -1      3455 4.73879E-03-3.03317E-04-1.08823E-14
 -1      3456 4.88177E-03-3.01716E-04-1.14795E-14
 -1      3457 4.66632E-03-2.66972E-04-1.05485E-14
 -1      3458 5.02466E-03-2.99986E-04-1.20902E-14
 -1      3459 5.16745E-03-2.98114E-04-1.27141E-14
 -1      3460 4.95232E-03-2.64042E-04-1.17386E-14
 -1      3461 5.31013E-03-2.96099E-04-1.33517E-14
 -1      3462 5.45271E-03-2.93923E-04-1.40033E-14
 -1      3463 5.23780E-03-2.60611E-04-1.29842E-14
 -1      3464 5.59517E-03-2.91585E-04-1.46679E-14
 -1      3465 5.73751E-03-2.89068E-04-1.53474E-14
 -1      3466 5.52268E-03-2.56616E-04-1.42846E-14
 -1      3467 5.87970E-03-2.86371E-04-1.60394E-14
 -1      3468 6.02175E-03-2.83479E-04-1.67444E-14
 -1      3469 5.80689E-03-2.51983E-04-1.56393E-14
 -1      3470 6.16363E-03-2.80399E-04-1.74626E-14
 -1      3471 6.30536E-03-2.77116E-04-1.81940E-14
 -1      3472 6.09029E-03-2.46642E-04-1.70476E-14
 -1      3473 6.44689E-03-2.73649E-04-1.89358E-14
 -1      3474 6.58826E-03-2.69990E-04-1.96901E-14
 -1      3475 6.37277E-03-2.40549E-04-1.85063E-14
 -1      3476 6.72941E-03-2.66175E-04-2.04559E-14
 -1      3477 6.87039E-03-2.62204E-04-2.12315E-14
 -1      3478 6.65419E-03-2.33706E-04-2.00099E-14
 -1      3479 7.01117E-03-2.58133E-04-2.20193E-14
 -1      3480 7.15180E-03-2.53983E-04-2.28182E-14
 -1      3481 6.93444E-03-2.26191E-04-2.15590E-14
 -1      3482 7.29226E-03-2.49833E-04-2.36261E-14
 -1      3483 7.43265E-03-2.45732E-04-2.44447E-14
 -1      3484 7.21352E-03-2.18187E-04-2.31518E-14
 -1      3485 7.57296E-03-2.41786E-04-2.52708E-14
 -1      3486 7.71336E-03-2.38091E-04-2.61052E-14
 -1      3487 7.49154E-03-2.10022E-04-2.47837E-14
 -1      3488 7.85387E-03-2.34776E-04-2.69487E-14
 -1      3489 7.99475E-03-2.32017E-04-2.78015E-14
 -1      3490 7.76890E-03-2.02218E-04-2.64488E-14
 -1      3491 8.13610E-03-2.29960E-04-2.86622E-14
 -1      3492 8.27827E-03-2.28915E-04-2.95307E-14
 -1      3493 8.04644E-03-1.95567E-04-2.81500E-14
 -1      3494 8.42151E-03-2.29031E-04-3.04036E-14
 -1      3495 8.56630E-03-2.30856E-04-3.12837E-14
 -1      3496 8.32571E-03-1.91266E-04-2.98800E-14
 -1      3497 8.71306E-03-2.34538E-04-3.21702E-14
 -1      3498 8.86245E-03-2.41027E-04-3.30626E-14
 -1      3499 8.60932E-03-1.91190E-04-3.16350E-14
 -1      3500 9.01511E-03-2.50429E-04-3.39619E-14
 -1      3501 9.17172E-03-2.64375E-04-3.48655E-14
 -1      3502 8.90147E-03-1.98514E-04-3.34149E-14
 -1      3503 9.33328E-03-2.82977E-04-3.57735E-14
 -1      3504 9.50000E-03-3.08593E-04-3.66879E-14
 -1      3505 9.20828E-03-2.18788E-04-3.52162E-14
 -1      3506 1.19308E-02-5.83364E-04-4.97355E-14
 -1      3507 1.06088E-02-6.75244E-04-4.23630E-14
 -1      3508 1.40284E-02 2.17802E-04-5.97817E-14
 -1      3509 1.40926E-02 2.56320E-04-5.95767E-14
 -1      3510 1.29755E-02-1.46258E-04-5.54449E-14
 -1      3511 1.31466E-02-9.71630E-05-5.64864E-14
 -1      3512 1.33125E-02-5.51279E-05-5.75295E-14
 -1      3513 1.34731E-02-1.74128E-05-5.85759E-14
 -1      3514 1.33009E-02-1.85068E-05-5.68434E-14
 -1      3515 1.57408E-03-2.60761E-04-1.51406E-15
 -1      3516 1.71789E-03-2.71224E-04-1.76416E-15
 -1      3517 4.25227E-03 3.45055E-04-7.95453E-15
 -1      3518 4.10906E-03 3.46105E-04-7.45022E-15
 -1      3519 3.96577E-03 3.46999E-04-6.96037E-15
 -1      3520 3.82243E-03 3.47729E-04-6.48536E-15
 -1      3521 4.03586E-03 3.09081E-04-7.28100E-15
 -1      3522 4.82458E-03 3.39488E-04-1.01182E-14
 -1      3523 4.68159E-03 3.41083E-04-9.55534E-15
 -1      3524 5.11036E-03 3.35873E-04-1.12864E-14
 -1      3525 4.96750E-03 3.37755E-04-1.06953E-14
 -1      3526 4.89510E-03 3.01740E-04-1.04922E-14
 -1      3527 5.39586E-03 3.31634E-04-1.25143E-14
 -1      3528 5.25315E-03 3.33837E-04-1.18926E-14
 -1      3529 5.18073E-03 2.98257E-04-1.16792E-14
 -1      3530 5.68100E-03 3.26692E-04-1.37992E-14
 -1      3531 5.53848E-03 3.29257E-04-1.31495E-14
 -1      3532 5.46590E-03 2.94183E-04-1.29237E-14
 -1      3533 5.96570E-03 3.20973E-04-1.51377E-14
 -1      3534 5.82341E-03 3.23936E-04-1.44619E-14
 -1      3535 5.75049E-03 2.89448E-04-1.42247E-14
 -1      3536 6.24983E-03 3.14429E-04-1.65271E-14
 -1      3537 6.10784E-03 3.17808E-04-1.58268E-14
 -1      3538 6.03436E-03 2.83993E-04-1.55797E-14
 -1      3539 6.53320E-03 3.07079E-04-1.79658E-14
 -1      3540 6.39161E-03 3.10856E-04-1.72404E-14
 -1      3541 6.31731E-03 2.77794E-04-1.69834E-14
 -1      3542 6.81559E-03 2.99041E-04-1.94497E-14
 -1      3543 6.67452E-03 3.03141E-04-1.87022E-14
 -1      3544 6.59908E-03 2.70893E-04-1.84346E-14
 -1      3545 7.09673E-03 2.90587E-04-2.09776E-14
 -1      3546 6.95631E-03 2.94853E-04-2.02087E-14
 -1      3547 6.87933E-03 2.63440E-04-1.99315E-14
 -1      3548 7.37630E-03 2.82204E-04-2.25452E-14
 -1      3549 7.23671E-03 2.86362E-04-2.17562E-14
 -1      3550 7.15769E-03 2.55732E-04-2.14713E-14
 -1      3551 7.65402E-03 2.74651E-04-2.41482E-14
 -1      3552 7.51538E-03 2.78283E-04-2.33430E-14
 -1      3553 7.43369E-03 2.48262E-04-2.30507E-14
 -1      3554 7.92969E-03 2.69034E-04-2.57797E-14
 -1      3555 7.79208E-03 2.71539E-04-2.49612E-14
 -1      3556 7.70686E-03 2.41763E-04-2.46646E-14
 -1      3557 8.20342E-03 2.66864E-04-2.74374E-14
 -1      3558 8.06672E-03 2.67425E-04-2.66053E-14
 -1      3559 7.97684E-03 2.37234E-04-2.63045E-14
 -1      3560 8.47599E-03 2.70144E-04-2.91182E-14
 -1      3561 8.33969E-03 2.67679E-04-2.82755E-14
 -1      3562 8.24347E-03 2.35961E-04-2.79698E-14
 -1      3563 8.74948E-03 2.81533E-04-3.08224E-14
 -1      3564 8.61230E-03 2.74564E-04-2.99675E-14
 -1      3565 8.50722E-03 2.39526E-04-2.96592E-14
 -1      3566 9.02854E-03 3.05012E-04-3.25449E-14
 -1      3567 8.88774E-03 2.91207E-04-3.16805E-14
 -1      3568 8.76985E-03 2.49859E-04-3.13709E-14
 -1      3569 9.32101E-03 3.47912E-04-3.42880E-14
 -1      3570 9.17193E-03 3.22941E-04-3.34148E-14
 -1      3571 9.03562E-03 2.70336E-04-3.31022E-14
 -1      3572 1.37685E-02 5.72714E-04-5.50699E-14
 -1      3573 1.36195E-02 5.75925E-04-5.40721E-14
 -1      3574 1.34556E-02 5.72058E-04-5.29475E-14
 -1      3575 1.41501E-02 2.90515E-04-5.93709E-14
 -1      3576 1.41979E-02 3.20939E-04-5.91646E-14
 -1      3577 1.40135E-02 2.62592E-04-5.85840E-14
 -1      3578 2.24131E-03 3.31911E-04-2.34201E-15
 -1      3579 2.09725E-03 3.26145E-04-2.06728E-15
 -1      3580 9.43193E-03 3.57205E-04-3.51153E-14
 -1      3581 1.37930E-02 3.03697E-04-5.46035E-14
 -1      3582 1.37021E-02 2.77093E-04-5.45495E-14
 -1      3583 9.22118E-03-2.66499E-05-3.62847E-14
 -1      3584 9.10419E-03 2.01977E-05-3.58960E-14
 -1      3585 8.87242E-03 1.15522E-04-3.49108E-14
 -1      3586 8.87808E-03 1.29117E-04-3.48091E-14
 -1      3587 1.28156E-02-1.28463E-04-5.35671E-14
 -1      3588 1.26154E-02-2.34167E-04-5.29301E-14
 -1      3589 1.95322E-03 3.19046E-04-1.80933E-15
 -1      3590 1.80922E-03 3.10480E-04-1.56879E-15
 -1      3591 2.01919E-03 2.86926E-04-1.97805E-15
 -1      3592 1.02756E-03-3.65502E-05-7.25792E-16
 -1      3593 1.02859E-03-6.36117E-05-7.33409E-16
 -1      3594 1.17465E-03-7.87741E-05-9.18997E-16
 -1      3595 1.14782E-03-2.49447E-05-8.70004E-16
 -1      3596 3.10474E-03 3.47792E-04-4.35166E-15
 -1      3597 2.96100E-03 3.46769E-04-3.97387E-15
 -1      3598 1.36034E-02 4.90404E-04-5.34395E-14
 -1      3599 1.37190E-02 4.44500E-04-5.39176E-14
 -1      3600 9.27018E-03 2.89029E-04-3.48022E-14
 -1      3601 1.86194E-03-2.80036E-04-2.03296E-15
 -1      3602 2.00618E-03-2.87349E-04-2.31985E-15
 -1      3603 2.07311E-03-2.54623E-04-2.46366E-15
 -1      3604 8.90529E-03 1.49234E-04-3.45836E-14
 -1      3605 8.98548E-03 1.78693E-04-3.45399E-14
 -1      3606 4.53854E-03 3.42541E-04-9.00727E-15
 -1      3607 4.39544E-03 3.43867E-04-8.47323E-15
 -1      3608 4.32264E-03 3.07146E-04-8.29407E-15
 -1      3609 4.60905E-03 3.04693E-04-9.36448E-15
 -1      3610 9.14648E-03 2.42329E-04-3.46005E-14
 -1      3611 1.32564E-02 8.24952E-05-5.46588E-14
 -1      3612 1.30555E-02-9.43100E-06-5.42147E-14
 -1      3613 1.26074E-02-2.81646E-04-5.34554E-14
 -1      3614 1.27897E-02-2.15391E-04-5.44919E-14
 -1      3615 9.49510E-03-1.52929E-04-3.72338E-14
 -1      3616 9.36339E-03-9.29989E-05-3.67527E-14
 -1      3617 1.38885E-02 1.29898E-04-6.01880E-14
 -1      3618 1.39594E-02 1.75423E-04-5.99856E-14
 -1      3619 1.38743E-02 1.80804E-04-5.89868E-14
 -1      3620 9.91940E-03-3.58426E-04-3.89729E-14
 -1      3621 9.70540E-03-2.47956E-04-3.80824E-14
 -1      3622 1.38117E-02 4.05251E-04-5.43087E-14
 -1      3623 1.38713E-02 3.80879E-04-5.46244E-14
 -1      3624 1.39174E-02 3.70400E-04-5.50324E-14
 -1      3625 1.39536E-02 3.62364E-04-5.54395E-14
 -1      3626 1.39651E-02 3.93009E-04-5.55860E-14
 -1      3627 9.00523E-03 2.12607E-04-3.39177E-14
 -1      3628 9.55211E-03-2.72625E-04-3.70895E-14
 -1      3629 9.68712E-03-3.52806E-04-3.76610E-14
 -1      3630 9.86597E-03-3.96130E-04-3.85906E-14
 -1      3631 1.00454E-02-4.40793E-04-3.95067E-14
 -1      3632 1.02339E-02-5.03952E-04-4.04507E-14
 -1      3633 8.85112E-03 9.85184E-05-3.46560E-14
 -1      3634 8.79124E-03 1.00844E-04-3.40495E-14
 -1      3635 8.83697E-03 7.88228E-05-3.43988E-14
 -1      3636 1.29509E-02-1.21270E-04-5.48516E-14
 -1      3637 9.54377E-03-2.23639E-04-3.72152E-14
 -1      3638 1.78435E-03-2.41320E-04-1.89254E-15
 -1      3639 1.35765E-02-2.36098E-06-5.93972E-14
 -1      3640 1.37055E-02 2.25990E-05-6.03269E-14
 -1      3641 1.37649E-02 5.54310E-05-6.03435E-14
 -1      3642 1.35641E-02 2.99592E-05-5.87003E-14
 -1      3643 1.04222E-02-6.00621E-04-4.13866E-14
 -1      3644 3.74874E-03 3.10418E-04-6.32784E-15
 -1      3645 3.67903E-03 3.48263E-04-6.02674E-15
 -1      3646 3.53556E-03 3.48584E-04-5.58391E-15
 -1      3647 1.38943E-02 5.62939E-04-5.58940E-14
 -1      3648 1.38762E-02 5.20259E-04-5.55732E-14
 -1      3649 1.40162E-02 5.56087E-04-5.67205E-14
 -1      3650 1.25759E-03 4.78655E-05-9.82206E-16
 -1      3651 1.25685E-03 1.67853E-05-9.97141E-16
 -1      3652 1.32612E-03 2.85721E-04-8.65993E-16
 -1      3653 1.28394E-03 2.57030E-04-8.43577E-16
 -1      3654 1.45115E-03 2.96048E-04-1.02643E-15
 -1      3655 1.36039E-02 5.15099E-04-5.36193E-14
 -1      3656 2.38535E-03 3.36573E-04-2.63423E-15
 -1      3657 2.30793E-03 2.97675E-04-2.53432E-15
 -1      3658 2.52935E-03 3.40240E-04-2.94421E-15
 -1      3659 1.35063E-02 1.62932E-04-5.55959E-14
 -1      3660 1.33846E-02 1.26432E-04-5.51276E-14
 -1      3661 1.33459E-02 7.71740E-05-5.56737E-14
 -1      3662 1.42449E-02 4.47454E-04-5.81591E-14
 -1      3663 1.42261E-02 4.73691E-04-5.80261E-14
 -1      3664 1.38364E-02 4.38769E-04-5.47837E-14
 -1      3665 1.42343E-02 3.47624E-04-5.89580E-14
 -1      3666 1.42571E-02 3.72609E-04-5.87505E-14
 -1      3667 1.41184E-02 3.24862E-04-5.81794E-14
 -1      3668 1.38699E-02 3.20330E-04-5.51141E-14
 -1      3669 1.42668E-02 3.96091E-04-5.85575E-14
 -1      3670 1.42616E-02 4.21067E-04-5.83501E-14
 -1      3671 1.41573E-02 4.22589E-04-5.74024E-14
 -1      3672 1.41691E-02 3.73870E-04-5.77838E-14
 -1      3673 2.81718E-03 3.45224E-04-3.61400E-15
 -1      3674 2.67330E-03 3.43095E-04-3.27100E-15
 -1      3675 2.88519E-03 3.08556E-04-3.85094E-15
 -1      3676 8.99152E-03 3.45584E-05-3.52260E-14
 -1      3677 8.83549E-03 1.36843E-04-3.40798E-14
 -1      3678 1.24580E-02-3.28527E-04-5.24834E-14
 -1      3679 1.73085E-03 2.71057E-04-1.49056E-15
 -1      3680 1.66537E-03 3.00176E-04-1.34533E-15
 -1      3681 1.22668E-02-4.13589E-04-5.14560E-14
 -1      3682 1.29892E-02-7.46504E-05-5.45545E-14
 -1      3683 1.36899E-02 2.54352E-04-5.51992E-14
 -1      3684 1.27733E-03 2.22465E-04-8.71766E-16
 -1      3685 3.24842E-03 3.48401E-04-4.74585E-15
 -1      3686 3.17340E-03 3.10507E-04-4.61030E-15
 -1      3687 3.39202E-03 3.48640E-04-5.15661E-15
 -1      3688 9.21245E-03-7.32419E-05-3.59087E-14
 -1      3689 1.38244E-02 8.73427E-05-6.03584E-14
 -1      3690 1.31112E-03-2.19458E-04-1.10768E-15
 -1      3691 1.46204E-03-2.43899E-04-1.33365E-15
 -1      3692 1.52841E-03-2.17352E-04-1.44681E-15
 -1      3693 1.30588E-03-1.85440E-04-1.10555E-15
 -1      3694 1.37317E-02 8.89318E-05-5.93532E-14
 -1      3695 1.26124E-03 1.10646E-04-9.47633E-16
 -1      3696 1.25904E-03 7.90925E-05-9.65645E-16
 -1      3697 1.38077E-03 6.71783E-05-1.14294E-15
 -1      3698 1.53992E-03 2.93440E-04-1.15989E-15
 -1      3699 1.29844E-03-1.19533E-04-1.09492E-15
 -1      3700 1.30167E-03-1.52182E-04-1.10118E-15
 -1      3701 1.41226E-03-1.66769E-04-1.26596E-15
 -1      3702 9.36157E-03-1.89207E-04-3.62495E-14
 -1      3703 2.57562E-03-2.30782E-04-3.61874E-15
 -1      3704 2.72049E-03-2.32660E-04-3.98924E-15
 -1      3705 2.86530E-03-2.34053E-04-4.37634E-15
 -1      3706 3.01002E-03-2.35008E-04-4.78033E-15
 -1      3707 2.79004E-03-1.95868E-04-4.16087E-15
 -1      3708 3.15465E-03-2.35616E-04-5.19998E-15
 -1      3709 3.29915E-03-2.35909E-04-5.63538E-15
 -1      3710 3.07994E-03-1.97545E-04-4.96401E-15
 -1      3711 3.44354E-03-2.35956E-04-6.08560E-15
 -1      3712 3.58779E-03-2.35777E-04-6.55126E-15
 -1      3713 3.36938E-03-1.98072E-04-5.83046E-15
 -1      3714 3.73192E-03-2.35421E-04-7.03257E-15
 -1      3715 3.87591E-03-2.34899E-04-7.52737E-15
 -1      3716 3.65828E-03-1.97776E-04-6.75756E-15
 -1      3717 4.01977E-03-2.34245E-04-8.03739E-15
 -1      3718 4.16349E-03-2.33462E-04-8.56216E-15
 -1      3719 3.94659E-03-1.96881E-04-7.74481E-15
 -1      3720 4.30708E-03-2.32572E-04-9.09938E-15
 -1      3721 4.45052E-03-2.31570E-04-9.65081E-15
 -1      3722 4.23427E-03-1.95530E-04-8.78852E-15
 -1      3723 4.59383E-03-2.30470E-04-1.02174E-14
 -1      3724 4.73699E-03-2.29263E-04-1.07971E-14
 -1      3725 4.52133E-03-1.93796E-04-9.88872E-15
 -1      3726 4.88000E-03-2.27955E-04-1.13903E-14
 -1      3727 5.02285E-03-2.26534E-04-1.19977E-14
 -1      3728 4.80771E-03-1.91703E-04-1.10447E-14
 -1      3729 5.16554E-03-2.25000E-04-1.26189E-14
 -1      3730 5.30805E-03-2.23339E-04-1.32539E-14
 -1      3731 5.09337E-03-1.89232E-04-1.22562E-14
 -1      3732 5.45036E-03-2.21550E-04-1.39026E-14
 -1      3733 5.59247E-03-2.19614E-04-1.45656E-14
 -1      3734 5.37821E-03-1.86338E-04-1.35236E-14
 -1      3735 5.73436E-03-2.17533E-04-1.52416E-14
 -1      3736 5.87601E-03-2.15284E-04-1.59311E-14
 -1      3737 5.66211E-03-1.82955E-04-1.48457E-14
 -1      3738 6.01739E-03-2.12875E-04-1.66346E-14
 -1      3739 6.15849E-03-2.10280E-04-1.73503E-14
 -1      3740 5.94491E-03-1.79012E-04-1.62224E-14
 -1      3741 6.29928E-03-2.07514E-04-1.80773E-14
 -1      3742 6.43974E-03-2.04551E-04-1.88157E-14
 -1      3743 6.22640E-03-1.74434E-04-1.76509E-14
 -1      3744 6.57984E-03-2.01416E-04-1.95674E-14
 -1      3745 6.71957E-03-1.98084E-04-2.03298E-14
 -1      3746 6.50634E-03-1.69163E-04-1.91262E-14
 -1      3747 6.85889E-03-1.94594E-04-2.11015E-14
 -1      3748 6.99782E-03-1.90925E-04-2.18847E-14
 -1      3749 6.78449E-03-1.63163E-04-2.06465E-14
 -1      3750 7.13630E-03-1.87129E-04-2.26794E-14
 -1      3751 7.27439E-03-1.83197E-04-2.34840E-14
 -1      3752 7.06060E-03-1.56439E-04-2.22095E-14
 -1      3753 7.41204E-03-1.79197E-04-2.42981E-14
 -1      3754 7.54935E-03-1.75137E-04-2.51210E-14
 -1      3755 7.33452E-03-1.49043E-04-2.38148E-14
 -1      3756 7.68629E-03-1.71098E-04-2.59525E-14
 -1      3757 7.82304E-03-1.67124E-04-2.67914E-14
 -1      3758 7.60621E-03-1.41098E-04-2.54575E-14
 -1      3759 7.95959E-03-1.63304E-04-2.76389E-14
 -1      3760 8.09623E-03-1.59755E-04-2.84954E-14
 -1      3761 7.87587E-03-1.32817E-04-2.71314E-14
 -1      3762 8.23303E-03-1.56563E-04-2.93579E-14
 -1      3763 8.37047E-03-1.53986E-04-3.02261E-14
 -1      3764 8.14417E-03-1.24562E-04-2.88372E-14
 -1      3765 8.50868E-03-1.52082E-04-3.11023E-14
 -1      3766 8.64845E-03-1.51426E-04-3.19829E-14
 -1      3767 8.41250E-03-1.16990E-04-3.05704E-14
 -1      3768 8.79012E-03-1.52017E-04-3.28706E-14
 -1      3769 8.93485E-03-1.55206E-04-3.37631E-14
 -1      3770 8.68345E-03-1.11340E-04-3.23292E-14
 -1      3771 9.06660E-03-1.62857E-04-3.45517E-14
 -1      3772 9.21977E-03-1.72975E-04-3.54527E-14
 -1      3773 9.20795E-03-1.27305E-04-3.55788E-14
 -1      3774 8.94645E-03-1.12988E-04-3.39986E-14
 -1      3775 1.31734E-02-1.44880E-05-5.55029E-14
 -1      3776 1.36335E-02 7.87486E-05-5.85360E-14
 -1      3777 1.49781E-03 2.64576E-04-1.13324E-15
 -1      3778 5.25099E-03 2.60853E-04-1.20738E-14
 -1      3779 5.10836E-03 2.62560E-04-1.14644E-14
 -1      3780 4.96558E-03 2.64134E-04-1.08696E-14
 -1      3781 4.82266E-03 2.65590E-04-1.02887E-14
 -1      3782 5.03603E-03 2.26713E-04-1.12486E-14
 -1      3783 5.81968E-03 2.52599E-04-1.46529E-14
 -1      3784 5.67781E-03 2.54895E-04-1.39878E-14
 -1      3785 6.10261E-03 2.47526E-04-1.60222E-14
 -1      3786 5.96128E-03 2.50149E-04-1.53309E-14
 -1      3787 5.88859E-03 2.16189E-04-1.50820E-14
 -1      3788 6.38428E-03 2.41810E-04-1.74397E-14
 -1      3789 6.24362E-03 2.44753E-04-1.67254E-14
 -1      3790 6.17051E-03 2.11617E-04-1.64663E-14
 -1      3791 6.66433E-03 2.35519E-04-1.89048E-14
 -1      3792 6.52452E-03 2.38737E-04-1.81661E-14
 -1      3793 6.45081E-03 2.06521E-04-1.78980E-14
 -1      3794 6.94234E-03 2.28833E-04-2.04143E-14
 -1      3795 6.80360E-03 2.32222E-04-1.96540E-14
 -1      3796 6.72907E-03 2.01000E-04-1.93770E-14
 -1      3797 7.21778E-03 2.22067E-04-2.19679E-14
 -1      3798 7.08040E-03 2.25451E-04-2.11866E-14
 -1      3799 7.00475E-03 1.95256E-04-2.09003E-14
 -1      3800 7.49008E-03 2.15716E-04-2.35572E-14
 -1      3801 7.35434E-03 2.18825E-04-2.27571E-14
 -1      3802 7.27723E-03 1.89623E-04-2.24646E-14
 -1      3803 7.75857E-03 2.10469E-04-2.51804E-14
 -1      3804 7.62481E-03 2.12934E-04-2.43651E-14
 -1      3805 7.54576E-03 1.84588E-04-2.40655E-14
 -1      3806 8.02261E-03 2.07207E-04-2.68297E-14
 -1      3807 7.89114E-03 2.08566E-04-2.60028E-14
 -1      3808 7.80947E-03 1.80787E-04-2.56982E-14
 -1      3809 8.28172E-03 2.06975E-04-2.85039E-14
 -1      3810 8.15273E-03 2.06682E-04-2.76639E-14
 -1      3811 8.06743E-03 1.78969E-04-2.73561E-14
 -1      3812 8.53580E-03 2.10953E-04-3.02023E-14
 -1      3813 8.40923E-03 2.08400E-04-2.93501E-14
 -1      3814 8.31863E-03 1.79920E-04-2.90399E-14
 -1      3815 8.78539E-03 2.20372E-04-3.19228E-14
 -1      3816 8.66077E-03 2.14939E-04-3.10603E-14
 -1      3817 8.56220E-03 1.84396E-04-3.07485E-14
 -1      3818 8.88857E-03 2.04743E-04-3.30430E-14
 -1      3819 1.99628E-03-2.16374E-04-2.30644E-15
 -1      3820 2.14099E-03-2.21210E-04-2.60821E-15
 -1      3821 1.41609E-02 5.74140E-04-5.78041E-14
 -1      3822 1.38719E-02 2.32931E-04-5.78070E-14
 -1      3823 1.39417E-02 2.70962E-04-5.76099E-14
 -1      3824 1.52343E-03-1.81133E-04-1.44179E-15
 -1      3825 1.63512E-03-1.95240E-04-1.62872E-15
 -1      3826 1.51950E-03-1.45437E-04-1.43435E-15
 -1      3827 1.39478E-02 4.60519E-04-5.57973E-14
 -1      3828 1.40180E-02 4.27532E-04-5.61936E-14
 -1      3829 1.39481E-02 3.38751E-04-5.56891E-14
 -1      3830 1.39054E-02 3.13002E-04-5.59213E-14
 -1      3831 1.79737E-03 2.41028E-04-1.64080E-15
 -1      3832 1.65334E-03 2.32531E-04-1.41121E-15
 -1      3833 8.75467E-03 1.20139E-04-3.35033E-14
 -1      3834 8.77388E-03 1.41755E-04-3.32808E-14
 -1      3835 1.35118E-02 6.30061E-05-5.75923E-14
 -1      3836 1.36826E-02 1.21246E-04-5.82426E-14
 -1      3837 1.37635E-02 1.71812E-04-5.80479E-14
 -1      3838 1.33543E-02 3.14571E-05-5.65555E-14
 -1      3839 1.38411E-03 2.25938E-04-1.01349E-15
 -1      3840 1.25420E-03 1.83808E-04-8.78732E-16
 -1      3841 1.25001E-03 1.51164E-04-9.01623E-16
 -1      3842 1.47333E-03 2.22744E-04-1.14496E-15
 -1      3843 1.39175E-03 4.80103E-06-1.19349E-15
 -1      3844 1.26926E-03-1.10686E-05-1.02612E-15
 -1      3845 1.28223E-03-3.93073E-05-1.05439E-15
 -1      3846 1.38031E-02 2.68607E-04-5.60863E-14
 -1      3847 1.36792E-02 2.25554E-04-5.59435E-14
 -1      3848 1.74333E-03-2.03168E-04-1.82029E-15
 -1      3849 1.88761E-03-2.09813E-04-2.09101E-15
 -1      3850 1.95602E-03-1.77734E-04-2.22272E-15
 -1      3851 1.73900E-03-1.65224E-04-1.81123E-15
 -1      3852 1.40678E-02 4.80637E-04-5.68062E-14
 -1      3853 1.41644E-02 5.03542E-04-5.76193E-14
 -1      3854 1.33959E-02 7.35020E-05-5.62523E-14
 -1      3855 5.53573E-03 2.57028E-04-1.33357E-14
 -1      3856 5.39345E-03 2.59015E-04-1.26976E-14
 -1      3857 5.60538E-03 2.20212E-04-1.37497E-14
 -1      3858 2.28582E-03-2.25159E-04-2.92743E-15
 -1      3859 2.43072E-03-2.28303E-04-3.26437E-15
 -1      3860 2.20972E-03-1.87142E-04-2.75311E-15
 -1      3861 2.08618E-03 2.54111E-04-2.15142E-15
 -1      3862 1.94167E-03 2.48187E-04-1.88768E-15
 -1      3863 1.86481E-03 2.10086E-04-1.79601E-15
 -1      3864 1.40696E-02 4.15488E-04-5.66040E-14
 -1      3865 8.95170E-03 3.93486E-06-3.46821E-14
 -1      3866 8.87544E-03 4.70039E-05-3.44653E-14
 -1      3867 4.10619E-03 2.71132E-04-7.60481E-15
 -1      3868 3.96255E-03 2.71882E-04-7.11060E-15
 -1      3869 9.08460E-03-6.73008E-05-3.51168E-14
 -1      3870 8.78304E-03 1.72885E-04-3.27269E-14
 -1      3871 1.41328E-02 5.35780E-04-5.74847E-14
 -1      3872 8.79158E-03 5.39807E-05-3.38606E-14
 -1      3873 2.49986E-03-1.92596E-04-3.42312E-15
 -1      3874 8.67705E-03 1.53266E-04-3.21583E-14
 -1      3875 1.37109E-03 1.43071E-04-1.07339E-15
 -1      3876 8.71400E-03 1.03569E-04-3.32510E-14
 -1      3877 1.50504E-03 8.79332E-05-1.31431E-15
 -1      3878 1.50340E-03 5.32363E-05-1.33524E-15
 -1      3879 5.32113E-03 2.23705E-04-1.24706E-14
 -1      3880 4.75021E-03 2.29281E-04-1.00849E-14
 -1      3881 4.67961E-03 2.66925E-04-9.72353E-15
 -1      3882 4.53643E-03 2.68151E-04-9.17227E-15
 -1      3883 2.37547E-03 2.62900E-04-2.73051E-15
 -1      3884 2.23080E-03 2.58982E-04-2.43226E-15
 -1      3885 2.15406E-03 2.20617E-04-2.32945E-15
 -1      3886 3.24262E-03 2.72995E-04-4.87312E-15
 -1      3887 3.09830E-03 2.72474E-04-4.47393E-15
 -1      3888 2.59666E-03 3.04544E-04-3.15901E-15
 -1      3889 1.36872E-02 1.80682E-04-5.70682E-14
 -1      3890 1.39169E-02 2.93716E-04-5.66676E-14
 -1      3891 1.40349E-02 3.15837E-04-5.74379E-14
 -1      3892 1.38670E-02 4.98221E-04-5.53931E-14
 -1      3893 1.63961E-03 4.13435E-05-1.56137E-15
 -1      3894 1.51524E-03 2.23510E-05-1.37230E-15
 -1      3895 1.52773E-03-8.76032E-06-1.40801E-15
 -1      3896 1.40882E-02 3.90012E-04-5.67937E-14
 -1      3897 1.40722E-02 3.41241E-04-5.72372E-14
 -1      3898 1.54026E-03 1.95888E-04-1.27383E-15
 -1      3899 2.95388E-03 2.71578E-04-4.09126E-15
 -1      3900 2.80937E-03 2.70267E-04-3.72629E-15
 -1      3901 3.02320E-03 2.34347E-04-4.33643E-15
 -1      3902 1.37481E-02 5.04289E-04-5.45701E-14
 -1      3903 3.46125E-03 3.10987E-04-5.43661E-15
 -1      3904 1.20576E-02-5.28037E-04-5.05229E-14
 -1      3905 4.39313E-03 2.69259E-04-8.63469E-15
 -1      3906 4.24972E-03 2.70258E-04-8.11284E-15
 -1      3907 4.46376E-03 2.31441E-04-8.97942E-15
 -1      3908 1.40162E-02 3.57533E-04-5.62466E-14
 -1      3909 3.81879E-03 2.72484E-04-6.63132E-15
 -1      3910 3.67491E-03 2.72930E-04-6.16804E-15
 -1      3911 3.88914E-03 2.34510E-04-6.93884E-15
 -1      3912 1.28274E-03-6.45858E-05-1.06257E-15
 -1      3913 1.29686E-03-9.36634E-05-1.08895E-15
 -1      3914 1.40682E-03-1.05318E-04-1.25243E-15
 -1      3915 1.40477E-03-5.16013E-05-1.23542E-15
 -1      3916 4.17673E-03 2.33198E-04-7.93000E-15
 -1      3917 8.94609E-03-4.17567E-05-3.43555E-14
 -1      3918 3.00539E-03-1.59452E-04-4.73105E-15
 -1      3919 3.15042E-03-1.59876E-04-5.14679E-15
 -1      3920 3.29533E-03-1.60094E-04-5.57819E-15
 -1      3921 3.44008E-03-1.60117E-04-6.02440E-15
 -1      3922 3.22142E-03-1.22057E-04-5.32865E-15
 -1      3923 3.58469E-03-1.59993E-04-6.48619E-15
 -1      3924 3.72914E-03-1.59728E-04-6.96300E-15
 -1      3925 3.51120E-03-1.22096E-04-6.21771E-15
 -1      3926 3.87343E-03-1.59357E-04-7.45446E-15
 -1      3927 4.01754E-03-1.58878E-04-7.96107E-15
 -1      3928 3.80033E-03-1.21682E-04-7.16705E-15
 -1      3929 4.16149E-03-1.58316E-04-8.48109E-15
 -1      3930 4.30526E-03-1.57666E-04-9.01487E-15
 -1      3931 4.08874E-03-1.20932E-04-8.17578E-15
 -1      3932 4.44885E-03-1.56945E-04-9.56280E-15
 -1      3933 4.59226E-03-1.56144E-04-1.01255E-14
 -1      3934 4.37641E-03-1.19910E-04-9.24087E-15
 -1      3935 4.73547E-03-1.55272E-04-1.07018E-14
 -1      3936 4.87849E-03-1.54318E-04-1.12916E-14
 -1      3937 4.66330E-03-1.18649E-04-1.03614E-14
 -1      3938 5.02130E-03-1.53288E-04-1.18962E-14
 -1      3939 5.16389E-03-1.52165E-04-1.25142E-14
 -1      3940 4.94933E-03-1.17143E-04-1.15382E-14
 -1      3941 5.30623E-03-1.50956E-04-1.31463E-14
 -1      3942 5.44833E-03-1.49639E-04-1.37924E-14
 -1      3943 5.23442E-03-1.15367E-04-1.27713E-14
 -1      3944 5.59014E-03-1.48220E-04-1.44523E-14
 -1      3945 5.73166E-03-1.46675E-04-1.51256E-14
 -1      3946 5.51842E-03-1.13274E-04-1.40610E-14
 -1      3947 5.87284E-03-1.45012E-04-1.58126E-14
 -1      3948 6.01368E-03-1.43201E-04-1.65132E-14
 -1      3949 5.80115E-03-1.10805E-04-1.54050E-14
 -1      3950 6.15411E-03-1.41256E-04-1.72264E-14
 -1      3951 6.29412E-03-1.39142E-04-1.79498E-14
 -1      3952 6.08235E-03-1.07885E-04-1.68023E-14
 -1      3953 6.43366E-03-1.36878E-04-1.86860E-14
 -1      3954 6.57271E-03-1.34425E-04-1.94343E-14
 -1      3955 6.36174E-03-1.04436E-04-1.82487E-14
 -1      3956 6.71120E-03-1.31811E-04-2.01927E-14
 -1      3957 6.84913E-03-1.28990E-04-2.09616E-14
 -1      3958 6.63896E-03-1.00369E-04-1.97393E-14
 -1      3959 6.98641E-03-1.26000E-04-2.17420E-14
 -1      3960 7.12305E-03-1.22790E-04-2.25323E-14
 -1      3961 6.91361E-03-9.55935E-05-2.12755E-14
 -1      3962 7.25897E-03-1.19408E-04-2.33337E-14
 -1      3963 7.39420E-03-1.15801E-04-2.41441E-14
 -1      3964 7.18529E-03-9.00075E-05-2.28540E-14
 -1      3965 7.52866E-03-1.12024E-04-2.49635E-14
 -1      3966 7.66242E-03-1.08023E-04-2.57901E-14
 -1      3967 7.45360E-03-8.35001E-05-2.44709E-14
 -1      3968 7.79539E-03-1.03861E-04-2.66253E-14
 -1      3969 7.92774E-03-9.94934E-05-2.74683E-14
 -1      3970 7.71819E-03-7.59429E-05-2.61210E-14
 -1      3971 8.05935E-03-9.49819E-05-2.83198E-14
 -1      3972 8.19055E-03-9.03313E-05-2.91777E-14
 -1      3973 7.97882E-03-6.71881E-05-2.78036E-14
 -1      3974 8.32120E-03-8.56002E-05-3.00414E-14
 -1      3975 8.45192E-03-8.09070E-05-3.09127E-14
 -1      3976 8.23551E-03-5.70984E-05-2.95152E-14
 -1      3977 8.58241E-03-7.62582E-05-3.17876E-14
 -1      3978 8.71393E-03-7.20444E-05-3.26689E-14
 -1      3979 8.48881E-03-4.56882E-05-3.12507E-14
 -1      3980 8.83025E-03-4.31022E-05-3.35741E-14
 -1      3981 2.42450E-03-1.54675E-04-3.23068E-15
 -1      3982 2.56977E-03-1.56426E-04-3.58117E-15
 -1      3983 5.39119E-03 1.86851E-04-1.28695E-14
 -1      3984 5.24894E-03 1.88233E-04-1.22423E-14
 -1      3985 6.51710E-03 1.71972E-04-1.83585E-14
 -1      3986 6.37791E-03 1.74193E-04-1.76295E-14
 -1      3987 5.10646E-03 1.89510E-04-1.16307E-14
 -1      3988 4.96376E-03 1.90698E-04-1.10329E-14
 -1      3989 5.17689E-03 1.52561E-04-1.20142E-14
 -1      3990 4.24747E-03 1.95305E-04-8.25858E-15
 -1      3991 4.10371E-03 1.95965E-04-7.74672E-15
 -1      3992 8.71403E-03 3.15182E-05-3.31355E-14
 -1      3993 8.68971E-03 6.26604E-05-3.30713E-14
 -1      3994 6.23819E-03 1.76310E-04-1.69123E-14
 -1      3995 6.09797E-03 1.78346E-04-1.62058E-14
 -1      3996 6.30573E-03 1.41634E-04-1.73597E-14
 -1      3997 5.95732E-03 1.80262E-04-1.55125E-14
 -1      3998 5.81627E-03 1.82080E-04-1.48325E-14
 -1      3999 6.02593E-03 1.44850E-04-1.59455E-14
 -1      4000 6.79354E-03 1.67373E-04-1.98509E-14
 -1      4001 6.65565E-03 1.69707E-04-1.90994E-14
 -1      4002 6.58325E-03 1.38185E-04-1.88209E-14
 -1      4003 7.06692E-03 1.62740E-04-2.13883E-14
 -1      4004 6.93065E-03 1.65060E-04-2.06143E-14
 -1      4005 6.85792E-03 1.34654E-04-2.03279E-14
 -1      4006 7.33648E-03 1.58419E-04-2.29631E-14
 -1      4007 7.20222E-03 1.60538E-04-2.21714E-14
 -1      4008 7.12907E-03 1.31287E-04-2.18767E-14
 -1      4009 7.60133E-03 1.54887E-04-2.45741E-14
 -1      4010 7.46954E-03 1.56553E-04-2.37640E-14
 -1      4011 7.39583E-03 1.28444E-04-2.34640E-14
 -1      4012 7.86039E-03 1.52733E-04-2.62163E-14
 -1      4013 7.73163E-03 1.53644E-04-2.53920E-14
 -1      4014 7.65718E-03 1.26594E-04-2.50849E-14
 -1      4015 8.11235E-03 1.52597E-04-2.78848E-14
 -1      4016 7.98730E-03 1.52439E-04-2.70475E-14
 -1      4017 7.91181E-03 1.26288E-04-2.67364E-14
 -1      4018 8.35554E-03 1.55057E-04-2.95755E-14
 -1      4019 8.23509E-03 1.53578E-04-2.87261E-14
 -1      4020 8.15802E-03 1.28073E-04-2.84134E-14
 -1      4021 8.57767E-03 1.54715E-04-3.12932E-14
 -1      4022 8.46368E-03 1.51829E-04-3.04316E-14
 -1      4023 8.38593E-03 1.26963E-04-3.01123E-14
 -1      4024 8.59020E-03 1.24109E-04-3.18373E-14
 -1      4025 1.51743E-03-1.17083E-04-1.42727E-15
 -1      4026 1.62859E-03-1.28900E-04-1.61313E-15
 -1      4027 1.51594E-03-8.89531E-05-1.41861E-15
 -1      4028 3.38683E-03 2.73222E-04-5.28889E-15
 -1      4029 3.31235E-03 2.35316E-04-5.13970E-15
 -1      4030 3.53093E-03 2.73181E-04-5.72078E-15
 -1      4031 2.66479E-03 2.68435E-04-3.37772E-15
 -1      4032 2.52014E-03 2.66024E-04-3.04539E-15
 -1      4033 2.44383E-03 2.27625E-04-2.93119E-15
 -1      4034 2.73364E-03 2.31968E-04-3.60001E-15
 -1      4035 1.36440E-02 1.87105E-04-5.64911E-14
 -1      4036 1.40914E-02 3.64344E-04-5.70458E-14
 -1      4037 1.55037E-03 1.49983E-04-1.33385E-15
 -1      4038 1.67293E-03 1.37233E-04-1.54201E-15
 -1      4039 5.67489E-03 1.83776E-04-1.41648E-14
 -1      4040 5.53318E-03 1.85371E-04-1.35109E-14
 -1      4041 5.46120E-03 1.50323E-04-1.32703E-14
 -1      4042 2.13418E-03-1.49643E-04-2.58182E-15
 -1      4043 2.27928E-03-1.52428E-04-2.89773E-15
 -1      4044 2.34959E-03-1.17119E-04-3.04243E-15
 -1      4045 8.64842E-03 8.23671E-05-3.27247E-14
 -1      4046 8.60376E-03 1.04469E-04-3.21855E-14
 -1      4047 8.50509E-03 1.03963E-04-3.13176E-14
 -1      4048 8.56250E-03 6.36677E-05-3.20067E-14
 -1      4049 1.96156E-03 1.46699E-04-2.04227E-15
 -1      4050 1.81702E-03 1.42380E-04-1.78328E-15
 -1      4051 1.77194E-03 7.65060E-05-1.76190E-15
 -1      4052 2.71504E-03-1.57776E-04-3.94839E-15
 -1      4053 2.86026E-03-1.58759E-04-4.33156E-15
 -1      4054 2.93108E-03-1.21389E-04-4.50150E-15
 -1      4055 8.72683E-03-1.08433E-05-3.30241E-14
 -1      4056 4.03070E-03 1.58561E-04-7.56184E-15
 -1      4057 3.95979E-03 1.96521E-04-7.24912E-15
 -1      4058 3.81571E-03 1.96973E-04-6.76580E-15
 -1      4059 5.74430E-03 1.47754E-04-1.45818E-14
 -1      4060 4.89157E-03 1.54490E-04-1.08160E-14
 -1      4061 4.82086E-03 1.91790E-04-1.04491E-14
 -1      4062 4.67778E-03 1.92800E-04-9.88044E-15
 -1      4063 4.39107E-03 1.94558E-04-8.78460E-15
 -1      4064 4.31840E-03 1.57494E-04-8.58977E-15
 -1      4065 4.53451E-03 1.93719E-04-9.32530E-15
 -1      4066 3.60101E-03 2.35277E-04-6.00747E-15
 -1      4067 1.73487E-03-1.04943E-04-1.79267E-15
 -1      4068 1.73664E-03-1.34995E-04-1.80280E-15
 -1      4069 1.84500E-03-1.40746E-04-2.00262E-15
 -1      4070 2.25149E-03 1.53262E-04-2.61131E-15
 -1      4071 2.10641E-03 1.50316E-04-2.31820E-15
 -1      4072 2.06115E-03 8.11640E-05-2.29706E-15
 -1      4073 1.78348E-03 4.29898E-05-1.80708E-15
 -1      4074 3.09312E-03 1.96878E-04-4.58565E-15
 -1      4075 2.94821E-03 1.96186E-04-4.19815E-15
 -1      4076 2.64037E-03-1.19848E-04-3.73878E-15
 -1      4077 8.60816E-03 3.68684E-06-3.22398E-14
 -1      4078 1.52113E-03-3.49147E-05-1.40864E-15
 -1      4079 1.52159E-03-6.28233E-05-1.41974E-15
 -1      4080 1.63240E-03-7.25992E-05-1.60482E-15
 -1      4081 1.64486E-03-1.82900E-05-1.60362E-15
 -1      4082 1.95359E-03-1.46126E-04-2.21244E-15
 -1      4083 1.35162E-02 1.13212E-04-5.67228E-14
 -1      4084 2.02350E-03-1.12964E-04-2.34215E-15
 -1      4085 3.38257E-03 1.97485E-04-5.40956E-15
 -1      4086 3.23791E-03 1.97304E-04-4.98938E-15
 -1      4087 3.16358E-03 1.59226E-04-4.83871E-15
 -1      4088 3.43788E-03-8.41192E-05-5.95190E-15
 -1      4089 3.58270E-03-8.40335E-05-6.40978E-15
 -1      4090 3.72735E-03-8.38816E-05-6.88230E-15
 -1      4091 3.87182E-03-8.36600E-05-7.37038E-15
 -1      4092 3.65454E-03-4.59711E-05-6.60056E-15
 -1      4093 4.01609E-03-8.33902E-05-7.87261E-15
 -1      4094 4.16017E-03-8.30637E-05-8.38946E-15
 -1      4095 3.94357E-03-4.57041E-05-7.57231E-15
 -1      4096 4.30406E-03-8.26977E-05-8.91995E-15
 -1      4097 4.44774E-03-8.22830E-05-9.46477E-15
 -1      4098 4.23181E-03-4.53083E-05-8.60190E-15
 -1      4099 4.59121E-03-8.18315E-05-1.00233E-14
 -1      4100 4.73445E-03-8.13309E-05-1.05965E-14
 -1      4101 4.51921E-03-4.48164E-05-9.68816E-15
 -1      4102 4.87747E-03-8.07910E-05-1.11833E-14
 -1      4103 5.02024E-03-8.01965E-05-1.17839E-14
 -1      4104 4.80572E-03-4.42188E-05-1.08305E-14
 -1      4105 5.16276E-03-7.95577E-05-1.23996E-14
 -1      4106 5.30499E-03-7.88562E-05-1.30287E-14
 -1      4107 5.09124E-03-4.35064E-05-1.20293E-14
 -1      4108 5.44693E-03-7.80975E-05-1.36723E-14
 -1      4109 5.58854E-03-7.72632E-05-1.43294E-14
 -1      4110 5.37563E-03-4.26557E-05-1.32856E-14
 -1      4111 5.72979E-03-7.63588E-05-1.49999E-14
 -1      4112 5.87065E-03-7.53613E-05-1.56840E-14
 -1      4113 5.65872E-03-4.16264E-05-1.45967E-14
 -1      4114 6.01109E-03-7.42777E-05-1.63815E-14
 -1      4115 6.15106E-03-7.30792E-05-1.70911E-14
 -1      4116 5.94024E-03-4.03659E-05-1.59621E-14
 -1      4117 6.29051E-03-7.17753E-05-1.78124E-14
 -1      4118 6.42940E-03-7.03303E-05-1.85451E-14
 -1      4119 6.21986E-03-3.88032E-05-1.73785E-14
 -1      4120 6.56766E-03-6.87569E-05-1.92900E-14
 -1      4121 6.70527E-03-6.70103E-05-2.00456E-14
 -1      4122 6.49720E-03-3.68445E-05-1.88413E-14
 -1      4123 6.84212E-03-6.51075E-05-2.08114E-14
 -1      4124 6.97819E-03-6.29924E-05-2.15893E-14
 -1      4125 6.77178E-03-3.43662E-05-2.03493E-14
 -1      4126 7.11337E-03-6.06863E-05-2.23768E-14
 -1      4127 7.24765E-03-5.81199E-05-2.31738E-14
 -1      4128 7.04303E-03-3.12054E-05-2.19012E-14
 -1      4129 7.38090E-03-5.53183E-05-2.39812E-14
 -1      4130 7.51311E-03-5.21962E-05-2.47960E-14
 -1      4131 7.31035E-03-2.71480E-05-2.34924E-14
 -1      4132 7.64413E-03-4.87824E-05-2.56184E-14
 -1      4133 7.77400E-03-4.49727E-05-2.64497E-14
 -1      4134 7.57301E-03-2.19153E-05-2.51182E-14
 -1      4135 7.90250E-03-4.08009E-05-2.72898E-14
 -1      4136 8.02975E-03-3.61387E-05-2.81367E-14
 -1      4137 7.83019E-03-1.51488E-05-2.67769E-14
 -1      4138 8.15541E-03-3.10388E-05-2.89910E-14
 -1      4139 8.27977E-03-2.53268E-05-2.98500E-14
 -1      4140 8.08090E-03-6.39933E-06-2.84675E-14
 -1      4141 8.38600E-03-1.49539E-05-3.06069E-14
 -1      4142 8.50679E-03-7.94830E-06-3.14756E-14
 -1      4143 8.51107E-03 3.02336E-05-3.15883E-14
 -1      4144 8.30879E-03 8.74424E-06-3.00735E-14
 -1      4145 2.27525E-03-8.00509E-05-2.85805E-15
 -1      4146 2.42066E-03-8.12254E-05-3.18731E-15
 -1      4147 5.53121E-03 1.14145E-04-1.36734E-14
 -1      4148 5.38943E-03 1.15051E-04-1.30296E-14
 -1      4149 6.64949E-03 1.05153E-04-1.92851E-14
 -1      4150 6.51175E-03 1.06387E-04-1.85415E-14
 -1      4151 6.09453E-03 1.09967E-04-1.63806E-14
 -1      4152 5.95435E-03 1.11099E-04-1.56842E-14
 -1      4153 7.19161E-03 1.00842E-04-2.23667E-14
 -1      4154 7.05760E-03 1.01784E-04-2.15813E-14
 -1      4155 7.45585E-03 9.96047E-05-2.39650E-14
 -1      4156 7.32439E-03 1.00137E-04-2.31623E-14
 -1      4157 7.25482E-03 7.13701E-05-2.28587E-14
 -1      4158 7.71407E-03 9.95701E-05-2.55967E-14
 -1      4159 7.58578E-03 9.94508E-05-2.47767E-14
 -1      4160 7.51688E-03 7.18505E-05-2.44680E-14
 -1      4161 7.96478E-03 1.01270E-04-2.72584E-14
 -1      4162 7.84047E-03 1.00239E-04-2.64236E-14
 -1      4163 7.77249E-03 7.37501E-05-2.61091E-14
 -1      4164 8.20593E-03 1.05198E-04-2.89431E-14
 -1      4165 8.08670E-03 1.03042E-04-2.80989E-14
 -1      4166 8.01998E-03 7.76109E-05-2.77805E-14
 -1      4167 8.41221E-03 1.02840E-04-3.05559E-14
 -1      4168 8.30521E-03 1.04536E-04-2.96991E-14
 -1      4169 8.24093E-03 8.00557E-05-2.93796E-14
 -1      4170 8.43533E-03 8.16882E-05-3.08979E-14
 -1      4171 1.74034E-03-7.69690E-05-1.79305E-15
 -1      4172 1.84862E-03-8.12138E-05-1.99183E-15
 -1      4173 1.74629E-03-4.89822E-05-1.79238E-15
 -1      4174 2.87341E-03 1.58046E-04-4.05928E-15
 -1      4175 2.80321E-03 1.95153E-04-3.82753E-15
 -1      4176 2.65813E-03 1.93747E-04-3.47355E-15
 -1      4177 2.56613E-03-8.21763E-05-3.53324E-15
 -1      4178 2.71163E-03-8.28918E-05-3.89619E-15
 -1      4179 2.49239E-03-4.48353E-05-3.33204E-15
 -1      4180 3.67148E-03 1.97294E-04-6.29757E-15
 -1      4181 3.52710E-03 1.97478E-04-5.84576E-15
 -1      4182 3.45325E-03 1.59559E-04-5.68297E-15
 -1      4183 3.74230E-03 1.59284E-04-6.59181E-15
 -1      4184 6.37330E-03 1.07595E-04-1.78091E-14
 -1      4185 6.23420E-03 1.08807E-04-1.70883E-14
 -1      4186 6.44100E-03 7.42010E-05-1.82611E-14
 -1      4187 2.85709E-03-8.34250E-05-4.27574E-15
 -1      4188 3.00247E-03-8.37848E-05-4.67108E-15
 -1      4189 2.78348E-03-4.56109E-05-4.05286E-15
 -1      4190 5.81371E-03 1.12166E-04-1.50009E-14
 -1      4191 5.67264E-03 1.13190E-04-1.43309E-14
 -1      4192 5.88315E-03 7.70312E-05-1.54220E-14
 -1      4193 1.93608E-03 3.72721E-05-2.09037E-15
 -1      4194 1.80399E-03 2.35832E-06-1.86950E-15
 -1      4195 5.24734E-03 1.15890E-04-1.23998E-14
 -1      4196 5.10497E-03 1.16679E-04-1.17853E-14
 -1      4197 5.31784E-03 7.95217E-05-1.27882E-14
 -1      4198 6.92252E-03 1.02813E-04-2.08053E-14
 -1      4199 6.78644E-03 1.03973E-04-2.00390E-14
 -1      4200 6.71599E-03 7.28729E-05-1.97504E-14
 -1      4201 6.98753E-03 7.18363E-05-2.12835E-14
 -1      4202 3.14775E-03-8.40120E-05-5.08255E-15
 -1      4203 3.29289E-03-8.41123E-05-5.50935E-15
 -1      4204 3.07437E-03-4.59959E-05-4.83970E-15
 -1      4205 2.02900E-03-8.32182E-05-2.34131E-15
 -1      4206 4.10186E-03 1.20653E-04-7.87754E-15
 -1      4207 3.95775E-03 1.20998E-04-7.37622E-15
 -1      4208 5.60125E-03 7.83404E-05-1.40785E-14
 -1      4209 2.10028E-03-4.89210E-05-2.46924E-15
 -1      4210 4.96234E-03 1.17404E-04-1.11846E-14
 -1      4211 4.81946E-03 1.18083E-04-1.05978E-14
 -1      4212 5.03318E-03 8.05604E-05-1.15550E-14
 -1      4213 4.60538E-03 1.56132E-04-9.67419E-15
 -1      4214 4.38951E-03 1.19790E-04-8.92266E-15
 -1      4215 4.24578E-03 1.20255E-04-8.39292E-15
 -1      4216 4.17324E-03 8.28375E-05-8.19569E-15
 -1      4217 1.79714E-03-2.60199E-05-1.87242E-15
 -1      4218 3.36478E-03-4.60883E-05-5.68893E-15
 -1      4219 2.94423E-03 1.20665E-04-4.29524E-15
 -1      4220 2.79890E-03 1.20004E-04-3.91917E-15
 -1      4221 8.46719E-03 5.29112E-05-3.12471E-14
 -1      4222 2.08098E-03 3.82431E-05-2.37218E-15
 -1      4223 2.52741E-03 1.74734E-04-3.19150E-15
 -1      4224 2.38222E-03 1.72604E-04-2.86811E-15
 -1      4225 2.33660E-03 1.01268E-04-2.85010E-15
 -1      4226 2.59762E-03 1.38406E-04-3.40200E-15
 -1      4227 6.16321E-03 7.56280E-05-1.68171E-14
 -1      4228 3.23457E-03 1.21412E-04-5.09590E-15
 -1      4229 3.08946E-03 1.21133E-04-4.68741E-15
 -1      4230 3.01560E-03 8.30646E-05-4.53529E-15
 -1      4231 5.62959E-03 1.82273E-05-1.43414E-14
 -1      4232 5.48819E-03 1.82767E-05-1.36838E-14
 -1      4233 3.87122E-03-7.89655E-06-7.27492E-15
 -1      4234 4.01556E-03-7.83056E-06-7.77370E-15
 -1      4235 4.20222E-03 1.87135E-05-8.40196E-15
 -1      4236 4.34608E-03 1.86835E-05-8.93220E-15
 -1      4237 4.73408E-03-7.43193E-06-1.04805E-14
 -1      4238 4.87709E-03-7.32471E-06-1.10640E-14
 -1      4239 5.06194E-03 1.84307E-05-1.17950E-14
 -1      4240 5.20434E-03 1.83806E-05-1.24109E-14
 -1      4241 5.34643E-03 1.83196E-05-1.30401E-14
 -1      4242 5.77059E-03 1.82076E-05-1.50113E-14
 -1      4243 5.91116E-03 1.81883E-05-1.56949E-14
 -1      4244 6.05125E-03 1.82172E-05-1.63920E-14
 -1      4245 6.19081E-03 1.82580E-05-1.71005E-14
 -1      4246 6.32979E-03 1.83752E-05-1.78216E-14
 -1      4247 6.46811E-03 1.85231E-05-1.85550E-14
 -1      4248 6.60572E-03 1.87886E-05-1.92987E-14
 -1      4249 6.74252E-03 1.91135E-05-2.00536E-14
 -1      4250 6.87847E-03 1.96143E-05-2.08194E-14
 -1      4251 7.01344E-03 2.02159E-05-2.15963E-14
 -1      4252 7.14736E-03 2.10734E-05-2.23832E-14
 -1      4253 7.28009E-03 2.20883E-05-2.31783E-14
 -1      4254 7.41157E-03 2.34662E-05-2.39835E-14
 -1      4255 7.54159E-03 2.50734E-05-2.47961E-14
 -1      4256 7.67010E-03 2.71839E-05-2.56164E-14
 -1      4257 7.79681E-03 2.96075E-05-2.64450E-14
 -1      4258 7.92169E-03 3.27178E-05-2.72819E-14
 -1      4259 8.04432E-03 3.62260E-05-2.81255E-14
 -1      4260 8.16469E-03 4.06771E-05-2.89749E-14
 -1      4261 8.26734E-03 4.13690E-05-2.97338E-14
 -1      4262 8.36926E-03 5.07894E-05-3.04848E-14
 -1      4263 3.88490E-03 8.32897E-05-7.18941E-15
 -1      4264 3.81346E-03 1.21268E-04-6.88902E-15
 -1      4265 3.66899E-03 1.21463E-04-6.41697E-15
 -1      4266 3.04433E-03 1.85745E-05-4.69006E-15
 -1      4267 3.18966E-03 1.86616E-05-5.09969E-15
 -1      4268 2.41922E-03-7.90637E-06-3.13500E-15
 -1      4269 2.56477E-03-7.99103E-06-3.47611E-15
 -1      4270 2.75337E-03 1.83319E-05-3.91813E-15
 -1      4271 2.89889E-03 1.84789E-05-4.29612E-15
 -1      4272 4.67636E-03 1.18703E-04-1.00250E-14
 -1      4273 4.53304E-03 1.19275E-04-9.46658E-15
 -1      4274 4.74745E-03 8.14630E-05-1.03783E-14
 -1      4275 3.62471E-03 1.87605E-05-6.42463E-15
 -1      4276 3.76938E-03 1.87688E-05-6.89668E-15
 -1      4277 2.68112E-03 5.56202E-05-3.69951E-15
 -1      4278 2.60949E-03 9.25659E-05-3.48483E-15
 -1      4279 3.52434E-03 1.21557E-04-5.96025E-15
 -1      4280 3.37953E-03 1.21553E-04-5.52022E-15
 -1      4281 3.30601E-03 8.34880E-05-5.35660E-15
 -1      4282 3.59581E-03 8.35266E-05-6.24158E-15
 -1      4283 4.44733E-03-7.61475E-06-9.35596E-15
 -1      4284 4.59082E-03-7.52381E-06-9.91127E-15
 -1      4285 4.46077E-03 8.22256E-05-9.25857E-15
 -1      4286 4.99085E-03 5.49939E-05-1.14256E-14
 -1      4287 3.33484E-03 1.87074E-05-5.52541E-15
 -1      4288 4.66256E-03 2.95711E-05-1.01330E-14
 -1      4289 3.47987E-03 1.87499E-05-5.96720E-15
 -1      4290 2.24102E-03 3.87007E-05-2.70321E-15
 -1      4291 2.11662E-03-5.37170E-06-2.47607E-15
 -1      4292 4.13045E-03 5.64101E-05-8.08528E-15
 -1      4293 4.41815E-03 5.60381E-05-9.14272E-15
 -1      4294 4.56167E-03 5.58087E-05-9.69229E-15
 -1      4295 3.98630E-03 5.65616E-05-7.57842E-15
 -1      4296 3.84195E-03 5.66812E-05-7.08510E-15
 -1      4297 2.37104E-03 5.63774E-05-2.97056E-15
 -1      4298 1.90549E-03-2.88797E-05-2.07425E-15
 -1      4299 2.31171E-03-2.49803E-05-2.90527E-15
 -1      4300 2.38435E-03 1.13562E-05-3.04073E-15
 -1      4301 2.15154E-03-2.40914E-05-2.56038E-15
 -1      4302 2.47917E-03 7.44037E-05-3.19761E-15
 -1      4303 4.70497E-03 5.55619E-05-1.02555E-14
 -1      4304 4.84804E-03 5.52893E-05-1.08340E-14
 -3
    1PSTEP                         2           1           1          
  100CL  101 1.000000000        4304                     0    1           1
 -4  STRESS      6    1
 -5  SXX         1    4    1    1
 -5  SYY         1    4    2    2
 -5  SZZ         1    4    3    3
 -5  SXY         1    4    1    2
 -5  SYZ         1    4    2    3
 -5  SZX         1    4    3    1
 -1         1 2.63815E+00 3.19661E+00-1.09860E+00 3.17849E+00-7.69218E-13-7.13318E-13
 -1         2-7.18298E-01-2.60104E+01-3.52211E+00-9.17502E-02 1.01991E-12-2.55768E-14
 -1         3 1.99572E+01-4.56418E-02 6.14576E-02-4.48389E-02-2.95987E-13-2.63096E-13
 -1         4 1.99800E+01-2.02936E-02 4.42565E-02 2.05820E-02 1.77451E-13-1.51817E-13
 -1         5 3.27678E+01 6.14266E+00 2.74254E+00 6.22435E+00-3.15928E-14 1.99321E-12
 -1         6 3.57520E+01 1.22633E+01 5.12559E+00-8.64674E+00-1.36502E-13 1.45760E-12
 -1         7 2.08180E+01 6.09951E+00-1.28701E-01-4.72579E+00-1.91097E-14 1.73160E-14
 -1         8 1.96712E+01 5.93482E+00 5.09311E-02-3.27528E+00-1.59317E-14-3.70581E-13
 -1         9 1.91373E+01 5.77189E+00 4.91674E-02-2.52715E+00-1.21535E-14-5.54034E-13
 -1        10 1.88948E+01 5.69205E+00 5.09474E-02-1.95176E+00-8.76989E-15-6.23673E-13
 -1        11 1.87738E+01 5.65127E+00 5.02907E-02-1.45681E+00-6.89249E-15-6.32686E-13
 -1        12 1.87108E+01 5.62980E+00 4.88758E-02-1.01568E+00 3.27516E-15-6.19115E-13
 -1        13 1.86774E+01 5.61841E+00 4.74742E-02-5.95654E-01 2.50407E-15-6.01256E-13
 -1        14 1.86634E+01 5.61360E+00 4.67419E-02-1.91287E-01 7.51092E-15-5.77240E-13
 -1        15 1.86639E+01 5.61376E+00 4.67802E-02 2.08333E-01 1.01979E-14-5.47616E-13
 -1        16 1.86789E+01 5.61888E+00 4.75968E-02 6.13507E-01 1.38445E-14-5.25067E-13
 -1        17 1.87135E+01 5.63053E+00 4.91064E-02 1.03544E+00 1.04103E-14-4.66933E-13
 -1        18 1.87780E+01 5.65247E+00 5.08473E-02 1.47965E+00 1.62938E-14-3.87447E-13
 -1        19 1.89009E+01 5.69375E+00 5.15431E-02 1.98084E+00 2.28845E-14-2.69251E-13
 -1        20 1.91420E+01 5.77437E+00 4.87768E-02 2.56443E+00 2.66558E-14-9.19924E-14
 -1        21 1.96668E+01 5.94941E+00 4.58958E-02 3.30929E+00 3.01772E-14 2.30527E-13
 -1        22 2.12009E+01 6.38128E+00 1.39662E-01 4.52334E+00 6.36990E-15 8.07741E-13
 -1        23 2.30288E+01-1.37916E+00-9.38276E-01-7.11270E-01-9.14234E-14 1.00742E-12
 -1        24 1.93655E+01-9.94801E-02-3.09828E-01 6.32063E-02-2.20561E-14 6.17138E-13
 -1        25 1.86769E+01-5.63094E-02-6.87554E-02 6.07365E-02-1.15196E-14 2.58495E-13
 -1        26 1.84738E+01-2.20850E-02-6.45031E-03 3.29258E-02 2.40075E-15 6.09582E-15
 -1        27 1.84842E+01-1.17924E-02 1.56574E-03 2.25819E-02-1.42847E-14-1.61317E-13
 -1        28 1.85976E+01-6.23538E-03 1.78819E-03 1.62881E-02-1.18135E-14-2.67886E-13
 -1        29 1.87564E+01-3.07525E-03 1.75796E-03 1.21171E-02 6.70565E-16-3.42960E-13
 -1        30 1.89294E+01-1.22698E-03 1.93670E-03 9.14111E-03 1.84362E-14-4.15508E-13
 -1        31 1.90988E+01-1.43419E-04 2.08878E-03 6.90018E-03-4.78585E-16-4.89088E-13
 -1        32 1.92552E+01 4.63734E-04 2.10777E-03 5.15825E-03-2.54480E-14-6.78025E-13
 -1        33 1.93937E+01 7.61297E-04 1.99633E-03 3.78428E-03 4.76771E-14-7.32539E-13
 -1        34 1.95131E+01 8.51362E-04 1.78759E-03 2.69670E-03 6.64020E-16-6.81732E-13
 -1        35 1.96142E+01 7.98676E-04 1.51187E-03 1.83941E-03 9.01389E-15-7.16679E-13
 -1        36 1.96991E+01 6.44325E-04 1.18893E-03 1.17179E-03 6.28303E-15-6.30849E-13
 -1        37 1.97713E+01 4.13334E-04 8.28003E-04 6.64679E-04-4.61190E-14-6.15566E-13
 -1        38 1.98348E+01 1.19512E-04 4.29501E-04 2.99070E-04-3.84735E-14-7.96326E-13
 -1        39 1.98946E+01-2.30966E-04-1.30796E-05 6.62041E-05-1.68341E-14-8.06318E-13
 -1        40 1.99560E+01-6.36371E-04-5.11035E-04-3.16109E-05-3.02833E-14-7.20812E-13
 -1        41 2.00255E+01-1.09605E-03-1.07783E-03 2.01937E-05 1.42212E-14-8.63419E-13
 -1        42 2.01101E+01-1.60634E-03-1.72538E-03 2.49709E-04 2.00273E-14-7.61800E-13
 -1        43 2.02178E+01-2.15516E-03-2.45839E-03 6.99373E-04-8.18339E-14-6.94585E-13
 -1        44 2.03577E+01-2.71449E-03-3.26527E-03 1.42543E-03 1.51798E-14-5.88446E-13
 -1        45 2.05390E+01-3.23016E-03-4.10359E-03 2.49415E-03 4.09106E-14-6.12704E-13
 -1        46 2.07710E+01-3.60823E-03-4.87725E-03 3.97134E-03-2.63952E-14-6.27865E-13
 -1        47 2.10615E+01-3.69876E-03-5.40232E-03 5.89901E-03 4.23322E-14-5.85884E-13
 -1        48 2.14145E+01-3.28031E-03-5.36094E-03 8.24933E-03 3.32757E-14-3.73718E-13
 -1        49 2.18263E+01-2.05485E-03-4.25141E-03 1.08422E-02-4.15550E-14-4.89006E-13
 -1        50 2.22802E+01 3.26199E-04-1.36531E-03 1.32135E-02-1.14820E-14-7.31217E-13
 -1        51 2.27394E+01 4.16809E-03 4.13246E-03 1.44361E-02 5.76271E-14-4.53946E-13
 -1        52 2.31394E+01 9.52274E-03 1.28840E-02 1.29519E-02-1.71442E-14-2.07120E-13
 -1        53 2.33832E+01 1.58351E-02 2.46148E-02 6.59198E-03 2.57671E-14-3.81039E-13
 -1        54 2.33473E+01 2.15244E-02 3.69927E-02-6.85285E-03 6.29152E-14-5.48116E-13
 -1        55 2.29082E+01 2.38274E-02 4.46501E-02-2.80594E-02-5.99742E-14-6.99482E-13
 -1        56 2.19972E+01 1.94857E-02 3.98634E-02-5.36505E-02 2.26440E-14-8.77937E-13
 -1        57 2.06769E+01 6.71476E-03 1.66925E-02-7.43361E-02 1.65500E-14-5.61242E-13
 -1        58 1.91954E+01-1.22452E-02-2.21830E-02-7.70037E-02 2.21347E-14-5.38562E-13
 -1        59 1.79546E+01-3.02944E-02-6.15905E-02-5.28066E-02-1.90577E-14-6.99928E-13
 -1        60 1.73564E+01-3.86541E-02-8.05032E-02-6.77783E-03 9.83501E-15-4.27056E-13
 -1        61 1.75918E+01-3.27429E-02-6.72650E-02 4.15024E-02 6.74055E-14-4.39806E-13
 -1        62 1.85268E+01-1.56500E-02-2.97914E-02 7.08652E-02-1.55975E-14-4.85632E-13
 -1        63 1.97796E+01 4.14898E-03 1.16099E-02 7.26581E-02-7.91225E-14-2.83367E-13
 -1        64 2.09245E+01 1.86489E-02 3.93185E-02 5.32596E-02 2.37441E-14-9.41004E-13
 -1        65 2.16699E+01 2.43111E-02 4.76123E-02 2.58812E-02-6.60865E-15-8.16930E-13
 -1        66 2.19202E+01 2.20775E-02 4.08125E-02 1.29521E-03 1.26806E-13-8.96370E-13
 -1        67 2.17377E+01 1.49229E-02 2.61786E-02-1.54727E-02 6.82950E-14-4.51159E-13
 -1        68 2.12711E+01 5.68621E-03 8.83721E-03-2.35670E-02 4.39574E-15-1.22389E-13
 -1        69 2.06995E+01-3.50469E-03-8.73029E-03-2.31556E-02-2.58933E-14-2.45262E-13
 -1        70 2.02088E+01-8.47767E-03-2.12278E-02-1.08699E-02 7.02937E-14 2.77777E-14
 -1        71 1.99710E+01 4.35674E-03-7.05190E-03 1.00015E-02-7.76658E-14 3.28299E-13
 -1        72 2.10414E+01-4.04881E-01-9.80388E-01-3.11565E-01 2.39288E-14 1.89533E-12
 -1        73 1.93301E+01-6.58813E-02-2.91134E-01-5.38200E-02 3.85889E-15 1.53427E-12
 -1        74 1.86862E+01-2.05026E-02-6.42683E-02-2.03371E-02 1.65402E-14 1.26928E-12
 -1        75 1.84828E+01-9.87420E-03-9.30134E-03-1.54362E-02-1.32587E-15 1.08718E-12
 -1        76 1.84933E+01-5.16037E-03 6.94900E-04-1.23647E-02 1.52651E-14 9.54070E-13
 -1        77 1.86058E+01-2.61049E-03 1.76290E-03-1.00853E-02 1.45476E-15 8.19999E-13
 -1        78 1.87635E+01-1.14323E-03 1.89905E-03-8.33258E-03-1.25223E-14 7.48744E-13
 -1        79 1.89354E+01-2.84960E-04 2.08937E-03-6.88332E-03 1.22760E-14 6.37347E-13
 -1        80 1.91038E+01 2.04718E-04 2.22382E-03-5.62937E-03-7.44902E-15 4.41523E-13
 -1        81 1.92592E+01 4.59378E-04 2.22219E-03-4.52699E-03 2.73875E-14 4.36144E-13
 -1        82 1.93968E+01 5.58905E-04 2.09186E-03-3.55613E-03 2.35760E-15 3.03001E-13
 -1        83 1.95153E+01 5.52925E-04 1.86646E-03-2.70343E-03 1.11764E-14 2.18259E-13
 -1        84 1.96153E+01 4.72489E-04 1.57617E-03-1.95625E-03-1.70270E-14 1.66622E-13
 -1        85 1.96993E+01 3.36174E-04 1.24023E-03-1.30112E-03 1.69046E-14 3.17379E-13
 -1        86 1.97704E+01 1.53567E-04 8.66638E-04-7.24059E-04 3.64421E-14 2.02451E-13
 -1        87 1.98328E+01-7.25752E-05 4.53486E-04-2.11724E-04-5.75352E-14 1.71833E-13
 -1        88 1.98914E+01-3.44825E-04-9.92412E-06 2.47115E-04-4.32551E-15 2.31774E-13
 -1        89 1.99519E+01-6.69887E-04-5.42292E-04 6.59650E-04 2.07617E-14 5.29055E-14
 -1        90 2.00208E+01-1.05739E-03-1.16983E-03 1.02649E-03-4.58672E-14 7.38632E-14
 -1        91 2.01063E+01-1.51826E-03-1.92583E-03 1.33807E-03 2.22723E-14 2.42352E-15
 -1        92 2.02176E+01-2.06211E-03-2.84976E-03 1.56917E-03-2.08450E-14 5.52581E-14
 -1        93 2.03663E+01-2.69250E-03-3.98463E-03 1.67047E-03 9.26966E-15 3.16911E-13
 -1        94 2.05661E+01-3.39822E-03-5.37008E-03 1.55543E-03 3.21707E-14 1.48633E-13
 -1        95 2.08332E+01-4.13775E-03-7.02560E-03 1.08030E-03 2.68345E-14-1.21163E-13
 -1        96 2.11862E+01-4.81250E-03-8.91299E-03 1.62175E-05 1.71685E-14-7.48251E-14
 -1        97 2.16452E+01-5.22421E-03-1.08579E-02-1.98410E-03-4.28771E-14-4.04867E-14
 -1        98 2.22291E+01-5.01501E-03-1.23985E-02-5.40959E-03-5.65341E-15 1.82753E-15
 -1        99 2.29501E+01-3.60316E-03-1.25245E-02-1.08560E-02-1.80002E-14-3.18300E-13
 -1       100 2.38021E+01-1.70470E-04-9.31612E-03-1.88159E-02-2.34372E-14-2.35595E-13
 -1       101 2.47422E+01 6.15776E-03 3.21555E-04-2.90662E-02 4.95306E-15-1.43151E-13
 -1       102 2.56616E+01 1.56689E-02 2.01398E-02-3.93495E-02-4.74690E-14 7.68760E-14
 -1       103 2.63550E+01 2.67225E-02 5.18959E-02-4.33773E-02-4.47643E-14 1.16102E-13
 -1       104 2.65093E+01 3.40727E-02 8.93058E-02-2.95294E-02-4.39841E-14 4.28362E-13
 -1       105 2.57672E+01 2.89908E-02 1.10560E-01 1.53588E-02 2.90293E-14 5.09377E-13
 -1       106 2.39286E+01 5.74917E-03 8.14727E-02 9.06274E-02 2.95675E-14 5.08843E-13
 -1       107 2.12689E+01-2.79690E-02-1.51350E-02 1.61809E-01 1.19871E-14 3.72105E-13
 -1       108 1.87081E+01-5.08224E-02-1.38905E-01 1.68708E-01-6.35728E-14 5.37570E-13
 -1       109 1.74482E+01-4.63611E-02-2.02193E-01 8.08189E-02 1.27058E-13 2.57226E-13
 -1       110 1.81330E+01-2.00432E-02-1.52052E-01-5.28696E-02-1.22778E-13-4.57804E-13
 -1       111 2.03026E+01 9.37744E-03-3.08778E-02-1.43290E-01 6.15573E-14-4.78853E-14
 -1       112 2.27816E+01 2.76537E-02 7.33729E-02-1.50352E-01-1.37121E-13 1.65860E-13
 -1       113 2.45433E+01 3.13737E-02 1.12874E-01-1.01118E-01 1.11236E-13 4.68896E-13
 -1       114 2.51880E+01 2.49189E-02 9.80371E-02-4.09843E-02-9.03377E-14 4.46151E-13
 -1       115 2.48483E+01 1.43700E-02 6.11095E-02 4.16121E-03 9.82597E-14-2.72213E-14
 -1       116 2.38794E+01 3.84332E-03 2.51960E-02 3.02207E-02 3.73284E-14-2.12509E-13
 -1       117 2.26384E+01-5.25277E-03-3.06835E-03 4.24320E-02 8.45329E-14-8.45653E-13
 -1       118 2.14132E+01-1.27192E-02-2.64469E-02 4.58814E-02 1.06530E-14-9.95874E-13
 -1       119 2.04465E+01-1.67053E-02-4.36207E-02 3.78290E-02-1.03758E-13-7.76927E-13
 -1       120 1.99843E+01 1.52978E-02-1.28615E-02 9.92644E-05 8.67090E-14-4.87314E-13
 -1       121 1.99965E+01 1.32893E-02-1.40746E-02-1.17884E-02-1.36269E-13 1.71537E-13
 -1       122 1.99795E+01 4.85204E-01-4.08836E-02 2.50224E-02 8.59044E-14-1.62954E-13
 -1       123 1.99887E+01 1.43629E+00-2.24545E-02 4.32017E-02 3.11451E-13 1.53990E-13
 -1       124 2.00001E+01 2.60462E+00-9.20236E-04 4.80818E-02-1.72902E-13 1.61680E-14
 -1       125 2.00113E+01 3.76921E+00 1.82598E-02 4.36820E-02-3.91701E-14-1.64489E-13
 -1       126 2.00213E+01 4.71875E+00 3.36930E-02 3.23394E-02-2.47783E-13 1.62699E-13
 -1       127 2.00266E+01 5.31964E+00 4.24529E-02 1.45255E-02 2.98608E-13 4.66430E-13
 -1       128 2.00270E+01 5.45738E+00 4.25698E-02-5.40621E-03 2.42251E-13-3.07947E-13
 -1       129 2.00224E+01 5.12815E+00 3.41770E-02-2.27700E-02-3.35815E-13 2.81410E-13
 -1       130 2.00143E+01 4.41915E+00 2.03145E-02-3.38677E-02-7.60461E-13-3.31374E-13
 -1       131 2.00051E+01 3.47811E+00 5.36464E-03-3.75440E-02-2.02620E-12-1.72617E-13
 -1       132 1.99968E+01 2.48182E+00-7.07436E-03-3.48210E-02-1.93718E-12 2.90241E-13
 -1       133 1.99907E+01 1.53505E+00-1.61964E-02-2.83030E-02-8.44522E-13 3.94326E-14
 -1       134 1.99851E+01 7.52598E-01-2.40844E-02-2.11175E-02-7.12325E-13 1.94698E-13
 -1       135 1.99875E+01 2.21738E-01-2.33605E-02-1.26318E-02-8.08665E-13-1.38715E-13
 -1       136 1.99875E+01-7.27285E-04-5.00788E-03 2.53510E-02-4.24627E-13 2.07412E-13
 -1       137-1.45171E+00-2.13545E+01-3.25044E+00-4.06339E+00 7.56895E-13 3.71370E-14
 -1       138-1.83589E+00-9.96117E+00-2.45503E+00-3.63000E+00 1.22941E-12 7.32081E-13
 -1       139 2.47907E+00 2.80383E+00-1.20614E+00 2.93840E+00 1.61615E-12 1.11527E-12
 -1       140 1.44380E+01 1.03366E+01 2.54929E-01 1.21468E+01 1.12921E-12 1.14336E-12
 -1       141 3.26807E+01 1.07702E+01 1.71006E+00 1.83537E+01 8.97782E-13 1.65068E-12
 -1       142 5.31283E+01 6.14372E+00 2.99935E+00 1.68116E+01 2.33313E-13 1.20071E-13
 -1       143 6.63585E+01 1.66340E+00 3.71170E+00 7.15719E+00-1.74751E-13-1.66950E-12
 -1       144 6.63813E+01 1.48112E+00 3.69342E+00-6.48621E+00 1.95670E-13-2.10185E-12
 -1       145 5.25356E+01 5.88378E+00 2.90198E+00-1.64478E+01 6.06612E-13-1.88155E-12
 -1       146 3.23435E+01 1.02870E+01 1.61042E+00-1.78267E+01 9.05498E-13-1.45994E-12
 -1       147 1.36434E+01 9.71146E+00 1.23554E-01-1.14951E+01 1.12377E-12-1.28364E-12
 -1       148 2.21125E+00 2.00839E+00-1.30066E+00-2.53714E+00 8.47822E-13-6.16673E-13
 -1       149-1.91847E+00-1.03325E+01-2.46863E+00 3.76705E+00 3.61100E-13-1.66450E-13
 -1       150-1.38988E+00-2.11821E+01-3.18200E+00 4.02663E+00-2.59320E-13 1.67644E-14
 -1       151-6.59154E-01-2.51435E+01-3.38783E+00 1.15641E-02-9.44852E-13-1.33782E-13
 -1       152-1.34945E+00-2.01767E+01-3.07594E+00-3.85691E+00-1.59672E-12-3.78649E-13
 -1       153-1.56082E+00-8.69058E+00-2.26543E+00-3.12175E+00-1.07137E-12-4.57995E-13
 -1       154 1.40155E+01 1.02987E+01 2.57955E-01 1.19462E+01-2.30205E-13-6.98885E-14
 -1       155 3.17583E+01 1.05741E+01 1.61035E+00 1.78887E+01-4.13003E-14-3.00315E-13
 -1       156 5.12019E+01 6.13134E+00 2.75851E+00 1.66997E+01-8.87207E-14-2.21489E-14
 -1       157 6.47607E+01 1.48529E+00 3.47042E+00 6.94913E+00 1.24055E-13 2.40558E-13
 -1       158 6.49429E+01 1.55198E+00 3.50388E+00-6.97226E+00 3.21704E-14-7.60780E-14
 -1       159 5.20450E+01 6.11391E+00 2.86505E+00-1.66694E+01 6.95138E-14-1.14408E-13
 -1       160 3.26038E+01 1.07216E+01 1.73810E+00-1.82150E+01 9.73666E-14-2.90046E-13
 -1       161 1.43263E+01 1.05102E+01 3.35028E-01-1.21878E+01 7.54008E-13-5.89917E-13
 -1       162 2.58231E+00 3.05580E+00-1.10282E+00-3.09302E+00 6.47871E-13-6.72296E-13
 -1       163-1.64230E+00-9.71926E+00-2.37684E+00 3.27693E+00 2.96041E-13-1.76109E-13
 -1       164-1.42535E+00-2.13530E+01-3.22007E+00 3.94236E+00 1.45717E-13 3.54345E-13
 -1       165 2.10125E+01 3.69401E+00-5.73482E-02-3.61079E+00-2.44044E-13-1.54297E-13
 -1       166 1.99904E+01 4.20773E+00-4.57406E-02-2.81008E+00-1.96147E-13-3.93161E-13
 -1       167 1.95088E+01 4.47684E+00-3.16118E-02-2.19487E+00-1.37215E-13-5.00695E-13
 -1       168 1.92672E+01 4.61511E+00-2.37708E-02-1.67614E+00-8.09951E-14-5.33037E-13
 -1       169 1.91378E+01 4.69665E+00-1.94854E-02-1.21971E+00-3.11835E-14-5.34685E-13
 -1       170 1.90643E+01 4.74776E+00-1.74132E-02-7.92441E-01 1.58217E-14-5.21210E-13
 -1       171 1.90272E+01 4.77565E+00-1.64238E-02-3.87072E-01 6.88304E-14-4.96047E-13
 -1       172 1.90164E+01 4.78419E+00-1.61368E-02 8.29312E-03 1.01663E-13-4.81832E-13
 -1       173 1.90289E+01 4.77438E+00-1.64697E-02 4.03991E-01 1.36294E-13-4.48463E-13
 -1       174 1.90678E+01 4.74482E+00-1.75232E-02 8.10428E-01 1.62432E-13-4.16429E-13
 -1       175 1.91421E+01 4.69238E+00-1.96905E-02 1.23207E+00 1.92517E-13-3.52604E-13
 -1       176 1.92773E+01 4.60523E+00-2.40093E-02 1.69889E+00 2.41797E-13-2.59192E-13
 -1       177 1.95237E+01 4.45946E+00-3.28531E-02 2.22729E+00 2.81039E-13-1.34523E-13
 -1       178 2.00127E+01 4.18378E+00-4.72161E-02 2.84749E+00 2.90035E-13 8.38010E-14
 -1       179 2.11342E+01 3.46366E+00-5.97856E-02 3.53729E+00 2.61215E-13 4.57683E-13
 -1       180 2.24184E+01 1.14342E+00-3.36472E-01 3.01524E+00 1.75234E-13 9.13075E-13
 -1       181 2.19706E+01 8.58306E-01 6.68016E-04-1.95942E+00-2.30819E-13 1.66256E-13
 -1       182 2.04457E+01 1.90245E-01-9.97610E-03-7.64516E-01-1.93651E-13 5.82355E-14
 -1       183 1.96700E+01 1.01520E-01 1.35711E-02-2.86095E-01-1.43893E-13-2.05842E-14
 -1       184 1.93296E+01 4.72746E-02 1.00072E-02-6.87382E-02-1.15891E-13-1.06691E-13
 -1       185 1.91994E+01 2.25454E-02 5.14030E-03 3.86934E-02-6.81496E-14-1.28502E-13
 -1       186 1.91853E+01 9.46671E-03 2.43705E-03 9.12281E-02-5.88141E-14-1.62818E-13
 -1       187 1.92333E+01 2.09239E-03 1.13371E-03 1.13524E-01-5.82801E-14-1.81615E-13
 -1       188 1.93119E+01-2.09933E-03 5.00602E-04 1.18458E-01-4.73531E-14-2.25390E-13
 -1       189 1.94024E+01-4.34310E-03 1.69445E-04 1.13491E-01-7.74549E-14-2.13638E-13
 -1       190 1.94939E+01-5.32603E-03-1.00890E-05 1.03293E-01-4.98676E-14-2.07215E-13
 -1       191 1.95804E+01-5.47202E-03-1.00939E-04 9.09179E-02-1.21597E-14-3.25748E-13
 -1       192 1.96591E+01-5.05340E-03-1.33948E-04 7.84112E-02-1.08115E-14-3.38778E-13
 -1       193 1.97292E+01-4.24406E-03-1.26812E-04 6.71731E-02 3.89750E-14-3.42996E-13
 -1       194 1.97918E+01-3.14880E-03-9.05222E-05 5.81980E-02-4.00237E-14-3.03516E-13
 -1       195 1.98488E+01-1.82184E-03-3.19466E-05 5.22418E-02-1.12120E-13-3.25943E-13
 -1       196 1.99032E+01-2.80366E-04 4.47076E-05 4.99430E-02-4.62354E-14-4.04173E-13
 -1       197 1.99587E+01 1.48376E-03 1.36786E-04 5.19079E-02 2.01465E-14-4.37620E-13
 -1       198 2.00195E+01 3.49200E-03 2.42137E-04 5.87616E-02-1.18684E-14-4.52659E-13
 -1       199 2.00907E+01 5.76468E-03 3.57941E-04 7.11645E-02-1.47911E-14-4.58405E-13
 -1       200 2.01778E+01 8.30152E-03 4.79269E-04 8.97819E-02 5.43884E-14-5.71537E-13
 -1       201 2.02869E+01 1.10534E-02 5.97215E-04 1.15192E-01 9.33592E-14-4.33333E-13
 -1       202 2.04243E+01 1.38811E-02 6.96565E-04 1.47704E-01 2.00931E-14-2.35522E-13
 -1       203 2.05962E+01 1.64941E-02 7.53128E-04 1.87052E-01 4.60387E-14-2.33339E-13
 -1       204 2.08078E+01 1.83658E-02 7.31410E-04 2.31901E-01-4.08381E-15-1.38919E-13
 -1       205 2.10619E+01 1.86233E-02 5.84258E-04 2.79132E-01 4.41316E-14-1.75913E-13
 -1       206 2.13570E+01 1.59317E-02 2.57703E-04 3.22856E-01-1.16305E-13-2.29699E-13
 -1       207 2.16847E+01 8.42949E-03-2.94183E-04 3.53244E-01-4.92275E-14-2.41856E-13
 -1       208 2.20259E+01-6.13675E-03-1.07920E-03 3.55488E-01 7.86591E-14-2.72696E-13
 -1       209 2.23475E+01-2.98059E-02-2.02215E-03 3.09708E-01 1.25740E-13-2.63058E-13
 -1       210 2.25999E+01-6.29219E-02-2.91890E-03 1.93395E-01-1.70337E-14-2.27470E-13
 -1       211 2.27186E+01-1.01481E-01-3.42859E-03-1.12178E-02-1.42877E-13-1.74582E-13
 -1       212 2.26330E+01-1.33860E-01-3.17626E-03-3.02802E-01-5.13795E-14-3.91738E-13
 -1       213 2.22888E+01-1.39698E-01-1.98320E-03-6.41310E-01 4.92015E-14-2.16930E-13
 -1       214 2.16821E+01-9.62570E-02-1.48806E-04-9.34301E-01 1.46516E-13-3.72150E-14
 -1       215 2.08964E+01 4.34934E-03 1.61392E-03-1.05130E+00-5.83453E-14-2.14133E-13
 -1       216 2.01147E+01 1.35138E-01 2.67986E-03-8.83808E-01-1.21960E-13-1.72253E-13
 -1       217 1.95717E+01 2.34768E-01 3.06649E-03-4.31362E-01-2.97826E-14-4.29868E-13
 -1       218 1.94457E+01 2.44508E-01 3.03466E-03 1.56980E-01 1.87476E-14-2.94059E-13
 -1       219 1.97539E+01 1.57942E-01 2.63077E-03 6.49775E-01 9.41287E-14-2.62077E-13
 -1       220 2.03412E+01 2.57176E-02 1.67954E-03 8.72011E-01-1.14665E-13-2.02817E-13
 -1       221 2.09710E+01-8.69192E-02 1.19727E-04 7.92790E-01-2.46871E-13-3.46261E-13
 -1       222 2.14402E+01-1.42942E-01-1.61139E-03 5.07587E-01 1.77581E-13-2.66293E-13
 -1       223 2.16456E+01-1.43174E-01-2.71722E-03 1.54751E-01-3.65346E-14-2.89111E-13
 -1       224 2.15838E+01-1.07910E-01-2.76033E-03-1.54183E-01 2.88246E-13-3.04025E-13
 -1       225 2.13178E+01-5.74695E-02-1.96313E-03-3.57427E-01 3.59480E-13-9.27318E-14
 -1       226 2.09413E+01-3.81599E-03-9.46222E-04-4.32946E-01-4.88517E-14-1.87522E-13
 -1       227 2.05522E+01 4.95771E-02 3.36555E-05-3.80725E-01 2.17356E-13-5.92856E-14
 -1       228 2.02246E+01 9.48840E-02 4.91516E-04-2.18877E-01 7.64405E-14 1.43651E-13
 -1       229 2.09621E+01 2.77032E-01-5.13375E-02 1.16526E+00 1.69087E-13 7.78224E-13
 -1       230 1.98670E+01 1.26832E-01 8.30877E-03 4.43567E-01 1.37074E-13 6.56975E-13
 -1       231 1.93601E+01 5.80431E-02 1.27341E-02 1.50571E-01 1.05924E-13 5.36781E-13
 -1       232 1.91499E+01 2.76920E-02 7.62791E-03 1.13659E-02 8.49795E-14 4.41262E-13
 -1       233 1.90995E+01 1.30368E-02 3.82310E-03-5.76784E-02 6.92142E-14 3.82285E-13
 -1       234 1.91345E+01 5.09834E-03 1.90750E-03-9.00276E-02 4.39171E-14 2.85289E-13
 -1       235 1.92129E+01 5.73114E-04 1.00709E-03-1.01757E-01 8.46343E-14 2.12985E-13
 -1       236 1.93098E+01-1.98417E-03 5.50469E-04-1.01614E-01 8.19687E-14 1.70644E-13
 -1       237 1.94110E+01-3.31136E-03 2.92209E-04-9.48535E-02 2.87772E-14 7.00247E-14
 -1       238 1.95080E+01-3.83618E-03 1.38446E-04-8.48236E-02 4.87042E-14 1.25211E-13
 -1       239 1.95967E+01-3.82596E-03 4.96627E-05-7.37310E-02 7.84066E-14 8.87854E-14
 -1       240 1.96756E+01-3.45212E-03 5.35999E-06-6.30627E-02-1.75007E-14 4.76546E-14
 -1       241 1.97451E+01-2.82169E-03-6.96277E-06-5.38489E-02-1.67231E-14 5.13430E-14
 -1       242 1.98068E+01-1.99466E-03 4.60012E-06-4.68439E-02 5.71590E-14 6.58870E-14
 -1       243 1.98635E+01-9.94776E-04 3.48427E-05-4.26602E-02-3.74655E-14 6.70422E-14
 -1       244 1.99187E+01 1.83340E-04 8.05330E-05-4.18716E-02 2.53491E-14 2.73501E-14
 -1       245 1.99769E+01 1.56924E-03 1.39705E-04-4.50967E-02 7.72935E-14-1.67519E-14
 -1       246 2.00432E+01 3.21278E-03 2.10989E-04-5.30662E-02-4.81737E-15-9.96218E-14
 -1       247 2.01241E+01 5.18025E-03 2.92805E-04-6.66766E-02-2.50606E-14-2.59632E-14
 -1       248 2.02269E+01 7.54890E-03 3.82224E-04-8.70266E-02-3.59712E-14 1.08450E-13
 -1       249 2.03605E+01 1.03969E-02 4.73208E-04-1.15425E-01-5.36384E-14 1.14356E-13
 -1       250 2.05351E+01 1.37826E-02 5.53884E-04-1.53349E-01 1.11582E-13 9.97349E-15
 -1       251 2.07623E+01 1.77030E-02 6.02582E-04-2.02300E-01 1.33918E-13-1.22373E-13
 -1       252 2.10550E+01 2.20113E-02 5.83004E-04-2.63465E-01-1.02311E-13-1.25851E-13
 -1       253 2.14260E+01 2.62622E-02 4.40871E-04-3.37026E-01-6.00251E-14 9.74188E-14
 -1       254 2.18859E+01 2.94390E-02 1.09372E-04-4.20844E-01 7.65234E-14 3.61829E-14
 -1       255 2.24394E+01 2.95166E-02-4.60831E-04-5.08146E-01 8.61063E-14-1.56418E-14
 -1       256 2.30780E+01 2.28798E-02-1.22188E-03-5.83843E-01-8.47548E-14-5.59680E-14
 -1       257 2.37698E+01 3.86816E-03-1.89051E-03-6.19579E-01-4.15936E-14 8.17358E-15
 -1       258 2.44455E+01-3.45914E-02-1.79486E-03-5.69348E-01-7.42663E-14-1.21469E-13
 -1       259 2.49856E+01-9.71522E-02 6.39160E-06-3.71633E-01-9.20054E-14-3.75585E-14
 -1       260 2.52203E+01-1.76223E-01 3.91308E-03 2.93185E-02-9.31269E-14-5.91288E-14
 -1       261 2.49635E+01-2.36477E-01 8.37602E-03 6.28484E-01 9.16905E-14 1.31209E-13
 -1       262 2.41046E+01-2.09218E-01 8.15661E-03 1.27427E+00-3.47253E-14 4.38694E-14
 -1       263 2.27608E+01-3.67149E-02-2.39817E-03 1.63024E+00 6.69427E-14 1.45561E-14
 -1       264 2.13841E+01 2.32532E-01-1.97555E-02 1.33949E+00-4.71082E-14-1.09648E-13
 -1       265 2.06178E+01 4.17063E-01-2.91575E-02 3.80884E-01 1.68360E-13-1.16865E-13
 -1       266 2.08587E+01 3.57886E-01-2.06977E-02-7.51394E-01 1.32597E-13 1.59595E-14
 -1       267 2.19064E+01 1.09587E-01-2.43578E-03-1.40911E+00-2.04467E-13 1.72180E-13
 -1       268 2.31369E+01-1.29706E-01 9.78058E-03-1.34313E+00-1.52039E-13 2.41654E-13
 -1       269 2.39873E+01-2.35635E-01 1.03869E-02-7.85730E-01-1.84843E-14 1.37839E-13
 -1       270 2.42241E+01-2.18541E-01 4.84197E-03-1.17763E-01-4.04156E-14 2.44644E-13
 -1       271 2.39005E+01-1.45975E-01-2.28043E-04 4.07873E-01 3.81016E-13 6.11598E-14
 -1       272 2.32014E+01-6.92819E-02-2.27225E-03 7.12101E-01 1.21642E-13-1.86601E-13
 -1       273 2.23293E+01-6.99405E-03-2.35202E-03 8.12992E-01 2.88408E-13-1.43380E-13
 -1       274 2.14591E+01 4.28157E-02-2.69261E-03 7.51093E-01-8.41475E-14 7.26606E-14
 -1       275 2.07311E+01 9.30975E-02-2.43950E-03 5.50582E-01-8.22803E-14-6.10297E-16
 -1       276 2.02295E+01 1.27446E-01 5.56117E-04 2.39797E-01 2.59405E-14 8.77948E-14
 -1       277 2.01628E+01 4.42824E-01 2.06832E-03 4.39326E-01 9.36376E-14 2.93542E-13
 -1       278 2.01007E+01 1.01898E+00 1.02611E-03 7.33370E-01 3.75231E-13 1.56731E-13
 -1       279 2.00307E+01 1.74534E+00 1.39280E-04 8.86875E-01 1.87068E-13-2.48207E-13
 -1       280 1.99670E+01 2.52179E+00-1.17180E-03 8.82813E-01 2.12088E-13-1.29906E-13
 -1       281 1.99098E+01 3.21700E+00-2.84711E-03 7.32658E-01-1.33737E-13-8.71414E-14
 -1       282 1.98672E+01 3.73860E+00-3.99412E-03 4.55758E-01 1.11485E-13 9.65577E-14
 -1       283 1.98508E+01 3.98363E+00-4.52269E-03 1.04642E-01-1.76496E-13 7.36741E-14
 -1       284 1.98647E+01 3.91678E+00-4.35589E-03-2.50238E-01 2.24824E-14-4.17494E-13
 -1       285 1.99033E+01 3.56382E+00-3.58391E-03-5.40111E-01-4.60590E-13-3.91698E-13
 -1       286 1.99537E+01 3.00173E+00-2.34427E-03-7.19392E-01-3.80666E-13-4.97588E-13
 -1       287 2.00007E+01 2.34481E+00-8.03795E-04-7.76472E-01-3.21228E-13-3.74506E-14
 -1       288 2.00376E+01 1.66850E+00 5.53086E-04-7.29647E-01-3.70503E-13 4.98204E-13
 -1       289 2.00620E+01 1.06393E+00 1.55544E-03-6.06313E-01-1.25176E-13 3.34253E-13
 -1       290 2.00822E+01 5.81416E-01 1.99266E-03-4.26384E-01-7.22363E-14-9.64485E-14
 -1       291 2.01526E+01 3.06563E-01 2.74123E-03-3.54796E-01 4.36615E-14 1.23096E-13
 -1       292-8.92185E-01-1.11961E+01-9.63722E-01 1.10794E+00 7.91020E-13-9.93650E-15
 -1       293 2.37995E+00-9.52696E+00-8.86941E-01 3.14543E+00 6.77153E-13 6.78492E-13
 -1       294 8.91981E+00-5.76954E+00-5.77604E-01 5.36115E+00 5.75096E-13 4.98601E-13
 -1       295 1.81964E+01-1.59668E+00-1.56305E-01 7.11786E+00 6.08846E-13 3.84887E-13
 -1       296 2.85245E+01 1.98039E+00 2.94137E-01 7.72647E+00 4.51195E-13 6.01685E-13
 -1       297 3.83603E+01 4.66400E+00 7.20791E-01 6.73075E+00 9.02303E-13-1.26121E-13
 -1       298 4.41589E+01 6.44137E+00 8.53580E-01 3.23991E+00 7.33733E-13-3.19272E-13
 -1       299 4.81278E+01 6.74467E+00 1.12035E+00 3.00467E-01 3.37785E-13-5.52653E-13
 -1       300 4.48254E+01 6.19804E+00 9.38740E-01-3.11050E+00 1.18003E-13-7.26530E-13
 -1       301 3.80936E+01 4.35538E+00 6.85153E-01-6.23396E+00 2.21888E-13-8.12128E-13
 -1       302 2.81338E+01 1.64856E+00 2.60254E-01-7.30098E+00 4.18637E-13-4.88998E-13
 -1       303 1.76243E+01-1.87103E+00-1.90913E-01-6.74553E+00 2.58793E-13-7.91589E-13
 -1       304 9.22206E+00-5.95777E+00-4.93058E-01-5.41258E+00-7.99361E-15-4.20948E-13
 -1       305 2.02622E+00-9.35620E+00-8.68602E-01-2.82840E+00-1.59289E-13-2.46761E-13
 -1       306-1.04857E+00-1.13961E+01-1.01950E+00-7.26054E-01-3.95642E-13-3.21992E-13
 -1       307-9.06117E-01-1.12302E+01-1.00404E+00 1.23613E+00-7.26780E-13-4.05592E-13
 -1       308 2.47123E+00-8.89038E+00-8.34285E-01 3.31422E+00-7.56728E-13 2.39322E-14
 -1       309 8.86963E+00-5.12174E+00-5.23866E-01 5.42169E+00-4.60187E-13-2.94070E-13
 -1       310 1.76361E+01-1.14220E+00-1.37997E-01 7.13469E+00-5.61190E-13 4.95159E-14
 -1       311 2.76773E+01 2.22581E+00 2.80726E-01 7.74770E+00-1.66811E-13-2.72393E-13
 -1       312 3.70235E+01 4.52376E+00 6.01912E-01 6.21884E+00-2.11142E-13-3.08364E-14
 -1       313 4.46294E+01 6.17004E+00 9.60081E-01 3.92608E+00-1.22555E-13-2.19130E-13
 -1       314 4.74431E+01 6.73347E+00 1.08300E+00-9.76169E-02 1.23623E-13-6.20762E-14
 -1       315 4.40725E+01 6.37831E+00 8.82977E-01-3.72084E+00 5.66630E-14-2.19269E-13
 -1       316 3.74527E+01 4.67456E+00 6.37721E-01-6.34226E+00 1.75314E-13-1.97259E-13
 -1       317 2.81301E+01 2.28078E+00 3.15583E-01-7.88475E+00 5.00683E-13-1.69254E-13
 -1       318 1.79333E+01-1.33833E+00-1.26771E-01-7.23537E+00 4.99600E-13-3.02508E-13
 -1       319 8.92490E+00-5.56935E+00-5.35979E-01-5.47755E+00 3.93408E-13-6.09013E-13
 -1       320 2.81776E+00-8.84663E+00-7.16918E-01-3.90057E+00 4.58272E-13-2.22086E-13
 -1       321-9.49069E-01-1.16061E+01-1.01784E+00-1.14645E+00 5.28966E-13 2.33036E-13
 -1       322 2.01452E+01 3.01530E+00-1.78612E-02-2.11129E+00-2.09305E-13-3.40481E-13
 -1       323 2.07552E+01 2.20828E+00-1.78110E-02-2.36404E+00-2.56863E-13-1.99766E-13
 -1       324 1.95849E+01 3.69128E+00-1.50671E-02-1.31784E+00-6.56813E-14-4.12100E-13
 -1       325 1.94613E+01 3.84843E+00-1.35688E-02-9.23988E-01-9.85391E-15-4.23300E-13
 -1       326 1.93925E+01 3.93914E+00-1.26927E-02-5.44156E-01 5.43557E-14-3.97024E-13
 -1       327 1.93621E+01 3.98042E+00-1.22947E-02-1.73329E-01 1.03270E-13-3.88444E-13
 -1       328 1.93634E+01 3.97881E+00-1.23159E-02 1.94528E-01 1.42917E-13-3.62749E-13
 -1       329 1.93966E+01 3.93392E+00-1.27626E-02 5.65689E-01 1.81405E-13-3.42526E-13
 -1       330 1.94672E+01 3.84065E+00-1.37722E-02 9.39799E-01 2.20625E-13-2.98222E-13
 -1       331 1.95937E+01 3.67842E+00-1.56591E-02 1.33399E+00 2.66812E-13-2.14208E-13
 -1       332 1.98088E+01 3.40981E+00-1.88341E-02 1.73939E+00 3.03808E-13-1.26412E-13
 -1       333 2.01788E+01 2.95513E+00-2.29405E-02 2.12796E+00 3.23301E-13 6.56940E-15
 -1       334 2.07481E+01 2.12941E+00-3.04700E-02 2.32285E+00 2.95877E-13 2.48314E-13
 -1       335 2.10943E+01 1.18773E+00-2.49250E-02 1.92250E+00 2.51524E-13 4.55436E-13
 -1       336 2.03904E+01 4.89240E-01 8.33328E-03 9.27971E-01 1.89231E-13 3.67679E-13
 -1       337 2.04565E+01 6.75490E-01 1.23654E-02-1.02598E+00-1.91743E-13-1.40891E-13
 -1       338 2.00362E+01 3.34665E-01 6.81640E-03-4.59018E-01-1.50116E-13-1.23009E-13
 -1       339 1.97808E+01 1.76497E-01 4.06013E-03-1.49497E-01-1.17028E-13-1.34467E-13
 -1       340 1.96450E+01 9.03174E-02 1.91284E-03 2.12981E-02-7.69984E-14-1.50214E-13
 -1       341 1.95893E+01 4.12483E-02 7.98681E-04 1.12338E-01-5.24150E-14-1.65265E-13
 -1       342 1.95837E+01 1.24351E-02 2.75761E-04 1.55567E-01-6.32944E-14-1.75467E-13
 -1       343 1.96076E+01-4.32371E-03 1.92882E-05 1.69922E-01-2.30189E-14-1.41382E-13
 -1       344 1.96473E+01-1.34376E-02-1.11381E-04 1.67276E-01-7.49831E-14-1.59027E-13
 -1       345 1.96940E+01-1.75202E-02-1.72142E-04 1.55377E-01-1.11244E-13-1.38983E-13
 -1       346 1.97423E+01-1.82149E-02-1.88826E-04 1.39425E-01-1.92321E-14-2.00367E-13
 -1       347 1.97894E+01-1.65798E-02-1.75631E-04 1.22984E-01-2.20606E-14-2.31588E-13
 -1       348 1.98343E+01-1.32872E-02-1.41223E-04 1.08555E-01-2.42536E-14-2.34890E-13
 -1       349 1.98771E+01-8.73811E-03-9.08433E-05 9.79688E-02-8.24495E-14-2.43722E-13
 -1       350 1.99191E+01-3.13872E-03-2.73859E-05 9.26569E-02-1.01101E-13-2.14159E-13
 -1       351 1.99620E+01 3.44084E-03 4.78220E-05 9.38473E-02-4.77275E-14-1.41665E-13
 -1       352 2.00085E+01 1.10134E-02 1.34300E-04 1.02690E-01-7.69137E-15-2.57022E-13
 -1       353 2.00616E+01 1.96177E-02 2.31641E-04 1.20323E-01-1.65080E-14-2.79639E-13
 -1       354 2.01247E+01 2.92476E-02 3.38543E-04 1.47858E-01-3.80844E-14-3.28152E-13
 -1       355 2.02017E+01 3.97575E-02 4.51510E-04 1.86290E-01 1.14122E-13-2.85475E-13
 -1       356 2.02969E+01 5.07280E-02 5.63050E-04 2.36275E-01 2.18447E-13-2.32247E-13
 -1       357 2.04143E+01 6.12753E-02 6.59257E-04 2.97746E-01 2.95160E-14-8.30483E-14
 -1       358 2.05580E+01 6.97879E-02 7.16783E-04 3.69315E-01 2.56287E-14-9.90796E-14
 -1       359 2.07312E+01 7.35859E-02 6.99654E-04 4.47371E-01-1.86084E-14-7.13791E-14
 -1       360 2.09355E+01 6.85392E-02 5.57288E-04 5.24857E-01-2.04960E-15-2.54611E-13
 -1       361 2.11706E+01 4.87807E-02 2.26729E-04 5.89739E-01-6.43576E-14-3.29324E-13
 -1       362 2.14323E+01 6.85795E-03-3.56004E-04 6.23411E-01-3.75462E-14-2.47356E-13
 -1       363 2.17114E+01-6.49804E-02-1.22734E-03 5.99742E-01 6.12791E-14-3.07806E-13
 -1       364 2.19915E+01-1.71224E-01-2.34549E-03 4.86242E-01 7.64050E-14-4.50457E-13
 -1       365 2.22458E+01-3.06006E-01-3.51388E-03 2.50024E-01-4.30240E-14-4.97214E-13
 -1       366 2.24344E+01-4.42432E-01-4.31021E-03-1.27868E-01-9.78109E-14-2.66987E-13
 -1       367 2.25026E+01-5.23029E-01-4.17098E-03-6.27089E-01 1.28682E-13-3.91482E-14
 -1       368 2.23917E+01-4.65408E-01-2.68831E-03-1.15645E+00 9.95857E-14-5.34425E-14
 -1       369 2.20708E+01-2.02794E-01-1.85668E-04-1.53957E+00-9.46199E-14-1.17829E-13
 -1       370 2.15898E+01 2.41023E-01 2.41796E-03-1.55996E+00-1.86974E-13-9.14761E-14
 -1       371 2.11115E+01 6.98287E-01 4.36108E-03-1.08953E+00-1.91525E-13-9.85830E-14
 -1       372 2.08524E+01 9.20526E-01 5.46629E-03-2.34614E-01 1.78088E-13 7.27439E-14
 -1       373 2.09318E+01 7.64149E-01 4.30038E-03 6.58540E-01 2.00540E-13 4.04540E-14
 -1       374 2.12669E+01 3.29612E-01 2.32027E-03 1.21763E+00-4.26137E-14 1.73820E-13
 -1       375 2.16491E+01-1.44408E-01-2.76304E-05 1.27739E+00-2.13699E-13 3.24031E-13
 -1       376 2.18903E+01-4.55414E-01-2.50648E-03 9.27774E-01-1.61038E-13 4.04573E-13
 -1       377 2.19170E+01-5.46858E-01-4.12685E-03 3.88392E-01 1.98216E-13 2.51015E-13
 -1       378 2.17514E+01-4.69914E-01-4.19826E-03-1.37994E-01 1.76174E-13 6.84642E-13
 -1       379 2.14564E+01-3.04700E-01-3.10100E-03-5.28002E-01 3.76273E-13 3.07669E-13
 -1       380 2.10972E+01-1.11229E-01-1.43510E-03-7.31548E-01-1.98539E-14 1.06467E-13
 -1       381 2.07280E+01 7.97959E-02 2.06469E-04-7.43903E-01 5.54054E-14 2.03595E-13
 -1       382 2.04246E+01 2.18230E-01 2.42008E-03-5.98101E-01 2.81781E-13 1.13043E-13
 -1       383 1.98884E+01 2.28406E-01 1.07949E-02 3.99419E-01 1.69943E-13 3.20106E-13
 -1       384 1.95994E+01 1.15250E-01 6.17150E-03 1.20850E-01 1.37770E-13 2.38693E-13
 -1       385 1.94644E+01 5.75236E-02 2.80184E-03-2.78310E-02 1.10131E-13 1.65385E-13
 -1       386 1.94241E+01 2.56593E-02 1.17376E-03-1.04553E-01 9.88468E-14 1.25287E-13
 -1       387 1.94394E+01 7.26156E-03 4.47953E-04-1.39686E-01 9.68182E-14 5.27040E-14
 -1       388 1.94851E+01-3.34438E-03 1.04068E-04-1.50218E-01 7.80431E-14 6.10942E-14
 -1       389 1.95453E+01-9.09500E-03-7.31630E-05-1.46448E-01 1.03254E-13 5.98611E-14
 -1       390 1.96102E+01-1.16847E-02-1.62156E-04-1.34957E-01 2.79168E-14 8.08825E-14
 -1       391 1.96741E+01-1.21637E-02-1.96010E-04-1.20106E-01 9.54124E-14 5.99963E-14
 -1       392 1.97342E+01-1.12030E-02-1.92309E-04-1.04851E-01 2.44042E-14 3.92150E-14
 -1       393 1.97896E+01-9.22486E-03-1.61784E-04-9.12516E-02 2.06061E-15-6.88782E-14
 -1       394 1.98408E+01-6.47357E-03-1.10931E-04-8.08117E-02 3.68391E-14 1.01906E-14
 -1       395 1.98895E+01-3.05936E-03-4.31354E-05-7.47263E-02-1.93630E-14 1.71104E-14
 -1       396 1.99380E+01 1.01307E-03 4.06077E-05-7.40678E-02 4.86139E-14-6.73325E-14
 -1       397 1.99897E+01 5.82403E-03 1.41125E-04-7.99319E-02 1.19379E-13-1.18421E-13
 -1       398 2.00485E+01 1.15223E-02 2.60558E-04-9.35507E-02 9.25249E-14-1.09462E-13
 -1       399 2.01193E+01 1.83083E-02 4.01766E-04-1.16379E-01-1.05434E-13-1.30844E-13
 -1       400 2.02076E+01 2.64107E-02 5.67438E-04-1.50143E-01-9.59432E-14-4.44182E-14
 -1       401 2.03200E+01 3.60472E-02 7.58541E-04-1.96844E-01-8.69529E-14 2.40277E-14
 -1       402 2.04639E+01 4.73490E-02 9.71563E-04-2.58668E-01 2.15166E-13 8.97103E-14
 -1       403 2.06477E+01 6.02172E-02 1.19369E-03-3.37741E-01 1.91537E-13-1.07899E-13
 -1       404 2.08799E+01 7.40522E-02 1.39487E-03-4.35598E-01-8.45977E-14-2.07866E-13
 -1       405 2.11694E+01 8.72682E-02 1.51627E-03-5.52141E-01-1.02778E-13-2.01962E-13
 -1       406 2.15234E+01 9.64730E-02 1.45675E-03-6.83762E-01 6.97727E-14-1.57509E-13
 -1       407 2.19460E+01 9.52182E-02 1.06550E-03-8.20170E-01 9.29401E-14 4.89171E-14
 -1       408 2.24352E+01 7.24367E-02 1.58676E-04-9.39524E-01-4.83391E-14 1.06603E-13
 -1       409 2.29788E+01 1.14265E-02-1.40514E-03-1.00206E+00-3.97924E-14 1.37590E-13
 -1       410 2.35488E+01-1.08002E-01-3.58075E-03-9.44406E-01 7.58456E-14 2.19109E-13
 -1       411 2.40942E+01-2.98459E-01-5.85575E-03-6.81615E-01-1.05958E-13 2.78226E-14
 -1       412 2.45307E+01-5.37593E-01-7.37856E-03-1.32186E-01-3.05914E-14-1.24342E-13
 -1       413 2.47350E+01-7.26732E-01-7.24406E-03 7.13766E-01-8.27736E-14-1.86970E-13
 -1       414 2.45598E+01-6.66967E-01-4.92092E-03 1.67820E+00 2.72551E-14-4.44926E-14
 -1       415 2.39282E+01-1.70902E-01-5.83576E-03 2.30483E+00 1.68343E-13-5.75920E-14
 -1       416 2.30354E+01 6.52445E-01-1.15407E-02 2.03088E+00 1.21786E-14-1.85888E-13
 -1       417 2.23956E+01 1.26952E+00-1.47577E-02 7.18164E-01 8.29996E-14-1.48027E-13
 -1       418 2.24611E+01 1.14525E+00-1.03923E-02-9.55688E-01 1.45769E-14 5.89164E-14
 -1       419 2.31183E+01 3.87672E-01-4.52122E-03-1.97075E+00-2.30789E-13 1.62363E-13
 -1       420 2.38136E+01-3.81066E-01-2.85056E-03-1.89639E+00 1.67347E-14-9.21450E-14
 -1       421 2.41211E+01-7.40569E-01-5.70592E-03-1.07701E+00-1.53052E-13-6.87660E-14
 -1       422 2.39655E+01-7.03779E-01-8.71720E-03-8.87232E-02-5.83496E-14 1.17007E-13
 -1       423 2.34727E+01-4.78598E-01-8.61945E-03 6.91828E-01 3.58295E-13 7.91361E-14
 -1       424 2.27999E+01-2.31535E-01-5.75517E-03 1.14726E+00 2.58588E-13 1.85862E-13
 -1       425 2.20693E+01-2.67093E-02-2.09566E-03 1.30255E+00 8.18073E-14 4.61157E-13
 -1       426 2.13702E+01 1.33662E-01 6.34258E-04 1.21844E+00-5.57780E-14 5.55087E-13
 -1       427 2.07596E+01 2.71644E-01 2.01400E-03 9.43311E-01 5.23973E-14 6.23818E-13
 -1       428 2.04309E+01 3.71643E-01 2.42947E-03 7.16458E-01 1.04972E-15 6.51398E-13
 -1       429 1.99905E+01 1.67443E+00-8.76903E-05 1.48986E+00 1.75978E-13-1.64895E-13
 -1       430 2.02275E+01 1.11542E+00 2.96867E-03 1.38456E+00 6.22972E-14 8.37764E-14
 -1       431 2.03600E+01 7.32125E-01 3.84849E-03 1.09719E+00 8.88559E-14 7.25151E-14
 -1       432 1.97602E+01 2.21634E+00-2.36694E-03 1.36340E+00 1.56868E-13-6.34747E-13
 -1       433 1.95600E+01 2.67889E+00-3.98576E-03 1.00275E+00 4.80486E-14 2.18403E-13
 -1       434 1.94404E+01 2.96371E+00-4.90689E-03 4.67474E-01 4.16971E-14 1.99010E-14
 -1       435 1.94342E+01 3.01309E+00-4.99207E-03-1.37972E-01-3.04181E-13-3.84214E-13
 -1       436 1.95395E+01 2.82262E+00-4.31004E-03-6.89179E-01-2.67776E-13-6.86341E-13
 -1       437 1.97181E+01 2.44335E+00-3.00921E-03-1.08409E+00-4.08384E-13-4.98068E-13
 -1       438 1.99106E+01 1.96841E+00-1.33456E-03-1.27359E+00-1.18125E-13 4.59651E-14
 -1       439 2.00773E+01 1.46606E+00 3.06914E-04-1.27362E+00 2.18488E-13 3.62678E-13
 -1       440 2.01957E+01 1.00794E+00 1.90756E-03-1.12674E+00 2.13905E-13 5.89028E-13
 -1       441 2.02679E+01 6.28917E-01 3.32650E-03-8.88960E-01 1.43474E-13 3.43776E-14
 -1       442 1.00554E+01-6.16585E+00-7.29088E-02 6.88767E+00-9.64784E-14 2.46726E-13
 -1       443 9.42565E-01-5.29198E+00-1.11335E-01-1.99388E-01 6.15811E-13 3.65707E-13
 -1       444 3.46920E+00-5.69403E+00-1.17138E-01 4.33951E+00 3.75283E-13 3.42365E-14
 -1       445 1.90015E+01-6.01772E+00-2.40010E-02 6.85015E+00 4.21885E-15 1.36176E-13
 -1       446 2.66742E+01-3.84814E+00-3.91548E-03 4.77407E+00 1.49450E-13 6.47121E-14
 -1       447 1.97870E+01 3.43932E+00-2.08815E-02-1.72635E+00-1.35523E-13-3.97303E-13
 -1       448 3.51795E+01 4.21474E+00 3.71877E-02 5.03456E-02 7.35870E-13-4.68056E-13
 -1       449 3.59716E+01 7.70556E+00 3.48545E-02-1.42698E-01 5.06234E-13 1.63064E-13
 -1       450 3.64901E+01 7.70062E+00 6.70600E-02 5.89537E-01 1.71418E-13 2.71963E-13
 -1       451 3.52390E+01 4.17689E+00 3.05275E-02 4.21921E-01 3.70953E-14 1.56097E-13
 -1       452 3.20270E+01-5.31445E-01-8.77458E-03-1.06665E+00-1.24082E-13-1.06956E-13
 -1       453 2.66641E+01-4.40583E+00-1.27032E-02-3.99080E+00-6.91947E-14-1.63369E-13
 -1       454 1.84619E+01-5.75539E+00-3.54466E-02-6.48363E+00-1.88655E-13-5.97779E-13
 -1       455 9.14126E+00-5.90056E+00-7.20568E-02-6.38190E+00-1.57721E-13-3.22145E-13
 -1       456 3.27207E+00-5.05446E+00-6.03356E-02-3.90046E+00-2.51674E-13-5.19515E-13
 -1       457 7.46881E-01-5.14151E+00-1.09789E-01 3.41808E-01-2.40589E-13-5.91305E-13
 -1       458 3.75229E+00-4.81070E+00-3.29853E-02 4.59556E+00-1.34462E-13 3.18773E-14
 -1       459 9.70009E+00-5.84227E+00-7.97922E-02 6.80379E+00-3.50220E-13 3.06977E-14
 -1       460 1.79282E+01-5.33990E+00-4.46773E-02 6.86235E+00-2.80803E-13-7.46625E-15
 -1       461 2.58868E+01-3.42083E+00-1.12645E-03 4.90314E+00-3.30708E-13 5.98133E-15
 -1       462 3.12554E+01-8.25899E-02 1.63026E-06 1.90269E+00-1.67375E-13-1.50893E-13
 -1       463 3.50157E+01 4.72745E+00 5.28718E-02 2.84038E-01-1.82784E-13-2.32162E-13
 -1       464 3.52722E+01 7.77863E+00 7.66458E-03-4.27476E-01-8.27116E-14-1.90285E-13
 -1       465 3.55523E+01 7.85452E+00 1.88946E-02 6.72426E-02 1.61121E-13-2.40578E-13
 -1       466 3.46781E+01 4.68381E+00 2.54353E-02-2.73094E-01 2.20796E-14-2.13968E-13
 -1       467 3.16028E+01-4.93377E-02 3.04113E-03-2.02610E+00 2.88008E-13-7.57172E-14
 -1       468 2.62420E+01-3.54271E+00 2.18415E-03-5.03828E+00 4.05870E-13-8.53623E-14
 -1       469 1.85844E+01-5.79032E+00-3.18220E-02-7.02432E+00 2.45803E-13-1.91083E-13
 -1       470 1.09995E+01-6.05258E+00-4.20430E-02-7.19321E+00 1.72723E-13-5.76490E-13
 -1       471 3.68567E+00-4.83184E+00-1.34919E-02-4.32326E+00 6.51271E-13 1.98008E-13
 -1       472 3.25087E+01 3.00788E-02 3.98515E-02 2.12976E+00 3.69911E-13-5.14061E-13
 -1       473 2.03722E+01 8.31812E-01 4.02814E-03 9.72874E-01 2.04606E-13 1.00295E-13
 -1       474 1.97341E+01 3.10356E+00-5.36634E-03-6.34467E-01 2.70173E-14-3.66559E-13
 -1       475 1.98298E+01 2.93050E+00-5.72966E-03-9.51033E-01-2.60982E-14-3.85895E-13
 -1       476 1.96668E+01 3.22611E+00-5.02349E-03 8.86071E-03 1.12375E-13-3.38417E-13
 -1       477 1.96852E+01 3.19312E+00-5.10447E-03 3.30683E-01 1.52297E-13-3.24801E-13
 -1       478 1.97387E+01 3.09633E+00-5.42118E-03 6.46277E-01 1.94279E-13-3.00562E-13
 -1       479 1.98369E+01 2.91851E+00-5.96751E-03 9.62095E-01 2.45328E-13-2.21432E-13
 -1       480 1.99918E+01 2.63352E+00-6.52958E-03 1.25757E+00 2.72619E-13-1.58075E-13
 -1       481 2.02332E+01 2.18763E+00-5.69918E-03 1.50236E+00 2.74062E-13-7.35289E-14
 -1       482 2.01102E+01 4.53443E-01 5.07242E-03 4.65185E-01 1.83736E-13 5.27291E-14
 -1       483 2.03408E+01 9.76427E-01 3.78113E-03-9.40582E-01-1.50677E-13-2.30169E-13
 -1       484 2.93219E+01-3.58484E+00-5.78643E-02 1.14600E+00 1.74614E-13-4.67390E-13
 -1       485 2.01754E+01 5.33857E-01 8.21205E-04-4.69356E-01-1.17680E-13-2.08513E-13
 -1       486 2.00232E+01 3.03485E-01 1.19184E-03-1.67871E-01-8.58169E-14-1.73711E-13
 -1       487 1.99223E+01 1.61471E-01 4.75867E-04 1.36266E-02-6.68082E-14-1.44158E-13
 -1       488 1.98636E+01 7.54575E-02 1.66531E-04 1.16354E-01-7.29352E-14-1.60956E-13
 -1       489 1.98363E+01 2.31578E-02 2.51121E-05 1.68022E-01-5.61496E-14-1.76252E-13
 -1       490 1.98305E+01-7.68245E-03-4.41338E-05 1.87402E-01-3.01376E-14-1.82311E-13
 -1       491 1.98384E+01-2.43732E-02-7.72100E-05 1.87246E-01-8.79338E-14-1.55732E-13
 -1       492 1.98545E+01-3.15088E-02-8.90886E-05 1.76339E-01-1.21001E-13-9.98761E-14
 -1       493 1.98750E+01-3.20756E-02-8.67623E-05 1.60797E-01-3.12188E-14-1.18553E-13
 -1       494 1.98978E+01-2.80235E-02-7.44590E-05 1.44936E-01-3.44773E-14-1.35203E-13
 -1       495 1.99218E+01-2.05886E-02-5.48567E-05 1.31871E-01-8.12992E-14-1.51336E-13
 -1       496 1.99469E+01-1.04984E-02-2.95033E-05 1.23947E-01-1.10314E-13-1.59548E-13
 -1       497 1.99735E+01 1.88177E-03 8.68765E-07 1.23052E-01-7.16314E-14-1.57594E-13
 -1       498 2.00025E+01 1.64267E-02 3.60362E-05 1.30831E-01-9.36626E-14-1.37819E-13
 -1       499 2.00354E+01 3.31337E-02 7.60032E-05 1.48818E-01-8.27113E-14-2.20976E-13
 -1       500 2.00738E+01 5.19902E-02 1.20621E-04 1.78485E-01-5.13392E-14-2.06203E-13
 -1       501 2.01200E+01 7.28068E-02 1.69156E-04 2.21193E-01 3.71446E-14-1.60397E-13
 -1       502 2.01760E+01 9.49946E-02 2.19623E-04 2.78030E-01 1.60352E-13-2.58747E-13
 -1       503 2.02447E+01 1.17256E-01 2.67879E-04 3.49489E-01 2.49131E-13-3.24144E-13
 -1       504 2.03288E+01 1.37163E-01 3.06398E-04 4.34956E-01-6.24006E-15-1.41554E-13
 -1       505 2.04317E+01 1.50599E-01 3.22738E-04 5.31940E-01-2.87876E-14-2.91345E-13
 -1       506 2.05571E+01 1.51094E-01 2.97941E-04 6.34983E-01-1.23065E-13-3.03794E-13
 -1       507 2.07098E+01 1.29182E-01 2.05522E-04 7.34236E-01-6.35195E-14-2.09943E-13
 -1       508 2.08958E+01 7.21417E-02 1.25722E-05 8.13725E-01 1.68537E-14-1.92197E-13
 -1       509 2.11227E+01-3.50266E-02-3.16116E-04 8.49551E-01-9.40567E-14-1.85205E-13
 -1       510 2.13986E+01-2.05844E-01-8.02451E-04 8.08713E-01 7.82622E-15-1.62185E-13
 -1       511 2.17291E+01-4.43418E-01-1.42698E-03 6.50179E-01-7.10036E-15-1.91576E-13
 -1       512 2.21083E+01-7.24123E-01-2.05148E-03 3.31549E-01 1.12807E-13 1.74530E-14
 -1       513 2.25030E+01-9.74761E-01-2.33709E-03-1.72921E-01 9.04036E-14 1.89057E-13
 -1       514 2.28349E+01-1.05611E+00-2.04319E-03-8.34574E-01 5.60387E-14-4.03358E-14
 -1       515 2.29833E+01-7.90440E-01-1.37720E-03-1.51533E+00 7.81684E-14-4.76864E-14
 -1       516 2.28466E+01-7.80061E-02-1.73942E-03-1.93852E+00-4.16381E-14 1.96416E-14
 -1       517 2.24640E+01 9.22452E-01-3.03375E-03-1.77762E+00-7.43544E-14 1.93397E-13
 -1       518 2.20908E+01 1.72220E+00-2.65161E-03-9.15054E-01-6.68070E-14 2.49834E-13
 -1       519 2.20133E+01 1.80805E+00-2.81268E-03 3.18670E-01 3.33351E-14-2.50345E-13
 -1       520 2.22803E+01 1.10743E+00-4.76195E-03 1.29117E+00 1.96285E-13-1.39610E-13
 -1       521 2.26252E+01 8.37597E-02-3.07928E-03 1.59421E+00 1.70340E-13 2.65443E-13
 -1       522 2.27619E+01-7.28296E-01-1.79409E-03 1.24056E+00 1.10843E-13 7.50714E-13
 -1       523 2.25986E+01-1.08299E+00-2.35290E-03 5.56254E-01-5.74503E-14 9.84785E-13
 -1       524 2.22213E+01-1.03591E+00-2.38573E-03-1.46645E-01 2.89643E-13 7.42719E-13
 -1       525 2.17555E+01-7.55611E-01-1.97901E-03-6.87239E-01 6.00225E-15 6.66775E-13
 -1       526 2.12915E+01-3.87505E-01-1.02621E-03-1.00224E+00 1.15045E-13 2.59701E-13
 -1       527 2.08738E+01-1.42778E-02 1.99309E-04-1.08824E+00 2.21596E-14 2.28395E-13
 -1       528 1.98076E+01 1.28750E-01 9.91364E-04-1.83170E-02 1.42528E-13-1.77746E-14
 -1       529 1.97495E+01 5.95036E-02 3.59900E-04-1.16823E-01 1.21107E-13-2.72171E-14
 -1       530 1.97307E+01 1.80144E-02 8.40281E-05-1.65145E-01 1.00024E-13 9.19868E-15
 -1       531 1.97368E+01-6.30729E-03-4.91125E-05-1.82308E-01 5.67328E-14 2.34676E-14
 -1       532 1.97578E+01-1.95019E-02-1.14991E-04-1.80823E-01 6.44358E-14 3.15230E-14
 -1       533 1.97865E+01-2.52697E-02-1.42010E-04-1.69118E-01 1.21152E-13-4.61757E-14
 -1       534 1.98188E+01-2.59763E-02-1.43408E-04-1.52978E-01 1.21394E-13-5.39565E-14
 -1       535 1.98520E+01-2.31479E-02-1.26984E-04-1.36443E-01 2.15276E-14-9.20524E-14
 -1       536 1.98852E+01-1.77347E-02-9.76383E-05-1.22412E-01-4.43097E-14-8.94297E-14
 -1       537 1.99184E+01-1.02673E-02-5.81289E-05-1.13081E-01 6.49475E-15-1.22289E-13
 -1       538 1.99524E+01-9.58003E-04-9.57467E-06-1.10259E-01 3.98772E-14-5.71094E-14
 -1       539 1.99887E+01 1.02294E-02 4.81853E-05-1.15615E-01 8.20167E-14-7.08542E-14
 -1       540 2.00294E+01 2.35254E-02 1.16272E-04-1.30855E-01 6.42820E-14 5.57557E-14
 -1       541 2.00770E+01 3.93056E-02 1.96454E-04-1.57867E-01-7.77023E-14 9.72217E-14
 -1       542 2.01344E+01 5.80326E-02 2.90787E-04-1.98797E-01-8.81900E-14-2.16990E-14
 -1       543 2.02052E+01 8.01724E-02 4.00963E-04-2.56075E-01-3.24339E-14-5.82902E-14
 -1       544 2.02930E+01 1.06050E-01 5.27216E-04-3.32348E-01 2.96129E-14-2.21723E-13
 -1       545 2.04018E+01 1.35594E-01 6.66321E-04-4.30257E-01 1.76931E-13-8.90089E-14
 -1       546 2.05360E+01 1.67868E-01 8.08066E-04-5.51979E-01 1.57224E-13-6.19455E-15
 -1       547 2.06997E+01 2.00252E-01 9.29472E-04-6.98356E-01 3.53537E-15-1.38315E-13
 -1       548 2.08977E+01 2.27069E-01 9.86254E-04-8.67368E-01-7.36729E-15-2.07944E-13
 -1       549 2.11352E+01 2.37445E-01 9.02516E-04-1.05161E+00 5.73199E-14-7.91183E-14
 -1       550 2.14198E+01 2.12393E-01 5.64455E-04-1.23434E+00-4.13175E-14-1.57885E-13
 -1       551 2.17638E+01 1.21905E-01-1.74326E-04-1.38378E+00-1.29409E-13-8.44587E-14
 -1       552 2.21878E+01-7.49522E-02-1.44220E-03-1.44589E+00-1.39931E-13-1.06854E-14
 -1       553 2.27217E+01-4.19343E-01-3.28376E-03-1.33766E+00 1.91971E-13 1.76440E-13
 -1       554 2.33941E+01-9.16511E-01-5.21441E-03-9.47987E-01 4.38205E-14-5.15210E-14
 -1       555 2.41911E+01-1.45966E+00-7.22412E-03-1.69631E-01-1.19763E-13 9.55206E-14
 -1       556 2.49831E+01-1.73564E+00-1.01857E-02 1.00952E+00 4.25547E-14-3.31833E-14
 -1       557 2.54718E+01-1.22375E+00-1.31673E-02 2.29121E+00 9.71966E-14-9.69554E-14
 -1       558 2.53111E+01 4.00239E-01-3.44306E-02 2.88695E+00-4.80649E-14 2.48524E-13
 -1       559 2.47292E+01 2.36885E+00-5.40288E-02 1.97556E+00 1.20893E-14 3.33215E-13
 -1       560 2.44564E+01 3.04367E+00-5.83437E-02-2.18321E-01 4.64420E-14 4.49734E-13
 -1       561 2.48175E+01 1.74214E+00-4.39478E-02-2.09741E+00 2.17465E-14 5.57824E-13
 -1       562 2.52180E+01-2.81651E-01-2.83045E-02-2.42298E+00-2.88207E-14 1.73251E-13
 -1       563 2.50436E+01-1.54343E+00-1.14039E-02-1.46303E+00-1.35422E-13 2.38187E-13
 -1       564 2.43215E+01-1.74109E+00-7.17792E-03-1.32747E-01-2.13990E-13 1.88499E-15
 -1       565 2.34047E+01-1.31977E+00-6.78580E-03 9.44448E-01 2.49572E-13-2.86497E-14
 -1       566 2.25471E+01-7.42539E-01-4.70366E-03 1.59217E+00 2.96882E-13 7.58969E-14
 -1       567 2.18382E+01-2.34150E-01-7.26132E-04 1.85505E+00-1.14511E-13 3.43115E-13
 -1       568 2.12596E+01 1.66312E-01 6.41954E-04 1.82027E+00-7.44754E-14 4.99054E-13
 -1       569 2.07753E+01 4.80691E-01 2.09132E-03 1.56526E+00 3.80987E-14 4.39743E-13
 -1       570 1.92857E+01 1.88312E+00-1.57752E-03 1.58711E+00 3.67182E-13-1.51928E-13
 -1       571 1.89320E+01 2.22004E+00-2.23437E-03 9.83979E-01 2.65805E-13 1.24434E-13
 -1       572 2.02108E+01 9.92762E-01-8.65970E-04 1.91550E+00 8.87278E-14-1.32032E-13
 -1       573 1.97491E+01 1.44056E+00 1.70884E-03 1.89960E+00 2.53311E-13-2.45494E-13
 -1       574 1.87898E+01 2.35830E+00-2.25197E-03 1.94677E-01 3.56770E-15-6.47111E-13
 -1       575 1.89019E+01 2.25345E+00-2.16348E-03-6.06522E-01-1.68115E-13-4.11652E-13
 -1       576 1.92213E+01 1.94122E+00-1.80464E-03-1.24420E+00-1.35134E-13-6.00256E-13
 -1       577 1.96268E+01 1.52370E+00-1.13823E-03-1.60701E+00 7.42294E-14 1.07072E-13
 -1       578 2.00148E+01 1.08993E+00-2.20707E-04-1.69485E+00 1.30665E-13 1.82975E-13
 -1       579 2.03025E+01 7.17742E-01 9.75771E-04-1.56206E+00 2.15524E-13 3.62581E-13
 -1       580 2.04752E+01 4.38644E-01-5.74540E-04-1.28563E+00-5.64922E-14 1.73998E-13
 -1       581 5.23852E+00-2.01985E+00 1.75452E-01 2.47107E+00 1.48347E-13-2.91475E-13
 -1       582 1.68647E+01-5.64037E+00 7.77281E-02 7.02699E+00 1.93734E-14 1.59425E-13
 -1       583 1.99227E+01 2.46080E-01 2.43905E-03 1.59887E-01 1.80736E-13 1.94757E-14
 -1       584 5.07891E+00-1.73882E+00 1.91873E-01-1.45573E+00 3.98239E-13 1.35725E-13
 -1       585 9.66919E+00-3.85937E+00 1.38164E-01 6.21926E+00 1.08663E-14 5.40262E-14
 -1       586 2.03936E+01 1.76880E+00-5.35356E-03-1.54635E+00-1.92563E-13-2.84060E-13
 -1       587 2.43131E+01-5.73984E+00 2.13445E-02-4.99084E+00 2.34562E-13 1.16573E-14
 -1       588 1.96824E+01 3.19753E+00-5.11566E-03-3.13114E-01 7.72646E-14-3.65704E-13
 -1       589 3.11777E+01 5.17729E+00-1.63599E-01-1.69718E+00 2.72365E-13-7.90271E-14
 -1       590 3.05747E+01 7.05178E-01-1.29065E-01 2.27503E+00-1.97099E-13 5.33067E-13
 -1       591 3.07379E+01 7.03629E+00-1.77565E-01 3.03658E-01 2.09596E-13 5.24195E-13
 -1       592 3.07968E+01 5.22959E+00-1.68038E-01 2.16502E+00 4.76008E-14 5.45015E-13
 -1       593 2.89027E+01-3.59788E+00-5.04826E-02-1.16683E-01-2.35363E-13 4.56017E-13
 -1       594 2.36770E+01-5.97073E+00 1.50047E-02-4.59307E+00-2.12427E-13 2.12851E-14
 -1       595 1.62055E+01-5.43030E+00 8.60651E-02-6.64630E+00-2.49495E-13-5.94951E-13
 -1       596 8.90595E+00-3.51056E+00 1.33737E-01-5.67609E+00-1.20522E-13-3.43253E-13
 -1       597 4.79942E+00-1.70095E+00 1.77518E-01-1.78472E+00-3.16552E-14-5.46715E-13
 -1       598 4.92874E+00-1.68412E+00 1.76544E-01 2.39669E+00 1.15900E-13-2.09235E-13
 -1       599 1.02797E+01-3.57439E+00 1.52527E-01 6.45506E+00-8.91856E-14-3.47639E-15
 -1       600 1.61802E+01-5.29306E+00 8.58543E-02 7.00836E+00-8.17540E-14-5.32525E-14
 -1       601 2.37479E+01-5.55744E+00 3.12103E-02 4.75318E+00-1.63460E-13 5.77871E-14
 -1       602 2.77963E+01-3.92588E+00-5.82490E-02 1.87623E+00-1.67151E-13-2.35985E-13
 -1       603 3.04385E+01 1.34805E+00-1.05832E-01-1.45511E+00-1.65062E-13-1.33081E-13
 -1       604 3.04106E+01 5.19010E+00-1.65539E-01-1.81659E+00-1.52878E-13-6.91738E-14
 -1       605 2.99729E+01 7.38521E+00-1.84869E-01-1.95000E-01 2.20240E-14-1.09568E-13
 -1       606 3.06083E+01 5.72874E+00-1.49265E-01 1.38158E+00-1.80009E-13 3.74561E-14
 -1       607 3.04221E+01 1.07667E+00-1.21355E-01 1.21609E+00 1.72432E-14-7.61891E-15
 -1       608 2.84762E+01-3.66192E+00-5.45851E-02-2.03133E+00 3.06880E-13 2.61346E-13
 -1       609 1.73979E+01-5.67754E+00 7.79473E-02-7.13280E+00 1.46702E-13-3.26319E-13
 -1       610 1.01698E+01-3.93524E+00 1.31430E-01-6.51457E+00 4.69687E-13-1.98896E-13
 -1       611 3.10701E+01 7.71742E-02-1.10856E-01-1.11768E+00 4.36526E-13-5.46410E-13
 -1       612 2.05841E+01 1.30515E+00-9.99084E-04 1.54866E+00 2.55329E-13 1.64107E-13
 -1       613 2.49240E+01-5.86490E+00 2.70515E-02 4.54658E+00 1.19897E-13-1.49724E-13
 -1       614 1.99819E+01 2.66171E+00-6.31175E-03-1.25879E+00-8.24880E-14-3.55579E-13
 -1       615 8.84828E+00-1.54593E+00 1.60620E-01-4.15948E+00 2.12604E-13 2.28331E-13
 -1       616 2.06207E+01 2.17510E-01 6.90809E-04-1.02631E+00-8.27346E-14 1.74881E-13
 -1       617 1.99618E+01 2.44864E+00-1.59006E-03 3.94652E-01 1.59194E-13-2.86156E-13
 -1       618 1.99304E+01 2.52326E+00-1.54428E-03 1.35771E-01 1.04924E-13-3.14877E-13
 -1       619 2.01213E+01 2.04543E+00-1.58544E-03 8.51110E-01 2.29434E-13-1.79461E-13
 -1       620 2.02388E+01 1.67556E+00-2.24904E-03 9.93140E-01 2.41215E-13-1.19438E-13
 -1       621 2.03187E+01 1.03632E+00 2.90656E-03 8.32513E-01 2.39483E-13-6.28188E-14
 -1       622 2.20868E+01-5.32255E+00 5.78077E-02-5.17674E+00 2.54512E-13-2.57507E-13
 -1       623 2.02438E+01 6.69405E-01 1.52595E-03-3.94510E-01-8.00838E-14-2.04701E-13
 -1       624 2.01669E+01 3.91456E-01 1.77782E-04-1.40841E-01-5.34414E-14-1.87153E-13
 -1       625 2.01019E+01 2.12342E-01 6.80905E-05 2.07519E-02-6.39835E-14-1.95242E-13
 -1       626 2.00518E+01 9.86768E-02 9.54733E-06 1.15938E-01-9.93231E-14-1.81852E-13
 -1       627 2.00171E+01 2.79455E-02-1.48868E-05 1.65351E-01-5.65838E-14-1.76277E-13
 -1       628 1.99952E+01-1.39462E-02-2.54101E-05 1.84716E-01-2.47665E-14-1.38002E-13
 -1       629 1.99831E+01-3.61046E-02-2.98644E-05 1.85609E-01-5.88322E-14-7.33681E-14
 -1       630 1.99780E+01-4.45903E-02-3.00719E-05 1.76427E-01-5.92363E-14-3.34377E-14
 -1       631 1.99780E+01-4.34724E-02-2.70540E-05 1.63225E-01-7.42490E-14-1.00312E-13
 -1       632 1.99816E+01-3.54365E-02-2.16392E-05 1.50393E-01-8.66572E-14-1.17546E-13
 -1       633 1.99879E+01-2.21765E-02-1.44055E-05 1.41195E-01-3.76740E-14-9.59504E-14
 -1       634 1.99964E+01-4.67015E-03-5.62763E-06 1.38159E-01-9.18075E-14-1.36805E-13
 -1       635 2.00070E+01 1.66066E-02 4.60455E-06 1.43381E-01-1.26511E-13-1.77388E-13
 -1       636 2.00196E+01 4.14871E-02 1.63639E-05 1.58720E-01-1.41243E-13-2.35346E-13
 -1       637 2.00346E+01 6.99161E-02 2.96712E-05 1.85920E-01-3.40518E-15-1.04773E-13
 -1       638 2.00525E+01 1.01720E-01 4.45229E-05 2.26634E-01 3.68498E-14-4.37735E-14
 -1       639 2.00740E+01 1.36315E-01 6.06833E-05 2.82353E-01 3.58026E-14-5.18884E-14
 -1       640 2.01001E+01 1.72326E-01 7.74609E-05 3.54212E-01 1.08371E-13-1.24302E-13
 -1       641 2.01324E+01 2.07062E-01 9.34207E-05 4.42654E-01 2.26036E-13-2.38561E-13
 -1       642 2.01734E+01 2.35830E-01 1.05944E-04 5.46922E-01 7.80645E-15-1.17717E-13
 -1       643 2.02271E+01 2.51070E-01 1.10638E-04 6.64322E-01-9.99802E-14-1.38814E-13
 -1       644 2.03000E+01 2.41385E-01 1.00569E-04 7.89212E-01-6.09910E-14-1.61788E-13
 -1       645 2.04025E+01 1.90706E-01 6.52220E-05 9.11638E-01-6.36378E-15-1.56216E-13
 -1       646 2.05511E+01 7.82440E-02-1.03180E-05 1.01550E+00 2.33518E-14-2.35693E-13
 -1       647 2.07691E+01-1.19435E-01-1.53014E-04 1.07607E+00 7.21975E-15-9.40505E-14
 -1       648 2.10873E+01-4.21554E-01-3.96045E-04 1.05690E+00-8.87316E-15 4.14157E-14
 -1       649 2.15370E+01-8.27227E-01-7.74757E-04 9.07193E-01 2.52974E-13 9.77384E-14
 -1       650 2.21341E+01-1.28680E+00-1.19696E-03 5.63835E-01 1.74954E-13 3.04848E-15
 -1       651 2.28442E+01-1.65841E+00-1.30980E-03-3.13091E-02 3.34112E-14 1.23114E-13
 -1       652 2.35324E+01-1.67355E+00-1.97054E-03-8.69877E-01-3.57203E-15 9.56054E-14
 -1       653 2.39630E+01-1.00830E+00-5.36185E-03-1.75917E+00-4.03192E-15 6.87931E-14
 -1       654 2.39171E+01 4.56096E-01-1.79916E-02-2.24344E+00-9.50785E-14-1.63666E-14
 -1       655 2.35049E+01 2.18858E+00-2.52507E-02-1.78563E+00-1.50201E-13-2.32819E-13
 -1       656 2.32406E+01 3.11927E+00-2.67352E-02-3.61791E-01-2.15003E-13-4.45128E-14
 -1       657 2.33429E+01 2.52033E+00-3.42171E-02 1.18863E+00 2.00410E-13-1.41831E-14
 -1       658 2.38320E+01 7.59577E-01-4.89592E-03 1.86304E+00 3.25588E-13 1.15468E-14
 -1       659 2.39579E+01-8.39501E-01-7.21911E-03 1.49879E+00 3.53384E-13-4.46728E-14
 -1       660 2.35928E+01-1.68074E+00-3.95826E-03 6.14560E-01 6.61178E-14 4.58554E-14
 -1       661 2.29172E+01-1.76218E+00-1.59950E-03-2.90776E-01 1.26662E-13-8.63285E-15
 -1       662 2.21695E+01-1.38147E+00-1.20950E-03-9.57269E-01 6.54339E-14 1.81484E-13
 -1       663 2.15089E+01-8.20000E-01-5.18092E-04-1.33262E+00-1.61977E-13 3.76423E-13
 -1       664 2.09887E+01-2.45273E-01-1.64449E-04-1.45115E+00-4.59703E-14 1.69825E-13
 -1       665 1.99725E+01 8.81057E-02 5.23632E-05-1.18102E-01 9.22258E-14-2.15432E-14
 -1       666 2.04019E+01 4.81320E-01 4.86985E-04 2.30882E+00-1.32099E-13-7.00297E-15
 -1       667 2.00261E+01 1.89185E-01 1.59882E-04-1.94803E-02 1.13817E-13-3.76456E-14
 -1       668 1.99258E+01-1.12407E-02-2.67080E-05-1.87827E-01 7.01399E-14 2.99709E-14
 -1       669 1.99221E+01-3.09998E-02-4.12278E-05-1.88069E-01 1.64748E-13-3.27091E-14
 -1       670 1.99261E+01-3.89735E-02-4.64425E-05-1.77885E-01 1.12774E-13 7.40318E-15
 -1       671 1.99350E+01-3.87288E-02-4.44454E-05-1.63406E-01 6.99631E-14 4.23920E-14
 -1       672 1.99471E+01-3.25878E-02-3.71527E-05-1.49045E-01 2.03848E-14 9.37817E-14
 -1       673 1.99615E+01-2.19769E-02-2.58907E-05-1.38067E-01-4.96298E-15 6.27319E-14
 -1       674 1.99778E+01-7.65577E-03-1.12971E-05-1.33030E-01 1.62756E-14-4.02178E-14
 -1       675 1.99962E+01 1.01260E-02 6.50009E-06-1.36104E-01 6.47571E-14-3.75652E-14
 -1       676 2.00170E+01 3.15138E-02 2.77941E-05-1.49324E-01-2.67480E-14 2.38840E-14
 -1       677 2.00411E+01 5.69477E-02 5.31256E-05-1.74774E-01-9.54421E-15 5.67529E-14
 -1       678 2.00692E+01 8.70619E-02 8.32969E-05-2.14700E-01-4.50501E-14 6.97597E-14
 -1       679 2.01023E+01 1.22559E-01 1.19132E-04-2.71575E-01-5.73065E-14 6.78822E-14
 -1       680 2.01412E+01 1.64020E-01 1.61315E-04-3.48064E-01 5.59248E-15-2.24448E-15
 -1       681 2.01868E+01 2.11597E-01 2.10018E-04-4.46901E-01 5.82843E-14 1.93593E-14
 -1       682 2.02395E+01 2.64473E-01 2.64071E-04-5.70603E-01 1.75188E-13 6.48281E-14
 -1       683 2.03002E+01 3.19948E-01 3.19635E-04-7.20971E-01 7.37092E-14 1.39285E-13
 -1       684 2.03699E+01 3.71914E-01 3.67860E-04-8.98275E-01 5.71556E-14 1.41826E-13
 -1       685 2.04520E+01 4.08430E-01 3.91257E-04-1.09998E+00-3.62424E-14 8.51964E-15
 -1       686 2.05544E+01 4.08184E-01 3.59267E-04-1.31885E+00 8.96649E-14 3.97687E-14
 -1       687 2.06955E+01 3.36024E-01 2.30902E-04-1.53997E+00-1.41504E-13 1.93110E-13
 -1       688 2.09124E+01 1.39064E-01-4.45374E-05-1.73606E+00-9.97416E-14 1.34267E-13
 -1       689 2.12726E+01-2.51212E-01-4.84367E-04-1.85875E+00-1.12484E-13-8.87424E-14
 -1       690 2.18798E+01-8.97850E-01-1.34881E-03-1.82474E+00 1.07074E-13 1.12981E-13
 -1       691 2.28679E+01-1.79207E+00-4.97478E-04-1.48854E+00-1.07229E-13 1.71202E-13
 -1       692 2.42886E+01-2.67305E+00-8.99987E-04-6.50129E-01-4.09716E-14-2.99928E-14
 -1       693 2.60083E+01-2.90284E+00-6.61280E-03 8.19764E-01 1.34612E-13 3.16925E-14
 -1       694 2.73275E+01-1.45799E+00-5.05956E-02 2.55248E+00-1.46284E-13 4.45373E-14
 -1       695 2.66904E+01 4.74609E+00-1.50181E-01 1.17276E+00 7.71119E-14 7.63573E-14
 -1       696 2.69971E+01 4.24751E+00-1.30687E-01-1.61813E+00-1.52371E-13 5.93831E-14
 -1       697 2.72319E+01 7.16246E-01-8.41990E-02-2.61692E+00 2.12035E-13 5.82936E-14
 -1       698 2.65975E+01-2.11795E+00-4.69108E-02-1.58983E+00 5.30218E-14-1.84491E-13
 -1       699 2.52323E+01-2.95073E+00-8.48171E-03 1.14424E-01-1.71785E-14-3.40679E-13
 -1       700 2.36324E+01-2.40464E+00-2.84632E-03 1.41002E+00 1.05485E-13-5.12543E-13
 -1       701 2.23599E+01-1.47296E+00-1.90513E-03 2.09797E+00 1.93314E-13-2.16867E-13
 -1       702 2.14929E+01-6.13008E-01-7.03121E-04 2.33625E+00-5.14489E-14 4.73528E-14
 -1       703 2.08524E+01-5.40478E-02 1.02801E-04 2.42300E+00-8.74918E-15-4.27634E-14
 -1       704 2.20510E+01-5.21350E+00 4.68774E-02 4.94846E+00 2.26767E-13 5.84795E-14
 -1       705 1.80040E+01 1.84217E+00-6.96437E-04-3.31655E-01 1.03421E-13-5.36758E-13
 -1       706 9.52797E+00-1.06418E+00 1.42676E-01-3.76876E+00 4.26915E-14-5.21992E-13
 -1       707 1.84956E+01 1.57843E+00-9.25994E-04 1.62834E+00 1.79976E-13 1.72607E-13
 -1       708 1.84109E+01 1.55306E+00-7.85510E-04-1.26491E+00-8.25774E-14-8.41311E-13
 -1       709 1.80314E+01 1.84868E+00-7.42904E-04 7.24973E-01 2.50336E-14-4.21874E-13
 -1       710 1.90733E+01 1.10338E+00-5.71166E-04-1.85636E+00 9.25114E-14-1.16539E-13
 -1       711 1.97789E+01 6.35892E-01-5.53869E-04-2.06170E+00 6.49554E-14 1.51893E-13
 -1       712 2.03378E+01 2.78639E-01 1.21425E-04-1.93358E+00-4.34949E-15 3.98653E-13
 -1       713 1.54612E+01-3.43683E+00 1.04515E-01 6.10871E+00 1.23034E-13 1.93491E-13
 -1       714 1.05894E+01-1.47021E+00 1.49361E-01 4.49115E+00 1.25247E-15-2.58800E-13
 -1       715 2.56149E+01-5.22822E+00-1.04008E-03-3.05759E+00 3.44129E-13-5.76136E-14
 -1       716 8.29859E+00-2.50518E-01 1.65092E-01 6.03862E-01-1.27912E-13-9.29118E-15
 -1       717 2.02960E+01 1.42647E+00 6.25700E-04-9.75390E-01-1.11811E-13-2.80984E-13
 -1       718 1.44879E+01-3.46483E+00 1.12198E-01-5.88898E+00 2.80088E-14-3.27200E-13
 -1       719 2.57962E+01-4.91202E+00-7.38259E-03-1.74715E+00-4.31547E-14 1.87962E-13
 -1       720 2.01045E+01 3.52452E-01 5.46487E-04 1.50677E-01 1.63675E-13-7.25496E-14
 -1       721 1.99410E+01 2.56952E-02 5.15546E-07-1.68544E-01 5.33278E-14 7.62604E-16
 -1       722 2.67284E+01-4.72490E+00-8.95043E-03 1.55256E+00 1.99021E-13-3.98126E-13
 -1       723 2.00257E+01 2.29387E+00-1.64377E-03 6.38519E-01 2.10296E-13-2.31318E-13
 -1       724 2.00205E+01 2.30220E+00-1.76660E-03-6.28659E-01 7.56568E-15-3.34550E-13
 -1       725 2.02048E+01 6.14444E-01 1.11407E-03 4.21773E-01 1.89851E-13-9.92776E-14
 -1       726 2.81640E+01-2.21003E+00-6.37346E-02 5.00966E-01 3.68433E-13-2.10342E-13
 -1       727 2.07120E+01 1.16280E-01 1.38587E-03-1.40703E+00 3.30606E-14 4.38348E-14
 -1       728 2.72274E+01 2.05662E+00-1.22730E-01 3.03082E+00 4.20705E-14 1.30753E-13
 -1       729 2.18421E+01-5.04691E+00 6.61370E-02-4.50529E+00-2.56739E-13-5.84732E-15
 -1       730 2.72355E+01 5.62895E+00-1.43656E-01 1.02742E+00-6.57668E-14 3.46660E-13
 -1       731 7.17917E+00-2.52866E-01 1.60196E-01 2.46897E-01 1.37785E-13-4.38719E-13
 -1       732 9.91275E+00-1.15668E+00 1.48900E-01 4.32516E+00 1.13399E-13-4.58036E-14
 -1       733 1.54979E+01-3.71119E+00 1.04761E-01 6.24259E+00 1.75533E-13 2.31676E-13
 -1       734 2.12995E+01-5.14465E+00 4.61659E-02 5.12357E+00 9.02507E-14 1.40702E-13
 -1       735 2.56083E+01-4.69637E+00-8.96561E-03 2.14681E+00-8.11903E-14-2.52021E-13
 -1       736 2.79723E+01-1.94563E+00-6.86824E-02-1.00326E+00-1.79362E-13-1.88922E-13
 -1       737 2.77387E+01 2.38676E+00-1.17528E-01-2.48007E+00-3.15543E-13-3.00558E-14
 -1       738 1.57072E+01-3.89704E+00 1.02921E-01-6.42556E+00 4.42438E-13-1.69302E-13
 -1       739 2.71844E+01 5.56509E+00-1.55818E-01-1.46870E+00-5.82659E-14 3.30954E-13
 -1       740 2.75812E+01 2.77806E+00-1.16884E-01 2.13421E+00 5.66699E-14-5.13721E-14
 -1       741 2.83800E+01-3.06046E+00-5.91576E-02-6.86606E-01 2.93693E-13-4.39308E-13
 -1       742 2.87675E+01 1.65327E+00-1.29939E-01-2.49980E+00 2.50133E-13-2.65836E-13
 -1       743 2.01109E+01 2.06227E+00-2.96182E-03-8.44824E-01-4.53993E-14-3.03785E-13
 -1       744 1.99293E+01 2.52458E+00-1.62736E-03-1.26992E-01 7.44885E-14-3.40314E-13
 -1       745 1.00482E+01-7.39602E-02 1.14153E-01-1.94976E+00-1.48258E-14-6.60999E-14
 -1       746 1.92161E+01 1.15538E+00-2.54790E-03 2.18059E+00 2.85600E-13-4.27237E-13
 -1       747 2.53146E+01 5.05523E+00-1.07589E-01-2.91432E-01 1.05690E-13-4.47593E-14
 -1       748 1.32540E+01-1.84434E+00 1.17968E-01-5.14667E+00 5.76298E-13-3.63320E-13
 -1       749 2.07023E+01-4.44518E-02 1.16421E-03-1.74678E+00-2.08907E-13 2.15867E-13
 -1       750 1.99592E+01 2.45296E+00-1.63276E-03-3.84301E-01 4.28194E-14-3.11538E-13
 -1       751 2.69443E+01-3.31879E-01-4.88540E-02 1.91529E+00 3.50935E-13-1.14381E-13
 -1       752 2.02651E+01 1.30758E+00 1.25625E-04 6.32646E-01 2.07913E-13-1.30402E-13
 -1       753 1.43554E+01-1.77310E+00 5.84608E-02 4.84766E+00 1.90112E-13 1.55022E-13
 -1       754 2.02631E+01 4.32481E-01-1.27849E-04-9.51560E-02-6.96278E-14-2.01190E-13
 -1       755 2.02232E+01 2.34578E-01-2.90523E-05 3.46195E-02-8.32426E-14-2.15973E-13
 -1       756 2.01821E+01 1.05341E-01-1.61574E-05 1.12299E-01-8.99647E-14-2.13353E-13
 -1       757 2.01449E+01 2.40055E-02-1.21613E-05 1.52952E-01-1.82015E-15-1.97498E-13
 -1       758 2.01134E+01-2.37058E-02-1.00776E-05 1.68797E-01 2.49148E-14-1.73477E-13
 -1       759 2.00879E+01-4.77155E-02-8.96340E-06 1.69424E-01-1.13566E-14-1.24462E-13
 -1       760 2.00677E+01-5.49504E-02-7.78124E-06 1.62045E-01-9.80090E-14-8.82677E-14
 -1       761 2.00521E+01-5.01543E-02-6.32026E-06 1.52000E-01-1.04106E-13-6.81928E-14
 -1       762 2.00401E+01-3.64663E-02-4.64647E-06 1.43268E-01-5.83445E-14-1.17177E-13
 -1       763 2.00310E+01-1.58445E-02-2.80518E-06 1.38889E-01-1.09084E-13-1.99432E-13
 -1       764 2.00238E+01 1.06155E-02-7.84218E-07 1.41293E-01-1.27119E-13-1.62091E-13
 -1       765 2.00177E+01 4.24030E-02 1.67714E-06 1.52559E-01-1.38078E-13-1.68778E-13
 -1       766 2.00118E+01 7.93306E-02 4.50291E-06 1.74585E-01-3.38805E-14-1.32824E-13
 -1       767 2.00054E+01 1.21250E-01 7.81490E-06 2.09189E-01-1.32610E-14-2.41692E-13
 -1       768 1.99977E+01 1.67716E-01 1.16787E-05 2.58124E-01 1.12668E-13-2.10731E-13
 -1       769 1.99885E+01 2.17569E-01 1.61076E-05 3.23020E-01 1.03528E-13-9.76371E-14
 -1       770 1.99775E+01 2.68383E-01 2.11285E-05 4.05234E-01 1.63784E-13-7.89884E-14
 -1       771 1.99658E+01 3.15747E-01 2.67070E-05 5.05620E-01 1.92145E-13-1.29885E-13
 -1       772 1.99558E+01 3.52339E-01 3.26859E-05 6.24177E-01-1.25826E-13-1.42419E-13
 -1       773 1.99530E+01 3.66802E-01 3.86760E-05 7.59586E-01-1.75321E-13-1.52688E-13
 -1       774 1.99673E+01 3.42510E-01 4.37004E-05 9.08535E-01-2.00865E-14-1.48823E-13
 -1       775 2.00156E+01 2.56549E-01 4.53216E-05 1.06464E+00 1.67560E-14-1.37719E-13
 -1       776 2.01255E+01 7.96469E-02 4.06754E-05 1.21651E+00 1.42444E-13-2.97259E-14
 -1       777 2.03386E+01-2.21308E-01 1.27002E-06 1.34389E+00 9.16012E-14 1.70629E-13
 -1       778 2.07128E+01-6.74387E-01-9.75424E-05 1.40989E+00 1.67178E-13 3.24588E-13
 -1       779 2.13152E+01-1.27879E+00-3.28867E-04 1.34998E+00 5.19047E-14 2.13338E-13
 -1       780 2.21989E+01-1.96045E+00-7.75233E-04 1.05999E+00 7.77785E-14-4.84884E-14
 -1       781 2.33499E+01-2.49622E+00-7.95942E-04 4.06661E-01-1.01562E-14-2.77652E-14
 -1       782 2.45560E+01-2.39401E+00-5.82119E-03-6.87757E-01-3.38589E-14-8.46417E-14
 -1       783 2.53609E+01-1.04045E+00-3.94118E-02-1.92012E+00-1.99024E-13 3.15503E-14
 -1       784 2.46251E+01 3.87150E+00-7.56347E-02-1.35278E+00-1.56937E-13-3.55947E-13
 -1       785 2.46244E+01 4.29877E+00-1.11474E-01 5.63390E-01-2.81893E-14 7.80096E-14
 -1       786 2.48876E+01-2.32686E+00-7.15193E-03 5.35909E-01 3.14943E-13-1.24101E-13
 -1       787 2.37464E+01-2.65095E+00 3.66020E-05-6.80479E-01 6.42785E-14-1.43527E-14
 -1       788 2.25719E+01-2.14782E+00-9.52094E-04-1.45255E+00 2.97126E-13 8.87120E-14
 -1       789 2.16408E+01-1.36014E+00 4.54491E-04-1.80741E+00 2.27913E-13 2.50888E-13
 -1       790 2.10881E+01-6.61793E-01 5.87501E-04-1.83663E+00-3.50555E-13 3.89907E-13
 -1       791 2.01713E+01 2.24177E-01-7.05265E-07-3.09547E-02 1.07340E-13-2.72534E-14
 -1       792 2.00441E+01-4.28819E-02-1.14947E-05-1.78053E-01 8.30555E-14-1.88858E-15
 -1       793 2.00638E+01-1.96236E-02-8.18978E-06-1.77501E-01 1.14312E-13-5.19798E-14
 -1       794 2.00219E+01-4.76721E-02-1.15268E-05-1.58177E-01-3.64694E-15 3.66852E-14
 -1       795 2.00171E+01-3.64841E-02-9.04780E-06-1.47639E-01 5.80942E-14 9.17939E-15
 -1       796 2.00150E+01-1.89248E-02-5.75142E-06-1.41313E-01 9.71832E-14 4.79623E-14
 -1       797 2.00152E+01 4.14399E-03-1.59306E-06-1.41779E-01 3.34923E-14 3.31889E-15
 -1       798 2.00168E+01 3.25310E-02 3.52182E-06-1.51280E-01-2.80194E-14 4.75004E-14
 -1       799 2.00192E+01 6.65486E-02 9.59634E-06-1.71942E-01-7.46857E-14-4.43457E-14
 -1       800 2.00217E+01 1.06857E-01 1.69855E-05-2.05922E-01-6.77338E-14 1.54662E-15
 -1       801 2.00233E+01 1.54298E-01 2.58253E-05-2.55486E-01-9.31195E-14 9.63134E-14
 -1       802 2.00227E+01 2.09681E-01 3.63654E-05-3.23030E-01-3.98483E-14 2.54057E-13
 -1       803 2.00183E+01 2.73459E-01 4.91494E-05-4.11018E-01-1.26022E-14 2.88407E-13
 -1       804 2.00079E+01 3.45229E-01 6.46434E-05-5.21855E-01 7.86664E-14 2.51064E-13
 -1       805 1.99888E+01 4.22908E-01 8.33012E-05-6.57688E-01 1.05923E-13 2.41965E-13
 -1       806 1.99586E+01 5.01399E-01 1.05358E-04-8.20171E-01 1.06640E-13 1.40639E-13
 -1       807 1.99159E+01 5.70479E-01 1.30260E-04-1.01024E+00 1.76601E-14 1.02114E-13
 -1       808 1.98631E+01 6.11609E-01 1.55852E-04-1.22801E+00-9.26848E-14 1.68767E-13
 -1       809 1.98108E+01 5.93437E-01 1.81625E-04-1.47279E+00-5.14827E-14 1.58864E-13
 -1       810 1.97863E+01 4.66244E-01 2.49140E-04-1.74296E+00-1.40024E-13 1.22776E-13
 -1       811 1.98484E+01 1.55975E-01 5.36562E-04-2.03434E+00 4.61343E-14 1.04722E-13
 -1       812 2.01101E+01-4.35275E-01 1.71634E-03-2.32735E+00-2.59314E-14-2.24853E-15
 -1       813 2.07457E+01-1.39710E+00 2.16822E-03-2.55706E+00-5.30361E-14 9.70166E-15
 -1       814 2.20689E+01-2.77495E+00-1.46087E-03-2.56524E+00-8.56173E-15-1.27198E-13
 -1       815 2.36588E+01-3.73037E+00 1.93249E-02 2.57267E+00 6.21690E-14-6.85028E-13
 -1       816 2.17908E+01-2.33129E+00-9.64695E-04 3.00312E+00-8.19345E-14-3.44080E-13
 -1       817 2.07541E+01-1.05366E+00 3.46566E-03 2.97089E+00-1.03672E-13-1.55183E-13
 -1       818 2.02778E+01 9.42843E-01 8.37989E-05 5.54556E-01 2.12024E-13-7.42776E-14
 -1       819 1.81602E+01 7.56314E-01 9.41064E-04-2.08084E+00-8.22655E-14-3.17431E-13
 -1       820 1.72240E+01 1.29133E+00 1.10436E-03-1.12669E+00-3.71383E-14-8.70439E-13
 -1       821 1.48642E+01-1.37234E+00 6.42854E-02 4.59930E+00 9.66519E-14 2.57449E-13
 -1       822 1.95436E+01-3.19829E+00 4.35214E-02 4.78357E+00-2.80644E-14 5.52336E-15
 -1       823 1.86721E+01-3.13593E+00 6.04216E-02-4.57981E+00-8.46710E-14-9.94309E-14
 -1       824 2.40374E+01-4.60451E+00 1.00179E-02-3.06859E+00 2.06983E-13-4.75037E-14
 -1       825 2.63297E+01-3.42082E+00-2.84407E-02-2.18851E-01 3.08947E-13-1.59968E-13
 -1       826 2.02212E+01 4.13379E-01-5.77410E-05 1.12651E-01 1.14493E-13-7.14826E-14
 -1       827 1.93029E+01 1.54844E-01-9.92699E-04-2.45266E+00 5.01478E-14 2.76604E-14
 -1       828 2.02715E+01-2.81423E-01 7.63742E-05-2.32606E+00 5.02850E-14 4.75528E-14
 -1       829 1.95362E+01-3.71925E+00 3.69796E-02-5.07608E+00 4.37563E-13-2.34257E-13
 -1       830 1.17763E+01 5.07937E-02 8.48297E-02 2.38640E+00-2.83452E-13 1.91850E-13
 -1       831 2.00306E+01-5.07622E-02-1.26108E-05-1.69717E-01 2.86312E-14 7.34509E-14
 -1       832 2.02915E+01 7.30266E-01 1.42971E-04-2.94250E-01-5.69971E-14-1.89190E-13
 -1       833 1.43004E+01-1.24077E+00 6.49344E-02-4.28959E+00-7.36321E-14-3.29969E-13
 -1       834 2.62136E+01-2.58807E-01-5.14252E-02-2.20093E+00-3.26423E-13-1.78681E-13
 -1       835 1.06031E+01 3.32206E-01 9.09509E-02 1.79380E+00 2.22340E-13-3.30101E-13
 -1       836 2.02764E+01 1.27421E+00 1.41830E-04-5.64545E-01-3.77256E-14-2.21673E-13
 -1       837 1.92455E+01-3.58693E+00 4.56220E-02 4.79115E+00 5.13799E-14 4.13645E-15
 -1       838 2.29976E+01-4.41680E+00 8.16317E-03 3.14982E+00 2.36243E-14-2.40177E-13
 -1       839 2.56114E+01 3.37051E+00-9.05791E-02-2.09271E+00-3.81847E-13-1.78931E-13
 -1       840 1.04024E+01 3.91364E-01 8.49035E-02-1.34930E+00 6.07858E-15-4.06397E-13
 -1       841 2.01415E+01 1.88770E+00-2.88811E-04 1.99666E-01 1.10107E-13-2.41511E-13
 -1       842 2.33572E+01-4.00490E+00 1.45854E-02-2.54926E+00-6.71121E-14-1.00893E-13
 -1       843 2.60135E+01-3.16163E+00-6.90089E-03-2.33648E-01-6.81029E-14-3.41067E-13
 -1       844 2.01300E+01 1.92535E+00-3.24875E-04 3.34467E-03 7.81687E-14-2.84470E-13
 -1       845 2.07263E+01-5.22517E-01-9.07336E-04-2.12545E+00-2.32959E-13 1.93405E-13
 -1       846 1.34143E+01-1.68241E-01 3.83007E-02 3.18097E+00 3.24488E-13 8.34142E-14
 -1       847 1.18769E+01 6.17055E-01 6.19017E-02 2.98429E-01-2.60754E-13-2.18591E-13
 -1       848 2.51971E+01 1.58577E+00-3.59760E-02-2.42136E+00-2.91349E-13 1.72345E-14
 -1       849 2.54609E+01-6.62484E-01-3.20079E-02 1.72087E+00 3.33841E-13-4.88654E-14
 -1       850 2.00910E+01 2.55298E-02-4.39784E-06-1.60307E-01 2.36768E-14-1.12437E-13
 -1       851 2.00412E+01-2.18396E-01 1.03113E-03 2.83527E+00-9.00334E-14 1.58817E-13
 -1       852 1.92386E+01 5.30955E-01-3.28078E-03 2.62381E+00-4.15258E-14 7.38907E-14
 -1       853 1.73166E+01 1.33588E+00 1.04144E-03 1.48387E+00 7.40529E-14 9.21734E-14
 -1       854 2.01268E+01 1.02086E-01-5.02784E-06-1.16032E-01 4.43040E-14-5.46838E-14
 -1       855 2.02310E+01 1.52908E+00 9.77675E-06-4.62489E-01 4.06491E-15-3.08998E-13
 -1       856 1.81957E+01 9.75042E-01 3.05875E-03 2.24088E+00-1.58159E-14-9.05352E-14
 -1       857 1.68775E+01 1.52134E+00-1.02262E-03 1.92319E-01 1.30557E-13-5.53103E-13
 -1       858 1.72468E+01-2.15974E+00 4.96486E-02-4.82678E+00 4.59351E-13-1.91149E-14
 -1       859 2.02233E+01 1.58062E+00-6.88200E-05 5.38192E-01 1.76618E-13-2.02214E-13
 -1       860 2.01740E+01 1.77545E+00-9.89727E-05 3.82462E-01 1.69532E-13-2.21345E-13
 -1       861 2.02499E+01 6.37047E-01 1.39606E-04 2.96990E-01 1.74291E-13-8.02811E-14
 -1       862 2.01936E+01 1.69726E+00-2.65453E-04-3.14580E-01 1.96492E-14-2.98840E-13
 -1       863 2.03069E+01 2.28893E-01-2.72311E-05 4.65456E-02-2.99632E-14-1.87097E-13
 -1       864 2.02709E+01 9.54261E-02-1.22604E-05 1.03247E-01-3.13209E-14-1.12190E-13
 -1       865 2.02319E+01 1.16678E-02-7.94096E-06 1.32348E-01-2.51585E-14-1.88202E-13
 -1       866 2.01937E+01-3.60618E-02-4.79564E-06 1.43108E-01-1.39624E-14-2.49971E-13
 -1       867 2.01585E+01-5.79222E-02-3.02991E-06 1.42874E-01-2.82719E-14-2.70758E-13
 -1       868 2.01271E+01-6.11542E-02-1.58676E-06 1.37270E-01-8.84878E-14-2.63298E-13
 -1       869 2.00993E+01-5.07400E-02-7.24858E-07 1.30561E-01-1.07528E-13-3.09037E-13
 -1       870 2.00745E+01-2.99665E-02-4.71328E-07 1.26012E-01-5.25757E-14-2.97095E-13
 -1       871 2.00516E+01-8.31955E-04-7.25207E-07 1.26179E-01-7.50643E-14-2.15378E-13
 -1       872 2.00294E+01 3.55998E-02-8.43185E-07 1.33194E-01-1.66664E-13-1.65806E-13
 -1       873 2.00062E+01 7.88653E-02-1.22152E-06 1.48947E-01-1.08709E-13-1.73234E-13
 -1       874 1.99804E+01 1.28789E-01-1.28306E-06 1.75248E-01-7.64951E-14-8.99993E-14
 -1       875 1.99501E+01 1.85102E-01-1.12339E-06 2.13909E-01 8.44351E-14 1.61983E-14
 -1       876 1.99134E+01 2.47026E-01-9.44961E-07 2.66776E-01 5.84398E-14-6.53368E-14
 -1       877 1.98689E+01 3.12746E-01-6.52134E-07 3.35741E-01 1.43570E-13-1.44549E-13
 -1       878 1.98155E+01 3.78726E-01-4.09583E-08 4.22714E-01 1.10678E-13-1.87655E-13
 -1       879 1.97534E+01 4.38852E-01 1.21934E-06 5.29595E-01 7.77537E-14-1.53826E-13
 -1       880 1.96849E+01 4.83355E-01 3.75315E-06 6.58262E-01-1.45714E-13-1.51974E-13
 -1       881 1.96159E+01 4.97525E-01 8.71531E-06 8.10581E-01-9.60554E-14-3.17740E-14
 -1       882 1.95585E+01 4.60262E-01 1.81875E-05 9.88353E-01 6.81740E-15-5.10407E-14
 -1       883 1.95339E+01 3.42671E-01 3.84425E-05 1.19285E+00 1.13087E-13-4.98936E-14
 -1       884 1.95783E+01 1.07346E-01 1.02355E-04 1.42309E+00 1.96909E-13-7.51499E-14
 -1       885 1.97496E+01-2.90750E-01 1.88122E-04 1.67141E+00 2.22988E-13-1.46539E-13
 -1       886 2.01418E+01-8.99151E-01 7.95167E-04 1.90705E+00-8.24030E-15-1.79254E-13
 -1       887 2.08664E+01-1.72587E+00 1.81532E-03 2.05622E+00-7.84509E-14-1.70593E-13
 -1       888 2.20814E+01-2.70763E+00 7.39748E-03 1.94896E+00 4.29218E-14-1.91607E-13
 -1       889 1.84566E+01-3.13268E-01 3.95586E-03-2.94984E+00 8.67276E-14-7.68333E-14
 -1       890 2.27326E+01-3.02315E+00 6.24004E-03-2.32900E+00 1.39233E-13-3.57716E-14
 -1       891 2.14559E+01-1.93916E+00 8.67411E-04-2.53847E+00 1.97853E-13-8.96531E-14
 -1       892 2.03347E+01 7.28409E-01 4.01230E-05-1.89811E-01-8.87438E-14-2.15656E-13
 -1       893 2.00620E+01-3.30708E-02-9.38542E-07-1.35132E-01 1.33250E-14 4.92253E-14
 -1       894 2.00810E+01-5.09323E-02-9.92153E-07-1.41392E-01 6.84907E-14 4.73856E-14
 -1       895 2.00298E+01 2.60507E-02-5.02094E-07-1.39126E-01 1.56161E-14-1.91754E-14
 -1       896 2.00137E+01 6.64451E-02 9.51255E-08-1.53726E-01-3.49911E-14 1.92491E-14
 -1       897 1.99954E+01 1.14543E-01 1.61384E-06-1.79344E-01-7.45416E-14-5.70219E-14
 -1       898 1.99726E+01 1.71174E-01 3.35646E-06-2.17895E-01-1.72292E-13 1.71096E-14
 -1       899 1.99425E+01 2.37260E-01 4.97718E-06-2.71318E-01-7.42555E-14 3.55334E-14
 -1       900 1.99018E+01 3.13506E-01 7.25527E-06-3.41554E-01-6.90152E-14-1.66283E-14
 -1       901 1.98464E+01 3.99960E-01 1.05348E-05-4.30492E-01 2.77032E-14-2.86279E-14
 -1       902 1.97712E+01 4.95360E-01 1.53446E-05-5.39921E-01 8.54098E-14 6.90603E-16
 -1       903 1.96705E+01 5.96133E-01 2.24750E-05-6.71569E-01 1.14463E-13 3.21968E-14
 -1       904 1.95385E+01 6.94895E-01 3.29546E-05-8.27392E-01 6.75746E-14 8.07807E-14
 -1       905 1.93701E+01 7.78185E-01 4.78957E-05-1.01039E+00-5.19259E-14 3.82513E-15
 -1       906 1.91634E+01 8.23179E-01 6.89425E-05-1.22633E+00-5.86397E-14-5.20766E-16
 -1       907 1.89245E+01 7.93059E-01 1.29974E-04-1.48661E+00-3.49565E-14-5.39448E-14
 -1       908 1.86752E+01 6.31870E-01 5.32793E-04-1.81234E+00 9.30205E-15-2.65119E-13
 -1       909 1.84628E+01 2.55807E-01 1.16156E-03-2.24393E+00 6.17995E-14-2.13327E-13
 -1       910 1.84292E+01-4.90999E-01-1.64372E-03-2.85453E+00-1.52729E-13-2.34088E-13
 -1       911 1.88698E+01-1.71314E+00 2.55990E-02-3.60868E+00-1.00679E-14-1.51314E-13
 -1       912 1.92208E+01-1.30886E+00 6.22413E-03 3.71983E+00-2.77327E-13-2.56883E-13
 -1       913 1.66936E+01 5.21998E-01 4.60025E-03-2.25824E+00 2.13040E-14-8.25676E-13
 -1       914 2.02712E+01 2.30191E-01-7.72034E-05-4.42640E-02 9.68721E-14-9.73663E-14
 -1       915 1.35909E+01-2.07768E-01 4.86417E-02-3.25398E+00 1.13196E-13-5.90349E-13
 -1       916 1.75143E+01-1.84490E+00 2.73360E-02 4.07947E+00 9.12109E-14-5.78088E-14
 -1       917 1.20534E+01 8.44572E-01 3.24260E-02 1.41277E-01 1.13888E-13-2.06028E-13
 -1       918 2.45052E+01-3.48356E+00-2.62239E-03-1.17431E+00 2.65242E-13-2.12180E-14
 -1       919 2.03027E+01 4.29385E-01-4.19593E-05 6.46502E-02 7.70376E-14-9.38296E-14
 -1       920 2.01555E+01 1.83985E+00-2.34567E-04-1.66009E-01 4.04295E-14-3.05459E-13
 -1       921 2.01604E+01-3.10354E-02 5.43165E-06-1.56077E-01 4.71859E-14-3.72841E-14
 -1       922 1.78930E+01-1.27179E+00 2.30087E-02 4.04665E+00-3.04805E-13-6.14326E-14
 -1       923 2.03323E+01 4.31708E-01 1.30638E-05-4.75574E-02-8.44327E-14-2.14472E-13
 -1       924 1.38266E+01 3.32133E-01 3.28764E-02-2.49074E+00-4.32753E-14-3.44837E-13
 -1       925 2.00454E+01-7.13534E-03-1.06920E-06-1.33608E-01 8.05394E-14 5.76325E-14
 -1       926 2.18343E+01-3.42317E+00-4.13383E-04-3.49345E+00 1.86166E-13 1.74964E-14
 -1       927 2.11137E+01-3.11491E+00 1.08997E-02 3.19258E+00-3.29359E-14-4.26958E-13
 -1       928 2.00553E+01-9.49933E-01 1.17036E-03-2.84967E+00 1.74145E-13 1.50541E-13
 -1       929 2.39894E+01-3.38045E+00 4.74700E-04 1.02115E+00-1.02238E-13-3.44742E-13
 -1       930 1.48789E+01 3.67591E-02 3.08240E-02 2.98868E+00-3.56309E-13 2.56324E-13
 -1       931 1.43050E+01 7.58421E-01 2.77466E-02 1.62451E+00-3.13870E-13 3.90278E-14
 -1       932 1.35594E+01 6.98895E-01 1.68556E-02 1.62330E+00 3.05008E-13-2.13813E-14
 -1       933 2.10204E+01-1.16963E+00 1.73113E-03-2.33276E+00 1.35825E-13-1.45774E-13
 -1       934 2.01032E+01-5.89057E-02-8.30077E-07-1.49562E-01 4.11578E-14 4.35453E-14
 -1       935 1.86179E+01-2.55551E-01 2.81121E-03 3.19777E+00-3.13391E-13-1.87504E-13
 -1       936 2.02784E+01 1.40487E+00 7.90937E-06 6.94644E-02 9.52593E-14-2.57568E-13
 -1       937 2.02988E+01 9.00951E-01-2.53882E-04 3.76753E-01 1.72665E-13-1.15683E-13
 -1       938 2.02334E+01 9.91115E-02-5.54482E-06-1.09598E-01 5.80395E-14-9.55544E-14
 -1       939 2.02014E+01-2.47418E+00 3.41357E-02-3.86801E+00 1.86458E-13 1.41119E-13
 -1       940 1.68962E+01 6.55895E-01 8.68715E-03 2.47865E+00-1.88378E-13 3.80144E-13
 -1       941 1.56281E+01 1.11003E+00 1.37440E-02-7.59387E-01-1.07937E-13-8.49077E-13
 -1       942 1.56728E+01 1.14408E+00 7.37507E-03 1.08268E+00-1.74379E-13-2.24492E-13
 -1       943 2.01955E+01 1.66612E-02 1.44296E-05-1.43356E-01 4.17541E-14-8.80145E-14
 -1       944 2.03154E+01 7.23060E-01-3.74744E-04 2.32017E-01 1.20829E-13-1.07435E-13
 -1       945 2.01296E+01-5.38803E-02 1.38422E-06-1.56044E-01 3.42772E-14 2.30282E-14
 -1       946 2.03090E+01 1.08049E+00-4.40873E-05-3.23197E-01-1.98389E-14-2.89517E-13
 -1       947 2.02896E+01 1.33669E+00-4.41960E-05 2.01033E-01 1.14355E-13-1.87454E-13
 -1       948 2.03012E+01 1.24246E+00 5.54610E-05-2.38859E-01 3.79724E-15-2.87352E-13
 -1       949 2.03275E+01 7.21131E-02-1.21541E-05 8.62784E-02-3.63848E-14-2.13273E-13
 -1       950 2.02855E+01-6.55646E-03-3.75562E-06 1.03879E-01-3.47392E-14-1.66817E-13
 -1       951 2.02419E+01-4.90475E-02-1.28172E-06 1.09696E-01-4.80948E-14-1.79353E-13
 -1       952 2.01995E+01-6.52184E-02 1.13058E-06 1.08726E-01-8.09834E-14-2.04870E-13
 -1       953 2.01596E+01-6.21484E-02 1.82045E-06 1.04889E-01-9.74396E-14-2.40605E-13
 -1       954 2.01224E+01-4.46362E-02 2.38038E-06 1.01260E-01-1.96750E-14-1.52057E-13
 -1       955 2.00871E+01-1.58907E-02 2.08611E-07 1.00198E-01 1.16234E-15-1.82260E-13
 -1       956 2.00523E+01 2.23181E-02-5.01878E-07 1.03652E-01-6.26282E-14-1.46031E-13
 -1       957 2.00161E+01 6.90574E-02-4.34783E-06 1.13323E-01-8.18980E-14-3.68859E-14
 -1       958 1.99761E+01 1.24021E-01-7.17186E-06 1.30796E-01-9.11954E-14-2.57508E-14
 -1       959 1.99299E+01 1.87070E-01-9.91908E-06 1.57723E-01 9.65026E-14-5.42560E-15
 -1       960 1.98745E+01 2.57824E-01-1.32724E-05 1.95862E-01 6.63772E-14-5.39896E-14
 -1       961 1.98069E+01 3.35199E-01-1.77195E-05 2.47183E-01 7.71173E-14 1.78906E-14
 -1       962 1.97244E+01 4.16797E-01-2.33428E-05 3.13986E-01 8.53458E-14 6.45323E-14
 -1       963 1.96247E+01 4.98167E-01-3.03827E-05 3.99039E-01 5.25077E-14-1.21545E-13
 -1       964 1.95064E+01 5.71912E-01-3.92250E-05 5.05835E-01-2.26456E-14-2.06216E-13
 -1       965 1.93706E+01 6.26605E-01-5.03959E-05 6.39009E-01-1.26253E-13-1.00100E-13
 -1       966 1.92213E+01 6.45498E-01-6.45808E-05 8.04996E-01 1.12370E-13-8.95153E-14
 -1       967 1.90686E+01 6.04937E-01-8.19544E-05 1.01292E+00 5.10315E-14 7.85790E-14
 -1       968 1.89321E+01 4.72289E-01-7.97015E-05 1.27539E+00-2.66452E-14-1.39400E-13
 -1       969 1.88479E+01 2.04070E-01 1.92397E-04 1.60752E+00 7.70120E-14-4.18989E-13
 -1       970 1.88735E+01-2.53375E-01 4.48849E-04 2.02695E+00 1.40243E-13-5.73128E-13
 -1       971 1.91415E+01-1.00714E+00-5.95984E-03 2.54791E+00-5.33062E-15-5.78027E-13
 -1       972 1.98627E+01-1.94673E+00 8.76431E-03 2.98220E+00-1.23598E-13-4.44261E-13
 -1       973 1.99896E+01 1.09987E-01-1.93560E-06-1.41103E-01 1.50118E-14 5.40755E-15
 -1       974 2.00235E+01 5.71619E-02-2.78558E-06-1.24264E-01-1.37758E-14 9.41908E-14
 -1       975 1.98996E+01 2.45168E-01-4.48518E-06-2.04931E-01-8.30241E-14-9.23121E-14
 -1       976 1.98356E+01 3.29222E-01-6.77165E-06-2.54600E-01 2.30970E-14-1.60723E-13
 -1       977 1.97521E+01 4.24873E-01-9.08687E-06-3.17689E-01-5.47726E-14-1.15563E-13
 -1       978 1.96428E+01 5.31507E-01-1.16035E-05-3.95177E-01-3.98356E-15-1.51277E-13
 -1       979 1.95002E+01 6.46842E-01-1.47688E-05-4.87928E-01 5.25186E-15-1.50087E-13
 -1       980 1.93153E+01 7.65980E-01-1.98874E-05-5.97007E-01 8.71821E-14-5.08380E-14
 -1       981 1.90777E+01 8.80126E-01-3.04123E-05-7.24521E-01-3.42297E-14-8.15239E-16
 -1       982 1.87757E+01 9.74824E-01-5.42585E-05-8.75467E-01 8.73737E-14-7.05595E-14
 -1       983 1.83966E+01 1.02751E+00-9.72771E-05-1.06116E+00 8.71511E-14-2.31789E-13
 -1       984 1.79262E+01 1.00390E+00-4.22667E-04-1.30569E+00 5.86899E-15-1.92352E-13
 -1       985 1.73536E+01 8.50668E-01-4.86237E-04-1.66023E+00-7.28396E-14-1.24640E-13
 -1       986 1.67158E+01 4.96209E-01 7.20553E-03-2.20033E+00 4.10642E-14-2.46643E-13
 -1       987 2.03837E+01 3.92180E-01-3.67491E-04-1.15739E-02-5.05565E-14-1.37381E-13
 -1       988 1.69593E+01-7.29453E-01 1.39106E-02-3.66018E+00 2.82783E-13-2.07111E-13
 -1       989 2.03598E+01 8.72447E-01 1.32857E-04-1.54942E-01-1.15015E-14-2.77650E-13
 -1       990 1.40139E+01 8.01473E-01 1.61695E-02-1.21794E+00-6.34717E-14-6.57909E-13
 -1       991 2.03647E+01 6.93325E-01 2.63855E-04 1.40190E-01 8.90895E-14-1.50779E-13
 -1       992 1.41886E+01 1.05811E+00 1.88045E-02-8.21272E-01 4.05208E-14-1.05497E-13
 -1       993 2.02965E+01-1.91717E+00 6.94767E-03-3.39047E+00 2.38059E-13 1.13640E-13
 -1       994 2.02963E+01 1.20487E+00 2.03610E-04 3.51920E-01 1.43310E-13-1.73551E-13
 -1       995 2.02891E+01 1.36198E+00 2.89412E-05-4.87543E-02 6.78892E-14-2.80636E-13
 -1       996 2.03819E+01 6.04756E-01 1.44936E-04-7.47997E-02-4.25463E-14-1.93250E-13
 -1       997 1.99495E+01 1.72359E-01-2.14032E-06-1.67531E-01-1.29496E-13-3.66744E-14
 -1       998 2.03627E+01 2.00237E-01 1.81843E-05 5.05018E-02-1.93815E-14-1.92982E-13
 -1       999 2.03634E+01 4.11815E-01 1.00568E-04 2.34040E-02 7.78653E-14-1.66346E-13
 -1      1000 1.60235E+01-3.59434E-01 1.49804E-02 3.08505E+00 2.09540E-13-4.21169E-14
 -1      1001 2.01144E+01-4.76078E-02 2.08587E-06-1.15707E-01 6.33356E-14-8.33150E-15
 -1      1002 2.03704E+01 9.71543E-01-1.25360E-04 7.99702E-02 9.78952E-14-1.98329E-13
 -1      1003 2.00541E+01 1.32519E-02-5.07332E-07-1.15524E-01 7.06608E-14 1.44051E-13
 -1      1004 2.03413E+01 2.13271E-01 1.56301E-04-5.15761E-02 5.04171E-14-1.22084E-13
 -1      1005 2.02226E+01-4.39215E-02 1.62026E-05-1.26106E-01 1.66423E-14-9.47140E-14
 -1      1006 2.03810E+01 9.58303E-01 4.17471E-04 1.03395E-02 9.08544E-14-2.21881E-13
 -1      1007 2.02636E+01 8.20242E-04 3.04911E-05-1.18382E-01 1.63609E-14-9.85541E-14
 -1      1008 2.00838E+01-2.18680E-02 2.65610E-06-1.13267E-01 4.07449E-14 5.49393E-14
 -1      1009 2.01474E+01-6.21645E-02 5.96990E-06-1.20631E-01 5.52923E-14-1.57531E-14
 -1      1010 2.02936E+01 1.32298E+00 3.22879E-05-1.48738E-01 1.78938E-14-2.76638E-13
 -1      1011 2.03104E+01-2.71828E-02-1.95916E-05 6.82670E-02-5.61220E-14-1.75445E-13
 -1      1012 2.02624E+01-6.04238E-02-8.77715E-06 7.03928E-02-7.92840E-14-2.16731E-13
 -1      1013 2.02149E+01-6.83056E-02-4.83957E-06 6.92714E-02-7.49725E-14-1.89717E-13
 -1      1014 2.01692E+01-5.73945E-02 8.18238E-06 6.71213E-02 1.70524E-14-1.35929E-13
 -1      1015 2.01251E+01-3.21381E-02-6.97212E-06 6.59476E-02-3.62098E-14-1.30083E-13
 -1      1016 2.00817E+01 4.77809E-03 5.76578E-06 6.70024E-02 1.67400E-14-1.58719E-13
 -1      1017 2.00370E+01 5.19039E-02-1.22984E-06 7.17037E-02 4.26511E-15-1.10088E-13
 -1      1018 1.99885E+01 1.08436E-01-2.10034E-05 8.11539E-02-6.86119E-14-4.47803E-14
 -1      1019 1.99331E+01 1.74555E-01-3.27557E-05 9.66912E-02-8.24271E-15 5.52515E-14
 -1      1020 1.98674E+01 2.50008E-01-4.06095E-05 1.19655E-01 7.67442E-14-2.73331E-14
 -1      1021 1.97874E+01 3.34428E-01-5.23602E-05 1.51715E-01 6.52116E-14-1.00959E-13
 -1      1022 1.96889E+01 4.26529E-01-6.65227E-05 1.94977E-01 1.16552E-13-1.39036E-13
 -1      1023 1.95676E+01 5.23537E-01-8.34547E-05 2.52176E-01 8.76050E-15-1.14804E-13
 -1      1024 1.94194E+01 6.20495E-01-1.04351E-04 3.27005E-01-1.80626E-14 3.40281E-14
 -1      1025 1.92405E+01 7.09456E-01-1.32109E-04 4.24625E-01 5.27289E-14-1.52543E-13
 -1      1026 1.90280E+01 7.78577E-01-1.73911E-04 5.52482E-01 4.80882E-14 1.67628E-13
 -1      1027 1.87806E+01 8.11080E-01-2.48283E-04 7.21608E-01 5.63924E-14 4.04876E-14
 -1      1028 1.84994E+01 7.83869E-01-3.98383E-04 9.48650E-01 7.26823E-15-3.17551E-14
 -1      1029 1.81900E+01 6.64918E-01-8.17352E-04 1.25942E+00-1.83723E-13 1.04961E-13
 -1      1030 1.78721E+01 4.04688E-01-1.48698E-03 1.69455E+00-5.52118E-14-6.93429E-14
 -1      1031 1.76161E+01-5.53786E-02 3.19139E-03 2.30235E+00 7.51973E-15-4.05938E-13
 -1      1032 2.03944E+01 1.54965E-01 3.17559E-05 4.21763E-02-2.00348E-14-1.78057E-13
 -1      1033 1.99499E+01 1.59457E-01-1.35388E-05-1.11503E-01-1.68622E-14 1.70602E-14
 -1      1034 1.95917E+01 5.32189E-01-6.18937E-05-2.45516E-01-3.73506E-14-2.63272E-13
 -1      1035 2.00005E+01 9.49276E-02-1.70111E-05-9.63789E-02 3.87913E-14-4.58269E-14
 -1      1036 2.01256E+01-3.76334E-02-6.85093E-06-8.29884E-02 3.43151E-14 9.94506E-14
 -1      1037 1.55842E+01 6.68307E-01 6.38649E-03 1.70778E+00 1.18256E-13 3.44546E-14
 -1      1038 1.97160E+01 4.21152E-01-4.81087E-05-2.00255E-01 1.34940E-14-1.42693E-13
 -1      1039 1.98128E+01 3.21954E-01-3.63635E-05-1.62928E-01-9.57673E-15-9.69715E-14
 -1      1040 1.94318E+01 6.53528E-01-7.93217E-05-2.98408E-01 5.96129E-15-1.41974E-13
 -1      1041 1.92265E+01 7.81760E-01-1.03968E-04-3.58354E-01-1.43824E-13-1.05992E-13
 -1      1042 1.89637E+01 9.10928E-01-1.43563E-04-4.24886E-01-6.64879E-14 1.03890E-13
 -1      1043 1.86274E+01 1.03185E+00-2.12439E-04-4.98626E-01 5.03440E-14 1.54262E-14
 -1      1044 1.81963E+01 1.13146E+00-3.39016E-04-5.83430E-01 7.63136E-14-3.08708E-14
 -1      1045 1.76396E+01 1.19102E+00-6.12092E-04-6.90898E-01-1.98951E-14 1.33550E-13
 -1      1046 1.69117E+01 1.18480E+00-5.52987E-04-8.41822E-01-5.56709E-15-8.16881E-15
 -1      1047 1.58033E+01 1.15092E+00 3.63218E-03-8.51669E-01 1.65665E-13-2.06876E-13
 -1      1048 2.03672E+01 9.48934E-01 6.28911E-05-1.05591E-01-1.31263E-14-2.65441E-13
 -1      1049 2.01835E+01-6.25643E-02 1.12966E-05-1.25287E-01 2.65879E-14-5.50495E-14
 -1      1050 2.03050E+01 8.16896E-02 9.79245E-05-9.60851E-02 7.05909E-14-1.10613E-13
 -1      1051 1.98889E+01 2.34877E-01-2.58873E-05-1.33469E-01-5.22089E-14-1.12116E-13
 -1      1052 2.04171E+01 3.27389E-01-3.42512E-04 8.93856E-03-5.73666E-14-1.98678E-13
 -1      1053 1.51686E+01 1.15527E+00 1.55300E-03 4.06332E-01 1.23057E-13 1.29808E-13
 -1      1054 2.04230E+01 6.09068E-01-8.56361E-05 3.15727E-02 5.56243E-14-2.05122E-13
 -1      1055 2.03561E+01 4.04787E-02-3.94869E-05 5.98971E-02-3.95105E-14-1.64230E-13
 -1      1056 2.01668E+01-5.98447E-02 3.38336E-06-8.53153E-02 5.24059E-14 3.70708E-15
 -1      1057 2.00446E+01 4.07167E-02-1.08384E-05-8.72798E-02 8.36811E-14 6.13829E-14
 -1      1058 2.00855E+01-3.62437E-03 9.66213E-06-8.32527E-02 5.42617E-14 8.19133E-14
 -1      1059 2.04056E+01 6.65969E-01 5.38391E-04-5.58772E-02 9.85145E-15-2.32887E-13
 -1      1060 2.04320E+01 3.44301E-01-2.76265E-04-4.36463E-03 2.78844E-14-2.14466E-13
 -1      1061 2.03013E+01-1.90477E-02 1.12741E-07-8.60048E-02-2.77573E-14-1.25728E-13
 -1      1062 2.03736E+01 9.68020E-01-3.23198E-04-4.75720E-02 2.79480E-14-2.25321E-13
 -1      1063 2.02553E+01-5.62645E-02 7.64960E-06-8.93930E-02-4.48338E-14-5.09176E-14
 -1      1064 2.02604E+01-6.74852E-02 6.02727E-05 2.73734E-02-7.67199E-14-1.57753E-13
 -1      1065 2.02089E+01-6.55998E-02-3.82945E-05 2.68220E-02 3.31857E-15-1.80310E-13
 -1      1066 2.01605E+01-4.71661E-02 1.31998E-05 2.61195E-02 8.51974E-15-1.52706E-13
 -1      1067 2.01121E+01-1.40048E-02-2.96585E-05 2.62276E-02 3.92741E-14-1.47881E-13
 -1      1068 2.00633E+01 3.01060E-02 6.67382E-06 2.76677E-02 5.18322E-14-9.95424E-14
 -1      1069 2.00115E+01 8.52129E-02 8.60909E-05 3.12499E-02 8.01937E-14-3.69461E-14
 -1      1070 1.99525E+01 1.51064E-01 4.24632E-05 3.73568E-02-1.43909E-14 5.45747E-14
 -1      1071 1.98838E+01 2.26980E-01 3.69319E-05 4.67810E-02 1.74887E-14 4.88409E-14
 -1      1072 1.98005E+01 3.13512E-01 4.90731E-05 6.07889E-02 1.02694E-14 6.50935E-14
 -1      1073 1.96977E+01 4.10232E-01 6.60726E-05 8.08540E-02 5.58550E-15 3.77751E-14
 -1      1074 1.95699E+01 5.15790E-01 9.07152E-05 1.09093E-01 6.74040E-14-5.08999E-15
 -1      1075 1.94108E+01 6.27309E-01 1.26961E-04 1.48516E-01 4.11959E-14-6.94443E-14
 -1      1076 1.92138E+01 7.39799E-01 1.80443E-04 2.03443E-01-3.11686E-14-3.82850E-14
 -1      1077 1.89711E+01 8.45560E-01 2.57578E-04 2.80116E-01 6.48631E-14-1.56107E-13
 -1      1078 1.86736E+01 9.33646E-01 3.57985E-04 3.87650E-01 4.73409E-14-2.87094E-13
 -1      1079 1.83100E+01 9.89335E-01 4.42034E-04 5.39479E-01 1.22348E-14-2.15477E-13
 -1      1080 1.78648E+01 9.92941E-01 3.10002E-04 7.55663E-01 1.36291E-14-2.86798E-13
 -1      1081 1.73197E+01 9.18338E-01 8.68958E-04 1.06598E+00-1.28256E-13-1.17430E-13
 -1      1082 1.65821E+01 8.33640E-01 3.50570E-03 1.34993E+00-1.69411E-13-2.08474E-14
 -1      1083 2.04327E+01 2.47660E-01-1.57885E-05 1.03912E-02 1.25856E-14-1.17182E-13
 -1      1084 1.99017E+01 2.10519E-01-1.61805E-05-6.39184E-02 1.31501E-14-1.08001E-13
 -1      1085 1.94397E+01 6.23799E-01-8.71731E-05-1.22686E-01-5.11588E-14-1.13485E-13
 -1      1086 1.97235E+01 3.94249E-01-3.79597E-05-8.97767E-02 2.93033E-14-9.09538E-14
 -1      1087 1.89827E+01 8.81753E-01-1.92817E-04-1.48998E-01-1.34281E-13-1.46861E-13
 -1      1088 1.86585E+01 1.00761E+00-2.89941E-04-1.52025E-01-3.20688E-14-1.48680E-13
 -1      1089 1.82457E+01 1.11931E+00-4.28974E-04-1.42722E-01 1.11118E-13-1.75308E-13
 -1      1090 1.77136E+01 1.20572E+00-4.74124E-04-1.16176E-01 6.19451E-14-2.10213E-13
 -1      1091 1.70076E+01 1.25760E+00 3.10132E-05-7.04134E-02 2.94529E-14-2.87543E-13
 -1      1092 1.62018E+01 1.24374E+00 4.53865E-04 1.12705E-01-5.57475E-14-8.36748E-14
 -1      1093 2.04196E+01 6.78204E-01-9.42040E-05-2.67648E-02 3.14252E-14-2.09039E-13
 -1      1094 2.03463E+01 5.22624E-02-2.76745E-04-7.35286E-02 6.02626E-14-1.57058E-13
 -1      1095 2.04021E+01 1.01826E-01-6.00726E-05 1.98194E-02-7.01343E-15-1.42673E-13
 -1      1096 2.02100E+01-6.75763E-02 1.12908E-05-8.81266E-02 7.87574E-15-3.24154E-14
 -1      1097 1.95984E+01 5.03804E-01-5.79837E-05-1.05934E-01 1.16779E-14-7.96763E-14
 -1      1098 2.03603E+01 7.54517E-03 7.20899E-05 2.49727E-02-7.16808E-14-1.21991E-13
 -1      1099 1.98224E+01 2.96414E-01-2.45053E-05-7.55279E-02-3.32326E-14-7.85223E-14
 -1      1100 2.04336E+01 5.76271E-01-1.54543E-04-1.63943E-03 3.75183E-14-1.79025E-13
 -1      1101 1.99670E+01 1.35816E-01-1.21721E-05-5.48438E-02 3.51116E-14-5.52465E-14
 -1      1102 1.92382E+01 7.51402E-01-1.29629E-04-1.37995E-01-8.84133E-14-1.24384E-13
 -1      1103 2.03113E+01-4.57165E-02 6.96187E-05 2.70950E-02-1.37877E-13-1.27426E-13
 -1      1104 2.01646E+01-5.13576E-02-2.18719E-05-4.57734E-02 2.27903E-15 7.94033E-15
 -1      1105 2.00226E+01 7.27467E-02 1.03231E-04-4.92916E-02 1.51376E-13-2.85356E-14
 -1      1106 2.01192E+01-2.23350E-02-7.43059E-05-4.50483E-02 6.23548E-14 3.89609E-14
 -1      1107 2.03616E+01 2.03482E-02 2.88687E-05-4.13723E-02-3.89558E-14-1.07822E-13
 -1      1108 2.03992E+01 1.71249E-01-8.05751E-05-3.76652E-02 4.09296E-14-1.67764E-13
 -1      1109 2.03137E+01-3.87546E-02-1.25226E-05-4.67892E-02-5.99479E-14-7.79347E-14
 -1      1110 2.01869E+01-5.86474E-02 1.61455E-04-1.63623E-02 1.98989E-14-6.74158E-14
 -1      1111 2.00376E+01 5.70782E-02-8.62957E-05-1.66358E-02 1.04364E-13-5.91800E-14
 -1      1112 2.02142E+01-6.79928E-02-8.64512E-05-4.69225E-02-2.51609E-14-3.67806E-14
 -1      1113 2.04220E+01 1.72152E-01 7.44821E-05-8.41035E-03-1.36061E-14-2.04627E-13
 -1      1114 2.00718E+01 1.99300E-02 2.42661E-06-4.60649E-02 6.74440E-14-6.19881E-14
 -1      1115 2.02637E+01-6.53897E-02-2.01232E-05-4.78987E-02-9.83018E-14-4.90241E-14
 -1      1116 2.00888E+01 7.11978E-03 4.55447E-05-1.61774E-02 8.63564E-14 5.57009E-17
 -1      1117 2.04380E+01 3.08637E-01 9.90677E-04 3.36101E-03 6.01521E-14-2.09701E-13
 -1      1118 2.79627E+01 9.08648E+00 2.32536E+00-6.69852E+00-4.26326E-14 7.19896E-13
 -1      1119 2.05468E+01 6.22698E+00 2.09692E-01-3.90455E+00-1.72917E-14-1.34268E-13
 -1      1120 1.94343E+01 5.85290E+00 7.53649E-02-2.88871E+00-1.03667E-14-4.49918E-13
 -1      1121 1.90257E+01 5.72580E+00 6.02839E-02-2.23572E+00-5.90847E-15-5.78657E-13
 -1      1122 1.88395E+01 5.66911E+00 5.75219E-02-1.70226E+00-3.69670E-15-6.20302E-13
 -1      1123 1.87463E+01 5.64058E+00 5.55904E-02-1.23488E+00-1.17528E-15-6.13040E-13
 -1      1124 1.86977E+01 5.62548E+00 5.38472E-02-8.04830E-01 8.43076E-16-6.03008E-13
 -1      1125 1.86739E+01 5.61794E+00 5.25821E-02-3.93074E-01 2.38763E-15-5.79525E-13
 -1      1126 1.86670E+01 5.61577E+00 5.21781E-02 8.50373E-03 2.55059E-15-5.52172E-13
 -1      1127 1.86749E+01 5.61827E+00 5.26864E-02 4.10480E-01 5.19593E-15-5.28660E-13
 -1      1128 1.86998E+01 5.62618E+00 5.40692E-02 8.23540E-01 4.83988E-15-4.89718E-13
 -1      1129 1.87503E+01 5.64197E+00 5.62682E-02 1.25614E+00 6.72813E-15-4.15428E-13
 -1      1130 1.88452E+01 5.67109E+00 5.84655E-02 1.72806E+00 9.56180E-15-3.18833E-13
 -1      1131 1.90313E+01 5.72751E+00 6.03974E-02 2.26915E+00 1.11335E-14-1.70208E-13
 -1      1132 1.94306E+01 5.84995E+00 6.91888E-02 2.92924E+00 1.45162E-14 7.95492E-14
 -1      1133 2.04529E+01 6.18187E+00 1.53235E-01 3.87910E+00 1.37668E-14 5.23796E-13
 -1      1134 2.52170E+01 7.99426E+00 1.43043E+00 5.84671E+00 2.14828E-14 1.36061E-12
 -1      1135 2.88125E+01 3.61644E+00 1.27140E+00-4.21725E+00-1.51407E-13 1.23651E-12
 -1      1136 2.02267E+01-1.77723E-01-6.16303E-01-1.09954E-01-4.90233E-14 8.86846E-13
 -1      1137 1.88320E+01-9.63726E-02-2.36339E-01 6.25251E-02-1.72883E-14 4.26286E-13
 -1      1138 1.84977E+01-4.80205E-02-5.95411E-02 4.04967E-02-1.41818E-14 1.19196E-13
 -1      1139 1.84417E+01-2.46266E-02-1.52017E-02 2.67527E-02-6.18516E-15-7.91277E-14
 -1      1140 1.85227E+01-1.30567E-02-4.99117E-03 1.90536E-02-1.40838E-14-2.29958E-13
 -1      1141 1.86687E+01-6.59380E-03-1.45091E-03 1.40956E-02-5.06019E-15-2.92271E-13
 -1      1142 1.88402E+01-2.83486E-03 5.93346E-04 1.06467E-02 2.02404E-15-4.06151E-13
 -1      1143 1.90146E+01-6.16074E-04 1.89620E-03 8.09195E-03 7.96920E-15-4.32809E-13
 -1      1144 1.91792E+01 6.54743E-04 2.61817E-03 6.12041E-03-1.07410E-14-5.84527E-13
 -1      1145 1.93275E+01 1.31541E-03 2.88991E-03 4.56579E-03 5.52986E-15-7.73335E-13
 -1      1146 1.94567E+01 1.57084E-03 2.83806E-03 3.33061E-03 2.14888E-14-6.83719E-13
 -1      1147 1.95667E+01 1.55081E-03 2.56227E-03 2.35073E-03 2.37534E-15-7.11142E-13
 -1      1148 1.96593E+01 1.33848E-03 2.13074E-03 1.58052E-03 1.98551E-15-7.15577E-13
 -1      1149 1.97371E+01 9.85640E-04 1.58455E-03 9.86773E-04-1.00572E-14-5.74374E-13
 -1      1150 1.98042E+01 5.21978E-04 9.43389E-04 5.46583E-04-3.48249E-14-7.35536E-13
 -1      1151 1.98648E+01-3.84179E-05 2.10746E-04 2.46918E-04-9.54015E-15-8.52270E-13
 -1      1152 1.99242E+01-6.91746E-04-6.21285E-04 8.51941E-05-2.23201E-14-7.52986E-13
 -1      1153 1.99884E+01-1.43927E-03-1.56685E-03 7.03007E-05-2.89045E-14-7.94598E-13
 -1      1154 2.00639E+01-2.28130E-03-2.63996E-03 2.23756E-04 1.52244E-14-8.54261E-13
 -1      1155 2.01585E+01-3.20955E-03-3.84555E-03 5.80575E-04 5.01666E-15-7.02805E-13
 -1      1156 2.02805E+01-4.19649E-03-5.16633E-03 1.18910E-03-2.27655E-14-6.55610E-13
 -1      1157 2.04393E+01-5.18053E-03-6.54256E-03 2.10836E-03 1.07253E-14-6.13174E-13
 -1      1158 2.06444E+01-6.04542E-03-7.84171E-03 3.40027E-03 8.46480E-15-6.31013E-13
 -1      1159 2.09046E+01-6.59321E-03-8.81424E-03 5.11192E-03-6.72639E-16-5.95386E-13
 -1      1160 2.12264E+01-6.51230E-03-9.03453E-03 7.24020E-03 3.39179E-14-5.06278E-13
 -1      1161 2.16108E+01-5.34889E-03-7.83496E-03 9.66774E-03 1.26312E-14-3.94445E-13
 -1      1162 2.20488E+01-2.50351E-03-4.26479E-03 1.20577E-02-6.11542E-14-6.59625E-13
 -1      1163 2.25149E+01 2.70090E-03 2.84607E-03 1.37044E-02 3.60852E-14-6.14271E-13
 -1      1164 2.29597E+01 1.07980E-02 1.45641E-02 1.33706E-02 2.47109E-14-4.19170E-13
 -1      1165 2.33021E+01 2.17004E-02 3.10556E-02 9.22649E-03-3.73471E-14-2.29647E-13
 -1      1166 2.34290E+01 3.39143E-02 5.01887E-02-8.49641E-04 4.73276E-14-5.23196E-13
 -1      1167 2.32095E+01 4.36499E-02 6.59315E-02-1.82232E-02 1.99662E-14-6.25798E-13
 -1      1168 2.25354E+01 4.46613E-02 6.80748E-02-4.15114E-02-2.40012E-14-8.12801E-13
 -1      1169 2.13915E+01 3.02717E-02 4.58223E-02-6.44424E-02 5.51564E-14-7.78405E-13
 -1      1170 1.99303E+01-1.48091E-03-3.66776E-03-7.59362E-02 5.28999E-15-4.09450E-13
 -1      1171 1.84939E+01-4.20613E-02-6.64865E-02-6.50791E-02 3.80078E-15-7.49546E-13
 -1      1172 1.75184E+01-7.27135E-02-1.13548E-01-2.99096E-02 3.86436E-14-5.82680E-13
 -1      1173 1.73316E+01-7.56842E-02-1.18126E-01 1.73043E-02-1.03893E-14-4.72778E-13
 -1      1174 1.79655E+01-4.90344E-02-7.72058E-02 5.61670E-02 1.05788E-14-5.00336E-13
 -1      1175 1.91351E+01-8.10471E-03-1.38827E-02 7.18328E-02 1.31188E-17-3.24518E-13
 -1      1176 2.04006E+01 2.71887E-02 4.12306E-02 6.31994E-02-3.14276E-14-5.49075E-13
 -1      1177 2.13811E+01 4.52323E-02 6.96883E-02 4.00382E-02 3.97959E-14-1.05098E-12
 -1      1178 2.18813E+01 4.58461E-02 7.07271E-02 1.42319E-02 2.99951E-14-7.81335E-13
 -1      1179 2.18953E+01 3.49308E-02 5.36569E-02-6.39761E-03 6.28768E-14-6.44691E-13
 -1      1180 2.15403E+01 1.87462E-02 2.83442E-02-1.88895E-02 1.06957E-14-1.96412E-13
 -1      1181 2.09881E+01 1.50482E-03 9.47306E-04-2.28901E-02 1.27204E-14-3.48062E-13
 -1      1182 2.04250E+01-1.40149E-02-2.38159E-02-1.74700E-02-1.21153E-14-4.84248E-14
 -1      1183 2.00425E+01-2.65806E-02-3.19274E-02 6.85322E-04 1.98058E-14 1.84528E-13
 -1      1184 1.99675E+01 1.12936E-02 2.08656E-02 1.13894E-02 5.81614E-14 1.26108E-13
 -1      1185 2.77922E+01 5.25754E-01 3.77142E-01 1.96670E+00-2.53131E-14 2.02760E-12
 -1      1186 2.00843E+01-6.62370E-02-5.73619E-01 1.29485E-01 5.44009E-15 1.74755E-12
 -1      1187 1.89066E+01-4.06035E-02-1.93232E-01 1.94196E-02 1.30529E-14 1.40630E-12
 -1      1188 1.85264E+01-2.14168E-02-5.05579E-02 1.46142E-03 6.20164E-15 1.19185E-12
 -1      1189 1.84544E+01-1.24032E-02-1.34031E-02-4.07645E-03 5.50992E-15 1.03586E-12
 -1      1190 1.85291E+01-7.39654E-03-4.65218E-03-5.53066E-03 4.41097E-15 8.95915E-13
 -1      1191 1.86720E+01-4.32070E-03-1.91931E-03-5.71349E-03 2.96790E-15 7.77895E-13
 -1      1192 1.88417E+01-2.35169E-03-3.33352E-04-5.42366E-03-7.71139E-15 7.35507E-13
 -1      1193 1.90151E+01-1.08554E-03 7.81640E-04-4.91271E-03 1.21516E-14 5.25338E-13
 -1      1194 1.91792E+01-2.92595E-04 1.48244E-03-4.29295E-03-1.20550E-16 4.70473E-13
 -1      1195 1.93270E+01 1.70985E-04 1.82883E-03-3.62951E-03 2.53206E-14 3.54356E-13
 -1      1196 1.94559E+01 3.99293E-04 1.90331E-03-2.96260E-03-7.16347E-15 2.38355E-13
 -1      1197 1.95657E+01 4.54325E-04 1.77848E-03-2.31532E-03 2.31961E-14 1.80487E-13
 -1      1198 1.96579E+01 3.75387E-04 1.50551E-03-1.69842E-03-1.93507E-14 2.41783E-13
 -1      1199 1.97353E+01 1.84637E-04 1.11391E-03-1.11373E-03 2.99188E-14 2.83766E-13
 -1      1200 1.98018E+01-1.09484E-04 6.14109E-04-5.56949E-04-2.90454E-16 1.38116E-13
 -1      1201 1.98618E+01-5.10062E-04-1.50930E-07-2.01036E-05-3.48968E-14 2.49817E-13
 -1      1202 1.99206E+01-1.03023E-03-7.50231E-04 5.06191E-04 1.91614E-14 1.14340E-13
 -1      1203 1.99843E+01-1.69194E-03-1.67159E-03 1.03027E-03-1.92942E-14 9.02319E-14
 -1      1204 2.00601E+01-2.52453E-03-2.81300E-03 1.55634E-03 1.62386E-14 7.52616E-14
 -1      1205 2.01568E+01-3.56219E-03-4.23523E-03 2.08013E-03 1.52630E-14-2.69388E-14
 -1      1206 2.02845E+01-4.83871E-03-6.00757E-03 2.58207E-03-6.48526E-15 2.43084E-13
 -1      1207 2.04559E+01-6.37663E-03-8.19876E-03 3.01621E-03-4.47385E-15 2.79634E-13
 -1      1208 2.06857E+01-8.16540E-03-1.08556E-02 3.29207E-03 3.64607E-14-2.24413E-14
 -1      1209 2.09914E+01-1.01195E-02-1.39557E-02 3.24609E-03 4.23609E-15-1.23946E-13
 -1      1210 2.13925E+01-1.20033E-02-1.73112E-02 2.59934E-03 1.99862E-14-1.20827E-13
 -1      1211 2.19091E+01-1.33057E-02-2.03840E-02 9.04092E-04-5.57783E-14 8.54646E-14
 -1      1212 2.25579E+01-1.30585E-02-2.19694E-02-2.50057E-03 1.41278E-14-2.79318E-13
 -1      1213 2.33447E+01-9.63674E-03-1.97348E-02-8.45511E-03-1.24675E-14-2.66009E-13
 -1      1214 2.42493E+01-7.19563E-04-9.78355E-03-1.77008E-02-5.11396E-15-1.77785E-13
 -1      1215 2.52022E+01 1.61376E-02 1.31143E-02-3.00461E-02-1.71224E-14-8.87138E-14
 -1      1216 2.60527E+01 4.15057E-02 5.31568E-02-4.26604E-02-1.54850E-14 9.96182E-14
 -1      1217 2.65415E+01 7.01192E-02 1.07156E-01-4.78045E-02-5.95869E-14 2.15810E-13
 -1      1218 2.63161E+01 8.66236E-02 1.54696E-01-3.23157E-02-4.17964E-14 4.59285E-13
 -1      1219 2.50549E+01 6.80582E-02 1.54351E-01 1.53513E-02 2.70747E-14 5.37514E-13
 -1      1220 2.27438E+01 4.23905E-03 6.68639E-02 8.76317E-02 5.09371E-14 3.92214E-13
 -1      1221 1.99737E+01-7.65907E-02-9.29936E-02 1.45387E-01 7.63625E-15 5.13534E-13
 -1      1222 1.78865E+01-1.17616E-01-2.32831E-01 1.38591E-01-2.92041E-14 5.60232E-13
 -1      1223 1.75251E+01-8.93857E-02-2.49866E-01 5.66979E-02 4.42771E-14-1.90931E-13
 -1      1224 1.90230E+01-2.29616E-02-1.36229E-01-5.01117E-02-1.50383E-14-2.90143E-13
 -1      1225 2.14878E+01 3.14972E-02 1.59133E-02-1.16965E-01-4.38871E-14 6.16451E-14
 -1      1226 2.37207E+01 5.30130E-02 1.14005E-01-1.21176E-01-4.55313E-14 4.64059E-13
 -1      1227 2.49701E+01 4.91330E-02 1.34256E-01-8.42229E-02-1.05610E-14 4.00943E-13
 -1      1228 2.51180E+01 3.42905E-02 1.04712E-01-3.78787E-02 8.78837E-14 1.98989E-13
 -1      1229 2.44364E+01 1.76229E-02 6.03157E-02-6.07897E-04 4.26174E-14-5.70238E-14
 -1      1230 2.32990E+01 1.99378E-03 1.94636E-02 2.36027E-02 4.26462E-14-4.27818E-13
 -1      1231 2.20323E+01-1.33642E-02-1.55567E-02 3.74681E-02 2.61615E-14-9.69343E-13
 -1      1232 2.08970E+01-2.87695E-02-4.66764E-02 4.24202E-02-5.13912E-16-8.63302E-13
 -1      1233 2.01345E+01-3.40653E-02-5.66243E-02 2.98230E-02 4.60972E-14-7.32077E-13
 -1      1234 1.99579E+01 1.47275E-02 2.81513E-02-1.52898E-02-7.29312E-14-2.94874E-13
 -1      1235 2.00155E+01-4.26902E-02 2.61043E-02-1.32137E-02-3.06540E-13-3.89810E-14
 -1      1236 1.99616E+01 1.48736E-01-5.87821E-02 1.84567E-03 8.78603E-14-2.02074E-14
 -1      1237 1.99704E+01 9.01770E-01-4.91063E-02 3.43445E-02 7.35939E-14 1.42312E-13
 -1      1238 1.99899E+01 2.00123E+00-1.73437E-02 4.56113E-02 1.48132E-13-9.18509E-14
 -1      1239 2.00113E+01 3.20776E+00 1.52314E-02 4.58211E-02 2.19408E-14 4.05210E-14
 -1      1240 2.00312E+01 4.29971E+00 4.37989E-02 3.75479E-02-2.57176E-13-7.59761E-14
 -1      1241 2.00455E+01 5.10059E+00 6.38080E-02 2.34345E-02-2.98407E-14 1.39617E-13
 -1      1242 2.00514E+01 5.48007E+00 7.15828E-02 4.62427E-03 6.04624E-13 2.74407E-14
 -1      1243 2.00469E+01 5.37622E+00 6.48645E-02-1.39530E-02-3.40008E-13-2.68904E-14
 -1      1244 2.00339E+01 4.83412E+00 4.63695E-02-2.81769E-02-3.76935E-13 7.06362E-14
 -1      1245 2.00166E+01 3.97848E+00 2.22175E-02-3.55581E-02-1.51173E-12-2.76766E-13
 -1      1246 2.00005E+01 2.98048E+00-7.28820E-04-3.60226E-02-2.09104E-12 3.39389E-14
 -1      1247 1.99874E+01 1.98626E+00-1.86304E-02-3.16987E-02-1.45835E-12 1.96682E-13
 -1      1248 1.99787E+01 1.10554E+00-3.18259E-02-2.43947E-02-5.09478E-13 2.19126E-14
 -1      1249 1.99739E+01 4.23049E-01-4.28567E-02-1.77566E-02-9.94052E-13 1.06259E-13
 -1      1250 1.99667E+01 5.21784E-02-3.42204E-02 1.15261E-02-4.93384E-13-8.36442E-14
 -1      1251 2.00114E+01-3.22284E-02 2.00967E-02 1.04609E-02-1.93641E-13-2.72026E-15
 -1      1252-1.16370E+00-2.54227E+01-3.87122E+00-2.35309E+00 9.57290E-13-5.98827E-15
 -1      1253-1.93683E+00-1.68632E+01-3.26172E+00-4.51360E+00 8.34666E-13 2.92766E-13
 -1      1254-2.24880E-01-3.83831E+00-2.03990E+00-9.46082E-01 1.59606E-12 1.06315E-12
 -1      1255 7.98724E+00 7.05690E+00-4.66152E-01 7.47542E+00 1.35048E-12 1.09468E-12
 -1      1256 2.36547E+01 1.13288E+01 1.23085E+00 1.57262E+01 1.06759E-12 1.49236E-12
 -1      1257 4.41200E+01 9.10332E+00 2.87773E+00 1.85339E+01 5.89861E-13 1.09268E-12
 -1      1258 6.17980E+01 4.35202E+00 4.04744E+00 1.25934E+01-6.95971E-14-1.00908E-12
 -1      1259 6.91319E+01 1.56944E+00 4.46872E+00 3.67149E-01 2.29886E-14-2.02338E-12
 -1      1260 6.15405E+01 3.98755E+00 3.95113E+00-1.21239E+01 4.39843E-13-2.07279E-12
 -1      1261 4.35160E+01 8.72004E+00 2.73837E+00-1.80037E+01 7.68607E-13-1.68354E-12
 -1      1262 2.30267E+01 1.07581E+01 1.09131E+00-1.51408E+01 1.05227E-12-1.42952E-12
 -1      1263 7.37508E+00 6.26373E+00-6.27967E-01-6.84760E+00 1.04072E-12-1.05094E-12
 -1      1264-4.47492E-01-4.47236E+00-2.12161E+00 1.19642E+00 6.37490E-13-3.89466E-13
 -1      1265-1.90836E+00-1.69663E+01-3.21686E+00 4.56717E+00-8.21565E-15-9.24816E-14
 -1      1266-1.05553E+00-2.48131E+01-3.73878E+00 2.27590E+00-5.68601E-13-7.93393E-14
 -1      1267-1.02074E+00-2.42956E+01-3.67526E+00-2.20094E+00-1.37501E-12-2.08968E-13
 -1      1268-1.73638E+00-1.54790E+01-3.02529E+00-4.11656E+00-1.32161E-12-4.46809E-13
 -1      1269 2.74866E-02-2.95095E+00-1.87168E+00-5.00644E-01-9.32587E-13-6.67355E-13
 -1      1270 7.89371E+00 7.21664E+00-4.03431E-01 7.48841E+00-5.28244E-13-4.09006E-13
 -1      1271 2.30272E+01 1.12250E+01 1.20208E+00 1.54132E+01-3.88578E-14-6.46150E-14
 -1      1272 4.24471E+01 9.03474E+00 2.64555E+00 1.80708E+01-1.68310E-13-3.88800E-13
 -1      1273 5.99676E+01 4.02548E+00 3.72042E+00 1.25149E+01 4.36040E-14 2.41362E-13
 -1      1274 6.73448E+01 1.47747E+00 4.15587E+00-1.53910E-02 5.82728E-14 4.78784E-14
 -1      1275 6.05203E+01 4.16668E+00 3.83797E+00-1.24817E+01 3.90105E-14-4.47420E-14
 -1      1276 4.34638E+01 9.11626E+00 2.81711E+00-1.82830E+01 1.23457E-13-2.44693E-13
 -1      1277 2.36424E+01 1.14343E+01 1.32121E+00-1.57468E+01 3.99902E-13-3.41061E-13
 -1      1278 8.00536E+00 7.28776E+00-3.62400E-01-7.58304E+00 8.81073E-13-7.84484E-13
 -1      1279-1.08187E-01-3.64923E+00-1.98300E+00 7.29851E-01 5.06928E-13-2.67120E-13
 -1      1280-1.89989E+00-1.66885E+01-3.20403E+00 4.22503E+00 3.84137E-14-3.77476E-15
 -1      1281-1.09436E+00-2.55801E+01-3.89938E+00 2.23229E+00 5.49227E-13 9.33316E-14
 -1      1282 2.22660E+01 1.83815E+00-7.25871E-01-2.79089E+00-5.86198E-14 5.01099E-13
 -1      1283 2.03586E+01 4.69015E+00-4.86570E-02-3.30761E+00-1.18669E-13-2.83780E-13
 -1      1284 2.08660E+01 4.81062E+00-1.13380E-01-4.16176E+00-1.67227E-13-1.12743E-13
 -1      1285 1.95314E+01 4.99333E+00-1.96015E-02-2.65542E+00-1.04132E-13-5.13475E-13
 -1      1286 1.98292E+01 5.09016E+00 2.44985E-04-3.04638E+00-1.24206E-13-4.21670E-13
 -1      1287 2.05252E+01 3.95283E+00-2.58996E-02-3.07567E+00-2.03143E-13-2.55129E-13
 -1      1288 1.91839E+01 5.08407E+00-3.66692E-03-2.07107E+00-7.32504E-14-6.03777E-13
 -1      1289 1.93332E+01 5.13927E+00 1.05796E-02-2.36425E+00-8.75307E-14-5.65957E-13
 -1      1290 1.97540E+01 4.36594E+00-2.42686E-02-2.49040E+00-1.59418E-13-4.42077E-13
 -1      1291 1.90089E+01 5.13089E+00 3.27538E-03-1.56558E+00-4.32206E-14-6.23756E-13
 -1      1292 1.90862E+01 5.16074E+00 1.25460E-02-1.81551E+00-5.37001E-14-6.17617E-13
 -1      1293 1.93924E+01 4.55556E+00-1.95755E-02-1.93192E+00-1.03932E-13-5.12628E-13
 -1      1294 1.89162E+01 5.16062E+00 6.62118E-03-1.11771E+00-9.81853E-15-6.19053E-13
 -1      1295 1.89582E+01 5.17684E+00 1.27214E-02-1.33928E+00-2.41109E-14-6.22422E-13
 -1      1296 1.92059E+01 4.66126E+00-1.60731E-02-1.44571E+00-5.56478E-14-5.28057E-13
 -1      1297 1.88650E+01 5.18048E+00 8.21835E-03-6.94208E-01 1.29280E-14-5.98188E-13
 -1      1298 1.88879E+01 5.18930E+00 1.20452E-02-9.04524E-01 8.06820E-15-6.11698E-13
 -1      1299 1.91037E+01 4.72661E+00-1.39446E-02-1.00479E+00-7.12277E-15-5.30496E-13
 -1      1300 1.88412E+01 5.19243E+00 9.30236E-03-2.89318E-01 4.34908E-14-5.78031E-13
 -1      1301 1.88510E+01 5.19624E+00 1.10818E-02-4.91535E-01 3.42894E-14-5.88526E-13
 -1      1302 1.90482E+01 4.76562E+00-1.29093E-02-5.89089E-01 3.86726E-14-5.00350E-13
 -1      1303 1.88375E+01 5.19738E+00 1.02306E-02 1.08290E-01 6.31397E-14-5.52480E-13
 -1      1304 1.88372E+01 5.19725E+00 1.01603E-02-9.14784E-02 5.38832E-14-5.68682E-13
 -1      1305 1.90241E+01 4.78365E+00-1.24749E-02-1.89187E-01 7.99543E-14-4.88515E-13
 -1      1306 1.88527E+01 5.19588E+00 1.11670E-02 5.08922E-01 8.35929E-14-5.25845E-13
 -1      1307 1.88422E+01 5.19180E+00 9.23630E-03 3.06293E-01 7.73728E-14-5.41758E-13
 -1      1308 1.90249E+01 4.78301E+00-1.24943E-02 2.05904E-01 1.15152E-13-4.62325E-13
 -1      1309 1.88911E+01 5.18816E+00 1.20988E-02 9.23372E-01 9.60317E-14-4.77422E-13
 -1      1310 1.88674E+01 5.17917E+00 8.14437E-03 7.12111E-01 9.37514E-14-5.07188E-13
 -1      1311 1.90507E+01 4.76357E+00-1.29805E-02 6.06490E-01 1.40088E-13-4.28907E-13
 -1      1312 1.89626E+01 5.17512E+00 1.29012E-02 1.35674E+00 1.17044E-13-4.01880E-13
 -1      1313 1.89195E+01 5.15843E+00 6.45839E-03 1.13378E+00 1.07202E-13-4.43956E-13
 -1      1314 1.91079E+01 4.72313E+00-1.40036E-02 1.01998E+00 1.67150E-13-3.79863E-13
 -1      1315 1.90949E+01 5.15661E+00 1.28235E-02 1.84150E+00 1.47391E-13-2.96770E-13
 -1      1316 1.90156E+01 5.12633E+00 3.15139E-03 1.58866E+00 1.35352E-13-3.56569E-13
 -1      1317 1.92130E+01 4.65475E+00-1.61486E-02 1.46324E+00 2.07052E-13-3.00714E-13
 -1      1318 1.93432E+01 5.13333E+00 1.01612E-02 2.39863E+00 1.74499E-13-1.39073E-13
 -1      1319 1.91933E+01 5.07628E+00-4.37384E-03 2.10135E+00 1.59019E-13-2.31502E-13
 -1      1320 1.94052E+01 4.54232E+00-1.99869E-02 1.95902E+00 2.46288E-13-1.93706E-13
 -1      1321 1.98545E+01 5.09927E+00 6.03267E-03 3.08467E+00 1.83992E-13 1.33005E-13
 -1      1322 1.95426E+01 4.98432E+00-2.05465E-02 2.69734E+00 1.65062E-13-3.02675E-14
 -1      1323 1.97741E+01 4.34633E+00-2.45657E-02 2.52889E+00 2.71446E-13-1.94011E-14
 -1      1324 2.11021E+01 4.90688E+00 8.29234E-03 4.05455E+00 1.49658E-13 6.00672E-13
 -1      1325 2.03332E+01 4.73375E+00-4.79810E-02 3.41699E+00 1.46896E-13 3.20813E-13
 -1      1326 2.05635E+01 3.91589E+00-2.24213E-02 3.17916E+00 2.64015E-13 2.77903E-13
 -1      1327 2.72019E+01 3.20539E+00 9.29085E-01 4.58260E+00 5.94663E-14 1.41093E-12
 -1      1328 2.20189E+01 3.52213E+00-1.82010E-01 3.88548E+00 6.89726E-14 8.55899E-13
 -1      1329 2.21111E+01 2.56179E+00-3.25647E-02 3.45721E+00 2.29551E-13 6.98219E-13
 -1      1330 2.14256E+01 3.59610E-01-7.63532E-01 1.18416E+00 1.16004E-13 1.38600E-12
 -1      1331 2.19999E+01 1.31394E-01-4.00865E-01-1.28603E+00-1.48465E-13 5.68212E-13
 -1      1332 2.06769E+01 3.06751E-01-1.64814E-01-8.06038E-01-1.32415E-13 3.86913E-13
 -1      1333 2.00789E+01 1.53509E-01-7.35323E-02-4.02335E-01-1.07442E-13 3.20848E-13
 -1      1334 1.96089E+01 9.11919E-02-1.49209E-02-3.30164E-01-9.98958E-14 1.59667E-13
 -1      1335 2.09707E+01 3.69296E-01-1.04213E-01-1.27441E+00-2.29095E-13 1.18627E-13
 -1      1336 1.92513E+01 6.44490E-02 3.05103E-03-1.35600E-01-8.52929E-14 1.13798E-13
 -1      1337 1.90966E+01 4.11942E-02 1.32219E-02-1.17851E-01-7.13353E-14-6.81399E-15
 -1      1338 1.99196E+01 1.33751E-01-3.51689E-02-5.04411E-01-1.73427E-13 2.02616E-14
 -1      1339 1.89359E+01 3.15180E-02 1.32366E-02-2.84454E-02-5.40284E-14-5.30027E-14
 -1      1340 1.89160E+01 1.94143E-02 1.10411E-02-1.90421E-02-6.41783E-14-1.38164E-13
 -1      1341 1.94420E+01 5.55585E-02-8.44063E-03-1.70709E-01-1.26909E-13-6.31249E-14
 -1      1342 1.88595E+01 1.60148E-02 8.75985E-03 2.46359E-02-4.11689E-14-1.47016E-13
 -1      1343 1.89014E+01 9.06184E-03 6.42013E-03 2.92618E-02-3.67477E-14-2.08824E-13
 -1      1344 1.92322E+01 2.43985E-02-3.53082E-03-1.19284E-02-9.52311E-14-1.20654E-13
 -1      1345 1.89011E+01 7.82989E-03 4.67327E-03 5.03860E-02-3.67562E-14-2.05268E-13
 -1      1346 1.89709E+01 3.48096E-03 3.65071E-03 5.22592E-02-2.67124E-14-2.46250E-13
 -1      1347 1.91747E+01 1.01720E-02-2.21707E-03 6.67447E-02-6.56500E-14-1.48978E-13
 -1      1348 1.89999E+01 3.16518E-03 2.45661E-03 6.10095E-02-2.93362E-14-2.60053E-13
 -1      1349 1.90798E+01 3.23079E-04 2.22263E-03 6.12656E-02-1.62430E-14-2.99879E-13
 -1      1350 1.92001E+01 2.72712E-03-1.31705E-03 1.03466E-01-5.76348E-14-1.76957E-13
 -1      1351 1.91230E+01 4.37991E-04 1.34864E-03 6.29414E-02-9.99901E-15-3.07107E-13
 -1      1352 1.92031E+01-1.44776E-03 1.45320E-03 6.22577E-02-2.34758E-14-3.48619E-13
 -1      1353 1.92684E+01-1.32776E-03-5.58146E-04 1.16676E-01-5.23802E-14-2.03931E-13
 -1      1354 1.92513E+01-1.12050E-03 7.67457E-04 5.99214E-02-4.26844E-14-3.56366E-13
 -1      1355 1.93263E+01-2.35642E-03 9.90040E-04 5.87337E-02-5.74770E-14-4.17663E-13
 -1      1356 1.93559E+01-3.49329E-03-8.36273E-06 1.16397E-01-6.01952E-14-2.29682E-13
 -1      1357 1.93743E+01-1.92832E-03 4.37163E-04 5.42983E-02-4.30555E-14-4.43810E-13
 -1      1358 1.94414E+01-2.70406E-03 6.87026E-04 5.28983E-02 1.00525E-14-4.74128E-13
 -1      1359 1.94486E+01-4.49601E-03 3.31280E-04 1.08636E-01-8.41408E-14-2.25833E-13
 -1      1360 1.94863E+01-2.23754E-03 2.41128E-04 4.76123E-02 2.57035E-14-5.17169E-13
 -1      1361 1.95446E+01-2.67945E-03 4.82982E-04 4.61967E-02-7.18176E-15-5.18742E-13
 -1      1362 1.95385E+01-4.74766E-03 5.03115E-04 9.72248E-02-7.98618E-15-2.67921E-13
 -1      1363 1.95851E+01-2.20850E-03 1.26555E-04 4.08947E-02-2.42934E-14-5.04639E-13
 -1      1364 1.96347E+01-2.40418E-03 3.47854E-04 3.95974E-02-1.62133E-14-5.27463E-13
 -1      1365 1.96214E+01-4.50312E-03 5.52766E-04 8.46949E-02-2.99568E-14-3.42473E-13
 -1      1366 1.96706E+01-1.94429E-03 6.53417E-05 3.48501E-02 3.22265E-14-5.08295E-13
 -1      1367 1.97127E+01-1.95530E-03 2.63897E-04 3.37638E-02 2.59155E-14-4.86425E-13
 -1      1368 1.96958E+01-3.92377E-03 5.15696E-04 7.27578E-02 2.09648E-14-3.67048E-13
 -1      1369 1.97446E+01-1.50902E-03 4.00762E-05 2.99761E-02-3.00411E-15-4.42625E-13
 -1      1370 1.97806E+01-1.37844E-03 2.19233E-04 2.91690E-02-4.69269E-14-4.52390E-13
 -1      1371 1.97618E+01-3.10872E-03 4.16124E-04 6.26027E-02 5.27676E-15-3.18554E-13
 -1      1372 1.98095E+01-9.38763E-04 3.87389E-05 2.66486E-02-7.36728E-14-4.84263E-13
 -1      1373 1.98414E+01-6.96429E-04 2.05248E-04 2.61764E-02-7.64631E-14-5.56937E-13
 -1      1374 1.98211E+01-2.11238E-03 2.69105E-04 5.50986E-02-8.65419E-14-3.13564E-13
 -1      1375 1.98688E+01-2.48993E-04 5.22290E-05 2.51845E-02-3.26152E-14-6.00767E-13
 -1      1376 1.98991E+01 8.41614E-05 2.15170E-04 2.50992E-02-1.03316E-14-6.08987E-13
 -1      1377 1.98762E+01-9.56295E-04 8.28137E-05 5.09384E-02-9.26626E-14-3.88687E-13
 -1      1378 1.99269E+01 5.59307E-04 7.28569E-05 2.58850E-02-2.94252E-16-6.05671E-13
 -1      1379 1.99582E+01 9.67097E-04 2.42997E-04 2.62416E-02 2.20361E-15-5.85763E-13
 -1      1380 1.99303E+01 3.61574E-04-1.39496E-04 5.07415E-02-4.35016E-15-4.30560E-13
 -1      1381 1.99887E+01 1.49382E-03 9.32137E-05 2.90636E-02-3.23333E-14-6.09238E-13
 -1      1382 2.00240E+01 1.96024E-03 2.82505E-04 2.99238E-02-2.04790E-14-6.30898E-13
 -1      1383 1.99875E+01 1.85799E-03-3.97689E-04 5.51222E-02 1.42030E-15-4.95353E-13
 -1      1384 2.00597E+01 2.56419E-03 1.05214E-04 3.50563E-02 1.82126E-14-6.47039E-13
 -1      1385 2.01026E+01 3.06787E-03 3.26207E-04 3.64880E-02 2.88566E-15-6.27402E-13
 -1      1386 2.00524E+01 3.55432E-03-6.92863E-04 6.47238E-02-2.10669E-14-4.33172E-13
 -1      1387 2.01464E+01 3.77321E-03 9.92558E-05 4.42089E-02 4.11057E-14-6.54460E-13
 -1      1388 2.02008E+01 4.28035E-03 3.64197E-04 4.62820E-02-3.19990E-14-6.63004E-13
 -1      1389 2.01303E+01 5.46323E-03-1.02511E-03 8.02120E-02 2.89311E-14-5.19724E-13
 -1      1390 2.02557E+01 5.10440E-03 6.36111E-05 5.68338E-02 1.00953E-14-5.43388E-13
 -1      1391 2.03260E+01 5.55930E-03 3.83000E-04 5.96086E-02 6.06716E-14-4.81316E-13
 -1      1392 2.02271E+01 7.56970E-03-1.39057E-03 1.02215E-01 6.94080E-14-5.41581E-13
 -1      1393 2.03954E+01 6.50365E-03-1.56272E-05 7.31232E-02 9.25865E-15-3.96880E-13
 -1      1394 2.04860E+01 6.81625E-03 3.64785E-04 7.66290E-02 3.22314E-14-4.30654E-13
 -1      1395 2.03491E+01 9.80264E-03-1.77732E-03 1.31187E-01 4.68349E-14-3.29776E-13
 -1      1396 2.05731E+01 7.85241E-03-1.53258E-04 9.29974E-02 4.06487E-14-4.08385E-13
 -1      1397 2.06883E+01 7.88228E-03 2.87856E-04 9.71960E-02-4.56991E-15-4.30989E-13
 -1      1398 2.05025E+01 1.19926E-02-2.15956E-03 1.67167E-01 3.72367E-14-2.18709E-13
 -1      1399 2.07958E+01 8.92960E-03-3.60901E-04 1.15864E-01 1.27459E-14-3.91356E-13
 -1      1400 2.09393E+01 8.46735E-03 1.30195E-04 1.20591E-01 5.19185E-14-3.52618E-13
 -1      1401 2.06934E+01 1.38107E-02-2.48915E-03 2.09382E-01 1.80875E-14-2.19270E-13
 -1      1402 2.10688E+01 9.36130E-03-6.37751E-04 1.40253E-01 4.92061E-14-3.85348E-13
 -1      1403 2.12419E+01 8.11185E-03-1.21019E-04 1.45132E-01 5.38297E-14-2.72542E-13
 -1      1404 2.09261E+01 1.46860E-02-2.68402E-03 2.55642E-01 9.84976E-15-1.60191E-13
 -1      1405 2.13928E+01 8.56394E-03-9.53100E-04 1.63320E-01-3.68234E-14-3.21130E-13
 -1      1406 2.15931E+01 6.14368E-03-4.50377E-04 1.67639E-01-7.75998E-14-3.56714E-13
 -1      1407 2.12017E+01 1.37081E-02-2.61329E-03 3.01492E-01-1.38063E-14-1.92479E-13
 -1      1408 2.17612E+01 5.70285E-03-1.21876E-03 1.80226E-01-6.95801E-14-3.98683E-13
 -1      1409 2.19799E+01 1.67773E-03-7.84105E-04 1.82794E-01-3.62395E-14-4.49659E-13
 -1      1410 2.15159E+01 9.54897E-03-2.08195E-03 3.39126E-01-9.38018E-14-2.61887E-13
 -1      1411 2.21554E+01-2.77026E-04-1.25608E-03 1.83553E-01 5.06685E-14-4.79358E-13
 -1      1412 2.23739E+01-6.26287E-03-9.56320E-04 1.82571E-01 8.56862E-14-3.61097E-13
 -1      1413 2.18557E+01 4.90484E-04-8.24622E-04 3.56262E-01 2.37570E-14-2.29807E-13
 -1      1414 2.25397E+01-1.04343E-02-7.79876E-04 1.63145E-01 6.47041E-14-3.31706E-13
 -1      1415 2.27263E+01-1.83669E-02-6.99345E-04 1.56208E-01 5.00142E-14-2.26174E-13
 -1      1416 2.21956E+01-1.52594E-02 1.46773E-03 3.35517E-01 7.86591E-14-2.88965E-13
 -1      1417 2.28564E+01-2.52489E-02 5.49522E-04 1.07151E-01-2.22921E-14-1.90863E-13
 -1      1418 2.29648E+01-3.42297E-02 2.85153E-04 9.16216E-02-2.10890E-14-2.67153E-13
 -1      1419 2.24945E+01-3.86720E-02 5.04249E-03 2.55490E-01 7.46096E-14-2.80158E-13
 -1      1420 2.30252E+01-4.35015E-02 2.92850E-03 5.53886E-03-4.15761E-14-2.50373E-13
 -1      1421 2.29984E+01-5.10772E-02 2.10150E-03-2.03765E-02-4.28772E-14-3.22290E-13
 -1      1422 2.26941E+01-6.81313E-02 9.84085E-03 9.55298E-02-9.12499E-14-1.76859E-13
 -1      1423 2.29515E+01-6.07281E-02 6.02154E-03-1.42747E-01 3.53224E-14-4.28643E-13
 -1      1424 2.27349E+01-6.25044E-02 4.28491E-03-1.77935E-01-4.30151E-14-5.46778E-13
 -1      1425 2.27236E+01-9.69392E-02 1.50782E-02-1.53480E-01-8.67570E-14-2.95760E-13
 -1      1426 2.25511E+01-6.82493E-02 8.55943E-03-3.19501E-01-3.16249E-14-4.56694E-13
 -1      1427 2.21182E+01-5.87755E-02 5.50632E-03-3.57335E-01 1.11855E-14-5.60507E-13
 -1      1428 2.25150E+01-1.11639E-01 1.87712E-02-4.71906E-01-1.51251E-14-3.33327E-13
 -1      1429 2.17948E+01-5.50803E-02 8.43386E-03-4.79135E-01 7.97773E-14-3.89657E-13
 -1      1430 2.11802E+01-3.10040E-02 3.91989E-03-5.06356E-01 7.67793E-14-3.42691E-13
 -1      1431 2.20314E+01-9.46030E-02 1.77469E-02-7.93831E-01 9.63769E-14-8.11105E-14
 -1      1432 2.07609E+01-1.48326E-02 3.95892E-03-5.53956E-01-2.35555E-14-3.22437E-13
 -1      1433 2.00811E+01 2.03792E-02-1.42904E-03-5.54369E-01-2.02666E-14-2.90809E-13
 -1      1434 2.13076E+01-3.42511E-02 9.02433E-03-1.00602E+00 6.43914E-14-1.65392E-13
 -1      1435 1.96636E+01 4.45361E-02-4.08910E-03-4.83164E-01-1.67652E-14-3.50511E-13
 -1      1436 1.90991E+01 7.83399E-02-8.82745E-03-4.47509E-01-6.07648E-14-3.65243E-13
 -1      1437 2.04808E+01 6.01330E-02-7.08072E-03-9.84602E-01-1.00460E-13-2.17880E-13
 -1      1438 1.88095E+01 9.77356E-02-1.16670E-02-2.58079E-01-9.22873E-16-5.35388E-13
 -1      1439 1.85363E+01 1.13690E-01-1.39604E-02-1.94442E-01 3.97737E-14-3.92232E-13
 -1      1440 1.97756E+01 1.52274E-01-2.43618E-02-6.70605E-01-7.91572E-14-2.74759E-13
 -1      1441 1.84709E+01 1.15376E-01-1.40794E-02 5.11068E-02 2.69576E-15-3.67849E-13
 -1      1442 1.85718E+01 1.04660E-01-1.29292E-02 1.17520E-01 3.44412E-14-3.55497E-13
 -1      1443 1.94207E+01 1.95507E-01-3.28819E-02-1.38522E-01 4.32987E-15-4.02133E-13
 -1      1444 1.87398E+01 8.72115E-02-9.97379E-03 3.23606E-01 5.63091E-14-3.49380E-13
 -1      1445 1.91565E+01 5.58677E-02-6.07254E-03 3.65724E-01-3.07671E-14-4.01082E-13
 -1      1446 1.95262E+01 1.65122E-01-2.69834E-02 4.14556E-01 5.66387E-14-2.60411E-13
 -1      1447 1.94743E+01 3.04250E-02-2.52368E-03 4.59603E-01 2.29200E-14-3.73597E-13
 -1      1448 2.00398E+01-5.73463E-03 2.42232E-03 4.65106E-01-5.82199E-14-3.05811E-13
 -1      1449 2.00146E+01 7.77010E-02-1.05547E-02 7.77983E-01 1.45266E-14-2.52472E-13
 -1      1450 2.03800E+01-2.54020E-02 3.75641E-03 4.33323E-01-2.11018E-13-4.01817E-13
 -1      1451 2.09044E+01-5.19832E-02 8.09276E-03 4.08487E-01-1.24947E-13-5.95170E-13
 -1      1452 2.06687E+01-2.16051E-02 6.88646E-03 8.47007E-01-2.39846E-13-2.73986E-13
 -1      1453 2.11583E+01-5.90767E-02 6.40793E-03 2.90057E-01 7.44691E-14-5.56041E-13
 -1      1454 2.15068E+01-7.03382E-02 9.31527E-03 2.51057E-01 9.33160E-14-5.61193E-13
 -1      1455 2.12498E+01-9.18749E-02 1.75563E-02 6.57640E-01-3.39694E-14-2.39231E-13
 -1      1456 2.16199E+01-6.64749E-02 5.88272E-03 1.03557E-01-6.54598E-14-5.04749E-13
 -1      1457 2.17434E+01-6.44687E-02 7.37819E-03 6.55174E-02 3.54205E-14-5.61028E-13
 -1      1458 2.15980E+01-1.16751E-01 1.98588E-02 3.31631E-01 6.51874E-14-3.23275E-13
 -1      1459 2.17144E+01-5.48049E-02 3.90432E-03-6.41406E-02 1.91649E-13-6.45525E-13
 -1      1460 2.16371E+01-4.46486E-02 4.33680E-03-9.21892E-02 1.57162E-13-4.14377E-13
 -1      1461 2.16635E+01-1.03635E-01 1.63019E-02-3.71422E-03 1.27159E-13-3.51042E-13
 -1      1462 2.14999E+01-3.34932E-02 1.71257E-03-1.77750E-01 2.37455E-13-3.31628E-13
 -1      1463 2.12884E+01-1.97650E-02 1.33588E-03-1.92362E-01 1.36542E-13-8.29337E-14
 -1      1464 2.14832E+01-6.89305E-02 1.00131E-02-2.61769E-01 3.67754E-13-2.13681E-13
 -1      1465 2.10929E+01-9.07980E-03-5.62467E-04-2.24305E-01-3.18869E-14-1.80120E-13
 -1      1466 2.08305E+01 5.30757E-03-1.48227E-03-2.24977E-01-3.27896E-14-2.46136E-13
 -1      1467 2.11418E+01-2.60638E-02 3.03980E-03-4.01622E-01 7.79602E-14-1.20474E-13
 -1      1468 2.06288E+01 1.54292E-02-3.30805E-03-2.03152E-01 9.79967E-14-9.77430E-14
 -1      1469 2.04010E+01 2.83670E-02-3.37833E-03-1.89915E-01 1.54795E-13 2.98667E-14
 -1      1470 2.07402E+01 1.84276E-02-3.31476E-03-4.12948E-01 6.50489E-14-2.11970E-13
 -1      1471 2.02357E+01 3.96986E-02-4.53052E-03-1.19528E-01 1.18975E-13 1.14816E-13
 -1      1472 2.01140E+01 4.08881E-02-4.04018E-04-9.64913E-02-3.45555E-14 2.54279E-13
 -1      1473 2.03715E+01 6.30691E-02-6.79236E-03-3.04885E-01 2.41841E-13 9.96651E-14
 -1      1474 1.99991E+01 1.41850E-02 1.50011E-03 4.32699E-03-2.59284E-13 3.13035E-13
 -1      1475 2.00806E+01 7.02759E-02-3.47031E-03-9.21557E-02-1.81142E-13 2.27128E-13
 -1      1476 2.02577E+01 7.54790E-02-1.52103E-01 4.84115E-01 9.04242E-14 1.14913E-12
 -1      1477 2.15284E+01 2.16127E-01-2.29289E-01 7.21119E-01 8.57786E-14 1.30446E-12
 -1      1478 2.17271E+01 8.81810E-01-8.54581E-02 2.06533E+00 1.76650E-13 8.85722E-13
 -1      1479 1.93288E+01 3.23765E-02-2.13363E-02 1.86278E-01 8.31661E-14 9.54497E-13
 -1      1480 1.97498E+01 1.13610E-01-6.27070E-02 2.38284E-01 7.13769E-14 1.06158E-12
 -1      1481 2.03013E+01 1.87687E-01-5.51870E-02 7.86672E-01 1.50040E-13 7.29531E-13
 -1      1482 1.89463E+01 1.50972E-02 5.66684E-03 5.38034E-02 5.76180E-14 7.98354E-13
 -1      1483 1.90853E+01 5.16118E-02 9.74143E-04 8.01060E-02 6.01064E-14 8.85181E-13
 -1      1484 1.95557E+01 7.18294E-02-1.21509E-02 2.99515E-01 1.20834E-13 6.13129E-13
 -1      1485 1.88350E+01 7.11010E-03 6.97790E-03-8.65284E-03 5.24611E-14 6.95055E-13
 -1      1486 1.88501E+01 2.58403E-02 1.10872E-02 5.73180E-03 3.51308E-14 7.53130E-13
 -1      1487 1.92196E+01 3.10180E-02-2.45712E-03 8.40831E-02 8.88994E-14 4.96454E-13
 -1      1488 1.88601E+01 3.19626E-03 4.78596E-03-3.88518E-02 3.21358E-14 5.96009E-13
 -1      1489 1.88169E+01 1.37830E-02 8.51973E-03-3.07533E-02 4.03037E-14 6.46632E-13
 -1      1490 1.91023E+01 1.32393E-02-1.61042E-03-2.08125E-02 8.02453E-14 4.10022E-13
 -1      1491 1.89532E+01 1.04241E-03 3.29756E-03-5.22255E-02 1.68862E-14 5.08113E-13
 -1      1492 1.88833E+01 7.25310E-03 5.36791E-03-4.77762E-02 2.68749E-14 5.37296E-13
 -1      1493 1.91027E+01 4.51172E-03-1.62439E-03-7.21998E-02 5.71626E-14 3.43829E-13
 -1      1494 1.90763E+01-1.98874E-04 2.51446E-03-5.61368E-02 5.51569E-14 4.26090E-13
 -1      1495 1.89968E+01 3.42442E-03 3.43257E-03-5.39443E-02 3.16752E-14 4.74038E-13
 -1      1496 1.91645E+01-1.31679E-04-1.36801E-03-9.47536E-02 5.11985E-14 2.69713E-13
 -1      1497 1.92077E+01-8.93556E-04 2.04852E-03-5.46355E-02 3.93266E-14 2.89057E-13
 -1      1498 1.91283E+01 1.10505E-03 2.33221E-03-5.38575E-02 4.91736E-14 3.69960E-13
 -1      1499 1.92555E+01-2.63095E-03-9.92764E-04-1.00911E-01 9.44727E-14 1.91048E-13
 -1      1500 1.93352E+01-1.23529E-03 1.70176E-03-5.01822E-02 2.35333E-14 2.70217E-13
 -1      1501 1.92610E+01-2.78901E-04 1.65707E-03-5.02708E-02-2.12777E-15 2.55487E-13
 -1      1502 1.93567E+01-3.86842E-03-6.52681E-04-9.77149E-02 4.62726E-14 1.25777E-13
 -1      1503 1.94521E+01-1.34142E-03 1.40723E-03-4.43554E-02 2.29703E-14 2.41170E-13
 -1      1504 1.93858E+01-1.04701E-03 1.20117E-03-4.49400E-02 4.16653E-14 2.62667E-13
 -1      1505 1.94573E+01-4.31755E-03-3.94698E-04-8.94962E-02 5.19596E-14 8.18798E-14
 -1      1506 1.95554E+01-1.28785E-03 1.14641E-03-3.81975E-02 2.46938E-14 1.35212E-13
 -1      1507 1.94980E+01-1.39532E-03 8.75642E-04-3.90210E-02 2.92345E-14 1.93820E-13
 -1      1508 1.95512E+01-4.26130E-03-2.16856E-04-7.90530E-02 6.87554E-14 1.35099E-13
 -1      1509 1.96449E+01-1.12376E-03 9.13938E-04-3.24098E-02-9.02891E-15 8.50361E-14
 -1      1510 1.95960E+01-1.44985E-03 6.39332E-04-3.32895E-02 2.95757E-14 1.12491E-13
 -1      1511 1.96356E+01-3.87776E-03-1.06105E-04-6.82456E-02 4.87015E-14 5.00348E-14
 -1      1512 1.97217E+01-8.79355E-04 7.06704E-04-2.74782E-02-9.35826E-15 1.85938E-13
 -1      1513 1.96804E+01-1.29135E-03 4.69578E-04-2.82790E-02-4.63805E-14 1.21549E-13
 -1      1514 1.97101E+01-3.27925E-03-5.08059E-05-5.83412E-02-4.78542E-14 4.57418E-14
 -1      1515 1.97883E+01-5.70385E-04 5.21028E-04-2.37596E-02 4.70963E-14 1.46157E-13
 -1      1516 1.97531E+01-9.68302E-04 3.51847E-04-2.43755E-02 5.21785E-14 1.93592E-13
 -1      1517 1.97758E+01-2.53238E-03-4.34225E-05-5.02373E-02 2.97124E-14 6.06252E-14
 -1      1518 1.98481E+01-2.01169E-04 3.52141E-04-2.15484E-02-4.67380E-14 9.40512E-14
 -1      1519 1.98169E+01-5.04534E-04 2.76030E-04-2.18862E-02 8.63902E-15 1.23729E-13
 -1      1520 1.98348E+01-1.66983E-03-8.06618E-05-4.46196E-02 1.47192E-14 6.79076E-14
 -1      1521 1.99053E+01 2.33327E-04 1.94119E-04-2.11272E-02 1.34336E-14 1.23781E-13
 -1      1522 1.98759E+01 9.60794E-05 2.34872E-04-2.10944E-02-2.87551E-14 1.10671E-13
 -1      1523 1.98905E+01-6.97995E-04-1.63301E-04-4.20809E-02-2.35135E-14 5.26793E-14
 -1      1524 1.99651E+01 7.45968E-04 3.98516E-05-2.28090E-02 4.09568E-14 5.21508E-15
 -1      1525 1.99345E+01 8.46506E-04 2.23096E-04-2.23020E-02 4.08226E-14 7.41418E-14
 -1      1526 1.99467E+01 3.97784E-04-2.96139E-04-4.32151E-02 7.27820E-14-1.69596E-16
 -1      1527 2.00333E+01 1.35615E-03-1.19052E-04-2.69715E-02-5.35136E-14-1.83570E-14
 -1      1528 1.99984E+01 1.77439E-03 2.36725E-04-2.58655E-02 8.03695E-15-4.40342E-15
 -1      1529 2.00082E+01 1.64931E-03-4.88096E-04-4.86926E-02 4.66698E-14-3.13534E-14
 -1      1530 2.01171E+01 2.08830E-03-2.92506E-04-3.40849E-02 5.06485E-16 1.72628E-15
 -1      1531 2.00739E+01 2.92010E-03 2.72400E-04-3.22239E-02-3.68809E-14 5.62308E-16
 -1      1532 2.00809E+01 3.10220E-03-7.52402E-04-5.93205E-02-3.43963E-14-7.77026E-14
 -1      1533 2.02251E+01 2.96955E-03-4.92343E-04-4.47316E-02-2.68947E-14 4.45502E-14
 -1      1534 2.01690E+01 4.33417E-03 3.26449E-04-4.19197E-02-3.79780E-15 3.79421E-14
 -1      1535 2.01715E+01 4.81201E-03-1.10676E-03-7.60887E-02-1.79739E-14 9.67257E-14
 -1      1536 2.03672E+01 4.02520E-03-7.32774E-04-5.96123E-02 5.75646E-15 2.09867E-13
 -1      1537 2.02926E+01 6.07239E-03 3.93489E-04-5.56065E-02-5.51724E-14 7.88800E-14
 -1      1538 2.02881E+01 6.83818E-03-1.57316E-03-1.00192E-01-8.20526E-14 5.90255E-14
 -1      1539 2.05556E+01 5.26966E-03-1.03047E-03-7.95242E-02 7.03066E-14 8.08390E-14
 -1      1540 2.04558E+01 8.18544E-03 4.64273E-04-7.40338E-02 4.58590E-14 1.67114E-13
 -1      1541 2.04401E+01 9.23236E-03-2.17675E-03-1.33018E-01 4.84023E-14 1.46251E-13
 -1      1542 2.08042E+01 6.68846E-03-1.40299E-03-1.05288E-01 7.88081E-14-9.69823E-14
 -1      1543 2.06713E+01 1.06971E-02 5.22636E-04-9.79854E-02 9.58482E-14 2.46257E-14
 -1      1544 2.06386E+01 1.20150E-02-2.94221E-03-1.76052E-01 1.33890E-13-6.07477E-14
 -1      1545 2.11286E+01 8.20356E-03-1.86218E-03-1.37568E-01-4.85499E-14-8.46467E-14
 -1      1546 2.09537E+01 1.35602E-02 5.41932E-04-1.28129E-01-3.45015E-14-1.27887E-13
 -1      1547 2.08957E+01 1.51281E-02-3.88456E-03-2.30653E-01 2.56902E-14-1.48116E-13
 -1      1548 2.15451E+01 9.61037E-03-2.39498E-03-1.76500E-01-4.36760E-14 1.71460E-14
 -1      1549 2.13188E+01 1.65720E-02 4.83186E-04-1.64700E-01 6.92567E-15 1.27684E-14
 -1      1550 2.12243E+01 1.83452E-02-4.98840E-03-2.97548E-01-7.80695E-14 1.81257E-15
 -1      1551 2.20682E+01 1.04705E-02-2.91637E-03-2.20975E-01 3.37738E-14 8.21964E-14
 -1      1552 2.17818E+01 1.92220E-02 3.01532E-04-2.06891E-01-7.03691E-15 4.04295E-14
 -1      1553 2.16367E+01 2.11055E-02-6.16444E-03-3.75862E-01-3.69639E-14 6.75232E-14
 -1      1554 2.27053E+01 9.94943E-03-3.17077E-03-2.67355E-01 1.79479E-14-1.70088E-13
 -1      1555 2.23540E+01 2.04428E-02-2.43650E-05-2.51761E-01 6.81193E-14-2.08930E-14
 -1      1556 2.21413E+01 2.22354E-02-7.16629E-03-4.61343E-01 1.31827E-13 3.38115E-14
 -1      1557 2.34480E+01 6.62257E-03-2.56376E-03-3.07415E-01-4.26565E-14-1.48034E-13
 -1      1558 2.30362E+01 1.82627E-02-4.15601E-04-2.92459E-01-3.70630E-14-1.76003E-13
 -1      1559 2.27378E+01 1.95374E-02-7.45220E-03-5.43418E-01-1.95148E-14-6.54320E-14
 -1      1560 2.42569E+01-1.61197E-03 3.19120E-05-3.25539E-01-2.88233E-14-5.07545E-14
 -1      1561 2.38074E+01 9.48627E-03-5.51000E-04-3.15746E-01-3.45794E-14-1.23096E-13
 -1      1562 2.34083E+01 9.34927E-03-6.00897E-03-6.00907E-01-7.39909E-14-3.67692E-14
 -1      1563 2.50411E+01-1.71048E-02 6.24944E-03-2.96207E-01-9.58916E-14 2.17187E-15
 -1      1564 2.46079E+01-1.01307E-02 3.00283E-04-2.99542E-01-3.22997E-14-1.17292E-13
 -1      1565 2.41056E+01-1.34824E-02-1.27999E-03-5.97251E-01-3.20278E-14-5.74124E-14
 -1      1566 2.56378E+01-4.06915E-02 1.73673E-02-1.85212E-01-6.38482E-14 6.38725E-14
 -1      1567 2.53193E+01-4.41261E-02 3.23073E-03-2.13122E-01-6.78294E-14 6.79318E-15
 -1      1568 2.47382E+01-5.39533E-02 8.43521E-03-4.78938E-01-8.88152E-14-9.73058E-14
 -1      1569 2.58098E+01-6.78355E-02 3.18259E-02 3.81638E-02-6.92675E-14 1.94553E-13
 -1      1570 2.57505E+01-9.04899E-02 8.91519E-03-2.58213E-02-7.25080E-14 7.34135E-14
 -1      1571 2.51616E+01-1.11647E-01 2.33769E-02-1.86240E-01-8.28539E-14-3.26414E-14
 -1      1572 2.52972E+01-8.34542E-02 4.14803E-02 3.69474E-01 5.30114E-14 2.71332E-13
 -1      1573 2.56547E+01-1.33516E-01 1.57300E-02 2.68045E-01 2.71189E-14 2.64871E-13
 -1      1574 2.51890E+01-1.70371E-01 3.94736E-02 3.09847E-01-1.26028E-14 1.92658E-14
 -1      1575 2.39618E+01-6.27157E-02 3.08061E-02 7.20820E-01-8.14713E-15 2.93265E-13
 -1      1576 2.48148E+01-1.38904E-01 1.72618E-02 6.07163E-01-7.39339E-15 2.89518E-13
 -1      1577 2.46518E+01-1.87527E-01 4.60738E-02 9.37221E-01 7.62237E-15 1.00205E-13
 -1      1578 2.20070E+01 8.16402E-03-1.15398E-02 9.02949E-01 2.78037E-14 1.87239E-13
 -1      1579 2.32190E+01-7.04435E-02 4.01910E-03 8.34856E-01 5.93726E-14 2.55879E-13
 -1      1580 2.35273E+01-1.06865E-01 2.95206E-02 1.45437E+00 4.17878E-14 3.20091E-14
 -1      1581 2.01004E+01 1.00429E-01-7.01887E-02 7.22108E-01-2.23467E-14 1.53669E-13
 -1      1582 2.12546E+01 6.50738E-02-2.51907E-02 7.58957E-01-2.17760E-14 1.13951E-13
 -1      1583 2.20952E+01 8.61374E-02-9.96763E-03 1.50536E+00 5.15907E-15-1.11473E-14
 -1      1584 1.91252E+01 1.47217E-01-1.01610E-01 1.77880E-01 1.62436E-13 9.47731E-14
 -1      1585 1.96897E+01 1.90774E-01-5.28534E-02 3.20911E-01 4.18415E-15 2.48662E-13
 -1      1586 2.09376E+01 2.98319E-01-4.89558E-02 8.83735E-01 8.06646E-15-3.41498E-14
 -1      1587 1.95758E+01 1.07349E-01-7.46770E-02-4.47071E-01-1.80377E-14-2.18076E-13
 -1      1588 1.92691E+01 2.12677E-01-5.40784E-02-2.77091E-01 1.61395E-13 4.20549E-14
 -1      1589 2.06278E+01 3.67286E-01-5.91294E-02-1.78045E-01 2.47698E-13-1.35860E-13
 -1      1590 2.11359E+01 1.60395E-02-9.81731E-03-7.95833E-01-4.94045E-14-1.12688E-14
 -1      1591 2.01618E+01 1.18838E-01-2.47328E-02-6.94675E-01-1.47221E-13-1.92887E-13
 -1      1592 2.12838E+01 2.23293E-01-3.91982E-02-1.09036E+00-5.83873E-14 9.47020E-14
 -1      1593 2.29415E+01-5.82291E-02 4.41936E-02-7.41770E-01-1.43961E-13 1.50047E-13
 -1      1594 2.18212E+01-1.03876E-02 1.22334E-02-7.41525E-01-3.94372E-14 1.18267E-13
 -1      1595 2.24693E+01-1.66738E-02-1.02151E-02-1.38881E+00-1.55040E-13 2.79152E-13
 -1      1596 2.42212E+01-8.32670E-02 6.10819E-02-4.24382E-01 2.91572E-14 3.02564E-13
 -1      1597 2.34172E+01-9.44442E-02 3.26237E-02-4.90695E-01-1.25384E-13 1.57888E-13
 -1      1598 2.35577E+01-1.86321E-01 9.46116E-03-1.07049E+00-1.19436E-13 1.25341E-13
 -1      1599 2.46594E+01-7.02499E-02 4.87495E-02-5.72244E-02-1.05933E-13 2.80475E-13
 -1      1600 2.43612E+01-1.13305E-01 3.18584E-02-1.39194E-01 3.12615E-14 2.70534E-13
 -1      1601 2.41332E+01-2.25188E-01 1.63657E-02-4.51845E-01-3.90903E-14 2.56803E-13
 -1      1602 2.43389E+01-4.32394E-02 2.67879E-02 2.24338E-01 2.55416E-13 1.49845E-14
 -1      1603 2.44957E+01-9.05127E-02 1.99226E-02 1.58414E-01 2.03828E-13 2.81442E-13
 -1      1604 2.41024E+01-1.75355E-01 1.50969E-02 1.46792E-01 2.14320E-13 1.38129E-13
 -1      1605 2.35203E+01-1.74758E-02 8.09068E-03 3.82625E-01 4.89400E-14-2.75533E-13
 -1      1606 2.39741E+01-5.44015E-02 7.46138E-03 3.42168E-01 5.32690E-14-1.54144E-13
 -1      1607 2.35887E+01-9.91882E-02 1.08219E-02 5.61396E-01 2.45884E-13-3.42122E-14
 -1      1608 2.24792E+01 2.76588E-03-4.59678E-03 4.31362E-01 2.11523E-13-4.75432E-13
 -1      1609 2.30642E+01-1.99808E-02-9.04939E-04 4.14634E-01 2.11886E-13-2.83717E-13
 -1      1610 2.27918E+01-3.18656E-02 5.87519E-03 7.63819E-01 2.25050E-13-2.10219E-13
 -1      1611 2.14466E+01 1.92658E-02-1.35990E-02 3.93713E-01-9.81134E-14-4.68896E-13
 -1      1612 2.20252E+01 1.00133E-02-5.78746E-03 3.97425E-01-2.40073E-14-4.46199E-13
 -1      1613 2.19046E+01 1.94850E-02 1.81297E-04 7.84405E-01 9.67859E-14 8.58168E-15
 -1      1614 2.06120E+01 3.53360E-02-1.88553E-02 2.81405E-01-1.18491E-13-3.36203E-13
 -1      1615 2.10680E+01 3.91755E-02-8.99522E-03 3.06648E-01-2.41803E-14-4.56784E-13
 -1      1616 2.10853E+01 6.27553E-02-6.40891E-03 6.56470E-01-1.09697E-13 5.98063E-14
 -1      1617 2.01332E+01 5.16270E-02-3.86738E-03 1.11612E-01 8.94142E-16-2.51158E-13
 -1      1618 2.03594E+01 6.43916E-02-8.26271E-03 1.53460E-01-1.80203E-14-3.54659E-13
 -1      1619 2.04512E+01 1.03702E-01-1.09212E-02 4.00565E-01 3.16574E-14 1.76338E-14
 -1      1620 2.00202E+01 3.89347E-02 5.30633E-04 1.10379E-02-1.03448E-13-1.31224E-13
 -1      1621 2.00636E+01 4.94048E-01-9.62093E-03 2.42860E-01 9.18363E-14-5.25964E-14
 -1      1622 2.00753E+01 2.48354E-01 4.81282E-05 1.95928E-01 5.66620E-14 2.35360E-13
 -1      1623 2.00354E+01 1.24074E+00-4.53403E-03 3.93198E-01 2.62110E-13 1.35348E-13
 -1      1624 2.00535E+01 7.92295E-01-6.61781E-03 3.68614E-01 2.82798E-13-2.67035E-14
 -1      1625 2.01177E+01 6.93560E-01-1.20305E-02 5.90866E-01 2.86068E-13 1.04903E-13
 -1      1626 2.00046E+01 2.16643E+00-7.40417E-04 4.65044E-01 2.34777E-14-2.00797E-13
 -1      1627 2.00239E+01 1.61793E+00-3.81895E-03 4.57289E-01 2.82052E-13-5.32629E-14
 -1      1628 2.00532E+01 1.36040E+00-8.17773E-03 8.18140E-01 1.81282E-13 9.55572E-15
 -1      1629 1.99752E+01 3.11859E+00 1.44916E-03 4.55149E-01 9.01952E-14-9.04706E-14
 -1      1630 1.99936E+01 2.57155E+00-1.01143E-03 4.63620E-01 2.83627E-14 3.59174E-15
 -1      1631 1.99994E+01 2.13523E+00 2.34501E-05 8.92933E-01 2.51170E-13-2.67612E-13
 -1      1632 1.99501E+01 3.92711E+00 2.72952E-03 3.69623E-01-1.15657E-13 9.08440E-14
 -1      1633 1.99649E+01 3.48115E+00 8.80272E-04 3.92256E-01-4.58696E-14-1.92244E-13
 -1      1634 1.99503E+01 2.89698E+00 8.65073E-03 8.14824E-01 3.17593E-14-1.70295E-13
 -1      1635 1.99332E+01 4.48274E+00 3.50648E-03 2.19878E-01 1.38693E-13 2.00524E-13
 -1      1636 1.99424E+01 4.19996E+00 2.47001E-03 2.54074E-01-4.06689E-14 1.22060E-13
 -1      1637 1.99108E+01 3.52774E+00 1.59191E-02 5.99833E-01-2.53920E-14 1.30920E-13
 -1      1638 1.99297E+01 4.67717E+00 3.37570E-03 3.50852E-02 1.03678E-13-2.30486E-13
 -1      1639 1.99305E+01 4.61065E+00 3.11080E-03 7.35172E-02 1.42403E-14 4.05856E-13
 -1      1640 1.98877E+01 3.92433E+00 2.04360E-02 2.82399E-01-4.53025E-14 2.79526E-13
 -1      1641 1.99401E+01 4.49015E+00 2.27849E-03-1.47497E-01-1.78801E-13-9.52918E-14
 -1      1642 1.99328E+01 4.64205E+00 2.78358E-03-1.12806E-01 9.87058E-16-3.74513E-13
 -1      1643 1.98868E+01 4.01450E+00 2.06391E-02-7.44985E-02-5.72475E-14-3.43670E-13
 -1      1644 1.99607E+01 3.97474E+00 5.23883E-04-2.92817E-01-6.61478E-13-3.81293E-13
 -1      1645 1.99477E+01 4.30574E+00 1.67196E-03-2.68384E-01-3.40070E-13 2.08522E-14
 -1      1646 1.99076E+01 3.79348E+00 1.65941E-02-4.00085E-01-1.59765E-13-2.66727E-13
 -1      1647 1.99849E+01 3.23897E+00-1.20298E-03-3.78977E-01-1.09650E-12-4.17698E-13
 -1      1648 1.99703E+01 3.68168E+00 4.02908E-04-3.67795E-01-5.24903E-13-4.52019E-13
 -1      1649 1.99425E+01 3.31662E+00 9.82787E-03-6.36244E-01-4.76891E-13-4.63026E-13
 -1      1650 2.00062E+01 2.42546E+00-2.24950E-03-4.02077E-01-1.06125E-12 1.84367E-13
 -1      1651 1.99933E+01 2.89740E+00-5.02157E-04-4.03036E-01-1.04060E-12-1.35973E-13
 -1      1652 1.99817E+01 2.68507E+00 2.68463E-03-7.53883E-01-4.41809E-13-4.12284E-13
 -1      1653 2.00224E+01 1.62244E+00-2.80529E-03-3.72662E-01-6.69877E-13 2.42629E-13
 -1      1654 2.00121E+01 2.07433E+00-9.95390E-04-3.82695E-01-1.09786E-12 4.71072E-13
 -1      1655 2.00149E+01 1.99959E+00-3.26078E-03-7.57944E-01-3.99153E-13 3.94328E-13
 -1      1656 2.00328E+01 9.35080E-01-3.17400E-03-3.05825E-01-4.16370E-13 1.55365E-13
 -1      1657 2.00252E+01 1.30975E+00-1.39374E-03-3.21080E-01-5.35714E-13 1.21894E-13
 -1      1658 2.00399E+01 1.34510E+00-7.34060E-03-6.71144E-01-2.74994E-13 3.21655E-13
 -1      1659 2.00432E+01 4.33167E-01 2.20709E-04-2.14387E-01-5.27051E-13-5.58264E-14
 -1      1660 2.00316E+01 6.88530E-01-2.89846E-03-2.31919E-01-4.34838E-13 9.52120E-14
 -1      1661 2.00596E+01 7.93958E-01-8.96512E-03-5.20261E-01-2.87450E-14 4.97120E-14
 -1      1662 2.00697E+01 1.69500E-01 4.99887E-03-1.48536E-01-1.81816E-13 1.46198E-13
 -1      1663 2.00660E+01 2.95105E-01-1.90663E-03-1.87767E-01-3.16680E-13 2.38581E-14
 -1      1664 2.01070E+01 4.22345E-01-7.11479E-03-3.88523E-01-4.61521E-14 1.07604E-13
 -1      1665 2.01854E+01 1.87663E-01-3.31380E-03-2.87652E-01 2.21111E-14 4.81327E-14
 -1      1666-6.75984E-01-1.57103E+01-1.76946E+00-1.11397E+00 8.08353E-13-9.21485E-15
 -1      1667-6.35757E-01-1.77272E+01-1.93246E+00 2.41500E-01 8.82211E-13 1.47382E-14
 -1      1668 9.32827E-01-9.50204E+00-1.36655E+00-9.38475E-02 9.14824E-13 6.21808E-13
 -1      1669 3.76528E-01-1.45511E+01-1.85253E+00-4.79464E-01 7.51621E-13 2.66683E-13
 -1      1670 6.19224E+00-1.41660E+00-6.73674E-01 3.96334E+00 1.10822E-12 7.71383E-13
 -1      1671 3.31156E+00-7.29741E+00-1.45248E+00 1.12473E+00 9.04832E-13 6.65801E-13
 -1      1672 1.63496E+01 4.44620E+00 1.31880E-01 9.22779E+00 8.63309E-13 7.30971E-13
 -1      1673 1.01612E+01 6.41874E-01-7.74798E-01 5.42464E+00 1.04672E-12 7.74381E-13
 -1      1674 3.00459E+01 6.51965E+00 9.27321E-01 1.26462E+01 7.04548E-13 1.03073E-12
 -1      1675 2.13974E+01 5.65529E+00 4.84834E-02 1.02040E+01 7.90812E-13 9.22595E-13
 -1      1676 4.45655E+01 5.51729E+00 1.57499E+00 1.16997E+01 6.00575E-13 3.54161E-14
 -1      1677 3.52907E+01 6.93289E+00 8.68001E-01 1.25096E+01 8.14238E-13 7.67608E-13
 -1      1678 5.39196E+01 3.97030E+00 1.87632E+00 5.43914E+00 2.46719E-13-9.76275E-13
 -1      1679 4.81250E+01 5.41667E+00 1.47376E+00 9.53556E+00 4.71401E-13-2.45581E-13
 -1      1680 5.63282E+01 3.65021E+00 1.97846E+00-2.61095E+00 2.10137E-13-1.27909E-12
 -1      1681 5.62583E+01 3.69730E+00 1.95826E+00 3.23988E+00 9.26481E-14-1.08247E-12
 -1      1682 4.82098E+01 5.18455E+00 1.48848E+00-9.35611E+00 3.44363E-13-1.27609E-12
 -1      1683 5.43646E+01 3.74864E+00 1.93593E+00-5.08726E+00 2.04309E-13-1.36241E-12
 -1      1684 3.49997E+01 6.49563E+00 7.89492E-01-1.19944E+01 4.63407E-13-1.07470E-12
 -1      1685 4.42438E+01 5.26745E+00 1.55230E+00-1.12727E+01 4.18943E-13-1.27365E-12
 -1      1686 2.07435E+01 5.21760E+00-4.29363E-02-9.69732E+00 6.99218E-13-8.58202E-13
 -1      1687 2.96968E+01 6.19469E+00 8.87693E-01-1.22291E+01 6.45484E-13-9.34586E-13
 -1      1688 9.73391E+00 2.45958E-01-7.92797E-01-5.05532E+00 5.47784E-13-7.32969E-13
 -1      1689 1.56827E+01 4.10919E+00 8.94578E-02-8.76159E+00 6.81899E-13-9.75220E-13
 -1      1690 3.57058E+00-7.53258E+00-1.36918E+00-1.21798E+00 1.75637E-13-2.98650E-13
 -1      1691 6.35863E+00-2.04108E+00-6.69240E-01-3.83910E+00 4.10116E-13-4.82281E-13
 -1      1692 1.81918E-01-1.44655E+01-1.84383E+00 6.64084E-01-2.11053E-13-7.53078E-14
 -1      1693 6.67743E-01-9.59959E+00-1.37774E+00 3.50689E-01 8.26006E-14-1.43233E-13
 -1      1694-6.76807E-01-1.75198E+01-1.92756E+00-8.68164E-02-6.33937E-13-1.96176E-13
 -1      1695-7.48064E-01-1.57629E+01-1.78704E+00 1.31218E+00-3.24796E-13-8.09075E-14
 -1      1696-6.37326E-01-1.52203E+01-1.72935E+00-9.74184E-01-1.14569E-12-3.30458E-13
 -1      1697-6.25233E-01-1.74388E+01-1.92797E+00 3.59878E-01-8.45574E-13-2.61235E-13
 -1      1698 1.08099E+00-8.60769E+00-1.27299E+00 1.92970E-01-9.28146E-13-1.59456E-13
 -1      1699 4.28475E-01-1.37283E+01-1.77789E+00-3.19245E-01-1.16041E-12-1.90046E-13
 -1      1700 6.22635E+00-9.34990E-01-6.16695E-01 4.12283E+00-5.79092E-13-4.88165E-13
 -1      1701 3.45786E+00-6.38338E+00-1.33661E+00 1.42661E+00-7.40297E-13-3.32512E-13
 -1      1702 1.58552E+01 4.62724E+00 1.33193E-01 9.15257E+00-4.15890E-13-1.99840E-14
 -1      1703 1.00029E+01 1.04885E+00-6.98875E-01 5.54842E+00-6.03961E-13-3.52496E-13
 -1      1704 2.91110E+01 6.55637E+00 8.57045E-01 1.24637E+01-6.13953E-14-2.53575E-13
 -1      1705 2.07088E+01 5.79215E+00 4.06291E-02 1.01126E+01-2.23377E-13-1.36113E-13
 -1      1706 4.30990E+01 5.46519E+00 1.45591E+00 1.12940E+01-1.90237E-13-7.30527E-14
 -1      1707 3.42606E+01 6.67759E+00 7.58763E-01 1.19605E+01-1.92957E-13-1.56541E-13
 -1      1708 5.35925E+01 3.79773E+00 1.89075E+00 5.78158E+00 3.63598E-15-3.75255E-14
 -1      1709 4.74561E+01 5.34606E+00 1.45114E+00 1.00070E+01-8.39884E-14-7.52731E-14
 -1      1710 5.53443E+01 3.61371E+00 1.86937E+00-3.05345E+00 1.10717E-13-7.56617E-14
 -1      1711 5.53057E+01 3.61617E+00 1.87782E+00 2.91359E+00 1.30479E-13 6.77236E-14
 -1      1712 4.75281E+01 5.39526E+00 1.42996E+00-9.78875E+00 5.63438E-14-1.81744E-13
 -1      1713 5.33240E+01 3.91894E+00 1.84121E+00-5.63740E+00 1.01891E-13-1.27565E-13
 -1      1714 3.48469E+01 6.81031E+00 8.20230E-01-1.21779E+01 1.37945E-13-2.20490E-13
 -1      1715 4.36412E+01 5.49789E+00 1.48691E+00-1.13731E+01 1.73500E-13-1.28120E-13
 -1      1716 2.10834E+01 5.90360E+00 8.63389E-02-1.03050E+01 5.75096E-13-3.33511E-13
 -1      1717 2.97151E+01 6.66199E+00 9.26467E-01-1.26938E+01 2.94431E-13-2.59348E-13
 -1      1718 1.00909E+01 8.87696E-01-7.06655E-01-5.55936E+00 5.84643E-13-5.89195E-13
 -1      1719 1.61443E+01 4.65218E+00 1.78504E-01-9.30527E+00 6.13287E-13-4.14890E-13
 -1      1720 3.42145E+00-7.00206E+00-1.36550E+00-1.33862E+00 4.71401E-13-3.08920E-13
 -1      1721 6.22592E+00-1.15798E+00-5.99283E-01-4.09998E+00 4.83169E-13-5.35794E-13
 -1      1722 6.46962E-01-1.41449E+01-1.72729E+00-3.33437E-02 3.63931E-13 1.14700E-13
 -1      1723 1.34291E+00-9.10463E+00-1.22523E+00-5.12303E-01 3.06311E-13-2.46900E-13
 -1      1724-6.73424E-01-1.79921E+01-1.97954E+00-3.41837E-01 7.36883E-13 1.68587E-13
 -1      1725-7.03496E-01-1.58891E+01-1.77968E+00 1.07443E+00 2.81719E-13 2.57488E-13
 -1      1726 2.35769E+01 3.99989E-01 1.91032E-01 7.51403E+00 5.25135E-13 5.69433E-13
 -1      1727 1.34318E+01-3.84029E+00-4.36678E-01 6.21481E+00 6.60139E-13 4.41258E-13
 -1      1728 2.00828E+01 9.88932E-02-9.55640E-03 1.09900E-01-1.05908E-13 1.19948E-13
 -1      1729 2.01887E+01 2.71490E-01-6.47412E-03 3.35475E-01 5.82039E-14 3.34973E-13
 -1      1730 2.78445E-01-1.12281E+01-1.27871E+00 2.04205E+00 7.84484E-13 1.82743E-13
 -1      1731 5.26621E+00-8.19819E+00-9.78612E-01 4.14671E+00 5.93081E-13 6.87825E-13
 -1      1732-1.42803E+00-1.23733E+01-1.38748E+00-1.73526E-02 6.86048E-13 2.28983E-13
 -1      1733 3.41254E+01 3.78316E+00 8.30213E-01 7.41531E+00 6.43263E-13 2.40474E-13
 -1      1734 4.25641E+01 6.16980E+00 1.31095E+00 5.15804E+00 9.17599E-13-2.69118E-13
 -1      1735 4.74627E+01 7.36849E+00 1.57149E+00 1.85972E+00 4.97546E-13-4.85223E-13
 -1      1736 4.79004E+01 7.19688E+00 1.62267E+00-1.46415E+00 2.09055E-13-6.74849E-13
 -1      1737 4.26929E+01 5.87345E+00 1.31355E+00-4.86307E+00 2.16660E-13-8.00027E-13
 -1      1738 3.37964E+01 3.48405E+00 7.99427E-01-6.95454E+00 2.79443E-13-6.62470E-13
 -1      1739 2.30830E+01 7.21273E-02 1.48050E-01-7.09746E+00 3.55604E-13-6.01186E-13
 -1      1740 1.31997E+01-4.24470E+00-4.68474E-01-5.91785E+00 1.69087E-13-7.09932E-13
 -1      1741 5.26951E+00-8.05601E+00-8.91365E-01-4.12073E+00-7.90479E-14-3.31523E-13
 -1      1742 7.19584E-03-1.11890E+01-1.28972E+00-1.68759E+00-3.11084E-13-2.89435E-13
 -1      1743-1.43211E+00-1.22558E+01-1.38413E+00 2.51110E-01-5.82999E-13-4.40536E-13
 -1      1744 3.15449E-01-1.08301E+01-1.24995E+00 2.20991E+00-7.63389E-13-1.71030E-13
 -1      1745 5.34050E+00-7.50710E+00-8.99335E-01 4.27444E+00-6.26832E-13-9.75747E-14
 -1      1746 1.31362E+01-3.25797E+00-3.90085E-01 6.25434E+00-4.61187E-13-2.65510E-13
 -1      1747 2.28820E+01 7.57209E-01 2.02562E-01 7.53419E+00-4.73177E-13-2.74225E-14
 -1      1748 3.30914E+01 3.83845E+00 7.74841E-01 7.17000E+00-1.35086E-13-1.46549E-13
 -1      1749 4.18437E+01 5.93312E+00 1.23009E+00 5.24148E+00-1.86601E-13-8.99281E-14
 -1      1750 4.74389E+01 7.16355E+00 1.60053E+00 1.97767E+00-5.60663E-15-1.42497E-13
 -1      1751 4.71397E+01 7.26580E+00 1.55944E+00-1.99225E+00 1.23568E-13-6.64468E-14
 -1      1752 4.18870E+01 6.16354E+00 1.25140E+00-5.19677E+00 1.11383E-13-3.09752E-13
 -1      1753 3.35897E+01 3.97790E+00 8.36187E-01-7.31577E+00 2.95070E-13-2.39475E-13
 -1      1754 2.32738E+01 7.03679E-01 2.33261E-01-7.66495E+00 5.42233E-13-1.30784E-13
 -1      1755 1.32819E+01-3.60934E+00-4.07744E-01-6.34323E+00 4.66405E-13-5.37070E-13
 -1      1756 5.47718E+00-7.91788E+00-9.09032E-01-4.49750E+00 3.75366E-13-4.16091E-13
 -1      1757 4.40873E-01-1.09384E+01-1.20060E+00-2.48397E+00 4.72455E-13-2.12608E-14
 -1      1758 2.28588E+01 1.98496E+00-2.35537E-02-2.72279E+00-1.76168E-13 3.83027E-13
 -1      1759 1.98254E+01 3.71355E+00-3.54072E-02-2.15378E+00-1.67096E-13-3.85882E-13
 -1      1760 2.00576E+01 3.56268E+00-4.02611E-02-2.44597E+00-2.06080E-13-3.34864E-13
 -1      1761 2.03628E+01 3.18149E+00-4.58177E-02-2.58554E+00-2.17504E-13-2.50244E-13
 -1      1762 2.05829E+01 2.80980E+00-1.42529E-01-2.85382E+00-2.43281E-13-1.43385E-13
 -1      1763 2.04238E+01 2.69305E+00-4.13271E-03-2.22517E+00-2.33722E-13-2.70967E-13
 -1      1764 1.93555E+01 4.18863E+00-2.00404E-02-1.27114E+00-5.16481E-14-4.29967E-13
 -1      1765 1.94289E+01 4.14913E+00-1.69404E-02-1.49563E+00-7.78618E-14-4.30649E-13
 -1      1766 1.92591E+01 4.29451E+00-1.67446E-02-8.59986E-01 3.46988E-15-4.30911E-13
 -1      1767 1.93017E+01 4.27057E+00-1.42279E-02-1.07082E+00-2.50559E-14-4.37848E-13
 -1      1768 1.95278E+01 3.78293E+00-8.91273E-03-1.12006E+00-4.04115E-14-4.21231E-13
 -1      1769 1.92078E+01 4.35491E+00-1.47952E-02-4.66994E-01 6.12318E-14-4.02706E-13
 -1      1770 1.92296E+01 4.34205E+00-1.33063E-02-6.67372E-01 3.49722E-14-4.21423E-13
 -1      1771 1.94306E+01 3.90306E+00-9.14925E-03-7.33516E-01 2.59678E-14-4.14760E-13
 -1      1772 1.91884E+01 4.38051E+00-1.36726E-02-8.36500E-02 1.03820E-13-3.96318E-13
 -1      1773 1.91948E+01 4.37658E+00-1.32204E-02-2.79185E-01 8.73213E-14-4.03084E-13
 -1      1774 1.93805E+01 3.96745E+00-9.15386E-03-3.58458E-01 7.57816E-14-3.89805E-13
 -1      1775 1.91964E+01 4.37521E+00-1.31761E-02 2.98289E-01 1.43408E-13-3.64091E-13
 -1      1776 1.91889E+01 4.37968E+00-1.37567E-02 1.02597E-01 1.22783E-13-3.85109E-13
 -1      1777 1.93657E+01 3.98685E+00-9.14765E-03 1.05894E-02 1.19719E-13-3.81062E-13
 -1      1778 1.92336E+01 4.33803E+00-1.33350E-02 6.87192E-01 1.72705E-13-3.44700E-13
 -1      1779 1.92104E+01 4.35173E+00-1.49203E-02 4.86311E-01 1.58396E-13-3.56349E-13
 -1      1780 1.93831E+01 3.96414E+00-9.19114E-03 3.79814E-01 1.59154E-13-3.51538E-13
 -1      1781 1.93069E+01 4.26463E+00-1.44163E-02 1.08500E+00 2.08536E-13-2.92776E-13
 -1      1782 1.92636E+01 4.28910E+00-1.69761E-02 8.76960E-01 1.91174E-13-3.23890E-13
 -1      1783 1.94357E+01 3.89666E+00-9.19729E-03 7.52136E-01 2.00026E-13-3.21351E-13
 -1      1784 1.94382E+01 4.13745E+00-1.74109E-02 1.51512E+00 2.58821E-13-2.02890E-13
 -1      1785 1.93619E+01 4.18003E+00-2.05029E-02 1.28554E+00 2.27323E-13-2.51844E-13
 -1      1786 1.95351E+01 3.77278E+00-9.24649E-03 1.13604E+00 2.33690E-13-2.56784E-13
 -1      1787 1.96671E+01 3.92096E+00-2.52011E-02 1.98026E+00 2.94205E-13-1.03476E-13
 -1      1788 1.95344E+01 3.99773E+00-2.69004E-02 1.72290E+00 2.71214E-13-1.64525E-13
 -1      1789 1.97082E+01 3.56577E+00-8.70327E-03 1.53588E+00 2.83084E-13-1.71555E-13
 -1      1790 2.00754E+01 3.52271E+00-4.51908E-02 2.47267E+00 3.08763E-13 6.60028E-14
 -1      1791 1.98355E+01 3.68316E+00-3.97201E-02 2.18359E+00 3.00647E-13-3.76227E-14
 -1      1792 2.00043E+01 3.22274E+00-5.27058E-03 1.93524E+00 3.06196E-13-5.52041E-14
 -1      1793 2.09206E+01 2.68181E+00-5.76534E-02 2.85828E+00 2.78817E-13 3.67650E-13
 -1      1794 2.04133E+01 3.09691E+00-5.04274E-02 2.61654E+00 2.88972E-13 1.86254E-13
 -1      1795 2.05171E+01 2.60988E+00 3.18674E-03 2.24517E+00 3.03946E-13 1.28030E-13
 -1      1796 2.17308E+01 1.21300E+00-1.22096E-01 2.33024E+00 2.23183E-13 7.02521E-13
 -1      1797 2.12743E+01 2.26306E+00 1.19216E-04 2.74090E+00 2.54500E-13 4.85875E-13
 -1      1798 2.09370E+01 1.68502E+00-2.29650E-02 2.14072E+00 2.73274E-13 3.53471E-13
 -1      1799 2.09520E+01 7.78686E-01-6.24568E-02 1.52456E+00 2.21739E-13 6.21309E-13
 -1      1800 2.17967E+01 2.45828E+00 9.09202E-02-3.04862E+00-2.25113E-13 5.49699E-14
 -1      1801 2.01009E+01 2.97919E-01-8.92051E-03 6.57436E-01 1.62564E-13 5.19838E-13
 -1      1802 2.06531E+01 4.40399E-01-1.24688E-02 1.03445E+00 1.71953E-13 5.67727E-13
 -1      1803 2.07444E+01 8.45121E-01 2.25312E-03 1.41561E+00 2.13416E-13 4.13208E-13
 -1      1804 2.15070E+01 1.74237E+00 7.94400E-02-2.33765E+00-2.37553E-13-1.73958E-14
 -1      1805 2.05201E+01 5.00804E-01 3.24267E-02-9.21916E-01-1.82583E-13-4.33791E-14
 -1      1806 2.00882E+01 3.51904E-01 7.52117E-03-6.29921E-01-1.58509E-13-8.44949E-14
 -1      1807 1.98944E+01 2.56634E-01 2.74127E-02-3.91885E-01-1.49157E-13-7.38368E-14
 -1      1808 1.97029E+01 1.77608E-01 1.03408E-02-2.54646E-01-1.30653E-13-1.15532E-13
 -1      1809 2.01980E+01 4.81125E-01-6.64669E-03-7.22934E-01-1.74943E-13-1.26392E-13
 -1      1810 1.95804E+01 1.32967E-01 1.66476E-02-1.20773E-01-1.16000E-13-1.17194E-13
 -1      1811 1.95020E+01 9.30975E-02 6.92277E-03-4.99582E-02-8.28283E-14-1.29581E-13
 -1      1812 1.98719E+01 2.42914E-01-6.22154E-03-2.96822E-01-1.34721E-13-1.28727E-13
 -1      1813 1.94370E+01 6.82500E-02 8.68354E-03 2.34701E-02-7.47683E-14-1.26889E-13
 -1      1814 1.94222E+01 4.65115E-02 4.11080E-03 5.95486E-02-6.26374E-14-1.56166E-13
 -1      1815 1.96891E+01 1.25159E-01-4.64430E-03-5.98803E-02-9.80847E-14-1.49319E-13
 -1      1816 1.93959E+01 3.21710E-02 4.24275E-03 9.81013E-02-6.23221E-14-1.53572E-13
 -1      1817 1.94152E+01 1.97513E-02 2.43345E-03 1.14759E-01-5.39867E-14-1.71488E-13
 -1      1818 1.96022E+01 6.06104E-02-3.44842E-03 6.93602E-02-7.21736E-14-1.59310E-13
 -1      1819 1.94132E+01 1.11471E-02 1.86071E-03 1.32576E-01-6.73691E-14-1.68408E-13
 -1      1820 1.94498E+01 4.00941E-03 1.45208E-03 1.37921E-01-4.80560E-14-1.96344E-13
 -1      1821 1.95775E+01 2.37928E-02-2.33536E-03 1.35498E-01-6.54777E-14-1.73649E-13
 -1      1822 1.94621E+01-1.13017E-03 5.63259E-04 1.43274E-01-3.95857E-14-1.77635E-13
 -1      1823 1.95059E+01-5.03957E-03 8.48619E-04 1.42045E-01-3.07822E-14-1.63566E-13
 -1      1824 1.95906E+01 2.39081E-03-1.44565E-03 1.63680E-01-4.31566E-14-1.68155E-13
 -1      1825 1.95258E+01-7.94184E-03-1.50467E-04 1.40110E-01-7.75176E-14-1.79641E-13
 -1      1826 1.95708E+01-9.78356E-03 4.70666E-04 1.35288E-01-7.06250E-14-1.72166E-13
 -1      1827 1.96249E+01-9.65223E-03-8.11302E-04 1.69138E-01-4.57225E-14-1.46141E-13
 -1      1828 1.95940E+01-1.11873E-02-5.25084E-04 1.29436E-01-7.05211E-14-1.67276E-13
 -1      1829 1.96370E+01-1.16688E-02 2.45309E-04 1.22976E-01-4.19851E-14-1.94778E-13
 -1      1830 1.96696E+01-1.56979E-02-3.92986E-04 1.61601E-01-1.05827E-13-1.70973E-13
 -1      1831 1.96609E+01-1.20469E-02-6.89769E-04 1.15467E-01-2.66335E-14-2.54143E-13
 -1      1832 1.97003E+01-1.16162E-02 1.32124E-04 1.08684E-01 1.20712E-14-2.45343E-13
 -1      1833 1.97180E+01-1.77747E-02-1.38786E-04 1.47493E-01-6.70742E-14-1.76017E-13
 -1      1834 1.97236E+01-1.12785E-02-7.20184E-04 1.01064E-01 1.26559E-15-2.83837E-13
 -1      1835 1.97590E+01-1.02196E-02 1.06144E-04 9.48636E-02 2.20093E-15-3.01460E-13
 -1      1836 1.97662E+01-1.71643E-02-4.86117E-06 1.31170E-01-6.40387E-15-2.21478E-13
 -1      1837 1.97811E+01-9.36677E-03-6.64062E-04 8.82143E-02 7.00877E-15-3.21931E-13
 -1      1838 1.98129E+01-7.85192E-03 1.51699E-04 8.32416E-02-1.71971E-14-2.93526E-13
 -1      1839 1.98123E+01-1.46841E-02 4.12511E-05 1.15643E-01-2.49862E-14-2.44170E-13
 -1      1840 1.98339E+01-6.60692E-03-5.52492E-04 7.83558E-02-6.05613E-14-2.97568E-13
 -1      1841 1.98630E+01-4.72861E-03 2.59643E-04 7.50985E-02-8.39665E-14-2.65523E-13
 -1      1842 1.98560E+01-1.08385E-02 2.23152E-05 1.03066E-01-4.87286E-14-2.56181E-13
 -1      1843 1.98836E+01-3.15821E-03-4.05757E-04 7.25978E-02-1.13983E-13-2.68661E-13
 -1      1844 1.99116E+01-9.51721E-04 4.25444E-04 7.14627E-02-8.95728E-14-2.91357E-13
 -1      1845 1.98981E+01-5.90993E-03-4.61619E-05 9.50603E-02-9.75005E-14-2.33960E-13
 -1      1846 1.99326E+01 9.16640E-04-2.36962E-04 7.18827E-02-4.80377E-14-2.50606E-13
 -1      1847 1.99612E+01 3.45441E-03 6.47403E-04 7.32472E-02-8.76307E-15-2.51069E-13
 -1      1848 1.99400E+01-2.32633E-05-1.53854E-04 9.29484E-02-6.48071E-14-1.87592E-13
 -1      1849 1.99840E+01 5.61710E-03-5.46375E-05 7.70943E-02-5.53810E-15-3.29335E-13
 -1      1850 2.00153E+01 8.50923E-03 9.24637E-04 8.13377E-02 7.09285E-16-3.46161E-13
 -1      1851 1.99841E+01 6.80104E-03-2.93897E-04 9.79156E-02-3.75064E-14-1.88186E-13
 -1      1852 2.00413E+01 1.09695E-02 1.35170E-04 8.91168E-02 3.14429E-15-3.42606E-13
 -1      1853 2.00780E+01 1.42377E-02 1.25450E-03 9.66294E-02-2.76927E-14-3.73630E-13
 -1      1854 2.00332E+01 1.45942E-02-4.61357E-04 1.11104E-01-6.09510E-15-2.69496E-13
 -1      1855 2.01089E+01 1.69851E-02 3.27049E-04 1.08840E-01-4.65971E-14-3.78344E-13
 -1      1856 2.01536E+01 2.06212E-02 1.62906E-03 1.20006E-01 1.92561E-14-4.23238E-13
 -1      1857 2.00905E+01 2.33781E-02-6.51792E-04 1.33641E-01-4.37989E-14-3.07575E-13
 -1      1858 2.01915E+01 2.36033E-02 5.14464E-04 1.37098E-01 9.87638E-14-3.87732E-13
 -1      1859 2.02473E+01 2.75310E-02 2.03013E-03 1.52239E-01 1.13476E-13-3.61632E-13
 -1      1860 2.01597E+01 3.30851E-02-8.59819E-04 1.66587E-01 3.82369E-14-3.51150E-13
 -1      1861 2.02941E+01 3.06141E-02 6.88064E-04 1.74518E-01 1.33653E-13-3.10061E-13
 -1      1862 2.03641E+01 3.46316E-02 2.42242E-03 1.93787E-01 1.06069E-13-2.11826E-13
 -1      1863 2.02449E+01 4.34471E-02-1.07774E-03 2.10780E-01 1.75958E-13-2.42859E-13
 -1      1864 2.04220E+01 3.75450E-02 8.34184E-04 2.21238E-01 3.70678E-15-1.30331E-13
 -1      1865 2.05092E+01 4.12452E-02 2.74439E-03 2.44443E-01 4.84170E-14-1.38372E-13
 -1      1866 2.03504E+01 5.38373E-02-1.29425E-03 2.66535E-01 1.00391E-13-1.32055E-13
 -1      1867 2.05802E+01 4.35040E-02 9.33869E-04 2.76458E-01 4.82502E-14-1.71860E-13
 -1      1868 2.06870E+01 4.61658E-02 2.89734E-03 3.02778E-01-1.72878E-14-1.37254E-13
 -1      1869 2.04803E+01 6.30478E-02-1.49338E-03 3.33157E-01 4.98249E-14-1.08042E-13
 -1      1870 2.07728E+01 4.69703E-02 9.63107E-04 3.37749E-01-3.75732E-14-7.76561E-14
 -1      1871 2.09003E+01 4.74238E-02 2.73471E-03 3.65333E-01 1.15825E-14-1.27117E-13
 -1      1872 2.06384E+01 6.89921E-02-1.65371E-03 4.08194E-01-8.77120E-17-8.98075E-14
 -1      1873 2.10020E+01 4.55475E-02 8.95211E-04 4.00087E-01-1.78796E-15-1.82912E-13
 -1      1874 2.11490E+01 4.20395E-02 2.05727E-03 4.25503E-01-4.60239E-14-2.26319E-13
 -1      1875 2.08273E+01 6.83478E-02-1.74767E-03 4.86377E-01-2.09042E-14-1.76877E-13
 -1      1876 2.12666E+01 3.57432E-02 7.06130E-04 4.54593E-01-1.01342E-13-2.56970E-13
 -1      1877 2.14283E+01 2.58817E-02 6.26189E-04 4.72199E-01-4.17509E-14-2.74026E-13
 -1      1878 2.10479E+01 5.62241E-02-1.73959E-03 5.58235E-01-2.98805E-14-3.13548E-13
 -1      1879 2.15602E+01 1.29570E-02 3.81470E-04 4.87159E-01-4.24482E-14-2.45358E-13
 -1      1880 2.17264E+01-6.08638E-03-1.78525E-03 4.88557E-01 3.74071E-15-2.50323E-13
 -1      1881 2.12982E+01 2.60898E-02-1.57968E-03 6.08522E-01-2.36652E-14-2.92368E-13
 -1      1882 2.18685E+01-2.79355E-02-7.99781E-05 4.77437E-01 7.73398E-14-2.93193E-13
 -1      1883 2.20220E+01-5.86370E-02-5.27175E-03 4.51467E-01 1.24791E-13-2.91112E-13
 -1      1884 2.15718E+01-2.95183E-02-1.18849E-03 6.14894E-01-2.04914E-15-3.04737E-13
 -1      1885 2.21666E+01-9.07271E-02-6.79229E-04 3.99371E-01 9.33541E-14-3.99565E-13
 -1      1886 2.22825E+01-1.33373E-01-9.58241E-03 3.33510E-01 3.31315E-14-3.46515E-13
 -1      1887 2.18561E+01-1.16591E-01-4.27699E-04 5.47926E-01 5.10442E-14-3.75921E-13
 -1      1888 2.24162E+01-1.73895E-01-1.45579E-03 2.25365E-01-2.02702E-14-3.67857E-13
 -1      1889 2.24633E+01-2.23368E-01-1.38246E-02 1.09775E-01-7.96945E-14-3.38102E-13
 -1      1890 2.21296E+01-2.34360E-01 9.30889E-04 3.74525E-01 3.47008E-14-4.85124E-13
 -1      1891 2.25651E+01-2.64124E-01-2.53564E-03-6.29397E-02-1.39453E-13-2.69735E-13
 -1      1892 2.25112E+01-3.05966E-01-1.62366E-02-2.27596E-01-1.05423E-13-3.19607E-13
 -1      1893 2.23587E+01-3.66475E-01 3.19107E-03 6.78707E-02-6.18381E-14-3.73461E-13
 -1      1894 2.25516E+01-3.29394E-01-4.10985E-03-4.55011E-01-1.14197E-14-2.26562E-13
 -1      1895 2.23749E+01-3.38414E-01-1.44571E-02-6.46789E-01 9.11016E-14-1.26197E-13
 -1      1896 2.24948E+01-4.71029E-01 6.48640E-03-3.72844E-01 3.18755E-15-1.82230E-13
 -1      1897 2.23207E+01-3.19207E-01-6.09481E-03-8.86323E-01 1.07052E-13-8.55232E-14
 -1      1898 2.20259E+01-2.67099E-01-6.87771E-03-1.05401E+00 1.16858E-13-3.73668E-14
 -1      1899 2.24785E+01-4.79232E-01 1.00333E-02-8.93489E-01 1.38698E-13 1.57400E-14
 -1      1900 2.18579E+01-1.84619E-01-7.51713E-03-1.22475E+00 1.52261E-14-1.49476E-13
 -1      1901 2.14900E+01-6.10762E-02 5.09310E-03-1.29480E+00-5.84838E-14-1.98054E-13
 -1      1902 2.22594E+01-3.19182E-01 1.13064E-02-1.36031E+00-2.22799E-14-1.47027E-13
 -1      1903 2.12334E+01 7.74457E-02-6.03294E-03-1.29956E+00-1.14803E-13-2.32659E-13
 -1      1904 2.08772E+01 2.39454E-01 1.59460E-02-1.20892E+00-1.56816E-13-1.96248E-13
 -1      1905 2.18417E+01 2.66514E-02 6.71930E-03-1.57275E+00-1.07668E-13-6.41705E-14
 -1      1906 2.06201E+01 3.81992E-01 6.65264E-04-9.92666E-01-1.68535E-13-1.48657E-13
 -1      1907 2.03758E+01 5.05931E-01 1.90464E-02-7.38817E-01-1.40991E-13-2.65410E-13
 -1      1908 2.13336E+01 4.61562E-01-4.28353E-03-1.34996E+00-1.73023E-13-1.09777E-13
 -1      1909 2.02373E+01 5.75337E-01 1.13371E-02-3.51400E-01 4.69173E-14-2.23680E-13
 -1      1910 2.01768E+01 5.87294E-01 1.25329E-02-1.87957E-02 1.12400E-13-1.24858E-13
 -1      1911 2.09399E+01 7.86420E-01-1.47772E-02-6.74866E-01-4.17132E-14-5.69646E-14
 -1      1912 2.02231E+01 5.38876E-01 1.90384E-02 3.85499E-01 9.38138E-14-1.03665E-13
 -1      1913 2.03531E+01 4.30768E-01 1.47648E-03 6.62664E-01 1.56036E-13-1.07133E-13
 -1      1914 2.08472E+01 8.17481E-01-1.62110E-02 2.21002E-01 1.76841E-13 1.04150E-13
 -1      1915 2.05384E+01 2.95702E-01 1.78252E-02 9.18285E-01 1.01268E-13-7.65187E-15
 -1      1916 2.07962E+01 1.31309E-01-6.66741E-03 1.04038E+00-1.06717E-13 4.95324E-14
 -1      1917 2.10762E+01 5.35108E-01-7.32077E-03 9.62054E-01 9.45719E-14 7.13659E-14
 -1      1918 2.10055E+01-1.61789E-02 8.17015E-03 1.07183E+00-2.70165E-13 1.16761E-13
 -1      1919 2.12916E+01-1.55076E-01-9.02176E-03 1.02295E+00-2.15435E-13 9.59866E-14
 -1      1920 2.14649E+01 9.80901E-02 4.75289E-03 1.27250E+00-1.62052E-13 2.29423E-13
 -1      1921 2.14223E+01-2.52160E-01-4.16773E-03 8.67794E-01-1.86414E-13 8.70398E-14
 -1      1922 2.16447E+01-3.19860E-01-7.61468E-03 7.04366E-01 2.31568E-14 1.32663E-13
 -1      1923 2.17966E+01-2.85183E-01 1.10873E-02 1.11749E+00-1.86359E-13 3.98000E-13
 -1      1924 2.16587E+01-3.49219E-01-1.28826E-02 4.60506E-01 1.78181E-13-1.33185E-13
 -1      1925 2.17645E+01-3.47417E-01-4.93938E-03 2.60977E-01 1.20385E-13 5.37520E-15
 -1      1926 2.19356E+01-4.85413E-01 1.06912E-02 6.61399E-01-4.30125E-15 2.46500E-13
 -1      1927 2.16759E+01-3.24906E-01-1.55812E-02 2.10208E-02 5.28501E-14 1.57713E-13
 -1      1928 2.16573E+01-2.79031E-01-2.08105E-03-1.52522E-01 2.04976E-13 2.91879E-13
 -1      1929 2.18611E+01-4.95992E-01 7.16451E-03 1.20601E-01 2.36324E-13 4.93755E-13
 -1      1930 2.15012E+01-2.29303E-01-1.35034E-02-3.31277E-01 3.38580E-13 1.14934E-13
 -1      1931 2.13839E+01-1.64746E-01 7.23962E-04-4.44847E-01 3.92828E-13 1.04561E-13
 -1      1932 2.16212E+01-3.79759E-01 3.36922E-03-3.41234E-01 2.51061E-13 5.79539E-13
 -1      1933 2.11955E+01-1.06150E-01-9.17390E-03-5.38772E-01 1.31898E-13 1.45539E-14
 -1      1934 2.10224E+01-3.87164E-02 3.31810E-03-5.80472E-01-4.33267E-14-7.78162E-14
 -1      1935 2.12840E+01-2.05240E-01 4.40457E-04-6.38966E-01 2.11240E-13 1.39142E-13
 -1      1936 2.08295E+01 1.91970E-02-4.79655E-03-5.87688E-01 4.97644E-14-1.03984E-13
 -1      1937 2.06466E+01 8.21866E-02 5.25707E-03-5.58613E-01 1.13189E-13-7.83618E-15
 -1      1938 2.09117E+01-1.85495E-02-1.38677E-03-7.46529E-01 1.26707E-14 9.89005E-14
 -1      1939 2.04859E+01 1.23421E-01-1.66253E-03-4.89108E-01 3.03813E-13 4.44549E-14
 -1      1940 2.03331E+01 1.71772E-01 7.27293E-03-4.04385E-01 2.25163E-13 1.27731E-13
 -1      1941 2.02888E+01 2.51129E-01-1.08776E-03-4.81900E-01 1.35306E-13 6.18236E-14
 -1      1942 2.05693E+01 1.53188E-01-1.93981E-04-6.76051E-01 2.00658E-13 2.34557E-13
 -1      1943 1.96178E+01 1.41993E-01 7.87845E-03 2.59871E-01 1.42317E-13 4.31245E-13
 -1      1944 1.98901E+01 2.04060E-01 1.64326E-02 4.32838E-01 1.50524E-13 4.88993E-13
 -1      1945 2.01018E+01 3.50513E-01-1.52602E-03 6.55505E-01 1.81063E-13 3.49177E-13
 -1      1946 1.93751E+01 7.18621E-02 6.94153E-03 5.69725E-02 1.15772E-13 3.34138E-13
 -1      1947 1.94903E+01 1.01750E-01 1.41937E-02 1.45450E-01 1.10794E-13 3.91583E-13
 -1      1948 1.97087E+01 1.65121E-01-1.94342E-03 2.56836E-01 1.51539E-13 2.91535E-13
 -1      1949 1.92841E+01 3.60861E-02 4.42389E-03-4.83952E-02 8.94358E-14 2.80772E-13
 -1      1950 1.93146E+01 5.19005E-02 8.33406E-03-1.24042E-03 9.51958E-14 3.07403E-13
 -1      1951 1.95081E+01 8.06011E-02-2.82449E-03 4.49417E-02 1.25811E-13 1.98666E-13
 -1      1952 1.92819E+01 1.61706E-02 2.85758E-03-1.00812E-01 6.80506E-14 2.06518E-13
 -1      1953 1.92670E+01 2.50187E-02 4.35041E-03-7.62338E-02 7.83531E-14 2.69656E-13
 -1      1954 1.94287E+01 3.74053E-02-2.84248E-03-6.68583E-02 1.04131E-13 1.50885E-13
 -1      1955 1.93286E+01 4.58365E-03 1.98571E-03-1.22897E-01 8.62043E-14 1.37619E-13
 -1      1956 1.92906E+01 9.59499E-03 2.14959E-03-1.11486E-01 6.69026E-14 1.72878E-13
 -1      1957 1.94218E+01 1.36206E-02-2.31444E-03-1.22368E-01 9.86741E-14 9.67842E-14
 -1      1958 1.93997E+01-2.12848E-03 1.44846E-03-1.27214E-01 7.73675E-14 1.30666E-13
 -1      1959 1.93515E+01 5.82773E-04 9.57076E-04-1.23686E-01 8.18364E-14 1.32599E-13
 -1      1960 1.94560E+01 1.21697E-04-1.69648E-03-1.44988E-01 8.99868E-14 5.54098E-14
 -1      1961 1.94800E+01-5.77465E-03 1.07520E-03-1.21374E-01 6.34598E-14 5.85353E-14
 -1      1962 1.94292E+01-4.50594E-03 2.92899E-04-1.22486E-01 8.75637E-14 1.29793E-13
 -1      1963 1.95114E+01-7.34520E-03-1.17915E-03-1.48256E-01 9.20299E-14 6.67488E-14
 -1      1964 1.95606E+01-7.41014E-03 8.03029E-04-1.10244E-01 3.43343E-14 8.86852E-14
 -1      1965 1.95116E+01-7.06449E-03-7.76263E-05-1.13893E-01 3.39731E-14 6.16533E-14
 -1      1966 1.95756E+01-1.10304E-02-7.95055E-04-1.40565E-01 6.35112E-14 7.10203E-14
 -1      1967 1.96367E+01-7.69424E-03 6.06701E-04-9.70486E-02 8.46974E-14 7.98067E-14
 -1      1968 1.95917E+01-7.94073E-03-2.68313E-04-1.01819E-01 6.62828E-14 9.05077E-14
 -1      1969 1.96411E+01-1.22519E-02-5.26069E-04-1.27361E-01 7.85714E-14 8.69197E-14
 -1      1970 1.97060E+01-7.04959E-03 4.73201E-04-8.39701E-02-1.17578E-14 6.40666E-14
 -1      1971 1.96658E+01-7.67402E-03-3.40943E-04-8.88846E-02 5.85639E-14 7.43922E-14
 -1      1972 1.97037E+01-1.18284E-02-3.47415E-04-1.12287E-01 5.16841E-14 3.55948E-14
 -1      1973 1.97683E+01-5.74140E-03 3.94700E-04-7.25285E-02 2.05910E-14-8.55006E-15
 -1      1974 1.97328E+01-6.60796E-03-3.32717E-04-7.68910E-02-2.91526E-14 3.62755E-14
 -1      1975 1.97617E+01-1.02759E-02-2.38813E-04-9.78430E-02 2.95087E-15-9.74809E-15
 -1      1976 1.98246E+01-3.92133E-03 3.66819E-04-6.38373E-02 3.06512E-14 3.41471E-14
 -1      1977 1.97931E+01-4.94988E-03-2.66965E-04-6.71233E-02 2.33415E-14 4.06999E-14
 -1      1978 1.98151E+01-7.90670E-03-1.85747E-04-8.58031E-02 2.65268E-14-2.72465E-14
 -1      1979 1.98773E+01-1.65458E-03 3.88173E-04-5.87920E-02-4.47527E-14 4.52117E-14
 -1      1980 1.98482E+01-2.80591E-03-1.57917E-04-6.05667E-02 1.67633E-14 3.78852E-14
 -1      1981 1.98648E+01-4.88499E-03-1.78484E-04-7.75111E-02 3.76017E-14-2.90436E-15
 -1      1982 1.99292E+01 1.06199E-03 4.60165E-04-5.82135E-02 3.92425E-14-1.92971E-14
 -1      1983 1.99009E+01-2.03513E-04-1.33613E-05-5.80684E-02-6.10562E-15 2.31414E-14
 -1      1984 1.99131E+01-1.26130E-03-2.11046E-04-7.40955E-02-3.62576E-15-1.87900E-14
 -1      1985 1.99843E+01 4.28701E-03 5.86806E-04-6.29616E-02 8.57098E-14-4.76448E-14
 -1      1986 1.99545E+01 2.89292E-03 1.63557E-04-6.04622E-02 7.01126E-14-3.54966E-14
 -1      1987 1.99627E+01 3.00390E-03-2.80452E-04-7.66349E-02 1.00861E-13-1.03932E-13
 -1      1988 2.00472E+01 8.12389E-03 7.74415E-04-7.40246E-02 6.23569E-14-1.13363E-13
 -1      1989 2.00132E+01 6.57021E-03 3.72943E-04-6.86682E-02 9.28073E-14-5.89051E-14
 -1      1990 2.00173E+01 8.02270E-03-3.86107E-04-8.62878E-02 1.03879E-13-1.12544E-13
 -1      1991 2.01234E+01 1.27096E-02 1.03098E-03-9.25886E-02-5.87957E-14-1.05413E-13
 -1      1992 2.00821E+01 1.09552E-02 6.16818E-04-8.37689E-02-5.72450E-14-1.40584E-13
 -1      1993 2.00813E+01 1.39640E-02-5.29274E-04-1.04392E-01-8.08327E-15-1.35060E-13
 -1      1994 2.02195E+01 1.81989E-02 1.36476E-03-1.20079E-01-5.12398E-14 4.41786E-14
 -1      1995 2.01671E+01 1.62011E-02 8.97564E-04-1.07063E-01-5.08025E-14-2.34595E-14
 -1      1996 2.01598E+01 2.10346E-02-7.12584E-04-1.32534E-01-9.52945E-14-7.55436E-14
 -1      1997 2.03433E+01 2.47361E-02 1.78128E-03-1.58165E-01-8.37526E-14 4.31414E-14
 -1      1998 2.02753E+01 2.24647E-02 1.21573E-03-1.40082E-01-7.54757E-14 7.01706E-14
 -1      1999 2.02590E+01 2.94492E-02-9.39589E-04-1.72572E-01-8.93148E-14-2.27353E-14
 -1      2000 2.05035E+01 3.24017E-02 2.27743E-03-2.08689E-01 1.85982E-13 3.67997E-14
 -1      2001 2.04147E+01 2.98654E-02 1.56658E-03-1.84559E-01 1.04529E-13 1.42094E-13
 -1      2002 2.03857E+01 3.93754E-02-1.21439E-03-2.26599E-01 6.35123E-14 7.60334E-14
 -1      2003 2.07101E+01 4.11097E-02 2.83060E-03-2.73464E-01 1.58072E-13-1.57025E-13
 -1      2004 2.05948E+01 3.84046E-02 1.93463E-03-2.42282E-01 1.48337E-13-1.12989E-13
 -1      2005 2.05480E+01 5.08284E-02-1.54137E-03-2.96781E-01 1.96148E-13-3.85031E-14
 -1      2006 2.09739E+01 5.04145E-02 3.38002E-03-3.53828E-01-1.15299E-13-1.89281E-13
 -1      2007 2.08257E+01 4.78145E-02 2.28505E-03-3.14771E-01-1.24907E-14-2.27614E-13
 -1      2008 2.07543E+01 6.34702E-02-1.92523E-03-3.84973E-01 5.86239E-14-1.88667E-13
 -1      2009 2.13053E+01 5.91654E-02 3.79814E-03-4.49755E-01-9.51142E-14-8.39442E-14
 -1      2010 2.11181E+01 5.72807E-02 2.55154E-03-4.02604E-01-1.40532E-13-1.52546E-13
 -1      2011 2.10135E+01 7.62437E-02-2.37080E-03-4.91951E-01-1.01141E-13-1.41702E-13
 -1      2012 2.17131E+01 6.49270E-02 3.85391E-03-5.58215E-01 4.92714E-14-1.02592E-13
 -1      2013 2.14820E+01 6.49642E-02 2.62221E-03-5.04162E-01-4.05969E-15-5.03933E-14
 -1      2014 2.13338E+01 8.67382E-02-2.88114E-03-6.15982E-01 3.36666E-15-2.15384E-13
 -1      2015 2.22008E+01 6.31090E-02 3.18303E-03-6.70372E-01 8.86385E-14 4.59632E-14
 -1      2016 2.19245E+01 6.72429E-02 2.33082E-03-6.13439E-01 1.21835E-13 3.37829E-14
 -1      2017 2.17214E+01 9.01837E-02-3.44869E-03-7.50330E-01 9.37137E-14-5.74525E-14
 -1      2018 2.27622E+01 4.59202E-02 1.30934E-03-7.67237E-01-9.57186E-14 2.32848E-14
 -1      2019 2.24463E+01 5.76852E-02 1.46996E-03-7.16524E-01-1.27064E-14 2.25210E-15
 -1      2020 2.21781E+01 7.80837E-02-4.02749E-03-8.79284E-01 1.94666E-14 7.04569E-14
 -1      2021 2.33738E+01 1.82611E-03-2.19387E-03-8.13947E-01-4.40063E-14 7.17724E-14
 -1      2022 2.30361E+01 2.61246E-02-1.43979E-04-7.86675E-01-9.19398E-14 5.45518E-14
 -1      2023 2.26975E+01 3.69670E-02-4.46530E-03-9.72540E-01-7.39455E-14 1.15690E-13
 -1      2024 2.39857E+01-8.25102E-02-7.27398E-03-7.54799E-01 2.43043E-14-9.43516E-15
 -1      2025 2.36626E+01-4.08526E-02-2.54553E-03-7.79082E-01 2.69411E-14 9.27262E-14
 -1      2026 2.32609E+01-5.10101E-02-4.37830E-03-9.79052E-01 2.40437E-14 1.39537E-13
 -1      2027 2.45135E+01-2.13706E-01-1.26502E-02-5.15753E-01-1.25677E-13-2.75075E-14
 -1      2028 2.42639E+01-1.54793E-01-5.41878E-03-6.29582E-01-1.16279E-13-9.42258E-14
 -1      2029 2.38296E+01-2.01571E-01-2.99030E-03-8.24715E-01-1.67227E-14 8.40942E-14
 -1      2030 2.48353E+01-3.72052E-01-1.53600E-02-2.88131E-02-5.50575E-14-1.51778E-13
 -1      2031 2.47377E+01-3.10653E-01-8.14996E-03-2.67587E-01-6.49411E-14-5.65745E-14
 -1      2032 2.43361E+01-4.09046E-01 8.65736E-04-4.24688E-01-6.46662E-14-1.57218E-14
 -1      2033 2.48074E+01-4.83996E-01-1.13889E-02 7.04711E-01 1.48093E-14 1.86882E-14
 -1      2034 2.49399E+01-4.60779E-01-1.00705E-02 3.40888E-01-5.78686E-14-1.12866E-13
 -1      2035 2.46747E+01-6.13385E-01 7.68071E-03 2.71347E-01-2.26468E-14-1.99908E-13
 -1      2036 2.43106E+01-4.15064E-01-4.61169E-04 1.51125E+00-1.82909E-14-7.43849E-15
 -1      2037 2.47119E+01-4.90686E-01-1.05244E-02 1.11114E+00 5.38423E-14 8.51645E-14
 -1      2038 2.47040E+01-6.68371E-01 1.59020E-02 1.18809E+00-4.96946E-14-6.46601E-14
 -1      2039 2.33577E+01-5.98125E-02 5.89902E-03 1.98482E+00 7.05375E-14-1.94358E-14
 -1      2040 2.39713E+01-2.58900E-01-1.06320E-02 1.75243E+00 4.61870E-14 9.54098E-16
 -1      2041 2.42989E+01-3.85939E-01 1.79745E-02 2.01320E+00 1.05994E-13 2.24126E-15
 -1      2042 2.22415E+01 4.76271E-01-5.41143E-03 1.67191E+00-3.87364E-14-6.10657E-14
 -1      2043 2.28813E+01 2.42031E-01-8.89619E-03 1.82279E+00 2.87097E-14-5.93900E-14
 -1      2044 2.35058E+01 2.52056E-01 3.49228E-05 2.21809E+00 8.70831E-14-1.69118E-13
 -1      2045 2.15211E+01 8.32824E-01-2.80020E-02 5.15743E-01 9.29257E-14-1.28288E-13
 -1      2046 2.19130E+01 7.40374E-01-2.32340E-03 1.05709E+00-1.00961E-15-1.36165E-13
 -1      2047 2.26940E+01 9.35528E-01-2.72957E-02 1.41646E+00 3.67796E-14-1.38885E-13
 -1      2048 2.16445E+01 7.02835E-01-3.65295E-02-8.83602E-01 6.48682E-14 7.47249E-14
 -1      2049 2.15895E+01 8.42714E-01 5.88682E-03-2.50216E-01 1.05541E-13-1.06507E-13
 -1      2050 2.23883E+01 1.16940E+00-3.48228E-02-1.26689E-01 6.34874E-14-7.04467E-14
 -1      2051 2.24926E+01 2.01972E-01-1.97607E-02-1.70399E+00-2.89004E-13 2.02827E-13
 -1      2052 2.20364E+01 4.58735E-01 5.85615E-03-1.34360E+00-9.02299E-14 1.24598E-13
 -1      2053 2.27707E+01 7.56700E-01-1.45302E-02-1.51101E+00-9.43551E-14 1.67744E-13
 -1      2054 2.34761E+01-2.73044E-01 5.24270E-03-1.62037E+00-8.02570E-14 1.42913E-13
 -1      2055 2.28864E+01-8.42255E-02-2.88773E-03-1.65294E+00-1.20743E-13 1.10204E-13
 -1      2056 2.34729E+01 2.05228E-02 4.36525E-03-1.97441E+00-1.40533E-13 3.80668E-14
 -1      2057 2.40755E+01-4.80299E-01 1.80880E-02-9.23904E-01-6.25229E-14 1.16339E-14
 -1      2058 2.36322E+01-4.32271E-01-1.25673E-02-1.21417E+00-1.35669E-13 1.93248E-15
 -1      2059 2.39817E+01-5.39325E-01 6.78119E-03-1.49837E+00-1.47625E-14-1.12736E-13
 -1      2060 2.41205E+01-4.43330E-01 1.62911E-02-9.20201E-02-3.97963E-14 2.02970E-13
 -1      2061 2.39658E+01-4.95031E-01-1.69296E-02-4.39875E-01-4.04503E-14 2.06949E-13
 -1      2062 2.40550E+01-7.10956E-01-8.77592E-04-5.73962E-01-1.76985E-13 8.37568E-14
 -1      2063 2.37049E+01-2.95659E-01 8.58180E-03 5.61111E-01 3.28688E-13-9.44730E-15
 -1      2064 2.38331E+01-3.79508E-01-1.54230E-02 2.84330E-01 2.13479E-13 1.66255E-13
 -1      2065 2.37281E+01-5.88275E-01-6.13231E-03 3.15976E-01 2.22411E-13 6.95208E-14
 -1      2066 2.30091E+01-1.38048E-01 2.41087E-03 9.38267E-01 2.35086E-13-2.17222E-14
 -1      2067 2.33355E+01-2.13886E-01-1.04097E-02 7.73786E-01 3.13483E-13 1.17450E-13
 -1      2068 2.31435E+01-3.55846E-01-6.30814E-03 9.31580E-01 2.97623E-13 1.37191E-13
 -1      2069 2.22018E+01-7.70090E-03-2.43624E-04 1.06192E+00 2.15360E-13 1.73361E-13
 -1      2070 2.26241E+01-6.51608E-02-4.43555E-03 1.00348E+00 1.52040E-13 1.96881E-13
 -1      2071 2.24384E+01-1.31525E-01-4.11911E-03 1.23363E+00 1.22144E-13 3.35191E-13
 -1      2072 2.14162E+01 9.68138E-02-4.94056E-04 9.83846E-01-1.01095E-13 3.29851E-13
 -1      2073 2.18438E+01 5.30280E-02 5.73821E-04 1.01346E+00 1.41918E-14 2.82923E-13
 -1      2074 2.17176E+01 4.88254E-02-2.69090E-03 1.26675E+00 2.38165E-14 4.82948E-13
 -1      2075 2.07526E+01 1.92012E-01 2.05834E-03 7.40547E-01 1.84887E-14 2.73567E-13
 -1      2076 2.11095E+01 1.51560E-01 2.93883E-03 8.49385E-01 2.06441E-14 4.24001E-13
 -1      2077 2.10563E+01 1.96581E-01-2.50697E-03 1.08803E+00-5.00858E-15 6.41360E-13
 -1      2078 2.03368E+01 2.63095E-01 5.83476E-03 4.67723E-01-6.57460E-15 4.00623E-13
 -1      2079 2.05928E+01 2.30301E-01 3.01307E-03 6.33718E-01-7.89234E-14 2.90796E-13
 -1      2080 2.05861E+01 3.09044E-01-3.83429E-03 8.30013E-01 5.08382E-14 5.72091E-13
 -1      2081 2.02952E+01 4.04610E-01-1.03403E-03 5.76826E-01 5.43680E-14 6.19566E-13
 -1      2082 1.99550E+01 2.08762E+00-5.47242E-03 1.18187E+00 2.94814E-13-1.94362E-13
 -1      2083 2.00341E+01 1.71726E+00 3.95416E-03 1.18463E+00 2.11825E-13-1.94102E-13
 -1      2084 2.01104E+01 1.42721E+00-9.50194E-04 1.13851E+00 6.60743E-14-1.60077E-13
 -1      2085 2.01868E+01 1.07807E+00 6.09519E-03 1.04986E+00 1.31900E-13 2.00000E-13
 -1      2086 2.01060E+01 1.38937E+00-1.37615E-03 1.45075E+00 9.54330E-14-8.85013E-15
 -1      2087 2.02212E+01 8.83375E-01 1.78273E-03 9.14742E-01 2.39891E-13 1.47748E-13
 -1      2088 2.02799E+01 5.94913E-01 6.21870E-03 7.54794E-01 1.13917E-13 2.41777E-13
 -1      2089 2.04020E+01 5.52689E-01 4.43344E-03 9.02487E-01 1.09532E-13 3.99364E-13
 -1      2090 2.02824E+01 9.21415E-01-1.03651E-03 1.24238E+00 5.67159E-14 7.36056E-14
 -1      2091 1.98094E+01 2.69679E+00-1.06033E-02 1.03747E+00-4.46895E-14-4.30809E-13
 -1      2092 1.98826E+01 2.36638E+00-9.22780E-04 1.12396E+00 2.10566E-13-2.89548E-13
 -1      2093 1.98774E+01 1.95362E+00 1.47753E-03 1.43777E+00 1.83071E-13-3.83839E-13
 -1      2094 1.96910E+01 3.18263E+00-1.37778E-02 7.14717E-01 3.96330E-14 9.43863E-14
 -1      2095 1.97462E+01 2.93594E+00-6.16560E-03 8.75360E-01-1.55349E-13 2.16852E-13
 -1      2096 1.96719E+01 2.47380E+00 7.17614E-03 1.19333E+00 1.15959E-13-2.09088E-13
 -1      2097 1.96320E+01 3.44657E+00-1.37750E-02 2.70385E-01-8.57973E-14 9.32605E-14
 -1      2098 1.96535E+01 3.32954E+00-1.12408E-02 4.74495E-01 9.92650E-14 1.46778E-13
 -1      2099 1.95190E+01 2.86181E+00 1.18412E-02 7.41413E-01 7.23939E-14 6.99011E-14
 -1      2100 1.96477E+01 3.44226E+00-1.09896E-02-2.07498E-01-1.51545E-13-4.70382E-13
 -1      2101 1.96298E+01 3.47118E+00-1.46608E-02-9.17041E-04-1.82518E-13-2.63416E-13
 -1      2102 1.94593E+01 3.03508E+00 1.39230E-02 1.65115E-01-1.14039E-13-2.47677E-13
 -1      2103 1.97303E+01 3.17857E+00-6.78036E-03-6.23307E-01-3.62239E-13-5.41215E-13
 -1      2104 1.96803E+01 3.34243E+00-1.52326E-02-4.54549E-01-8.65499E-14-4.24044E-13
 -1      2105 1.95066E+01 2.96046E+00 1.23907E-02-4.19140E-01-2.57884E-13-4.29699E-13
 -1      2106 1.98507E+01 2.71682E+00-2.69649E-03-9.04921E-01-4.11205E-13-3.57808E-13
 -1      2107 1.97861E+01 2.98167E+00-1.25169E-02-8.00751E-01-4.16866E-13-4.58388E-13
 -1      2108 1.96420E+01 2.66322E+00 8.02780E-03-8.96051E-01-3.97663E-13-6.88201E-13
 -1      2109 1.99718E+01 2.15853E+00 6.45112E-04-1.02355E+00-2.74128E-13-1.30394E-13
 -1      2110 1.99111E+01 2.47217E+00-7.42105E-03-9.90304E-01-3.55006E-13-2.29354E-13
 -1      2111 1.98205E+01 2.21990E+00 3.00431E-03-1.18854E+00-2.67148E-13-1.84164E-13
 -1      2112 2.00718E+01 1.57480E+00 2.94481E-03-9.97118E-01-4.70509E-14 5.08042E-13
 -1      2113 2.00246E+01 1.90152E+00-1.68973E-03-1.02430E+00-3.59955E-14 2.27052E-13
 -1      2114 1.99925E+01 1.71654E+00-1.45053E-03-1.28198E+00 4.13749E-14 1.33784E-13
 -1      2115 2.01401E+01 1.04603E+00 4.38785E-03-8.60012E-01 1.19273E-13 4.95560E-13
 -1      2116 2.01093E+01 1.34224E+00 3.19667E-03-9.31420E-01-4.50026E-14 4.44360E-13
 -1      2117 2.01303E+01 1.22607E+00-3.79168E-03-1.20581E+00 2.01550E-13 4.63668E-13
 -1      2118 2.01830E+01 6.09001E-01 3.05556E-03-6.53762E-01 6.99367E-14-7.57745E-14
 -1      2119 2.01600E+01 8.52739E-01 4.68429E-03-7.52961E-01 1.13069E-13 2.77714E-13
 -1      2120 2.02235E+01 8.01598E-01-4.33560E-03-1.01012E+00 1.81881E-13 3.54748E-13
 -1      2121 9.70765E+00-5.91270E+00-2.13689E-01 6.25462E+00 2.14162E-13 3.15831E-13
 -1      2122 6.17259E+00-7.59961E+00-4.71842E-01 4.97688E+00 2.64011E-13 5.57054E-13
 -1      2123 1.23191E-01-7.99030E+00-4.40114E-01 6.66553E-01 7.46708E-13 2.75224E-13
 -1      2124 1.22057E-01-8.20425E+00-4.70524E-01-8.95964E-01 6.22377E-13 3.23797E-13
 -1      2125 3.16232E+00-7.46560E+00-3.86250E-01 3.96067E+00 5.40734E-13 4.38816E-13
 -1      2126 1.30621E+00-8.15432E+00-4.81445E-01 2.55178E+00 5.84088E-13 1.33227E-15
 -1      2127 1.87532E+01-3.88211E+00-8.63898E-03 6.99572E+00 3.28515E-13 1.86406E-13
 -1      2128 1.40414E+01-5.87218E+00-3.41459E-01 6.18918E+00 2.41474E-13 2.87992E-13
 -1      2129 2.74598E+01-8.96260E-01 1.71516E-01 6.21366E+00 3.04978E-13 3.35065E-13
 -1      2130 2.23981E+01-2.91017E+00-2.00300E-01 5.92607E+00 3.60711E-13 2.18936E-13
 -1      2131 1.95183E+01 4.01554E+00-2.70682E-02-1.70328E+00-1.06235E-13-4.25746E-13
 -1      2132 1.96464E+01 3.94550E+00-2.47521E-02-1.95459E+00-1.40584E-13-4.05096E-13
 -1      2133 1.99724E+01 3.24657E+00-1.36999E-02-1.91926E+00-1.65756E-13-3.67144E-13
 -1      2134 1.96976E+01 3.58512E+00-7.07371E-03-1.52152E+00-9.93938E-14-4.07147E-13
 -1      2135 3.90266E+01 5.25050E+00 2.80480E-01 1.80634E+00 7.97640E-13-3.07476E-13
 -1      2136 3.66483E+01 4.03825E+00 2.12543E-01 3.00903E+00 8.88525E-13-3.17080E-13
 -1      2137 4.14334E+01 7.11438E+00 4.08720E-01 3.87026E-01 4.42535E-13-2.15813E-13
 -1      2138 3.95958E+01 6.84841E+00 2.34711E-01 1.18934E+00 5.75207E-13-8.45990E-14
 -1      2139 4.02065E+01 6.73216E+00 2.90658E-01-8.67359E-01 1.05249E-13-1.69864E-13
 -1      2140 4.16845E+01 7.04684E+00 3.96290E-01 1.51818E-01 3.17524E-13-3.03230E-14
 -1      2141 3.68122E+01 8.13782E+00 3.46824E-01 2.30631E-01 3.56992E-13 1.88651E-13
 -1      2142 3.64196E+01 3.87711E+00 1.50125E-01-2.55621E+00 1.47521E-13-3.86469E-13
 -1      2143 3.94227E+01 5.15407E+00 3.40794E-01-1.51934E+00 8.39329E-14-2.78666E-13
 -1      2144 3.00305E+01 1.31836E-01-6.94160E-02-3.97191E+00 1.36890E-13-3.65374E-13
 -1      2145 3.46168E+01 1.88321E+00 2.68099E-01-3.58115E+00 8.73052E-14-5.02265E-13
 -1      2146 2.23137E+01-3.42318E+00-2.09093E-01-5.38423E+00 5.78426E-14-4.25215E-13
 -1      2147 2.72675E+01-1.52376E+00 1.21577E-01-5.51937E+00 2.02449E-13-3.35176E-13
 -1      2148 1.37027E+01-5.73557E+00-3.18171E-01-5.87715E+00-1.23013E-13-5.76206E-13
 -1      2149 1.81563E+01-3.87039E+00-6.57180E-02-6.60577E+00 5.01821E-14-7.03770E-13
 -1      2150 5.59547E+00-7.40304E+00-4.56388E-01-4.57333E+00-1.44718E-13-3.33594E-13
 -1      2151 9.28326E+00-5.81430E+00-1.87839E-01-5.99954E+00-8.88178E-14-2.91024E-13
 -1      2152 1.12177E+00-7.85794E+00-4.66394E-01-2.17659E+00-3.31235E-13-4.04288E-13
 -1      2153 2.90074E+00-7.02462E+00-3.31181E-01-3.59879E+00-2.18492E-13-3.80418E-13
 -1      2154 2.48557E-02-7.88828E+00-4.47416E-01 9.99913E-01-5.01599E-13-5.52336E-13
 -1      2155-4.17929E-02-7.98663E+00-4.60050E-01-4.13078E-01-3.02786E-13-5.10203E-13
 -1      2156 3.37094E+00-6.66305E+00-2.92037E-01 4.22144E+00-4.39482E-13 4.77396E-15
 -1      2157 1.46354E+00-7.62038E+00-4.34983E-01 2.80066E+00-4.14446E-13-1.69476E-13
 -1      2158 9.48884E+00-5.39052E+00-1.85774E-01 6.22177E+00-4.45644E-13-1.12341E-13
 -1      2159 6.03016E+00-7.10747E+00-4.43339E-01 5.01886E+00-5.50726E-13 2.51604E-14
 -1      2160 1.78381E+01-3.20076E+00-2.04042E-02 7.00104E+00-3.89244E-13-2.22045E-16
 -1      2161 1.33256E+01-5.19659E+00-3.49318E-01 6.14812E+00-3.51275E-13-2.88214E-13
 -1      2162 2.66171E+01-6.29120E-01 1.32802E-01 6.25098E+00-2.40530E-13-1.69142E-13
 -1      2163 2.17219E+01-2.49138E+00-2.00839E-01 5.97145E+00-4.85001E-13 1.02252E-13
 -1      2164 3.37073E+01 2.19838E+00 2.32437E-01 4.04883E+00-1.63994E-13-9.61453E-14
 -1      2165 2.95102E+01 6.36601E-01-1.95000E-02 4.62570E+00-1.50963E-13-2.24487E-13
 -1      2166 3.92345E+01 5.45094E+00 3.77780E-01 2.21596E+00-1.73306E-13-1.67477E-13
 -1      2167 3.57271E+01 4.32651E+00 1.24734E-01 2.99419E+00-2.25514E-13-1.31672E-13
 -1      2168 4.05976E+01 7.12821E+00 3.19684E-01 5.55160E-02-1.65978E-14-1.35475E-13
 -1      2169 3.94582E+01 6.68584E+00 2.53670E-01 1.29027E+00-1.02418E-13-1.02029E-13
 -1      2170 3.93099E+01 6.84416E+00 2.20949E-01-1.45219E+00 8.37663E-14-1.62703E-13
 -1      2171 4.07895E+01 7.20557E+00 3.52171E-01-3.25382E-01 1.18627E-13-1.67089E-13
 -1      2172 3.58122E+01 4.32543E+00 1.32591E-01-2.98163E+00 1.28175E-13-2.91323E-13
 -1      2173 3.87779E+01 5.52072E+00 3.24034E-01-2.12737E+00 5.43454E-14-3.26073E-13
 -1      2174 2.98904E+01 6.76992E-01-5.16382E-03-4.74264E+00 3.87440E-13-1.88738E-13
 -1      2175 3.40343E+01 2.26928E+00 2.30674E-01-4.16102E+00 2.41609E-13-1.97731E-13
 -1      2176 2.20456E+01-2.63887E+00-1.87636E-01-6.09397E+00 4.35207E-13-1.31783E-13
 -1      2177 2.70080E+01-6.64577E-01 1.50311E-01-6.37978E+00 4.81615E-13-3.79696E-14
 -1      2178 1.37933E+01-5.64165E+00-3.29887E-01-6.32530E+00 3.23963E-13-5.79287E-13
 -1      2179 1.83857E+01-3.59936E+00 3.82726E-03-7.14157E+00 3.97016E-13-2.08444E-13
 -1      2180 6.83341E+00-7.15703E+00-3.58683E-01-5.49045E+00 3.03868E-13-2.83745E-13
 -1      2181 1.02880E+01-5.75158E+00-1.69484E-01-6.49604E+00 2.72338E-13-6.13683E-13
 -1      2182 1.47923E+01-6.08772E+00-9.22961E-02-7.13500E+00 2.11720E-13-5.64097E-13
 -1      2183 1.43204E+00-7.87605E+00-4.40941E-01-2.57897E+00 6.26971E-13 1.07303E-13
 -1      2184 3.38693E+00-6.65193E+00-2.43518E-01-4.31466E+00 6.08513E-13-1.02918E-13
 -1      2185 3.50006E+01 2.31379E+00 2.99269E-01 4.41041E+00 6.00589E-13-2.73004E-13
 -1      2186 3.04315E+01 6.67141E-01-7.35687E-03 4.75007E+00 3.43170E-13 4.86278E-14
 -1      2187 2.29745E+01-5.02947E+00 2.11124E-02 5.78519E+00 1.32006E-13 1.59289E-13
 -1      2188 2.07350E+01 1.10862E+00-2.06975E-02-1.61645E+00-2.20275E-13-7.30908E-14
 -1      2189 2.99691E+01-1.76492E+00 1.54347E-01 3.49169E+00 2.43527E-13-2.62124E-13
 -1      2190 3.44067E+01 2.39493E+00 2.62416E-01 1.15234E+00 5.99701E-13-5.11813E-13
 -1      2191 2.06256E+01 1.33051E+00-1.85082E-02-1.67859E+00-2.34044E-13-1.61860E-13
 -1      2192 6.58707E+00-6.21156E+00-1.99792E-01 5.64559E+00 2.16660E-13 2.79388E-13
 -1      2193 1.87806E+00-5.87132E+00-2.59847E-01 2.09108E+00 5.19640E-13 1.01252E-13
 -1      2194 2.02176E+01 4.71655E-01 4.24096E-03-6.14372E-01 1.14118E-13 6.44276E-14
 -1      2195 1.45435E+01-6.23711E+00-7.86004E-02 6.98277E+00-1.04028E-13 1.79010E-13
 -1      2196 2.03613E+00-5.33931E+00-2.04535E-01-2.30607E+00 5.56666E-13 2.59959E-13
 -1      2197 7.00175E+00-5.86571E+00-1.52945E-01-5.82510E+00 4.55802E-13-9.37861E-14
 -1      2198 2.25500E+01-4.72597E+00 2.51705E-02-6.04851E+00 3.38951E-13-3.11418E-14
 -1      2199 2.93551E+01-1.64382E+00 1.49703E-01-3.64776E+00 3.57825E-13-6.42819E-14
 -1      2200 3.36834E+01 2.56652E+00 2.26067E-01-1.13749E+00 1.62773E-13-1.07692E-13
 -1      2201 3.57983E+01 6.64094E+00 2.82373E-01-1.07688E-01 8.81517E-14-2.75779E-13
 -1      2202 3.61097E+01 8.25737E+00 3.14572E-01-1.76908E-01 4.05231E-14-2.70360E-13
 -1      2203 3.58593E+01 6.64222E+00 3.09779E-01-5.21244E-02-1.28786E-13-1.62537E-13
 -1      2204 3.36475E+01 2.57096E+00 2.27369E-01 1.06331E+00-1.87114E-13-1.58429E-13
 -1      2205 2.89959E+01-1.61730E+00 1.41939E-01 3.53392E+00-2.27096E-13-1.66089E-13
 -1      2206 2.21323E+01-4.36999E+00 4.14334E-02 5.93961E+00-3.45446E-13 1.21042E-13
 -1      2207 1.37525E+01-5.77409E+00-1.09736E-01 6.90306E+00-3.05922E-13-1.18641E-13
 -1      2208 6.55445E+00-5.69459E+00-1.69681E-01 5.67780E+00-2.73004E-13 5.75928E-14
 -1      2209 1.99436E+00-5.30290E+00-2.07339E-01 2.52328E+00-1.91430E-13-3.09530E-13
 -1      2210 1.73084E+00-5.45580E+00-2.30954E-01-1.81769E+00-2.38282E-13-5.23415E-13
 -1      2211 6.07882E+00-5.73683E+00-1.56120E-01-5.15121E+00-1.88405E-13-4.95382E-13
 -1      2212 1.37094E+01-6.05673E+00-9.63947E-02-6.50247E+00-2.39142E-13-4.75297E-13
 -1      2213 2.28343E+01-5.04775E+00 3.31981E-02-5.40234E+00-8.88178E-14-2.90823E-13
 -1      2214 2.97379E+01-2.38896E+00 1.31218E-01-2.50699E+00-6.75016E-14-2.06724E-13
 -1      2215 3.66407E+01 6.32446E+00 3.15072E-01 5.05424E-01 7.14984E-14 1.93567E-13
 -1      2216 3.63094E+01 6.28543E+00 2.73504E-01-5.02735E-02 5.95635E-13-1.19016E-13
 -1      2217 3.41535E+01 2.11072E+00 2.38490E-01-3.17347E-01-3.65125E-14 1.45439E-14
 -1      2218 2.01466E+01 5.06340E-01 3.73193E-03 6.78727E-01 1.85772E-13 2.03361E-13
 -1      2219 2.04147E+01 6.99896E-01 2.07916E-02 9.70288E-01 2.00312E-13 2.37535E-13
 -1      2220 1.95611E+01 3.51578E+00-1.10823E-02-5.91942E-01 4.26412E-14-3.84189E-13
 -1      2221 1.95965E+01 3.46995E+00-1.04283E-02-7.76379E-01 1.33156E-14-3.99113E-13
 -1      2222 1.96429E+01 3.38201E+00-1.26410E-02-9.40861E-01-1.39200E-14-4.05359E-13
 -1      2223 1.97043E+01 3.30095E+00-1.25046E-02-1.13023E+00-4.52008E-14-4.00724E-13
 -1      2224 1.97879E+01 3.03300E+00 3.29880E-04-7.92990E-01 2.49399E-15-3.77324E-13
 -1      2225 1.95140E+01 3.59819E+00-9.61852E-03 9.95432E-02 1.28582E-13-3.49916E-13
 -1      2226 1.95134E+01 3.59899E+00-9.63023E-03-8.00790E-02 1.04767E-13-3.66669E-13
 -1      2227 1.95400E+01 3.55878E+00-9.72502E-03 4.45871E-01 1.71416E-13-3.30815E-13
 -1      2228 1.95226E+01 3.58134E+00-1.01425E-02 2.64905E-01 1.47050E-13-3.45533E-13
 -1      2229 1.96802E+01 3.22083E+00-9.07201E-04 1.69762E-01 1.29422E-13-3.37184E-13
 -1      2230 1.96016E+01 3.46227E+00-1.06146E-02 7.90102E-01 2.12361E-13-3.02282E-13
 -1      2231 1.95654E+01 3.50927E+00-1.12138E-02 6.08545E-01 1.90792E-13-3.28269E-13
 -1      2232 1.97169E+01 3.15732E+00-5.01417E-04 4.88476E-01 1.72362E-13-3.13556E-13
 -1      2233 1.97120E+01 3.28857E+00-1.29586E-02 1.14370E+00 2.58780E-13-2.20594E-13
 -1      2234 1.96495E+01 3.37188E+00-1.28836E-02 9.54318E-01 2.29027E-13-2.63498E-13
 -1      2235 1.97936E+01 3.02367E+00 2.48897E-04 8.04419E-01 2.14910E-13-2.60805E-13
 -1      2236 1.98908E+01 3.00310E+00-1.81770E-02 1.49095E+00 2.93454E-13-1.42552E-13
 -1      2237 1.97915E+01 3.14434E+00-1.51796E-02 1.30046E+00 2.67846E-13-1.88759E-13
 -1      2238 1.99225E+01 2.79861E+00 1.94025E-03 1.11094E+00 2.53727E-13-1.90307E-13
 -1      2239 2.01687E+01 2.54371E+00-2.84011E-02 1.79534E+00 3.06138E-13-3.25746E-14
 -1      2240 2.00177E+01 2.78302E+00-1.70897E-02 1.62086E+00 2.88158E-13-9.56978E-14
 -1      2241 2.01168E+01 2.44815E+00 5.85286E-03 1.37688E+00 2.72171E-13-1.09588E-13
 -1      2242 1.98692E+01 2.68109E-01 4.72214E-03 2.86301E-01 1.65095E-13 1.54218E-13
 -1      2243 2.00301E+01 3.67877E-01 2.01701E-02 4.43405E-01 1.75229E-13 1.97974E-13
 -1      2244 2.02095E+01 6.34485E-01-2.22117E-03 7.05784E-01 1.99678E-13 7.41742E-14
 -1      2245 2.03976E+01 8.56886E-01 1.29076E-02-1.00188E+00-1.66840E-13-1.84479E-13
 -1      2246 2.01862E+01 6.25718E-01-5.52308E-03-6.88344E-01-1.45713E-13-1.76589E-13
 -1      2247 3.06416E+01-1.91040E+00-7.35979E-02 1.68540E+00 3.02224E-13-5.10647E-13
 -1      2248 2.81243E+01-3.68404E+00-4.37357E-02 2.81804E+00 1.36530E-13-2.73837E-13
 -1      2249 2.01285E+01 4.70169E-01 1.78910E-02-4.80341E-01-1.34491E-13-1.60921E-13
 -1      2250 1.99814E+01 3.47088E-01 4.75067E-04-3.04988E-01-1.19693E-13-1.74842E-13
 -1      2251 2.02382E+01 7.25392E-01-9.52024E-03-6.91572E-01-1.40732E-13-2.15506E-13
 -1      2252 1.99191E+01 2.59308E-01 1.09932E-02-1.67134E-01-1.08910E-13-1.48294E-13
 -1      2253 1.98397E+01 1.87718E-01 7.36829E-04-7.00406E-02-7.82860E-14-1.62897E-13
 -1      2254 2.00774E+01 4.17932E-01-3.74306E-03-3.10544E-01-1.04740E-13-1.94924E-13
 -1      2255 1.97952E+01 1.38230E-01 6.41102E-03 1.18291E-02-7.74424E-14-1.40033E-13
 -1      2256 1.97599E+01 9.59636E-02 7.31798E-04 6.50353E-02-5.73309E-14-1.57550E-13
 -1      2257 1.99584E+01 2.26806E-01-3.59754E-03-7.29253E-02-7.46941E-14-1.61612E-13
 -1      2258 1.97339E+01 6.61456E-02 3.59268E-03 1.10710E-01-5.88007E-14-1.66503E-13
 -1      2259 1.97264E+01 4.07105E-02 6.29970E-04 1.37240E-01-6.51614E-14-1.72043E-13
 -1      2260 1.98824E+01 1.14611E-01-2.92067E-03 6.76593E-02-7.39137E-14-1.55798E-13
 -1      2261 1.97147E+01 2.25809E-02 1.86295E-03 1.59525E-01-5.88326E-14-1.70050E-13
 -1      2262 1.97238E+01 7.50260E-03 5.16801E-04 1.69726E-01-3.62142E-14-1.68130E-13
 -1      2263 1.98427E+01 4.67283E-02-2.12904E-03 1.43887E-01-6.64171E-14-1.56614E-13
 -1      2264 1.97219E+01-3.21024E-03 8.00840E-04 1.77312E-01-2.92327E-14-1.55963E-13
 -1      2265 1.97400E+01-1.16232E-02 4.16043E-04 1.77747E-01-4.26170E-14-1.72695E-13
 -1      2266 1.98287E+01 6.09023E-03-1.45444E-03 1.78766E-01-3.78751E-14-1.85340E-13
 -1      2267 1.97444E+01-1.74394E-02 1.52835E-04 1.76521E-01-9.15474E-14-1.65965E-13
 -1      2268 1.97669E+01-2.14317E-02 3.42804E-04 1.71508E-01-1.25580E-13-1.52293E-13
 -1      2269 1.98315E+01-1.70242E-02-9.46705E-04 1.87937E-01-6.25585E-14-1.75903E-13
 -1      2270 1.97749E+01-2.39317E-02-2.27694E-04 1.65512E-01-1.21934E-13-1.24217E-13
 -1      2271 1.97988E+01-2.49330E-02 3.04049E-04 1.57965E-01-6.57807E-14-1.52017E-13
 -1      2272 1.98447E+01-2.85048E-02-5.92029E-04 1.82100E-01-1.10236E-13-1.31187E-13
 -1      2273 1.98088E+01-2.51456E-02-4.31849E-04 1.50004E-01-2.47751E-14-1.43533E-13
 -1      2274 1.98325E+01-2.40841E-02 3.02311E-04 1.41934E-01-2.03891E-14-1.77360E-13
 -1      2275 1.98638E+01-3.20878E-02-3.60488E-04 1.68661E-01-6.58682E-14-1.03804E-13
 -1      2276 1.98435E+01-2.26827E-02-5.20004E-04 1.33982E-01-2.98917E-14-1.59016E-13
 -1      2277 1.98664E+01-2.01527E-02 3.38478E-04 1.26804E-01-4.47045E-14-1.47486E-13
 -1      2278 1.98858E+01-3.01998E-02-2.23424E-04 1.52807E-01-3.04651E-14-1.45373E-13
 -1      2279 1.98778E+01-1.75658E-02-5.33562E-04 1.20285E-01-6.78286E-14-1.62987E-13
 -1      2280 1.98999E+01-1.39272E-02 4.13535E-04 1.15037E-01-9.02713E-14-1.86349E-13
 -1      2281 1.99094E+01-2.44030E-02-1.57942E-04 1.38231E-01-5.96858E-14-1.34253E-13
 -1      2282 1.99118E+01-1.04075E-02-5.01141E-04 1.11023E-01-1.21340E-13-1.81318E-13
 -1      2283 1.99336E+01-5.85240E-03 5.29090E-04 1.08513E-01-9.46584E-14-1.74595E-13
 -1      2284 1.99340E+01-1.56569E-02-1.46731E-04 1.27648E-01-1.14193E-13-1.82853E-13
 -1      2285 1.99461E+01-1.52785E-03-4.42402E-04 1.07871E-01-8.40124E-14-2.01336E-13
 -1      2286 1.99686E+01 3.86900E-03 6.87090E-04 1.08783E-01-6.95422E-14-1.70169E-13
 -1      2287 1.99596E+01-4.49166E-03-1.76978E-04 1.23165E-01-8.61512E-14-1.77120E-13
 -1      2288 1.99823E+01 8.95347E-03-3.70564E-04 1.12274E-01-9.24358E-14-1.53129E-13
 -1      2289 2.00066E+01 1.51887E-02 8.88933E-04 1.17242E-01-4.97199E-14-1.84432E-13
 -1      2290 1.99872E+01 8.85868E-03-2.39268E-04 1.26541E-01-9.12002E-14-1.50192E-13
 -1      2291 2.00221E+01 2.10300E-02-2.94049E-04 1.25582E-01-1.60730E-14-2.48963E-13
 -1      2292 2.00499E+01 2.81240E-02 1.13402E-03 1.35220E-01-2.36556E-14-2.35421E-13
 -1      2293 2.00178E+01 2.43387E-02-3.26525E-04 1.39360E-01-8.59918E-14-1.74240E-13
 -1      2294 2.00681E+01 3.47139E-02-2.17502E-04 1.49103E-01-4.77136E-14-2.47987E-13
 -1      2295 2.01011E+01 4.26533E-02 1.41755E-03 1.64002E-01-4.74253E-14-2.64348E-13
 -1      2296 2.00531E+01 4.19477E-02-4.33198E-04 1.63125E-01-7.23564E-14-2.25626E-13
 -1      2297 2.01229E+01 4.99195E-02-1.42203E-04 1.84080E-01-1.31883E-14-2.78737E-13
 -1      2298 2.01630E+01 5.85811E-02 1.72751E-03 2.04756E-01 6.55965E-14-2.90465E-13
 -1      2299 2.00949E+01 6.15914E-02-5.54649E-04 1.99259E-01-2.26718E-14-1.83433E-13
 -1      2300 2.01898E+01 6.63069E-02-6.58175E-05 2.31554E-01 1.28172E-13-2.78179E-13
 -1      2301 2.02390E+01 7.53535E-02 2.04030E-03 2.58338E-01 2.08623E-13-2.85742E-13
 -1      2302 2.01455E+01 8.28885E-02-6.87077E-04 2.48995E-01 1.20263E-13-2.35775E-13
 -1      2303 2.02720E+01 8.30659E-02 1.87065E-05 2.92104E-01 2.32571E-13-3.03975E-13
 -1      2304 2.03324E+01 9.18003E-02 2.31511E-03 3.24937E-01 1.48199E-13-2.23127E-13
 -1      2305 2.02074E+01 1.04905E-01-8.28228E-04 3.13141E-01 1.92520E-13-3.17358E-13
 -1      2306 2.03730E+01 9.86169E-02 1.25312E-04 3.65394E-01 2.15188E-14-1.58164E-13
 -1      2307 2.04464E+01 1.05783E-01 2.48683E-03 4.03518E-01 1.28178E-14-1.23631E-13
 -1      2308 2.02834E+01 1.25788E-01-9.79261E-04 3.91664E-01 1.26645E-13-2.10416E-13
 -1      2309 2.04966E+01 1.10208E-01 2.78140E-04 4.49481E-01-7.40255E-15-1.50839E-13
 -1      2310 2.05843E+01 1.13739E-01 2.45834E-03 4.90990E-01-3.42127E-14-1.78746E-13
 -1      2311 2.03765E+01 1.42274E-01-1.14820E-03 4.83051E-01-4.98354E-15-1.87112E-13
 -1      2312 2.06463E+01 1.13419E-01 5.15516E-04 5.39831E-01-7.85693E-14-2.24949E-13
 -1      2313 2.07488E+01 1.10154E-01 2.09404E-03 5.81048E-01-5.94675E-14-2.34168E-13
 -1      2314 2.04902E+01 1.49075E-01-1.35493E-03 5.83384E-01-8.16799E-14-3.70174E-13
 -1      2315 2.08253E+01 1.01641E-01 8.92523E-04 6.27979E-01-2.15014E-14-2.71385E-13
 -1      2316 2.09418E+01 8.71116E-02 1.21925E-03 6.62705E-01-4.71966E-14-2.68947E-13
 -1      2317 2.06290E+01 1.38214E-01-1.63616E-03 6.85079E-01-9.72338E-14-2.62966E-13
 -1      2318 2.10365E+01 6.57796E-02 1.47651E-03 6.99901E-01-2.25471E-14-2.93047E-13
 -1      2319 2.11642E+01 3.42969E-02-3.65995E-04 7.18636E-01 8.49212E-15-1.95875E-13
 -1      2320 2.07979E+01 9.85701E-02-2.04490E-03 7.75308E-01-2.00224E-14-1.75029E-13
 -1      2321 2.12815E+01-5.28108E-03 2.32192E-03 7.34331E-01-5.84962E-14-2.40781E-13
 -1      2322 2.14150E+01-5.97485E-02-2.84148E-03 7.23820E-01-2.74335E-14-2.44352E-13
 -1      2323 2.10037E+01 1.62361E-02-2.63252E-03 8.34214E-01-4.77371E-14-1.96921E-13
 -1      2324 2.15600E+01-1.22357E-01 3.40436E-03 7.01729E-01 2.19810E-14-2.43787E-13
 -1      2325 2.16902E+01-2.03694E-01-6.25713E-03 6.45538E-01 3.82459E-14-2.95196E-13
 -1      2326 2.12542E+01-1.23089E-01-3.38929E-03 8.33386E-01-2.53753E-14-1.45119E-13
 -1      2327 2.18660E+01-2.90099E-01 4.48716E-03 5.65510E-01 5.49458E-14-2.74272E-13
 -1      2328 2.19792E+01-3.94947E-01-1.03155E-02 4.46889E-01-2.37299E-14-3.19768E-13
 -1      2329 2.15568E+01-3.27646E-01-4.11161E-03 7.35705E-01-1.11267E-14-1.77797E-13
 -1      2330 2.21822E+01-4.95831E-01 4.94358E-03 2.88522E-01 1.90074E-14-2.62418E-13
 -1      2331 2.22594E+01-6.05489E-01-1.39861E-02 9.72681E-02 2.75539E-14-1.30932E-13
 -1      2332 2.19122E+01-5.86838E-01-4.21084E-03 4.99031E-01 5.99666E-14-8.52127E-14
 -1      2333 2.24702E+01-6.93299E-01 3.63705E-03-1.50596E-01 1.50695E-14-5.68883E-14
 -1      2334 2.24887E+01-7.65195E-01-1.50824E-02-4.05833E-01 1.31724E-13 6.96552E-14
 -1      2335 2.23032E+01-8.51377E-01-2.53011E-03 8.81907E-02 9.79068E-14 1.35371E-13
 -1      2336 2.26622E+01-7.88976E-01-8.83932E-04-7.26175E-01 1.17345E-13-8.90623E-15
 -1      2337 2.26015E+01-7.57982E-01-1.06279E-02-1.00160E+00 6.38985E-14-7.83639E-14
 -1      2338 2.26762E+01-1.01335E+00 2.21466E-03-4.97735E-01 5.97325E-14 1.13929E-13
 -1      2339 2.26692E+01-6.54650E-01-8.99823E-03-1.32392E+00 6.97845E-14-1.17354E-13
 -1      2340 2.25250E+01-4.61728E-01 7.69010E-04-1.53082E+00 1.53783E-15-1.23900E-13
 -1      2341 2.29306E+01-9.13919E-01 9.26688E-03-1.17852E+00 5.31903E-14-9.72775E-14
 -1      2342 2.24311E+01-1.98581E-01-1.79319E-02-1.72134E+00-6.35574E-14-4.86685E-14
 -1      2343 2.22323E+01 1.47372E-01 1.48803E-02-1.74493E+00-1.30238E-13-2.50321E-14
 -1      2344 2.29464E+01-4.17678E-01 1.35755E-02-1.74730E+00 1.87809E-14-1.39505E-14
 -1      2345 2.20027E+01 5.09628E-01-2.00514E-02-1.65436E+00-1.94817E-13 4.73597E-14
 -1      2346 2.18135E+01 8.77876E-01 2.14394E-02-1.41961E+00-1.50186E-13 6.53843E-14
 -1      2347 2.26797E+01 4.34848E-01 7.14666E-03-1.89419E+00-5.29351E-14 6.47967E-14
 -1      2348 2.15945E+01 1.16545E+00-8.49378E-03-1.00218E+00-1.18358E-13 1.14084E-13
 -1      2349 2.14911E+01 1.34776E+00 1.34410E-02-5.59464E-01 5.77411E-14 2.55721E-13
 -1      2350 2.22761E+01 1.32027E+00-7.68358E-03-1.37817E+00-7.30206E-14 1.76599E-13
 -1      2351 2.14511E+01 1.37752E+00 1.08324E-02 2.76435E-02 1.52169E-13-1.91470E-15
 -1      2352 2.14713E+01 1.24838E+00-6.42683E-03 4.92161E-01 1.66410E-13-3.52032E-14
 -1      2353 2.20347E+01 1.75081E+00-1.75453E-02-3.03118E-01-1.06382E-14-1.38550E-15
 -1      2354 2.16334E+01 9.99380E-01 2.13585E-02 9.59786E-01 2.65646E-13-1.21432E-13
 -1      2355 2.17495E+01 6.47793E-01-2.13912E-02 1.24309E+00 1.11546E-13 1.34463E-14
 -1      2356 2.21419E+01 1.45064E+00-1.14787E-02 8.35700E-01 1.07761E-13-2.59124E-13
 -1      2357 2.19646E+01 2.78169E-01 1.77568E-02 1.39969E+00 3.30118E-14 1.52443E-13
 -1      2358 2.21085E+01-9.56424E-02-2.11901E-02 1.41732E+00 7.86003E-15 2.68432E-13
 -1      2359 2.24710E+01 6.09801E-01 3.63839E-03 1.48111E+00 1.76441E-13 8.84861E-14
 -1      2360 2.22068E+01-3.93348E-01 4.22863E-03 1.26133E+00-3.84040E-14 4.99906E-13
 -1      2361 2.23051E+01-6.25752E-01-1.22613E-02 1.07059E+00-3.54144E-15 6.16270E-13
 -1      2362 2.27264E+01-3.04935E-01 1.29831E-02 1.44199E+00 1.28682E-13 5.35052E-13
 -1      2363 2.22341E+01-7.61035E-01-8.53700E-03 7.48022E-01-1.30454E-13 6.82042E-13
 -1      2364 2.22494E+01-8.17919E-01-3.00789E-03 4.66602E-01 1.61173E-14 6.72202E-13
 -1      2365 2.27045E+01-8.94843E-01 1.02284E-02 9.04822E-01 5.49383E-14 9.17234E-13
 -1      2366 2.20550E+01-8.06754E-01-1.45689E-02 1.27044E-01 2.87177E-13 5.35700E-13
 -1      2367 2.19882E+01-7.36519E-01 3.35143E-03-1.41986E-01 3.44628E-13 6.66478E-13
 -1      2368 2.24191E+01-1.05621E+00 3.31355E-03 1.99466E-01 6.40994E-14 8.68464E-13
 -1      2369 2.17408E+01-6.38128E-01-1.45522E-02-4.07676E-01 1.20177E-13 5.87046E-13
 -1      2370 2.16136E+01-5.05635E-01 6.46862E-03-6.04088E-01 2.03094E-13 4.87389E-13
 -1      2371 2.19858E+01-8.97831E-01-2.09855E-03-4.27033E-01 1.78176E-13 6.91009E-13
 -1      2372 2.13647E+01-3.72673E-01-1.14178E-02-7.61640E-01 3.18248E-13 3.26447E-13
 -1      2373 2.12041E+01-2.23607E-01 7.66158E-03-8.62064E-01 1.20683E-13 2.33844E-13
 -1      2374 2.15153E+01-5.75576E-01-4.22271E-03-8.55483E-01 7.71342E-14 5.21000E-13
 -1      2375 2.09783E+01-8.61405E-02-7.31115E-03-9.09822E-01-1.49870E-14 2.63014E-13
 -1      2376 2.08077E+01 5.14397E-02 6.04853E-03-9.11341E-01-4.02741E-14 2.60134E-13
 -1      2377 2.10734E+01-2.05912E-01-3.78092E-03-1.05653E+00 8.05340E-14 1.74121E-13
 -1      2378 1.96211E+01 7.24624E-02 2.06499E-03-6.49336E-02 1.16371E-13 4.86178E-14
 -1      2379 1.96487E+01 1.04151E-01 6.90751E-03-1.88328E-02 1.29234E-13 6.85865E-14
 -1      2380 1.95973E+01 3.07334E-02 1.34028E-03-1.30617E-01 1.05586E-13 1.79089E-15
 -1      2381 1.95944E+01 4.95836E-02 3.68235E-03-1.08103E-01 1.21860E-13 3.99115E-14
 -1      2382 1.97663E+01 8.97459E-02-3.18811E-03-7.01754E-02 1.34092E-13-1.29955E-14
 -1      2383 1.96091E+01 5.88974E-03 8.85493E-04-1.59233E-01 8.77051E-14 1.81366E-14
 -1      2384 1.95892E+01 1.70287E-02 1.82163E-03-1.50905E-01 9.53079E-14 2.47464E-14
 -1      2385 1.97321E+01 3.59697E-02-2.29807E-03-1.42615E-01 1.07530E-13-4.76794E-15
 -1      2386 1.96414E+01-8.40532E-03 5.81003E-04-1.65363E-01 8.78313E-14 3.66249E-14
 -1      2387 1.96130E+01-2.15137E-03 7.28163E-04-1.65446E-01 6.70860E-14 3.46638E-14
 -1      2388 1.97288E+01 4.16166E-03-1.53435E-03-1.74735E-01 6.91738E-14 6.26029E-15
 -1      2389 1.96838E+01-1.58168E-02 3.80665E-04-1.58496E-01 2.98477E-14 5.19788E-14
 -1      2390 1.96522E+01-1.27713E-02 8.19985E-05-1.63259E-01 8.66749E-14 3.50012E-14
 -1      2391 1.97444E+01-1.38520E-02-9.68125E-04-1.82156E-01 8.30654E-14 3.61011E-14
 -1      2392 1.97299E+01-1.86117E-02 2.62621E-04-1.44980E-01 1.20810E-13 3.28899E-14
 -1      2393 1.96983E+01-1.77232E-02-2.84418E-04-1.51933E-01 8.10547E-14 2.33573E-14
 -1      2394 1.97706E+01-2.28514E-02-5.79448E-04-1.75274E-01 8.13435E-14-1.15581E-14
 -1      2395 1.97761E+01-1.82449E-02 2.13323E-04-1.29154E-01 6.78028E-14-2.04155E-14
 -1      2396 1.97460E+01-1.88371E-02-4.68545E-04-1.36592E-01 1.06075E-13 5.74393E-15
 -1      2397 1.98019E+01-2.58004E-02-3.30585E-04-1.61152E-01 1.25994E-13-3.93144E-14
 -1      2398 1.98205E+01-1.56489E-02 2.23854E-04-1.14044E-01 1.35208E-14-1.16249E-13
 -1      2399 1.97925E+01-1.72931E-02-5.32282E-04-1.20771E-01 4.53820E-14-4.23650E-14
 -1      2400 1.98351E+01-2.45937E-02-1.87410E-04-1.44671E-01 7.02000E-14-7.97621E-14
 -1      2401 1.98629E+01-1.13909E-02 2.89378E-04-1.01838E-01-1.74552E-15-6.49485E-14
 -1      2402 1.98368E+01-1.38349E-02-5.16895E-04-1.06973E-01-5.96842E-15-9.12234E-14
 -1      2403 1.98685E+01-2.04333E-02-1.23932E-04-1.29283E-01-3.00554E-15-8.10702E-14
 -1      2404 1.99041E+01-5.76816E-03 4.08915E-04-9.42217E-02 1.35354E-14-5.36091E-14
 -1      2405 1.98792E+01-8.89113E-03-4.50148E-04-9.70657E-02 4.69296E-14-5.00156E-14
 -1      2406 1.99016E+01-1.40345E-02-1.21393E-04-1.17518E-01-3.01207E-14-1.15794E-13
 -1      2407 1.99458E+01 1.12963E-03 5.84992E-04-9.26346E-02 2.82359E-14-5.68827E-14
 -1      2408 1.99207E+01-2.65372E-03-3.50551E-04-9.25625E-02 2.88877E-16-8.93135E-15
 -1      2409 1.99349E+01-5.75177E-03-1.66567E-04-1.11369E-01 3.62046E-14-1.05964E-13
 -1      2410 1.99903E+01 9.37635E-03 8.23123E-04-9.84589E-02 1.13853E-13-9.14977E-14
 -1      2411 1.99635E+01 4.87025E-03-2.30228E-04-9.48410E-02 7.28173E-14-5.71693E-14
 -1      2412 1.99697E+01 4.33723E-03-2.50278E-04-1.12566E-01 5.15556E-14-4.32717E-14
 -1      2413 2.00406E+01 1.91741E-02 1.13108E-03-1.13169E-01 6.07118E-14-3.31303E-14
 -1      2414 2.00101E+01 1.38194E-02-9.69728E-05-1.05309E-01 1.10324E-13-2.63502E-14
 -1      2415 2.00077E+01 1.63721E-02-3.66112E-04-1.22789E-01 8.85195E-14-4.34615E-15
 -1      2416 2.01004E+01 3.08190E-02 1.51777E-03-1.38442E-01-8.96129E-14 2.48320E-14
 -1      2417 2.00638E+01 2.44443E-02 4.41321E-05-1.25529E-01 4.39091E-15 2.94494E-14
 -1      2418 2.00512E+01 3.06594E-02-5.09145E-04-1.43831E-01-2.19210E-14 6.23394E-14
 -1      2419 2.01740E+01 4.46582E-02 1.99136E-03-1.76219E-01-1.13489E-13-1.52354E-14
 -1      2420 2.01284E+01 3.70703E-02 1.89368E-04-1.57306E-01-1.08834E-13-2.46691E-14
 -1      2421 2.01030E+01 4.76210E-02-6.74698E-04-1.77707E-01-9.22334E-14 2.84541E-14
 -1      2422 2.02663E+01 6.10231E-02 2.55587E-03-2.28721E-01-6.91610E-14-4.20797E-14
 -1      2423 2.02085E+01 5.20460E-02 3.35216E-04-2.02723E-01-7.54125E-14-7.03221E-14
 -1      2424 2.01664E+01 6.77251E-02-8.57259E-04-2.26704E-01-5.05723E-14-5.40335E-14
 -1      2425 2.03829E+01 8.01106E-02 3.20526E-03-2.98359E-01 9.67317E-14-9.13117E-14
 -1      2426 2.03092E+01 6.96558E-02 4.77441E-04-2.64109E-01-1.81843E-14-1.07469E-13
 -1      2427 2.02448E+01 9.13747E-02-1.04971E-03-2.93368E-01-1.28293E-14-1.06161E-13
 -1      2428 2.05300E+01 1.01767E-01 3.91317E-03-3.87500E-01 1.94866E-13-4.44709E-14
 -1      2429 2.04362E+01 8.99628E-02 6.10662E-04-3.43887E-01 1.90244E-13-3.58529E-15
 -1      2430 2.03422E+01 1.18710E-01-1.24349E-03-3.80355E-01 1.05505E-13-1.98816E-13
 -1      2431 2.07137E+01 1.25092E-01 4.61605E-03-4.97956E-01 5.91805E-14-9.65992E-14
 -1      2432 2.05958E+01 1.12519E-01 7.29060E-04-4.44216E-01 1.90768E-13-3.68445E-14
 -1      2433 2.04629E+01 1.49246E-01-1.43102E-03-4.90101E-01 1.90480E-13-6.44301E-14
 -1      2434 2.09406E+01 1.47750E-01 5.18744E-03-6.30013E-01-5.51072E-14-1.38672E-13
 -1      2435 2.07943E+01 1.35851E-01 8.29573E-04-5.66290E-01-5.87655E-14-8.63591E-14
 -1      2436 2.06111E+01 1.81235E-01-1.61251E-03-6.24164E-01 3.98503E-14-2.65541E-14
 -1      2437 2.12162E+01 1.64817E-01 5.40265E-03-7.80705E-01 2.98893E-15-1.47961E-13
 -1      2438 2.10384E+01 1.56564E-01 9.20172E-04-7.09044E-01-3.44108E-14-2.15396E-13
 -1      2439 2.07914E+01 2.10559E-01-1.81088E-03-7.82039E-01 1.77356E-14-2.43875E-13
 -1      2440 2.15451E+01 1.67031E-01 4.89960E-03-9.40944E-01 6.54943E-14-5.60641E-14
 -1      2441 2.13343E+01 1.67925E-01 1.03717E-03-8.66928E-01 8.21925E-14-9.99002E-14
 -1      2442 2.10088E+01 2.28963E-01-2.09834E-03-9.59151E-01 1.48144E-14-8.16381E-14
 -1      2443 2.19296E+01 1.38539E-01 3.15336E-03-1.09110E+00-2.86405E-14-1.78173E-14
 -1      2444 2.16878E+01 1.57822E-01 1.27540E-03-1.02631E+00-2.06280E-15-7.19034E-14
 -1      2445 2.12695E+01 2.21488E-01-2.63431E-03-1.14364E+00 1.96185E-14-1.19411E-13
 -1      2446 2.23696E+01 5.50813E-02-4.87599E-04-1.19497E+00-1.11255E-13 6.53600E-14
 -1      2447 2.21040E+01 1.06503E-01 1.82075E-03-1.16014E+00-8.44309E-14 5.21820E-14
 -1      2448 2.15829E+01 1.63503E-01-3.69891E-03-1.31154E+00-7.84871E-14-1.78212E-13
 -1      2449 2.28615E+01-1.14292E-01-6.62129E-03-1.19346E+00-5.66823E-14 2.03060E-13
 -1      2450 2.25875E+01-1.41557E-02 2.94236E-03-1.22109E+00-7.76777E-14 9.82595E-14
 -1      2451 2.19649E+01 1.92121E-02-5.65437E-03-1.42031E+00-1.44226E-13-4.96198E-14
 -1      2452 2.33948E+01-3.94837E-01-1.52471E-02-1.00236E+00 6.03332E-14 1.87773E-13
 -1      2453 2.31390E+01-2.35091E-01 4.77046E-03-1.13558E+00 7.01739E-14 2.70146E-13
 -1      2454 2.24399E+01-2.52826E-01-8.68287E-03-1.40173E+00-7.67810E-15 7.53269E-14
 -1      2455 2.39427E+01-7.71090E-01-2.45742E-02-5.25566E-01-1.24848E-14-8.73906E-14
 -1      2456 2.37465E+01-5.68504E-01 6.82078E-03-8.05896E-01 8.48280E-15-5.05498E-15
 -1      2457 2.30380E+01-6.76400E-01-1.20818E-02-1.15862E+00 1.41684E-13 6.04749E-14
 -1      2458 2.44389E+01-1.12588E+00-3.02368E-02 2.93323E-01-6.65978E-14-1.49029E-13
 -1      2459 2.43576E+01-9.58598E-01 6.36642E-03-1.40173E-01-3.40951E-14-7.76284E-14
 -1      2460 2.37712E+01-1.19769E+00-1.29905E-02-5.79399E-01-4.54988E-14 1.79257E-14
 -1      2461 2.47518E+01-1.18135E+00-2.36361E-02 1.36809E+00 3.99212E-14-1.49910E-13
 -1      2462 2.48437E+01-1.21528E+00-1.58364E-03 8.65717E-01-5.95713E-14-1.58628E-13
 -1      2463 2.45778E+01-1.60750E+00-9.48479E-03 4.00639E-01-5.98052E-14 6.77570E-14
 -1      2464 2.47034E+01-5.82871E-01-1.02476E-03 2.31506E+00 1.48788E-13-1.38650E-13
 -1      2465 2.49814E+01-9.89780E-01-2.00025E-02 1.97032E+00 4.36639E-14-1.46026E-13
 -1      2466 2.52467E+01-1.47985E+00-4.60317E-04 1.65159E+00 8.04533E-14-1.07078E-13
 -1      2467 2.42163E+01 6.84936E-01 1.16149E-02 2.44484E+00 8.04912E-15-6.51068E-14
 -1      2468 2.45815E+01-1.15710E-02-4.92595E-02 2.56468E+00 1.30825E-13 2.39652E-14
 -1      2469 2.54447E+01-3.74623E-01 4.80941E-03 2.65185E+00 5.09783E-14 3.78621E-14
 -1      2470 2.36070E+01 1.89465E+00-6.38406E-03 1.30646E+00 6.27276E-14 1.36412E-13
 -1      2471 2.38729E+01 1.37553E+00-5.60586E-02 1.98313E+00 2.89803E-14 1.23108E-13
 -1      2472 2.50663E+01 1.40201E+00-3.12210E-02 2.52641E+00-7.69072E-14 3.13024E-13
 -1      2473 2.34622E+01 2.00553E+00-4.36902E-02-6.02789E-01 1.43288E-14 2.92149E-13
 -1      2474 2.34582E+01 2.13511E+00-2.66478E-02 2.60601E-01 8.21565E-14 2.05427E-13
 -1      2475 2.45950E+01 2.71165E+00-6.84175E-02 9.13142E-01 7.30388E-14 3.44145E-13
 -1      2476 2.39240E+01 8.97964E-01-5.90951E-02-2.00712E+00-7.84338E-14 3.55978E-13
 -1      2477 2.36832E+01 1.55424E+00 6.94310E-03-1.51157E+00-3.51108E-14 3.16081E-13
 -1      2478 2.46490E+01 2.39661E+00-5.88398E-02-1.22321E+00-2.30371E-15 5.09389E-13
 -1      2479 2.44569E+01-4.41363E-01-4.10087E-02-2.12495E+00-3.55488E-14 1.74106E-14
 -1      2480 2.41794E+01 1.84042E-01 7.30214E-03-2.19852E+00-1.02720E-13 1.07917E-13
 -1      2481 2.50757E+01 7.56369E-01-1.47779E-02-2.34877E+00 2.73635E-14 3.80605E-13
 -1      2482 2.45387E+01-1.16019E+00-1.16060E-02-1.25673E+00-1.28463E-13 1.51083E-13
 -1      2483 2.44012E+01-8.97354E-01-1.06369E-02-1.68871E+00 2.43685E-15 4.78680E-14
 -1      2484 2.51829E+01-8.95012E-01 4.10176E-03-1.98170E+00-7.98910E-14 2.20829E-13
 -1      2485 2.41252E+01-1.18589E+00 4.08580E-03-1.16253E-01-1.35279E-13 5.24667E-15
 -1      2486 2.41804E+01-1.24246E+00-2.51489E-02-6.12796E-01-1.97037E-13-4.32206E-15
 -1      2487 2.46970E+01-1.63850E+00 2.27468E-03-7.92533E-01-1.85980E-13 1.68468E-13
 -1      2488 2.34384E+01-8.49142E-01 7.57999E-03 8.07441E-01 2.95586E-13 1.17100E-13
 -1      2489 2.36524E+01-1.04318E+00-2.64935E-02 4.22713E-01 1.10031E-13 4.10702E-14
 -1      2490 2.38492E+01-1.53785E+00-9.29128E-03 4.26387E-01 1.12688E-14-7.86472E-14
 -1      2491 2.26828E+01-4.42949E-01 7.12830E-03 1.36055E+00 2.69511E-13 1.83562E-13
 -1      2492 2.29908E+01-6.45649E-01-1.93377E-02 1.13887E+00 3.07403E-13 1.13136E-13
 -1      2493 2.29535E+01-1.03958E+00-1.29812E-02 1.28740E+00 2.57074E-13-3.82376E-15
 -1      2494 2.19658E+01-9.63538E-02 6.91661E-03 1.57097E+00-7.45341E-14 3.73504E-13
 -1      2495 2.23083E+01-2.62947E-01-1.08095E-02 1.49820E+00 6.21690E-14 2.89018E-13
 -1      2496 2.21668E+01-4.95917E-01-1.15822E-02 1.73767E+00 1.54537E-13 2.13256E-13
 -1      2497 2.13263E+01 1.73983E-01 6.67866E-03 1.51056E+00 2.79074E-14 6.07171E-13
 -1      2498 2.16611E+01 4.54216E-02-3.42897E-03 1.55884E+00-6.92773E-15 5.19791E-13
 -1      2499 2.15239E+01-3.93493E-02-8.29478E-03 1.84879E+00-1.59005E-13 4.46880E-13
 -1      2500 2.07804E+01 3.96073E-01 7.49583E-03 1.24562E+00-7.46989E-14 4.88997E-13
 -1      2501 2.10793E+01 2.88239E-01 1.42284E-03 1.38886E+00-8.28959E-15 4.70134E-13
 -1      2502 2.09978E+01 3.18847E-01-6.64948E-03 1.69939E+00-8.73856E-15 4.39046E-13
 -1      2503 2.05662E+01 4.88131E-01 3.34259E-03 1.02218E+00 2.76632E-14 2.62381E-13
 -1      2504 1.93895E+01 2.25979E+00-1.50884E-02 1.28449E+00 2.77446E-13 6.29039E-14
 -1      2505 1.95502E+01 2.05359E+00 3.56591E-03 1.47433E+00 2.96949E-13-4.08862E-13
 -1      2506 1.91641E+01 2.56996E+00-1.41510E-02 7.13169E-01 1.47682E-13 3.81440E-14
 -1      2507 1.92618E+01 2.44299E+00-2.54349E-03 9.97760E-01 1.67718E-13 1.94960E-13
 -1      2508 1.91189E+01 2.07459E+00 7.98104E-03 1.29805E+00 2.86701E-13 7.88327E-14
 -1      2509 2.00687E+01 1.33097E+00-6.31063E-03 1.69506E+00 9.97386E-14-1.33763E-13
 -1      2510 2.02499E+01 1.06262E+00 8.51327E-03 1.64508E+00 1.13288E-13-3.20743E-14
 -1      2511 1.97239E+01 1.81295E+00-1.10078E-02 1.62408E+00 1.49034E-13-4.87498E-13
 -1      2512 1.99035E+01 1.56711E+00 8.03275E-03 1.68423E+00 1.49371E-13-2.52962E-13
 -1      2513 1.99559E+01 1.21715E+00-4.36366E-03 1.91117E+00 1.76890E-13-1.56660E-13
 -1      2514 1.95235E+01 1.67010E+00 2.84557E-03 1.76149E+00 3.03162E-13-2.68212E-13
 -1      2515 1.91077E+01 2.66872E+00-9.27466E-03 1.78834E-02-1.78465E-13-4.90876E-13
 -1      2516 1.91129E+01 2.64483E+00-9.39292E-03 3.40933E-01-5.91822E-14-3.33581E-13
 -1      2517 1.88774E+01 2.32275E+00 1.26579E-02 5.94502E-01 1.19288E-13-2.49334E-13
 -1      2518 1.92342E+01 2.52990E+00-2.75652E-03-6.53383E-01-2.05875E-13-5.72888E-13
 -1      2519 1.91477E+01 2.61106E+00-1.46718E-02-3.59633E-01-3.09057E-13-2.21681E-13
 -1      2520 1.88630E+01 2.34049E+00 1.31077E-02-2.09991E-01-2.92092E-14-4.12770E-13
 -1      2521 1.94941E+01 2.19289E+00 2.58588E-03-1.16415E+00-2.86148E-13-5.26061E-13
 -1      2522 1.93489E+01 2.35974E+00-1.59231E-02-9.55134E-01-2.10132E-13-6.97306E-13
 -1      2523 1.90733E+01 2.12294E+00 8.92507E-03-9.36775E-01-1.35665E-13-7.23662E-13
 -1      2524 1.97956E+01 1.75280E+00 5.62438E-03-1.43630E+00-2.20950E-14 1.91232E-13
 -1      2525 1.96404E+01 1.96678E+00-1.28665E-02-1.33727E+00-1.73972E-13-2.75350E-13
 -1      2526 1.94293E+01 1.74354E+00 3.03728E-03-1.43913E+00-6.48304E-15-2.86850E-13
 -1      2527 2.00692E+01 1.28753E+00 6.41505E-03-1.47847E+00 1.58478E-13 2.77571E-13
 -1      2528 1.99371E+01 1.52009E+00-7.22122E-03-1.48064E+00 4.86038E-14 1.67918E-13
 -1      2529 1.98185E+01 1.30471E+00-2.38261E-03-1.66329E+00 7.50596E-14 1.71948E-13
 -1      2530 2.02646E+01 8.72689E-01 5.04846E-03-1.33751E+00 2.22960E-13 5.94571E-13
 -1      2531 2.01738E+01 1.09143E+00-1.66718E-03-1.41542E+00 1.86117E-13 4.26990E-13
 -1      2532 2.01541E+01 8.94295E-01-4.83415E-03-1.63451E+00 1.48434E-13 2.83518E-13
 -1      2533 2.03825E+01 5.46514E-01 5.60149E-03-1.08332E+00 3.53128E-14 1.45858E-13
 -1      2534 2.03302E+01 7.31251E-01 3.70212E-03-1.20597E+00 8.25210E-14 4.55113E-13
 -1      2535 2.03934E+01 5.73757E-01 1.59167E-04-1.42522E+00 1.07745E-13 2.80431E-13
 -1      2536 4.31765E+00-3.74697E+00 5.23165E-02 3.48610E+00 1.96454E-13-2.57350E-13
 -1      2537 3.11041E+00-3.50590E+00 5.55411E-02 1.09597E+00 3.73590E-13-3.97460E-14
 -1      2538 1.76530E+01-5.91723E+00-4.55055E-02 7.01261E+00-2.55906E-14 1.54061E-13
 -1      2539 1.36316E+01-5.77536E+00 4.22340E-02 6.86698E+00-1.24234E-13 1.77358E-13
 -1      2540 1.97025E+01 1.43173E-01 3.25489E-03 6.10416E-02 1.45542E-13 8.58069E-14
 -1      2541 1.97812E+01 1.98017E-01 1.23810E-02 1.47192E-01 1.60612E-13 1.28508E-13
 -1      2542 1.98475E+01 1.80770E-01-3.86190E-03 6.66397E-02 1.63208E-13 3.41177E-15
 -1      2543 2.03426E+01 4.00636E-01-1.78074E-03-7.43093E-01 1.43612E-13 4.85436E-14
 -1      2544 3.14273E+00-3.41085E+00 8.14828E-02-7.40388E-01 4.96693E-13 1.91180E-13
 -1      2545 4.22545E+00-3.20885E+00 7.60441E-02-2.83855E+00 4.83752E-13 1.14408E-13
 -1      2546 5.10861E+00-2.02257E+00 1.53550E-01 4.56011E-01 3.10606E-13-5.37903E-14
 -1      2547 9.74620E+00-5.03234E+00 1.12050E-02 6.62641E+00-3.06422E-14 1.99674E-13
 -1      2548 6.64850E+00-4.62660E+00 3.76471E-02 5.21183E+00 1.19932E-13 6.07847E-14
 -1      2549 2.05464E+01 1.95485E+00-1.39048E-02-1.89875E+00-2.22091E-13-2.50534E-13
 -1      2550 2.04127E+01 1.21514E+00-6.11525E-03-1.28737E+00-1.93694E-13-2.20227E-13
 -1      2551 2.03782E+01 1.37451E+00 5.48519E-03-1.23574E+00-1.65890E-13-2.53057E-13
 -1      2552 2.02879E+01 2.38476E+00-5.28491E-03-1.84402E+00-2.02892E-13-3.04217E-13
 -1      2553 2.15795E+01-5.66217E+00 1.04133E-02-5.91188E+00 2.59320E-13-3.76921E-14
 -1      2554 2.50817E+01-4.76223E+00-3.73926E-02-5.07844E+00 3.10391E-13-9.22873E-14
 -1      2555 1.95207E+01 3.58440E+00-1.00872E-02-2.45479E-01 8.96198E-14-3.76912E-13
 -1      2556 1.95366E+01 3.56371E+00-9.66648E-03-4.26329E-01 6.41444E-14-3.79414E-13
 -1      2557 1.97129E+01 3.16305E+00-5.98661E-04-4.73832E-01 5.07720E-14-3.61680E-13
 -1      2558 1.96788E+01 3.22294E+00-9.32366E-04-1.52146E-01 8.98140E-14-3.58844E-13
 -1      2559 3.33577E+01 6.32260E+00-1.40319E-01-7.53224E-01 4.31433E-13 1.03001E-13
 -1      2560 3.32114E+01 4.74041E+00-5.93511E-02-9.97982E-01 4.74398E-13-2.75863E-13
 -1      2561 3.12648E+01 1.57036E-01-9.80518E-02 7.37978E-01-1.83464E-13 3.47944E-13
 -1      2562 3.25931E+01 2.26028E+00-1.33945E-01 1.23585E+00-2.22600E-14 4.31571E-13
 -1      2563 3.34341E+01 7.26234E+00-1.07603E-01 6.06665E-01 1.84963E-13 3.19356E-13
 -1      2564 3.31384E+01 7.27643E+00-1.42229E-01-6.46962E-02 3.78086E-13 3.61919E-13
 -1      2565 3.29529E+01 4.71134E+00-1.07896E-01 1.46437E+00 1.78746E-14 3.38063E-13
 -1      2566 3.33646E+01 6.32922E+00-1.44215E-01 1.22295E+00 1.12799E-13 3.72993E-13
 -1      2567 2.79626E+01-3.88701E+00 6.61192E-03-1.90631E+00-1.50130E-13 2.00312E-13
 -1      2568 3.01276E+01-2.27063E+00-1.15229E-01-7.12726E-01-2.04340E-13 2.55018E-13
 -1      2569 2.12956E+01-5.80329E+00 3.55000E-02-5.39627E+00-1.48853E-13-3.29820E-13
 -1      2570 2.47699E+01-5.32301E+00-1.16511E-01-4.36327E+00-1.51323E-13-1.02418E-13
 -1      2571 1.27927E+01-5.53105E+00 4.16604E-02-6.46782E+00-2.39919E-13-4.00333E-13
 -1      2572 1.70652E+01-5.74401E+00-4.22584E-02-6.62266E+00-2.01172E-13-6.51274E-13
 -1      2573 2.01231E+01-5.72336E+00 1.15779E-01-5.67984E+00-1.91347E-13-3.69614E-13
 -1      2574 6.17331E+00-4.17881E+00 5.62370E-02-4.70780E+00-1.70697E-13-5.28078E-13
 -1      2575 8.94834E+00-4.70279E+00 1.03481E-02-6.10939E+00-1.17295E-13-3.80501E-13
 -1      2576 2.84965E+00-3.26876E+00 6.27888E-02-6.53391E-01-1.51773E-13-5.02542E-13
 -1      2577 3.97705E+00-3.29036E+00 6.53520E-02-2.89468E+00-1.19640E-13-5.75262E-13
 -1      2578 4.23597E+00-3.17362E+00 6.37811E-02 3.53856E+00 1.63203E-14-1.16351E-13
 -1      2579 2.96202E+00-3.25791E+00 7.05465E-02 1.28676E+00-2.79360E-14-3.91132E-13
 -1      2580 4.88065E+00-1.77727E+00 1.70036E-01 3.04450E-01 1.05627E-14-3.88911E-13
 -1      2581 1.00153E+01-4.71839E+00 3.93560E-02 6.72546E+00-1.81744E-13 3.04201E-14
 -1      2582 7.11699E+00-4.04803E+00 9.26078E-02 5.50291E+00-8.94840E-14 9.27036E-15
 -1      2583 1.68525E+01-5.42138E+00-2.15712E-02 7.00092E+00-1.78912E-13-9.72486E-15
 -1      2584 1.30390E+01-5.44478E+00 2.30195E-02 6.84635E+00-1.92346E-13-1.19349E-15
 -1      2585 1.32796E+01-4.53352E+00 1.20126E-01 6.70327E+00-1.36890E-13-4.23273E-14
 -1      2586 2.45364E+01-4.63722E+00-4.97316E-02 4.85816E+00-2.35006E-13 5.70655E-14
 -1      2587 2.10808E+01-5.43162E+00 1.15444E-02 5.73808E+00-2.40363E-13 1.85615E-13
 -1      2588 2.91564E+01-2.21361E+00-1.40756E-01 1.97580E+00-1.65284E-13-1.90986E-13
 -1      2589 2.68941E+01-3.67856E+00-2.91794E-02 3.23585E+00-2.46858E-13-1.12882E-13
 -1      2590 2.59300E+01-4.69889E+00 6.11941E-02 3.34121E+00-1.60760E-13-1.38001E-13
 -1      2591 3.23788E+01 2.85881E+00-1.21184E-01-4.89383E-01-1.68032E-13-2.91989E-13
 -1      2592 3.09275E+01 7.26139E-01-4.06191E-02 5.28543E-02-1.32977E-13-1.80633E-13
 -1      2593 3.25647E+01 6.37403E+00-1.64899E-01-1.01988E+00-1.38334E-13-1.92624E-13
 -1      2594 3.26090E+01 4.89230E+00-9.28208E-02-9.58567E-01-1.52711E-13-1.75859E-13
 -1      2595 3.06363E+01 3.37526E+00-4.48248E-02-1.65443E+00-2.07639E-13-7.89646E-14
 -1      2596 3.26119E+01 7.55357E+00-1.33356E-01 1.10597E-01 1.22291E-13-2.27332E-13
 -1      2597 3.24919E+01 7.53310E+00-1.37373E-01-4.68266E-01 1.08802E-14-2.37893E-13
 -1      2598 3.25666E+01 5.21686E+00-8.83199E-02 7.08551E-01-1.06304E-13 4.74620E-15
 -1      2599 3.28467E+01 6.68027E+00-1.38209E-01 6.01303E-01-3.99680E-15-4.73233E-14
 -1      2600 3.11289E+01 5.99159E-01-4.07702E-02-2.42541E-01 1.57846E-13 5.59552E-14
 -1      2601 3.22306E+01 2.71208E+00-1.40756E-01 3.41612E-01-2.55351E-14 2.63400E-14
 -1      2602 2.74530E+01-3.55732E+00-1.20855E-02-3.41117E+00 3.87579E-13 4.06897E-14
 -1      2603 2.97027E+01-2.00033E+00-1.25446E-01-2.11810E+00 3.02730E-13 1.82465E-13
 -1      2604 2.65154E+01-4.73192E+00 1.87173E-02-3.58048E+00 2.67744E-13 9.54237E-14
 -1      2605 1.43598E+01-5.74689E+00 4.46624E-02-7.06580E+00 1.63702E-13-5.93789E-13
 -1      2606 1.78197E+01-5.79456E+00-1.89259E-02-7.14757E+00 1.56819E-13-2.27960E-13
 -1      2607 6.94781E+00-4.27175E+00 7.73448E-02-5.43833E+00 5.96245E-13 1.43163E-13
 -1      2608 1.04384E+01-5.06667E+00 2.64923E-02-6.93471E+00 3.08864E-13-3.73590E-13
 -1      2609 3.27680E+01 1.96629E+00-1.45223E-01-4.46027E-01 5.31269E-13-5.83589E-13
 -1      2610 3.17604E+01 1.66903E-02-5.64702E-02 3.51514E-01 4.89560E-13-5.59941E-13
 -1      2611 3.03861E+01-1.73420E+00-1.53009E-02 8.41523E-02 3.52768E-13-4.30433E-13
 -1      2612 2.04892E+01 8.74874E-01-7.31915E-03 1.22746E+00 2.21139E-13 2.61441E-13
 -1      2613 2.08398E+01 1.25690E+00-6.05267E-03 1.72813E+00 2.42455E-13 2.96816E-13
 -1      2614 2.06458E+01 1.71559E+00-1.57907E-02 1.92234E+00 2.75171E-13 2.03726E-13
 -1      2615 2.04480E+01 1.05789E+00-9.39322E-03 1.24235E+00 2.33692E-13 1.46584E-13
 -1      2616 2.55850E+01-4.99931E+00-4.94934E-02 4.72648E+00 1.31395E-13-1.84575E-14
 -1      2617 2.21100E+01-5.81231E+00 3.15678E-02 5.59010E+00 5.65659E-14 6.71685E-14
 -1      2618 3.15028E+01 2.79886E+00-4.18925E-02-1.50416E+00 3.29126E-13-3.60684E-13
 -1      2619 1.99148E+01 2.81658E+00 3.29031E-03-1.10127E+00-5.11149E-14-3.72405E-13
 -1      2620 1.97809E+01 3.16006E+00-1.50012E-02-1.28619E+00-6.62805E-14-3.86888E-13
 -1      2621 1.98750E+01 3.03564E+00-1.82858E-02-1.48239E+00-1.15358E-13-3.81927E-13
 -1      2622 1.99933E+01 3.40002E-01-3.57064E-03 3.05688E-01 1.82598E-13 4.08788E-14
 -1      2623 2.04217E+01 2.11569E+00-1.27790E-02 1.87539E+00 2.88079E-13 8.30256E-14
 -1      2624 2.73733E+01-4.73915E+00 3.67365E-02 2.80421E+00 1.65992E-13-3.77864E-13
 -1      2625 2.10104E+01-5.79816E+00 7.62700E-02-6.09842E+00 2.17215E-13-1.22471E-13
 -1      2626 6.98046E+00-1.63516E+00 1.80566E-01-2.96032E+00 3.12854E-13 2.17243E-13
 -1      2627 6.58005E+00-3.04082E+00 1.29697E-01-4.26515E+00 4.11698E-13 3.52024E-13
 -1      2628 9.39299E+00-2.74730E+00 1.22794E-01-5.19904E+00 3.30874E-13 2.93932E-14
 -1      2629 2.05603E+01 6.02271E-01 2.00562E-03 1.33620E+00 7.72999E-14 2.88811E-13
 -1      2630 2.10767E+01-5.87641E+00 8.48737E-02 5.91616E+00 5.18752E-14 6.02192E-14
 -1      2631 2.04702E+01 7.82547E-01-1.33135E-03 1.47778E+00 1.64834E-13 3.05202E-13
 -1      2632 7.32595E+00-3.02655E+00 1.45264E-01 4.38313E+00-1.36002E-15-1.67560E-13
 -1      2633 1.32989E+01-4.80188E+00 1.26482E-01 6.72373E+00 6.36713E-14 1.54987E-13
 -1      2634 2.04358E+01 1.80792E+00 1.25472E-02 1.56319E+00 2.68714E-13 4.42060E-14
 -1      2635 2.01143E+01 2.62129E+00-1.13144E-02-1.68018E+00-1.61531E-13-3.40237E-13
 -1      2636 2.98828E+01-1.22433E+00-3.04229E-03-3.88583E-01 1.55986E-13 1.49131E-13
 -1      2637 3.07501E+01 3.51385E+00-6.36873E-02 1.35828E+00-8.81795E-14 6.44762E-14
 -1      2638 3.05023E+01 6.54690E+00-8.54805E-02-1.04609E+00-7.02771E-14-1.86504E-13
 -1      2639 2.95047E+01-1.29887E+00-1.46215E-02 1.83735E-01-1.20771E-13-1.97148E-13
 -1      2640 2.01581E+01-5.47899E+00 9.81434E-02 6.01776E+00-1.01169E-13 7.76844E-14
 -1      2641 7.43284E+00-2.70367E+00 1.56181E-01 4.53965E+00 3.84415E-14-8.92342E-14
 -1      2642 1.25802E+01-4.53595E+00 1.26367E-01-6.25201E+00-2.07639E-13-3.95656E-13
 -1      2643 2.65994E+01-4.85597E+00 8.26434E-03-2.51766E+00-2.16771E-13 3.10363E-13
 -1      2644 3.10328E+01 3.08811E+00-4.05452E-02 2.30982E+00-8.24618E-14 4.63185E-13
 -1      2645 3.10962E+01 6.33280E+00-5.26333E-02 1.27835E+00 1.63092E-13 5.30548E-13
 -1      2646 3.00106E+01-1.44637E+00-7.31366E-03 1.20492E+00-2.70638E-13 4.71095E-13
 -1      2647 3.12020E+01 6.32937E+00-7.92235E-02-6.70151E-01 2.28706E-13 2.40724E-13
 -1      2648 2.05300E+01 2.35183E-01 6.69757E-03-8.09683E-01 1.12334E-13 1.29873E-13
 -1      2649 2.04394E+01 4.22573E-01 2.54651E-03-9.68084E-01 1.71040E-14 1.15628E-13
 -1      2650 2.05449E+01 3.13359E-01-4.69449E-03-1.15658E+00-8.70277E-14 1.83800E-13
 -1      2651 2.06723E+01 1.33498E-01-4.30891E-03-8.81341E-01-4.89880E-15 2.34253E-13
 -1      2652 2.05142E+01 7.27168E-01 2.24191E-03 1.75065E+00 9.86070E-14 1.06196E-13
 -1      2653 6.73221E+00-2.67755E+00 1.49113E-01-3.77068E+00-3.58741E-14-5.22193E-13
 -1      2654 3.05705E+01 6.78242E+00-7.37613E-02 6.20240E-01-6.87228E-14-1.05804E-13
 -1      2655 1.37444E+01-4.92742E+00 9.84288E-02-6.95601E+00 3.31873E-13-3.74839E-13
 -1      2656 2.07447E+01 1.03345E-01 1.36887E-05-1.05909E+00-7.39786E-14 1.59986E-13
 -1      2657 1.98465E+01 2.76442E+00-6.29749E-03 5.16710E-01 1.73697E-13-2.86641E-13
 -1      2658 1.98218E+01 2.81413E+00-5.70177E-03 3.65754E-01 1.52301E-13-3.02913E-13
 -1      2659 1.98050E+01 2.85160E+00-5.61589E-03 2.30037E-01 1.30242E-13-3.21482E-13
 -1      2660 1.97965E+01 2.86842E+00-5.48149E-03 7.52534E-02 1.14243E-13-3.25155E-13
 -1      2661 1.99516E+01 2.50022E+00 3.63924E-03 2.65559E-01 1.29425E-13-3.08360E-13
 -1      2662 2.00445E+01 2.32343E+00-1.07250E-02 1.04691E+00 2.57874E-13-1.69982E-13
 -1      2663 1.99804E+01 2.47236E+00-6.32772E-03 9.11185E-01 2.39445E-13-1.98997E-13
 -1      2664 2.02167E+01 1.90829E+00-1.19417E-02 1.22839E+00 2.52189E-13-1.03565E-13
 -1      2665 2.01247E+01 2.14593E+00-4.82526E-03 1.13509E+00 2.57013E-13-1.42416E-13
 -1      2666 2.01901E+01 1.88610E+00 6.44705E-03 9.27614E-01 2.37059E-13-1.47011E-13
 -1      2667 2.02118E+01 7.26564E-01-3.49105E-03 6.43934E-01 2.13251E-13-1.36929E-14
 -1      2668 2.03539E+01 9.51441E-01 9.17474E-03 9.07571E-01 2.12988E-13 1.77140E-14
 -1      2669 2.01884E+01 2.27559E+00 3.67496E-03-1.42802E+00-1.44638E-13-3.21741E-13
 -1      2670 1.99937E+01-5.37621E+00 1.26541E-01-6.07627E+00 2.05003E-13-1.61997E-13
 -1      2671 2.29397E+01-5.62599E+00-2.88650E-02-5.13285E+00 2.40030E-13-5.32699E-14
 -1      2672 2.02260E+01 6.23705E-01 1.15330E-02-4.35377E-01-8.98900E-14-2.02746E-13
 -1      2673 2.01321E+01 4.72118E-01-4.04727E-03-2.79451E-01-7.58894E-14-1.93283E-13
 -1      2674 2.01053E+01 3.62418E-01 6.68539E-03-1.59735E-01-6.90220E-14-1.78702E-13
 -1      2675 2.00461E+01 2.67565E-01-1.78207E-03-6.22918E-02-4.97112E-14-1.78927E-13
 -1      2676 2.01960E+01 5.28304E-01-1.36841E-03-2.64089E-01-7.37732E-14-1.83521E-13
 -1      2677 2.00202E+01 1.97517E-01 4.54033E-03 1.30380E-02-6.06360E-14-1.66385E-13
 -1      2678 1.99845E+01 1.38156E-01-8.17601E-04 6.96932E-02-6.66319E-14-1.76830E-13
 -1      2679 2.01263E+01 2.98634E-01-2.06162E-03-5.67264E-02-5.84815E-14-1.93269E-13
 -1      2680 1.99636E+01 9.42581E-02 2.90009E-03 1.13186E-01-7.81901E-14-1.64340E-13
 -1      2681 1.99456E+01 5.73090E-02-2.68933E-04 1.42841E-01-7.14247E-14-1.74203E-13
 -1      2682 2.00700E+01 1.52901E-01-1.90053E-03 7.06926E-02-8.04931E-14-1.85846E-13
 -1      2683 1.99308E+01 3.02367E-02 1.73067E-03 1.64658E-01-5.80849E-14-1.69017E-13
 -1      2684 1.99251E+01 7.98035E-03 4.15339E-05 1.77000E-01-3.22365E-14-1.68821E-13
 -1      2685 2.00291E+01 6.13462E-02-1.53736E-03 1.42213E-01-8.14695E-14-1.68741E-13
 -1      2686 1.99155E+01-7.92822E-03 9.20547E-04 1.84721E-01-2.86318E-14-1.70774E-13
 -1      2687 1.99178E+01-2.03054E-02 2.18646E-04 1.86431E-01-4.45141E-14-1.46822E-13
 -1      2688 2.00022E+01 5.57702E-03-1.16387E-03 1.76029E-01-3.21391E-14-1.70197E-13
 -1      2689 1.99124E+01-2.86274E-02 3.74580E-04 1.85582E-01-5.95140E-14-1.28066E-13
 -1      2690 1.99196E+01-3.42477E-02 3.23618E-04 1.81308E-01-8.40165E-14-1.02818E-13
 -1      2691 1.99863E+01-2.60317E-02-8.50778E-04 1.85742E-01-4.85355E-14-9.95097E-14
 -1      2692 1.99172E+01-3.73322E-02 1.80547E-05 1.75878E-01-1.08202E-13-7.74803E-14
 -1      2693 1.99272E+01-3.82687E-02 3.93640E-04 1.68879E-01-5.92788E-14-8.91775E-14
 -1      2694 1.99785E+01-4.10505E-02-6.11703E-04 1.81299E-01-4.71948E-14-4.45382E-14
 -1      2695 1.99270E+01-3.76808E-02-2.06339E-04 1.61734E-01-5.21430E-14-8.82445E-14
 -1      2696 1.99385E+01-3.53073E-02 4.51846E-04 1.54320E-01-4.63375E-14-1.22969E-13
 -1      2697 1.99766E+01-4.45243E-02-4.39651E-04 1.69892E-01-7.12732E-14-7.54890E-14
 -1      2698 1.99399E+01-3.20750E-02-3.42221E-04 1.47532E-01-6.73723E-14-1.39135E-13
 -1      2699 1.99524E+01-2.72735E-02 5.13487E-04 1.41376E-01-7.72844E-14-1.20789E-13
 -1      2700 1.99787E+01-3.98114E-02-3.23140E-04 1.56717E-01-8.15336E-14-1.20965E-13
 -1      2701 1.99549E+01-2.20424E-02-4.22112E-04 1.36483E-01-6.67345E-14-1.47073E-13
 -1      2702 1.99681E+01-1.53414E-02 5.89234E-04 1.32847E-01-7.87200E-14-1.44183E-13
 -1      2703 1.99840E+01-2.90852E-02-2.50775E-04 1.45583E-01-6.26561E-14-9.76731E-14
 -1      2704 1.99716E+01-8.48164E-03-4.69929E-04 1.31043E-01-1.00311E-13-1.52289E-13
 -1      2705 1.99858E+01-1.56730E-04 6.86804E-04 1.30936E-01-7.18935E-14-1.32973E-13
 -1      2706 1.99915E+01-1.36679E-02-2.12434E-04 1.39371E-01-7.45747E-14-1.46417E-13
 -1      2707 1.99901E+01 8.15404E-03-5.02879E-04 1.33215E-01-8.92246E-14-1.45822E-13
 -1      2708 2.00057E+01 1.79964E-02 8.11434E-04 1.37509E-01-9.95272E-14-1.52198E-13
 -1      2709 2.00011E+01 5.72460E-03-1.99839E-04 1.40382E-01-1.01702E-13-1.46980E-13
 -1      2710 2.00109E+01 2.76981E-02-5.32642E-04 1.44761E-01-1.06004E-13-2.01359E-13
 -1      2711 2.00287E+01 3.90400E-02 9.65763E-04 1.54257E-01-1.23871E-13-2.26170E-13
 -1      2712 2.00126E+01 2.87799E-02-2.06264E-04 1.50586E-01-1.36531E-13-2.18002E-13
 -1      2713 2.00349E+01 5.01128E-02-5.65949E-04 1.67325E-01-6.37991E-14-1.70321E-13
 -1      2714 2.00556E+01 6.29363E-02 1.14904E-03 1.82785E-01-2.23741E-14-1.46781E-13
 -1      2715 2.00263E+01 5.53940E-02-2.26688E-04 1.71784E-01-7.23584E-14-1.64766E-13
 -1      2716 2.00631E+01 7.53092E-02-6.04370E-04 2.02475E-01 1.45780E-14-1.16106E-13
 -1      2717 2.00878E+01 8.94870E-02 1.35605E-03 2.24592E-01 5.37351E-14-5.88331E-14
 -1      2718 2.00427E+01 8.54582E-02-2.57854E-04 2.05674E-01 2.00559E-14-7.10275E-14
 -1      2719 2.00970E+01 1.02921E-01-6.43316E-04 2.51637E-01 4.51450E-14-6.86273E-14
 -1      2720 2.01268E+01 1.18073E-01 1.57547E-03 2.80958E-01 1.05677E-13-1.30894E-13
 -1      2721 2.00622E+01 1.18599E-01-2.98985E-04 2.53834E-01 3.03428E-14-7.28830E-14
 -1      2722 2.01381E+01 1.32006E-01-6.69925E-04 3.15918E-01 1.29439E-13-1.45627E-13
 -1      2723 2.01744E+01 1.47304E-01 1.78776E-03 3.52686E-01 1.75215E-13-2.44794E-13
 -1      2724 2.00859E+01 1.53836E-01-3.53666E-04 3.17587E-01 8.72060E-14-9.29261E-14
 -1      2725 2.01888E+01 1.60635E-01-6.59501E-04 3.95781E-01 2.43540E-13-2.88175E-13
 -1      2726 2.02328E+01 1.74543E-01 1.96271E-03 4.39679E-01 1.17267E-13-2.04836E-13
 -1      2727 2.01149E+01 1.89133E-01-4.33083E-04 3.97740E-01 1.60560E-13-2.37434E-13
 -1      2728 2.02516E+01 1.85349E-01-5.70350E-04 4.90520E-01-9.33200E-16-1.71586E-13
 -1      2729 2.03048E+01 1.95277E-01 2.05659E-03 5.40306E-01-4.99009E-15-2.03262E-13
 -1      2730 2.01513E+01 2.20782E-01-5.61345E-04 4.94164E-01 1.27512E-13-1.87505E-13
 -1      2731 2.03303E+01 2.00458E-01-3.37018E-04 5.97506E-01-7.47269E-14-2.24925E-13
 -1      2732 2.03944E+01 2.02350E-01 2.00878E-03 6.50491E-01-1.16271E-13-2.23180E-13
 -1      2733 2.01982E+01 2.42623E-01-7.83419E-04 6.05169E-01-6.25688E-14-1.09679E-13
 -1      2734 2.04302E+01 1.97227E-01 1.37028E-04 7.11131E-01-1.05577E-13-2.29931E-13
 -1      2735 2.05071E+01 1.85151E-01 1.73709E-03 7.62506E-01-9.68592E-14-2.13498E-13
 -1      2736 2.02607E+01 2.45112E-01-1.17509E-03 7.26637E-01-6.81634E-14-1.42448E-13
 -1      2737 2.05592E+01 1.63151E-01 9.83640E-04 8.21399E-01-3.16274E-14-1.68564E-13
 -1      2738 2.06513E+01 1.29072E-01 1.12976E-03 8.63429E-01 3.07856E-14-1.60646E-13
 -1      2739 2.03469E+01 2.14404E-01-1.85168E-03 8.50836E-01-4.39082E-14-2.00071E-13
 -1      2740 2.07285E+01 8.17810E-02 2.36201E-03 9.12138E-01-3.68434E-15-2.16973E-13
 -1      2741 2.08389E+01 1.59831E-02 2.98310E-05 9.33327E-01-5.43455E-14-2.36145E-13
 -1      2742 2.04699E+01 1.31901E-01-2.96587E-03 9.64827E-01-7.39845E-15-1.61512E-13
 -1      2743 2.09541E+01-6.58187E-02 4.41259E-03 9.58900E-01-2.95514E-14-1.20356E-13
 -1      2744 2.10857E+01-1.72795E-01-1.78302E-03 9.43404E-01 2.69076E-14-1.17033E-13
 -1      2745 2.06491E+01-2.47271E-02-4.67498E-03 1.04833E+00 3.50805E-14-2.11182E-13
 -1      2746 2.12551E+01-2.95993E-01 7.13716E-03 9.26902E-01 8.43344E-15-8.65857E-14
 -1      2747 2.14093E+01-4.48356E-01-4.55656E-03 8.54877E-01-6.74764E-15-1.13240E-13
 -1      2748 2.09114E+01-2.77020E-01-7.03027E-03 1.07091E+00 5.46332E-15-3.06432E-14
 -1      2749 2.16492E+01-6.10628E-01 1.01330E-02 7.70532E-01 1.37108E-13-2.64460E-14
 -1      2750 2.18219E+01-7.97561E-01-8.38627E-03 6.20918E-01 1.97634E-13 5.64412E-14
 -1      2751 2.12883E+01-6.34022E-01-9.68787E-03 9.89073E-01 1.18323E-13 1.05256E-13
 -1      2752 2.21391E+01-9.75654E-01 1.22153E-02 4.38103E-01 1.28262E-13 2.62508E-14
 -1      2753 2.23140E+01-1.15588E+00-1.25825E-02 1.96411E-01 1.23939E-13 7.86679E-14
 -1      2754 2.18062E+01-1.06977E+00-1.15438E-02 7.45782E-01 1.93847E-13-2.42644E-15
 -1      2755 2.26868E+01-1.28989E+00 1.09180E-02-1.09850E-01 3.20838E-14 1.02613E-13
 -1      2756 2.28302E+01-1.37504E+00-1.44512E-02-4.34542E-01 3.97588E-14 4.59939E-14
 -1      2757 2.24616E+01-1.48669E+00-1.01597E-02 2.79284E-01 1.09961E-13 3.46529E-14
 -1      2758 2.31814E+01-1.35971E+00 2.18724E-03-8.51151E-01 8.35490E-14-2.00884E-14
 -1      2759 2.32479E+01-1.22178E+00-9.71112E-03-1.19756E+00 9.24773E-14-6.66361E-15
 -1      2760 2.31781E+01-1.67320E+00-2.07938E-03-4.40173E-01 4.23869E-16 1.02262E-13
 -1      2761 2.34457E+01-9.39119E-01-1.60163E-02-1.62020E+00 5.36678E-14-1.85405E-14
 -1      2762 2.34047E+01-4.82845E-01 3.22698E-03-1.85366E+00-4.84513E-14 8.60520E-14
 -1      2763 2.37698E+01-1.33190E+00 1.00230E-02-1.31900E+00 5.42726E-14 4.74711E-14
 -1      2764 2.33373E+01 9.47824E-02-3.80396E-02-2.05868E+00-3.36116E-14 6.58442E-14
 -1      2765 2.32071E+01 7.85747E-01 1.36919E-02-2.00365E+00 3.99333E-15 1.25906E-13
 -1      2766 2.39935E+01-2.51751E-01 1.30847E-02-2.03684E+00-9.56310E-14 7.51465E-14
 -1      2767 2.29516E+01 1.46024E+00-4.08884E-02-1.75675E+00-1.20587E-13 3.35361E-14
 -1      2768 2.28186E+01 2.03644E+00 1.02527E-02-1.33204E+00-1.78458E-13-2.96659E-14
 -1      2769 2.37636E+01 1.33379E+00-1.00996E-02-2.06448E+00-9.98888E-14-1.48877E-13
 -1      2770 2.26515E+01 2.38667E+00-1.87447E-02-6.41574E-01-1.75486E-13 1.27216E-14
 -1      2771 2.26149E+01 2.44645E+00-1.52958E-02-1.68858E-02-1.18070E-13-2.20839E-13
 -1      2772 2.33875E+01 2.68686E+00-2.79398E-02-1.10335E+00-2.12306E-13-1.75825E-13
 -1      2773 2.27386E+01 2.20312E+00 9.51714E-03 7.12983E-01 3.97373E-14-1.66939E-13
 -1      2774 2.27768E+01 1.68693E+00-5.60793E-02 1.18943E+00 1.36132E-13-9.69164E-14
 -1      2775 2.33642E+01 2.81457E+00-2.31820E-02 4.31094E-01 3.11799E-14-1.54737E-15
 -1      2776 2.30767E+01 1.06456E+00 1.89676E-02 1.56798E+00 2.37239E-13 6.13710E-14
 -1      2777 2.31749E+01 3.35370E-01-4.46309E-02 1.69420E+00 2.45833E-13 1.48886E-13
 -1      2778 2.36159E+01 1.67174E+00-3.46705E-03 1.60462E+00 2.77174E-13 1.62648E-14
 -1      2779 2.32920E+01-3.05410E-01 5.41844E-03 1.54943E+00 3.15560E-13 1.22291E-13
 -1      2780 2.33265E+01-8.33758E-01-2.18235E-02 1.34882E+00 2.79072E-13 3.06949E-13
 -1      2781 2.39437E+01-8.18939E-03 6.54449E-03 1.72459E+00 3.15342E-13-7.54015E-14
 -1      2782 2.31687E+01-1.18508E+00-7.98289E-03 9.32369E-01 1.01197E-13 3.59978E-13
 -1      2783 2.30894E+01-1.38333E+00-2.10335E-03 5.81341E-01 8.42114E-14 4.04099E-13
 -1      2784 2.38013E+01-1.25024E+00 9.34468E-03 1.06533E+00 2.12799E-13 1.04146E-13
 -1      2785 2.27478E+01-1.43756E+00-1.42530E-02 1.34983E-01 8.79201E-15 4.16765E-13
 -1      2786 2.25815E+01-1.37244E+00 9.85188E-03-2.11443E-01 1.03207E-13 3.44463E-13
 -1      2787 2.32494E+01-1.72626E+00-6.64499E-04 1.52809E-01 9.81643E-14 2.98433E-14
 -1      2788 2.21896E+01-1.23651E+00-1.35698E-02-5.52532E-01 1.82581E-13 4.54601E-13
 -1      2789 2.19823E+01-1.03405E+00 1.32314E-02-8.11568E-01 4.73720E-14 4.48705E-13
 -1      2790 2.25164E+01-1.58629E+00-9.47015E-03-6.38361E-01 1.14478E-13 7.75039E-14
 -1      2791 2.16308E+01-8.17889E-01-1.01516E-02-1.01202E+00-8.72184E-14 5.26504E-13
 -1      2792 2.14195E+01-5.73317E-01 1.20524E-02-1.15916E+00-5.96351E-14 2.89983E-13
 -1      2793 2.18098E+01-1.11552E+00-1.10157E-02-1.15752E+00-4.97844E-14 3.02142E-13
 -1      2794 2.11387E+01-3.40576E-01-6.30968E-03-1.22955E+00-2.18248E-14 1.44163E-13
 -1      2795 2.09455E+01-1.09579E-01 8.11257E-03-1.26356E+00 6.89930E-14 1.48329E-13
 -1      2796 2.12253E+01-5.38210E-01-7.12446E-03-1.40266E+00-1.16131E-13 3.11860E-13
 -1      2797 1.98536E+01 4.96066E-02 6.16570E-05-1.42633E-01 9.89782E-14 1.05225E-14
 -1      2798 1.98676E+01 8.12946E-02 3.16027E-03-1.14203E-01 1.02337E-13-1.61891E-14
 -1      2799 2.02976E+01 7.47069E-01 9.98287E-04 2.10985E+00-5.62883E-14-1.05500E-13
 -1      2800 2.06352E+01 5.14902E-01 7.80640E-03 1.92606E+00-3.02569E-14 4.25622E-14
 -1      2801 2.08529E+01 3.07227E-01-4.14376E-05 2.06773E+00-1.17390E-13 5.89684E-14
 -1      2802 1.98905E+01 1.18743E-01-2.58179E-04-6.96123E-02 1.10022E-13-1.91812E-14
 -1      2803 1.99262E+01 1.70241E-01 5.19313E-03-1.40937E-02 1.35440E-13-3.04123E-14
 -1      2804 1.99910E+01 1.35557E-01-2.35438E-03-7.12802E-02 1.00690E-13-4.13221E-14
 -1      2805 1.98428E+01-1.64525E-02 2.93861E-04-1.84749E-01 8.18696E-14 2.37612E-14
 -1      2806 1.98340E+01-5.86144E-03 8.79922E-04-1.83723E-01 7.79134E-14 2.59379E-14
 -1      2807 1.98551E+01-2.85589E-02 3.30405E-04-1.78866E-01 1.34838E-13-4.85598E-14
 -1      2808 1.98415E+01-2.36402E-02 2.93633E-04-1.83646E-01 1.17234E-13 1.87219E-14
 -1      2809 1.99211E+01-2.21257E-02-8.87198E-04-1.88546E-01 1.20644E-13 8.04287E-15
 -1      2810 1.98730E+01-3.24301E-02 3.58811E-04-1.65622E-01 1.25583E-13-1.74852E-14
 -1      2811 1.98571E+01-3.14085E-02-7.28894E-05-1.73066E-01 1.29795E-13-1.39394E-14
 -1      2812 1.99222E+01-3.56368E-02-6.00952E-04-1.83271E-01 1.37792E-13-1.63048E-14
 -1      2813 1.98940E+01-3.05413E-02 3.95701E-04-1.50087E-01 2.61244E-14 7.24239E-15
 -1      2814 1.98772E+01-3.22555E-02-2.89109E-04-1.57989E-01 1.01958E-13-2.35472E-15
 -1      2815 1.99293E+01-3.92694E-02-4.06560E-04-1.70723E-01 9.63014E-14-7.73204E-15
 -1      2816 1.99167E+01-2.44779E-02 4.51785E-04-1.35906E-01-2.79788E-14 9.57774E-15
 -1      2817 1.98996E+01-2.81957E-02-4.05480E-04-1.42676E-01 6.57603E-15-1.04928E-14
 -1      2818 1.99402E+01-3.59401E-02-2.85123E-04-1.56145E-01 4.73012E-14 5.44744E-14
 -1      2819 1.99405E+01-1.51810E-02 5.35255E-04-1.25803E-01-3.19291E-14-4.35786E-14
 -1      2820 1.99233E+01-2.04839E-02-4.58714E-04-1.30238E-01-4.67117E-14-1.30403E-14
 -1      2821 1.99536E+01-2.75011E-02-2.20404E-04-1.43356E-01 1.07552E-14 1.01390E-13
 -1      2822 1.99659E+01-3.10809E-03 6.53423E-04-1.21956E-01 3.77072E-14-6.48548E-14
 -1      2823 1.99480E+01-9.81501E-03-4.75594E-04-1.23069E-01 1.09852E-14-8.47517E-14
 -1      2824 1.99690E+01-1.50285E-02-1.99185E-04-1.35251E-01 7.88461E-15-2.84724E-14
 -1      2825 1.99934E+01 1.16565E-02 8.13418E-04-1.26281E-01 7.34403E-14-6.73382E-14
 -1      2826 1.99742E+01 3.54248E-03-4.76001E-04-1.23175E-01 5.54067E-14-4.69939E-14
 -1      2827 1.99863E+01 9.86664E-04-2.10496E-04-1.34182E-01 3.96928E-14-1.09287E-14
 -1      2828 2.00245E+01 2.93173E-02 1.02217E-03-1.40646E-01 1.20631E-14 7.69596E-15
 -1      2829 2.00028E+01 1.96510E-02-4.75027E-04-1.32415E-01 2.27890E-14-6.95954E-14
 -1      2830 2.00057E+01 2.05026E-02-2.45230E-04-1.42244E-01 2.63067E-14-3.43876E-14
 -1      2831 2.00606E+01 5.02923E-02 1.28591E-03-1.67033E-01-4.30774E-14 4.17970E-14
 -1      2832 2.00353E+01 3.88253E-02-4.84494E-04-1.52694E-01 2.28871E-14 4.17220E-14
 -1      2833 2.00280E+01 4.38210E-02-2.95154E-04-1.61488E-01-2.15595E-14 6.10379E-14
 -1      2834 2.01038E+01 7.51329E-02 1.60938E-03-2.07634E-01-6.36048E-14-1.60796E-14
 -1      2835 2.00732E+01 6.15569E-02-5.14025E-04-1.86085E-01-5.90013E-14 3.00172E-14
 -1      2836 2.00538E+01 7.14882E-02-3.51730E-04-1.94077E-01-2.69076E-14 4.19462E-14
 -1      2837 2.01561E+01 1.04415E-01 1.99412E-03-2.64891E-01-4.98433E-14-2.54755E-14
 -1      2838 2.01186E+01 8.84230E-02-5.71525E-04-2.34903E-01-7.00245E-14-3.19536E-14
 -1      2839 2.00842E+01 1.04183E-01-4.05484E-04-2.42369E-01-5.04486E-14 8.68636E-14
 -1      2840 2.02199E+01 1.38568E-01 2.43593E-03-3.41448E-01 2.57502E-14-1.12387E-13
 -1      2841 2.01735E+01 1.19954E-01-6.62720E-04-3.01703E-01 8.86232E-15-1.69975E-14
 -1      2842 2.01200E+01 1.42560E-01-4.45690E-04-3.08936E-01-3.61085E-14 8.20206E-14
 -1      2843 2.02975E+01 1.77581E-01 2.92109E-03-4.39970E-01 9.62860E-14-1.80177E-14
 -1      2844 2.02402E+01 1.56411E-01-7.89156E-04-3.89181E-01 6.42831E-14-7.99585E-14
 -1      2845 2.01621E+01 1.87002E-01-4.61257E-04-3.96487E-01 5.59559E-14-3.72725E-14
 -1      2846 2.03912E+01 2.20493E-01 3.42078E-03-5.62778E-01 1.70873E-13 2.36380E-14
 -1      2847 2.03211E+01 1.97404E-01-9.43472E-04-4.99920E-01 1.58780E-13-2.38135E-14
 -1      2848 2.02112E+01 2.37194E-01-4.44511E-04-5.07662E-01 9.96690E-14 6.29712E-14
 -1      2849 2.05036E+01 2.64502E-01 3.88383E-03-7.11161E-01 7.13047E-14-2.93827E-14
 -1      2850 2.04185E+01 2.41219E-01-1.09993E-03-6.35908E-01 1.00616E-13 6.42771E-14
 -1      2851 2.02680E+01 2.91390E-01-4.00304E-04-6.44648E-01 1.31700E-13 8.66857E-14
 -1      2852 2.06376E+01 3.03496E-01 4.22794E-03-8.84220E-01 1.88616E-14-8.89456E-14
 -1      2853 2.05353E+01 2.83679E-01-1.19724E-03-7.97679E-01 6.73773E-14-1.96631E-14
 -1      2854 2.03334E+01 3.45181E-01-3.64958E-04-8.08524E-01 6.64123E-14 1.80979E-13
 -1      2855 2.07973E+01 3.25745E-01 4.32967E-03-1.07699E+00-1.14184E-14-3.24439E-14
 -1      2856 2.06756E+01 3.16293E-01-1.10974E-03-9.82888E-01 2.37969E-14-7.72265E-14
 -1      2857 2.04093E+01 3.89489E-01-4.41246E-04-9.98227E-01 2.55201E-14 5.75448E-14
 -1      2858 2.09909E+01 3.10641E-01 4.01300E-03-1.27757E+00 4.01082E-14-1.27560E-14
 -1      2859 2.08466E+01 3.23486E-01-6.03151E-04-1.18404E+00 9.31453E-14-5.27416E-14
 -1      2860 2.05008E+01 4.07532E-01-8.55398E-04-1.20896E+00 3.63351E-14-1.68275E-14
 -1      2861 2.12340E+01 2.24952E-01 3.01724E-03-1.46286E+00-1.13624E-13 1.66231E-14
 -1      2862 2.10619E+01 2.78998E-01 7.27478E-04-1.38500E+00-7.97380E-14 1.95974E-14
 -1      2863 2.06202E+01 3.70728E-01-2.03387E-03-1.42981E+00-3.61626E-14 1.27750E-13
 -1      2864 2.15559E+01 2.08514E-02 9.16309E-04-1.59265E+00-8.67876E-14-6.78974E-14
 -1      2865 2.13475E+01 1.42563E-01 3.50320E-03-1.55561E+00-6.22909E-14 3.17025E-14
 -1      2866 2.07931E+01 2.34378E-01-4.67869E-03-1.63991E+00-1.30042E-13 2.02308E-13
 -1      2867 2.20054E+01-3.57499E-01-2.99768E-03-1.60181E+00 4.42550E-14-3.43604E-14
 -1      2868 2.17485E+01-1.39113E-01 8.50176E-03-1.64381E+00-1.40880E-13-1.04597E-13
 -1      2869 2.10692E+01-6.34905E-02-9.72356E-03-1.80197E+00-1.15004E-13-3.23471E-14
 -1      2870 2.26469E+01-9.45216E-01-9.98476E-03-1.39351E+00 1.38332E-13 7.75215E-14
 -1      2871 2.23319E+01-6.17085E-01 1.60243E-02-1.56560E+00 2.27118E-13 1.42539E-13
 -1      2872 2.15313E+01-5.89400E-01-1.78132E-02-1.85083E+00-3.55683E-15 2.54935E-14
 -1      2873 2.35365E+01-1.67507E+00-1.85064E-02-8.38725E-01-1.35676E-13 1.48305E-13
 -1      2874 2.31722E+01-1.29136E+00 2.51551E-02-1.19409E+00 1.66033E-14 1.42686E-13
 -1      2875 2.22976E+01-1.37417E+00-2.83441E-02-1.67565E+00 4.43781E-14 1.44133E-13
 -1      2876 2.46221E+01-2.26199E+00-3.27401E-02 1.54198E-01 4.18264E-14 7.52867E-14
 -1      2877 2.42717E+01-1.99839E+00 2.72602E-02-3.89663E-01-1.09645E-13 1.23452E-13
 -1      2878 2.34638E+01-2.27643E+00-3.67644E-02-1.09360E+00-1.22951E-13 3.25946E-14
 -1      2879 2.56678E+01-2.04277E+00-3.50092E-02 1.51443E+00 1.55560E-13 5.33672E-14
 -1      2880 2.54812E+01-2.26567E+00 1.81279E-02 9.21390E-01 1.08849E-13 6.91808E-14
 -1      2881 2.50005E+01-2.91341E+00-6.07384E-02 3.58170E-02 8.19275E-14 6.50478E-15
 -1      2882 2.62813E+01-2.95732E-01-9.15819E-03 2.70262E+00-1.82191E-13 2.44943E-13
 -1      2883 2.63416E+01-1.38759E+00-3.00290E-02 2.38305E+00-5.22484E-14 5.56812E-14
 -1      2884 2.65345E+01-2.33570E+00-9.60258E-02 1.63752E+00-7.45931E-16 2.65968E-14
 -1      2885 2.55723E+01 3.93392E+00-8.57761E-02 4.73325E-01 7.60919E-14 2.04774E-13
 -1      2886 2.56510E+01 3.42305E+00-1.33782E-01 1.53824E+00 6.12149E-14 1.46767E-13
 -1      2887 2.58338E+01 2.77412E+00-1.33173E-01-1.80758E+00 2.76584E-14 2.72050E-13
 -1      2888 2.56929E+01 3.72055E+00-7.96648E-02-9.04797E-01-3.24740E-14 2.42230E-13
 -1      2889 2.61446E+01 3.36458E-02-1.05189E-01-2.47154E+00 1.28064E-13 1.43573E-13
 -1      2890 2.60231E+01 1.45938E+00-2.54568E-02-2.37278E+00 1.76942E-13 3.13569E-13
 -1      2891 2.72127E+01 2.51743E+00-9.78881E-02-2.23422E+00 5.62189E-14 8.62088E-14
 -1      2892 2.58206E+01-1.87009E+00-3.11814E-02-1.49904E+00-9.68149E-14 1.57790E-14
 -1      2893 2.59159E+01-1.06767E+00-2.57880E-02-2.00163E+00-8.70137E-15 3.88287E-14
 -1      2894 2.69642E+01-7.72673E-01-3.49953E-02-2.09340E+00 1.20223E-13-3.45210E-14
 -1      2895 2.47893E+01-2.28441E+00 1.69573E-02-1.05104E-02-9.58066E-14-1.21971E-13
 -1      2896 2.51221E+01-2.23482E+00-2.34943E-02-6.51936E-01-6.75631E-14-6.97463E-14
 -1      2897 2.59230E+01-2.54802E+00-2.43097E-02-7.48044E-01 5.80092E-15-2.42188E-13
 -1      2898 2.35590E+01-1.79101E+00 2.66749E-02 1.15489E+00 1.52887E-13-2.14519E-13
 -1      2899 2.39668E+01-2.11950E+00-2.60258E-02 6.53105E-01-1.12061E-13-2.06285E-13
 -1      2900 2.43257E+01-2.72004E+00-3.83689E-02 7.96181E-01 2.92310E-14-4.53402E-13
 -1      2901 2.24906E+01-1.04637E+00 2.23019E-02 1.82509E+00 2.51752E-13-4.47658E-14
 -1      2902 2.28802E+01-1.44292E+00-1.80553E-02 1.53184E+00 2.69520E-13-1.16532E-13
 -1      2903 2.29089E+01-1.97777E+00-3.29958E-02 1.77822E+00 1.57660E-13-3.28754E-13
 -1      2904 2.17032E+01-3.81276E-01 1.94351E-02 2.07460E+00-2.28540E-14 1.89879E-13
 -1      2905 2.20184E+01-7.11823E-01-9.92478E-03 1.96570E+00 1.38165E-13 4.66842E-14
 -1      2906 2.18552E+01-1.06272E+00-2.52686E-02 2.23410E+00 5.48998E-14-5.06565E-14
 -1      2907 2.10973E+01 9.05699E-02 1.43763E-02 2.09684E+00-1.29579E-13 1.09088E-13
 -1      2908 2.13466E+01-1.69187E-01-5.02186E-03 2.13221E+00-9.43720E-14 1.61083E-13
 -1      2909 2.10956E+01-3.60935E-01-2.78120E-02 2.38780E+00 3.42337E-15-4.63846E-15
 -1      2910 2.05764E+01 1.90949E-01-2.04608E-02 2.37048E+00-8.29072E-14-1.28759E-13
 -1      2911 2.31225E+01-5.73619E+00-8.23162E-02 4.83450E+00 1.45245E-13-7.37570E-14
 -1      2912 1.97338E+01-5.26871E+00 1.35214E-01 5.90041E+00 1.12618E-13 1.10800E-13
 -1      2913 1.84661E+01 2.04103E+00-9.32646E-04-4.74453E-01-2.81112E-15-4.14375E-13
 -1      2914 1.83851E+01 2.08300E+00-1.04077E-02-5.75572E-02 1.45320E-13-6.09563E-13
 -1      2915 7.19735E+00-1.33542E+00 1.60325E-01-2.79247E+00 7.35523E-16-5.36071E-13
 -1      2916 9.10167E+00-2.30795E+00 9.26509E-02-4.74185E+00-8.49321E-15-4.05065E-13
 -1      2917 1.86751E+01 1.87749E+00-1.66075E-02 1.29374E+00 1.94024E-13 4.86333E-14
 -1      2918 1.89261E+01 1.73645E+00 7.54337E-03 1.60497E+00 2.76536E-13-4.67845E-14
 -1      2919 1.88495E+01 1.75285E+00 7.55631E-03-1.25247E+00-1.27778E-13-7.04878E-13
 -1      2920 1.86217E+01 1.88015E+00-1.69033E-02-9.23342E-01-1.27679E-13-6.49804E-13
 -1      2921 1.82208E+01 1.72322E+00 1.23131E-02-8.10594E-01-6.15974E-14-7.12701E-13
 -1      2922 1.83959E+01 2.08548E+00-1.06720E-02 4.48500E-01-1.75535E-14-6.41430E-13
 -1      2923 1.84979E+01 2.02907E+00-5.95406E-04 8.58585E-01 1.85256E-13-1.89108E-13
 -1      2924 1.82718E+01 1.73800E+00 1.09846E-02 1.18915E+00 9.42299E-14-9.08580E-14
 -1      2925 1.80349E+01 1.87769E+00 1.57206E-02 1.97565E-01 6.85481E-14-5.71205E-13
 -1      2926 1.93902E+01 1.32754E+00 1.18619E-02-1.72402E+00 8.21777E-14-7.05558E-14
 -1      2927 1.91046E+01 1.50176E+00-1.69400E-02-1.54065E+00-2.87341E-14-3.33130E-13
 -1      2928 1.87470E+01 1.33711E+00 4.13766E-03-1.57940E+00 5.66323E-14-4.81067E-13
 -1      2929 1.99318E+01 8.79387E-01 1.15770E-02-1.86905E+00 8.89826E-14 1.58751E-13
 -1      2930 1.96651E+01 1.06755E+00-1.19032E-02-1.82986E+00 8.93462E-14 1.95650E-13
 -1      2931 1.94204E+01 8.62278E-01-4.42094E-03-1.97701E+00 3.73957E-14 6.16743E-15
 -1      2932 2.03431E+01 5.18796E-01 1.02660E-02-1.73870E+00 1.14693E-13 3.27898E-13
 -1      2933 2.01522E+01 6.80085E-01-4.83616E-03-1.81466E+00 1.14462E-13 2.54710E-13
 -1      2934 2.00520E+01 4.39908E-01-7.70528E-03-2.01013E+00 4.01766E-14 2.48597E-13
 -1      2935 1.58685E+01-4.63134E+00-2.68342E-03 6.62281E+00 1.27121E-13 1.41831E-13
 -1      2936 1.27342E+01-3.54335E+00 1.53631E-01 6.09997E+00 8.84293E-14 1.38903E-13
 -1      2937 1.00406E+01-2.68628E+00 1.04669E-01 5.37558E+00 4.10505E-14-1.44051E-13
 -1      2938 7.91652E+00-1.70713E+00 1.53154E-01 3.50023E+00 1.04243E-13-2.11248E-13
 -1      2939 1.31030E+01-2.45087E+00 1.66299E-01 5.34806E+00-1.10328E-14 4.38538E-15
 -1      2940 2.49859E+01-5.35478E+00 4.65904E-02-3.91702E+00 2.39059E-13-6.24223E-14
 -1      2941 2.67178E+01-4.64537E+00-1.22885E-01-2.66093E+00 3.27835E-13 4.15085E-14
 -1      2942 2.39273E+01-5.28566E+00 6.43996E-02-4.11206E+00 2.81275E-13-1.94664E-13
 -1      2943 6.80151E+00-1.11237E+00 1.69988E-01 1.54396E+00 9.93303E-14-1.62648E-13
 -1      2944 6.64271E+00-1.00375E+00 1.47972E-01-4.36113E-01 2.32429E-13 1.29813E-13
 -1      2945 2.03373E+01 1.50009E+00-1.90497E-03 1.26799E+00 2.35879E-13 5.90413E-15
 -1      2946 2.03086E+01 1.58849E+00-1.18713E-02-1.23709E+00-1.52231E-13-2.92100E-13
 -1      2947 2.03269E+01 1.23122E+00 1.27813E-02-9.69179E-01-1.31720E-13-2.62011E-13
 -1      2948 2.02430E+01 9.49565E-01-5.20691E-03-7.23358E-01-1.10871E-13-2.42231E-13
 -1      2949 2.01595E+01 2.04606E+00 1.29611E-04-1.14007E+00-9.68079E-14-3.10280E-13
 -1      2950 1.18176E+01-3.41181E+00 1.52680E-01-5.71198E+00-5.60385E-14-2.46331E-13
 -1      2951 1.51104E+01-4.58199E+00 4.54385E-03-6.31766E+00-1.00309E-13-4.66210E-13
 -1      2952 2.49583E+01-5.26363E+00 9.33249E-02-3.04450E+00-1.91139E-13 1.71960E-13
 -1      2953 2.70123E+01-4.50755E+00-1.60469E-01-1.01628E+00-1.23415E-13 2.69493E-13
 -1      2954 1.99599E+01 2.30849E-01-8.22669E-04 6.40541E-02 1.48833E-13-3.76502E-14
 -1      2955 2.00257E+01 3.14701E-01 7.84133E-03 1.61664E-01 1.69771E-13-2.66462E-14
 -1      2956 2.00555E+01 2.65651E-01-2.75630E-03 6.20089E-02 1.41980E-13-4.57263E-14
 -1      2957 1.98404E+01 7.66048E-03 2.20581E-04-1.76090E-01 4.78853E-14 1.34347E-14
 -1      2958 1.98401E+01 2.66460E-02 1.78538E-03-1.64708E-01 8.17884E-14 8.52772E-15
 -1      2959 1.99507E+01 5.46845E-02-1.79001E-03-1.44955E-01 7.86238E-14-1.24811E-14
 -1      2960 1.99291E+01 5.71078E-03-1.28313E-03-1.79212E-01 5.88128E-14 3.03038E-14
 -1      2961 2.77420E+01-4.28205E+00-1.02800E-01 1.44132E+00 1.41796E-13-3.89300E-13
 -1      2962 2.60004E+01-5.14883E+00 6.11224E-02 2.91008E+00 2.00354E-13-3.21090E-13
 -1      2963 1.99247E+01 2.59527E+00-7.90616E-03 7.95208E-01 2.31841E-13-2.23470E-13
 -1      2964 1.98811E+01 2.68738E+00-6.14622E-03 6.46034E-01 1.99200E-13-2.66599E-13
 -1      2965 2.00001E+01 2.38780E+00 4.39239E-03 5.17238E-01 1.80262E-13-2.58660E-13
 -1      2966 2.00812E+01 2.19003E+00 5.64903E-03 7.46603E-01 2.15540E-13-1.98239E-13
 -1      2967 1.98764E+01 2.69634E+00-6.00287E-03-6.35793E-01 1.97369E-14-3.53028E-13
 -1      2968 1.99183E+01 2.60562E+00-8.15045E-03-7.85805E-01-1.32500E-14-3.60662E-13
 -1      2969 2.00686E+01 4.15355E-01-1.61689E-03 2.89061E-01 1.86771E-13-5.02040E-14
 -1      2970 2.01701E+01 5.53779E-01 1.04836E-02 4.51913E-01 1.84601E-13-3.22552E-14
 -1      2971 2.02533E+01 8.21615E-01 8.39115E-04 6.18624E-01 2.21471E-13-7.73996E-14
 -1      2972 2.01454E+01 4.77499E-01-1.89604E-03 2.81695E-01 1.78406E-13-9.38509E-14
 -1      2973 2.85603E+01-2.81478E+00 8.50163E-03-6.13004E-01 3.39208E-13 4.22162E-14
 -1      2974 2.90488E+01-7.09699E-01-1.60311E-01 8.23144E-01 2.03330E-13-2.10679E-13
 -1      2975 2.86201E+01 5.12035E+00-1.54744E-01 1.72124E+00 8.59035E-14 3.77628E-13
 -1      2976 2.85290E+01 5.77694E+00-2.11889E-01 6.48496E-01 1.61399E-13 3.26309E-13
 -1      2977 2.06756E+01 1.82265E-01 5.46297E-03-1.20661E+00-5.89801E-14 1.69160E-13
 -1      2978 2.05911E+01 2.70978E-01-1.59036E-03-1.34937E+00-1.00022E-14 6.10396E-14
 -1      2979 2.07929E+01 4.14782E-02-2.41209E-03-1.24277E+00 5.30627E-14 1.75666E-13
 -1      2980 2.82992E+01-2.26489E+00 3.56342E-02 1.45384E+00-1.29521E-13 1.24789E-13
 -1      2981 2.86254E+01-6.67618E-01-1.84365E-01 2.28407E+00-1.55931E-13 2.13815E-13
 -1      2982 2.86465E+01 5.67414E+00-1.83650E-01-6.34344E-01-1.45162E-14 3.10502E-13
 -1      2983 2.89128E+01 4.66454E+00-1.75866E-01-1.74379E+00-7.60503E-15 3.18773E-14
 -1      2984 2.88210E+01 1.57990E+00-1.10077E-01 2.70646E+00-1.26746E-13 2.84051E-13
 -1      2985 2.87782E+01 3.39858E+00-2.29168E-01 2.51352E+00 4.62130E-14 3.55271E-13
 -1      2986 2.71184E+01 3.51687E+00-8.83902E-02 2.19352E+00 6.31856E-14 4.23897E-14
 -1      2987 2.73505E+01 2.95812E-01-4.60602E-02 2.86529E+00-1.20987E-13 1.84387E-13
 -1      2988 1.93230E+01-5.10562E+00 1.38883E-01-5.49210E+00-2.57572E-13-3.60524E-13
 -1      2989 2.24249E+01-5.60704E+00-5.63777E-02-4.60065E+00-2.03712E-13 1.84366E-14
 -1      2990 2.39183E+01-4.98859E+00 6.73658E-02-3.17460E+00-1.82875E-13 1.74532E-13
 -1      2991 2.88964E+01 5.78381E+00-1.20912E-01 1.29280E+00-1.66867E-13 1.32755E-13
 -1      2992 2.84941E+01 6.47557E+00-1.83492E-01 4.08378E-01-3.43614E-14 1.85806E-13
 -1      2993 6.00152E+00-1.01566E+00 1.22640E-01 1.34786E+00 8.98309E-14-2.84411E-13
 -1      2994 6.00144E+00-1.01603E+00 1.44426E-01-8.08308E-01 4.85376E-14-4.83669E-13
 -1      2995 9.86146E+00-2.41157E+00 8.96893E-02 5.41568E+00 3.11695E-14 8.74301E-15
 -1      2996 7.49037E+00-1.35251E+00 1.84814E-01 3.36982E+00 1.13166E-13-4.49918E-14
 -1      2997 1.56700E+01-4.58785E+00 2.23291E-02 6.66202E+00 3.16414E-15 4.39093E-14
 -1      2998 1.29997E+01-3.57310E+00 1.48066E-01 6.26426E+00-1.99840E-15 1.00892E-13
 -1      2999 2.22409E+01-5.48014E+00-5.97417E-02 4.99506E+00-7.45515E-14 3.92360E-14
 -1      3000 1.89668E+01-5.10088E+00 1.17415E-01 6.00318E+00 7.51343E-14 7.70599E-14
 -1      3001 1.85412E+01-4.46163E+00 1.13568E-01 5.72550E+00 1.71543E-13 2.38237E-13
 -1      3002 2.64141E+01-4.48612E+00-1.32895E-01 2.13498E+00-1.33629E-13-2.82455E-13
 -1      3003 2.47988E+01-4.94468E+00 6.77919E-02 3.32339E+00-1.30479E-13-2.16938E-13
 -1      3004 2.89446E+01-5.37726E-01-1.93591E-01-1.13687E+00-1.40679E-13-4.56718E-14
 -1      3005 2.80765E+01-2.71219E+00 1.20429E-02 3.22359E-01-1.82340E-13-2.33286E-13
 -1      3006 2.88999E+01 3.60927E+00-2.06748E-01-2.04367E+00-1.96232E-13 1.91930E-14
 -1      3007 2.91035E+01 2.04347E+00-6.13113E-02-2.08144E+00-2.36228E-13-1.04083E-15
 -1      3008 1.30519E+01-3.81891E+00 1.49369E-01-6.44259E+00 4.11712E-13-3.17246E-13
 -1      3009 1.62948E+01-4.86997E+00 2.11972E-02-6.85303E+00 2.86632E-13-3.16858E-13
 -1      3010 2.84833E+01 6.43750E+00-1.97767E-01-8.21208E-01-6.80567E-14 1.45377E-13
 -1      3011 2.88133E+01 5.50358E+00-1.40585E-01-1.70291E+00-9.70335E-14 4.28269E-14
 -1      3012 2.75804E+01 4.08975E+00-1.13500E-01-2.03074E+00-1.82854E-13 8.19067E-14
 -1      3013 2.90390E+01 2.04234E+00-1.05536E-01 1.67384E+00 5.34156E-14-3.40838E-14
 -1      3014 2.89510E+01 4.07324E+00-2.04682E-01 1.63387E+00-5.48173E-14-3.74700E-15
 -1      3015 2.95181E+01-1.70599E+00-1.49746E-01-7.81282E-01 3.56583E-13-4.41591E-13
 -1      3016 2.87626E+01-3.20393E+00-4.53757E-02 1.53639E-01 2.44984E-13-3.25392E-13
 -1      3017 2.75921E+01-3.81167E+00-4.47271E-03 4.25498E-01 2.26813E-13-3.59116E-13
 -1      3018 2.97546E+01 3.32405E+00-2.12700E-01-2.01790E+00 2.43583E-13-1.67796E-13
 -1      3019 3.00317E+01 1.05824E+00-7.38725E-02-1.94714E+00 3.14998E-13-3.83527E-13
 -1      3020 1.99749E+01 2.48485E+00-6.17646E-03-9.01141E-01-3.45103E-14-3.53543E-13
 -1      3021 2.00285E+01 2.33731E+00-1.52653E-02-1.04543E+00-6.27977E-14-3.39659E-13
 -1      3022 2.00744E+01 2.20259E+00 5.61635E-03-7.35998E-01-2.65376E-14-3.23126E-13
 -1      3023 1.99348E+01 2.53804E+00 3.42685E-03 4.32592E-03 9.28041E-14-3.23898E-13
 -1      3024 1.97961E+01 2.86962E+00-5.35966E-03-6.18658E-02 9.94551E-14-3.35456E-13
 -1      3025 1.98033E+01 2.85444E+00-5.67320E-03-2.16870E-01 7.68739E-14-3.57226E-13
 -1      3026 2.71995E+01-3.79586E+00 1.31052E-02-1.25247E+00 4.00305E-13-5.05429E-14
 -1      3027 1.82881E+01-4.32544E+00 1.04887E-01-5.35573E+00-1.42830E-13-2.80276E-13
 -1      3028 1.89935E+01-4.71752E+00 8.94014E-02-5.97317E+00 3.58186E-13-2.43069E-13
 -1      3029 7.81296E+00-8.32938E-01 1.82749E-01-1.69052E+00 1.51046E-13 1.67116E-13
 -1      3030 9.31468E+00-8.53132E-01 9.06561E-02-3.00426E+00 9.68982E-14 7.56895E-14
 -1      3031 9.21077E+00-1.69946E-01 1.41323E-01-7.75891E-01-3.49807E-14 3.87884E-14
 -1      3032 2.46071E+01-5.11764E+00 4.63385E-02 3.33106E+00 3.12236E-13-1.89477E-13
 -1      3033 2.08352E+01-6.57669E-02-4.67916E-03-1.43385E+00-1.68404E-14 7.45170E-14
 -1      3034 2.87882E+01-7.51602E-01-6.75475E-02-1.66668E+00 2.47302E-13-4.27949E-13
 -1      3035 1.88918E+01-4.35347E+00 1.21504E-01 5.67151E+00 1.86406E-13 1.80751E-13
 -1      3036 2.60218E+01 2.43001E+00-3.58613E-02 2.49148E+00 2.18575E-14 1.42837E-13
 -1      3037 2.61971E+01 9.94108E-01-1.34945E-01 2.89142E+00-1.24761E-14 2.94417E-13
 -1      3038 2.69445E+01 4.64778E+00-1.04675E-01-2.01897E-01-7.57727E-14 6.47156E-14
 -1      3039 1.20376E+01-2.25070E+00 1.75561E-01-4.84415E+00 6.66273E-14-3.80820E-13
 -1      3040 1.88623E+01 1.38119E+00 5.60390E-03 1.91257E+00 2.16923E-13-1.72753E-13
 -1      3041 1.91937E+01 1.50606E+00-1.88257E-02 1.86693E+00 2.75805E-13-4.49868E-13
 -1      3042 1.95228E+01 1.31700E+00 1.38700E-02 2.04405E+00 3.62871E-13-2.84735E-13
 -1      3043 2.00085E+01 9.37609E-01-9.65934E-03 2.11119E+00 6.60971E-14 2.47204E-15
 -1      3044 2.74620E+01 6.07376E+00-1.54390E-01-2.50345E-01 1.71807E-14 1.41202E-13
 -1      3045 2.62479E+01 5.33583E+00-1.15837E-01-7.91464E-01 1.10051E-14 2.36138E-13
 -1      3046 2.62574E+01 5.31302E+00-1.31741E-01 2.56132E-01 5.58997E-14 1.64703E-13
 -1      3047 2.05012E+01 3.96049E-01-9.96758E-04-1.49365E+00 1.60225E-13 1.17845E-13
 -1      3048 1.18900E+01-2.88413E+00 1.30114E-01-5.80964E+00 5.11466E-13-3.04257E-13
 -1      3049 1.44387E+01-2.86068E+00 1.10868E-01-5.66596E+00 4.99004E-13-2.64858E-13
 -1      3050 1.10689E+01-1.67527E+00 1.48105E-01-4.70062E+00 3.83853E-13-1.66450E-13
 -1      3051 9.30640E+00-8.31168E-01 1.74702E-01 2.57841E+00-1.03237E-13-2.55629E-13
 -1      3052 2.75762E+01 4.43092E+00-7.28878E-02 1.69283E+00-5.07927E-14 1.69004E-13
 -1      3053 2.80351E+01 2.31703E-01-6.65767E-02-1.80335E+00-1.79974E-13-1.17878E-13
 -1      3054 2.35902E+01-4.97945E+00 3.35845E-02 3.72373E+00-4.46865E-14-1.37775E-13
 -1      3055 2.02900E+01 1.58739E+00-1.21299E-03 1.16688E+00 2.50686E-13-5.90153E-14
 -1      3056 2.07222E+01 4.83483E-02 8.37920E-03-1.57469E+00-8.82016E-14 1.08853E-13
 -1      3057 2.04794E+01 3.31973E-01-3.81176E-03-1.66397E+00 2.63489E-14 2.38944E-13
 -1      3058 2.05142E+01 9.83361E-02-5.63125E-03-1.84794E+00-9.85316E-14 3.82054E-13
 -1      3059 2.08526E+01-1.60594E-01-2.00869E-03-1.59613E+00-1.51615E-13 1.04186E-13
 -1      3060 2.02791E+01 1.36605E+00 2.01315E-03 9.20657E-01 2.44260E-13-8.99919E-14
 -1      3061 1.98192E+01 2.81964E+00-5.52080E-03-3.51936E-01 6.32650E-14-3.35148E-13
 -1      3062 1.98429E+01 2.77052E+00-6.37086E-03-5.05943E-01 3.10255E-14-3.40441E-13
 -1      3063 1.99962E+01 2.39531E+00 4.55597E-03-5.06916E-01 2.40957E-14-3.33109E-13
 -1      3064 1.99497E+01 2.50409E+00 3.80148E-03-2.55830E-01 5.61673E-14-3.29155E-13
 -1      3065 1.25912E+01-2.46137E+00 1.39496E-01 5.41220E+00 1.60871E-13 4.37428E-14
 -1      3066 2.69706E+01-3.21375E+00-4.90982E-03 5.07898E-01 1.79336E-14 5.12645E-14
 -1      3067 2.75524E+01-1.08734E+00-1.23983E-02 1.22194E+00 2.93564E-13-2.21365E-13
 -1      3068 2.84788E+01 2.39496E-01-1.18717E-01 1.57437E+00 2.06682E-13-1.62412E-13
 -1      3069 2.73146E+01 1.07250E+00-8.88229E-02 1.99558E+00 2.60229E-13-1.24525E-13
 -1      3070 8.31364E+00-6.06075E-01 1.88637E-01-1.83294E+00 7.24143E-14-5.38958E-13
 -1      3071 8.45855E+00-6.46834E-01 1.84999E-01 2.35016E+00 9.20375E-14-1.72584E-13
 -1      3072 2.02655E+01 1.02508E+00-7.49099E-04-6.71206E-01-9.87430E-14-2.39830E-13
 -1      3073 2.70221E+01-3.36820E+00 1.62329E-02 5.20246E-01-2.08724E-13-2.20879E-13
 -1      3074 2.02405E+01 1.48109E+00-6.07211E-03 8.04173E-01 2.19795E-13-1.25085E-13
 -1      3075 2.02019E+01 1.66895E+00-3.74373E-04 7.48047E-01 2.11824E-13-1.62776E-13
 -1      3076 1.47255E+01-2.79311E+00 2.40844E-02 5.56515E+00 2.23162E-13 2.11345E-13
 -1      3077 1.22104E+01-1.44364E+00 1.10096E-01 4.62311E+00 1.84977E-13 7.09155E-15
 -1      3078 2.02212E+01 4.22461E-01 3.92921E-03-1.21586E-01-5.99259E-14-1.96636E-13
 -1      3079 2.01823E+01 3.14992E-01-2.31130E-03-3.67109E-02-6.64406E-14-2.12180E-13
 -1      3080 2.01681E+01 2.31695E-01 3.16150E-03 2.47839E-02-7.56404E-14-2.02129E-13
 -1      3081 2.01380E+01 1.61500E-01-1.28574E-03 7.58210E-02-1.04013E-13-2.07135E-13
 -1      3082 2.02388E+01 3.31745E-01-9.33237E-04-2.76276E-02-7.92216E-14-2.04304E-13
 -1      3083 2.01213E+01 1.07922E-01 2.22492E-03 1.11877E-01-9.83659E-14-1.91311E-13
 -1      3084 2.01004E+01 6.33233E-02-6.01019E-04 1.39375E-01-6.29620E-14-2.06702E-13
 -1      3085 2.01983E+01 1.68283E-01-1.04497E-03 7.53387E-02-9.25609E-14-2.10128E-13
 -1      3086 2.00842E+01 2.99933E-02 1.45089E-03 1.57495E-01-4.15166E-14-2.07176E-13
 -1      3087 2.00709E+01 3.05235E-03-1.53449E-04 1.69338E-01-1.92432E-14-1.70466E-13
 -1      3088 2.01597E+01 6.32594E-02-9.86400E-04 1.33919E-01-4.54927E-14-2.28900E-13
 -1      3089 2.00566E+01-1.62759E-02 8.56154E-04 1.75574E-01-6.55021E-15-1.30430E-13
 -1      3090 2.00491E+01-3.09047E-02 1.32999E-04 1.77655E-01-2.84534E-14-1.06578E-13
 -1      3091 2.01260E+01-1.00982E-03-8.56014E-04 1.61700E-01 1.58479E-14-1.84438E-13
 -1      3092 2.00370E+01-4.04560E-02 4.20738E-04 1.76700E-01-4.41281E-14-8.50420E-14
 -1      3093 2.00338E+01-4.64498E-02 3.14739E-04 1.73331E-01-1.45666E-14-7.14650E-14
 -1      3094 2.00982E+01-3.66392E-02-7.11138E-04 1.69583E-01 2.36819E-15-1.50681E-13
 -1      3095 2.00238E+01-4.91200E-02 1.11016E-04 1.68694E-01-7.73211E-14-5.24607E-14
 -1      3096 2.00237E+01-4.90008E-02 4.32401E-04 1.63004E-01-8.96767E-14-8.57373E-14
 -1      3097 2.00758E+01-5.20635E-02-5.74292E-04 1.65946E-01-5.58698E-14-1.19675E-13
 -1      3098 2.00156E+01-4.67523E-02-1.08017E-04 1.57271E-01-9.72870E-14-9.13705E-14
 -1      3099 2.00176E+01-4.22083E-02 5.14742E-04 1.51542E-01-7.37494E-14-9.97251E-14
 -1      3100 2.00583E+01-5.31205E-02-4.54011E-04 1.57042E-01-1.07633E-13-6.75904E-14
 -1      3101 2.00111E+01-3.63297E-02-2.66314E-04 1.46636E-01-7.11550E-14-1.13574E-13
 -1      3102 2.00148E+01-2.84404E-02 5.81897E-04 1.42567E-01-4.23037E-14-6.72933E-14
 -1      3103 2.00449E+01-4.37490E-02-3.52023E-04 1.47508E-01-6.41872E-14-9.57383E-14
 -1      3104 2.00095E+01-1.97295E-02-3.88034E-04 1.39954E-01-6.27986E-14-1.34442E-13
 -1      3105 2.00145E+01-9.12879E-03 6.48340E-04 1.38861E-01-1.08572E-13-1.76450E-13
 -1      3106 2.00347E+01-2.64905E-02-2.65766E-04 1.40841E-01-7.73185E-14-1.75109E-13
 -1      3107 2.00100E+01 1.97243E-03-4.92043E-04 1.39718E-01-1.14927E-13-1.61280E-13
 -1      3108 2.00162E+01 1.49658E-02 7.24174E-04 1.42685E-01-1.31264E-13-2.06725E-13
 -1      3109 2.00267E+01-2.86554E-03-1.91636E-04 1.39760E-01-1.23707E-13-1.75007E-13
 -1      3110 2.00120E+01 2.82551E-02-5.92160E-04 1.48023E-01-1.45948E-13-2.11099E-13
 -1      3111 2.00195E+01 4.35203E-02 8.16160E-04 1.56006E-01-1.54019E-13-2.10303E-13
 -1      3112 2.00202E+01 2.63295E-02-1.25528E-04 1.46513E-01-1.29022E-13-1.89359E-13
 -1      3113 2.00153E+01 5.89242E-02-6.97659E-04 1.66756E-01-6.86246E-14-1.76435E-13
 -1      3114 2.00242E+01 7.64191E-02 9.27773E-04 1.80641E-01-9.17833E-15-1.25795E-13
 -1      3115 2.00144E+01 6.07519E-02-6.38203E-05 1.63082E-01-7.93362E-14-1.41683E-13
 -1      3116 2.00195E+01 9.38727E-02-8.12808E-04 1.97704E-01-1.48270E-14-1.64025E-13
 -1      3117 2.00300E+01 1.13497E-01 1.05958E-03 2.18320E-01-4.34006E-15-1.36846E-13
 -1      3118 2.00084E+01 1.00239E-01-4.59237E-06 1.91322E-01-3.43422E-14-1.93832E-13
 -1      3119 2.00245E+01 1.32799E-01-9.35986E-04 2.42570E-01 6.03464E-14-1.20294E-13
 -1      3120 2.00370E+01 1.54225E-01 1.20939E-03 2.70662E-01 7.40588E-14-1.25748E-13
 -1      3121 2.00016E+01 1.44496E-01 5.18103E-05 2.33021E-01 5.29518E-14-2.39050E-13
 -1      3122 2.00305E+01 1.74853E-01-1.05800E-03 3.02912E-01 6.59700E-14-4.87166E-14
 -1      3123 2.00455E+01 1.97309E-01 1.37257E-03 3.39045E-01 9.97669E-14-7.44790E-14
 -1      3124 1.99933E+01 1.92721E-01 1.00120E-04 2.89873E-01 1.13278E-13-1.77657E-13
 -1      3125 2.00380E+01 2.18177E-01-1.15898E-03 3.79967E-01 1.25892E-13-8.90419E-14
 -1      3126 2.00563E+01 2.40154E-01 1.54273E-03 4.24372E-01 1.84706E-13-1.13243E-13
 -1      3127 1.99833E+01 2.43112E-01 1.26638E-04 3.63381E-01 1.18464E-13-8.21003E-14
 -1      3128 2.00483E+01 2.59287E-01-1.20374E-03 4.74360E-01 2.11282E-13-1.01629E-13
 -1      3129 2.00710E+01 2.78157E-01 1.71291E-03 5.26698E-01 1.12894E-13-7.90647E-14
 -1      3130 1.99720E+01 2.92229E-01 1.03877E-04 4.54663E-01 1.80700E-13-1.04631E-13
 -1      3131 2.00641E+01 2.92276E-01-1.13528E-03 5.85674E-01-7.42674E-14-1.05567E-13
 -1      3132 2.00931E+01 3.03816E-01 1.87686E-03 6.44703E-01-1.34222E-13-1.16732E-13
 -1      3133 1.99610E+01 3.34165E-01-1.79013E-05 5.64162E-01 4.91574E-14-1.42564E-13
 -1      3134 2.00901E+01 3.07834E-01-8.65243E-04 7.11831E-01-1.48408E-13-1.47146E-13
 -1      3135 2.01285E+01 3.05672E-01 2.02846E-03 7.74956E-01-9.06282E-14-1.34491E-13
 -1      3136 1.99541E+01 3.59501E-01-3.22702E-04 6.91240E-01-1.68834E-13-1.35116E-13
 -1      3137 2.01349E+01 2.92169E-01-2.61098E-04 8.48240E-01-1.15814E-14-1.93226E-13
 -1      3138 2.01877E+01 2.67263E-01 2.15342E-03 9.10914E-01-2.97290E-14-1.68550E-13
 -1      3139 1.99584E+01 3.54116E-01-9.44354E-04 8.33613E-01-8.03651E-14-1.67342E-13
 -1      3140 2.02125E+01 2.26118E-01 8.69436E-04 9.86554E-01-9.38726E-15-1.88719E-13
 -1      3141 2.02874E+01 1.66536E-01 2.20345E-03 1.04146E+00 3.36518E-14-1.51107E-13
 -1      3142 1.99869E+01 2.98032E-01-2.08287E-03 9.86490E-01-7.81960E-15-1.51108E-13
 -1      3143 2.03453E+01 8.51424E-02 2.79307E-03 1.11276E+00 7.46420E-14-1.05856E-13
 -1      3144 2.04533E+01-2.32469E-02 2.02468E-03 1.14872E+00 4.58064E-14-7.72076E-14
 -1      3145 2.00612E+01 1.64842E-01-4.01065E-03 1.14108E+00 8.39988E-14-7.26747E-14
 -1      3146 2.05665E+01-1.58299E-01 5.82603E-03 1.20404E+00 2.28656E-14 6.68655E-15
 -1      3147 2.07213E+01-3.28993E-01 1.20677E-03 1.20446E+00 3.44266E-14 1.09346E-13
 -1      3148 2.02146E+01-7.70450E-02-7.05379E-03 1.28177E+00 1.24174E-13 2.71683E-14
 -1      3149 2.09202E+01-5.27045E-01 1.02166E-02 1.22345E+00 6.49849E-14 1.47217E-13
 -1      3150 2.11354E+01-7.65079E-01-9.49832E-04 1.16466E+00 2.16672E-13 1.90111E-13
 -1      3151 2.04961E+01-4.58871E-01-1.14899E-02 1.38053E+00 1.21440E-13 2.60148E-13
 -1      3152 2.14550E+01-1.02022E+00 1.56957E-02 1.11353E+00 1.31180E-13 1.57534E-13
 -1      3153 2.17351E+01-1.30683E+00-5.37139E-03 9.64971E-01 1.12297E-13 1.47561E-13
 -1      3154 2.09689E+01-9.93989E-01-1.68845E-02 1.38708E+00 1.06131E-13 2.88265E-13
 -1      3155 2.22019E+01-1.57856E+00 2.07568E-02 7.92317E-01 1.69518E-13 5.00277E-14
 -1      3156 2.25268E+01-1.84347E+00-1.23946E-02 5.22747E-01 1.09968E-13 8.42871E-14
 -1      3157 2.16969E+01-1.64491E+00-2.18743E-02 1.21801E+00 5.17194E-14 4.50083E-14
 -1      3158 2.31281E+01-2.02889E+00 2.04701E-02 1.66963E-01 5.49777E-15 1.17832E-13
 -1      3159 2.34384E+01-2.11020E+00-1.76802E-02-2.33686E-01-6.70800E-14 9.15821E-14
 -1      3160 2.27111E+01-2.25827E+00-2.18704E-02 7.56528E-01 1.96830E-14-1.01890E-13
 -1      3161 2.40440E+01-2.01473E+00 2.94233E-03-7.79706E-01-3.31224E-14 8.32793E-14
 -1      3162 2.42554E+01-1.67754E+00-1.38419E-02-1.23378E+00 6.85736E-15 3.33206E-14
 -1      3163 2.39134E+01-2.46136E+00-1.00939E-02-1.18826E-01 7.75118E-15-3.19820E-14
 -1      3164 2.46229E+01-1.09353E+00-3.87812E-02-1.80813E+00-1.11904E-13 1.25797E-13
 -1      3165 2.46594E+01-1.87191E-01-7.75216E-03-2.10207E+00-2.22874E-13 7.22452E-14
 -1      3166 2.49890E+01-1.70219E+00 3.70167E-03-1.31541E+00-8.72236E-14-4.11390E-14
 -1      3167 2.40181E+01 2.97306E+00-6.30062E-02-1.55067E+00-1.34292E-13-2.91126E-13
 -1      3168 2.39302E+01 3.56268E+00-3.77972E-02-8.63158E-01-1.52059E-13-1.65287E-13
 -1      3169 2.39326E+01 3.72696E+00-5.08208E-02 1.27024E-01-1.34240E-13 1.05124E-15
 -1      3170 2.39068E+01 3.39941E+00-8.48482E-02 8.79143E-01 1.01717E-13 3.14124E-14
 -1      3171 2.53278E+01 2.82583E+00-6.55137E-02 1.69170E+00 1.19488E-13 2.62117E-15
 -1      3172 2.54908E+01 1.56650E+00-8.25372E-02 1.96665E+00 1.90823E-13-8.29423E-14
 -1      3173 2.44114E+01-1.54789E+00-1.27714E-02 1.01901E+00 2.41290E-13-8.39782E-14
 -1      3174 2.42295E+01-1.99627E+00-2.86839E-03 5.69780E-01 1.75505E-13-2.10101E-14
 -1      3175 2.36639E+01-2.18762E+00-1.89408E-02-2.79249E-02 5.16208E-14-6.54126E-14
 -1      3176 2.33604E+01-2.15886E+00 1.92634E-02-4.63596E-01 1.25332E-13-5.63484E-14
 -1      3177 2.42785E+01-2.51830E+00-1.05972E-02-9.38534E-02 2.27007E-13-8.74736E-14
 -1      3178 2.27489E+01-1.99286E+00-1.41837E-02-8.79992E-01 2.06376E-13 7.89841E-15
 -1      3179 2.24087E+01-1.71465E+00 2.18552E-02-1.18399E+00 1.31602E-13 8.75315E-14
 -1      3180 2.30967E+01-2.43273E+00-2.10600E-02-1.09154E+00 1.52378E-13 8.04478E-16
 -1      3181 2.19149E+01-1.40536E+00-7.32391E-03-1.39534E+00 1.22801E-13 1.98256E-13
 -1      3182 2.16043E+01-1.05606E+00 1.57786E-02-1.55732E+00 1.49896E-14 3.67734E-13
 -1      3183 2.20466E+01-1.78102E+00-2.00366E-02-1.64722E+00 2.78577E-13 1.24404E-13
 -1      3184 2.13067E+01-7.63277E-01-3.39684E-03-1.59082E+00-2.48349E-13 4.46279E-13
 -1      3185 2.10580E+01-4.30326E-01 1.03313E-02-1.63810E+00-2.07853E-13 3.77580E-13
 -1      3186 2.08750E+01-3.50704E-01-3.98484E-03-1.79140E+00-3.06043E-13 2.83062E-13
 -1      3187 2.13254E+01-1.01972E+00-1.14136E-02-1.82654E+00-4.30934E-14 3.63642E-13
 -1      3188 2.00729E+01 1.50722E-01-1.12988E-03-7.53190E-02 1.01739E-13-3.72016E-14
 -1      3189 2.01054E+01 2.15885E-01 3.70266E-03-2.18118E-02 1.14815E-13-3.71961E-14
 -1      3190 1.99860E+01-4.12867E-02 3.25426E-04-1.78347E-01 7.21179E-14 1.18180E-14
 -1      3191 1.99847E+01-3.54152E-02 4.13625E-04-1.82228E-01 1.22558E-13-2.57427E-14
 -1      3192 1.99939E+01-2.63818E-02 1.72594E-04-1.83235E-01 1.28850E-13-3.67945E-14
 -1      3193 1.99972E+01-1.27310E-02 8.96199E-04-1.81414E-01 7.98839E-14-1.66820E-14
 -1      3194 2.00513E+01-3.22168E-02-7.64925E-04-1.78295E-01 1.05062E-13-1.98303E-14
 -1      3195 1.99853E+01-3.95884E-02 5.01883E-04-1.53923E-01 4.02799E-16 8.20238E-14
 -1      3196 1.99790E+01-4.31295E-02-1.41156E-04-1.60471E-01 3.91169E-14 5.93619E-14
 -1      3197 1.99900E+01-2.83797E-02 5.71782E-04-1.43167E-01 4.40195E-14 9.13067E-14
 -1      3198 1.99823E+01-3.49110E-02-2.93075E-04-1.48166E-01 4.25178E-14 9.71139E-14
 -1      3199 2.00183E+01-4.24944E-02-3.46746E-04-1.52792E-01 5.89208E-15 1.01373E-14
 -1      3200 1.99972E+01-1.21691E-02 6.49315E-04-1.37505E-01 4.28557E-14-3.35751E-15
 -1      3201 1.99883E+01-2.11675E-02-4.02343E-04-1.39609E-01 7.67169E-14 7.46146E-14
 -1      3202 2.00151E+01-2.80310E-02-2.68696E-04-1.44241E-01 1.01054E-13 2.95406E-14
 -1      3203 2.00066E+01 8.51671E-03 7.44850E-04-1.39312E-01 5.48541E-14 8.11744E-15
 -1      3204 1.99964E+01-2.75470E-03-4.91615E-04-1.37385E-01 2.63619E-14 4.63246E-15
 -1      3205 2.00144E+01-7.65639E-03-2.10208E-04-1.41211E-01 4.28805E-14 1.80028E-15
 -1      3206 2.00179E+01 3.36754E-02 8.66218E-04-1.50722E-01-3.39601E-14 5.60848E-14
 -1      3207 2.00062E+01 2.00711E-02-5.79379E-04-1.43714E-01-5.98727E-16 3.06918E-14
 -1      3208 2.00154E+01 1.81145E-02-1.62545E-04-1.46105E-01-4.04734E-15 2.53863E-14
 -1      3209 2.00313E+01 6.36955E-02 1.01857E-03-1.73835E-01-2.45719E-14 9.97375E-16
 -1      3210 2.00178E+01 4.75119E-02-6.80733E-04-1.60686E-01-2.96161E-14 2.98277E-14
 -1      3211 2.00175E+01 4.93516E-02-1.17656E-04-1.61097E-01-4.81052E-14 3.32497E-15
 -1      3212 2.00467E+01 9.92283E-02 1.20469E-03-2.10845E-01-6.59030E-14 6.18846E-14
 -1      3213 2.00310E+01 8.00990E-02-8.08290E-04-1.90430E-01-3.80546E-14 4.74506E-14
 -1      3214 2.00201E+01 8.65532E-02-6.55802E-05-1.88326E-01-6.98745E-14-4.48852E-14
 -1      3215 2.00642E+01 1.41041E-01 1.42436E-03-2.64113E-01-7.18561E-14 1.41700E-13
 -1      3216 2.00457E+01 1.18559E-01-9.72823E-04-2.35214E-01-7.39227E-14 1.34672E-13
 -1      3217 2.00223E+01 1.30484E-01 4.94428E-06-2.30000E-01-7.89045E-14 2.98562E-14
 -1      3218 2.00835E+01 1.89811E-01 1.67417E-03-3.36154E-01-3.79659E-14 1.89202E-13
 -1      3219 2.00617E+01 1.63644E-01-1.18284E-03-2.97481E-01-3.94780E-14 1.88733E-13
 -1      3220 2.00230E+01 1.81986E-01 1.06471E-04-2.88453E-01-6.87311E-14 1.45947E-13
 -1      3221 2.01041E+01 2.45813E-01 1.94766E-03-4.29550E-01 1.30763E-14 1.22500E-13
 -1      3222 2.00787E+01 2.15880E-01-1.44318E-03-3.79806E-01-3.16693E-15 1.23209E-13
 -1      3223 2.00209E+01 2.41708E-01 2.52503E-04-3.66116E-01-9.08894E-15 2.83460E-13
 -1      3224 2.01252E+01 3.08392E-01 2.23661E-03-5.46743E-01 1.27813E-13 1.69235E-13
 -1      3225 2.00960E+01 2.75166E-01-1.75195E-03-4.84766E-01 7.55223E-14 1.18430E-13
 -1      3226 2.00141E+01 3.09695E-01 4.54116E-04-4.65434E-01 3.73687E-14 2.61942E-13
 -1      3227 2.01459E+01 3.75104E-01 2.53533E-03-6.89693E-01 1.01573E-13 2.22679E-13
 -1      3228 2.01124E+01 3.40097E-01-2.09438E-03-6.14695E-01 1.58896E-13 1.73994E-13
 -1      3229 2.00001E+01 3.84720E-01 7.12931E-04-5.88693E-01 9.88444E-14 2.32366E-13
 -1      3230 2.01656E+01 4.40284E-01 2.85000E-03-8.59369E-01 6.28390E-14 1.42821E-13
 -1      3231 2.01272E+01 4.06857E-01-2.43166E-03-7.71303E-01 8.08973E-14 1.64551E-13
 -1      3232 1.99764E+01 4.63189E-01 1.00659E-03-7.37803E-01 1.11702E-13 1.69269E-13
 -1      3233 2.01852E+01 4.92801E-01 3.21480E-03-1.05503E+00-3.46149E-14 6.86359E-14
 -1      3234 2.01406E+01 4.67417E-01-2.68164E-03-9.55139E-01 6.85646E-14 9.98583E-14
 -1      3235 1.99409E+01 5.37401E-01 1.26120E-03-9.14071E-01 6.63920E-14 9.92688E-14
 -1      3236 2.02105E+01 5.12695E-01 3.71384E-03-1.27326E+00-2.12061E-14 1.29953E-13
 -1      3237 2.01555E+01 5.06768E-01-2.68541E-03-1.16486E+00-9.17159E-14 6.96012E-14
 -1      3238 1.98937E+01 5.92845E-01 1.30335E-03-1.11802E+00-5.28238E-14 1.28015E-13
 -1      3239 2.02567E+01 4.66683E-01 4.50733E-03-1.50658E+00-1.13804E-13 1.74966E-13
 -1      3240 2.01821E+01 4.98977E-01-2.14769E-03-1.39618E+00 1.08143E-15 1.59657E-13
 -1      3241 1.98402E+01 6.04284E-01 7.85213E-04-1.34935E+00-5.55557E-14 1.97221E-13
 -1      3242 2.03573E+01 3.03183E-01 5.79360E-03-1.74119E+00-1.28989E-13 1.67861E-13
 -1      3243 2.02445E+01 4.02367E-01-5.05927E-04-1.64029E+00-9.32034E-14 1.56835E-13
 -1      3244 1.97978E+01 5.30608E-01-9.07002E-04-1.60688E+00-9.04285E-14 1.16435E-13
 -1      3245 2.05765E+01-5.05492E-02 7.44138E-03-1.95187E+00-7.93777E-15 2.69578E-14
 -1      3246 2.03927E+01 1.55215E-01 3.29397E-03-1.88023E+00-4.52628E-14 1.51013E-13
 -1      3247 1.98059E+01 3.09075E-01-4.76076E-03-1.88777E+00-8.48926E-14 1.09298E-13
 -1      3248 2.10238E+01-6.77286E-01 8.85973E-03-2.08757E+00-4.95957E-14 4.93811E-14
 -1      3249 2.07195E+01-3.22701E-01 1.10566E-02-2.08005E+00-5.14091E-14-5.80330E-15
 -1      3250 1.99452E+01-1.49368E-01-1.22194E-02-2.18114E+00 1.54056E-14 5.22598E-14
 -1      3251 2.18573E+01-1.62385E+00 9.41421E-03-2.04726E+00-5.55931E-14 9.81668E-14
 -1      3252 2.13688E+01-1.10457E+00 2.40157E-02-2.16547E+00 3.24523E-15 7.48039E-14
 -1      3253 2.03567E+01-9.36743E-01-2.36893E-02-2.44552E+00-7.52688E-14 4.03323E-16
 -1      3254 2.33101E+01-2.74875E+00 2.60989E-02-1.61356E+00-8.91795E-14-8.54642E-14
 -1      3255 2.25519E+01-2.20583E+00 4.22483E-02-1.98584E+00-9.91350E-14 2.17996E-14
 -1      3256 2.12440E+01-2.11938E+00-4.48952E-02-2.58406E+00-7.72559E-15-1.46235E-13
 -1      3257 2.61730E+01-3.73061E+00 7.86321E-02-3.33058E-01 6.53158E-14 3.92880E-14
 -1      3258 2.37433E+01-2.95559E+00 5.91771E-02 1.92515E+00 1.83987E-13-6.90681E-13
 -1      3259 2.45016E+01-3.41444E+00-3.40264E-03 1.37421E+00 6.77722E-14-5.67215E-13
 -1      3260 2.21468E+01-1.82063E+00 3.85270E-02 2.51633E+00 3.06430E-14-3.37530E-13
 -1      3261 2.27633E+01-2.41335E+00 2.72349E-03 2.24640E+00 7.80088E-14-4.47193E-13
 -1      3262 2.25191E+01-3.12327E+00-6.91071E-02 2.81544E+00-1.59213E-14-4.56643E-13
 -1      3263 2.11961E+01-7.84613E-01 3.07917E-02 2.62879E+00-9.23939E-14-3.21789E-14
 -1      3264 2.15920E+01-1.29259E+00 5.45201E-03 2.54779E+00 1.59226E-14-2.37528E-13
 -1      3265 2.11245E+01-1.72934E+00-4.41490E-02 3.00265E+00-7.22057E-14-2.76643E-13
 -1      3266 2.02909E+01 9.88742E-01-4.11891E-04 6.91416E-01 2.32808E-13-8.47644E-14
 -1      3267 2.02673E+01 1.30639E+00 2.90321E-03 7.72439E-01 2.27739E-13-9.06371E-14
 -1      3268 2.02712E+01 1.12706E+00 7.83620E-05 5.95113E-01 2.08293E-13-9.22331E-14
 -1      3269 2.02315E+01 7.75527E-01-3.89922E-03 4.86125E-01 2.02342E-13-8.67863E-14
 -1      3270 1.86758E+01 9.51905E-01 1.97600E-02-1.95554E+00 6.39899E-14-2.06592E-13
 -1      3271 1.82284E+01 1.12843E+00-2.19487E-02-1.65910E+00-4.16072E-14-5.39082E-13
 -1      3272 1.78572E+01 1.42996E+00 1.05675E-02-1.19495E+00-5.75852E-14-9.10825E-13
 -1      3273 1.75800E+01 1.54217E+00-1.69896E-02-7.16686E-01 1.50730E-14-7.24579E-13
 -1      3274 1.77025E+01 1.03841E+00 1.13974E-02-1.62813E+00-1.08968E-13-6.15509E-13
 -1      3275 1.49180E+01-2.47575E+00-3.51743E-03 5.34465E+00 1.20029E-13 2.34882E-13
 -1      3276 1.28696E+01-1.38995E+00 1.27018E-01 4.49287E+00 1.11022E-15 5.24858E-14
 -1      3277 2.04434E+01-4.31612E+00-6.50316E-02 4.91759E+00 1.41290E-13 1.03972E-13
 -1      3278 1.77254E+01-3.23039E+00 1.35285E-01 5.38821E+00 1.07615E-13 1.63446E-13
 -1      3279 1.67725E+01-3.21727E+00 1.32071E-01-5.16651E+00-8.65974E-15-2.02484E-13
 -1      3280 1.98810E+01-4.19922E+00-3.94372E-02-4.59888E+00-1.81785E-13-4.77604E-14
 -1      3281 2.48731E+01-4.35531E+00-6.24519E-02 2.13599E+00 1.59482E-13-5.15546E-13
 -1      3282 2.30925E+01-4.31543E+00 1.14165E-01 3.61130E+00 1.49838E-13-3.54473E-13
 -1      3283 2.31874E+01-4.80948E+00 9.24001E-02-4.01873E+00 2.36203E-13-1.71032E-13
 -1      3284 2.46026E+01-5.02876E+00-8.53766E-02-3.12937E+00 2.78923E-13-6.84565E-14
 -1      3285 2.02142E+01 1.77873E+00 6.18605E-03-9.23639E-01-8.09990E-14-2.88172E-13
 -1      3286 2.61653E+01-4.13985E+00 4.61073E-02-1.54698E+00 3.36546E-13-3.14748E-14
 -1      3287 2.70527E+01-3.02864E+00-1.38024E-01 4.13135E-02 3.04524E-13-2.13780E-13
 -1      3288 2.53420E+01-4.02331E+00 3.11675E-02-1.62047E+00 3.15550E-13-2.31343E-14
 -1      3289 2.01240E+01 2.93594E-01-2.01539E-03 4.56485E-02 1.18408E-13-6.20569E-14
 -1      3290 2.01698E+01 3.94581E-01 4.54385E-03 1.36287E-01 1.46982E-13-7.59834E-14
 -1      3291 2.01901E+01 3.16272E-01-1.44843E-03 3.75257E-02 1.11758E-13-6.45137E-14
 -1      3292 1.95926E+01 4.22031E-01 1.86687E-02-2.24319E+00 7.10588E-14 9.31607E-14
 -1      3293 1.91333E+01 6.12944E-01-1.75908E-02-2.14930E+00 8.05135E-14 4.59169E-14
 -1      3294 1.87209E+01 4.40455E-01-6.83757E-03-2.29408E+00 1.28816E-14-1.86122E-13
 -1      3295 2.03341E+01 2.24818E-02 1.27880E-02-2.11719E+00-3.97417E-14 2.26068E-13
 -1      3296 1.99915E+01 1.70547E-01-8.22262E-03-2.19794E+00 5.01737E-14 1.78206E-13
 -1      3297 1.97771E+01-9.04551E-02-1.22364E-02-2.41041E+00 6.06177E-14 9.42682E-14
 -1      3298 1.98248E+01 8.09861E-01 5.91256E-03 2.28060E+00 1.49330E-13 6.19923E-14
 -1      3299 1.77851E+01-3.72247E+00 1.09906E-01-5.71306E+00 4.45977E-13-1.02536E-13
 -1      3300 2.05379E+01-4.63909E+00-3.63786E-02-5.20387E+00 3.08871E-13-3.91270E-13
 -1      3301 1.10594E+01-7.21618E-01 8.16530E-02 3.41818E+00-1.29272E-13-1.68573E-13
 -1      3302 1.00120E+01-1.19162E-01 1.07063E-01 1.52923E+00-3.67909E-13 3.43336E-14
 -1      3303 2.80146E+01 3.15417E+00-7.55843E-02-2.03375E+00 5.94108E-14-7.41490E-14
 -1      3304 1.99836E+01-4.45901E-02 4.26066E-04-1.66895E-01 4.71230E-14 5.61289E-14
 -1      3305 1.99793E+01-4.41881E-02 8.23167E-05-1.73269E-01 6.78977E-14 1.81882E-14
 -1      3306 2.00353E+01-4.75461E-02-5.89602E-04-1.74125E-01 5.02468E-14 1.82732E-14
 -1      3307 2.00247E+01-4.97626E-02-4.51734E-04-1.63983E-01 1.60983E-14 7.19376E-14
 -1      3308 2.02697E+01 7.10566E-01 3.08149E-03-3.50025E-01-7.19365E-14-2.07846E-13
 -1      3309 2.02266E+01 5.50557E-01-3.76501E-03-2.15662E-01-5.39515E-14-2.06078E-13
 -1      3310 2.02743E+01 5.78770E-01-2.80611E-04-1.90375E-01-5.30060E-14-1.93332E-13
 -1      3311 1.20456E+01-1.12813E+00 1.21905E-01-4.03852E+00-2.19061E-14-3.94351E-13
 -1      3312 1.41848E+01-2.36010E+00 2.10892E-02-5.06248E+00-5.23193E-15-2.78458E-13
 -1      3313 1.66397E+01-2.16936E+00 1.22641E-01-4.39467E+00-3.06075E-14-1.96232E-13
 -1      3314 2.68386E+01 9.32917E-01-1.25007E-01-2.28929E+00-3.34670E-13-7.64458E-14
 -1      3315 2.71535E+01-9.11899E-01-3.94090E-03-1.69879E+00-2.35832E-13-2.49870E-13
 -1      3316 1.01076E+01-4.25670E-01 7.38164E-02 2.97707E+00 1.06207E-13-1.54585E-13
 -1      3317 8.92100E+00 6.79964E-02 1.26810E-01 1.05974E+00 1.80962E-13-3.73729E-13
 -1      3318 2.02755E+01 1.34982E+00-2.32858E-03-7.62307E-01-7.01318E-14-2.52717E-13
 -1      3319 2.02572E+01 9.63657E-01-3.63802E-03-4.81228E-01-6.49043E-14-2.30833E-13
 -1      3320 2.02881E+01 1.00134E+00 2.28089E-03-4.27317E-01-5.11126E-14-2.02972E-13
 -1      3321 2.02026E+01 1.67021E+00 2.46378E-03-7.13675E-01-3.52834E-14-2.44770E-13
 -1      3322 1.99852E+01-4.44503E+00-3.86750E-02 4.98933E+00 9.25510E-14 9.90458E-14
 -1      3323 1.75766E+01-3.55832E+00 1.25116E-01 5.44112E+00 1.55667E-13 1.32658E-13
 -1      3324 2.40147E+01-4.73827E+00-1.12559E-01 2.73958E+00 2.05010E-14-1.68194E-13
 -1      3325 2.23048E+01-4.62004E+00 9.98789E-02 4.02679E+00 4.70804E-14-1.28491E-14
 -1      3326 2.12116E+01-4.00788E+00 5.78993E-02 4.00748E+00 3.16379E-14-1.24714E-13
 -1      3327 2.63591E+01 4.38873E+00-1.47362E-01-1.77466E+00-2.23516E-13 1.05332E-13
 -1      3328 2.66753E+01 3.01358E+00-8.61890E-02-2.27903E+00-3.85580E-13-1.27114E-13
 -1      3329 8.83870E+00 7.37616E-02 1.12956E-01-5.50037E-01 7.28835E-14-5.04471E-13
 -1      3330 9.79308E+00-4.00844E-01 4.34652E-02-2.54013E+00 2.97887E-14-5.23998E-13
 -1      3331 1.05269E+01 4.16515E-01 1.35366E-01 2.48783E-01 9.75296E-14-3.91742E-13
 -1      3332 2.00470E+01 2.15988E+00-4.24352E-03 2.93096E-01 1.45712E-13-2.72734E-13
 -1      3333 2.00339E+01 2.19830E+00-3.41115E-03 1.71102E-01 1.02347E-13-2.83258E-13
 -1      3334 2.27839E+01-4.37886E+00 1.28924E-01-3.39900E+00-1.55917E-13 1.30373E-14
 -1      3335 2.41563E+01-4.58548E+00-1.17773E-01-2.26502E+00-3.73278E-14 2.62984E-14
 -1      3336 2.67215E+01-2.76376E+00-1.40790E-01-4.89837E-01-1.78978E-13-2.74315E-13
 -1      3337 2.60043E+01-3.74482E+00 7.89755E-02 8.41635E-01-1.03166E-13-2.02414E-13
 -1      3338 2.49104E+01-3.52951E+00 2.67036E-02-8.52234E-01 5.38979E-14-5.62154E-14
 -1      3339 2.00275E+01 2.21720E+00-3.54407E-03 6.61820E-02 8.67583E-14-2.97790E-13
 -1      3340 2.00259E+01 2.21595E+00-4.38042E-03-5.86357E-02 6.86369E-14-3.09605E-13
 -1      3341 2.01409E+01 1.92188E+00 4.99467E-03 1.01719E-01 8.77955E-14-2.69493E-13
 -1      3342 2.07334E+01-2.59781E-01 9.40124E-03-1.92525E+00-2.42527E-13 2.75381E-13
 -1      3343 2.05105E+01-1.15640E-01-3.26823E-03-2.03013E+00-1.55864E-13 3.48367E-13
 -1      3344 2.04835E+01-4.16432E-01-7.95320E-03-2.23011E+00-7.41868E-14 1.22237E-13
 -1      3345 2.09208E+01-6.03301E-01-3.18712E-04-1.97776E+00-3.11333E-13 2.02974E-13
 -1      3346 1.37128E+01-1.00124E+00-7.11773E-03 3.97274E+00 2.43760E-13 9.86988E-14
 -1      3347 1.19305E+01-6.36325E-01 1.16777E-01 3.66880E+00 2.30878E-13-5.80092E-15
 -1      3348 1.20324E+01 9.51760E-02 6.54628E-02 2.54942E+00 2.77547E-13-1.01280E-13
 -1      3349 1.03094E+01 1.78766E-01 1.35383E-01 4.85497E-01-2.95108E-13-8.04912E-15
 -1      3350 1.08285E+01 2.06799E-01 3.15167E-02-7.73599E-01-2.01781E-13-2.39919E-13
 -1      3351 1.18799E+01 3.34378E-01 8.66062E-02 1.26716E+00-3.08763E-13 5.95357E-14
 -1      3352 2.45346E+01 2.71141E+00-6.35081E-02-1.94482E+00-2.09860E-13-2.06229E-13
 -1      3353 2.51656E+01 3.57466E+00-7.66540E-02-1.69058E+00-2.86535E-13-2.80526E-13
 -1      3354 2.44789E+01 9.05158E-01-7.29166E-02-2.29647E+00-2.10776E-13-5.36463E-15
 -1      3355 2.43511E+01 1.99785E+00-9.59976E-03-2.07078E+00-1.49342E-13-1.23073E-13
 -1      3356 2.46396E+01 1.02708E-01-5.45257E-03 1.76189E+00 3.30323E-13-1.12740E-13
 -1      3357 2.47071E+01-8.29780E-01-3.82159E-02 1.57840E+00 2.77626E-13-5.71244E-14
 -1      3358 2.53671E+01 2.50585E+00-6.05123E-02-2.27275E+00-3.33331E-13-1.10904E-13
 -1      3359 2.63947E+01 1.92900E+00-7.93260E-02-2.44380E+00-3.40672E-13-9.96425E-15
 -1      3360 2.00739E+01 1.68352E-03-9.74910E-04-1.69805E-01 6.40678E-14-8.66353E-14
 -1      3361 2.00094E+01 5.07587E-03-7.40378E-05-1.74618E-01 3.26190E-14-4.34548E-14
 -1      3362 2.00196E+01 2.99204E-02 1.57707E-03-1.62617E-01 3.44658E-14-6.13121E-14
 -1      3363 2.39914E+01-3.23441E+00 6.45078E-02-1.51431E+00-7.63586E-14-1.12685E-13
 -1      3364 2.25090E+01-3.50383E+00-8.08524E-02-2.58319E+00-4.92922E-14-1.19578E-13
 -1      3365 2.79760E+01 1.10012E+00-1.18885E-01-2.53370E+00 1.89168E-13-8.91925E-14
 -1      3366 2.08108E+01-4.40813E-01 7.88125E-03 2.60940E+00-6.25215E-14 7.93217E-14
 -1      3367 2.03191E+01-6.75971E-01-2.91342E-02 2.91453E+00-1.09117E-13 3.42348E-15
 -1      3368 2.05226E+01-1.00495E-01 2.97277E-02 2.62937E+00 1.82007E-14 1.06046E-13
 -1      3369 1.98927E+01 5.28782E-01 1.70066E-02 2.45758E+00-1.26297E-14 1.72461E-13
 -1      3370 2.00847E+01 2.23714E-01 8.67103E-03 2.55068E+00 1.94172E-14 1.51650E-13
 -1      3371 1.91730E+01 8.17130E-01-2.59568E-02 2.40579E+00 1.52390E-13-1.74600E-13
 -1      3372 1.76396E+01 1.56773E+00-1.59912E-02 1.09143E+00 4.69589E-14-1.53976E-13
 -1      3373 1.79480E+01 1.46304E+00 9.49890E-03 1.54994E+00 6.86356E-14 1.47530E-13
 -1      3374 2.00350E+01 6.04216E-02-4.79193E-04-1.42959E-01 3.79551E-14-4.33179E-14
 -1      3375 2.00547E+01 1.01549E-01 2.50063E-03-1.14537E-01 6.96947E-14-3.28222E-14
 -1      3376 2.01045E+01 6.21786E-02-1.19995E-03-1.39584E-01 2.95405E-14-1.05945E-13
 -1      3377 2.01302E+01 1.90317E+00-2.22809E-03-5.48966E-01 7.01202E-15-3.11085E-13
 -1      3378 2.01598E+01 1.77908E+00-7.46642E-03-6.44389E-01-1.79812E-14-3.00972E-13
 -1      3379 2.02552E+01 1.41721E+00 3.98084E-03-5.15944E-01-1.64524E-14-2.70069E-13
 -1      3380 1.83078E+01 1.24166E+00-1.97529E-02 1.92868E+00 6.77475E-14 1.71136E-14
 -1      3381 1.87657E+01 1.08095E+00 1.57262E-02 2.18955E+00 1.55196E-13-2.75739E-13
 -1      3382 1.86943E+01 7.58618E-01-2.75657E-03 2.44567E+00 2.69388E-14-9.03249E-15
 -1      3383 1.77733E+01 1.14779E+00 5.99988E-03 1.89064E+00-3.16023E-14-8.11730E-15
 -1      3384 1.72954E+01-2.29143E+00 9.41150E-02 4.78236E+00 7.13041E-14 2.37942E-13
 -1      3385 1.74454E+01 1.67139E+00-4.30530E-03-7.99721E-02 9.95890E-14-5.55149E-13
 -1      3386 1.74641E+01 1.67503E+00-3.56827E-03 4.67083E-01 9.84707E-14-4.43061E-13
 -1      3387 1.71116E+01 1.45535E+00 1.65695E-02 8.52070E-01 1.05552E-13-2.15191E-13
 -1      3388 1.70642E+01 1.43710E+00 1.69149E-02-4.79475E-01 2.80949E-14-7.75122E-13
 -1      3389 2.59111E+01 4.81741E+00-1.63127E-01 7.43663E-01-2.29955E-14 2.40875E-13
 -1      3390 2.50354E+01 4.72242E+00-8.59423E-02 1.55793E-01 7.54674E-14-8.76833E-14
 -1      3391 2.10942E+01-3.57782E+00 6.63723E-02-3.66423E+00-9.98507E-14-8.54811E-14
 -1      3392 2.17955E+01-3.54232E+00 4.88753E-02 3.74790E+00-3.15338E-14-3.85704E-13
 -1      3393 2.62313E+01-1.73739E+00-1.87466E-02-1.29154E+00-1.98791E-13-3.40519E-13
 -1      3394 1.15562E+01-9.47451E-01 1.45261E-01-3.61900E+00 3.14651E-13-2.28387E-13
 -1      3395 2.49965E+01 4.47962E+00-9.67029E-02-8.49288E-01-1.89848E-14-2.50931E-13
 -1      3396 2.58906E+01 4.61119E+00-1.07588E-01-1.39639E+00-1.03501E-13 2.19512E-14
 -1      3397 1.69114E+01-2.70563E+00 8.93036E-02 4.92027E+00 1.16115E-13 9.00668E-14
 -1      3398 2.18434E+01-4.25623E+00 3.21064E-02-4.21896E+00 2.84099E-13-2.28373E-13
 -1      3399 2.62122E+01 3.80284E+00-8.94821E-02 1.43482E+00-3.47916E-14 1.15552E-13
 -1      3400 2.01438E+01 1.61090E-01-1.38579E-03-7.55934E-02 7.92429E-14-3.03111E-14
 -1      3401 2.60116E+01-3.75176E+00 1.97464E-02 7.20548E-01 5.01803E-14-4.79960E-13
 -1      3402 2.52354E+01-1.49290E+00-5.77456E-03 1.15097E+00 2.85133E-13-3.12792E-15
 -1      3403 2.75704E+01-5.10860E-01-1.11214E-01-2.07075E+00 1.78205E-13-2.16209E-13
 -1      3404 2.75480E+01-2.54043E+00-3.89063E-02-1.15591E+00 1.90150E-13-4.01949E-13
 -1      3405 2.67388E+01-1.90541E+00-3.16320E-02 8.90890E-01 2.87234E-13-1.43614E-13
 -1      3406 1.33012E+01-6.20472E-01 1.05787E-01 3.55907E+00-4.51306E-14 1.15748E-13
 -1      3407 2.68446E+01-3.31097E+00-2.85917E-02-1.02397E-01 1.13326E-13-4.01165E-13
 -1      3408 1.65221E+01-3.01856E+00 6.46214E-02-5.59996E+00 4.88005E-13 3.18218E-14
 -1      3409 1.83684E+01-2.88376E+00 5.76090E-02-4.86051E+00 4.61499E-13-1.84228E-14
 -1      3410 1.53155E+01-1.99701E+00 8.19615E-02-4.97780E+00 5.16288E-13-1.27995E-13
 -1      3411 2.01596E+01 1.80012E+00-7.18499E-03 6.86034E-01 2.00811E-13-1.92131E-13
 -1      3412 2.01248E+01 1.92958E+00-2.70168E-03 5.91132E-01 1.95291E-13-2.17574E-13
 -1      3413 2.02551E+01 1.46066E+00 6.71648E-03 5.89642E-01 1.91632E-13-1.59297E-13
 -1      3414 2.00923E+01 2.02408E+00-5.38989E-03 5.04943E-01 1.91634E-13-2.31568E-13
 -1      3415 2.00665E+01 2.10401E+00-3.34201E-03 3.92110E-01 1.69674E-13-2.58252E-13
 -1      3416 2.01642E+01 1.84680E+00 5.60306E-03 2.91987E-01 1.48796E-13-2.31922E-13
 -1      3417 2.02066E+01 1.69644E+00 6.86213E-03 4.62969E-01 1.69375E-13-2.14907E-13
 -1      3418 2.01755E+01 4.86120E-01-2.87425E-03 2.22236E-01 1.68513E-13-9.24851E-14
 -1      3419 2.02312E+01 6.35111E-01 3.97948E-03 3.62024E-01 1.78818E-13-9.30252E-14
 -1      3420 2.02604E+01 7.94056E-01 1.17640E-03 4.23249E-01 1.97514E-13-7.91413E-14
 -1      3421 2.02300E+01 5.22698E-01-1.52590E-03 2.01401E-01 1.45691E-13-6.28846E-14
 -1      3422 2.53556E+01 2.53333E-01-2.95308E-02-2.23566E+00-2.99129E-13 6.88061E-14
 -1      3423 2.01003E+01 1.98620E+00-5.83439E-03-4.65441E-01 1.46213E-14-3.16767E-13
 -1      3424 2.02170E+01 1.62916E+00 4.87647E-03-3.89103E-01 5.51065E-15-3.02962E-13
 -1      3425 2.00787E+01 2.06457E+00-2.56930E-03-3.52449E-01 3.41688E-14-3.02493E-13
 -1      3426 1.22976E+01-3.58363E-01 1.15753E-01-2.94298E+00-2.40051E-14-3.99049E-13
 -1      3427 2.46933E+01-3.87467E+00 2.36142E-02 1.47434E+00-8.16361E-15-2.80064E-13
 -1      3428 2.46616E+01 4.19755E+00-8.19868E-02-3.99156E-01-4.59910E-14-1.43562E-13
 -1      3429 2.02687E+01 2.37638E-01 2.08219E-03 3.86162E-02-6.32238E-14-2.04378E-13
 -1      3430 2.02444E+01 1.63023E-01-1.26325E-03 7.96825E-02-6.71202E-14-1.87879E-13
 -1      3431 2.02296E+01 1.04879E-01 1.60233E-03 1.06148E-01-6.71204E-14-1.68049E-13
 -1      3432 2.02083E+01 5.70350E-02-6.30552E-04 1.28469E-01-8.65979E-16-1.49097E-13
 -1      3433 2.02862E+01 1.61181E-01-4.51856E-04 7.63297E-02-3.46400E-14-1.40939E-13
 -1      3434 2.01908E+01 2.09619E-02 1.09963E-03 1.41361E-01-1.70813E-15-1.75740E-13
 -1      3435 2.01733E+01-7.56613E-03-1.81758E-04 1.51005E-01 6.29692E-15-1.94521E-13
 -1      3436 2.02487E+01 5.25391E-02-5.89043E-04 1.18761E-01-2.16932E-14-1.34177E-13
 -1      3437 2.01554E+01-2.78751E-02 6.84695E-04 1.54964E-01 1.01201E-14-2.33571E-13
 -1      3438 2.01416E+01-4.25933E-02 1.17969E-04 1.56715E-01-4.20429E-15-2.08131E-13
 -1      3439 2.02103E+01-1.31418E-02-6.22634E-04 1.38332E-01-1.92422E-14-2.39506E-13
 -1      3440 2.01245E+01-5.16754E-02 3.60458E-04 1.55420E-01-1.84054E-14-2.28760E-13
 -1      3441 2.01140E+01-5.65302E-02 3.10748E-04 1.52898E-01-4.53028E-14-2.17126E-13
 -1      3442 2.01739E+01-4.78242E-02-5.88113E-04 1.43323E-01-2.89542E-14-2.64495E-13
 -1      3443 2.00983E+01-5.75708E-02 1.10117E-04 1.49142E-01-1.05389E-13-1.70791E-13
 -1      3444 2.00905E+01-5.53056E-02 4.33179E-04 1.45049E-01-1.13295E-13-1.66128E-13
 -1      3445 2.01409E+01-6.02406E-02-5.16495E-04 1.40200E-01-4.70365E-14-2.31562E-13
 -1      3446 2.00762E+01-5.04765E-02-8.66048E-05 1.40941E-01-1.27200E-13-1.73408E-13
 -1      3447 2.00706E+01-4.29284E-02 5.12040E-04 1.37298E-01-8.77417E-14-2.11367E-13
 -1      3448 2.01117E+01-5.65137E-02-4.24503E-04 1.33887E-01-1.10110E-13-2.85030E-13
 -1      3449 2.00576E+01-3.36494E-02-2.48632E-04 1.34447E-01-6.15363E-14-2.26625E-13
 -1      3450 2.00535E+01-2.19797E-02 5.67372E-04 1.32800E-01-7.80489E-14-2.41652E-13
 -1      3451 2.00857E+01-4.07865E-02-3.22665E-04 1.28138E-01-7.11863E-14-3.24210E-13
 -1      3452 2.00413E+01-9.10809E-03-3.93283E-04 1.32468E-01-1.05080E-13-1.81349E-13
 -1      3453 2.00385E+01 6.02556E-03 6.14061E-04 1.34052E-01-1.26237E-13-1.53733E-13
 -1      3454 2.00623E+01-1.56966E-02-2.11979E-04 1.25851E-01-4.53333E-14-2.50610E-13
 -1      3455 2.00263E+01 2.20374E-02-5.34184E-04 1.37292E-01-1.45539E-13-1.62713E-13
 -1      3456 2.00242E+01 4.03223E-02 6.62753E-04 1.43158E-01-1.23204E-13-1.57292E-13
 -1      3457 2.00401E+01 1.72220E-02-9.50890E-05 1.29359E-01-1.45629E-13-2.07262E-13
 -1      3458 2.00114E+01 5.92778E-02-6.81828E-04 1.50913E-01-1.19183E-13-1.50693E-13
 -1      3459 2.00097E+01 8.05997E-02 7.20650E-04 1.62009E-01-1.05000E-13-1.46810E-13
 -1      3460 2.00177E+01 5.72130E-02 3.02997E-05 1.40667E-01-1.03856E-13-1.63434E-13
 -1      3461 1.99953E+01 1.02417E-01-8.43203E-04 1.75189E-01-7.02290E-14-1.03027E-13
 -1      3462 1.99935E+01 1.26701E-01 7.92701E-04 1.92418E-01-4.20693E-14-1.56880E-13
 -1      3463 1.99936E+01 1.03959E-01 1.64487E-04 1.61619E-01-9.04397E-14-1.37726E-13
 -1      3464 1.99767E+01 1.51242E-01-1.02071E-03 2.11938E-01 2.72399E-14-1.24876E-13
 -1      3465 1.99745E+01 1.78270E-01 8.82437E-04 2.36165E-01 9.39845E-14-1.21326E-13
 -1      3466 1.99660E+01 1.57242E-01 3.07412E-04 1.94024E-01-1.43603E-14-3.66295E-14
 -1      3467 1.99543E+01 2.05148E-01-1.21199E-03 2.62961E-01 1.03180E-13-1.47444E-13
 -1      3468 1.99515E+01 2.34333E-01 9.93927E-04 2.94988E-01 1.16237E-13-1.25387E-13
 -1      3469 1.99329E+01 2.16539E-01 4.55325E-04 2.39711E-01 9.05749E-14-1.89629E-14
 -1      3470 1.99271E+01 2.62660E-01-1.40767E-03 3.30011E-01 1.24228E-13-1.41517E-13
 -1      3471 1.99237E+01 2.92762E-01 1.13403E-03 3.70516E-01 1.58509E-13-1.21954E-13
 -1      3472 1.98928E+01 2.80547E-01 5.97320E-04 3.00549E-01 1.02883E-13-1.12830E-13
 -1      3473 1.98947E+01 3.20830E-01-1.58856E-03 4.14710E-01 1.51373E-13-1.34505E-13
 -1      3474 1.98912E+01 3.49580E-01 1.31590E-03 4.64146E-01 1.47696E-13-1.68532E-13
 -1      3475 1.98443E+01 3.46574E-01 7.12049E-04 3.78442E-01 1.22654E-13-1.81695E-13
 -1      3476 1.98577E+01 3.74437E-01-1.72195E-03 5.18402E-01 1.30785E-13-1.66312E-13
 -1      3477 1.98553E+01 3.98069E-01 1.56397E-03 5.76856E-01-3.94430E-15-1.53390E-13
 -1      3478 1.97868E+01 4.09765E-01 7.60598E-04 4.75293E-01 1.12447E-13-1.56915E-13
 -1      3479 1.98187E+01 4.15007E-01-1.75479E-03 6.41973E-01-1.50757E-13-1.73948E-13
 -1      3480 1.98200E+01 4.27680E-01 1.91961E-03 7.08984E-01-1.58864E-13-1.51424E-13
 -1      3481 1.97215E+01 4.62118E-01 6.76412E-04 5.92993E-01-5.38780E-14-1.27054E-13
 -1      3482 1.97834E+01 4.29617E-01-1.60150E-03 7.85606E-01-1.23020E-13-9.77780E-14
 -1      3483 1.97936E+01 4.22757E-01 2.44375E-03 8.59906E-01-5.87547E-14-5.46604E-14
 -1      3484 1.96522E+01 4.91290E-01 3.50060E-04 7.33411E-01-1.01693E-13-1.00460E-13
 -1      3485 1.97632E+01 3.99605E-01-1.12085E-03 9.48389E-01-2.04402E-14-9.70018E-14
 -1      3486 1.97907E+01 3.61263E-01 3.20677E-03 1.02749E+00-9.48287E-15-4.72132E-14
 -1      3487 1.95873E+01 4.79208E-01-3.94050E-04 8.98379E-01-7.56743E-14-2.49749E-14
 -1      3488 1.97777E+01 2.99445E-01-7.31481E-05 1.12751E+00 6.33145E-14-8.44947E-14
 -1      3489 1.98362E+01 2.13938E-01 4.25472E-03 1.20689E+00 1.69568E-13-4.95198E-14
 -1      3490 1.95428E+01 4.00593E-01-1.83079E-03 1.08946E+00 6.82957E-14-4.20480E-14
 -1      3491 1.98598E+01 9.65328E-02 1.96327E-03 1.31636E+00 1.99155E-13-7.16808E-14
 -1      3492 1.99696E+01-5.50452E-02 5.51194E-03 1.38778E+00 1.77912E-13 9.82853E-14
 -1      3493 1.95461E+01 2.21833E-01-4.36387E-03 1.30690E+00 1.49364E-13-1.17242E-13
 -1      3494 2.00602E+01-2.46672E-01 5.67095E-03 1.50024E+00 1.67590E-13 7.02204E-14
 -1      3495 2.02486E+01-4.84196E-01 6.29474E-03 1.54841E+00 2.03971E-13 1.78471E-13
 -1      3496 1.96422E+01-9.86975E-02-8.55408E-03 1.54652E+00 2.06517E-13-1.04458E-13
 -1      3497 2.04550E+01-7.65005E-01 1.20925E-02 1.64454E+00 4.98545E-14 7.19255E-14
 -1      3498 2.07525E+01-1.09784E+00 5.81969E-03 1.64042E+00 3.05598E-14 5.84233E-15
 -1      3499 1.99034E+01-6.09060E-01-1.53083E-02 1.79102E+00 1.02206E-13-1.84479E-13
 -1      3500 2.11376E+01-1.46420E+00 2.12889E-02 1.67795E+00 1.22168E-15-6.45727E-14
 -1      3501 2.15624E+01-1.87365E+00-1.01479E-04 1.57323E+00-1.17224E-14-1.21819E-13
 -1      3502 2.04367E+01-1.33602E+00-2.32949E-02 1.98478E+00-5.81388E-14-1.90763E-13
 -1      3503 2.21979E+01-2.26156E+00 3.40872E-02 1.46268E+00 4.06680E-14-1.12931E-13
 -1      3504 2.27243E+01-2.65705E+00-1.42201E-02 1.20165E+00 2.34682E-14-1.35918E-13
 -1      3505 2.13747E+01-2.25594E+00-3.03590E-02 2.02029E+00-7.75963E-15-1.60203E-13
 -1      3506 2.64574E+01 8.48462E-01-6.05508E-02 1.97727E+00 2.43666E-13-1.36263E-13
 -1      3507 2.57539E+01 7.52437E-01-7.84636E-03-2.30114E+00-3.13694E-13-1.57513E-15
 -1      3508 1.89643E+01-4.09615E-02 3.07494E-02-2.66940E+00 2.10682E-14-8.52686E-14
 -1      3509 1.82331E+01 1.97262E-01-2.31199E-02-2.50644E+00-1.66494E-14-1.88981E-13
 -1      3510 2.32505E+01-2.89528E+00-1.78235E-02-1.52288E+00 1.14941E-13 9.15273E-14
 -1      3511 2.27132E+01-2.50240E+00 3.47617E-02-1.83934E+00 2.66001E-13 1.30287E-13
 -1      3512 2.20508E+01-2.08585E+00-2.76284E-03-2.01352E+00 2.91311E-13 4.52069E-15
 -1      3513 2.15952E+01-1.61221E+00 1.77891E-02-2.14830E+00 2.32293E-13 5.25079E-14
 -1      3514 2.20064E+01-2.51827E+00-2.41440E-02-2.45815E+00 1.52474E-13-4.44974E-14
 -1      3515 2.03131E+01 7.33390E-01 5.86893E-04-2.44246E-01-7.02032E-14-1.86137E-13
 -1      3516 2.02974E+01 5.73087E-01-2.72297E-03-1.42687E-01-8.19649E-14-2.06488E-13
 -1      3517 2.00394E+01-2.50588E-02 5.89814E-04-1.38580E-01 4.03582E-14 3.69202E-14
 -1      3518 2.00398E+01-3.52043E-02-2.59298E-04-1.41187E-01 3.84443E-14-1.15399E-14
 -1      3519 2.00499E+01-4.30491E-02 5.26055E-04-1.44893E-01 3.92638E-14-8.49897E-15
 -1      3520 2.00520E+01-4.93020E-02-9.44527E-05-1.49439E-01 1.80713E-14 2.62604E-14
 -1      3521 2.00703E+01-4.24443E-02-3.38137E-04-1.38118E-01 4.95165E-14 6.03548E-14
 -1      3522 2.00241E+01 3.06841E-02 7.10683E-04-1.45528E-01-2.31279E-15 4.18633E-15
 -1      3523 2.00223E+01 1.40094E-02-5.38482E-04-1.40475E-01 2.13977E-14 1.67544E-14
 -1      3524 2.00172E+01 6.81051E-02 7.83941E-04-1.63139E-01-6.78210E-14 2.62058E-14
 -1      3525 2.00148E+01 4.80983E-02-6.86914E-04-1.52625E-01-1.88843E-14 3.25959E-14
 -1      3526 2.00215E+01 4.61693E-02-1.40361E-05-1.46004E-01-3.33454E-14-3.21054E-14
 -1      3527 2.00093E+01 1.12525E-01 8.70039E-04-1.92907E-01-9.93722E-14-3.88993E-14
 -1      3528 2.00066E+01 8.88425E-02-8.59422E-04-1.75870E-01-1.06293E-13-6.19526E-14
 -1      3529 2.00047E+01 9.05574E-02 1.22417E-04-1.66033E-01-3.49091E-14-2.51309E-14
 -1      3530 1.99986E+01 1.64778E-01 9.67602E-04-2.36911E-01-1.22861E-13 3.35887E-14
 -1      3531 1.99961E+01 1.36971E-01-1.06795E-03-2.12258E-01-9.56165E-14-1.75621E-14
 -1      3532 1.99846E+01 1.43094E-01 2.89535E-04-1.98037E-01-1.09753E-13-4.28111E-14
 -1      3533 1.99831E+01 2.25717E-01 1.07250E-03-2.97305E-01-8.09479E-14 1.19299E-13
 -1      3534 1.99815E+01 1.93358E-01-1.32292E-03-2.63903E-01-8.32049E-14 8.33204E-14
 -1      3535 1.99587E+01 2.04673E-01 4.99823E-04-2.43943E-01-1.36250E-13 4.92594E-14
 -1      3536 1.99604E+01 2.95904E-01 1.17986E-03-3.76275E-01-4.27689E-14 1.59241E-13
 -1      3537 1.99605E+01 2.58757E-01-1.63255E-03-3.32987E-01-4.54311E-14 1.54249E-13
 -1      3538 1.99241E+01 2.76128E-01 7.69030E-04-3.05693E-01-7.25906E-14-4.78332E-15
 -1      3539 1.99271E+01 3.75142E-01 1.28667E-03-4.75949E-01 4.38512E-14 1.44882E-13
 -1      3540 1.99300E+01 3.33421E-01-2.00285E-03-4.21699E-01 2.09300E-14 1.50004E-13
 -1      3541 1.98770E+01 3.57859E-01 1.11308E-03-3.85206E-01-1.94896E-14-6.35714E-14
 -1      3542 1.98795E+01 4.61747E-01 1.39964E-03-5.98284E-01 8.27228E-14 1.02462E-13
 -1      3543 1.98864E+01 4.16522E-01-2.43652E-03-5.32147E-01 8.35811E-14 1.24428E-13
 -1      3544 1.98130E+01 4.49279E-01 1.54488E-03-4.84323E-01 5.88802E-14-1.27101E-14
 -1      3545 1.98136E+01 5.51411E-01 1.55005E-03-7.44970E-01 1.18723E-13 1.02654E-13
 -1      3546 1.98258E+01 5.05232E-01-2.93104E-03-6.66273E-01 8.67874E-14 1.07322E-13
 -1      3547 1.97266E+01 5.47991E-01 2.06740E-03-6.04798E-01 9.65613E-14-1.91116E-14
 -1      3548 1.97257E+01 6.35422E-01 1.81950E-03-9.17498E-01 1.74144E-14 8.98867E-14
 -1      3549 1.97438E+01 5.93295E-01-3.47521E-03-8.25871E-01 9.14103E-14 1.14937E-13
 -1      3550 1.96122E+01 6.48515E-01 2.66027E-03-7.48455E-01 9.46695E-14 3.64008E-14
 -1      3551 1.96150E+01 6.98000E-01 2.37991E-03-1.11754E+00-8.08307E-14 8.07122E-14
 -1      3552 1.96375E+01 6.68835E-01-4.04098E-03-1.01286E+00-2.03960E-14 6.98930E-14
 -1      3553 1.94640E+01 7.40389E-01 3.25496E-03-9.17722E-01 1.31353E-14 6.18469E-14
 -1      3554 1.94864E+01 7.12444E-01 3.54640E-03-1.34788E+00-4.06374E-14 7.72494E-14
 -1      3555 1.95074E+01 7.11118E-01-4.56058E-03-1.23004E+00-7.25170E-14 1.16450E-13
 -1      3556 1.92782E+01 8.05355E-01 3.69113E-03-1.11688E+00-6.99754E-14-1.76918E-14
 -1      3557 1.93579E+01 6.36066E-01 5.88341E-03-1.61387E+00-1.28801E-13 3.96732E-14
 -1      3558 1.93627E+01 6.86073E-01-4.85794E-03-1.48245E+00-3.28650E-14 4.08105E-14
 -1      3559 1.90560E+01 8.13341E-01 3.65660E-03-1.35434E+00-2.40060E-14-2.43307E-14
 -1      3560 1.92722E+01 4.04661E-01 1.06599E-02-1.92463E+00 2.63307E-14-9.87450E-14
 -1      3561 1.92294E+01 5.40877E-01-4.38255E-03-1.77925E+00-9.75920E-14-3.52793E-14
 -1      3562 1.88099E+01 7.17163E-01 2.70093E-03-1.64610E+00-3.13283E-14-1.21832E-13
 -1      3563 1.93146E+01-7.64389E-02 1.85118E-02-2.29230E+00 7.74712E-14-1.06762E-13
 -1      3564 1.91664E+01 1.97233E-01-1.69904E-03-2.13669E+00 7.00323E-14-4.87479E-14
 -1      3565 1.85722E+01 4.48170E-01 6.40567E-04-2.02146E+00 2.21282E-14-2.91803E-13
 -1      3566 1.96555E+01-9.31560E-01 3.01896E-02-2.69968E+00-1.16047E-13-1.16453E-13
 -1      3567 1.93073E+01-4.63402E-01 6.80301E-03-2.56260E+00-5.55318E-14-9.50542E-14
 -1      3568 1.84354E+01-1.03915E-01 1.36333E-03-2.53885E+00-3.36748E-14-1.82854E-13
 -1      3569 2.05353E+01-2.21737E+00 4.33100E-02-3.07535E+00 2.21576E-14-8.01194E-14
 -1      3570 1.98417E+01-1.52310E+00 2.24866E-02-3.00036E+00-1.57179E-14-3.79066E-14
 -1      3571 1.85564E+01-1.12869E+00-1.85169E-02-3.22513E+00-7.95449E-14-2.72286E-13
 -1      3572 2.00870E+01-1.14200E+00 3.72221E-02 3.32345E+00-1.41421E-13-2.24483E-13
 -1      3573 2.06085E+01-1.83717E+00 3.08437E-02 3.38410E+00-1.44286E-13-3.63148E-13
 -1      3574 2.08773E+01-2.69253E+00 6.53090E-02 3.81617E+00-9.92531E-14-2.97121E-13
 -1      3575 1.75062E+01 6.67618E-01 2.69154E-02-2.15455E+00-4.86429E-14-5.89139E-13
 -1      3576 1.68865E+01 8.82212E-01-2.46119E-02-1.66235E+00-2.76901E-14-7.95943E-13
 -1      3577 1.75782E+01 8.52655E-02 4.44074E-04-2.65364E+00 8.14930E-14-4.23736E-13
 -1      3578 2.01991E+01 1.61692E-01-1.29338E-03-8.04601E-02 7.33449E-14-5.60118E-14
 -1      3579 2.02256E+01 2.34202E-01 2.54161E-03-3.53259E-02 9.35375E-14-4.27912E-14
 -1      3580 2.05055E+01-2.91326E+00 4.73279E-02-3.53121E+00-4.77396E-14-7.70269E-14
 -1      3581 1.18613E+01-1.20094E-01 9.55883E-02-2.63343E+00 1.39066E-13-3.53356E-13
 -1      3582 1.32699E+01-1.07283E+00 2.62534E-02-4.17155E+00 3.38556E-13-3.71841E-13
 -1      3583 1.81207E+01-2.79814E+00-5.22348E-02 4.43327E+00 5.44582E-14-1.84713E-14
 -1      3584 1.61558E+01-1.71180E+00 1.16797E-01 4.44381E+00 1.34764E-13 6.25298E-14
 -1      3585 1.12950E+01 5.67028E-01 4.39584E-02 9.45103E-01 1.89404E-13-3.10328E-13
 -1      3586 1.11707E+01 5.59439E-01 1.65310E-02-5.74212E-01 5.21653E-14-2.24737E-13
 -1      3587 2.44280E+01-3.90432E+00 6.96590E-02-2.00916E+00 2.55128E-13-5.49786E-14
 -1      3588 2.52078E+01-3.51554E+00-6.60945E-02-7.76007E-01 2.78357E-13-1.34735E-13
 -1      3589 2.02362E+01 3.20497E-01-2.19094E-03 1.67344E-02 8.07945E-14-6.28906E-14
 -1      3590 2.02672E+01 4.30003E-01 3.29372E-03 9.07298E-02 8.85331E-14-8.25441E-14
 -1      3591 2.02836E+01 3.28442E-01-5.97711E-04 8.08606E-03 8.05751E-14-9.38642E-14
 -1      3592 2.00423E+01 2.17432E+00-2.86026E-03-1.49897E-01 5.64932E-14-3.24437E-13
 -1      3593 2.00522E+01 2.13539E+00-5.05501E-03-2.71133E-01 4.37612E-14-3.08013E-13
 -1      3594 2.01808E+01 1.78301E+00 5.09521E-03-2.41012E-01 2.94721E-14-2.99037E-13
 -1      3595 2.01493E+01 1.89653E+00 5.16371E-03-8.19874E-02 5.72132E-14-3.00310E-13
 -1      3596 2.01031E+01-3.77882E-02 1.32160E-04-1.67515E-01 8.45879E-14-2.85199E-15
 -1      3597 2.01141E+01-2.30916E-02 7.68391E-04-1.65718E-01 9.72561E-14-2.09976E-14
 -1      3598 1.85707E+01-2.27040E+00-8.98530E-04 4.39868E+00-1.85752E-13-5.78912E-14
 -1      3599 1.65885E+01-1.27138E+00 9.91597E-02 4.29656E+00-9.86728E-14 8.92654E-14
 -1      3600 1.86622E+01-2.49917E+00-2.23570E-02-4.06799E+00-3.52583E-14-1.07638E-13
 -1      3601 2.03011E+01 4.38842E-01 2.25369E-03-7.35364E-02-8.28304E-14-2.15640E-13
 -1      3602 2.02771E+01 3.27061E-01-2.01229E-03-6.36816E-03-7.39783E-14-2.23342E-13
 -1      3603 2.03177E+01 3.28424E-01-2.27888E-04 1.45099E-03-5.83445E-14-2.03696E-13
 -1      3604 1.22314E+01 4.25117E-01 9.75970E-02-1.90472E+00-8.28330E-15-3.10744E-13
 -1      3605 1.38189E+01-5.29895E-01-2.90966E-02-3.38157E+00-7.21766E-14-4.02796E-13
 -1      3606 2.00311E+01-3.20843E-04 6.47790E-04-1.38034E-01 3.58221E-14 3.36409E-14
 -1      3607 2.00302E+01-1.38074E-02-4.01343E-04-1.37380E-01 5.82016E-14 6.90437E-14
 -1      3608 2.00528E+01-2.04261E-02-2.37593E-04-1.34120E-01 4.03293E-14 6.33792E-14
 -1      3609 2.00370E+01 9.25463E-03-1.30960E-04-1.36028E-01 6.47097E-14 4.69591E-14
 -1      3610 1.67564E+01-1.49761E+00 6.58254E-02-3.93734E+00-5.88349E-14-2.31710E-13
 -1      3611 2.08317E+01-3.49392E+00 5.68648E-02-4.23686E+00 3.35908E-13-1.35560E-13
 -1      3612 2.27464E+01-4.14348E+00-6.89831E-02-3.34775E+00 1.56077E-13-7.66540E-14
 -1      3613 2.46999E+01-2.94141E+00-1.99424E-02-3.39762E-01 3.32354E-13-7.25969E-14
 -1      3614 2.41876E+01-2.97770E+00 4.29533E-02-9.00262E-01 1.77484E-13 1.32545E-13
 -1      3615 2.17943E+01-3.85772E+00-8.05102E-02 3.22671E+00-7.23900E-14-3.64556E-13
 -1      3616 2.03394E+01-3.24001E+00 8.72085E-02 3.89177E+00-1.74296E-14-2.10578E-13
 -1      3617 2.02086E+01-5.90016E-01 1.61335E-02-2.56786E+00 1.22165E-13 5.13815E-14
 -1      3618 1.96191E+01-3.94574E-01-1.23837E-02-2.65270E+00 8.74728E-14 1.01251E-13
 -1      3619 1.92040E+01-6.66588E-01-2.17119E-02-2.92340E+00 1.05414E-13 8.29821E-14
 -1      3620 2.48230E+01-3.39270E+00-6.35192E-02 4.61361E-01-8.11549E-14-3.78694E-13
 -1      3621 2.36748E+01-3.77387E+00 6.82369E-02 1.99777E+00-6.86070E-14-3.09796E-13
 -1      3622 1.46922E+01-7.33830E-01-1.67090E-02 3.80158E+00-1.37146E-13 1.25899E-13
 -1      3623 1.33920E+01 4.00403E-02 6.21349E-02 2.69007E+00-3.19963E-13 2.24334E-13
 -1      3624 1.31560E+01 3.96879E-01 6.34350E-02 2.00037E+00-3.04238E-13 2.81674E-13
 -1      3625 1.30339E+01 6.22757E-01 2.26933E-03 9.72854E-01-1.87326E-13-5.23019E-14
 -1      3626 1.46242E+01 4.22962E-01 4.34395E-02 2.24998E+00-4.03647E-13 2.51750E-13
 -1      3627 1.62822E+01-6.78383E-01 4.93069E-02-3.22875E+00-6.48648E-14-3.20409E-13
 -1      3628 2.29040E+01-3.12671E+00-4.27209E-02 1.52962E+00-2.78150E-14-2.27094E-13
 -1      3629 2.37181E+01-2.85035E+00 3.91350E-02 6.84959E-01-1.49858E-14-1.63350E-13
 -1      3630 2.42543E+01-2.92186E+00-2.36017E-02 2.00018E-01-6.98933E-14-2.99823E-13
 -1      3631 2.52574E+01-2.74217E+00 4.74710E-03-4.86725E-01-6.32852E-14-2.97845E-13
 -1      3632 2.57442E+01-1.96061E+00 5.73805E-03-1.12690E+00-8.02153E-14-2.55150E-13
 -1      3633 1.22986E+01 5.07686E-01 8.15429E-02 1.69372E+00 2.70688E-13-1.93501E-13
 -1      3634 1.27444E+01 7.46391E-01-2.18703E-03 9.26829E-01 1.77663E-13-1.40797E-13
 -1      3635 1.33433E+01 2.01255E-01-2.97179E-02 2.37844E+00 3.52322E-13 4.15397E-14
 -1      3636 2.34981E+01-3.35612E+00-5.05191E-02-1.79529E+00 1.98243E-13-4.52156E-15
 -1      3637 2.26600E+01-3.30287E+00 2.38433E-02 2.12646E+00-9.22873E-14-3.61756E-13
 -1      3638 2.03334E+01 5.77529E-01 4.18021E-04-1.16120E-01-9.30721E-14-2.21703E-13
 -1      3639 2.13619E+01-1.27520E+00 5.36006E-03-2.06498E+00 2.02795E-13 4.64508E-14
 -1      3640 2.10791E+01-8.96308E-01 9.72208E-03-2.06955E+00-8.50562E-14 9.70795E-14
 -1      3641 2.08674E+01-8.32112E-01 3.79338E-03-2.22484E+00-4.18283E-14-2.30356E-14
 -1      3642 2.12062E+01-1.54978E+00-6.76418E-03-2.43010E+00 1.83193E-13-1.43339E-13
 -1      3643 2.57173E+01-7.78585E-01-1.02214E-01-2.03011E+00-2.60054E-13-1.13557E-13
 -1      3644 2.00906E+01-5.54948E-02-4.40021E-04-1.45465E-01 5.93268E-14 4.34842E-14
 -1      3645 2.00635E+01-5.29857E-02 4.42875E-04-1.54272E-01 2.85006E-14 3.41140E-14
 -1      3646 2.00679E+01-5.42856E-02 1.14531E-04-1.59110E-01 4.32575E-14 6.00170E-14
 -1      3647 1.97203E+01-6.70238E-01 1.16385E-02 3.11721E+00-1.91843E-13-1.30938E-13
 -1      3648 1.88655E+01-7.82650E-01-1.18183E-02 3.42858E+00-2.87397E-13-1.70010E-13
 -1      3649 1.93733E+01-2.24384E-01 9.93106E-03 3.01821E+00-2.20228E-13-3.57274E-14
 -1      3650 2.02066E+01 1.63876E+00-3.05307E-03 1.30780E-01 1.00180E-13-2.50286E-13
 -1      3651 2.02010E+01 1.65716E+00-3.17030E-03 3.99172E-02 9.19996E-14-2.77019E-13
 -1      3652 2.02883E+01 9.27331E-01 1.04124E-03 4.65032E-01 1.94689E-13-9.12156E-14
 -1      3653 2.02773E+01 1.10027E+00-1.69132E-03 5.00416E-01 1.95648E-13-1.19460E-13
 -1      3654 2.02715E+01 7.67829E-01-1.60575E-03 3.36552E-01 1.77694E-13-9.76931E-14
 -1      3655 1.92659E+01-2.24531E+00-7.83785E-03 4.19868E+00-1.79762E-13-1.84817E-13
 -1      3656 2.01837E+01 1.05739E-01 1.87202E-03-1.10931E-01 5.38379E-14-7.57557E-14
 -1      3657 2.02489E+01 1.63355E-01-7.65917E-04-7.85008E-02 8.81755E-14-1.01012E-13
 -1      3658 2.01627E+01 5.94056E-02-6.08255E-04-1.35351E-01 3.90410E-14-1.05197E-13
 -1      3659 1.87065E+01-2.33051E+00 2.16835E-02-4.31287E+00 3.72457E-13-1.78156E-15
 -1      3660 1.98808E+01-3.10516E+00 1.91998E-02-4.44294E+00 3.45113E-13-4.91794E-15
 -1      3661 2.09748E+01-2.92646E+00 1.29135E-02-3.65810E+00 1.17558E-13 1.44570E-13
 -1      3662 1.70561E+01 9.66390E-01-1.68404E-02 1.95515E+00 1.44578E-15 2.84914E-13
 -1      3663 1.76349E+01 8.59987E-01 4.03972E-02 2.32161E+00-1.20972E-13 1.36247E-13
 -1      3664 1.63576E+01-6.45984E-01 2.41643E-02 3.63517E+00-2.58609E-13 1.08734E-13
 -1      3665 1.64651E+01 1.19741E+00 1.16918E-02-9.43770E-01-7.98036E-14-7.93849E-13
 -1      3666 1.62141E+01 1.28927E+00-1.52673E-02-2.77370E-01-1.89172E-15-7.38790E-13
 -1      3667 1.61889E+01 8.48636E-01 3.07508E-02-1.51910E+00-5.33569E-14-8.18580E-13
 -1      3668 1.26176E+01 2.99269E-01 8.75151E-02-1.52461E+00-3.56225E-14-5.37868E-13
 -1      3669 1.62638E+01 1.32535E+00-5.50509E-03 6.25841E-01-1.83467E-14-3.72274E-13
 -1      3670 1.65487E+01 1.23298E+00 1.00208E-02 1.27461E+00-3.40678E-15-1.19392E-14
 -1      3671 1.63153E+01 8.86640E-01 1.51155E-02 1.79680E+00-1.67416E-13 1.55894E-13
 -1      3672 1.55672E+01 1.15880E+00 7.07891E-03 1.66587E-01-1.72549E-13-5.56301E-13
 -1      3673 2.01304E+01-3.20354E-03-1.58247E-04-1.60879E-01 6.37260E-14-5.28564E-14
 -1      3674 2.01460E+01 2.46107E-02 1.26173E-03-1.50381E-01 2.22638E-14-7.50047E-14
 -1      3675 2.01751E+01-8.22298E-03-7.06051E-04-1.50406E-01 3.48620E-14-6.02825E-14
 -1      3676 1.54368E+01-1.01261E+00 4.33303E-02 3.73798E+00 1.86337E-13-1.23304E-14
 -1      3677 1.29549E+01 6.65668E-01 7.97882E-02-1.18092E+00 3.38262E-14-2.55070E-13
 -1      3678 2.55924E+01-2.80304E+00-3.62686E-03 1.93917E-01 3.16193E-13-8.53588E-14
 -1      3679 2.03053E+01 5.76311E-01-1.06414E-04 1.44394E-01 1.02630E-13-1.04106E-13
 -1      3680 2.02673E+01 5.62700E-01-2.38186E-03 1.73414E-01 1.14807E-13-8.19297E-14
 -1      3681 2.60255E+01-1.94780E+00-1.69522E-02 8.26795E-01 3.04548E-13-7.19737E-14
 -1      3682 2.33072E+01-3.53636E+00 1.58011E-02-2.36860E+00 2.41644E-13-6.27363E-15
 -1      3683 1.54868E+01-1.18901E+00 8.83618E-02-4.08962E+00 2.33456E-13-2.96242E-13
 -1      3684 2.02667E+01 1.23456E+00-6.63419E-04 4.64805E-01 1.71107E-13-1.50407E-13
 -1      3685 2.00883E+01-4.71070E-02 3.93748E-04-1.66281E-01 5.85764E-14 1.21176E-14
 -1      3686 2.01427E+01-4.33303E-02-6.30910E-04-1.56452E-01 6.02478E-14-9.75241E-15
 -1      3687 2.00810E+01-5.24951E-02 3.20733E-04-1.63308E-01 1.33024E-14 4.62275E-14
 -1      3688 1.94208E+01-2.49625E+00 4.70517E-02 3.65524E+00 8.26596E-15-2.35086E-13
 -1      3689 2.06242E+01-7.18786E-01 1.51221E-03-2.33342E+00 8.33913E-14-1.51202E-13
 -1      3690 2.02858E+01 1.17367E+00-2.81488E-03-4.39063E-01-2.51352E-14-2.52356E-13
 -1      3691 2.03000E+01 9.06933E-01-7.44920E-04-3.11622E-01-3.89340E-14-2.20542E-13
 -1      3692 2.03239E+01 9.06710E-01 1.72674E-03-2.58076E-01-4.86841E-14-2.39067E-13
 -1      3693 2.02733E+01 1.30656E+00 1.78852E-03-3.96595E-01-9.29644E-15-3.08310E-13
 -1      3694 2.05500E+01-1.08813E+00-5.64280E-03-2.59278E+00 1.52929E-13-1.81474E-15
 -1      3695 2.02235E+01 1.54869E+00-4.21199E-03 2.84162E-01 1.41223E-13-2.00961E-13
 -1      3696 2.02120E+01 1.60591E+00-2.55865E-03 2.02333E-01 1.10294E-13-2.07361E-13
 -1      3697 2.02896E+01 1.38760E+00 5.99043E-03 1.35906E-01 1.05860E-13-2.15410E-13
 -1      3698 2.02862E+01 6.90809E-01 2.72949E-03 2.68477E-01 1.47690E-13-8.71158E-14
 -1      3699 2.02485E+01 1.46798E+00-1.50060E-04-2.79961E-01 1.47652E-14-3.00634E-13
 -1      3700 2.02590E+01 1.38123E+00-3.61804E-03-3.47102E-01 1.54165E-15-2.98057E-13
 -1      3701 2.03062E+01 1.17003E+00 2.00165E-03-2.81485E-01-1.57132E-14-2.91052E-13
 -1      3702 2.17121E+01-2.83240E+00 5.95321E-02 2.52663E+00 3.33529E-14-3.05809E-13
 -1      3703 2.03014E+01 8.69107E-02 1.04942E-03 9.36213E-02-3.94009E-14-1.56379E-13
 -1      3704 2.02800E+01 4.00121E-02-4.98992E-04 1.09624E-01-3.78827E-14-1.85210E-13
 -1      3705 2.02605E+01 4.75134E-03 7.49437E-04 1.17125E-01-3.66828E-14-1.58669E-13
 -1      3706 2.02402E+01-2.23140E-02-1.10448E-04 1.23912E-01-2.54555E-14-1.87083E-13
 -1      3707 2.03044E+01 3.20073E-02-3.60462E-04 9.56959E-02-3.88530E-14-1.85179E-13
 -1      3708 2.02192E+01-4.11322E-02 4.89929E-04 1.25595E-01-3.48814E-14-1.81249E-13
 -1      3709 2.02010E+01-5.38448E-02 1.46455E-04 1.26739E-01-4.11256E-14-1.90691E-13
 -1      3710 2.02616E+01-2.85984E-02-4.73327E-04 1.07171E-01-3.79496E-14-2.04263E-13
 -1      3711 2.01801E+01-6.07752E-02 2.67192E-04 1.25173E-01-5.66820E-14-2.09950E-13
 -1      3712 2.01641E+01-6.30818E-02 3.08466E-04 1.23448E-01-6.36350E-14-2.36221E-13
 -1      3713 2.02187E+01-5.78764E-02-4.91456E-04 1.09405E-01-6.88115E-14-1.65990E-13
 -1      3714 2.01441E+01-6.13578E-02 7.68310E-05 1.20622E-01-8.72469E-14-2.86513E-13
 -1      3715 2.01303E+01-5.60002E-02 4.05612E-04 1.18141E-01-8.62096E-14-2.53006E-13
 -1      3716 2.01779E+01-6.43312E-02-4.49229E-04 1.06861E-01-9.60279E-14-2.34401E-13
 -1      3717 2.01113E+01-4.78080E-02-9.09717E-05 1.15606E-01-5.27772E-14-2.61925E-13
 -1      3718 2.00992E+01-3.66208E-02 4.58204E-04 1.14001E-01-3.92466E-14-2.13541E-13
 -1      3719 2.01397E+01-5.39134E-02-3.65700E-04 1.03009E-01-5.73544E-14-1.90216E-13
 -1      3720 2.00810E+01-2.33941E-02-2.47223E-04 1.12953E-01-3.23609E-14-2.02804E-13
 -1      3721 2.00700E+01-7.49809E-03 4.85899E-04 1.13490E-01-2.97728E-14-2.01688E-13
 -1      3722 2.01038E+01-3.06266E-02-2.46386E-04 1.00580E-01-3.48281E-15-1.32242E-13
 -1      3723 2.00518E+01 9.96238E-03-4.04007E-04 1.14908E-01-6.69523E-14-1.72242E-13
 -1      3724 2.00414E+01 2.99684E-02 5.01824E-04 1.18652E-01-1.52625E-13-1.35120E-13
 -1      3725 2.00692E+01 3.01911E-03-1.05828E-04 1.01698E-01-3.11311E-14-1.85748E-13
 -1      3726 2.00223E+01 5.12476E-02-5.69932E-04 1.23400E-01-1.34285E-13-6.93999E-14
 -1      3727 2.00116E+01 7.51025E-02 5.14465E-04 1.31279E-01-9.58163E-14-9.18179E-14
 -1      3728 2.00341E+01 4.56832E-02 5.66361E-05 1.08196E-01-7.59892E-14-8.30326E-14
 -1      3729 1.99904E+01 1.00052E-01-7.53947E-04 1.40171E-01-9.43477E-14-9.39079E-14
 -1      3730 1.99785E+01 1.27676E-01 5.33195E-04 1.53072E-01-7.27627E-14-8.09555E-14
 -1      3731 1.99966E+01 9.67501E-02 2.42211E-04 1.21700E-01-9.05048E-14-1.52008E-14
 -1      3732 1.99540E+01 1.56209E-01-9.60125E-04 1.66956E-01 1.26210E-14-6.19862E-14
 -1      3733 1.99401E+01 1.87493E-01 5.63438E-04 1.85758E-01 8.36433E-14 1.97844E-14
 -1      3734 1.99541E+01 1.55989E-01 4.46325E-04 1.43829E-01 2.13300E-14-6.40662E-14
 -1      3735 1.99107E+01 2.19387E-01-1.19239E-03 2.05543E-01 9.62357E-14-3.19470E-16
 -1      3736 1.98939E+01 2.53983E-01 6.12968E-04 2.31141E-01 4.48855E-14-4.24771E-14
 -1      3737 1.99040E+01 2.23156E-01 6.72801E-04 1.76287E-01 6.68996E-14-1.40155E-14
 -1      3738 1.98582E+01 2.88649E-01-1.45197E-03 2.57842E-01 1.98967E-14-1.36855E-14
 -1      3739 1.98377E+01 3.25707E-01 6.93473E-04 2.91155E-01 1.05974E-13-5.59778E-14
 -1      3740 1.98432E+01 2.97512E-01 9.13286E-04 2.20930E-01 7.16848E-14-9.11738E-15
 -1      3741 1.97943E+01 3.61885E-01-1.73509E-03 3.25942E-01 1.10587E-13-1.95476E-14
 -1      3742 1.97696E+01 3.99720E-01 8.24598E-04 3.67916E-01 8.92439E-14-8.26168E-14
 -1      3743 1.97689E+01 3.77311E-01 1.15677E-03 2.79890E-01 7.10942E-14 4.46159E-14
 -1      3744 1.97172E+01 4.35105E-01-2.03384E-03 4.12169E-01 1.08348E-13-1.13990E-13
 -1      3745 1.96886E+01 4.70775E-01 1.04000E-03 4.63782E-01 1.06128E-13-9.92667E-14
 -1      3746 1.96786E+01 4.59114E-01 1.38184E-03 3.55693E-01 7.06015E-14-3.52240E-14
 -1      3747 1.96267E+01 5.01551E-01-2.33418E-03 5.19192E-01 2.15092E-14-1.60962E-13
 -1      3748 1.95954E+01 5.30356E-01 1.39598E-03 5.81480E-01-4.49769E-14-1.63674E-13
 -1      3749 1.95703E+01 5.36966E-01 1.55104E-03 4.51456E-01 2.21939E-14-1.62480E-13
 -1      3750 1.95244E+01 5.50627E-01-2.61152E-03 6.50221E-01-1.02942E-13-1.72192E-13
 -1      3751 1.94935E+01 5.65501E-01 1.98282E-03 7.24338E-01-9.07243E-14-1.03091E-13
 -1      3752 1.94438E+01 6.01401E-01 1.60213E-03 5.71219E-01-5.91472E-14-1.45007E-13
 -1      3753 1.94155E+01 5.66626E-01-2.81808E-03 8.09318E-01-8.35952E-15-9.81894E-14
 -1      3754 1.93914E+01 5.57423E-01 2.93681E-03 8.96598E-01 6.99704E-14-1.48490E-14
 -1      3755 1.93012E+01 6.38243E-01 1.43216E-03 7.20480E-01-2.41221E-14-1.48023E-13
 -1      3756 1.93114E+01 5.27276E-01-2.84902E-03 1.00178E+00 6.24154E-14 1.11061E-14
 -1      3757 1.93052E+01 4.79961E-01 4.44179E-03 1.10367E+00 8.61596E-14 4.88380E-14
 -1      3758 1.91492E+01 6.27137E-01 8.66783E-04 9.06968E-01 9.68787E-14 5.78498E-14
 -1      3759 1.92333E+01 4.02169E-01-2.45894E-03 1.23423E+00 3.77661E-14-9.29031E-14
 -1      3760 1.92633E+01 2.98016E-01 6.70667E-03 1.35167E+00 8.06853E-14-1.12928E-13
 -1      3761 1.90016E+01 5.39686E-01-3.94775E-04 1.14151E+00-1.24613E-14-4.24167E-14
 -1      3762 1.92184E+01 1.51578E-01-1.06022E-03 1.51319E+00 1.01585E-13-2.39806E-13
 -1      3763 1.93142E+01-3.27634E-02 1.01760E-02 1.64451E+00 1.35807E-13-3.02725E-13
 -1      3764 1.88849E+01 3.37024E-01-2.80484E-03 1.43809E+00 2.89979E-14-2.86135E-13
 -1      3765 1.93286E+01-2.72962E-01 2.43009E-03 1.84247E+00 1.43320E-13-4.02227E-13
 -1      3766 1.95376E+01-5.66880E-01 1.51074E-02 1.97785E+00 7.66480E-14-3.51194E-13
 -1      3767 1.88450E+01-2.91968E-02-6.57298E-03 1.81200E+00 8.74374E-14-5.39642E-13
 -1      3768 1.96768E+01-9.37307E-01 9.43345E-03 2.20759E+00 3.31932E-14-3.41079E-13
 -1      3769 2.00542E+01-1.36217E+00 1.84452E-02 2.31434E+00-1.65705E-14-3.37682E-13
 -1      3770 1.89607E+01-6.29292E-01-1.38568E-02 2.28167E+00 7.32291E-14-5.40960E-13
 -1      3771 2.04155E+01-1.78924E+00 2.85627E-02 2.46796E+00-9.12729E-14-2.59803E-13
 -1      3772 2.09972E+01-2.33766E+00 1.72293E-02 2.47129E+00-3.68724E-14-3.39308E-13
 -1      3773 2.02677E+01-2.60875E+00-7.30241E-02 3.11070E+00-6.02495E-14-4.54852E-13
 -1      3774 1.94248E+01-1.53372E+00-3.56675E-02 2.77102E+00-3.90074E-14-5.02137E-13
 -1      3775 2.24199E+01-3.15703E+00 5.58258E-02-2.89250E+00 1.81086E-13-8.09335E-14
 -1      3776 2.07751E+01-1.42704E+00 1.75090E-02-2.69428E+00 1.86233E-13-3.45568E-14
 -1      3777 2.03002E+01 8.09068E-01-3.21525E-03 3.00234E-01 1.46241E-13-1.13392E-13
 -1      3778 1.99928E+01 1.13600E-01 5.80105E-04-1.60322E-01-2.43397E-14-1.45318E-14
 -1      3779 2.00009E+01 8.68004E-02-7.65221E-04-1.47676E-01-5.49480E-15-8.41795E-15
 -1      3780 2.00191E+01 6.30183E-02 5.67401E-04-1.39187E-01-2.72404E-14 1.70902E-14
 -1      3781 2.00262E+01 4.05011E-02-5.79866E-04-1.31803E-01-6.27692E-16 2.26175E-14
 -1      3782 2.00069E+01 8.37258E-02 2.05443E-04-1.32312E-01-5.83253E-16 2.65839E-14
 -1      3783 1.99209E+01 2.42717E-01 5.79956E-04-2.37930E-01-8.58385E-14-2.72441E-14
 -1      3784 1.99345E+01 2.06078E-01-1.23776E-03-2.12054E-01-1.65273E-13-4.16708E-15
 -1      3785 1.98681E+01 3.22889E-01 5.55812E-04-2.97654E-01-4.41696E-14-7.95242E-14
 -1      3786 1.98869E+01 2.80762E-01-1.54452E-03-2.63854E-01-8.84206E-15-6.49868E-14
 -1      3787 1.98703E+01 2.88260E-01 1.04821E-03-2.29228E-01-7.60444E-15-1.37900E-13
 -1      3788 1.97981E+01 4.13904E-01 5.07617E-04-3.73359E-01-2.95657E-14-6.55767E-14
 -1      3789 1.98241E+01 3.66286E-01-1.91053E-03-3.30833E-01-5.92012E-14-8.44847E-14
 -1      3790 1.97978E+01 3.78584E-01 1.47251E-03-2.85565E-01-2.22186E-14-1.60631E-13
 -1      3791 1.97051E+01 5.14820E-01 4.35761E-04-4.66411E-01 5.51566E-14-2.77369E-14
 -1      3792 1.97409E+01 4.62353E-01-2.34800E-03-4.14444E-01 3.35552E-14-7.65874E-14
 -1      3793 1.97029E+01 4.80324E-01 2.00084E-03-3.55821E-01-3.92355E-14-1.10676E-13
 -1      3794 1.95826E+01 6.22744E-01 3.58530E-04-5.78092E-01 5.28771E-14-3.27938E-14
 -1      3795 1.96310E+01 5.67155E-01-2.87609E-03-5.16034E-01 3.81917E-14-6.15687E-14
 -1      3796 1.95790E+01 5.92064E-01 2.65554E-03-4.40912E-01 2.25075E-14-1.55477E-13
 -1      3797 1.94230E+01 7.31647E-01 3.32550E-04-7.09915E-01 8.34300E-14 1.08689E-14
 -1      3798 1.94869E+01 6.76381E-01-3.52907E-03-6.37024E-01 9.75747E-14-7.05951E-15
 -1      3799 1.94177E+01 7.10248E-01 3.45952E-03-5.41785E-01 2.14027E-14-1.33305E-13
 -1      3800 1.92190E+01 8.30654E-01 4.87250E-04-8.64471E-01-2.64113E-14-4.96285E-14
 -1      3801 1.93005E+01 7.81773E-01-4.36985E-03-7.79474E-01 5.14671E-14 4.87406E-14
 -1      3802 1.92095E+01 8.28070E-01 4.43442E-03-6.59975E-01 3.45963E-14 3.24303E-14
 -1      3803 1.89638E+01 9.01601E-01 1.07435E-03-1.04724E+00 1.57973E-14-9.28198E-14
 -1      3804 1.90635E+01 8.69068E-01-5.50679E-03-9.47408E-01 2.41436E-14-2.13301E-14
 -1      3805 1.89436E+01 9.33948E-01 5.59604E-03-7.98923E-01 1.60085E-14-3.45927E-14
 -1      3806 1.86549E+01 9.15650E-01 2.58776E-03-1.26979E+00 1.07914E-14-1.44542E-13
 -1      3807 1.87684E+01 9.15078E-01-7.10120E-03-1.14937E+00 3.36146E-15-1.27613E-13
 -1      3808 1.86076E+01 1.00939E+00 6.94107E-03-9.66608E-01 9.20924E-14-2.06581E-13
 -1      3809 1.82968E+01 8.28224E-01 5.56175E-03-1.55495E+00 3.64943E-14-2.11137E-13
 -1      3810 1.84123E+01 8.83336E-01-9.38290E-03-1.40293E+00 1.37797E-14-1.15492E-13
 -1      3811 1.81886E+01 1.02619E+00 8.45514E-03-1.18020E+00 1.60110E-14-2.36213E-13
 -1      3812 1.79079E+01 5.71065E-01 9.74367E-03-1.94171E+00-4.19981E-14-1.88599E-13
 -1      3813 1.80032E+01 7.17447E-01-1.23522E-02-1.73871E+00-3.26761E-14-1.98057E-13
 -1      3814 1.76797E+01 9.42013E-01 1.19726E-02-1.47650E+00-2.45740E-14-1.10240E-13
 -1      3815 1.75169E+01 2.37233E-02-3.54773E-03-2.51967E+00-9.68548E-14-1.88930E-13
 -1      3816 1.75453E+01 3.47030E-01-1.80594E-02-2.20414E+00 1.66187E-15-1.93759E-13
 -1      3817 1.70815E+01 7.03060E-01 2.44559E-02-1.90869E+00-1.45639E-14-2.08829E-13
 -1      3818 1.62578E+01-1.26554E-01 2.12310E-02-2.79544E+00-9.52866E-14-3.27311E-13
 -1      3819 2.03602E+01 4.16315E-01 1.04578E-03-3.08141E-02-7.11401E-14-1.73161E-13
 -1      3820 2.03439E+01 3.07656E-01-1.59522E-03 1.75271E-02-2.89777E-14-1.73877E-13
 -1      3821 1.95858E+01 1.51903E-01-1.42423E-02 2.72218E+00-1.18689E-13 1.28836E-13
 -1      3822 1.78501E+01-4.77433E-01 4.77596E-02-3.25025E+00 2.44408E-13-1.61800E-13
 -1      3823 1.66956E+01-1.14324E-01-2.49767E-02-2.92230E+00 1.60056E-13-5.98476E-13
 -1      3824 2.03300E+01 9.72528E-01-2.31632E-03-2.36039E-01-1.34865E-14-2.88926E-13
 -1      3825 2.03463E+01 8.06232E-01 5.98961E-04-1.72762E-01-4.62359E-14-2.52425E-13
 -1      3826 2.03325E+01 1.05475E+00 4.35282E-04-1.99265E-01-5.13597E-15-2.73530E-13
 -1      3827 1.72064E+01-3.15263E-01-1.79536E-02 3.25410E+00-2.68014E-13 1.95000E-13
 -1      3828 1.60220E+01 4.15975E-01 6.56210E-02 2.71650E+00-2.95679E-13 3.55709E-13
 -1      3829 1.29971E+01 7.42893E-01 6.43563E-02-4.72045E-01-1.41983E-13-3.79519E-13
 -1      3830 1.36532E+01 2.29547E-01-2.57078E-02-2.23157E+00-1.90299E-15-6.63476E-13
 -1      3831 2.03287E+01 5.55060E-01-2.90630E-03 1.00881E-01 8.22606E-14-1.20710E-13
 -1      3832 2.03460E+01 7.15921E-01 4.48980E-03 1.85067E-01 9.91683E-14-1.30496E-13
 -1      3833 1.32530E+01 1.01568E+00 7.79614E-02-3.66886E-01 8.39630E-14-1.79929E-13
 -1      3834 1.38228E+01 6.51505E-01-4.08806E-02-1.56901E+00-2.52567E-14-2.01963E-13
 -1      3835 2.09214E+01-1.92729E+00 1.01135E-02-2.93573E+00 2.23510E-13 6.02123E-15
 -1      3836 2.01995E+01-1.40431E+00 1.71206E-02-3.10827E+00 2.66869E-13 1.31294E-13
 -1      3837 1.92953E+01-1.12754E+00-1.09797E-02-3.20458E+00 1.90239E-13 1.19838E-13
 -1      3838 2.15486E+01-2.49378E+00 2.10802E-02-2.89182E+00 1.57538E-13-3.66287E-14
 -1      3839 2.03057E+01 1.06881E+00 5.52942E-03 3.69950E-01 1.51804E-13-1.41058E-13
 -1      3840 2.02521E+01 1.38254E+00-4.73692E-03 4.41979E-01 1.59759E-13-1.99175E-13
 -1      3841 2.02359E+01 1.48273E+00-2.39970E-03 3.72180E-01 1.50890E-13-1.93251E-13
 -1      3842 2.03065E+01 9.54651E-01-2.28997E-03 2.92536E-01 1.29977E-13-1.29873E-13
 -1      3843 2.02900E+01 1.39613E+00 4.99438E-03 9.91852E-03 7.25937E-14-2.66309E-13
 -1      3844 2.02088E+01 1.63748E+00-1.73085E-03-2.65372E-02 7.44608E-14-2.77086E-13
 -1      3845 2.02176E+01 1.59309E+00-3.53486E-03-1.04631E-01 5.66385E-14-2.93667E-13
 -1      3846 1.54125E+01-4.46048E-01 6.20213E-02-3.44317E+00 1.03939E-13-4.17794E-13
 -1      3847 1.69766E+01-1.47656E+00-7.21852E-03-4.23114E+00 3.32730E-13-9.85809E-14
 -1      3848 2.03577E+01 6.66334E-01-5.15912E-04-1.30541E-01-6.46272E-14-2.17251E-13
 -1      3849 2.03553E+01 5.16639E-01-1.48759E-03-6.08277E-02-7.06514E-14-1.95429E-13
 -1      3850 2.03820E+01 4.96949E-01-3.84631E-04-4.19971E-02-5.00795E-14-1.57454E-13
 -1      3851 2.03716E+01 7.37662E-01 5.30787E-04-1.16492E-01-2.51475E-14-2.44441E-13
 -1      3852 1.76641E+01 1.67913E-01-1.64938E-02 2.87904E+00-2.35528E-13 2.28598E-14
 -1      3853 1.82900E+01 3.51549E-01-2.27123E-02 2.71794E+00-2.05661E-13-5.27581E-14
 -1      3854 2.09031E+01-2.67536E+00-3.37966E-02-3.45561E+00 2.04337E-13 3.20230E-15
 -1      3855 1.99611E+01 1.73201E-01 5.86203E-04-1.92686E-01-1.68757E-13 7.18586E-15
 -1      3856 1.99713E+01 1.41711E-01-9.80839E-04-1.73872E-01-7.69051E-14-3.99114E-14
 -1      3857 1.99263E+01 2.09454E-01 7.07327E-04-1.85743E-01-1.39401E-13-5.04848E-14
 -1      3858 2.03372E+01 2.18762E-01 1.38168E-03 4.73053E-02-1.48213E-14-1.87415E-13
 -1      3859 2.03165E+01 1.44858E-01-1.03520E-03 7.69907E-02-2.87307E-14-1.62883E-13
 -1      3860 2.03718E+01 2.97109E-01 3.53051E-04 2.12586E-02-3.44911E-14-1.49724E-13
 -1      3861 2.03152E+01 3.14846E-01-1.78976E-03-1.12144E-02 8.26431E-14-1.39675E-13
 -1      3862 2.03353E+01 4.25514E-01 2.25885E-03 4.59360E-02 7.52444E-14-1.36999E-13
 -1      3863 2.03598E+01 5.54315E-01 6.20331E-04 7.84966E-02 9.03334E-14-1.62411E-13
 -1      3864 1.56224E+01 6.69462E-01-1.47297E-03 2.10520E+00-2.80188E-13 2.05217E-13
 -1      3865 1.65027E+01-1.18984E+00-6.77835E-02 3.60205E+00 1.47738E-13-5.98341E-14
 -1      3866 1.48839E+01-1.66896E-01 1.00301E-01 3.10705E+00 2.50066E-13 5.79172E-14
 -1      3867 2.00890E+01-3.96399E-02 4.91034E-04-1.25798E-01 2.65023E-14 3.83481E-14
 -1      3868 2.00982E+01-4.93596E-02-9.20629E-05-1.28229E-01 7.32984E-14 2.77108E-14
 -1      3869 1.88984E+01-1.82782E+00 8.48531E-02 3.48972E+00-4.28130E-14-2.60258E-13
 -1      3870 1.54927E+01 4.09276E-01 4.58564E-02-2.32399E+00 1.55509E-14-2.93095E-13
 -1      3871 1.89589E+01 1.72843E-01 1.32104E-02 2.88838E+00-2.47488E-13-5.55521E-14
 -1      3872 1.47659E+01 1.91902E-01 2.93490E-02 2.40564E+00 2.92236E-13 2.61579E-14
 -1      3873 2.03433E+01 1.35633E-01-8.93411E-05 6.93172E-02-3.10885E-14-2.15342E-13
 -1      3874 1.54327E+01 7.50058E-01 8.23808E-04-1.60128E+00 6.22939E-14-2.21516E-13
 -1      3875 2.03011E+01 1.28646E+00 5.71985E-03 2.78641E-01 1.27775E-13-1.85984E-13
 -1      3876 1.38003E+01 9.18396E-01 3.11320E-02 3.58784E-01 1.55802E-13-9.32310E-14
 -1      3877 2.03276E+01 1.14233E+00-3.78552E-03 1.38463E-01 1.17665E-13-1.90687E-13
 -1      3878 2.03237E+01 1.17861E+00-2.32998E-03 7.72183E-02 9.67151E-14-2.16631E-13
 -1      3879 1.99705E+01 1.41566E-01 4.31715E-04-1.53886E-01-4.07236E-14-3.29542E-14
 -1      3880 2.00386E+01 3.51454E-02 1.37737E-05-1.19586E-01 3.24171E-14 1.75464E-13
 -1      3881 2.00425E+01 2.07258E-02 5.51604E-04-1.27592E-01 5.02738E-14 8.83789E-14
 -1      3882 2.00496E+01 2.26343E-03-4.13288E-04-1.24534E-01 9.31041E-14 8.34980E-14
 -1      3883 2.02862E+01 1.52288E-01-9.49350E-04-8.11724E-02 6.36684E-14-1.16435E-13
 -1      3884 2.03085E+01 2.26051E-01 1.85702E-03-4.59965E-02 8.75105E-14-1.22727E-13
 -1      3885 2.03498E+01 3.11364E-01 6.41388E-05-1.55654E-02 6.76690E-14-1.42635E-13
 -1      3886 2.01769E+01-4.94079E-02 1.46551E-04-1.41527E-01 4.11032E-14-3.57547E-14
 -1      3887 2.01931E+01-3.58131E-02 5.87703E-04-1.40212E-01 2.23302E-14-7.83429E-14
 -1      3888 2.02113E+01 5.67010E-02-7.53588E-04-1.27553E-01 4.36899E-14-1.04264E-13
 -1      3889 1.86895E+01-1.41651E+00-8.07766E-03-3.59075E+00 2.43125E-13 6.40026E-14
 -1      3890 1.54182E+01 1.08099E-01 3.84765E-02-2.53694E+00 7.93150E-14-5.61865E-13
 -1      3891 1.54433E+01 6.78224E-01 3.04158E-02-1.82336E+00-1.32550E-14-7.40952E-13
 -1      3892 1.83222E+01-7.01711E-01 4.26147E-02 3.56147E+00-3.12350E-13-1.31360E-13
 -1      3893 2.03800E+01 9.74795E-01 4.05330E-03 4.55040E-02 9.38986E-14-1.99958E-13
 -1      3894 2.03266E+01 1.17569E+00-1.93269E-03 3.62768E-02 8.80194E-14-2.34795E-13
 -1      3895 2.03310E+01 1.15320E+00-2.76670E-03-1.65103E-02 6.92570E-14-2.58659E-13
 -1      3896 1.50160E+01 9.58167E-01 2.70270E-02 1.34604E+00-2.35006E-13-1.51124E-13
 -1      3897 1.48617E+01 9.28922E-01 5.37890E-03-9.65323E-01-5.93750E-14-7.46427E-13
 -1      3898 2.03271E+01 9.35859E-01-2.01663E-03 2.39371E-01 1.17653E-13-1.65361E-13
 -1      3899 2.02126E+01-1.63312E-02-1.19648E-04-1.37647E-01 1.54370E-14-7.54283E-14
 -1      3900 2.02316E+01 1.13345E-02 9.35813E-04-1.29732E-01 5.27945E-14-9.20992E-14
 -1      3901 2.02408E+01-2.23946E-02-5.07475E-04-1.22720E-01 4.35967E-15-1.16282E-13
 -1      3902 1.85135E+01-1.30171E+00-6.55121E-03 3.87727E+00-3.42686E-13-1.90929E-13
 -1      3903 2.01145E+01-5.71095E-02-5.38139E-04-1.52963E-01 2.16796E-14 2.56456E-14
 -1      3904 2.61436E+01-4.98431E-01-5.14470E-02 1.79271E+00 3.34562E-13-3.66027E-14
 -1      3905 2.00653E+01-1.35962E-02 5.28700E-04-1.23768E-01 7.00402E-14 3.95951E-14
 -1      3906 2.00731E+01-2.79417E-02-2.55752E-04-1.24026E-01 3.87515E-14 6.87908E-14
 -1      3907 2.00683E+01-4.54140E-03-1.41041E-04-1.14161E-01 5.51374E-14 8.10657E-14
 -1      3908 1.40893E+01 8.38356E-01 4.19143E-02 2.31180E-01-1.86698E-13-3.31426E-13
 -1      3909 2.01151E+01-5.61350E-02 4.27070E-04-1.31435E-01 8.06155E-14 4.90095E-15
 -1      3910 2.01262E+01-6.01745E-02 9.09733E-05-1.34612E-01 5.50690E-14 2.47094E-14
 -1      3911 2.01295E+01-5.54353E-02-3.90799E-04-1.18121E-01 6.71784E-14-2.93664E-14
 -1      3912 2.02243E+01 1.57684E+00-1.21831E-03-1.60755E-01 3.49393E-14-2.84634E-13
 -1      3913 2.02377E+01 1.50361E+00-3.75551E-03-2.29419E-01 2.46170E-14-2.88487E-13
 -1      3914 2.03008E+01 1.29312E+00 3.65766E-03-1.93821E-01 8.67551E-15-2.86589E-13
 -1      3915 2.02963E+01 1.35446E+00 4.49755E-03-9.86252E-02 4.38939E-14-2.76063E-13
 -1      3916 2.00981E+01-3.51340E-02-2.75892E-04-1.14328E-01 5.04082E-14 3.29776E-14
 -1      3917 1.79683E+01-1.18004E+00 2.22043E-02 3.14462E+00 2.74468E-14-2.49066E-13
 -1      3918 2.02993E+01-1.54244E-02 4.62359E-04 8.53143E-02-5.12304E-14-2.01214E-13
 -1      3919 2.02768E+01-3.85141E-02 1.11341E-05 8.93978E-02-5.40201E-14-2.11999E-13
 -1      3920 2.02533E+01-5.37806E-02 3.25286E-04 8.93893E-02-6.24398E-14-2.03673E-13
 -1      3921 2.02318E+01-6.28065E-02 1.96137E-04 9.00000E-02-7.42938E-14-2.25295E-13
 -1      3922 2.02845E+01-4.45821E-02-4.71885E-04 6.95001E-02-6.42099E-14-1.82342E-13
 -1      3923 2.02081E+01-6.62431E-02 1.86212E-04 8.84601E-02-8.89707E-14-2.11275E-13
 -1      3924 2.01881E+01-6.49588E-02 2.97421E-04 8.75018E-02-9.20629E-14-2.15396E-13
 -1      3925 2.02368E+01-6.50890E-02-4.75931E-04 6.98792E-02-8.20020E-14-2.21998E-13
 -1      3926 2.01650E+01-5.96091E-02 5.09618E-05 8.56053E-02-4.30381E-14-1.98298E-13
 -1      3927 2.01465E+01-5.05272E-02 3.48092E-04 8.45731E-02 4.95677E-15-1.48034E-13
 -1      3928 2.01905E+01-6.34831E-02-4.13605E-04 6.81943E-02-2.22251E-14-1.43768E-13
 -1      3929 2.01241E+01-3.85357E-02-8.85278E-05 8.33604E-02-8.04909E-15-1.17818E-13
 -1      3930 2.01067E+01-2.34243E-02 3.55718E-04 8.33676E-02-1.03122E-15-1.45441E-13
 -1      3931 2.01460E+01-4.51809E-02-2.95826E-04 6.64498E-02-4.57213E-15-1.24873E-13
 -1      3932 2.00844E+01-5.99621E-03-2.36182E-04 8.35006E-02 1.67847E-14-1.98949E-13
 -1      3933 2.00674E+01 1.42447E-02 3.47600E-04 8.55283E-02-6.99309E-15-1.82867E-13
 -1      3934 2.01027E+01-1.39784E-02-1.58564E-04 6.63471E-02-1.81311E-14-1.24486E-13
 -1      3935 2.00443E+01 3.63785E-02-3.96122E-04 8.77457E-02-1.64736E-14-1.53048E-13
 -1      3936 2.00267E+01 6.12240E-02 3.17253E-04 9.26010E-02-2.99419E-14-8.52707E-14
 -1      3937 2.00592E+01 2.82939E-02 3.73551E-05 6.91653E-02 5.67334E-15-1.45518E-13
 -1      3938 2.00016E+01 8.77475E-02-5.86844E-04 9.75002E-02-4.88806E-14-8.41637E-14
 -1      3939 1.99823E+01 1.17073E-01 2.87174E-04 1.05933E-01-8.00258E-14-1.38634E-14
 -1      3940 2.00132E+01 8.03975E-02 2.48215E-04 7.62265E-02-2.63108E-14-9.66687E-14
 -1      3941 1.99535E+01 1.47949E-01-8.04761E-04 1.14193E-01-5.49036E-14-7.77791E-15
 -1      3942 1.99312E+01 1.81716E-01 2.58773E-04 1.27009E-01 6.79198E-14-8.93698E-16
 -1      3943 1.99619E+01 1.41976E-01 4.61912E-04 8.86194E-02-4.66736E-14 2.78433E-14
 -1      3944 1.98971E+01 2.16832E-01-1.05119E-03 1.39367E-01 8.08567E-14-9.47764E-15
 -1      3945 1.98704E+01 2.54904E-01 2.40029E-04 1.57389E-01 5.84481E-14-4.38057E-14
 -1      3946 1.99022E+01 2.13085E-01 7.43687E-04 1.07813E-01 5.05199E-14-1.07708E-14
 -1      3947 1.98288E+01 2.93985E-01-1.34165E-03 1.74723E-01 7.36356E-14-7.93605E-14
 -1      3948 1.97963E+01 3.35921E-01 2.41728E-04 1.98890E-01 1.02478E-13-7.01867E-14
 -1      3949 1.98303E+01 2.93392E-01 1.05683E-03 1.35241E-01 5.68650E-14-5.87696E-14
 -1      3950 1.97452E+01 3.78207E-01-1.68129E-03 2.22306E-01 1.10172E-13-7.38200E-14
 -1      3951 1.97055E+01 4.22951E-01 2.81452E-04 2.53717E-01 9.76284E-14-3.04989E-14
 -1      3952 1.97421E+01 3.82074E-01 1.40266E-03 1.72798E-01 9.02313E-14-1.51346E-13
 -1      3953 1.96426E+01 4.66886E-01-2.07973E-03 2.84633E-01 2.26943E-14-6.07343E-14
 -1      3954 1.95947E+01 5.12428E-01 3.87832E-04 3.24634E-01-3.03356E-14-1.67861E-13
 -1      3955 1.96334E+01 4.77103E-01 1.77747E-03 2.22891E-01 4.00412E-14-1.38977E-13
 -1      3956 1.95179E+01 5.55275E-01-2.55075E-03 3.64932E-01 1.54643E-15-1.28512E-13
 -1      3957 1.94613E+01 5.98250E-01 6.07472E-04 4.15256E-01-3.46565E-15-1.44053E-13
 -1      3958 1.94999E+01 5.74610E-01 2.17239E-03 2.88715E-01 7.30397E-15-2.26472E-14
 -1      3959 1.93685E+01 6.35638E-01-3.11619E-03 4.67522E-01-5.31149E-15-1.78923E-13
 -1      3960 1.93039E+01 6.70854E-01 1.01567E-03 5.30517E-01-4.03764E-14-9.12507E-14
 -1      3961 1.93378E+01 6.68137E-01 2.57196E-03 3.74672E-01 1.67791E-14-6.36705E-14
 -1      3962 1.91936E+01 6.96244E-01-3.80974E-03 5.98429E-01-6.24853E-14 6.03338E-14
 -1      3963 1.91234E+01 7.16141E-01 1.73316E-03 6.77422E-01 7.53817E-14 3.42745E-14
 -1      3964 1.91436E+01 7.47779E-01 2.95067E-03 4.87017E-01 5.42912E-14-4.87783E-15
 -1      3965 1.89945E+01 7.20192E-01-4.67638E-03 7.66348E-01 6.44187E-14-9.90903E-15
 -1      3966 1.89243E+01 7.14184E-01 2.95318E-03 8.66155E-01 5.20239E-14 2.47915E-14
 -1      3967 1.89151E+01 7.99206E-01 3.26201E-03 6.34914E-01 4.20731E-14 1.71326E-13
 -1      3968 1.87772E+01 6.83969E-01-5.74742E-03 9.84093E-01 2.16065E-14 1.31169E-14
 -1      3969 1.87178E+01 6.37551E-01 5.01608E-03 1.11154E+00-2.98484E-14-4.93993E-14
 -1      3970 1.86521E+01 8.02437E-01 3.40561E-03 8.32091E-01 6.11675E-14-4.43740E-14
 -1      3971 1.85552E+01 5.55223E-01-6.93881E-03 1.27060E+00-1.11776E-13-4.78514E-14
 -1      3972 1.85255E+01 4.48313E-01 8.23909E-03 1.43454E+00-3.02214E-14-1.47414E-13
 -1      3973 1.83574E+01 7.30004E-01 3.14018E-03 1.09949E+00-9.55928E-14 3.32383E-14
 -1      3974 1.83592E+01 2.87505E-01-7.89404E-03 1.65003E+00 2.98910E-14-2.91449E-13
 -1      3975 1.83876E+01 9.49497E-02 1.23800E-02 1.85869E+00 7.22818E-14-3.50731E-13
 -1      3976 1.80447E+01 5.41594E-01 2.71748E-03 1.47031E+00-1.05065E-13 3.25441E-14
 -1      3977 1.82348E+01-1.71821E-01-8.47215E-03 2.14653E+00 1.04972E-13-4.72085E-13
 -1      3978 1.83851E+01-5.06517E-01 9.22746E-03 2.41494E+00-4.39588E-14-5.20603E-13
 -1      3979 1.77575E+01 1.91500E-01 9.39696E-03 1.98312E+00-1.90939E-14-2.15895E-13
 -1      3980 1.77169E+01-7.05903E-01 1.83326E-02 2.86036E+00 6.20749E-14-3.90415E-13
 -1      3981 2.03801E+01 1.80470E-01 8.72853E-04 4.56784E-02-3.39770E-14-1.87883E-13
 -1      3982 2.03607E+01 1.11748E-01-7.18495E-04 6.43785E-02-3.39692E-14-1.93517E-13
 -1      3983 1.99494E+01 1.66767E-01 2.65326E-04-1.39338E-01-5.80005E-14-2.39673E-14
 -1      3984 1.99687E+01 1.33433E-01-7.88586E-04-1.26711E-01 7.45462E-15 1.14626E-14
 -1      3985 1.96145E+01 5.32017E-01-3.55852E-04-3.18856E-01-5.60550E-14-2.24267E-13
 -1      3986 1.96682E+01 4.75866E-01-2.01162E-03-2.83259E-01-5.21193E-14-1.59912E-13
 -1      3987 1.99951E+01 1.03327E-01 3.25680E-04-1.18729E-01 2.45971E-14-1.76016E-14
 -1      3988 2.00114E+01 7.50460E-02-5.86854E-04-1.10540E-01-5.23658E-15 2.89390E-14
 -1      3989 1.99762E+01 1.27614E-01 4.37290E-04-1.03670E-01 1.25247E-14-3.51501E-14
 -1      3990 2.01054E+01-2.91053E-02 3.99331E-04-9.84564E-02 2.34043E-14 8.28566E-14
 -1      3991 2.01205E+01-4.27721E-02-9.38206E-05-9.90813E-02 5.07194E-14 5.73308E-14
 -1      3992 1.56539E+01 1.46852E-01-2.80516E-02 2.35873E+00 1.75305E-13 6.64052E-15
 -1      3993 1.46303E+01 6.98526E-01 2.21424E-02 1.67179E+00 2.36978E-13 3.30829E-14
 -1      3994 1.97321E+01 4.23486E-01-1.26924E-04-2.57945E-01 4.21619E-15-1.38277E-13
 -1      3995 1.97730E+01 3.72910E-01-1.62714E-03-2.28672E-01 5.24067E-14-1.15765E-13
 -1      3996 1.96597E+01 4.78967E-01 2.11492E-03-2.22563E-01-2.93631E-14-2.08343E-13
 -1      3997 1.98230E+01 3.26266E-01 4.53259E-05-2.08096E-01 1.14661E-16-9.84615E-14
 -1      3998 1.98541E+01 2.81636E-01-1.30252E-03-1.84840E-01-2.27828E-14-8.91565E-14
 -1      3999 1.97686E+01 3.73219E-01 1.56090E-03-1.81261E-01 1.12306E-14-8.27080E-14
 -1      4000 1.94621E+01 6.49955E-01-6.47427E-04-3.91084E-01 2.79730E-14-1.92928E-13
 -1      4001 1.95326E+01 5.89395E-01-2.47775E-03-3.48966E-01 6.79502E-15-2.12150E-13
 -1      4002 1.95197E+01 5.95942E-01 2.80167E-03-2.71666E-01 5.94484E-15-1.99015E-13
 -1      4003 1.92656E+01 7.73197E-01-9.94504E-04-4.74843E-01-3.67343E-14-1.15742E-13
 -1      4004 1.93573E+01 7.10582E-01-3.06809E-03-4.25976E-01-6.49035E-14-1.49207E-13
 -1      4005 1.93398E+01 7.21721E-01 3.66164E-03-3.28123E-01-5.33605E-14-1.25227E-13
 -1      4006 1.90135E+01 8.94508E-01-1.36305E-03-5.70921E-01-6.73914E-14 7.08555E-14
 -1      4007 1.91316E+01 8.33847E-01-3.86714E-03-5.14649E-01 1.88628E-14 5.99150E-14
 -1      4008 1.91091E+01 8.51690E-01 4.75652E-03-3.91389E-01-1.37588E-13-9.50141E-15
 -1      4009 1.86921E+01 1.00238E+00-1.66407E-03-6.82086E-01 7.49438E-14-6.52612E-14
 -1      4010 1.88422E+01 9.49888E-01-5.03731E-03-6.16458E-01-2.51576E-15-8.08883E-16
 -1      4011 1.88142E+01 9.78388E-01 6.18924E-03-4.61487E-01 1.11079E-14 1.01008E-13
 -1      4012 1.82842E+01 1.07952E+00-1.72112E-03-8.15904E-01 1.09584E-13-9.01879E-14
 -1      4013 1.84721E+01 1.04439E+00-6.86912E-03-7.36016E-01 8.84404E-14-3.62837E-14
 -1      4014 1.84369E+01 1.09089E+00 8.14098E-03-5.40526E-01 6.16895E-14-7.61513E-14
 -1      4015 1.77656E+01 1.09949E+00-2.08826E-03-9.90190E-01-3.75103E-14-4.34472E-14
 -1      4016 1.79989E+01 1.09601E+00-9.85568E-03-8.84755E-01 7.17251E-14-9.30441E-15
 -1      4017 1.79521E+01 1.17389E+00 1.08917E-02-6.35807E-01 1.59811E-14 4.00882E-14
 -1      4018 1.70890E+01 1.02160E+00-7.91925E-03-1.24382E+00-2.59694E-14-6.55351E-14
 -1      4019 1.73886E+01 1.07615E+00-1.49768E-02-1.08322E+00-5.26780E-14-5.74016E-14
 -1      4020 1.73269E+01 1.20431E+00 1.55658E-02-7.63012E-01-4.57647E-14 9.26481E-14
 -1      4021 1.61414E+01 8.13591E-01-1.68056E-02-1.53020E+00 1.60297E-13-3.03392E-13
 -1      4022 1.65162E+01 9.72534E-01-2.19326E-02-1.28332E+00 8.91314E-14-2.41247E-13
 -1      4023 1.64468E+01 1.19296E+00 2.84277E-02-8.40123E-01 1.04812E-13-1.54582E-13
 -1      4024 1.51175E+01 1.15269E+00 4.88899E-02-8.30320E-01 8.97706E-14-1.33513E-13
 -1      4025 2.03302E+01 1.08961E+00-2.65809E-03-1.70477E-01-7.08601E-15-2.71228E-13
 -1      4026 2.03660E+01 9.18174E-01 2.63070E-03-1.30253E-01-1.93138E-14-2.67985E-13
 -1      4027 2.03299E+01 1.13131E+00-1.08763E-03-1.29404E-01 3.72102E-15-2.68283E-13
 -1      4028 2.01578E+01-5.72875E-02 3.12994E-04-1.39997E-01 3.38515E-14-3.46483E-14
 -1      4029 2.02010E+01-5.40198E-02-5.13026E-04-1.25950E-01 4.28510E-14-7.79255E-14
 -1      4030 2.01442E+01-6.07041E-02 3.21327E-04-1.37872E-01 4.82122E-15-1.80449E-14
 -1      4031 2.02501E+01 4.70366E-02-4.68356E-04-1.19994E-01 7.70496E-14-1.27070E-13
 -1      4032 2.02716E+01 9.40166E-02 1.39437E-03-1.01182E-01 6.32780E-14-1.07160E-13
 -1      4033 2.03199E+01 1.45716E-01-4.68931E-04-7.52117E-02 5.17427E-14-1.16832E-13
 -1      4034 2.02813E+01 4.01901E-02-5.18557E-04-1.08100E-01 5.31246E-14-9.82886E-14
 -1      4035 1.85289E+01-1.63938E+00 1.41757E-02-3.82759E+00 2.78522E-13-1.53350E-15
 -1      4036 1.47644E+01 9.72654E-01-6.20084E-03 4.23348E-02-1.24230E-13-4.75290E-13
 -1      4037 2.03321E+01 1.00411E+00-1.37093E-03 1.79712E-01 1.00391E-13-1.77371E-13
 -1      4038 2.03710E+01 8.45076E-01 1.80460E-03 1.15678E-01 9.73420E-14-1.76002E-13
 -1      4039 1.98936E+01 2.40821E-01 1.72041E-04-1.68809E-01-8.04096E-14-1.10249E-13
 -1      4040 1.99177E+01 2.02017E-01-1.02595E-03-1.51136E-01-8.94690E-14-6.65242E-14
 -1      4041 1.99213E+01 1.97912E-01 7.41910E-04-1.22179E-01-1.90738E-14-4.01336E-14
 -1      4042 2.04037E+01 3.65489E-01 1.74869E-03-1.89647E-03-5.77319E-14-1.66918E-13
 -1      4043 2.03881E+01 2.63165E-01-1.43440E-03 2.96677E-02-4.65864E-14-1.82770E-13
 -1      4044 2.04044E+01 2.45154E-01 8.29892E-04 2.69655E-02-4.91513E-14-1.87048E-13
 -1      4045 1.43866E+01 9.78699E-01 2.21745E-02 9.64222E-01 2.16353E-13 2.19772E-14
 -1      4046 1.45973E+01 1.06167E+00-2.73464E-02-1.70000E-01 9.96416E-14 2.42827E-14
 -1      4047 1.54686E+01 1.15199E+00 8.95520E-04-2.64840E-01 1.14233E-13 6.11828E-14
 -1      4048 1.53849E+01 9.19647E-01 1.23383E-02 1.03987E+00 1.28029E-13 7.21563E-14
 -1      4049 2.03944E+01 5.12036E-01-1.57499E-03 2.78612E-02 6.78051E-14-1.70858E-13
 -1      4050 2.03949E+01 6.58907E-01-1.35115E-04 8.35187E-02 7.05863E-14-1.70219E-13
 -1      4051 2.03956E+01 7.90161E-01 2.80823E-04 5.49399E-02 7.32534E-14-2.12033E-13
 -1      4052 2.03432E+01 5.82439E-02 5.69641E-04 7.22892E-02-3.14439E-14-1.84432E-13
 -1      4053 2.03212E+01 1.59874E-02-2.78006E-04 8.22369E-02-3.86184E-14-1.65779E-13
 -1      4054 2.03314E+01 5.91320E-03-3.64433E-04 6.43989E-02-5.42022E-14-1.72537E-13
 -1      4055 1.69278E+01-2.04391E-01 2.13085E-02 2.65478E+00 1.06594E-13-2.75748E-13
 -1      4056 2.01449E+01-4.92794E-02-3.46393E-04-8.40811E-02 3.85343E-14 3.95646E-14
 -1      4057 2.01414E+01-5.32596E-02 3.73647E-04-1.00907E-01 7.51665E-14-2.14941E-14
 -1      4058 2.01578E+01-6.07749E-02 6.16383E-05-1.02540E-01 6.58339E-14-1.02157E-16
 -1      4059 1.98538E+01 2.79574E-01 1.11070E-03-1.47876E-01-5.08844E-14-1.17378E-13
 -1      4060 2.00229E+01 6.79229E-02 1.72153E-04-9.16128E-02 6.60373E-14 5.29585E-15
 -1      4061 2.00344E+01 4.97598E-02 3.66623E-04-1.05909E-01 2.82754E-14 7.94982E-14
 -1      4062 2.00491E+01 2.62468E-02-4.11294E-04-1.01446E-01 6.46377E-14 9.19878E-14
 -1      4063 2.00847E+01-1.31759E-02-2.39539E-04-9.81392E-02 5.24586E-14 8.74570E-14
 -1      4064 2.01048E+01-2.08976E-02-1.83212E-04-8.30039E-02 4.87619E-14 1.00348E-13
 -1      4065 2.00703E+01 5.57220E-03 4.00788E-04-9.96226E-02 6.18572E-14 8.91901E-14
 -1      4066 2.01637E+01-6.30315E-02-4.67182E-04-1.23036E-01 2.17129E-14-3.48224E-14
 -1      4067 2.03852E+01 8.04249E-01-7.95476E-04-8.25037E-02-9.49026E-15-2.48817E-13
 -1      4068 2.03797E+01 7.66501E-01-1.49519E-03-1.03497E-01-4.57966E-15-2.52019E-13
 -1      4069 2.03955E+01 6.41850E-01 2.32516E-03-6.64247E-02-1.32772E-14-2.11148E-13
 -1      4070 2.03888E+01 2.80875E-01-8.39638E-04-2.81967E-02 3.31008E-14-1.46171E-13
 -1      4071 2.04022E+01 3.83372E-01 4.27394E-04 9.14748E-03 5.51300E-14-1.66064E-13
 -1      4072 2.04260E+01 4.75946E-01 3.11467E-04 1.14196E-02 4.45627E-14-2.07817E-13
 -1      4073 2.03996E+01 7.75229E-01-2.25810E-03 2.40516E-02 8.97792E-14-2.11851E-13
 -1      4074 2.02625E+01-3.21287E-02-3.40242E-05-1.06455E-01-6.29556E-15-1.12075E-13
 -1      4075 2.02840E+01-7.28001E-03 6.47116E-04-1.01367E-01 5.08991E-15-1.11643E-13
 -1      4076 2.03738E+01 9.72058E-02-4.93840E-05 5.14141E-02-2.69457E-14-1.69502E-13
 -1      4077 1.65489E+01 2.79804E-01-1.55172E-02 2.07050E+00 4.79864E-14-2.10810E-13
 -1      4078 2.03296E+01 1.15937E+00-2.07861E-03-5.12475E-02 5.78499E-14-2.53596E-13
 -1      4079 2.03303E+01 1.14082E+00-2.37747E-03-9.63039E-02 1.59744E-14-2.49610E-13
 -1      4080 2.03744E+01 9.70392E-01 4.00073E-03-7.54428E-02 1.51885E-15-2.48915E-13
 -1      4081 2.03834E+01 9.74141E-01 4.71544E-03-1.82012E-02 6.07133E-14-2.30372E-13
 -1      4082 2.03937E+01 5.23177E-01-1.79483E-03-3.48823E-02-1.30702E-14-1.89441E-13
 -1      4083 2.02647E+01-2.12618E+00 4.86478E-02-3.59812E+00 1.62450E-13 8.74340E-14
 -1      4084 2.04113E+01 4.87971E-01-1.12389E-03-2.12959E-02-1.33008E-14-2.13172E-13
 -1      4085 2.02202E+01-5.95267E-02 1.87225E-04-1.07779E-01 1.52132E-14-4.21992E-14
 -1      4086 2.02402E+01-4.89116E-02 4.12723E-04-1.07042E-01-4.26006E-15-6.40706E-14
 -1      4087 2.02762E+01-3.84591E-02-4.78499E-04-8.79765E-02-4.76917E-14-9.14836E-14
 -1      4088 2.02616E+01-6.34261E-02 2.33197E-04 4.80452E-02-9.91917E-14-1.94169E-13
 -1      4089 2.02380E+01-6.74897E-02 3.76493E-04 4.89373E-02-7.62457E-14-1.77960E-13
 -1      4090 2.02126E+01-6.69209E-02 1.35332E-04 4.72520E-02-1.84455E-14-1.73563E-13
 -1      4091 2.01896E+01-6.12942E-02 2.53317E-04 4.72260E-02 2.28650E-14-1.68228E-13
 -1      4092 2.02325E+01-6.79511E-02-7.10120E-04 2.69284E-02-3.06084E-14-1.48625E-13
 -1      4093 2.01651E+01-5.19891E-02 8.07143E-05 4.64047E-02-2.67394E-15-1.52786E-13
 -1      4094 2.01434E+01-3.91099E-02 3.33390E-04 4.65668E-02-2.91046E-14-1.54658E-13
 -1      4095 2.01826E+01-5.68996E-02-4.67425E-04 2.65105E-02 2.52260E-15-1.75784E-13
 -1      4096 2.01188E+01-2.33857E-02-9.97259E-05 4.57404E-02-3.34088E-14-1.41407E-13
 -1      4097 2.00972E+01-4.27687E-03 2.21484E-04 4.67726E-02 6.97344E-15-1.26940E-13
 -1      4098 2.01355E+01-3.11732E-02-2.78423E-04 2.59635E-02 2.25600E-14-1.34305E-13
 -1      4099 2.00725E+01 1.71232E-02-1.78971E-04 4.73027E-02 2.44883E-14-1.49152E-13
 -1      4100 2.00503E+01 4.14106E-02 1.51436E-04 4.97343E-02 2.01215E-14-1.05171E-13
 -1      4101 2.00872E+01 7.85008E-03-5.31177E-05 2.69314E-02 4.34573E-14-1.38950E-13
 -1      4102 2.00239E+01 6.78620E-02-3.44051E-04 5.14337E-02 3.40931E-14-6.77238E-14
 -1      4103 1.99999E+01 9.70775E-02 7.38109E-05 5.58651E-02-1.46905E-14-1.95607E-14
 -1      4104 2.00379E+01 5.77960E-02 3.01473E-04 2.93260E-02 6.28629E-14-8.13076E-14
 -1      4105 1.99698E+01 1.28524E-01-6.29253E-04 5.92680E-02-4.73286E-14 4.00454E-14
 -1      4106 1.99428E+01 1.62969E-01 6.76449E-05 6.64558E-02-7.50760E-15 7.97361E-14
 -1      4107 1.99834E+01 1.18970E-01 7.29814E-04 3.40443E-02 3.19943E-14 2.12086E-15
 -1      4108 1.99074E+01 1.99000E-01-9.18278E-04 7.19331E-02-1.08579E-14 7.88268E-14
 -1      4109 1.98755E+01 2.38523E-01-1.15736E-05 8.23159E-02 5.95224E-14 3.43787E-14
 -1      4110 1.99215E+01 1.90304E-01 1.35048E-03 4.18349E-02-6.33650E-15 4.15919E-14
 -1      4111 1.98326E+01 2.79384E-01-1.24188E-03 9.05955E-02 3.45368E-14 7.51524E-14
 -1      4112 1.97938E+01 3.23881E-01-8.09098E-05 1.04933E-01 2.48100E-14 3.06924E-14
 -1      4113 1.98473E+01 2.72287E-01 2.02612E-03 5.35515E-02 3.63154E-14 6.38322E-14
 -1      4114 1.97408E+01 3.69216E-01-1.63802E-03 1.16856E-01 4.37595E-14 1.83920E-14
 -1      4115 1.96932E+01 4.18208E-01-1.29516E-04 1.36100E-01 9.37175E-14-4.41820E-14
 -1      4116 1.97564E+01 3.64771E-01 2.81129E-03 7.05695E-02-1.10550E-14 3.26682E-14
 -1      4117 1.96272E+01 4.67130E-01-2.12474E-03 1.52826E-01 7.53654E-14-7.83162E-14
 -1      4118 1.95687E+01 5.19474E-01-1.36828E-04 1.78223E-01 4.97393E-14-8.04262E-14
 -1      4119 1.96437E+01 4.66921E-01 3.73190E-03 9.46886E-02 4.66709E-14-1.10353E-15
 -1      4120 1.94864E+01 5.70238E-01-2.73171E-03 2.01367E-01 7.43756E-14-4.41090E-14
 -1      4121 1.94152E+01 6.23817E-01-7.07380E-05 2.34625E-01 1.18073E-14 1.17268E-14
 -1      4122 1.95033E+01 5.76661E-01 4.82091E-03 1.28462E-01 5.66212E-14-5.87028E-14
 -1      4123 1.93131E+01 6.73458E-01-3.50701E-03 2.66465E-01-3.96503E-14 2.69889E-14
 -1      4124 1.92275E+01 7.24845E-01 1.18586E-04 3.10002E-01 1.40916E-14-6.14072E-14
 -1      4125 1.93289E+01 6.90112E-01 6.12914E-03 1.75534E-01 5.76004E-15-1.03518E-13
 -1      4126 1.91014E+01 7.68795E-01-4.53097E-03 3.53782E-01 9.75902E-14-1.33120E-13
 -1      4127 1.90005E+01 8.12912E-01 5.07021E-04 4.11125E-01 1.07010E-13-1.17149E-15
 -1      4128 1.91136E+01 8.01019E-01 7.74144E-03 2.41153E-01 9.09971E-16-7.12481E-14
 -1      4129 1.88454E+01 8.44578E-01-5.94071E-03 4.71535E-01 5.28522E-14-8.65190E-14
 -1      4130 1.87292E+01 8.74348E-01 1.20693E-03 5.47952E-01 5.36271E-14-5.00287E-14
 -1      4131 1.88494E+01 9.00204E-01 9.79634E-03 3.32940E-01 6.27238E-14-2.57845E-13
 -1      4132 1.85384E+01 8.84663E-01-7.97012E-03 6.31896E-01 3.49462E-14-7.22448E-14
 -1      4133 1.84086E+01 8.90597E-01 2.37962E-03 7.35414E-01 9.84250E-15-1.34533E-13
 -1      4134 1.85265E+01 9.75053E-01 1.24811E-02 4.62071E-01 2.44060E-14-2.35452E-13
 -1      4135 1.81727E+01 8.67413E-01-1.10149E-02 8.53241E-01-1.42378E-14-1.59421E-13
 -1      4136 1.80333E+01 8.36515E-01 4.00741E-03 9.96607E-01-1.00813E-13-9.67884E-14
 -1      4137 1.81320E+01 1.00863E+00 1.58329E-02 6.45001E-01 9.02598E-15-2.39722E-13
 -1      4138 1.77372E+01 7.66049E-01-1.55494E-02 1.16321E+00-1.48788E-13-1.52239E-14
 -1      4139 1.75878E+01 6.72318E-01 1.91767E-03 1.37276E+00-7.93937E-14-4.76505E-14
 -1      4140 1.76461E+01 9.75984E-01 1.86258E-02 9.04873E-01-8.46908E-14-2.81468E-13
 -1      4141 1.71878E+01 5.83962E-01-2.13801E-02 1.53798E+00-1.30957E-13-5.28279E-14
 -1      4142 1.70363E+01 3.94657E-01-3.72276E-03 1.84017E+00-7.92845E-14-1.64999E-13
 -1      4143 1.61625E+01 7.89699E-01 3.50657E-02 1.52109E+00-3.79344E-14 1.81886E-15
 -1      4144 1.70333E+01 8.99343E-01 2.83460E-02 1.19983E+00-1.20058E-13-4.39826E-14
 -1      4145 2.04283E+01 2.94611E-01 2.32744E-03 1.03840E-02-3.71210E-14-1.70919E-13
 -1      4146 2.04121E+01 2.01026E-01-1.33947E-03 2.61547E-02-1.94860E-15-1.48938E-13
 -1      4147 1.98947E+01 2.22532E-01-1.96719E-04-9.82807E-02-1.36455E-14-1.15914E-13
 -1      4148 1.99251E+01 1.83635E-01-7.31977E-04-8.83110E-02-5.89737E-15-4.90095E-14
 -1      4149 1.94330E+01 6.36135E-01-1.61331E-03-2.08704E-01-4.19316E-14-9.09518E-14
 -1      4150 1.95136E+01 5.74969E-01-1.94891E-03-1.86884E-01-3.33550E-14-2.27790E-13
 -1      4151 1.97184E+01 4.06649E-01-7.25691E-04-1.44053E-01 1.31874E-14-1.29230E-13
 -1      4152 1.97669E+01 3.55958E-01-1.25677E-03-1.27824E-01 4.74326E-14-1.05742E-13
 -1      4153 1.89678E+01 8.91495E-01-3.12546E-03-2.83718E-01-9.01144E-14-5.20799E-14
 -1      4154 1.91012E+01 8.27533E-01-2.99136E-03-2.58633E-01-1.18758E-13-1.00764E-13
 -1      4155 1.86355E+01 1.01336E+00-4.26826E-03-3.21136E-01 2.41062E-15-5.24136E-15
 -1      4156 1.88065E+01 9.54044E-01-3.82328E-03-2.95105E-01-6.41769E-14-1.63194E-14
 -1      4157 1.88483E+01 9.54747E-01 9.20219E-03-1.50578E-01-1.02576E-13-1.71541E-13
 -1      4158 1.82102E+01 1.11728E+00-5.82984E-03-3.57645E-01 1.11473E-13-1.20115E-13
 -1      4159 1.84301E+01 1.06870E+00-5.10518E-03-3.29773E-01 1.04493E-13-4.62462E-14
 -1      4160 1.84886E+01 1.07645E+00 1.19087E-02-1.47517E-01 7.65616E-14-1.38535E-13
 -1      4161 1.76606E+01 1.18879E+00-7.79993E-03-3.96559E-01-4.76594E-15-7.64081E-14
 -1      4162 1.79450E+01 1.15884E+00-7.16008E-03-3.62870E-01 6.96923E-14-1.02385E-13
 -1      4163 1.80288E+01 1.17917E+00 1.57114E-02-1.29729E-01 6.68565E-14-2.08299E-13
 -1      4164 1.69285E+01 1.20172E+00-1.39964E-02-4.52713E-01 2.14659E-14-1.30318E-13
 -1      4165 1.73089E+01 1.20975E+00-1.01767E-02-4.01666E-01-1.37507E-14-4.75415E-14
 -1      4166 1.74287E+01 1.25161E+00 2.06801E-02-9.28811E-02 2.11290E-14-2.71775E-13
 -1      4167 1.59600E+01 1.16405E+00-2.04545E-02-3.59303E-01 5.89981E-14-7.07149E-14
 -1      4168 1.65393E+01 1.20244E+00-7.21570E-03-3.99289E-01 3.32117E-14-8.63845E-14
 -1      4169 1.66822E+01 1.28305E+00 2.83474E-02 1.73202E-02 6.43431E-15-2.59866E-13
 -1      4170 1.57742E+01 1.23573E+00 3.35406E-02 2.58866E-01-5.09445E-15 8.28617E-14
 -1      4171 2.03900E+01 8.11966E-01-2.04535E-03-6.37618E-02 7.46033E-15-2.36231E-13
 -1      4172 2.04164E+01 6.83253E-01 3.96768E-03-4.18092E-02 1.64941E-14-2.14552E-13
 -1      4173 2.03906E+01 8.15400E-01-4.44714E-03-3.81541E-02 2.69756E-14-2.12154E-13
 -1      4174 2.03208E+01 1.65269E-02-4.42800E-04-8.05650E-02 2.22876E-14-1.43647E-13
 -1      4175 2.03046E+01 2.58461E-02-3.43340E-04-9.63174E-02 2.69622E-14-1.03261E-13
 -1      4176 2.03284E+01 6.91721E-02 9.94203E-04-8.35440E-02 5.34578E-14-1.18593E-13
 -1      4177 2.03982E+01 1.30036E-01 2.39617E-04 3.04155E-02-1.81809E-15-1.50269E-13
 -1      4178 2.03794E+01 7.08000E-02-1.34274E-04 4.05724E-02-2.41200E-14-1.48686E-13
 -1      4179 2.04139E+01 1.77118E-01-2.63379E-04 1.47825E-02-4.81738E-16-1.12288E-13
 -1      4180 2.01796E+01-6.46273E-02 3.19803E-04-1.04806E-01 3.59276E-14-4.39760E-14
 -1      4181 2.01977E+01-6.44255E-02 2.32688E-04-1.06141E-01 3.94795E-14-1.42503E-14
 -1      4182 2.02307E+01-6.26662E-02-4.86403E-04-8.88781E-02-1.19762E-14-2.51759E-14
 -1      4183 2.01867E+01-6.43084E-02-4.27397E-04-8.67267E-02 2.47881E-14-4.18696E-14
 -1      4184 1.95931E+01 5.16297E-01-1.11137E-03-1.74372E-01-1.25650E-14-1.83503E-13
 -1      4185 1.96556E+01 4.59909E-01-1.57543E-03-1.55147E-01-9.43600E-15-1.31569E-13
 -1      4186 1.95314E+01 5.68400E-01 4.34016E-03-1.14228E-01-2.38971E-14-1.51032E-13
 -1      4187 2.03581E+01 2.49016E-02 2.52607E-04 4.14368E-02-4.87336E-14-1.41963E-13
 -1      4188 2.03356E+01-9.92308E-03 2.10771E-04 4.73935E-02-5.91947E-14-1.32655E-13
 -1      4189 2.03786E+01 5.33442E-02-6.57070E-04 2.15872E-02-2.62614E-14-1.39167E-13
 -1      4190 1.98167E+01 3.08632E-01-4.28415E-04-1.18575E-01-2.27102E-14-1.13537E-13
 -1      4191 1.98547E+01 2.63905E-01-9.80065E-04-1.05499E-01-3.30953E-14-1.12586E-13
 -1      4192 1.97796E+01 3.47769E-01 2.41394E-03-8.25606E-02-2.62121E-15-6.74995E-14
 -1      4193 2.04300E+01 6.04110E-01 3.22241E-03 1.71890E-02 5.06052E-14-1.98519E-13
 -1      4194 2.04045E+01 7.62824E-01-1.55951E-03 2.29774E-03 7.19964E-14-2.04521E-13
 -1      4195 1.99581E+01 1.47956E-01-7.23627E-06-8.31104E-02-2.15051E-14-8.59972E-15
 -1      4196 1.99833E+01 1.14575E-01-4.69115E-04-7.59913E-02 2.51170E-14-3.13584E-14
 -1      4197 1.99369E+01 1.74244E-01 1.00794E-03-5.95413E-02 1.66691E-14-9.20010E-14
 -1      4198 1.92285E+01 7.63011E-01-2.26765E-03-2.45717E-01-1.10073E-13-1.11158E-13
 -1      4199 1.93324E+01 6.98916E-01-2.40292E-03-2.21922E-01-4.86929E-14-1.34028E-13
 -1      4200 1.93552E+01 6.93638E-01 5.61033E-03-1.30291E-01-5.60317E-14-1.30383E-13
 -1      4201 1.91316E+01 8.24393E-01 7.18426E-03-1.43498E-01-1.18266E-13-1.12131E-13
 -1      4202 2.03110E+01-3.56869E-02 2.77911E-04 4.67476E-02-8.33979E-14-1.51381E-13
 -1      4203 2.02872E+01-5.28237E-02 3.36111E-04 4.95057E-02-1.08945E-13-1.69566E-13
 -1      4204 2.03321E+01-2.11646E-02-1.02819E-03 2.55578E-02-1.13261E-13-1.40266E-13
 -1      4205 2.04172E+01 4.91990E-01-2.67675E-03-1.17173E-02 7.55960E-16-2.00886E-13
 -1      4206 2.01459E+01-4.43941E-02 1.82322E-04-6.47755E-02 1.47207E-14 7.23254E-14
 -1      4207 2.01665E+01-5.56548E-02 1.93707E-05-6.51257E-02 1.31142E-14 1.80284E-14
 -1      4208 1.98666E+01 2.55083E-01 1.67024E-03-6.96493E-02-1.46612E-14-7.43086E-14
 -1      4209 2.04283E+01 4.52610E-01-2.20706E-05-6.05669E-03 1.00361E-14-1.81802E-13
 -1      4210 2.00113E+01 8.41457E-02 7.69966E-05-7.29406E-02 1.04383E-13-1.03088E-14
 -1      4211 2.00332E+01 5.61632E-02-3.39553E-04-6.84064E-02 1.25516E-13 4.82355E-14
 -1      4212 1.99955E+01 1.03392E-01 2.86615E-05-5.18423E-02 1.04931E-13-4.06654E-14
 -1      4213 2.00648E+01 1.84423E-02-1.49572E-05-8.50654E-02 5.51215E-14 7.06099E-14
 -1      4214 2.01026E+01-1.21682E-02 2.88458E-04-6.43628E-02 7.49611E-14 5.53786E-14
 -1      4215 2.01228E+01-2.96979E-02 5.71748E-05-6.36574E-02 7.22497E-14 7.83896E-14
 -1      4216 2.01412E+01-3.77846E-02-2.63619E-04-4.54582E-02 3.90822E-14 5.64947E-14
 -1      4217 2.04021E+01 7.69548E-01-9.16545E-04-2.05529E-02 4.04420E-14-2.05280E-13
 -1      4218 2.02823E+01-5.84723E-02-1.04197E-03 2.68453E-02-1.06349E-13-1.46638E-13
 -1      4219 2.03309E+01-1.12102E-04-2.25266E-04-6.51498E-02-3.08203E-14-1.13330E-13
 -1      4220 2.03554E+01 3.72942E-02 5.65199E-04-5.71105E-02 2.34608E-14-1.34911E-13
 -1      4221 1.58192E+01 9.62505E-01-2.15478E-02 9.20167E-01-5.04536E-14 2.23480E-14
 -1      4222 2.04324E+01 4.56588E-01-1.36827E-03-1.42831E-03 3.82560E-14-2.07571E-13
 -1      4223 2.03522E+01 1.25277E-01-7.87078E-04-6.83247E-02 5.27331E-14-1.23180E-13
 -1      4224 2.03736E+01 1.94217E-01 5.52676E-04-4.42339E-02 3.94182E-14-1.20437E-13
 -1      4225 2.04130E+01 2.57656E-01-2.21453E-04-2.05787E-02 2.13357E-14-1.91512E-13
 -1      4226 2.03692E+01 1.10105E-01-1.02790E-03-5.68498E-02 6.20064E-14-1.62626E-13
 -1      4227 1.96702E+01 4.52443E-01 3.29169E-03-9.77599E-02 2.80964E-14-6.16472E-14
 -1      4228 2.02843E+01-4.75133E-02 1.26103E-04-6.89182E-02-5.70022E-14-7.61442E-14
 -1      4229 2.03082E+01-2.75573E-02 5.86861E-04-6.54978E-02-5.15965E-14-1.00453E-13
 -1      4230 2.03339E+01-1.08304E-02-1.03506E-03-4.53783E-02-4.44259E-14-9.32578E-14
 -1      4231 1.98482E+01 2.60571E-01-1.48180E-03-1.27141E-02-8.52610E-15-1.33537E-14
 -1      4232 1.98888E+01 2.19267E-01-8.00629E-04-8.86110E-03 1.65903E-14-3.11308E-14
 -1      4233 2.01993E+01-6.18942E-02 2.83128E-04 5.32559E-03-4.11464E-15-1.20988E-13
 -1      4234 2.01747E+01-5.29635E-02 2.80682E-04 5.19291E-03 3.57164E-14-9.31878E-14
 -1      4235 2.01412E+01-3.46551E-02 9.00567E-05-9.88488E-03 2.75962E-14-5.78979E-14
 -1      4236 2.01173E+01-1.72855E-02 2.11138E-04-9.23600E-03 6.46287E-14-4.95996E-14
 -1      4237 2.00502E+01 4.36259E-02-1.61747E-04 5.50741E-03 8.17998E-14-4.58369E-14
 -1      4238 2.00239E+01 7.11124E-02-2.01514E-04 7.53085E-03 9.88450E-14-3.74790E-14
 -1      4239 1.99877E+01 1.10641E-01-3.67397E-04-1.12199E-02 8.15914E-14-6.76058E-14
 -1      4240 1.99576E+01 1.44092E-01-4.43583E-04-9.07428E-03 2.02158E-14-2.90314E-14
 -1      4241 1.99241E+01 1.80055E-01-9.50077E-04-1.21453E-02-4.49446E-15-4.53104E-14
 -1      4242 1.98055E+01 3.05514E-01-1.18450E-03-7.82529E-03 1.10489E-14-1.81409E-14
 -1      4243 1.97548E+01 3.52249E-01-2.09475E-03-1.22027E-02-2.41450E-15-3.83156E-14
 -1      4244 1.97022E+01 4.02842E-01-1.61885E-03-5.09258E-03-1.77689E-14-5.08487E-14
 -1      4245 1.96382E+01 4.54741E-01-2.82943E-03-9.47247E-03-1.18071E-14-7.59017E-15
 -1      4246 1.95729E+01 5.10463E-01-2.11692E-03 7.73484E-04 4.01296E-14-2.05502E-14
 -1      4247 1.94917E+01 5.66686E-01-3.72384E-03-2.76066E-03 8.92644E-15 1.48374E-14
 -1      4248 1.94104E+01 6.26309E-01-2.69376E-03 1.19522E-02-1.37940E-14-3.29847E-14
 -1      4249 1.93073E+01 6.85165E-01-4.83484E-03 1.05360E-02-3.35499E-14-6.48931E-14
 -1      4250 1.92067E+01 7.46491E-01-3.37558E-03 3.16504E-02-6.29947E-14-9.69463E-14
 -1      4251 1.90760E+01 8.05157E-01-6.25589E-03 3.41386E-02-1.06673E-13-1.01340E-13
 -1      4252 1.89518E+01 8.64776E-01-4.21142E-03 6.44633E-02-8.82432E-14-1.70782E-13
 -1      4253 1.87860E+01 9.19046E-01-8.14353E-03 7.32349E-02-2.79342E-15-1.55045E-13
 -1      4254 1.86333E+01 9.72162E-01-5.28496E-03 1.16846E-01 2.80240E-14-2.36917E-13
 -1      4255 1.84222E+01 1.01628E+00-1.07399E-02 1.34975E-01 7.00623E-14-2.06108E-13
 -1      4256 1.82347E+01 1.05665E+00-6.68282E-03 1.97785E-01 6.04506E-14-2.11769E-13
 -1      4257 1.79631E+01 1.08350E+00-1.42591E-02 2.29418E-01 4.51916E-14-1.95324E-13
 -1      4258 1.77330E+01 1.10349E+00-8.07506E-03 3.20056E-01 7.45503E-14-2.08018E-13
 -1      4259 1.73774E+01 1.10708E+00-1.76741E-02 3.72548E-01 4.50843E-14-2.66755E-13
 -1      4260 1.70973E+01 1.09668E+00-6.41179E-03 5.01938E-01-5.87042E-14-2.12444E-13
 -1      4261 1.66903E+01 1.05318E+00-2.34636E-02 6.29645E-01-1.16140E-13-8.72624E-14
 -1      4262 1.63344E+01 1.04179E+00-5.88855E-03 7.28634E-01-1.47901E-13-2.25395E-14
 -1      4263 2.01873E+01-5.99627E-02-3.50554E-04-4.60373E-02-6.35763E-15-4.62134E-14
 -1      4264 2.01906E+01-6.31382E-02 3.47682E-04-6.64013E-02 1.50356E-14-1.18696E-14
 -1      4265 2.02126E+01-6.70201E-02 3.09479E-04-6.66414E-02-6.70002E-15-3.20477E-14
 -1      4266 2.03414E+01-1.57659E-02 4.49258E-04-1.03286E-02-7.99454E-14-1.04322E-13
 -1      4267 2.03169E+01-4.01716E-02 9.06502E-04-8.77255E-03-1.16540E-13-9.21452E-14
 -1      4268 2.04255E+01 2.13322E-01-2.26601E-04-5.93595E-04 1.19648E-14-1.49432E-13
 -1      4269 2.04138E+01 1.36648E-01 3.86414E-04 5.58531E-03-7.45409E-15-1.63548E-13
 -1      4270 2.03853E+01 6.10919E-02 1.71654E-04-1.03488E-02-2.55181E-14-1.56488E-13
 -1      4271 2.03650E+01 1.69328E-02 8.67894E-04-6.97956E-03-6.24312E-14-1.39401E-13
 -1      4272 2.00585E+01 3.08074E-02 2.05423E-04-6.68239E-02 8.14789E-14 1.61249E-14
 -1      4273 2.00787E+01 7.83000E-03-1.97313E-04-6.45971E-02 5.91583E-14 1.92020E-14
 -1      4274 2.00473E+01 4.62364E-02 1.25430E-04-4.74975E-02 1.07863E-13-6.88865E-14
 -1      4275 2.02407E+01-6.77285E-02 4.37907E-04-1.01454E-02-5.50404E-14-8.51902E-14
 -1      4276 2.02149E+01-6.58532E-02 4.46175E-04-9.66000E-03-3.01037E-14-8.59136E-14
 -1      4277 2.03905E+01 9.23666E-02-4.02444E-04-2.40500E-02-2.47761E-14-1.36494E-13
 -1      4278 2.03867E+01 1.10976E-01-3.23826E-04-3.99677E-02 3.34154E-14-1.93811E-13
 -1      4279 2.02369E+01-6.61705E-02 2.61062E-04-6.86257E-02-5.30486E-14-4.89837E-14
 -1      4280 2.02601E+01-5.98454E-02 4.38632E-04-6.77251E-02-7.00685E-14-7.48048E-14
 -1      4281 2.02848E+01-5.38173E-02-1.19849E-03-4.81367E-02-7.38326E-14-5.16530E-14
 -1      4282 2.02358E+01-6.81016E-02-1.02071E-03-4.80482E-02-5.99108E-14-6.38198E-14
 -1      4283 2.01008E+01-3.48601E-03-2.08539E-05 5.15153E-03 6.93646E-14-8.98088E-14
 -1      4284 2.00762E+01 1.86551E-02 2.59611E-05 5.94332E-03 6.43479E-14-2.86068E-14
 -1      4285 2.00947E+01-1.14550E-03-1.07043E-04-4.54059E-02 6.94607E-14-2.23745E-14
 -1      4286 2.00030E+01 9.63937E-02 2.60922E-04-3.49529E-02 9.75487E-14-8.57262E-14
 -1      4287 2.02918E+01-5.54532E-02 6.19946E-04-1.02552E-02-1.27946E-13-3.50264E-14
 -1      4288 2.00630E+01 3.20464E-02 1.31932E-05-1.63835E-02 9.16947E-14-2.16470E-14
 -1      4289 2.02659E+01-6.49294E-02 7.70211E-04-9.43045E-03-8.75594E-14-9.72415E-14
 -1      4290 2.04360E+01 3.27958E-01 1.07896E-03 1.52941E-03 4.45367E-14-2.32716E-13
 -1      4291 2.04326E+01 4.32727E-01-2.15299E-03-1.24113E-03 5.24164E-14-1.77787E-13
 -1      4292 2.01516E+01-4.13994E-02-2.39218E-04-3.06836E-02 3.42427E-14-1.65651E-14
 -1      4293 2.01037E+01-7.80437E-03-2.43917E-04-3.07913E-02 7.77277E-14 3.10702E-15
 -1      4294 2.00804E+01 1.39506E-02 2.06630E-04-3.12420E-02 8.86480E-14-4.48895E-14
 -1      4295 2.01750E+01-5.42641E-02 1.72685E-04-3.12054E-02 1.85466E-14-4.26809E-14
 -1      4296 2.01996E+01-6.38897E-02-4.28014E-04-3.18647E-02-1.28058E-14-5.17379E-14
 -1      4297 2.04210E+01 2.39205E-01-7.50081E-05-1.60538E-02 3.11871E-14-2.29841E-13
 -1      4298 2.04324E+01 6.38987E-01 4.99737E-03-1.18627E-02 3.42285E-14-2.04723E-13
 -1      4299 2.04371E+01 2.83688E-01 2.82873E-03 6.35939E-03 6.37778E-14-1.40069E-13
 -1      4300 2.04270E+01 2.40162E-01-2.71223E-04-4.10182E-03 1.07924E-14-2.20409E-13
 -1      4301 2.04310E+01 3.98911E-01-2.91646E-03 8.01588E-04 2.99254E-14-1.59542E-13
 -1      4302 2.04136E+01 1.75397E-01 1.35952E-03-2.10152E-02 1.56827E-14-2.13730E-13
 -1      4303 2.00546E+01 3.78825E-02-2.71370E-04-3.15608E-02 8.06560E-14-7.54990E-14
 -1      4304 2.00305E+01 6.52892E-02 2.54112E-04-3.28913E-02 1.32703E-13-8.68780E-14
 -3
    1PSTEP                         3           1           1          
  100CL  101 1.000000000        4304                     0    1           1
 -4  TOSTRAIN    6    1
 -5  EXX         1    4    1    1
 -5  EYY         1    4    2    2
 -5  EZZ         1    4    3    3
 -5  EXY         1    4    1    2
 -5  EYZ         1    4    2    3
 -5  EZX         1    4    3    1
 -1         1 9.56545E-06 1.30226E-05-1.35668E-05 1.96764E-05-4.76117E-18-4.41601E-18
 -1         2 3.87688E-05-1.17801E-04 2.14118E-05-5.67977E-07 6.31379E-18-1.58528E-19
 -1         3 9.50115E-05-2.88154E-05-2.81524E-05-2.77574E-07-1.83230E-18-1.62867E-18
 -1         4 9.51085E-05-2.87027E-05-2.83031E-05 1.27412E-07 1.09851E-18-9.39813E-19
 -1         5 1.43344E-04-2.14783E-05-4.25267E-05 3.85317E-05-1.95400E-19 1.23393E-17
 -1         6 1.45406E-04 2.57559E-10-4.41857E-05-5.35274E-05-8.44915E-19 9.02344E-18
 -1         7 9.06035E-05-5.10827E-07-3.90664E-05-2.92549E-05-1.18161E-19 1.07494E-19
 -1         8 8.51215E-05 8.65228E-08-3.63376E-05-2.02755E-05-9.86529E-20-2.29407E-18
 -1         9 8.28140E-05 7.59986E-08-3.53504E-05-1.56442E-05-7.52801E-20-3.42975E-18
 -1        10 8.17708E-05 3.97197E-08-3.48814E-05-1.20823E-05-5.43358E-20-3.86085E-18
 -1        11 8.12538E-05 1.92997E-08-3.46534E-05-9.01833E-06-4.26693E-20-3.91663E-18
 -1        12 8.09865E-05 9.07191E-09-3.45395E-05-6.28756E-06 2.02676E-20-3.83262E-18
 -1        13 8.08459E-05 4.51011E-09-3.44822E-05-3.68738E-06 1.55022E-20-3.72207E-18
 -1        14 8.07871E-05 2.67314E-09-3.44589E-05-1.18416E-06 4.64956E-20-3.57339E-18
 -1        15 8.07891E-05 2.66923E-09-3.44596E-05 1.28968E-06 6.31281E-20-3.39001E-18
 -1        16 8.08521E-05 4.46633E-09-3.44844E-05 3.79790E-06 8.57075E-20-3.25043E-18
 -1        17 8.09980E-05 8.36020E-09-3.45433E-05 6.40989E-06 6.44456E-20-2.89054E-18
 -1        18 8.12716E-05 1.81392E-08-3.46586E-05 9.15975E-06 1.00850E-19-2.39849E-18
 -1        19 8.17967E-05 3.81892E-08-3.48898E-05 1.22624E-05 1.41686E-19-1.66679E-18
 -1        20 8.28338E-05 8.15600E-08-3.53626E-05 1.58750E-05 1.64973E-19-5.69487E-19
 -1        21 8.50865E-05 1.69562E-07-3.63760E-05 2.04861E-05 1.86691E-19 1.42707E-18
 -1        22 9.16410E-05-9.94464E-08-3.87381E-05 2.80016E-05 3.91753E-20 5.00031E-18
 -1        23 1.12972E-04-3.81253E-05-3.53960E-05-4.40310E-06-5.65924E-19 6.23628E-18
 -1        24 9.28016E-05-2.76962E-05-2.89983E-05 3.91277E-07-1.36544E-19 3.82040E-18
 -1        25 8.91161E-05-2.68511E-05-2.69282E-05 3.75988E-07-7.13228E-20 1.60019E-18
 -1        26 8.80113E-05-2.64871E-05-2.63903E-05 2.03826E-07 1.48595E-20 3.77459E-20
 -1        27 8.80348E-05-2.64644E-05-2.63818E-05 1.39793E-07-8.84347E-20-9.98599E-19
 -1        28 8.85661E-05-2.66002E-05-2.65505E-05 1.00831E-07-7.31312E-20-1.65832E-18
 -1        29 8.93180E-05-2.68120E-05-2.67821E-05 7.50107E-08 4.15162E-21-2.12309E-18
 -1        30 9.01388E-05-2.70505E-05-2.70310E-05 5.65878E-08 1.14129E-19-2.57219E-18
 -1        31 9.09440E-05-2.72877E-05-2.72739E-05 4.27154E-08-2.96262E-21-3.02768E-18
 -1        32 9.16876E-05-2.75082E-05-2.74980E-05 3.19320E-08-1.57535E-19-4.19729E-18
 -1        33 9.23471E-05-2.77046E-05-2.76969E-05 2.34265E-08 2.95144E-19-4.53476E-18
 -1        34 9.29159E-05-2.78744E-05-2.78686E-05 1.66939E-08 4.11036E-21-4.22025E-18
 -1        35 9.33974E-05-2.80186E-05-2.80142E-05 1.13868E-08 5.58002E-20-4.43658E-18
 -1        36 9.38026E-05-2.81402E-05-2.81368E-05 7.25394E-09 3.88948E-20-3.90526E-18
 -1        37 9.41472E-05-2.82439E-05-2.82413E-05 4.11468E-09-2.85499E-19-3.81064E-18
 -1        38 9.44508E-05-2.83355E-05-2.83336E-05 1.85138E-09-2.38169E-19-4.92964E-18
 -1        39 9.47364E-05-2.84219E-05-2.84206E-05 4.09835E-10-1.04211E-19-4.99149E-18
 -1        40 9.50303E-05-2.85109E-05-2.85101E-05-1.95687E-10-1.87468E-19-4.46217E-18
 -1        41 9.53625E-05-2.86115E-05-2.86114E-05 1.25008E-10 8.80360E-20-5.34497E-18
 -1        42 9.57670E-05-2.87339E-05-2.87346E-05 1.54581E-09 1.23979E-19-4.71591E-18
 -1        43 9.62820E-05-2.88894E-05-2.88913E-05 4.32945E-09-5.06591E-19-4.29981E-18
 -1        44 9.69498E-05-2.90906E-05-2.90940E-05 8.82410E-09 9.39702E-20-3.64276E-18
 -1        45 9.78150E-05-2.93509E-05-2.93563E-05 1.54400E-08 2.53255E-19-3.79293E-18
 -1        46 9.89216E-05-2.96831E-05-2.96909E-05 2.45845E-08-1.63398E-19-3.88678E-18
 -1        47 1.00306E-04-3.00978E-05-3.01083E-05 3.65177E-08 2.62056E-19-3.62690E-18
 -1        48 1.01986E-04-3.06001E-05-3.06130E-05 5.10673E-08 2.05992E-19-2.31350E-18
 -1        49 1.03944E-04-3.11841E-05-3.11977E-05 6.71186E-08-2.57246E-19-3.02719E-18
 -1        50 1.06098E-04-3.18253E-05-3.18358E-05 8.17977E-08-7.10789E-20-4.52659E-18
 -1        51 1.08271E-04-3.24710E-05-3.24712E-05 8.93660E-08 3.56740E-19-2.81014E-18
 -1        52 1.10156E-04-3.30294E-05-3.30086E-05 8.01787E-08-1.06133E-19-1.28218E-18
 -1        53 1.11291E-04-3.33644E-05-3.33100E-05 4.08075E-08 1.59511E-19-2.35881E-18
 -1        54 1.11094E-04-3.33037E-05-3.32079E-05-4.24224E-08 3.89466E-19-3.39312E-18
 -1        55 1.08989E-04-3.26763E-05-3.25474E-05-1.73701E-07-3.71274E-19-4.33010E-18
 -1        56 1.04664E-04-3.13887E-05-3.12626E-05-3.32122E-07 1.40175E-19-5.43480E-18
 -1        57 9.84281E-05-2.95303E-05-2.94686E-05-4.60176E-07 1.02454E-19-3.47442E-18
 -1        58 9.14558E-05-2.74486E-05-2.75101E-05-4.76689E-07 1.37028E-19-3.33400E-18
 -1        59 8.56294E-05-2.57057E-05-2.58995E-05-3.26898E-07-1.17972E-19-4.33285E-18
 -1        60 8.28196E-05-2.48639E-05-2.51229E-05-4.19580E-08 6.08921E-20-2.64366E-18
 -1        61 8.39135E-05-2.51910E-05-2.54047E-05 2.56920E-07 4.17280E-19-2.72259E-18
 -1        62 8.82876E-05-2.64988E-05-2.65863E-05 4.38689E-07-9.65576E-20-3.00627E-18
 -1        63 9.41662E-05-2.82534E-05-2.82073E-05 4.49788E-07-4.89806E-19-1.75415E-18
 -1        64 9.95579E-05-2.98596E-05-2.97316E-05 3.29702E-07 1.46989E-19-5.82528E-18
 -1        65 1.03087E-04-3.09092E-05-3.07650E-05 1.60217E-07-4.09165E-20-5.05713E-18
 -1        66 1.04292E-04-3.12677E-05-3.11517E-05 8.01796E-09 7.84984E-19-5.54895E-18
 -1        67 1.03454E-04-3.10202E-05-3.09505E-05-9.57835E-08 4.22779E-19-2.79289E-18
 -1        68 1.01270E-04-3.03728E-05-3.03533E-05-1.45891E-07 2.72109E-20-7.57638E-19
 -1        69 9.85865E-05-2.95749E-05-2.96073E-05-1.43344E-07-1.60291E-19-1.51827E-18
 -1        70 9.62746E-05-2.88797E-05-2.89586E-05-6.72901E-08 4.35151E-19 1.71961E-19
 -1        71 9.51037E-05-2.84991E-05-2.85698E-05 6.19143E-08-4.80787E-19 2.03233E-18
 -1        72 1.02176E-04-3.05865E-05-3.41492E-05-1.92873E-06 1.48204E-19 1.17330E-17
 -1        73 9.25581E-05-2.75122E-05-2.89067E-05-3.33171E-07 2.38824E-20 9.49782E-18
 -1        74 8.91029E-05-2.67004E-05-2.69713E-05-1.25896E-07 1.02394E-19 7.85743E-18
 -1        75 8.80406E-05-2.64377E-05-2.64342E-05-9.55575E-08-8.20853E-21 6.73019E-18
 -1        76 8.80698E-05-2.64446E-05-2.64084E-05-7.65432E-08 9.44992E-20 5.90613E-18
 -1        77 8.86001E-05-2.65946E-05-2.65676E-05-6.24331E-08 9.00552E-21 5.07617E-18
 -1        78 8.93489E-05-2.68131E-05-2.67943E-05-5.15826E-08-7.75192E-20 4.63508E-18
 -1        79 9.01659E-05-2.70549E-05-2.70402E-05-4.26110E-08 7.59942E-20 3.94548E-18
 -1        80 9.09672E-05-2.72934E-05-2.72809E-05-3.48485E-08-4.61129E-20 2.73323E-18
 -1        81 9.17066E-05-2.75141E-05-2.75032E-05-2.80242E-08 1.69542E-19 2.69995E-18
 -1        82 9.23619E-05-2.77100E-05-2.77006E-05-2.20141E-08 1.45947E-20 1.87572E-18
 -1        83 9.29263E-05-2.78790E-05-2.78708E-05-1.67355E-08 6.91875E-20 1.35113E-18
 -1        84 9.34034E-05-2.80219E-05-2.80151E-05-1.21101E-08-1.05405E-19 1.03147E-18
 -1        85 9.38039E-05-2.81420E-05-2.81364E-05-8.05453E-09 1.04648E-19 1.96473E-18
 -1        86 9.41434E-05-2.82440E-05-2.82395E-05-4.48227E-09 2.25594E-19 1.25327E-18
 -1        87 9.44415E-05-2.83336E-05-2.83304E-05-1.31067E-09-3.56170E-19 1.06373E-18
 -1        88 9.47215E-05-2.84179E-05-2.84159E-05 1.52976E-09-2.67770E-20 1.43479E-18
 -1        89 9.50106E-05-2.85051E-05-2.85043E-05 4.08355E-09 1.28525E-19 3.27510E-19
 -1        90 9.53405E-05-2.86046E-05-2.86053E-05 6.35449E-09-2.83940E-19 4.57248E-19
 -1        91 9.57491E-05-2.87277E-05-2.87303E-05 8.28330E-09 1.37875E-19 1.50028E-20
 -1        92 9.62815E-05-2.88881E-05-2.88930E-05 9.71388E-09-1.29040E-19 3.42074E-19
 -1        93 9.69921E-05-2.91019E-05-2.91099E-05 1.03410E-08 5.73835E-20 1.96183E-18
 -1        94 9.79464E-05-2.93887E-05-2.94009E-05 9.62887E-09 1.99151E-19 9.20114E-19
 -1        95 9.92215E-05-2.97713E-05-2.97892E-05 6.68758E-09 1.66118E-19-7.50056E-19
 -1        96 1.00906E-04-3.02761E-05-3.03015E-05 1.00394E-10 1.06281E-19-4.63206E-19
 -1        97 1.03095E-04-3.09310E-05-3.09659E-05-1.22826E-08-2.65428E-19-2.50636E-19
 -1        98 1.05878E-04-3.17621E-05-3.18078E-05-3.34879E-08-3.49951E-20 1.13092E-20
 -1        99 1.09309E-04-3.27851E-05-3.28404E-05-6.72035E-08-1.11430E-19-1.97044E-18
 -1       100 1.13357E-04-3.39906E-05-3.40472E-05-1.16479E-07-1.45088E-19-1.45847E-18
 -1       101 1.17811E-04-3.53171E-05-3.53532E-05-1.79934E-07 3.06621E-20-8.86155E-19
 -1       102 1.22147E-04-3.66136E-05-3.65860E-05-2.43592E-07-2.93853E-19 4.75927E-19
 -1       103 1.25388E-04-3.75969E-05-3.74410E-05-2.68526E-07-2.77107E-19 7.18707E-19
 -1       104 1.26058E-04-3.78357E-05-3.74938E-05-1.82801E-07-2.72280E-19 2.65178E-18
 -1       105 1.22501E-04-3.68301E-05-3.63252E-05 9.50784E-08 1.79703E-19 3.15327E-18
 -1       106 1.13821E-04-3.42728E-05-3.38040E-05 5.61027E-07 1.83043E-19 3.15012E-18
 -1       107 1.01342E-04-3.04957E-05-3.04163E-05 1.00167E-06 7.42043E-20 2.30335E-18
 -1       108 8.93572E-05-2.67694E-05-2.73147E-05 1.04438E-06-3.93539E-19 3.32786E-18
 -1       109 8.34416E-05-2.48579E-05-2.58226E-05 5.00308E-07 7.86550E-19 1.59233E-18
 -1       110 8.65934E-05-2.57825E-05-2.65997E-05-3.27288E-07-7.60050E-19-2.83399E-18
 -1       111 9.67098E-05-2.89150E-05-2.91642E-05-8.87031E-07 3.81068E-19-2.96356E-19
 -1       112 1.08339E-04-3.25182E-05-3.22352E-05-9.30749E-07-8.48840E-19 1.02687E-18
 -1       113 1.16667E-04-3.50737E-05-3.45692E-05-6.25969E-07 6.88591E-19 2.90276E-18
 -1       114 1.19767E-04-3.60043E-05-3.55517E-05-2.53712E-07-5.59240E-19 2.76186E-18
 -1       115 1.18217E-04-3.55165E-05-3.52271E-05 2.57599E-08 6.08278E-19-1.68520E-19
 -1       116 1.13670E-04-3.41311E-05-3.39989E-05 1.87081E-07 2.31077E-19-1.31556E-18
 -1       117 1.07814E-04-3.23612E-05-3.23476E-05 2.62674E-07 5.23299E-19-5.23502E-18
 -1       118 1.02023E-04-3.06130E-05-3.06980E-05 2.84028E-07 6.59470E-20-6.16496E-18
 -1       119 9.74503E-05-2.92265E-05-2.93931E-05 2.34179E-07-6.42312E-19-4.80955E-18
 -1       120 9.51598E-05-2.84578E-05-2.86321E-05 6.14494E-10 5.36769E-19-3.01670E-18
 -1       121 9.52225E-05-2.84830E-05-2.86524E-05-7.29758E-08-8.43574E-19 1.06189E-18
 -1       122 9.45057E-05-2.61732E-05-2.94300E-05 1.54900E-07 5.31791E-19-1.00876E-18
 -1       123 9.31645E-05-2.16837E-05-3.07140E-05 2.67439E-07 1.92801E-18 9.53274E-19
 -1       124 9.15191E-05-1.61673E-05-3.22969E-05 2.97649E-07-1.07036E-18 1.00087E-19
 -1       125 8.98813E-05-1.06651E-05-3.38852E-05 2.70413E-07-2.42450E-19-1.01827E-18
 -1       126 8.85505E-05-6.17980E-06-3.51825E-05 2.00196E-07-1.53392E-18 1.00718E-18
 -1       127 8.77047E-05-3.33846E-06-3.60068E-05 8.99197E-08 1.84852E-18 2.88742E-18
 -1       128 8.75097E-05-2.68330E-06-3.62036E-05-3.34670E-08 1.49965E-18-1.90634E-18
 -1       129 8.79699E-05-4.23245E-06-3.57666E-05-1.40957E-07-2.07882E-18 1.74206E-18
 -1       130 8.89642E-05-7.57734E-06-3.48082E-05-2.09657E-07-4.70760E-18-2.05136E-18
 -1       131 9.02862E-05-1.20240E-05-3.35219E-05-2.32415E-07-1.25432E-17-1.06858E-18
 -1       132 9.16874E-05-1.67385E-05-3.21460E-05-2.15559E-07-1.19921E-17 1.79673E-18
 -1       133 9.30242E-05-2.12253E-05-3.08283E-05-1.75209E-07-5.22804E-18 2.44108E-19
 -1       134 9.41263E-05-2.49319E-05-2.97399E-05-1.30727E-07-4.40965E-18 1.20527E-18
 -1       135 9.48950E-05-2.74642E-05-2.89815E-05-7.81966E-08-5.00602E-18-8.58712E-19
 -1       136 9.51866E-05-2.85498E-05-2.85763E-05 1.56935E-07-2.62864E-18 1.28398E-18
 -1       137 2.82370E-05-9.49708E-05 1.71020E-05-2.51543E-05 4.68621E-18 2.29969E-19
 -1       138 8.99511E-06-4.13042E-05 5.16229E-06-2.24714E-05 7.60932E-18 4.53163E-18
 -1       139 9.52269E-06 1.15331E-05-1.32905E-05 1.81901E-05 1.00026E-17 6.90332E-18
 -1       140 5.36217E-05 2.82322E-05-3.41785E-05 7.51945E-05 6.98972E-18 7.07908E-18
 -1       141 1.37793E-04 2.15724E-06-5.39296E-05 1.13618E-04 5.55738E-18 1.02190E-17
 -1       142 2.39930E-04-5.09266E-05-7.03917E-05 1.04072E-04 1.44409E-18 7.42848E-19
 -1       143 3.08314E-04-9.21793E-05-7.94993E-05 4.43064E-05-1.08202E-18-1.03352E-17
 -1       144 3.08709E-04-9.30538E-05-7.93586E-05-4.01528E-05 1.21123E-18-1.30115E-17
 -1       145 2.37619E-04-5.11786E-05-6.96374E-05-1.01819E-04 3.75490E-18-1.16463E-17
 -1       146 1.37020E-04 4.80393E-07-5.32321E-05-1.10356E-04 5.60545E-18-9.03742E-18
 -1       147 5.09183E-05 2.65781E-05-3.27757E-05-7.11604E-05 6.95541E-18-7.94602E-18
 -1       148 9.51870E-06 8.26291E-06-1.22217E-05-1.57061E-05 5.24906E-18-3.81631E-18
 -1       149 9.15175E-06-4.29350E-05 5.74599E-06 2.33198E-05 2.23574E-18-1.02957E-18
 -1       150 2.81873E-05-9.43357E-05 1.70932E-05 2.49267E-05-1.60470E-18 1.03682E-19
 -1       151 3.76201E-05-1.13949E-04 2.07283E-05 7.15874E-08-5.84904E-18-8.28134E-19
 -1       152 2.67921E-05-8.97575E-05 1.61043E-05-2.38761E-05-9.88466E-18-2.34398E-18
 -1       153 8.21897E-06-3.59177E-05 3.85711E-06-1.93251E-05-6.63057E-18-2.83523E-18
 -1       154 5.16596E-05 2.86510E-05-3.35063E-05 7.39527E-05-1.42471E-18-4.32834E-19
 -1       155 1.33823E-04 2.68364E-06-5.28066E-05 1.10740E-04-2.55592E-19-1.85924E-18
 -1       156 2.31119E-04-4.78895E-05-6.87689E-05 1.03379E-04-5.49089E-19-1.38066E-19
 -1       157 3.01305E-04-9.04003E-05-7.81113E-05 4.30184E-05 7.67888E-19 1.48908E-18
 -1       158 3.02029E-04-9.03907E-05-7.83075E-05-4.31616E-05 1.99238E-19-4.70950E-19
 -1       159 2.35006E-04-4.93291E-05-6.94411E-05-1.03191E-04 4.30293E-19-7.08543E-19
 -1       160 1.37457E-04 1.99550E-06-5.36168E-05-1.12759E-04 6.03511E-19-1.79613E-18
 -1       161 5.27275E-05 2.91036E-05-3.38853E-05-7.54482E-05 4.66927E-18-3.65071E-18
 -1       162 9.50673E-06 1.24379E-05-1.33060E-05-1.91473E-05 4.01197E-18-4.16190E-18
 -1       163 9.45968E-06-4.05406E-05 4.91251E-06 2.02858E-05 1.83298E-18-1.09055E-18
 -1       164 2.83169E-05-9.50444E-05 1.72068E-05 2.44051E-05 9.01878E-19 2.19360E-18
 -1       165 9.48643E-05-1.23454E-05-3.55681E-05-2.23525E-05-1.51072E-18-9.55109E-19
 -1       166 8.92466E-05-8.45552E-06-3.47865E-05-1.73957E-05-1.21423E-18-2.43384E-18
 -1       167 8.65489E-05-6.50631E-06-3.44158E-05-1.35873E-05-8.49422E-19-3.09956E-18
 -1       168 8.51894E-05-5.51388E-06-3.42308E-05-1.03761E-05-5.01392E-19-3.29976E-18
 -1       169 8.44507E-05-4.94687E-06-3.41420E-05-7.55058E-06-1.93040E-19-3.30993E-18
 -1       170 8.40246E-05-4.60142E-06-3.41001E-05-4.90559E-06 9.79431E-20-3.22654E-18
 -1       171 8.38070E-05-4.41711E-06-3.40823E-05-2.39616E-06 4.26094E-19-3.07077E-18
 -1       172 8.37428E-05-4.36137E-06-3.40777E-05 5.13384E-08 6.29340E-19-2.98277E-18
 -1       173 8.38167E-05-4.42543E-06-3.40831E-05 2.50090E-06 8.43725E-19-2.77620E-18
 -1       174 8.40460E-05-4.62035E-06-3.41015E-05 5.01694E-06 1.00553E-18-2.57788E-18
 -1       175 8.44776E-05-4.97306E-06-3.41430E-05 7.62712E-06 1.19177E-18-2.18281E-18
 -1       176 8.52518E-05-5.57496E-06-3.42322E-05 1.05169E-05 1.49684E-18-1.60453E-18
 -1       177 8.66461E-05-6.60848E-06-3.44180E-05 1.37880E-05 1.73976E-18-8.32766E-19
 -1       178 8.93894E-05-8.59944E-06-3.47913E-05 1.76273E-05 1.79541E-18 5.18728E-19
 -1       179 9.57762E-05-1.36126E-05-3.54245E-05 2.18975E-05 1.61705E-18 2.83319E-18
 -1       180 1.05602E-04-2.61008E-05-3.52620E-05 1.86658E-05 1.08480E-18 5.65246E-18
 -1       181 1.03395E-04-2.73003E-05-3.26095E-05-1.21298E-05-1.42894E-18 1.02915E-18
 -1       182 9.71032E-05-2.82880E-05-2.95275E-05-4.73272E-06-1.19879E-18 3.60475E-19
 -1       183 9.35021E-05-2.76359E-05-2.81803E-05-1.77107E-06-8.90761E-19-1.27439E-19
 -1       184 9.19641E-05-2.74029E-05-2.76337E-05-4.25522E-07-7.17424E-19-6.60464E-19
 -1       185 9.13860E-05-2.73276E-05-2.74354E-05 2.39530E-07-4.21875E-19-7.95490E-19
 -1       186 9.13418E-05-2.73660E-05-2.74096E-05 5.64745E-07-3.64086E-19-1.00792E-18
 -1       187 9.15826E-05-2.74678E-05-2.74738E-05 7.02770E-07-3.60781E-19-1.12428E-18
 -1       188 9.19636E-05-2.75991E-05-2.75830E-05 7.33312E-07-2.93138E-19-1.39527E-18
 -1       189 9.23983E-05-2.77386E-05-2.77107E-05 7.02561E-07-4.79483E-19-1.32252E-18
 -1       190 9.28359E-05-2.78738E-05-2.78409E-05 6.39432E-07-3.08704E-19-1.28276E-18
 -1       191 9.32481E-05-2.79980E-05-2.79647E-05 5.62825E-07-7.52745E-20-2.01654E-18
 -1       192 9.36220E-05-2.81082E-05-2.80778E-05 4.85402E-07-6.69285E-20-2.09720E-18
 -1       193 9.39548E-05-2.82046E-05-2.81791E-05 4.15834E-07 2.41274E-19-2.12331E-18
 -1       194 9.42512E-05-2.82888E-05-2.82699E-05 3.60273E-07-2.47765E-19-1.87891E-18
 -1       195 9.45208E-05-2.83641E-05-2.83530E-05 3.23402E-07-6.94076E-19-2.01774E-18
 -1       196 9.47777E-05-2.84346E-05-2.84326E-05 3.09171E-07-2.86219E-19-2.50203E-18
 -1       197 9.50392E-05-2.85056E-05-2.85139E-05 3.21334E-07 1.24717E-19-2.70908E-18
 -1       198 9.53258E-05-2.85831E-05-2.86032E-05 3.63762E-07-7.34709E-20-2.80218E-18
 -1       199 9.56613E-05-2.86741E-05-2.87076E-05 4.40542E-07-9.15639E-20-2.83775E-18
 -1       200 9.60722E-05-2.87866E-05-2.88350E-05 5.55792E-07 3.36690E-19-3.53809E-18
 -1       201 9.65875E-05-2.89295E-05-2.89942E-05 7.13092E-07 5.77938E-19-2.68254E-18
 -1       202 9.72377E-05-2.91124E-05-2.91941E-05 9.14360E-07 1.24386E-19-1.45799E-18
 -1       203 9.80525E-05-2.93457E-05-2.94431E-05 1.15794E-06 2.85003E-19-1.44448E-18
 -1       204 9.90575E-05-2.96390E-05-2.97482E-05 1.43558E-06-2.52811E-20-8.59974E-19
 -1       205 1.00267E-04-3.00006E-05-3.01122E-05 1.72796E-06 2.73196E-19-1.08898E-18
 -1       206 1.01677E-04-3.04346E-05-3.05316E-05 1.99863E-06-7.19981E-19-1.42195E-18
 -1       207 1.03249E-04-3.09376E-05-3.09916E-05 2.18675E-06-3.04742E-19-1.49721E-18
 -1       208 1.04896E-04-3.14933E-05-3.14620E-05 2.20064E-06 4.86938E-19-1.68812E-18
 -1       209 1.06462E-04-3.20641E-05-3.18921E-05 1.91724E-06 7.78394E-19-1.62845E-18
 -1       210 1.07713E-04-3.25811E-05-3.22096E-05 1.19721E-06-1.05442E-19-1.40815E-18
 -1       211 1.08334E-04-3.29334E-05-3.23265E-05-6.94436E-08-8.84473E-19-1.08074E-18
 -1       212 1.07972E-04-3.29658E-05-3.21568E-05-1.87449E-06-3.18067E-19-2.42505E-18
 -1       213 1.06340E-04-3.25036E-05-3.16511E-05-3.97001E-06 3.04591E-19-1.34290E-18
 -1       214 1.03386E-04-3.14325E-05-3.08376E-05-5.78377E-06 9.06999E-19-2.30373E-19
 -1       215 9.94981E-05-2.98336E-05-2.98505E-05-6.50805E-06-3.61185E-19-1.32558E-18
 -1       216 9.55875E-05-2.80956E-05-2.89156E-05-5.47119E-06-7.54991E-19-1.06634E-18
 -1       217 9.28587E-05-2.68460E-05-2.82803E-05-2.67034E-06-1.84369E-19-2.66109E-18
 -1       218 9.22447E-05-2.66195E-05-2.81143E-05 9.71782E-07 1.16050E-19-1.82036E-18
 -1       219 9.38367E-05-2.74715E-05-2.84329E-05 4.02241E-06 5.82702E-19-1.62238E-18
 -1       220 9.68239E-05-2.89389E-05-2.90877E-05 5.39817E-06-7.09834E-19-1.25553E-18
 -1       221 9.99858E-05-3.03726E-05-2.98338E-05 4.90775E-06-1.52825E-18-2.14352E-18
 -1       222 1.02303E-04-3.13072E-05-3.04323E-05 3.14220E-06 1.09932E-18-1.64848E-18
 -1       223 1.03283E-04-3.16002E-05-3.07307E-05 9.57981E-07-2.26166E-19-1.78974E-18
 -1       224 1.02938E-04-3.13439E-05-3.06930E-05-9.54469E-07 1.78438E-18-1.88206E-18
 -1       225 1.01598E-04-3.07249E-05-3.03813E-05-2.21264E-06 2.22535E-18-5.74057E-19
 -1       226 9.97274E-05-2.99330E-05-2.99152E-05-2.68014E-06-3.02416E-19-1.16086E-18
 -1       227 9.77965E-05-2.91242E-05-2.94309E-05-2.35687E-06 1.34554E-18-3.67005E-19
 -1       228 9.61713E-05-2.84411E-05-2.90255E-05-1.35495E-06 4.73203E-19 8.89273E-19
 -1       229 9.94973E-05-2.85534E-05-3.05861E-05 7.21348E-06 1.04673E-18 4.81756E-18
 -1       230 9.44115E-05-2.77893E-05-2.85230E-05 2.74589E-06 8.48548E-19 4.06700E-18
 -1       231 9.20899E-05-2.73991E-05-2.76796E-05 9.32108E-07 6.55709E-19 3.32291E-18
 -1       232 9.11395E-05-2.72360E-05-2.73602E-05 7.03602E-08 5.26063E-19 2.73161E-18
 -1       233 9.09257E-05-2.72283E-05-2.72854E-05-3.57057E-07 4.28469E-19 2.36653E-18
 -1       234 9.11068E-05-2.73135E-05-2.73332E-05-5.57314E-07 2.71868E-19 1.76608E-18
 -1       235 9.14876E-05-2.74457E-05-2.74430E-05-6.29922E-07 5.23927E-19 1.31848E-18
 -1       236 9.19537E-05-2.75957E-05-2.75800E-05-6.29039E-07 5.07426E-19 1.05637E-18
 -1       237 9.24374E-05-2.77461E-05-2.77238E-05-5.87189E-07 1.78145E-19 4.33486E-19
 -1       238 9.29003E-05-2.78870E-05-2.78624E-05-5.25099E-07 3.01503E-19 7.75116E-19
 -1       239 9.33229E-05-2.80135E-05-2.79895E-05-4.56430E-07 4.85374E-19 5.49624E-19
 -1       240 9.36982E-05-2.81244E-05-2.81030E-05-3.90388E-07-1.08338E-19 2.95005E-19
 -1       241 9.40281E-05-2.82206E-05-2.82032E-05-3.33350E-07-1.03524E-19 3.17838E-19
 -1       242 9.43208E-05-2.83049E-05-2.82925E-05-2.89986E-07 3.53841E-19 4.07872E-19
 -1       243 9.45893E-05-2.83812E-05-2.83748E-05-2.64087E-07-2.31929E-19 4.15023E-19
 -1       244 9.48505E-05-2.84545E-05-2.84552E-05-2.59205E-07 1.56923E-19 1.69310E-19
 -1       245 9.51254E-05-2.85311E-05-2.85399E-05-2.79170E-07 4.78483E-19-1.03702E-19
 -1       246 9.54391E-05-2.86182E-05-2.86368E-05-3.28505E-07-2.98214E-20-6.16706E-19
 -1       247 9.58213E-05-2.87245E-05-2.87547E-05-4.12760E-07-1.55137E-19-1.60725E-19
 -1       248 9.63074E-05-2.88602E-05-2.89046E-05-5.38736E-07-2.22678E-19 6.71358E-19
 -1       249 9.69392E-05-2.90376E-05-2.90990E-05-7.14537E-07-3.32047E-19 7.07920E-19
 -1       250 9.77656E-05-2.92710E-05-2.93529E-05-9.49306E-07 6.90748E-19 6.17404E-20
 -1       251 9.88420E-05-2.95770E-05-2.96829E-05-1.25233E-06 8.29017E-19-7.57547E-19
 -1       252 1.00230E-04-2.99746E-05-3.01073E-05-1.63097E-06-6.33356E-19-7.79076E-19
 -1       253 1.01990E-04-3.04841E-05-3.06439E-05-2.08635E-06-3.71584E-19 6.03068E-19
 -1       254 1.04176E-04-3.11255E-05-3.13071E-05-2.60523E-06 4.73717E-19 2.23986E-19
 -1       255 1.06813E-04-3.19151E-05-3.21006E-05-3.14567E-06 5.33038E-19-9.68273E-20
 -1       256 1.09864E-04-3.28579E-05-3.30071E-05-3.61426E-06-5.24673E-19-3.46465E-19
 -1       257 1.13187E-04-3.39358E-05-3.39714E-05-3.83549E-06-2.57484E-19 5.06003E-20
 -1       258 1.16459E-04-3.50843E-05-3.48812E-05-3.52453E-06-4.59745E-19-7.51950E-19
 -1       259 1.19118E-04-3.61563E-05-3.55548E-05-2.30059E-06-5.69557E-19-2.32501E-19
 -1       260 1.20343E-04-3.68738E-05-3.57586E-05 1.81495E-07-5.76512E-19-3.66036E-19
 -1       261 1.19200E-04-3.68002E-05-3.52844E-05 3.89061E-06 5.67618E-19 8.12245E-19
 -1       262 1.15071E-04-3.54431E-05-3.40974E-05 7.88837E-06-2.14961E-19 2.71593E-19
 -1       263 1.08441E-04-3.26869E-05-3.24744E-05 1.00920E-05 4.14407E-19 9.01296E-20
 -1       264 1.01525E-04-2.94132E-05-3.09750E-05 8.29211E-06-2.91624E-19-6.78771E-19
 -1       265 9.76261E-05-2.74264E-05-3.01887E-05 2.35785E-06 1.04223E-18-7.23462E-19
 -1       266 9.88452E-05-2.80643E-05-3.04079E-05-4.65149E-06 8.20848E-19 9.87985E-20
 -1       267 1.04163E-04-3.07696E-05-3.14631E-05-8.72305E-06-1.26575E-18 1.06590E-18
 -1       268 1.10347E-04-3.36843E-05-3.28208E-05-8.31459E-06-9.41199E-19 1.49593E-18
 -1       269 1.14547E-04-3.54044E-05-3.38814E-05-4.86404E-06-1.14429E-19 8.53306E-19
 -1       270 1.15658E-04-3.56534E-05-3.42706E-05-7.29009E-07-2.50186E-19 1.51447E-18
 -1       271 1.14021E-04-3.48384E-05-3.39362E-05 2.52493E-06 2.35866E-18 3.78604E-19
 -1       272 1.10585E-04-3.34715E-05-3.30567E-05 4.40825E-06 7.53029E-19-1.15515E-18
 -1       273 1.06343E-04-3.19289E-05-3.19002E-05 5.03281E-06 1.78538E-18-8.87591E-19
 -1       274 1.02129E-04-3.04481E-05-3.07298E-05 4.64962E-06-5.20912E-19 4.49791E-19
 -1       275 9.85901E-05-2.91691E-05-2.97605E-05 3.40837E-06-5.09356E-19-3.77691E-21
 -1       276 9.61482E-05-2.82932E-05-2.90787E-05 1.48446E-06 1.60584E-19 5.43487E-19
 -1       277 9.53778E-05-2.66983E-05-2.94268E-05 2.71964E-06 5.79661E-19 1.81716E-18
 -1       278 9.42604E-05-2.38645E-05-3.01661E-05 4.53991E-06 2.32286E-18 9.70235E-19
 -1       279 9.28906E-05-2.03043E-05-3.11079E-05 5.49018E-06 1.15804E-18-1.53652E-18
 -1       280 9.14802E-05-1.65141E-05-3.21325E-05 5.46503E-06 1.31293E-18-8.04177E-19
 -1       281 9.02168E-05-1.31194E-05-3.30518E-05 4.53550E-06-8.27904E-19-5.39439E-19
 -1       282 8.92706E-05-1.05732E-05-3.37416E-05 2.82136E-06 6.90145E-19 5.97729E-19
 -1       283 8.88431E-05-9.38212E-06-3.40707E-05 6.47784E-07-1.09260E-18 4.56071E-19
 -1       284 8.90044E-05-9.72053E-06-3.39942E-05-1.54909E-06 1.39176E-19-2.58448E-18
 -1       285 8.96915E-05-1.14576E-05-3.35415E-05-3.34354E-06-2.85127E-18-2.42479E-18
 -1       286 9.07326E-05-1.42079E-05-3.28046E-05-4.45338E-06-2.35650E-18-3.08030E-18
 -1       287 9.18931E-05-1.74056E-05-3.19261E-05-4.80673E-06-1.98855E-18-2.31837E-19
 -1       288 9.30330E-05-2.06808E-05-3.10061E-05-4.51686E-06-2.29359E-18 3.08412E-18
 -1       289 9.40114E-05-2.35959E-05-3.01726E-05-3.75337E-06-7.74903E-19 2.06918E-18
 -1       290 9.47961E-05-2.59231E-05-2.95100E-05-2.63952E-06-4.47177E-19-5.97064E-19
 -1       291 9.55230E-05-2.73335E-05-2.92143E-05-2.19636E-06 2.70285E-19 7.62026E-19
 -1       292 1.31227E-05-5.06637E-05 1.26799E-05 6.85865E-06 4.89696E-18-6.10923E-20
 -1       293 2.62101E-05-4.74993E-05 5.98649E-06 1.94717E-05 4.19197E-18 4.20022E-18
 -1       294 5.15426E-05-3.93914E-05-7.25088E-06 3.31881E-05 3.56008E-18 3.08675E-18
 -1       295 8.91538E-05-3.33748E-05-2.44582E-05 4.40629E-05 3.76887E-18 2.38313E-18
 -1       296 1.32582E-04-3.17391E-05-4.21778E-05 4.78305E-05 2.79299E-18 3.72546E-18
 -1       297 1.74975E-04-3.36206E-05-5.80309E-05 4.16665E-05 5.58564E-18-7.80329E-19
 -1       298 1.99859E-04-3.36304E-05-6.82215E-05 2.00566E-05 4.54221E-18-1.97687E-18
 -1       299 2.17944E-04-3.82370E-05-7.30542E-05 1.86004E-06 2.09069E-18-3.42129E-18
 -1       300 2.03259E-04-3.58628E-05-6.84204E-05-1.92554E-05 7.30460E-19-4.49796E-18
 -1       301 1.74197E-04-3.46584E-05-5.73788E-05-3.85912E-05 1.37357E-18-5.02693E-18
 -1       302 1.31244E-04-3.27127E-05-4.13070E-05-4.51966E-05 2.59171E-18-3.02751E-18
 -1       303 8.68707E-05-3.38145E-05-2.34137E-05-4.17580E-05 1.60195E-18-4.90051E-18
 -1       304 5.31300E-05-4.08403E-05-7.01117E-06-3.35064E-05-4.95514E-20-2.60595E-18
 -1       305 2.42555E-05-4.62071E-05 6.33519E-06-1.75091E-05-9.86793E-19-1.52773E-18
 -1       306 1.27434E-05-5.13129E-05 1.29234E-05-4.49462E-06-2.44914E-18-1.99328E-18
 -1       307 1.31627E-05-5.07484E-05 1.25565E-05 7.65226E-06-4.49902E-18-2.51092E-18
 -1       308 2.56601E-05-4.46736E-05 5.19743E-06 2.05166E-05-4.68430E-18 1.48178E-19
 -1       309 5.03015E-05-3.63118E-05-7.84872E-06 3.35629E-05-2.84815E-18-1.82038E-18
 -1       310 8.58101E-05-3.04363E-05-2.42198E-05 4.41671E-05-3.47474E-18 3.06626E-19
 -1       311 1.28216E-04-2.93410E-05-4.13820E-05 4.79619E-05-1.03211E-18-1.68560E-18
 -1       312 1.68980E-04-3.22089E-05-5.64870E-05 3.84976E-05-1.30694E-18-1.91429E-19
 -1       313 2.02335E-04-3.57466E-05-6.79988E-05 2.43043E-05-7.59153E-19-1.35674E-18
 -1       314 2.14753E-04-3.72588E-05-7.22379E-05-6.04295E-07 7.65294E-19-3.84229E-19
 -1       315 1.99496E-04-3.38492E-05-6.78680E-05-2.30338E-05 3.50883E-19-1.35748E-18
 -1       316 1.70757E-04-3.21551E-05-5.71451E-05-3.92616E-05 1.08527E-18-1.22079E-18
 -1       317 1.30244E-04-2.97758E-05-4.19413E-05-4.88103E-05 3.09951E-18-1.04714E-18
 -1       318 8.74895E-05-3.18109E-05-2.43107E-05-4.47904E-05 3.09358E-18-1.87215E-18
 -1       319 5.12214E-05-3.85049E-05-7.34593E-06-3.39087E-05 2.43480E-18-3.77004E-18
 -1       320 2.70801E-05-4.51280E-05 5.19877E-06-2.41464E-05 2.83629E-18-1.37484E-18
 -1       321 1.35148E-05-5.24573E-05 1.30891E-05-7.09706E-06 3.27458E-18 1.44229E-18
 -1       322 9.16475E-05-1.43948E-05-3.31715E-05-1.30699E-05-1.29570E-18-2.10769E-18
 -1       323 9.57049E-05-1.91092E-05-3.28897E-05-1.46345E-05-1.59010E-18-1.23666E-18
 -1       324 8.80095E-05-1.03793E-05-3.33234E-05-8.15806E-06-4.06600E-19-2.55108E-18
 -1       325 8.71943E-05-9.45656E-06-3.33642E-05-5.71992E-06-6.10004E-20-2.62043E-18
 -1       326 8.67362E-05-8.92769E-06-3.33914E-05-3.36858E-06 3.36488E-19-2.45776E-18
 -1       327 8.65319E-05-8.68826E-06-3.34051E-05-1.07299E-06 6.39289E-19-2.40466E-18
 -1       328 8.65403E-05-8.69770E-06-3.34047E-05 1.20422E-06 8.84723E-19-2.24559E-18
 -1       329 8.67633E-05-8.95829E-06-3.33901E-05 3.50188E-06 1.12299E-18-2.12040E-18
 -1       330 8.72339E-05-9.50179E-06-3.33625E-05 5.81780E-06 1.36577E-18-1.84615E-18
 -1       331 8.80710E-05-1.04524E-05-3.33205E-05 8.25806E-06 1.65169E-18-1.32605E-18
 -1       332 8.94832E-05-1.20342E-05-3.32591E-05 1.07677E-05 1.88071E-18-7.82546E-19
 -1       333 9.19006E-05-1.47220E-05-3.31577E-05 1.31731E-05 2.00139E-18 4.06576E-20
 -1       334 9.58018E-05-1.94565E-05-3.28272E-05 1.43795E-05 1.83162E-18 1.53715E-18
 -1       335 9.87881E-05-2.44433E-05-3.19502E-05 1.19012E-05 1.55706E-18 2.81934E-18
 -1       336 9.63862E-05-2.68113E-05-2.97883E-05 5.74459E-06 1.17143E-18 2.27610E-18
 -1       337 9.64294E-05-2.60247E-05-3.01297E-05-6.35129E-06-1.18698E-18-8.72182E-19
 -1       338 9.49224E-05-2.70392E-05-2.90687E-05-2.84154E-06-9.29281E-19-7.61489E-19
 -1       339 9.39365E-05-2.74237E-05-2.84911E-05-9.25456E-07-7.24457E-19-8.32415E-19
 -1       340 9.34159E-05-2.76369E-05-2.81842E-05 1.31846E-07-4.76656E-19-9.29897E-19
 -1       341 9.32221E-05-2.77894E-05-2.80398E-05 6.95426E-07-3.24473E-19-1.02307E-18
 -1       342 9.32376E-05-2.79179E-05-2.79932E-05 9.63036E-07-3.91822E-19-1.08623E-18
 -1       343 9.33759E-05-2.80315E-05-2.80047E-05 1.05190E-06-1.42497E-19-8.75223E-19
 -1       344 9.35781E-05-2.81314E-05-2.80489E-05 1.03552E-06-4.64181E-19-9.84455E-19
 -1       345 9.38060E-05-2.82174E-05-2.81100E-05 9.61860E-07-6.88656E-19-8.60369E-19
 -1       346 9.40371E-05-2.82897E-05-2.81781E-05 8.63110E-07-1.19056E-19-1.24037E-18
 -1       347 9.42591E-05-2.83493E-05-2.82477E-05 7.61330E-07-1.36566E-19-1.43364E-18
 -1       348 9.44681E-05-2.83977E-05-2.83164E-05 6.72009E-07-1.50141E-19-1.45408E-18
 -1       349 9.46655E-05-2.84374E-05-2.83838E-05 6.06474E-07-5.10402E-19-1.50875E-18
 -1       350 9.48572E-05-2.84707E-05-2.84515E-05 5.73591E-07-6.25865E-19-1.32574E-18
 -1       351 9.50523E-05-2.85009E-05-2.85219E-05 5.80960E-07-2.95456E-19-8.76973E-19
 -1       352 9.52627E-05-2.85313E-05-2.85987E-05 6.35702E-07-4.76133E-20-1.59109E-18
 -1       353 9.55029E-05-2.85663E-05-2.86863E-05 7.44854E-07-1.02192E-19-1.73110E-18
 -1       354 9.57895E-05-2.86107E-05-2.87897E-05 9.15312E-07-2.35761E-19-2.03142E-18
 -1       355 9.61412E-05-2.86709E-05-2.89142E-05 1.15323E-06 7.06468E-19-1.76723E-18
 -1       356 9.65785E-05-2.87548E-05-2.90653E-05 1.46265E-06 1.35229E-18-1.43772E-18
 -1       357 9.71226E-05-2.88725E-05-2.92477E-05 1.84319E-06 1.82718E-19-5.14108E-19
 -1       358 9.77946E-05-2.90373E-05-2.94649E-05 2.28624E-06 1.58653E-19-6.13350E-19
 -1       359 9.86136E-05-2.92665E-05-2.97177E-05 2.76944E-06-1.15194E-19-4.41870E-19
 -1       360 9.95942E-05-2.95823E-05-3.00031E-05 3.24912E-06-1.26883E-20-1.57616E-18
 -1       361 1.00742E-04-3.00117E-05-3.03123E-05 3.65076E-06-3.98404E-19-2.03867E-18
 -1       362 1.02049E-04-3.05843E-05-3.06290E-05 3.85921E-06-2.32429E-19-1.53125E-18
 -1       363 1.03482E-04-3.13239E-05-3.09293E-05 3.71269E-06 3.79346E-19-1.90547E-18
 -1       364 1.04969E-04-3.22284E-05-3.11829E-05 3.01007E-06 4.72983E-19-2.78854E-18
 -1       365 1.06375E-04-3.32319E-05-3.13594E-05 1.54777E-06-2.66339E-19-3.07799E-18
 -1       366 1.07469E-04-3.41498E-05-3.14376E-05-7.91565E-07-6.05500E-19-1.65278E-18
 -1       367 1.07908E-04-3.46312E-05-3.14192E-05-3.88198E-06 7.96603E-19-2.42347E-19
 -1       368 1.07296E-04-3.42005E-05-3.13360E-05-7.15899E-06 6.16481E-19-3.30836E-19
 -1       369 1.05389E-04-3.24951E-05-3.12408E-05-9.53069E-06-5.85741E-19-7.29411E-19
 -1       370 1.02461E-04-2.96983E-05-3.11754E-05-9.65687E-06-1.15746E-18-5.66282E-19
 -1       371 9.95272E-05-2.68403E-05-3.11361E-05-6.74471E-06-1.18563E-18-6.10273E-19
 -1       372 9.79744E-05-2.54135E-05-3.10782E-05-1.45237E-06 1.10244E-18 4.50319E-19
 -1       373 9.85775E-05-2.62699E-05-3.09738E-05 4.07668E-06 1.24144E-18 2.50432E-19
 -1       374 1.00797E-04-2.88151E-05-3.08412E-05 7.53774E-06-2.63797E-19 1.07603E-18
 -1       375 1.03297E-04-3.16149E-05-3.07211E-05 7.90764E-06-1.32290E-18 2.00591E-18
 -1       376 1.04893E-04-3.34369E-05-3.06331E-05 5.74336E-06-9.96894E-19 2.50450E-18
 -1       377 1.05154E-04-3.39081E-05-3.05484E-05 2.40433E-06 1.22705E-18 1.55390E-18
 -1       378 1.04255E-04-3.33051E-05-3.04221E-05-8.54248E-07 1.09061E-18 4.23826E-18
 -1       379 1.02613E-04-3.20985E-05-3.02314E-05-3.26859E-06 2.32931E-18 1.90462E-18
 -1       380 1.00624E-04-3.06665E-05-2.99868E-05-4.52863E-06-1.22905E-19 6.59084E-19
 -1       381 9.85906E-05-2.92318E-05-2.97245E-05-4.60511E-06 3.42986E-19 1.26035E-18
 -1       382 9.69448E-05-2.81423E-05-2.94782E-05-3.70253E-06 1.74436E-18 6.99793E-19
 -1       383 9.43650E-05-2.73398E-05-2.86869E-05 2.47260E-06 1.05203E-18 1.98161E-18
 -1       384 9.31571E-05-2.74592E-05-2.81344E-05 7.48119E-07 8.52865E-19 1.47762E-18
 -1       385 9.26012E-05-2.75363E-05-2.78751E-05-1.72287E-07 6.81764E-19 1.02381E-18
 -1       386 9.24572E-05-2.76281E-05-2.77797E-05-6.47233E-07 6.11909E-19 7.75583E-19
 -1       387 9.25574E-05-2.77366E-05-2.77788E-05-8.64726E-07 5.99351E-19 3.26264E-19
 -1       388 9.27906E-05-2.78519E-05-2.78305E-05-9.29924E-07 4.83124E-19 3.78202E-19
 -1       389 9.30858E-05-2.79650E-05-2.79092E-05-9.06580E-07 6.39190E-19 3.70569E-19
 -1       390 9.33987E-05-2.80699E-05-2.79986E-05-8.35450E-07 1.72818E-19 5.00701E-19
 -1       391 9.37039E-05-2.81635E-05-2.80894E-05-7.43515E-07 5.90649E-19 3.71406E-19
 -1       392 9.39888E-05-2.82448E-05-2.81767E-05-6.49079E-07 1.51074E-19 2.42760E-19
 -1       393 9.42497E-05-2.83146E-05-2.82585E-05-5.64891E-07 1.27561E-20-4.26389E-19
 -1       394 9.44896E-05-2.83747E-05-2.83353E-05-5.00263E-07 2.28052E-19 6.30848E-20
 -1       395 9.47162E-05-2.84280E-05-2.84094E-05-4.62591E-07-1.19866E-19 1.05921E-19
 -1       396 9.49414E-05-2.84781E-05-2.84841E-05-4.58515E-07 3.00943E-19-4.16820E-19
 -1       397 9.51804E-05-2.85292E-05-2.85643E-05-4.94816E-07 7.39014E-19-7.33082E-19
 -1       398 9.54522E-05-2.85862E-05-2.86559E-05-5.79123E-07 5.72773E-19-6.77621E-19
 -1       399 9.57793E-05-2.86552E-05-2.87660E-05-7.20439E-07-6.52685E-19-8.09986E-19
 -1       400 9.61880E-05-2.87430E-05-2.89030E-05-9.29456E-07-5.93935E-19-2.74970E-19
 -1       401 9.67092E-05-2.88580E-05-2.90764E-05-1.21856E-06-5.38280E-19 1.48743E-19
 -1       402 9.73782E-05-2.90101E-05-2.92972E-05-1.60128E-06 1.33198E-18 5.55349E-19
 -1       403 9.82344E-05-2.92116E-05-2.95770E-05-2.09078E-06 1.18570E-18-6.67947E-19
 -1       404 9.93205E-05-2.94779E-05-2.99276E-05-2.69656E-06-5.23699E-19-1.28679E-18
 -1       405 1.00680E-04-2.98286E-05-3.03595E-05-3.41801E-06-6.36241E-19-1.25024E-18
 -1       406 1.02353E-04-3.02904E-05-3.08786E-05-4.23281E-06 4.31927E-19-9.75053E-19
 -1       407 1.04367E-04-3.08995E-05-3.14824E-05-5.07724E-06 5.75344E-19 3.02820E-19
 -1       408 1.06731E-04-3.17056E-05-3.21530E-05-5.81610E-06-2.99243E-19 6.59927E-19
 -1       409 1.09408E-04-3.27704E-05-3.28498E-05-6.20321E-06-2.46334E-19 8.51747E-19
 -1       410 1.12297E-04-3.41504E-05-3.35040E-05-5.84632E-06 4.69520E-19 1.35639E-18
 -1       411 1.15169E-04-3.58332E-05-3.40218E-05-4.21952E-06-6.55936E-19 1.72231E-19
 -1       412 1.17591E-04-3.75933E-05-3.43110E-05-8.18295E-07-1.89388E-19-7.69735E-19
 -1       413 1.18834E-04-3.87860E-05-3.43320E-05 4.41855E-06-5.12399E-19-1.15743E-18
 -1       414 1.17911E-04-3.82544E-05-3.41560E-05 1.03889E-05 1.68722E-19-2.75425E-19
 -1       415 1.14197E-04-3.49887E-05-3.39668E-05 1.42680E-05 1.04212E-18-3.56515E-19
 -1       416 1.08777E-04-2.97843E-05-3.38947E-05 1.25721E-05 7.53859E-20-1.15073E-18
 -1       417 1.04853E-04-2.59273E-05-3.38776E-05 4.44578E-06 5.13805E-19-9.16355E-19
 -1       418 1.05336E-04-2.66189E-05-3.37729E-05-5.91616E-06 9.02884E-20 3.64720E-19
 -1       419 1.09540E-04-3.11736E-05-3.36014E-05-1.21999E-05-1.42870E-18 1.00510E-18
 -1       420 1.13947E-04-3.58300E-05-3.34887E-05-1.17395E-05 1.03598E-19-5.70424E-19
 -1       421 1.15928E-04-3.79770E-05-3.34279E-05-6.66722E-06-9.47469E-19-4.25692E-19
 -1       422 1.15139E-04-3.75753E-05-3.32725E-05-5.49239E-07-3.61217E-19 7.24328E-19
 -1       423 1.12471E-04-3.57991E-05-3.28897E-05 4.28275E-06 2.21803E-18 4.89893E-19
 -1       424 1.08910E-04-3.36656E-05-3.22679E-05 7.10207E-06 1.60079E-18 1.15058E-18
 -1       425 1.05133E-04-3.16518E-05-3.14994E-05 8.06339E-06 5.06427E-19 2.85478E-18
 -1       426 1.01571E-04-2.98933E-05-3.07168E-05 7.54275E-06-3.45292E-19 3.43625E-18
 -1       427 9.84641E-05-2.83658E-05-3.00350E-05 5.83954E-06 3.24366E-19 3.86173E-18
 -1       428 9.67556E-05-2.74207E-05-2.97063E-05 4.43522E-06 6.49999E-21 4.03247E-18
 -1       429 9.28008E-05-2.05842E-05-3.09503E-05 9.22294E-06 1.08939E-18-1.02078E-18
 -1       430 9.47240E-05-2.35892E-05-3.04758E-05 8.57108E-06 3.85649E-19 5.18616E-19
 -1       431 9.59010E-05-2.56049E-05-3.01133E-05 6.79216E-06 5.50059E-19 4.48900E-19
 -1       432 9.09333E-05-1.76715E-05-3.14063E-05 8.44010E-06 9.71090E-19-3.92939E-18
 -1       433 8.93213E-05-1.51805E-05-3.17887E-05 6.20749E-06 2.97441E-19 1.35202E-18
 -1       434 8.83465E-05-1.36521E-05-3.20292E-05 2.89389E-06 2.58125E-19 1.23195E-19
 -1       435 8.82464E-05-1.34079E-05-3.20913E-05-8.54112E-07-1.88303E-18-2.37846E-18
 -1       436 8.90190E-05-1.44664E-05-3.19664E-05-4.26635E-06-1.65766E-18-4.24878E-18
 -1       437 9.04097E-05-1.65295E-05-3.16736E-05-6.71101E-06-2.52809E-18-3.08328E-18
 -1       438 9.20023E-05-1.90685E-05-3.12621E-05-7.88410E-06-7.31248E-19 2.84547E-19
 -1       439 9.35116E-05-2.17011E-05-3.07748E-05-7.88434E-06 1.35255E-18 2.24515E-18
 -1       440 9.47271E-05-2.40539E-05-3.02818E-05-6.97504E-06 1.32417E-18 3.64636E-18
 -1       441 9.56105E-05-2.59640E-05-2.98367E-05-5.50309E-06 8.88175E-19 2.12815E-19
 -1       442 5.67952E-05-4.36219E-05-5.90364E-06 4.26380E-05-5.97370E-19 1.52731E-18
 -1       443 1.22074E-05-2.63874E-05 5.68328E-06-1.23431E-06 3.81216E-18 2.26433E-18
 -1       444 2.48216E-05-3.19031E-05 2.62053E-06 2.68637E-05 2.32331E-18 2.12076E-19
 -1       445 9.91143E-05-5.57665E-05-1.86625E-05 4.24057E-05 2.60463E-20 8.42798E-19
 -1       446 1.32523E-04-5.64249E-05-3.26274E-05 2.95538E-05 9.24748E-19 4.00329E-19
 -1       447 8.93405E-05-1.18596E-05-3.32799E-05-1.06869E-05-8.38955E-19-2.45950E-18
 -1       448 1.61447E-04-3.02393E-05-5.61003E-05 3.11663E-07 4.55545E-18-2.89717E-18
 -1       449 1.60236E-04-1.47447E-05-6.22300E-05-8.83370E-07 3.13349E-18 1.00940E-18
 -1       450 1.62665E-04-1.55548E-05-6.28102E-05 3.64952E-06 1.06091E-18 1.68369E-18
 -1       451 1.61794E-04-3.04951E-05-5.61631E-05 2.61189E-06 2.29493E-19 9.66465E-19
 -1       452 1.53281E-04-4.82709E-05-4.50354E-05-6.60305E-06-7.68190E-19-6.62168E-19
 -1       453 1.33284E-04-5.90535E-05-3.18580E-05-2.47049E-05-4.28334E-19-1.01125E-18
 -1       454 9.61862E-05-5.37300E-05-1.83209E-05-4.01367E-05-1.16721E-18-3.70037E-18
 -1       455 5.20621E-05-4.10539E-05-4.97270E-06-3.95070E-05-9.76735E-19-1.99429E-18
 -1       456 2.28881E-05-2.86570E-05 2.25895E-06-2.41457E-05-1.55780E-18-3.21587E-18
 -1       457 1.10584E-05-2.53935E-05 5.75524E-06 2.11595E-06-1.48935E-18-3.65982E-18
 -1       458 2.47876E-05-2.82214E-05 1.35494E-06 2.84487E-05-8.32422E-19 1.97359E-19
 -1       459 5.46510E-05-4.15636E-05-5.89113E-06 4.21187E-05-2.16809E-18 1.90132E-19
 -1       460 9.30646E-05-5.09760E-05-1.81960E-05 4.24812E-05-1.73822E-18-4.60574E-20
 -1       461 1.28159E-04-5.32692E-05-3.20996E-05 3.03528E-05-2.04728E-18 3.71636E-20
 -1       462 1.48953E-04-4.50439E-05-4.45326E-05 1.17785E-05-1.03614E-18-9.33748E-19
 -1       463 1.59912E-04-2.75863E-05-5.65242E-05 1.75833E-06-1.13132E-18-1.43689E-18
 -1       464 1.56840E-04-1.33587E-05-6.14647E-05-2.64628E-06-5.12031E-19-1.17806E-18
 -1       465 1.58049E-04-1.34135E-05-6.19198E-05 4.16264E-07 9.97381E-19-1.48932E-18
 -1       466 1.58406E-04-2.72726E-05-5.61102E-05-1.69058E-06 1.36902E-19-1.32434E-18
 -1       467 1.50556E-04-4.53862E-05-4.50620E-05-1.25425E-05 1.78294E-18-4.68197E-19
 -1       468 1.30020E-04-5.43618E-05-3.24172E-05-3.11894E-05 2.51262E-18-5.28549E-19
 -1       469 9.68146E-05-5.40767E-05-1.84288E-05-4.34839E-05 1.52127E-18-1.18288E-18
 -1       470 6.10852E-05-4.44753E-05-7.26722E-06-4.45294E-05 1.06906E-18-3.56895E-18
 -1       471 2.44727E-05-2.82547E-05 1.57314E-06-2.67630E-05 4.03161E-18 1.22576E-18
 -1       472 1.54703E-04-4.63547E-05-4.62942E-05 1.31842E-05 2.28993E-18-3.18220E-18
 -1       473 9.58164E-05-2.51479E-05-3.02723E-05 6.02255E-06 1.26660E-18 6.20880E-19
 -1       474 8.95459E-05-1.34050E-05-3.26508E-05-3.92765E-06 1.67250E-19-2.26918E-18
 -1       475 9.02495E-05-1.43654E-05-3.25420E-05-5.88735E-06-1.61560E-19-2.38887E-18
 -1       476 8.90500E-05-1.27258E-05-3.27281E-05 5.48520E-08 6.95653E-19-2.09496E-18
 -1       477 8.91845E-05-1.29090E-05-3.27076E-05 2.04709E-06 9.42789E-19-2.01067E-18
 -1       478 8.95781E-05-1.34459E-05-3.26472E-05 4.00076E-06 1.20268E-18-1.86062E-18
 -1       479 9.03006E-05-1.44322E-05-3.25361E-05 5.95583E-06 1.51870E-18-1.37077E-18
 -1       480 9.14463E-05-1.60098E-05-3.23530E-05 7.78493E-06 1.68764E-18-9.78560E-19
 -1       481 9.32315E-05-1.84791E-05-3.20569E-05 9.30034E-06 1.69657E-18-4.55174E-19
 -1       482 9.51080E-05-2.65769E-05-2.93525E-05 2.87972E-06 1.13741E-18 3.26419E-19
 -1       483 9.54609E-05-2.44141E-05-3.04352E-05-5.82265E-06-9.32763E-19-1.42485E-18
 -1       484 1.44832E-04-5.88764E-05-3.70427E-05 7.09429E-06 1.08096E-18-2.89341E-18
 -1       485 9.53095E-05-2.62810E-05-2.95807E-05-2.90554E-06-7.28495E-19-1.29079E-18
 -1       486 9.49135E-05-2.71612E-05-2.90325E-05-1.03920E-06-5.31248E-19-1.07535E-18
 -1       487 9.46368E-05-2.76922E-05-2.86888E-05 8.43552E-08-4.13575E-19-8.92404E-19
 -1       488 9.44803E-05-2.80174E-05-2.84835E-05 7.20287E-07-4.51503E-19-9.96396E-19
 -1       489 9.44254E-05-2.82273E-05-2.83705E-05 1.04014E-06-3.47593E-19-1.09108E-18
 -1       490 9.44421E-05-2.83658E-05-2.83185E-05 1.16010E-06-1.86566E-19-1.12859E-18
 -1       491 9.45037E-05-2.84566E-05-2.83062E-05 1.15914E-06-5.44352E-19-9.64058E-19
 -1       492 9.45904E-05-2.85135E-05-2.83190E-05 1.09162E-06-7.49055E-19-6.18280E-19
 -1       493 9.46889E-05-2.85455E-05-2.83475E-05 9.95411E-07-1.93259E-19-7.33898E-19
 -1       494 9.47916E-05-2.85588E-05-2.83858E-05 8.97224E-07-2.13431E-19-8.36972E-19
 -1       495 9.48954E-05-2.85577E-05-2.84306E-05 8.16343E-07-5.03281E-19-9.36839E-19
 -1       496 9.50003E-05-2.85455E-05-2.84807E-05 7.67290E-07-6.82897E-19-9.87680E-19
 -1       497 9.51091E-05-2.85246E-05-2.85362E-05 7.61751E-07-4.43433E-19-9.75581E-19
 -1       498 9.52264E-05-2.84968E-05-2.85983E-05 8.09907E-07-5.79816E-19-8.53163E-19
 -1       499 9.53591E-05-2.84643E-05-2.86689E-05 9.21254E-07-5.12022E-19-1.36794E-18
 -1       500 9.55153E-05-2.84295E-05-2.87506E-05 1.10491E-06-3.17814E-19-1.27650E-18
 -1       501 9.57051E-05-2.83963E-05-2.88460E-05 1.36929E-06 2.29943E-19-9.92936E-19
 -1       502 9.59404E-05-2.83709E-05-2.89576E-05 1.72114E-06 9.92656E-19-1.60177E-18
 -1       503 9.62355E-05-2.83630E-05-2.90872E-05 2.16350E-06 1.54224E-18-2.00660E-18
 -1       504 9.66076E-05-2.83885E-05-2.92357E-05 2.69259E-06-3.86289E-20-8.76284E-19
 -1       505 9.70782E-05-2.84715E-05-2.94017E-05 3.29296E-06-1.78209E-19-1.80356E-18
 -1       506 9.76748E-05-2.86482E-05-2.95817E-05 3.93085E-06-7.61830E-19-1.88063E-18
 -1       507 9.84334E-05-2.89706E-05-2.97690E-05 4.54527E-06-3.93216E-19-1.29965E-18
 -1       508 9.94009E-05-2.95077E-05-2.99542E-05 5.03735E-06 1.04333E-19-1.18979E-18
 -1       509 1.00635E-04-3.03416E-05-3.01267E-05 5.25913E-06-5.82255E-19-1.14651E-18
 -1       510 1.02193E-04-3.15485E-05-3.02792E-05 5.00632E-06 4.84480E-20-1.00400E-18
 -1       511 1.04107E-04-3.31510E-05-3.04149E-05 4.02492E-06-4.39540E-20-1.18595E-18
 -1       512 1.06315E-04-3.50285E-05-3.05585E-05 2.05244E-06 6.98332E-19 1.08043E-19
 -1       513 1.08553E-04-3.67856E-05-3.07658E-05-1.07046E-06 5.59639E-19 1.17035E-18
 -1       514 1.10249E-04-3.76475E-05-3.11224E-05-5.16641E-06 3.46907E-19-2.49698E-19
 -1       515 1.10575E-04-3.65953E-05-3.17106E-05-9.38061E-06 4.83898E-19-2.95201E-19
 -1       516 1.08907E-04-3.30070E-05-3.25348E-05-1.20003E-05-2.57759E-19 1.21589E-19
 -1       517 1.05658E-04-2.76945E-05-3.34237E-05-1.10043E-05-4.60290E-19 1.19723E-18
 -1       518 1.02738E-04-2.33536E-05-3.40312E-05-5.66462E-06-4.13565E-19 1.54659E-18
 -1       519 1.02247E-04-2.28338E-05-3.40440E-05 1.97272E-06 2.06358E-19-1.54976E-18
 -1       520 1.04522E-04-2.65488E-05-3.34337E-05 7.99298E-06 1.21510E-18-8.64256E-19
 -1       521 1.07624E-04-3.19184E-05-3.24560E-05 9.86893E-06 1.05449E-18 1.64322E-18
 -1       522 1.09433E-04-3.59826E-05-3.14852E-05 7.67968E-06 6.86172E-19 4.64728E-18
 -1       523 1.09163E-04-3.74374E-05-3.07477E-05 3.44348E-06-3.55643E-19 6.09629E-18
 -1       524 1.07299E-04-3.66742E-05-3.02762E-05-9.07803E-07 1.79303E-18 4.59778E-18
 -1       525 1.04680E-04-3.46746E-05-3.00093E-05-4.25433E-06 3.71567E-20 4.12766E-18
 -1       526 1.01943E-04-3.22603E-05-2.98678E-05-6.20432E-06 7.12181E-19 1.60767E-18
 -1       527 9.94192E-05-2.98880E-05-2.97984E-05-6.73670E-06 1.37178E-19 1.41387E-18
 -1       528 9.41367E-05-2.76849E-05-2.84758E-05-1.13391E-07 8.82316E-19-1.10034E-19
 -1       529 9.39598E-05-2.79308E-05-2.82969E-05-7.23187E-07 7.49710E-19-1.68487E-19
 -1       530 9.39297E-05-2.81010E-05-2.82120E-05-1.02233E-06 6.19194E-19 5.69443E-20
 -1       531 9.39940E-05-2.82254E-05-2.81867E-05-1.12858E-06 3.51203E-19 1.45276E-19
 -1       532 9.41126E-05-2.83181E-05-2.81981E-05-1.11938E-06 3.98889E-19 1.95142E-19
 -1       533 9.42579E-05-2.83866E-05-2.82311E-05-1.04692E-06 7.49991E-19-2.85850E-19
 -1       534 9.44124E-05-2.84360E-05-2.82761E-05-9.47009E-07 7.51486E-19-3.34016E-19
 -1       535 9.45666E-05-2.84701E-05-2.83275E-05-8.44647E-07 1.33266E-19-5.69848E-19
 -1       536 9.47169E-05-2.84917E-05-2.83826E-05-7.57788E-07-2.74298E-19-5.53613E-19
 -1       537 9.48642E-05-2.85036E-05-2.84404E-05-7.00023E-07 4.02055E-20-7.57029E-19
 -1       538 9.50128E-05-2.85080E-05-2.85021E-05-6.82557E-07 2.46859E-19-3.53535E-19
 -1       539 9.51697E-05-2.85067E-05-2.85697E-05-7.15709E-07 5.07722E-19-4.38621E-19
 -1       540 9.53443E-05-2.85016E-05-2.86465E-05-8.10057E-07 3.97936E-19 3.45154E-19
 -1       541 9.55482E-05-2.84945E-05-2.87366E-05-9.77272E-07-4.81014E-19 6.01848E-19
 -1       542 9.57950E-05-2.84876E-05-2.88450E-05-1.23065E-06-5.45938E-19-1.34327E-19
 -1       543 9.61001E-05-2.84834E-05-2.89772E-05-1.58523E-06-2.00781E-19-3.60844E-19
 -1       544 9.64810E-05-2.84857E-05-2.91390E-05-2.05739E-06 1.83318E-19-1.37257E-18
 -1       545 9.69569E-05-2.85007E-05-2.93360E-05-2.66349E-06 1.09529E-18-5.51008E-19
 -1       546 9.75494E-05-2.85389E-05-2.95731E-05-3.41701E-06 9.73288E-19-3.83471E-20
 -1       547 9.82828E-05-2.86188E-05-2.98527E-05-4.32315E-06 2.18853E-20-8.56236E-19
 -1       548 9.91871E-05-2.87740E-05-3.01735E-05-5.36942E-06-4.56076E-20-1.28727E-18
 -1       549 1.00303E-04-2.90638E-05-3.05281E-05-6.50996E-06 3.54837E-19-4.89780E-19
 -1       550 1.01695E-04-2.95891E-05-3.09004E-05-7.64114E-06-2.55775E-19-9.77386E-19
 -1       551 1.03463E-04-3.05104E-05-3.12661E-05-8.56628E-06-8.01103E-19-5.22840E-19
 -1       552 1.05765E-04-3.20517E-05-3.15966E-05-8.95074E-06-8.66240E-19-6.61474E-20
 -1       553 1.08802E-04-3.44518E-05-3.18762E-05-8.28077E-06 1.18839E-18 1.09225E-18
 -1       554 1.12717E-04-3.77771E-05-3.21357E-05-5.86849E-06 2.71270E-19-3.18938E-19
 -1       555 1.17291E-04-4.14991E-05-3.25079E-05-1.05010E-06-7.41390E-19 5.91319E-19
 -1       556 1.21461E-04-4.39405E-05-3.32591E-05 6.24944E-06 2.63435E-19-2.05425E-19
 -1       557 1.23061E-04-4.21969E-05-3.47028E-05 1.41837E-05 6.01691E-19-6.00198E-19
 -1       558 1.20007E-04-3.42037E-05-3.68945E-05 1.78716E-05-2.97540E-19 1.53850E-18
 -1       559 1.14451E-04-2.39700E-05-3.89688E-05 1.22297E-05 7.48168E-20 2.06276E-18
 -1       560 1.12194E-04-2.03607E-05-3.95636E-05-1.35151E-06 2.87475E-19 2.78407E-18
 -1       561 1.15752E-04-2.70948E-05-3.81516E-05-1.29840E-05 1.34612E-19 3.45319E-18
 -1       562 1.20529E-04-3.73265E-05-3.57582E-05-1.49994E-05-1.78433E-19 1.07250E-18
 -1       563 1.21477E-04-4.31100E-05-3.36260E-05-9.05687E-06-8.38333E-19 1.47449E-18
 -1       564 1.18314E-04-4.30257E-05-3.22920E-05-8.21770E-07-1.32470E-18 1.16682E-20
 -1       565 1.13346E-04-3.97102E-05-3.15822E-05 5.84658E-06 1.54497E-18-1.77358E-19
 -1       566 1.08435E-04-3.57394E-05-3.11718E-05 9.85626E-06 1.83784E-18 4.69838E-19
 -1       567 1.04327E-04-3.23114E-05-3.08664E-05 1.14837E-05-7.08879E-19 2.12404E-18
 -1       568 1.00998E-04-2.95798E-05-3.06053E-05 1.12683E-05-4.61038E-19 3.08938E-18
 -1       569 9.82402E-05-2.73929E-05-3.03557E-05 9.68969E-06 2.35850E-19 2.72222E-18
 -1       570 8.91486E-05-1.85815E-05-3.02486E-05 9.82495E-06 2.27303E-18-9.40509E-19
 -1       571 8.69839E-05-1.64708E-05-3.02278E-05 6.09130E-06 1.64546E-18 7.70305E-19
 -1       572 9.48249E-05-2.41439E-05-3.02949E-05 1.18578E-05 5.49267E-19-8.17342E-19
 -1       573 9.19828E-05-2.13556E-05-3.02628E-05 1.17594E-05 1.56812E-18-1.51972E-18
 -1       574 8.61093E-05-1.56093E-05-3.02222E-05 1.20514E-06 2.20856E-20-4.00593E-18
 -1       575 8.67929E-05-1.62689E-05-3.02322E-05-3.75466E-06-1.04071E-18-2.54832E-18
 -1       576 8.87592E-05-1.82124E-05-3.02407E-05-7.70220E-06-8.36546E-19-3.71587E-18
 -1       577 9.12859E-05-2.07809E-05-3.02204E-05-9.94814E-06 4.59515E-19 6.62827E-19
 -1       578 9.37520E-05-2.34022E-05-3.01507E-05-1.04919E-05 8.08876E-19 1.13270E-18
 -1       579 9.56518E-05-2.55872E-05-3.00243E-05-9.66988E-06 1.33420E-18 2.24455E-18
 -1       580 9.68750E-05-2.71606E-05-2.98796E-05-7.95864E-06-3.49714E-19 1.07713E-18
 -1       581 2.75802E-05-1.73526E-05-3.76262E-06 1.52971E-05 9.18343E-19-1.80407E-18
 -1       582 8.82548E-05-5.10624E-05-1.56646E-05 4.35004E-05 1.19908E-19 9.86926E-19
 -1       583 9.45150E-05-2.72927E-05-2.88009E-05 9.89776E-07 1.11884E-18 1.20563E-19
 -1       584 2.63952E-05-1.58098E-05-3.85788E-06-9.01168E-06 2.46524E-18 8.40045E-19
 -1       585 5.13598E-05-3.23885E-05-7.64182E-06 3.85002E-05 6.73391E-20 3.34419E-19
 -1       586 9.45934E-05-2.07033E-05-3.16861E-05-9.57264E-06-1.19206E-18-1.75847E-18
 -1       587 1.23946E-04-6.20961E-05-2.64316E-05-3.08957E-05 1.45197E-18 7.21566E-20
 -1       588 8.91650E-05-1.28840E-05-3.27099E-05-1.93832E-06 4.78305E-19-2.26388E-18
 -1       589 1.41303E-04-1.96520E-05-5.27147E-05-1.05064E-05 1.68612E-18-4.89214E-19
 -1       590 1.44771E-04-4.01358E-05-4.53001E-05 1.40835E-05-1.22023E-18 3.29999E-18
 -1       591 1.36573E-04-1.01515E-05-5.48087E-05 1.87979E-06 1.29755E-18 3.24504E-18
 -1       592 1.39420E-04-1.88525E-05-5.22664E-05 1.34025E-05 2.94662E-19 3.37384E-18
 -1       593 1.42844E-04-5.83502E-05-3.63901E-05-7.22324E-07-1.45699E-18 2.82305E-18
 -1       594 1.21256E-04-6.22778E-05-2.52233E-05-2.84333E-05-1.31502E-18 1.31767E-19
 -1       595 8.48036E-05-4.91322E-05-1.49833E-05-4.11438E-05-1.54425E-18-3.68301E-18
 -1       596 4.72333E-05-2.96308E-05-7.07087E-06-3.51377E-05-7.46236E-19-2.12494E-18
 -1       597 2.50307E-05-1.52097E-05-3.58105E-06-1.10483E-05-1.95969E-19-3.38421E-18
 -1       598 2.56239E-05-1.53129E-05-3.79448E-06 1.48367E-05 7.17516E-19-1.29543E-18
 -1       599 5.38392E-05-3.19240E-05-8.85268E-06 3.99599E-05-5.52213E-19-2.13876E-20
 -1       600 8.44874E-05-4.84423E-05-1.51442E-05 4.33851E-05-5.06155E-19-3.29602E-19
 -1       601 1.20980E-04-6.04341E-05-2.58377E-05 2.94245E-05-1.01183E-18 3.57739E-19
 -1       602 1.38055E-04-5.83205E-05-3.43780E-05 1.16148E-05-1.03477E-18-1.46071E-18
 -1       603 1.43171E-04-3.69131E-05-4.59133E-05-9.00782E-06-1.02184E-18-8.23475E-19
 -1       604 1.37635E-04-1.84925E-05-5.16465E-05-1.12456E-05-9.46295E-19-4.28175E-19
 -1       605 1.32442E-04-7.38667E-06-5.42490E-05-1.20715E-06 1.36372E-19-6.78295E-19
 -1       606 1.37783E-04-1.62332E-05-5.26209E-05 8.55263E-06-1.11448E-18 2.31769E-19
 -1       607 1.43502E-04-3.81597E-05-4.55761E-05 7.52818E-06 1.06779E-19-4.70633E-20
 -1       608 1.40910E-04-5.80400E-05-3.57088E-05-1.25749E-05 1.89971E-18 1.61778E-18
 -1       609 9.08468E-05-5.20015E-05-1.63722E-05-4.41554E-05 9.08072E-19-2.02008E-18
 -1       610 5.38616E-05-3.34553E-05-8.28064E-06-4.03283E-05 2.90755E-18-1.23116E-18
 -1       611 1.48001E-04-4.38600E-05-4.50240E-05-6.91900E-06 2.70225E-18-3.38257E-18
 -1       612 9.61564E-05-2.31894E-05-3.12751E-05 9.58697E-06 1.58061E-18 1.01591E-18
 -1       613 1.27026E-04-6.35725E-05-2.70985E-05 2.81455E-05 7.42213E-19-9.26839E-19
 -1       614 9.13586E-05-1.58618E-05-3.23781E-05-7.79250E-06-5.10640E-19-2.20121E-18
 -1       615 4.41137E-05-2.02314E-05-9.66707E-06-2.57492E-05 1.31608E-18 1.41343E-18
 -1       616 9.78820E-05-2.84233E-05-2.97655E-05-6.35337E-06-5.12167E-19 1.08260E-18
 -1       617 9.15606E-05-1.68544E-05-3.20225E-05 2.44308E-06 9.85485E-19-1.77144E-18
 -1       618 9.13042E-05-1.64543E-05-3.20840E-05 8.40490E-07 6.49528E-19-1.94924E-18
 -1       619 9.28960E-05-1.90023E-05-3.16743E-05 5.26878E-06 1.42031E-18-1.11095E-18
 -1       620 9.39847E-05-2.09305E-05-3.13169E-05 6.14801E-06 1.49324E-18-7.39379E-19
 -1       621 9.52711E-05-2.40960E-05-3.04933E-05 5.15365E-06 1.48252E-18-3.88878E-19
 -1       622 1.12696E-04-5.69805E-05-2.36736E-05-3.20465E-05 1.57551E-18-1.59409E-18
 -1       623 9.54408E-05-2.57343E-05-2.98688E-05-2.44221E-06-4.95757E-19-1.26719E-18
 -1       624 9.54733E-05-2.69460E-05-2.93682E-05-8.71871E-07-3.30828E-19-1.15856E-18
 -1       625 9.54197E-05-2.77059E-05-2.90200E-05 1.28464E-07-3.96089E-19-1.20864E-18
 -1       626 9.53437E-05-2.81755E-05-2.87863E-05 7.17713E-07-6.14858E-19-1.12575E-18
 -1       627 9.52796E-05-2.84628E-05-2.86359E-05 1.02360E-06-3.50281E-19-1.09124E-18
 -1       628 9.52352E-05-2.86310E-05-2.85448E-05 1.14348E-06-1.53317E-19-8.54298E-19
 -1       629 9.52090E-05-2.87191E-05-2.84958E-05 1.14901E-06-3.64200E-19-4.54183E-19
 -1       630 9.51970E-05-2.87523E-05-2.84764E-05 1.09217E-06-3.66701E-19-2.06995E-19
 -1       631 9.51954E-05-2.87469E-05-2.84780E-05 1.01044E-06-4.59637E-19-6.20979E-19
 -1       632 9.52011E-05-2.87139E-05-2.84946E-05 9.31006E-07-5.36449E-19-7.27668E-19
 -1       633 9.52123E-05-2.86598E-05-2.85226E-05 8.74063E-07-2.33220E-19-5.93979E-19
 -1       634 9.52279E-05-2.85886E-05-2.85597E-05 8.55272E-07-5.68332E-19-8.46887E-19
 -1       635 9.52477E-05-2.85023E-05-2.86051E-05 8.87596E-07-7.83161E-19-1.09811E-18
 -1       636 9.52723E-05-2.84019E-05-2.86587E-05 9.82550E-07-8.74362E-19-1.45690E-18
 -1       637 9.53031E-05-2.82880E-05-2.87207E-05 1.15093E-06-2.10797E-20-6.48594E-19
 -1       638 9.53428E-05-2.81621E-05-2.87916E-05 1.40297E-06 2.28118E-19-2.70979E-19
 -1       639 9.53956E-05-2.80281E-05-2.88716E-05 1.74790E-06 2.21635E-19-3.21214E-19
 -1       640 9.54684E-05-2.78939E-05-2.89602E-05 2.19274E-06 6.70867E-19-7.69488E-19
 -1       641 9.55727E-05-2.77747E-05-2.90559E-05 2.74024E-06 1.39927E-18-1.47680E-18
 -1       642 9.57268E-05-2.76963E-05-2.91555E-05 3.38571E-06 4.83257E-20-7.28725E-19
 -1       643 9.59606E-05-2.77004E-05-2.92540E-05 4.11247E-06-6.18925E-19-8.59324E-19
 -1       644 9.63215E-05-2.78506E-05-2.93443E-05 4.88560E-06-3.77563E-19-1.00155E-18
 -1       645 9.68825E-05-2.82385E-05-2.94186E-05 5.64347E-06-3.93948E-20-9.67054E-19
 -1       646 9.77505E-05-2.89861E-05-2.94705E-05 6.28640E-06 1.44559E-19-1.45905E-18
 -1       647 9.90715E-05-3.02387E-05-2.95003E-05 6.66138E-06 4.46941E-20-5.82218E-19
 -1       648 1.01018E-04-3.21315E-05-2.95243E-05 6.54268E-06-5.49287E-20 2.56383E-19
 -1       649 1.03740E-04-3.47052E-05-2.95891E-05 5.61596E-06 1.56603E-18 6.05049E-19
 -1       650 1.07240E-04-3.77460E-05-2.97876E-05 3.49041E-06 1.08305E-18 1.88713E-20
 -1       651 1.11153E-04-4.05299E-05-3.02716E-05-1.93818E-07 2.06831E-19 7.62134E-19
 -1       652 1.14453E-04-4.15842E-05-3.12363E-05-5.38495E-06-2.21121E-20 5.91842E-19
 -1       653 1.15557E-04-3.90266E-05-3.28179E-05-1.08901E-05-2.49623E-20 4.25860E-19
 -1       654 1.13265E-04-3.19697E-05-3.49046E-05-1.38880E-05-5.88589E-19-1.01316E-19
 -1       655 1.08838E-04-2.31206E-05-3.68253E-05-1.10539E-05-9.29824E-19-1.44125E-18
 -1       656 1.06252E-04-1.83090E-05-3.77843E-05-2.23966E-06-1.33097E-18-2.75550E-19
 -1       657 1.07605E-04-2.12965E-05-3.71104E-05 7.35819E-06 1.24067E-18-8.77870E-20
 -1       658 1.12408E-04-3.04217E-05-3.51541E-05 1.15331E-05 2.01553E-18 7.14916E-20
 -1       659 1.15295E-04-3.82129E-05-3.30607E-05 9.27824E-06 2.18761E-18-2.76546E-19
 -1       660 1.14753E-04-4.17018E-05-3.13217E-05 3.80442E-06 4.09301E-19 2.83866E-19
 -1       661 1.11649E-04-4.11280E-05-3.02291E-05-1.80004E-06 7.84098E-19-5.34408E-20
 -1       662 1.07544E-04-3.82474E-05-2.97029E-05-5.92595E-06 4.05066E-19 1.12347E-18
 -1       663 1.03595E-04-3.46310E-05-2.95580E-05-8.24954E-06-1.00271E-18 2.33024E-18
 -1       664 1.00297E-04-3.11516E-05-2.96343E-05-8.98332E-06-2.84578E-19 1.05130E-18
 -1       665 9.49814E-05-2.81127E-05-2.86578E-05-7.31110E-07 5.70922E-19-1.33363E-19
 -1       666 9.64638E-05-2.68543E-05-2.98309E-05 1.42927E-05-8.17756E-19-4.33516E-20
 -1       667 9.50919E-05-2.77081E-05-2.88782E-05-1.20592E-07 7.04585E-19-2.33044E-19
 -1       668 9.49009E-05-2.85189E-05-2.84495E-05-1.16274E-06 4.34199E-19 1.85534E-19
 -1       669 9.49117E-05-2.86078E-05-2.84161E-05-1.16423E-06 1.01987E-18-2.02485E-19
 -1       670 9.49419E-05-2.86514E-05-2.84104E-05-1.10119E-06 6.98125E-19 4.58292E-20
 -1       671 9.49839E-05-2.86629E-05-2.84234E-05-1.01156E-06 4.33105E-19 2.62427E-19
 -1       672 9.50328E-05-2.86510E-05-2.84495E-05-9.22658E-07 1.26192E-19 5.80554E-19
 -1       673 9.50861E-05-2.86210E-05-2.84851E-05-8.54702E-07-3.07232E-20 3.88340E-19
 -1       674 9.51433E-05-2.85762E-05-2.85288E-05-8.23518E-07 1.00754E-19-2.48968E-19
 -1       675 9.52053E-05-2.85177E-05-2.85804E-05-8.42548E-07 4.00877E-19-2.32546E-19
 -1       676 9.52741E-05-2.84457E-05-2.86406E-05-9.24389E-07-1.65583E-19 1.47853E-19
 -1       677 9.53523E-05-2.83590E-05-2.87112E-05-1.08193E-06-5.90831E-20 3.51327E-19
 -1       678 9.54431E-05-2.82558E-05-2.87943E-05-1.32910E-06-2.78882E-19 4.31846E-19
 -1       679 9.55499E-05-2.81341E-05-2.88921E-05-1.68118E-06-3.54755E-19 4.20223E-19
 -1       680 9.56760E-05-2.79924E-05-2.90067E-05-2.15468E-06 3.46202E-20-1.38944E-20
 -1       681 9.58248E-05-2.78309E-05-2.91395E-05-2.76653E-06 3.60808E-19 1.19843E-19
 -1       682 9.60005E-05-2.76546E-05-2.92902E-05-3.53231E-06 1.08449E-18 4.01317E-19
 -1       683 9.62100E-05-2.74772E-05-2.94558E-05-4.46315E-06 4.56295E-19 8.62241E-19
 -1       684 9.64678E-05-2.73294E-05-2.96295E-05-5.56075E-06 3.53820E-19 8.77972E-19
 -1       685 9.68063E-05-2.72728E-05-2.97987E-05-6.80942E-06-2.24358E-19 5.27408E-20
 -1       686 9.72943E-05-2.74202E-05-2.99448E-05-8.16429E-06 5.55069E-19 2.46187E-19
 -1       687 9.80694E-05-2.79652E-05-3.00439E-05-9.53313E-06-8.75976E-19 1.19544E-18
 -1       688 9.93845E-05-2.92126E-05-3.00738E-05-1.07470E-05-6.17448E-19 8.31177E-19
 -1       689 1.01658E-04-3.15850E-05-3.00328E-05-1.15065E-05-6.96328E-19-5.49358E-19
 -1       690 1.05474E-04-3.55304E-05-2.99806E-05-1.12960E-05 6.62841E-19 6.99404E-19
 -1       691 1.11455E-04-4.12014E-05-3.01107E-05-9.21478E-06-6.63796E-19 1.05983E-18
 -1       692 1.19480E-04-4.74255E-05-3.08836E-05-4.02461E-06-2.53624E-19-1.85656E-19
 -1       693 1.28005E-04-5.09683E-05-3.30392E-05 5.07473E-06 8.33308E-19 1.96187E-19
 -1       694 1.32286E-04-4.59099E-05-3.71974E-05 1.58011E-05-9.05591E-19 2.75676E-19
 -1       695 1.20531E-04-1.53141E-05-4.56244E-05 7.25992E-06 4.77382E-19 4.72671E-19
 -1       696 1.22677E-04-1.81544E-05-4.52575E-05-1.00170E-05-9.43277E-19 3.67639E-19
 -1       697 1.28773E-04-3.53718E-05-4.03269E-05-1.62000E-05 1.31257E-18 3.60863E-19
 -1       698 1.29747E-04-4.80148E-05-3.51941E-05-9.84179E-06 3.28239E-19-1.14208E-18
 -1       699 1.24381E-04-5.00851E-05-3.18712E-05 7.08338E-07-1.06341E-19-2.10898E-18
 -1       700 1.15975E-04-4.52072E-05-3.03390E-05 8.72869E-06 6.52997E-19-3.17289E-18
 -1       701 1.08583E-04-3.89540E-05-2.98475E-05 1.29874E-05 1.19671E-18-1.34251E-18
 -1       702 1.03224E-04-3.36223E-05-2.98318E-05 1.44625E-05-3.18494E-19 2.93137E-19
 -1       703 9.93742E-05-3.00467E-05-2.97114E-05 1.49995E-05-5.41624E-20-2.64725E-19
 -1       704 1.12386E-04-5.63946E-05-2.38304E-05 3.06333E-05 1.40375E-18 3.61979E-19
 -1       705 8.31024E-05-1.69467E-05-2.83549E-05-2.05310E-06 6.40227E-19-3.32279E-18
 -1       706 4.66877E-05-1.88827E-05-1.14117E-05-2.33304E-05 2.64354E-19-3.23138E-18
 -1       707 8.58206E-05-1.89046E-05-2.86816E-05 1.00802E-05 1.11414E-18 1.06852E-18
 -1       708 8.54535E-05-1.89047E-05-2.85237E-05-7.83042E-06-5.11195E-19-5.20812E-18
 -1       709 8.32240E-05-1.69548E-05-2.84037E-05 4.48793E-06 1.54970E-19-2.61160E-18
 -1       710 8.92498E-05-2.19926E-05-2.88266E-05-1.14917E-05 5.72690E-19-7.21430E-19
 -1       711 9.32776E-05-2.52267E-05-2.91666E-05-1.27629E-05 4.02104E-19 9.40290E-19
 -1       712 9.64485E-05-2.77273E-05-2.94515E-05-1.19698E-05-2.69256E-20 2.46785E-18
 -1       713 7.83854E-05-3.86027E-05-1.66800E-05 3.78159E-05 7.61668E-19 1.19784E-18
 -1       714 5.23127E-05-2.23421E-05-1.23162E-05 2.78023E-05 7.80858E-21-1.60211E-18
 -1       715 1.29446E-04-6.14876E-05-2.91288E-05-1.89279E-05 2.13030E-18-3.56680E-19
 -1       716 3.96392E-05-1.32839E-05-1.07111E-05 3.73819E-06-7.91852E-19-5.74924E-20
 -1       717 9.46088E-05-2.22024E-05-3.10291E-05-6.03813E-06-6.92165E-19-1.73943E-18
 -1       718 7.37796E-05-3.73565E-05-1.52130E-05-3.64556E-05 1.73324E-19-2.02549E-18
 -1       719 1.29867E-04-6.02318E-05-2.98697E-05-1.08157E-05-2.67173E-19 1.16357E-18
 -1       720 9.52316E-05-2.70432E-05-2.92217E-05 9.32762E-07 1.01322E-18-4.49116E-19
 -1       721 9.49202E-05-2.83647E-05-2.85238E-05-1.04337E-06 3.30125E-19 4.72072E-21
 -1       722 1.34041E-04-6.06702E-05-3.14762E-05 9.61109E-06 1.23204E-18-2.46460E-18
 -1       723 9.20860E-05-1.76826E-05-3.18930E-05 3.95273E-06 1.30184E-18-1.43197E-18
 -1       724 9.20494E-05-1.76353E-05-3.18980E-05-3.89170E-06 4.68350E-20-2.07103E-18
 -1       725 9.53341E-05-2.59397E-05-2.97365E-05 2.61098E-06 1.17527E-18-6.14575E-19
 -1       726 1.37363E-04-5.06672E-05-3.73806E-05 3.10122E-06 2.28077E-18-1.30202E-18
 -1       727 9.84605E-05-2.90368E-05-2.97481E-05-8.71022E-06 2.04661E-19 2.71360E-19
 -1       728 1.26891E-04-2.89275E-05-4.24187E-05 1.87622E-05 2.60304E-19 8.09406E-19
 -1       729 1.11125E-04-5.53304E-05-2.36782E-05-2.78899E-05-1.58940E-18-3.61908E-20
 -1       730 1.21857E-04-1.18981E-05-4.76333E-05 6.36019E-06-4.06946E-19 2.14600E-18
 -1       731 3.43189E-05-1.16889E-05-9.13188E-06 1.52841E-06 8.52969E-19-2.71580E-18
 -1       732 4.86433E-05-1.98818E-05-1.17996E-05 2.67748E-05 7.02005E-19-2.83597E-19
 -1       733 7.89515E-05-3.99618E-05-1.63393E-05 3.86446E-05 1.08669E-18 1.43419E-18
 -1       734 1.08710E-04-5.49921E-05-2.28585E-05 3.17174E-05 5.58724E-19 8.71008E-19
 -1       735 1.28666E-04-5.89341E-05-2.99169E-05 1.32898E-05-5.02641E-19-1.56013E-18
 -1       736 1.36079E-04-4.91272E-05-3.75080E-05-6.21064E-06-1.11034E-18-1.16951E-18
 -1       737 1.28848E-04-2.80934E-05-4.35961E-05-1.53528E-05-1.95336E-18-1.86056E-19
 -1       738 8.02165E-05-4.11433E-05-1.63816E-05-3.97773E-05 2.73885E-18-1.04807E-18
 -1       739 1.21722E-04-1.21119E-05-4.75270E-05-9.09195E-06-3.60836E-19 2.04876E-18
 -1       740 1.27537E-04-2.60059E-05-4.39270E-05 1.32118E-05 3.50698E-19-3.18114E-19
 -1       741 1.39599E-04-5.50320E-05-3.64525E-05-4.25042E-06 1.81809E-18-2.71966E-18
 -1       742 1.34812E-04-3.30381E-05-4.40770E-05-1.54749E-05 1.54840E-18-1.64568E-18
 -1       743 9.28245E-05-1.89054E-05-3.16901E-05-5.22986E-06-2.81045E-19-1.88057E-18
 -1       744 9.12970E-05-1.64462E-05-3.20847E-05-7.86141E-07 4.61120E-19-2.10671E-18
 -1       745 4.77911E-05-1.48698E-05-1.37053E-05-1.20699E-05-9.17707E-20-4.09143E-19
 -1       746 8.98581E-05-2.19461E-05-2.91142E-05 1.34989E-05 1.76800E-18-2.64480E-18
 -1       747 1.13478E-04-1.19374E-05-4.38978E-05-1.80411E-06 6.54280E-19-2.77066E-19
 -1       748 6.55807E-05-2.78854E-05-1.57378E-05-3.18603E-05 3.56754E-18-2.24914E-18
 -1       749 9.86444E-05-2.97881E-05-2.95057E-05-1.08134E-05-1.29323E-18 1.33632E-18
 -1       750 9.15420E-05-1.68301E-05-3.20252E-05-2.37900E-06 2.65073E-19-1.92857E-18
 -1       751 1.28850E-04-4.00025E-05-3.82504E-05 1.18566E-05 2.17248E-18-7.08093E-19
 -1       752 9.46325E-05-2.27238E-05-3.08176E-05 3.91638E-06 1.28708E-18-8.07248E-19
 -1       753 7.08084E-05-2.90345E-05-1.76963E-05 3.00093E-05 1.17691E-18 9.59609E-19
 -1       754 9.58732E-05-2.68876E-05-2.95657E-05-5.89061E-07-4.31030E-19-1.24546E-18
 -1       755 9.59659E-05-2.77732E-05-2.92256E-05 2.14311E-07-5.15311E-19-1.33698E-18
 -1       756 9.59546E-05-2.83299E-05-2.89821E-05 6.95184E-07-5.56925E-19-1.32076E-18
 -1       757 9.58937E-05-2.86641E-05-2.88128E-05 9.46846E-07-1.12676E-20-1.22260E-18
 -1       758 9.58122E-05-2.88464E-05-2.86997E-05 1.04493E-06 1.54234E-19-1.07390E-18
 -1       759 9.57248E-05-2.89242E-05-2.86289E-05 1.04882E-06-7.03030E-20-7.70478E-19
 -1       760 9.56391E-05-2.89298E-05-2.85897E-05 1.00314E-06-6.06722E-19-5.46419E-19
 -1       761 9.55578E-05-2.88847E-05-2.85742E-05 9.40950E-07-6.44466E-19-4.22146E-19
 -1       762 9.54814E-05-2.88024E-05-2.85767E-05 8.86897E-07-3.61180E-19-7.25384E-19
 -1       763 9.54084E-05-2.86912E-05-2.85931E-05 8.59786E-07-6.75284E-19-1.23458E-18
 -1       764 9.53362E-05-2.85549E-05-2.86206E-05 8.74670E-07-7.86930E-19-1.00342E-18
 -1       765 9.52616E-05-2.83947E-05-2.86572E-05 9.44413E-07-8.54766E-19-1.04482E-18
 -1       766 9.51808E-05-2.82105E-05-2.87016E-05 1.08077E-06-2.09737E-19-8.22241E-19
 -1       767 9.50904E-05-2.80017E-05-2.87523E-05 1.29498E-06-8.20922E-20-1.49619E-18
 -1       768 9.49878E-05-2.77696E-05-2.88077E-05 1.59791E-06 6.97471E-19-1.30452E-18
 -1       769 9.48723E-05-2.75189E-05-2.88657E-05 1.99964E-06 6.40887E-19-6.04420E-19
 -1       770 9.47475E-05-2.72613E-05-2.89226E-05 2.50859E-06 1.01390E-18-4.88976E-19
 -1       771 9.46240E-05-2.70190E-05-2.89735E-05 3.13003E-06 1.18947E-18-8.04048E-19
 -1       772 9.45245E-05-2.68306E-05-2.90115E-05 3.86395E-06-7.78920E-19-8.81644E-19
 -1       773 9.44904E-05-2.67577E-05-2.90282E-05 4.70220E-06-1.08532E-18-9.45209E-19
 -1       774 9.45929E-05-2.68937E-05-2.90138E-05 5.62427E-06-1.24345E-19-9.21286E-19
 -1       775 9.49458E-05-2.73721E-05-2.89600E-05 6.59065E-06 1.03727E-19-8.52545E-19
 -1       776 9.57218E-05-2.83715E-05-2.88643E-05 7.53075E-06 8.81799E-19-1.84017E-19
 -1       777 9.71666E-05-3.01090E-05-2.87390E-05 8.31930E-06 5.67056E-19 1.05627E-18
 -1       778 9.95959E-05-3.28009E-05-2.86267E-05 8.72789E-06 1.03491E-18 2.00935E-18
 -1       779 1.03328E-04-3.65393E-05-2.86251E-05 8.35701E-06 3.21316E-19 1.32066E-18
 -1       780 1.08511E-04-4.10470E-05-2.89157E-05 6.56182E-06 4.81484E-19-3.00168E-19
 -1       781 1.14757E-04-4.52427E-05-2.97948E-05 2.51743E-06-6.28752E-20-1.71878E-19
 -1       782 1.20362E-04-4.64717E-05-3.16877E-05-4.25754E-06-2.09601E-19-5.23974E-19
 -1       783 1.22309E-04-4.11281E-05-3.49312E-05-1.18865E-05-1.23204E-18 1.95317E-19
 -1       784 1.11840E-04-1.66350E-05-4.10696E-05-8.37434E-06-9.71547E-19-2.20348E-18
 -1       785 1.11277E-04-1.45482E-05-4.18497E-05 3.48765E-06-1.74555E-19 4.82915E-19
 -1       786 1.21847E-04-4.66238E-05-3.22636E-05 3.31753E-06 1.94965E-18-7.68247E-19
 -1       787 1.16865E-04-4.65470E-05-3.01361E-05-4.21249E-06 3.97919E-19-8.88539E-20
 -1       788 1.10555E-04-4.24720E-05-2.91818E-05-8.99201E-06 1.83935E-18 5.49167E-19
 -1       789 1.04994E-04-3.73929E-05-2.89702E-05-1.11887E-05 1.41089E-18 1.55311E-18
 -1       790 1.01364E-04-3.32781E-05-2.91777E-05-1.13696E-05-2.17010E-18 2.41371E-18
 -1       791 9.57334E-05-2.77486E-05-2.91364E-05-1.91624E-07 6.64486E-19-1.68711E-19
 -1       792 9.55094E-05-2.88386E-05-2.85732E-05-1.10223E-06 5.14153E-19-1.16912E-20
 -1       793 9.55698E-05-2.87560E-05-2.86345E-05-1.09881E-06 7.07646E-19-3.21780E-19
 -1       794 9.54107E-05-2.88298E-05-2.85347E-05-9.79189E-07-2.25763E-20 2.27099E-19
 -1       795 9.53714E-05-2.87695E-05-2.85437E-05-9.13958E-07 3.59631E-19 5.68248E-20
 -1       796 9.53368E-05-2.86830E-05-2.85659E-05-8.74793E-07 6.01610E-19 2.96910E-19
 -1       797 9.53045E-05-2.85734E-05-2.85990E-05-8.77677E-07 2.07334E-19 2.05455E-20
 -1       798 9.52715E-05-2.84405E-05-2.86419E-05-9.36493E-07-1.73453E-19 2.94050E-19
 -1       799 9.52344E-05-2.82820E-05-2.86939E-05-1.06440E-06-4.62340E-19-2.74521E-19
 -1       800 9.51887E-05-2.80936E-05-2.87550E-05-1.27475E-06-4.19305E-19 9.57429E-21
 -1       801 9.51285E-05-2.78700E-05-2.88250E-05-1.58158E-06-5.76454E-19 5.96226E-19
 -1       802 9.50467E-05-2.76055E-05-2.89033E-05-1.99971E-06-2.46680E-19 1.57273E-18
 -1       803 9.49345E-05-2.72955E-05-2.89880E-05-2.54440E-06-7.80135E-20 1.78538E-18
 -1       804 9.47822E-05-2.69388E-05-2.90755E-05-3.23053E-06 4.86982E-19 1.55420E-18
 -1       805 9.45804E-05-2.65417E-05-2.91592E-05-4.07140E-06 6.55714E-19 1.49788E-18
 -1       806 9.43244E-05-2.61248E-05-2.92280E-05-5.07725E-06 6.60155E-19 8.70620E-19
 -1       807 9.40224E-05-2.57349E-05-2.92656E-05-6.25388E-06 1.09325E-19 6.32131E-19
 -1       808 9.37121E-05-2.54636E-05-2.92488E-05-7.60199E-06-5.73763E-19 1.04475E-18
 -1       809 9.34890E-05-2.54755E-05-2.91480E-05-9.11725E-06-3.18702E-19 9.83442E-19
 -1       810 9.35543E-05-2.60464E-05-2.89311E-05-1.07897E-05-8.66816E-19 7.60042E-19
 -1       811 9.42927E-05-2.76129E-05-2.85751E-05-1.25935E-05 2.85593E-19 6.48278E-19
 -1       812 9.63819E-05-3.08039E-05-2.80988E-05-1.44074E-05-1.60529E-19-1.39214E-20
 -1       813 1.00782E-04-3.62927E-05-2.76305E-05-1.58294E-05-3.28313E-19 6.00632E-20
 -1       814 1.09056E-04-4.47390E-05-2.75697E-05-1.58800E-05-5.29942E-20-7.87416E-19
 -1       815 1.17963E-04-5.15896E-05-2.83772E-05 1.59261E-05 3.84847E-19-4.24063E-18
 -1       816 1.07098E-04-4.22297E-05-2.78039E-05 1.85907E-05-5.07211E-19-2.13002E-18
 -1       817 1.00329E-04-3.46710E-05-2.81269E-05 1.83912E-05-6.41779E-19-9.60661E-19
 -1       818 9.52138E-05-2.44786E-05-3.03148E-05 3.43297E-06 1.31253E-18-4.59813E-19
 -1       819 8.53952E-05-2.23429E-05-2.70191E-05-1.28814E-05-5.09265E-19-1.96505E-18
 -1       820 8.01729E-05-1.84582E-05-2.64453E-05-6.97474E-06-2.29903E-19-5.38843E-18
 -1       821 7.26505E-05-2.78613E-05-1.89679E-05 2.84719E-05 5.98336E-19 1.59371E-18
 -1       822 9.75715E-05-4.32115E-05-2.31432E-05 2.96126E-05-1.73708E-19 3.41923E-20
 -1       823 9.33082E-05-4.16937E-05-2.19068E-05-2.83512E-05-5.24148E-19-6.15561E-19
 -1       824 1.21027E-04-5.62797E-05-2.77135E-05-1.89960E-05 1.28134E-18-2.94066E-19
 -1       825 1.30307E-04-5.38628E-05-3.28624E-05-1.35479E-06 1.91254E-18-9.90274E-19
 -1       826 9.57007E-05-2.69188E-05-2.94782E-05 6.97361E-07 7.08763E-19-4.42511E-19
 -1       827 9.16987E-05-2.68368E-05-2.78015E-05-1.51831E-05 3.10440E-19 1.71231E-19
 -1       828 9.69327E-05-3.02994E-05-2.85568E-05-1.43994E-05 3.11287E-19 2.94374E-19
 -1       829 9.82901E-05-4.56725E-05-2.24196E-05-3.14233E-05 2.70873E-18-1.45019E-18
 -1       830 5.58840E-05-1.67026E-05-1.64919E-05 1.47730E-05-1.75469E-18 1.18762E-18
 -1       831 9.54563E-05-2.88568E-05-2.85427E-05-1.05063E-06 1.77241E-19 4.54696E-19
 -1       832 9.55827E-05-2.55106E-05-3.00304E-05-1.82155E-06-3.52839E-19-1.17118E-18
 -1       833 6.97769E-05-2.64303E-05-1.83474E-05-2.65546E-05-4.55796E-19-2.04270E-18
 -1       834 1.25270E-04-3.86069E-05-3.73232E-05-1.36248E-05-2.02065E-18-1.10610E-18
 -1       835 4.98864E-05-1.36953E-05-1.51888E-05 1.11045E-05 1.37639E-18-2.04349E-18
 -1       836 9.47337E-05-2.28988E-05-3.07859E-05-3.49480E-06-2.33540E-19-1.37226E-18
 -1       837 9.67040E-05-4.46393E-05-2.21521E-05 2.96595E-05 3.18081E-19 2.55963E-20
 -1       838 1.15810E-04-5.38977E-05-2.65051E-05 1.94989E-05 1.46246E-19-1.48681E-18
 -1       839 1.17273E-04-2.04083E-05-4.18340E-05-1.29549E-05-2.36378E-18-1.10767E-18
 -1       840 4.88549E-05-1.31182E-05-1.50154E-05-8.35283E-06 3.76222E-20-2.51579E-18
 -1       841 9.32156E-05-1.97841E-05-3.14717E-05 1.23603E-06 6.81614E-19-1.49507E-18
 -1       842 1.16925E-04-5.24593E-05-2.75767E-05-1.57811E-05-4.15496E-19-6.24578E-19
 -1       843 1.28400E-04-5.22076E-05-3.26783E-05-1.44639E-06-4.21587E-19-2.11135E-18
 -1       844 9.31069E-05-1.95883E-05-3.15091E-05 2.07051E-08 4.83902E-19-1.76101E-18
 -1       845 9.94443E-05-3.20958E-05-2.88668E-05-1.31575E-05-1.44213E-18 1.19727E-18
 -1       846 6.40633E-05-2.00192E-05-1.87406E-05 1.96917E-05 2.00874E-18 5.16399E-19
 -1       847 5.55868E-05-1.41171E-05-1.75538E-05 1.84742E-06-1.61420E-18-1.35324E-18
 -1       848 1.17772E-04-2.83931E-05-3.84325E-05-1.49893E-05-1.80361E-18 1.06660E-19
 -1       849 1.22234E-04-3.94817E-05-3.55787E-05 1.06530E-05 2.06663E-18-3.02490E-19
 -1       850 9.56349E-05-2.85798E-05-2.87379E-05-9.92377E-07 1.46571E-19-6.96036E-19
 -1       851 9.57449E-05-2.96718E-05-2.83134E-05 1.75516E-05-5.57352E-19 9.83151E-19
 -1       852 9.08587E-05-2.49507E-05-2.82579E-05 1.62426E-05-2.57062E-19 4.57419E-19
 -1       853 8.05503E-05-1.83782E-05-2.66415E-05 9.18584E-06 4.58424E-19 5.70597E-19
 -1       854 9.56962E-05-2.82665E-05-2.88985E-05-7.18293E-07 2.74263E-19-3.38519E-19
 -1       855 9.41536E-05-2.16201E-05-3.10857E-05-2.86303E-06 2.51633E-20-1.91285E-18
 -1       856 8.52487E-05-2.13551E-05-2.73721E-05 1.38721E-05-9.79030E-20-5.60459E-19
 -1       857 7.81973E-05-1.68648E-05-2.62889E-05 1.19055E-06 8.08211E-19-3.42397E-18
 -1       858 8.51420E-05-3.49937E-05-2.13165E-05-2.98801E-05 2.84360E-18-1.18333E-19
 -1       859 9.40433E-05-2.13635E-05-3.11487E-05 3.33167E-06 1.09335E-18-1.25180E-18
 -1       860 9.35303E-05-2.03653E-05-3.13568E-05 2.36762E-06 1.04948E-18-1.37023E-18
 -1       861 9.55178E-05-2.58950E-05-2.98378E-05 1.83851E-06 1.07895E-18-4.96978E-19
 -1       862 9.37358E-05-2.07655E-05-3.12739E-05-1.94740E-06 1.21638E-19-1.84996E-18
 -1       863 9.63725E-05-2.79198E-05-2.93370E-05 2.88139E-07-1.85486E-19-1.15822E-18
 -1       864 9.63919E-05-2.85040E-05-2.90948E-05 6.39149E-07-1.93892E-19-6.94512E-19
 -1       865 9.63255E-05-2.88471E-05-2.89194E-05 8.19296E-07-1.55743E-19-1.16506E-18
 -1       866 9.62120E-05-2.90199E-05-2.87966E-05 8.85905E-07-8.64340E-20-1.54744E-18
 -1       867 9.60757E-05-2.90737E-05-2.87152E-05 8.84461E-07-1.75017E-19-1.67612E-18
 -1       868 9.59306E-05-2.90442E-05-2.86656E-05 8.49769E-07-5.47782E-19-1.62994E-18
 -1       869 9.57834E-05-2.89549E-05-2.86408E-05 8.08234E-07-6.65648E-19-1.91309E-18
 -1       870 9.56356E-05-2.88205E-05-2.86350E-05 7.80075E-07-3.25469E-19-1.83916E-18
 -1       871 9.54852E-05-2.86492E-05-2.86440E-05 7.81111E-07-4.64684E-19-1.33329E-18
 -1       872 9.53273E-05-2.84439E-05-2.86643E-05 8.24533E-07-1.03173E-18-1.02642E-18
 -1       873 9.51551E-05-2.82048E-05-2.86930E-05 9.22055E-07-6.72960E-19-1.07240E-18
 -1       874 9.49608E-05-2.79302E-05-2.87274E-05 1.08487E-06-4.73541E-19-5.57138E-19
 -1       875 9.47359E-05-2.76187E-05-2.87645E-05 1.32420E-06 5.22693E-19 1.00275E-19
 -1       876 9.44730E-05-2.72714E-05-2.88007E-05 1.65147E-06 3.61770E-19-4.04466E-19
 -1       877 9.41671E-05-2.68949E-05-2.88309E-05 2.07840E-06 8.88767E-19-8.94826E-19
 -1       878 9.38185E-05-2.65044E-05-2.88489E-05 2.61680E-06 6.85149E-19-1.16168E-18
 -1       879 9.34368E-05-2.61293E-05-2.88460E-05 3.27845E-06 4.81332E-19-9.52255E-19
 -1       880 9.30469E-05-2.58195E-05-2.88117E-05 4.07496E-06-9.02037E-19-9.40793E-19
 -1       881 9.26984E-05-2.56536E-05-2.87334E-05 5.01788E-06-5.94629E-19-1.96696E-19
 -1       882 9.24780E-05-2.57490E-05-2.85981E-05 6.11838E-06 4.22031E-20-3.15966E-19
 -1       883 9.25292E-05-2.62739E-05-2.83950E-05 7.38433E-06 7.00064E-19-3.08865E-19
 -1       884 9.30767E-05-2.74580E-05-2.81219E-05 8.80960E-06 1.21896E-18-4.65214E-19
 -1       885 9.44608E-05-2.95985E-05-2.77975E-05 1.03468E-05 1.38040E-18-9.07148E-19
 -1       886 9.71965E-05-3.30568E-05-2.74857E-05 1.18056E-05-5.10154E-20-1.10966E-18
 -1       887 1.01827E-04-3.80302E-05-2.73350E-05 1.27290E-05-4.85647E-19-1.05605E-18
 -1       888 1.09007E-04-4.44489E-05-2.76416E-05 1.20650E-05 2.65704E-19-1.18614E-18
 -1       889 8.83304E-05-2.78640E-05-2.59002E-05-1.82609E-05 5.36883E-19-4.75639E-19
 -1       890 1.12560E-04-4.68799E-05-2.81266E-05-1.44176E-05 8.61919E-19-2.21441E-19
 -1       891 1.04940E-04-3.98866E-05-2.78769E-05-1.57143E-05 1.22481E-18-5.54990E-19
 -1       892 9.57911E-05-2.55810E-05-3.00899E-05-1.17502E-06-5.49367E-19-1.33502E-18
 -1       893 9.55807E-05-2.88175E-05-2.86128E-05-8.36533E-07 8.24881E-20 3.04728E-19
 -1       894 9.56964E-05-2.89296E-05-2.86143E-05-8.75285E-07 4.23990E-19 2.93339E-19
 -1       895 9.53427E-05-2.84899E-05-2.86512E-05-8.61257E-07 9.66712E-20-1.18705E-19
 -1       896 9.52085E-05-2.82746E-05-2.86860E-05-9.51640E-07-2.16612E-19 1.19161E-19
 -1       897 9.50525E-05-2.80194E-05-2.87285E-05-1.11023E-06-4.61448E-19-3.52993E-19
 -1       898 9.48629E-05-2.77171E-05-2.87768E-05-1.34888E-06-1.06657E-18 1.05917E-19
 -1       899 9.46254E-05-2.73595E-05-2.88282E-05-1.67959E-06-4.59677E-19 2.19968E-19
 -1       900 9.43227E-05-2.69383E-05-2.88790E-05-2.11438E-06-4.27237E-19-1.02937E-19
 -1       901 9.39351E-05-2.64474E-05-2.89233E-05-2.66495E-06 1.71496E-19-1.77220E-19
 -1       902 9.34407E-05-2.58857E-05-2.89521E-05-3.34237E-06 5.28727E-19 4.27515E-21
 -1       903 9.28174E-05-2.52620E-05-2.89522E-05-4.15733E-06 7.08577E-19 1.99314E-19
 -1       904 9.20477E-05-2.46032E-05-2.89047E-05-5.12195E-06 4.18319E-19 5.00071E-19
 -1       905 9.11266E-05-2.39659E-05-2.87830E-05-6.25482E-06-3.21446E-19 2.36795E-20
 -1       906 9.00781E-05-2.34565E-05-2.85519E-05-7.59155E-06-3.63008E-19-3.22404E-21
 -1       907 8.89838E-05-2.32588E-05-2.81674E-05-9.20281E-06-2.16398E-19-3.33945E-19
 -1       908 8.80260E-05-2.36707E-05-2.75790E-05-1.12192E-05 5.75845E-20-1.64121E-18
 -1       909 8.75512E-05-2.51590E-05-2.67354E-05-1.38910E-05 3.82566E-19-1.32060E-18
 -1       910 8.84620E-05-2.86632E-05-2.56339E-05-1.76709E-05-9.45460E-19-1.44912E-18
 -1       911 9.22671E-05-3.51513E-05-2.43877E-05-2.23394E-05-6.23165E-20-9.36707E-19
 -1       912 9.33886E-05-3.36999E-05-2.55589E-05 2.30275E-05-1.71679E-18-1.59023E-18
 -1       913 7.87412E-05-2.13689E-05-2.45718E-05-1.39796E-05 1.31884E-19-5.11133E-18
 -1       914 9.62007E-05-2.78626E-05-2.92880E-05-2.74015E-07 5.99684E-19-6.02744E-19
 -1       915 6.49458E-05-2.04744E-05-1.88871E-05-2.01437E-05 7.00711E-19-3.65454E-18
 -1       916 8.59978E-05-3.38447E-05-2.22546E-05 2.52539E-05 5.64640E-19-3.57875E-19
 -1       917 5.61443E-05-1.32437E-05-1.82713E-05 8.74570E-07 7.05012E-19-1.27546E-18
 -1       918 1.21671E-04-5.15920E-05-3.00433E-05-7.26954E-06 1.64197E-18-1.31343E-19
 -1       919 9.60661E-05-2.69591E-05-2.96174E-05 4.00215E-07 4.76900E-19-5.80850E-19
 -1       920 9.33505E-05-2.00320E-05-3.14230E-05-1.02768E-06 2.50278E-19-1.89094E-18
 -1       921 9.60463E-05-2.89484E-05-2.87562E-05-9.66191E-07 2.92104E-19-2.30806E-19
 -1       922 8.69888E-05-3.16504E-05-2.36351E-05 2.50507E-05-1.88689E-18-3.80291E-19
 -1       923 9.62036E-05-2.69904E-05-2.96628E-05-2.94403E-07-5.22679E-19-1.32768E-18
 -1       924 6.53196E-05-1.82177E-05-2.00702E-05-1.54189E-05-2.67899E-19-2.13470E-18
 -1       925 9.54643E-05-2.86702E-05-2.86261E-05-8.27099E-07 4.98578E-19 3.56773E-19
 -1       926 1.08864E-04-4.74921E-05-2.63036E-05-2.16261E-05 1.15247E-18 1.08318E-19
 -1       927 1.04976E-04-4.50109E-05-2.56606E-05 1.97636E-05-2.03888E-19-2.64308E-18
 -1       928 9.68569E-05-3.31756E-05-2.72878E-05-1.76408E-05 1.07804E-18 9.31921E-19
 -1       929 1.19064E-04-5.03686E-05-2.94391E-05 6.32138E-06-6.32916E-19-2.13412E-18
 -1       930 7.07552E-05-2.11245E-05-2.11613E-05 1.85013E-05-2.20572E-18 1.58674E-18
 -1       931 6.69961E-05-1.68639E-05-2.13871E-05 1.00565E-05-1.94301E-18 2.41596E-19
 -1       932 6.35460E-05-1.60666E-05-2.02887E-05 1.00490E-05 1.88815E-18-1.32382E-19
 -1       933 1.01766E-04-3.56013E-05-2.83500E-05-1.44409E-05 8.40822E-19-9.02405E-19
 -1       934 9.58139E-05-2.89994E-05-2.86348E-05-9.25863E-07 2.54786E-19 2.69566E-19
 -1       935 8.90179E-05-2.78180E-05-2.62186E-05 1.97957E-05-1.94004E-18-1.16074E-18
 -1       936 9.45571E-05-2.22794E-05-3.09761E-05 4.30018E-07 5.89700E-19-1.59447E-18
 -1       937 9.53741E-05-2.47076E-05-3.02865E-05 2.33228E-06 1.06888E-18-7.16135E-19
 -1       938 9.62082E-05-2.84330E-05-2.90465E-05-6.78466E-07 3.59292E-19-5.91528E-19
 -1       939 9.96831E-05-4.06898E-05-2.51621E-05-2.39448E-05 1.15426E-18 8.73597E-19
 -1       940 7.95086E-05-2.10265E-05-2.50330E-05 1.53440E-05-1.16615E-18 2.35328E-18
 -1       941 7.28140E-05-1.70596E-05-2.38461E-05-4.70096E-06-6.68175E-19-5.25620E-18
 -1       942 7.29877E-05-1.69523E-05-2.39891E-05 6.70229E-06-1.07948E-18-1.38970E-18
 -1       943 9.61450E-05-2.87713E-05-2.88744E-05-8.87440E-07 2.58478E-19-5.44852E-19
 -1       944 9.57074E-05-2.55783E-05-3.00567E-05 1.43630E-06 7.47987E-19-6.65073E-19
 -1       945 9.59322E-05-2.90132E-05-2.86796E-05-9.65988E-07 2.12192E-19 1.42556E-19
 -1       946 9.51658E-05-2.38675E-05-3.05566E-05-2.00075E-06-1.22812E-19-1.79225E-18
 -1       947 9.47077E-05-2.26199E-05-3.08949E-05 1.24449E-06 7.07910E-19-1.16043E-18
 -1       948 9.48974E-05-2.30853E-05-3.07764E-05-1.47865E-06 2.35067E-20-1.77885E-18
 -1       949 9.66945E-05-2.86958E-05-2.91423E-05 5.34105E-07-2.25239E-19-1.32026E-18
 -1       950 9.66070E-05-2.90105E-05-2.89699E-05 6.43058E-07-2.15052E-19-1.03268E-18
 -1       951 9.64599E-05-2.91505E-05-2.88469E-05 6.79069E-07-2.97730E-19-1.11028E-18
 -1       952 9.62812E-05-2.91670E-05-2.87632E-05 6.73066E-07-5.01326E-19-1.26824E-18
 -1       953 9.60871E-05-2.90954E-05-2.87107E-05 6.49314E-07-6.03197E-19-1.48946E-18
 -1       954 9.58847E-05-2.89588E-05-2.86825E-05 6.26849E-07-1.21798E-19-9.41307E-19
 -1       955 9.56755E-05-2.87715E-05-2.86731E-05 6.20275E-07 7.19550E-21-1.12828E-18
 -1       956 9.54551E-05-2.85398E-05-2.86780E-05 6.41658E-07-3.87699E-19-9.04004E-19
 -1       957 9.52159E-05-2.82655E-05-2.86930E-05 7.01526E-07-5.06988E-19-2.28341E-19
 -1       958 9.49473E-05-2.79468E-05-2.87146E-05 8.09687E-07-5.64543E-19-1.59410E-19
 -1       959 9.46371E-05-2.75805E-05-2.87386E-05 9.76383E-07 5.97397E-19-3.35870E-20
 -1       960 9.42722E-05-2.71644E-05-2.87605E-05 1.21248E-06 4.10906E-19-3.34221E-19
 -1       961 9.38399E-05-2.66994E-05-2.87746E-05 1.53018E-06 4.77393E-19 1.10752E-19
 -1       962 9.33305E-05-2.61930E-05-2.87733E-05 1.94372E-06 5.28331E-19 3.99485E-19
 -1       963 9.27392E-05-2.56630E-05-2.87470E-05 2.47024E-06 3.25048E-19-7.52422E-19
 -1       964 9.20709E-05-2.51429E-05-2.86836E-05 3.13136E-06-1.40187E-19-1.27658E-18
 -1       965 9.13458E-05-2.46884E-05-2.85677E-05 3.95577E-06-7.81568E-19-6.19666E-19
 -1       966 9.06081E-05-2.43851E-05-2.83815E-05 4.98331E-06 6.95622E-19-5.54142E-19
 -1       967 8.99388E-05-2.43601E-05-2.81054E-05 6.27047E-06 3.15909E-19 4.86442E-19
 -1       968 8.94781E-05-2.47967E-05-2.77209E-05 7.89528E-06-1.64946E-19-8.62952E-19
 -1       969 8.94603E-05-2.59541E-05-2.72162E-05 9.95134E-06 4.76741E-19-2.59374E-18
 -1       970 9.02350E-05-2.81693E-05-2.65980E-05 1.25478E-05 8.68172E-19-3.54793E-18
 -1       971 9.25973E-05-3.21324E-05-2.59346E-05 1.57728E-05-3.30002E-20-3.57826E-18
 -1       972 9.73529E-05-3.76580E-05-2.55525E-05 1.84612E-05-7.65126E-19-2.75019E-18
 -1       973 9.50314E-05-2.80328E-05-2.87137E-05-8.73496E-07 9.29304E-20 3.34753E-20
 -1       974 9.52682E-05-2.83327E-05-2.86866E-05-7.69254E-07-8.52788E-20 5.83086E-19
 -1       975 9.44098E-05-2.72605E-05-2.87783E-05-1.26862E-06-5.13959E-19-5.71456E-19
 -1       976 9.39847E-05-2.67688E-05-2.88069E-05-1.57610E-06 1.42981E-19-9.94952E-19
 -1       977 9.34506E-05-2.61940E-05-2.88243E-05-1.96665E-06-3.39068E-19-7.15392E-19
 -1       978 9.27780E-05-2.55302E-05-2.88205E-05-2.44633E-06-2.46601E-20-9.36476E-19
 -1       979 9.19341E-05-2.47772E-05-2.87816E-05-3.02051E-06 3.25115E-20-9.29110E-19
 -1       980 9.08834E-05-2.39457E-05-2.86876E-05-3.69576E-06 5.39699E-19-3.14712E-19
 -1       981 8.95890E-05-2.30628E-05-2.85114E-05-4.48513E-06-2.11898E-19-5.04653E-21
 -1       982 8.80158E-05-2.21804E-05-2.82154E-05-5.41956E-06 5.40885E-19-4.36796E-19
 -1       983 8.61350E-05-2.13878E-05-2.77492E-05-6.56907E-06 5.39507E-19-1.43488E-18
 -1       984 8.39294E-05-2.08278E-05-2.70450E-05-8.08286E-06 3.63324E-20-1.19075E-18
 -1       985 8.14217E-05-2.07394E-05-2.60084E-05-1.02776E-05-4.50915E-19-7.71577E-19
 -1       986 7.88799E-05-2.15271E-05-2.45543E-05-1.36211E-05 2.54210E-19-1.52683E-18
 -1       987 9.65056E-05-2.72516E-05-2.96816E-05-7.16478E-08-3.12969E-19-8.50456E-19
 -1       988 8.17807E-05-2.77210E-05-2.31192E-05-2.26583E-05 1.75056E-18-1.28212E-18
 -1       989 9.57047E-05-2.49311E-05-3.03311E-05-9.59162E-07-7.12000E-20-1.71878E-18
 -1       990 6.55648E-05-1.62264E-05-2.10878E-05-7.53965E-06-3.92924E-19-4.07276E-18
 -1       991 9.59841E-05-2.57913E-05-3.00817E-05 8.67840E-07 5.51507E-19-9.33393E-19
 -1       992 6.60261E-05-1.52576E-05-2.16914E-05-5.08407E-06 2.50847E-19-6.53086E-19
 -1       993 9.93788E-05-3.81343E-05-2.62231E-05-2.09886E-05 1.47370E-18 7.03481E-19
 -1       994 9.49277E-05-2.32576E-05-3.07150E-05 2.17855E-06 8.87156E-19-1.07436E-18
 -1       995 9.46691E-05-2.24989E-05-3.09300E-05-3.01812E-07 4.20266E-19-1.73727E-18
 -1       996 9.61924E-05-2.62374E-05-2.99802E-05-4.63046E-07-2.63382E-19-1.19631E-18
 -1       997 9.47514E-05-2.76785E-05-2.87455E-05-1.03709E-06-8.01640E-19-2.27032E-19
 -1       998 9.66791E-05-2.81361E-05-2.93755E-05 3.12630E-07-1.19980E-19-1.19465E-18
 -1       999 9.63803E-05-2.71298E-05-2.96785E-05 1.44882E-07 4.82024E-19-1.02976E-18
 -1      1000 7.67946E-05-2.46238E-05-2.23060E-05 1.90979E-05 1.29716E-18-2.60714E-19
 -1      1001 9.58511E-05-2.89616E-05-2.86669E-05-7.16284E-07 3.92077E-19-5.15759E-20
 -1      1002 9.56143E-05-2.44740E-05-3.04891E-05 4.95054E-07 6.06018E-19-1.22775E-18
 -1      1003 9.54766E-05-2.85855E-05-2.86676E-05-7.15147E-07 4.37424E-19 8.91745E-19
 -1      1004 9.65584E-05-2.80436E-05-2.93629E-05-3.19281E-07 3.12106E-19-7.55756E-19
 -1      1005 9.63607E-05-2.90986E-05-2.88266E-05-7.80656E-07 1.03024E-19-5.86325E-19
 -1      1006 9.56829E-05-2.45530E-05-3.04828E-05 6.40066E-08 5.62432E-19-1.37355E-18
 -1      1007 9.64921E-05-2.89441E-05-2.89490E-05-7.32840E-07 1.01282E-19-6.10096E-19
 -1      1008 9.56682E-05-2.87952E-05-2.86598E-05-7.01174E-07 2.52231E-19 3.40101E-19
 -1      1009 9.60290E-05-2.90781E-05-2.86932E-05-7.46761E-07 3.42286E-19-9.75195E-20
 -1      1010 9.47460E-05-2.26909E-05-3.08806E-05-9.20757E-07 1.10771E-19-1.71252E-18
 -1      1011 9.67553E-05-2.91443E-05-2.89762E-05 4.22605E-07-3.47422E-19-1.08609E-18
 -1      1012 9.65741E-05-2.92341E-05-2.88601E-05 4.35765E-07-4.90805E-19-1.34167E-18
 -1      1013 9.63590E-05-2.92037E-05-2.87809E-05 4.28823E-07-4.64116E-19-1.17444E-18
 -1      1014 9.61257E-05-2.90864E-05-2.87311E-05 4.15513E-07 1.05562E-19-8.41466E-19
 -1      1015 9.58799E-05-2.89032E-05-2.87043E-05 4.08247E-07-2.24156E-19-8.05275E-19
 -1      1016 9.56204E-05-2.86654E-05-2.86950E-05 4.14777E-07 1.03629E-19-9.82545E-19
 -1      1017 9.53399E-05-2.83771E-05-2.86984E-05 4.43880E-07 2.64031E-20-6.81494E-19
 -1      1018 9.50284E-05-2.80386E-05-2.87100E-05 5.02381E-07-4.24740E-19-2.77211E-19
 -1      1019 9.46701E-05-2.76446E-05-2.87254E-05 5.98564E-07-5.10263E-20 3.42033E-19
 -1      1020 9.42494E-05-2.71914E-05-2.87393E-05 7.40723E-07 4.75083E-19-1.69205E-19
 -1      1021 9.37478E-05-2.66751E-05-2.87457E-05 9.39189E-07 4.03691E-19-6.24983E-19
 -1      1022 9.31473E-05-2.60958E-05-2.87366E-05 1.20700E-06 7.21514E-19-8.60700E-19
 -1      1023 9.24313E-05-2.54606E-05-2.87020E-05 1.56109E-06 5.42318E-20-7.10694E-19
 -1      1024 9.15870E-05-2.47871E-05-2.86289E-05 2.02432E-06-1.11816E-19 2.10650E-19
 -1      1025 9.06080E-05-2.41078E-05-2.85005E-05 2.62863E-06 3.26417E-19-9.44315E-19
 -1      1026 8.94976E-05-2.34751E-05-2.82960E-05 3.42013E-06 2.97689E-19 1.03770E-18
 -1      1027 8.82732E-05-2.29668E-05-2.79893E-05 4.46710E-06 3.49096E-19 2.50638E-19
 -1      1028 8.69732E-05-2.26945E-05-2.75494E-05 5.87259E-06 4.49938E-20-1.96579E-19
 -1      1029 8.56703E-05-2.28183E-05-2.69395E-05 7.79642E-06-1.13733E-18 6.49762E-19
 -1      1030 8.45290E-05-2.36023E-05-2.61167E-05 1.04901E-05-3.41786E-19-4.29265E-19
 -1      1031 8.39607E-05-2.54341E-05-2.50715E-05 1.42526E-05 4.65477E-20-2.51295E-18
 -1      1032 9.68948E-05-2.83970E-05-2.93561E-05 2.61092E-07-1.24025E-19-1.10226E-18
 -1      1033 9.47717E-05-2.77405E-05-2.87277E-05-6.90255E-07-1.04385E-19 1.05611E-19
 -1      1034 9.25335E-05-2.54538E-05-2.87487E-05-1.51986E-06-2.31218E-19-1.62978E-18
 -1      1035 9.51050E-05-2.81201E-05-2.87079E-05-5.96631E-07 2.40137E-19-2.83690E-19
 -1      1036 9.58900E-05-2.89301E-05-2.86971E-05-5.13738E-07 2.12427E-19 6.15647E-19
 -1      1037 7.32464E-05-1.90898E-05-2.31874E-05 1.05720E-05 7.32065E-19 2.13298E-19
 -1      1038 9.32840E-05-2.61601E-05-2.87676E-05-1.23968E-06 8.35345E-20-8.83340E-19
 -1      1039 9.38867E-05-2.67708E-05-2.87641E-05-1.00860E-06-5.92845E-20-6.00300E-19
 -1      1040 9.15990E-05-2.46476E-05-2.86937E-05-1.84729E-06 3.69033E-20-8.78887E-19
 -1      1041 9.04383E-05-2.37437E-05-2.85838E-05-2.21838E-06-8.90339E-19-6.56141E-19
 -1      1042 8.90020E-05-2.27530E-05-2.83930E-05-2.63025E-06-4.11591E-19 6.43126E-19
 -1      1043 8.72283E-05-2.16967E-05-2.80857E-05-3.08673E-06 3.11653E-19 9.54952E-20
 -1      1044 8.50330E-05-2.06062E-05-2.76127E-05-3.61171E-06 4.72418E-19-1.91105E-19
 -1      1045 8.22973E-05-1.95270E-05-2.69037E-05-4.27699E-06-1.23160E-19 8.26734E-19
 -1      1046 7.88400E-05-1.85168E-05-2.58547E-05-5.21128E-06-3.44631E-20-5.05713E-20
 -1      1047 7.36046E-05-1.71008E-05-2.42031E-05-5.27224E-06 1.02555E-18-1.28066E-18
 -1      1048 9.56311E-05-2.45774E-05-3.04514E-05-6.53659E-07-8.12581E-20-1.64320E-18
 -1      1049 9.62013E-05-2.91315E-05-2.87441E-05-7.75584E-07 1.64592E-19-3.40783E-19
 -1      1050 9.65734E-05-2.86182E-05-2.91233E-05-5.94812E-07 4.36992E-19-6.84747E-19
 -1      1051 9.43734E-05-2.72942E-05-2.87483E-05-8.26237E-07-3.23198E-19-6.94049E-19
 -1      1052 9.67569E-05-2.76077E-05-2.96366E-05 5.53340E-08-3.55126E-19-1.22991E-18
 -1      1053 7.05790E-05-1.61704E-05-2.33125E-05 2.51539E-06 7.61784E-19 8.03570E-19
 -1      1054 9.63823E-05-2.62752E-05-3.00462E-05 1.95450E-07 3.44341E-19-1.26981E-18
 -1      1055 9.68758E-05-2.88873E-05-2.91381E-05 3.70791E-07-2.44589E-19-1.01666E-18
 -1      1056 9.61177E-05-2.90947E-05-2.87242E-05-5.28142E-07 3.24418E-19 2.29486E-20
 -1      1057 9.53925E-05-2.84413E-05-2.86934E-05-5.40304E-07 5.18026E-19 3.79989E-19
 -1      1058 9.56506E-05-2.87109E-05-2.86884E-05-5.15374E-07 3.35905E-19 5.07082E-19
 -1      1059 9.62172E-05-2.59803E-05-3.00996E-05-3.45906E-07 6.09853E-20-1.44168E-18
 -1      1060 9.68039E-05-2.75487E-05-2.96818E-05-2.70191E-08 1.72618E-19-1.32765E-18
 -1      1061 9.66999E-05-2.90925E-05-2.89746E-05-5.32411E-07-1.71831E-19-7.78317E-19
 -1      1062 9.56348E-05-2.44951E-05-3.04896E-05-2.94493E-07 1.73012E-19-1.39484E-18
 -1      1063 9.65342E-05-2.92041E-05-2.88558E-05-5.53385E-07-2.77542E-19-3.15204E-19
 -1      1064 9.65744E-05-2.92649E-05-2.88467E-05 1.69454E-07-4.74933E-19-9.76564E-19
 -1      1065 9.63268E-05-2.91822E-05-2.87764E-05 1.66041E-07 2.05436E-20-1.11620E-18
 -1      1066 9.60698E-05-2.90253E-05-2.87333E-05 1.61692E-07 5.27412E-20-9.45320E-19
 -1      1067 9.57918E-05-2.87982E-05-2.87117E-05 1.62361E-07 2.43126E-19-9.15454E-19
 -1      1068 9.54966E-05-2.85185E-05-2.87049E-05 1.71276E-07 3.20866E-19-6.16215E-19
 -1      1069 9.51710E-05-2.81822E-05-2.87092E-05 1.93452E-07 4.96437E-19-2.28714E-19
 -1      1070 9.47961E-05-2.77843E-05-2.87192E-05 2.31256E-07-8.90862E-20 3.37844E-19
 -1      1071 9.43603E-05-2.73246E-05-2.87295E-05 2.89597E-07 1.08263E-19 3.02349E-19
 -1      1072 9.38402E-05-2.67936E-05-2.87341E-05 3.76312E-07 6.35722E-20 4.02960E-19
 -1      1073 9.32126E-05-2.61862E-05-2.87253E-05 5.00525E-07 3.45771E-20 2.33846E-19
 -1      1074 9.24530E-05-2.55010E-05-2.86934E-05 6.75336E-07 4.17264E-19-3.15091E-20
 -1      1075 9.15362E-05-2.47428E-05-2.86253E-05 9.19388E-07 2.55022E-19-4.29893E-19
 -1      1076 9.04370E-05-2.39257E-05-2.85042E-05 1.25941E-06-1.92949E-19-2.37002E-19
 -1      1077 8.91301E-05-2.30754E-05-2.83082E-05 1.73405E-06 4.01534E-19-9.66375E-19
 -1      1078 8.75878E-05-2.22312E-05-2.80087E-05 2.39974E-06 2.93063E-19-1.77725E-18
 -1      1079 8.57766E-05-2.14467E-05-2.75684E-05 3.33963E-06 7.57391E-20-1.33390E-18
 -1      1080 8.36514E-05-2.07933E-05-2.69381E-05 4.67791E-06 8.43728E-20-1.77541E-18
 -1      1081 8.11616E-05-2.03706E-05-2.60502E-05 6.59892E-06-7.93962E-19-7.26949E-19
 -1      1082 7.77666E-05-1.97241E-05-2.48630E-05 8.35672E-06-1.04874E-18-1.29056E-19
 -1      1083 9.69447E-05-2.80102E-05-2.95434E-05 6.43264E-08 7.79109E-20-7.25412E-19
 -1      1084 9.44693E-05-2.74285E-05-2.87318E-05-3.95686E-07 8.14051E-20-6.68579E-19
 -1      1085 9.16790E-05-2.48004E-05-2.86626E-05-7.59485E-07-3.16697E-19-7.02523E-19
 -1      1086 9.33581E-05-2.62989E-05-2.87398E-05-5.55761E-07 1.81401E-19-5.63048E-19
 -1      1087 8.91343E-05-2.29190E-05-2.83787E-05-9.22370E-07-8.31266E-19-9.09142E-19
 -1      1088 8.74112E-05-2.18565E-05-2.80959E-05-9.41106E-07-1.98521E-19-9.20398E-19
 -1      1089 8.52857E-05-2.07346E-05-2.76663E-05-8.83519E-07 6.87877E-19-1.08524E-18
 -1      1090 8.26288E-05-1.95630E-05-2.70299E-05-7.19186E-07 3.83470E-19-1.30132E-18
 -1      1091 7.91920E-05-1.83081E-05-2.60930E-05-4.35892E-07 1.82328E-19-1.78002E-18
 -1      1092 7.53740E-05-1.72235E-05-2.49200E-05 6.97695E-07-3.45102E-19-5.17987E-19
 -1      1093 9.62672E-05-2.59411E-05-3.01401E-05-1.65687E-07 1.94537E-19-1.29405E-18
 -1      1094 9.68127E-05-2.88168E-05-2.91421E-05-4.55177E-07 3.73054E-19-9.72262E-19
 -1      1095 9.70075E-05-2.86609E-05-2.92916E-05 1.22691E-07-4.34165E-20-8.83211E-19
 -1      1096 9.63347E-05-2.91933E-05-2.87749E-05-5.45546E-07 4.87545E-20-2.00666E-19
 -1      1097 9.26062E-05-2.55986E-05-2.87177E-05-6.55780E-07 7.22917E-20-4.93234E-19
 -1      1098 9.69428E-05-2.90503E-05-2.90966E-05 1.54593E-07-4.43738E-19-7.55180E-19
 -1      1099 9.39690E-05-2.69062E-05-2.87413E-05-4.67554E-07-2.05726E-19-4.86090E-19
 -1      1100 9.64797E-05-2.64464E-05-3.00148E-05-1.01489E-08 2.32256E-19-1.10825E-18
 -1      1101 9.48869E-05-2.78775E-05-2.87184E-05-3.39509E-07 2.17358E-19-3.42002E-19
 -1      1102 9.05372E-05-2.39048E-05-2.85572E-05-8.54252E-07-5.47320E-19-7.69995E-19
 -1      1103 9.67859E-05-2.92340E-05-2.89506E-05 1.67731E-07-8.53525E-19-7.88827E-19
 -1      1104 9.60954E-05-2.90511E-05-2.87333E-05-2.83359E-07 1.41084E-20 4.91545E-20
 -1      1105 9.52415E-05-2.82574E-05-2.87071E-05-3.05138E-07 9.37092E-19-1.76649E-19
 -1      1106 9.58378E-05-2.88480E-05-2.87102E-05-2.78870E-07 3.86006E-19 2.41186E-19
 -1      1107 9.69309E-05-2.89912E-05-2.91169E-05-2.56114E-07-2.41155E-19-6.67469E-19
 -1      1108 9.68946E-05-2.83262E-05-2.93868E-05-2.33166E-07 2.53373E-19-1.03854E-18
 -1      1109 9.67873E-05-2.92041E-05-2.89643E-05-2.89648E-07-3.71106E-19-4.82453E-19
 -1      1110 9.62115E-05-2.91179E-05-2.87538E-05-1.01290E-07 1.23184E-19-4.17336E-19
 -1      1111 9.53356E-05-2.83532E-05-2.87071E-05-1.02983E-07 6.46066E-19-3.66352E-19
 -1      1112 9.63553E-05-2.92011E-05-2.87807E-05-2.90472E-07-1.55758E-19-2.27689E-19
 -1      1113 9.70017E-05-2.83547E-05-2.94199E-05-5.20641E-08-8.42284E-20-1.26674E-18
 -1      1114 9.55516E-05-2.85791E-05-2.87025E-05-2.85164E-07 4.17511E-19-3.83736E-19
 -1      1115 9.65875E-05-2.92596E-05-2.88549E-05-2.96516E-07-6.08535E-19-3.03483E-19
 -1      1116 9.56509E-05-2.86645E-05-2.87083E-05-1.00146E-07 5.34587E-19 3.44779E-22
 -1      1117 9.68814E-05-2.77288E-05-2.96333E-05 2.08062E-08 3.72370E-19-1.29815E-18
 -1      1118 1.16853E-04 2.57559E-10-4.18543E-05-4.14670E-05-2.63427E-19 4.45688E-18
 -1      1119 8.86469E-05 7.19093E-11-3.72498E-05-2.41710E-05-1.07150E-19-8.31151E-19
 -1      1120 8.40753E-05 4.14495E-11-3.57657E-05-1.78825E-05-6.42157E-20-2.78519E-18
 -1      1121 8.23326E-05 3.20284E-11-3.50722E-05-1.38402E-05-3.66606E-20-3.58218E-18
 -1      1122 8.15310E-05 2.73297E-11-3.47384E-05-1.05378E-05-2.29228E-20-3.83996E-18
 -1      1123 8.11309E-05 2.46172E-11-3.45737E-05-7.64450E-06-7.27919E-21-3.79502E-18
 -1      1124 8.09236E-05 2.29628E-11-3.44911E-05-4.98228E-06 5.21455E-21-3.73291E-18
 -1      1125 8.08224E-05 2.20684E-11-3.44522E-05-2.43332E-06 1.47834E-20-3.58755E-18
 -1      1126 8.07936E-05 2.17979E-11-3.44413E-05 5.26421E-08 1.57867E-20-3.41822E-18
 -1      1127 8.08266E-05 2.21117E-11-3.44536E-05 2.54106E-06 3.21691E-20-3.27265E-18
 -1      1128 8.09322E-05 2.30604E-11-3.44940E-05 5.09810E-06 2.99605E-20-3.03158E-18
 -1      1129 8.11467E-05 2.47748E-11-3.45781E-05 7.77611E-06 4.16303E-20-2.57169E-18
 -1      1130 8.15538E-05 2.76447E-11-3.47448E-05 1.06975E-05 5.91997E-20-1.97374E-18
 -1      1131 8.23566E-05 3.24996E-11-3.50821E-05 1.40471E-05 6.88744E-20-1.05365E-18
 -1      1132 8.40708E-05 4.19199E-11-3.57856E-05 1.81334E-05 8.97855E-20 4.92444E-19
 -1      1133 8.83449E-05 6.67349E-11-3.73200E-05 2.40135E-05 8.53386E-20 3.24255E-18
 -1      1134 1.06617E-04 1.63913E-10-4.06331E-05 3.61939E-05 1.32984E-19 8.42311E-18
 -1      1135 1.30220E-04-2.57558E-05-4.02727E-05-2.61068E-05-9.37030E-19 7.65506E-18
 -1      1136 9.74519E-05-2.88611E-05-3.15762E-05-6.80668E-07-3.03529E-19 5.48983E-18
 -1      1137 9.01517E-05-2.70242E-05-2.78907E-05 3.87060E-07-1.07044E-19 2.63886E-18
 -1      1138 8.82378E-05-2.65689E-05-2.66402E-05 2.50694E-07-8.77936E-20 7.37898E-19
 -1      1139 8.78747E-05-2.64409E-05-2.63826E-05 1.65612E-07-3.82952E-20-4.89823E-19
 -1      1140 8.82289E-05-2.65160E-05-2.64660E-05 1.17951E-07-8.71865E-20-1.42354E-18
 -1      1141 8.89101E-05-2.66989E-05-2.66671E-05 8.72584E-08-3.13245E-20-1.80932E-18
 -1      1142 8.97184E-05-2.69289E-05-2.69077E-05 6.59082E-08 1.25293E-20-2.51427E-18
 -1      1143 9.05439E-05-2.71693E-05-2.71538E-05 5.00930E-08 4.93332E-20-2.67928E-18
 -1      1144 9.13251E-05-2.73995E-05-2.73874E-05 3.78882E-08-6.64916E-20-3.61850E-18
 -1      1145 9.20298E-05-2.76086E-05-2.75989E-05 2.82644E-08 3.42325E-20-4.78731E-18
 -1      1146 9.26447E-05-2.77919E-05-2.77840E-05 2.06181E-08 1.33026E-19-4.23254E-18
 -1      1147 9.31691E-05-2.79488E-05-2.79425E-05 1.45522E-08 1.47043E-20-4.40231E-18
 -1      1148 9.36105E-05-2.80813E-05-2.80764E-05 9.78414E-09 1.22914E-20-4.42976E-18
 -1      1149 9.39827E-05-2.81935E-05-2.81898E-05 6.10859E-09-6.22590E-20-3.55565E-18
 -1      1150 9.43034E-05-2.82905E-05-2.82879E-05 3.38361E-09-2.15583E-19-4.55332E-18
 -1      1151 9.45940E-05-2.83788E-05-2.83772E-05 1.52854E-09-5.90581E-20-5.27596E-18
 -1      1152 9.48792E-05-2.84656E-05-2.84652E-05 5.27392E-10-1.38172E-19-4.66134E-18
 -1      1153 9.51871E-05-2.85594E-05-2.85602E-05 4.35195E-10-1.78933E-19-4.91894E-18
 -1      1154 9.55495E-05-2.86698E-05-2.86721E-05 1.38515E-09 9.42463E-20-5.28828E-18
 -1      1155 9.60028E-05-2.88076E-05-2.88115E-05 3.59403E-09 3.10557E-20-4.35070E-18
 -1      1156 9.65872E-05-2.89848E-05-2.89908E-05 7.36110E-09-1.40929E-19-4.05854E-18
 -1      1157 9.73467E-05-2.92143E-05-2.92227E-05 1.30518E-08 6.63945E-20-3.79584E-18
 -1      1158 9.83263E-05-2.95095E-05-2.95206E-05 2.10493E-08 5.24007E-20-3.90627E-18
 -1      1159 9.95676E-05-2.98825E-05-2.98962E-05 3.16452E-08-4.16444E-21-3.68572E-18
 -1      1160 1.01100E-04-3.03415E-05-3.03571E-05 4.48203E-08 2.09968E-19-3.13411E-18
 -1      1161 1.02927E-04-3.08868E-05-3.09022E-05 5.98479E-08 7.81934E-20-2.44182E-18
 -1      1162 1.05004E-04-3.15041E-05-3.15150E-05 7.46431E-08-3.78574E-19-4.08340E-18
 -1      1163 1.07206E-04-3.21554E-05-3.21545E-05 8.48370E-08 2.23385E-19-3.80261E-18
 -1      1164 1.09295E-04-3.27689E-05-3.27456E-05 8.27704E-08 1.52972E-19-2.59489E-18
 -1      1165 1.10887E-04-3.32297E-05-3.31718E-05 5.71164E-08-2.31200E-19-1.42163E-18
 -1      1166 1.11446E-04-3.33802E-05-3.32794E-05-5.25969E-09 2.92974E-19-3.23883E-18
 -1      1167 1.10365E-04-3.30427E-05-3.29048E-05-1.12810E-07 1.23594E-19-3.87398E-18
 -1      1168 1.07150E-04-3.20780E-05-3.19331E-05-2.56975E-07-1.48575E-19-5.03156E-18
 -1      1169 1.01756E-04-3.04806E-05-3.03843E-05-3.98929E-07 3.41444E-19-4.81877E-18
 -1      1170 9.49137E-05-2.84737E-05-2.84873E-05-4.70081E-07 3.27485E-20-2.53485E-18
 -1      1171 8.82211E-05-2.65251E-05-2.66763E-05-4.02871E-07 2.35316E-20-4.64010E-18
 -1      1172 8.36869E-05-2.52103E-05-2.54631E-05-1.85154E-07 2.39240E-19-3.60698E-18
 -1      1173 8.28083E-05-2.49511E-05-2.52138E-05 1.07122E-07-6.43017E-20-2.92674E-18
 -1      1174 8.57302E-05-2.57882E-05-2.59626E-05 3.47701E-07 6.54829E-20-3.09723E-18
 -1      1175 9.11510E-05-2.73546E-05-2.73904E-05 4.44679E-07 8.18909E-23-2.00895E-18
 -1      1176 9.70482E-05-2.90732E-05-2.89863E-05 3.91235E-07-1.94550E-19-3.39909E-18
 -1      1177 1.01650E-04-3.04285E-05-3.02772E-05 2.47856E-07 2.46361E-19-6.50603E-18
 -1      1178 1.04030E-04-3.11417E-05-3.09877E-05 8.81025E-08 1.85679E-19-4.83678E-18
 -1      1179 1.04137E-04-3.11893E-05-3.10734E-05-3.96043E-08 3.89235E-19-3.99095E-18
 -1      1180 1.02506E-04-3.07231E-05-3.06637E-05-1.16935E-07 6.62092E-20-1.21592E-18
 -1      1181 9.99400E-05-2.99772E-05-2.99807E-05-1.41701E-07 7.87454E-20-2.15465E-18
 -1      1182 9.73159E-05-2.92113E-05-2.92720E-05-1.08148E-07-7.49980E-20-2.99757E-19
 -1      1183 9.55241E-05-2.87131E-05-2.87462E-05 4.24247E-09 1.22608E-19 1.14232E-18
 -1      1184 9.50376E-05-2.85011E-05-2.84418E-05 7.05057E-08 3.60049E-19 7.80673E-19
 -1      1185 1.31054E-04-3.77383E-05-3.86583E-05 1.21748E-05-1.56754E-19 1.25518E-17
 -1      1186 9.65536E-05-2.81878E-05-3.13288E-05 8.01573E-07 3.36696E-20 1.08181E-17
 -1      1187 9.03655E-05-2.69268E-05-2.78716E-05 1.20217E-07 8.08321E-20 8.70565E-18
 -1      1188 8.83237E-05-2.64960E-05-2.66764E-05 9.04691E-09 3.83911E-20 7.37808E-18
 -1      1189 8.79151E-05-2.64034E-05-2.64096E-05-2.52352E-08 3.41096E-20 6.41252E-18
 -1      1190 8.82511E-05-2.64987E-05-2.64817E-05-3.42374E-08 2.73052E-20 5.54613E-18
 -1      1191 8.89230E-05-2.66921E-05-2.66772E-05-3.53692E-08 1.83729E-20 4.81557E-18
 -1      1192 8.97261E-05-2.69274E-05-2.69149E-05-3.35750E-08-4.77370E-20 4.55312E-18
 -1      1193 9.05485E-05-2.71707E-05-2.71591E-05-3.04120E-08 7.52242E-20 3.25209E-18
 -1      1194 9.13276E-05-2.74023E-05-2.73913E-05-2.65754E-08-7.46272E-22 2.91244E-18
 -1      1195 9.20306E-05-2.76118E-05-2.76016E-05-2.24684E-08 1.56746E-19 2.19365E-18
 -1      1196 9.26440E-05-2.77950E-05-2.77857E-05-1.83399E-08-4.43453E-20 1.47552E-18
 -1      1197 9.31667E-05-2.79513E-05-2.79431E-05-1.43330E-08 1.43595E-19 1.11730E-18
 -1      1198 9.36061E-05-2.80830E-05-2.80760E-05-1.05140E-08-1.19790E-19 1.49675E-18
 -1      1199 9.39758E-05-2.81940E-05-2.81883E-05-6.89451E-09 1.85212E-19 1.75665E-18
 -1      1200 9.42935E-05-2.82897E-05-2.82852E-05-3.44778E-09-1.79798E-21 8.55004E-19
 -1      1201 9.45806E-05-2.83764E-05-2.83732E-05-1.24451E-10-2.16028E-19 1.54649E-18
 -1      1202 9.48623E-05-2.84618E-05-2.84600E-05 3.13356E-09 1.18618E-19 7.07816E-19
 -1      1203 9.51679E-05-2.85546E-05-2.85545E-05 6.37783E-09-1.19440E-19 5.58579E-19
 -1      1204 9.55320E-05-2.86653E-05-2.86671E-05 9.63446E-09 1.00524E-19 4.65905E-19
 -1      1205 9.59957E-05-2.88063E-05-2.88105E-05 1.28770E-08 9.44851E-20-1.66764E-19
 -1      1206 9.66085E-05-2.89924E-05-2.89996E-05 1.59843E-08-4.01464E-20 1.50480E-18
 -1      1207 9.74297E-05-2.92413E-05-2.92526E-05 1.86718E-08-2.76948E-20 1.73107E-18
 -1      1208 9.85304E-05-2.95744E-05-2.95910E-05 2.03795E-08 2.25708E-19-1.38913E-19
 -1      1209 9.99933E-05-3.00159E-05-3.00397E-05 2.00948E-08 2.62233E-20-7.67293E-19
 -1      1210 1.01911E-04-3.05931E-05-3.06260E-05 1.60912E-08 1.23725E-19-7.47963E-19
 -1      1211 1.04377E-04-3.13329E-05-3.13767E-05 5.59676E-09-3.45292E-19 5.29065E-19
 -1      1212 1.07469E-04-3.22564E-05-3.23115E-05-1.54797E-08 8.74595E-20-1.72911E-18
 -1      1213 1.11207E-04-3.33672E-05-3.34297E-05-5.23411E-08-7.71801E-20-1.64671E-18
 -1      1214 1.15488E-04-3.46312E-05-3.46873E-05-1.09576E-07-3.16570E-20-1.10056E-18
 -1      1215 1.19969E-04-3.59451E-05-3.59638E-05-1.85999E-07-1.05993E-19-5.49195E-19
 -1      1216 1.23925E-04-3.70965E-05-3.70243E-05-2.64088E-07-9.58603E-20 6.16693E-19
 -1      1217 1.26135E-04-3.77356E-05-3.75063E-05-2.95933E-07-3.68870E-19 1.33598E-18
 -1      1218 1.24970E-04-3.74030E-05-3.69816E-05-2.00049E-07-2.58735E-19 2.84317E-18
 -1      1219 1.18992E-04-3.56892E-05-3.51550E-05 9.50321E-08 1.67607E-19 3.32757E-18
 -1      1220 1.08202E-04-3.25664E-05-3.21788E-05 5.42482E-07 3.15334E-19 2.42781E-18
 -1      1221 9.53552E-05-2.87657E-05-2.88673E-05 9.00017E-07 4.72684E-20 3.17891E-18
 -1      1222 8.56745E-05-2.57796E-05-2.64929E-05 8.57942E-07-1.80775E-19 3.46807E-18
 -1      1223 8.39376E-05-2.51046E-05-2.60980E-05 3.50987E-07 2.74081E-19-1.18196E-18
 -1      1224 9.08131E-05-2.70904E-05-2.77916E-05-3.10215E-07-9.30942E-20-1.79592E-18
 -1      1225 1.02255E-04-3.05696E-05-3.06661E-05-7.24066E-07-2.71683E-19 3.81694E-19
 -1      1226 1.12717E-04-3.37971E-05-3.34196E-05-7.50140E-07-2.81857E-19 2.87271E-18
 -1      1227 1.18643E-04-3.56294E-05-3.51025E-05-5.21380E-07-6.53870E-20 2.48197E-18
 -1      1228 1.19411E-04-3.58691E-05-3.54332E-05-2.34487E-07 5.44040E-19 1.23182E-18
 -1      1229 1.16252E-04-3.49114E-05-3.46471E-05-3.76317E-09 2.63828E-19-3.53001E-19
 -1      1230 1.10917E-04-3.33026E-05-3.31945E-05 1.46112E-07 2.63999E-19-2.64846E-18
 -1      1231 1.04957E-04-3.15162E-05-3.15297E-05 2.31946E-07 1.61950E-19-6.00070E-18
 -1      1232 9.96174E-05-2.99232E-05-3.00340E-05 2.62601E-07-3.18134E-21-5.34427E-18
 -1      1233 9.60080E-05-2.88449E-05-2.89845E-05 1.84619E-07 2.85367E-19-4.53190E-18
 -1      1234 9.49764E-05-2.84814E-05-2.83983E-05-9.46509E-08-4.51478E-19-1.82540E-18
 -1      1235 9.53356E-05-2.88342E-05-2.84083E-05-8.17992E-08-1.89763E-18-2.41305E-19
 -1      1236 9.49267E-05-2.77243E-05-2.90089E-05 1.14256E-08 5.43894E-19-1.25093E-19
 -1      1237 9.38791E-05-2.41649E-05-3.00512E-05 2.12609E-07 4.55624E-19 8.80982E-19
 -1      1238 9.23560E-05-1.90026E-05-3.14985E-05 2.82356E-07 9.17019E-19-5.68601E-19
 -1      1239 9.06875E-05-1.33342E-05-3.30975E-05 2.83654E-07 1.35737E-19 2.50843E-19
 -1      1240 8.91815E-05-8.20372E-06-3.45498E-05 2.32439E-07-1.59205E-18-4.70330E-19
 -1      1241 8.80773E-05-4.43913E-06-3.56192E-05 1.45071E-07-1.84759E-19 8.64295E-19
 -1      1242 8.75517E-05-2.65150E-06-3.61326E-05 2.86264E-08 3.74292E-18 1.69876E-19
 -1      1243 8.76883E-05-3.12998E-06-3.60098E-05-8.63758E-08-2.10481E-18-1.66465E-19
 -1      1244 8.84274E-05-5.66649E-06-3.53049E-05-1.74428E-07-2.33339E-18 4.37274E-19
 -1      1245 8.96020E-05-9.68179E-06-3.41729E-05-2.20121E-07-9.35834E-18-1.71331E-18
 -1      1246 9.09839E-05-1.43784E-05-3.28335E-05-2.22997E-07-1.29446E-17 2.10098E-19
 -1      1247 9.23674E-05-1.90685E-05-3.14797E-05-1.96230E-07-9.02789E-18 1.21755E-18
 -1      1248 9.36029E-05-2.32311E-05-3.02719E-05-1.51015E-07-3.15390E-18 1.35653E-19
 -1      1249 9.45705E-05-2.64583E-05-2.93425E-05-1.09922E-07-6.15365E-18 6.57794E-19
 -1      1250 9.50536E-05-2.82264E-05-2.87613E-05 7.13523E-08-3.05428E-18-5.17800E-19
 -1      1251 9.53097E-05-2.87699E-05-2.84460E-05 6.47577E-08-1.19873E-18-1.68348E-20
 -1      1252 3.63070E-05-1.13868E-04 1.95462E-05-1.45668E-05 5.92711E-18-3.71900E-20
 -1      1253 1.95269E-05-7.28744E-05 1.13252E-05-2.79413E-05 5.16605E-18 1.81265E-18
 -1      1254 7.32659E-06-1.50423E-05-3.90926E-06-5.85670E-06 9.87979E-18 6.58060E-18
 -1      1255 2.86191E-05 2.28599E-05-2.37114E-05 4.62764E-05 8.35852E-18 6.77626E-18
 -1      1256 9.46989E-05 1.83959E-05-4.41152E-05 9.73528E-05 6.60940E-18 9.23944E-18
 -1      1257 1.92980E-04-2.37905E-05-6.23299E-05 1.14734E-04 3.65114E-18 6.76441E-18
 -1      1258 2.82277E-04-7.33410E-05-7.52265E-05 7.79592E-05-4.30822E-19-6.24772E-18
 -1      1259 3.20574E-04-9.76702E-05-7.97223E-05 2.27283E-06 1.42037E-19-1.25257E-17
 -1      1260 2.81709E-04-7.45712E-05-7.47966E-05-7.50528E-05 2.72311E-18-1.28300E-17
 -1      1261 1.90850E-04-2.45536E-05-6.15830E-05-1.11451E-04 4.75905E-18-1.04219E-17
 -1      1262 9.27230E-05 1.67747E-05-4.30672E-05-9.37288E-05 6.51284E-18-8.84811E-18
 -1      1263 2.70683E-05 2.01885E-05-2.24743E-05-4.23899E-05 6.44423E-18-6.50352E-18
 -1      1264 7.28904E-06-1.76268E-05-3.07455E-06 7.40640E-06 3.94717E-18-2.41066E-18
 -1      1265 1.97457E-05-7.34704E-05 1.16455E-05 2.82730E-05-5.08220E-20-5.72806E-19
 -1      1266 3.57620E-05-1.11308E-04 1.91515E-05 1.40889E-05-3.52027E-18-4.91014E-19
 -1      1267 3.50977E-05-1.08985E-04 1.86650E-05-1.36249E-05-8.51268E-18-1.29363E-18
 -1      1268 1.81663E-05-6.69074E-05 1.01873E-05-2.54834E-05-8.17980E-18-2.76577E-18
 -1      1269 7.02035E-06-1.14176E-05-4.73637E-06-3.09922E-06-5.77168E-18-4.13183E-18
 -1      1270 2.78559E-05 2.36646E-05-2.35073E-05 4.63568E-05-3.27124E-18-2.53263E-18
 -1      1271 9.19005E-05 1.88390E-05-4.32075E-05 9.54150E-05-2.40557E-19-4.01494E-19
 -1      1272 1.85443E-04-2.13956E-05-6.09477E-05 1.11867E-04-1.04185E-18-2.40557E-18
 -1      1273 2.74495E-04-7.18140E-05-7.37024E-05 7.74734E-05 2.69886E-19 1.49332E-18
 -1      1274 3.12642E-04-9.51083E-05-7.85277E-05-9.52776E-08 3.60624E-19 2.96250E-19
 -1      1275 2.76757E-04-7.20991E-05-7.41339E-05-7.72679E-05 2.41616E-19-2.76980E-19
 -1      1276 1.89923E-04-2.27049E-05-6.16996E-05-1.13180E-04 7.64871E-19-1.51449E-18
 -1      1277 9.43606E-05 1.87869E-05-4.38181E-05-9.74805E-05 2.47757E-18-2.11081E-18
 -1      1278 2.82274E-05 2.37851E-05-2.35730E-05-4.69426E-05 5.45828E-18-4.85435E-18
 -1      1279 7.53087E-06-1.43899E-05-4.07514E-06 4.51813E-06 3.13910E-18-1.65426E-18
 -1      1280 1.93708E-05-7.21777E-05 1.12976E-05 2.61550E-05 2.36322E-19-2.39287E-20
 -1      1281 3.69022E-05-1.14676E-04 1.95378E-05 1.38189E-05 3.39957E-18 5.77862E-19
 -1      1282 1.04440E-04-2.20186E-05-3.78911E-05-1.72769E-05-3.62742E-19 3.10205E-18
 -1      1283 9.03151E-05-6.68019E-06-3.60156E-05-2.04757E-05-7.34695E-19-1.75669E-18
 -1      1284 9.26514E-05-6.73885E-06-3.72207E-05-2.57633E-05-1.03507E-18-6.97902E-19
 -1      1285 8.59015E-05-4.09630E-06-3.51287E-05-1.64383E-05-6.44619E-19-3.17865E-18
 -1      1286 8.71525E-05-4.08887E-06-3.55979E-05-1.88586E-05-7.68947E-19-2.61037E-18
 -1      1287 9.21292E-05-1.04617E-05-3.50920E-05-1.90398E-05-1.25753E-18-1.57945E-18
 -1      1288 8.40942E-05-3.19047E-06-3.46860E-05-1.28209E-05-4.53480E-19-3.73767E-18
 -1      1289 8.47058E-05-3.16119E-06-3.49103E-05-1.46358E-05-5.41942E-19-3.50354E-18
 -1      1290 8.78642E-05-7.39512E-06-3.45726E-05-1.54167E-05-9.86899E-19-2.73666E-18
 -1      1291 8.31842E-05-2.72747E-06-3.44699E-05-9.69167E-06-2.67550E-19-3.86135E-18
 -1      1292 8.34965E-05-2.70903E-06-3.45788E-05-1.12389E-05-3.32447E-19-3.82335E-18
 -1      1293 8.58647E-05-5.98230E-06-3.43046E-05-1.19595E-05-6.43388E-19-3.17341E-18
 -1      1294 8.26953E-05-2.45821E-06-3.43639E-05-6.91914E-06-6.07845E-20-3.83225E-18
 -1      1295 8.28636E-05-2.44977E-06-3.44181E-05-8.29076E-06-1.49270E-19-3.85309E-18
 -1      1296 8.48209E-05-5.21762E-06-3.41725E-05-8.94964E-06-3.44488E-19-3.26891E-18
 -1      1297 8.24210E-05-2.29282E-06-3.43116E-05-4.29748E-06 8.00314E-20-3.70308E-18
 -1      1298 8.25117E-05-2.28891E-06-3.43386E-05-5.59943E-06 4.99419E-20-3.78671E-18
 -1      1299 8.42376E-05-4.76340E-06-3.41097E-05-6.22012E-06-4.40937E-20-3.28400E-18
 -1      1300 8.22891E-05-2.20345E-06-3.42895E-05-1.79101E-06 2.69229E-19-3.57829E-18
 -1      1301 8.23278E-05-2.20189E-06-3.43005E-05-3.04284E-06 2.12266E-19-3.64326E-18
 -1      1302 8.39160E-05-4.49978E-06-3.40812E-05-3.64674E-06 2.39401E-19-3.09745E-18
 -1      1303 8.22630E-05-2.17593E-06-3.42869E-05 6.70368E-07 3.90863E-19-3.42012E-18
 -1      1304 8.22617E-05-2.17598E-06-3.42865E-05-5.66295E-07 3.33562E-19-3.52041E-18
 -1      1305 8.37750E-05-4.38021E-06-3.40705E-05-1.17116E-06 4.94955E-19-3.02415E-18
 -1      1306 8.23362E-05-2.20611E-06-3.43020E-05 3.15047E-06 5.17483E-19-3.25525E-18
 -1      1307 8.22946E-05-2.20775E-06-3.42903E-05 1.89610E-06 4.78974E-19-3.35372E-18
 -1      1308 8.37799E-05-4.38437E-06-3.40708E-05 1.27464E-06 7.12847E-19-2.86202E-18
 -1      1309 8.25285E-05-2.29899E-06-3.43413E-05 5.71611E-06 5.94485E-19-2.95548E-18
 -1      1310 8.24344E-05-2.30237E-06-3.43135E-05 4.40830E-06 5.80365E-19-3.13975E-18
 -1      1311 8.39312E-05-4.51311E-06-3.40822E-05 3.75446E-06 8.67211E-19-2.65516E-18
 -1      1312 8.28868E-05-2.46449E-06-3.44211E-05 8.39887E-06 7.24557E-19-2.48782E-18
 -1      1313 8.27147E-05-2.47319E-06-3.43664E-05 7.01864E-06 6.63630E-19-2.74828E-18
 -1      1314 8.42626E-05-4.78588E-06-3.41110E-05 6.31417E-06 1.03474E-18-2.35158E-18
 -1      1315 8.35433E-05-2.74148E-06-3.45840E-05 1.13998E-05 9.12440E-19-1.83717E-18
 -1      1316 8.32228E-05-2.75860E-06-3.44735E-05 9.83456E-06 8.37894E-19-2.20735E-18
 -1      1317 8.48638E-05-5.25859E-06-3.41737E-05 9.05816E-06 1.28174E-18-1.86159E-18
 -1      1318 8.47627E-05-3.20324E-06-3.49181E-05 1.48486E-05 1.08026E-18-8.60956E-19
 -1      1319 8.41511E-05-3.24001E-06-3.46916E-05 1.30083E-05 9.84411E-19-1.43311E-18
 -1      1320 8.59452E-05-6.06304E-06-3.43059E-05 1.21272E-05 1.52465E-18-1.19913E-18
 -1      1321 8.72517E-05-4.08989E-06-3.56195E-05 1.90956E-05 1.13894E-18 8.23342E-19
 -1      1322 8.59690E-05-4.15381E-06-3.51363E-05 1.66978E-05 1.02179E-18-1.87406E-19
 -1      1323 8.79883E-05-7.51675E-06-3.45747E-05 1.56550E-05 1.68038E-18-1.20093E-19
 -1      1324 9.34646E-05-6.79161E-06-3.71162E-05 2.50996E-05 9.26231E-19 3.71837E-18
 -1      1325 9.01307E-05-6.43720E-06-3.60384E-05 2.11528E-05 9.09343E-19 1.98597E-18
 -1      1326 9.23592E-05-1.06973E-05-3.50773E-05 1.96805E-05 1.63435E-18 1.72022E-18
 -1      1327 1.23627E-04-2.49234E-05-3.90148E-05 2.83685E-05 3.68353E-19 8.73418E-18
 -1      1328 1.00080E-04-1.44235E-05-3.73539E-05 2.40530E-05 4.26799E-19 5.29830E-18
 -1      1329 1.01678E-04-1.93417E-05-3.54020E-05 2.14018E-05 1.42098E-18 4.32241E-18
 -1      1330 1.02604E-04-2.78048E-05-3.47576E-05 7.33053E-06 7.18178E-19 8.57981E-18
 -1      1331 1.05146E-04-3.02300E-05-3.35250E-05-7.96116E-06-9.19137E-19 3.51752E-18
 -1      1332 9.82585E-05-2.78422E-05-3.07614E-05-4.98976E-06-8.19610E-19 2.39520E-18
 -1      1333 9.54996E-05-2.78481E-05-2.92536E-05-2.49065E-06-6.65133E-19 1.98619E-18
 -1      1334 9.32665E-05-2.75571E-05-2.82140E-05-2.04387E-06-6.18440E-19 9.88382E-19
 -1      1335 9.94820E-05-2.80508E-05-3.09820E-05-7.88922E-06-1.41814E-18 7.34325E-19
 -1      1336 9.15765E-05-2.71993E-05-2.75794E-05-8.39431E-07-5.28006E-19 7.04440E-19
 -1      1337 9.08585E-05-2.71036E-05-2.72768E-05-7.29555E-07-4.41595E-19-4.21928E-20
 -1      1338 9.47143E-05-2.77694E-05-2.88151E-05-3.12254E-06-1.07361E-18 1.25401E-19
 -1      1339 9.01070E-05-2.69201E-05-2.70333E-05-1.76091E-07-3.34469E-19-3.28146E-19
 -1      1340 9.00325E-05-2.69461E-05-2.69980E-05-1.17880E-07-3.97301E-19-8.55252E-19
 -1      1341 9.25135E-05-2.74976E-05-2.78938E-05-1.05677E-06-7.85610E-19-3.90760E-19
 -1      1342 8.97720E-05-2.68785E-05-2.69234E-05 1.52508E-07-2.54856E-19-9.10071E-19
 -1      1343 8.99847E-05-2.69681E-05-2.69844E-05 1.81145E-07-2.27485E-19-1.29272E-18
 -1      1344 9.15523E-05-2.73534E-05-2.75263E-05-7.38427E-08-5.89525E-19-7.46918E-19
 -1      1345 8.99872E-05-2.69709E-05-2.69905E-05 3.11913E-07-2.27539E-19-1.27071E-18
 -1      1346 9.03273E-05-2.70899E-05-2.70888E-05 3.23509E-07-1.65363E-19-1.52441E-18
 -1      1347 9.12969E-05-2.73409E-05-2.74176E-05 4.13181E-07-4.06402E-19-9.22257E-19
 -1      1348 9.04678E-05-2.71312E-05-2.71356E-05 3.77678E-07-1.81605E-19-1.60984E-18
 -1      1349 9.08527E-05-2.72585E-05-2.72468E-05 3.79263E-07-1.00551E-19-1.85640E-18
 -1      1350 9.14271E-05-2.74139E-05-2.74389E-05 6.40504E-07-3.56788E-19-1.09545E-18
 -1      1351 9.10593E-05-2.73184E-05-2.73128E-05 3.89637E-07-6.18986E-20-1.90113E-18
 -1      1352 9.14435E-05-2.74420E-05-2.74241E-05 3.85405E-07-1.45326E-19-2.15811E-18
 -1      1353 9.17568E-05-2.75318E-05-2.75270E-05 7.22278E-07-3.24259E-19-1.26243E-18
 -1      1354 9.16735E-05-2.75083E-05-2.74966E-05 3.70942E-07-2.64237E-19-2.20607E-18
 -1      1355 9.20320E-05-2.76216E-05-2.76009E-05 3.63589E-07-3.55810E-19-2.58553E-18
 -1      1356 9.21758E-05-2.76679E-05-2.76463E-05 7.20554E-07-3.72637E-19-1.42184E-18
 -1      1357 9.22607E-05-2.76874E-05-2.76727E-05 3.36133E-07-2.66534E-19-2.74739E-18
 -1      1358 9.25809E-05-2.77873E-05-2.77663E-05 3.27466E-07 6.22302E-20-2.93508E-18
 -1      1359 9.26184E-05-2.78056E-05-2.77757E-05 6.72510E-07-5.20872E-19-1.39802E-18
 -1      1360 9.27947E-05-2.78485E-05-2.78332E-05 2.94743E-07 1.59117E-19-3.20152E-18
 -1      1361 9.30725E-05-2.79343E-05-2.79147E-05 2.85979E-07-4.44587E-20-3.21126E-18
 -1      1362 9.30467E-05-2.79355E-05-2.79030E-05 6.01868E-07-4.94383E-20-1.65856E-18
 -1      1363 9.32652E-05-2.79894E-05-2.79749E-05 2.53158E-07-1.50388E-19-3.12396E-18
 -1      1364 9.35017E-05-2.80616E-05-2.80445E-05 2.45127E-07-1.00368E-19-3.26525E-18
 -1      1365 9.34411E-05-2.80529E-05-2.80216E-05 5.24302E-07-1.85446E-19-2.12007E-18
 -1      1366 9.36724E-05-2.81103E-05-2.80978E-05 2.15739E-07 1.99497E-19-3.14659E-18
 -1      1367 9.38725E-05-2.81707E-05-2.81570E-05 2.09014E-07 1.60429E-19-3.01121E-18
 -1      1368 9.37944E-05-2.81563E-05-2.81288E-05 4.50406E-07 1.29782E-19-2.27220E-18
 -1      1369 9.40238E-05-2.82138E-05-2.82042E-05 1.85566E-07-1.85970E-20-2.74006E-18
 -1      1370 9.41950E-05-2.82649E-05-2.82550E-05 1.80570E-07-2.90500E-19-2.80051E-18
 -1      1371 9.41079E-05-2.82466E-05-2.82248E-05 3.87541E-07 3.26658E-20-1.97200E-18
 -1      1372 9.43320E-05-2.83037E-05-2.82977E-05 1.64968E-07-4.56070E-19-2.99782E-18
 -1      1373 9.44837E-05-2.83485E-05-2.83429E-05 1.62044E-07-4.73343E-19-3.44771E-18
 -1      1374 9.43890E-05-2.83264E-05-2.83116E-05 3.41087E-07-5.35736E-19-1.94111E-18
 -1      1375 9.46138E-05-2.83853E-05-2.83834E-05 1.55904E-07-2.01904E-19-3.71904E-18
 -1      1376 9.47572E-05-2.84272E-05-2.84264E-05 1.55376E-07-6.39574E-20-3.76992E-18
 -1      1377 9.46498E-05-2.83992E-05-2.83928E-05 3.15333E-07-5.73626E-19-2.40616E-18
 -1      1378 9.48892E-05-2.84645E-05-2.84675E-05 1.60240E-07-1.82156E-21-3.74939E-18
 -1      1379 9.50372E-05-2.85074E-05-2.85119E-05 1.62448E-07 1.36412E-20-3.62615E-18
 -1      1380 9.49060E-05-2.84700E-05-2.84731E-05 3.14114E-07-2.69295E-20-2.66537E-18
 -1      1381 9.51818E-05-2.85482E-05-2.85569E-05 1.79918E-07-2.00158E-19-3.77147E-18
 -1      1382 9.53492E-05-2.85968E-05-2.86072E-05 1.85243E-07-1.26775E-19-3.90556E-18
 -1      1383 9.51765E-05-2.85442E-05-2.85581E-05 3.41233E-07 8.79252E-21-3.06647E-18
 -1      1384 9.55185E-05-2.86446E-05-2.86599E-05 2.17015E-07 1.12744E-19-4.00548E-18
 -1      1385 9.57219E-05-2.87039E-05-2.87209E-05 2.25878E-07 1.78634E-20-3.88392E-18
 -1      1386 9.54836E-05-2.86284E-05-2.86547E-05 4.00671E-07-1.30414E-19-2.68154E-18
 -1      1387 9.59295E-05-2.87627E-05-2.87854E-05 2.73674E-07 2.54464E-19-4.05142E-18
 -1      1388 9.61876E-05-2.88384E-05-2.88627E-05 2.86507E-07-1.98089E-19-4.10431E-18
 -1      1389 9.58524E-05-2.87302E-05-2.87703E-05 4.96550E-07 1.79098E-19-3.21734E-18
 -1      1390 9.64484E-05-2.89125E-05-2.89437E-05 3.51828E-07 6.24939E-20-3.36383E-18
 -1      1391 9.67818E-05-2.90112E-05-2.90432E-05 3.69006E-07 3.75586E-19-2.97957E-18
 -1      1392 9.63108E-05-2.88579E-05-2.89133E-05 6.32757E-07 4.29668E-19-3.35264E-18
 -1      1393 9.71116E-05-2.91053E-05-2.91456E-05 4.52667E-07 5.73145E-20-2.45687E-18
 -1      1394 9.75419E-05-2.92337E-05-2.92736E-05 4.74370E-07 1.99527E-19-2.66595E-18
 -1      1395 9.68888E-05-2.90209E-05-2.90926E-05 8.12107E-07 2.89930E-19-2.04147E-18
 -1      1396 9.79560E-05-2.93525E-05-2.94020E-05 5.75698E-07 2.51635E-19-2.52809E-18
 -1      1397 9.85041E-05-2.95176E-05-2.95646E-05 6.01690E-07-2.82904E-20-2.66803E-18
 -1      1398 9.76171E-05-2.92292E-05-2.93168E-05 1.03484E-06 2.30515E-19-1.35391E-18
 -1      1399 9.90156E-05-2.96653E-05-2.97228E-05 7.17250E-07 7.89039E-20-2.42268E-18
 -1      1400 9.96985E-05-2.98731E-05-2.99247E-05 7.46515E-07 3.21401E-19-2.18288E-18
 -1      1401 9.85241E-05-2.94927E-05-2.95937E-05 1.29617E-06 1.11969E-19-1.35738E-18
 -1      1402 1.00315E-04-3.00528E-05-3.01147E-05 8.68233E-07 3.04609E-19-2.38549E-18
 -1      1403 1.01140E-04-3.03067E-05-3.03577E-05 8.98435E-07 3.33231E-19-1.68716E-18
 -1      1404 9.96310E-05-2.98207E-05-2.99282E-05 1.58254E-06 6.09731E-20-9.91656E-19
 -1      1405 1.01860E-04-3.05190E-05-3.05779E-05 1.01103E-06-2.27955E-19-1.98796E-18
 -1      1406 1.02816E-04-3.08174E-05-3.08582E-05 1.03776E-06-4.80380E-19-2.20824E-18
 -1      1407 1.00945E-04-3.02192E-05-3.03202E-05 1.86638E-06-8.54676E-20-1.19153E-18
 -1      1408 1.03618E-04-3.10585E-05-3.11013E-05 1.11568E-06-4.30734E-19-2.46804E-18
 -1      1409 1.04665E-04-3.13908E-05-3.14060E-05 1.13158E-06-2.24340E-19-2.78361E-18
 -1      1410 1.02446E-04-3.06886E-05-3.07606E-05 2.09935E-06-5.80678E-19-1.62121E-18
 -1      1411 1.05504E-04-3.16501E-05-3.16561E-05 1.13628E-06 3.13662E-19-2.96746E-18
 -1      1412 1.06553E-04-3.19912E-05-3.19583E-05 1.13020E-06 5.30439E-19-2.23537E-18
 -1      1413 1.04075E-04-3.12189E-05-3.12270E-05 2.20543E-06 1.47067E-19-1.42261E-18
 -1      1414 1.07348E-04-3.22481E-05-3.21883E-05 1.00994E-06 4.00547E-19-2.05343E-18
 -1      1415 1.08248E-04-3.25526E-05-3.24432E-05 9.67002E-07 3.09612E-19-1.40012E-18
 -1      1416 1.05713E-04-3.17828E-05-3.16792E-05 2.07701E-06 4.86940E-19-1.78882E-18
 -1      1417 1.08875E-04-3.27730E-05-3.26133E-05 6.63316E-07-1.38004E-19-1.18153E-18
 -1      1418 1.09405E-04-3.29703E-05-3.27567E-05 5.67182E-07-1.30552E-19-1.65380E-18
 -1      1419 1.07165E-04-3.23263E-05-3.20557E-05 1.58160E-06 4.61871E-19-1.73431E-18
 -1      1420 1.09702E-04-3.31045E-05-3.28171E-05 3.42882E-08-2.57379E-19-1.54993E-18
 -1      1421 1.09586E-04-3.31011E-05-3.27719E-05-1.26140E-07-2.65436E-19-1.99513E-18
 -1      1422 1.08150E-04-3.27586E-05-3.22759E-05 5.91375E-07-5.64885E-19-1.09484E-18
 -1      1423 1.09371E-04-3.30856E-05-3.26724E-05-8.83670E-07 2.18647E-19-2.65352E-18
 -1      1424 1.08344E-04-3.27821E-05-3.23687E-05-1.10150E-06-2.66299E-19-3.38478E-18
 -1      1425 1.08325E-04-3.29455E-05-3.22521E-05-9.50116E-07-5.37059E-19-1.83089E-18
 -1      1426 1.07472E-04-3.25531E-05-3.20776E-05-1.97787E-06-1.95777E-19-2.82716E-18
 -1      1427 1.05401E-04-3.18852E-05-3.14873E-05-2.21208E-06 6.92449E-20-3.46979E-18
 -1      1428 1.07347E-04-3.27227E-05-3.19154E-05-2.92132E-06-9.36236E-20-2.06345E-18
 -1      1429 1.03851E-04-3.14097E-05-3.10165E-05-2.96607E-06 4.93857E-19-2.41216E-18
 -1      1430 1.00897E-04-3.04107E-05-3.01945E-05-3.13459E-06 4.75298E-19-2.12147E-18
 -1      1431 1.05021E-04-3.19492E-05-3.12537E-05-4.91419E-06 5.96629E-19-5.02125E-19
 -1      1432 9.88768E-05-2.97347E-05-2.96184E-05-3.42925E-06-1.45819E-19-1.99603E-18
 -1      1433 9.55972E-05-2.85882E-05-2.87232E-05-3.43181E-06-1.25458E-19-1.80029E-18
 -1      1434 1.01501E-04-3.06155E-05-3.03476E-05-6.22773E-06 3.98613E-19-1.02388E-18
 -1      1435 9.35783E-05-2.78729E-05-2.81739E-05-2.99101E-06-1.03785E-19-2.16983E-18
 -1      1436 9.08488E-05-2.68988E-05-2.74384E-05-2.77029E-06-3.76162E-19-2.26105E-18
 -1      1437 9.74517E-05-2.89618E-05-2.93779E-05-6.09516E-06-6.21898E-19-1.34874E-18
 -1      1438 8.94460E-05-2.63886E-05-2.70659E-05-1.59763E-06-5.71747E-21-3.31425E-18
 -1      1439 8.81258E-05-2.59192E-05-2.67094E-05-1.20369E-06 2.46202E-19-2.42809E-18
 -1      1440 9.39869E-05-2.74910E-05-2.85844E-05-4.15137E-06-4.90015E-19-1.70091E-18
 -1      1441 8.78118E-05-2.58174E-05-2.66188E-05 3.16376E-07 1.66892E-20-2.27716E-18
 -1      1442 8.83061E-05-2.60143E-05-2.67422E-05 7.27505E-07 2.13188E-19-2.20071E-18
 -1      1443 9.22474E-05-2.67660E-05-2.81798E-05-8.57515E-07 2.68139E-20-2.48939E-18
 -1      1444 8.91269E-05-2.63416E-05-2.69432E-05 2.00328E-06 3.48581E-19-2.16285E-18
 -1      1445 9.11503E-05-2.70917E-05-2.74751E-05 2.26401E-06-1.90463E-19-2.48289E-18
 -1      1446 9.27846E-05-2.70697E-05-2.82590E-05 2.56630E-06 3.50625E-19-1.61207E-18
 -1      1447 9.26949E-05-2.76719E-05-2.78759E-05 2.84516E-06 1.41885E-19-2.31274E-18
 -1      1448 9.54325E-05-2.86591E-05-2.86086E-05 2.87923E-06-3.60411E-19-1.89309E-18
 -1      1449 9.52117E-05-2.82072E-05-2.87535E-05 4.81608E-06 8.99245E-20-1.56292E-18
 -1      1450 9.70786E-05-2.92406E-05-2.90601E-05 2.68248E-06-1.30631E-18-2.48739E-18
 -1      1451 9.96074E-05-3.01225E-05-2.97506E-05 2.52873E-06-7.73477E-19-3.68438E-18
 -1      1452 9.84435E-05-2.96395E-05-2.94631E-05 5.24338E-06-1.48476E-18-1.69609E-18
 -1      1453 1.00829E-04-3.05167E-05-3.01113E-05 1.79559E-06 4.60998E-19-3.44213E-18
 -1      1454 1.02500E-04-3.10722E-05-3.05791E-05 1.55416E-06 5.77663E-19-3.47403E-18
 -1      1455 1.01296E-04-3.08194E-05-3.01419E-05 4.07111E-06-2.10283E-19-1.48096E-18
 -1      1456 1.03038E-04-3.12105E-05-3.07625E-05 6.41066E-07-4.05239E-19-3.12463E-18
 -1      1457 1.03622E-04-3.13796E-05-3.09348E-05 4.05584E-07 2.19262E-19-3.47303E-18
 -1      1458 1.02986E-04-3.14386E-05-3.05929E-05 2.05295E-06 4.03545E-19-2.00122E-18
 -1      1459 1.03475E-04-3.12871E-05-3.09237E-05-3.97061E-07 1.18640E-18-3.99610E-18
 -1      1460 1.03091E-04-3.11290E-05-3.08257E-05-5.70695E-07 9.72913E-19-2.56519E-18
 -1      1461 1.03284E-04-3.14647E-05-3.07222E-05-2.29928E-08 7.87185E-19-2.17312E-18
 -1      1462 1.02426E-04-3.08761E-05-3.06581E-05-1.10036E-06 1.46996E-18-2.05294E-18
 -1      1463 1.01399E-04-3.05080E-05-3.03773E-05-1.19081E-06 8.45255E-19-5.13408E-19
 -1      1464 1.02385E-04-3.10328E-05-3.05441E-05-1.62048E-06 2.27657E-18-1.32278E-18
 -1      1465 1.00456E-04-3.01751E-05-3.01224E-05-1.38856E-06-1.97395E-19-1.11501E-18
 -1      1466 9.91872E-05-2.97304E-05-2.97724E-05-1.39272E-06-2.02983E-19-1.52369E-18
 -1      1467 1.00708E-04-3.03311E-05-3.01509E-05-2.48623E-06 4.82610E-19-7.45793E-19
 -1      1468 9.82152E-05-2.93916E-05-2.95076E-05-1.25761E-06 6.06646E-19-6.05059E-19
 -1      1469 9.71121E-05-2.90044E-05-2.92009E-05-1.17566E-06 9.58257E-19 1.84898E-19
 -1      1470 9.87414E-05-2.95364E-05-2.96710E-05-2.55635E-06 4.02684E-19-1.31220E-18
 -1      1471 9.63101E-05-2.87126E-05-2.89864E-05-7.39934E-07 7.36510E-19 7.10767E-19
 -1      1472 9.57233E-05-2.85390E-05-2.87947E-05-5.97327E-07-2.13915E-19 1.57411E-18
 -1      1473 9.69266E-05-2.87921E-05-2.92245E-05-1.88738E-06 1.49711E-18 6.16981E-19
 -1      1474 9.52115E-05-2.85048E-05-2.85833E-05 2.67862E-08-1.60509E-18 1.93783E-18
 -1      1475 9.55266E-05-2.83470E-05-2.88035E-05-5.70488E-07-1.12135E-18 1.40603E-18
 -1      1476 9.65749E-05-2.83629E-05-2.97717E-05 2.99690E-06 5.59783E-19 7.11362E-18
 -1      1477 1.02535E-04-2.93981E-05-3.21555E-05 4.46407E-06 5.30984E-19 8.07519E-18
 -1      1478 1.02324E-04-2.67175E-05-3.27053E-05 1.27854E-05 1.09347E-18 5.48295E-18
 -1      1479 9.20261E-05-2.74279E-05-2.77604E-05 1.15315E-06 5.14837E-19 5.90877E-18
 -1      1480 9.39740E-05-2.75834E-05-2.86749E-05 1.47509E-06 4.41860E-19 6.57173E-18
 -1      1481 9.64837E-05-2.80293E-05-2.95328E-05 4.86988E-06 9.28825E-19 4.51616E-18
 -1      1482 9.01909E-05-2.70024E-05-2.70608E-05 3.33069E-07 3.56674E-19 4.94220E-18
 -1      1483 9.08072E-05-2.70203E-05-2.73338E-05 4.95894E-07 3.72086E-19 5.47961E-18
 -1      1484 9.30369E-05-2.75773E-05-2.80971E-05 1.85414E-06 7.48049E-19 3.79554E-18
 -1      1485 8.96705E-05-2.68833E-05-2.68841E-05-5.35652E-08 3.24758E-19 4.30272E-18
 -1      1486 8.97096E-05-2.68215E-05-2.69128E-05 3.54826E-08 2.17477E-19 4.66225E-18
 -1      1487 9.14813E-05-2.73054E-05-2.75126E-05 5.20515E-07 5.50320E-19 3.07327E-18
 -1      1488 8.97988E-05-2.69347E-05-2.69248E-05-2.40511E-07 1.98934E-19 3.68958E-18
 -1      1489 8.95723E-05-2.68278E-05-2.68604E-05-1.90378E-07 2.49500E-19 4.00296E-18
 -1      1490 9.09468E-05-2.72237E-05-2.73156E-05-1.28839E-07 4.96755E-19 2.53823E-18
 -1      1491 9.02469E-05-2.70757E-05-2.70617E-05-3.23301E-07 1.04533E-19 3.14546E-18
 -1      1492 8.99025E-05-2.69493E-05-2.69610E-05-2.95758E-07 1.66368E-19 3.32613E-18
 -1      1493 9.09610E-05-2.72657E-05-2.73037E-05-4.46951E-07 3.53864E-19 2.12847E-18
 -1      1494 9.08360E-05-2.72563E-05-2.72395E-05-3.47514E-07 3.41449E-19 2.63770E-18
 -1      1495 9.04514E-05-2.71269E-05-2.71269E-05-3.33941E-07 1.96085E-19 2.93452E-18
 -1      1496 9.12615E-05-2.73765E-05-2.73841E-05-5.86570E-07 3.16944E-19 1.66966E-18
 -1      1497 9.14637E-05-2.74468E-05-2.74286E-05-3.38220E-07 2.43451E-19 1.78940E-18
 -1      1498 9.10822E-05-2.73242E-05-2.73166E-05-3.33404E-07 3.04408E-19 2.29022E-18
 -1      1499 9.16978E-05-2.75189E-05-2.75088E-05-6.24688E-07 5.84831E-19 1.18268E-18
 -1      1500 9.20717E-05-2.76300E-05-2.76118E-05-3.10652E-07 1.45682E-19 1.67277E-18
 -1      1501 9.17173E-05-2.75195E-05-2.75075E-05-3.11200E-07-1.31719E-20 1.58158E-18
 -1      1502 9.21814E-05-2.76700E-05-2.76501E-05-6.04902E-07 2.86449E-19 7.78617E-19
 -1      1503 9.26288E-05-2.77971E-05-2.77801E-05-2.74581E-07 1.42197E-19 1.49296E-18
 -1      1504 9.23131E-05-2.77007E-05-2.76868E-05-2.78200E-07 2.57928E-19 1.62605E-18
 -1      1505 9.26606E-05-2.78161E-05-2.77919E-05-5.54024E-07 3.21655E-19 5.06875E-19
 -1      1506 9.31214E-05-2.79441E-05-2.79291E-05-2.36461E-07 1.52866E-19 8.37026E-19
 -1      1507 9.28483E-05-2.78622E-05-2.78481E-05-2.41558E-07 1.80975E-19 1.19983E-18
 -1      1508 9.31071E-05-2.79502E-05-2.79252E-05-4.89376E-07 4.25629E-19 8.36328E-19
 -1      1509 9.35474E-05-2.80708E-05-2.80582E-05-2.00632E-07-5.58932E-20 5.26415E-19
 -1      1510 9.33156E-05-2.80021E-05-2.79892E-05-2.06078E-07 1.83087E-19 6.96374E-19
 -1      1511 9.35084E-05-2.80691E-05-2.80458E-05-4.22472E-07 3.01486E-19 3.09739E-19
 -1      1512 9.39130E-05-2.81790E-05-2.81692E-05-1.70103E-07-5.79323E-20 1.15104E-18
 -1      1513 9.37174E-05-2.81217E-05-2.81108E-05-1.75061E-07-2.87118E-19 7.52446E-19
 -1      1514 9.38623E-05-2.81728E-05-2.81528E-05-3.61160E-07-2.96240E-19 2.83164E-19
 -1      1515 9.42300E-05-2.82724E-05-2.82657E-05-1.47083E-07 2.91548E-19 9.04780E-19
 -1      1516 9.40631E-05-2.82238E-05-2.82156E-05-1.50896E-07 3.23010E-19 1.19843E-18
 -1      1517 9.41739E-05-2.82631E-05-2.82477E-05-3.10993E-07 1.83934E-19 3.75299E-19
 -1      1518 9.45145E-05-2.83559E-05-2.83524E-05-1.33395E-07-2.89330E-19 5.82222E-19
 -1      1519 9.43667E-05-2.83127E-05-2.83079E-05-1.35486E-07 5.34797E-20 7.65945E-19
 -1      1520 9.44541E-05-2.83433E-05-2.83335E-05-2.76216E-07 9.11192E-20 4.20381E-19
 -1      1521 9.47867E-05-2.84354E-05-2.84356E-05-1.30788E-07 8.31602E-20 7.66265E-19
 -1      1522 9.46466E-05-2.83940E-05-2.83931E-05-1.30584E-07-1.78008E-19 6.85104E-19
 -1      1523 9.47178E-05-2.84181E-05-2.84148E-05-2.60501E-07-1.45559E-19 3.26110E-19
 -1      1524 9.50706E-05-2.85180E-05-2.85224E-05-1.41199E-07 2.53542E-19 3.22837E-20
 -1      1525 9.49248E-05-2.84742E-05-2.84780E-05-1.38060E-07 2.52711E-19 4.58973E-19
 -1      1526 9.49840E-05-2.84929E-05-2.84972E-05-2.67522E-07 4.50555E-19-1.05011E-21
 -1      1527 9.53949E-05-2.86124E-05-2.86215E-05-1.66966E-07-3.31275E-19-1.13638E-19
 -1      1528 9.52275E-05-2.85610E-05-2.85705E-05-1.60120E-07 4.97524E-20-2.72592E-20
 -1      1529 9.52756E-05-2.85746E-05-2.85879E-05-3.01430E-07 2.88908E-19-1.94093E-19
 -1      1530 9.57933E-05-2.87284E-05-2.87431E-05-2.11001E-07 3.13501E-21 1.06866E-20
 -1      1531 9.55857E-05-2.86636E-05-2.86799E-05-1.99481E-07-2.28311E-19 3.48088E-21
 -1      1532 9.56199E-05-2.86711E-05-2.86950E-05-3.67222E-07-2.12929E-19-4.81016E-19
 -1      1533 9.63062E-05-2.88781E-05-2.88995E-05-2.76910E-07-1.66492E-19 2.75787E-19
 -1      1534 9.60360E-05-2.87926E-05-2.88174E-05-2.59503E-07-2.35101E-20 2.34880E-19
 -1      1535 9.60494E-05-2.87919E-05-2.88285E-05-4.71025E-07-1.11267E-19 5.98778E-19
 -1      1536 9.69820E-05-2.90758E-05-2.91053E-05-3.69028E-07 3.56358E-20 1.29918E-18
 -1      1537 9.66222E-05-2.89611E-05-2.89962E-05-3.44231E-07-3.41544E-19 4.88305E-19
 -1      1538 9.66023E-05-2.89481E-05-2.90002E-05-6.20239E-07-5.07945E-19 3.65396E-19
 -1      1539 9.78778E-05-2.93386E-05-2.93776E-05-4.92293E-07 4.35233E-19 5.00430E-19
 -1      1540 9.73962E-05-2.91842E-05-2.92320E-05-4.58305E-07 2.83888E-19 1.03451E-18
 -1      1541 9.73238E-05-2.91531E-05-2.92237E-05-8.23443E-07 2.99633E-19 9.05362E-19
 -1      1542 9.90601E-05-2.96864E-05-2.97365E-05-6.51781E-07 4.87860E-19-6.00364E-19
 -1      1543 9.84188E-05-2.94803E-05-2.95432E-05-6.06576E-07 5.93346E-19 1.52448E-19
 -1      1544 9.82659E-05-2.94222E-05-2.95148E-05-1.08985E-06 8.28845E-19-3.76058E-19
 -1      1545 1.00603E-04-3.01420E-05-3.02043E-05-8.51610E-07-3.00548E-19-5.24009E-19
 -1      1546 9.97595E-05-2.98701E-05-2.99507E-05-7.93179E-07-2.13583E-19-7.91685E-19
 -1      1547 9.94871E-05-2.97733E-05-2.98910E-05-1.42785E-06 1.59032E-19-9.16905E-19
 -1      1548 1.02586E-04-3.07296E-05-3.08039E-05-1.09262E-06-2.70374E-19 1.06137E-19
 -1      1549 1.01494E-04-3.03772E-05-3.04768E-05-1.01957E-06 4.28711E-20 7.90454E-20
 -1      1550 1.01049E-04-3.02260E-05-3.03704E-05-1.84197E-06-4.83290E-19 1.12199E-20
 -1      1551 1.05076E-04-3.14719E-05-3.15548E-05-1.36794E-06 2.09078E-19 5.08835E-19
 -1      1552 1.03695E-04-3.10257E-05-3.11428E-05-1.28076E-06-4.35593E-20 2.50265E-19
 -1      1553 1.03011E-04-3.08003E-05-3.09691E-05-2.32677E-06-2.28825E-19 4.17999E-19
 -1      1554 1.08111E-04-3.23842E-05-3.24654E-05-1.65505E-06 1.11104E-19-1.05291E-18
 -1      1555 1.06418E-04-3.18369E-05-3.19636E-05-1.55852E-06 4.21693E-19-1.29351E-19
 -1      1556 1.05413E-04-3.15144E-05-3.16964E-05-2.85593E-06 8.16072E-19 2.09310E-19
 -1      1557 1.11651E-04-3.34619E-05-3.35188E-05-1.90304E-06-2.64066E-19-9.16410E-19
 -1      1558 1.09671E-04-3.28213E-05-3.29369E-05-1.81046E-06-2.29438E-19-1.08955E-18
 -1      1559 1.08258E-04-3.23789E-05-3.25459E-05-3.36402E-06-1.20805E-19-4.05054E-19
 -1      1560 1.15511E-04-3.46604E-05-3.46502E-05-2.01524E-06-1.78430E-19-3.14183E-19
 -1      1561 1.13356E-04-3.39646E-05-3.40268E-05-1.95462E-06-2.14062E-19-7.62025E-19
 -1      1562 1.11463E-04-3.33873E-05-3.34824E-05-3.71990E-06-4.58037E-19-2.27614E-19
 -1      1563 1.19259E-04-3.58634E-05-3.57188E-05-1.83366E-06-5.93615E-19 1.34599E-20
 -1      1564 1.17195E-04-3.52029E-05-3.51383E-05-1.85431E-06-1.99946E-19-7.26093E-19
 -1      1565 1.14809E-04-3.44989E-05-3.44233E-05-3.69727E-06-1.98269E-19-3.55390E-19
 -1      1566 1.22118E-04-3.68440E-05-3.64845E-05-1.14655E-06-3.95253E-19 3.95379E-19
 -1      1567 1.20627E-04-3.63852E-05-3.60921E-05-1.31933E-06-4.19897E-19 4.20869E-20
 -1      1568 1.17866E-04-3.56093E-05-3.52231E-05-2.96486E-06-5.49817E-19-6.02379E-19
 -1      1569 1.22955E-04-3.72396E-05-3.66227E-05 2.36252E-07-4.28804E-19 1.20437E-18
 -1      1570 1.22738E-04-3.72300E-05-3.66147E-05-1.59846E-07-4.48848E-19 4.54463E-19
 -1      1571 1.19943E-04-3.65101E-05-3.56743E-05-1.15292E-06-5.12892E-19-2.02064E-19
 -1      1572 1.20523E-04-3.65956E-05-3.58222E-05 2.28722E-06 3.28186E-19 1.67961E-18
 -1      1573 1.22334E-04-3.73079E-05-3.63840E-05 1.65932E-06 1.67885E-19 1.63964E-18
 -1      1574 1.20135E-04-3.68520E-05-3.55530E-05 1.91810E-06-7.80197E-20 1.19253E-19
 -1      1575 1.14149E-04-3.45738E-05-3.39948E-05 4.46222E-06-5.04249E-20 1.81551E-18
 -1      1576 1.18339E-04-3.61358E-05-3.51690E-05 3.75863E-06-4.57530E-20 1.79222E-18
 -1      1577 1.17591E-04-3.61756E-05-3.47295E-05 5.80185E-06 4.72089E-20 6.20319E-19
 -1      1578 1.04800E-04-3.13832E-05-3.15052E-05 5.58968E-06 1.72116E-19 1.15895E-18
 -1      1579 1.10662E-04-3.35112E-05-3.30502E-05 5.16815E-06 3.67548E-19 1.58416E-18
 -1      1580 1.12145E-04-3.41615E-05-3.33173E-05 9.00327E-06 2.58689E-19 1.98153E-19
 -1      1581 9.56731E-05-2.81364E-05-2.91926E-05 4.47019E-06-1.38358E-19 9.51377E-19
 -1      1582 1.01156E-04-3.00179E-05-3.05767E-05 4.69831E-06-1.34811E-19 7.05155E-19
 -1      1583 1.05106E-04-3.11402E-05-3.17351E-05 9.31887E-06 3.19358E-20-6.90067E-20
 -1      1584 9.10070E-05-2.64755E-05-2.80158E-05 1.10116E-06 1.00559E-18 5.86650E-19
 -1      1585 9.35636E-05-2.71442E-05-2.86524E-05 1.98659E-06 2.59933E-20 1.53938E-18
 -1      1586 9.93467E-05-2.84204E-05-3.05702E-05 5.47074E-06 4.99749E-20-2.11401E-19
 -1      1587 9.31714E-05-2.73476E-05-2.84744E-05-2.76758E-06-1.11663E-19-1.35001E-18
 -1      1588 9.15311E-05-2.64373E-05-2.80886E-05-1.71532E-06 9.99102E-19 2.60357E-19
 -1      1589 9.77875E-05-2.76349E-05-3.02746E-05-1.10218E-06 1.53339E-18-8.41051E-19
 -1      1590 1.00638E-04-3.01038E-05-3.02638E-05-4.92659E-06-3.05838E-19-6.98802E-20
 -1      1591 9.58742E-05-2.82014E-05-2.90901E-05-4.30037E-06-9.11368E-19-1.19400E-18
 -1      1592 1.01088E-04-2.92861E-05-3.09110E-05-6.74987E-06-3.61432E-19 5.86253E-19
 -1      1593 1.09265E-04-3.31140E-05-3.24800E-05-4.59191E-06-8.91191E-19 9.28983E-19
 -1      1594 1.03908E-04-3.12401E-05-3.11001E-05-4.59039E-06-2.44137E-19 7.32154E-19
 -1      1595 1.07035E-04-3.21638E-05-3.21238E-05-8.59737E-06-9.59766E-19 1.72816E-18
 -1      1596 1.15371E-04-3.50855E-05-3.41919E-05-2.62713E-06 1.80484E-19 1.87311E-18
 -1      1597 1.11599E-04-3.39495E-05-3.31629E-05-3.03763E-06-7.76187E-19 9.77476E-19
 -1      1598 1.12432E-04-3.45547E-05-3.33427E-05-6.62683E-06-7.39380E-19 7.75909E-19
 -1      1599 1.17456E-04-3.56319E-05-3.48952E-05-3.54246E-07-6.55782E-19 1.73627E-18
 -1      1600 1.16122E-04-3.53868E-05-3.44881E-05-8.61680E-07 1.93507E-19 1.67472E-18
 -1      1601 1.15218E-04-3.55717E-05-3.40764E-05-2.79714E-06-2.42000E-19 1.58972E-18
 -1      1602 1.15923E-04-3.50140E-05-3.45805E-05 1.38876E-06 1.58115E-18 9.27501E-20
 -1      1603 1.16747E-04-3.54533E-05-3.47697E-05 9.80657E-07 1.26180E-18 1.74226E-18
 -1      1604 1.15002E-04-3.52886E-05-3.41096E-05 9.08710E-07 1.32674E-18 8.55086E-19
 -1      1605 1.12015E-04-3.36952E-05-3.35369E-05 2.36863E-06 3.02960E-19-1.70569E-18
 -1      1606 1.14229E-04-3.45184E-05-3.41354E-05 2.11818E-06 3.29770E-19-9.54196E-19
 -1      1607 1.12454E-04-3.41860E-05-3.35050E-05 3.47531E-06 1.52215E-18-2.11791E-19
 -1      1608 1.07046E-04-3.20933E-05-3.21389E-05 2.67033E-06 1.30943E-18-2.94315E-18
 -1      1609 1.09859E-04-3.30428E-05-3.29247E-05 2.56678E-06 1.31167E-18-1.75638E-18
 -1      1610 1.08570E-04-3.27199E-05-3.24863E-05 4.72840E-06 1.39317E-18-1.30135E-18
 -1      1611 1.02118E-04-3.05268E-05-3.07302E-05 2.43727E-06-6.07371E-19-2.90273E-18
 -1      1612 1.04876E-04-3.14086E-05-3.15064E-05 2.46025E-06-1.48618E-19-2.76217E-18
 -1      1613 1.04280E-04-3.11998E-05-3.13193E-05 4.85584E-06 5.99150E-19 5.31116E-20
 -1      1614 9.81287E-05-2.92505E-05-2.95859E-05 1.74203E-06-7.33514E-19-2.08125E-18
 -1      1615 1.00281E-04-2.98978E-05-3.01960E-05 1.89830E-06-1.49690E-19-2.82773E-18
 -1      1616 1.00325E-04-2.98138E-05-3.02420E-05 4.06386E-06-6.79082E-19 3.70233E-19
 -1      1617 9.58040E-05-2.85103E-05-2.88538E-05 6.90933E-07 5.53384E-21-1.55479E-18
 -1      1618 9.68695E-05-2.87665E-05-2.92162E-05 9.49988E-07-1.11554E-19-2.19550E-18
 -1      1619 9.72541E-05-2.87066E-05-2.94161E-05 2.47969E-06 1.95972E-19 1.09161E-19
 -1      1620 9.52778E-05-2.84156E-05-2.86533E-05 6.83301E-08-6.40393E-19-8.12338E-19
 -1      1621 9.48491E-05-2.62960E-05-2.94140E-05 1.50342E-06 5.68498E-19-3.25601E-19
 -1      1622 9.52416E-05-2.74964E-05-2.90335E-05 1.21289E-06 3.50767E-19 1.45699E-18
 -1      1623 9.36405E-05-2.27072E-05-3.04160E-05 2.43408E-06 1.62261E-18 8.37864E-19
 -1      1624 9.43707E-05-2.48656E-05-2.98113E-05 2.28189E-06 1.75066E-18-1.65304E-19
 -1      1625 9.48252E-05-2.54198E-05-2.97877E-05 3.65774E-06 1.77090E-18 6.49400E-19
 -1      1626 9.21660E-05-1.82606E-05-3.16764E-05 2.87884E-06 1.45372E-19-1.24303E-18
 -1      1627 9.30461E-05-2.08957E-05-3.09351E-05 2.83084E-06 1.74600E-18-3.29724E-19
 -1      1628 9.35599E-05-2.21577E-05-3.06299E-05 5.06468E-06 1.12222E-18 5.91566E-20
 -1      1629 9.06628E-05-1.36876E-05-3.29842E-05 2.81759E-06 5.58327E-19-5.60053E-19
 -1      1630 9.15356E-05-1.63154E-05-3.22408E-05 2.87003E-06 1.75548E-19 2.22346E-20
 -1      1631 9.21850E-05-1.84029E-05-3.16208E-05 5.52768E-06 1.55486E-18-1.65665E-18
 -1      1632 8.93862E-05-9.80344E-06-3.40972E-05 2.28814E-06-7.15981E-19 5.62374E-19
 -1      1633 9.00966E-05-1.19456E-05-3.34901E-05 2.42825E-06-2.83941E-19-1.19007E-18
 -1      1634 9.08503E-05-1.47176E-05-3.25977E-05 5.04415E-06 1.96611E-19-1.05421E-18
 -1      1635 8.85111E-05-7.13463E-06-3.48632E-05 1.36115E-06 8.58567E-19 1.24134E-18
 -1      1636 8.89606E-05-8.49291E-06-3.44774E-05 1.57284E-06-2.51781E-19 7.55620E-19
 -1      1637 8.97510E-05-1.16680E-05-3.34078E-05 3.71325E-06-1.57191E-19 8.10452E-19
 -1      1638 8.82168E-05-6.20357E-06-3.51366E-05 2.17194E-07 6.41817E-19-1.42681E-18
 -1      1639 8.83162E-05-6.52118E-06-3.50440E-05 4.55106E-07 8.81510E-20 2.51245E-18
 -1      1640 8.90680E-05-9.75291E-06-3.39199E-05 1.74818E-06-2.80442E-19 1.73038E-18
 -1      1641 8.85353E-05-7.10749E-06-3.48896E-05-9.13075E-07-1.10683E-18-5.89899E-19
 -1      1642 8.82824E-05-6.37434E-06-3.50936E-05-6.98324E-07 6.10459E-21-2.31842E-18
 -1      1643 8.89348E-05-9.32260E-06-3.40465E-05-4.61181E-07-3.54394E-19-2.12748E-18
 -1      1644 8.93722E-05-9.58875E-06-3.41911E-05-1.81268E-06-4.09487E-18-2.36039E-18
 -1      1645 8.88358E-05-7.99564E-06-3.46399E-05-1.66142E-06-2.10517E-18 1.29090E-19
 -1      1646 8.93549E-05-1.03989E-05-3.37796E-05-2.47672E-06-9.89017E-19-1.65115E-18
 -1      1647 9.05407E-05-1.31244E-05-3.31826E-05-2.34605E-06-6.78787E-18-2.58575E-18
 -1      1648 8.98366E-05-1.09978E-05-3.37866E-05-2.27683E-06-3.24935E-18-2.79821E-18
 -1      1649 9.02124E-05-1.27100E-05-3.31806E-05-3.93865E-06-2.95218E-18-2.86636E-18
 -1      1650 9.18059E-05-1.70272E-05-3.20559E-05-2.48905E-06-6.56969E-18 1.14132E-18
 -1      1651 9.10676E-05-1.47640E-05-3.27034E-05-2.49498E-06-6.44187E-18-8.41737E-19
 -1      1652 9.13112E-05-1.57630E-05-3.23683E-05-4.66689E-06-2.73500E-18-2.55224E-18
 -1      1653 9.30308E-05-2.08735E-05-3.09345E-05-2.30696E-06-4.14687E-18 1.50199E-18
 -1      1654 9.23336E-05-1.87095E-05-3.15567E-05-2.36906E-06-6.79629E-18 2.91616E-18
 -1      1655 9.24572E-05-1.90662E-05-3.14648E-05-4.69203E-06-2.47096E-18 2.44108E-18
 -1      1656 9.40631E-05-2.41610E-05-2.99693E-05-1.89320E-06-2.57752E-18 9.61783E-19
 -1      1657 9.34892E-05-2.23686E-05-3.04852E-05-1.98764E-06-3.31635E-18 7.54581E-19
 -1      1658 9.35171E-05-2.22127E-05-3.05850E-05-4.15470E-06-1.70234E-18 1.99120E-18
 -1      1659 9.48249E-05-2.65708E-05-2.92510E-05-1.32716E-06-3.26270E-18-3.45589E-19
 -1      1660 9.44090E-05-2.53337E-05-2.96140E-05-1.43569E-06-2.69186E-18 5.89403E-19
 -1      1661 9.44004E-05-2.48630E-05-2.98335E-05-3.22067E-06-1.77946E-19 3.07741E-19
 -1      1662 9.53206E-05-2.78710E-05-2.88893E-05-9.19511E-07-1.12553E-18 9.05035E-19
 -1      1663 9.51336E-05-2.72577E-05-2.90964E-05-1.16237E-06-1.96040E-18 1.47695E-19
 -1      1664 9.51543E-05-2.67029E-05-2.93615E-05-2.40514E-06-2.85705E-19 6.66119E-19
 -1      1665 9.58578E-05-2.79380E-05-2.91202E-05-1.78070E-06 1.36878E-19 2.97965E-19
 -1      1666 2.17521E-05-7.13174E-05 1.49829E-05-6.89603E-06 5.00427E-18-5.71747E-20
 -1      1667 2.50578E-05-8.07464E-05 1.70306E-05 1.49500E-06 5.46124E-18 9.06325E-20
 -1      1668 1.99686E-05-4.46282E-05 5.73438E-06-5.80961E-07 5.66326E-18 3.84955E-18
 -1      1669 2.52267E-05-6.71822E-05 1.14278E-05-2.96811E-06 4.65190E-18 1.65095E-18
 -1      1670 3.24730E-05-1.46294E-05-1.00303E-05 2.45349E-05 6.85843E-18 4.77430E-18
 -1      1671 2.82692E-05-3.74054E-05-1.22251E-06 6.96264E-06 5.60143E-18 4.12166E-18
 -1      1672 7.13152E-05-2.37262E-06-2.90803E-05 5.71244E-05 5.34478E-18 4.52654E-18
 -1      1673 4.85766E-05-1.03526E-05-1.91225E-05 3.35811E-05 6.47811E-18 4.79251E-18
 -1      1674 1.32437E-04-1.32014E-05-4.78206E-05 7.82861E-05 4.36053E-18 6.37901E-18
 -1      1675 9.37443E-05-3.70710E-06-3.84159E-05 6.31677E-05 4.89500E-18 5.71239E-18
 -1      1676 2.02085E-04-3.96422E-05-6.40469E-05 7.24270E-05 3.71763E-18 2.20229E-19
 -1      1677 1.56907E-04-1.86415E-05-5.61860E-05 7.74404E-05 5.03985E-18 4.75355E-18
 -1      1678 2.48408E-04-6.08022E-05-7.37650E-05 3.36709E-05 1.52720E-18-6.04358E-18
 -1      1679 2.19323E-04-4.50616E-05-6.94701E-05 5.90296E-05 2.91819E-18-1.52127E-18
 -1      1680 2.60188E-04-6.59132E-05-7.62622E-05-1.61630E-05 1.30062E-18-7.91828E-18
 -1      1681 2.59817E-04-6.55604E-05-7.63258E-05 2.00564E-05 5.73441E-19-6.70088E-18
 -1      1682 2.20038E-04-4.63093E-05-6.91897E-05-5.79188E-05 2.13177E-18-7.89943E-18
 -1      1683 2.50758E-04-6.25786E-05-7.38002E-05-3.14926E-05 1.26504E-18-8.43391E-18
 -1      1684 1.56258E-04-2.01959E-05-5.55196E-05-7.42511E-05 2.86848E-18-6.65344E-18
 -1      1685 2.00942E-04-4.03398E-05-6.33384E-05-6.97834E-05 2.59319E-18-7.88249E-18
 -1      1686 9.13863E-05-4.72654E-06-3.72918E-05-6.00311E-05 4.32834E-18-5.31259E-18
 -1      1687 1.31296E-04-1.41936E-05-4.70465E-05-7.57038E-05 3.99545E-18-5.78693E-18
 -1      1688 4.71332E-05-1.16018E-05-1.80322E-05-3.12949E-05 3.39321E-18-4.53671E-18
 -1      1689 6.86814E-05-2.96407E-06-2.78481E-05-5.42384E-05 4.22077E-18-6.03765E-18
 -1      1690 2.97196E-05-3.90143E-05-8.59919E-07-7.53989E-06 1.08759E-18-1.84865E-18
 -1      1691 3.41511E-05-1.78471E-05-9.35477E-06-2.37658E-05 2.54025E-18-2.98537E-18
 -1      1692 2.41653E-05-6.65090E-05 1.16249E-05 4.11100E-06-1.30612E-18-4.66345E-19
 -1      1693 1.88616E-05-4.46980E-05 6.19913E-06 2.17093E-06 5.11608E-19-8.86632E-19
 -1      1694 2.45590E-05-7.97070E-05 1.68163E-05-5.37435E-07-3.92430E-18-1.21422E-18
 -1      1695 2.15091E-05-7.14399E-05 1.50774E-05 8.12304E-06-2.01043E-18-5.01020E-19
 -1      1696 2.11789E-05-6.90968E-05 1.44188E-05-6.03066E-06-7.09263E-18-2.04558E-18
 -1      1697 2.46896E-05-7.93947E-05 1.66250E-05 2.22782E-06-5.23466E-18-1.61699E-18
 -1      1698 1.92628E-05-4.07147E-05 4.69059E-06 1.19457E-06-5.74373E-18-9.87217E-19
 -1      1699 2.41921E-05-6.34452E-05 1.05336E-05-1.97628E-06-7.18453E-18-1.17653E-18
 -1      1700 3.18660E-05-1.24661E-05-1.04957E-05 2.55223E-05-3.58464E-18-3.02179E-18
 -1      1701 2.74946E-05-3.34274E-05-2.18549E-06 8.83140E-06-4.58245E-18-2.05829E-18
 -1      1702 6.87001E-05-8.06023E-07-2.86263E-05 5.66588E-05-2.57329E-18-1.23667E-19
 -1      1703 4.71331E-05-8.29701E-06-1.91162E-05 3.43473E-05-3.73880E-18-2.18196E-18
 -1      1704 1.28033E-04-1.15907E-05-4.68723E-05 7.71565E-05-3.79471E-19-1.56955E-18
 -1      1705 9.02808E-05-2.06039E-06-3.76650E-05 6.26017E-05-1.38320E-18-8.41951E-19
 -1      1706 1.95346E-04-3.76252E-05-6.24446E-05 6.99153E-05-1.17759E-18-4.53163E-19
 -1      1707 1.52523E-04-1.82297E-05-5.48700E-05 7.40414E-05-1.19432E-18-9.70700E-19
 -1      1708 2.47076E-04-6.11773E-05-7.29824E-05 3.57907E-05 2.24464E-20-2.32511E-19
 -1      1709 2.16271E-04-4.44100E-05-6.85214E-05 6.19482E-05-5.20025E-19-4.66715E-19
 -1      1710 2.55711E-04-6.45257E-05-7.53240E-05-1.89023E-05 6.85673E-19-4.68621E-19
 -1      1711 2.55512E-04-6.44709E-05-7.52321E-05 1.80365E-05 8.08069E-19 4.19493E-19
 -1      1712 2.16574E-04-4.42484E-05-6.87955E-05-6.05970E-05 3.48607E-19-1.12486E-18
 -1      1713 2.45695E-04-6.01458E-05-7.30079E-05-3.48982E-05 6.30828E-19-7.90282E-19
 -1      1714 1.55037E-04-1.85230E-05-5.56045E-05-7.53871E-05 8.53809E-19-1.36542E-18
 -1      1715 1.97837E-04-3.82883E-05-6.31181E-05-7.04048E-05 1.07404E-18-7.92823E-19
 -1      1716 9.18400E-05-2.13009E-06-3.81417E-05-6.37931E-05 3.56093E-18-2.06591E-18
 -1      1717 1.30660E-04-1.20500E-05-4.75556E-05-7.85804E-05 1.82281E-18-1.60597E-18
 -1      1718 4.77933E-05-9.17894E-06-1.90487E-05-3.44151E-05 3.62022E-18-3.64648E-18
 -1      1719 6.99767E-05-1.16506E-06-2.88593E-05-5.76040E-05 3.79810E-18-2.56820E-18
 -1      1720 2.82463E-05-3.62802E-05-1.38723E-06-8.28667E-06 2.91972E-18-1.91175E-18
 -1      1721 3.21576E-05-1.35522E-05-1.00937E-05-2.53808E-05 2.99172E-18-3.31656E-18
 -1      1722 2.57554E-05-6.58136E-05 1.10577E-05-2.06413E-07 2.25311E-18 7.09919E-19
 -1      1723 2.11517E-05-4.35235E-05 5.25375E-06-3.17140E-06 1.89566E-18-1.52911E-18
 -1      1724 2.53241E-05-8.18866E-05 1.72386E-05-2.11614E-06 4.56191E-18 1.04354E-18
 -1      1725 2.18912E-05-7.21152E-05 1.52291E-05 6.65120E-06 1.74404E-18 1.59390E-18
 -1      1726 1.11427E-04-3.20495E-05-3.33430E-05 4.65154E-05 3.25091E-18 3.52535E-18
 -1      1727 7.00711E-05-3.68516E-05-1.57816E-05 3.84727E-05 4.08609E-18 2.73126E-18
 -1      1728 9.55048E-05-2.82051E-05-2.88765E-05 6.80334E-07-6.55627E-19 7.42535E-19
 -1      1729 9.57583E-05-2.75390E-05-2.92597E-05 2.07675E-06 3.60312E-19 2.07364E-18
 -1      1730 1.91928E-05-5.20380E-05 9.55321E-06 1.26412E-05 4.85646E-18 1.13164E-18
 -1      1731 3.81869E-05-4.51641E-05-4.71526E-07 2.56701E-05 3.67104E-18 4.25814E-18
 -1      1732 1.28581E-05-5.48983E-05 1.31091E-05-1.07421E-07 4.24708E-18 1.41709E-18
 -1      1733 1.55911E-04-3.19215E-05-5.02016E-05 4.59043E-05 3.98211E-18 1.48908E-18
 -1      1734 1.91999E-04-3.32986E-05-6.33772E-05 3.19308E-05 5.68052E-18-1.66569E-18
 -1      1735 2.13242E-04-3.49609E-05-7.08471E-05 1.15125E-05 3.08024E-18-3.00400E-18
 -1      1736 2.15498E-04-3.64764E-05-7.09834E-05-9.06376E-06 1.29342E-18-4.17799E-18
 -1      1737 1.93033E-04-3.48976E-05-6.31256E-05-3.01047E-05 1.34096E-18-4.95175E-18
 -1      1738 1.54816E-04-3.28318E-05-4.94509E-05-4.30519E-05 1.73006E-18-4.10049E-18
 -1      1739 1.09605E-04-3.28438E-05-3.23738E-05-4.39366E-05 2.20059E-18-3.72102E-18
 -1      1740 6.95891E-05-3.84004E-05-1.50238E-05-3.66343E-05 1.04693E-18-4.39441E-18
 -1      1741 3.78748E-05-4.46165E-05-2.63869E-07-2.55093E-05-4.88738E-19-2.05220E-18
 -1      1742 1.78610E-05-5.14488E-05 9.83252E-06-1.04470E-05-1.92573E-18-1.79232E-18
 -1      1743 1.26660E-05-5.43375E-05 1.29630E-05 1.55449E-06-3.60910E-18-2.72660E-18
 -1      1744 1.87593E-05-5.02369E-05 9.06877E-06 1.36804E-05-4.72560E-18-1.05879E-18
 -1      1745 3.74402E-05-4.20926E-05-1.18741E-06 2.64608E-05-3.88026E-18-6.04093E-19
 -1      1746 6.77651E-05-3.37229E-05-1.59694E-05 3.87174E-05-2.85450E-18-1.64324E-18
 -1      1747 1.07591E-04-2.93722E-05-3.28057E-05 4.66402E-05-2.92989E-18-1.69407E-19
 -1      1748 1.50988E-04-3.01020E-05-4.90672E-05 4.43857E-05-8.36022E-19-9.08866E-19
 -1      1749 1.89022E-04-3.32810E-05-6.23950E-05 3.24473E-05-1.15525E-18-5.56501E-19
 -1      1750 2.13379E-04-3.59441E-05-7.03818E-05 1.22427E-05-3.43048E-20-8.81761E-19
 -1      1751 2.11867E-04-3.49712E-05-7.02963E-05-1.23330E-05 7.65294E-19-4.11658E-19
 -1      1752 1.88869E-04-3.22762E-05-6.26847E-05-3.21705E-05 6.89379E-19-1.91853E-18
 -1      1753 1.53074E-04-3.02374E-05-4.96861E-05-4.52881E-05 1.82705E-18-1.48146E-18
 -1      1754 1.09489E-04-3.02307E-05-3.31428E-05-4.74497E-05 3.35679E-18-8.09763E-19
 -1      1755 6.89861E-05-3.55791E-05-1.57596E-05-3.92676E-05 2.88838E-18-3.32418E-18
 -1      1756 3.86917E-05-4.42301E-05-8.42005E-07-2.78417E-05 2.32341E-18-2.57588E-18
 -1      1757 1.94408E-05-5.10023E-05 9.27935E-06-1.53770E-05 2.92438E-18-1.31714E-19
 -1      1758 1.06049E-04-2.31696E-05-3.56032E-05-1.68554E-05-1.09053E-18 2.37106E-18
 -1      1759 8.91521E-05-1.05878E-05-3.37956E-05-1.33329E-05-1.03441E-18-2.38879E-18
 -1      1760 9.04803E-05-1.16310E-05-3.39350E-05-1.51417E-05-1.27576E-18-2.07293E-18
 -1      1761 9.24864E-05-1.38744E-05-3.38529E-05-1.60057E-05-1.34647E-18-1.54912E-18
 -1      1762 9.42033E-05-1.58205E-05-3.40968E-05-1.76665E-05-1.50602E-18-8.87585E-19
 -1      1763 9.34148E-05-1.63469E-05-3.30437E-05-1.37749E-05-1.44686E-18-1.67739E-18
 -1      1764 8.62138E-05-7.67618E-06-3.37299E-05-7.86897E-06-3.19728E-19-2.66170E-18
 -1      1765 8.66157E-05-7.97369E-06-3.37636E-05-9.25868E-06-4.82005E-19-2.66590E-18
 -1      1766 8.55988E-05-7.03899E-06-3.37277E-05-5.32372E-06 2.14802E-20-2.66753E-18
 -1      1767 8.58326E-05-7.21756E-06-3.37425E-05-6.62889E-06-1.55109E-19-2.71048E-18
 -1      1768 8.75979E-05-9.87013E-06-3.33434E-05-6.93369E-06-2.50166E-19-2.60760E-18
 -1      1769 8.52654E-05-6.68084E-06-3.37314E-05-2.89091E-06 3.79055E-19-2.49295E-18
 -1      1770 8.53856E-05-6.77542E-06-3.37372E-05-4.13135E-06 2.16496E-19-2.60880E-18
 -1      1771 8.69637E-05-9.15885E-06-3.33773E-05-4.54081E-06 1.60753E-19-2.56757E-18
 -1      1772 8.51351E-05-6.53295E-06-3.37350E-05-5.17833E-07 6.42696E-19-2.45342E-18
 -1      1773 8.51706E-05-6.56144E-06-3.37364E-05-1.72829E-06 5.40560E-19-2.49527E-18
 -1      1774 8.66332E-05-8.78064E-06-3.33977E-05-2.21903E-06 4.69123E-19-2.41308E-18
 -1      1775 8.51802E-05-6.57033E-06-3.37365E-05 1.84655E-06 8.87763E-19-2.25389E-18
 -1      1776 8.51387E-05-6.53746E-06-3.37349E-05 6.35122E-07 7.60083E-19-2.38401E-18
 -1      1777 8.65354E-05-8.66727E-06-3.34044E-05 6.55535E-08 7.41119E-19-2.35895E-18
 -1      1778 8.54104E-05-6.80022E-06-3.37372E-05 4.25405E-06 1.06912E-18-2.13385E-18
 -1      1779 8.52829E-05-6.69968E-06-3.37313E-05 3.01049E-06 9.80545E-19-2.20596E-18
 -1      1780 8.66505E-05-8.80012E-06-3.33970E-05 2.35123E-06 9.85241E-19-2.17620E-18
 -1      1781 8.58659E-05-7.25292E-06-3.37423E-05 6.71664E-06 1.29093E-18-1.81244E-18
 -1      1782 8.56286E-05-7.07093E-06-3.37276E-05 5.42880E-06 1.18345E-18-2.00503E-18
 -1      1783 8.69976E-05-9.19665E-06-3.33758E-05 4.65608E-06 1.23826E-18-1.98932E-18
 -1      1784 8.66772E-05-8.04190E-06-3.37624E-05 9.37934E-06 1.60222E-18-1.25602E-18
 -1      1785 8.62574E-05-7.72566E-06-3.37290E-05 7.95809E-06 1.40724E-18-1.55904E-18
 -1      1786 8.76480E-05-9.92850E-06-3.33411E-05 7.03261E-06 1.44665E-18-1.58962E-18
 -1      1787 8.80874E-05-9.38858E-06-3.38172E-05 1.22587E-05 1.82127E-18-6.40569E-19
 -1      1788 8.73485E-05-8.83109E-06-3.37455E-05 1.06656E-05 1.67895E-18-1.01848E-18
 -1      1789 8.87670E-05-1.11623E-05-3.32900E-05 9.50781E-06 1.75242E-18-1.06199E-18
 -1      1790 9.06294E-05-1.18398E-05-3.39268E-05 1.53070E-05 1.91138E-18 4.08614E-19
 -1      1791 8.92499E-05-1.07409E-05-3.37872E-05 1.35174E-05 1.86114E-18-2.32881E-19
 -1      1792 9.06620E-05-1.32236E-05-3.32066E-05 1.19801E-05 1.89550E-18-3.41751E-19
 -1      1793 9.58729E-05-1.70336E-05-3.39922E-05 1.76941E-05 1.72601E-18 2.27592E-18
 -1      1794 9.28538E-05-1.43425E-05-3.38261E-05 1.61977E-05 1.78887E-18 1.15302E-18
 -1      1795 9.39675E-05-1.68867E-05-3.30234E-05 1.38987E-05 1.88157E-18 7.92505E-19
 -1      1796 1.01922E-04-2.50934E-05-3.33583E-05 1.44253E-05 1.38162E-18 4.34888E-18
 -1      1797 9.80732E-05-1.96156E-05-3.36243E-05 1.69675E-05 1.57546E-18 3.00776E-18
 -1      1798 9.73258E-05-2.18533E-05-3.24266E-05 1.32521E-05 1.69170E-18 2.18812E-18
 -1      1799 9.87481E-05-2.61341E-05-3.13412E-05 9.43775E-06 1.37264E-18 3.84622E-18
 -1      1800 1.00152E-04-1.95619E-05-3.42170E-05-1.88724E-05-1.39361E-18 3.40295E-19
 -1      1801 9.53056E-05-2.72841E-05-2.91836E-05 4.06984E-06 1.00637E-18 3.21806E-18
 -1      1802 9.77369E-05-2.73895E-05-3.01930E-05 6.40377E-06 1.06446E-18 3.51451E-18
 -1      1803 9.75722E-05-2.56137E-05-3.08314E-05 8.76332E-06 1.32113E-18 2.55795E-18
 -1      1804 9.98117E-05-2.25408E-05-3.28351E-05-1.44712E-05-1.47056E-18-1.07732E-19
 -1      1805 9.69529E-05-2.69760E-05-2.98754E-05-5.70710E-06-1.13029E-18-2.68536E-19
 -1      1806 9.51449E-05-2.70325E-05-2.91644E-05-3.89951E-06-9.81248E-19-5.23063E-19
 -1      1807 9.43297E-05-2.72377E-05-2.86567E-05-2.42595E-06-9.23345E-19-4.57093E-19
 -1      1808 9.35550E-05-2.73161E-05-2.83515E-05-1.57638E-06-8.08791E-19-7.15194E-19
 -1      1809 9.55033E-05-2.65538E-05-2.95733E-05-4.47530E-06-1.08298E-18-7.82420E-19
 -1      1810 9.30263E-05-2.73626E-05-2.80827E-05-7.47641E-07-7.18092E-19-7.25484E-19
 -1      1811 9.27238E-05-2.74266E-05-2.79600E-05-3.09265E-07-5.12739E-19-8.02168E-19
 -1      1812 9.42899E-05-2.72228E-05-2.87650E-05-1.83747E-06-8.33983E-19-7.96883E-19
 -1      1813 9.24475E-05-2.74546E-05-2.78234E-05 1.45291E-07-4.62853E-19-7.85504E-19
 -1      1814 9.24142E-05-2.75303E-05-2.77928E-05 3.68634E-07-3.87756E-19-9.66743E-19
 -1      1815 9.35856E-05-2.75247E-05-2.83282E-05-3.70687E-07-6.07189E-19-9.24359E-19
 -1      1816 9.23093E-05-2.75613E-05-2.77341E-05 6.07294E-07-3.85804E-19-9.50685E-19
 -1      1817 9.24217E-05-2.76454E-05-2.77526E-05 7.10416E-07-3.34202E-19-1.06159E-18
 -1      1818 9.32624E-05-2.77097E-05-2.81062E-05 4.29373E-07-4.46788E-19-9.86209E-19
 -1      1819 9.24254E-05-2.76828E-05-2.77403E-05 8.20711E-07-4.17047E-19-1.04253E-18
 -1      1820 9.26104E-05-2.77684E-05-2.77843E-05 8.53797E-07-2.97489E-19-1.21546E-18
 -1      1821 9.31956E-05-2.78512E-05-2.80130E-05 8.38799E-07-4.05338E-19-1.07497E-18
 -1      1822 9.26776E-05-2.78092E-05-2.77987E-05 8.86935E-07-2.45054E-19-1.09964E-18
 -1      1823 9.28911E-05-2.78908E-05-2.78543E-05 8.79328E-07-1.90557E-19-1.01255E-18
 -1      1824 9.32872E-05-2.79731E-05-2.79969E-05 1.01325E-06-2.67160E-19-1.04096E-18
 -1      1825 9.29914E-05-2.79316E-05-2.78833E-05 8.67347E-07-4.79871E-19-1.11206E-18
 -1      1826 9.32076E-05-2.80055E-05-2.79421E-05 8.37496E-07-4.37202E-19-1.06579E-18
 -1      1827 9.34669E-05-2.80804E-05-2.80257E-05 1.04705E-06-2.83044E-19-9.04685E-19
 -1      1828 9.33214E-05-2.80439E-05-2.79779E-05 8.01271E-07-4.36559E-19-1.03552E-18
 -1      1829 9.35258E-05-2.81088E-05-2.80350E-05 7.61279E-07-2.59908E-19-1.20577E-18
 -1      1830 9.36879E-05-2.81737E-05-2.80789E-05 1.00038E-06-6.55118E-19-1.05840E-18
 -1      1831 9.36416E-05-2.81434E-05-2.80731E-05 7.14796E-07-1.64874E-19-1.57327E-18
 -1      1832 9.38275E-05-2.81988E-05-2.81261E-05 6.72808E-07 7.47263E-20-1.51879E-18
 -1      1833 9.39208E-05-2.82530E-05-2.81438E-05 9.13055E-07-4.15221E-19-1.08963E-18
 -1      1834 9.39391E-05-2.82293E-05-2.81639E-05 6.25632E-07 7.83464E-21-1.75708E-18
 -1      1835 9.41048E-05-2.82759E-05-2.82120E-05 5.87251E-07 1.36249E-20-1.86618E-18
 -1      1836 9.41491E-05-2.83191E-05-2.82129E-05 8.12003E-07-3.96429E-20-1.37105E-18
 -1      1837 9.42101E-05-2.83024E-05-2.82485E-05 5.46089E-07 4.33879E-20-1.99290E-18
 -1      1838 9.43579E-05-2.83417E-05-2.82921E-05 5.15305E-07-1.06458E-19-1.81706E-18
 -1      1839 9.43650E-05-2.83732E-05-2.82821E-05 7.15886E-07-1.54677E-19-1.51153E-18
 -1      1840 9.44575E-05-2.83649E-05-2.83274E-05 4.85060E-07-3.74903E-19-1.84209E-18
 -1      1841 9.45923E-05-2.83987E-05-2.83678E-05 4.64896E-07-5.19793E-19-1.64371E-18
 -1      1842 9.45678E-05-2.84173E-05-2.83501E-05 6.38029E-07-3.01653E-19-1.58588E-18
 -1      1843 9.46891E-05-2.84197E-05-2.84026E-05 4.49415E-07-7.05609E-19-1.66314E-18
 -1      1844 9.48177E-05-2.84502E-05-2.84417E-05 4.42388E-07-5.54498E-19-1.80364E-18
 -1      1845 9.47611E-05-2.84539E-05-2.84176E-05 5.88468E-07-6.03574E-19-1.44832E-18
 -1      1846 9.49164E-05-2.84705E-05-2.84776E-05 4.44988E-07-2.97376E-19-1.55137E-18
 -1      1847 9.50474E-05-2.85005E-05-2.85178E-05 4.53435E-07-5.42475E-20-1.55424E-18
 -1      1848 9.49528E-05-2.84856E-05-2.84865E-05 5.75395E-07-4.01187E-19-1.16128E-18
 -1      1849 9.51538E-05-2.85217E-05-2.85568E-05 4.77251E-07-3.42832E-20-2.03874E-18
 -1      1850 9.52975E-05-2.85541E-05-2.86011E-05 5.03519E-07 4.39098E-21-2.14290E-18
 -1      1851 9.51533E-05-2.85160E-05-2.85599E-05 6.06144E-07-2.32182E-19-1.16496E-18
 -1      1852 9.54190E-05-2.85784E-05-2.86455E-05 5.51675E-07 1.94646E-20-2.12090E-18
 -1      1853 9.55872E-05-2.86168E-05-2.86972E-05 5.98182E-07-1.71432E-19-2.31295E-18
 -1      1854 9.53760E-05-2.85487E-05-2.86419E-05 6.87787E-07-3.77316E-20-1.66831E-18
 -1      1855 9.57320E-05-2.86466E-05-2.87497E-05 6.73772E-07-2.88458E-19-2.34213E-18
 -1      1856 9.59378E-05-2.86950E-05-2.88126E-05 7.42891E-07 1.19204E-19-2.62004E-18
 -1      1857 9.56365E-05-2.85884E-05-2.87372E-05 8.27302E-07-2.71136E-19-1.90404E-18
 -1      1858 9.61154E-05-2.87333E-05-2.88762E-05 8.48705E-07 6.11394E-19-2.40025E-18
 -1      1859 9.63733E-05-2.87965E-05-2.89543E-05 9.42431E-07 7.02473E-19-2.23867E-18
 -1      1860 9.59526E-05-2.86408E-05-2.88509E-05 1.03125E-06 2.36704E-19-2.17379E-18
 -1      1861 9.65938E-05-2.88468E-05-2.90320E-05 1.08035E-06 8.27375E-19-1.91942E-18
 -1      1862 9.69189E-05-2.89301E-05-2.91295E-05 1.19964E-06 6.56617E-19-1.31130E-18
 -1      1863 9.63439E-05-2.87129E-05-2.89885E-05 1.30483E-06 1.08926E-18-1.50341E-18
 -1      1864 9.71928E-05-2.89967E-05-2.92240E-05 1.36957E-06 2.29476E-20-8.06811E-19
 -1      1865 9.76000E-05-2.91064E-05-2.93447E-05 1.51322E-06 2.99725E-19-8.56590E-19
 -1      1866 9.68317E-05-2.88138E-05-2.91551E-05 1.64998E-06 6.21465E-19-8.17485E-19
 -1      1867 9.79375E-05-2.91945E-05-2.94580E-05 1.71141E-06 2.98691E-19-1.06390E-18
 -1      1868 9.84393E-05-2.93371E-05-2.96050E-05 1.87434E-06-1.07021E-19-8.49666E-19
 -1      1869 9.74374E-05-2.89552E-05-2.93548E-05 2.06240E-06 3.08439E-19-6.68829E-19
 -1      1870 9.88497E-05-2.94532E-05-2.97380E-05 2.09083E-06-2.32597E-19-4.80728E-19
 -1      1871 9.94534E-05-2.96356E-05-2.99122E-05 2.26158E-06 7.17017E-20-7.86913E-19
 -1      1872 9.81818E-05-2.91525E-05-2.95898E-05 2.52692E-06-5.43458E-22-5.55951E-19
 -1      1873 9.99432E-05-2.97873E-05-3.00637E-05 2.47673E-06-1.10677E-20-1.13231E-18
 -1      1874 1.00646E-04-3.00156E-05-3.02631E-05 2.63407E-06-2.84910E-19-1.40102E-18
 -1      1875 9.90823E-05-2.94253E-05-2.98592E-05 3.01090E-06-1.29407E-19-1.09495E-18
 -1      1876 1.01218E-04-3.02117E-05-3.04286E-05 2.81415E-06-6.27358E-19-1.59077E-18
 -1      1877 1.02002E-04-3.04895E-05-3.06458E-05 2.92314E-06-2.58458E-19-1.69635E-18
 -1      1878 1.00150E-04-2.97982E-05-3.01570E-05 3.45574E-06-1.84975E-19-1.94101E-18
 -1      1879 1.02649E-04-3.07392E-05-3.08170E-05 3.01574E-06-2.62775E-19-1.51888E-18
 -1      1880 1.03470E-04-3.10641E-05-3.10375E-05 3.02440E-06 2.31567E-20-1.54962E-18
 -1      1881 1.01385E-04-3.02994E-05-3.04707E-05 3.76704E-06-1.46499E-19-1.80990E-18
 -1      1882 1.04176E-04-3.13737E-05-3.12012E-05 2.95556E-06 4.78770E-19-1.81501E-18
 -1      1883 1.04958E-04-3.17317E-05-3.14014E-05 2.79480E-06 7.72520E-19-1.80212E-18
 -1      1884 1.02767E-04-3.09557E-05-3.07803E-05 3.80649E-06-1.26856E-20-1.88647E-18
 -1      1885 1.05686E-04-3.20976E-05-3.15402E-05 2.47230E-06 5.77908E-19-2.47350E-18
 -1      1886 1.06311E-04-3.24536E-05-3.16873E-05 2.06459E-06 2.05098E-19-2.14509E-18
 -1      1887 1.04244E-04-3.17775E-05-3.10584E-05 3.39192E-06 3.15990E-19-2.32713E-18
 -1      1888 1.06994E-04-3.28491E-05-3.17816E-05 1.39512E-06-1.25487E-19-2.27721E-18
 -1      1889 1.07307E-04-3.31343E-05-3.18371E-05 6.79557E-07-4.93347E-19-2.09301E-18
 -1      1890 1.05713E-04-3.27310E-05-3.12745E-05 2.31849E-06 2.14814E-19-3.00315E-18
 -1      1891 1.07834E-04-3.34899E-05-3.18706E-05-3.89627E-07-8.63282E-19-1.66978E-18
 -1      1892 1.07656E-04-3.35926E-05-3.17990E-05-1.40893E-06-6.52626E-19-1.97852E-18
 -1      1893 1.06989E-04-3.36906E-05-3.14022E-05 4.20152E-07-3.82809E-19-2.31190E-18
 -1      1894 1.07865E-04-3.37792E-05-3.17655E-05-2.81674E-06-7.07008E-20-1.40253E-18
 -1      1895 1.07051E-04-3.35550E-05-3.15495E-05-4.00393E-06 5.63965E-19-7.81216E-19
 -1      1896 1.07782E-04-3.43877E-05-3.14317E-05-2.30808E-06 1.97266E-20-1.12809E-18
 -1      1897 1.06754E-04-3.33980E-05-3.14597E-05-5.48676E-06 6.62701E-19-5.29429E-19
 -1      1898 1.05277E-04-3.27276E-05-3.11167E-05-6.52481E-06 7.23399E-19-2.31319E-19
 -1      1899 1.07711E-04-3.44086E-05-3.13798E-05-5.53112E-06 8.58607E-19 9.74377E-20
 -1      1900 1.04360E-04-3.20940E-05-3.09977E-05-7.58178E-06 9.42572E-20-9.25331E-19
 -1      1901 1.02413E-04-3.09981E-05-3.05885E-05-8.01545E-06-3.62042E-19-1.22606E-18
 -1      1902 1.06437E-04-3.33352E-05-3.12894E-05-8.42098E-06-1.37924E-19-9.10172E-19
 -1      1903 1.01009E-04-2.99560E-05-3.04728E-05-8.04488E-06-7.10684E-19-1.44027E-18
 -1      1904 9.90505E-05-2.87071E-05-3.00908E-05-7.48380E-06-9.70763E-19-1.21486E-18
 -1      1905 1.03960E-04-3.10851E-05-3.12085E-05-9.73605E-06-6.66512E-19-3.97247E-19
 -1      1906 9.76444E-05-2.76393E-05-2.99999E-05-6.14507E-06-1.04331E-18-9.20255E-19
 -1      1907 9.62774E-05-2.67262E-05-2.97403E-05-4.57363E-06-8.72801E-19-1.64302E-18
 -1      1908 1.00935E-04-2.82725E-05-3.11563E-05-8.35688E-06-1.07109E-18-6.79570E-19
 -1      1909 9.55301E-05-2.61870E-05-2.96784E-05-2.17533E-06 2.90440E-19-1.38469E-18
 -1      1910 9.52230E-05-2.60452E-05-2.96033E-05-1.16354E-07 6.95791E-19-7.72927E-19
 -1      1911 9.86114E-05-2.61481E-05-3.11079E-05-4.17774E-06-2.58239E-19-3.52637E-19
 -1      1912 9.55036E-05-2.63513E-05-2.95693E-05 2.38642E-06 5.80760E-19-6.41733E-19
 -1      1913 9.63020E-05-2.70267E-05-2.96842E-05 4.10221E-06 9.65935E-19-6.63194E-19
 -1      1914 9.81277E-05-2.58658E-05-3.10267E-05 1.36811E-06 1.09472E-18 6.44739E-19
 -1      1915 9.73541E-05-2.79580E-05-2.96782E-05 5.68462E-06 6.26904E-19-4.73743E-20
 -1      1916 9.88516E-05-2.90741E-05-2.99282E-05 6.44043E-06-6.60633E-19 3.06633E-19
 -1      1917 9.96090E-05-2.75503E-05-3.09082E-05 5.95557E-06 5.85442E-19 4.41789E-19
 -1      1918 1.00038E-04-3.00966E-05-2.99459E-05 6.63516E-06-1.67245E-18 7.22810E-19
 -1      1919 1.01623E-04-3.11421E-05-3.02380E-05 6.33257E-06-1.33365E-18 5.94213E-19
 -1      1920 1.02067E-04-3.02039E-05-3.07817E-05 7.87738E-06-1.00317E-18 1.42025E-18
 -1      1921 1.02377E-04-3.17981E-05-3.02629E-05 5.37206E-06-1.15399E-18 5.38819E-19
 -1      1922 1.03538E-04-3.24333E-05-3.05004E-05 4.36036E-06 1.43357E-19 8.21248E-19
 -1      1923 1.04185E-04-3.25119E-05-3.06778E-05 6.91781E-06-1.15364E-18 2.46381E-18
 -1      1924 1.03654E-04-3.25856E-05-3.05035E-05 2.85075E-06 1.10303E-18-8.24484E-19
 -1      1925 1.04144E-04-3.27395E-05-3.06194E-05 1.61557E-06 7.45237E-19 3.32756E-20
 -1      1926 1.05134E-04-3.36634E-05-3.05923E-05 4.09438E-06-2.66286E-20 1.52595E-18
 -1      1927 1.03705E-04-3.24905E-05-3.05757E-05 1.30129E-07 3.27180E-19 9.76318E-19
 -1      1928 1.03531E-04-3.22647E-05-3.05503E-05-9.44186E-07 1.26890E-18 1.80687E-18
 -1      1929 1.04799E-04-3.36022E-05-3.04874E-05 7.46576E-07 1.46296E-18 3.05658E-18
 -1      1930 1.02734E-04-3.17887E-05-3.04528E-05-2.05076E-06 2.09597E-18 7.11499E-19
 -1      1931 1.02062E-04-3.13339E-05-3.03096E-05-2.75381E-06 2.43180E-18 6.47289E-19
 -1      1932 1.03496E-04-3.27007E-05-3.03289E-05-2.11240E-06 1.55419E-18 3.58762E-18
 -1      1933 1.01096E-04-3.07717E-05-3.01714E-05-3.33525E-06 8.16510E-19 9.00965E-20
 -1      1934 1.00157E-04-3.02210E-05-2.99608E-05-3.59340E-06-2.68213E-19-4.81720E-19
 -1      1935 1.01645E-04-3.13836E-05-3.01104E-05-3.95550E-06 1.30768E-18 8.61356E-19
 -1      1936 9.91677E-05-2.96582E-05-2.98067E-05-3.63807E-06 3.08066E-19-6.43709E-19
 -1      1937 9.81924E-05-2.91114E-05-2.95876E-05-3.45808E-06 7.00698E-19-4.85092E-20
 -1      1938 9.96079E-05-2.99602E-05-2.98539E-05-4.62137E-06 7.84378E-20 6.12243E-19
 -1      1939 9.73780E-05-2.86755E-05-2.94498E-05-3.02781E-06 1.88075E-18 2.75201E-19
 -1      1940 9.65686E-05-2.82397E-05-2.92581E-05-2.50333E-06 1.39386E-18 7.90714E-19
 -1      1941 9.62563E-05-2.77867E-05-2.93480E-05-2.98319E-06 8.37605E-19 3.82717E-19
 -1      1942 9.77307E-05-2.86550E-05-2.96045E-05-4.18508E-06 1.24217E-18 1.45202E-18
 -1      1943 9.32040E-05-2.73605E-05-2.81908E-05 1.60873E-06 8.81007E-19 2.66962E-18
 -1      1944 9.43998E-05-2.74662E-05-2.86277E-05 2.67947E-06 9.31816E-19 3.02708E-18
 -1      1945 9.52243E-05-2.70456E-05-2.92249E-05 4.05789E-06 1.12088E-18 2.16158E-18
 -1      1946 9.21496E-05-2.73464E-05-2.77483E-05 3.52687E-07 7.16679E-19 2.06847E-18
 -1      1947 9.26453E-05-2.73790E-05-2.79211E-05 9.00404E-07 6.85862E-19 2.42408E-18
 -1      1948 9.36180E-05-2.73663E-05-2.84005E-05 1.58994E-06 9.38089E-19 1.80474E-18
 -1      1949 9.17713E-05-2.73832E-05-2.75792E-05-2.99589E-07 5.53652E-19 1.73811E-18
 -1      1950 9.18880E-05-2.73570E-05-2.76267E-05-7.67877E-09 5.89303E-19 1.90297E-18
 -1      1951 9.27847E-05-2.74809E-05-2.79973E-05 2.78211E-07 7.78827E-19 1.22983E-18
 -1      1952 9.17914E-05-2.74727E-05-2.75551E-05-6.24075E-07 4.21266E-19 1.27844E-18
 -1      1953 9.17056E-05-2.74114E-05-2.75393E-05-4.71924E-07 4.85045E-19 1.66929E-18
 -1      1954 9.24682E-05-2.75731E-05-2.78222E-05-4.13885E-07 6.44619E-19 9.34052E-19
 -1      1955 9.20316E-05-2.75933E-05-2.76094E-05-7.60789E-07 5.33646E-19 8.51930E-19
 -1      1956 9.18431E-05-2.75154E-05-2.75614E-05-6.90150E-07 4.14159E-19 1.07020E-18
 -1      1957 9.24684E-05-2.76772E-05-2.77758E-05-7.57519E-07 6.10840E-19 5.99140E-19
 -1      1958 9.23803E-05-2.77260E-05-2.77038E-05-7.87516E-07 4.78942E-19 8.08888E-19
 -1      1959 9.21476E-05-2.76435E-05-2.76412E-05-7.65673E-07 5.06606E-19 8.20850E-19
 -1      1960 9.26498E-05-2.77913E-05-2.78025E-05-8.97544E-07 5.57061E-19 3.43013E-19
 -1      1961 9.27685E-05-2.78576E-05-2.78152E-05-7.51360E-07 3.92846E-19 3.62361E-19
 -1      1962 9.25261E-05-2.77779E-05-2.77482E-05-7.58249E-07 5.42061E-19 8.03478E-19
 -1      1963 9.29236E-05-2.79067E-05-2.78686E-05-9.17777E-07 5.69709E-19 4.13206E-19
 -1      1964 9.31553E-05-2.79802E-05-2.79294E-05-6.82464E-07 2.12546E-19 5.49005E-19
 -1      1965 9.29227E-05-2.79073E-05-2.78640E-05-7.05055E-07 2.10309E-19 3.81663E-19
 -1      1966 9.32340E-05-2.80165E-05-2.79532E-05-8.70165E-07 3.93164E-19 4.39649E-19
 -1      1967 9.35182E-05-2.80899E-05-2.80385E-05-6.00777E-07 5.24317E-19 4.94041E-19
 -1      1968 9.33055E-05-2.80256E-05-2.79781E-05-6.30308E-07 4.10323E-19 5.60286E-19
 -1      1969 9.35471E-05-2.81162E-05-2.80436E-05-7.88425E-07 4.86395E-19 5.38075E-19
 -1      1970 9.38474E-05-2.81857E-05-2.81391E-05-5.19815E-07-7.27867E-20 3.96603E-19
 -1      1971 9.36583E-05-2.81301E-05-2.80847E-05-5.50238E-07 3.62538E-19 4.60524E-19
 -1      1972 9.38445E-05-2.82040E-05-2.81329E-05-6.95111E-07 3.19950E-19 2.20349E-19
 -1      1973 9.41422E-05-2.82683E-05-2.82303E-05-4.48986E-07 1.27468E-19-5.29289E-20
 -1      1974 9.39757E-05-2.82207E-05-2.81819E-05-4.75992E-07-1.80468E-19 2.24562E-19
 -1      1975 9.41185E-05-2.82796E-05-2.82175E-05-6.05695E-07 1.82672E-20-6.03453E-20
 -1      1976 9.44081E-05-2.83401E-05-2.83136E-05-3.95183E-07 1.89745E-19 2.11387E-19
 -1      1977 9.42602E-05-2.82990E-05-2.82700E-05-4.15525E-07 1.44495E-19 2.51952E-19
 -1      1978 9.43691E-05-2.83446E-05-2.82968E-05-5.31162E-07 1.64214E-19-1.68669E-19
 -1      1979 9.46555E-05-2.84045E-05-2.83919E-05-3.63950E-07-2.77040E-19 2.79882E-19
 -1      1980 9.45197E-05-2.83678E-05-2.83514E-05-3.74937E-07 1.03773E-19 2.34528E-19
 -1      1981 9.46017E-05-2.84014E-05-2.83722E-05-4.79831E-07 2.32773E-19-1.79794E-20
 -1      1982 9.48989E-05-2.84659E-05-2.84696E-05-3.60370E-07 2.42930E-19-1.19458E-19
 -1      1983 9.47666E-05-2.84308E-05-2.84296E-05-3.59471E-07-3.77967E-20 1.43256E-19
 -1      1984 9.48264E-05-2.84530E-05-2.84465E-05-4.58686E-07-2.24452E-20-1.16319E-19
 -1      1985 9.51564E-05-2.85294E-05-2.85523E-05-3.89762E-07 5.30584E-19-2.94944E-19
 -1      1986 9.50170E-05-2.84929E-05-2.85098E-05-3.74290E-07 4.34030E-19-2.19741E-19
 -1      1987 9.50567E-05-2.85035E-05-2.85238E-05-4.74406E-07 6.24377E-19-6.43389E-19
 -1      1988 9.54500E-05-2.86012E-05-2.86467E-05-4.58248E-07 3.86019E-19-7.01770E-19
 -1      1989 9.52910E-05-2.85595E-05-2.85979E-05-4.25089E-07 5.74521E-19-3.64650E-19
 -1      1990 9.53098E-05-2.85574E-05-2.86095E-05-5.34163E-07 6.43062E-19-6.96699E-19
 -1      1991 9.58061E-05-2.86887E-05-2.87610E-05-5.73167E-07-3.63974E-19-6.52555E-19
 -1      1992 9.56124E-05-2.86374E-05-2.87014E-05-5.18570E-07-3.54373E-19-8.70282E-19
 -1      1993 9.56061E-05-2.86203E-05-2.87101E-05-6.46238E-07-5.00391E-20-8.36089E-19
 -1      1994 9.62555E-05-2.88003E-05-2.89045E-05-7.43348E-07-3.17199E-19 2.73487E-19
 -1      1995 9.60093E-05-2.87343E-05-2.88290E-05-6.62768E-07-3.14491E-19-1.45226E-19
 -1      1996 9.59702E-05-2.86986E-05-2.88332E-05-8.20446E-07-5.89919E-19-4.67651E-19
 -1      1997 9.68348E-05-2.89466E-05-2.90887E-05-9.79119E-07-5.18470E-19 2.67066E-19
 -1      1998 9.65150E-05-2.88594E-05-2.89910E-05-8.67175E-07-4.67229E-19 4.34389E-19
 -1      1999 9.64306E-05-2.87998E-05-2.89880E-05-1.06830E-06-5.52902E-19-1.40743E-19
 -1      2000 9.75860E-05-2.91396E-05-2.93261E-05-1.29188E-06 1.15132E-18 2.27808E-19
 -1      2001 9.71681E-05-2.90239E-05-2.91991E-05-1.14251E-06 6.47084E-19 8.79632E-19
 -1      2002 9.70205E-05-2.89333E-05-2.91845E-05-1.40276E-06 3.93171E-19 4.70683E-19
 -1      2003 9.85567E-05-2.93941E-05-2.96311E-05-1.69287E-06 9.78541E-19-9.72060E-19
 -1      2004 9.80129E-05-2.92410E-05-2.94668E-05-1.49984E-06 9.18275E-19-6.99459E-19
 -1      2005 9.77771E-05-2.91100E-05-2.94342E-05-1.83722E-06 1.21425E-18-2.38353E-19
 -1      2006 9.97987E-05-2.97274E-05-3.00186E-05-2.19037E-06-7.13758E-19-1.17174E-18
 -1      2007 9.90985E-05-2.95266E-05-2.98085E-05-1.94858E-06-7.73248E-20-1.40904E-18
 -1      2008 9.87420E-05-2.93440E-05-2.97488E-05-2.38317E-06 3.62911E-19-1.16794E-18
 -1      2009 1.01364E-04-3.01598E-05-3.05026E-05-2.78420E-06-5.88802E-19-5.19655E-19
 -1      2010 1.00477E-04-2.98996E-05-3.02384E-05-2.49231E-06-8.69961E-19-9.44331E-19
 -1      2011 9.99586E-05-2.96528E-05-3.01395E-05-3.04541E-06-6.26108E-19-8.77203E-19
 -1      2012 1.03297E-04-3.07150E-05-3.10931E-05-3.45561E-06 3.05013E-19-6.35093E-19
 -1      2013 1.02199E-04-3.03830E-05-3.07689E-05-3.12100E-06-2.51297E-20-3.11957E-19
 -1      2014 1.01470E-04-3.00597E-05-3.06145E-05-3.81322E-06 2.08433E-20-1.33333E-18
 -1      2015 1.05623E-04-3.14195E-05-3.17904E-05-4.14992E-06 5.48712E-19 2.84537E-19
 -1      2016 1.04303E-04-3.10038E-05-3.14056E-05-3.79748E-06 7.54218E-19 2.09131E-19
 -1      2017 1.03311E-04-3.05962E-05-3.11759E-05-4.64490E-06 5.80133E-19-3.55657E-19
 -1      2018 1.08324E-04-3.23007E-05-3.25768E-05-4.74956E-06-5.92544E-19 1.44148E-19
 -1      2019 1.06803E-04-3.17935E-05-3.21415E-05-4.43563E-06-7.86616E-20 1.39430E-20
 -1      2020 1.05504E-04-3.13054E-05-3.18137E-05-5.44319E-06 1.20510E-19 4.36166E-19
 -1      2021 1.11304E-04-3.33793E-05-3.34041E-05-5.03872E-06-2.72420E-19 4.44295E-19
 -1      2022 1.09659E-04-3.27841E-05-3.29468E-05-4.86989E-06-5.69151E-19 3.37695E-19
 -1      2023 1.08037E-04-3.22426E-05-3.24991E-05-6.02048E-06-4.57758E-19 7.16173E-19
 -1      2024 1.14346E-04-3.46478E-05-3.41820E-05-4.67257E-06 1.50458E-19-5.84056E-20
 -1      2025 1.12741E-04-3.39946E-05-3.37575E-05-4.82289E-06 1.66778E-19 5.74017E-19
 -1      2026 1.10845E-04-3.34665E-05-3.31778E-05-6.06080E-06 1.48843E-19 8.63795E-19
 -1      2027 1.17054E-04-3.60189E-05-3.47742E-05-3.19276E-06-7.78000E-19-1.70283E-19
 -1      2028 1.15771E-04-3.53921E-05-3.44674E-05-3.89741E-06-7.19826E-19-5.83308E-19
 -1      2029 1.13766E-04-3.49978E-05-3.37685E-05-5.10538E-06-1.03523E-19 5.20578E-19
 -1      2030 1.18817E-04-3.72288E-05-3.50207E-05-1.78367E-07-3.40825E-19-9.39576E-19
 -1      2031 1.18254E-04-3.68072E-05-3.49346E-05-1.65649E-06-4.02010E-19-3.50218E-19
 -1      2032 1.16469E-04-3.67149E-05-3.41774E-05-2.62902E-06-4.00329E-19-9.73228E-20
 -1      2033 1.18838E-04-3.77276E-05-3.48019E-05 4.36250E-06 9.16648E-20 1.15699E-19
 -1      2034 1.19434E-04-3.78083E-05-3.50182E-05 2.11026E-06-3.58255E-19-6.98696E-19
 -1      2035 1.18364E-04-3.81814E-05-3.43367E-05 1.67977E-06-1.40184E-19-1.23753E-18
 -1      2036 1.16358E-04-3.67052E-05-3.41386E-05 9.35533E-06-1.13224E-19-4.60045E-20
 -1      2037 1.18392E-04-3.76243E-05-3.46519E-05 6.87848E-06 3.33321E-19 5.27212E-19
 -1      2038 1.18570E-04-3.84968E-05-3.42609E-05 7.35482E-06-3.07645E-19-4.00289E-19
 -1      2039 1.11304E-04-3.36614E-05-3.32546E-05 1.22870E-05 4.36661E-19-1.20279E-19
 -1      2040 1.14534E-04-3.54625E-05-3.39256E-05 1.08484E-05 2.85920E-19 5.95570E-21
 -1      2041 1.16235E-04-3.65762E-05-3.40757E-05 1.24627E-05 6.56153E-19 1.38834E-20
 -1      2042 1.05239E-04-2.94979E-05-3.24798E-05 1.03499E-05-2.39790E-19-3.78015E-19
 -1      2043 1.08626E-04-3.15224E-05-3.30757E-05 1.12839E-05 1.77718E-19-3.67639E-19
 -1      2044 1.11572E-04-3.23795E-05-3.39396E-05 1.37311E-05 5.39057E-19-1.04692E-18
 -1      2045 1.01332E-04-2.67386E-05-3.20675E-05 3.19269E-06 5.75241E-19-7.94156E-19
 -1      2046 1.03293E-04-2.77753E-05-3.23730E-05 6.54390E-06-6.24687E-21-8.42917E-19
 -1      2047 1.06769E-04-2.79261E-05-3.38864E-05 8.76854E-06 2.27667E-19-8.59758E-19
 -1      2048 1.02117E-04-2.75216E-05-3.20986E-05-5.46992E-06 4.01573E-19 4.62559E-19
 -1      2049 1.01595E-04-2.68376E-05-3.20180E-05-1.54896E-06 6.53380E-19-6.59323E-19
 -1      2050 1.04990E-04-2.63649E-05-3.38196E-05-7.84266E-07 3.93023E-19-4.36088E-19
 -1      2051 1.06847E-04-3.11422E-05-3.25149E-05-1.05485E-05-1.78908E-18 1.25559E-18
 -1      2052 1.04272E-04-2.93045E-05-3.21080E-05-8.31750E-06-5.58539E-19 7.71303E-19
 -1      2053 1.07372E-04-2.89055E-05-3.36798E-05-9.35388E-06-5.84082E-19 1.03842E-18
 -1      2054 1.12173E-04-3.48450E-05-3.31222E-05-1.00308E-05-4.96828E-19 8.84713E-19
 -1      2055 1.09107E-04-3.30918E-05-3.25883E-05-1.02325E-05-7.47454E-19 6.82232E-19
 -1      2056 1.11740E-04-3.34412E-05-3.35412E-05-1.22226E-05-8.69969E-19 2.35660E-19
 -1      2057 1.15305E-04-3.67065E-05-3.36212E-05-5.71941E-06-3.87034E-19 7.20243E-20
 -1      2058 1.13170E-04-3.58008E-05-3.32027E-05-7.51630E-06-8.39846E-19 1.19379E-20
 -1      2059 1.14959E-04-3.68374E-05-3.34568E-05-9.27563E-06-9.13869E-20-6.97889E-19
 -1      2060 1.15470E-04-3.65923E-05-3.37470E-05-5.69648E-07-2.46354E-19 1.25648E-18
 -1      2061 1.14854E-04-3.65700E-05-3.36103E-05-2.72303E-06-2.50404E-19 1.28110E-18
 -1      2062 1.15564E-04-3.77485E-05-3.33527E-05-3.55310E-06-1.09561E-18 5.18497E-19
 -1      2063 1.13290E-04-3.52842E-05-3.34008E-05 3.47355E-06 2.03473E-18-5.84850E-20
 -1      2064 1.14055E-04-3.58325E-05-3.35786E-05 1.76014E-06 1.32153E-18 1.02920E-18
 -1      2065 1.13840E-04-3.66899E-05-3.30861E-05 1.95604E-06 1.37684E-18 4.30369E-19
 -1      2066 1.09761E-04-3.35309E-05-3.26614E-05 5.80832E-06 1.45530E-18-1.34493E-19
 -1      2067 1.11442E-04-3.43400E-05-3.30804E-05 4.79010E-06 1.94061E-18 7.27065E-19
 -1      2068 1.10724E-04-3.47476E-05-3.25838E-05 5.76692E-06 1.84243E-18 8.49273E-19
 -1      2069 1.05734E-04-3.17531E-05-3.17070E-05 6.57379E-06 1.33318E-18 1.07320E-18
 -1      2070 1.07833E-04-3.26241E-05-3.22482E-05 6.21204E-06 9.41206E-19 1.21879E-18
 -1      2071 1.07043E-04-3.26753E-05-3.18866E-05 7.63674E-06 7.56132E-19 2.07500E-18
 -1      2072 1.01844E-04-3.01328E-05-3.07352E-05 6.09048E-06-6.25827E-19 2.04193E-18
 -1      2073 1.03941E-04-3.09537E-05-3.12784E-05 6.27380E-06 8.78549E-20 1.75144E-18
 -1      2074 1.03351E-04-3.07889E-05-3.11078E-05 7.84180E-06 1.47435E-19 2.98967E-18
 -1      2075 9.85447E-05-2.87352E-05-2.99111E-05 4.58434E-06 1.14455E-19 1.69351E-18
 -1      2076 1.00301E-04-2.94389E-05-3.03590E-05 5.25809E-06 1.27796E-19 2.62477E-18
 -1      2077 9.99909E-05-2.91407E-05-3.03732E-05 6.73544E-06-3.10027E-20 3.97033E-18
 -1      2078 9.64576E-05-2.78080E-05-2.94006E-05 2.89543E-06-4.06940E-20 2.48005E-18
 -1      2079 9.77277E-05-2.83259E-05-2.97330E-05 3.92301E-06-4.88579E-19 1.80016E-18
 -1      2080 9.75928E-05-2.79315E-05-2.98684E-05 5.13818E-06 3.14712E-19 3.54152E-18
 -1      2081 9.60671E-05-2.70649E-05-2.95760E-05 3.57083E-06 3.36563E-19 3.83541E-18
 -1      2082 9.20493E-05-1.85583E-05-3.15155E-05 7.31636E-06 1.82504E-18-1.20319E-18
 -1      2083 9.29414E-05-2.04483E-05-3.10545E-05 7.33345E-06 1.31130E-18-1.20158E-18
 -1      2084 9.37263E-05-2.19315E-05-3.07726E-05 7.04792E-06 4.09038E-19-9.90952E-19
 -1      2085 9.45789E-05-2.37133E-05-3.03494E-05 6.49916E-06 8.16527E-19 1.23809E-18
 -1      2086 9.37598E-05-2.21048E-05-3.07142E-05 8.98082E-06 5.90776E-19-5.47867E-20
 -1      2087 9.50269E-05-2.46834E-05-3.01409E-05 5.66269E-06 1.48503E-18 9.14630E-19
 -1      2088 9.57123E-05-2.61473E-05-2.97916E-05 4.67254E-06 7.05196E-19 1.49671E-18
 -1      2089 9.63563E-05-2.65201E-05-2.99141E-05 5.58682E-06 6.78052E-19 2.47225E-18
 -1      2090 9.52678E-05-2.45856E-05-3.02960E-05 7.69095E-06 3.51100E-19 4.55651E-19
 -1      2091 9.04931E-05-1.54421E-05-3.22022E-05 6.42246E-06-2.76652E-19-2.66692E-18
 -1      2092 9.12999E-05-1.71339E-05-3.17887E-05 6.95786E-06 1.30350E-18-1.79244E-18
 -1      2093 9.18612E-05-1.90954E-05-3.11801E-05 8.90047E-06 1.13329E-18-2.37614E-18
 -1      2094 8.92396E-05-1.29549E-05-3.27422E-05 4.42444E-06 2.45345E-19 5.84294E-19
 -1      2095 8.98439E-05-1.42193E-05-3.24324E-05 5.41889E-06-9.61690E-19 1.34242E-18
 -1      2096 9.01315E-05-1.63330E-05-3.16025E-05 7.38726E-06 7.17836E-19-1.29435E-18
 -1      2097 8.85817E-05-1.16138E-05-3.30350E-05 1.67381E-06-5.31126E-19 5.77326E-19
 -1      2098 8.88476E-05-1.22054E-05-3.28864E-05 2.93735E-06 6.14498E-19 9.08628E-19
 -1      2099 8.88425E-05-1.42736E-05-3.19162E-05 4.58970E-06 4.48152E-19 4.32715E-19
 -1      2100 8.86586E-05-1.16607E-05-3.30380E-05-1.28451E-06-9.38135E-19-2.91189E-18
 -1      2101 8.85375E-05-1.14922E-05-3.30713E-05-5.67692E-09-1.12988E-18-1.63067E-18
 -1      2102 8.83078E-05-1.33662E-05-3.20686E-05 1.02214E-06-7.05954E-19-1.53324E-18
 -1      2103 8.94227E-05-1.30404E-05-3.27593E-05-3.85857E-06-2.24243E-18-3.35037E-18
 -1      2104 8.89627E-05-1.21767E-05-3.29622E-05-2.81388E-06-5.35784E-19-2.62503E-18
 -1      2105 8.86418E-05-1.37869E-05-3.20369E-05-2.59468E-06-1.59643E-18-2.66004E-18
 -1      2106 9.06501E-05-1.54171E-05-3.22522E-05-5.60189E-06-2.54556E-18-2.21499E-18
 -1      2107 8.99777E-05-1.40495E-05-3.25849E-05-4.95703E-06-2.58060E-18-2.83763E-18
 -1      2108 8.97173E-05-1.53895E-05-3.18264E-05-5.54698E-06-2.46172E-18-4.26029E-18
 -1      2109 9.20195E-05-1.82534E-05-3.16118E-05-6.33625E-06-1.69697E-18-8.07197E-19
 -1      2110 9.12935E-05-1.66615E-05-3.20114E-05-6.13045E-06-2.19765E-18-1.41981E-18
 -1      2111 9.12075E-05-1.77483E-05-3.14719E-05-7.35761E-06-1.65377E-18-1.14006E-18
 -1      2112 9.33263E-05-2.11792E-05-3.09098E-05-6.17264E-06-2.91268E-19 3.14502E-18
 -1      2113 9.26412E-05-1.95493E-05-3.13311E-05-6.34088E-06-2.22823E-19 1.40556E-18
 -1      2114 9.27521E-05-2.03846E-05-3.10198E-05-7.93608E-06 2.56132E-19 8.28189E-19
 -1      2115 9.44045E-05-2.37967E-05-3.02450E-05-5.32389E-06 7.38360E-19 3.06775E-18
 -1      2116 9.38364E-05-2.23405E-05-3.06298E-05-5.76593E-06-2.78585E-19 2.75080E-18
 -1      2117 9.41124E-05-2.29137E-05-3.05271E-05-7.46456E-06 1.24769E-18 2.87032E-18
 -1      2118 9.52351E-05-2.59372E-05-2.96883E-05-4.04710E-06 4.32940E-19-4.69081E-19
 -1      2119 9.47749E-05-2.47460E-05-2.99958E-05-4.66119E-06 6.99949E-19 1.71918E-18
 -1      2120 9.51637E-05-2.50675E-05-3.00566E-05-6.25315E-06 1.12593E-18 2.19606E-18
 -1      2121 5.49789E-05-4.17185E-05-6.43891E-06 3.87191E-05 1.32603E-18 1.95516E-18
 -1      2122 4.09239E-05-4.43326E-05-2.08255E-07 3.08093E-05 1.63435E-18 3.44859E-18
 -1      2123 1.26301E-05-3.75963E-05 9.14295E-06 4.12628E-06 4.62268E-18 1.70381E-18
 -1      2124 1.29738E-05-3.85700E-05 9.30540E-06-5.54644E-06 3.85294E-18 2.00450E-18
 -1      2125 2.62756E-05-3.95163E-05 4.30825E-06 2.45184E-05 3.34747E-18 2.71665E-18
 -1      2126 1.85568E-05-4.00083E-05 7.49042E-06 1.57968E-05 3.61556E-18 8.04681E-21
 -1      2127 9.48591E-05-4.52642E-05-2.12855E-05 4.33068E-05 2.03415E-18 1.15387E-18
 -1      2128 7.57406E-05-4.75342E-05-1.32963E-05 3.83140E-05 1.49586E-18 1.78300E-18
 -1      2129 1.31796E-04-4.37412E-05-3.71312E-05 3.84655E-05 1.88719E-18 2.07523E-18
 -1      2130 1.11101E-04-4.55691E-05-2.87937E-05 3.66852E-05 2.23363E-18 1.35441E-18
 -1      2131 8.72464E-05-8.72301E-06-3.37486E-05-1.05441E-05-6.57642E-19-2.63557E-18
 -1      2132 8.79533E-05-9.24285E-06-3.38206E-05-1.20998E-05-8.70277E-19-2.50776E-18
 -1      2133 9.04882E-05-1.30526E-05-3.32352E-05-1.18811E-05-1.02611E-18-2.27277E-18
 -1      2134 8.86864E-05-1.10573E-05-3.32947E-05-9.41895E-06-6.15295E-19-2.52043E-18
 -1      2135 1.77940E-04-3.11506E-05-6.19174E-05 1.11821E-05 4.93799E-18-1.90371E-18
 -1      2136 1.68443E-04-3.34286E-05-5.71116E-05 1.86273E-05 5.50031E-18-1.96173E-18
 -1      2137 1.86555E-04-2.58965E-05-6.74077E-05 2.39588E-06 2.73930E-18-1.33593E-18
 -1      2138 1.78433E-04-2.42892E-05-6.52312E-05 7.36258E-06 3.56093E-18-5.23890E-19
 -1      2139 1.81427E-04-2.57951E-05-6.56711E-05-5.36937E-06 6.50945E-19-1.05201E-18
 -1      2140 1.87864E-04-2.65590E-05-6.77291E-05 9.39828E-07 1.96512E-18-1.87671E-19
 -1      2141 1.63175E-04-1.43328E-05-6.25627E-05 1.42771E-06 2.20991E-18 1.16785E-18
 -1      2142 1.67673E-04-3.37800E-05-5.68518E-05-1.58242E-05 9.12996E-19-2.39202E-18
 -1      2143 1.79877E-04-3.22619E-05-6.20583E-05-9.40546E-06 5.19655E-19-1.72456E-18
 -1      2144 1.42913E-04-4.21738E-05-4.34196E-05-2.45880E-05 8.47668E-19-2.26200E-18
 -1      2145 1.61769E-04-4.08679E-05-5.08662E-05-2.21690E-05 5.40407E-19-3.10903E-18
 -1      2146 1.11445E-04-4.78789E-05-2.79822E-05-3.33310E-05 3.58295E-19-2.63258E-18
 -1      2147 1.31849E-04-4.63833E-05-3.61979E-05-3.41675E-05 1.25361E-18-2.07608E-18
 -1      2148 7.38992E-05-4.64330E-05-1.28967E-05-3.63824E-05-7.60636E-19-3.56707E-18
 -1      2149 9.20815E-05-4.42741E-05-2.07214E-05-4.08929E-05 3.10014E-19-4.35629E-18
 -1      2150 3.78729E-05-4.25941E-05 4.08966E-07-2.83111E-05-8.96161E-19-2.06496E-18
 -1      2151 5.27805E-05-4.06806E-05-5.85013E-06-3.71400E-05-5.50571E-19-1.80164E-18
 -1      2152 1.72337E-05-3.83550E-05 7.40218E-06-1.34742E-05-2.05024E-18-2.50341E-18
 -1      2153 2.43213E-05-3.71214E-05 4.31421E-06-2.22782E-05-1.35229E-18-2.35518E-18
 -1      2154 1.20265E-05-3.69596E-05 9.10291E-06 6.18994E-06-3.10522E-18-3.41905E-18
 -1      2155 1.18677E-05-3.73147E-05 9.27847E-06-2.55715E-06-1.87448E-18-3.15859E-18
 -1      2156 2.59879E-05-3.61273E-05 3.31237E-06 2.61327E-05-2.71982E-18 2.98579E-20
 -1      2157 1.84769E-05-3.77569E-05 6.72414E-06 1.73374E-05-2.56545E-18-1.04905E-18
 -1      2158 5.31511E-05-3.89592E-05-6.73938E-06 3.85157E-05-2.76006E-18-6.95467E-19
 -1      2159 3.95019E-05-4.18263E-05-5.72117E-07 3.10691E-05-3.40931E-18 1.55854E-19
 -1      2160 8.95448E-05-4.06955E-05-2.10076E-05 4.33398E-05-2.41023E-18-1.05879E-21
 -1      2161 7.13777E-05-4.32831E-05-1.32762E-05 3.80598E-05-2.17476E-18-1.78385E-18
 -1      2162 1.27457E-04-4.12099E-05-3.64932E-05 3.86966E-05-1.48824E-18-1.04651E-18
 -1      2163 1.07283E-04-4.26080E-05-2.84285E-05 3.69661E-05-3.00273E-18 6.33157E-19
 -1      2164 1.57038E-04-3.80169E-05-5.01870E-05 2.50642E-05-1.01525E-18-5.95041E-19
 -1      2165 1.39643E-04-3.90982E-05-4.31597E-05 2.86353E-05-9.34277E-19-1.38913E-18
 -1      2166 1.78504E-04-3.06320E-05-6.20373E-05 1.37179E-05-1.07298E-18-1.03719E-18
 -1      2167 1.63770E-04-3.06145E-05-5.66255E-05 1.85355E-05-1.39612E-18-8.16116E-19
 -1      2168 1.82682E-04-2.45094E-05-6.66574E-05 3.43671E-07-1.02915E-19-8.38721E-19
 -1      2169 1.77983E-04-2.48940E-05-6.47121E-05 7.98737E-06-6.34428E-19-6.31251E-19
 -1      2170 1.77097E-04-2.38814E-05-6.48822E-05-8.98977E-06 5.19231E-19-1.00733E-18
 -1      2171 1.83439E-04-2.44615E-05-6.68873E-05-2.01427E-06 7.34378E-19-1.03428E-18
 -1      2172 1.64166E-04-3.07525E-05-5.67081E-05-1.84577E-05 7.93776E-19-1.80376E-18
 -1      2173 1.76307E-04-2.95708E-05-6.17407E-05-1.31694E-05 3.36696E-19-2.01848E-18
 -1      2174 1.41376E-04-3.94694E-05-4.36923E-05-2.93592E-05 2.39880E-18-1.16721E-18
 -1      2175 1.58497E-04-3.81438E-05-5.07637E-05-2.57587E-05 1.49575E-18-1.22396E-18
 -1      2176 1.09017E-04-4.37917E-05-2.86175E-05-3.77246E-05 2.69399E-18-8.15693E-19
 -1      2177 1.29344E-04-4.19623E-05-3.69177E-05-3.94939E-05 2.98198E-18-2.35052E-19
 -1      2178 7.42132E-05-4.60984E-05-1.32161E-05-3.91566E-05 2.00577E-18-3.58634E-18
 -1      2179 9.26875E-05-4.34106E-05-2.11051E-05-4.42097E-05 2.45809E-18-1.29003E-18
 -1      2180 4.32768E-05-4.33307E-05-1.24570E-06-3.39885E-05 1.88041E-18-1.75653E-18
 -1      2181 5.74493E-05-4.18435E-05-7.28773E-06-4.02136E-05 1.68644E-18-3.79908E-18
 -1      2182 7.92681E-05-4.99891E-05-1.28746E-05-4.41690E-05 1.31036E-18-3.49209E-18
 -1      2183 1.87006E-05-3.89208E-05 7.10601E-06-1.59650E-05 3.88110E-18 6.64497E-19
 -1      2184 2.59789E-05-3.61664E-05 3.50466E-06-2.67098E-05 3.76718E-18-6.36969E-19
 -1      2185 1.62937E-04-3.94104E-05-5.18812E-05 2.73025E-05 3.71784E-18-1.68983E-18
 -1      2186 1.43970E-04-4.02863E-05-4.44617E-05 2.94052E-05 2.12394E-18 3.00273E-19
 -1      2187 1.16557E-04-5.68007E-05-2.55352E-05 3.58131E-05 8.17387E-19 9.85523E-19
 -1      2188 9.71839E-05-2.43127E-05-3.13037E-05-1.00066E-05-1.36356E-18-4.52501E-19
 -1      2189 1.45011E-04-5.14379E-05-3.95568E-05 2.16152E-05 1.50730E-18-1.62292E-18
 -1      2190 1.60045E-04-3.81229E-05-5.13242E-05 7.13354E-06 3.71255E-18-3.16833E-18
 -1      2191 9.63426E-05-2.31029E-05-3.14539E-05-1.03913E-05-1.44882E-18-1.00203E-18
 -1      2192 4.05261E-05-3.87035E-05-1.48784E-06 3.49489E-05 1.34085E-18 1.72964E-18
 -1      2193 1.77019E-05-3.02704E-05 4.46728E-06 1.29448E-05 3.21703E-18 6.27228E-19
 -1      2194 9.55946E-05-2.66424E-05-2.95359E-05-3.80326E-06 7.06447E-19 3.98840E-19
 -1      2195 7.82773E-05-5.03647E-05-1.22406E-05 4.32267E-05-6.44592E-19 1.10805E-18
 -1      2196 1.76156E-05-2.80418E-05 3.74486E-06-1.42757E-05 3.44594E-18 1.60936E-18
 -1      2197 4.19398E-05-3.77160E-05-2.35123E-06-3.60601E-05 2.82104E-18-5.80429E-19
 -1      2198 1.14096E-04-5.47548E-05-2.53430E-05-3.74431E-05 2.09810E-18-1.92912E-19
 -1      2199 1.41921E-04-4.99774E-05-3.88747E-05-2.25814E-05 2.21520E-18-3.98105E-19
 -1      2200 1.56408E-04-3.62207E-05-5.07092E-05-7.04158E-06 1.00786E-18-6.66615E-19
 -1      2201 1.60578E-04-1.99203E-05-5.92828E-05-6.66642E-07 5.44642E-19-1.70698E-18
 -1      2202 1.59705E-04-1.27139E-05-6.18836E-05-1.09514E-06 2.50722E-19-1.67368E-18
 -1      2203 1.60827E-04-2.00405E-05-5.92413E-05-3.22675E-07-7.96634E-19-1.00585E-18
 -1      2204 1.56229E-04-3.61500E-05-5.06580E-05 6.58238E-06-1.15832E-18-9.79594E-19
 -1      2205 1.40184E-04-4.93270E-05-3.84364E-05 2.18767E-05-1.40576E-18-1.02745E-18
 -1      2206 1.11575E-04-5.24862E-05-2.51774E-05 3.67690E-05-2.13876E-18 7.49624E-19
 -1      2207 7.38937E-05-4.69853E-05-1.19203E-05 4.27332E-05-1.89397E-18-7.34311E-19
 -1      2208 3.95892E-05-3.62382E-05-2.03638E-06 3.51483E-05-1.68983E-18 3.56601E-19
 -1      2209 1.73687E-05-2.78048E-05 3.73916E-06 1.56203E-05-1.18521E-18-1.91557E-18
 -1      2210 1.63660E-05-2.81227E-05 4.22159E-06-1.12524E-05-1.47500E-18-3.24075E-18
 -1      2211 3.73653E-05-3.57792E-05-1.23200E-06-3.18885E-05-1.16658E-18-3.06626E-18
 -1      2212 7.40731E-05-4.82887E-05-1.13914E-05-4.02534E-05-1.48019E-18-2.94233E-18
 -1      2213 1.15899E-04-5.67048E-05-2.52513E-05-3.34431E-05-5.49724E-19-1.79995E-18
 -1      2214 1.44834E-04-5.40462E-05-3.84451E-05-1.55195E-05-4.18117E-19-1.27987E-18
 -1      2215 1.64994E-04-2.26775E-05-5.98784E-05 3.12882E-06 4.42575E-19 1.19855E-18
 -1      2216 1.63532E-04-2.23306E-05-5.95473E-05-3.11217E-07 3.68713E-18-7.36707E-19
 -1      2217 1.59280E-04-3.90804E-05-5.06704E-05-1.96453E-06-2.26264E-19 8.97855E-20
 -1      2218 9.52077E-05-2.63751E-05-2.94865E-05 4.20164E-06 1.15002E-18 1.25891E-18
 -1      2219 9.61833E-05-2.58607E-05-3.00647E-05 6.00654E-06 1.24003E-18 1.47046E-18
 -1      2220 8.81415E-05-1.11868E-05-3.30198E-05-3.66440E-06 2.63969E-19-2.37832E-18
 -1      2221 8.83744E-05-1.14565E-05-3.30017E-05-4.80616E-06 8.24298E-20-2.47069E-18
 -1      2222 8.87242E-05-1.19384E-05-3.29529E-05-5.82438E-06-8.61715E-20-2.50937E-18
 -1      2223 8.91322E-05-1.24123E-05-3.29242E-05-6.99669E-06-2.79814E-19-2.48067E-18
 -1      2224 8.98946E-05-1.38260E-05-3.25997E-05-4.90899E-06 1.54389E-20-2.33582E-18
 -1      2225 8.77973E-05-1.07292E-05-3.30632E-05 6.16220E-07 7.95981E-19-2.16615E-18
 -1      2226 8.77931E-05-1.07244E-05-3.30635E-05-4.95727E-07 6.48560E-19-2.26985E-18
 -1      2227 8.79775E-05-1.09538E-05-3.30446E-05 2.76016E-06 1.06115E-18-2.04791E-18
 -1      2228 8.78632E-05-1.08210E-05-3.30540E-05 1.63989E-06 9.10307E-19-2.13902E-18
 -1      2229 8.91154E-05-1.27760E-05-3.27201E-05 1.05091E-06 8.01185E-19-2.08733E-18
 -1      2230 8.84102E-05-1.15002E-05-3.29990E-05 4.89111E-06 1.31461E-18-1.87127E-18
 -1      2231 8.81715E-05-1.12238E-05-3.30173E-05 3.76718E-06 1.18109E-18-2.03214E-18
 -1      2232 8.93802E-05-1.31314E-05-3.26798E-05 3.02390E-06 1.06700E-18-1.94106E-18
 -1      2233 8.91873E-05-1.24817E-05-3.29197E-05 7.08003E-06 1.60197E-18-1.36558E-18
 -1      2234 8.87706E-05-1.19958E-05-3.29491E-05 5.90768E-06 1.41779E-18-1.63118E-18
 -1      2235 8.99356E-05-1.38786E-05-3.25950E-05 4.97974E-06 1.33040E-18-1.61451E-18
 -1      2236 9.04539E-05-1.40890E-05-3.27921E-05 9.22971E-06 1.81662E-18-8.82450E-19
 -1      2237 8.97750E-05-1.32789E-05-3.28378E-05 8.05050E-06 1.65809E-18-1.16851E-18
 -1      2238 9.08684E-05-1.51368E-05-3.24495E-05 6.87726E-06 1.57069E-18-1.17810E-18
 -1      2239 9.24481E-05-1.66590E-05-3.25815E-05 1.11140E-05 1.89513E-18-2.01667E-19
 -1      2240 9.13712E-05-1.53198E-05-3.26539E-05 1.00339E-05 1.78383E-18-5.92407E-19
 -1      2241 9.22884E-05-1.70887E-05-3.22077E-05 8.52357E-06 1.68487E-18-6.78397E-19
 -1      2242 9.42255E-05-2.71146E-05-2.87451E-05 1.77234E-06 1.02201E-18 9.54684E-19
 -1      2243 9.48272E-05-2.68915E-05-2.90440E-05 2.74489E-06 1.08474E-18 1.22555E-18
 -1      2244 9.53327E-05-2.58462E-05-2.97878E-05 4.36914E-06 1.23610E-18 4.59178E-19
 -1      2245 9.58888E-05-2.50774E-05-3.03021E-05-6.20213E-06-1.03282E-18-1.14201E-18
 -1      2246 9.52387E-05-2.58499E-05-2.97576E-05-4.26118E-06-9.02034E-19-1.09317E-18
 -1      2247 1.48747E-04-5.27657E-05-4.13950E-05 1.04334E-05 1.87088E-18-3.16092E-18
 -1      2248 1.39250E-04-5.76581E-05-3.51229E-05 1.74450E-05 8.45021E-19-1.69534E-18
 -1      2249 9.51530E-05-2.65417E-05-2.93415E-05-2.97354E-06-8.32571E-19-9.96180E-19
 -1      2250 9.46530E-05-2.68927E-05-2.90384E-05-1.88802E-06-7.40959E-19-1.08236E-18
 -1      2251 9.53496E-05-2.54438E-05-2.99933E-05-4.28116E-06-8.71200E-19-1.33408E-18
 -1      2252 9.44668E-05-2.72368E-05-2.87740E-05-1.03464E-06-6.74206E-19-9.18013E-19
 -1      2253 9.42056E-05-2.74496E-05-2.86071E-05-4.33585E-07-4.84629E-19-1.00841E-18
 -1      2254 9.50148E-05-2.66865E-05-2.92968E-05-1.92241E-06-6.48394E-19-1.20667E-18
 -1      2255 9.40560E-05-2.76297E-05-2.84457E-05 7.32279E-08-4.79405E-19-8.66871E-19
 -1      2256 9.39564E-05-2.77724E-05-2.83620E-05 4.02599E-07-3.54905E-19-9.75307E-19
 -1      2257 9.47210E-05-2.74268E-05-2.88531E-05-4.51442E-07-4.62393E-19-1.00046E-18
 -1      2258 9.38714E-05-2.78815E-05-2.82687E-05 6.85350E-07-3.64004E-19-1.03073E-18
 -1      2259 9.38762E-05-2.79876E-05-2.82357E-05 8.49580E-07-4.03380E-19-1.06503E-18
 -1      2260 9.45185E-05-2.78535E-05-2.85811E-05 4.18843E-07-4.57561E-19-9.64467E-19
 -1      2261 9.38446E-05-2.80590E-05-2.81872E-05 9.87534E-07-3.64202E-19-1.05269E-18
 -1      2262 9.39112E-05-2.81418E-05-2.81850E-05 1.05068E-06-2.24183E-19-1.04081E-18
 -1      2263 9.44254E-05-2.81212E-05-2.84236E-05 8.90727E-07-4.11153E-19-9.69515E-19
 -1      2264 9.39170E-05-2.81905E-05-2.81657E-05 1.09764E-06-1.80964E-19-9.65483E-19
 -1      2265 9.40161E-05-2.82560E-05-2.81815E-05 1.10034E-06-2.63819E-19-1.06906E-18
 -1      2266 9.44157E-05-2.82956E-05-2.83423E-05 1.10665E-06-2.34465E-19-1.14734E-18
 -1      2267 9.40455E-05-2.82895E-05-2.81806E-05 1.09275E-06-5.66722E-19-1.02740E-18
 -1      2268 9.41581E-05-2.83409E-05-2.82061E-05 1.06171E-06-7.77403E-19-9.42767E-19
 -1      2269 9.44615E-05-2.84105E-05-2.83109E-05 1.16342E-06-3.87267E-19-1.08893E-18
 -1      2270 9.42007E-05-2.83635E-05-2.82167E-05 1.02460E-06-7.54827E-19-7.68963E-19
 -1      2271 9.43152E-05-2.84032E-05-2.82469E-05 9.77879E-07-4.07214E-19-9.41059E-19
 -1      2272 9.45402E-05-2.84845E-05-2.83117E-05 1.12729E-06-6.82414E-19-8.12110E-19
 -1      2273 9.43642E-05-2.84174E-05-2.82644E-05 9.28595E-07-1.53369E-19-8.88540E-19
 -1      2274 9.44745E-05-2.84473E-05-2.82963E-05 8.78638E-07-1.26218E-19-1.09794E-18
 -1      2275 9.46357E-05-2.85291E-05-2.83327E-05 1.04409E-06-4.07756E-19-6.42597E-19
 -1      2276 9.45260E-05-2.84551E-05-2.83179E-05 8.29412E-07-1.85044E-19-9.84387E-19
 -1      2277 9.46300E-05-2.84770E-05-2.83501E-05 7.84979E-07-2.76742E-19-9.13010E-19
 -1      2278 9.47379E-05-2.85518E-05-2.83663E-05 9.45948E-07-1.88594E-19-8.99926E-19
 -1      2279 9.46822E-05-2.84798E-05-2.83744E-05 7.44623E-07-4.19891E-19-1.00897E-18
 -1      2280 9.47807E-05-2.84953E-05-2.84065E-05 7.12134E-07-5.58822E-19-1.15359E-18
 -1      2281 9.48419E-05-2.85580E-05-2.84079E-05 8.55716E-07-3.69484E-19-8.31088E-19
 -1      2282 9.48336E-05-2.84943E-05-2.84329E-05 6.87287E-07-7.51150E-19-1.12244E-18
 -1      2283 9.49294E-05-2.85051E-05-2.84656E-05 6.71745E-07-5.85980E-19-1.08083E-18
 -1      2284 9.49463E-05-2.85515E-05-2.84554E-05 7.90205E-07-7.06909E-19-1.13195E-18
 -1      2285 9.49844E-05-2.85011E-05-2.84944E-05 6.67771E-07-5.20077E-19-1.24636E-18
 -1      2286 9.50819E-05-2.85091E-05-2.85288E-05 6.73421E-07-4.30499E-19-1.05343E-18
 -1      2287 9.50526E-05-2.85349E-05-2.85082E-05 7.62453E-07-5.33317E-19-1.09646E-18
 -1      2288 9.51414E-05-2.85029E-05-2.85606E-05 6.95029E-07-5.72222E-19-9.47942E-19
 -1      2289 9.52466E-05-2.85098E-05-2.85983E-05 7.25785E-07-3.07790E-19-1.14172E-18
 -1      2290 9.51647E-05-2.85106E-05-2.85669E-05 7.83346E-07-5.64573E-19-9.29760E-19
 -1      2291 9.53138E-05-2.85025E-05-2.86345E-05 7.77411E-07-9.94996E-20-1.54120E-18
 -1      2292 9.54340E-05-2.85104E-05-2.86775E-05 8.37074E-07-1.46439E-19-1.45737E-18
 -1      2293 9.52885E-05-2.84805E-05-2.86332E-05 8.62702E-07-5.32330E-19-1.07863E-18
 -1      2294 9.55131E-05-2.85031E-05-2.87193E-05 9.23021E-07-2.95370E-19-1.53515E-18
 -1      2295 9.56564E-05-2.85147E-05-2.87700E-05 1.01525E-06-2.93586E-19-1.63644E-18
 -1      2296 9.54314E-05-2.84469E-05-2.87092E-05 1.00982E-06-4.47920E-19-1.39673E-18
 -1      2297 9.57525E-05-2.85092E-05-2.88191E-05 1.13954E-06-8.16425E-20-1.72551E-18
 -1      2298 9.59283E-05-2.85279E-05-2.88798E-05 1.26754E-06 4.06073E-19-1.79811E-18
 -1      2299 9.56028E-05-2.84129E-05-2.87976E-05 1.23351E-06-1.40350E-19-1.13554E-18
 -1      2300 9.60472E-05-2.85267E-05-2.89376E-05 1.43343E-06 7.93445E-19-1.72206E-18
 -1      2301 9.62658E-05-2.85570E-05-2.90108E-05 1.59923E-06 1.29147E-18-1.76888E-18
 -1      2302 9.58137E-05-2.83836E-05-2.89010E-05 1.54140E-06 7.44483E-19-1.45956E-18
 -1      2303 9.64144E-05-2.85644E-05-2.90785E-05 1.80827E-06 1.43973E-18-1.88175E-18
 -1      2304 9.66864E-05-2.86124E-05-2.91664E-05 2.01151E-06 9.17423E-19-1.38126E-18
 -1      2305 9.60772E-05-2.83670E-05-2.90216E-05 1.93849E-06 1.19179E-18-1.96459E-18
 -1      2306 9.68734E-05-2.86349E-05-2.92446E-05 2.26196E-06 1.33212E-19-9.79112E-19
 -1      2307 9.72093E-05-2.87090E-05-2.93485E-05 2.49797E-06 7.93485E-20-7.65338E-19
 -1      2308 9.64092E-05-2.83759E-05-2.91606E-05 2.42459E-06 7.83993E-19-1.30258E-18
 -1      2309 9.74451E-05-2.87565E-05-2.94370E-05 2.78250E-06-4.58254E-20-9.33763E-19
 -1      2310 9.78547E-05-2.88681E-05-2.95570E-05 3.03946E-06-2.11793E-19-1.10652E-18
 -1      2311 9.68292E-05-2.84301E-05-2.93180E-05 2.99032E-06-3.08505E-20-1.15831E-18
 -1      2312 9.81529E-05-2.89553E-05-2.96543E-05 3.34181E-06-4.86381E-19-1.39254E-18
 -1      2313 9.86436E-05-2.91196E-05-2.97886E-05 3.59697E-06-3.68133E-19-1.44961E-18
 -1      2314 9.73616E-05-2.85600E-05-2.94912E-05 3.61142E-06-5.05638E-19-2.29155E-18
 -1      2315 9.90216E-05-2.92677E-05-2.98914E-05 3.88749E-06-1.33104E-19-1.68000E-18
 -1      2316 9.95968E-05-2.95038E-05-3.00355E-05 4.10246E-06-2.92169E-19-1.66491E-18
 -1      2317 9.80380E-05-2.88094E-05-2.96752E-05 4.24096E-06-6.01924E-19-1.62789E-18
 -1      2318 1.00078E-04-2.97409E-05-3.01390E-05 4.33272E-06-1.39577E-19-1.81410E-18
 -1      2319 1.00733E-04-3.00707E-05-3.02853E-05 4.44870E-06 5.25702E-20-1.21256E-18
 -1      2320 9.88996E-05-2.92389E-05-2.98618E-05 4.79952E-06-1.23948E-19-1.08352E-18
 -1      2321 1.01345E-04-3.04307E-05-3.03836E-05 4.54586E-06-3.62119E-19-1.49055E-18
 -1      2322 1.02066E-04-3.08734E-05-3.05211E-05 4.48079E-06-1.69826E-19-1.51266E-18
 -1      2323 9.99980E-05-2.99242E-05-3.00410E-05 5.16418E-06-2.95515E-19-1.21903E-18
 -1      2324 1.02837E-04-3.13876E-05-3.06090E-05 4.34403E-06 1.36073E-19-1.50916E-18
 -1      2325 1.03587E-04-3.19470E-05-3.07248E-05 3.99619E-06 2.36761E-19-1.82740E-18
 -1      2326 1.01391E-04-3.09445E-05-3.02035E-05 5.15906E-06-1.57085E-19-8.98357E-19
 -1      2327 1.04532E-04-3.26250E-05-3.08014E-05 3.50078E-06 3.40142E-19-1.69788E-18
 -1      2328 1.05242E-04-3.32648E-05-3.08837E-05 2.76645E-06-1.46899E-19-1.97952E-18
 -1      2329 1.03125E-04-3.23498E-05-3.03469E-05 4.55436E-06-6.88802E-20-1.10065E-18
 -1      2330 1.06331E-04-3.40570E-05-3.09569E-05 1.78609E-06 1.17665E-19-1.62449E-18
 -1      2331 1.06882E-04-3.46625E-05-3.10008E-05 6.02136E-07 1.70568E-19-8.10532E-19
 -1      2332 1.05188E-04-3.40916E-05-3.04849E-05 3.08924E-06 3.71223E-19-5.27507E-19
 -1      2333 1.07986E-04-3.54070E-05-3.10926E-05-9.32258E-07 9.32878E-20-3.52165E-19
 -1      2334 1.08204E-04-3.57489E-05-3.11054E-05-2.51230E-06 8.15435E-19 4.31198E-19
 -1      2335 1.07425E-04-3.59122E-05-3.06574E-05 5.45943E-07 6.06088E-19 8.38012E-19
 -1      2336 1.09044E-04-3.61303E-05-3.12517E-05-4.49537E-06 7.26418E-19-5.51341E-20
 -1      2337 1.08724E-04-3.58820E-05-3.12556E-05-6.20041E-06 3.95564E-19-4.85109E-19
 -1      2338 1.09426E-04-3.72232E-05-3.09364E-05-3.08121E-06 3.69771E-19 7.05277E-19
 -1      2339 1.08897E-04-3.54891E-05-3.14923E-05-8.19570E-06 4.31997E-19-7.26476E-19
 -1      2340 1.07921E-04-3.43784E-05-3.15154E-05-9.47647E-06 9.52002E-21-7.66995E-19
 -1      2341 1.10486E-04-3.71233E-05-3.14083E-05-7.29561E-06 3.29273E-19-6.02193E-19
 -1      2342 1.07124E-04-3.29644E-05-3.18461E-05-1.06559E-05-3.93449E-19-3.01276E-19
 -1      2343 1.05636E-04-3.10800E-05-3.19002E-05-1.08020E-05-8.06231E-19-1.54961E-19
 -1      2344 1.09846E-04-3.47889E-05-3.21193E-05-1.08166E-05 1.16262E-19-8.63610E-20
 -1      2345 1.04075E-04-2.89770E-05-3.22559E-05-1.02413E-05-1.20601E-18 2.93179E-19
 -1      2346 1.02589E-04-2.70124E-05-3.23141E-05-8.78808E-06-9.29711E-19 4.04761E-19
 -1      2347 1.07367E-04-3.03391E-05-3.29868E-05-1.17259E-05-3.27696E-19 4.01121E-19
 -1      2348 1.01178E-04-2.52873E-05-3.25546E-05-6.20397E-06-7.32690E-19 7.06237E-19
 -1      2349 1.00394E-04-2.43029E-05-3.25630E-05-3.46335E-06 3.57428E-19 1.58303E-18
 -1      2350 1.04201E-04-2.55250E-05-3.37456E-05-8.53155E-06-4.52031E-19 1.09323E-18
 -1      2351 1.00165E-04-2.41003E-05-3.25608E-05 1.71126E-07 9.42000E-19-1.18535E-20
 -1      2352 1.00470E-04-2.47194E-05-3.24873E-05 3.04671E-06 1.03015E-18-2.17921E-19
 -1      2353 1.02451E-04-2.31158E-05-3.40628E-05-1.87644E-06-6.58502E-20-8.57538E-21
 -1      2354 1.01558E-04-2.61764E-05-3.22308E-05 5.94154E-06 1.64448E-18-7.51719E-19
 -1      2355 1.02674E-04-2.79554E-05-3.20980E-05 7.69533E-06 6.90527E-19 8.32408E-20
 -1      2356 1.03382E-04-2.47072E-05-3.37584E-05 5.17338E-06 6.67091E-19-1.60411E-18
 -1      2357 1.04171E-04-3.00788E-05-3.16909E-05 8.66474E-06 2.04360E-19 9.43692E-19
 -1      2358 1.05446E-04-3.20088E-05-3.15479E-05 8.77389E-06 4.86581E-20 1.66173E-18
 -1      2359 1.06129E-04-2.92029E-05-3.29553E-05 9.16879E-06 1.09225E-18 5.47774E-19
 -1      2360 1.06303E-04-3.36031E-05-3.11419E-05 7.80824E-06-2.37738E-19 3.09466E-18
 -1      2361 1.07126E-04-3.48266E-05-3.10288E-05 6.62746E-06-2.19170E-20 3.81501E-18
 -1      2362 1.08638E-04-3.39369E-05-3.19688E-05 8.92659E-06 7.96608E-19 3.31223E-18
 -1      2363 1.06976E-04-3.53747E-05-3.07164E-05 4.63061E-06-8.07571E-19 4.22217E-18
 -1      2364 1.07122E-04-3.56754E-05-3.06307E-05 2.88849E-06 9.97712E-20 4.16125E-18
 -1      2365 1.09380E-04-3.67108E-05-3.11079E-05 5.60128E-06 3.40094E-19 5.67811E-18
 -1      2366 1.06197E-04-3.53280E-05-3.04240E-05 7.86462E-07 1.77776E-18 3.31623E-18
 -1      2367 1.05753E-04-3.49237E-05-3.03435E-05-8.78962E-07 2.13341E-18 4.12582E-18
 -1      2368 1.08262E-04-3.70615E-05-3.05026E-05 1.23479E-06 3.96807E-19 5.37621E-18
 -1      2369 1.04460E-04-3.40762E-05-3.02160E-05-2.52371E-06 7.43955E-19 3.63410E-18
 -1      2370 1.03635E-04-3.32935E-05-3.01234E-05-3.73959E-06 1.25725E-18 3.01717E-18
 -1      2371 1.05980E-04-3.56806E-05-3.01356E-05-2.64354E-06 1.10300E-18 4.27767E-18
 -1      2372 1.02285E-04-3.22793E-05-3.00429E-05-4.71492E-06 1.97011E-18 2.02086E-18
 -1      2373 1.01281E-04-3.13674E-05-2.99357E-05-5.33659E-06 7.47083E-19 1.44760E-18
 -1      2374 1.03282E-04-3.34710E-05-2.99340E-05-5.29585E-06 4.77498E-19 3.22524E-18
 -1      2375 1.00030E-04-3.03687E-05-2.98807E-05-5.63223E-06-9.27770E-20 1.62818E-18
 -1      2376 9.90022E-05-2.94890E-05-2.97700E-05-5.64163E-06-2.49316E-19 1.61035E-18
 -1      2377 1.00649E-04-3.10799E-05-2.98287E-05-6.54040E-06 4.98544E-19 1.07789E-18
 -1      2378 9.33273E-05-2.76880E-05-2.81238E-05-4.01970E-07 7.20391E-19 3.00968E-19
 -1      2379 9.34066E-05-2.75835E-05-2.81855E-05-1.16584E-07 8.00018E-19 4.24584E-19
 -1      2380 9.32744E-05-2.78516E-05-2.80336E-05-8.08580E-07 6.53626E-19 1.10870E-20
 -1      2381 9.32305E-05-2.77611E-05-2.80453E-05-6.69211E-07 7.54374E-19 2.47071E-19
 -1      2382 9.40018E-05-2.78057E-05-2.83810E-05-4.34419E-07 8.30096E-19-8.04483E-20
 -1      2383 9.33672E-05-2.79863E-05-2.80173E-05-9.85726E-07 5.42936E-19 1.12274E-19
 -1      2384 9.32551E-05-2.79061E-05-2.80003E-05-9.34172E-07 5.90001E-19 1.53192E-19
 -1      2385 9.39142E-05-2.80141E-05-2.82510E-05-8.82852E-07 6.65664E-19-2.95163E-20
 -1      2386 9.35416E-05-2.81000E-05-2.80444E-05-1.02367E-06 5.43718E-19 2.26725E-19
 -1      2387 9.33973E-05-2.80299E-05-2.80120E-05-1.02419E-06 4.15295E-19 2.14585E-19
 -1      2388 9.39428E-05-2.81619E-05-2.81972E-05-1.08170E-06 4.28219E-19 3.87540E-20
 -1      2389 9.37544E-05-2.81956E-05-2.80953E-05-9.81164E-07 1.84772E-19 3.21774E-19
 -1      2390 9.36002E-05-2.81356E-05-2.80560E-05-1.01065E-06 5.36559E-19 2.16674E-19
 -1      2391 9.40421E-05-2.82709E-05-2.81911E-05-1.12763E-06 5.14215E-19 2.23483E-19
 -1      2392 9.39782E-05-2.82746E-05-2.81578E-05-8.97498E-07 7.47870E-19 2.03604E-19
 -1      2393 9.38271E-05-2.82244E-05-2.81165E-05-9.40538E-07 5.01767E-19 1.44593E-19
 -1      2394 9.41792E-05-2.83517E-05-2.82138E-05-1.08503E-06 5.03555E-19-7.15501E-20
 -1      2395 9.41975E-05-2.83387E-05-2.82244E-05-7.99528E-07 4.19732E-19-1.26382E-19
 -1      2396 9.40560E-05-2.82976E-05-2.81838E-05-8.45573E-07 6.56655E-19 3.55576E-20
 -1      2397 9.43322E-05-2.84108E-05-2.82532E-05-9.97605E-07 7.79966E-19-2.43375E-19
 -1      2398 9.44053E-05-2.83898E-05-2.82916E-05-7.05989E-07 8.37001E-20-7.19634E-19
 -1      2399 9.42754E-05-2.83566E-05-2.82528E-05-7.47630E-07 2.80937E-19-2.62259E-19
 -1      2400 9.44882E-05-2.84527E-05-2.83016E-05-8.95585E-07 4.34572E-19-4.93765E-19
 -1      2401 9.46011E-05-2.84302E-05-2.83579E-05-6.30424E-07-1.08056E-20-4.02062E-19
 -1      2402 9.44815E-05-2.84034E-05-2.83210E-05-6.62215E-07-3.69474E-20-5.64716E-19
 -1      2403 9.46411E-05-2.84806E-05-2.83549E-05-8.00321E-07-1.86057E-20-5.01863E-19
 -1      2404 9.47892E-05-2.84625E-05-2.84243E-05-5.83277E-07 8.37907E-20-3.31866E-19
 -1      2405 9.46761E-05-2.84405E-05-2.83883E-05-6.00883E-07 2.90517E-19-3.09621E-19
 -1      2406 9.47897E-05-2.84975E-05-2.84114E-05-7.27493E-07-1.86462E-19-7.16820E-19
 -1      2407 9.49776E-05-2.84895E-05-2.84928E-05-5.73453E-07 1.74794E-19-3.52131E-19
 -1      2408 9.48650E-05-2.84703E-05-2.84561E-05-5.73006E-07 1.78833E-21-5.52893E-20
 -1      2409 9.49367E-05-2.85056E-05-2.84711E-05-6.89429E-07 2.24123E-19-6.55969E-19
 -1      2410 9.51772E-05-2.85141E-05-2.85670E-05-6.09508E-07 7.04803E-19-5.66414E-19
 -1      2411 9.50577E-05-2.84958E-05-2.85274E-05-5.87111E-07 4.50774E-19-3.53905E-19
 -1      2412 9.50881E-05-2.85072E-05-2.85356E-05-6.96836E-07 3.19154E-19-2.67873E-19
 -1      2413 9.54023E-05-2.85397E-05-2.86514E-05-7.00572E-07 3.75835E-19-2.05093E-19
 -1      2414 9.52666E-05-2.85199E-05-2.86061E-05-6.51912E-07 6.82958E-19-1.63120E-19
 -1      2415 9.52520E-05-2.85040E-05-2.86076E-05-7.60123E-07 5.47978E-19-2.69047E-20
 -1      2416 9.56699E-05-2.85702E-05-2.87516E-05-8.57020E-07-5.54746E-19 1.53722E-19
 -1      2417 9.55067E-05-2.85462E-05-2.86972E-05-7.77084E-07 2.71820E-20 1.82306E-19
 -1      2418 9.54390E-05-2.84979E-05-2.86908E-05-8.90385E-07-1.35701E-19 3.85911E-19
 -1      2419 9.59998E-05-2.86101E-05-2.88743E-05-1.09088E-06-7.02554E-19-9.43147E-20
 -1      2420 9.57962E-05-2.85786E-05-2.88069E-05-9.73798E-07-6.73734E-19-1.52713E-19
 -1      2421 9.56617E-05-2.84909E-05-2.87899E-05-1.10009E-06-5.70969E-19 1.76144E-19
 -1      2422 9.64153E-05-2.86649E-05-2.90268E-05-1.41589E-06-4.28140E-19-2.60493E-19
 -1      2423 9.61561E-05-2.86219E-05-2.89420E-05-1.25495E-06-4.66839E-19-4.35327E-19
 -1      2424 9.59347E-05-2.84854E-05-2.89099E-05-1.40341E-06-3.13067E-19-3.34493E-19
 -1      2425 9.69425E-05-2.87416E-05-2.92176E-05-1.84699E-06 5.98815E-19-5.65263E-19
 -1      2426 9.66103E-05-2.86821E-05-2.91104E-05-1.63496E-06-1.12570E-19-6.65285E-19
 -1      2427 9.62746E-05-2.84845E-05-2.90566E-05-1.81609E-06-7.94195E-20-6.57189E-19
 -1      2428 9.76107E-05-2.88495E-05-2.94552E-05-2.39881E-06 1.20631E-18-2.75296E-19
 -1      2429 9.71859E-05-2.87671E-05-2.93202E-05-2.12882E-06 1.17770E-18-2.21949E-20
 -1      2430 9.66999E-05-2.84932E-05-2.92358E-05-2.35458E-06 6.53129E-19-1.23076E-18
 -1      2431 9.84515E-05-2.90020E-05-2.97478E-05-3.08259E-06 3.66356E-19-5.97995E-19
 -1      2432 9.79133E-05-2.88878E-05-2.95798E-05-2.74991E-06 1.18094E-18-2.28085E-19
 -1      2433 9.72311E-05-2.85199E-05-2.94527E-05-3.03396E-06 1.17916E-18-3.98853E-19
 -1      2434 9.94986E-05-2.92190E-05-3.01015E-05-3.90008E-06-3.41138E-19-8.58447E-19
 -1      2435 9.88253E-05-2.90604E-05-2.98963E-05-3.50560E-06-3.63786E-19-5.34604E-19
 -1      2436 9.78915E-05-2.85791E-05-2.97110E-05-3.86387E-06 2.46692E-19-1.64383E-19
 -1      2437 1.00786E-04-2.95318E-05-3.05186E-05-4.83294E-06 1.85032E-20-9.15949E-19
 -1      2438 9.99579E-05-2.93106E-05-3.02741E-05-4.38932E-06-2.13019E-19-1.33340E-18
 -1      2439 9.87085E-05-2.86968E-05-3.00114E-05-4.84119E-06 1.09790E-19-1.50970E-18
 -1      2440 1.02350E-04-2.99903E-05-3.09940E-05-5.82489E-06 4.05440E-19-3.47063E-19
 -1      2441 1.01350E-04-2.96794E-05-3.07125E-05-5.36669E-06 5.08812E-19-6.18430E-19
 -1      2442 9.97177E-05-2.89192E-05-3.03496E-05-5.93760E-06 9.17087E-20-5.05378E-19
 -1      2443 1.04224E-04-3.06728E-05-3.15109E-05-6.75442E-06-1.77300E-19-1.10298E-19
 -1      2444 1.03048E-04-3.02328E-05-3.12019E-05-6.35334E-06-1.27692E-20-4.45116E-19
 -1      2445 1.00970E-04-2.93265E-05-3.07139E-05-7.07965E-06 1.21447E-19-7.39212E-19
 -1      2446 1.06444E-04-3.16936E-05-3.20376E-05-7.39746E-06-6.88723E-19 4.04609E-19
 -1      2447 1.05103E-04-3.10727E-05-3.17207E-05-7.18179E-06-5.22669E-19 3.23031E-19
 -1      2448 1.02548E-04-3.00489E-05-3.10840E-05-8.11904E-06-4.85872E-19-1.10322E-18
 -1      2449 1.09037E-04-3.31940E-05-3.25275E-05-7.38806E-06-3.50890E-19 1.25703E-18
 -1      2450 1.07575E-04-3.23394E-05-3.22336E-05-7.55913E-06-4.80862E-19 6.08276E-19
 -1      2451 1.04575E-04-3.12789E-05-3.14328E-05-8.79238E-06-8.92828E-19-3.07169E-19
 -1      2452 1.11990E-04-3.52796E-05-3.29297E-05-6.20507E-06 3.73485E-19 1.16240E-18
 -1      2453 1.10515E-04-3.41820E-05-3.26972E-05-7.02980E-06 4.34409E-19 1.67233E-18
 -1      2454 1.07230E-04-3.32485E-05-3.17371E-05-8.67735E-06-4.75306E-20 4.66310E-19
 -1      2455 1.15150E-04-3.78407E-05-3.32194E-05-3.25350E-06-7.72984E-20-5.40991E-19
 -1      2456 1.13881E-04-3.66404E-05-3.30789E-05-4.98888E-06 5.25061E-20-3.12939E-20
 -1      2457 1.10688E-04-3.61151E-05-3.20026E-05-7.17239E-06 8.77093E-19 3.74368E-19
 -1      2458 1.18027E-04-4.02308E-05-3.34483E-05 1.81581E-06-4.12267E-19-9.22566E-19
 -1      2459 1.17349E-04-3.93705E-05-3.33969E-05-8.67741E-07-2.11063E-19-4.80559E-19
 -1      2460 1.14926E-04-3.96436E-05-3.23097E-05-3.58676E-06-2.81658E-19 1.10967E-19
 -1      2461 1.19587E-04-4.09514E-05-3.37846E-05 8.46912E-06 2.47115E-19-9.28014E-19
 -1      2462 1.20042E-04-4.12758E-05-3.37624E-05 5.35920E-06-3.68767E-19-9.81983E-19
 -1      2463 1.19347E-04-4.27523E-05-3.28598E-05 2.48014E-06-3.70223E-19 4.19448E-19
 -1      2464 1.18469E-04-3.80646E-05-3.44627E-05 1.43313E-05 9.21066E-19-8.58309E-19
 -1      2465 1.20401E-04-4.03723E-05-3.43689E-05 1.21972E-05 2.70303E-19-9.03966E-19
 -1      2466 1.22337E-04-4.31130E-05-3.39549E-05 1.02241E-05 4.98044E-19-6.62863E-19
 -1      2467 1.14321E-04-3.13498E-05-3.55179E-05 1.51347E-05 4.98161E-20-4.03055E-19
 -1      2468 1.17142E-04-3.51012E-05-3.53345E-05 1.58766E-05 8.09863E-19 1.48350E-19
 -1      2469 1.21694E-04-3.81404E-05-3.57915E-05 1.64162E-05 3.15586E-19 2.34397E-19
 -1      2470 1.09717E-04-2.46930E-05-3.64614E-05 8.08762E-06 3.88338E-19 8.44455E-19
 -1      2471 1.11795E-04-2.74739E-05-3.63361E-05 1.22765E-05 1.79386E-19 7.62078E-19
 -1      2472 1.17405E-04-2.90881E-05-3.79605E-05 1.56397E-05-4.76085E-19 1.93777E-18
 -1      2473 1.08922E-04-2.39048E-05-3.65905E-05-3.73155E-06 8.86738E-20 1.80853E-18
 -1      2474 1.08694E-04-2.33065E-05-3.66888E-05 1.61324E-06 5.08537E-19 1.27170E-18
 -1      2475 1.13343E-04-2.21254E-05-3.93353E-05 5.65278E-06 4.52051E-19 2.13043E-18
 -1      2476 1.12725E-04-2.98167E-05-3.57414E-05-1.24250E-05-4.85548E-19 2.20366E-18
 -1      2477 1.10547E-04-2.64419E-05-3.60204E-05-9.35731E-06-2.17317E-19 1.95668E-18
 -1      2478 1.14037E-04-2.37163E-05-3.89168E-05-7.57224E-06-1.41878E-20 3.15336E-18
 -1      2479 1.17151E-04-3.69816E-05-3.45032E-05-1.31545E-05-2.20070E-19 1.07785E-19
 -1      2480 1.14867E-04-3.36760E-05-3.47701E-05-1.36099E-05-6.35910E-19 6.68044E-19
 -1      2481 1.18349E-04-3.21996E-05-3.69733E-05-1.45400E-05 1.69407E-19 2.35614E-18
 -1      2482 1.18525E-04-4.05634E-05-3.34532E-05-7.77973E-06-7.95251E-19 9.35284E-19
 -1      2483 1.17493E-04-3.91168E-05-3.36276E-05-1.04539E-05 1.50845E-20 2.96329E-19
 -1      2484 1.21192E-04-4.02435E-05-3.46775E-05-1.22677E-05-4.94568E-19 1.36703E-18
 -1      2485 1.16570E-04-4.01175E-05-3.27510E-05-7.19659E-07-8.37438E-19 3.24768E-20
 -1      2486 1.16955E-04-4.04239E-05-3.28882E-05-3.79350E-06-1.21976E-18-2.67576E-20
 -1      2487 1.19942E-04-4.30871E-05-3.29299E-05-4.90616E-06-1.15131E-18 1.04290E-18
 -1      2488 1.12814E-04-3.75378E-05-3.22342E-05 4.99844E-06 1.82982E-18 7.24908E-19
 -1      2489 1.14158E-04-3.87188E-05-3.24250E-05 2.61680E-06 6.81153E-19 2.54241E-19
 -1      2490 1.15778E-04-4.13801E-05-3.19176E-05 2.63954E-06 6.97611E-20-4.86864E-19
 -1      2491 1.08636E-04-3.45234E-05-3.17373E-05 8.42243E-06 1.66840E-18 1.13634E-18
 -1      2492 1.10430E-04-3.58909E-05-3.20137E-05 7.05012E-06 1.90298E-18 7.00371E-19
 -1      2493 1.10806E-04-3.77226E-05-3.13674E-05 7.96962E-06 1.59141E-18-2.36705E-20
 -1      2494 1.04727E-04-3.18484E-05-3.12091E-05 9.72503E-06-4.61403E-19 2.31217E-18
 -1      2495 1.06621E-04-3.31057E-05-3.15448E-05 9.27454E-06 3.84861E-19 1.78917E-18
 -1      2496 1.06281E-04-3.40118E-05-3.10135E-05 1.07570E-05 9.56658E-19 1.32016E-18
 -1      2497 1.01296E-04-2.96472E-05-3.06829E-05 9.35108E-06 1.72758E-19 3.75868E-18
 -1      2498 1.03088E-04-3.07232E-05-3.10256E-05 9.64995E-06-4.28862E-20 3.21775E-18
 -1      2499 1.02563E-04-3.09240E-05-3.07318E-05 1.14449E-05-9.84318E-19 2.76640E-18
 -1      2500 9.83776E-05-2.78109E-05-3.02164E-05 7.71100E-06-4.62419E-19 3.02712E-18
 -1      2501 9.99636E-05-2.87427E-05-3.05182E-05 8.59768E-06-5.13150E-20 2.91036E-18
 -1      2502 9.95435E-05-2.84690E-05-3.04840E-05 1.05200E-05-5.40926E-20 2.71790E-18
 -1      2503 9.72320E-05-2.70606E-05-3.00617E-05 6.32778E-06 1.71250E-19 1.62427E-18
 -1      2504 8.91240E-05-1.69168E-05-3.09994E-05 7.95160E-06 1.71752E-18 3.89407E-19
 -1      2505 9.01572E-05-1.81549E-05-3.08455E-05 9.12679E-06 1.83826E-18-2.53105E-18
 -1      2506 8.76065E-05-1.51192E-05-3.11160E-05 4.41486E-06 9.14220E-19 2.36127E-19
 -1      2507 8.82366E-05-1.58800E-05-3.10190E-05 6.17661E-06 1.03825E-18 1.20689E-18
 -1      2508 8.80672E-05-1.74451E-05-3.02384E-05 8.03554E-06 1.77481E-18 4.88011E-19
 -1      2509 9.36730E-05-2.23226E-05-3.06011E-05 1.04932E-05 6.17431E-19-8.28054E-19
 -1      2510 9.48977E-05-2.38805E-05-3.04059E-05 1.01838E-05 7.01304E-19-1.98555E-19
 -1      2511 9.13489E-05-1.95281E-05-3.08193E-05 1.00539E-05 9.22591E-19-3.01785E-18
 -1      2512 9.25284E-05-2.09826E-05-3.06341E-05 1.04262E-05 9.24677E-19-1.56596E-18
 -1      2513 9.32956E-05-2.27062E-05-3.02680E-05 1.18311E-05 1.09503E-18-9.69801E-19
 -1      2514 9.05793E-05-1.99420E-05-3.02631E-05 1.09044E-05 1.87672E-18-1.66036E-18
 -1      2515 8.71897E-05-1.45752E-05-3.11533E-05 1.10707E-07-1.10478E-18-3.03876E-18
 -1      2516 8.72491E-05-1.46964E-05-3.11273E-05 2.11054E-06-3.66366E-19-2.06503E-18
 -1      2517 8.65561E-05-1.59251E-05-3.02257E-05 3.68025E-06 7.38449E-19-1.54350E-18
 -1      2518 8.79810E-05-1.54263E-05-3.11046E-05-4.04475E-06-1.27447E-18-3.54645E-18
 -1      2519 8.74706E-05-1.48994E-05-3.11539E-05-2.22630E-06-1.91321E-18-1.37231E-18
 -1      2520 8.64615E-05-1.58207E-05-3.02283E-05-1.29994E-06-1.80819E-19-2.55525E-18
 -1      2521 8.96924E-05-1.74100E-05-3.09690E-05-7.20662E-06-1.77139E-18-3.25657E-18
 -1      2522 8.87895E-05-1.63817E-05-3.10882E-05-5.91273E-06-1.30082E-18-4.31666E-18
 -1      2523 8.77797E-05-1.71511E-05-3.02379E-05-5.79908E-06-8.39829E-19-4.47982E-18
 -1      2524 9.17529E-05-1.99408E-05-3.07567E-05-8.89138E-06-1.36778E-19 1.18382E-18
 -1      2525 9.07346E-05-1.86738E-05-3.09287E-05-8.27835E-06-1.07697E-18-1.70454E-18
 -1      2526 9.00254E-05-1.94579E-05-3.02325E-05-8.90890E-06-4.01334E-20-1.77574E-18
 -1      2527 9.37192E-05-2.25484E-05-3.04791E-05-9.15241E-06 9.81054E-19 1.71829E-18
 -1      2528 9.27771E-05-2.12327E-05-3.06875E-05-9.16588E-06 3.00881E-19 1.03949E-18
 -1      2529 9.25132E-05-2.20958E-05-3.01873E-05-1.02965E-05 4.64655E-19 1.06444E-18
 -1      2530 9.52443E-05-2.48010E-05-3.01721E-05-8.27982E-06 1.38023E-18 3.68068E-18
 -1      2531 9.45090E-05-2.36201E-05-3.03869E-05-8.76214E-06 1.15215E-18 2.64327E-18
 -1      2532 9.47010E-05-2.45260E-05-3.00921E-05-1.01184E-05 9.18879E-19 1.75511E-18
 -1      2533 9.62706E-05-2.65233E-05-2.98718E-05-6.70630E-06 2.18603E-19 9.02932E-19
 -1      2534 9.57608E-05-2.55663E-05-3.00702E-05-7.46550E-06 5.10844E-19 2.81737E-18
 -1      2535 9.62915E-05-2.64015E-05-2.99523E-05-8.82282E-06 6.66991E-19 1.73600E-18
 -1      2536 2.58383E-05-2.40855E-05-5.66128E-07 2.15806E-05 1.21634E-18-1.59285E-18
 -1      2537 1.97405E-05-2.12176E-05 8.29479E-07 6.78458E-06 2.31266E-18-2.46487E-19
 -1      2538 9.25801E-05-5.33308E-05-1.69821E-05 4.34114E-05-1.58395E-19 9.53706E-19
 -1      2539 7.31026E-05-4.70358E-05-1.10221E-05 4.25098E-05-7.69318E-19 1.09775E-18
 -1      2540 9.36120E-05-2.74692E-05-2.83354E-05 3.77877E-07 9.00977E-19 5.31184E-19
 -1      2541 9.38957E-05-2.73336E-05-2.84828E-05 9.11190E-07 9.94266E-19 7.95524E-19
 -1      2542 9.42591E-05-2.74872E-05-2.86302E-05 4.12532E-07 1.01034E-18 2.11196E-20
 -1      2543 9.62999E-05-2.71506E-05-2.96417E-05-4.60010E-06 8.89026E-19 3.00511E-19
 -1      2544 1.97216E-05-2.08482E-05 7.71045E-07-4.58335E-06 3.07474E-18 1.18373E-18
 -1      2545 2.45966E-05-2.14252E-05-1.09018E-06-1.75720E-05 2.99479E-18 7.08543E-19
 -1      2546 2.69968E-05-1.71487E-05-3.67744E-06 2.82293E-06 1.92275E-18-3.33307E-19
 -1      2547 5.35835E-05-3.79027E-05-6.68072E-06 4.10206E-05-1.89524E-19 1.23582E-18
 -1      2548 3.82152E-05-3.15831E-05-2.70914E-06 3.22637E-05 7.42213E-19 3.75659E-19
 -1      2549 9.50673E-05-2.00233E-05-3.22109E-05-1.17542E-05-1.37484E-18-1.55092E-18
 -1      2550 9.54760E-05-2.33659E-05-3.09260E-05-7.96943E-06-1.19905E-18-1.36331E-18
 -1      2551 9.50676E-05-2.25742E-05-3.10492E-05-7.64980E-06-1.02694E-18-1.56654E-18
 -1      2552 9.32098E-05-1.76192E-05-3.24147E-05-1.14154E-05-1.25600E-18-1.88322E-18
 -1      2553 1.10833E-04-5.78054E-05-2.26894E-05-3.65973E-05 1.60576E-18-2.33252E-19
 -1      2554 1.26293E-04-5.84549E-05-2.92059E-05-3.14380E-05 1.92171E-18-5.71324E-19
 -1      2555 8.78493E-05-1.08036E-05-3.30553E-05-1.51963E-06 5.54789E-19-2.33327E-18
 -1      2556 8.79542E-05-1.09256E-05-3.30465E-05-2.63918E-06 3.97084E-19-2.34876E-18
 -1      2557 8.93534E-05-1.30984E-05-3.26829E-05-2.93325E-06 3.14303E-19-2.23897E-18
 -1      2558 8.91058E-05-1.27639E-05-3.27212E-05-9.41859E-07 5.55991E-19-2.22142E-18
 -1      2559 1.50014E-04-1.73458E-05-5.73543E-05-4.66282E-06 2.67112E-18 6.37392E-19
 -1      2560 1.51462E-04-2.47867E-05-5.44995E-05-6.17798E-06 2.93687E-18-1.70804E-18
 -1      2561 1.48796E-04-4.37761E-05-4.53552E-05 4.56844E-06-1.13577E-18 2.15400E-18
 -1      2562 1.52168E-04-3.56071E-05-5.04284E-05 7.65051E-06-1.38066E-19 2.67133E-18
 -1      2563 1.48989E-04-1.30266E-05-5.86501E-05 3.75555E-06 1.14519E-18 1.97703E-18
 -1      2564 1.47610E-04-1.24877E-05-5.84127E-05-4.00501E-07 2.34035E-18 2.24040E-18
 -1      2565 1.50342E-04-2.44865E-05-5.43199E-05 9.06512E-06 1.10750E-19 2.09281E-18
 -1      2566 1.50043E-04-1.73186E-05-5.73922E-05 7.57063E-06 6.98802E-19 2.30922E-18
 -1      2567 1.38699E-04-5.84656E-05-3.43622E-05-1.18010E-05-9.29354E-19 1.24027E-18
 -1      2568 1.46873E-04-5.36873E-05-4.03443E-05-4.41211E-06-1.26494E-18 1.57866E-18
 -1      2569 1.09647E-04-5.81077E-05-2.19628E-05-3.34055E-05-9.21360E-19-2.04156E-18
 -1      2570 1.25723E-04-6.05669E-05-2.83361E-05-2.70107E-05-9.36607E-19-6.34004E-19
 -1      2571 6.87594E-05-4.46731E-05-1.01754E-05-4.00389E-05-1.48570E-18-2.47831E-18
 -1      2572 8.95288E-05-5.16709E-05-1.63743E-05-4.09974E-05-1.24450E-18-4.03172E-18
 -1      2573 1.03835E-04-5.61668E-05-2.00197E-05-3.51609E-05-1.18415E-18-2.28805E-18
 -1      2574 3.52861E-05-2.87984E-05-2.58149E-06-2.91435E-05-1.05646E-18-3.26912E-18
 -1      2575 4.93146E-05-3.51924E-05-6.01580E-06-3.78200E-05-7.26543E-19-2.35539E-18
 -1      2576 1.81497E-05-1.97261E-05 8.97716E-07-4.04480E-06-9.39518E-19-3.11073E-18
 -1      2577 2.35455E-05-2.14433E-05-6.69789E-07-1.79194E-05-7.40519E-19-3.56093E-18
 -1      2578 2.46139E-05-2.12550E-05-1.21393E-06 2.19054E-05 1.00903E-19-7.19978E-19
 -1      2579 1.86582E-05-1.98461E-05 7.58642E-07 7.96564E-06-1.72901E-19-2.42124E-18
 -1      2580 2.55372E-05-1.56784E-05-3.62371E-06 1.88469E-06 6.53671E-20-2.40833E-18
 -1      2581 5.43765E-05-3.68324E-05-7.37968E-06 4.16338E-05-1.12507E-18 1.88253E-19
 -1      2582 3.95410E-05-2.95757E-05-3.94324E-06 3.40656E-05-5.53960E-19 5.73865E-20
 -1      2583 8.80256E-05-4.98603E-05-1.64329E-05 4.33390E-05-1.10750E-18-6.01658E-20
 -1      2584 6.98359E-05-4.45876E-05-1.07393E-05 4.23821E-05-1.19072E-18-7.35860E-21
 -1      2585 6.95411E-05-4.07307E-05-1.19224E-05 4.14964E-05-8.47668E-19-2.62051E-19
 -1      2586 1.23536E-04-5.70629E-05-2.86642E-05 3.00743E-05-1.45478E-18 3.53001E-19
 -1      2587 1.08128E-04-5.59967E-05-2.23009E-05 3.55214E-05-1.48781E-18 1.14921E-18
 -1      2588 1.42203E-04-5.19919E-05-3.91600E-05 1.22312E-05-1.02327E-18-1.18225E-18
 -1      2589 1.33364E-04-5.58955E-05-3.33041E-05 2.00315E-05-1.52826E-18-6.98802E-19
 -1      2590 1.30101E-04-5.95059E-05-3.00387E-05 2.06837E-05-9.95264E-19-8.54233E-19
 -1      2591 1.50274E-04-3.24690E-05-5.09166E-05-3.02952E-06-1.04026E-18-1.80778E-18
 -1      2592 1.46294E-04-4.06662E-05-4.54128E-05 3.27193E-07-8.23422E-19-1.11766E-18
 -1      2593 1.46200E-04-1.59329E-05-5.64120E-05-6.31356E-06-8.56139E-19-1.19241E-18
 -1      2594 1.48424E-04-2.31550E-05-5.40153E-05-5.93398E-06-9.45289E-19-1.08801E-18
 -1      2595 1.41129E-04-2.76295E-05-4.88014E-05-1.02417E-05-1.28516E-18-4.88950E-19
 -1      2596 1.44695E-04-1.04286E-05-5.80143E-05 6.84651E-07 7.56400E-19-1.40735E-18
 -1      2597 1.44158E-04-1.03488E-05-5.78327E-05-2.89879E-06 6.77626E-20-1.47273E-18
 -1      2598 1.47753E-04-2.15554E-05-5.43969E-05 4.38627E-06-6.58780E-19 2.92226E-20
 -1      2599 1.47067E-04-1.49156E-05-5.71253E-05 3.72235E-06-2.49875E-20-2.92968E-19
 -1      2600 1.47435E-04-4.15585E-05-4.55200E-05-1.50144E-06 9.77158E-19 3.46648E-19
 -1      2601 1.49806E-04-3.29280E-05-5.05884E-05 2.11474E-06-1.58289E-19 1.63054E-19
 -1      2602 1.35828E-04-5.61409E-05-3.41942E-05-2.11167E-05 2.39943E-18 2.51569E-19
 -1      2603 1.44478E-04-5.17786E-05-4.01721E-05-1.31121E-05 1.87409E-18 1.12931E-18
 -1      2604 1.32997E-04-6.04387E-05-3.10301E-05-2.21649E-05 1.65743E-18 5.90805E-19
 -1      2605 7.65260E-05-4.79439E-05-1.20915E-05-4.37406E-05 1.01369E-18-3.67586E-18
 -1      2606 9.31608E-05-5.30228E-05-1.72689E-05-4.42469E-05 9.70700E-19-1.41121E-18
 -1      2607 3.90768E-05-3.03776E-05-3.45463E-06-3.36659E-05 3.69095E-18 8.85785E-19
 -1      2608 5.69069E-05-3.90768E-05-7.54774E-06-4.29292E-05 1.91154E-18-2.31282E-18
 -1      2609 1.53436E-04-3.72406E-05-5.03119E-05-2.76112E-06 3.28903E-18-3.61302E-18
 -1      2610 1.51297E-04-4.52119E-05-4.56648E-05 2.17604E-06 3.03058E-18-3.46648E-18
 -1      2611 1.47195E-04-5.16450E-05-4.10042E-05 5.20943E-07 2.18378E-18-2.66434E-18
 -1      2612 9.63281E-05-2.50937E-05-3.05549E-05 7.59857E-06 1.36895E-18 1.61844E-18
 -1      2613 9.74503E-05-2.37773E-05-3.15956E-05 1.06979E-05 1.50089E-18 1.83743E-18
 -1      2614 9.58852E-05-2.13020E-05-3.20201E-05 1.19002E-05 1.70345E-18 1.26113E-18
 -1      2615 9.58736E-05-2.41604E-05-3.07675E-05 7.69073E-06 1.44667E-18 9.07428E-19
 -1      2616 1.29046E-04-6.02855E-05-2.96438E-05 2.92592E-05 8.13575E-19-1.14561E-19
 -1      2617 1.13544E-04-5.93085E-05-2.31321E-05 3.46054E-05 3.49825E-19 4.15787E-19
 -1      2618 1.46075E-04-3.16162E-05-4.92018E-05-9.31144E-06 2.03775E-18-2.23236E-18
 -1      2619 9.08042E-05-1.50422E-05-3.24578E-05-6.81740E-06-3.16426E-19-2.30537E-18
 -1      2620 8.97018E-05-1.31891E-05-3.28442E-05-7.96212E-06-4.10307E-19-2.39501E-18
 -1      2621 9.03326E-05-1.39114E-05-3.28166E-05-9.17668E-06-7.14122E-19-2.36431E-18
 -1      2622 9.47257E-05-2.69377E-05-2.90646E-05 1.89236E-06 1.13037E-18 2.53061E-19
 -1      2623 9.42420E-05-1.90809E-05-3.22571E-05 1.16095E-05 1.78335E-18 5.13964E-19
 -1      2624 1.37067E-04-6.17246E-05-3.21595E-05 1.73594E-05 1.02756E-18-2.33929E-18
 -1      2625 1.08224E-04-5.77341E-05-2.13686E-05-3.77521E-05 1.34466E-18-7.58094E-19
 -1      2626 3.53183E-05-1.80165E-05-6.77631E-06-1.83258E-05 1.93674E-18 1.34509E-18
 -1      2627 3.54923E-05-2.40655E-05-4.43844E-06-2.64033E-05 2.54862E-18 2.17899E-18
 -1      2628 4.84778E-05-2.66764E-05-8.90910E-06-3.21845E-05 2.04813E-18 1.81900E-19
 -1      2629 9.70429E-05-2.65067E-05-3.02227E-05 8.27172E-06 4.78522E-19 1.78787E-18
 -1      2630 1.08639E-04-5.82137E-05-2.13105E-05 3.66238E-05 3.21237E-19 3.72800E-19
 -1      2631 9.63611E-05-2.55148E-05-3.03674E-05 9.14814E-06 1.02040E-18 1.88934E-18
 -1      2632 3.90016E-05-2.50853E-05-5.45028E-06 2.71337E-05-8.47033E-21-1.03762E-18
 -1      2633 7.00073E-05-4.20452E-05-1.15363E-05 4.16231E-05 3.94294E-19 9.59477E-19
 -1      2634 9.47127E-05-2.06028E-05-3.17170E-05 9.67686E-06 1.66346E-18 2.73658E-19
 -1      2635 9.20536E-05-1.62361E-05-3.25332E-05-1.04011E-05-9.99946E-19-2.10622E-18
 -1      2636 1.44052E-04-4.85155E-05-4.09552E-05-2.40551E-06 9.65644E-19 9.23478E-19
 -1      2637 1.41500E-04-2.71051E-05-4.92517E-05 8.40841E-06-5.45913E-19 3.99164E-19
 -1      2638 1.36018E-04-1.22768E-05-5.33344E-05-6.47579E-06-4.35163E-19-1.15451E-18
 -1      2639 1.42375E-04-4.83138E-05-4.03637E-05 1.13741E-06-7.47692E-19-1.22015E-18
 -1      2640 1.03678E-04-5.50279E-05-2.05028E-05 3.72528E-05-6.26381E-19 4.80837E-19
 -1      2641 3.90337E-05-2.37161E-05-6.01224E-06 2.81026E-05 2.37910E-19-5.52054E-19
 -1      2642 6.62050E-05-3.97520E-05-1.08900E-05-3.87029E-05-1.28516E-18-2.44920E-18
 -1      2643 1.33589E-04-6.11346E-05-3.10227E-05-1.55855E-05-1.34191E-18 1.92118E-18
 -1      2644 1.43422E-04-2.95694E-05-4.89373E-05 1.42989E-05-5.10549E-19 2.86742E-18
 -1      2645 1.39105E-04-1.41917E-05-5.37206E-05 7.91358E-06 1.00988E-18 3.28442E-18
 -1      2646 1.44984E-04-4.97493E-05-4.08409E-05 7.45904E-06-1.67548E-18 2.91633E-18
 -1      2647 1.39652E-04-1.43212E-05-5.39934E-05-4.14856E-06 1.41560E-18 1.49030E-18
 -1      2648 9.74162E-05-2.82182E-05-2.96326E-05-5.01232E-06 6.95399E-19 8.03982E-19
 -1      2649 9.67231E-05-2.71905E-05-2.97907E-05-5.99290E-06 1.05882E-19 7.15794E-19
 -1      2650 9.73920E-05-2.78510E-05-2.98199E-05-7.15980E-06-5.38743E-19 1.13781E-18
 -1      2651 9.82549E-05-2.88900E-05-2.97431E-05-5.45592E-06-3.03265E-20 1.45014E-18
 -1      2652 9.66446E-05-2.58465E-05-3.03341E-05 1.08374E-05 6.10423E-19 6.57403E-19
 -1      2653 3.56702E-05-2.25807E-05-5.08230E-06-2.33423E-05-2.22134E-19-3.23291E-18
 -1      2654 1.35990E-04-1.12694E-05-5.37125E-05 3.83958E-06-4.25634E-19-6.55021E-19
 -1      2655 7.23480E-05-4.32393E-05-1.21270E-05-4.30610E-05 2.05427E-18-2.32034E-18
 -1      2656 9.86366E-05-2.91432E-05-2.97828E-05-6.55626E-06-4.57963E-19 9.90391E-19
 -1      2657 9.05669E-05-1.51792E-05-3.23313E-05 3.19868E-06 1.07527E-18-1.77445E-18
 -1      2658 9.03775E-05-1.49081E-05-3.23642E-05 2.26419E-06 9.42817E-19-1.87518E-18
 -1      2659 9.02441E-05-1.47059E-05-3.23934E-05 1.42404E-06 8.06263E-19-1.99013E-18
 -1      2660 9.01790E-05-1.46137E-05-3.24045E-05 4.65855E-07 7.07222E-19-2.01286E-18
 -1      2661 9.14306E-05-1.66017E-05-3.20567E-05 1.64393E-06 8.01205E-19-1.90889E-18
 -1      2662 9.21459E-05-1.75556E-05-3.20052E-05 6.48087E-06 1.59636E-18-1.05227E-18
 -1      2663 9.16220E-05-1.67613E-05-3.21056E-05 5.64067E-06 1.48228E-18-1.23188E-18
 -1      2664 9.35609E-05-1.97768E-05-3.16640E-05 7.60431E-06 1.56117E-18-6.41116E-19
 -1      2665 9.27730E-05-1.85239E-05-3.18381E-05 7.02674E-06 1.59103E-18-8.81632E-19
 -1      2666 9.34396E-05-1.98708E-05-3.15067E-05 5.74237E-06 1.46751E-18-9.10066E-19
 -1      2667 9.52137E-05-2.54092E-05-2.99286E-05 3.98626E-06 1.32013E-18-8.47637E-20
 -1      2668 9.55511E-05-2.45595E-05-3.03925E-05 5.61829E-06 1.31850E-18 1.09659E-19
 -1      2669 9.28790E-05-1.80096E-05-3.20739E-05-8.84014E-06-8.95378E-19-1.99173E-18
 -1      2670 1.02707E-04-5.43442E-05-2.02795E-05-3.76150E-05 1.26907E-18-1.00279E-18
 -1      2671 1.17315E-04-5.95202E-05-2.48713E-05-3.17748E-05 1.48591E-18-3.29734E-19
 -1      2672 9.54070E-05-2.59408E-05-2.97304E-05-2.69519E-06-5.56462E-19-1.25509E-18
 -1      2673 9.51984E-05-2.65061E-05-2.94538E-05-1.72994E-06-4.69791E-19-1.19652E-18
 -1      2674 9.52121E-05-2.70056E-05-2.92077E-05-9.88834E-07-4.27279E-19-1.10625E-18
 -1      2675 9.50781E-05-2.73607E-05-2.90281E-05-3.85616E-07-3.07736E-19-1.10764E-18
 -1      2676 9.54188E-05-2.63338E-05-2.96127E-05-1.63484E-06-4.56692E-19-1.13608E-18
 -1      2677 9.50458E-05-2.76663E-05-2.88609E-05 8.07115E-08-3.75366E-19-1.03000E-18
 -1      2678 9.49679E-05-2.78902E-05-2.87505E-05 4.31434E-07-4.12483E-19-1.09466E-18
 -1      2679 9.54158E-05-2.73268E-05-2.91883E-05-3.51163E-07-3.62028E-19-1.19643E-18
 -1      2680 9.49260E-05-2.80747E-05-2.86403E-05 7.00672E-07-4.84034E-19-1.01734E-18
 -1      2681 9.48976E-05-2.82204E-05-2.85769E-05 8.84252E-07-4.42153E-19-1.07840E-18
 -1      2682 9.53555E-05-2.79406E-05-2.88988E-05 4.37621E-07-4.98291E-19-1.15048E-18
 -1      2683 9.48627E-05-2.83310E-05-2.85075E-05 1.01931E-06-3.59573E-19-1.04630E-18
 -1      2684 9.48699E-05-2.84265E-05-2.84756E-05 1.09571E-06-1.99559E-19-1.04508E-18
 -1      2685 9.52914E-05-2.83187E-05-2.87080E-05 8.80368E-07-5.04335E-19-1.04459E-18
 -1      2686 9.48459E-05-2.84898E-05-2.84350E-05 1.14351E-06-1.77244E-19-1.05717E-18
 -1      2687 9.48756E-05-2.85511E-05-2.84240E-05 1.15409E-06-2.75563E-19-9.08898E-19
 -1      2688 9.52424E-05-2.85464E-05-2.85881E-05 1.08970E-06-1.98957E-19-1.05360E-18
 -1      2689 9.48613E-05-2.85831E-05-2.84036E-05 1.14884E-06-3.68420E-19-7.92787E-19
 -1      2690 9.49037E-05-2.86201E-05-2.84061E-05 1.12238E-06-5.20102E-19-6.36490E-19
 -1      2691 9.52113E-05-2.86746E-05-2.85187E-05 1.14983E-06-3.00458E-19-6.16012E-19
 -1      2692 9.48970E-05-2.86309E-05-2.83997E-05 1.08877E-06-6.69819E-19-4.79640E-19
 -1      2693 9.49455E-05-2.86502E-05-2.84109E-05 1.04544E-06-3.66964E-19-5.52051E-19
 -1      2694 9.51953E-05-2.87353E-05-2.84850E-05 1.12233E-06-2.92158E-19-2.75713E-19
 -1      2695 9.49444E-05-2.86462E-05-2.84142E-05 1.00121E-06-3.22790E-19-5.46276E-19
 -1      2696 9.49952E-05-2.86524E-05-2.84310E-05 9.55313E-07-2.86851E-19-7.61234E-19
 -1      2697 9.51907E-05-2.87493E-05-2.84764E-05 1.05171E-06-4.41215E-19-4.67313E-19
 -1      2698 9.49981E-05-2.86378E-05-2.84413E-05 9.13293E-07-4.17066E-19-8.61309E-19
 -1      2699 9.50495E-05-2.86340E-05-2.84620E-05 8.75187E-07-4.78427E-19-7.47741E-19
 -1      2700 9.51942E-05-2.87302E-05-2.84857E-05 9.70154E-07-5.04732E-19-7.48829E-19
 -1      2701 9.50553E-05-2.86113E-05-2.84775E-05 8.44897E-07-4.13118E-19-9.10452E-19
 -1      2702 9.51074E-05-2.85998E-05-2.85012E-05 8.22387E-07-4.87314E-19-8.92560E-19
 -1      2703 9.52036E-05-2.86866E-05-2.85081E-05 9.01229E-07-3.87871E-19-6.04643E-19
 -1      2704 9.51155E-05-2.85705E-05-2.85209E-05 8.11221E-07-6.20974E-19-9.42741E-19
 -1      2705 9.51696E-05-2.85528E-05-2.85476E-05 8.10557E-07-4.45055E-19-8.23164E-19
 -1      2706 9.52174E-05-2.86241E-05-2.85408E-05 8.62771E-07-4.61653E-19-9.06393E-19
 -1      2707 9.51799E-05-2.85177E-05-2.85713E-05 8.24666E-07-5.52343E-19-9.02711E-19
 -1      2708 9.52384E-05-2.84950E-05-2.86014E-05 8.51243E-07-6.16121E-19-9.42177E-19
 -1      2709 9.52352E-05-2.85454E-05-2.85821E-05 8.69029E-07-6.29583E-19-9.09878E-19
 -1      2710 9.52513E-05-2.84544E-05-2.86291E-05 8.96138E-07-6.56214E-19-1.24651E-18
 -1      2711 9.53174E-05-2.84278E-05-2.86635E-05 9.54927E-07-7.66818E-19-1.40010E-18
 -1      2712 9.52573E-05-2.84521E-05-2.86315E-05 9.32201E-07-8.45193E-19-1.34954E-18
 -1      2713 9.53334E-05-2.83818E-05-2.86955E-05 1.03582E-06-3.94947E-19-1.05437E-18
 -1      2714 9.54113E-05-2.83528E-05-2.87353E-05 1.13153E-06-1.38507E-19-9.08643E-19
 -1      2715 9.52847E-05-2.83450E-05-2.86893E-05 1.06342E-06-4.47933E-19-1.01998E-18
 -1      2716 9.54319E-05-2.83021E-05-2.87720E-05 1.25341E-06 9.02445E-20-7.18749E-19
 -1      2717 9.55265E-05-2.82727E-05-2.88183E-05 1.39033E-06 3.32646E-19-3.64205E-19
 -1      2718 9.53196E-05-2.82251E-05-2.87557E-05 1.27322E-06 1.24156E-19-4.39694E-19
 -1      2719 9.55537E-05-2.82189E-05-2.88600E-05 1.55775E-06 2.79469E-19-4.24836E-19
 -1      2720 9.56711E-05-2.81926E-05-2.89138E-05 1.73926E-06 6.54189E-19-8.10296E-19
 -1      2721 9.53654E-05-2.80951E-05-2.88312E-05 1.57135E-06 1.87837E-19-4.51180E-19
 -1      2722 9.57083E-05-2.81392E-05-2.89605E-05 1.95569E-06 8.01287E-19-9.01500E-19
 -1      2723 9.58556E-05-2.81217E-05-2.90225E-05 2.18329E-06 1.08466E-18-1.51539E-18
 -1      2724 9.54277E-05-2.79610E-05-2.89155E-05 1.96601E-06 5.39847E-19-5.75257E-19
 -1      2725 9.59084E-05-2.80752E-05-2.90737E-05 2.45007E-06 1.50763E-18-1.78394E-18
 -1      2726 9.60944E-05-2.80756E-05-2.91440E-05 2.72183E-06 7.25936E-19-1.26803E-18
 -1      2727 9.55156E-05-2.78343E-05-2.90078E-05 2.46220E-06 9.93944E-19-1.46983E-18
 -1      2728 9.61721E-05-2.80474E-05-2.91983E-05 3.03655E-06-5.77703E-21-1.06220E-18
 -1      2729 9.64076E-05-2.80799E-05-2.92760E-05 3.34475E-06-3.08911E-20-1.25829E-18
 -1      2730 9.56439E-05-2.77354E-05-2.91056E-05 3.05911E-06 7.89360E-19-1.16074E-18
 -1      2731 9.65250E-05-2.80882E-05-2.93312E-05 3.69885E-06-4.62595E-19-1.39239E-18
 -1      2732 9.68240E-05-2.81741E-05-2.94143E-05 4.02685E-06-7.19775E-19-1.38159E-18
 -1      2733 9.58364E-05-2.76981E-05-2.92049E-05 3.74629E-06-3.87331E-19-6.78968E-19
 -1      2734 9.70048E-05-2.82470E-05-2.94671E-05 4.40224E-06-6.53569E-19-1.42338E-18
 -1      2735 9.73859E-05-2.84167E-05-2.95521E-05 4.72027E-06-5.99605E-19-1.32166E-18
 -1      2736 9.61309E-05-2.77749E-05-2.92996E-05 4.49823E-06-4.21964E-19-8.81818E-19
 -1      2737 9.76663E-05-2.85947E-05-2.95986E-05 5.08485E-06-1.95789E-19-1.04349E-18
 -1      2738 9.81536E-05-2.88889E-05-2.96809E-05 5.34503E-06 1.90578E-19-9.94472E-19
 -1      2739 9.65865E-05-2.80434E-05-2.93822E-05 5.26708E-06-2.71813E-19-1.23854E-18
 -1      2740 9.85871E-05-2.92261E-05-2.97178E-05 5.64657E-06-2.28078E-20-1.34317E-18
 -1      2741 9.92100E-05-2.96938E-05-2.97926E-05 5.77774E-06-3.36425E-19-1.46185E-18
 -1      2742 9.72917E-05-2.86104E-05-2.94453E-05 5.97274E-06-4.58000E-20-9.99839E-19
 -1      2743 9.98689E-05-3.02541E-05-2.98193E-05 5.93604E-06-1.82937E-19-7.45058E-19
 -1      2744 1.00657E-04-3.09427E-05-2.98840E-05 5.84012E-06 1.66571E-19-7.24488E-19
 -1      2745 9.83712E-05-2.96098E-05-2.94857E-05 6.48963E-06 2.17165E-19-1.30732E-18
 -1      2746 1.01627E-04-3.17840E-05-2.99075E-05 5.73797E-06 5.22071E-20-5.36007E-19
 -1      2747 1.02596E-04-3.27132E-05-2.99659E-05 5.29209E-06-4.17701E-20-7.01011E-19
 -1      2748 9.99836E-05-3.11825E-05-2.95111E-05 6.62945E-06 3.38205E-20-1.89696E-19
 -1      2749 1.03949E-04-3.38496E-05-3.00068E-05 4.76996E-06 8.48761E-19-1.63714E-19
 -1      2750 1.05065E-04-3.49600E-05-3.00746E-05 3.84378E-06 1.22345E-18 3.49399E-19
 -1      2751 1.02293E-04-3.34172E-05-2.95523E-05 6.12283E-06 7.32479E-19 6.51587E-19
 -1      2752 1.06800E-04-3.62907E-05-3.01753E-05 2.71207E-06 7.94003E-19 1.62506E-19
 -1      2753 1.07926E-04-3.73633E-05-3.02858E-05 1.21587E-06 7.67240E-19 4.86992E-19
 -1      2754 1.05384E-04-3.62294E-05-2.96785E-05 4.61675E-06 1.20000E-18-1.50191E-20
 -1      2755 1.09859E-04-3.85676E-05-3.05150E-05-6.80021E-07 1.98613E-19 6.35226E-19
 -1      2756 1.10700E-04-3.91417E-05-3.07191E-05-2.69002E-06 2.46126E-19 2.84724E-19
 -1      2757 1.09098E-04-3.91530E-05-3.00125E-05 1.72890E-06 6.80714E-19 2.14519E-19
 -1      2758 1.12327E-04-3.95942E-05-3.11634E-05-5.26903E-06 5.17209E-19-1.24358E-19
 -1      2759 1.12464E-04-3.90154E-05-3.15121E-05-7.41346E-06 5.72481E-19-4.12500E-20
 -1      2760 1.12765E-04-4.10762E-05-3.07312E-05-2.72488E-06 2.62382E-21 6.33048E-19
 -1      2761 1.13010E-04-3.79429E-05-3.22285E-05-1.00298E-05 3.32227E-19-1.14774E-19
 -1      2762 1.12136E-04-3.57392E-05-3.27302E-05-1.14751E-05-2.99936E-19 5.32695E-19
 -1      2763 1.15078E-04-4.03135E-05-3.20064E-05-8.16527E-06 3.35972E-19 2.93869E-19
 -1      2764 1.11049E-04-3.28333E-05-3.36555E-05-1.27442E-05-2.08071E-19 4.07605E-19
 -1      2765 1.09368E-04-2.94309E-05-3.42103E-05-1.24036E-05 2.47162E-20 7.79416E-19
 -1      2766 1.14596E-04-3.54940E-05-3.38545E-05-1.26090E-05-5.92010E-19 4.65193E-19
 -1      2767 1.07266E-04-2.57760E-05-3.50688E-05-1.08751E-05-7.46481E-19 2.07602E-19
 -1      2768 1.05736E-04-2.29154E-05-3.54584E-05-8.24593E-06-1.10472E-18-1.83644E-19
 -1      2769 1.11269E-04-2.75821E-05-3.59014E-05-1.27801E-05-6.18367E-19-9.21625E-19
 -1      2770 1.04482E-04-2.09675E-05-3.58581E-05-3.97165E-06-1.08635E-18 7.87542E-20
 -1      2771 1.04217E-04-2.06354E-05-3.58747E-05-1.04531E-07-7.30910E-19-1.36709E-18
 -1      2772 1.07571E-04-2.05762E-05-3.73821E-05-6.83024E-06-1.31426E-18-1.08842E-18
 -1      2773 1.05118E-04-2.20062E-05-3.55857E-05 4.41370E-06 2.46010E-19-1.03341E-18
 -1      2774 1.06131E-04-2.44251E-05-3.52152E-05 7.36315E-06 8.42745E-19-5.99957E-19
 -1      2775 1.07270E-04-1.99416E-05-3.75086E-05 2.66868E-06 1.93044E-19-9.58206E-21
 -1      2776 1.08341E-04-2.79245E-05-3.43972E-05 9.70655E-06 1.46861E-18 3.79924E-19
 -1      2777 1.09941E-04-3.14463E-05-3.37986E-05 1.04879E-05 1.52183E-18 9.21671E-19
 -1      2778 1.10074E-04-2.57715E-05-3.61418E-05 9.93334E-06 1.71582E-18 1.00718E-19
 -1      2779 1.11343E-04-3.47363E-05-3.28121E-05 9.59169E-06 1.95346E-18 7.57041E-19
 -1      2780 1.12301E-04-3.72627E-05-3.22364E-05 8.34982E-06 1.72758E-18 1.90017E-18
 -1      2781 1.14020E-04-3.42536E-05-3.41624E-05 1.06760E-05 1.95212E-18-4.66795E-19
 -1      2782 1.12031E-04-3.87299E-05-3.14431E-05 5.77181E-06 6.26455E-19 2.22844E-18
 -1      2783 1.11929E-04-3.95692E-05-3.10187E-05 3.59878E-06 5.21309E-19 2.50157E-18
 -1      2784 1.15112E-04-3.99687E-05-3.21713E-05 6.59490E-06 1.31733E-18 6.44714E-19
 -1      2785 1.10397E-04-3.93220E-05-3.05111E-05 8.35611E-07 5.44285E-20 2.57997E-18
 -1      2786 1.09477E-04-3.88087E-05-3.02517E-05-1.30893E-06 6.38901E-19 2.13239E-18
 -1      2787 1.13178E-04-4.14327E-05-3.07505E-05 9.45963E-07 6.07686E-19 1.84746E-19
 -1      2788 1.07451E-04-3.75682E-05-2.99976E-05-3.42044E-06 1.13027E-18 2.81420E-18
 -1      2789 1.06136E-04-3.63462E-05-2.98630E-05-5.02399E-06 2.93256E-19 2.77770E-18
 -1      2790 1.09501E-04-3.97065E-05-2.99452E-05-3.95176E-06 7.08674E-19 4.79787E-19
 -1      2791 1.04187E-04-3.47814E-05-2.97811E-05-6.26492E-06-5.39924E-19 3.25931E-18
 -1      2792 1.02799E-04-3.33466E-05-2.97228E-05-7.17575E-06-3.69170E-19 1.79513E-18
 -1      2793 1.05465E-04-3.64531E-05-2.96157E-05-7.16562E-06-3.08189E-19 1.87040E-18
 -1      2794 1.01156E-04-3.18109E-05-2.97416E-05-7.61147E-06-1.35107E-19 8.92436E-19
 -1      2795 9.98856E-05-3.04556E-05-2.97270E-05-7.82202E-06 4.27100E-19 9.18228E-19
 -1      2796 1.01852E-04-3.28746E-05-2.95869E-05-8.68312E-06-7.18906E-19 1.93056E-18
 -1      2797 9.44702E-05-2.81262E-05-2.84329E-05-8.82966E-07 6.12722E-19 6.51393E-20
 -1      2798 9.44870E-05-2.79997E-05-2.84834E-05-7.06970E-07 6.33516E-19-1.00218E-19
 -1      2799 9.55863E-05-2.54405E-05-3.00590E-05 1.30610E-05-3.48451E-19-6.53098E-19
 -1      2800 9.75163E-05-2.70381E-05-3.01773E-05 1.19233E-05-1.87303E-19 2.63479E-19
 -1      2801 9.88605E-05-2.83268E-05-3.02289E-05 1.28003E-05-7.26698E-19 3.65045E-19
 -1      2802 9.45473E-05-2.78492E-05-2.85858E-05-4.30933E-07 6.81089E-19-1.18740E-19
 -1      2803 9.46362E-05-2.76628E-05-2.86845E-05-8.72464E-08 8.38436E-19-1.88267E-19
 -1      2804 9.50048E-05-2.79097E-05-2.87634E-05-4.41258E-07 6.23322E-19-2.55803E-19
 -1      2805 9.45127E-05-2.84257E-05-2.83220E-05-1.14368E-06 5.06812E-19 1.47093E-19
 -1      2806 9.44549E-05-2.83635E-05-2.83218E-05-1.13733E-06 4.82321E-19 1.60568E-19
 -1      2807 9.45883E-05-2.85009E-05-2.83220E-05-1.10726E-06 8.34712E-19-3.00608E-19
 -1      2808 9.45169E-05-2.84580E-05-2.83099E-05-1.13686E-06 7.25735E-19 1.15897E-19
 -1      2809 9.48952E-05-2.85628E-05-2.84313E-05-1.16719E-06 7.46844E-19 4.97891E-20
 -1      2810 9.46792E-05-2.85449E-05-2.83420E-05-1.02528E-06 7.77417E-19-1.08242E-19
 -1      2811 9.46028E-05-2.85168E-05-2.83228E-05-1.07136E-06 8.03494E-19-8.62915E-20
 -1      2812 9.49194E-05-2.86291E-05-2.84122E-05-1.13453E-06 8.52997E-19-1.00934E-19
 -1      2813 9.47764E-05-2.85660E-05-2.83745E-05-9.29108E-07 1.61722E-19 4.48338E-20
 -1      2814 9.46999E-05-2.85492E-05-2.83513E-05-9.78026E-07 6.31167E-19-1.45769E-20
 -1      2815 9.49580E-05-2.86568E-05-2.84162E-05-1.05686E-06 5.96151E-19-4.78650E-20
 -1      2816 9.48756E-05-2.85696E-05-2.84153E-05-8.41322E-07-1.73202E-19 5.92908E-20
 -1      2817 9.48009E-05-2.85617E-05-2.83897E-05-8.83232E-07 4.07088E-20-6.49553E-20
 -1      2818 9.50049E-05-2.86567E-05-2.84360E-05-9.66612E-07 2.92817E-19 3.37223E-19
 -1      2819 9.49759E-05-2.85596E-05-2.84623E-05-7.78780E-07-1.97656E-19-2.69772E-19
 -1      2820 9.49026E-05-2.85587E-05-2.84347E-05-8.06234E-07-2.89168E-19-8.07257E-20
 -1      2821 9.50568E-05-2.86358E-05-2.84669E-05-8.87439E-07 6.65798E-20 6.27652E-19
 -1      2822 9.50791E-05-2.85384E-05-2.85151E-05-7.54965E-07 2.33426E-19-4.01482E-19
 -1      2823 9.50050E-05-2.85432E-05-2.84853E-05-7.61857E-07 6.80036E-20-5.24653E-19
 -1      2824 9.51123E-05-2.85984E-05-2.85066E-05-8.37266E-07 4.88095E-20-1.76258E-19
 -1      2825 9.51890E-05-2.85077E-05-2.85748E-05-7.81737E-07 4.54630E-19-4.16856E-19
 -1      2826 9.51107E-05-2.85170E-05-2.85419E-05-7.62509E-07 3.42994E-19-2.90914E-19
 -1      2827 9.51717E-05-2.85468E-05-2.85542E-05-8.30650E-07 2.45718E-19-6.76538E-20
 -1      2828 9.53113E-05-2.84683E-05-2.86434E-05-8.70665E-07 7.46761E-20 4.76416E-20
 -1      2829 9.52242E-05-2.84812E-05-2.86058E-05-8.19713E-07 1.41075E-19-4.30829E-19
 -1      2830 9.52365E-05-2.84816E-05-2.86101E-05-8.80556E-07 1.62851E-19-2.12875E-19
 -1      2831 9.54531E-05-2.84204E-05-2.87238E-05-1.03401E-06-2.66670E-19 2.58743E-19
 -1      2832 9.53514E-05-2.84363E-05-2.86796E-05-9.45251E-07 1.41682E-19 2.58279E-19
 -1      2833 9.53092E-05-2.84023E-05-2.86754E-05-9.99688E-07-1.33464E-19 3.77854E-19
 -1      2834 9.56227E-05-2.83642E-05-2.88194E-05-1.28535E-06-3.93744E-19-9.95401E-20
 -1      2835 9.54997E-05-2.83822E-05-2.87664E-05-1.15196E-06-3.65246E-19 1.85821E-19
 -1      2836 9.53928E-05-2.83074E-05-2.87521E-05-1.20143E-06-1.66571E-19 2.59667E-19
 -1      2837 9.58295E-05-2.83001E-05-2.89341E-05-1.63980E-06-3.08554E-19-1.57705E-19
 -1      2838 9.56774E-05-2.83190E-05-2.88699E-05-1.45416E-06-4.33485E-19-1.97808E-19
 -1      2839 9.54908E-05-2.81950E-05-2.88425E-05-1.50038E-06-3.12301E-19 5.37727E-19
 -1      2840 9.60837E-05-2.82292E-05-2.90719E-05-2.11372E-06 1.59406E-19-6.95731E-19
 -1      2841 9.58940E-05-2.82472E-05-2.89938E-05-1.86769E-06 5.48619E-20-1.05223E-19
 -1      2842 9.56064E-05-2.80633E-05-2.89486E-05-1.91246E-06-2.23529E-19 5.07746E-19
 -1      2843 9.63967E-05-2.81549E-05-2.92362E-05-2.72362E-06 5.96056E-19-1.11538E-19
 -1      2844 9.61597E-05-2.81687E-05-2.91418E-05-2.40921E-06 3.97943E-19-4.94981E-19
 -1      2845 9.57434E-05-2.79118E-05-2.90723E-05-2.45444E-06 3.46394E-19-2.30735E-19
 -1      2846 9.67812E-05-2.80853E-05-2.94290E-05-3.48386E-06 1.05778E-18 1.46330E-19
 -1      2847 9.64863E-05-2.80887E-05-2.93166E-05-3.09474E-06 9.82923E-19-1.47417E-19
 -1      2848 9.59056E-05-2.77430E-05-2.92141E-05-3.14267E-06 6.16999E-19 3.89822E-19
 -1      2849 9.72530E-05-2.80369E-05-2.96503E-05-4.40243E-06 4.41410E-19-1.81892E-19
 -1      2850 9.68877E-05-2.80190E-05-2.95191E-05-3.93658E-06 6.22860E-19 3.97906E-19
 -1      2851 9.60985E-05-2.75661E-05-2.93725E-05-3.99068E-06 8.15287E-19 5.36625E-19
 -1      2852 9.78344E-05-2.80430E-05-2.98956E-05-5.47374E-06 1.16763E-19-5.50616E-19
 -1      2853 9.73835E-05-2.79836E-05-2.97471E-05-4.93801E-06 4.17097E-19-1.21724E-19
 -1      2854 9.63329E-05-2.74034E-05-2.95425E-05-5.00515E-06 4.11124E-19 1.12035E-18
 -1      2855 9.85632E-05-2.81654E-05-3.01552E-05-6.66710E-06-7.06855E-20-2.00843E-19
 -1      2856 9.80051E-05-2.80289E-05-2.99938E-05-6.08454E-06 1.47315E-19-4.78069E-19
 -1      2857 9.66312E-05-2.73008E-05-2.97146E-05-6.17950E-06 1.57982E-19 3.56229E-19
 -1      2858 9.95070E-05-2.85134E-05-3.04116E-05-7.90876E-06 2.48289E-19-7.89659E-20
 -1      2859 9.88084E-05-2.82396E-05-3.02459E-05-7.32980E-06 5.76614E-19-3.26496E-19
 -1      2860 9.70421E-05-2.73451E-05-2.98732E-05-7.48406E-06 2.24931E-19-1.04170E-19
 -1      2861 1.00788E-04-2.92673E-05-3.06412E-05-9.05581E-06-7.03389E-19 1.02904E-19
 -1      2862 9.98954E-05-2.87610E-05-3.04836E-05-8.57378E-06-4.93615E-19 1.21317E-19
 -1      2863 9.76646E-05-2.76891E-05-2.99967E-05-8.85119E-06-2.23863E-19 7.90831E-19
 -1      2864 1.02616E-04-3.06962E-05-3.08196E-05-9.85928E-06-5.37256E-19-4.20317E-19
 -1      2865 1.01446E-04-2.98225E-05-3.06834E-05-9.62994E-06-3.85611E-19 1.96254E-19
 -1      2866 9.86866E-05-2.85817E-05-3.00615E-05-1.01519E-05-8.05023E-19 1.25238E-18
 -1      2867 1.05303E-04-3.31344E-05-3.09399E-05-9.91600E-06 2.73962E-19-2.12709E-19
 -1      2868 1.03751E-04-3.17438E-05-3.08300E-05-1.01759E-05-8.72116E-19-6.47502E-19
 -1      2869 1.00434E-04-3.03872E-05-3.00544E-05-1.11550E-05-7.11930E-19-2.00243E-19
 -1      2870 1.09207E-04-3.68395E-05-3.10500E-05-8.62647E-06 8.56340E-19 4.79897E-19
 -1      2871 1.07201E-04-3.48641E-05-3.09449E-05-9.69181E-06 1.40597E-18 8.82383E-19
 -1      2872 1.03397E-04-3.35402E-05-3.00018E-05-1.14575E-05-2.20187E-20 1.57814E-19
 -1      2873 1.14498E-04-4.15736E-05-3.13187E-05-5.19211E-06-8.39899E-19 9.18084E-19
 -1      2874 1.12153E-04-3.92884E-05-3.11386E-05-7.39197E-06 1.02781E-19 8.83297E-19
 -1      2875 1.08183E-04-3.83569E-05-3.00256E-05-1.03731E-05 2.74725E-19 8.92253E-19
 -1      2876 1.20526E-04-4.58991E-05-3.20990E-05 9.54561E-07 2.58927E-19 4.66052E-19
 -1      2877 1.18395E-04-4.42289E-05-3.16892E-05-2.41220E-06-6.78746E-19 7.64232E-19
 -1      2878 1.15037E-04-4.43073E-05-3.04427E-05-6.76989E-06-7.61117E-19 2.01779E-19
 -1      2879 1.25196E-04-4.63458E-05-3.39168E-05 9.37506E-06 9.62994E-19 3.30368E-19
 -1      2880 1.24550E-04-4.72165E-05-3.30787E-05 5.70385E-06 6.73821E-19 4.28255E-19
 -1      2881 1.23299E-04-4.95017E-05-3.18423E-05 2.21724E-07 5.07178E-19 4.02705E-20
 -1      2882 1.25585E-04-3.89399E-05-3.71659E-05 1.67305E-05-1.12785E-18 1.51633E-18
 -1      2883 1.27461E-04-4.41955E-05-3.57916E-05 1.47522E-05-3.23447E-19 3.44689E-19
 -1      2884 1.29828E-04-4.88916E-05-3.50269E-05 1.01370E-05-4.64545E-21 1.64629E-19
 -1      2885 1.16276E-04-1.76764E-05-4.25602E-05 2.93010E-06 4.71056E-19 1.26764E-18
 -1      2886 1.17449E-04-2.01529E-05-4.21714E-05 9.52247E-06 3.78835E-19 9.08559E-19
 -1      2887 1.19246E-04-2.35052E-05-4.15027E-05-1.11898E-05 1.71259E-19 1.68411E-18
 -1      2888 1.17146E-04-1.88734E-05-4.23986E-05-5.60112E-06-2.01170E-19 1.49954E-18
 -1      2889 1.24600E-04-3.70389E-05-3.78983E-05-1.53000E-05 7.92743E-19 8.88802E-19
 -1      2890 1.21871E-04-3.01900E-05-3.93818E-05-1.46886E-05 1.09537E-18 1.94113E-18
 -1      2891 1.26128E-04-2.67477E-05-4.29377E-05-1.38309E-05 3.48131E-19 5.33737E-19
 -1      2892 1.25671E-04-4.57471E-05-3.43634E-05-9.27978E-06-5.99302E-19 9.76867E-20
 -1      2893 1.24971E-04-4.20700E-05-3.56202E-05-1.23910E-05-5.38395E-20 2.40364E-19
 -1      2894 1.29555E-04-4.21497E-05-3.75832E-05-1.29591E-05 7.44224E-19-2.13664E-19
 -1      2895 1.21284E-04-4.63157E-05-3.20691E-05-6.50641E-08-5.93082E-19-7.55064E-19
 -1      2896 1.22855E-04-4.64971E-05-3.28080E-05-4.03579E-06-4.18249E-19-4.31768E-19
 -1      2897 1.27118E-04-4.91315E-05-3.35086E-05-4.63075E-06 3.58930E-20-1.49926E-18
 -1      2898 1.14706E-04-4.22225E-05-3.09701E-05 7.14934E-06 9.46446E-19-1.32798E-18
 -1      2899 1.17193E-04-4.42940E-05-3.13343E-05 4.04303E-06-6.93713E-19-1.27700E-18
 -1      2900 1.19777E-04-4.76488E-05-3.10480E-05 4.92874E-06 1.80947E-19-2.80678E-18
 -1      2901 1.08561E-04-3.71440E-05-3.05284E-05 1.12982E-05 1.55847E-18-2.77122E-19
 -1      2902 1.11040E-04-3.95312E-05-3.07106E-05 9.48279E-06 1.66845E-18-7.21394E-19
 -1      2903 1.11962E-04-4.20978E-05-3.00587E-05 1.10081E-05 9.75997E-19-2.03514E-18
 -1      2904 1.03865E-04-3.28479E-05-3.03673E-05 1.28427E-05-1.41478E-19 1.17544E-18
 -1      2905 1.05881E-04-3.48303E-05-3.04852E-05 1.21686E-05 8.55308E-19 2.88997E-19
 -1      2906 1.05627E-04-3.62462E-05-2.98239E-05 1.38301E-05 3.39857E-19-3.13588E-19
 -1      2907 1.00313E-04-2.97282E-05-3.01999E-05 1.29804E-05-8.02154E-19 6.75308E-19
 -1      2908 1.01899E-04-3.12936E-05-3.02774E-05 1.31994E-05-5.84209E-19 9.97178E-19
 -1      2909 1.01010E-04-3.18155E-05-2.97533E-05 1.47816E-05 2.11915E-20-2.87137E-20
 -1      2910 9.77392E-05-2.84563E-05-2.97650E-05 1.46744E-05-5.13235E-19-7.97077E-19
 -1      2911 1.18419E-04-6.02297E-05-2.52295E-05 2.99278E-05 8.99125E-19-4.56604E-19
 -1      2912 1.01304E-04-5.34734E-05-2.00205E-05 3.65263E-05 6.97002E-19 6.85885E-19
 -1      2913 8.50193E-05-1.66596E-05-2.93003E-05-2.93709E-06-1.74022E-20-2.56518E-18
 -1      2914 8.45873E-05-1.63305E-05-2.92897E-05-3.56306E-07 8.99603E-19-3.77348E-18
 -1      2915 3.59518E-05-1.68701E-05-7.61074E-06-1.72867E-05 4.55280E-21-3.31825E-18
 -1      2916 4.65060E-05-2.41250E-05-9.26412E-06-2.93543E-05-5.25160E-20-2.50764E-18
 -1      2917 8.62706E-05-1.77146E-05-2.94399E-05 8.00889E-06 1.20110E-18 3.01062E-19
 -1      2918 8.76331E-05-1.87793E-05-2.94821E-05 9.93555E-06 1.71189E-18-2.89618E-19
 -1      2919 8.72449E-05-1.85918E-05-2.93960E-05-7.75336E-06-7.91005E-19-4.36353E-18
 -1      2920 8.60132E-05-1.76252E-05-2.93689E-05-5.71593E-06-7.90393E-19-4.02260E-18
 -1      2921 8.42865E-05-1.78415E-05-2.84329E-05-5.01796E-06-3.81316E-19-4.41196E-18
 -1      2922 8.46353E-05-1.63337E-05-2.93099E-05 2.77643E-06-1.08664E-19-3.97076E-18
 -1      2923 8.51875E-05-1.67625E-05-2.93271E-05 5.31505E-06 1.14682E-18-1.17067E-18
 -1      2924 8.45102E-05-1.78421E-05-2.85332E-05 7.36141E-06 5.83328E-19-5.62455E-19
 -1      2925 8.31758E-05-1.68453E-05-2.83718E-05 1.22302E-06 4.24345E-19-3.53603E-18
 -1      2926 9.04209E-05-2.13956E-05-2.95403E-05-1.06725E-05 5.08719E-19-4.36774E-19
 -1      2927 8.88531E-05-2.01168E-05-2.95183E-05-9.53737E-06-1.77876E-19-2.06224E-18
 -1      2928 8.73555E-05-2.04202E-05-2.86719E-05-9.77722E-06 3.50581E-19-2.97804E-18
 -1      2929 9.36405E-05-2.43030E-05-2.96751E-05-1.15703E-05 5.50845E-19 9.82745E-19
 -1      2930 9.21353E-05-2.29925E-05-2.96748E-05-1.13277E-05 5.53096E-19 1.21116E-18
 -1      2931 9.12526E-05-2.36310E-05-2.89963E-05-1.22387E-05 2.31498E-19 3.81773E-20
 -1      2932 9.61160E-05-2.66058E-05-2.97538E-05-1.07634E-05 7.10005E-19 2.02984E-18
 -1      2933 9.49982E-05-2.55434E-05-2.97834E-05-1.12336E-05 7.08576E-19 1.57677E-18
 -1      2934 9.48684E-05-2.65399E-05-2.93109E-05-1.24437E-05 2.48713E-19 1.53893E-18
 -1      2935 8.21843E-05-4.47195E-05-1.60659E-05 4.09983E-05 7.87317E-19 8.77950E-19
 -1      2936 6.54815E-05-3.52843E-05-1.23982E-05 3.77617E-05 5.47289E-19 8.59844E-19
 -1      2937 5.15003E-05-2.72850E-05-1.00077E-05 3.32774E-05 2.54110E-19-8.91926E-19
 -1      2938 3.99177E-05-1.96573E-05-8.14126E-06 2.16681E-05 6.45386E-19-1.30782E-18
 -1      2939 6.56587E-05-3.06269E-05-1.44254E-05 3.31071E-05-6.81862E-20 2.72109E-20
 -1      2940 1.26564E-04-6.12597E-05-2.78226E-05-2.42482E-05 1.47982E-18-3.86459E-19
 -1      2941 1.34039E-04-6.01135E-05-3.21172E-05-1.64724E-05 2.02939E-18 2.56969E-19
 -1      2942 1.21398E-04-5.94436E-05-2.63242E-05-2.54556E-05 1.74129E-18-1.20512E-18
 -1      2943 3.37344E-05-1.52563E-05-7.31787E-06 9.55783E-06 6.14919E-19-1.00670E-18
 -1      2944 3.28545E-05-1.44807E-05-7.35103E-06-2.69975E-06 1.43883E-18 8.03411E-19
 -1      2945 9.47039E-05-2.19073E-05-3.12053E-05 7.84944E-06 1.46020E-18 3.65548E-20
 -1      2946 9.44552E-05-2.14311E-05-3.13381E-05-7.65818E-06-9.42384E-19-1.80824E-18
 -1      2947 9.50176E-05-2.31937E-05-3.07365E-05-5.99968E-06-8.15411E-19-1.62197E-18
 -1      2948 9.50463E-05-2.43894E-05-3.02999E-05-4.47793E-06-6.86345E-19-1.49953E-18
 -1      2949 9.30745E-05-1.90563E-05-3.17216E-05-7.05760E-06-5.99286E-19-1.92079E-18
 -1      2950 6.09301E-05-3.33471E-05-1.12812E-05-3.53599E-05-3.46860E-19-1.52487E-18
 -1      2951 7.84936E-05-4.34118E-05-1.50190E-05-3.91093E-05-6.20981E-19-2.88584E-18
 -1      2952 1.26235E-04-6.08529E-05-2.76908E-05-1.88469E-05-1.18325E-18 1.06446E-18
 -1      2953 1.35298E-04-5.98243E-05-3.29137E-05-6.29128E-06-7.64037E-19 1.66834E-18
 -1      2954 9.47184E-05-2.74136E-05-2.88478E-05 3.96526E-07 9.21345E-19-2.33073E-19
 -1      2955 9.48997E-05-2.71208E-05-2.90204E-05 1.00078E-06 1.05096E-18-1.64952E-19
 -1      2956 9.51269E-05-2.73818E-05-2.90434E-05 3.83865E-07 8.78921E-19-2.83068E-19
 -1      2957 9.44666E-05-2.83072E-05-2.83533E-05-1.09008E-06 2.96433E-19 8.31670E-20
 -1      2958 9.44362E-05-2.82187E-05-2.83726E-05-1.01962E-06 5.06309E-19 5.27907E-20
 -1      2959 9.49276E-05-2.82380E-05-2.85876E-05-8.97341E-07 4.86719E-19-7.72643E-20
 -1      2960 9.48943E-05-2.84412E-05-2.84845E-05-1.10941E-06 3.64079E-19 1.87595E-19
 -1      2961 1.38369E-04-5.98752E-05-3.40037E-05 8.92244E-06 8.77738E-19-2.41002E-18
 -1      2962 1.31080E-04-6.17490E-05-2.94969E-05 1.80148E-05 1.24032E-18-1.98772E-18
 -1      2963 9.11835E-05-1.60942E-05-3.22091E-05 4.92272E-06 1.43520E-18-1.38338E-18
 -1      2964 9.08416E-05-1.55957E-05-3.22700E-05 3.99926E-06 1.23315E-18-1.65037E-18
 -1      2965 9.18212E-05-1.72074E-05-3.19618E-05 3.20195E-06 1.11591E-18-1.60123E-18
 -1      2966 9.24880E-05-1.82667E-05-3.17891E-05 4.62183E-06 1.33429E-18-1.22719E-18
 -1      2967 9.08061E-05-1.55465E-05-3.22753E-05-3.93586E-06 1.22181E-19-2.18541E-18
 -1      2968 9.11382E-05-1.60353E-05-3.22158E-05-4.86451E-06-8.20234E-20-2.23267E-18
 -1      2969 9.49738E-05-2.66893E-05-2.92705E-05 1.78943E-06 1.15620E-18-3.10786E-19
 -1      2970 9.52421E-05-2.61924E-05-2.95556E-05 2.79755E-06 1.14277E-18-1.99674E-19
 -1      2971 9.52692E-05-2.50220E-05-3.01030E-05 3.82958E-06 1.37101E-18-4.79140E-19
 -1      2972 9.52510E-05-2.65026E-05-2.94703E-05 1.74383E-06 1.10442E-18-5.80981E-19
 -1      2973 1.40010E-04-5.42162E-05-3.67388E-05-3.79479E-06 2.09982E-18 2.61521E-19
 -1      2974 1.39571E-04-4.46488E-05-4.12478E-05 5.09565E-06 1.25880E-18-1.30401E-18
 -1      2975 1.29192E-04-1.62822E-05-4.89375E-05 1.06553E-05 5.31937E-19 2.33760E-18
 -1      2976 1.27902E-04-1.29438E-05-5.00175E-05 4.01450E-06 9.99499E-19 2.02004E-18
 -1      2977 9.81869E-05-2.86764E-05-2.97709E-05-7.46947E-06-3.65115E-19 1.04718E-18
 -1      2978 9.76678E-05-2.81232E-05-2.98105E-05-8.35326E-06-6.19181E-20 3.77865E-19
 -1      2979 9.89578E-05-2.95031E-05-2.97748E-05-7.69333E-06 3.28484E-19 1.08746E-18
 -1      2980 1.37943E-04-5.12636E-05-3.70222E-05 8.99998E-06-8.01876E-19 7.72600E-19
 -1      2981 1.37529E-04-4.38092E-05-4.08177E-05 1.41395E-05-9.65353E-19 1.32354E-18
 -1      2982 1.28568E-04-1.36415E-05-4.99040E-05-3.92689E-06-8.97855E-20 1.92213E-18
 -1      2983 1.31268E-04-1.88407E-05-4.88051E-05-1.07949E-05-4.74338E-20 1.97359E-19
 -1      2984 1.35143E-04-3.34923E-05-4.39541E-05 1.67543E-05-7.84776E-19 1.75823E-18
 -1      2985 1.32512E-04-2.46007E-05-4.70582E-05 1.55599E-05 2.86085E-19 2.19932E-18
 -1      2986 1.24237E-04-2.18673E-05-4.41856E-05 1.35789E-05 3.91117E-19 2.62368E-19
 -1      2987 1.29884E-04-3.75977E-05-3.97141E-05 1.77375E-05-7.48936E-19 1.14143E-18
 -1      2988 9.91095E-05-5.21151E-05-1.96491E-05-3.39987E-05-1.59454E-18-2.23177E-18
 -1      2989 1.14876E-04-5.86552E-05-2.42940E-05-2.84802E-05-1.26113E-18 1.14118E-19
 -1      2990 1.20927E-04-5.80205E-05-2.67217E-05-1.96523E-05-1.13217E-18 1.08042E-18
 -1      2991 1.29512E-04-1.35659E-05-5.01189E-05 8.00306E-06-1.03296E-18 8.21940E-19
 -1      2992 1.26697E-04-9.60764E-06-5.08304E-05 2.52805E-06-2.12605E-19 1.15024E-18
 -1      2993 2.98544E-05-1.35853E-05-6.53866E-06 8.34387E-06 5.56157E-19-1.76056E-18
 -1      2994 2.98234E-05-1.36180E-05-6.43426E-06-5.00381E-06 3.00485E-19-2.99405E-18
 -1      2995 5.02763E-05-2.56996E-05-1.02156E-05 3.35256E-05 1.93018E-19 5.39984E-20
 -1      2996 3.73365E-05-1.74051E-05-7.88830E-06 2.08608E-05 7.00602E-19-2.78886E-19
 -1      2997 8.11412E-05-4.42645E-05-1.57253E-05 4.12411E-05 1.94818E-20 2.71792E-19
 -1      2998 6.67964E-05-3.57974E-05-1.27615E-05 3.87787E-05-1.23879E-20 6.24581E-19
 -1      2999 1.13823E-04-5.77832E-05-2.42284E-05 3.09218E-05-4.61527E-19 2.42920E-19
 -1      3000 9.74374E-05-5.15531E-05-1.92493E-05 3.71625E-05 4.65127E-19 4.77065E-19
 -1      3001 9.45029E-05-4.78955E-05-1.95728E-05 3.54436E-05 1.06197E-18 1.47479E-18
 -1      3002 1.32380E-04-5.89070E-05-3.19585E-05 1.32166E-05-8.27339E-19-1.74843E-18
 -1      3003 1.25057E-04-5.90698E-05-2.80402E-05 2.05734E-05-8.07646E-19-1.34297E-18
 -1      3004 1.38876E-04-4.36335E-05-4.15031E-05-7.03775E-06-8.70856E-19-2.82485E-19
 -1      3005 1.37555E-04-5.30417E-05-3.61774E-05 1.99556E-06-1.12880E-18-1.44398E-18
 -1      3006 1.32758E-04-2.38032E-05-4.74262E-05-1.26513E-05-1.21465E-18 1.18902E-19
 -1      3007 1.35757E-04-3.17581E-05-4.47876E-05-1.28851E-05-1.46219E-18-6.35275E-21
 -1      3008 6.73943E-05-3.70443E-05-1.24788E-05-3.98827E-05 2.54851E-18-1.96406E-18
 -1      3009 8.45211E-05-4.64989E-05-1.62202E-05-4.24235E-05 1.77411E-18-1.96152E-18
 -1      3010 1.26721E-04-9.75318E-06-5.08286E-05-5.08367E-06-4.21399E-19 8.99920E-19
 -1      3011 1.29545E-04-1.47535E-05-4.96936E-05-1.05418E-05-6.00758E-19 2.65121E-19
 -1      3012 1.25655E-04-1.97634E-05-4.57835E-05-1.25713E-05-1.13206E-18 5.07108E-19
 -1      3013 1.35514E-04-3.16081E-05-4.49044E-05 1.03619E-05 3.30766E-19-2.10911E-19
 -1      3014 1.32335E-04-2.16697E-05-4.81521E-05 1.01144E-05-3.39025E-19-2.32934E-20
 -1      3015 1.43213E-04-5.00785E-05-4.04446E-05-4.83651E-06 2.20747E-18-2.73380E-18
 -1      3016 1.41606E-04-5.62814E-05-3.67284E-05 9.51100E-07 1.51655E-18-2.01435E-18
 -1      3017 1.36843E-04-5.75618E-05-3.39934E-05 2.63404E-06 1.40406E-18-2.22320E-18
 -1      3018 1.37244E-04-2.63739E-05-4.82681E-05-1.24917E-05 1.50793E-18-1.03867E-18
 -1      3019 1.41602E-04-3.77577E-05-4.47660E-05-1.20537E-05 1.94998E-18-2.37413E-18
 -1      3020 9.15776E-05-1.66941E-05-3.21147E-05-5.57849E-06-2.13636E-19-2.18860E-18
 -1      3021 9.20568E-05-1.74603E-05-3.20239E-05-6.47170E-06-3.88748E-19-2.10265E-18
 -1      3022 9.24378E-05-1.81972E-05-3.17975E-05-4.55618E-06-1.64281E-19-2.00030E-18
 -1      3023 9.12969E-05-1.63972E-05-3.20877E-05 2.67795E-08 5.74502E-19-2.00508E-18
 -1      3024 9.01754E-05-1.46076E-05-3.24051E-05-3.82979E-07 6.15674E-19-2.07664E-18
 -1      3025 9.02316E-05-1.46897E-05-3.23952E-05-1.34253E-06 4.75886E-19-2.21140E-18
 -1      3026 1.34926E-04-5.69507E-05-3.33714E-05-7.75337E-06 2.47805E-18-3.12873E-19
 -1      3027 9.31155E-05-4.68730E-05-1.94472E-05-3.31545E-05-8.84091E-19-1.73504E-18
 -1      3028 9.70567E-05-4.97256E-05-1.99685E-05-3.69767E-05 2.21711E-18-1.50475E-18
 -1      3029 3.81334E-05-1.53888E-05-9.10123E-06-1.04651E-05 9.34992E-19 1.03465E-18
 -1      3030 4.54449E-05-1.74987E-05-1.16562E-05-1.85978E-05 5.99832E-19 4.68727E-19
 -1      3031 4.39017E-05-1.41694E-05-1.22425E-05-4.80314E-06-2.16549E-19 2.40346E-19
 -1      3032 1.24421E-04-5.95889E-05-2.76214E-05 2.06208E-05 1.93298E-18-1.17306E-18
 -1      3033 9.93161E-05-3.00711E-05-2.96930E-05-8.87624E-06-1.04250E-19 4.61296E-19
 -1      3034 1.38257E-04-4.46086E-05-4.03740E-05-1.03176E-05 1.53091E-18-2.64941E-18
 -1      3035 9.60066E-05-4.78927E-05-2.01905E-05 3.51093E-05 1.15398E-18 1.11890E-18
 -1      3036 1.20493E-04-2.55513E-05-4.08162E-05 1.54234E-05 1.35261E-19 8.84223E-19
 -1      3037 1.23521E-04-3.24978E-05-3.94872E-05 1.78993E-05-7.72388E-20 1.82260E-18
 -1      3038 1.21817E-04-1.62104E-05-4.56303E-05-1.24984E-06-4.69044E-19 4.00627E-19
 -1      3039 6.02862E-05-2.81649E-05-1.31452E-05-2.99876E-05 4.12505E-19-2.35729E-18
 -1      3040 8.78395E-05-2.03771E-05-2.88926E-05 1.18397E-05 1.34286E-18-1.06942E-18
 -1      3041 8.92737E-05-2.02209E-05-2.96607E-05 1.15572E-05 1.70736E-18-2.78490E-18
 -1      3042 9.10642E-05-2.16380E-05-2.97050E-05 1.26537E-05 2.24635E-18-1.76264E-18
 -1      3043 9.39531E-05-2.41050E-05-2.99691E-05 1.30692E-05 4.09170E-19 1.53033E-20
 -1      3044 1.22315E-04-1.00882E-05-4.86434E-05-1.54975E-06 1.06409E-19 8.74098E-19
 -1      3045 1.17533E-04-1.19228E-05-4.56712E-05-4.89954E-06 6.78685E-20 1.46179E-18
 -1      3046 1.17633E-04-1.20222E-05-4.57279E-05 1.58558E-06 3.45907E-19 1.01960E-18
 -1      3047 9.70605E-05-2.74001E-05-2.98580E-05-9.24639E-06 9.91869E-19 7.29515E-19
 -1      3048 6.05532E-05-3.09055E-05-1.22459E-05-3.59644E-05 3.16621E-18-1.88338E-18
 -1      3049 7.26838E-05-3.44073E-05-1.60120E-05-3.50750E-05 3.08913E-18-1.63970E-18
 -1      3050 5.48906E-05-2.40017E-05-1.27142E-05-2.90991E-05 2.37625E-18-1.03042E-18
 -1      3051 4.52540E-05-1.75024E-05-1.12756E-05 1.59616E-05-6.39060E-19-1.58258E-18
 -1      3052 1.25090E-04-1.81909E-05-4.60716E-05 1.04794E-05-3.14037E-19 1.04614E-18
 -1      3053 1.33265E-04-3.88517E-05-4.06982E-05-1.11636E-05-1.11406E-18-7.29719E-19
 -1      3054 1.19400E-04-5.74599E-05-2.64268E-05 2.30517E-05-2.76609E-19-8.52870E-19
 -1      3055 9.43530E-05-2.14250E-05-3.12591E-05 7.22353E-06 1.55186E-18-3.65329E-19
 -1      3056 9.85963E-05-2.93849E-05-2.96324E-05-9.74806E-06-5.46010E-19 6.73854E-19
 -1      3057 9.70522E-05-2.76700E-05-2.97487E-05-1.03008E-05 1.63113E-19 1.47918E-18
 -1      3058 9.75542E-05-2.88297E-05-2.94733E-05-1.14396E-05-6.09957E-19 2.36509E-18
 -1      3059 9.95305E-05-3.05513E-05-2.95696E-05-9.88082E-06-9.38568E-19 6.44962E-19
 -1      3060 9.46127E-05-2.24680E-05-3.09120E-05 5.69931E-06 1.51209E-18-5.57092E-19
 -1      3061 9.03569E-05-1.48784E-05-3.23675E-05-2.17865E-06 3.91640E-19-2.07472E-18
 -1      3062 9.05410E-05-1.51449E-05-3.23352E-05-3.13203E-06 1.92062E-19-2.10749E-18
 -1      3063 9.17917E-05-1.71663E-05-3.19662E-05-3.13805E-06 1.49163E-19-2.06210E-18
 -1      3064 9.14158E-05-1.65807E-05-3.20587E-05-1.58371E-06 3.47703E-19-2.03763E-18
 -1      3065 6.32749E-05-2.99075E-05-1.38069E-05 3.35041E-05 9.95899E-19 2.70839E-19
 -1      3066 1.33029E-04-5.38260E-05-3.39617E-05 3.14413E-06 1.10961E-19 3.17320E-19
 -1      3067 1.32773E-04-4.45206E-05-3.78662E-05 7.56440E-06 1.81731E-18-1.37034E-18
 -1      3068 1.35441E-04-3.93739E-05-4.15914E-05 9.74609E-06 1.27950E-18-1.00543E-18
 -1      3069 1.28664E-04-3.37868E-05-4.09760E-05 1.23536E-05 1.61090E-18-7.71012E-19
 -1      3070 4.01851E-05-1.50322E-05-1.01125E-05-1.13468E-05 4.48239E-19-3.33646E-18
 -1      3071 4.09386E-05-1.54281E-05-1.02786E-05 1.45486E-05 5.69788E-19-1.06843E-18
 -1      3072 9.50392E-05-2.40683E-05-3.04187E-05-4.15509E-06-6.11267E-19-1.48466E-18
 -1      3073 1.33465E-04-5.46652E-05-3.37139E-05 3.22057E-06-1.29215E-18-1.36738E-18
 -1      3074 9.42760E-05-2.18535E-05-3.10597E-05 4.97821E-06 1.36064E-18-7.74339E-19
 -1      3075 9.38157E-05-2.09119E-05-3.12458E-05 4.63077E-06 1.31129E-18-1.00766E-18
 -1      3076 7.40772E-05-3.43714E-05-1.69316E-05 3.44509E-05 1.38162E-18 1.30835E-18
 -1      3077 6.00500E-05-2.44752E-05-1.48569E-05 2.86192E-05 1.14508E-18 4.39398E-20
 -1      3078 9.56823E-05-2.68813E-05-2.94722E-05-7.52672E-07-3.70970E-19-1.21727E-18
 -1      3079 9.56595E-05-2.73286E-05-2.92929E-05-2.27258E-07-4.11299E-19-1.31349E-18
 -1      3080 9.57032E-05-2.77128E-05-2.91275E-05 1.53424E-07-4.68250E-19-1.25127E-18
 -1      3081 9.56663E-05-2.79977E-05-2.90054E-05 4.69368E-07-6.43889E-19-1.28227E-18
 -1      3082 9.59026E-05-2.73315E-05-2.93909E-05-1.71028E-07-4.90419E-19-1.26474E-18
 -1      3083 9.56584E-05-2.82340E-05-2.88883E-05 6.92570E-07-6.08932E-19-1.18431E-18
 -1      3084 9.56264E-05-2.84124E-05-2.88081E-05 8.62796E-07-3.89764E-19-1.27958E-18
 -1      3085 9.59437E-05-2.80519E-05-2.91002E-05 4.66383E-07-5.72996E-19-1.30079E-18
 -1      3086 9.55944E-05-2.85510E-05-2.87277E-05 9.74967E-07-2.57008E-19-1.28252E-18
 -1      3087 9.55717E-05-2.86580E-05-2.86779E-05 1.04828E-06-1.19125E-19-1.05527E-18
 -1      3088 9.59095E-05-2.84969E-05-2.88946E-05 8.29025E-07-2.81621E-19-1.41700E-18
 -1      3089 9.55298E-05-2.87310E-05-2.86250E-05 1.08689E-06-4.05490E-20-8.07422E-19
 -1      3090 9.55161E-05-2.87890E-05-2.85969E-05 1.09977E-06-1.76140E-19-6.59767E-19
 -1      3091 9.58409E-05-2.87551E-05-2.87541E-05 1.00100E-06 9.81060E-20-1.14176E-18
 -1      3092 9.54716E-05-2.88176E-05-2.85645E-05 1.09386E-06-2.73174E-19-5.26450E-19
 -1      3093 9.54650E-05-2.88414E-05-2.85519E-05 1.07300E-06-9.01741E-20-4.42402E-19
 -1      3094 9.57588E-05-2.88851E-05-2.86627E-05 1.04980E-06 1.46602E-20-9.32790E-19
 -1      3095 9.54216E-05-2.88395E-05-2.85348E-05 1.04429E-06-4.78654E-19-3.24757E-19
 -1      3096 9.54202E-05-2.88392E-05-2.85332E-05 1.00907E-06-5.55142E-19-5.30754E-19
 -1      3097 9.56743E-05-2.89268E-05-2.86081E-05 1.02729E-06-3.45860E-19-7.40846E-19
 -1      3098 9.53793E-05-2.88162E-05-2.85274E-05 9.73585E-07-6.02253E-19-5.65627E-19
 -1      3099 9.53817E-05-2.87984E-05-2.85339E-05 9.38120E-07-4.56544E-19-6.17346E-19
 -1      3100 9.55925E-05-2.89071E-05-2.85811E-05 9.72162E-07-6.66297E-19-4.18417E-19
 -1      3101 9.53434E-05-2.87600E-05-2.85367E-05 9.07749E-07-4.40484E-19-7.03075E-19
 -1      3102 9.53485E-05-2.87289E-05-2.85492E-05 8.82560E-07-2.61880E-19-4.16578E-19
 -1      3103 9.55150E-05-2.88434E-05-2.85748E-05 9.13148E-07-3.97349E-19-5.92666E-19
 -1      3104 9.53121E-05-2.86784E-05-2.85587E-05 8.66383E-07-3.88754E-19-8.32259E-19
 -1      3105 9.53194E-05-2.86366E-05-2.85761E-05 8.59618E-07-6.72112E-19-1.09231E-18
 -1      3106 9.54414E-05-2.87467E-05-2.85844E-05 8.71870E-07-4.78638E-19-1.08401E-18
 -1      3107 9.52835E-05-2.85756E-05-2.85908E-05 8.64919E-07-7.11451E-19-9.98399E-19
 -1      3108 9.52930E-05-2.85244E-05-2.86126E-05 8.83291E-07-8.12585E-19-1.27973E-18
 -1      3109 9.53697E-05-2.86230E-05-2.86064E-05 8.65182E-07-7.65805E-19-1.08337E-18
 -1      3110 9.52559E-05-2.84532E-05-2.86318E-05 9.16332E-07-9.03491E-19-1.30681E-18
 -1      3111 9.52678E-05-2.83933E-05-2.86576E-05 9.65752E-07-9.53452E-19-1.30188E-18
 -1      3112 9.52970E-05-2.84748E-05-2.86385E-05 9.06986E-07-7.98706E-19-1.17222E-18
 -1      3113 9.52277E-05-2.83117E-05-2.86808E-05 1.03230E-06-4.24819E-19-1.09222E-18
 -1      3114 9.52427E-05-2.82434E-05-2.87107E-05 1.11825E-06-5.68182E-20-7.78730E-19
 -1      3115 9.52199E-05-2.83026E-05-2.86791E-05 1.00956E-06-4.91129E-19-8.77087E-19
 -1      3116 9.51979E-05-2.81511E-05-2.87372E-05 1.22388E-06-9.17865E-20-1.01539E-18
 -1      3117 9.52173E-05-2.80753E-05-2.87714E-05 1.35151E-06-2.68670E-20-8.47139E-19
 -1      3118 9.51350E-05-2.81061E-05-2.87267E-05 1.18438E-06-2.12594E-19-1.19991E-18
 -1      3119 9.51663E-05-2.79727E-05-2.88006E-05 1.50162E-06 3.73573E-19-7.44677E-19
 -1      3120 9.51922E-05-2.78916E-05-2.88388E-05 1.67553E-06 4.58459E-19-7.78438E-19
 -1      3121 9.50391E-05-2.78857E-05-2.87799E-05 1.44251E-06 3.27797E-19-1.47983E-18
 -1      3122 9.51349E-05-2.77808E-05-2.88698E-05 1.87517E-06 4.08386E-19-3.01579E-19
 -1      3123 9.51709E-05-2.76988E-05-2.89117E-05 2.09885E-06 6.17605E-19-4.61060E-19
 -1      3124 9.49307E-05-2.76443E-05-2.88367E-05 1.79445E-06 7.01244E-19-1.09978E-18
 -1      3125 9.51090E-05-2.75851E-05-2.89429E-05 2.35217E-06 7.79330E-19-5.51212E-19
 -1      3126 9.51607E-05-2.75104E-05-2.89875E-05 2.62706E-06 1.14342E-18-7.01031E-19
 -1      3127 9.48111E-05-2.73901E-05-2.88943E-05 2.24950E-06 7.33351E-19-5.08240E-19
 -1      3128 9.50996E-05-2.74041E-05-2.90166E-05 2.93652E-06 1.30793E-18-6.29132E-19
 -1      3129 9.51765E-05-2.73508E-05-2.90621E-05 3.26051E-06 6.98870E-19-4.89448E-19
 -1      3130 9.46872E-05-2.71400E-05-2.89484E-05 2.81458E-06 1.11862E-18-6.47713E-19
 -1      3131 9.51274E-05-2.72696E-05-2.90859E-05 3.62560E-06-4.59751E-19-6.53513E-19
 -1      3132 9.52447E-05-2.72604E-05-2.91295E-05 3.99102E-06-8.30901E-19-7.22626E-19
 -1      3133 9.45752E-05-2.69245E-05-2.89932E-05 3.49243E-06 3.04308E-19-8.82537E-19
 -1      3134 9.52288E-05-2.72331E-05-2.91441E-05 4.40657E-06-9.18716E-19-9.10905E-19
 -1      3135 9.54106E-05-2.73024E-05-2.91821E-05 4.79735E-06-5.61032E-19-8.32564E-19
 -1      3136 9.45063E-05-2.67935E-05-2.90209E-05 4.27910E-06-1.04516E-18-8.36432E-19
 -1      3137 9.54634E-05-2.73725E-05-2.91828E-05 5.25101E-06-7.16943E-20-1.19616E-18
 -1      3138 9.57469E-05-2.75699E-05-2.92111E-05 5.63899E-06-1.84037E-19-1.04340E-18
 -1      3139 9.45355E-05-2.68244E-05-2.90224E-05 5.16046E-06-4.97498E-19-1.03593E-18
 -1      3140 9.59258E-05-2.77995E-05-2.91939E-05 6.10724E-06-5.81116E-20-1.16826E-18
 -1      3141 9.63654E-05-2.81921E-05-2.92094E-05 6.44716E-06 2.08320E-19-9.35427E-19
 -1      3142 9.47531E-05-2.71306E-05-2.89885E-05 6.10684E-06-4.84074E-20-9.35430E-19
 -1      3143 9.67569E-05-2.86633E-05-2.91731E-05 6.88850E-06 4.62070E-19-6.55298E-19
 -1      3144 9.74268E-05-2.93325E-05-2.91761E-05 7.11110E-06 2.83564E-19-4.77952E-19
 -1      3145 9.52996E-05-2.78681E-05-2.89134E-05 7.06381E-06 5.19993E-19-4.49891E-19
 -1      3146 9.81534E-05-3.01428E-05-2.91268E-05 7.45355E-06 1.41550E-19 4.13927E-20
 -1      3147 9.91412E-05-3.11702E-05-2.91261E-05 7.45618E-06 2.13118E-19 6.76907E-19
 -1      3148 9.63801E-05-2.92348E-05-2.88015E-05 7.93476E-06 7.68695E-19 1.68184E-19
 -1      3149 1.00358E-04-3.24104E-05-2.90845E-05 7.57375E-06 4.02288E-19 9.11346E-19
 -1      3150 1.01739E-04-3.38353E-05-2.91049E-05 7.20979E-06 1.34130E-18 1.17688E-18
 -1      3151 9.82726E-05-3.14489E-05-2.86794E-05 8.54611E-06 7.51770E-19 1.61044E-18
 -1      3152 1.03602E-04-3.55305E-05-2.91177E-05 6.89327E-06 8.12067E-19 9.75213E-19
 -1      3153 1.05375E-04-3.72655E-05-2.92089E-05 5.97363E-06 6.95174E-19 9.13472E-19
 -1      3154 1.01296E-04-3.46647E-05-2.86160E-05 8.58666E-06 6.57004E-19 1.78450E-18
 -1      3155 1.07949E-04-3.92636E-05-2.93631E-05 4.90482E-06 1.04939E-18 3.09692E-19
 -1      3156 1.09922E-04-4.09418E-05-2.96066E-05 3.23605E-06 6.80753E-19 5.21775E-19
 -1      3157 1.05700E-04-3.87973E-05-2.87499E-05 7.54004E-06 3.20169E-19 2.78621E-19
 -1      3158 1.13003E-04-4.27307E-05-3.00442E-05 1.03358E-06 3.40335E-20 7.29434E-19
 -1      3159 1.14651E-04-4.35067E-05-3.05531E-05-1.44663E-06-4.15260E-19 5.66936E-19
 -1      3160 1.11405E-04-4.31668E-05-2.93225E-05 4.68327E-06 1.21845E-19-6.30748E-19
 -1      3161 1.17369E-04-4.39467E-05-3.14564E-05-4.82675E-06-2.05042E-19 5.15535E-19
 -1      3162 1.17918E-04-4.26191E-05-3.23200E-05-7.63767E-06 4.24493E-20 2.06269E-19
 -1      3163 1.17404E-04-4.58683E-05-3.06938E-05-7.35588E-07 4.79827E-20-1.97984E-19
 -1      3164 1.18870E-04-4.03275E-05-3.37981E-05-1.11932E-05-6.92737E-19 7.78741E-19
 -1      3165 1.17704E-04-3.61080E-05-3.49972E-05-1.30128E-05-1.37968E-18 4.47243E-19
 -1      3166 1.21422E-04-4.38095E-05-3.32492E-05-8.14303E-06-5.39957E-19-2.54686E-19
 -1      3167 1.10215E-04-2.00642E-05-3.88589E-05-9.59941E-06-8.31310E-19-1.80219E-18
 -1      3168 1.08918E-04-1.71668E-05-3.94555E-05-5.34336E-06-9.41318E-19-1.02320E-18
 -1      3169 1.08713E-04-1.63694E-05-3.97556E-05 7.86342E-07-8.30939E-19 6.50826E-21
 -1      3170 1.09107E-04-1.78436E-05-3.94129E-05 5.44231E-06 6.29743E-19 1.94460E-19
 -1      3171 1.16665E-04-2.26326E-05-4.05314E-05 1.04724E-05 7.39672E-19 1.62127E-20
 -1      3172 1.19265E-04-2.88380E-05-3.90464E-05 1.21745E-05 1.18127E-18-5.13434E-19
 -1      3173 1.18474E-04-4.22261E-05-3.27230E-05 6.30817E-06 1.49371E-18-5.19870E-19
 -1      3174 1.18235E-04-4.41155E-05-3.17754E-05 3.52721E-06 1.08646E-18-1.30066E-19
 -1      3175 1.15837E-04-4.41957E-05-3.07705E-05-1.72868E-07 3.19556E-19-4.04937E-19
 -1      3176 1.14297E-04-4.36799E-05-3.01962E-05-2.86988E-06 7.75866E-19-3.48822E-19
 -1      3177 1.19225E-04-4.66603E-05-3.11365E-05-5.80997E-07 1.40528E-18-5.41502E-19
 -1      3178 1.11195E-04-4.19680E-05-2.97190E-05-5.44757E-06 1.27757E-18 4.88988E-20
 -1      3179 1.09126E-04-4.02087E-05-2.94589E-05-7.32947E-06 8.14675E-19 5.41861E-19
 -1      3180 1.13490E-04-4.45496E-05-2.96202E-05-6.75718E-06 9.43291E-19 4.97632E-21
 -1      3181 1.06375E-04-3.79887E-05-2.93342E-05-8.63781E-06 7.60199E-19 1.22730E-18
 -1      3182 1.04364E-04-3.59146E-05-2.92794E-05-9.64053E-06 9.27923E-20 2.27645E-18
 -1      3183 1.07557E-04-3.99476E-05-2.90462E-05-1.01971E-05 1.72453E-18 7.70122E-19
 -1      3184 1.02556E-04-3.40679E-05-2.93639E-05-9.84794E-06-1.53740E-18 2.76268E-18
 -1      3185 1.00876E-04-3.21467E-05-2.94189E-05-1.01406E-05-1.28671E-18 2.33740E-18
 -1      3186 9.99115E-05-3.14858E-05-2.93394E-05-1.10896E-05-1.89455E-18 1.75229E-18
 -1      3187 1.03023E-04-3.53044E-05-2.90625E-05-1.13072E-05-2.66769E-19 2.25112E-18
 -1      3188 9.53715E-05-2.79562E-05-2.88963E-05-4.66260E-07 6.29810E-19-2.30295E-19
 -1      3189 9.54262E-05-2.76992E-05-2.90127E-05-1.35025E-07 7.10760E-19-2.30261E-19
 -1      3190 9.52297E-05-2.87484E-05-2.84908E-05-1.10406E-06 4.46444E-19 7.31589E-20
 -1      3191 9.52153E-05-2.87188E-05-2.84970E-05-1.12808E-06 7.58691E-19-1.59360E-19
 -1      3192 9.52465E-05-2.86886E-05-2.85242E-05-1.13431E-06 7.97644E-19-2.27775E-19
 -1      3193 9.52419E-05-2.86294E-05-2.85450E-05-1.12304E-06 4.94520E-19-1.03269E-19
 -1      3194 9.55294E-05-2.87970E-05-2.86023E-05-1.10373E-06 6.50384E-19-1.22759E-19
 -1      3195 9.52238E-05-2.87396E-05-2.84915E-05-9.52855E-07 2.49349E-21 5.07767E-19
 -1      3196 9.51999E-05-2.87466E-05-2.84805E-05-9.93393E-07 2.42152E-19 3.67478E-19
 -1      3197 9.52304E-05-2.86932E-05-2.85139E-05-8.86269E-07 2.72502E-19 5.65232E-19
 -1      3198 9.52042E-05-2.87120E-05-2.84977E-05-9.17217E-07 2.63206E-19 6.01181E-19
 -1      3199 9.53866E-05-2.87995E-05-2.85386E-05-9.45856E-07 3.64748E-20 6.27549E-20
 -1      3200 9.52414E-05-2.86264E-05-2.85470E-05-8.51222E-07 2.65297E-19-2.07846E-20
 -1      3201 9.52132E-05-2.86549E-05-2.85264E-05-8.64247E-07 4.74914E-19 4.61900E-19
 -1      3202 9.53506E-05-2.87262E-05-2.85543E-05-8.92921E-07 6.25571E-19 1.82870E-19
 -1      3203 9.52561E-05-2.85413E-05-2.85894E-05-8.62405E-07 3.39573E-19 5.02507E-20
 -1      3204 9.52255E-05-2.85787E-05-2.85647E-05-8.50480E-07 1.63193E-19 2.86771E-20
 -1      3205 9.53178E-05-2.86281E-05-2.85820E-05-8.74165E-07 2.65451E-19 1.11446E-20
 -1      3206 9.52740E-05-2.84379E-05-2.86410E-05-9.33039E-07-2.10229E-19 3.47192E-19
 -1      3207 9.52400E-05-2.84839E-05-2.86118E-05-8.89656E-07-3.70640E-21 1.89997E-19
 -1      3208 9.52856E-05-2.85069E-05-2.86200E-05-9.04456E-07-2.50550E-20 1.57153E-19
 -1      3209 9.52946E-05-2.83143E-05-2.87023E-05-1.07612E-06-1.52112E-19 6.17418E-21
 -1      3210 9.52559E-05-2.83696E-05-2.86680E-05-9.94721E-07-1.83338E-19 1.84648E-19
 -1      3211 9.52511E-05-2.83612E-05-2.86675E-05-9.97269E-07-2.97794E-19 2.05832E-20
 -1      3212 9.53171E-05-2.81674E-05-2.87742E-05-1.30523E-06-4.07971E-19 3.83095E-19
 -1      3213 9.52722E-05-2.82331E-05-2.87339E-05-1.17885E-06-2.35576E-19 2.93742E-19
 -1      3214 9.52101E-05-2.81878E-05-2.87240E-05-1.16583E-06-4.32557E-19-2.77861E-19
 -1      3215 9.53403E-05-2.79936E-05-2.88579E-05-1.63498E-06-4.44823E-19 8.77193E-19
 -1      3216 9.52876E-05-2.80707E-05-2.88107E-05-1.45609E-06-4.57617E-19 8.33682E-19
 -1      3217 9.51577E-05-2.79819E-05-2.87896E-05-1.42381E-06-4.88457E-19 1.84824E-19
 -1      3218 9.53622E-05-2.77892E-05-2.89539E-05-2.08095E-06-2.35027E-19 1.17125E-18
 -1      3219 9.53000E-05-2.78787E-05-2.88990E-05-1.84155E-06-2.44388E-19 1.16835E-18
 -1      3220 9.50877E-05-2.77379E-05-2.88638E-05-1.78566E-06-4.25478E-19 9.03483E-19
 -1      3221 9.53799E-05-2.75524E-05-2.90621E-05-2.65912E-06 8.09489E-20 7.58332E-19
 -1      3222 9.53067E-05-2.76539E-05-2.89992E-05-2.35118E-06-1.96046E-20 7.62721E-19
 -1      3223 9.49922E-05-2.74507E-05-2.89454E-05-2.26643E-06-5.62649E-20 1.75475E-18
 -1      3224 9.53908E-05-2.72850E-05-2.91803E-05-3.38460E-06 7.91222E-19 1.04765E-18
 -1      3225 9.53044E-05-2.73957E-05-2.91099E-05-3.00093E-06 4.67519E-19 7.33138E-19
 -1      3226 9.48621E-05-2.71175E-05-2.90318E-05-2.88126E-06 2.31330E-19 1.62155E-18
 -1      3227 9.53935E-05-2.69973E-05-2.93037E-05-4.26953E-06 6.28786E-19 1.37849E-18
 -1      3228 9.52905E-05-2.71095E-05-2.92278E-05-3.80525E-06 9.83645E-19 1.07711E-18
 -1      3229 9.46879E-05-2.67406E-05-2.91178E-05-3.64429E-06 6.11894E-19 1.43845E-18
 -1      3230 9.53934E-05-2.67154E-05-2.94233E-05-5.31990E-06 3.89003E-19 8.84127E-19
 -1      3231 9.52662E-05-2.68123E-05-2.93460E-05-4.77473E-06 5.00793E-19 1.01865E-18
 -1      3232 9.44626E-05-2.63335E-05-2.91946E-05-4.56735E-06 6.91486E-19 1.04786E-18
 -1      3233 9.54116E-05-2.64940E-05-2.95247E-05-6.53112E-06-2.14283E-19 4.24889E-19
 -1      3234 9.52435E-05-2.65426E-05-2.94527E-05-5.91277E-06 4.24448E-19 6.18170E-19
 -1      3235 9.41871E-05-2.59297E-05-2.92487E-05-5.65853E-06 4.10998E-19 6.14521E-19
 -1      3236 9.55029E-05-2.64361E-05-2.95869E-05-7.88206E-06-1.31276E-19 8.04468E-19
 -1      3237 9.52583E-05-2.63765E-05-2.95303E-05-7.21102E-06-5.67765E-19 4.30865E-19
 -1      3238 9.38829E-05-2.55983E-05-2.92602E-05-6.92108E-06-3.27005E-19 7.92475E-19
 -1      3239 9.57874E-05-2.67223E-05-2.95834E-05-9.32646E-06-7.04498E-19 1.08312E-18
 -1      3240 9.53954E-05-2.64524E-05-2.95546E-05-8.64304E-06 6.69437E-21 9.88351E-19
 -1      3241 9.36128E-05-2.54667E-05-2.92027E-05-8.35310E-06-3.43916E-19 1.22089E-18
 -1      3242 9.64981E-05-2.76464E-05-2.94874E-05-1.07788E-05-7.98507E-19 1.03914E-18
 -1      3243 9.58284E-05-2.70040E-05-2.94980E-05-1.01542E-05-5.76974E-19 9.70880E-19
 -1      3244 9.35185E-05-2.57546E-05-2.90449E-05-9.94733E-06-5.59795E-19 7.20788E-19
 -1      3245 9.80448E-05-2.96463E-05-2.92873E-05-1.20830E-05-4.91378E-20 1.66882E-19
 -1      3246 9.68819E-05-2.83981E-05-2.93385E-05-1.16395E-05-2.80198E-19 9.34844E-19
 -1      3247 9.38791E-05-2.68156E-05-2.87584E-05-1.16862E-05-5.25526E-19 6.76605E-19
 -1      3248 1.01068E-04-3.32718E-05-2.90242E-05-1.29231E-05-3.07021E-19 3.05689E-19
 -1      3249 9.91095E-05-3.11518E-05-2.90856E-05-1.28765E-05-3.18247E-19-3.59265E-20
 -1      3250 9.52078E-05-2.91869E-05-2.83379E-05-1.35023E-05 9.53681E-20 3.23514E-19
 -1      3251 1.06389E-04-3.89707E-05-2.88600E-05-1.26735E-05-3.44140E-19 6.07704E-19
 -1      3252 1.03300E-04-3.58210E-05-2.88345E-05-1.34053E-05 2.00906E-20 4.63068E-19
 -1      3253 9.83088E-05-3.35079E-05-2.78556E-05-1.51390E-05-4.65950E-19 2.50139E-21
 -1      3254 1.14890E-04-4.64267E-05-2.92490E-05-9.98873E-06-5.52060E-19-5.29038E-19
 -1      3255 1.10481E-04-4.27813E-05-2.88646E-05-1.22933E-05-6.13689E-19 1.34950E-19
 -1      3256 1.04254E-04-4.03766E-05-2.75346E-05-1.59966E-05-4.78210E-20-9.05266E-19
 -1      3257 1.29850E-04-5.52671E-05-3.16861E-05-2.06179E-06 4.04326E-19 2.43204E-19
 -1      3258 1.17201E-04-4.80778E-05-2.94149E-05 1.19176E-05 1.13896E-18-4.27565E-18
 -1      3259 1.21557E-04-5.12566E-05-3.01407E-05 8.50701E-06 4.19546E-19-3.51131E-18
 -1      3260 1.08007E-04-4.03629E-05-2.88539E-05 1.55773E-05 1.89699E-19-2.08948E-18
 -1      3261 1.11841E-04-4.40151E-05-2.90585E-05 1.39063E-05 4.82901E-19-2.76836E-18
 -1      3262 1.11794E-04-4.69442E-05-2.80375E-05 1.74289E-05-9.85569E-20-2.82684E-18
 -1      3263 1.02011E-04-3.40604E-05-2.90127E-05 1.62735E-05-5.71963E-19-1.99201E-19
 -1      3264 1.04658E-04-3.70087E-05-2.89732E-05 1.57720E-05 9.85702E-20-1.47041E-18
 -1      3265 1.03126E-04-3.83497E-05-2.79176E-05 1.85879E-05-4.46987E-19-1.71256E-18
 -1      3266 9.52116E-05-2.42782E-05-3.04015E-05 4.28019E-06 1.44119E-18-5.24731E-19
 -1      3267 9.46404E-05-2.27365E-05-3.08057E-05 4.78176E-06 1.40981E-18-5.61087E-19
 -1      3268 9.49192E-05-2.35920E-05-3.05685E-05 3.68403E-06 1.28943E-18-5.70966E-19
 -1      3269 9.52379E-05-2.52035E-05-3.00285E-05 3.00935E-06 1.25259E-18-5.37249E-19
 -1      3270 8.75442E-05-2.21750E-05-2.79454E-05-1.21057E-05 3.96126E-19-1.27890E-18
 -1      3271 8.52213E-05-2.06358E-05-2.77572E-05-1.02706E-05-2.57571E-19-3.33717E-18
 -1      3272 8.29763E-05-1.87160E-05-2.75027E-05-7.39729E-06-3.56483E-19-5.63844E-18
 -1      3273 8.15353E-05-1.77463E-05-2.73982E-05-4.43663E-06 9.33101E-20-4.48549E-18
 -1      3274 8.27977E-05-2.03607E-05-2.67184E-05-1.00789E-05-6.74563E-19-3.81029E-18
 -1      3275 7.45800E-05-3.30957E-05-1.77914E-05 3.30859E-05 7.43060E-19 1.45404E-18
 -1      3276 6.30881E-05-2.51854E-05-1.57947E-05 2.78130E-05 6.85567E-21 3.25049E-19
 -1      3277 1.03608E-04-4.96649E-05-2.33486E-05 3.04422E-05 8.74641E-19 6.43666E-19
 -1      3278 8.88282E-05-4.08981E-05-2.00629E-05 3.33556E-05 6.66191E-19 1.01181E-18
 -1      3279 8.42767E-05-3.94698E-05-1.87358E-05-3.19832E-05-5.35748E-20-1.25356E-18
 -1      3280 1.00727E-04-4.83414E-05-2.25903E-05-2.84692E-05-1.12539E-18-2.95720E-19
 -1      3281 1.24755E-04-5.61834E-05-2.96086E-05 1.32228E-05 9.87257E-19-3.19143E-18
 -1      3282 1.15966E-04-5.37021E-05-2.62808E-05 2.23557E-05 9.27580E-19-2.19434E-18
 -1      3283 1.17155E-04-5.61592E-05-2.58142E-05-2.48779E-05 1.46222E-18-1.05879E-18
 -1      3284 1.24461E-04-5.89711E-05-2.83692E-05-1.93723E-05 1.72670E-18-4.23794E-19
 -1      3285 9.37084E-05-2.04162E-05-3.13891E-05-5.71777E-06-5.01423E-19-1.78392E-18
 -1      3286 1.30445E-04-5.71585E-05-3.12454E-05-9.57656E-06 2.08338E-18-1.94844E-19
 -1      3287 1.33346E-04-5.28716E-05-3.49773E-05 2.55750E-07 1.88515E-18-1.32336E-18
 -1      3288 1.26379E-04-5.54060E-05-3.03068E-05-1.00315E-05 1.95343E-18-1.43202E-19
 -1      3289 9.54119E-05-2.73476E-05-2.91775E-05 2.82586E-07 7.33002E-19-3.84161E-19
 -1      3290 9.54764E-05-2.69415E-05-2.93560E-05 8.43683E-07 9.09891E-19-4.70373E-19
 -1      3291 9.56934E-05-2.73348E-05-2.93017E-05 2.32302E-07 6.91833E-19-3.99371E-19
 -1      3292 9.26683E-05-2.60064E-05-2.85034E-05-1.38864E-05 4.39886E-19 5.76709E-19
 -1      3293 9.02604E-05-2.43894E-05-2.82927E-05-1.33052E-05 4.98416E-19 2.84248E-19
 -1      3294 8.85275E-05-2.46369E-05-2.74059E-05-1.42014E-05 7.97419E-20-1.15219E-18
 -1      3295 9.67785E-05-2.89599E-05-2.90199E-05-1.31064E-05-2.46020E-19 1.39947E-18
 -1      3296 9.49657E-05-2.77354E-05-2.88421E-05-1.36063E-05 3.10598E-19 1.10318E-18
 -1      3297 9.43233E-05-2.86662E-05-2.81820E-05-1.49216E-05 3.75252E-19 5.83566E-19
 -1      3298 9.32384E-05-2.44731E-05-2.94499E-05 1.41180E-05 9.24425E-19 3.83758E-19
 -1      3299 8.98515E-05-4.32903E-05-1.95660E-05-3.53665E-05 2.76069E-18-6.34798E-19
 -1      3300 1.04479E-04-5.13789E-05-2.28858E-05-3.22144E-05 1.91197E-18-2.42220E-18
 -1      3301 5.35782E-05-1.93521E-05-1.43795E-05 2.11601E-05-8.00287E-19-1.04354E-18
 -1      3302 4.76936E-05-1.50233E-05-1.36229E-05 9.46669E-06-2.27754E-18 2.12394E-19
 -1      3303 1.29005E-04-2.48930E-05-4.48867E-05-1.25899E-05 3.67718E-19-4.58933E-19
 -1      3304 9.52230E-05-2.87609E-05-2.84822E-05-1.03316E-06 2.91714E-19 3.47464E-19
 -1      3305 9.52026E-05-2.87524E-05-2.84784E-05-1.07262E-06 4.20319E-19 1.12593E-19
 -1      3306 9.54751E-05-2.88475E-05-2.85568E-05-1.07792E-06 3.11052E-19 1.13120E-19
 -1      3307 9.54276E-05-2.88431E-05-2.85378E-05-1.01513E-06 9.96564E-20 4.45328E-19
 -1      3308 9.55027E-05-2.55774E-05-2.99571E-05-2.16682E-06-4.45321E-19-1.28667E-18
 -1      3309 9.55358E-05-2.62680E-05-2.96995E-05-1.33505E-06-3.33985E-19-1.27572E-18
 -1      3310 9.57176E-05-2.62068E-05-2.97914E-05-1.17851E-06-3.28133E-19-1.19682E-18
 -1      3311 5.87977E-05-2.27543E-05-1.50159E-05-2.50004E-05-1.35525E-19-2.44115E-18
 -1      3312 7.08880E-05-3.15327E-05-1.67920E-05-3.13391E-05-3.24519E-20-1.72382E-18
 -1      3313 8.21605E-05-3.42765E-05-2.00879E-05-2.72051E-05-1.89497E-19-1.21472E-18
 -1      3314 1.26649E-04-3.37198E-05-4.02688E-05-1.41718E-05-2.07174E-18-4.73227E-19
 -1      3315 1.30611E-04-4.31275E-05-3.75068E-05-1.05163E-05-1.45981E-18-1.54684E-18
 -1      3316 4.86343E-05-1.65719E-05-1.34799E-05 1.84295E-05 6.57470E-19-9.57147E-19
 -1      3317 4.22027E-05-1.26017E-05-1.22376E-05 6.56032E-06 1.12025E-18-2.31367E-18
 -1      3318 9.46250E-05-2.25340E-05-3.09044E-05-4.71905E-06-4.34149E-19-1.56444E-18
 -1      3319 9.50915E-05-2.43449E-05-3.03329E-05-2.97903E-06-4.01789E-19-1.42897E-18
 -1      3320 9.51760E-05-2.42179E-05-3.04026E-05-2.64530E-06-3.16411E-19-1.25649E-18
 -1      3321 9.38134E-05-2.09110E-05-3.12352E-05-4.41799E-06-2.18422E-19-1.51524E-18
 -1      3322 1.01573E-04-4.96619E-05-2.23845E-05 3.08863E-05 5.72965E-19 6.13120E-19
 -1      3323 8.86027E-05-4.22325E-05-1.94303E-05 3.36831E-05 9.63738E-19 8.21198E-19
 -1      3324 1.21286E-04-5.67091E-05-2.80738E-05 1.69593E-05 1.26896E-19-1.04121E-18
 -1      3325 1.12671E-04-5.40069E-05-2.47884E-05 2.49278E-05 2.91406E-19-7.95384E-20
 -1      3326 1.06650E-04-4.94701E-05-2.43010E-05 2.48082E-05 1.95903E-19-7.72031E-19
 -1      3327 1.19461E-04-1.65467E-05-4.46272E-05-1.09860E-05-1.38384E-18 6.52030E-19
 -1      3328 1.22843E-04-2.36341E-05-4.28231E-05-1.41083E-05-2.38704E-18-7.86894E-19
 -1      3329 4.18223E-05-1.24368E-05-1.21942E-05-3.40499E-06 4.51184E-19-3.12280E-18
 -1      3330 4.71442E-05-1.59610E-05-1.32105E-05-1.57246E-05 1.84415E-19-3.24371E-18
 -1      3331 4.93395E-05-1.32484E-05-1.49888E-05 1.54009E-06 6.03756E-19-2.42500E-18
 -1      3332 9.23826E-05-1.83474E-05-3.17444E-05 1.81440E-06 9.02024E-19-1.68835E-18
 -1      3333 9.22640E-05-1.81469E-05-3.17765E-05 1.05920E-06 6.33577E-19-1.75350E-18
 -1      3334 1.14566E-04-5.35843E-05-2.56790E-05-2.10414E-05-9.65273E-19 8.07130E-20
 -1      3335 1.21749E-04-5.61764E-05-2.85192E-05-1.40215E-05-2.31134E-19 1.62802E-19
 -1      3336 1.31395E-04-5.11332E-05-3.48958E-05-3.03233E-06-1.10794E-18-1.69817E-18
 -1      3337 1.29067E-04-5.50943E-05-3.14232E-05 5.21012E-06-6.38643E-19-1.25300E-18
 -1      3338 1.23625E-04-5.24316E-05-3.04169E-05-5.27574E-06 3.33652E-19-3.48025E-19
 -1      3339 9.22068E-05-1.80476E-05-3.17951E-05 4.09698E-07 5.37075E-19-1.84346E-18
 -1      3340 9.22022E-05-1.80501E-05-3.17950E-05-3.62983E-07 4.24896E-19-1.91661E-18
 -1      3341 9.31565E-05-1.96281E-05-3.14945E-05 6.29690E-07 5.43496E-19-1.66829E-18
 -1      3342 9.90884E-05-3.08697E-05-2.92033E-05-1.19182E-05-1.50136E-18 1.70474E-18
 -1      3343 9.78388E-05-2.98467E-05-2.91511E-05-1.25675E-05-9.64872E-19 2.15656E-18
 -1      3344 9.81469E-05-3.12338E-05-2.87052E-05-1.38054E-05-4.59253E-19 7.56706E-19
 -1      3345 1.00485E-04-3.27593E-05-2.90265E-05-1.22433E-05-1.92730E-18 1.25651E-18
 -1      3346 6.67397E-05-2.43474E-05-1.81933E-05 2.45932E-05 1.50898E-18 6.10923E-19
 -1      3347 5.75540E-05-2.02405E-05-1.55784E-05 2.27116E-05 1.42926E-18-3.58401E-20
 -1      3348 5.70674E-05-1.68294E-05-1.70133E-05 1.57821E-05 1.71817E-18-6.27016E-19
 -1      3349 4.86437E-05-1.40699E-05-1.43384E-05 3.00546E-06-1.82687E-18-4.96573E-20
 -1      3350 5.12238E-05-1.45295E-05-1.56146E-05-4.78895E-06-1.24912E-18-1.48517E-18
 -1      3351 5.59694E-05-1.55027E-05-1.70365E-05 7.84432E-06-1.91139E-18 3.68459E-19
 -1      3352 1.13049E-04-2.20473E-05-3.92253E-05-1.20394E-05-1.29914E-18-1.27665E-18
 -1      3353 1.14839E-04-1.88191E-05-4.14225E-05-1.04655E-05-1.77379E-18-1.73657E-18
 -1      3354 1.15377E-04-3.05554E-05-3.66102E-05-1.42162E-05-1.30483E-18-3.31931E-20
 -1      3355 1.13117E-04-2.52600E-05-3.76870E-05-1.28191E-05-9.24536E-19-7.61880E-19
 -1      3356 1.17192E-04-3.47025E-05-3.53721E-05 1.09069E-05 2.04487E-18-6.97889E-19
 -1      3357 1.18893E-04-3.91926E-05-3.42924E-05 9.77107E-06 1.71864E-18-3.53630E-19
 -1      3358 1.17302E-04-2.42196E-05-4.01066E-05-1.40694E-05-2.06353E-18-6.86547E-19
 -1      3359 1.23047E-04-2.84077E-05-4.08401E-05-1.51283E-05-2.10895E-18-6.16746E-20
 -1      3360 9.55891E-05-2.86676E-05-2.86841E-05-1.05117E-06 3.96610E-19-5.36314E-19
 -1      3361 9.52759E-05-2.85606E-05-2.85925E-05-1.08097E-06 2.01927E-19-2.69006E-19
 -1      3362 9.52862E-05-2.84591E-05-2.86346E-05-1.00667E-06 2.13360E-19-3.79551E-19
 -1      3363 1.18773E-04-4.97675E-05-2.93457E-05-9.37428E-06-4.72684E-19-6.97565E-19
 -1      3364 1.12307E-04-4.87252E-05-2.75353E-05-1.59912E-05-3.05144E-19-7.40254E-19
 -1      3365 1.31817E-04-3.45571E-05-4.21034E-05-1.56848E-05 1.17113E-18-5.52160E-19
 -1      3366 9.97174E-05-3.18400E-05-2.90624E-05 1.61535E-05-3.87041E-19 4.91038E-19
 -1      3367 9.77650E-05-3.22046E-05-2.82004E-05 1.80423E-05-6.75491E-19 2.11891E-20
 -1      3368 9.78278E-05-2.98390E-05-2.90329E-05 1.62770E-05 1.12669E-19 6.56475E-19
 -1      3369 9.39476E-05-2.59245E-05-2.90926E-05 1.52136E-05-7.81810E-20 1.06762E-18
 -1      3370 9.53096E-05-2.76395E-05-2.89708E-05 1.57899E-05 1.20204E-19 9.38783E-19
 -1      3371 9.01695E-05-2.34618E-05-2.86809E-05 1.48930E-05 9.43368E-19-1.08086E-18
 -1      3372 8.17816E-05-1.77113E-05-2.75153E-05 6.75645E-06 2.90697E-19-9.53182E-19
 -1      3373 8.33628E-05-1.86866E-05-2.76848E-05 9.59489E-06 4.24888E-19 9.13278E-19
 -1      3374 9.53190E-05-2.83330E-05-2.87100E-05-8.84987E-07 2.34960E-19-2.68158E-19
 -1      3375 9.53500E-05-2.81696E-05-2.87827E-05-7.09037E-07 4.31443E-19-2.03185E-19
 -1      3376 9.56487E-05-2.84229E-05-2.88153E-05-8.64094E-07 1.82870E-19-6.55852E-19
 -1      3377 9.31424E-05-1.96915E-05-3.14868E-05-3.39836E-06 4.34070E-20-1.92576E-18
 -1      3378 9.34681E-05-2.03172E-05-3.13768E-05-3.98908E-06-1.11312E-19-1.86316E-18
 -1      3379 9.44231E-05-2.21931E-05-3.09416E-05-3.19394E-06-1.01848E-19-1.67186E-18
 -1      3380 8.54343E-05-2.02131E-05-2.80218E-05 1.19394E-05 4.19391E-19 1.05943E-19
 -1      3381 8.77937E-05-2.16832E-05-2.82774E-05 1.35544E-05 9.60741E-19-1.70696E-18
 -1      3382 8.79408E-05-2.30898E-05-2.78031E-05 1.51399E-05 1.66765E-19-5.59153E-20
 -1      3383 8.29864E-05-1.99333E-05-2.70015E-05 1.17040E-05-1.95632E-19-5.02544E-20
 -1      3384 8.54981E-05-3.57537E-05-2.09861E-05 2.96051E-05 4.41463E-19 1.47296E-18
 -1      3385 8.06917E-05-1.69568E-05-2.73302E-05-4.95065E-07 6.16504E-19-3.43664E-18
 -1      3386 8.07744E-05-1.69672E-05-2.73586E-05 2.89147E-06 6.09581E-19-2.74276E-18
 -1      3387 7.93810E-05-1.75386E-05-2.64453E-05 5.27472E-06 6.53417E-19-1.33213E-18
 -1      3388 7.91809E-05-1.75583E-05-2.63499E-05-2.96818E-06 1.73923E-19-4.79837E-18
 -1      3389 1.16737E-04-1.38428E-05-4.46746E-05 4.60363E-06-1.42407E-19 1.49112E-18
 -1      3390 1.12593E-04-1.31544E-05-4.29205E-05 9.64436E-07 4.67192E-19-5.42803E-19
 -1      3391 1.05465E-04-4.72666E-05-2.47074E-05-2.26833E-05-6.18096E-19-5.29204E-19
 -1      3392 1.08779E-04-4.80745E-05-2.58432E-05 2.32013E-05-1.95188E-19-2.38767E-18
 -1      3393 1.27420E-04-4.57199E-05-3.50806E-05-7.99523E-06-1.23057E-18-2.10795E-18
 -1      3394 5.61757E-05-2.12281E-05-1.44637E-05-2.24034E-05 1.94781E-18-1.41380E-18
 -1      3395 1.12770E-04-1.42396E-05-4.25692E-05-5.25750E-06-1.17420E-19-1.55337E-18
 -1      3396 1.16855E-04-1.48748E-05-4.40863E-05-8.64433E-06-6.40886E-19 1.35856E-19
 -1      3397 8.42679E-05-3.71706E-05-1.98687E-05 3.04588E-05 7.18840E-19 5.57559E-19
 -1      3398 1.10051E-04-5.15185E-05-2.49716E-05-2.61174E-05 1.75876E-18-1.41374E-18
 -1      3399 1.19515E-04-1.92094E-05-4.33048E-05 8.88223E-06-2.15570E-19 7.15293E-19
 -1      3400 9.56945E-05-2.80077E-05-2.90135E-05-4.67959E-07 4.90551E-19-1.87640E-19
 -1      3401 1.29196E-04-5.50532E-05-3.17058E-05 4.46054E-06 3.10641E-19-2.97118E-18
 -1      3402 1.22310E-04-4.31514E-05-3.39454E-05 7.12508E-06 1.76514E-18-1.93676E-20
 -1      3403 1.32176E-04-4.16601E-05-3.91861E-05-1.28190E-05 1.10315E-18-1.33842E-18
 -1      3404 1.34866E-04-5.13960E-05-3.59104E-05-7.15564E-06 1.17710E-18-2.48842E-18
 -1      3405 1.30095E-04-4.72265E-05-3.56270E-05 5.51504E-06 1.77817E-18-8.89014E-19
 -1      3406 6.40742E-05-2.21074E-05-1.76115E-05 2.20323E-05-2.79362E-19 7.16590E-19
 -1      3407 1.32602E-04-5.40751E-05-3.37556E-05-6.33888E-07 7.01529E-19-2.48339E-18
 -1      3408 8.28967E-05-3.80694E-05-1.89831E-05-3.46664E-05 3.02105E-18 1.96988E-19
 -1      3409 9.15058E-05-4.00550E-05-2.18465E-05-3.00889E-05 2.85691E-18-1.14032E-19
 -1      3410 7.56667E-05-3.15059E-05-1.86361E-05-3.08149E-05 3.19609E-18-7.92399E-19
 -1      3411 9.34368E-05-2.02172E-05-3.14053E-05 4.24688E-06 1.24312E-18-1.18938E-18
 -1      3412 9.30799E-05-1.95574E-05-3.15192E-05 3.65939E-06 1.20895E-18-1.34689E-18
 -1      3413 9.43566E-05-2.19899E-05-3.09905E-05 3.65017E-06 1.18629E-18-9.86122E-19
 -1      3414 9.27936E-05-1.90571E-05-3.16204E-05 3.12584E-06 1.18631E-18-1.43352E-18
 -1      3415 9.25536E-05-1.86425E-05-3.16880E-05 2.42735E-06 1.05036E-18-1.59871E-18
 -1      3416 9.33738E-05-2.00197E-05-3.14176E-05 1.80754E-06 9.21118E-19-1.43571E-18
 -1      3417 9.37885E-05-2.07980E-05-3.12574E-05 2.86600E-06 1.04851E-18-1.33038E-18
 -1      3418 9.53834E-05-2.65032E-05-2.95303E-05 1.37575E-06 1.04317E-18-5.72527E-19
 -1      3419 9.54261E-05-2.58831E-05-2.97901E-05 2.24110E-06 1.10697E-18-5.75870E-19
 -1      3420 9.53419E-05-2.51639E-05-3.00722E-05 2.62011E-06 1.22270E-18-4.89923E-19
 -1      3421 9.55889E-05-2.64088E-05-2.96540E-05 1.24677E-06 9.01895E-19-3.89285E-19
 -1      3422 1.20421E-04-3.49737E-05-3.67248E-05-1.38398E-05-1.85173E-18 4.25952E-19
 -1      3423 9.28867E-05-1.92483E-05-3.15799E-05-2.88130E-06 9.05128E-20-1.96094E-18
 -1      3424 9.39371E-05-2.11305E-05-3.11856E-05-2.40873E-06 3.41133E-20-1.87548E-18
 -1      3425 9.26673E-05-1.88490E-05-3.16455E-05-2.18183E-06 2.11521E-19-1.87258E-18
 -1      3426 5.89064E-05-1.94398E-05-1.65048E-05-1.82184E-05-1.48601E-19-2.47037E-18
 -1      3427 1.23089E-04-5.37607E-05-2.96284E-05 9.12685E-06-5.05440E-20-1.73377E-18
 -1      3428 1.11557E-04-1.51253E-05-4.16177E-05-2.47097E-06-2.84762E-19-8.88723E-19
 -1      3429 9.61752E-05-2.78267E-05-2.92849E-05 2.39053E-07-3.91385E-19-1.26519E-18
 -1      3430 9.61707E-05-2.81424E-05-2.91594E-05 4.93273E-07-4.15506E-19-1.16306E-18
 -1      3431 9.61794E-05-2.84023E-05-2.90417E-05 6.57105E-07-4.15507E-19-1.04030E-18
 -1      3432 9.61494E-05-2.85965E-05-2.89535E-05 7.95283E-07-5.36085E-21-9.22979E-19
 -1      3433 9.63715E-05-2.82122E-05-2.92127E-05 4.72517E-07-2.14438E-19-8.72478E-19
 -1      3434 9.61153E-05-2.87458E-05-2.88688E-05 8.75091E-07-1.05741E-20-1.08791E-18
 -1      3435 9.60746E-05-2.88548E-05-2.88091E-05 9.34793E-07 3.89809E-20-1.20418E-18
 -1      3436 9.63481E-05-2.86757E-05-2.90046E-05 7.35185E-07-1.34291E-19-8.30618E-19
 -1      3437 9.60171E-05-2.89272E-05-2.87504E-05 9.59303E-07 6.26483E-20-1.44591E-18
 -1      3438 9.59732E-05-2.89767E-05-2.87123E-05 9.70141E-07-2.60265E-20-1.28843E-18
 -1      3439 9.62590E-05-2.89335E-05-2.88560E-05 8.56341E-07-1.19118E-19-1.48266E-18
 -1      3440 9.59045E-05-2.89959E-05-2.86738E-05 9.62121E-07-1.13938E-19-1.41613E-18
 -1      3441 9.58612E-05-2.90039E-05-2.86520E-05 9.46512E-07-2.80446E-19-1.34411E-18
 -1      3442 9.61353E-05-2.90467E-05-2.87543E-05 8.87240E-07-1.79240E-19-1.63735E-18
 -1      3443 9.57883E-05-2.89862E-05-2.86291E-05 9.23260E-07-6.52411E-19-1.05728E-18
 -1      3444 9.57473E-05-2.89646E-05-2.86196E-05 8.97919E-07-7.01348E-19-1.02841E-18
 -1      3445 9.59960E-05-2.90589E-05-2.86892E-05 8.67902E-07-2.91179E-19-1.43348E-18
 -1      3446 9.56734E-05-2.89206E-05-2.86086E-05 8.72490E-07-7.87431E-19-1.07348E-18
 -1      3447 9.56347E-05-2.88774E-05-2.86085E-05 8.49938E-07-5.43163E-19-1.30846E-18
 -1      3448 9.58513E-05-2.89995E-05-2.86523E-05 8.28821E-07-6.81634E-19-1.76447E-18
 -1      3449 9.55606E-05-2.88135E-05-2.86068E-05 8.32289E-07-3.80939E-19-1.40292E-18
 -1      3450 9.55237E-05-2.87534E-05-2.86138E-05 8.22097E-07-4.83160E-19-1.49594E-18
 -1      3451 9.57051E-05-2.88877E-05-2.86372E-05 7.93234E-07-4.40677E-19-2.00701E-18
 -1      3452 9.54484E-05-2.86732E-05-2.86193E-05 8.20038E-07-6.50493E-19-1.12264E-18
 -1      3453 9.54118E-05-2.85986E-05-2.86321E-05 8.29848E-07-7.81469E-19-9.51679E-19
 -1      3454 9.55574E-05-2.87348E-05-2.86390E-05 7.79077E-07-2.80635E-19-1.55140E-18
 -1      3455 9.53328E-05-2.85033E-05-2.86431E-05 8.49901E-07-9.00953E-19-1.00727E-18
 -1      3456 9.52949E-05-2.84150E-05-2.86605E-05 8.86213E-07-7.62689E-19-9.73715E-19
 -1      3457 9.54045E-05-2.85465E-05-2.86537E-05 8.00793E-07-9.01516E-19-1.28305E-18
 -1      3458 9.52089E-05-2.83045E-05-2.86757E-05 9.34221E-07-7.37801E-19-9.32858E-19
 -1      3459 9.51679E-05-2.82024E-05-2.86969E-05 1.00292E-06-6.49998E-19-9.08824E-19
 -1      3460 9.52408E-05-2.83244E-05-2.86784E-05 8.70795E-07-6.42920E-19-1.01173E-18
 -1      3461 9.50708E-05-2.80759E-05-2.87151E-05 1.08450E-06-4.34751E-19-6.37787E-19
 -1      3462 9.50249E-05-2.79599E-05-2.87394E-05 1.19116E-06-2.60429E-19-9.71162E-19
 -1      3463 9.50590E-05-2.80675E-05-2.87101E-05 1.00050E-06-5.59865E-19-8.52592E-19
 -1      3464 9.49126E-05-2.78165E-05-2.87591E-05 1.31199E-06 1.68628E-19-7.73043E-19
 -1      3465 9.48606E-05-2.76873E-05-2.87854E-05 1.46197E-06 5.81809E-19-7.51068E-19
 -1      3466 9.48509E-05-2.77745E-05-2.87460E-05 1.20110E-06-8.88973E-20-2.26754E-19
 -1      3467 9.47292E-05-2.75275E-05-2.88050E-05 1.62785E-06 6.38731E-19-9.12752E-19
 -1      3468 9.46707E-05-2.73876E-05-2.88321E-05 1.82612E-06 7.19560E-19-7.76205E-19
 -1      3469 9.46087E-05-2.74451E-05-2.87828E-05 1.48392E-06 5.60702E-19-1.17390E-19
 -1      3470 9.45179E-05-2.72146E-05-2.88493E-05 2.04293E-06 7.69033E-19-8.76056E-19
 -1      3471 9.44548E-05-2.70699E-05-2.88752E-05 2.29367E-06 9.81249E-19-7.54955E-19
 -1      3472 9.43260E-05-2.70832E-05-2.88162E-05 1.86054E-06 6.36894E-19-6.98472E-19
 -1      3473 9.42808E-05-2.68910E-05-2.88870E-05 2.56725E-06 9.37074E-19-8.32650E-19
 -1      3474 9.42185E-05-2.67531E-05-2.89091E-05 2.87328E-06 9.14311E-19-1.04329E-18
 -1      3475 9.40004E-05-2.66996E-05-2.88407E-05 2.34273E-06 7.59288E-19-1.12478E-18
 -1      3476 9.40282E-05-2.65827E-05-2.89113E-05 3.20915E-06 8.09621E-19-1.02955E-18
 -1      3477 9.39781E-05-2.64714E-05-2.89259E-05 3.57101E-06-2.44172E-20-9.49556E-19
 -1      3478 9.36364E-05-2.63167E-05-2.88486E-05 2.94229E-06 6.96101E-19-9.71376E-19
 -1      3479 9.37842E-05-2.63336E-05-2.89136E-05 3.97412E-06-9.33257E-19-1.07682E-18
 -1      3480 9.37675E-05-2.62805E-05-2.89162E-05 4.38895E-06-9.83443E-19-9.37389E-19
 -1      3481 9.32507E-05-2.59740E-05-2.88305E-05 3.67091E-06-3.33531E-19-7.86523E-19
 -1      3482 9.35951E-05-2.62139E-05-2.88833E-05 4.86328E-06-7.61554E-19-6.05292E-19
 -1      3483 9.36477E-05-2.62669E-05-2.88688E-05 5.32323E-06-3.63720E-19-3.38374E-19
 -1      3484 9.28795E-05-2.57356E-05-2.87747E-05 4.54016E-06-6.29530E-19-6.21894E-19
 -1      3485 9.35410E-05-2.63286E-05-2.88093E-05 5.87098E-06-1.26535E-19-6.00488E-19
 -1      3486 9.37207E-05-2.65567E-05-2.87732E-05 6.36064E-06-5.87036E-20-2.92272E-19
 -1      3487 9.25891E-05-2.56994E-05-2.86684E-05 5.56139E-06-4.68460E-19-1.54606E-19
 -1      3488 9.37521E-05-2.68279E-05-2.86821E-05 6.97983E-06 3.91947E-19-5.23062E-19
 -1      3489 9.41466E-05-2.73248E-05-2.86229E-05 7.47120E-06 1.04970E-18-3.06551E-19
 -1      3490 9.24914E-05-2.60081E-05-2.84993E-05 6.74429E-06 4.22783E-19-2.60297E-19
 -1      3491 9.44296E-05-2.79142E-05-2.84996E-05 8.14892E-06 1.23286E-18-4.43739E-19
 -1      3492 9.51640E-05-2.87980E-05-2.84231E-05 8.59104E-06 1.10136E-18 6.08433E-19
 -1      3493 9.27662E-05-2.68605E-05-2.82607E-05 8.09032E-06 9.24634E-19-7.25786E-19
 -1      3494 9.58691E-05-2.98402E-05-2.82780E-05 9.28722E-06 1.03746E-18 4.34697E-19
 -1      3495 9.71045E-05-3.12412E-05-2.82049E-05 9.58538E-06 1.26267E-18 1.10482E-18
 -1      3496 9.36876E-05-2.85181E-05-2.79600E-05 9.57371E-06 1.27844E-18-6.46643E-19
 -1      3497 9.84806E-05-3.28816E-05-2.80710E-05 1.01805E-05 3.08623E-19 4.45254E-19
 -1      3498 1.00381E-04-3.48825E-05-2.80503E-05 1.01550E-05 1.89175E-19 3.61660E-20
 -1      3499 9.56701E-05-3.13119E-05-2.76363E-05 1.10872E-05 6.32701E-19-1.14201E-18
 -1      3500 1.02717E-04-3.71994E-05-2.80036E-05 1.03873E-05 7.56539E-21-3.99733E-19
 -1      3501 1.05355E-04-3.97255E-05-2.81273E-05 9.73902E-06-7.25686E-20-7.54122E-19
 -1      3502 9.92594E-05-3.55240E-05-2.73976E-05 1.22867E-05-3.59910E-19-1.18091E-18
 -1      3503 1.08887E-04-4.25294E-05-2.83182E-05 9.05468E-06 2.51751E-19-6.99102E-19
 -1      3504 1.12027E-04-4.50956E-05-2.87352E-05 7.43878E-06 1.45273E-19-8.41392E-19
 -1      3505 1.05050E-04-4.12345E-05-2.74571E-05 1.25066E-05-4.80336E-20-9.91740E-19
 -1      3506 1.24862E-04-3.36695E-05-3.92967E-05 1.22402E-05 1.50841E-18-8.43592E-19
 -1      3507 1.21574E-04-3.31970E-05-3.79035E-05-1.42452E-05-1.94190E-18-9.79382E-21
 -1      3508 9.03207E-05-2.73308E-05-2.68869E-05-1.65249E-05 1.30420E-19-5.27850E-19
 -1      3509 8.65754E-05-2.50749E-05-2.64391E-05-1.55160E-05-1.03071E-19-1.16988E-18
 -1      3510 1.14878E-04-4.69767E-05-2.91638E-05-9.42736E-06 7.11547E-19 5.66598E-19
 -1      3511 1.11683E-04-4.44133E-05-2.87071E-05-1.13864E-05 1.64667E-18 8.06531E-19
 -1      3512 1.07987E-04-4.14298E-05-2.85345E-05-1.24646E-05 1.80335E-18 2.79848E-20
 -1      3513 1.05112E-04-3.85530E-05-2.84625E-05-1.32990E-05 1.43801E-18 3.25045E-19
 -1      3514 1.08424E-04-4.33949E-05-2.79551E-05-1.52171E-05 9.43884E-19-2.75451E-19
 -1      3515 9.56805E-05-2.55272E-05-3.00636E-05-1.51200E-06-4.34592E-19-1.15228E-18
 -1      3516 9.58397E-05-2.62635E-05-2.98280E-05-8.83300E-07-5.07402E-19-1.27826E-18
 -1      3517 9.54605E-05-2.87478E-05-2.85890E-05-8.57878E-07 2.49836E-19 2.28554E-19
 -1      3518 9.54782E-05-2.87955E-05-2.85792E-05-8.74017E-07 2.37989E-19-7.14377E-20
 -1      3519 9.55363E-05-2.88484E-05-2.85787E-05-8.96958E-07 2.43062E-19-5.26127E-20
 -1      3520 9.55563E-05-2.88804E-05-2.85758E-05-9.25101E-07 1.11870E-19 1.62564E-19
 -1      3521 9.56340E-05-2.88735E-05-2.86128E-05-8.55013E-07 3.06531E-19 3.73625E-19
 -1      3522 9.53078E-05-2.84607E-05-2.86463E-05-9.00885E-07-1.43173E-20 2.59154E-20
 -1      3523 9.53248E-05-2.85357E-05-2.86258E-05-8.69609E-07 1.32462E-19 1.03718E-19
 -1      3524 9.52217E-05-2.82729E-05-2.86896E-05-1.00991E-06-4.19844E-19 1.62227E-19
 -1      3525 9.52409E-05-2.83626E-05-2.86646E-05-9.44821E-07-1.16903E-19 2.01784E-19
 -1      3526 9.52747E-05-2.83823E-05-2.86682E-05-9.03836E-07-2.06424E-19-1.98748E-19
 -1      3527 9.51202E-05-2.80501E-05-2.87413E-05-1.19419E-06-6.15161E-19-2.40805E-19
 -1      3528 9.51438E-05-2.81566E-05-2.87119E-05-1.08872E-06-6.58006E-19-3.83516E-19
 -1      3529 9.51310E-05-2.81471E-05-2.87069E-05-1.02782E-06-2.16104E-19-1.55572E-19
 -1      3530 9.49946E-05-2.77861E-05-2.88002E-05-1.46659E-06-7.60569E-19 2.07930E-19
 -1      3531 9.50255E-05-2.79121E-05-2.87667E-05-1.31398E-06-5.91912E-19-1.08718E-19
 -1      3532 9.49599E-05-2.78684E-05-2.87524E-05-1.22595E-06-6.79422E-19-2.65021E-19
 -1      3533 9.48338E-05-2.74740E-05-2.88647E-05-1.84046E-06-5.01106E-19 7.38520E-19
 -1      3534 9.48758E-05-2.76224E-05-2.88276E-05-1.63369E-06-5.15078E-19 5.15793E-19
 -1      3535 9.47484E-05-2.75385E-05-2.88025E-05-1.51013E-06-8.43455E-19 3.04939E-19
 -1      3536 9.46250E-05-2.71074E-05-2.89319E-05-2.32932E-06-2.64760E-19 9.85779E-19
 -1      3537 9.46825E-05-2.72804E-05-2.88924E-05-2.06135E-06-2.81240E-19 9.54873E-19
 -1      3538 9.44811E-05-2.71492E-05-2.88538E-05-1.89239E-06-4.49371E-19-2.96111E-20
 -1      3539 9.43531E-05-2.66827E-05-2.89971E-05-2.94635E-06 2.71460E-19 8.96891E-19
 -1      3540 9.44311E-05-2.68808E-05-2.89572E-05-2.61052E-06 1.29566E-19 9.28595E-19
 -1      3541 9.41397E-05-2.66932E-05-2.89017E-05-2.38461E-06-1.20650E-19-3.93537E-19
 -1      3542 9.40027E-05-2.62025E-05-2.90523E-05-3.70366E-06 5.12094E-19 6.34288E-19
 -1      3543 9.41057E-05-2.64223E-05-2.90158E-05-3.29424E-06 5.17407E-19 7.70269E-19
 -1      3544 9.37034E-05-2.61670E-05-2.89387E-05-2.99819E-06 3.64496E-19-7.86814E-20
 -1      3545 9.35603E-05-2.56815E-05-2.90854E-05-4.61172E-06 7.34952E-19 6.35476E-19
 -1      3546 9.36908E-05-2.59125E-05-2.90582E-05-4.12455E-06 5.37255E-19 6.64373E-19
 -1      3547 9.31505E-05-2.55744E-05-2.89539E-05-3.74399E-06 5.97761E-19-1.18310E-19
 -1      3548 9.30217E-05-2.51564E-05-2.90787E-05-5.67975E-06 1.07804E-19 5.56441E-19
 -1      3549 9.31754E-05-2.53752E-05-2.90695E-05-5.11253E-06 5.65874E-19 7.11514E-19
 -1      3550 9.24611E-05-2.49330E-05-2.89312E-05-4.63329E-06 5.86049E-19 2.25338E-19
 -1      3551 9.24043E-05-2.47010E-05-2.90072E-05-6.91812E-06-5.00381E-19 4.99647E-19
 -1      3552 9.25620E-05-2.48628E-05-2.90282E-05-6.27009E-06-1.26261E-19 4.32671E-19
 -1      3553 9.16233E-05-2.42847E-05-2.88479E-05-5.68114E-06 8.13132E-20 3.82862E-19
 -1      3554 9.17697E-05-2.44502E-05-2.88387E-05-8.34404E-06-2.51565E-19 4.78211E-19
 -1      3555 9.18830E-05-2.44749E-05-2.89053E-05-7.61452E-06-4.48915E-19 7.20880E-19
 -1      3556 9.06451E-05-2.37105E-05-2.86732E-05-6.91400E-06-4.33181E-19-1.09520E-19
 -1      3557 9.12634E-05-2.46337E-05-2.85348E-05-9.99065E-06-7.97340E-19 2.45596E-19
 -1      3558 9.12300E-05-2.43870E-05-2.86642E-05-9.17710E-06-2.03450E-19 2.52637E-19
 -1      3559 8.95758E-05-2.33551E-05-2.83674E-05-8.38402E-06-1.48609E-19-1.50619E-19
 -1      3560 9.11791E-05-2.56200E-05-2.80590E-05-1.19144E-05 1.63000E-19-6.11278E-19
 -1      3561 9.08023E-05-2.48887E-05-2.82642E-05-1.10144E-05-6.04141E-19-2.18396E-19
 -1      3562 8.85424E-05-2.34600E-05-2.78829E-05-1.01901E-05-1.93937E-19-7.54199E-19
 -1      3563 9.20572E-05-2.79828E-05-2.73950E-05-1.41904E-05 4.79584E-19-6.60907E-19
 -1      3564 9.09893E-05-2.64390E-05-2.76704E-05-1.32272E-05 4.33533E-19-3.01772E-19
 -1      3565 8.77980E-05-2.43985E-05-2.71689E-05-1.25138E-05 1.36982E-19-1.80640E-18
 -1      3566 9.48854E-05-3.25584E-05-2.66047E-05-1.67123E-05-7.18383E-19-7.20895E-19
 -1      3567 9.25917E-05-2.97982E-05-2.68874E-05-1.58637E-05-3.43766E-19-5.88436E-19
 -1      3568 8.79343E-05-2.68331E-05-2.61814E-05-1.57167E-05-2.08462E-19-1.13194E-18
 -1      3569 1.00893E-04-3.99568E-05-2.59622E-05-1.90379E-05 1.37160E-19-4.95968E-19
 -1      3570 9.66278E-05-3.56302E-05-2.60623E-05-1.85737E-05-9.72996E-20-2.34658E-19
 -1      3571 9.00026E-05-3.18574E-05-2.49849E-05-1.99651E-05-4.92404E-19-1.68559E-18
 -1      3572 9.72305E-05-3.41869E-05-2.68870E-05 2.05738E-05-8.75462E-19-1.38967E-18
 -1      3573 1.00716E-04-3.82332E-05-2.66693E-05 2.09492E-05-8.93206E-19-2.24807E-18
 -1      3574 1.03169E-04-4.27397E-05-2.56673E-05 2.36239E-05-6.14410E-19-1.83932E-18
 -1      3575 8.23708E-05-2.18682E-05-2.58345E-05-1.33377E-05-3.01126E-19-3.64705E-18
 -1      3576 7.91868E-05-1.98874E-05-2.55011E-05-1.02907E-05-1.71415E-19-4.92727E-18
 -1      3577 8.35832E-05-2.47063E-05-2.52314E-05-1.64273E-05 5.04481E-19-2.62313E-18
 -1      3578 9.59569E-05-2.80840E-05-2.90930E-05-4.98087E-07 4.54040E-19-3.46740E-19
 -1      3579 9.59744E-05-2.77822E-05-2.92162E-05-2.18684E-07 5.79042E-19-2.64898E-19
 -1      3580 1.01739E-04-4.32339E-05-2.49064E-05-2.18599E-05-2.95509E-19-4.76833E-19
 -1      3581 5.65175E-05-1.76532E-05-1.63180E-05-1.63022E-05 8.60877E-19-2.18752E-18
 -1      3582 6.46849E-05-2.41032E-05-1.72993E-05-2.58239E-05 2.09582E-18-2.30171E-18
 -1      3583 9.03612E-05-3.91366E-05-2.21381E-05 2.74441E-05 3.37119E-19-1.14349E-19
 -1      3584 7.92109E-05-3.13980E-05-2.00781E-05 2.75093E-05 8.34261E-19 3.87094E-19
 -1      3585 5.29127E-05-1.34983E-05-1.67364E-05 5.85063E-06 1.17250E-18-1.92112E-18
 -1      3586 5.23710E-05-1.33178E-05-1.66786E-05-3.55465E-06 3.22925E-19-1.39130E-18
 -1      3587 1.21802E-04-5.35886E-05-2.89878E-05-1.24377E-05 1.57936E-18-3.40309E-19
 -1      3588 1.25154E-04-5.26573E-05-3.13036E-05-4.80385E-06 1.72316E-18-8.34073E-19
 -1      3589 9.59080E-05-2.73795E-05-2.93771E-05 1.03594E-07 5.00157E-19-3.89323E-19
 -1      3590 9.58916E-05-2.69102E-05-2.95518E-05 5.61661E-07 5.48062E-19-5.10987E-19
 -1      3591 9.61200E-05-2.74116E-05-2.94486E-05 5.00566E-08 4.98798E-19-5.81064E-19
 -1      3592 9.23374E-05-1.82739E-05-3.17516E-05-9.27936E-07 3.49720E-19-2.00842E-18
 -1      3593 9.24434E-05-1.84703E-05-3.17207E-05-1.67844E-06 2.70902E-19-1.90675E-18
 -1      3594 9.35445E-05-2.03464E-05-3.13526E-05-1.49198E-06 1.82446E-19-1.85118E-18
 -1      3595 9.32323E-05-1.97610E-05-3.14694E-05-5.07541E-07 3.54177E-19-1.85906E-18
 -1      3596 9.57829E-05-2.88989E-05-2.86641E-05-1.03700E-06 5.23639E-19-1.76552E-20
 -1      3597 9.58135E-05-2.88455E-05-2.86978E-05-1.02587E-06 6.02061E-19-1.29985E-19
 -1      3598 9.16768E-05-3.73398E-05-2.32905E-05 2.72299E-05-1.14989E-18-3.58374E-19
 -1      3599 8.06674E-05-2.98937E-05-2.14094E-05 2.65977E-05-6.10817E-19 5.52583E-19
 -1      3600 9.24700E-05-3.85292E-05-2.31966E-05-2.51828E-05-2.18257E-19-6.66324E-19
 -1      3601 9.60416E-05-2.69150E-05-2.96177E-05-4.55225E-07-5.12760E-19-1.33492E-18
 -1      3602 9.60935E-05-2.74070E-05-2.94442E-05-3.94219E-08-4.57961E-19-1.38259E-18
 -1      3603 9.62822E-05-2.74611E-05-2.94956E-05 8.98234E-09-3.61180E-19-1.26098E-18
 -1      3604 5.74979E-05-1.55885E-05-1.76160E-05-1.17911E-05-5.12885E-20-1.92372E-18
 -1      3605 6.66029E-05-2.22230E-05-1.91229E-05-2.09335E-05-4.46810E-19-2.49356E-18
 -1      3606 9.53856E-05-2.86183E-05-2.86123E-05-8.54497E-07 2.21756E-19 2.08253E-19
 -1      3607 9.54023E-05-2.86798E-05-2.85968E-05-8.50448E-07 3.60296E-19 4.27414E-19
 -1      3608 9.55192E-05-2.87438E-05-2.86188E-05-8.30264E-07 2.49658E-19 3.92347E-19
 -1      3609 9.54014E-05-2.85801E-05-2.86382E-05-8.42076E-07 4.00584E-19 2.90699E-19
 -1      3610 8.18378E-05-3.11633E-05-2.14848E-05-2.43740E-05-3.64198E-19-1.43440E-18
 -1      3611 1.04108E-04-4.64784E-05-2.44974E-05-2.62282E-05 2.07945E-18-8.39178E-19
 -1      3612 1.14334E-04-5.21272E-05-2.69041E-05-2.07241E-05 9.66200E-19-4.74497E-19
 -1      3613 1.21849E-04-4.92637E-05-3.11785E-05-2.10329E-06 2.05742E-18-4.49411E-19
 -1      3614 1.19372E-04-4.87946E-05-3.00953E-05-5.57305E-06 1.09871E-18 8.20517E-19
 -1      3615 1.09409E-04-4.93899E-05-2.60071E-05 1.99748E-05-4.48120E-19-2.25676E-18
 -1      3616 1.01358E-04-4.46095E-05-2.40124E-05 2.40919E-05-1.07897E-19-1.30358E-18
 -1      3617 9.70512E-05-3.17021E-05-2.79497E-05-1.58963E-05 7.56256E-19 3.18077E-19
 -1      3618 9.40055E-05-2.98885E-05-2.75225E-05-1.64215E-05 5.41504E-19 6.26789E-19
 -1      3619 9.24308E-05-3.05775E-05-2.65854E-05-1.80972E-05 6.52559E-19 5.13700E-19
 -1      3620 1.23142E-04-5.15264E-05-3.09172E-05 2.85605E-06-5.02400E-19-2.34430E-18
 -1      3621 1.18031E-04-5.18895E-05-2.81050E-05 1.23671E-05-4.24714E-19-1.91778E-18
 -1      3622 7.10351E-05-2.44594E-05-2.00201E-05 2.35336E-05-8.48992E-19 7.79350E-19
 -1      3623 6.36256E-05-1.90296E-05-1.88928E-05 1.66528E-05-1.98073E-18 1.38871E-18
 -1      3624 6.19900E-05-1.69950E-05-1.90592E-05 1.23832E-05-1.88338E-18 1.74367E-18
 -1      3625 6.11732E-05-1.56576E-05-1.94987E-05 6.02243E-06-1.15964E-18-3.23831E-19
 -1      3626 6.89728E-05-1.89397E-05-2.12891E-05 1.39284E-05-2.49876E-18 1.55843E-18
 -1      3627 7.84330E-05-2.65611E-05-2.20564E-05-1.99875E-05-4.01547E-19-1.98347E-18
 -1      3628 1.13594E-04-4.75480E-05-2.84567E-05 9.46907E-06-1.72194E-19-1.40582E-18
 -1      3629 1.16960E-04-4.75121E-05-2.96248E-05 4.24022E-06-9.27766E-20-1.01122E-18
 -1      3630 1.19704E-04-4.85289E-05-3.05873E-05 1.23821E-06-4.32678E-19-1.85604E-18
 -1      3631 1.24184E-04-4.91468E-05-3.21420E-05-3.01306E-06-3.91766E-19-1.84381E-18
 -1      3632 1.25384E-04-4.61218E-05-3.39492E-05-6.97606E-06-4.96573E-19-1.57948E-18
 -1      3633 5.77229E-05-1.52683E-05-1.79064E-05 1.04850E-05 1.67568E-18-1.19786E-18
 -1      3634 5.96245E-05-1.46489E-05-1.92830E-05 5.73751E-06 1.09981E-18-8.71703E-19
 -1      3635 6.32944E-05-1.80610E-05-1.94908E-05 1.47237E-05 2.18105E-18 2.57154E-19
 -1      3636 1.16762E-04-4.94781E-05-2.90148E-05-1.11137E-05 1.22722E-18-2.79819E-20
 -1      3637 1.12589E-04-4.81334E-05-2.75395E-05 1.31638E-05-5.71304E-19-2.23946E-18
 -1      3638 9.60001E-05-2.62982E-05-2.98708E-05-7.18839E-07-5.76161E-19-1.37245E-18
 -1      3639 1.03537E-04-3.65970E-05-2.86697E-05-1.27832E-05 1.25539E-18 2.87549E-19
 -1      3640 1.01643E-04-3.43951E-05-2.87863E-05-1.28115E-05-5.26539E-19 6.00969E-19
 -1      3641 1.00552E-04-3.37784E-05-2.86037E-05-1.37728E-05-2.58935E-19-1.42599E-19
 -1      3642 1.03205E-04-3.76647E-05-2.81127E-05-1.50435E-05 1.13405E-18-8.87333E-19
 -1      3643 1.23722E-04-4.03005E-05-3.61135E-05-1.25674E-05-1.60988E-18-7.02984E-19
 -1      3644 9.57493E-05-2.89644E-05-2.86236E-05-9.00498E-07 3.67261E-19 2.69188E-19
 -1      3645 9.56153E-05-2.89150E-05-2.85843E-05-9.55015E-07 1.76432E-19 2.11182E-19
 -1      3646 9.56386E-05-2.89270E-05-2.85903E-05-9.84965E-07 2.67785E-19 3.71534E-19
 -1      3647 9.48471E-05-3.13801E-05-2.71590E-05 1.92970E-05-1.18761E-18-8.10564E-19
 -1      3648 9.09709E-05-3.06608E-05-2.58890E-05 2.12245E-05-1.77913E-18-1.05244E-18
 -1      3649 9.25602E-05-2.87588E-05-2.73083E-05 1.86842E-05-1.36332E-18-2.21171E-19
 -1      3650 9.38850E-05-2.10585E-05-3.12222E-05 8.09589E-07 6.20163E-19-1.54939E-18
 -1      3651 9.38323E-05-2.09628E-05-3.12410E-05 2.47106E-07 5.69521E-19-1.71488E-18
 -1      3652 9.52845E-05-2.45689E-05-3.03030E-05 2.87877E-06 1.20522E-18-5.64668E-19
 -1      3653 9.49891E-05-2.37258E-05-3.05474E-05 3.09781E-06 1.21115E-18-7.39515E-19
 -1      3654 9.54365E-05-2.53007E-05-3.00639E-05 2.08342E-06 1.10001E-18-6.04766E-19
 -1      3655 9.49611E-05-3.82034E-05-2.43524E-05 2.59918E-05-1.11280E-18-1.14412E-18
 -1      3656 9.59593E-05-2.83331E-05-2.89761E-05-6.86716E-07 3.33282E-19-4.68964E-19
 -1      3657 9.61909E-05-2.81480E-05-2.91640E-05-4.85957E-07 5.45848E-19-6.25313E-19
 -1      3658 9.59290E-05-2.85202E-05-2.88917E-05-8.37887E-07 2.41682E-19-6.51221E-19
 -1      3659 9.23769E-05-3.78522E-05-2.32910E-05-2.66987E-05 2.30569E-18-1.10247E-20
 -1      3660 9.90792E-05-4.32151E-05-2.38738E-05-2.75039E-05 2.13640E-18-3.04303E-20
 -1      3661 1.04042E-04-4.39180E-05-2.57219E-05-2.26454E-05 7.27747E-19 8.94950E-19
 -1      3662 7.98630E-05-1.97399E-05-2.58266E-05 1.21033E-05 8.95092E-21 1.76375E-18
 -1      3663 8.26896E-05-2.11553E-05-2.62289E-05 1.43719E-05-7.48870E-19 8.43433E-19
 -1      3664 7.87818E-05-2.64787E-05-2.23301E-05 2.25035E-05-1.60092E-18 6.73126E-19
 -1      3665 7.66781E-05-1.78363E-05-2.51765E-05-5.84238E-06-4.94020E-19-4.91431E-18
 -1      3666 7.53902E-05-1.70019E-05-2.50776E-05-1.71705E-06-1.17096E-20-4.57346E-18
 -1      3667 7.58339E-05-1.91299E-05-2.41930E-05-9.40394E-06-3.30306E-19-5.06740E-18
 -1      3668 5.95314E-05-1.67251E-05-1.80360E-05-9.43803E-06-2.20546E-19-3.32969E-18
 -1      3669 7.55610E-05-1.69149E-05-2.51535E-05 3.87426E-06-1.13572E-19-2.30455E-18
 -1      3670 7.70278E-05-1.77840E-05-2.53547E-05 7.89042E-06-2.10859E-20-7.39102E-20
 -1      3671 7.64039E-05-1.91071E-05-2.45023E-05 1.11231E-05-1.03638E-18 9.65055E-19
 -1      3672 7.24642E-05-1.67309E-05-2.38606E-05 1.03125E-06-1.06815E-18-3.44377E-18
 -1      3673 9.58637E-05-2.87727E-05-2.87539E-05-9.95915E-07 3.94494E-19-3.27206E-19
 -1      3674 9.58963E-05-2.86646E-05-2.88091E-05-9.30930E-07 1.37823E-19-4.64315E-19
 -1      3675 9.60849E-05-2.88598E-05-2.88133E-05-9.31083E-07 2.15812E-19-3.73178E-19
 -1      3676 7.48933E-05-2.69364E-05-2.03997E-05 2.31399E-05 1.15350E-18-7.63124E-20
 -1      3677 6.06250E-05-1.54511E-05-1.90780E-05-7.31047E-06 2.09402E-19-1.57900E-18
 -1      3678 1.25878E-04-4.99032E-05-3.25735E-05 1.20044E-06 1.95739E-18-5.28416E-19
 -1      3679 9.58687E-05-2.62631E-05-2.98314E-05 8.93869E-07 6.35326E-19-6.44464E-19
 -1      3680 9.57106E-05-2.62704E-05-2.97685E-05 1.07352E-06 7.10713E-19-5.07183E-19
 -1      3681 1.26738E-04-4.64303E-05-3.44775E-05 5.11826E-06 1.88534E-18-4.45566E-19
 -1      3682 1.16016E-04-5.01584E-05-2.81688E-05-1.46627E-05 1.49589E-18-3.88179E-20
 -1      3683 7.53192E-05-2.79122E-05-2.00047E-05-2.53167E-05 1.44520E-18-1.83388E-18
 -1      3684 9.47455E-05-2.30727E-05-3.07193E-05 2.87736E-06 1.05924E-18-9.31091E-19
 -1      3685 9.57252E-05-2.89224E-05-2.86284E-05-1.02936E-06 3.62616E-19 7.50139E-20
 -1      3686 9.59802E-05-2.89807E-05-2.87163E-05-9.68510E-07 3.72963E-19-6.03720E-20
 -1      3687 9.56982E-05-2.89375E-05-2.86106E-05-1.01095E-06 8.23480E-20 2.86170E-19
 -1      3688 9.59787E-05-3.96981E-05-2.39538E-05 2.26277E-05 5.11661E-20-1.45531E-18
 -1      3689 9.92351E-05-3.28881E-05-2.84291E-05-1.44450E-05 5.16231E-19-9.36013E-19
 -1      3690 9.49262E-05-2.33867E-05-3.06697E-05-2.71801E-06-1.55599E-19-1.56221E-18
 -1      3691 9.53721E-05-2.46802E-05-3.02992E-05-1.92909E-06-2.41020E-19-1.36526E-18
 -1      3692 9.54829E-05-2.47190E-05-3.03213E-05-1.59762E-06-3.01378E-19-1.47994E-18
 -1      3693 9.46707E-05-2.27428E-05-3.08199E-05-2.45511E-06-5.75495E-20-1.90859E-18
 -1      3694 9.94195E-05-3.45306E-05-2.78295E-05-1.60505E-05 9.46703E-19-1.12298E-20
 -1      3695 9.40958E-05-2.15099E-05-3.11231E-05 1.75910E-06 8.74238E-19-1.24404E-18
 -1      3696 9.39569E-05-2.12234E-05-3.11806E-05 1.25254E-06 6.82771E-19-1.28366E-18
 -1      3697 9.46261E-05-2.23860E-05-3.09389E-05 8.41320E-07 6.55323E-19-1.33349E-18
 -1      3698 9.56100E-05-2.56945E-05-2.99541E-05 1.66200E-06 9.14272E-19-5.39288E-19
 -1      3699 9.43246E-05-2.19358E-05-3.10243E-05-1.73309E-06 9.14035E-20-1.86107E-18
 -1      3700 9.45036E-05-2.23590E-05-3.09319E-05-2.14872E-06 9.54370E-21-1.84512E-18
 -1      3701 9.50217E-05-2.34401E-05-3.06708E-05-1.74253E-06-9.72719E-20-1.80175E-18
 -1      3702 1.07352E-04-4.45900E-05-2.66875E-05 1.56410E-05 2.06469E-19-1.89310E-18
 -1      3703 9.65474E-05-2.85896E-05-2.91211E-05 5.79560E-07-2.43910E-19-9.68061E-19
 -1      3704 9.65148E-05-2.87801E-05-2.90309E-05 6.78627E-07-2.34512E-19-1.14654E-18
 -1      3705 9.64707E-05-2.89220E-05-2.89468E-05 7.25058E-07-2.27084E-19-9.82236E-19
 -1      3706 9.64141E-05-2.90207E-05-2.88833E-05 7.67072E-07-1.57582E-19-1.15813E-18
 -1      3707 9.66426E-05-2.88534E-05-2.90538E-05 5.92403E-07-2.40518E-19-1.14634E-18
 -1      3708 9.63402E-05-2.90812E-05-2.88235E-05 7.77493E-07-2.15933E-19-1.12202E-18
 -1      3709 9.62719E-05-2.91152E-05-2.87810E-05 7.84574E-07-2.54587E-19-1.18047E-18
 -1      3710 9.65253E-05-2.90806E-05-2.89065E-05 6.63437E-07-2.34926E-19-1.26449E-18
 -1      3711 9.61822E-05-2.91185E-05-2.87406E-05 7.74878E-07-3.50888E-19-1.29969E-18
 -1      3712 9.61094E-05-2.91068E-05-2.87143E-05 7.64199E-07-3.93931E-19-1.46232E-18
 -1      3713 9.63630E-05-2.91588E-05-2.88036E-05 6.77269E-07-4.25976E-19-1.02756E-18
 -1      3714 9.60120E-05-2.90696E-05-2.86893E-05 7.46710E-07-5.40100E-19-1.77365E-18
 -1      3715 9.59380E-05-2.90248E-05-2.86756E-05 7.31350E-07-5.33679E-19-1.56623E-18
 -1      3716 9.61776E-05-2.91312E-05-2.87358E-05 6.61518E-07-5.94459E-19-1.45106E-18
 -1      3717 9.58366E-05-2.89580E-05-2.86626E-05 7.15658E-07-3.26716E-19-1.62144E-18
 -1      3718 9.57622E-05-2.88882E-05-2.86587E-05 7.05723E-07-2.42955E-19-1.32192E-18
 -1      3719 9.59807E-05-2.90272E-05-2.86957E-05 6.37674E-07-3.55051E-19-1.17753E-18
 -1      3720 9.56574E-05-2.87981E-05-2.86548E-05 6.99234E-07-2.00329E-19-1.25545E-18
 -1      3721 9.55816E-05-2.87079E-05-2.86585E-05 7.02559E-07-1.84308E-19-1.24855E-18
 -1      3722 9.57764E-05-2.88652E-05-2.86771E-05 6.22640E-07-2.15602E-20-8.18640E-19
 -1      3723 9.54712E-05-2.85974E-05-2.86616E-05 7.11338E-07-4.14466E-19-1.06626E-18
 -1      3724 9.53916E-05-2.84886E-05-2.86710E-05 7.34510E-07-9.44821E-19-8.36460E-19
 -1      3725 9.55632E-05-2.86557E-05-2.86750E-05 6.29562E-07-1.92716E-19-1.14987E-18
 -1      3726 9.52718E-05-2.83584E-05-2.86792E-05 7.63904E-07-8.31288E-19-4.29618E-19
 -1      3727 9.51851E-05-2.82310E-05-2.86928E-05 8.12678E-07-5.93148E-19-5.68396E-19
 -1      3728 9.53352E-05-2.84027E-05-2.86852E-05 6.69783E-07-4.70409E-19-5.14012E-19
 -1      3729 9.50506E-05-2.80802E-05-2.87043E-05 8.67726E-07-5.84057E-19-5.81335E-19
 -1      3730 9.49527E-05-2.79335E-05-2.87206E-05 9.47589E-07-4.50436E-19-5.01153E-19
 -1      3731 9.50833E-05-2.81062E-05-2.87036E-05 7.53378E-07-5.60268E-19-9.41003E-20
 -1      3732 9.47973E-05-2.77605E-05-2.87335E-05 1.03354E-06 7.81301E-20-3.83724E-19
 -1      3733 9.46841E-05-2.75938E-05-2.87510E-05 1.14993E-06 5.17792E-19 1.22475E-19
 -1      3734 9.47961E-05-2.77637E-05-2.87266E-05 8.90371E-07 1.32043E-19-3.96600E-19
 -1      3735 9.45014E-05-2.73975E-05-2.87630E-05 1.27241E-06 5.95745E-19-1.97753E-21
 -1      3736 9.43690E-05-2.72112E-05-2.87797E-05 1.43087E-06 2.77863E-19-2.62954E-19
 -1      3737 9.44610E-05-2.73725E-05-2.87498E-05 1.09130E-06 4.14140E-19-8.67628E-20
 -1      3738 9.41527E-05-2.69923E-05-2.87882E-05 1.59617E-06 1.23170E-19-8.47196E-20
 -1      3739 9.39988E-05-2.67895E-05-2.88015E-05 1.80239E-06 6.56030E-19-3.46529E-19
 -1      3740 9.40651E-05-2.69320E-05-2.87681E-05 1.36766E-06 4.43763E-19-5.64408E-20
 -1      3741 9.37439E-05-2.65518E-05-2.88028E-05 2.01774E-06 6.84585E-19-1.21009E-19
 -1      3742 9.35685E-05-2.63400E-05-2.88093E-05 2.27758E-06 5.52462E-19-5.11438E-19
 -1      3743 9.35972E-05-2.64463E-05-2.87749E-05 1.73265E-06 4.40107E-19 2.76194E-19
 -1      3744 9.32730E-05-2.60927E-05-2.87988E-05 2.55152E-06 6.70728E-19-7.05652E-19
 -1      3745 9.30811E-05-2.58862E-05-2.87941E-05 2.87103E-06 6.56984E-19-6.14508E-19
 -1      3746 9.30497E-05-2.59280E-05-2.87616E-05 2.20191E-06 4.37057E-19-2.18053E-19
 -1      3747 9.27474E-05-2.56465E-05-2.87658E-05 3.21405E-06 1.33152E-19-9.96433E-19
 -1      3748 9.25516E-05-2.54699E-05-2.87444E-05 3.59964E-06-2.78428E-19-1.01322E-18
 -1      3749 9.24227E-05-2.54028E-05-2.87173E-05 2.79472E-06 1.37391E-19-1.00583E-18
 -1      3750 9.21904E-05-2.52662E-05-2.86910E-05 4.02518E-06-6.37263E-19-1.06595E-18
 -1      3751 9.20156E-05-2.51578E-05-2.86463E-05 4.48399E-06-5.61627E-19-6.38183E-19
 -1      3752 9.17279E-05-2.49153E-05-2.86283E-05 3.53612E-06-3.66150E-19-8.97662E-19
 -1      3753 9.16494E-05-2.50342E-05-2.85593E-05 5.01006E-06-5.17493E-20-6.07839E-19
 -1      3754 9.15394E-05-2.50518E-05-2.84843E-05 5.55037E-06 4.33150E-19-9.19224E-20
 -1      3755 9.09965E-05-2.45359E-05-2.84781E-05 4.46012E-06-1.49328E-19-9.16331E-19
 -1      3756 9.12099E-05-2.50728E-05-2.83546E-05 6.20151E-06 3.86381E-19 6.87522E-20
 -1      3757 9.12373E-05-2.52996E-05-2.82433E-05 6.83224E-06 5.33369E-19 3.02330E-19
 -1      3758 9.02893E-05-2.43708E-05-2.82477E-05 5.61457E-06 5.99725E-19 3.58118E-19
 -1      3759 9.10161E-05-2.55575E-05-2.80624E-05 7.64050E-06 2.33790E-19-5.75115E-19
 -1      3760 9.12947E-05-2.61095E-05-2.79128E-05 8.36747E-06 4.99481E-19-6.99078E-19
 -1      3761 8.97133E-05-2.45746E-05-2.79180E-05 7.06648E-06-7.71418E-20-2.62579E-19
 -1      3762 9.13013E-05-2.67316E-05-2.76765E-05 9.36735E-06 6.28857E-19-1.48451E-18
 -1      3763 9.20047E-05-2.77623E-05-2.74965E-05 1.01803E-05 8.40713E-19-1.87401E-18
 -1      3764 8.94507E-05-2.53696E-05-2.74733E-05 8.90246E-06 1.79511E-19-1.77131E-18
 -1      3765 9.24275E-05-2.89156E-05-2.72108E-05 1.14058E-05 8.87218E-19-2.48998E-18
 -1      3766 9.38243E-05-3.06318E-05-2.70290E-05 1.22438E-05 4.74487E-19-2.17406E-18
 -1      3767 8.97890E-05-2.70510E-05-2.69110E-05 1.12172E-05 5.41279E-19-3.34064E-18
 -1      3768 9.50245E-05-3.25865E-05-2.67258E-05 1.36660E-05 2.05480E-19-2.11144E-18
 -1      3769 9.74157E-05-3.51617E-05-2.66150E-05 1.43268E-05-1.02582E-19-2.09041E-18
 -1      3770 9.12077E-05-3.00635E-05-2.62537E-05 1.41247E-05 4.53323E-19-3.34880E-18
 -1      3771 9.97321E-05-3.77261E-05-2.64730E-05 1.52779E-05-5.65019E-19-1.60830E-18
 -1      3772 1.03301E-04-4.11523E-05-2.65744E-05 1.52985E-05-2.28249E-19-2.10048E-18
 -1      3773 1.00344E-04-4.12721E-05-2.55748E-05 1.92567E-05-3.72979E-19-2.81576E-18
 -1      3774 9.47412E-05-3.50022E-05-2.57286E-05 1.71539E-05-2.41480E-19-3.10847E-18
 -1      3775 1.11192E-04-4.71416E-05-2.72525E-05-1.79059E-05 1.12102E-18-5.01015E-19
 -1      3776 1.00943E-04-3.64991E-05-2.75567E-05-1.66788E-05 1.15287E-18-2.13921E-19
 -1      3777 9.55163E-05-2.51430E-05-3.01714E-05 1.85859E-06 9.05303E-19-7.01949E-19
 -1      3778 9.50408E-05-2.80210E-05-2.87207E-05-9.92470E-07-1.50674E-19-8.99589E-20
 -1      3779 9.51196E-05-2.81583E-05-2.87004E-05-9.14187E-07-3.40154E-20-5.21110E-20
 -1      3780 9.52382E-05-2.82994E-05-2.86860E-05-8.61633E-07-1.68631E-19 1.05796E-19
 -1      3781 9.53059E-05-2.84152E-05-2.86695E-05-8.15926E-07-3.88568E-21 1.40013E-19
 -1      3782 9.51510E-05-2.81829E-05-2.86999E-05-8.19076E-07-3.61064E-21 1.64567E-19
 -1      3783 9.45136E-05-2.73034E-05-2.88023E-05-1.47290E-06-5.31382E-19-1.68654E-19
 -1      3784 9.46336E-05-2.74948E-05-2.87782E-05-1.31272E-06-1.02312E-18-2.57962E-20
 -1      3785 9.41478E-05-2.68462E-05-2.88416E-05-1.84262E-06-2.73431E-19-4.92293E-19
 -1      3786 9.43006E-05-2.70707E-05-2.88183E-05-1.63338E-06-5.47365E-20-4.02299E-19
 -1      3787 9.42072E-05-2.70150E-05-2.87930E-05-1.41903E-06-4.70751E-20-8.53665E-19
 -1      3788 9.36844E-05-2.63127E-05-2.88718E-05-2.31127E-06-1.83026E-19-4.05951E-19
 -1      3789 9.38801E-05-2.65732E-05-2.88526E-05-2.04802E-06-3.66484E-19-5.23000E-19
 -1      3790 9.37321E-05-2.64818E-05-2.88163E-05-1.76779E-06-1.37544E-19-9.94385E-19
 -1      3791 9.30977E-05-2.56992E-05-2.88835E-05-2.88730E-06 3.41446E-19-1.71704E-19
 -1      3792 9.33473E-05-2.59963E-05-2.88730E-05-2.56560E-06 2.07722E-19-4.74112E-19
 -1      3793 9.31345E-05-2.58627E-05-2.88237E-05-2.20270E-06-2.42886E-19-6.85136E-19
 -1      3794 9.23601E-05-2.50101E-05-2.88630E-05-3.57866E-06 3.27334E-19-2.03009E-19
 -1      3795 9.26747E-05-2.53394E-05-2.88682E-05-3.19449E-06 2.36425E-19-3.81140E-19
 -1      3796 9.23836E-05-2.51544E-05-2.88031E-05-2.72946E-06 1.39332E-19-9.62474E-19
 -1      3797 9.14450E-05-2.42636E-05-2.87908E-05-4.39471E-06 5.16471E-19 6.72829E-20
 -1      3798 9.18336E-05-2.46125E-05-2.88215E-05-3.94348E-06 6.04034E-19-4.37017E-20
 -1      3799 9.14456E-05-2.43624E-05-2.87377E-05-3.35391E-06 1.32493E-19-8.25218E-19
 -1      3800 9.03315E-05-2.35009E-05-2.86400E-05-5.35149E-06-1.63498E-19-3.07224E-19
 -1      3801 9.07968E-05-2.38432E-05-2.87098E-05-4.82532E-06 3.18605E-19 3.01727E-19
 -1      3802 9.02847E-05-2.35053E-05-2.86040E-05-4.08556E-06 2.14168E-19 2.00759E-19
 -1      3803 8.90143E-05-2.27994E-05-2.83740E-05-6.48288E-06 9.77928E-20-5.74599E-19
 -1      3804 8.95447E-05-2.30872E-05-2.85013E-05-5.86490E-06 1.49461E-19-1.32044E-19
 -1      3805 8.88654E-05-2.26229E-05-2.83698E-05-4.94571E-06 9.90998E-20-2.14145E-19
 -1      3806 8.75209E-05-2.22933E-05-2.79455E-05-7.86063E-06 6.68035E-20-8.94788E-19
 -1      3807 8.80763E-05-2.24444E-05-2.81531E-05-7.11517E-06 2.08094E-20-7.89986E-19
 -1      3808 8.71559E-05-2.17856E-05-2.79913E-05-5.98376E-06 5.70096E-19-1.27883E-18
 -1      3809 8.59365E-05-2.22023E-05-2.72950E-05-9.62588E-06 2.25917E-19-1.30704E-18
 -1      3810 8.64290E-05-2.20835E-05-2.76098E-05-8.68483E-06 8.53034E-20-7.14950E-19
 -1      3811 8.51345E-05-2.11092E-05-2.74095E-05-7.30600E-06 9.91159E-20-1.46227E-18
 -1      3812 8.44459E-05-2.28772E-05-2.63521E-05-1.20201E-05-2.59992E-19-1.16752E-18
 -1      3813 8.47221E-05-2.22848E-05-2.68026E-05-1.07635E-05-2.02280E-19-1.22607E-18
 -1      3814 8.28261E-05-2.07880E-05-2.65454E-05-9.14025E-06-1.52123E-19-6.82436E-19
 -1      3815 8.33852E-05-2.49062E-05-2.50750E-05-1.55980E-05-5.99570E-19-1.16956E-18
 -1      3816 8.30790E-05-2.33864E-05-2.56464E-05-1.36447E-05 1.02901E-20-1.19946E-18
 -1      3817 8.03014E-05-2.10892E-05-2.52901E-05-1.18157E-05-9.01544E-20-1.29274E-18
 -1      3818 7.75685E-05-2.38584E-05-2.29435E-05-1.73051E-05-5.89866E-19-2.02621E-18
 -1      3819 9.63570E-05-2.71050E-05-2.96757E-05-1.90754E-07-4.40391E-19-1.07195E-18
 -1      3820 9.64386E-05-2.75955E-05-2.95099E-05 1.08501E-07-1.79385E-19-1.07638E-18
 -1      3821 9.30689E-05-2.72360E-05-2.82645E-05 1.68516E-05-7.34743E-19 7.97560E-19
 -1      3822 8.56145E-05-2.78419E-05-2.45907E-05-2.01206E-05 1.51299E-18-1.00162E-18
 -1      3823 7.97020E-05-2.43596E-05-2.38065E-05-1.80904E-05 9.90830E-19-3.70484E-18
 -1      3824 9.54237E-05-2.44085E-05-3.04433E-05-1.46119E-06-8.34882E-20-1.78859E-18
 -1      3825 9.57347E-05-2.52278E-05-3.02151E-05-1.06948E-06-2.86222E-19-1.56263E-18
 -1      3826 9.53140E-05-2.40244E-05-3.05511E-05-1.23355E-06-3.17941E-20-1.69328E-18
 -1      3827 8.24112E-05-2.60561E-05-2.42157E-05 2.01444E-05-1.65914E-18 1.20715E-18
 -1      3828 7.56075E-05-2.10015E-05-2.31704E-05 1.68164E-05-1.83039E-18 2.20202E-18
 -1      3829 6.07376E-05-1.51216E-05-1.93221E-05-2.92218E-06-8.78944E-19-2.34938E-18
 -1      3830 6.47241E-05-1.83748E-05-1.99549E-05-1.38145E-05-1.17923E-20-4.10721E-18
 -1      3831 9.60144E-05-2.63937E-05-2.98477E-05 6.24502E-07 5.09232E-19-7.47253E-19
 -1      3832 9.58564E-05-2.56629E-05-3.00670E-05 1.14565E-06 6.13900E-19-8.07834E-19
 -1      3833 6.15474E-05-1.42077E-05-2.00126E-05-2.27120E-06 5.19771E-19-1.11387E-18
 -1      3834 6.49507E-05-1.65861E-05-2.08723E-05-9.71292E-06-1.56347E-19-1.25025E-18
 -1      3835 1.02365E-04-3.90798E-05-2.70863E-05-1.81736E-05 1.38363E-18 3.72827E-20
 -1      3836 9.81697E-05-3.55680E-05-2.67687E-05-1.92417E-05 1.65204E-18 8.12769E-19
 -1      3837 9.35089E-05-3.29183E-05-2.60063E-05-1.98379E-05 1.17767E-18 7.41850E-19
 -1      3838 1.06145E-04-4.26889E-05-2.71208E-05-1.79018E-05 9.75239E-19-2.26754E-19
 -1      3839 9.51589E-05-2.39264E-05-3.05086E-05 2.29017E-06 9.39741E-19-8.73217E-19
 -1      3840 9.44704E-05-2.23413E-05-3.09292E-05 2.73606E-06 9.88982E-19-1.23299E-18
 -1      3841 9.42468E-05-2.18444E-05-3.10381E-05 2.30397E-06 9.34081E-19-1.19631E-18
 -1      3842 9.53370E-05-2.44600E-05-3.03840E-05 1.81094E-06 8.04617E-19-8.03974E-19
 -1      3843 9.46174E-05-2.23446E-05-3.09564E-05 6.14004E-08 4.49389E-19-1.64858E-18
 -1      3844 9.38957E-05-2.10698E-05-3.12172E-05-1.64278E-07 4.60948E-19-1.71530E-18
 -1      3845 9.40034E-05-2.12911E-05-3.11749E-05-6.47714E-07 3.50619E-19-1.81794E-18
 -1      3846 7.39416E-05-2.42305E-05-2.10853E-05-2.13149E-05 6.43427E-19-2.58635E-18
 -1      3847 8.29604E-05-3.12732E-05-2.21772E-05-2.61928E-05 2.05977E-18-6.10287E-19
 -1      3848 9.59904E-05-2.59087E-05-3.00368E-05-8.08108E-07-4.00073E-19-1.34489E-18
 -1      3849 9.61942E-05-2.66167E-05-2.98242E-05-3.76552E-07-4.37366E-19-1.20980E-18
 -1      3850 9.63478E-05-2.67502E-05-2.98289E-05-2.59982E-07-3.10016E-19-9.74712E-19
 -1      3851 9.59529E-05-2.55903E-05-3.01535E-05-7.21139E-07-1.55675E-19-1.51321E-18
 -1      3852 8.38986E-05-2.44113E-05-2.55529E-05 1.78226E-05-1.45803E-18 1.41507E-19
 -1      3853 8.66254E-05-2.44221E-05-2.67389E-05 1.68254E-05-1.27313E-18-3.26604E-19
 -1      3854 1.03409E-04-4.25531E-05-2.62006E-05-2.13919E-05 1.26495E-18 1.98259E-20
 -1      3855 9.48048E-05-2.76920E-05-2.87605E-05-1.19282E-06-1.04469E-18 4.44838E-20
 -1      3856 9.49005E-05-2.78543E-05-2.87376E-05-1.07635E-06-4.76079E-19-2.47070E-19
 -1      3857 9.45870E-05-2.74698E-05-2.87620E-05-1.14984E-06-8.62959E-19-3.12525E-19
 -1      3858 9.65292E-05-2.80134E-05-2.93591E-05 2.92842E-07-9.17506E-20-1.16019E-18
 -1      3859 9.65398E-05-2.83323E-05-2.92354E-05 4.76609E-07-1.77856E-19-1.00832E-18
 -1      3860 9.65834E-05-2.76882E-05-2.95253E-05 1.31601E-07-2.13516E-19-9.26866E-19
 -1      3861 9.62918E-05-2.75199E-05-2.94800E-05-6.94222E-08 5.11600E-19-8.64653E-19
 -1      3862 9.62238E-05-2.70274E-05-2.96476E-05 2.84366E-07 4.65799E-19-8.48087E-19
 -1      3863 9.61587E-05-2.64467E-05-2.98744E-05 4.85931E-07 5.59207E-19-1.00540E-18
 -1      3864 7.34382E-05-1.91277E-05-2.32811E-05 1.30322E-05-1.73450E-18 1.27040E-18
 -1      3865 8.03807E-05-2.91443E-05-2.21982E-05 2.22984E-05 9.14571E-19-3.70365E-19
 -1      3866 7.09707E-05-2.22007E-05-2.05466E-05 1.92341E-05 1.54803E-18 3.58533E-19
 -1      3867 9.57180E-05-2.88881E-05-2.86397E-05-7.78749E-07 1.64062E-19 2.37393E-19
 -1      3868 9.57764E-05-2.89466E-05-2.86417E-05-7.93801E-07 4.53752E-19 1.71543E-19
 -1      3869 9.24824E-05-3.58228E-05-2.39825E-05 2.16030E-05-2.65032E-19-1.61112E-18
 -1      3870 7.31247E-05-2.02491E-05-2.24988E-05-1.43866E-05 9.62673E-20-1.81439E-18
 -1      3871 9.00146E-05-2.62799E-05-2.72681E-05 1.78805E-05-1.53207E-18-3.43895E-19
 -1      3872 6.99978E-05-2.02223E-05-2.12285E-05 1.48921E-05 1.80908E-18 1.61916E-19
 -1      3873 9.66794E-05-2.84159E-05-2.92561E-05 4.29106E-07-1.92453E-19-1.33307E-18
 -1      3874 7.24164E-05-1.84762E-05-2.31143E-05-9.91267E-06 3.85645E-19-1.37129E-18
 -1      3875 9.48259E-05-2.28838E-05-3.08121E-05 1.72492E-06 7.90988E-19-1.15133E-18
 -1      3876 6.43594E-05-1.53859E-05-2.08785E-05 2.22104E-06 9.64493E-19-5.77187E-19
 -1      3877 9.51716E-05-2.35943E-05-3.06893E-05 8.57153E-07 7.28403E-19-1.18044E-18
 -1      3878 9.50993E-05-2.34182E-05-3.07287E-05 4.78018E-07 5.98713E-19-1.34105E-18
 -1      3879 9.48949E-05-2.78558E-05-2.87295E-05-9.52630E-07-2.52098E-19-2.04002E-19
 -1      3880 9.53716E-05-2.84592E-05-2.86767E-05-7.40292E-07 2.00678E-19 1.08621E-18
 -1      3881 9.54103E-05-2.85343E-05-2.86592E-05-7.89854E-07 3.11219E-19 5.47108E-19
 -1      3882 9.54717E-05-2.86309E-05-2.86475E-05-7.70926E-07 5.76359E-19 5.16893E-19
 -1      3883 9.63849E-05-2.82538E-05-2.92024E-05-5.02496E-07 3.94138E-19-7.20787E-19
 -1      3884 9.63815E-05-2.79384E-05-2.93262E-05-2.84740E-07 5.41732E-19-7.59741E-19
 -1      3885 9.64591E-05-2.75886E-05-2.95157E-05-9.63572E-08 4.18903E-19-8.82981E-19
 -1      3886 9.61508E-05-2.90596E-05-2.87529E-05-8.76120E-07 2.54448E-19-2.21339E-19
 -1      3887 9.62080E-05-2.90187E-05-2.87934E-05-8.67978E-07 1.38235E-19-4.84980E-19
 -1      3888 9.61642E-05-2.86022E-05-2.89578E-05-7.89613E-07 2.70461E-19-6.45444E-19
 -1      3889 9.10329E-05-3.34331E-05-2.47142E-05-2.22284E-05 1.50505E-18 3.96206E-19
 -1      3890 7.32105E-05-2.15662E-05-2.19972E-05-1.57049E-05 4.90988E-19-3.47820E-18
 -1      3891 7.25274E-05-1.88757E-05-2.28860E-05-1.12874E-05-8.20530E-20-4.58686E-18
 -1      3892 8.81899E-05-2.95769E-05-2.49691E-05 2.20472E-05-1.93359E-18-8.13191E-19
 -1      3893 9.56491E-05-2.44781E-05-3.04875E-05 2.81691E-07 5.81277E-19-1.23783E-18
 -1      3894 9.51168E-05-2.34368E-05-3.07268E-05 2.24571E-07 5.44882E-19-1.45349E-18
 -1      3895 9.51710E-05-2.35489E-05-3.07049E-05-1.02207E-07 4.28734E-19-1.60122E-18
 -1      3896 7.00976E-05-1.69274E-05-2.26916E-05 8.33264E-06-1.45479E-18-9.35521E-19
 -1      3897 6.94354E-05-1.68153E-05-2.25325E-05-5.97581E-06-3.67553E-19-4.62074E-18
 -1      3898 9.54615E-05-2.45793E-05-3.03852E-05 1.48182E-06 7.28330E-19-1.02366E-18
 -1      3899 9.62742E-05-2.89528E-05-2.88524E-05-8.52098E-07 9.55623E-20-4.66937E-19
 -1      3900 9.63236E-05-2.88497E-05-2.89141E-05-8.03100E-07 3.26823E-19-5.70138E-19
 -1      3901 9.64175E-05-2.90214E-05-2.88859E-05-7.59697E-07 2.69884E-20-7.19842E-19
 -1      3902 9.00283E-05-3.26371E-05-2.46194E-05 2.40021E-05-2.12139E-18-1.18194E-18
 -1      3903 9.58657E-05-2.90062E-05-2.86560E-05-9.46917E-07 1.34207E-19 1.58759E-19
 -1      3904 1.25279E-04-3.96480E-05-3.68810E-05 1.10977E-05 2.07105E-18-2.26581E-19
 -1      3905 9.55677E-05-2.87302E-05-2.86428E-05-7.66180E-07 4.33582E-19 2.45112E-19
 -1      3906 9.56264E-05-2.88085E-05-2.86371E-05-7.67782E-07 2.39890E-19 4.25848E-19
 -1      3907 9.55699E-05-2.86904E-05-2.86631E-05-7.06713E-07 3.41327E-19 5.01835E-19
 -1      3908 6.58346E-05-1.61953E-05-2.11257E-05 1.43112E-06-1.15575E-18-2.05166E-18
 -1      3909 9.58656E-05-2.90037E-05-2.86536E-05-8.13643E-07 4.99049E-19 3.03392E-20
 -1      3910 9.59247E-05-2.90383E-05-2.86653E-05-8.33314E-07 3.40903E-19 1.52963E-19
 -1      3911 9.59346E-05-2.90199E-05-2.86791E-05-7.31228E-07 4.15866E-19-1.81792E-19
 -1      3912 9.40554E-05-2.13814E-05-3.11503E-05-9.95149E-07 2.16290E-19-1.76202E-18
 -1      3913 9.42273E-05-2.17456E-05-3.10769E-05-1.42022E-06 1.52391E-19-1.78587E-18
 -1      3914 9.48181E-05-2.28487E-05-3.08311E-05-1.19984E-06 5.37054E-20-1.77412E-18
 -1      3915 9.47078E-05-2.25514E-05-3.09083E-05-6.10537E-07 2.71724E-19-1.70896E-18
 -1      3916 9.57556E-05-2.88784E-05-2.86626E-05-7.07747E-07 3.12051E-19 2.04147E-19
 -1      3917 8.72173E-05-3.13199E-05-2.38775E-05 1.94667E-05 1.69936E-19-1.54182E-18
 -1      3918 9.66846E-05-2.90731E-05-2.89747E-05 5.28136E-07-3.17140E-19-1.24561E-18
 -1      3919 9.66113E-05-2.91503E-05-2.89118E-05 5.53415E-07-3.34410E-19-1.31238E-18
 -1      3920 9.65205E-05-2.91898E-05-2.88549E-05 5.53362E-07-3.86532E-19-1.26083E-18
 -1      3921 9.64312E-05-2.92019E-05-2.88119E-05 5.57143E-07-4.59914E-19-1.39468E-18
 -1      3922 9.66570E-05-2.91894E-05-2.89164E-05 4.30239E-07-3.97490E-19-1.12878E-18
 -1      3923 9.63234E-05-2.91844E-05-2.87732E-05 5.47610E-07-5.50771E-19-1.30789E-18
 -1      3924 9.62262E-05-2.91499E-05-2.87459E-05 5.41678E-07-5.69913E-19-1.33340E-18
 -1      3925 9.64596E-05-2.92190E-05-2.88191E-05 4.32586E-07-5.07631E-19-1.37427E-18
 -1      3926 9.61090E-05-2.90911E-05-2.87218E-05 5.29937E-07-2.66426E-19-1.22756E-18
 -1      3927 9.60075E-05-2.90218E-05-2.87069E-05 5.23548E-07 3.06848E-20-9.16400E-19
 -1      3928 9.62365E-05-2.91453E-05-2.87548E-05 4.22155E-07-1.37584E-19-8.89992E-19
 -1      3929 9.58844E-05-2.89321E-05-2.86941E-05 5.16041E-07-4.98277E-20-7.29347E-19
 -1      3930 9.57793E-05-2.88360E-05-2.86888E-05 5.16085E-07-6.38377E-21-9.00347E-19
 -1      3931 9.59982E-05-2.89947E-05-2.87168E-05 4.11356E-07-2.83037E-20-7.73022E-19
 -1      3932 9.56491E-05-2.87203E-05-2.86846E-05 5.16909E-07 1.03905E-19-1.23159E-18
 -1      3933 9.55383E-05-2.86004E-05-2.86864E-05 5.29461E-07-4.32906E-20-1.13203E-18
 -1      3934 9.57475E-05-2.87845E-05-2.86990E-05 4.10720E-07-1.12240E-19-7.70630E-19
 -1      3935 9.53978E-05-2.84610E-05-2.86886E-05 5.43188E-07-1.01979E-19-9.47443E-19
 -1      3936 9.52775E-05-2.83185E-05-2.86956E-05 5.73245E-07-1.85355E-19-5.27866E-19
 -1      3937 9.54795E-05-2.85213E-05-2.86962E-05 4.28166E-07 3.51207E-20-9.00828E-19
 -1      3938 9.51212E-05-2.81550E-05-2.87019E-05 6.03573E-07-3.02594E-19-5.21013E-19
 -1      3939 9.49862E-05-2.79891E-05-2.87120E-05 6.55773E-07-4.95398E-19-8.58212E-20
 -1      3940 9.51858E-05-2.82078E-05-2.87040E-05 4.71878E-07-1.62876E-19-5.98425E-19
 -1      3941 9.48066E-05-2.77994E-05-2.87202E-05 7.06907E-07-3.39880E-19-4.81490E-20
 -1      3942 9.46507E-05-2.76083E-05-2.87316E-05 7.86243E-07 4.20456E-19-5.53240E-21
 -1      3943 9.48533E-05-2.78416E-05-2.87177E-05 5.48597E-07-2.88932E-19 1.72363E-19
 -1      3944 9.44398E-05-2.73904E-05-2.87392E-05 8.62747E-07 5.00541E-19-5.86711E-20
 -1      3945 9.42564E-05-2.71728E-05-2.87493E-05 9.74313E-07 3.61822E-19-2.71178E-19
 -1      3946 9.44669E-05-2.74181E-05-2.87326E-05 6.67413E-07 3.12742E-19-6.66761E-20
 -1      3947 9.40050E-05-2.69251E-05-2.87533E-05 1.08162E-06 4.55839E-19-4.91279E-19
 -1      3948 9.37878E-05-2.66811E-05-2.87592E-05 1.23122E-06 6.34389E-19-4.34489E-19
 -1      3949 9.40092E-05-2.69333E-05-2.87430E-05 8.37209E-07 3.52022E-19-3.63812E-19
 -1      3950 9.34869E-05-2.64041E-05-2.87557E-05 1.37618E-06 6.82019E-19-4.56981E-19
 -1      3951 9.32310E-05-2.61370E-05-2.87536E-05 1.57063E-06 6.04366E-19-1.88803E-19
 -1      3952 9.34620E-05-2.63855E-05-2.87421E-05 1.06970E-06 5.58575E-19-9.36903E-19
 -1      3953 9.28724E-05-2.58347E-05-2.87378E-05 1.76201E-06 1.40489E-19-3.75974E-19
 -1      3954 9.25754E-05-2.55528E-05-2.87226E-05 2.00964E-06-1.87792E-19-1.03914E-18
 -1      3955 9.28081E-05-2.57783E-05-2.87208E-05 1.37980E-06 2.47874E-19-8.60332E-19
 -1      3956 9.21528E-05-2.52349E-05-2.86881E-05 2.25910E-06 9.57327E-21-7.95547E-19
 -1      3957 9.18172E-05-2.49539E-05-2.86536E-05 2.57063E-06-2.14542E-20-8.91755E-19
 -1      3958 9.20329E-05-2.51239E-05-2.86676E-05 1.78729E-06 4.52153E-20-1.40197E-19
 -1      3959 9.13275E-05-2.46380E-05-2.85922E-05 2.89419E-06-3.28806E-20-1.10762E-18
 -1      3960 9.09634E-05-2.43839E-05-2.85305E-05 3.28415E-06-2.49949E-19-5.64885E-19
 -1      3961 9.11265E-05-2.44475E-05-2.85676E-05 2.31940E-06 1.03870E-19-3.94151E-19
 -1      3962 9.04088E-05-2.40985E-05-2.84322E-05 3.70456E-06-3.86814E-19 3.73495E-19
 -1      3963 9.00381E-05-2.39114E-05-2.83339E-05 4.19357E-06 4.66649E-19 2.12176E-19
 -1      3964 9.00874E-05-2.37913E-05-2.84022E-05 3.01486E-06 3.36089E-19-3.01958E-20
 -1      3965 8.94279E-05-2.36989E-05-2.81861E-05 4.74406E-06 3.98782E-19-6.13413E-20
 -1      3966 8.90913E-05-2.36381E-05-2.80409E-05 5.36191E-06 3.22052E-19 1.53471E-19
 -1      3967 8.89256E-05-2.32205E-05-2.81478E-05 3.93042E-06 2.60452E-19 1.06059E-18
 -1      3968 8.84463E-05-2.35594E-05-2.78290E-05 6.09201E-06 1.33755E-19 8.11998E-20
 -1      3969 8.82142E-05-2.37109E-05-2.76265E-05 6.88098E-06-1.84776E-19-3.05806E-19
 -1      3970 8.76682E-05-2.28296E-05-2.77760E-05 5.15104E-06 3.78656E-19-2.74696E-19
 -1      3971 8.75749E-05-2.38536E-05-2.73337E-05 7.86562E-06-6.91948E-19-2.96223E-19
 -1      3972 8.75644E-05-2.43419E-05-2.70662E-05 8.88046E-06-1.87085E-19-9.12560E-19
 -1      3973 8.63687E-05-2.27531E-05-2.72527E-05 6.80634E-06-5.91764E-19 2.05761E-19
 -1      3974 8.70253E-05-2.48471E-05-2.66757E-05 1.02145E-05 1.85040E-19-1.80421E-18
 -1      3975 8.74067E-05-2.58335E-05-2.63447E-05 1.15062E-05 4.47459E-19-2.17119E-18
 -1      3976 8.51494E-05-2.32030E-05-2.65389E-05 9.10193E-06-6.50404E-19 2.01463E-19
 -1      3977 8.70898E-05-2.68558E-05-2.58445E-05 1.32880E-05 6.49828E-19-2.92243E-18
 -1      3978 8.82585E-05-2.86896E-05-2.54969E-05 1.49496E-05-2.72119E-19-3.22279E-18
 -1      3979 8.42726E-05-2.44694E-05-2.55967E-05 1.22764E-05-1.18201E-19-1.33650E-18
 -1      3980 8.53486E-05-2.86976E-05-2.42142E-05 1.77070E-05 3.84280E-19-2.41685E-18
 -1      3981 9.67890E-05-2.82563E-05-2.93681E-05 2.82771E-07-2.10334E-19-1.16309E-18
 -1      3982 9.67971E-05-2.85535E-05-2.92498E-05 3.98534E-07-2.10286E-19-1.19796E-18
 -1      3983 9.47587E-05-2.77054E-05-2.87362E-05-8.62571E-07-3.59050E-19-1.48369E-19
 -1      3984 9.48997E-05-2.78902E-05-2.87211E-05-7.84398E-07 4.61477E-20 7.09589E-20
 -1      3985 9.26428E-05-2.54868E-05-2.87824E-05-1.97387E-06-3.47007E-19-1.38832E-18
 -1      3986 9.29814E-05-2.58286E-05-2.87869E-05-1.75351E-06-3.22643E-19-9.89931E-19
 -1      3987 9.50668E-05-2.80729E-05-2.87105E-05-7.34986E-07 1.52268E-19-1.08963E-19
 -1      3988 9.51860E-05-2.82295E-05-2.86977E-05-6.84295E-07-3.24169E-20 1.79146E-19
 -1      3989 9.49420E-05-2.79304E-05-2.87177E-05-6.41764E-07 7.75337E-20-2.17596E-19
 -1      3990 9.57808E-05-2.88611E-05-2.86785E-05-6.09492E-07 1.44883E-19 5.12922E-19
 -1      3991 9.58729E-05-2.89470E-05-2.86828E-05-6.13360E-07 3.13977E-19 3.54905E-19
 -1      3992 7.43727E-05-2.16234E-05-2.27061E-05 1.46017E-05 1.08523E-18 4.11142E-20
 -1      3993 6.86386E-05-1.76057E-05-2.17929E-05 1.03492E-05 1.46701E-18 2.04800E-19
 -1      3994 9.33578E-05-2.61720E-05-2.87944E-05-1.59681E-06 2.61003E-20-8.55999E-19
 -1      3995 9.36267E-05-2.64690E-05-2.87876E-05-1.41559E-06 3.24422E-19-7.16640E-19
 -1      3996 9.29305E-05-2.58076E-05-2.87595E-05-1.37777E-06-1.81772E-19-1.28974E-18
 -1      3997 9.39290E-05-2.67650E-05-2.87844E-05-1.28821E-06 7.09824E-22-6.09524E-19
 -1      3998 9.41430E-05-2.70201E-05-2.87716E-05-1.14425E-06-1.41036E-19-5.51921E-19
 -1      3999 9.36010E-05-2.64659E-05-2.87667E-05-1.12209E-06 6.95228E-20-5.12002E-19
 -1      4000 9.17491E-05-2.47071E-05-2.87346E-05-2.42099E-06 1.73166E-19-1.19431E-18
 -1      4001 9.21740E-05-2.50935E-05-2.87575E-05-2.16027E-06 4.20644E-20-1.31331E-18
 -1      4002 9.20957E-05-2.50515E-05-2.87233E-05-1.68174E-06 3.68012E-20-1.23200E-18
 -1      4003 9.06376E-05-2.38389E-05-2.86315E-05-2.93950E-06-2.27403E-19-7.16498E-19
 -1      4004 9.11668E-05-2.42652E-05-2.86830E-05-2.63699E-06-4.01783E-19-9.23664E-19
 -1      4005 9.10579E-05-2.41967E-05-2.86419E-05-2.03124E-06-3.30327E-19-7.75213E-19
 -1      4006 8.92646E-05-2.29007E-05-2.84465E-05-3.53427E-06-4.17184E-19 4.38629E-19
 -1      4007 8.99171E-05-2.33546E-05-2.85405E-05-3.18592E-06 1.16769E-19 3.70903E-19
 -1      4008 8.97725E-05-2.32499E-05-2.84928E-05-2.42289E-06-8.51735E-19-5.88181E-20
 -1      4009 8.75806E-05-2.19275E-05-2.81429E-05-4.22244E-06 4.63938E-19-4.03998E-19
 -1      4010 8.83750E-05-2.23870E-05-2.82984E-05-3.81617E-06-1.55742E-20-5.00754E-21
 -1      4011 8.81849E-05-2.22273E-05-2.82457E-05-2.85682E-06 6.87635E-20 6.25289E-19
 -1      4012 8.55278E-05-2.09772E-05-2.76706E-05-5.05083E-06 6.78376E-19-5.58306E-19
 -1      4013 8.64802E-05-2.14056E-05-2.79134E-05-4.55629E-06 5.47488E-19-2.24612E-19
 -1      4014 8.62249E-05-2.11554E-05-2.78581E-05-3.34611E-06 3.81887E-19-4.71412E-19
 -1      4015 8.30305E-05-2.01408E-05-2.69601E-05-6.12975E-06-2.32206E-19-2.68959E-19
 -1      4016 8.41573E-05-2.04795E-05-2.73253E-05-5.47706E-06 4.44012E-19-5.75989E-20
 -1      4017 8.37936E-05-2.00714E-05-2.72710E-05-3.93595E-06 9.89304E-20 2.48166E-19
 -1      4018 7.99279E-05-1.95367E-05-2.59099E-05-7.69987E-06-1.60765E-19-4.05694E-19
 -1      4019 8.12868E-05-1.96949E-05-2.64495E-05-6.70563E-06-3.26101E-19-3.55344E-19
 -1      4020 8.07666E-05-1.90402E-05-2.63991E-05-4.72341E-06-2.83308E-19 5.73534E-19
 -1      4021 7.57256E-05-1.91609E-05-2.43015E-05-9.47266E-06 9.92314E-19-1.87814E-18
 -1      4022 7.72904E-05-1.89321E-05-2.50883E-05-7.94435E-06 5.51764E-19-1.49343E-18
 -1      4023 7.65733E-05-1.78553E-05-2.50643E-05-5.20076E-06 6.48836E-19-9.56942E-19
 -1      4024 7.02716E-05-1.61773E-05-2.30104E-05-5.14007E-06 5.55728E-19-8.26511E-19
 -1      4025 9.52576E-05-2.38507E-05-3.06124E-05-1.05534E-06-4.38661E-20-1.67903E-18
 -1      4026 9.56657E-05-2.47258E-05-3.03935E-05-8.06327E-07-1.19562E-19-1.65895E-18
 -1      4027 9.51945E-05-2.36540E-05-3.06641E-05-8.01074E-07 2.30349E-20-1.66080E-18
 -1      4028 9.60707E-05-2.90700E-05-2.87135E-05-8.66646E-07 2.09557E-19-2.14490E-19
 -1      4029 9.62731E-05-2.91151E-05-2.87838E-05-7.79690E-07 2.65268E-19-4.82396E-19
 -1      4030 9.60112E-05-2.90670E-05-2.86892E-05-8.53493E-07 2.98457E-20-1.11707E-19
 -1      4031 9.63625E-05-2.87041E-05-2.89981E-05-7.42823E-07 4.76974E-19-7.86625E-19
 -1      4032 9.63951E-05-2.85137E-05-2.90871E-05-6.26363E-07 3.91721E-19-6.63371E-19
 -1      4033 9.65537E-05-2.83338E-05-2.92388E-05-4.65596E-07 3.20312E-19-7.23246E-19
 -1      4034 9.65209E-05-2.87811E-05-2.90331E-05-6.69191E-07 3.28866E-19-6.08453E-19
 -1      4035 9.05545E-05-3.42966E-05-2.40604E-05-2.36946E-05 1.72419E-18-9.48942E-21
 -1      4036 6.89260E-05-1.64515E-05-2.25110E-05 2.62072E-07-7.69033E-19-2.94225E-18
 -1      4037 9.53872E-05-2.42625E-05-3.04869E-05 1.11251E-06 6.21466E-19-1.09801E-18
 -1      4038 9.57951E-05-2.50799E-05-3.03001E-05 7.16102E-07 6.02593E-19-1.08954E-18
 -1      4039 9.43870E-05-2.72729E-05-2.87626E-05-1.04501E-06-4.97774E-19-6.82496E-19
 -1      4040 9.45590E-05-2.74904E-05-2.87473E-05-9.35607E-07-5.53856E-19-4.11817E-19
 -1      4041 9.45794E-05-2.75176E-05-2.87382E-05-7.56347E-07-1.18076E-19-2.48446E-19
 -1      4042 9.66360E-05-2.74103E-05-2.96620E-05-1.17401E-08-3.57388E-19-1.03330E-18
 -1      4043 9.67125E-05-2.78707E-05-2.95087E-05 1.83657E-07-2.88392E-19-1.13143E-18
 -1      4044 9.68123E-05-2.79829E-05-2.94954E-05 1.66929E-07-3.04270E-19-1.15792E-18
 -1      4045 6.70776E-05-1.59234E-05-2.18448E-05 5.96900E-06 1.33933E-18 1.36038E-19
 -1      4046 6.80335E-05-1.57587E-05-2.25002E-05-1.05238E-06 6.16829E-19 1.50322E-19
 -1      4047 7.20131E-05-1.66136E-05-2.37394E-05-1.63949E-06 7.07163E-19 3.78743E-19
 -1      4048 7.19299E-05-1.76168E-05-2.32334E-05 6.43728E-06 7.92565E-19 4.46683E-19
 -1      4049 9.63871E-05-2.66944E-05-2.98739E-05 1.72474E-07 4.19746E-19-1.05770E-18
 -1      4050 9.61775E-05-2.59977E-05-3.00775E-05 5.17020E-07 4.36963E-19-1.05374E-18
 -1      4051 9.59928E-05-2.53743E-05-3.02641E-05 3.40104E-07 4.53473E-19-1.31258E-18
 -1      4052 9.67882E-05-2.87851E-05-2.91422E-05 4.47505E-07-1.94653E-19-1.14172E-18
 -1      4053 9.67451E-05-2.89537E-05-2.90544E-05 5.09086E-07-2.39066E-19-1.02625E-18
 -1      4054 9.68081E-05-2.90161E-05-2.90550E-05 3.98660E-07-3.35537E-19-1.06809E-18
 -1      4055 8.08699E-05-2.51862E-05-2.37891E-05 1.64343E-05 6.59870E-19-1.70700E-18
 -1      4056 9.59992E-05-2.90127E-05-2.87097E-05-5.20502E-07 2.38546E-19 2.44924E-19
 -1      4057 9.59869E-05-2.90276E-05-2.86955E-05-6.24660E-07 4.65317E-19-1.33059E-19
 -1      4058 9.60762E-05-2.90863E-05-2.87097E-05-6.34771E-07 4.07543E-19-6.32418E-22
 -1      4059 9.41409E-05-2.70328E-05-2.87567E-05-9.15420E-07-3.14998E-19-7.26624E-19
 -1      4060 9.52498E-05-2.82809E-05-2.87003E-05-5.67127E-07 4.08802E-19 3.27839E-20
 -1      4061 9.53301E-05-2.83841E-05-2.86899E-05-6.55626E-07 1.75038E-19 4.92132E-19
 -1      4062 9.54350E-05-2.85160E-05-2.86810E-05-6.28000E-07 4.00138E-19 5.69448E-19
 -1      4063 9.56607E-05-2.87549E-05-2.86748E-05-6.07528E-07 3.24744E-19 5.41400E-19
 -1      4064 9.57671E-05-2.88203E-05-2.86921E-05-5.13833E-07 3.01859E-19 6.21199E-19
 -1      4065 9.55644E-05-2.86459E-05-2.86779E-05-6.16711E-07 3.82926E-19 5.52129E-19
 -1      4066 9.61083E-05-2.91048E-05-2.87175E-05-7.61651E-07 1.34413E-19-2.15567E-19
 -1      4067 9.59247E-05-2.52909E-05-3.02745E-05-5.10737E-07-5.87493E-20-1.54030E-18
 -1      4068 9.59535E-05-2.54618E-05-3.02160E-05-6.40693E-07-2.83503E-20-1.56011E-18
 -1      4069 9.62014E-05-2.60834E-05-3.00424E-05-4.11201E-07-8.21919E-20-1.30710E-18
 -1      4070 9.66892E-05-2.77881E-05-2.95320E-05-1.74551E-07 2.04910E-19-9.04870E-19
 -1      4071 9.66049E-05-2.73210E-05-2.96916E-05 5.66272E-08 3.41281E-19-1.02801E-18
 -1      4072 9.65862E-05-2.69140E-05-2.98584E-05 7.06930E-08 2.75864E-19-1.28649E-18
 -1      4073 9.60367E-05-2.54475E-05-3.02605E-05 1.48891E-07 5.55776E-19-1.31146E-18
 -1      4074 9.65342E-05-2.90994E-05-2.89007E-05-6.59006E-07-3.89725E-20-6.93800E-19
 -1      4075 9.66001E-05-2.90128E-05-2.89637E-05-6.27511E-07 3.15089E-20-6.91126E-19
 -1      4076 9.68792E-05-2.86424E-05-2.92445E-05 3.18278E-07-1.66807E-19-1.04930E-18
 -1      4077 7.84268E-05-2.22867E-05-2.41149E-05 1.28174E-05 2.97054E-19-1.30500E-18
 -1      4078 9.51543E-05-2.35185E-05-3.07084E-05-3.17246E-07 3.58119E-19-1.56988E-18
 -1      4079 9.51848E-05-2.36075E-05-3.06844E-05-5.96167E-07 9.88892E-20-1.54520E-18
 -1      4080 9.56291E-05-2.44911E-05-3.04735E-05-4.67027E-07 9.40241E-21-1.54090E-18
 -1      4081 9.56656E-05-2.44872E-05-3.04884E-05-1.12674E-07 3.75844E-19-1.42611E-18
 -1      4082 9.63680E-05-2.66400E-05-2.98898E-05-2.15938E-07-8.09107E-20-1.17273E-18
 -1      4083 9.94667E-05-3.91438E-05-2.56806E-05-2.22741E-05 1.00565E-18 5.41252E-19
 -1      4084 9.65011E-05-2.68337E-05-2.98614E-05-1.31831E-07-8.23381E-20-1.31964E-18
 -1      4085 9.63713E-05-2.91697E-05-2.88000E-05-6.67200E-07 9.41773E-20-2.61233E-19
 -1      4086 9.64511E-05-2.91481E-05-2.88427E-05-6.62638E-07-2.63718E-20-3.96628E-19
 -1      4087 9.66091E-05-2.91485E-05-2.89134E-05-5.44617E-07-2.95234E-19-5.66327E-19
 -1      4088 9.65742E-05-2.92475E-05-2.88534E-05 2.97423E-07-6.14044E-19-1.20200E-18
 -1      4089 9.64675E-05-2.92334E-05-2.88133E-05 3.02945E-07-4.71997E-19-1.10166E-18
 -1      4090 9.63459E-05-2.91940E-05-2.87789E-05 2.92513E-07-1.14186E-19-1.07444E-18
 -1      4091 9.62282E-05-2.91345E-05-2.87535E-05 2.92352E-07 1.41545E-19-1.04141E-18
 -1      4092 9.64432E-05-2.92261E-05-2.88099E-05 1.66699E-07-1.89480E-19-9.20060E-19
 -1      4093 9.60986E-05-2.90550E-05-2.87327E-05 2.87267E-07-1.65530E-20-9.45816E-19
 -1      4094 9.59765E-05-2.89630E-05-2.87189E-05 2.88271E-07-1.80172E-19-9.57408E-19
 -1      4095 9.61894E-05-2.91025E-05-2.87532E-05 1.64112E-07 1.56161E-20-1.08819E-18
 -1      4096 9.58373E-05-2.88523E-05-2.87082E-05 2.83155E-07-2.06817E-19-8.75376E-19
 -1      4097 9.57069E-05-2.87310E-05-2.87032E-05 2.89545E-07 4.31689E-20-7.85822E-19
 -1      4098 9.59284E-05-2.89131E-05-2.87218E-05 1.60726E-07 1.39657E-19-8.31413E-19
 -1      4099 9.55591E-05-2.85932E-05-2.87003E-05 2.92827E-07 1.51594E-19-9.23323E-19
 -1      4100 9.54181E-05-2.84463E-05-2.87017E-05 3.07879E-07 1.24562E-19-6.51060E-19
 -1      4101 9.56421E-05-2.86585E-05-2.87074E-05 1.66718E-07 2.69021E-19-8.60166E-19
 -1      4102 9.52553E-05-2.82819E-05-2.87041E-05 3.18399E-07 2.11053E-19-4.19242E-19
 -1      4103 9.50987E-05-2.81091E-05-2.87096E-05 3.45831E-07-9.09414E-20-1.21090E-19
 -1      4104 9.53356E-05-2.83508E-05-2.87067E-05 1.81542E-07 3.89152E-19-5.03333E-19
 -1      4105 9.49116E-05-2.79154E-05-2.87149E-05 3.66897E-07-2.92987E-19 2.47900E-19
 -1      4106 9.47329E-05-2.77138E-05-2.87222E-05 4.11393E-07-4.64757E-20 4.93604E-19
 -1      4107 9.49881E-05-2.79822E-05-2.87142E-05 2.10750E-07 1.98060E-19 1.31292E-20
 -1      4108 9.45144E-05-2.74903E-05-2.87279E-05 4.45300E-07-6.72157E-20 4.87975E-19
 -1      4109 9.43047E-05-2.72578E-05-2.87344E-05 5.09575E-07 3.68472E-19 2.12821E-19
 -1      4110 9.45904E-05-2.75550E-05-2.87247E-05 2.58978E-07-3.92259E-20 2.57474E-19
 -1      4111 9.40436E-05-2.70001E-05-2.87373E-05 5.60829E-07 2.13799E-19 4.65229E-19
 -1      4112 9.37938E-05-2.67345E-05-2.87400E-05 6.49584E-07 1.53586E-19 1.90000E-19
 -1      4113 9.41191E-05-2.70596E-05-2.87326E-05 3.31509E-07 2.24809E-19 3.95151E-19
 -1      4114 9.34788E-05-2.64406E-05-2.87364E-05 7.23397E-07 2.70892E-19 1.13855E-19
 -1      4115 9.31798E-05-2.61415E-05-2.87312E-05 8.42522E-07 5.80156E-19-2.73507E-19
 -1      4116 9.35532E-05-2.64905E-05-2.87312E-05 4.36859E-07-6.84360E-20 2.02232E-19
 -1      4117 9.27984E-05-2.58113E-05-2.87163E-05 9.46064E-07 4.66548E-19-4.84815E-19
 -1      4118 9.24422E-05-2.54813E-05-2.86980E-05 1.10328E-06 3.07910E-19-4.97877E-19
 -1      4119 9.28690E-05-2.58443E-05-2.87117E-05 5.86168E-07 2.88915E-19-6.83117E-21
 -1      4120 9.19818E-05-2.51185E-05-2.86654E-05 1.24656E-06 4.60420E-19-2.73056E-19
 -1      4121 9.15621E-05-2.47653E-05-2.86274E-05 1.45244E-06 7.30924E-20 7.25948E-20
 -1      4122 9.20422E-05-2.51227E-05-2.86627E-05 7.95240E-07 3.50513E-19-3.63398E-19
 -1      4123 9.10101E-05-2.43782E-05-2.85689E-05 1.64955E-06-2.45454E-19 1.67074E-19
 -1      4124 9.05239E-05-2.40164E-05-2.85028E-05 1.91906E-06 8.72341E-20-3.80140E-19
 -1      4125 9.10479E-05-2.43353E-05-2.85695E-05 1.08664E-06 3.56575E-20-6.40826E-19
 -1      4126 8.98675E-05-2.36204E-05-2.84076E-05 2.19008E-06 6.04130E-19-8.24076E-19
 -1      4127 8.93167E-05-2.32733E-05-2.83025E-05 2.54506E-06 6.62442E-19-7.25220E-21
 -1      4128 8.98619E-05-2.35019E-05-2.84126E-05 1.49285E-06 5.63269E-21-4.41060E-19
 -1      4129 8.85420E-05-2.28917E-05-2.81568E-05 2.91903E-06 3.27180E-19-5.35594E-19
 -1      4130 8.79360E-05-2.25942E-05-2.79994E-05 3.39209E-06 3.31978E-19-3.09701E-19
 -1      4131 8.84590E-05-2.26550E-05-2.81671E-05 2.06106E-06 3.88291E-19-1.59618E-18
 -1      4132 8.70257E-05-2.22594E-05-2.77852E-05 3.91174E-06 2.16333E-19-4.47229E-19
 -1      4133 8.63843E-05-2.20605E-05-2.75590E-05 4.55256E-06 6.09289E-20-8.32825E-19
 -1      4134 8.68108E-05-2.18412E-05-2.78000E-05 2.86044E-06 1.51085E-19-1.45756E-18
 -1      4135 8.53134E-05-2.18148E-05-2.72527E-05 5.28197E-06-8.81390E-20-9.86894E-19
 -1      4136 8.46721E-05-2.17842E-05-2.69378E-05 6.16947E-06-6.24081E-19-5.99164E-19
 -1      4137 8.48791E-05-2.11224E-05-2.72683E-05 3.99287E-06 5.58744E-20-1.48400E-18
 -1      4138 8.33907E-05-2.16688E-05-2.65073E-05 7.20085E-06-9.21071E-19-9.42419E-20
 -1      4139 8.27882E-05-2.19266E-05-2.60767E-05 8.49801E-06-4.91483E-19-2.94978E-19
 -1      4140 8.26082E-05-2.05878E-05-2.65143E-05 5.60160E-06-5.24270E-19-1.74242E-18
 -1      4141 8.10431E-05-2.17427E-05-2.54901E-05 9.52083E-06-8.10684E-19-3.27030E-19
 -1      4142 8.05666E-05-2.24529E-05-2.49190E-05 1.13915E-05-4.90810E-19-1.02142E-18
 -1      4143 7.57863E-05-1.93790E-05-2.40505E-05 9.41629E-06-2.34833E-19 1.12596E-20
 -1      4144 7.97858E-05-2.00912E-05-2.54831E-05 7.42753E-06-7.43214E-19-2.72271E-19
 -1      4145 9.68532E-05-2.77836E-05-2.95930E-05 6.42821E-08-2.29797E-19-1.05807E-18
 -1      4146 9.69151E-05-2.82009E-05-2.94537E-05 1.61910E-07-1.20628E-20-9.22000E-19
 -1      4147 9.44192E-05-2.73611E-05-2.87399E-05-6.08404E-07-8.44720E-20-7.17565E-19
 -1      4148 9.46201E-05-2.75889E-05-2.87302E-05-5.46687E-07-3.65074E-20-3.03392E-19
 -1      4149 9.16316E-05-2.47299E-05-2.86779E-05-1.29197E-06-2.59576E-19-5.63034E-19
 -1      4150 9.21034E-05-2.51359E-05-2.87073E-05-1.15690E-06-2.06483E-19-1.41013E-18
 -1      4151 9.33170E-05-2.62316E-05-2.87535E-05-8.91759E-07 8.16366E-20-7.99995E-19
 -1      4152 9.36212E-05-2.65415E-05-2.87529E-05-7.91292E-07 2.93630E-19-6.54592E-19
 -1      4153 8.90538E-05-2.28472E-05-2.83853E-05-1.75635E-06-5.57851E-19-3.22399E-19
 -1      4154 8.97801E-05-2.33425E-05-2.84838E-05-1.60106E-06-7.35166E-19-6.23776E-19
 -1      4155 8.72989E-05-2.17905E-05-2.80901E-05-1.98798E-06 1.49240E-20-3.24455E-20
 -1      4156 8.81974E-05-2.23179E-05-2.82476E-05-1.82684E-06-3.97285E-19-1.01024E-19
 -1      4157 8.83766E-05-2.23928E-05-2.82462E-05-9.32151E-07-6.34994E-19-1.06192E-18
 -1      4158 8.51274E-05-2.06858E-05-2.76384E-05-2.21399E-06 6.90074E-19-7.43568E-19
 -1      4159 8.62428E-05-2.12323E-05-2.78797E-05-2.04145E-06 6.46864E-19-2.86286E-19
 -1      4160 8.64863E-05-2.13034E-05-2.78934E-05-9.13201E-07 4.73953E-19-8.57596E-19
 -1      4161 8.24109E-05-1.95574E-05-2.69648E-05-2.45489E-06-2.95039E-20-4.73001E-19
 -1      4162 8.38071E-05-2.01072E-05-2.73253E-05-2.24634E-06 4.31429E-19-6.33812E-19
 -1      4163 8.41446E-05-2.01628E-05-2.73652E-05-8.03081E-07 4.13874E-19-1.28947E-18
 -1      4164 7.89153E-05-1.84411E-05-2.59670E-05-2.80251E-06 1.32885E-19-8.06729E-19
 -1      4165 8.07098E-05-1.89518E-05-2.65037E-05-2.48650E-06-8.51247E-20-2.94306E-19
 -1      4166 8.11760E-05-1.89676E-05-2.65876E-05-5.74978E-07 1.30798E-19-1.68242E-18
 -1      4167 7.43663E-05-1.72277E-05-2.45603E-05-2.22426E-06 3.65229E-19-4.37756E-19
 -1      4168 7.70510E-05-1.78914E-05-2.53797E-05-2.47179E-06 2.05597E-19-5.34762E-19
 -1      4169 7.75654E-05-1.77624E-05-2.55296E-05 1.07220E-07 3.98345E-20-1.60869E-18
 -1      4170 7.33018E-05-1.66980E-05-2.41401E-05 1.60251E-06-3.15338E-20 5.12951E-19
 -1      4171 9.59384E-05-2.52592E-05-3.02983E-05-3.94716E-07 4.61831E-20-1.46238E-18
 -1      4172 9.62394E-05-2.59184E-05-3.01235E-05-2.58819E-07 1.02106E-19-1.32818E-18
 -1      4173 9.59394E-05-2.52402E-05-3.03154E-05-2.36192E-07 1.66992E-19-1.31333E-18
 -1      4174 9.67427E-05-2.89504E-05-2.90554E-05-4.98736E-07 1.37971E-19-8.89242E-19
 -1      4175 9.66520E-05-2.88830E-05-2.90451E-05-5.96251E-07 1.66909E-19-6.39237E-19
 -1      4176 9.67016E-05-2.87126E-05-2.91346E-05-5.17177E-07 3.30929E-19-7.34150E-19
 -1      4177 9.69483E-05-2.85215E-05-2.93250E-05 1.88287E-07-1.12548E-20-9.30234E-19
 -1      4178 9.69436E-05-2.87760E-05-2.92151E-05 2.51162E-07-1.49314E-19-9.20439E-19
 -1      4179 9.69566E-05-2.83190E-05-2.94171E-05 9.15106E-08-2.98224E-21-6.95116E-19
 -1      4180 9.61850E-05-2.91361E-05-2.87341E-05-6.48800E-07 2.22409E-19-2.72232E-19
 -1      4181 9.62714E-05-2.91610E-05-2.87608E-05-6.57063E-07 2.44397E-19-8.82159E-20
 -1      4182 9.64271E-05-2.91988E-05-2.88139E-05-5.50198E-07-7.41386E-20-1.55851E-19
 -1      4183 9.62198E-05-2.91438E-05-2.87484E-05-5.36880E-07 1.53450E-19-2.59193E-19
 -1      4184 9.25644E-05-2.55300E-05-2.87330E-05-1.07944E-06-7.77833E-20-1.13597E-18
 -1      4185 9.29432E-05-2.58871E-05-2.87439E-05-9.60436E-07-5.84132E-20-8.14476E-19
 -1      4186 9.21886E-05-2.52016E-05-2.86934E-05-7.07126E-07-1.47934E-19-9.34960E-19
 -1      4187 9.69074E-05-2.89648E-05-2.91174E-05 2.56513E-07-3.01684E-19-8.78820E-19
 -1      4188 9.68499E-05-2.90984E-05-2.90356E-05 2.93388E-07-3.66443E-19-8.21197E-19
 -1      4189 9.69658E-05-2.88574E-05-2.91917E-05 1.33635E-07-1.62571E-19-8.61509E-19
 -1      4190 9.39249E-05-2.68393E-05-2.87525E-05-7.34035E-07-1.40587E-19-7.02849E-19
 -1      4191 9.41705E-05-2.71057E-05-2.87455E-05-6.53092E-07-2.04876E-19-6.96960E-19
 -1      4192 9.36883E-05-2.66040E-05-2.87419E-05-5.11089E-07-1.62264E-20-4.17854E-19
 -1      4193 9.64183E-05-2.63137E-05-3.00334E-05 1.06408E-07 3.13270E-19-1.22893E-18
 -1      4194 9.60768E-05-2.55146E-05-3.02465E-05 1.42241E-08 4.45692E-19-1.26608E-18
 -1      4195 9.48271E-05-2.78070E-05-2.87229E-05-5.14493E-07-1.33127E-19-5.32363E-20
 -1      4196 9.49958E-05-2.80014E-05-2.87135E-05-4.70423E-07 1.55486E-19-1.94123E-19
 -1      4197 9.46874E-05-2.76530E-05-2.87254E-05-3.68589E-07 1.03190E-19-5.69530E-19
 -1      4198 9.04775E-05-2.38327E-05-2.85701E-05-1.52111E-06-6.81401E-19-6.88118E-19
 -1      4199 9.10638E-05-2.42861E-05-2.86276E-05-1.37380E-06-3.01432E-19-8.29697E-19
 -1      4200 9.11687E-05-2.43553E-05-2.86145E-05-8.06563E-07-3.46863E-19-8.07132E-19
 -1      4201 8.99150E-05-2.34155E-05-2.84744E-05-8.88321E-07-7.32122E-19-6.94145E-19
 -1      4202 9.67696E-05-2.91861E-05-2.89634E-05 2.89390E-07-5.16273E-19-9.37121E-19
 -1      4203 9.66807E-05-2.92337E-05-2.89047E-05 3.06464E-07-6.74425E-19-1.04969E-18
 -1      4204 9.68514E-05-2.91452E-05-2.90206E-05 1.58215E-07-7.01138E-19-8.68311E-19
 -1      4205 9.65259E-05-2.68208E-05-2.98831E-05-7.25359E-08 4.67977E-21-1.24358E-18
 -1      4206 9.59961E-05-2.89915E-05-2.87156E-05-4.00991E-07 9.11284E-20 4.47729E-19
 -1      4207 9.61105E-05-2.90744E-05-2.87297E-05-4.03159E-07 8.11831E-20 1.11605E-19
 -1      4208 9.42360E-05-2.71685E-05-2.87373E-05-4.31162E-07-9.07602E-20-4.60006E-19
 -1      4209 9.66308E-05-2.70279E-05-2.98299E-05-3.74938E-08 6.21280E-20-1.12544E-18
 -1      4210 9.51717E-05-2.81870E-05-2.87074E-05-4.51537E-07 6.46180E-19-6.38165E-20
 -1      4211 9.53164E-05-2.83509E-05-2.87007E-05-4.23468E-07 7.77001E-19 2.98601E-19
 -1      4212 9.50688E-05-2.80727E-05-2.87125E-05-3.20929E-07 6.49574E-19-2.51738E-19
 -1      4213 9.55204E-05-2.85762E-05-2.86904E-05-5.26595E-07 3.41228E-19 4.37109E-19
 -1      4214 9.57436E-05-2.87764E-05-2.86992E-05-3.98436E-07 4.64045E-19 3.42820E-19
 -1      4215 9.58653E-05-2.88884E-05-2.87042E-05-3.94070E-07 4.47260E-19 4.85269E-19
 -1      4216 9.59647E-05-2.89527E-05-2.87204E-05-2.81408E-07 2.41938E-19 3.49729E-19
 -1      4217 9.60546E-05-2.54800E-05-3.02495E-05-1.27232E-07 2.50356E-19-1.27078E-18
 -1      4218 9.66675E-05-2.92517E-05-2.88962E-05 1.66185E-07-6.58350E-19-9.07760E-19
 -1      4219 9.68143E-05-2.90444E-05-2.90451E-05-4.03308E-07-1.90792E-19-7.01569E-19
 -1      4220 9.68763E-05-2.89023E-05-2.91297E-05-3.53541E-07 1.45234E-19-8.35162E-19
 -1      4221 7.39855E-05-1.79848E-05-2.40765E-05 5.69627E-06-3.12337E-19 1.38343E-19
 -1      4222 9.66470E-05-2.70130E-05-2.98480E-05-8.84190E-09 2.36823E-19-1.28497E-18
 -1      4223 9.67373E-05-2.84769E-05-2.92573E-05-4.22962E-07 3.26443E-19-7.62544E-19
 -1      4224 9.67389E-05-2.81811E-05-2.93800E-05-2.73829E-07 2.44017E-19-7.45564E-19
 -1      4225 9.68372E-05-2.79342E-05-2.95306E-05-1.27392E-07 1.32078E-19-1.18555E-18
 -1      4226 9.68402E-05-2.85730E-05-2.92610E-05-3.51927E-07 3.83849E-19-1.00673E-18
 -1      4227 9.30164E-05-2.59505E-05-2.87309E-05-6.05180E-07 1.73930E-19-3.81626E-19
 -1      4228 9.66596E-05-2.92040E-05-2.89091E-05-4.26636E-07-3.52870E-19-4.71369E-19
 -1      4229 9.67443E-05-2.91438E-05-2.89696E-05-4.05463E-07-3.19407E-19-6.21850E-19
 -1      4230 9.68451E-05-2.90985E-05-2.90379E-05-2.80913E-07-2.75017E-19-5.77310E-19
 -1      4231 9.41449E-05-2.71116E-05-2.87338E-05-7.87061E-08-5.27809E-20-8.26655E-20
 -1      4232 9.43966E-05-2.73673E-05-2.87297E-05-5.48544E-08 1.02702E-19-1.92714E-19
 -1      4233 9.62753E-05-2.91513E-05-2.87664E-05 3.29679E-08-2.54715E-20-7.48971E-19
 -1      4234 9.61453E-05-2.90736E-05-2.87440E-05 3.21466E-08 2.21101E-19-5.76877E-19
 -1      4235 9.59600E-05-2.89383E-05-2.87232E-05-6.11921E-08 1.70833E-19-3.58416E-19
 -1      4236 9.58211E-05-2.88216E-05-2.87133E-05-5.71752E-08 4.00082E-19-3.07045E-19
 -1      4237 9.54152E-05-2.84352E-05-2.87063E-05 3.40935E-08 5.06379E-19-2.83752E-19
 -1      4238 9.52508E-05-2.82667E-05-2.87082E-05 4.66196E-08 6.11898E-19-2.32013E-19
 -1      4239 9.50219E-05-2.80265E-05-2.87136E-05-6.94567E-08 5.05090E-19-4.18512E-19
 -1      4240 9.48308E-05-2.78240E-05-2.87188E-05-5.61741E-08 1.25145E-19-1.79718E-19
 -1      4241 9.46209E-05-2.76043E-05-2.87248E-05-7.51850E-08-2.78227E-20-2.80493E-19
 -1      4242 9.38772E-05-2.68371E-05-2.87357E-05-4.84423E-08 6.83981E-20-1.12301E-19
 -1      4243 9.35703E-05-2.65408E-05-2.87343E-05-7.55406E-08-1.49469E-20-2.37192E-19
 -1      4244 9.32470E-05-2.62254E-05-2.87292E-05-3.15255E-08-1.09998E-19-3.14777E-19
 -1      4245 9.28697E-05-2.58851E-05-2.87177E-05-5.86391E-08-7.30915E-20-4.69865E-20
 -1      4246 9.24779E-05-2.55274E-05-2.87006E-05 4.78823E-09 2.48422E-19-1.27215E-19
 -1      4247 9.20132E-05-2.51414E-05-2.86725E-05-1.70898E-08 5.52599E-20 9.18512E-20
 -1      4248 9.15397E-05-2.47429E-05-2.86367E-05 7.39900E-08-8.53913E-20-2.04191E-19
 -1      4249 9.09678E-05-2.43123E-05-2.85838E-05 6.52231E-08-2.07690E-19-4.01718E-19
 -1      4250 9.03987E-05-2.38785E-05-2.85206E-05 1.95931E-07-3.89966E-19-6.00143E-19
 -1      4251 8.96967E-05-2.34084E-05-2.84314E-05 2.11334E-07-6.60355E-19-6.27340E-19
 -1      4252 8.90172E-05-2.29500E-05-2.83294E-05 3.99058E-07-5.46269E-19-1.05722E-18
 -1      4253 8.81559E-05-2.24491E-05-2.81889E-05 4.53359E-07-1.72918E-20-9.59804E-19
 -1      4254 8.73489E-05-2.19822E-05-2.80330E-05 7.23335E-07 1.73482E-19-1.46663E-18
 -1      4255 8.62881E-05-2.14626E-05-2.78204E-05 8.35560E-07 4.33720E-19-1.27590E-18
 -1      4256 8.53319E-05-2.10083E-05-2.75909E-05 1.22439E-06 3.74217E-19-1.31095E-18
 -1      4257 8.40109E-05-2.04816E-05-2.72773E-05 1.42021E-06 2.79759E-19-1.20915E-18
 -1      4258 8.28778E-05-2.00666E-05-2.69477E-05 1.98130E-06 4.61502E-19-1.28773E-18
 -1      4259 8.11933E-05-1.95278E-05-2.64906E-05 2.30625E-06 2.79095E-19-1.65134E-18
 -1      4260 7.98584E-05-1.91933E-05-2.60220E-05 3.10724E-06-3.63406E-19-1.31513E-18
 -1      4261 7.80068E-05-1.87947E-05-2.54596E-05 3.89780E-06-7.18966E-19-5.40199E-19
 -1      4262 7.63030E-05-1.83655E-05-2.48512E-05 4.51059E-06-9.15583E-19-1.39532E-19
 -1      4263 9.62164E-05-2.91241E-05-2.87551E-05-2.84993E-07-3.93567E-20-2.86083E-19
 -1      4264 9.62356E-05-2.91449E-05-2.87519E-05-4.11056E-07 9.30773E-20-7.34784E-20
 -1      4265 9.63459E-05-2.91948E-05-2.87780E-05-4.12542E-07-4.14764E-20-1.98391E-19
 -1      4266 9.68856E-05-2.91348E-05-2.90344E-05-6.39389E-08-4.94900E-19-6.45803E-19
 -1      4267 9.68032E-05-2.92167E-05-2.89624E-05-5.43062E-08-7.21439E-19-5.70423E-19
 -1      4268 9.69601E-05-2.81632E-05-2.94852E-05-3.67464E-09 7.40678E-20-9.25056E-19
 -1      4269 9.70126E-05-2.85124E-05-2.93559E-05 3.45757E-08-4.61444E-20-1.01244E-18
 -1      4270 9.69854E-05-2.88312E-05-2.92083E-05-6.40637E-08-1.57969E-19-9.68733E-19
 -1      4271 9.69507E-05-2.90135E-05-2.91129E-05-4.32068E-08-3.86479E-19-8.62958E-19
 -1      4272 9.54724E-05-2.85086E-05-2.86980E-05-4.13672E-07 5.04393E-19 9.98210E-20
 -1      4273 9.56021E-05-2.86463E-05-2.86960E-05-3.99887E-07 3.66218E-19 1.18870E-19
 -1      4274 9.53971E-05-2.84190E-05-2.87045E-05-2.94032E-07 6.67723E-19-4.26440E-19
 -1      4275 9.64806E-05-2.92385E-05-2.88165E-05-6.28047E-08-3.40726E-19-5.27368E-19
 -1      4276 9.63547E-05-2.91926E-05-2.87822E-05-5.98000E-08-1.86356E-19-5.31846E-19
 -1      4277 9.69663E-05-2.86889E-05-2.92632E-05-1.48881E-07-1.53376E-19-8.44960E-19
 -1      4278 9.69216E-05-2.85950E-05-2.92840E-05-2.47419E-07 2.06857E-19-1.19979E-18
 -1      4279 9.64604E-05-2.92254E-05-2.88141E-05-4.24826E-07-3.28396E-19-3.03233E-19
 -1      4280 9.65615E-05-2.92286E-05-2.88554E-05-4.19250E-07-4.33757E-19-4.63077E-19
 -1      4281 9.66728E-05-2.92328E-05-2.89071E-05-2.97989E-07-4.57059E-19-3.19756E-19
 -1      4282 9.64597E-05-2.92311E-05-2.88159E-05-2.97441E-07-3.70876E-19-3.95075E-19
 -1      4283 9.57233E-05-2.87321E-05-2.87106E-05 3.18904E-08 4.29400E-19-5.55959E-19
 -1      4284 9.55741E-05-2.85914E-05-2.87068E-05 3.67920E-08 3.98344E-19-1.77090E-19
 -1      4285 9.56906E-05-2.87119E-05-2.87055E-05-2.81084E-07 4.29995E-19-1.38509E-19
 -1      4286 9.51141E-05-2.81170E-05-2.87121E-05-2.16375E-07 6.03873E-19-5.30686E-19
 -1      4287 9.67058E-05-2.92532E-05-2.89061E-05-6.34844E-08-7.92044E-19-2.16830E-19
 -1      4288 9.54925E-05-2.85089E-05-2.87072E-05-1.01422E-07 5.67634E-19-1.34005E-19
 -1      4289 9.65960E-05-2.92616E-05-2.88549E-05-5.83789E-08-5.42034E-19-6.01971E-19
 -1      4290 9.68444E-05-2.76342E-05-2.96577E-05 9.46777E-09 2.75703E-19-1.44062E-18
 -1      4291 9.66828E-05-2.71257E-05-2.98178E-05-7.68321E-09 3.24482E-19-1.10058E-18
 -1      4292 9.60195E-05-2.89848E-05-2.87300E-05-1.89946E-07 2.11979E-19-1.02546E-19
 -1      4293 9.57433E-05-2.87564E-05-2.87096E-05-1.90613E-07 4.81171E-19 1.92339E-20
 -1      4294 9.56009E-05-2.86202E-05-2.87053E-05-1.93403E-07 5.48774E-19-2.77887E-19
 -1      4295 9.61487E-05-2.90801E-05-2.87431E-05-1.93176E-07 1.14813E-19-2.64215E-19
 -1      4296 9.62805E-05-2.91602E-05-2.87674E-05-1.97257E-07-7.92737E-20-3.20282E-19
 -1      4297 9.69014E-05-2.80337E-05-2.95150E-05-9.93807E-08 1.93063E-19-1.42282E-18
 -1      4298 9.63773E-05-2.61535E-05-3.00782E-05-7.34355E-08 2.11891E-19-1.26733E-18
 -1      4299 9.69103E-05-2.78490E-05-2.95877E-05 3.93676E-08 3.94815E-19-8.67093E-19
 -1      4300 9.69289E-05-2.80374E-05-2.95258E-05-2.53922E-08 6.68103E-20-1.36444E-18
 -1      4301 9.67247E-05-2.72834E-05-2.97709E-05 4.96221E-09 1.85253E-19-9.87639E-19
 -1      4302 9.69552E-05-2.83290E-05-2.94064E-05-1.30094E-07 9.70835E-20-1.32309E-18
 -1      4303 9.54445E-05-2.84687E-05-2.87049E-05-1.95377E-07 4.99299E-19-4.67374E-19
 -1      4304 9.52896E-05-2.83044E-05-2.87070E-05-2.03613E-07 8.21496E-19-5.37816E-19
 -3
    1PSTEP                         4           1           1          
  100CL  101 1.000000000        4304                     0    1           1
 -4  ERROR       1    1
 -5  STR(%)      1    1    0    0
 -1         1 4.82376E+01
 -1         2 2.42017E+01
 -1         3 1.51077E-01
 -1         4 1.09624E-01
 -1         5 1.40405E+01
 -1         6 1.31447E+01
 -1         7 1.31447E+01
 -1         8 3.66353E+00
 -1         9 1.82328E+00
 -1        10 1.29175E+00
 -1        11 1.04558E+00
 -1        12 8.99160E-01
 -1        13 8.08917E-01
 -1        14 7.54235E-01
 -1        15 7.56151E-01
 -1        16 8.13200E-01
 -1        17 9.00743E-01
 -1        18 1.05235E+00
 -1        19 1.30739E+00
 -1        20 1.83527E+00
 -1        21 3.50538E+00
 -1        22 8.64235E+00
 -1        23 1.31447E+01
 -1        24 4.31883E+00
 -1        25 3.34211E+00
 -1        26 2.11284E+00
 -1        27 1.36476E+00
 -1        28 1.01551E+00
 -1        29 7.76949E-01
 -1        30 5.97826E-01
 -1        31 4.58667E-01
 -1        32 3.52044E-01
 -1        33 2.74735E-01
 -1        34 2.13319E-01
 -1        35 1.65793E-01
 -1        36 1.30221E-01
 -1        37 1.04813E-01
 -1        38 8.79361E-02
 -1        39 8.06842E-02
 -1        40 8.73530E-02
 -1        41 1.05606E-01
 -1        42 1.34749E-01
 -1        43 1.73162E-01
 -1        44 2.20646E-01
 -1        45 2.75841E-01
 -1        46 3.35500E-01
 -1        47 3.93590E-01
 -1        48 4.76455E-01
 -1        49 5.99781E-01
 -1        50 7.53468E-01
 -1        51 8.96265E-01
 -1        52 9.77653E-01
 -1        53 9.77653E-01
 -1        54 1.05230E+00
 -1        55 1.05230E+00
 -1        56 1.38825E+00
 -1        57 1.96616E+00
 -1        58 2.95871E+00
 -1        59 3.38459E+00
 -1        60 3.38459E+00
 -1        61 3.28175E+00
 -1        62 3.07274E+00
 -1        63 2.20733E+00
 -1        64 1.25705E+00
 -1        65 8.68713E-01
 -1        66 6.77804E-01
 -1        67 6.77804E-01
 -1        68 6.22848E-01
 -1        69 6.22848E-01
 -1        70 5.75962E-01
 -1        71 4.84141E-01
 -1        72 1.40405E+01
 -1        73 3.39535E+00
 -1        74 2.41405E+00
 -1        75 1.66704E+00
 -1        76 1.14617E+00
 -1        77 9.06481E-01
 -1        78 7.32188E-01
 -1        79 5.89356E-01
 -1        80 4.70743E-01
 -1        81 3.72606E-01
 -1        82 2.99345E-01
 -1        83 2.39669E-01
 -1        84 1.91506E-01
 -1        85 1.54247E-01
 -1        86 1.27109E-01
 -1        87 1.09302E-01
 -1        88 1.06065E-01
 -1        89 1.19575E-01
 -1        90 1.41396E-01
 -1        91 1.71128E-01
 -1        92 2.08053E-01
 -1        93 2.50741E-01
 -1        94 3.23850E-01
 -1        95 4.15825E-01
 -1        96 5.21870E-01
 -1        97 6.35880E-01
 -1        98 7.44984E-01
 -1        99 8.26317E-01
 -1       100 8.51453E-01
 -1       101 1.13641E+00
 -1       102 1.43320E+00
 -1       103 1.59554E+00
 -1       104 1.95004E+00
 -1       105 2.06759E+00
 -1       106 2.42133E+00
 -1       107 3.14877E+00
 -1       108 4.57026E+00
 -1       109 5.05711E+00
 -1       110 5.05711E+00
 -1       111 4.85039E+00
 -1       112 3.00353E+00
 -1       113 1.67725E+00
 -1       114 1.62860E+00
 -1       115 1.83802E+00
 -1       116 1.83802E+00
 -1       117 1.63349E+00
 -1       118 1.24114E+00
 -1       119 1.11316E+00
 -1       120 6.43344E-01
 -1       121 3.25111E-01
 -1       122 3.25111E-01
 -1       123 2.44408E-01
 -1       124 1.24293E-01
 -1       125 1.69415E-01
 -1       126 2.77767E-01
 -1       127 3.20732E-01
 -1       128 3.20732E-01
 -1       129 2.90813E-01
 -1       130 1.96643E-01
 -1       131 7.77320E-02
 -1       132 1.18937E-01
 -1       133 1.60381E-01
 -1       134 1.77811E-01
 -1       135 2.62712E-01
 -1       136 2.79282E-01
 -1       137 2.42892E+01
 -1       138 4.90423E+01
 -1       139 4.90423E+01
 -1       140 2.24108E+01
 -1       141 1.20012E+01
 -1       142 1.28593E+01
 -1       143 1.28593E+01
 -1       144 1.24794E+01
 -1       145 1.24794E+01
 -1       146 1.20474E+01
 -1       147 2.36480E+01
 -1       148 4.86075E+01
 -1       149 4.86075E+01
 -1       150 2.43907E+01
 -1       151 2.35086E+01
 -1       152 2.41804E+01
 -1       153 4.82376E+01
 -1       154 2.16089E+01
 -1       155 1.18564E+01
 -1       156 1.19226E+01
 -1       157 1.19226E+01
 -1       158 1.23338E+01
 -1       159 1.23338E+01
 -1       160 1.20674E+01
 -1       161 2.19652E+01
 -1       162 4.89517E+01
 -1       163 4.89517E+01
 -1       164 2.46190E+01
 -1       165 6.07795E+00
 -1       166 2.29766E+00
 -1       167 1.50812E+00
 -1       168 1.15732E+00
 -1       169 9.72994E-01
 -1       170 8.64137E-01
 -1       171 7.96274E-01
 -1       172 7.56151E-01
 -1       173 7.99642E-01
 -1       174 8.67269E-01
 -1       175 9.80867E-01
 -1       176 1.17219E+00
 -1       177 1.52714E+00
 -1       178 2.26040E+00
 -1       179 3.93117E+00
 -1       180 1.40405E+01
 -1       181 4.31883E+00
 -1       182 3.34211E+00
 -1       183 2.11284E+00
 -1       184 1.44901E+00
 -1       185 1.02778E+00
 -1       186 7.76949E-01
 -1       187 5.97826E-01
 -1       188 4.71143E-01
 -1       189 3.72210E-01
 -1       190 2.94548E-01
 -1       191 2.39025E-01
 -1       192 1.92286E-01
 -1       193 1.54121E-01
 -1       194 1.23817E-01
 -1       195 1.00382E-01
 -1       196 8.26657E-02
 -1       197 8.06842E-02
 -1       198 8.96953E-02
 -1       199 1.11262E-01
 -1       200 1.39827E-01
 -1       201 1.75286E-01
 -1       202 2.20646E-01
 -1       203 2.75841E-01
 -1       204 3.56005E-01
 -1       205 4.47517E-01
 -1       206 5.37142E-01
 -1       207 6.27230E-01
 -1       208 7.53468E-01
 -1       209 8.96265E-01
 -1       210 9.77653E-01
 -1       211 9.45616E-01
 -1       212 1.05230E+00
 -1       213 9.88750E-01
 -1       214 1.38825E+00
 -1       215 1.98641E+00
 -1       216 2.95871E+00
 -1       217 3.38459E+00
 -1       218 3.28175E+00
 -1       219 3.07274E+00
 -1       220 2.20733E+00
 -1       221 1.46909E+00
 -1       222 9.30930E-01
 -1       223 6.72114E-01
 -1       224 6.77804E-01
 -1       225 6.19152E-01
 -1       226 6.22848E-01
 -1       227 5.75962E-01
 -1       228 4.84141E-01
 -1       229 3.39535E+00
 -1       230 2.41405E+00
 -1       231 1.66704E+00
 -1       232 1.14617E+00
 -1       233 9.06481E-01
 -1       234 7.32188E-01
 -1       235 5.89356E-01
 -1       236 4.70743E-01
 -1       237 3.72606E-01
 -1       238 2.99345E-01
 -1       239 2.39669E-01
 -1       240 1.93154E-01
 -1       241 1.57012E-01
 -1       242 1.29389E-01
 -1       243 1.09731E-01
 -1       244 1.01201E-01
 -1       245 1.06910E-01
 -1       246 1.20719E-01
 -1       247 1.41396E-01
 -1       248 1.72505E-01
 -1       249 2.23780E-01
 -1       250 2.87369E-01
 -1       251 3.63007E-01
 -1       252 4.48846E-01
 -1       253 5.40959E-01
 -1       254 6.35880E-01
 -1       255 7.44984E-01
 -1       256 8.26317E-01
 -1       257 9.93942E-01
 -1       258 1.17715E+00
 -1       259 1.43320E+00
 -1       260 1.59554E+00
 -1       261 1.95004E+00
 -1       262 2.06759E+00
 -1       263 2.42133E+00
 -1       264 3.14877E+00
 -1       265 4.57026E+00
 -1       266 5.05711E+00
 -1       267 4.85039E+00
 -1       268 3.00353E+00
 -1       269 1.67725E+00
 -1       270 1.31882E+00
 -1       271 1.62860E+00
 -1       272 1.83802E+00
 -1       273 1.63349E+00
 -1       274 1.24114E+00
 -1       275 1.11316E+00
 -1       276 6.92627E-01
 -1       277 3.94616E-01
 -1       278 3.94616E-01
 -1       279 3.84194E-01
 -1       280 2.60718E-01
 -1       281 4.77405E-01
 -1       282 6.05875E-01
 -1       283 6.12246E-01
 -1       284 6.12246E-01
 -1       285 5.13400E-01
 -1       286 3.20738E-01
 -1       287 2.08218E-01
 -1       288 2.84473E-01
 -1       289 3.09845E-01
 -1       290 3.09845E-01
 -1       291 3.28100E-01
 -1       292 2.82297E+01
 -1       293 3.12429E+01
 -1       294 4.90423E+01
 -1       295 2.45003E+01
 -1       296 1.14792E+01
 -1       297 1.20012E+01
 -1       298 1.28593E+01
 -1       299 1.16397E+01
 -1       300 1.24794E+01
 -1       301 1.17751E+01
 -1       302 1.20474E+01
 -1       303 2.48746E+01
 -1       304 4.86075E+01
 -1       305 3.12299E+01
 -1       306 2.81496E+01
 -1       307 2.81496E+01
 -1       308 3.04089E+01
 -1       309 4.82376E+01
 -1       310 2.35512E+01
 -1       311 1.13923E+01
 -1       312 1.18564E+01
 -1       313 1.19226E+01
 -1       314 1.13656E+01
 -1       315 1.23338E+01
 -1       316 1.20674E+01
 -1       317 1.14766E+01
 -1       318 2.40214E+01
 -1       319 4.89517E+01
 -1       320 3.01210E+01
 -1       321 2.82297E+01
 -1       322 1.04585E+00
 -1       323 2.47977E+00
 -1       324 7.91014E-01
 -1       325 6.93880E-01
 -1       326 6.31728E-01
 -1       327 5.87745E-01
 -1       328 5.90941E-01
 -1       329 6.34520E-01
 -1       330 7.01119E-01
 -1       331 7.96177E-01
 -1       332 9.31481E-01
 -1       333 1.15956E+00
 -1       334 1.32863E+00
 -1       335 2.20137E+00
 -1       336 1.91502E+00
 -1       337 1.73043E+00
 -1       338 1.26922E+00
 -1       339 9.08867E-01
 -1       340 6.58509E-01
 -1       341 5.40694E-01
 -1       342 4.44302E-01
 -1       343 3.59736E-01
 -1       344 2.94657E-01
 -1       345 2.40459E-01
 -1       346 1.94194E-01
 -1       347 1.57273E-01
 -1       348 1.28257E-01
 -1       349 1.03564E-01
 -1       350 8.26905E-02
 -1       351 7.25355E-02
 -1       352 7.47743E-02
 -1       353 8.96953E-02
 -1       354 1.11262E-01
 -1       355 1.39827E-01
 -1       356 1.90220E-01
 -1       357 2.54678E-01
 -1       358 3.28727E-01
 -1       359 4.08839E-01
 -1       360 4.87878E-01
 -1       361 5.53987E-01
 -1       362 6.23231E-01
 -1       363 7.01296E-01
 -1       364 7.31033E-01
 -1       365 6.65699E-01
 -1       366 5.44182E-01
 -1       367 4.88467E-01
 -1       368 9.10505E-01
 -1       369 1.41298E+00
 -1       370 1.83471E+00
 -1       371 2.15356E+00
 -1       372 2.09329E+00
 -1       373 2.11320E+00
 -1       374 1.92056E+00
 -1       375 1.54322E+00
 -1       376 1.14044E+00
 -1       377 8.63342E-01
 -1       378 5.97415E-01
 -1       379 5.61417E-01
 -1       380 5.11563E-01
 -1       381 4.50034E-01
 -1       382 4.51946E-01
 -1       383 1.13135E+00
 -1       384 8.92852E-01
 -1       385 7.05697E-01
 -1       386 5.47339E-01
 -1       387 4.40016E-01
 -1       388 3.74216E-01
 -1       389 3.11340E-01
 -1       390 2.56214E-01
 -1       391 2.11794E-01
 -1       392 1.73068E-01
 -1       393 1.42044E-01
 -1       394 1.18432E-01
 -1       395 1.01069E-01
 -1       396 8.96552E-02
 -1       397 8.92750E-02
 -1       398 9.50960E-02
 -1       399 1.13748E-01
 -1       400 1.45322E-01
 -1       401 1.90527E-01
 -1       402 2.72005E-01
 -1       403 3.76559E-01
 -1       404 5.06701E-01
 -1       405 6.62100E-01
 -1       406 8.36863E-01
 -1       407 1.01570E+00
 -1       408 1.16946E+00
 -1       409 1.30635E+00
 -1       410 1.35351E+00
 -1       411 1.35351E+00
 -1       412 1.20353E+00
 -1       413 1.04641E+00
 -1       414 1.32298E+00
 -1       415 2.21372E+00
 -1       416 2.58806E+00
 -1       417 3.01263E+00
 -1       418 2.97673E+00
 -1       419 2.82203E+00
 -1       420 2.09789E+00
 -1       421 1.27968E+00
 -1       422 1.08274E+00
 -1       423 1.08836E+00
 -1       424 1.21935E+00
 -1       425 1.18753E+00
 -1       426 1.02409E+00
 -1       427 9.20011E-01
 -1       428 6.92627E-01
 -1       429 4.38326E-01
 -1       430 7.07478E-01
 -1       431 7.07478E-01
 -1       432 6.12456E-01
 -1       433 8.66572E-01
 -1       434 8.89417E-01
 -1       435 8.89417E-01
 -1       436 8.82154E-01
 -1       437 6.55233E-01
 -1       438 3.92932E-01
 -1       439 3.79194E-01
 -1       440 3.91778E-01
 -1       441 4.51946E-01
 -1       442 3.12429E+01
 -1       443 3.19275E+01
 -1       444 2.97741E+01
 -1       445 1.78729E+01
 -1       446 1.01269E+01
 -1       447 9.19497E-01
 -1       448 9.23600E+00
 -1       449 1.12845E+01
 -1       450 1.09929E+01
 -1       451 9.46605E+00
 -1       452 6.99563E+00
 -1       453 1.05453E+01
 -1       454 1.77101E+01
 -1       455 3.12299E+01
 -1       456 3.21851E+01
 -1       457 3.21851E+01
 -1       458 3.01263E+01
 -1       459 3.04089E+01
 -1       460 1.74960E+01
 -1       461 1.00801E+01
 -1       462 6.66269E+00
 -1       463 9.59896E+00
 -1       464 1.13656E+01
 -1       465 1.12661E+01
 -1       466 9.59226E+00
 -1       467 6.88429E+00
 -1       468 1.00325E+01
 -1       469 1.75816E+01
 -1       470 3.01210E+01
 -1       471 3.19275E+01
 -1       472 7.16564E+00
 -1       473 1.04911E+00
 -1       474 4.86041E-01
 -1       475 5.09577E-01
 -1       476 4.31706E-01
 -1       477 4.57523E-01
 -1       478 4.87041E-01
 -1       479 5.11033E-01
 -1       480 5.11033E-01
 -1       481 6.07996E-01
 -1       482 8.92852E-01
 -1       483 8.03872E-01
 -1       484 5.39751E+00
 -1       485 7.06438E-01
 -1       486 5.90891E-01
 -1       487 4.78809E-01
 -1       488 3.80478E-01
 -1       489 3.26061E-01
 -1       490 2.76821E-01
 -1       491 2.30416E-01
 -1       492 1.91045E-01
 -1       493 1.57681E-01
 -1       494 1.28356E-01
 -1       495 1.03564E-01
 -1       496 8.26905E-02
 -1       497 6.70462E-02
 -1       498 5.80594E-02
 -1       499 6.77926E-02
 -1       500 8.18360E-02
 -1       501 1.18751E-01
 -1       502 1.66868E-01
 -1       503 2.24399E-01
 -1       504 2.91354E-01
 -1       505 3.66166E-01
 -1       506 4.44877E-01
 -1       507 5.20193E-01
 -1       508 5.85492E-01
 -1       509 6.43040E-01
 -1       510 7.12855E-01
 -1       511 7.48791E-01
 -1       512 7.18729E-01
 -1       513 8.96503E-01
 -1       514 9.64621E-01
 -1       515 1.26989E+00
 -1       516 1.45922E+00
 -1       517 1.81635E+00
 -1       518 2.00225E+00
 -1       519 2.03308E+00
 -1       520 2.05506E+00
 -1       521 1.57986E+00
 -1       522 1.47550E+00
 -1       523 1.22356E+00
 -1       524 9.48243E-01
 -1       525 8.00007E-01
 -1       526 6.33165E-01
 -1       527 5.11563E-01
 -1       528 5.47339E-01
 -1       529 4.40016E-01
 -1       530 3.74216E-01
 -1       531 3.11340E-01
 -1       532 2.56214E-01
 -1       533 2.12020E-01
 -1       534 1.73657E-01
 -1       535 1.40949E-01
 -1       536 1.13748E-01
 -1       537 9.20642E-02
 -1       538 7.57030E-02
 -1       539 6.57439E-02
 -1       540 7.33591E-02
 -1       541 9.00870E-02
 -1       542 1.19723E-01
 -1       543 1.75864E-01
 -1       544 2.47953E-01
 -1       545 3.39350E-01
 -1       546 4.52900E-01
 -1       547 5.89970E-01
 -1       548 7.48827E-01
 -1       549 9.22171E-01
 -1       550 1.09387E+00
 -1       551 1.23557E+00
 -1       552 1.34918E+00
 -1       553 1.54876E+00
 -1       554 1.70572E+00
 -1       555 1.71020E+00
 -1       556 2.16384E+00
 -1       557 2.35224E+00
 -1       558 2.58806E+00
 -1       559 3.65368E+00
 -1       560 3.96140E+00
 -1       561 2.97673E+00
 -1       562 2.24946E+00
 -1       563 2.11651E+00
 -1       564 1.91860E+00
 -1       565 1.44948E+00
 -1       566 1.22301E+00
 -1       567 1.19322E+00
 -1       568 1.02606E+00
 -1       569 7.52166E-01
 -1       570 1.10251E+00
 -1       571 1.31262E+00
 -1       572 9.41418E-01
 -1       573 1.08809E+00
 -1       574 1.31262E+00
 -1       575 1.29512E+00
 -1       576 1.13441E+00
 -1       577 7.13906E-01
 -1       578 6.42126E-01
 -1       579 5.58153E-01
 -1       580 4.20534E-01
 -1       581 2.97741E+01
 -1       582 1.36922E+01
 -1       583 7.05697E-01
 -1       584 3.19275E+01
 -1       585 2.17671E+01
 -1       586 8.74347E-01
 -1       587 8.72608E+00
 -1       588 4.57487E-01
 -1       589 6.71271E+00
 -1       590 4.80303E+00
 -1       591 8.13064E+00
 -1       592 7.21260E+00
 -1       593 6.86151E+00
 -1       594 9.96085E+00
 -1       595 1.48972E+01
 -1       596 2.19633E+01
 -1       597 3.21851E+01
 -1       598 3.01263E+01
 -1       599 2.14444E+01
 -1       600 1.37858E+01
 -1       601 9.92462E+00
 -1       602 5.30536E+00
 -1       603 4.98095E+00
 -1       604 6.83199E+00
 -1       605 8.04253E+00
 -1       606 6.90858E+00
 -1       607 4.80682E+00
 -1       608 5.16242E+00
 -1       609 1.25748E+01
 -1       610 2.20399E+01
 -1       611 4.56057E+00
 -1       612 1.32860E+00
 -1       613 9.94164E+00
 -1       614 7.24903E-01
 -1       615 1.77245E+01
 -1       616 4.51946E-01
 -1       617 3.58575E-01
 -1       618 3.43031E-01
 -1       619 3.61748E-01
 -1       620 3.37648E-01
 -1       621 5.44328E-01
 -1       622 8.47809E+00
 -1       623 3.99645E-01
 -1       624 3.85435E-01
 -1       625 3.45234E-01
 -1       626 2.95852E-01
 -1       627 2.46313E-01
 -1       628 2.14661E-01
 -1       629 1.81948E-01
 -1       630 1.50373E-01
 -1       631 1.23920E-01
 -1       632 1.00623E-01
 -1       633 8.01586E-02
 -1       634 6.19326E-02
 -1       635 4.50357E-02
 -1       636 4.40592E-02
 -1       637 5.81479E-02
 -1       638 9.24100E-02
 -1       639 1.33694E-01
 -1       640 1.83451E-01
 -1       641 2.42829E-01
 -1       642 3.12373E-01
 -1       643 3.91582E-01
 -1       644 4.78269E-01
 -1       645 5.67766E-01
 -1       646 6.51152E-01
 -1       647 7.49882E-01
 -1       648 8.90014E-01
 -1       649 1.01551E+00
 -1       650 1.08861E+00
 -1       651 1.44181E+00
 -1       652 1.60194E+00
 -1       653 1.78043E+00
 -1       654 1.81635E+00
 -1       655 2.92479E+00
 -1       656 2.46051E+00
 -1       657 5.16876E+00
 -1       658 3.42403E+00
 -1       659 2.00115E+00
 -1       660 1.57419E+00
 -1       661 1.48279E+00
 -1       662 1.12189E+00
 -1       663 8.00007E-01
 -1       664 6.33165E-01
 -1       665 3.30279E-01
 -1       666 1.64048E+00
 -1       667 3.98561E-01
 -1       668 2.37358E-01
 -1       669 2.00903E-01
 -1       670 1.67205E-01
 -1       671 1.37519E-01
 -1       672 1.12305E-01
 -1       673 9.06056E-02
 -1       674 7.25195E-02
 -1       675 5.67839E-02
 -1       676 5.30183E-02
 -1       677 6.33895E-02
 -1       678 9.63693E-02
 -1       679 1.43607E-01
 -1       680 2.03207E-01
 -1       681 2.78261E-01
 -1       682 3.72018E-01
 -1       683 4.87677E-01
 -1       684 6.28011E-01
 -1       685 7.94712E-01
 -1       686 9.87257E-01
 -1       687 1.20088E+00
 -1       688 1.42188E+00
 -1       689 1.62068E+00
 -1       690 2.03108E+00
 -1       691 2.57473E+00
 -1       692 2.82924E+00
 -1       693 4.11144E+00
 -1       694 3.79458E+00
 -1       695 6.28632E+00
 -1       696 6.06023E+00
 -1       697 2.93083E+00
 -1       698 2.21403E+00
 -1       699 3.36367E+00
 -1       700 2.43953E+00
 -1       701 1.99841E+00
 -1       702 1.81667E+00
 -1       703 2.17994E+00
 -1       704 8.72485E+00
 -1       705 1.80595E+00
 -1       706 1.64789E+01
 -1       707 1.75313E+00
 -1       708 1.80595E+00
 -1       709 1.80554E+00
 -1       710 1.22978E+00
 -1       711 1.10265E+00
 -1       712 8.17313E-01
 -1       713 1.13512E+01
 -1       714 1.64454E+01
 -1       715 4.65225E+00
 -1       716 1.37068E+01
 -1       717 4.63904E-01
 -1       718 1.23642E+01
 -1       719 5.31343E+00
 -1       720 4.65890E-01
 -1       721 2.75488E-01
 -1       722 5.86800E+00
 -1       723 3.61748E-01
 -1       724 3.65429E-01
 -1       725 5.16785E-01
 -1       726 4.05706E+00
 -1       727 5.58153E-01
 -1       728 4.31495E+00
 -1       729 9.84675E+00
 -1       730 5.48886E+00
 -1       731 1.44236E+01
 -1       732 1.69228E+01
 -1       733 1.07635E+01
 -1       734 7.80414E+00
 -1       735 5.60101E+00
 -1       736 3.55819E+00
 -1       737 3.66754E+00
 -1       738 1.11689E+01
 -1       739 5.24130E+00
 -1       740 5.16876E+00
 -1       741 2.83524E+00
 -1       742 3.67848E+00
 -1       743 4.63904E-01
 -1       744 3.42883E-01
 -1       745 1.37068E+01
 -1       746 1.64048E+00
 -1       747 5.06928E+00
 -1       748 1.11838E+01
 -1       749 5.71214E-01
 -1       750 3.57814E-01
 -1       751 3.21684E+00
 -1       752 2.41588E-01
 -1       753 9.71658E+00
 -1       754 2.57656E-01
 -1       755 2.50349E-01
 -1       756 2.28450E-01
 -1       757 1.99950E-01
 -1       758 1.73017E-01
 -1       759 1.51352E-01
 -1       760 1.28152E-01
 -1       761 1.05142E-01
 -1       762 8.30878E-02
 -1       763 6.20767E-02
 -1       764 4.17041E-02
 -1       765 3.07730E-02
 -1       766 3.82306E-02
 -1       767 6.58282E-02
 -1       768 1.00652E-01
 -1       769 1.43875E-01
 -1       770 1.95222E-01
 -1       771 2.54649E-01
 -1       772 3.25290E-01
 -1       773 4.18000E-01
 -1       774 5.26207E-01
 -1       775 6.46972E-01
 -1       776 7.89194E-01
 -1       777 9.38656E-01
 -1       778 1.17513E+00
 -1       779 1.46488E+00
 -1       780 1.73667E+00
 -1       781 2.36316E+00
 -1       782 2.50272E+00
 -1       783 1.78043E+00
 -1       784 3.44335E+00
 -1       785 5.16876E+00
 -1       786 2.07984E+00
 -1       787 2.25145E+00
 -1       788 1.50123E+00
 -1       789 1.12189E+00
 -1       790 6.79123E-01
 -1       791 2.88357E-01
 -1       792 1.64321E-01
 -1       793 1.90388E-01
 -1       794 1.12239E-01
 -1       795 8.84204E-02
 -1       796 6.72305E-02
 -1       797 4.91336E-02
 -1       798 3.09971E-02
 -1       799 3.59451E-02
 -1       800 6.62185E-02
 -1       801 1.02991E-01
 -1       802 1.48415E-01
 -1       803 2.05372E-01
 -1       804 2.86124E-01
 -1       805 3.87958E-01
 -1       806 5.13982E-01
 -1       807 6.65671E-01
 -1       808 8.40650E-01
 -1       809 1.06801E+00
 -1       810 1.37039E+00
 -1       811 1.80575E+00
 -1       812 2.33386E+00
 -1       813 2.95125E+00
 -1       814 4.11938E+00
 -1       815 5.38738E+00
 -1       816 3.18880E+00
 -1       817 2.73646E+00
 -1       818 2.82847E-01
 -1       819 2.17586E+00
 -1       820 2.74609E+00
 -1       821 8.03918E+00
 -1       822 6.83112E+00
 -1       823 6.89835E+00
 -1       824 5.47563E+00
 -1       825 3.18401E+00
 -1       826 3.07340E-01
 -1       827 1.77598E+00
 -1       828 1.38301E+00
 -1       829 6.28664E+00
 -1       830 8.96208E+00
 -1       831 1.37740E-01
 -1       832 2.33307E-01
 -1       833 9.49155E+00
 -1       834 2.16231E+00
 -1       835 1.03769E+01
 -1       836 2.54798E-01
 -1       837 6.98063E+00
 -1       838 4.92292E+00
 -1       839 3.13552E+00
 -1       840 1.03769E+01
 -1       841 2.88016E-01
 -1       842 6.15433E+00
 -1       843 4.23054E+00
 -1       844 3.06069E-01
 -1       845 1.00379E+00
 -1       846 7.19537E+00
 -1       847 8.25182E+00
 -1       848 2.78631E+00
 -1       849 3.34836E+00
 -1       850 2.19247E-01
 -1       851 2.17994E+00
 -1       852 2.17994E+00
 -1       853 2.68248E+00
 -1       854 2.55978E-01
 -1       855 2.99392E-01
 -1       856 1.81897E+00
 -1       857 2.74609E+00
 -1       858 6.60440E+00
 -1       859 2.80573E-01
 -1       860 2.88016E-01
 -1       861 2.71522E-01
 -1       862 3.23223E-01
 -1       863 1.83779E-01
 -1       864 1.76326E-01
 -1       865 1.60314E-01
 -1       866 1.40045E-01
 -1       867 1.23470E-01
 -1       868 1.06056E-01
 -1       869 8.78609E-02
 -1       870 6.97128E-02
 -1       871 5.18611E-02
 -1       872 4.55070E-02
 -1       873 4.87488E-02
 -1       874 6.38668E-02
 -1       875 9.77915E-02
 -1       876 1.39313E-01
 -1       877 1.89842E-01
 -1       878 2.50528E-01
 -1       879 3.21939E-01
 -1       880 4.03552E-01
 -1       881 4.92848E-01
 -1       882 6.08786E-01
 -1       883 7.56311E-01
 -1       884 1.00340E+00
 -1       885 1.31965E+00
 -1       886 1.64511E+00
 -1       887 2.02971E+00
 -1       888 2.87173E+00
 -1       889 3.08699E+00
 -1       890 2.95821E+00
 -1       891 2.23214E+00
 -1       892 1.39094E-01
 -1       893 7.53587E-02
 -1       894 9.52514E-02
 -1       895 3.96157E-02
 -1       896 4.24388E-02
 -1       897 5.79101E-02
 -1       898 9.23027E-02
 -1       899 1.38180E-01
 -1       900 1.96697E-01
 -1       901 2.71359E-01
 -1       902 3.66322E-01
 -1       903 4.86538E-01
 -1       904 6.37884E-01
 -1       905 8.27143E-01
 -1       906 1.06128E+00
 -1       907 1.34403E+00
 -1       908 1.70939E+00
 -1       909 2.57145E+00
 -1       910 6.32816E+00
 -1       911 7.71972E+00
 -1       912 3.18880E+00
 -1       913 4.57390E+00
 -1       914 2.10896E-01
 -1       915 8.25182E+00
 -1       916 7.19537E+00
 -1       917 8.07043E+00
 -1       918 3.29052E+00
 -1       919 2.08991E-01
 -1       920 3.23223E-01
 -1       921 1.53062E-01
 -1       922 5.09779E+00
 -1       923 1.75748E-01
 -1       924 8.07043E+00
 -1       925 5.60119E-02
 -1       926 3.77499E+00
 -1       927 4.84959E+00
 -1       928 2.70563E+00
 -1       929 3.64572E+00
 -1       930 5.51729E+00
 -1       931 5.31796E+00
 -1       932 6.14707E+00
 -1       933 1.55199E+00
 -1       934 1.15512E-01
 -1       935 3.06810E+00
 -1       936 2.30461E-01
 -1       937 1.63146E-01
 -1       938 1.97932E-01
 -1       939 4.16510E+00
 -1       940 4.47135E+00
 -1       941 4.57390E+00
 -1       942 4.47135E+00
 -1       943 1.76964E-01
 -1       944 1.81847E-01
 -1       945 1.35330E-01
 -1       946 1.41875E-01
 -1       947 2.16311E-01
 -1       948 1.74378E-01
 -1       949 1.35988E-01
 -1       950 1.26827E-01
 -1       951 1.12897E-01
 -1       952 9.82001E-02
 -1       953 8.50579E-02
 -1       954 7.10144E-02
 -1       955 5.68394E-02
 -1       956 5.51803E-02
 -1       957 5.83367E-02
 -1       958 6.50999E-02
 -1       959 8.59928E-02
 -1       960 1.22435E-01
 -1       961 1.67968E-01
 -1       962 2.24596E-01
 -1       963 2.94545E-01
 -1       964 3.80247E-01
 -1       965 4.84253E-01
 -1       966 6.08786E-01
 -1       967 7.54203E-01
 -1       968 9.64102E-01
 -1       969 1.27192E+00
 -1       970 1.92514E+00
 -1       971 4.03186E+00
 -1       972 5.64186E+00
 -1       973 5.99340E-02
 -1       974 5.37603E-02
 -1       975 1.20485E-01
 -1       976 1.69769E-01
 -1       977 2.32539E-01
 -1       978 3.12590E-01
 -1       979 4.15007E-01
 -1       980 5.47072E-01
 -1       981 7.19949E-01
 -1       982 9.51504E-01
 -1       983 1.27212E+00
 -1       984 1.70939E+00
 -1       985 2.79526E+00
 -1       986 5.25539E+00
 -1       987 1.24751E-01
 -1       988 6.24268E+00
 -1       989 1.13475E-01
 -1       990 6.24268E+00
 -1       991 1.44203E-01
 -1       992 5.25539E+00
 -1       993 4.16510E+00
 -1       994 1.95555E-01
 -1       995 2.30461E-01
 -1       996 9.52554E-02
 -1       997 8.17025E-02
 -1       998 1.36809E-01
 -1       999 1.46083E-01
 -1      1000 5.64186E+00
 -1      1001 7.80807E-02
 -1      1002 1.60818E-01
 -1      1003 5.12536E-02
 -1      1004 1.57052E-01
 -1      1005 1.24481E-01
 -1      1006 1.60818E-01
 -1      1007 1.41045E-01
 -1      1008 6.20758E-02
 -1      1009 9.40106E-02
 -1      1010 2.08028E-01
 -1      1011 9.80124E-02
 -1      1012 8.82456E-02
 -1      1013 7.63348E-02
 -1      1014 6.56006E-02
 -1      1015 6.16701E-02
 -1      1016 5.96807E-02
 -1      1017 6.17830E-02
 -1      1018 6.89762E-02
 -1      1019 8.19581E-02
 -1      1020 1.01833E-01
 -1      1021 1.34630E-01
 -1      1022 1.81882E-01
 -1      1023 2.42554E-01
 -1      1024 3.20633E-01
 -1      1025 4.21708E-01
 -1      1026 5.53852E-01
 -1      1027 7.28848E-01
 -1      1028 9.64102E-01
 -1      1029 1.26526E+00
 -1      1030 1.96879E+00
 -1      1031 3.43199E+00
 -1      1032 1.02040E-01
 -1      1033 7.43073E-02
 -1      1034 2.40561E-01
 -1      1035 6.35312E-02
 -1      1036 6.19717E-02
 -1      1037 3.83642E+00
 -1      1038 1.80473E-01
 -1      1039 1.33058E-01
 -1      1040 3.16978E-01
 -1      1041 4.15206E-01
 -1      1042 5.44307E-01
 -1      1043 7.20717E-01
 -1      1044 9.75479E-01
 -1      1045 1.34609E+00
 -1      1046 2.02150E+00
 -1      1047 3.37667E+00
 -1      1048 1.31577E-01
 -1      1049 1.09058E-01
 -1      1050 1.53314E-01
 -1      1051 9.56433E-02
 -1      1052 9.07421E-02
 -1      1053 3.83642E+00
 -1      1054 1.05139E-01
 -1      1055 1.03655E-01
 -1      1056 7.38594E-02
 -1      1057 5.94056E-02
 -1      1058 5.81172E-02
 -1      1059 9.57460E-02
 -1      1060 1.41222E-01
 -1      1061 1.10485E-01
 -1      1062 1.48005E-01
 -1      1063 9.88794E-02
 -1      1064 7.74865E-02
 -1      1065 6.72695E-02
 -1      1066 8.43641E-02
 -1      1067 6.16701E-02
 -1      1068 6.17830E-02
 -1      1069 8.18878E-02
 -1      1070 8.19581E-02
 -1      1071 1.01833E-01
 -1      1072 1.31365E-01
 -1      1073 1.74792E-01
 -1      1074 2.33090E-01
 -1      1075 3.11840E-01
 -1      1076 4.19737E-01
 -1      1077 5.70856E-01
 -1      1078 7.88587E-01
 -1      1079 1.11171E+00
 -1      1080 1.60050E+00
 -1      1081 2.18499E+00
 -1      1082 2.67200E+00
 -1      1083 6.60051E-02
 -1      1084 9.26814E-02
 -1      1085 2.55517E-01
 -1      1086 1.52021E-01
 -1      1087 4.30472E-01
 -1      1088 5.70856E-01
 -1      1089 7.88587E-01
 -1      1090 1.11171E+00
 -1      1091 1.60050E+00
 -1      1092 2.18499E+00
 -1      1093 1.24376E-01
 -1      1094 1.23800E-01
 -1      1095 9.30167E-02
 -1      1096 8.52065E-02
 -1      1097 1.97046E-01
 -1      1098 8.56415E-02
 -1      1099 1.17808E-01
 -1      1100 1.24376E-01
 -1      1101 8.18878E-02
 -1      1102 3.31316E-01
 -1      1103 8.47420E-02
 -1      1104 8.15649E-02
 -1      1105 8.15341E-02
 -1      1106 8.43641E-02
 -1      1107 9.30167E-02
 -1      1108 1.39739E-01
 -1      1109 8.56415E-02
 -1      1110 8.43641E-02
 -1      1111 8.18878E-02
 -1      1112 7.74865E-02
 -1      1113 1.23800E-01
 -1      1114 6.21401E-02
 -1      1115 8.47420E-02
 -1      1116 6.21401E-02
 -1      1117 7.95277E-02
 -1      1118 1.31447E+01
 -1      1119 8.40411E+00
 -1      1120 2.74340E+00
 -1      1121 1.55751E+00
 -1      1122 1.16867E+00
 -1      1123 9.72372E-01
 -1      1124 8.54038E-01
 -1      1125 7.81576E-01
 -1      1126 7.55193E-01
 -1      1127 7.84676E-01
 -1      1128 8.56972E-01
 -1      1129 9.76547E-01
 -1      1130 1.17987E+00
 -1      1131 1.57133E+00
 -1      1132 2.67032E+00
 -1      1133 6.07386E+00
 -1      1134 1.13414E+01
 -1      1135 1.31447E+01
 -1      1136 8.73176E+00
 -1      1137 3.83047E+00
 -1      1138 2.72748E+00
 -1      1139 1.73880E+00
 -1      1140 1.19013E+00
 -1      1141 8.96230E-01
 -1      1142 6.87388E-01
 -1      1143 5.28247E-01
 -1      1144 4.05355E-01
 -1      1145 3.13390E-01
 -1      1146 2.44027E-01
 -1      1147 1.89556E-01
 -1      1148 1.48007E-01
 -1      1149 1.17517E-01
 -1      1150 9.63744E-02
 -1      1151 8.43102E-02
 -1      1152 8.40186E-02
 -1      1153 9.64793E-02
 -1      1154 1.20177E-01
 -1      1155 1.53955E-01
 -1      1156 1.96904E-01
 -1      1157 2.48243E-01
 -1      1158 3.05671E-01
 -1      1159 3.64545E-01
 -1      1160 4.35023E-01
 -1      1161 5.38118E-01
 -1      1162 6.76624E-01
 -1      1163 8.24867E-01
 -1      1164 9.36959E-01
 -1      1165 9.77653E-01
 -1      1166 1.01498E+00
 -1      1167 1.05230E+00
 -1      1168 1.22028E+00
 -1      1169 1.67720E+00
 -1      1170 2.46243E+00
 -1      1171 3.17165E+00
 -1      1172 3.38459E+00
 -1      1173 3.33317E+00
 -1      1174 3.17724E+00
 -1      1175 2.64004E+00
 -1      1176 1.73219E+00
 -1      1177 1.06288E+00
 -1      1178 7.73258E-01
 -1      1179 6.77804E-01
 -1      1180 6.50326E-01
 -1      1181 6.22848E-01
 -1      1182 5.99405E-01
 -1      1183 5.30051E-01
 -1      1184 2.96882E-01
 -1      1185 1.40405E+01
 -1      1186 8.71791E+00
 -1      1187 2.90470E+00
 -1      1188 2.04054E+00
 -1      1189 1.40660E+00
 -1      1190 1.02632E+00
 -1      1191 8.19334E-01
 -1      1192 6.60772E-01
 -1      1193 5.30050E-01
 -1      1194 4.21674E-01
 -1      1195 3.35975E-01
 -1      1196 2.69507E-01
 -1      1197 2.15588E-01
 -1      1198 1.72877E-01
 -1      1199 1.40678E-01
 -1      1200 1.18205E-01
 -1      1201 1.07684E-01
 -1      1202 1.12820E-01
 -1      1203 1.30486E-01
 -1      1204 1.56262E-01
 -1      1205 1.89590E-01
 -1      1206 2.29397E-01
 -1      1207 2.87296E-01
 -1      1208 3.69837E-01
 -1      1209 4.68847E-01
 -1      1210 5.78875E-01
 -1      1211 6.90432E-01
 -1      1212 7.85650E-01
 -1      1213 8.38885E-01
 -1      1214 9.93933E-01
 -1      1215 1.28480E+00
 -1      1216 1.51437E+00
 -1      1217 1.77279E+00
 -1      1218 2.00881E+00
 -1      1219 2.24446E+00
 -1      1220 2.78505E+00
 -1      1221 3.85952E+00
 -1      1222 4.81368E+00
 -1      1223 5.05711E+00
 -1      1224 4.95375E+00
 -1      1225 3.92696E+00
 -1      1226 2.34039E+00
 -1      1227 1.65292E+00
 -1      1228 1.73331E+00
 -1      1229 1.83802E+00
 -1      1230 1.73576E+00
 -1      1231 1.43732E+00
 -1      1232 1.17715E+00
 -1      1233 8.78251E-01
 -1      1234 3.97211E-01
 -1      1235 2.38094E-01
 -1      1236 3.25111E-01
 -1      1237 2.84760E-01
 -1      1238 1.84351E-01
 -1      1239 1.46854E-01
 -1      1240 2.23591E-01
 -1      1241 2.99249E-01
 -1      1242 3.20732E-01
 -1      1243 3.05772E-01
 -1      1244 2.43728E-01
 -1      1245 1.37187E-01
 -1      1246 9.83344E-02
 -1      1247 1.39659E-01
 -1      1248 1.69096E-01
 -1      1249 2.20261E-01
 -1      1250 2.70997E-01
 -1      1251 1.94453E-01
 -1      1252 2.42454E+01
 -1      1253 3.66657E+01
 -1      1254 4.90423E+01
 -1      1255 3.57266E+01
 -1      1256 1.72060E+01
 -1      1257 1.24303E+01
 -1      1258 1.28593E+01
 -1      1259 1.26693E+01
 -1      1260 1.24794E+01
 -1      1261 1.22634E+01
 -1      1262 1.78477E+01
 -1      1263 3.61277E+01
 -1      1264 4.86075E+01
 -1      1265 3.64991E+01
 -1      1266 2.39497E+01
 -1      1267 2.38445E+01
 -1      1268 3.62090E+01
 -1      1269 4.82376E+01
 -1      1270 3.49233E+01
 -1      1271 1.67326E+01
 -1      1272 1.18895E+01
 -1      1273 1.19226E+01
 -1      1274 1.21282E+01
 -1      1275 1.23338E+01
 -1      1276 1.22006E+01
 -1      1277 1.70163E+01
 -1      1278 3.54585E+01
 -1      1279 4.89517E+01
 -1      1280 3.67854E+01
 -1      1281 2.44103E+01
 -1      1282 1.31447E+01
 -1      1283 4.87074E+00
 -1      1284 9.61132E+00
 -1      1285 2.06047E+00
 -1      1286 2.98059E+00
 -1      1287 4.18780E+00
 -1      1288 1.39993E+00
 -1      1289 1.66570E+00
 -1      1290 1.90289E+00
 -1      1291 1.10145E+00
 -1      1292 1.22453E+00
 -1      1293 1.33272E+00
 -1      1294 9.36077E-01
 -1      1295 1.00929E+00
 -1      1296 1.06516E+00
 -1      1297 8.36527E-01
 -1      1298 8.81648E-01
 -1      1299 9.18566E-01
 -1      1300 7.75255E-01
 -1      1301 8.02596E-01
 -1      1302 8.30206E-01
 -1      1303 7.56151E-01
 -1      1304 7.55193E-01
 -1      1305 7.76213E-01
 -1      1306 8.06421E-01
 -1      1307 7.77897E-01
 -1      1308 7.77897E-01
 -1      1309 8.84006E-01
 -1      1310 8.40234E-01
 -1      1311 8.33455E-01
 -1      1312 1.01661E+00
 -1      1313 9.40805E-01
 -1      1314 9.24068E-01
 -1      1315 1.23979E+00
 -1      1316 1.11227E+00
 -1      1317 1.07653E+00
 -1      1318 1.68121E+00
 -1      1319 1.41727E+00
 -1      1320 1.34966E+00
 -1      1321 2.88289E+00
 -1      1322 2.04783E+00
 -1      1323 1.89377E+00
 -1      1324 6.28676E+00
 -1      1325 3.71827E+00
 -1      1326 3.09579E+00
 -1      1327 1.40405E+01
 -1      1328 1.13414E+01
 -1      1329 8.98582E+00
 -1      1330 1.40405E+01
 -1      1331 8.73176E+00
 -1      1332 4.31883E+00
 -1      1333 3.83047E+00
 -1      1334 3.34211E+00
 -1      1335 3.83047E+00
 -1      1336 2.72748E+00
 -1      1337 2.11284E+00
 -1      1338 2.72748E+00
 -1      1339 1.78093E+00
 -1      1340 1.40689E+00
 -1      1341 1.78093E+00
 -1      1342 1.19627E+00
 -1      1343 1.02165E+00
 -1      1344 1.23840E+00
 -1      1345 8.96230E-01
 -1      1346 7.76949E-01
 -1      1347 9.02367E-01
 -1      1348 6.87388E-01
 -1      1349 5.97826E-01
 -1      1350 6.87388E-01
 -1      1351 5.34485E-01
 -1      1352 4.64905E-01
 -1      1353 5.34485E-01
 -1      1354 4.15439E-01
 -1      1355 3.62127E-01
 -1      1356 4.21677E-01
 -1      1357 3.23296E-01
 -1      1358 2.84642E-01
 -1      1359 3.33379E-01
 -1      1360 2.56880E-01
 -1      1361 2.26172E-01
 -1      1362 2.66787E-01
 -1      1363 2.02803E-01
 -1      1364 1.79040E-01
 -1      1365 2.15656E-01
 -1      1366 1.59957E-01
 -1      1367 1.42171E-01
 -1      1368 1.73204E-01
 -1      1369 1.27019E-01
 -1      1370 1.14315E-01
 -1      1371 1.38969E-01
 -1      1372 1.02597E-01
 -1      1373 9.41591E-02
 -1      1374 1.12099E-01
 -1      1375 8.53009E-02
 -1      1376 8.16750E-02
 -1      1377 9.15239E-02
 -1      1378 8.06842E-02
 -1      1379 8.40186E-02
 -1      1380 8.16750E-02
 -1      1381 8.85241E-02
 -1      1382 9.76505E-02
 -1      1383 8.51898E-02
 -1      1384 1.08434E-01
 -1      1385 1.23005E-01
 -1      1386 1.00478E-01
 -1      1387 1.37288E-01
 -1      1388 1.56494E-01
 -1      1389 1.25544E-01
 -1      1390 1.74224E-01
 -1      1391 1.97966E-01
 -1      1392 1.57557E-01
 -1      1393 2.20646E-01
 -1      1394 2.48243E-01
 -1      1395 1.97966E-01
 -1      1396 2.75841E-01
 -1      1397 3.05671E-01
 -1      1398 2.48243E-01
 -1      1399 3.45753E-01
 -1      1400 3.74797E-01
 -1      1401 3.15923E-01
 -1      1402 4.20553E-01
 -1      1403 4.61986E-01
 -1      1404 4.01761E-01
 -1      1405 5.06799E-01
 -1      1406 5.68462E-01
 -1      1407 4.92329E-01
 -1      1408 6.13505E-01
 -1      1409 6.90349E-01
 -1      1410 5.82186E-01
 -1      1411 7.53468E-01
 -1      1412 8.24867E-01
 -1      1413 6.90349E-01
 -1      1414 8.96265E-01
 -1      1415 9.36959E-01
 -1      1416 8.24867E-01
 -1      1417 9.77653E-01
 -1      1418 9.77653E-01
 -1      1419 9.36959E-01
 -1      1420 9.61635E-01
 -1      1421 9.98960E-01
 -1      1422 9.61635E-01
 -1      1423 1.05230E+00
 -1      1424 1.05230E+00
 -1      1425 9.98960E-01
 -1      1426 1.02053E+00
 -1      1427 1.18850E+00
 -1      1428 1.02053E+00
 -1      1429 1.38825E+00
 -1      1430 1.67720E+00
 -1      1431 1.18850E+00
 -1      1432 1.97628E+00
 -1      1433 2.47256E+00
 -1      1434 1.68733E+00
 -1      1435 2.95871E+00
 -1      1436 3.17165E+00
 -1      1437 2.47256E+00
 -1      1438 3.38459E+00
 -1      1439 3.38459E+00
 -1      1440 3.17165E+00
 -1      1441 3.33317E+00
 -1      1442 3.28175E+00
 -1      1443 3.33317E+00
 -1      1444 3.17724E+00
 -1      1445 3.07274E+00
 -1      1446 3.17724E+00
 -1      1447 2.64004E+00
 -1      1448 2.20733E+00
 -1      1449 2.64004E+00
 -1      1450 1.83821E+00
 -1      1451 1.36307E+00
 -1      1452 1.83821E+00
 -1      1453 1.09399E+00
 -1      1454 8.99821E-01
 -1      1455 1.20001E+00
 -1      1456 7.70414E-01
 -1      1457 6.74959E-01
 -1      1458 8.01522E-01
 -1      1459 6.77804E-01
 -1      1460 6.77804E-01
 -1      1461 6.74959E-01
 -1      1462 6.48478E-01
 -1      1463 6.21000E-01
 -1      1464 6.48478E-01
 -1      1465 6.22848E-01
 -1      1466 6.22848E-01
 -1      1467 6.21000E-01
 -1      1468 5.99405E-01
 -1      1469 5.75962E-01
 -1      1470 5.99405E-01
 -1      1471 5.30051E-01
 -1      1472 4.84141E-01
 -1      1473 5.30051E-01
 -1      1474 3.81711E-01
 -1      1475 3.81711E-01
 -1      1476 3.39535E+00
 -1      1477 8.71791E+00
 -1      1478 8.71791E+00
 -1      1479 2.41405E+00
 -1      1480 2.90470E+00
 -1      1481 2.90470E+00
 -1      1482 1.66704E+00
 -1      1483 2.04054E+00
 -1      1484 2.04054E+00
 -1      1485 1.14617E+00
 -1      1486 1.40660E+00
 -1      1487 1.40660E+00
 -1      1488 9.06481E-01
 -1      1489 1.02632E+00
 -1      1490 1.02632E+00
 -1      1491 7.32188E-01
 -1      1492 8.19334E-01
 -1      1493 8.19334E-01
 -1      1494 5.89356E-01
 -1      1495 6.60772E-01
 -1      1496 6.60772E-01
 -1      1497 4.70743E-01
 -1      1498 5.30050E-01
 -1      1499 5.30050E-01
 -1      1500 3.72606E-01
 -1      1501 4.21674E-01
 -1      1502 4.21674E-01
 -1      1503 2.99345E-01
 -1      1504 3.35975E-01
 -1      1505 3.35975E-01
 -1      1506 2.39669E-01
 -1      1507 2.69507E-01
 -1      1508 2.69507E-01
 -1      1509 1.92330E-01
 -1      1510 2.16411E-01
 -1      1511 2.16411E-01
 -1      1512 1.55629E-01
 -1      1513 1.74259E-01
 -1      1514 1.75083E-01
 -1      1515 1.28249E-01
 -1      1516 1.41818E-01
 -1      1517 1.43201E-01
 -1      1518 1.09516E-01
 -1      1519 1.18420E-01
 -1      1520 1.19560E-01
 -1      1521 1.03633E-01
 -1      1522 1.05251E-01
 -1      1523 1.05466E-01
 -1      1524 1.13243E-01
 -1      1525 1.06488E-01
 -1      1526 1.04056E-01
 -1      1527 1.31058E-01
 -1      1528 1.20147E-01
 -1      1529 1.13815E-01
 -1      1530 1.56262E-01
 -1      1531 1.41396E-01
 -1      1532 1.31058E-01
 -1      1533 1.90279E-01
 -1      1534 1.71816E-01
 -1      1535 1.56950E-01
 -1      1536 2.37260E-01
 -1      1537 2.15916E-01
 -1      1538 1.98142E-01
 -1      1539 3.05610E-01
 -1      1540 2.69055E-01
 -1      1541 2.55574E-01
 -1      1542 3.89416E-01
 -1      1543 3.43429E-01
 -1      1544 3.25188E-01
 -1      1545 4.85358E-01
 -1      1546 4.32335E-01
 -1      1547 4.05927E-01
 -1      1548 5.88419E-01
 -1      1549 5.31414E-01
 -1      1550 4.94902E-01
 -1      1551 6.90432E-01
 -1      1552 6.35880E-01
 -1      1553 5.88419E-01
 -1      1554 7.85650E-01
 -1      1555 7.44984E-01
 -1      1556 6.90432E-01
 -1      1557 8.38885E-01
 -1      1558 8.26317E-01
 -1      1559 7.85650E-01
 -1      1560 1.06518E+00
 -1      1561 9.22697E-01
 -1      1562 9.10129E-01
 -1      1563 1.30517E+00
 -1      1564 1.15678E+00
 -1      1565 1.08555E+00
 -1      1566 1.51437E+00
 -1      1567 1.43320E+00
 -1      1568 1.30517E+00
 -1      1569 1.77279E+00
 -1      1570 1.59554E+00
 -1      1571 1.51437E+00
 -1      1572 2.00881E+00
 -1      1573 1.95004E+00
 -1      1574 1.77279E+00
 -1      1575 2.24446E+00
 -1      1576 2.06759E+00
 -1      1577 2.00881E+00
 -1      1578 2.78505E+00
 -1      1579 2.42133E+00
 -1      1580 2.24446E+00
 -1      1581 3.85952E+00
 -1      1582 3.14877E+00
 -1      1583 2.78505E+00
 -1      1584 4.81368E+00
 -1      1585 4.57026E+00
 -1      1586 3.85952E+00
 -1      1587 5.05711E+00
 -1      1588 5.05711E+00
 -1      1589 4.81368E+00
 -1      1590 4.85039E+00
 -1      1591 4.95375E+00
 -1      1592 4.95375E+00
 -1      1593 3.00353E+00
 -1      1594 3.92696E+00
 -1      1595 3.92696E+00
 -1      1596 1.67725E+00
 -1      1597 2.34039E+00
 -1      1598 2.34039E+00
 -1      1599 1.47371E+00
 -1      1600 1.49803E+00
 -1      1601 1.49803E+00
 -1      1602 1.73331E+00
 -1      1603 1.62860E+00
 -1      1604 1.47371E+00
 -1      1605 1.83802E+00
 -1      1606 1.83802E+00
 -1      1607 1.73331E+00
 -1      1608 1.63349E+00
 -1      1609 1.73576E+00
 -1      1610 1.73576E+00
 -1      1611 1.24114E+00
 -1      1612 1.43732E+00
 -1      1613 1.43732E+00
 -1      1614 1.11316E+00
 -1      1615 1.17715E+00
 -1      1616 1.17715E+00
 -1      1617 6.67985E-01
 -1      1618 9.02893E-01
 -1      1619 9.02893E-01
 -1      1620 4.84228E-01
 -1      1621 3.59864E-01
 -1      1622 3.59864E-01
 -1      1623 3.19512E-01
 -1      1624 3.59864E-01
 -1      1625 3.94616E-01
 -1      1626 2.54243E-01
 -1      1627 3.14301E-01
 -1      1628 3.89405E-01
 -1      1629 2.15066E-01
 -1      1630 1.92505E-01
 -1      1631 3.22456E-01
 -1      1632 3.77586E-01
 -1      1633 3.23410E-01
 -1      1634 3.69061E-01
 -1      1635 4.63303E-01
 -1      1636 4.41821E-01
 -1      1637 5.41640E-01
 -1      1638 4.66489E-01
 -1      1639 4.66489E-01
 -1      1640 6.09060E-01
 -1      1641 4.51529E-01
 -1      1642 4.66489E-01
 -1      1643 6.12246E-01
 -1      1644 3.55022E-01
 -1      1645 4.02107E-01
 -1      1646 5.62823E-01
 -1      1647 1.99235E-01
 -1      1648 2.58691E-01
 -1      1649 4.17069E-01
 -1      1650 1.63577E-01
 -1      1651 1.42975E-01
 -1      1652 2.64478E-01
 -1      1653 2.22427E-01
 -1      1654 2.01705E-01
 -1      1655 2.46345E-01
 -1      1656 2.43828E-01
 -1      1657 2.35113E-01
 -1      1658 2.97159E-01
 -1      1659 2.86278E-01
 -1      1660 2.43828E-01
 -1      1661 3.09845E-01
 -1      1662 3.03691E-01
 -1      1663 2.95406E-01
 -1      1664 3.18972E-01
 -1      1665 4.06120E-01
 -1      1666 2.62594E+01
 -1      1667 2.62157E+01
 -1      1668 4.01426E+01
 -1      1669 2.77660E+01
 -1      1670 4.90423E+01
 -1      1671 4.90423E+01
 -1      1672 2.34556E+01
 -1      1673 3.67713E+01
 -1      1674 1.17402E+01
 -1      1675 1.69450E+01
 -1      1676 1.24303E+01
 -1      1677 1.20012E+01
 -1      1678 1.28593E+01
 -1      1679 1.28593E+01
 -1      1680 1.20595E+01
 -1      1681 1.22495E+01
 -1      1682 1.24794E+01
 -1      1683 1.24794E+01
 -1      1684 1.19112E+01
 -1      1685 1.21272E+01
 -1      1686 1.78477E+01
 -1      1687 1.20474E+01
 -1      1688 3.67411E+01
 -1      1689 2.42613E+01
 -1      1690 4.86075E+01
 -1      1691 4.86075E+01
 -1      1692 2.78103E+01
 -1      1693 3.99187E+01
 -1      1694 2.58291E+01
 -1      1695 2.62702E+01
 -1      1696 2.61650E+01
 -1      1697 2.58291E+01
 -1      1698 3.93233E+01
 -1      1699 2.72946E+01
 -1      1700 4.82376E+01
 -1      1701 4.82376E+01
 -1      1702 2.25800E+01
 -1      1703 3.58944E+01
 -1      1704 1.16243E+01
 -1      1705 1.65006E+01
 -1      1706 1.18895E+01
 -1      1707 1.18564E+01
 -1      1708 1.19226E+01
 -1      1709 1.19226E+01
 -1      1710 1.18497E+01
 -1      1711 1.16441E+01
 -1      1712 1.23338E+01
 -1      1713 1.23338E+01
 -1      1714 1.20674E+01
 -1      1715 1.22006E+01
 -1      1716 1.67209E+01
 -1      1717 1.17720E+01
 -1      1718 3.64866E+01
 -1      1719 2.29933E+01
 -1      1720 4.89517E+01
 -1      1721 4.89517E+01
 -1      1722 2.73700E+01
 -1      1723 3.95363E+01
 -1      1724 2.62157E+01
 -1      1725 2.64244E+01
 -1      1726 1.79897E+01
 -1      1727 3.67713E+01
 -1      1728 5.08869E-01
 -1      1729 5.43621E-01
 -1      1730 2.97363E+01
 -1      1731 4.01426E+01
 -1      1732 2.82297E+01
 -1      1733 1.17402E+01
 -1      1734 1.24303E+01
 -1      1735 1.22495E+01
 -1      1736 1.20595E+01
 -1      1737 1.21272E+01
 -1      1738 1.19112E+01
 -1      1739 1.84610E+01
 -1      1740 3.67411E+01
 -1      1741 3.99187E+01
 -1      1742 2.96898E+01
 -1      1743 2.81496E+01
 -1      1744 2.92793E+01
 -1      1745 3.93233E+01
 -1      1746 3.58944E+01
 -1      1747 1.74717E+01
 -1      1748 1.16243E+01
 -1      1749 1.18895E+01
 -1      1750 1.16441E+01
 -1      1751 1.18497E+01
 -1      1752 1.22006E+01
 -1      1753 1.17720E+01
 -1      1754 1.77490E+01
 -1      1755 3.64866E+01
 -1      1756 3.95363E+01
 -1      1757 2.91753E+01
 -1      1758 9.61132E+00
 -1      1759 1.27698E+00
 -1      1760 1.67175E+00
 -1      1761 2.38872E+00
 -1      1762 4.27886E+00
 -1      1763 1.76281E+00
 -1      1764 8.82004E-01
 -1      1765 9.74165E-01
 -1      1766 7.79009E-01
 -1      1767 8.33437E-01
 -1      1768 7.42447E-01
 -1      1769 7.14001E-01
 -1      1770 7.47932E-01
 -1      1771 6.62804E-01
 -1      1772 6.71948E-01
 -1      1773 6.92010E-01
 -1      1774 6.09736E-01
 -1      1775 6.95291E-01
 -1      1776 6.73546E-01
 -1      1777 5.89343E-01
 -1      1778 7.50895E-01
 -1      1779 7.17081E-01
 -1      1780 6.12731E-01
 -1      1781 8.40993E-01
 -1      1782 7.84194E-01
 -1      1783 6.67820E-01
 -1      1784 9.84181E-01
 -1      1785 8.88522E-01
 -1      1786 7.48648E-01
 -1      1787 1.22931E+00
 -1      1788 1.05183E+00
 -1      1789 8.63829E-01
 -1      1790 1.70998E+00
 -1      1791 1.34335E+00
 -1      1792 1.04552E+00
 -1      1793 2.62990E+00
 -1      1794 1.79451E+00
 -1      1795 1.24409E+00
 -1      1796 8.12091E+00
 -1      1797 3.06627E+00
 -1      1798 1.76500E+00
 -1      1799 2.79836E+00
 -1      1800 5.19839E+00
 -1      1801 2.16454E+00
 -1      1802 2.65519E+00
 -1      1803 2.05820E+00
 -1      1804 3.39930E+00
 -1      1805 2.53627E+00
 -1      1806 1.92164E+00
 -1      1807 1.69103E+00
 -1      1808 1.35912E+00
 -1      1809 1.49983E+00
 -1      1810 1.17894E+00
 -1      1811 9.68326E-01
 -1      1812 1.08905E+00
 -1      1813 8.43147E-01
 -1      1814 7.17729E-01
 -1      1815 7.83688E-01
 -1      1816 6.58822E-01
 -1      1817 5.69260E-01
 -1      1818 5.99601E-01
 -1      1819 5.21064E-01
 -1      1820 4.57723E-01
 -1      1821 4.92498E-01
 -1      1822 4.15440E-01
 -1      1823 3.65973E-01
 -1      1824 4.02019E-01
 -1      1825 3.33434E-01
 -1      1826 2.94603E-01
 -1      1827 3.27197E-01
 -1      1828 2.67504E-01
 -1      1829 2.39742E-01
 -1      1830 2.67558E-01
 -1      1831 2.16609E-01
 -1      1832 1.93240E-01
 -1      1833 2.17327E-01
 -1      1834 1.74780E-01
 -1      1835 1.55697E-01
 -1      1836 1.75733E-01
 -1      1837 1.41189E-01
 -1      1838 1.26037E-01
 -1      1839 1.42765E-01
 -1      1840 1.13690E-01
 -1      1841 1.01973E-01
 -1      1842 1.15911E-01
 -1      1843 9.15363E-02
 -1      1844 8.26781E-02
 -1      1845 9.31273E-02
 -1      1846 7.76006E-02
 -1      1847 7.66099E-02
 -1      1848 7.76130E-02
 -1      1849 7.77293E-02
 -1      1850 8.22348E-02
 -1      1851 7.36549E-02
 -1      1852 8.96953E-02
 -1      1853 1.00478E-01
 -1      1854 8.22348E-02
 -1      1855 1.11262E-01
 -1      1856 1.25544E-01
 -1      1857 1.00478E-01
 -1      1858 1.39827E-01
 -1      1859 1.57557E-01
 -1      1860 1.25544E-01
 -1      1861 1.82753E-01
 -1      1862 2.05433E-01
 -1      1863 1.65024E-01
 -1      1864 2.37662E-01
 -1      1865 2.65259E-01
 -1      1866 2.22449E-01
 -1      1867 3.02284E-01
 -1      1868 3.42366E-01
 -1      1869 2.91702E-01
 -1      1870 3.82422E-01
 -1      1871 4.28178E-01
 -1      1872 3.68783E-01
 -1      1873 4.67697E-01
 -1      1874 5.12510E-01
 -1      1875 4.48358E-01
 -1      1876 5.45565E-01
 -1      1877 5.90609E-01
 -1      1878 5.20932E-01
 -1      1879 6.25230E-01
 -1      1880 6.88349E-01
 -1      1881 5.88609E-01
 -1      1882 7.27382E-01
 -1      1883 7.98781E-01
 -1      1884 6.62263E-01
 -1      1885 8.13649E-01
 -1      1886 8.54343E-01
 -1      1887 7.16165E-01
 -1      1888 8.21676E-01
 -1      1889 8.05658E-01
 -1      1890 6.98366E-01
 -1      1891 7.44899E-01
 -1      1892 7.98243E-01
 -1      1893 6.04940E-01
 -1      1894 7.70385E-01
 -1      1895 7.38609E-01
 -1      1896 5.16325E-01
 -1      1897 9.49628E-01
 -1      1898 1.14938E+00
 -1      1899 6.99486E-01
 -1      1900 1.40062E+00
 -1      1901 1.69970E+00
 -1      1902 1.16174E+00
 -1      1903 1.91056E+00
 -1      1904 2.39671E+00
 -1      1905 1.62385E+00
 -1      1906 2.55613E+00
 -1      1907 2.76908E+00
 -1      1908 1.99414E+00
 -1      1909 2.73894E+00
 -1      1910 2.68752E+00
 -1      1911 2.12343E+00
 -1      1912 2.69747E+00
 -1      1913 2.59297E+00
 -1      1914 2.10325E+00
 -1      1915 2.49665E+00
 -1      1916 2.06395E+00
 -1      1917 2.01688E+00
 -1      1918 1.87528E+00
 -1      1919 1.50615E+00
 -1      1920 1.73189E+00
 -1      1921 1.30476E+00
 -1      1922 1.03568E+00
 -1      1923 1.34183E+00
 -1      1924 8.97136E-01
 -1      1925 7.67728E-01
 -1      1926 1.00189E+00
 -1      1927 6.34765E-01
 -1      1928 6.37609E-01
 -1      1929 7.30378E-01
 -1      1930 6.19610E-01
 -1      1931 5.90285E-01
 -1      1932 5.79416E-01
 -1      1933 5.65358E-01
 -1      1934 5.67205E-01
 -1      1935 5.36490E-01
 -1      1936 5.36441E-01
 -1      1937 5.12998E-01
 -1      1938 4.80798E-01
 -1      1939 5.13954E-01
 -1      1940 4.68043E-01
 -1      1941 3.90023E-01
 -1      1942 4.50990E-01
 -1      1943 1.39919E+00
 -1      1944 1.77270E+00
 -1      1945 1.52319E+00
 -1      1946 1.01951E+00
 -1      1947 1.27994E+00
 -1      1948 1.01210E+00
 -1      1949 8.06089E-01
 -1      1950 9.25932E-01
 -1      1951 7.99274E-01
 -1      1952 6.39763E-01
 -1      1953 7.26910E-01
 -1      1954 6.26518E-01
 -1      1955 5.14686E-01
 -1      1956 5.86102E-01
 -1      1957 4.93677E-01
 -1      1958 4.22479E-01
 -1      1959 4.81786E-01
 -1      1960 4.07116E-01
 -1      1961 3.41973E-01
 -1      1962 3.91041E-01
 -1      1963 3.42778E-01
 -1      1964 2.77779E-01
 -1      1965 3.14410E-01
 -1      1966 2.83777E-01
 -1      1967 2.25732E-01
 -1      1968 2.55569E-01
 -1      1969 2.34004E-01
 -1      1970 1.83111E-01
 -1      1971 2.06368E-01
 -1      1972 1.92431E-01
 -1      1973 1.49528E-01
 -1      1974 1.67599E-01
 -1      1975 1.57556E-01
 -1      1976 1.23911E-01
 -1      1977 1.37722E-01
 -1      1978 1.30238E-01
 -1      1979 1.05400E-01
 -1      1980 1.15229E-01
 -1      1981 1.09750E-01
 -1      1982 9.54280E-02
 -1      1983 9.96929E-02
 -1      1984 9.53620E-02
 -1      1985 9.80927E-02
 -1      1986 9.52379E-02
 -1      1987 8.94651E-02
 -1      1988 1.07908E-01
 -1      1989 1.01003E-01
 -1      1990 9.21855E-02
 -1      1991 1.27572E-01
 -1      1992 1.17234E-01
 -1      1993 1.04422E-01
 -1      1994 1.58913E-01
 -1      1995 1.43359E-01
 -1      1996 1.29535E-01
 -1      1997 2.07153E-01
 -1      1998 1.81516E-01
 -1      1999 1.67924E-01
 -1      2000 2.79687E-01
 -1      2001 2.47893E-01
 -1      2002 2.31266E-01
 -1      2003 3.69783E-01
 -1      2004 3.31964E-01
 -1      2005 3.24282E-01
 -1      2006 4.77774E-01
 -1      2007 4.34854E-01
 -1      2008 4.41630E-01
 -1      2009 6.01529E-01
 -1      2010 5.55473E-01
 -1      2011 5.84401E-01
 -1      2012 7.36372E-01
 -1      2013 6.88911E-01
 -1      2014 7.49482E-01
 -1      2015 8.80342E-01
 -1      2016 8.25790E-01
 -1      2017 9.26282E-01
 -1      2018 9.97887E-01
 -1      2019 9.57220E-01
 -1      2020 1.09258E+00
 -1      2021 1.15015E+00
 -1      2022 1.06633E+00
 -1      2023 1.23790E+00
 -1      2024 1.26533E+00
 -1      2025 1.17373E+00
 -1      2026 1.32993E+00
 -1      2027 1.39335E+00
 -1      2028 1.26533E+00
 -1      2029 1.35351E+00
 -1      2030 1.39954E+00
 -1      2031 1.31836E+00
 -1      2032 1.27852E+00
 -1      2033 1.49822E+00
 -1      2034 1.32098E+00
 -1      2035 1.12497E+00
 -1      2036 1.69528E+00
 -1      2037 1.63651E+00
 -1      2038 1.18469E+00
 -1      2039 2.31752E+00
 -1      2040 2.14065E+00
 -1      2041 1.76835E+00
 -1      2042 2.86842E+00
 -1      2043 2.50469E+00
 -1      2044 2.40089E+00
 -1      2045 3.79145E+00
 -1      2046 3.08070E+00
 -1      2047 2.80035E+00
 -1      2048 4.01692E+00
 -1      2049 3.77349E+00
 -1      2050 2.99468E+00
 -1      2051 3.83621E+00
 -1      2052 3.93957E+00
 -1      2053 2.89938E+00
 -1      2054 2.55071E+00
 -1      2055 3.47414E+00
 -1      2056 2.45996E+00
 -1      2057 1.47847E+00
 -1      2058 2.14161E+00
 -1      2059 1.68879E+00
 -1      2060 1.20078E+00
 -1      2061 1.37999E+00
 -1      2062 1.18121E+00
 -1      2063 1.35848E+00
 -1      2064 1.20359E+00
 -1      2065 1.08555E+00
 -1      2066 1.52869E+00
 -1      2067 1.42398E+00
 -1      2068 1.15385E+00
 -1      2069 1.41051E+00
 -1      2070 1.51277E+00
 -1      2071 1.20344E+00
 -1      2072 1.13262E+00
 -1      2073 1.32879E+00
 -1      2074 1.10581E+00
 -1      2075 1.01658E+00
 -1      2076 1.08058E+00
 -1      2077 9.72052E-01
 -1      2078 6.92627E-01
 -1      2079 9.02893E-01
 -1      2080 8.06319E-01
 -1      2081 5.43621E-01
 -1      2082 3.49522E-01
 -1      2083 4.11260E-01
 -1      2084 5.45836E-01
 -1      2085 5.51047E-01
 -1      2086 5.72902E-01
 -1      2087 5.51047E-01
 -1      2088 5.51047E-01
 -1      2089 7.00052E-01
 -1      2090 7.07478E-01
 -1      2091 5.44931E-01
 -1      2092 4.36587E-01
 -1      2093 5.25391E-01
 -1      2094 7.36223E-01
 -1      2095 6.71988E-01
 -1      2096 7.39514E-01
 -1      2097 7.50831E-01
 -1      2098 7.47646E-01
 -1      2099 8.77994E-01
 -1      2100 7.50831E-01
 -1      2101 7.50831E-01
 -1      2102 8.89417E-01
 -1      2103 6.97777E-01
 -1      2104 7.47200E-01
 -1      2105 8.85785E-01
 -1      2106 4.87986E-01
 -1      2107 5.84317E-01
 -1      2108 7.68694E-01
 -1      2109 3.00575E-01
 -1      2110 3.56835E-01
 -1      2111 5.24083E-01
 -1      2112 3.31833E-01
 -1      2113 2.93706E-01
 -1      2114 3.86063E-01
 -1      2115 3.50812E-01
 -1      2116 3.38125E-01
 -1      2117 3.85486E-01
 -1      2118 3.80896E-01
 -1      2119 3.80896E-01
 -1      2120 4.21862E-01
 -1      2121 4.01426E+01
 -1      2122 3.12429E+01
 -1      2123 3.00786E+01
 -1      2124 3.00786E+01
 -1      2125 3.05085E+01
 -1      2126 2.90019E+01
 -1      2127 2.11866E+01
 -1      2128 3.34576E+01
 -1      2129 1.08030E+01
 -1      2130 1.73136E+01
 -1      2131 1.03841E+00
 -1      2132 1.21381E+00
 -1      2133 9.82672E-01
 -1      2134 8.55255E-01
 -1      2135 1.10477E+01
 -1      2136 1.06186E+01
 -1      2137 1.14621E+01
 -1      2138 1.20719E+01
 -1      2139 1.17361E+01
 -1      2140 1.13163E+01
 -1      2141 1.11387E+01
 -1      2142 1.06206E+01
 -1      2143 1.09727E+01
 -1      2144 9.52149E+00
 -1      2145 9.38537E+00
 -1      2146 1.77099E+01
 -1      2147 1.12963E+01
 -1      2148 3.31588E+01
 -1      2149 2.12923E+01
 -1      2150 3.12299E+01
 -1      2151 3.99187E+01
 -1      2152 3.01674E+01
 -1      2153 3.17075E+01
 -1      2154 3.01674E+01
 -1      2155 3.01674E+01
 -1      2156 3.02676E+01
 -1      2157 2.91380E+01
 -1      2158 3.93233E+01
 -1      2159 3.04089E+01
 -1      2160 2.05236E+01
 -1      2161 3.28668E+01
 -1      2162 1.07362E+01
 -1      2163 1.68156E+01
 -1      2164 9.25953E+00
 -1      2165 9.02750E+00
 -1      2166 1.07608E+01
 -1      2167 1.07277E+01
 -1      2168 1.13656E+01
 -1      2169 1.16441E+01
 -1      2170 1.18000E+01
 -1      2171 1.13158E+01
 -1      2172 1.08298E+01
 -1      2173 1.09630E+01
 -1      2174 9.18046E+00
 -1      2175 9.47586E+00
 -1      2176 1.70270E+01
 -1      2177 1.07546E+01
 -1      2178 3.32667E+01
 -1      2179 2.08015E+01
 -1      2180 3.01210E+01
 -1      2181 3.95363E+01
 -1      2182 2.38513E+01
 -1      2183 3.00786E+01
 -1      2184 3.10242E+01
 -1      2185 9.58344E+00
 -1      2186 9.32241E+00
 -1      2187 1.39999E+01
 -1      2188 2.91094E+00
 -1      2189 8.64627E+00
 -1      2190 8.20082E+00
 -1      2191 2.10510E+00
 -1      2192 3.05085E+01
 -1      2193 3.08508E+01
 -1      2194 3.90023E-01
 -1      2195 2.45579E+01
 -1      2196 3.19275E+01
 -1      2197 3.10242E+01
 -1      2198 1.38070E+01
 -1      2199 8.45838E+00
 -1      2200 8.23827E+00
 -1      2201 1.04292E+01
 -1      2202 1.13158E+01
 -1      2203 1.04823E+01
 -1      2204 8.13082E+00
 -1      2205 8.37139E+00
 -1      2206 1.37881E+01
 -1      2207 2.39525E+01
 -1      2208 3.02676E+01
 -1      2209 3.11557E+01
 -1      2210 3.21851E+01
 -1      2211 3.17075E+01
 -1      2212 2.44700E+01
 -1      2213 1.41277E+01
 -1      2214 8.77045E+00
 -1      2215 1.02295E+01
 -1      2216 1.02602E+01
 -1      2217 8.23084E+00
 -1      2218 1.09023E+00
 -1      2219 1.48207E+00
 -1      2220 5.58884E-01
 -1      2221 5.89960E-01
 -1      2222 6.01728E-01
 -1      2223 6.50295E-01
 -1      2224 4.97809E-01
 -1      2225 5.11323E-01
 -1      2226 5.09725E-01
 -1      2227 5.46022E-01
 -1      2228 5.24232E-01
 -1      2229 4.44614E-01
 -1      2230 5.94080E-01
 -1      2231 5.60781E-01
 -1      2232 4.72282E-01
 -1      2233 6.53605E-01
 -1      2234 6.06076E-01
 -1      2235 4.99037E-01
 -1      2236 7.21257E-01
 -1      2237 6.53605E-01
 -1      2238 5.11033E-01
 -1      2239 8.83777E-01
 -1      2240 7.69738E-01
 -1      2241 5.59514E-01
 -1      2242 8.92852E-01
 -1      2243 1.01210E+00
 -1      2244 9.70980E-01
 -1      2245 1.26715E+00
 -1      2246 1.03655E+00
 -1      2247 6.28157E+00
 -1      2248 7.76221E+00
 -1      2249 9.87832E-01
 -1      2250 8.07653E-01
 -1      2251 7.55155E-01
 -1      2252 7.49879E-01
 -1      2253 6.24700E-01
 -1      2254 6.48665E-01
 -1      2255 5.68659E-01
 -1      2256 5.09752E-01
 -1      2257 5.34850E-01
 -1      2258 4.60586E-01
 -1      2259 4.12390E-01
 -1      2260 4.29643E-01
 -1      2261 3.85182E-01
 -1      2262 3.42899E-01
 -1      2263 3.53269E-01
 -1      2264 3.18278E-01
 -1      2265 2.85739E-01
 -1      2266 3.01441E-01
 -1      2267 2.62537E-01
 -1      2268 2.35438E-01
 -1      2269 2.53618E-01
 -1      2270 2.15752E-01
 -1      2271 1.92619E-01
 -1      2272 2.10730E-01
 -1      2273 1.75937E-01
 -1      2274 1.57477E-01
 -1      2275 1.74363E-01
 -1      2276 1.42814E-01
 -1      2277 1.28307E-01
 -1      2278 1.43018E-01
 -1      2279 1.15911E-01
 -1      2280 1.03564E-01
 -1      2281 1.15960E-01
 -1      2282 9.31273E-02
 -1      2283 8.26905E-02
 -1      2284 9.31273E-02
 -1      2285 7.48684E-02
 -1      2286 6.97909E-02
 -1      2287 7.48684E-02
 -1      2288 6.52974E-02
 -1      2289 6.64168E-02
 -1      2290 6.25528E-02
 -1      2291 7.12834E-02
 -1      2292 7.87439E-02
 -1      2293 6.29260E-02
 -1      2294 8.57656E-02
 -1      2295 9.65488E-02
 -1      2296 7.48143E-02
 -1      2297 1.15006E-01
 -1      2298 1.29289E-01
 -1      2299 1.00293E-01
 -1      2300 1.53347E-01
 -1      2301 1.78544E-01
 -1      2302 1.42809E-01
 -1      2303 2.07310E-01
 -1      2304 2.39539E-01
 -1      2305 1.95634E-01
 -1      2306 2.73016E-01
 -1      2307 3.10040E-01
 -1      2308 2.57877E-01
 -1      2309 3.47446E-01
 -1      2310 3.87503E-01
 -1      2311 3.28760E-01
 -1      2312 4.26858E-01
 -1      2313 4.66377E-01
 -1      2314 4.05522E-01
 -1      2315 5.04035E-01
 -1      2316 5.37090E-01
 -1      2317 4.82535E-01
 -1      2318 5.69740E-01
 -1      2319 6.04362E-01
 -1      2320 5.52842E-01
 -1      2321 6.33135E-01
 -1      2322 6.72168E-01
 -1      2323 6.14266E-01
 -1      2324 7.07076E-01
 -1      2325 7.21944E-01
 -1      2326 6.77947E-01
 -1      2327 7.39912E-01
 -1      2328 7.07245E-01
 -1      2329 7.30823E-01
 -1      2330 6.92214E-01
 -1      2331 6.31455E-01
 -1      2332 7.33760E-01
 -1      2333 7.20342E-01
 -1      2334 6.92485E-01
 -1      2335 8.07616E-01
 -1      2336 7.26544E-01
 -1      2337 9.37563E-01
 -1      2338 9.30562E-01
 -1      2339 1.09020E+00
 -1      2340 1.34144E+00
 -1      2341 1.11726E+00
 -1      2342 1.43610E+00
 -1      2343 1.64697E+00
 -1      2344 1.36456E+00
 -1      2345 1.82553E+00
 -1      2346 1.98496E+00
 -1      2347 1.63779E+00
 -1      2348 2.07790E+00
 -1      2349 2.04777E+00
 -1      2350 1.90930E+00
 -1      2351 2.06318E+00
 -1      2352 2.07314E+00
 -1      2353 2.01766E+00
 -1      2354 2.08413E+00
 -1      2355 1.98781E+00
 -1      2356 2.04407E+00
 -1      2357 1.75021E+00
 -1      2358 1.56154E+00
 -1      2359 1.81746E+00
 -1      2360 1.50936E+00
 -1      2361 1.30797E+00
 -1      2362 1.52768E+00
 -1      2363 1.18200E+00
 -1      2364 1.04345E+00
 -1      2365 1.34953E+00
 -1      2366 9.05792E-01
 -1      2367 7.72829E-01
 -1      2368 1.08590E+00
 -1      2369 6.98711E-01
 -1      2370 6.80712E-01
 -1      2371 8.74125E-01
 -1      2372 5.97291E-01
 -1      2373 5.72364E-01
 -1      2374 7.16586E-01
 -1      2375 5.11563E-01
 -1      2376 4.80798E-01
 -1      2377 5.72364E-01
 -1      2378 5.47339E-01
 -1      2379 6.26518E-01
 -1      2380 4.40016E-01
 -1      2381 4.93677E-01
 -1      2382 4.93677E-01
 -1      2383 3.74216E-01
 -1      2384 4.07116E-01
 -1      2385 4.07116E-01
 -1      2386 3.11340E-01
 -1      2387 3.42778E-01
 -1      2388 3.42778E-01
 -1      2389 2.56214E-01
 -1      2390 2.83777E-01
 -1      2391 2.83777E-01
 -1      2392 2.11907E-01
 -1      2393 2.34117E-01
 -1      2394 2.34117E-01
 -1      2395 1.73362E-01
 -1      2396 1.92725E-01
 -1      2397 1.92838E-01
 -1      2398 1.41497E-01
 -1      2399 1.57008E-01
 -1      2400 1.57303E-01
 -1      2401 1.16090E-01
 -1      2402 1.27896E-01
 -1      2403 1.27348E-01
 -1      2404 9.65665E-02
 -1      2405 1.05248E-01
 -1      2406 1.02906E-01
 -1      2407 8.26791E-02
 -1      2408 8.83860E-02
 -1      2409 8.38836E-02
 -1      2410 7.75094E-02
 -1      2411 7.76995E-02
 -1      2412 7.07235E-02
 -1      2413 8.42275E-02
 -1      2414 8.13170E-02
 -1      2415 6.95515E-02
 -1      2416 1.01918E-01
 -1      2417 9.25915E-02
 -1      2418 8.17230E-02
 -1      2419 1.32523E-01
 -1      2420 1.16736E-01
 -1      2421 1.04905E-01
 -1      2422 1.83196E-01
 -1      2423 1.60593E-01
 -1      2424 1.47794E-01
 -1      2425 2.59979E-01
 -1      2426 2.19240E-01
 -1      2427 2.11909E-01
 -1      2428 3.57955E-01
 -1      2429 3.05678E-01
 -1      2430 2.93652E-01
 -1      2431 4.79801E-01
 -1      2432 4.14730E-01
 -1      2433 3.96125E-01
 -1      2434 6.26035E-01
 -1      2435 5.48336E-01
 -1      2436 5.21435E-01
 -1      2437 7.92845E-01
 -1      2438 7.05463E-01
 -1      2439 6.69398E-01
 -1      2440 9.68936E-01
 -1      2441 8.79517E-01
 -1      2442 8.35499E-01
 -1      2443 1.13166E+00
 -1      2444 1.05479E+00
 -1      2445 1.00802E+00
 -1      2446 1.27096E+00
 -1      2447 1.20252E+00
 -1      2448 1.16472E+00
 -1      2449 1.35135E+00
 -1      2450 1.32777E+00
 -1      2451 1.29238E+00
 -1      2452 1.45113E+00
 -1      2453 1.45113E+00
 -1      2454 1.44897E+00
 -1      2455 1.45463E+00
 -1      2456 1.52962E+00
 -1      2457 1.62724E+00
 -1      2458 1.37831E+00
 -1      2459 1.45687E+00
 -1      2460 1.70796E+00
 -1      2461 1.74341E+00
 -1      2462 1.60513E+00
 -1      2463 1.93702E+00
 -1      2464 2.28298E+00
 -1      2465 1.83761E+00
 -1      2466 2.25804E+00
 -1      2467 2.58806E+00
 -1      2468 2.40089E+00
 -1      2469 2.47015E+00
 -1      2470 3.33316E+00
 -1      2471 3.12087E+00
 -1      2472 3.12087E+00
 -1      2473 3.46906E+00
 -1      2474 3.48701E+00
 -1      2475 3.80754E+00
 -1      2476 2.89938E+00
 -1      2477 2.97673E+00
 -1      2478 3.46906E+00
 -1      2479 2.17368E+00
 -1      2480 2.53575E+00
 -1      2481 2.61310E+00
 -1      2482 1.69810E+00
 -1      2483 2.10720E+00
 -1      2484 2.18298E+00
 -1      2485 1.50067E+00
 -1      2486 1.59914E+00
 -1      2487 2.01756E+00
 -1      2488 1.26892E+00
 -1      2489 1.26611E+00
 -1      2490 1.68404E+00
 -1      2491 1.22118E+00
 -1      2492 1.15568E+00
 -1      2493 1.33625E+00
 -1      2494 1.19037E+00
 -1      2495 1.20628E+00
 -1      2496 1.20811E+00
 -1      2497 1.02508E+00
 -1      2498 1.10679E+00
 -1      2499 1.10964E+00
 -1      2500 8.36088E-01
 -1      2501 8.88130E-01
 -1      2502 8.89115E-01
 -1      2503 8.13744E-01
 -1      2504 9.84539E-01
 -1      2505 8.57482E-01
 -1      2506 1.10102E+00
 -1      2507 1.08960E+00
 -1      2508 1.20756E+00
 -1      2509 6.89872E-01
 -1      2510 8.24448E-01
 -1      2511 8.50275E-01
 -1      2512 7.63210E-01
 -1      2513 1.01476E+00
 -1      2514 1.09530E+00
 -1      2515 1.10102E+00
 -1      2516 1.10102E+00
 -1      2517 1.31262E+00
 -1      2518 1.08864E+00
 -1      2519 1.09227E+00
 -1      2520 1.30387E+00
 -1      2521 8.94824E-01
 -1      2522 1.00828E+00
 -1      2523 1.21477E+00
 -1      2524 5.53419E-01
 -1      2525 6.84570E-01
 -1      2526 9.24160E-01
 -1      2527 5.10660E-01
 -1      2528 5.17529E-01
 -1      2529 6.78016E-01
 -1      2530 4.74965E-01
 -1      2531 4.68673E-01
 -1      2532 6.00139E-01
 -1      2533 4.36240E-01
 -1      2534 4.06156E-01
 -1      2535 4.89343E-01
 -1      2536 2.97741E+01
 -1      2537 3.08508E+01
 -1      2538 1.57825E+01
 -1      2539 2.24676E+01
 -1      2540 7.05697E-01
 -1      2541 7.99274E-01
 -1      2542 6.26518E-01
 -1      2543 4.51946E-01
 -1      2544 3.19275E+01
 -1      2545 3.19275E+01
 -1      2546 3.08508E+01
 -1      2547 2.65050E+01
 -1      2548 2.57706E+01
 -1      2549 1.67706E+00
 -1      2550 1.30239E+00
 -1      2551 8.39110E-01
 -1      2552 9.60097E-01
 -1      2553 1.31539E+01
 -1      2554 9.37927E+00
 -1      2555 5.22616E-01
 -1      2556 5.44607E-01
 -1      2557 4.71764E-01
 -1      2558 4.44596E-01
 -1      2559 8.99859E+00
 -1      2560 7.97436E+00
 -1      2561 5.89933E+00
 -1      2562 7.13454E+00
 -1      2563 9.56177E+00
 -1      2564 9.70755E+00
 -1      2565 8.33933E+00
 -1      2566 9.10276E+00
 -1      2567 8.70340E+00
 -1      2568 6.92857E+00
 -1      2569 1.38355E+01
 -1      2570 1.02531E+01
 -1      2571 2.30636E+01
 -1      2572 1.63036E+01
 -1      2573 1.24290E+01
 -1      2574 2.70742E+01
 -1      2575 2.65966E+01
 -1      2576 3.21851E+01
 -1      2577 3.21851E+01
 -1      2578 3.01263E+01
 -1      2579 3.11557E+01
 -1      2580 3.11557E+01
 -1      2581 2.59267E+01
 -1      2582 2.57854E+01
 -1      2583 1.56409E+01
 -1      2584 2.20973E+01
 -1      2585 1.76151E+01
 -1      2586 1.00024E+01
 -1      2587 1.37103E+01
 -1      2588 5.98402E+00
 -1      2589 7.69273E+00
 -1      2590 7.61499E+00
 -1      2591 7.28995E+00
 -1      2592 5.82182E+00
 -1      2593 9.09878E+00
 -1      2594 8.21548E+00
 -1      2595 5.90647E+00
 -1      2596 9.65432E+00
 -1      2597 9.70405E+00
 -1      2598 8.25042E+00
 -1      2599 9.08735E+00
 -1      2600 5.84555E+00
 -1      2601 7.19954E+00
 -1      2602 7.59744E+00
 -1      2603 6.02335E+00
 -1      2604 6.94425E+00
 -1      2605 2.13479E+01
 -1      2606 1.50782E+01
 -1      2607 2.69837E+01
 -1      2608 2.60804E+01
 -1      2609 6.89829E+00
 -1      2610 5.86310E+00
 -1      2611 4.97904E+00
 -1      2612 1.62181E+00
 -1      2613 1.76499E+00
 -1      2614 1.32861E+00
 -1      2615 1.18885E+00
 -1      2616 1.00343E+01
 -1      2617 1.39073E+01
 -1      2618 5.63664E+00
 -1      2619 6.17240E-01
 -1      2620 7.57959E-01
 -1      2621 8.22200E-01
 -1      2622 7.99274E-01
 -1      2623 1.24408E+00
 -1      2624 7.66958E+00
 -1      2625 1.06504E+01
 -1      2626 2.48260E+01
 -1      2627 2.48260E+01
 -1      2628 1.98822E+01
 -1      2629 7.29822E-01
 -1      2630 1.18169E+01
 -1      2631 7.29822E-01
 -1      2632 2.57706E+01
 -1      2633 1.77296E+01
 -1      2634 9.68298E-01
 -1      2635 8.96922E-01
 -1      2636 4.98462E+00
 -1      2637 5.85770E+00
 -1      2638 7.43726E+00
 -1      2639 5.14315E+00
 -1      2640 1.18552E+01
 -1      2641 2.57854E+01
 -1      2642 1.84303E+01
 -1      2643 8.41118E+00
 -1      2644 6.00782E+00
 -1      2645 7.67162E+00
 -1      2646 5.83227E+00
 -1      2647 7.42168E+00
 -1      2648 4.51946E-01
 -1      2649 4.51946E-01
 -1      2650 4.36240E-01
 -1      2651 4.50990E-01
 -1      2652 8.46792E-01
 -1      2653 2.70742E+01
 -1      2654 7.47556E+00
 -1      2655 1.73073E+01
 -1      2656 4.81754E-01
 -1      2657 4.22808E-01
 -1      2658 4.08049E-01
 -1      2659 4.00277E-01
 -1      2660 3.87368E-01
 -1      2661 3.50803E-01
 -1      2662 4.36391E-01
 -1      2663 4.36391E-01
 -1      2664 4.72822E-01
 -1      2665 4.24340E-01
 -1      2666 3.49698E-01
 -1      2667 7.18590E-01
 -1      2668 7.96718E-01
 -1      2669 7.99625E-01
 -1      2670 1.05264E+01
 -1      2671 8.60208E+00
 -1      2672 5.53042E-01
 -1      2673 4.95268E-01
 -1      2674 4.88163E-01
 -1      2675 4.32122E-01
 -1      2676 3.92540E-01
 -1      2677 4.12022E-01
 -1      2678 3.62856E-01
 -1      2679 3.65334E-01
 -1      2680 3.38165E-01
 -1      2681 3.10957E-01
 -1      2682 3.20543E-01
 -1      2683 2.86187E-01
 -1      2684 2.61567E-01
 -1      2685 2.71083E-01
 -1      2686 2.45741E-01
 -1      2687 2.22538E-01
 -1      2688 2.30487E-01
 -1      2689 2.06182E-01
 -1      2690 1.86497E-01
 -1      2691 1.98305E-01
 -1      2692 1.70709E-01
 -1      2693 1.54027E-01
 -1      2694 1.66160E-01
 -1      2695 1.40801E-01
 -1      2696 1.26138E-01
 -1      2697 1.37147E-01
 -1      2698 1.14490E-01
 -1      2699 1.02094E-01
 -1      2700 1.12272E-01
 -1      2701 9.18614E-02
 -1      2702 8.14245E-02
 -1      2703 9.03907E-02
 -1      2704 7.23116E-02
 -1      2705 6.44894E-02
 -1      2706 7.10456E-02
 -1      2707 5.60410E-02
 -1      2708 5.15475E-02
 -1      2709 5.34841E-02
 -1      2710 5.10593E-02
 -1      2711 5.59259E-02
 -1      2712 4.45474E-02
 -1      2713 6.29702E-02
 -1      2714 6.99920E-02
 -1      2715 5.11036E-02
 -1      2716 8.71230E-02
 -1      2717 1.05580E-01
 -1      2718 7.52790E-02
 -1      2719 1.26223E-01
 -1      2720 1.50281E-01
 -1      2721 1.13052E-01
 -1      2722 1.75159E-01
 -1      2723 2.03925E-01
 -1      2724 1.58573E-01
 -1      2725 2.33614E-01
 -1      2726 2.67091E-01
 -1      2727 2.13140E-01
 -1      2728 3.01863E-01
 -1      2729 3.39269E-01
 -1      2730 2.77601E-01
 -1      2731 3.78874E-01
 -1      2732 4.18229E-01
 -1      2733 3.51977E-01
 -1      2734 4.61573E-01
 -1      2735 4.99231E-01
 -1      2736 4.34925E-01
 -1      2737 5.43979E-01
 -1      2738 5.76629E-01
 -1      2739 5.23017E-01
 -1      2740 6.18322E-01
 -1      2741 6.47096E-01
 -1      2742 6.09459E-01
 -1      2743 6.96461E-01
 -1      2744 7.31368E-01
 -1      2745 7.00517E-01
 -1      2746 8.01435E-01
 -1      2747 8.19403E-01
 -1      2748 8.19948E-01
 -1      2749 8.82149E-01
 -1      2750 8.67118E-01
 -1      2751 9.52760E-01
 -1      2752 9.03668E-01
 -1      2753 9.92555E-01
 -1      2754 1.05206E+00
 -1      2755 1.16916E+00
 -1      2756 1.20322E+00
 -1      2757 1.26521E+00
 -1      2758 1.28328E+00
 -1      2759 1.43591E+00
 -1      2760 1.52187E+00
 -1      2761 1.52516E+00
 -1      2762 1.61983E+00
 -1      2763 1.69118E+00
 -1      2764 1.63779E+00
 -1      2765 1.81635E+00
 -1      2766 1.79839E+00
 -1      2767 2.37057E+00
 -1      2768 2.46352E+00
 -1      2769 2.37057E+00
 -1      2770 2.23138E+00
 -1      2771 2.24679E+00
 -1      2772 2.69265E+00
 -1      2773 3.60092E+00
 -1      2774 3.61191E+00
 -1      2775 3.81464E+00
 -1      2776 2.73954E+00
 -1      2777 2.50195E+00
 -1      2778 4.29640E+00
 -1      2779 1.79051E+00
 -1      2780 1.73833E+00
 -1      2781 2.71259E+00
 -1      2782 1.52485E+00
 -1      2783 1.39888E+00
 -1      2784 1.78767E+00
 -1      2785 1.35318E+00
 -1      2786 1.21552E+00
 -1      2787 1.52849E+00
 -1      2788 1.03507E+00
 -1      2789 9.60947E-01
 -1      2790 1.30234E+00
 -1      2791 8.00007E-01
 -1      2792 7.16586E-01
 -1      2793 9.60947E-01
 -1      2794 6.33165E-01
 -1      2795 5.72364E-01
 -1      2796 7.16586E-01
 -1      2797 3.52247E-01
 -1      2798 3.85147E-01
 -1      2799 1.29095E+00
 -1      2800 1.19632E+00
 -1      2801 1.33327E+00
 -1      2802 4.19289E-01
 -1      2803 4.72950E-01
 -1      2804 3.64420E-01
 -1      2805 2.46786E-01
 -1      2806 2.74349E-01
 -1      2807 2.06461E-01
 -1      2808 2.28558E-01
 -1      2809 2.19130E-01
 -1      2810 1.70431E-01
 -1      2811 1.89612E-01
 -1      2812 1.84054E-01
 -1      2813 1.39234E-01
 -1      2814 1.55588E-01
 -1      2815 1.52362E-01
 -1      2816 1.13027E-01
 -1      2817 1.26627E-01
 -1      2818 1.24912E-01
 -1      2819 9.13349E-02
 -1      2820 1.02177E-01
 -1      2821 1.01455E-01
 -1      2822 7.41112E-02
 -1      2823 8.22918E-02
 -1      2824 8.15625E-02
 -1      2825 6.12639E-02
 -1      2826 6.62435E-02
 -1      2827 6.46517E-02
 -1      2828 6.31887E-02
 -1      2829 5.93811E-02
 -1      2830 5.49011E-02
 -1      2831 7.67382E-02
 -1      2832 6.83743E-02
 -1      2833 5.82039E-02
 -1      2834 1.08046E-01
 -1      2835 9.32281E-02
 -1      2836 7.98794E-02
 -1      2837 1.59736E-01
 -1      2838 1.31665E-01
 -1      2839 1.19988E-01
 -1      2840 2.25580E-01
 -1      2841 1.89536E-01
 -1      2842 1.73407E-01
 -1      2843 3.08805E-01
 -1      2844 2.63107E-01
 -1      2845 2.40734E-01
 -1      2846 4.12459E-01
 -1      2847 3.55684E-01
 -1      2848 3.25139E-01
 -1      2849 5.38823E-01
 -1      2850 4.70289E-01
 -1      2851 4.29847E-01
 -1      2852 6.88419E-01
 -1      2853 6.08991E-01
 -1      2854 5.57844E-01
 -1      2855 8.58442E-01
 -1      2856 7.71770E-01
 -1      2857 7.11362E-01
 -1      2858 1.04056E+00
 -1      2859 9.54714E-01
 -1      2860 8.90985E-01
 -1      2861 1.21823E+00
 -1      2862 1.14738E+00
 -1      2863 1.09407E+00
 -1      2864 1.38553E+00
 -1      2865 1.32873E+00
 -1      2866 1.31138E+00
 -1      2867 1.58472E+00
 -1      2868 1.48493E+00
 -1      2869 1.52128E+00
 -1      2870 1.86840E+00
 -1      2871 1.78992E+00
 -1      2872 1.82588E+00
 -1      2873 2.14246E+00
 -1      2874 2.14023E+00
 -1      2875 2.30290E+00
 -1      2876 2.49654E+00
 -1      2877 2.26972E+00
 -1      2878 2.70198E+00
 -1      2879 3.23184E+00
 -1      2880 3.13764E+00
 -1      2881 3.47034E+00
 -1      2882 3.19132E+00
 -1      2883 3.07341E+00
 -1      2884 3.95301E+00
 -1      2885 5.12386E+00
 -1      2886 4.97000E+00
 -1      2887 4.51848E+00
 -1      2888 5.01082E+00
 -1      2889 2.59014E+00
 -1      2890 2.95378E+00
 -1      2891 4.49553E+00
 -1      2892 2.16527E+00
 -1      2893 2.23175E+00
 -1      2894 2.57243E+00
 -1      2895 2.64114E+00
 -1      2896 2.74009E+00
 -1      2897 2.78885E+00
 -1      2898 1.94451E+00
 -1      2899 2.17907E+00
 -1      2900 2.90160E+00
 -1      2901 1.61071E+00
 -1      2902 1.72395E+00
 -1      2903 2.21897E+00
 -1      2904 1.50494E+00
 -1      2905 1.51984E+00
 -1      2906 1.90754E+00
 -1      2907 1.60300E+00
 -1      2908 1.68658E+00
 -1      2909 1.99830E+00
 -1      2910 1.91021E+00
 -1      2911 9.33325E+00
 -1      2912 1.12085E+01
 -1      2913 1.55053E+00
 -1      2914 1.55928E+00
 -1      2915 2.43320E+01
 -1      2916 1.92211E+01
 -1      2917 1.53288E+00
 -1      2918 1.42782E+00
 -1      2919 1.47018E+00
 -1      2920 1.55053E+00
 -1      2921 1.80595E+00
 -1      2922 1.55908E+00
 -1      2923 1.55908E+00
 -1      2924 1.77934E+00
 -1      2925 1.80574E+00
 -1      2926 9.71843E-01
 -1      2927 1.18210E+00
 -1      2928 1.51786E+00
 -1      2929 8.72387E-01
 -1      2930 9.08277E-01
 -1      2931 1.16621E+00
 -1      2932 6.87733E-01
 -1      2933 7.29719E-01
 -1      2934 9.59981E-01
 -1      2935 1.25217E+01
 -1      2936 1.65591E+01
 -1      2937 1.91062E+01
 -1      2938 2.31097E+01
 -1      2939 1.38983E+01
 -1      2940 6.68916E+00
 -1      2941 4.90733E+00
 -1      2942 6.56517E+00
 -1      2943 2.17405E+01
 -1      2944 2.28172E+01
 -1      2945 8.28552E-01
 -1      2946 6.69126E-01
 -1      2947 6.33888E-01
 -1      2948 5.85171E-01
 -1      2949 5.94404E-01
 -1      2950 1.71637E+01
 -1      2951 1.36307E+01
 -1      2952 7.63714E+00
 -1      2953 6.08747E+00
 -1      2954 5.06614E-01
 -1      2955 5.85793E-01
 -1      2956 4.32225E-01
 -1      2957 2.93414E-01
 -1      2958 3.24852E-01
 -1      2959 3.02883E-01
 -1      2960 2.56423E-01
 -1      2961 5.63276E+00
 -1      2962 7.90482E+00
 -1      2963 4.36391E-01
 -1      2964 4.24395E-01
 -1      2965 3.60162E-01
 -1      2966 3.61748E-01
 -1      2967 4.25735E-01
 -1      2968 4.37503E-01
 -1      2969 6.11241E-01
 -1      2970 7.04818E-01
 -1      2971 5.30556E-01
 -1      2972 4.91337E-01
 -1      2973 4.60974E+00
 -1      2974 4.43194E+00
 -1      2975 6.74946E+00
 -1      2976 7.20848E+00
 -1      2977 5.05049E-01
 -1      2978 4.89343E-01
 -1      2979 5.34858E-01
 -1      2980 5.32805E+00
 -1      2981 4.29881E+00
 -1      2982 7.09544E+00
 -1      2983 6.38647E+00
 -1      2984 4.55899E+00
 -1      2985 5.76378E+00
 -1      2986 5.30064E+00
 -1      2987 4.05477E+00
 -1      2988 1.23720E+01
 -1      2989 9.90380E+00
 -1      2990 7.58009E+00
 -1      2991 6.19872E+00
 -1      2992 6.76570E+00
 -1      2993 2.22750E+01
 -1      2994 2.33044E+01
 -1      2995 1.91836E+01
 -1      2996 2.35245E+01
 -1      2997 1.22746E+01
 -1      2998 1.61039E+01
 -1      2999 8.86438E+00
 -1      3000 1.07950E+01
 -1      3001 9.28381E+00
 -1      3002 5.45318E+00
 -1      3003 7.76281E+00
 -1      3004 4.26957E+00
 -1      3005 4.43177E+00
 -1      3006 5.24977E+00
 -1      3007 4.32424E+00
 -1      3008 1.66044E+01
 -1      3009 1.18718E+01
 -1      3010 6.64191E+00
 -1      3011 6.03665E+00
 -1      3012 4.45442E+00
 -1      3013 4.98779E+00
 -1      3014 6.03867E+00
 -1      3015 3.69790E+00
 -1      3016 4.11637E+00
 -1      3017 4.35162E+00
 -1      3018 5.19560E+00
 -1      3019 4.11952E+00
 -1      3020 4.86740E-01
 -1      3021 5.94404E-01
 -1      3022 4.14667E-01
 -1      3023 3.42957E-01
 -1      3024 3.87294E-01
 -1      3025 4.00185E-01
 -1      3026 4.35465E+00
 -1      3027 1.11055E+01
 -1      3028 9.82350E+00
 -1      3029 2.28172E+01
 -1      3030 1.57157E+01
 -1      3031 1.37068E+01
 -1      3032 7.29642E+00
 -1      3033 5.95659E-01
 -1      3034 3.25686E+00
 -1      3035 1.00380E+01
 -1      3036 3.98432E+00
 -1      3037 3.45151E+00
 -1      3038 6.17327E+00
 -1      3039 1.44215E+01
 -1      3040 1.69680E+00
 -1      3041 1.37149E+00
 -1      3042 1.36428E+00
 -1      3043 1.36428E+00
 -1      3044 6.55591E+00
 -1      3045 5.15529E+00
 -1      3046 5.27907E+00
 -1      3047 5.58153E-01
 -1      3048 1.66118E+01
 -1      3049 1.11763E+01
 -1      3050 1.44541E+01
 -1      3051 1.50761E+01
 -1      3052 5.32881E+00
 -1      3053 3.61286E+00
 -1      3054 6.70257E+00
 -1      3055 5.76162E-01
 -1      3056 5.64683E-01
 -1      3057 5.64683E-01
 -1      3058 6.94263E-01
 -1      3059 6.02189E-01
 -1      3060 4.40988E-01
 -1      3061 4.07651E-01
 -1      3062 4.21928E-01
 -1      3063 3.61622E-01
 -1      3064 3.50349E-01
 -1      3065 1.38431E+01
 -1      3066 4.55401E+00
 -1      3067 3.63695E+00
 -1      3068 4.01183E+00
 -1      3069 4.19280E+00
 -1      3070 1.54513E+01
 -1      3071 1.56732E+01
 -1      3072 4.31774E-01
 -1      3073 4.57960E+00
 -1      3074 2.89618E-01
 -1      3075 3.01668E-01
 -1      3076 1.02400E+01
 -1      3077 1.33197E+01
 -1      3078 3.21545E-01
 -1      3079 3.01445E-01
 -1      3080 2.97792E-01
 -1      3081 2.73101E-01
 -1      3082 2.54003E-01
 -1      3083 2.62151E-01
 -1      3084 2.37381E-01
 -1      3085 2.39399E-01
 -1      3086 2.23132E-01
 -1      3087 2.07305E-01
 -1      3088 2.14200E-01
 -1      3089 1.93839E-01
 -1      3090 1.77483E-01
 -1      3091 1.86484E-01
 -1      3092 1.66650E-01
 -1      3093 1.50862E-01
 -1      3094 1.62185E-01
 -1      3095 1.39262E-01
 -1      3096 1.26036E-01
 -1      3097 1.39752E-01
 -1      3098 1.14531E-01
 -1      3099 1.02882E-01
 -1      3100 1.16647E-01
 -1      3101 9.18553E-02
 -1      3102 8.16232E-02
 -1      3103 9.41147E-02
 -1      3104 7.11176E-02
 -1      3105 6.20046E-02
 -1      3106 7.25822E-02
 -1      3107 5.18184E-02
 -1      3108 4.33699E-02
 -1      3109 5.18904E-02
 -1      3110 3.79043E-02
 -1      3111 3.74161E-02
 -1      3112 3.62386E-02
 -1      3113 4.11449E-02
 -1      3114 4.81893E-02
 -1      3115 3.45018E-02
 -1      3116 6.19881E-02
 -1      3117 7.91191E-02
 -1      3118 5.20294E-02
 -1      3119 9.65308E-02
 -1      3120 1.17173E-01
 -1      3121 8.32399E-02
 -1      3122 1.38785E-01
 -1      3123 1.63663E-01
 -1      3124 1.22263E-01
 -1      3125 1.89336E-01
 -1      3126 2.19025E-01
 -1      3127 1.69548E-01
 -1      3128 2.48739E-01
 -1      3129 2.83511E-01
 -1      3130 2.24935E-01
 -1      3131 3.18831E-01
 -1      3132 3.58436E-01
 -1      3133 2.89969E-01
 -1      3134 4.04791E-01
 -1      3135 4.48135E-01
 -1      3136 3.71645E-01
 -1      3137 5.02238E-01
 -1      3138 5.46986E-01
 -1      3139 4.72103E-01
 -1      3140 6.07369E-01
 -1      3141 6.49062E-01
 -1      3142 5.86589E-01
 -1      3143 7.20173E-01
 -1      3144 7.69538E-01
 -1      3145 7.18083E-01
 -1      3146 8.44269E-01
 -1      3147 9.14335E-01
 -1      3148 8.63925E-01
 -1      3149 1.03257E+00
 -1      3150 1.09532E+00
 -1      3151 1.05689E+00
 -1      3152 1.24020E+00
 -1      3153 1.27675E+00
 -1      3154 1.32001E+00
 -1      3155 1.41264E+00
 -1      3156 1.58924E+00
 -1      3157 1.60078E+00
 -1      3158 1.90249E+00
 -1      3159 1.98255E+00
 -1      3160 2.04992E+00
 -1      3161 2.05233E+00
 -1      3162 2.14157E+00
 -1      3163 2.43294E+00
 -1      3164 1.78043E+00
 -1      3165 1.79839E+00
 -1      3166 2.14157E+00
 -1      3167 3.18407E+00
 -1      3168 2.95193E+00
 -1      3169 3.81464E+00
 -1      3170 5.16876E+00
 -1      3171 5.16876E+00
 -1      3172 4.29640E+00
 -1      3173 2.04050E+00
 -1      3174 1.82702E+00
 -1      3175 1.91282E+00
 -1      3176 1.86712E+00
 -1      3177 2.16565E+00
 -1      3178 1.49201E+00
 -1      3179 1.31156E+00
 -1      3180 1.87634E+00
 -1      3181 1.12189E+00
 -1      3182 9.60947E-01
 -1      3183 1.31156E+00
 -1      3184 7.39565E-01
 -1      3185 6.56144E-01
 -1      3186 6.25168E-01
 -1      3187 9.00505E-01
 -1      3188 3.09318E-01
 -1      3189 3.43459E-01
 -1      3190 1.65763E-01
 -1      3191 1.82612E-01
 -1      3192 1.95645E-01
 -1      3193 2.13873E-01
 -1      3194 1.77354E-01
 -1      3195 1.12272E-01
 -1      3196 1.24879E-01
 -1      3197 8.95130E-02
 -1      3198 1.00363E-01
 -1      3199 1.00330E-01
 -1      3200 6.98749E-02
 -1      3201 7.89180E-02
 -1      3202 7.78254E-02
 -1      3203 5.29587E-02
 -1      3204 6.08265E-02
 -1      3205 5.81820E-02
 -1      3206 4.20077E-02
 -1      3207 4.38905E-02
 -1      3208 4.00654E-02
 -1      3209 4.96673E-02
 -1      3210 4.44817E-02
 -1      3211 3.34711E-02
 -1      3212 8.12939E-02
 -1      3213 6.48040E-02
 -1      3214 5.10818E-02
 -1      3215 1.23299E-01
 -1      3216 9.96801E-02
 -1      3217 8.46048E-02
 -1      3218 1.75811E-01
 -1      3219 1.46011E-01
 -1      3220 1.25703E-01
 -1      3221 2.41816E-01
 -1      3222 2.04289E-01
 -1      3223 1.76893E-01
 -1      3224 3.29071E-01
 -1      3225 2.82193E-01
 -1      3226 2.45748E-01
 -1      3227 4.37817E-01
 -1      3228 3.79988E-01
 -1      3229 3.37041E-01
 -1      3230 5.70997E-01
 -1      3231 5.00830E-01
 -1      3232 4.50970E-01
 -1      3233 7.30192E-01
 -1      3234 6.46841E-01
 -1      3235 5.89827E-01
 -1      3236 9.13953E-01
 -1      3237 8.17681E-01
 -1      3238 7.53160E-01
 -1      3239 1.13445E+00
 -1      3240 1.02763E+00
 -1      3241 9.54329E-01
 -1      3242 1.39613E+00
 -1      3243 1.28564E+00
 -1      3244 1.21920E+00
 -1      3245 1.71321E+00
 -1      3246 1.61381E+00
 -1      3247 1.58807E+00
 -1      3248 2.18247E+00
 -1      3249 1.97727E+00
 -1      3250 2.06980E+00
 -1      3251 2.76299E+00
 -1      3252 2.49116E+00
 -1      3253 2.64256E+00
 -1      3254 3.47431E+00
 -1      3255 3.34705E+00
 -1      3256 3.53532E+00
 -1      3257 4.71244E+00
 -1      3258 3.91346E+00
 -1      3259 4.37553E+00
 -1      3260 2.59360E+00
 -1      3261 2.81416E+00
 -1      3262 4.28809E+00
 -1      3263 2.27657E+00
 -1      3264 2.36743E+00
 -1      3265 2.96263E+00
 -1      3266 4.13587E-01
 -1      3267 3.10247E-01
 -1      3268 2.62217E-01
 -1      3269 3.99816E-01
 -1      3270 1.70282E+00
 -1      3271 1.99090E+00
 -1      3272 2.27602E+00
 -1      3273 2.27602E+00
 -1      3274 2.46097E+00
 -1      3275 9.69518E+00
 -1      3276 1.22423E+01
 -1      3277 7.77799E+00
 -1      3278 9.09115E+00
 -1      3279 9.63126E+00
 -1      3280 8.37255E+00
 -1      3281 5.62769E+00
 -1      3282 7.05612E+00
 -1      3283 6.97686E+00
 -1      3284 5.06394E+00
 -1      3285 4.63904E-01
 -1      3286 3.91813E+00
 -1      3287 3.62054E+00
 -1      3288 4.32982E+00
 -1      3289 3.52951E-01
 -1      3290 3.86615E-01
 -1      3291 2.97849E-01
 -1      3292 1.43932E+00
 -1      3293 1.50288E+00
 -1      3294 1.97592E+00
 -1      3295 1.10016E+00
 -1      3296 1.24283E+00
 -1      3297 1.57949E+00
 -1      3298 1.64048E+00
 -1      3299 8.72777E+00
 -1      3300 7.38236E+00
 -1      3301 1.27037E+01
 -1      3302 1.13345E+01
 -1      3303 4.86936E+00
 -1      3304 1.37630E-01
 -1      3305 1.52472E-01
 -1      3306 1.51031E-01
 -1      3307 1.24990E-01
 -1      3308 3.16476E-01
 -1      3309 3.09371E-01
 -1      3310 2.45482E-01
 -1      3311 1.29852E+01
 -1      3312 1.09279E+01
 -1      3313 8.19495E+00
 -1      3314 2.91493E+00
 -1      3315 2.86025E+00
 -1      3316 1.36498E+01
 -1      3317 1.24003E+01
 -1      3318 3.59351E-01
 -1      3319 3.27221E-01
 -1      3320 2.44053E-01
 -1      3321 3.59351E-01
 -1      3322 7.39239E+00
 -1      3323 8.87205E+00
 -1      3324 5.26197E+00
 -1      3325 6.36353E+00
 -1      3326 5.95178E+00
 -1      3327 4.18841E+00
 -1      3328 3.40153E+00
 -1      3329 1.24003E+01
 -1      3330 1.34279E+01
 -1      3331 1.03769E+01
 -1      3332 3.23296E-01
 -1      3333 3.15524E-01
 -1      3334 8.00054E+00
 -1      3335 5.73388E+00
 -1      3336 3.89437E+00
 -1      3337 4.91577E+00
 -1      3338 5.13288E+00
 -1      3339 3.24550E-01
 -1      3340 3.24476E-01
 -1      3341 2.97043E-01
 -1      3342 7.87503E-01
 -1      3343 9.10552E-01
 -1      3344 1.19340E+00
 -1      3345 8.41457E-01
 -1      3346 8.45598E+00
 -1      3347 1.20591E+01
 -1      3348 8.78614E+00
 -1      3349 1.09793E+01
 -1      3350 1.09793E+01
 -1      3351 8.60695E+00
 -1      3352 3.03016E+00
 -1      3353 3.28944E+00
 -1      3354 2.30133E+00
 -1      3355 2.85555E+00
 -1      3356 3.38619E+00
 -1      3357 2.67475E+00
 -1      3358 2.96092E+00
 -1      3359 3.22693E+00
 -1      3360 2.04818E-01
 -1      3361 2.28303E-01
 -1      3362 2.47368E-01
 -1      3363 4.49178E+00
 -1      3364 5.13685E+00
 -1      3365 3.30465E+00
 -1      3366 1.99830E+00
 -1      3367 2.45820E+00
 -1      3368 2.17994E+00
 -1      3369 1.91021E+00
 -1      3370 2.17994E+00
 -1      3371 1.91021E+00
 -1      3372 2.24401E+00
 -1      3373 2.21781E+00
 -1      3374 2.65733E-01
 -1      3375 2.93128E-01
 -1      3376 2.37613E-01
 -1      3377 3.32411E-01
 -1      3378 3.81648E-01
 -1      3379 2.77095E-01
 -1      3380 1.78605E+00
 -1      3381 1.72972E+00
 -1      3382 1.99946E+00
 -1      3383 2.25073E+00
 -1      3384 7.43515E+00
 -1      3385 2.27602E+00
 -1      3386 2.27582E+00
 -1      3387 2.71429E+00
 -1      3388 2.74609E+00
 -1      3389 5.32881E+00
 -1      3390 5.11902E+00
 -1      3391 6.52634E+00
 -1      3392 6.10925E+00
 -1      3393 3.19643E+00
 -1      3394 1.24453E+01
 -1      3395 4.25632E+00
 -1      3396 4.34232E+00
 -1      3397 8.34861E+00
 -1      3398 5.88114E+00
 -1      3399 5.16876E+00
 -1      3400 2.72168E-01
 -1      3401 4.61584E+00
 -1      3402 2.71410E+00
 -1      3403 2.94625E+00
 -1      3404 2.52463E+00
 -1      3405 3.20042E+00
 -1      3406 8.50063E+00
 -1      3407 4.04102E+00
 -1      3408 8.88665E+00
 -1      3409 6.44552E+00
 -1      3410 8.89409E+00
 -1      3411 3.21160E-01
 -1      3412 3.21160E-01
 -1      3413 2.61080E-01
 -1      3414 3.24882E-01
 -1      3415 3.23296E-01
 -1      3416 2.88016E-01
 -1      3417 2.84294E-01
 -1      3418 3.68706E-01
 -1      3419 3.94153E-01
 -1      3420 2.77184E-01
 -1      3421 2.89431E-01
 -1      3422 2.28337E+00
 -1      3423 3.44326E-01
 -1      3424 3.11308E-01
 -1      3425 3.40519E-01
 -1      3426 9.93423E+00
 -1      3427 4.57673E+00
 -1      3428 4.30606E+00
 -1      3429 2.17064E-01
 -1      3430 2.06114E-01
 -1      3431 2.02388E-01
 -1      3432 1.88138E-01
 -1      3433 1.80053E-01
 -1      3434 1.80132E-01
 -1      3435 1.66666E-01
 -1      3436 1.68320E-01
 -1      3437 1.56531E-01
 -1      3438 1.45699E-01
 -1      3439 1.50179E-01
 -1      3440 1.37411E-01
 -1      3441 1.25811E-01
 -1      3442 1.31758E-01
 -1      3443 1.17104E-01
 -1      3444 1.05599E-01
 -1      3445 1.14763E-01
 -1      3446 9.65012E-02
 -1      3447 8.54743E-02
 -1      3448 9.69585E-02
 -1      3449 7.64003E-02
 -1      3450 6.58947E-02
 -1      3451 7.87868E-02
 -1      3452 5.69689E-02
 -1      3453 4.67826E-02
 -1      3454 6.07869E-02
 -1      3455 4.36056E-02
 -1      3456 3.81400E-02
 -1      3457 4.86841E-02
 -1      3458 3.97609E-02
 -1      3459 4.34897E-02
 -1      3460 4.71279E-02
 -1      3461 5.10487E-02
 -1      3462 6.48475E-02
 -1      3463 5.63078E-02
 -1      3464 8.18098E-02
 -1      3465 9.92215E-02
 -1      3466 8.08292E-02
 -1      3467 1.19982E-01
 -1      3468 1.41594E-01
 -1      3469 1.18552E-01
 -1      3470 1.66859E-01
 -1      3471 1.92532E-01
 -1      3472 1.64578E-01
 -1      3473 2.22875E-01
 -1      3474 2.52588E-01
 -1      3475 2.20185E-01
 -1      3476 2.88294E-01
 -1      3477 3.23614E-01
 -1      3478 2.86233E-01
 -1      3479 3.64421E-01
 -1      3480 4.10776E-01
 -1      3481 3.62746E-01
 -1      3482 4.55424E-01
 -1      3483 5.09527E-01
 -1      3484 4.48200E-01
 -1      3485 5.67496E-01
 -1      3486 6.27879E-01
 -1      3487 5.50817E-01
 -1      3488 7.01641E-01
 -1      3489 7.72753E-01
 -1      3490 6.82548E-01
 -1      3491 8.96299E-01
 -1      3492 9.71030E-01
 -1      3493 8.79857E-01
 -1      3494 1.12915E+00
 -1      3495 1.24739E+00
 -1      3496 1.16152E+00
 -1      3497 1.41012E+00
 -1      3498 1.55500E+00
 -1      3499 1.48238E+00
 -1      3500 1.74730E+00
 -1      3501 1.88319E+00
 -1      3502 1.83741E+00
 -1      3503 2.30420E+00
 -1      3504 2.61745E+00
 -1      3505 2.45072E+00
 -1      3506 4.25856E+00
 -1      3507 2.47431E+00
 -1      3508 2.43149E+00
 -1      3509 2.63142E+00
 -1      3510 2.60483E+00
 -1      3511 2.22972E+00
 -1      3512 1.86669E+00
 -1      3513 1.67701E+00
 -1      3514 2.59517E+00
 -1      3515 1.86201E-01
 -1      3516 1.98375E-01
 -1      3517 7.12946E-02
 -1      3518 8.18896E-02
 -1      3519 9.18359E-02
 -1      3520 1.03745E-01
 -1      3521 8.53051E-02
 -1      3522 3.53064E-02
 -1      3523 4.43747E-02
 -1      3524 3.91919E-02
 -1      3525 3.67180E-02
 -1      3526 4.10273E-02
 -1      3527 6.20643E-02
 -1      3528 4.69276E-02
 -1      3529 5.01744E-02
 -1      3530 9.76469E-02
 -1      3531 7.92606E-02
 -1      3532 7.51064E-02
 -1      3533 1.43297E-01
 -1      3534 1.20585E-01
 -1      3535 1.15241E-01
 -1      3536 2.01034E-01
 -1      3537 1.72556E-01
 -1      3538 1.67438E-01
 -1      3539 2.78741E-01
 -1      3540 2.38365E-01
 -1      3541 2.34028E-01
 -1      3542 3.77140E-01
 -1      3543 3.26223E-01
 -1      3544 3.18840E-01
 -1      3545 5.00260E-01
 -1      3546 4.37248E-01
 -1      3547 4.26430E-01
 -1      3548 6.51778E-01
 -1      3549 5.75933E-01
 -1      3550 5.62211E-01
 -1      3551 8.33896E-01
 -1      3552 7.46407E-01
 -1      3553 7.32513E-01
 -1      3554 1.06464E+00
 -1      3555 9.50965E-01
 -1      3556 9.44212E-01
 -1      3557 1.35721E+00
 -1      3558 1.20602E+00
 -1      3559 1.20266E+00
 -1      3560 1.75757E+00
 -1      3561 1.53989E+00
 -1      3562 1.52671E+00
 -1      3563 2.45265E+00
 -1      3564 2.18860E+00
 -1      3565 2.14042E+00
 -1      3566 4.63971E+00
 -1      3567 4.33101E+00
 -1      3568 4.44980E+00
 -1      3569 5.91955E+00
 -1      3570 5.33549E+00
 -1      3571 7.02394E+00
 -1      3572 2.96263E+00
 -1      3573 3.18880E+00
 -1      3574 5.00996E+00
 -1      3575 3.37488E+00
 -1      3576 3.65999E+00
 -1      3577 3.83044E+00
 -1      3578 2.33437E-01
 -1      3579 2.49627E-01
 -1      3580 5.50887E+00
 -1      3581 1.09793E+01
 -1      3582 9.71780E+00
 -1      3583 7.08800E+00
 -1      3584 8.45598E+00
 -1      3585 9.22367E+00
 -1      3586 9.22367E+00
 -1      3587 4.38308E+00
 -1      3588 3.23727E+00
 -1      3589 2.48674E-01
 -1      3590 2.58165E-01
 -1      3591 2.09944E-01
 -1      3592 3.33053E-01
 -1      3593 3.40519E-01
 -1      3594 3.23223E-01
 -1      3595 3.14646E-01
 -1      3596 1.58692E-01
 -1      3597 1.71725E-01
 -1      3598 5.96446E+00
 -1      3599 6.56848E+00
 -1      3600 7.30903E+00
 -1      3601 2.16702E-01
 -1      3602 2.13048E-01
 -1      3603 1.79763E-01
 -1      3604 9.22367E+00
 -1      3605 8.78099E+00
 -1      3606 5.25728E-02
 -1      3607 6.16212E-02
 -1      3608 6.56853E-02
 -1      3609 4.78138E-02
 -1      3610 8.60564E+00
 -1      3611 5.03082E+00
 -1      3612 4.62531E+00
 -1      3613 2.68518E+00
 -1      3614 2.77098E+00
 -1      3615 4.88626E+00
 -1      3616 5.91511E+00
 -1      3617 2.04432E+00
 -1      3618 2.24080E+00
 -1      3619 2.89631E+00
 -1      3620 3.93813E+00
 -1      3621 4.28432E+00
 -1      3622 6.77823E+00
 -1      3623 7.23969E+00
 -1      3624 7.14002E+00
 -1      3625 6.78489E+00
 -1      3626 5.41762E+00
 -1      3627 7.89507E+00
 -1      3628 3.25873E+00
 -1      3629 3.00444E+00
 -1      3630 3.07422E+00
 -1      3631 3.36663E+00
 -1      3632 3.00549E+00
 -1      3633 8.26199E+00
 -1      3634 7.10875E+00
 -1      3635 6.67122E+00
 -1      3636 3.12436E+00
 -1      3637 4.24766E+00
 -1      3638 1.57421E-01
 -1      3639 1.33694E+00
 -1      3640 1.11556E+00
 -1      3641 1.27789E+00
 -1      3642 1.89207E+00
 -1      3643 1.97137E+00
 -1      3644 1.05382E-01
 -1      3645 1.13875E-01
 -1      3646 1.26626E-01
 -1      3647 2.90228E+00
 -1      3648 3.12845E+00
 -1      3649 2.62402E+00
 -1      3650 2.59238E-01
 -1      3651 2.68265E-01
 -1      3652 2.22996E-01
 -1      3653 2.02367E-01
 -1      3654 2.17334E-01
 -1      3655 5.00996E+00
 -1      3656 2.26955E-01
 -1      3657 2.04414E-01
 -1      3658 2.08590E-01
 -1      3659 5.38475E+00
 -1      3660 5.22587E+00
 -1      3661 3.97004E+00
 -1      3662 3.57691E+00
 -1      3663 3.14516E+00
 -1      3664 5.30754E+00
 -1      3665 3.65999E+00
 -1      3666 3.65999E+00
 -1      3667 4.57390E+00
 -1      3668 8.25182E+00
 -1      3669 3.60872E+00
 -1      3670 3.57691E+00
 -1      3671 4.47135E+00
 -1      3672 4.52262E+00
 -1      3673 1.83676E-01
 -1      3674 1.98106E-01
 -1      3675 1.65013E-01
 -1      3676 7.19537E+00
 -1      3677 8.07043E+00
 -1      3678 2.63193E+00
 -1      3679 1.95419E-01
 -1      3680 2.44593E-01
 -1      3681 3.26618E+00
 -1      3682 3.53276E+00
 -1      3683 7.42811E+00
 -1      3684 2.21859E-01
 -1      3685 1.49826E-01
 -1      3686 1.44196E-01
 -1      3687 1.36535E-01
 -1      3688 6.02248E+00
 -1      3689 1.46750E+00
 -1      3690 1.98337E-01
 -1      3691 1.87591E-01
 -1      3692 1.40485E-01
 -1      3693 2.20634E-01
 -1      3694 2.12881E+00
 -1      3695 2.52164E-01
 -1      3696 2.52164E-01
 -1      3697 2.23386E-01
 -1      3698 2.26684E-01
 -1      3699 2.48801E-01
 -1      3700 2.36885E-01
 -1      3701 1.58127E-01
 -1      3702 3.86066E+00
 -1      3703 1.56157E-01
 -1      3704 1.48151E-01
 -1      3705 1.43570E-01
 -1      3706 1.33436E-01
 -1      3707 1.31408E-01
 -1      3708 1.26471E-01
 -1      3709 1.18184E-01
 -1      3710 1.19862E-01
 -1      3711 1.10835E-01
 -1      3712 1.02128E-01
 -1      3713 1.05549E-01
 -1      3714 9.55570E-02
 -1      3715 8.64594E-02
 -1      3716 9.16290E-02
 -1      3717 7.94377E-02
 -1      3718 7.03636E-02
 -1      3719 7.80361E-02
 -1      3720 6.32761E-02
 -1      3721 5.43503E-02
 -1      3722 6.39269E-02
 -1      3723 5.35207E-02
 -1      3724 5.03437E-02
 -1      3725 5.60099E-02
 -1      3726 5.19219E-02
 -1      3727 5.35428E-02
 -1      3728 5.67585E-02
 -1      3729 5.69244E-02
 -1      3730 6.44834E-02
 -1      3731 6.17183E-02
 -1      3732 7.49298E-02
 -1      3733 9.18921E-02
 -1      3734 7.55463E-02
 -1      3735 1.10113E-01
 -1      3736 1.30874E-01
 -1      3737 1.04214E-01
 -1      3738 1.53640E-01
 -1      3739 1.78905E-01
 -1      3740 1.45202E-01
 -1      3741 2.07219E-01
 -1      3742 2.37562E-01
 -1      3743 1.96282E-01
 -1      3744 2.72536E-01
 -1      3745 3.08242E-01
 -1      3746 2.59570E-01
 -1      3747 3.51093E-01
 -1      3748 3.91900E-01
 -1      3749 3.37396E-01
 -1      3750 4.43902E-01
 -1      3751 4.88550E-01
 -1      3752 4.32250E-01
 -1      3753 5.50817E-01
 -1      3754 6.08786E-01
 -1      3755 5.46519E-01
 -1      3756 6.81495E-01
 -1      3757 7.55257E-01
 -1      3758 6.81495E-01
 -1      3759 8.60207E-01
 -1      3760 9.83753E-01
 -1      3761 8.59153E-01
 -1      3762 1.13766E+00
 -1      3763 1.29578E+00
 -1      3764 1.11801E+00
 -1      3765 1.62239E+00
 -1      3766 1.78513E+00
 -1      3767 1.59853E+00
 -1      3768 2.83849E+00
 -1      3769 3.03079E+00
 -1      3770 2.97850E+00
 -1      3771 3.83579E+00
 -1      3772 4.25680E+00
 -1      3773 5.24573E+00
 -1      3774 4.83686E+00
 -1      3775 3.36660E+00
 -1      3776 2.46888E+00
 -1      3777 1.72496E-01
 -1      3778 5.89220E-02
 -1      3779 5.11864E-02
 -1      3780 4.80995E-02
 -1      3781 4.66880E-02
 -1      3782 5.68472E-02
 -1      3783 1.29333E-01
 -1      3784 1.06394E-01
 -1      3785 1.83233E-01
 -1      3786 1.53974E-01
 -1      3787 1.45127E-01
 -1      3788 2.51949E-01
 -1      3789 2.14618E-01
 -1      3790 2.01154E-01
 -1      3791 3.39456E-01
 -1      3792 2.91975E-01
 -1      3793 2.72565E-01
 -1      3794 4.50773E-01
 -1      3795 3.90665E-01
 -1      3796 3.63799E-01
 -1      3797 5.92478E-01
 -1      3798 5.16805E-01
 -1      3799 4.81040E-01
 -1      3800 7.73546E-01
 -1      3801 6.78916E-01
 -1      3802 6.33510E-01
 -1      3803 1.00639E+00
 -1      3804 8.89323E-01
 -1      3805 8.35726E-01
 -1      3806 1.30807E+00
 -1      3807 1.16670E+00
 -1      3808 1.11181E+00
 -1      3809 1.70939E+00
 -1      3810 1.52671E+00
 -1      3811 1.49076E+00
 -1      3812 2.68335E+00
 -1      3813 2.25233E+00
 -1      3814 2.25233E+00
 -1      3815 5.79177E+00
 -1      3816 3.91342E+00
 -1      3817 4.02532E+00
 -1      3818 7.19929E+00
 -1      3819 1.50249E-01
 -1      3820 1.54265E-01
 -1      3821 2.17994E+00
 -1      3822 4.66484E+00
 -1      3823 5.40829E+00
 -1      3824 1.27675E-01
 -1      3825 1.26285E-01
 -1      3826 1.43927E-01
 -1      3827 4.78457E+00
 -1      3828 4.99432E+00
 -1      3829 7.24725E+00
 -1      3830 7.24725E+00
 -1      3831 1.76597E-01
 -1      3832 1.63025E-01
 -1      3833 6.66291E+00
 -1      3834 6.66291E+00
 -1      3835 3.19862E+00
 -1      3836 3.43536E+00
 -1      3837 3.62604E+00
 -1      3838 3.56165E+00
 -1      3839 1.79350E-01
 -1      3840 2.38064E-01
 -1      3841 2.41785E-01
 -1      3842 1.88701E-01
 -1      3843 2.30461E-01
 -1      3844 2.68265E-01
 -1      3845 2.76842E-01
 -1      3846 7.24725E+00
 -1      3847 6.42354E+00
 -1      3848 1.17175E-01
 -1      3849 1.35501E-01
 -1      3850 1.10003E-01
 -1      3851 1.04365E-01
 -1      3852 3.76972E+00
 -1      3853 2.44354E+00
 -1      3854 3.97004E+00
 -1      3855 8.70026E-02
 -1      3856 6.98063E-02
 -1      3857 1.01094E-01
 -1      3858 1.60294E-01
 -1      3859 1.56567E-01
 -1      3860 1.30780E-01
 -1      3861 1.78490E-01
 -1      3862 1.77537E-01
 -1      3863 1.45143E-01
 -1      3864 4.89465E+00
 -1      3865 6.41862E+00
 -1      3866 6.41862E+00
 -1      3867 7.67197E-02
 -1      3868 8.66660E-02
 -1      3869 6.41862E+00
 -1      3870 6.66291E+00
 -1      3871 2.62402E+00
 -1      3872 5.89447E+00
 -1      3873 1.36399E-01
 -1      3874 5.25539E+00
 -1      3875 2.05933E-01
 -1      3876 5.70123E+00
 -1      3877 1.88564E-01
 -1      3878 1.95639E-01
 -1      3879 7.08183E-02
 -1      3880 5.25070E-02
 -1      3881 4.54347E-02
 -1      3882 5.36328E-02
 -1      3883 1.77492E-01
 -1      3884 1.83974E-01
 -1      3885 1.51568E-01
 -1      3886 1.29906E-01
 -1      3887 1.38772E-01
 -1      3888 1.87448E-01
 -1      3889 5.20389E+00
 -1      3890 6.24268E+00
 -1      3891 5.40829E+00
 -1      3892 4.08295E+00
 -1      3893 1.60818E-01
 -1      3894 1.95639E-01
 -1      3895 1.95639E-01
 -1      3896 4.89465E+00
 -1      3897 5.40829E+00
 -1      3898 1.69879E-01
 -1      3899 1.47054E-01
 -1      3900 1.59005E-01
 -1      3901 1.32763E-01
 -1      3902 4.14329E+00
 -1      3903 1.25421E-01
 -1      3904 3.28260E+00
 -1      3905 5.90439E-02
 -1      3906 6.87173E-02
 -1      3907 5.66647E-02
 -1      3908 5.78032E+00
 -1      3909 9.46310E-02
 -1      3910 1.04761E-01
 -1      3911 8.60456E-02
 -1      3912 2.65626E-01
 -1      3913 2.65626E-01
 -1      3914 1.91203E-01
 -1      3915 2.19244E-01
 -1      3916 7.00783E-02
 -1      3917 5.64186E+00
 -1      3918 1.12420E-01
 -1      3919 1.05455E-01
 -1      3920 1.00571E-01
 -1      3921 9.32229E-02
 -1      3922 9.31290E-02
 -1      3923 8.72675E-02
 -1      3924 8.06963E-02
 -1      3925 8.22902E-02
 -1      3926 7.53293E-02
 -1      3927 6.83075E-02
 -1      3928 7.09677E-02
 -1      3929 6.63422E-02
 -1      3930 5.92547E-02
 -1      3931 6.36353E-02
 -1      3932 5.82601E-02
 -1      3933 5.74305E-02
 -1      3934 6.06754E-02
 -1      3935 5.84817E-02
 -1      3936 6.00599E-02
 -1      3937 6.07318E-02
 -1      3938 6.36565E-02
 -1      3939 6.70380E-02
 -1      3940 6.53796E-02
 -1      3941 7.35290E-02
 -1      3942 8.39755E-02
 -1      3943 7.54671E-02
 -1      3944 9.39130E-02
 -1      3945 1.12134E-01
 -1      3946 9.18957E-02
 -1      3947 1.28533E-01
 -1      3948 1.51299E-01
 -1      3949 1.18232E-01
 -1      3950 1.74925E-01
 -1      3951 2.03239E-01
 -1      3952 1.58256E-01
 -1      3953 2.33575E-01
 -1      3954 2.68549E-01
 -1      3955 2.12218E-01
 -1      3956 3.07589E-01
 -1      3957 3.50440E-01
 -1      3958 2.81594E-01
 -1      3959 4.00977E-01
 -1      3960 4.52980E-01
 -1      3961 3.71170E-01
 -1      3962 5.19052E-01
 -1      3963 5.81319E-01
 -1      3964 4.87780E-01
 -1      3965 6.68817E-01
 -1      3966 7.41526E-01
 -1      3967 6.41350E-01
 -1      3968 8.59153E-01
 -1      3969 9.64102E-01
 -1      3970 8.46475E-01
 -1      3971 1.11468E+00
 -1      3972 1.26859E+00
 -1      3973 1.11468E+00
 -1      3974 1.62035E+00
 -1      3975 1.94696E+00
 -1      3976 1.61702E+00
 -1      3977 2.67857E+00
 -1      3978 3.73193E+00
 -1      3979 2.70039E+00
 -1      3980 4.83686E+00
 -1      3981 1.19425E-01
 -1      3982 1.19014E-01
 -1      3983 7.80049E-02
 -1      3984 6.71207E-02
 -1      3985 2.76576E-01
 -1      3986 2.36550E-01
 -1      3987 6.17326E-02
 -1      3988 5.86457E-02
 -1      3989 6.89192E-02
 -1      3990 6.20238E-02
 -1      3991 7.00262E-02
 -1      3992 4.73914E+00
 -1      3993 4.99175E+00
 -1      3994 2.06506E-01
 -1      3995 1.75121E-01
 -1      3996 2.10517E-01
 -1      3997 1.51413E-01
 -1      3998 1.26772E-01
 -1      3999 1.56765E-01
 -1      4000 3.65993E-01
 -1      4001 3.14784E-01
 -1      4002 2.78769E-01
 -1      4003 4.81139E-01
 -1      4004 4.15107E-01
 -1      4005 3.66092E-01
 -1      4006 6.32128E-01
 -1      4007 5.45689E-01
 -1      4008 4.79756E-01
 -1      4009 8.36110E-01
 -1      4010 7.20333E-01
 -1      4011 6.32512E-01
 -1      4012 1.12380E+00
 -1      4013 9.63491E-01
 -1      4014 8.48098E-01
 -1      4015 1.52774E+00
 -1      4016 1.30911E+00
 -1      4017 1.16079E+00
 -1      4018 2.40838E+00
 -1      4019 1.86545E+00
 -1      4020 1.68380E+00
 -1      4021 4.31603E+00
 -1      4022 3.08597E+00
 -1      4023 2.69908E+00
 -1      4024 4.31603E+00
 -1      4025 1.52977E-01
 -1      4026 1.22526E-01
 -1      4027 1.69802E-01
 -1      4028 1.22194E-01
 -1      4029 1.16770E-01
 -1      4030 1.12285E-01
 -1      4031 1.65139E-01
 -1      4032 1.75623E-01
 -1      4033 1.55183E-01
 -1      4034 1.47179E-01
 -1      4035 5.20389E+00
 -1      4036 5.35701E+00
 -1      4037 1.80257E-01
 -1      4038 1.52510E-01
 -1      4039 1.08064E-01
 -1      4040 8.86729E-02
 -1      4041 8.49753E-02
 -1      4042 1.07747E-01
 -1      4043 1.13776E-01
 -1      4044 9.63910E-02
 -1      4045 4.99175E+00
 -1      4046 4.54590E+00
 -1      4047 3.60655E+00
 -1      4048 3.83642E+00
 -1      4049 1.25611E-01
 -1      4050 1.24671E-01
 -1      4051 1.32978E-01
 -1      4052 1.19822E-01
 -1      4053 1.15241E-01
 -1      4054 1.00834E-01
 -1      4055 4.53693E+00
 -1      4056 6.79156E-02
 -1      4057 7.59701E-02
 -1      4058 8.39350E-02
 -1      4059 1.14351E-01
 -1      4060 6.14684E-02
 -1      4061 5.65829E-02
 -1      4062 5.53296E-02
 -1      4063 6.00965E-02
 -1      4064 6.00445E-02
 -1      4065 5.46854E-02
 -1      4066 1.01534E-01
 -1      4067 1.13661E-01
 -1      4068 1.04610E-01
 -1      4069 9.55007E-02
 -1      4070 1.49137E-01
 -1      4071 1.43653E-01
 -1      4072 1.23180E-01
 -1      4073 1.32978E-01
 -1      4074 1.17483E-01
 -1      4075 1.25765E-01
 -1      4076 1.02847E-01
 -1      4077 3.63421E+00
 -1      4078 1.89233E-01
 -1      4079 1.78016E-01
 -1      4080 1.39791E-01
 -1      4081 1.54411E-01
 -1      4082 1.10249E-01
 -1      4083 4.16510E+00
 -1      4084 9.32440E-02
 -1      4085 1.03969E-01
 -1      4086 1.11680E-01
 -1      4087 1.04682E-01
 -1      4088 8.28661E-02
 -1      4089 7.69106E-02
 -1      4090 7.18021E-02
 -1      4091 6.64351E-02
 -1      4092 7.23780E-02
 -1      4093 7.49824E-02
 -1      4094 7.30171E-02
 -1      4095 7.58168E-02
 -1      4096 6.16701E-02
 -1      4097 6.06754E-02
 -1      4098 7.30171E-02
 -1      4099 6.07318E-02
 -1      4100 6.17830E-02
 -1      4101 6.17265E-02
 -1      4102 7.18354E-02
 -1      4103 7.54320E-02
 -1      4104 7.18354E-02
 -1      4105 7.54671E-02
 -1      4106 8.19581E-02
 -1      4107 8.19230E-02
 -1      4108 9.18957E-02
 -1      4109 1.01833E-01
 -1      4110 9.18957E-02
 -1      4111 1.16599E-01
 -1      4112 1.32997E-01
 -1      4113 1.16599E-01
 -1      4114 1.54711E-01
 -1      4115 1.78337E-01
 -1      4116 1.53078E-01
 -1      4117 2.07486E-01
 -1      4118 2.37822E-01
 -1      4119 2.03941E-01
 -1      4120 2.77197E-01
 -1      4121 3.16237E-01
 -1      4122 2.72465E-01
 -1      4123 3.70185E-01
 -1      4124 4.20723E-01
 -1      4125 3.65789E-01
 -1      4126 4.96282E-01
 -1      4127 5.62354E-01
 -1      4128 4.95297E-01
 -1      4129 6.71220E-01
 -1      4130 7.58718E-01
 -1      4131 6.79722E-01
 -1      4132 9.20278E-01
 -1      4133 1.03791E+00
 -1      4134 9.50148E-01
 -1      4135 1.28230E+00
 -1      4136 1.43288E+00
 -1      4137 1.35610E+00
 -1      4138 1.72512E+00
 -1      4139 2.07689E+00
 -1      4140 1.89274E+00
 -1      4141 2.32039E+00
 -1      4142 3.05199E+00
 -1      4143 3.25421E+00
 -1      4144 2.42849E+00
 -1      4145 7.83736E-02
 -1      4146 8.40225E-02
 -1      4147 9.41624E-02
 -1      4148 8.34943E-02
 -1      4149 2.86248E-01
 -1      4150 2.48039E-01
 -1      4151 1.66247E-01
 -1      4152 1.42539E-01
 -1      4153 4.87389E-01
 -1      4154 4.22839E-01
 -1      4155 6.45787E-01
 -1      4156 5.57582E-01
 -1      4157 5.00664E-01
 -1      4158 8.82033E-01
 -1      4159 7.54652E-01
 -1      4160 6.79722E-01
 -1      4161 1.22890E+00
 -1      4162 1.04359E+00
 -1      4163 9.50148E-01
 -1      4164 1.81100E+00
 -1      4165 1.47330E+00
 -1      4166 1.35610E+00
 -1      4167 2.78083E+00
 -1      4168 2.10324E+00
 -1      4169 1.89274E+00
 -1      4170 3.01070E+00
 -1      4171 1.27976E-01
 -1      4172 1.10061E-01
 -1      4173 1.36191E-01
 -1      4174 1.17143E-01
 -1      4175 1.32423E-01
 -1      4176 1.38557E-01
 -1      4177 9.75283E-02
 -1      4178 9.83359E-02
 -1      4179 7.95109E-02
 -1      4180 8.96085E-02
 -1      4181 9.71324E-02
 -1      4182 9.20429E-02
 -1      4183 7.95329E-02
 -1      4184 2.18803E-01
 -1      4185 1.88759E-01
 -1      4186 2.26282E-01
 -1      4187 9.46483E-02
 -1      4188 9.18270E-02
 -1      4189 8.93291E-02
 -1      4190 1.25433E-01
 -1      4191 1.06726E-01
 -1      4192 1.34915E-01
 -1      4193 1.14757E-01
 -1      4194 1.42597E-01
 -1      4195 7.80975E-02
 -1      4196 7.27095E-02
 -1      4197 8.72846E-02
 -1      4198 3.73261E-01
 -1      4199 3.24147E-01
 -1      4200 2.93416E-01
 -1      4201 3.80894E-01
 -1      4202 9.13772E-02
 -1      4203 8.64938E-02
 -1      4204 8.51917E-02
 -1      4205 1.07559E-01
 -1      4206 7.17683E-02
 -1      4207 7.77122E-02
 -1      4208 1.05245E-01
 -1      4209 9.51905E-02
 -1      4210 7.25326E-02
 -1      4211 7.04698E-02
 -1      4212 8.17109E-02
 -1      4213 5.87614E-02
 -1      4214 7.12407E-02
 -1      4215 7.31679E-02
 -1      4216 8.29645E-02
 -1      4217 1.36191E-01
 -1      4218 8.11142E-02
 -1      4219 1.01751E-01
 -1      4220 1.08409E-01
 -1      4221 3.25421E+00
 -1      4222 1.32799E-01
 -1      4223 1.46526E-01
 -1      4224 1.48395E-01
 -1      4225 1.40480E-01
 -1      4226 1.31770E-01
 -1      4227 1.74534E-01
 -1      4228 9.22605E-02
 -1      4229 9.80634E-02
 -1      4230 8.93291E-02
 -1      4231 1.09821E-01
 -1      4232 9.72573E-02
 -1      4233 7.58168E-02
 -1      4234 8.43641E-02
 -1      4235 8.43641E-02
 -1      4236 7.30171E-02
 -1      4237 7.18354E-02
 -1      4238 8.18878E-02
 -1      4239 8.18878E-02
 -1      4240 8.19230E-02
 -1      4241 8.73198E-02
 -1      4242 1.24587E-01
 -1      4243 1.41693E-01
 -1      4244 1.63406E-01
 -1      4245 1.85919E-01
 -1      4246 2.15068E-01
 -1      4247 2.44304E-01
 -1      4248 2.83679E-01
 -1      4249 3.21578E-01
 -1      4250 3.75527E-01
 -1      4251 4.25105E-01
 -1      4252 5.00664E-01
 -1      4253 5.70856E-01
 -1      4254 6.79722E-01
 -1      4255 7.88587E-01
 -1      4256 9.50148E-01
 -1      4257 1.11171E+00
 -1      4258 1.35610E+00
 -1      4259 1.60050E+00
 -1      4260 1.89274E+00
 -1      4261 2.18499E+00
 -1      4262 2.42849E+00
 -1      4263 7.95257E-02
 -1      4264 7.56730E-02
 -1      4265 8.13465E-02
 -1      4266 8.56415E-02
 -1      4267 8.51917E-02
 -1      4268 9.49027E-02
 -1      4269 1.08409E-01
 -1      4270 9.30167E-02
 -1      4271 8.93291E-02
 -1      4272 6.07728E-02
 -1      4273 6.01287E-02
 -1      4274 7.18371E-02
 -1      4275 7.74865E-02
 -1      4276 7.23780E-02
 -1      4277 1.08409E-01
 -1      4278 1.23800E-01
 -1      4279 8.49742E-02
 -1      4280 9.18107E-02
 -1      4281 8.51917E-02
 -1      4282 8.11142E-02
 -1      4283 6.19051E-02
 -1      4284 6.19615E-02
 -1      4285 7.32521E-02
 -1      4286 8.18878E-02
 -1      4287 8.47420E-02
 -1      4288 7.20140E-02
 -1      4289 8.11142E-02
 -1      4290 1.10375E-01
 -1      4291 1.01952E-01
 -1      4292 8.43641E-02
 -1      4293 7.32521E-02
 -1      4294 6.21401E-02
 -1      4295 8.29645E-02
 -1      4296 8.09253E-02
 -1      4297 1.09633E-01
 -1      4298 1.24376E-01
 -1      4299 7.27664E-02
 -1      4300 1.01664E-01
 -1      4301 9.51905E-02
 -1      4302 1.31770E-01
 -1      4303 7.20140E-02
 -1      4304 8.17109E-02
 -3
 9999
