    1C
    1UUSER                                                              
    1UDATE              27.october.2022                                 
    1UTIME              00:15:05                                        
    1UHOST                                                              
    1UPGM               CalculiX                                        
    1UVERSION           Version 2.17                             
    1UCOMPILETIME       Thu Jul 23 21:43:50 CEST 2020                    
    1UDIR                                                               
    1UDBN                                                               
    1UMAT    1SOLIDMATERIAL                                             
    2C                          4261                                     1
 -1         1 2.74808E+01 3.53163E+01 0.00000E+00
 -1         2 3.44804E+01 2.83163E+01 0.00000E+00
 -1         3 1.50000E+02 0.00000E+00 0.00000E+00
 -1         4 1.50000E+02 5.00000E+01 0.00000E+00
 -1         5 0.00000E+00 0.00000E+00 0.00000E+00
 -1         6 0.00000E+00 5.00000E+01 0.00000E+00
 -1         7 0.00000E+00 4.70500E+01 0.00000E+00
 -1         8 0.00000E+00 4.41000E+01 0.00000E+00
 -1         9 0.00000E+00 4.11500E+01 0.00000E+00
 -1        10 0.00000E+00 3.82000E+01 0.00000E+00
 -1        11 0.00000E+00 3.52500E+01 0.00000E+00
 -1        12 0.00000E+00 3.23500E+01 0.00000E+00
 -1        13 0.00000E+00 2.94000E+01 0.00000E+00
 -1        14 0.00000E+00 2.64500E+01 0.00000E+00
 -1        15 0.00000E+00 2.35000E+01 0.00000E+00
 -1        16 0.00000E+00 2.05500E+01 0.00000E+00
 -1        17 0.00000E+00 1.76000E+01 0.00000E+00
 -1        18 0.00000E+00 1.47000E+01 0.00000E+00
 -1        19 0.00000E+00 1.17500E+01 0.00000E+00
 -1        20 0.00000E+00 8.80000E+00 0.00000E+00
 -1        21 0.00000E+00 5.85000E+00 0.00000E+00
 -1        22 0.00000E+00 2.90000E+00 0.00000E+00
 -1        23 3.15000E+00 5.00000E+01 0.00000E+00
 -1        24 6.15000E+00 5.00000E+01 0.00000E+00
 -1        25 9.15000E+00 5.00000E+01 0.00000E+00
 -1        26 1.21500E+01 5.00000E+01 0.00000E+00
 -1        27 1.51500E+01 5.00000E+01 0.00000E+00
 -1        28 1.81500E+01 5.00000E+01 0.00000E+00
 -1        29 2.11500E+01 5.00000E+01 0.00000E+00
 -1        30 2.41500E+01 5.00000E+01 0.00000E+00
 -1        31 2.71500E+01 5.00000E+01 0.00000E+00
 -1        32 3.01500E+01 5.00000E+01 0.00000E+00
 -1        33 3.31500E+01 5.00000E+01 0.00000E+00
 -1        34 3.61500E+01 5.00000E+01 0.00000E+00
 -1        35 3.91500E+01 5.00000E+01 0.00000E+00
 -1        36 4.21500E+01 5.00000E+01 0.00000E+00
 -1        37 4.51500E+01 5.00000E+01 0.00000E+00
 -1        38 4.81500E+01 5.00000E+01 0.00000E+00
 -1        39 5.11500E+01 5.00000E+01 0.00000E+00
 -1        40 5.41500E+01 5.00000E+01 0.00000E+00
 -1        41 5.71500E+01 5.00000E+01 0.00000E+00
 -1        42 6.01500E+01 5.00000E+01 0.00000E+00
 -1        43 6.31500E+01 5.00000E+01 0.00000E+00
 -1        44 6.61500E+01 5.00000E+01 0.00000E+00
 -1        45 6.91500E+01 5.00000E+01 0.00000E+00
 -1        46 7.21500E+01 5.00000E+01 0.00000E+00
 -1        47 7.51500E+01 5.00000E+01 0.00000E+00
 -1        48 7.81500E+01 5.00000E+01 0.00000E+00
 -1        49 8.11500E+01 5.00000E+01 0.00000E+00
 -1        50 8.41500E+01 5.00000E+01 0.00000E+00
 -1        51 8.71500E+01 5.00000E+01 0.00000E+00
 -1        52 9.01500E+01 5.00000E+01 0.00000E+00
 -1        53 9.31500E+01 5.00000E+01 0.00000E+00
 -1        54 9.61500E+01 5.00000E+01 0.00000E+00
 -1        55 9.91500E+01 5.00000E+01 0.00000E+00
 -1        56 1.02150E+02 5.00000E+01 0.00000E+00
 -1        57 1.05150E+02 5.00000E+01 0.00000E+00
 -1        58 1.08150E+02 5.00000E+01 0.00000E+00
 -1        59 1.11150E+02 5.00000E+01 0.00000E+00
 -1        60 1.14150E+02 5.00000E+01 0.00000E+00
 -1        61 1.17150E+02 5.00000E+01 0.00000E+00
 -1        62 1.20150E+02 5.00000E+01 0.00000E+00
 -1        63 1.23150E+02 5.00000E+01 0.00000E+00
 -1        64 1.26150E+02 5.00000E+01 0.00000E+00
 -1        65 1.29150E+02 5.00000E+01 0.00000E+00
 -1        66 1.32150E+02 5.00000E+01 0.00000E+00
 -1        67 1.35150E+02 5.00000E+01 0.00000E+00
 -1        68 1.38150E+02 5.00000E+01 0.00000E+00
 -1        69 1.41150E+02 5.00000E+01 0.00000E+00
 -1        70 1.44150E+02 5.00000E+01 0.00000E+00
 -1        71 1.47150E+02 5.00000E+01 0.00000E+00
 -1        72 3.15000E+00 0.00000E+00 0.00000E+00
 -1        73 6.15000E+00 0.00000E+00 0.00000E+00
 -1        74 9.15000E+00 0.00000E+00 0.00000E+00
 -1        75 1.21500E+01 0.00000E+00 0.00000E+00
 -1        76 1.51500E+01 0.00000E+00 0.00000E+00
 -1        77 1.81500E+01 0.00000E+00 0.00000E+00
 -1        78 2.11500E+01 0.00000E+00 0.00000E+00
 -1        79 2.41500E+01 0.00000E+00 0.00000E+00
 -1        80 2.71500E+01 0.00000E+00 0.00000E+00
 -1        81 3.01500E+01 0.00000E+00 0.00000E+00
 -1        82 3.31500E+01 0.00000E+00 0.00000E+00
 -1        83 3.61500E+01 0.00000E+00 0.00000E+00
 -1        84 3.91500E+01 0.00000E+00 0.00000E+00
 -1        85 4.21500E+01 0.00000E+00 0.00000E+00
 -1        86 4.51500E+01 0.00000E+00 0.00000E+00
 -1        87 4.81500E+01 0.00000E+00 0.00000E+00
 -1        88 5.11500E+01 0.00000E+00 0.00000E+00
 -1        89 5.41500E+01 0.00000E+00 0.00000E+00
 -1        90 5.71500E+01 0.00000E+00 0.00000E+00
 -1        91 6.01500E+01 0.00000E+00 0.00000E+00
 -1        92 6.31500E+01 0.00000E+00 0.00000E+00
 -1        93 6.61500E+01 0.00000E+00 0.00000E+00
 -1        94 6.91500E+01 0.00000E+00 0.00000E+00
 -1        95 7.21500E+01 0.00000E+00 0.00000E+00
 -1        96 7.51500E+01 0.00000E+00 0.00000E+00
 -1        97 7.81500E+01 0.00000E+00 0.00000E+00
 -1        98 8.11500E+01 0.00000E+00 0.00000E+00
 -1        99 8.41500E+01 0.00000E+00 0.00000E+00
 -1       100 8.71500E+01 0.00000E+00 0.00000E+00
 -1       101 9.01500E+01 0.00000E+00 0.00000E+00
 -1       102 9.31500E+01 0.00000E+00 0.00000E+00
 -1       103 9.61500E+01 0.00000E+00 0.00000E+00
 -1       104 9.91500E+01 0.00000E+00 0.00000E+00
 -1       105 1.02150E+02 0.00000E+00 0.00000E+00
 -1       106 1.05150E+02 0.00000E+00 0.00000E+00
 -1       107 1.08150E+02 0.00000E+00 0.00000E+00
 -1       108 1.11150E+02 0.00000E+00 0.00000E+00
 -1       109 1.14150E+02 0.00000E+00 0.00000E+00
 -1       110 1.17150E+02 0.00000E+00 0.00000E+00
 -1       111 1.20150E+02 0.00000E+00 0.00000E+00
 -1       112 1.23150E+02 0.00000E+00 0.00000E+00
 -1       113 1.26150E+02 0.00000E+00 0.00000E+00
 -1       114 1.29150E+02 0.00000E+00 0.00000E+00
 -1       115 1.32150E+02 0.00000E+00 0.00000E+00
 -1       116 1.35150E+02 0.00000E+00 0.00000E+00
 -1       117 1.38150E+02 0.00000E+00 0.00000E+00
 -1       118 1.41150E+02 0.00000E+00 0.00000E+00
 -1       119 1.44150E+02 0.00000E+00 0.00000E+00
 -1       120 1.47150E+02 0.00000E+00 0.00000E+00
 -1       121 1.50000E+02 2.95000E+00 0.00000E+00
 -1       122 1.50000E+02 5.90000E+00 0.00000E+00
 -1       123 1.50000E+02 8.85000E+00 0.00000E+00
 -1       124 1.50000E+02 1.18000E+01 0.00000E+00
 -1       125 1.50000E+02 1.47500E+01 0.00000E+00
 -1       126 1.50000E+02 1.76500E+01 0.00000E+00
 -1       127 1.50000E+02 2.06000E+01 0.00000E+00
 -1       128 1.50000E+02 2.35500E+01 0.00000E+00
 -1       129 1.50000E+02 2.65000E+01 0.00000E+00
 -1       130 1.50000E+02 2.94500E+01 0.00000E+00
 -1       131 1.50000E+02 3.24000E+01 0.00000E+00
 -1       132 1.50000E+02 3.53000E+01 0.00000E+00
 -1       133 1.50000E+02 3.82500E+01 0.00000E+00
 -1       134 1.50000E+02 4.12000E+01 0.00000E+00
 -1       135 1.50000E+02 4.41500E+01 0.00000E+00
 -1       136 1.50000E+02 4.71000E+01 0.00000E+00
 -1       137 3.42989E+01 2.67326E+01 0.00000E+00
 -1       138 3.38230E+01 2.53547E+01 0.00000E+00
 -1       139 3.31075E+01 2.41527E+01 0.00000E+00
 -1       140 3.20532E+01 2.30164E+01 0.00000E+00
 -1       141 3.09185E+01 2.22188E+01 0.00000E+00
 -1       142 2.96281E+01 2.16539E+01 0.00000E+00
 -1       143 2.80955E+01 2.13434E+01 0.00000E+00
 -1       144 2.65816E+01 2.13742E+01 0.00000E+00
 -1       145 2.51815E+01 2.17046E+01 0.00000E+00
 -1       146 2.37013E+01 2.24241E+01 0.00000E+00
 -1       147 2.25385E+01 2.33588E+01 0.00000E+00
 -1       148 2.15371E+01 2.46181E+01 0.00000E+00
 -1       149 2.08988E+01 2.59326E+01 0.00000E+00
 -1       150 2.05387E+01 2.74149E+01 0.00000E+00
 -1       151 2.04996E+01 2.88339E+01 0.00000E+00
 -1       152 2.07749E+01 3.03253E+01 0.00000E+00
 -1       153 2.13887E+01 3.17646E+01 0.00000E+00
 -1       154 2.22160E+01 3.29299E+01 0.00000E+00
 -1       155 2.33684E+01 3.39812E+01 0.00000E+00
 -1       156 2.45726E+01 3.46838E+01 0.00000E+00
 -1       157 2.60203E+01 3.51623E+01 0.00000E+00
 -1       158 2.90166E+01 3.51456E+01 0.00000E+00
 -1       159 3.05420E+01 3.46113E+01 0.00000E+00
 -1       160 3.18442E+01 3.37896E+01 0.00000E+00
 -1       161 3.28940E+01 3.27540E+01 0.00000E+00
 -1       162 3.37627E+01 3.14040E+01 0.00000E+00
 -1       163 3.42923E+01 2.99283E+01 0.00000E+00
 -1       164 2.59800E+00 4.55750E+01 0.00000E+00
 -1       165 2.59800E+00 4.26250E+01 0.00000E+00
 -1       166 2.59800E+00 3.96750E+01 0.00000E+00
 -1       167 2.59800E+00 3.67250E+01 0.00000E+00
 -1       168 2.59800E+00 3.38250E+01 0.00000E+00
 -1       169 2.59800E+00 3.08750E+01 0.00000E+00
 -1       170 2.59800E+00 2.79250E+01 0.00000E+00
 -1       171 2.59800E+00 2.49750E+01 0.00000E+00
 -1       172 2.59800E+00 2.20250E+01 0.00000E+00
 -1       173 2.59800E+00 1.90750E+01 0.00000E+00
 -1       174 2.59800E+00 1.61750E+01 0.00000E+00
 -1       175 2.59800E+00 1.32250E+01 0.00000E+00
 -1       176 2.59800E+00 1.02750E+01 0.00000E+00
 -1       177 2.59800E+00 7.32500E+00 0.00000E+00
 -1       178 2.59800E+00 4.37500E+00 0.00000E+00
 -1       179 2.87400E+00 2.18750E+00 0.00000E+00
 -1       180 4.65000E+00 4.74020E+01 0.00000E+00
 -1       181 7.65000E+00 4.74020E+01 0.00000E+00
 -1       182 1.06500E+01 4.74020E+01 0.00000E+00
 -1       183 1.36500E+01 4.74020E+01 0.00000E+00
 -1       184 1.66500E+01 4.74020E+01 0.00000E+00
 -1       185 1.96500E+01 4.74020E+01 0.00000E+00
 -1       186 2.26500E+01 4.74020E+01 0.00000E+00
 -1       187 2.56500E+01 4.74020E+01 0.00000E+00
 -1       188 2.86500E+01 4.74020E+01 0.00000E+00
 -1       189 3.16500E+01 4.74020E+01 0.00000E+00
 -1       190 3.46500E+01 4.74020E+01 0.00000E+00
 -1       191 3.76500E+01 4.74020E+01 0.00000E+00
 -1       192 4.06500E+01 4.74020E+01 0.00000E+00
 -1       193 4.36500E+01 4.74020E+01 0.00000E+00
 -1       194 4.66500E+01 4.74020E+01 0.00000E+00
 -1       195 4.96500E+01 4.74020E+01 0.00000E+00
 -1       196 5.26500E+01 4.74020E+01 0.00000E+00
 -1       197 5.56500E+01 4.74020E+01 0.00000E+00
 -1       198 5.86500E+01 4.74020E+01 0.00000E+00
 -1       199 6.16500E+01 4.74020E+01 0.00000E+00
 -1       200 6.46500E+01 4.74020E+01 0.00000E+00
 -1       201 6.76500E+01 4.74020E+01 0.00000E+00
 -1       202 7.06500E+01 4.74020E+01 0.00000E+00
 -1       203 7.36500E+01 4.74020E+01 0.00000E+00
 -1       204 7.66500E+01 4.74020E+01 0.00000E+00
 -1       205 7.96500E+01 4.74020E+01 0.00000E+00
 -1       206 8.26500E+01 4.74020E+01 0.00000E+00
 -1       207 8.56500E+01 4.74020E+01 0.00000E+00
 -1       208 8.86500E+01 4.74020E+01 0.00000E+00
 -1       209 9.16500E+01 4.74020E+01 0.00000E+00
 -1       210 9.46500E+01 4.74020E+01 0.00000E+00
 -1       211 9.76500E+01 4.74020E+01 0.00000E+00
 -1       212 1.00650E+02 4.74020E+01 0.00000E+00
 -1       213 1.03650E+02 4.74020E+01 0.00000E+00
 -1       214 1.06650E+02 4.74020E+01 0.00000E+00
 -1       215 1.09650E+02 4.74020E+01 0.00000E+00
 -1       216 1.12650E+02 4.74020E+01 0.00000E+00
 -1       217 1.15650E+02 4.74020E+01 0.00000E+00
 -1       218 1.18650E+02 4.74020E+01 0.00000E+00
 -1       219 1.21650E+02 4.74020E+01 0.00000E+00
 -1       220 1.24650E+02 4.74020E+01 0.00000E+00
 -1       221 1.27650E+02 4.74020E+01 0.00000E+00
 -1       222 1.30650E+02 4.74020E+01 0.00000E+00
 -1       223 1.33650E+02 4.74020E+01 0.00000E+00
 -1       224 1.36650E+02 4.74020E+01 0.00000E+00
 -1       225 1.39650E+02 4.74020E+01 0.00000E+00
 -1       226 1.42650E+02 4.74020E+01 0.00000E+00
 -1       227 1.45650E+02 4.74020E+01 0.00000E+00
 -1       228 5.87400E+00 2.18750E+00 0.00000E+00
 -1       229 8.87400E+00 2.18750E+00 0.00000E+00
 -1       230 1.18740E+01 2.18750E+00 0.00000E+00
 -1       231 1.48740E+01 2.18750E+00 0.00000E+00
 -1       232 1.78740E+01 2.18750E+00 0.00000E+00
 -1       233 2.08740E+01 2.18750E+00 0.00000E+00
 -1       234 2.38740E+01 2.18750E+00 0.00000E+00
 -1       235 2.68740E+01 2.18750E+00 0.00000E+00
 -1       236 2.98740E+01 2.18750E+00 0.00000E+00
 -1       237 3.28740E+01 2.18750E+00 0.00000E+00
 -1       238 3.58740E+01 2.18750E+00 0.00000E+00
 -1       239 3.88740E+01 2.18750E+00 0.00000E+00
 -1       240 4.18740E+01 2.18750E+00 0.00000E+00
 -1       241 4.48740E+01 2.18750E+00 0.00000E+00
 -1       242 4.78740E+01 2.18750E+00 0.00000E+00
 -1       243 5.08740E+01 2.18750E+00 0.00000E+00
 -1       244 5.38740E+01 2.18750E+00 0.00000E+00
 -1       245 5.68740E+01 2.18750E+00 0.00000E+00
 -1       246 5.98740E+01 2.18750E+00 0.00000E+00
 -1       247 6.28740E+01 2.18750E+00 0.00000E+00
 -1       248 6.58740E+01 2.18750E+00 0.00000E+00
 -1       249 6.88740E+01 2.18750E+00 0.00000E+00
 -1       250 7.18740E+01 2.18750E+00 0.00000E+00
 -1       251 7.48740E+01 2.18750E+00 0.00000E+00
 -1       252 7.78740E+01 2.18750E+00 0.00000E+00
 -1       253 8.08740E+01 2.18750E+00 0.00000E+00
 -1       254 8.38740E+01 2.18750E+00 0.00000E+00
 -1       255 8.68740E+01 2.18750E+00 0.00000E+00
 -1       256 8.98740E+01 2.18750E+00 0.00000E+00
 -1       257 9.28740E+01 2.18750E+00 0.00000E+00
 -1       258 9.58740E+01 2.18750E+00 0.00000E+00
 -1       259 9.88740E+01 2.18750E+00 0.00000E+00
 -1       260 1.01874E+02 2.18750E+00 0.00000E+00
 -1       261 1.04874E+02 2.18750E+00 0.00000E+00
 -1       262 1.07874E+02 2.18750E+00 0.00000E+00
 -1       263 1.10874E+02 2.18750E+00 0.00000E+00
 -1       264 1.13874E+02 2.18750E+00 0.00000E+00
 -1       265 1.16874E+02 2.18750E+00 0.00000E+00
 -1       266 1.19874E+02 2.18750E+00 0.00000E+00
 -1       267 1.22874E+02 2.18750E+00 0.00000E+00
 -1       268 1.25874E+02 2.18750E+00 0.00000E+00
 -1       269 1.28874E+02 2.18750E+00 0.00000E+00
 -1       270 1.31874E+02 2.18750E+00 0.00000E+00
 -1       271 1.34874E+02 2.18750E+00 0.00000E+00
 -1       272 1.37874E+02 2.18750E+00 0.00000E+00
 -1       273 1.40874E+02 2.18750E+00 0.00000E+00
 -1       274 1.43874E+02 2.18750E+00 0.00000E+00
 -1       275 1.46874E+02 2.18750E+00 0.00000E+00
 -1       276 1.47402E+02 4.42500E+00 0.00000E+00
 -1       277 1.47402E+02 7.37500E+00 0.00000E+00
 -1       278 1.47402E+02 1.03250E+01 0.00000E+00
 -1       279 1.47402E+02 1.32750E+01 0.00000E+00
 -1       280 1.47402E+02 1.61750E+01 0.00000E+00
 -1       281 1.47402E+02 1.91250E+01 0.00000E+00
 -1       282 1.47402E+02 2.20750E+01 0.00000E+00
 -1       283 1.47402E+02 2.50250E+01 0.00000E+00
 -1       284 1.47402E+02 2.79750E+01 0.00000E+00
 -1       285 1.47402E+02 3.09250E+01 0.00000E+00
 -1       286 1.47402E+02 3.38250E+01 0.00000E+00
 -1       287 1.47402E+02 3.67750E+01 0.00000E+00
 -1       288 1.47402E+02 3.97250E+01 0.00000E+00
 -1       289 1.47402E+02 4.26750E+01 0.00000E+00
 -1       290 1.46526E+02 4.50385E+01 0.00000E+00
 -1       291 3.58439E+01 2.73578E+01 0.00000E+00
 -1       292 3.52862E+01 2.56205E+01 0.00000E+00
 -1       293 3.45071E+01 2.41335E+01 0.00000E+00
 -1       294 3.35920E+01 2.26459E+01 0.00000E+00
 -1       295 3.21830E+01 2.16257E+01 0.00000E+00
 -1       296 3.07595E+01 2.08257E+01 0.00000E+00
 -1       297 2.91358E+01 2.01462E+01 0.00000E+00
 -1       298 2.73088E+01 1.98954E+01 0.00000E+00
 -1       299 2.55839E+01 2.02778E+01 0.00000E+00
 -1       300 2.38381E+01 2.08232E+01 0.00000E+00
 -1       301 2.23603E+01 2.19465E+01 0.00000E+00
 -1       302 2.09577E+01 2.31296E+01 0.00000E+00
 -1       303 2.00519E+01 2.47092E+01 0.00000E+00
 -1       304 1.93778E+01 2.63480E+01 0.00000E+00
 -1       305 1.92235E+01 2.80886E+01 0.00000E+00
 -1       306 1.92802E+01 2.98301E+01 0.00000E+00
 -1       307 1.96583E+01 3.16520E+01 0.00000E+00
 -1       308 2.08137E+01 3.30491E+01 0.00000E+00
 -1       309 2.18622E+01 3.44751E+01 0.00000E+00
 -1       310 2.33596E+01 3.53797E+01 0.00000E+00
 -1       311 2.48633E+01 3.62333E+01 0.00000E+00
 -1       312 2.66146E+01 3.65283E+01 0.00000E+00
 -1       313 2.83918E+01 3.65192E+01 0.00000E+00
 -1       314 3.02356E+01 3.61808E+01 0.00000E+00
 -1       315 3.18848E+01 3.52967E+01 0.00000E+00
 -1       316 3.32206E+01 3.41349E+01 0.00000E+00
 -1       317 3.44184E+01 3.27803E+01 0.00000E+00
 -1       318 3.51686E+01 3.10757E+01 0.00000E+00
 -1       319 3.56738E+01 2.92726E+01 0.00000E+00
 -1       320 5.19600E+00 4.11500E+01 0.00000E+00
 -1       321 5.19600E+00 4.41000E+01 0.00000E+00
 -1       322 5.19600E+00 3.52750E+01 0.00000E+00
 -1       323 5.19600E+00 3.23250E+01 0.00000E+00
 -1       324 5.19600E+00 2.93750E+01 0.00000E+00
 -1       325 5.19600E+00 2.64250E+01 0.00000E+00
 -1       326 5.19600E+00 2.34750E+01 0.00000E+00
 -1       327 5.19600E+00 2.05250E+01 0.00000E+00
 -1       328 5.19600E+00 1.76250E+01 0.00000E+00
 -1       329 5.19600E+00 1.46750E+01 0.00000E+00
 -1       330 5.19600E+00 1.17250E+01 0.00000E+00
 -1       331 5.19600E+00 8.77500E+00 0.00000E+00
 -1       332 5.19600E+00 5.82500E+00 0.00000E+00
 -1       333 5.53500E+00 4.00625E+00 0.00000E+00
 -1       334 8.53500E+00 4.00625E+00 0.00000E+00
 -1       335 9.15000E+00 4.48040E+01 0.00000E+00
 -1       336 1.21500E+01 4.48040E+01 0.00000E+00
 -1       337 1.51500E+01 4.48040E+01 0.00000E+00
 -1       338 1.81500E+01 4.48040E+01 0.00000E+00
 -1       339 2.11500E+01 4.48040E+01 0.00000E+00
 -1       340 2.41500E+01 4.48040E+01 0.00000E+00
 -1       341 2.71500E+01 4.48040E+01 0.00000E+00
 -1       342 3.01500E+01 4.48040E+01 0.00000E+00
 -1       343 3.31500E+01 4.48040E+01 0.00000E+00
 -1       344 3.61500E+01 4.48040E+01 0.00000E+00
 -1       345 3.91500E+01 4.48040E+01 0.00000E+00
 -1       346 4.21500E+01 4.48040E+01 0.00000E+00
 -1       347 4.51500E+01 4.48040E+01 0.00000E+00
 -1       348 4.81500E+01 4.48040E+01 0.00000E+00
 -1       349 5.11500E+01 4.48040E+01 0.00000E+00
 -1       350 5.41500E+01 4.48040E+01 0.00000E+00
 -1       351 5.71500E+01 4.48040E+01 0.00000E+00
 -1       352 6.01500E+01 4.48040E+01 0.00000E+00
 -1       353 6.31500E+01 4.48040E+01 0.00000E+00
 -1       354 6.61500E+01 4.48040E+01 0.00000E+00
 -1       355 6.91500E+01 4.48040E+01 0.00000E+00
 -1       356 7.21500E+01 4.48040E+01 0.00000E+00
 -1       357 7.51500E+01 4.48040E+01 0.00000E+00
 -1       358 7.81500E+01 4.48040E+01 0.00000E+00
 -1       359 8.11500E+01 4.48040E+01 0.00000E+00
 -1       360 8.41500E+01 4.48040E+01 0.00000E+00
 -1       361 8.71500E+01 4.48040E+01 0.00000E+00
 -1       362 9.01500E+01 4.48040E+01 0.00000E+00
 -1       363 9.31500E+01 4.48040E+01 0.00000E+00
 -1       364 9.61500E+01 4.48040E+01 0.00000E+00
 -1       365 9.91500E+01 4.48040E+01 0.00000E+00
 -1       366 1.02150E+02 4.48040E+01 0.00000E+00
 -1       367 1.05150E+02 4.48040E+01 0.00000E+00
 -1       368 1.08150E+02 4.48040E+01 0.00000E+00
 -1       369 1.11150E+02 4.48040E+01 0.00000E+00
 -1       370 1.14150E+02 4.48040E+01 0.00000E+00
 -1       371 1.17150E+02 4.48040E+01 0.00000E+00
 -1       372 1.20150E+02 4.48040E+01 0.00000E+00
 -1       373 1.23150E+02 4.48040E+01 0.00000E+00
 -1       374 1.26150E+02 4.48040E+01 0.00000E+00
 -1       375 1.29150E+02 4.48040E+01 0.00000E+00
 -1       376 1.32150E+02 4.48040E+01 0.00000E+00
 -1       377 1.35150E+02 4.48040E+01 0.00000E+00
 -1       378 1.38150E+02 4.48040E+01 0.00000E+00
 -1       379 1.41150E+02 4.48040E+01 0.00000E+00
 -1       380 1.43838E+02 4.49212E+01 0.00000E+00
 -1       381 1.15350E+01 4.00625E+00 0.00000E+00
 -1       382 1.45350E+01 4.00625E+00 0.00000E+00
 -1       383 1.75350E+01 4.00625E+00 0.00000E+00
 -1       384 2.05350E+01 4.00625E+00 0.00000E+00
 -1       385 2.35350E+01 4.00625E+00 0.00000E+00
 -1       386 2.65350E+01 4.00625E+00 0.00000E+00
 -1       387 2.95350E+01 4.00625E+00 0.00000E+00
 -1       388 3.25350E+01 4.00625E+00 0.00000E+00
 -1       389 3.55350E+01 4.00625E+00 0.00000E+00
 -1       390 3.85350E+01 4.00625E+00 0.00000E+00
 -1       391 4.15350E+01 4.00625E+00 0.00000E+00
 -1       392 4.45350E+01 4.00625E+00 0.00000E+00
 -1       393 4.75350E+01 4.00625E+00 0.00000E+00
 -1       394 5.05350E+01 4.00625E+00 0.00000E+00
 -1       395 5.35350E+01 4.00625E+00 0.00000E+00
 -1       396 5.65350E+01 4.00625E+00 0.00000E+00
 -1       397 5.95350E+01 4.00625E+00 0.00000E+00
 -1       398 6.25350E+01 4.00625E+00 0.00000E+00
 -1       399 6.55350E+01 4.00625E+00 0.00000E+00
 -1       400 6.85350E+01 4.00625E+00 0.00000E+00
 -1       401 7.15350E+01 4.00625E+00 0.00000E+00
 -1       402 7.45350E+01 4.00625E+00 0.00000E+00
 -1       403 7.75350E+01 4.00625E+00 0.00000E+00
 -1       404 8.05350E+01 4.00625E+00 0.00000E+00
 -1       405 8.35350E+01 4.00625E+00 0.00000E+00
 -1       406 8.65350E+01 4.00625E+00 0.00000E+00
 -1       407 8.95350E+01 4.00625E+00 0.00000E+00
 -1       408 9.25350E+01 4.00625E+00 0.00000E+00
 -1       409 9.55350E+01 4.00625E+00 0.00000E+00
 -1       410 9.85350E+01 4.00625E+00 0.00000E+00
 -1       411 1.01535E+02 4.00625E+00 0.00000E+00
 -1       412 1.04535E+02 4.00625E+00 0.00000E+00
 -1       413 1.07535E+02 4.00625E+00 0.00000E+00
 -1       414 1.10535E+02 4.00625E+00 0.00000E+00
 -1       415 1.13535E+02 4.00625E+00 0.00000E+00
 -1       416 1.16535E+02 4.00625E+00 0.00000E+00
 -1       417 1.19535E+02 4.00625E+00 0.00000E+00
 -1       418 1.22535E+02 4.00625E+00 0.00000E+00
 -1       419 1.25535E+02 4.00625E+00 0.00000E+00
 -1       420 1.28535E+02 4.00625E+00 0.00000E+00
 -1       421 1.31535E+02 4.00625E+00 0.00000E+00
 -1       422 1.34535E+02 4.00625E+00 0.00000E+00
 -1       423 1.37535E+02 4.00625E+00 0.00000E+00
 -1       424 1.40535E+02 4.00625E+00 0.00000E+00
 -1       425 1.43535E+02 4.00625E+00 0.00000E+00
 -1       426 1.45469E+02 4.21562E+00 0.00000E+00
 -1       427 1.44804E+02 1.18000E+01 0.00000E+00
 -1       428 1.44804E+02 8.85000E+00 0.00000E+00
 -1       429 1.45136E+02 6.53281E+00 0.00000E+00
 -1       430 1.44804E+02 1.47000E+01 0.00000E+00
 -1       431 1.44804E+02 1.76500E+01 0.00000E+00
 -1       432 1.44804E+02 2.06000E+01 0.00000E+00
 -1       433 1.44804E+02 2.35500E+01 0.00000E+00
 -1       434 1.44804E+02 2.65000E+01 0.00000E+00
 -1       435 1.44804E+02 2.94500E+01 0.00000E+00
 -1       436 1.44804E+02 3.23500E+01 0.00000E+00
 -1       437 1.44804E+02 3.53000E+01 0.00000E+00
 -1       438 1.44804E+02 3.82500E+01 0.00000E+00
 -1       439 1.44804E+02 4.12000E+01 0.00000E+00
 -1       440 3.61190E+01 2.42365E+01 0.00000E+00
 -1       441 3.74672E+01 2.84669E+01 0.00000E+00
 -1       442 3.67992E+01 2.60929E+01 0.00000E+00
 -1       443 3.52963E+01 2.26228E+01 0.00000E+00
 -1       444 3.36969E+01 2.10181E+01 0.00000E+00
 -1       445 5.19600E+00 3.82125E+01 0.00000E+00
 -1       446 3.04804E+01 1.92130E+01 0.00000E+00
 -1       447 2.84327E+01 1.84876E+01 0.00000E+00
 -1       448 2.61113E+01 1.85758E+01 0.00000E+00
 -1       449 2.43655E+01 1.91211E+01 0.00000E+00
 -1       450 2.21627E+01 2.01528E+01 0.00000E+00
 -1       451 2.07601E+01 2.13359E+01 0.00000E+00
 -1       452 1.93803E+01 2.32747E+01 0.00000E+00
 -1       453 1.82837E+01 2.49398E+01 0.00000E+00
 -1       454 1.79260E+01 2.70964E+01 0.00000E+00
 -1       455 1.77888E+01 2.90070E+01 0.00000E+00
 -1       456 1.78719E+01 3.10725E+01 0.00000E+00
 -1       457 1.91726E+01 3.32300E+01 0.00000E+00
 -1       458 2.02211E+01 3.46560E+01 0.00000E+00
 -1       459 2.18107E+01 3.62520E+01 0.00000E+00
 -1       460 2.33144E+01 3.71055E+01 0.00000E+00
 -1       461 2.54679E+01 3.79895E+01 0.00000E+00
 -1       462 2.75107E+01 3.79875E+01 0.00000E+00
 -1       463 2.96082E+01 3.79545E+01 0.00000E+00
 -1       464 3.17518E+01 3.70288E+01 0.00000E+00
 -1       465 3.34583E+01 3.57570E+01 0.00000E+00
 -1       466 3.49788E+01 3.44828E+01 0.00000E+00
 -1       467 3.60565E+01 3.24839E+01 0.00000E+00
 -1       468 3.66693E+01 3.05239E+01 0.00000E+00
 -1       469 3.21473E+01 2.00226E+01 0.00000E+00
 -1       470 1.73863E+01 3.26505E+01 0.00000E+00
 -1       471 1.00350E+01 6.60425E+00 0.00000E+00
 -1       472 7.79400E+00 3.08500E+01 0.00000E+00
 -1       473 7.79400E+00 3.38000E+01 0.00000E+00
 -1       474 7.74895E+00 2.49500E+01 0.00000E+00
 -1       475 7.74895E+00 2.20000E+01 0.00000E+00
 -1       476 7.74895E+00 1.91000E+01 0.00000E+00
 -1       477 7.74895E+00 1.61500E+01 0.00000E+00
 -1       478 7.74895E+00 1.32000E+01 0.00000E+00
 -1       479 7.74895E+00 1.02500E+01 0.00000E+00
 -1       480 1.30350E+01 6.60425E+00 0.00000E+00
 -1       481 1.06500E+01 4.22060E+01 0.00000E+00
 -1       482 3.38491E+01 1.90773E+01 0.00000E+00
 -1       483 1.36500E+01 4.22060E+01 0.00000E+00
 -1       484 1.66500E+01 4.22060E+01 0.00000E+00
 -1       485 1.96500E+01 4.22060E+01 0.00000E+00
 -1       486 2.26500E+01 4.22060E+01 0.00000E+00
 -1       487 2.56500E+01 4.22060E+01 0.00000E+00
 -1       488 2.86500E+01 4.22060E+01 0.00000E+00
 -1       489 3.16500E+01 4.22060E+01 0.00000E+00
 -1       490 3.46500E+01 4.22060E+01 0.00000E+00
 -1       491 3.76500E+01 4.22060E+01 0.00000E+00
 -1       492 4.06500E+01 4.22060E+01 0.00000E+00
 -1       493 4.36500E+01 4.22060E+01 0.00000E+00
 -1       494 4.66500E+01 4.22060E+01 0.00000E+00
 -1       495 4.96500E+01 4.22060E+01 0.00000E+00
 -1       496 5.26500E+01 4.22060E+01 0.00000E+00
 -1       497 5.56500E+01 4.22060E+01 0.00000E+00
 -1       498 5.86500E+01 4.22060E+01 0.00000E+00
 -1       499 6.16500E+01 4.22060E+01 0.00000E+00
 -1       500 6.46500E+01 4.22060E+01 0.00000E+00
 -1       501 6.76500E+01 4.22060E+01 0.00000E+00
 -1       502 7.06500E+01 4.22060E+01 0.00000E+00
 -1       503 7.36500E+01 4.22060E+01 0.00000E+00
 -1       504 7.66500E+01 4.22060E+01 0.00000E+00
 -1       505 7.96500E+01 4.22060E+01 0.00000E+00
 -1       506 8.26500E+01 4.22060E+01 0.00000E+00
 -1       507 8.56500E+01 4.22060E+01 0.00000E+00
 -1       508 8.86500E+01 4.22060E+01 0.00000E+00
 -1       509 9.16500E+01 4.22060E+01 0.00000E+00
 -1       510 9.46500E+01 4.22060E+01 0.00000E+00
 -1       511 9.76500E+01 4.22060E+01 0.00000E+00
 -1       512 1.00650E+02 4.22060E+01 0.00000E+00
 -1       513 1.03650E+02 4.22060E+01 0.00000E+00
 -1       514 1.06650E+02 4.22060E+01 0.00000E+00
 -1       515 1.09650E+02 4.22060E+01 0.00000E+00
 -1       516 1.12650E+02 4.22060E+01 0.00000E+00
 -1       517 1.15650E+02 4.22060E+01 0.00000E+00
 -1       518 1.18650E+02 4.22060E+01 0.00000E+00
 -1       519 1.21650E+02 4.22060E+01 0.00000E+00
 -1       520 1.24650E+02 4.22060E+01 0.00000E+00
 -1       521 1.27650E+02 4.22060E+01 0.00000E+00
 -1       522 1.30650E+02 4.22060E+01 0.00000E+00
 -1       523 1.33650E+02 4.22060E+01 0.00000E+00
 -1       524 1.36650E+02 4.22060E+01 0.00000E+00
 -1       525 1.39650E+02 4.22060E+01 0.00000E+00
 -1       526 1.90350E+01 6.60425E+00 0.00000E+00
 -1       527 2.20350E+01 6.60425E+00 0.00000E+00
 -1       528 2.50350E+01 6.60425E+00 0.00000E+00
 -1       529 2.80350E+01 6.60425E+00 0.00000E+00
 -1       530 3.10350E+01 6.60425E+00 0.00000E+00
 -1       531 3.40350E+01 6.60425E+00 0.00000E+00
 -1       532 3.70350E+01 6.60425E+00 0.00000E+00
 -1       533 4.00350E+01 6.60425E+00 0.00000E+00
 -1       534 4.30350E+01 6.60425E+00 0.00000E+00
 -1       535 4.60350E+01 6.60425E+00 0.00000E+00
 -1       536 4.90350E+01 6.60425E+00 0.00000E+00
 -1       537 5.20350E+01 6.60425E+00 0.00000E+00
 -1       538 5.50350E+01 6.60425E+00 0.00000E+00
 -1       539 5.80350E+01 6.60425E+00 0.00000E+00
 -1       540 6.10350E+01 6.60425E+00 0.00000E+00
 -1       541 6.40350E+01 6.60425E+00 0.00000E+00
 -1       542 6.70350E+01 6.60425E+00 0.00000E+00
 -1       543 7.00350E+01 6.60425E+00 0.00000E+00
 -1       544 7.30350E+01 6.60425E+00 0.00000E+00
 -1       545 7.60350E+01 6.60425E+00 0.00000E+00
 -1       546 7.90350E+01 6.60425E+00 0.00000E+00
 -1       547 8.20350E+01 6.60425E+00 0.00000E+00
 -1       548 8.50350E+01 6.60425E+00 0.00000E+00
 -1       549 8.80350E+01 6.60425E+00 0.00000E+00
 -1       550 9.10350E+01 6.60425E+00 0.00000E+00
 -1       551 9.40350E+01 6.60425E+00 0.00000E+00
 -1       552 9.70350E+01 6.60425E+00 0.00000E+00
 -1       553 1.00035E+02 6.60425E+00 0.00000E+00
 -1       554 1.03035E+02 6.60425E+00 0.00000E+00
 -1       555 1.06035E+02 6.60425E+00 0.00000E+00
 -1       556 1.09035E+02 6.60425E+00 0.00000E+00
 -1       557 1.12035E+02 6.60425E+00 0.00000E+00
 -1       558 1.15035E+02 6.60425E+00 0.00000E+00
 -1       559 1.18035E+02 6.60425E+00 0.00000E+00
 -1       560 1.21035E+02 6.60425E+00 0.00000E+00
 -1       561 1.24035E+02 6.60425E+00 0.00000E+00
 -1       562 1.27035E+02 6.60425E+00 0.00000E+00
 -1       563 1.30035E+02 6.60425E+00 0.00000E+00
 -1       564 1.33035E+02 6.60425E+00 0.00000E+00
 -1       565 1.36035E+02 6.60425E+00 0.00000E+00
 -1       566 1.39035E+02 6.60425E+00 0.00000E+00
 -1       567 1.42035E+02 6.60425E+00 0.00000E+00
 -1       568 1.42206E+02 1.61750E+01 0.00000E+00
 -1       569 1.42206E+02 1.91250E+01 0.00000E+00
 -1       570 1.42206E+02 1.03250E+01 0.00000E+00
 -1       571 1.42206E+02 1.32500E+01 0.00000E+00
 -1       572 1.42206E+02 2.20750E+01 0.00000E+00
 -1       573 1.42206E+02 2.50250E+01 0.00000E+00
 -1       574 1.42206E+02 2.79750E+01 0.00000E+00
 -1       575 1.42206E+02 3.08750E+01 0.00000E+00
 -1       576 1.42206E+02 3.38250E+01 0.00000E+00
 -1       577 1.42206E+02 3.67750E+01 0.00000E+00
 -1       578 1.42206E+02 3.97250E+01 0.00000E+00
 -1       579 3.87842E+01 2.68153E+01 0.00000E+00
 -1       580 3.70864E+01 2.27268E+01 0.00000E+00
 -1       581 1.60350E+01 6.60425E+00 0.00000E+00
 -1       582 3.85111E+01 3.00551E+01 0.00000E+00
 -1       583 3.78335E+01 2.46611E+01 0.00000E+00
 -1       584 7.92300E+00 4.16780E+01 0.00000E+00
 -1       585 3.78983E+01 3.20151E+01 0.00000E+00
 -1       586 2.99733E+01 1.73916E+01 0.00000E+00
 -1       587 7.77148E+00 2.79000E+01 0.00000E+00
 -1       588 2.72133E+01 1.69852E+01 0.00000E+00
 -1       589 1.76096E+01 2.33022E+01 0.00000E+00
 -1       590 2.46770E+01 1.70514E+01 0.00000E+00
 -1       591 2.24743E+01 1.80831E+01 0.00000E+00
 -1       592 2.04096E+01 1.94974E+01 0.00000E+00
 -1       593 2.64910E+01 3.97036E+01 0.00000E+00
 -1       594 1.88776E+01 2.14566E+01 0.00000E+00
 -1       595 1.64129E+01 2.57375E+01 0.00000E+00
 -1       596 1.63139E+01 2.79409E+01 0.00000E+00
 -1       597 1.61167E+01 3.01087E+01 0.00000E+00
 -1       598 1.83150E+01 3.49590E+01 0.00000E+00
 -1       599 1.99046E+01 3.65549E+01 0.00000E+00
 -1       600 2.17572E+01 3.80974E+01 0.00000E+00
 -1       601 2.38035E+01 3.89791E+01 0.00000E+00
 -1       602 2.85884E+01 3.96706E+01 0.00000E+00
 -1       603 3.13268E+01 3.89893E+01 0.00000E+00
 -1       604 3.37300E+01 3.79025E+01 0.00000E+00
 -1       605 3.52506E+01 3.66282E+01 0.00000E+00
 -1       606 3.68798E+01 3.42178E+01 0.00000E+00
 -1       607 3.21822E+01 1.82676E+01 0.00000E+00
 -1       608 7.61550E+00 6.21462E+00 0.00000E+00
 -1       609 3.56520E+01 2.06688E+01 0.00000E+00
 -1       610 2.87539E+01 1.58892E+01 0.00000E+00
 -1       611 7.79400E+00 3.67375E+01 0.00000E+00
 -1       612 3.71516E+01 3.63633E+01 0.00000E+00
 -1       613 3.98280E+01 2.84035E+01 0.00000E+00
 -1       614 1.56310E+01 3.16867E+01 0.00000E+00
 -1       615 1.57387E+01 2.40999E+01 0.00000E+00
 -1       616 1.41678E+02 4.22645E+01 0.00000E+00
 -1       617 1.03019E+01 2.05500E+01 0.00000E+00
 -1       618 1.03019E+01 2.35000E+01 0.00000E+00
 -1       619 1.03470E+01 1.46750E+01 0.00000E+00
 -1       620 1.03470E+01 1.17250E+01 0.00000E+00
 -1       621 1.15350E+01 9.20225E+00 0.00000E+00
 -1       622 4.00016E+01 3.15969E+01 0.00000E+00
 -1       623 3.17101E+01 1.62353E+01 0.00000E+00
 -1       624 1.51500E+01 3.96080E+01 0.00000E+00
 -1       625 1.81500E+01 3.96080E+01 0.00000E+00
 -1       626 3.61500E+01 3.96080E+01 0.00000E+00
 -1       627 3.91500E+01 3.96080E+01 0.00000E+00
 -1       628 4.21500E+01 3.96080E+01 0.00000E+00
 -1       629 4.51500E+01 3.96080E+01 0.00000E+00
 -1       630 4.81500E+01 3.96080E+01 0.00000E+00
 -1       631 5.11500E+01 3.96080E+01 0.00000E+00
 -1       632 5.41500E+01 3.96080E+01 0.00000E+00
 -1       633 5.71500E+01 3.96080E+01 0.00000E+00
 -1       634 6.01500E+01 3.96080E+01 0.00000E+00
 -1       635 6.31500E+01 3.96080E+01 0.00000E+00
 -1       636 6.61500E+01 3.96080E+01 0.00000E+00
 -1       637 6.91500E+01 3.96080E+01 0.00000E+00
 -1       638 7.21500E+01 3.96080E+01 0.00000E+00
 -1       639 7.51500E+01 3.96080E+01 0.00000E+00
 -1       640 7.81500E+01 3.96080E+01 0.00000E+00
 -1       641 8.11500E+01 3.96080E+01 0.00000E+00
 -1       642 8.41500E+01 3.96080E+01 0.00000E+00
 -1       643 8.71500E+01 3.96080E+01 0.00000E+00
 -1       644 9.01500E+01 3.96080E+01 0.00000E+00
 -1       645 9.31500E+01 3.96080E+01 0.00000E+00
 -1       646 9.61500E+01 3.96080E+01 0.00000E+00
 -1       647 9.91500E+01 3.96080E+01 0.00000E+00
 -1       648 1.02150E+02 3.96080E+01 0.00000E+00
 -1       649 1.05150E+02 3.96080E+01 0.00000E+00
 -1       650 1.08150E+02 3.96080E+01 0.00000E+00
 -1       651 1.11150E+02 3.96080E+01 0.00000E+00
 -1       652 1.14150E+02 3.96080E+01 0.00000E+00
 -1       653 1.17150E+02 3.96080E+01 0.00000E+00
 -1       654 1.20150E+02 3.96080E+01 0.00000E+00
 -1       655 1.23150E+02 3.96080E+01 0.00000E+00
 -1       656 1.26150E+02 3.96080E+01 0.00000E+00
 -1       657 1.29150E+02 3.96080E+01 0.00000E+00
 -1       658 1.32150E+02 3.96080E+01 0.00000E+00
 -1       659 1.35150E+02 3.96080E+01 0.00000E+00
 -1       660 1.38150E+02 3.96080E+01 0.00000E+00
 -1       661 2.35350E+01 9.20225E+00 0.00000E+00
 -1       662 1.39206E+02 1.03250E+01 0.00000E+00
 -1       663 2.05350E+01 9.20225E+00 0.00000E+00
 -1       664 2.95350E+01 9.20225E+00 0.00000E+00
 -1       665 3.25350E+01 9.20225E+00 0.00000E+00
 -1       666 3.55350E+01 9.20225E+00 0.00000E+00
 -1       667 3.85350E+01 9.20225E+00 0.00000E+00
 -1       668 4.15350E+01 9.20225E+00 0.00000E+00
 -1       669 4.45350E+01 9.20225E+00 0.00000E+00
 -1       670 4.75350E+01 9.20225E+00 0.00000E+00
 -1       671 5.05350E+01 9.20225E+00 0.00000E+00
 -1       672 5.35350E+01 9.20225E+00 0.00000E+00
 -1       673 5.65350E+01 9.20225E+00 0.00000E+00
 -1       674 5.95350E+01 9.20225E+00 0.00000E+00
 -1       675 6.25350E+01 9.20225E+00 0.00000E+00
 -1       676 6.55350E+01 9.20225E+00 0.00000E+00
 -1       677 6.85350E+01 9.20225E+00 0.00000E+00
 -1       678 7.15350E+01 9.20225E+00 0.00000E+00
 -1       679 7.45350E+01 9.20225E+00 0.00000E+00
 -1       680 7.75350E+01 9.20225E+00 0.00000E+00
 -1       681 8.05350E+01 9.20225E+00 0.00000E+00
 -1       682 8.35350E+01 9.20225E+00 0.00000E+00
 -1       683 8.65350E+01 9.20225E+00 0.00000E+00
 -1       684 8.95350E+01 9.20225E+00 0.00000E+00
 -1       685 9.25350E+01 9.20225E+00 0.00000E+00
 -1       686 9.55350E+01 9.20225E+00 0.00000E+00
 -1       687 9.85350E+01 9.20225E+00 0.00000E+00
 -1       688 1.01535E+02 9.20225E+00 0.00000E+00
 -1       689 1.04535E+02 9.20225E+00 0.00000E+00
 -1       690 1.07535E+02 9.20225E+00 0.00000E+00
 -1       691 1.10535E+02 9.20225E+00 0.00000E+00
 -1       692 1.13535E+02 9.20225E+00 0.00000E+00
 -1       693 1.16535E+02 9.20225E+00 0.00000E+00
 -1       694 1.19535E+02 9.20225E+00 0.00000E+00
 -1       695 1.22535E+02 9.20225E+00 0.00000E+00
 -1       696 1.25535E+02 9.20225E+00 0.00000E+00
 -1       697 1.28535E+02 9.20225E+00 0.00000E+00
 -1       698 1.31535E+02 9.20225E+00 0.00000E+00
 -1       699 1.34535E+02 9.20225E+00 0.00000E+00
 -1       700 1.36870E+02 9.76363E+00 0.00000E+00
 -1       701 3.81887E+01 2.04297E+01 0.00000E+00
 -1       702 1.39608E+02 2.35500E+01 0.00000E+00
 -1       703 1.39608E+02 1.76500E+01 0.00000E+00
 -1       704 1.39608E+02 2.65000E+01 0.00000E+00
 -1       705 1.39608E+02 2.06000E+01 0.00000E+00
 -1       706 1.39608E+02 2.94000E+01 0.00000E+00
 -1       707 1.39608E+02 3.23500E+01 0.00000E+00
 -1       708 1.39608E+02 3.53000E+01 0.00000E+00
 -1       709 3.98013E+01 2.50795E+01 0.00000E+00
 -1       710 3.90542E+01 2.31452E+01 0.00000E+00
 -1       711 9.78035E+00 3.93914E+01 0.00000E+00
 -1       712 1.61040E+01 3.45075E+01 0.00000E+00
 -1       713 1.41735E+01 2.88391E+01 0.00000E+00
 -1       714 1.75350E+01 9.20225E+00 0.00000E+00
 -1       715 2.65350E+01 9.20225E+00 0.00000E+00
 -1       716 1.24652E+01 3.94997E+01 0.00000E+00
 -1       717 3.62182E+01 1.82104E+01 0.00000E+00
 -1       718 1.45350E+01 9.20225E+00 0.00000E+00
 -1       719 1.03470E+01 1.76250E+01 0.00000E+00
 -1       720 1.03920E+01 3.23250E+01 0.00000E+00
 -1       721 2.04727E+01 1.73752E+01 0.00000E+00
 -1       722 2.28482E+01 1.60140E+01 0.00000E+00
 -1       723 1.97335E+01 3.86442E+01 0.00000E+00
 -1       724 1.82925E+01 1.94205E+01 0.00000E+00
 -1       725 3.89831E+01 3.37995E+01 0.00000E+00
 -1       726 1.68991E+01 2.14556E+01 0.00000E+00
 -1       727 1.42725E+01 2.66357E+01 0.00000E+00
 -1       728 1.78946E+01 3.69673E+01 0.00000E+00
 -1       729 1.40178E+02 3.96665E+01 0.00000E+00
 -1       730 2.58917E+01 1.49688E+01 0.00000E+00
 -1       731 3.33769E+01 1.70450E+01 0.00000E+00
 -1       732 2.07036E+01 4.01517E+01 0.00000E+00
 -1       733 1.03920E+01 3.52625E+01 0.00000E+00
 -1       734 1.03244E+01 2.64500E+01 0.00000E+00
 -1       735 1.36878E+01 3.04171E+01 0.00000E+00
 -1       736 3.92549E+01 3.59450E+01 0.00000E+00
 -1       737 1.39608E+02 1.47250E+01 0.00000E+00
 -1       738 4.08451E+01 2.66677E+01 0.00000E+00
 -1       739 4.13185E+01 2.99453E+01 0.00000E+00
 -1       740 2.40629E+01 1.39314E+01 0.00000E+00
 -1       741 1.35983E+01 2.49980E+01 0.00000E+00
 -1       742 1.03582E+01 2.93875E+01 0.00000E+00
 -1       743 1.50282E+01 2.22532E+01 0.00000E+00
 -1       744 3.04906E+01 1.47330E+01 0.00000E+00
 -1       745 1.38879E+02 3.74540E+01 0.00000E+00
 -1       746 1.29450E+01 1.32000E+01 0.00000E+00
 -1       747 1.61806E+01 1.94690E+01 0.00000E+00
 -1       748 1.29450E+01 1.61500E+01 0.00000E+00
 -1       749 1.80945E+01 1.70248E+01 0.00000E+00
 -1       750 4.08942E+01 2.10631E+01 0.00000E+00
 -1       751 4.06500E+01 3.70100E+01 0.00000E+00
 -1       752 4.36500E+01 3.70100E+01 0.00000E+00
 -1       753 4.66500E+01 3.70100E+01 0.00000E+00
 -1       754 4.96500E+01 3.70100E+01 0.00000E+00
 -1       755 5.26500E+01 3.70100E+01 0.00000E+00
 -1       756 5.56500E+01 3.70100E+01 0.00000E+00
 -1       757 5.86500E+01 3.70100E+01 0.00000E+00
 -1       758 6.16500E+01 3.70100E+01 0.00000E+00
 -1       759 6.46500E+01 3.70100E+01 0.00000E+00
 -1       760 6.76500E+01 3.70100E+01 0.00000E+00
 -1       761 7.06500E+01 3.70100E+01 0.00000E+00
 -1       762 7.36500E+01 3.70100E+01 0.00000E+00
 -1       763 7.66500E+01 3.70100E+01 0.00000E+00
 -1       764 7.96500E+01 3.70100E+01 0.00000E+00
 -1       765 8.26500E+01 3.70100E+01 0.00000E+00
 -1       766 8.56500E+01 3.70100E+01 0.00000E+00
 -1       767 8.86500E+01 3.70100E+01 0.00000E+00
 -1       768 9.16500E+01 3.70100E+01 0.00000E+00
 -1       769 9.46500E+01 3.70100E+01 0.00000E+00
 -1       770 9.76500E+01 3.70100E+01 0.00000E+00
 -1       771 1.00650E+02 3.70100E+01 0.00000E+00
 -1       772 1.03650E+02 3.70100E+01 0.00000E+00
 -1       773 1.06650E+02 3.70100E+01 0.00000E+00
 -1       774 1.09650E+02 3.70100E+01 0.00000E+00
 -1       775 1.12650E+02 3.70100E+01 0.00000E+00
 -1       776 1.15650E+02 3.70100E+01 0.00000E+00
 -1       777 1.18650E+02 3.70100E+01 0.00000E+00
 -1       778 1.21650E+02 3.70100E+01 0.00000E+00
 -1       779 1.24650E+02 3.70100E+01 0.00000E+00
 -1       780 1.27650E+02 3.70100E+01 0.00000E+00
 -1       781 1.30650E+02 3.70100E+01 0.00000E+00
 -1       782 1.33650E+02 3.70100E+01 0.00000E+00
 -1       783 1.36264E+02 3.72320E+01 0.00000E+00
 -1       784 2.20350E+01 1.18003E+01 0.00000E+00
 -1       785 3.40350E+01 1.18003E+01 0.00000E+00
 -1       786 3.10350E+01 1.18003E+01 0.00000E+00
 -1       787 4.00350E+01 1.18003E+01 0.00000E+00
 -1       788 4.30350E+01 1.18003E+01 0.00000E+00
 -1       789 4.60350E+01 1.18003E+01 0.00000E+00
 -1       790 4.90350E+01 1.18003E+01 0.00000E+00
 -1       791 5.20350E+01 1.18003E+01 0.00000E+00
 -1       792 5.50350E+01 1.18003E+01 0.00000E+00
 -1       793 5.80350E+01 1.18003E+01 0.00000E+00
 -1       794 6.10350E+01 1.18003E+01 0.00000E+00
 -1       795 6.40350E+01 1.18003E+01 0.00000E+00
 -1       796 6.70350E+01 1.18003E+01 0.00000E+00
 -1       797 7.00350E+01 1.18003E+01 0.00000E+00
 -1       798 7.30350E+01 1.18003E+01 0.00000E+00
 -1       799 7.60350E+01 1.18003E+01 0.00000E+00
 -1       800 7.90350E+01 1.18003E+01 0.00000E+00
 -1       801 8.20350E+01 1.18003E+01 0.00000E+00
 -1       802 8.50350E+01 1.18003E+01 0.00000E+00
 -1       803 8.80350E+01 1.18003E+01 0.00000E+00
 -1       804 9.10350E+01 1.18003E+01 0.00000E+00
 -1       805 9.40350E+01 1.18003E+01 0.00000E+00
 -1       806 9.70350E+01 1.18003E+01 0.00000E+00
 -1       807 1.00035E+02 1.18003E+01 0.00000E+00
 -1       808 1.03035E+02 1.18003E+01 0.00000E+00
 -1       809 1.06035E+02 1.18003E+01 0.00000E+00
 -1       810 1.09035E+02 1.18003E+01 0.00000E+00
 -1       811 1.12035E+02 1.18003E+01 0.00000E+00
 -1       812 1.15035E+02 1.18003E+01 0.00000E+00
 -1       813 1.18035E+02 1.18003E+01 0.00000E+00
 -1       814 1.21035E+02 1.18003E+01 0.00000E+00
 -1       815 1.24035E+02 1.18003E+01 0.00000E+00
 -1       816 1.27035E+02 1.18003E+01 0.00000E+00
 -1       817 1.30035E+02 1.18003E+01 0.00000E+00
 -1       818 1.33035E+02 1.18003E+01 0.00000E+00
 -1       819 1.37010E+02 2.79500E+01 0.00000E+00
 -1       820 1.37010E+02 2.50000E+01 0.00000E+00
 -1       821 3.33661E+01 1.49467E+01 0.00000E+00
 -1       822 1.21748E+01 2.76453E+01 0.00000E+00
 -1       823 1.90350E+01 1.18003E+01 0.00000E+00
 -1       824 4.16413E+01 2.29974E+01 0.00000E+00
 -1       825 1.28999E+01 1.90750E+01 0.00000E+00
 -1       826 1.37010E+02 3.09000E+01 0.00000E+00
 -1       827 1.37010E+02 3.38500E+01 0.00000E+00
 -1       828 3.70350E+01 1.18003E+01 0.00000E+00
 -1       829 1.53417E+01 3.69440E+01 0.00000E+00
 -1       830 2.07244E+01 1.50611E+01 0.00000E+00
 -1       831 4.10491E+01 3.34180E+01 0.00000E+00
 -1       832 1.38455E+01 3.34362E+01 0.00000E+00
 -1       833 3.62074E+01 1.61121E+01 0.00000E+00
 -1       834 3.89872E+01 1.77363E+01 0.00000E+00
 -1       835 2.80018E+01 1.33177E+01 0.00000E+00
 -1       836 1.37400E+01 1.12011E+01 0.00000E+00
 -1       837 4.26851E+01 2.45856E+01 0.00000E+00
 -1       838 1.35370E+02 1.23616E+01 0.00000E+00
 -1       839 1.37010E+02 1.61875E+01 0.00000E+00
 -1       840 1.37010E+02 1.91375E+01 0.00000E+00
 -1       841 1.37010E+02 2.20688E+01 0.00000E+00
 -1       842 4.23356E+01 2.82095E+01 0.00000E+00
 -1       843 4.23661E+01 3.17664E+01 0.00000E+00
 -1       844 1.63875E+01 1.15007E+01 0.00000E+00
 -1       845 1.36940E+02 1.29756E+01 0.00000E+00
 -1       846 1.36637E+02 3.55410E+01 0.00000E+00
 -1       847 1.55197E+01 1.65874E+01 0.00000E+00
 -1       848 4.51500E+01 3.44120E+01 0.00000E+00
 -1       849 4.81500E+01 3.44120E+01 0.00000E+00
 -1       850 5.11500E+01 3.44120E+01 0.00000E+00
 -1       851 5.41500E+01 3.44120E+01 0.00000E+00
 -1       852 5.71500E+01 3.44120E+01 0.00000E+00
 -1       853 6.01500E+01 3.44120E+01 0.00000E+00
 -1       854 6.31500E+01 3.44120E+01 0.00000E+00
 -1       855 6.61500E+01 3.44120E+01 0.00000E+00
 -1       856 6.91500E+01 3.44120E+01 0.00000E+00
 -1       857 7.21500E+01 3.44120E+01 0.00000E+00
 -1       858 7.51500E+01 3.44120E+01 0.00000E+00
 -1       859 7.81500E+01 3.44120E+01 0.00000E+00
 -1       860 8.11500E+01 3.44120E+01 0.00000E+00
 -1       861 8.41500E+01 3.44120E+01 0.00000E+00
 -1       862 8.71500E+01 3.44120E+01 0.00000E+00
 -1       863 9.01500E+01 3.44120E+01 0.00000E+00
 -1       864 9.31500E+01 3.44120E+01 0.00000E+00
 -1       865 9.61500E+01 3.44120E+01 0.00000E+00
 -1       866 9.91500E+01 3.44120E+01 0.00000E+00
 -1       867 1.02150E+02 3.44120E+01 0.00000E+00
 -1       868 1.05150E+02 3.44120E+01 0.00000E+00
 -1       869 1.08150E+02 3.44120E+01 0.00000E+00
 -1       870 1.11150E+02 3.44120E+01 0.00000E+00
 -1       871 1.14150E+02 3.44120E+01 0.00000E+00
 -1       872 1.17150E+02 3.44120E+01 0.00000E+00
 -1       873 1.20150E+02 3.44120E+01 0.00000E+00
 -1       874 1.23150E+02 3.44120E+01 0.00000E+00
 -1       875 1.26150E+02 3.44120E+01 0.00000E+00
 -1       876 1.29150E+02 3.44120E+01 0.00000E+00
 -1       877 1.32150E+02 3.44120E+01 0.00000E+00
 -1       878 4.45350E+01 1.43982E+01 0.00000E+00
 -1       879 4.15350E+01 1.43982E+01 0.00000E+00
 -1       880 5.05350E+01 1.43982E+01 0.00000E+00
 -1       881 5.35350E+01 1.43982E+01 0.00000E+00
 -1       882 5.65350E+01 1.43982E+01 0.00000E+00
 -1       883 5.95350E+01 1.43982E+01 0.00000E+00
 -1       884 6.25350E+01 1.43982E+01 0.00000E+00
 -1       885 6.55350E+01 1.43982E+01 0.00000E+00
 -1       886 6.85350E+01 1.43982E+01 0.00000E+00
 -1       887 7.15350E+01 1.43982E+01 0.00000E+00
 -1       888 7.45350E+01 1.43982E+01 0.00000E+00
 -1       889 7.75350E+01 1.43982E+01 0.00000E+00
 -1       890 8.05350E+01 1.43982E+01 0.00000E+00
 -1       891 8.35350E+01 1.43982E+01 0.00000E+00
 -1       892 8.65350E+01 1.43982E+01 0.00000E+00
 -1       893 8.95350E+01 1.43982E+01 0.00000E+00
 -1       894 9.25350E+01 1.43982E+01 0.00000E+00
 -1       895 9.55350E+01 1.43982E+01 0.00000E+00
 -1       896 9.85350E+01 1.43982E+01 0.00000E+00
 -1       897 1.01535E+02 1.43982E+01 0.00000E+00
 -1       898 1.04535E+02 1.43982E+01 0.00000E+00
 -1       899 1.07535E+02 1.43982E+01 0.00000E+00
 -1       900 1.10535E+02 1.43982E+01 0.00000E+00
 -1       901 1.13535E+02 1.43982E+01 0.00000E+00
 -1       902 1.16535E+02 1.43982E+01 0.00000E+00
 -1       903 1.19535E+02 1.43982E+01 0.00000E+00
 -1       904 1.22535E+02 1.43982E+01 0.00000E+00
 -1       905 1.25535E+02 1.43982E+01 0.00000E+00
 -1       906 1.28535E+02 1.43982E+01 0.00000E+00
 -1       907 1.31535E+02 1.43982E+01 0.00000E+00
 -1       908 1.34412E+02 3.23750E+01 0.00000E+00
 -1       909 4.36912E+01 2.10942E+01 0.00000E+00
 -1       910 3.88853E+01 1.47199E+01 0.00000E+00
 -1       911 1.34412E+02 2.64750E+01 0.00000E+00
 -1       912 1.72774E+01 1.41938E+01 0.00000E+00
 -1       913 4.75350E+01 1.43982E+01 0.00000E+00
 -1       914 3.66212E+01 1.39562E+01 0.00000E+00
 -1       915 4.21947E+01 1.81077E+01 0.00000E+00
 -1       916 1.34412E+02 2.94250E+01 0.00000E+00
 -1       917 1.46299E+01 1.38943E+01 0.00000E+00
 -1       918 4.47351E+01 2.26823E+01 0.00000E+00
 -1       919 4.41756E+01 2.61274E+01 0.00000E+00
 -1       920 1.34394E+02 3.49765E+01 0.00000E+00
 -1       921 1.33870E+02 1.49596E+01 0.00000E+00
 -1       922 1.34412E+02 1.76625E+01 0.00000E+00
 -1       923 4.33831E+01 3.00307E+01 0.00000E+00
 -1       924 1.34412E+02 2.35438E+01 0.00000E+00
 -1       925 5.80350E+01 1.69963E+01 0.00000E+00
 -1       926 4.96500E+01 3.18140E+01 0.00000E+00
 -1       927 5.26500E+01 3.18140E+01 0.00000E+00
 -1       928 5.56500E+01 3.18140E+01 0.00000E+00
 -1       929 5.86500E+01 3.18140E+01 0.00000E+00
 -1       930 6.16500E+01 3.18140E+01 0.00000E+00
 -1       931 6.46500E+01 3.18140E+01 0.00000E+00
 -1       932 6.76500E+01 3.18140E+01 0.00000E+00
 -1       933 7.06500E+01 3.18140E+01 0.00000E+00
 -1       934 7.36500E+01 3.18140E+01 0.00000E+00
 -1       935 7.66500E+01 3.18140E+01 0.00000E+00
 -1       936 7.96500E+01 3.18140E+01 0.00000E+00
 -1       937 8.26500E+01 3.18140E+01 0.00000E+00
 -1       938 8.56500E+01 3.18140E+01 0.00000E+00
 -1       939 8.86500E+01 3.18140E+01 0.00000E+00
 -1       940 9.16500E+01 3.18140E+01 0.00000E+00
 -1       941 9.46500E+01 3.18140E+01 0.00000E+00
 -1       942 9.76500E+01 3.18140E+01 0.00000E+00
 -1       943 1.00650E+02 3.18140E+01 0.00000E+00
 -1       944 1.03650E+02 3.18140E+01 0.00000E+00
 -1       945 1.06650E+02 3.18140E+01 0.00000E+00
 -1       946 1.09650E+02 3.18140E+01 0.00000E+00
 -1       947 1.12650E+02 3.18140E+01 0.00000E+00
 -1       948 1.15650E+02 3.18140E+01 0.00000E+00
 -1       949 1.18650E+02 3.18140E+01 0.00000E+00
 -1       950 1.21650E+02 3.18140E+01 0.00000E+00
 -1       951 1.24650E+02 3.18140E+01 0.00000E+00
 -1       952 1.27650E+02 3.18140E+01 0.00000E+00
 -1       953 1.30650E+02 3.18140E+01 0.00000E+00
 -1       954 5.50350E+01 1.69963E+01 0.00000E+00
 -1       955 5.20350E+01 1.69963E+01 0.00000E+00
 -1       956 6.10350E+01 1.69963E+01 0.00000E+00
 -1       957 6.40350E+01 1.69963E+01 0.00000E+00
 -1       958 6.70350E+01 1.69963E+01 0.00000E+00
 -1       959 7.00350E+01 1.69963E+01 0.00000E+00
 -1       960 7.30350E+01 1.69963E+01 0.00000E+00
 -1       961 7.60350E+01 1.69963E+01 0.00000E+00
 -1       962 7.90350E+01 1.69963E+01 0.00000E+00
 -1       963 8.20350E+01 1.69963E+01 0.00000E+00
 -1       964 8.50350E+01 1.69963E+01 0.00000E+00
 -1       965 8.80350E+01 1.69963E+01 0.00000E+00
 -1       966 9.10350E+01 1.69963E+01 0.00000E+00
 -1       967 9.40350E+01 1.69963E+01 0.00000E+00
 -1       968 9.70350E+01 1.69963E+01 0.00000E+00
 -1       969 1.00035E+02 1.69963E+01 0.00000E+00
 -1       970 1.03035E+02 1.69963E+01 0.00000E+00
 -1       971 1.06035E+02 1.69963E+01 0.00000E+00
 -1       972 1.09035E+02 1.69963E+01 0.00000E+00
 -1       973 1.12035E+02 1.69963E+01 0.00000E+00
 -1       974 1.15035E+02 1.69963E+01 0.00000E+00
 -1       975 1.18035E+02 1.69963E+01 0.00000E+00
 -1       976 1.21035E+02 1.69963E+01 0.00000E+00
 -1       977 1.24035E+02 1.69963E+01 0.00000E+00
 -1       978 1.27035E+02 1.69963E+01 0.00000E+00
 -1       979 1.30035E+02 1.69963E+01 0.00000E+00
 -1       980 1.34412E+02 2.05938E+01 0.00000E+00
 -1       981 4.56131E+01 1.77462E+01 0.00000E+00
 -1       982 4.66500E+01 3.18140E+01 0.00000E+00
 -1       983 1.32223E+02 1.73294E+01 0.00000E+00
 -1       984 1.32223E+02 2.02606E+01 0.00000E+00
 -1       985 4.52231E+01 2.79485E+01 0.00000E+00
 -1       986 1.31814E+02 2.50094E+01 0.00000E+00
 -1       987 4.88241E+01 1.73712E+01 0.00000E+00
 -1       988 4.67796E+01 2.00268E+01 0.00000E+00
 -1       989 1.31814E+02 2.79594E+01 0.00000E+00
 -1       990 5.41500E+01 2.92160E+01 0.00000E+00
 -1       991 5.71500E+01 2.92160E+01 0.00000E+00
 -1       992 6.01500E+01 2.92160E+01 0.00000E+00
 -1       993 6.31500E+01 2.92160E+01 0.00000E+00
 -1       994 6.61500E+01 2.92160E+01 0.00000E+00
 -1       995 6.91500E+01 2.92160E+01 0.00000E+00
 -1       996 7.21500E+01 2.92160E+01 0.00000E+00
 -1       997 7.51500E+01 2.92160E+01 0.00000E+00
 -1       998 7.81500E+01 2.92160E+01 0.00000E+00
 -1       999 8.11500E+01 2.92160E+01 0.00000E+00
 -1      1000 8.41500E+01 2.92160E+01 0.00000E+00
 -1      1001 8.71500E+01 2.92160E+01 0.00000E+00
 -1      1002 9.01500E+01 2.92160E+01 0.00000E+00
 -1      1003 9.31500E+01 2.92160E+01 0.00000E+00
 -1      1004 9.61500E+01 2.92160E+01 0.00000E+00
 -1      1005 9.91500E+01 2.92160E+01 0.00000E+00
 -1      1006 1.02150E+02 2.92160E+01 0.00000E+00
 -1      1007 1.05150E+02 2.92160E+01 0.00000E+00
 -1      1008 1.08150E+02 2.92160E+01 0.00000E+00
 -1      1009 1.11150E+02 2.92160E+01 0.00000E+00
 -1      1010 1.14150E+02 2.92160E+01 0.00000E+00
 -1      1011 1.17150E+02 2.92160E+01 0.00000E+00
 -1      1012 1.20150E+02 2.92160E+01 0.00000E+00
 -1      1013 1.23150E+02 2.92160E+01 0.00000E+00
 -1      1014 1.26150E+02 2.92160E+01 0.00000E+00
 -1      1015 1.29150E+02 2.92160E+01 0.00000E+00
 -1      1016 5.65350E+01 1.95942E+01 0.00000E+00
 -1      1017 4.81500E+01 2.92160E+01 0.00000E+00
 -1      1018 5.95350E+01 1.95942E+01 0.00000E+00
 -1      1019 5.35350E+01 1.95942E+01 0.00000E+00
 -1      1020 6.55350E+01 1.95942E+01 0.00000E+00
 -1      1021 6.85350E+01 1.95942E+01 0.00000E+00
 -1      1022 7.15350E+01 1.95942E+01 0.00000E+00
 -1      1023 7.45350E+01 1.95942E+01 0.00000E+00
 -1      1024 7.75350E+01 1.95942E+01 0.00000E+00
 -1      1025 8.05350E+01 1.95942E+01 0.00000E+00
 -1      1026 8.35350E+01 1.95942E+01 0.00000E+00
 -1      1027 8.65350E+01 1.95942E+01 0.00000E+00
 -1      1028 8.95350E+01 1.95942E+01 0.00000E+00
 -1      1029 9.25350E+01 1.95942E+01 0.00000E+00
 -1      1030 9.55350E+01 1.95942E+01 0.00000E+00
 -1      1031 9.85350E+01 1.95942E+01 0.00000E+00
 -1      1032 1.01535E+02 1.95942E+01 0.00000E+00
 -1      1033 1.04535E+02 1.95942E+01 0.00000E+00
 -1      1034 1.07535E+02 1.95942E+01 0.00000E+00
 -1      1035 1.10535E+02 1.95942E+01 0.00000E+00
 -1      1036 1.13535E+02 1.95942E+01 0.00000E+00
 -1      1037 1.16535E+02 1.95942E+01 0.00000E+00
 -1      1038 1.19535E+02 1.95942E+01 0.00000E+00
 -1      1039 1.22535E+02 1.95942E+01 0.00000E+00
 -1      1040 1.25535E+02 1.95942E+01 0.00000E+00
 -1      1041 1.28535E+02 1.95942E+01 0.00000E+00
 -1      1042 1.30379E+02 1.99274E+01 0.00000E+00
 -1      1043 1.32019E+02 2.26350E+01 0.00000E+00
 -1      1044 6.25350E+01 1.95942E+01 0.00000E+00
 -1      1045 4.70198E+01 2.48213E+01 0.00000E+00
 -1      1046 5.11500E+01 2.92160E+01 0.00000E+00
 -1      1047 5.03241E+01 1.99692E+01 0.00000E+00
 -1      1048 1.29328E+02 2.35990E+01 0.00000E+00
 -1      1049 1.29239E+02 2.64075E+01 0.00000E+00
 -1      1050 5.86500E+01 2.66180E+01 0.00000E+00
 -1      1051 6.16500E+01 2.66180E+01 0.00000E+00
 -1      1052 6.46500E+01 2.66180E+01 0.00000E+00
 -1      1053 6.76500E+01 2.66180E+01 0.00000E+00
 -1      1054 7.06500E+01 2.66180E+01 0.00000E+00
 -1      1055 7.36500E+01 2.66180E+01 0.00000E+00
 -1      1056 7.66500E+01 2.66180E+01 0.00000E+00
 -1      1057 7.96500E+01 2.66180E+01 0.00000E+00
 -1      1058 8.26500E+01 2.66180E+01 0.00000E+00
 -1      1059 8.56500E+01 2.66180E+01 0.00000E+00
 -1      1060 8.86500E+01 2.66180E+01 0.00000E+00
 -1      1061 9.16500E+01 2.66180E+01 0.00000E+00
 -1      1062 9.46500E+01 2.66180E+01 0.00000E+00
 -1      1063 9.76500E+01 2.66180E+01 0.00000E+00
 -1      1064 1.00650E+02 2.66180E+01 0.00000E+00
 -1      1065 1.03650E+02 2.66180E+01 0.00000E+00
 -1      1066 1.06650E+02 2.66180E+01 0.00000E+00
 -1      1067 1.09650E+02 2.66180E+01 0.00000E+00
 -1      1068 1.12650E+02 2.66180E+01 0.00000E+00
 -1      1069 1.15650E+02 2.66180E+01 0.00000E+00
 -1      1070 1.18650E+02 2.66180E+01 0.00000E+00
 -1      1071 1.21650E+02 2.66180E+01 0.00000E+00
 -1      1072 1.24650E+02 2.66180E+01 0.00000E+00
 -1      1073 1.26944E+02 2.65127E+01 0.00000E+00
 -1      1074 5.26500E+01 2.66180E+01 0.00000E+00
 -1      1075 5.80350E+01 2.21922E+01 0.00000E+00
 -1      1076 1.29854E+02 2.17632E+01 0.00000E+00
 -1      1077 5.50350E+01 2.21922E+01 0.00000E+00
 -1      1078 7.00350E+01 2.21922E+01 0.00000E+00
 -1      1079 6.70350E+01 2.21922E+01 0.00000E+00
 -1      1080 7.60350E+01 2.21922E+01 0.00000E+00
 -1      1081 7.90350E+01 2.21922E+01 0.00000E+00
 -1      1082 8.20350E+01 2.21922E+01 0.00000E+00
 -1      1083 8.50350E+01 2.21922E+01 0.00000E+00
 -1      1084 8.80350E+01 2.21922E+01 0.00000E+00
 -1      1085 9.10350E+01 2.21922E+01 0.00000E+00
 -1      1086 9.40350E+01 2.21922E+01 0.00000E+00
 -1      1087 9.70350E+01 2.21922E+01 0.00000E+00
 -1      1088 1.00035E+02 2.21922E+01 0.00000E+00
 -1      1089 1.03035E+02 2.21922E+01 0.00000E+00
 -1      1090 1.06035E+02 2.21922E+01 0.00000E+00
 -1      1091 1.09035E+02 2.21922E+01 0.00000E+00
 -1      1092 1.12035E+02 2.21922E+01 0.00000E+00
 -1      1093 1.15035E+02 2.21922E+01 0.00000E+00
 -1      1094 1.18035E+02 2.21922E+01 0.00000E+00
 -1      1095 1.21035E+02 2.21922E+01 0.00000E+00
 -1      1096 1.24035E+02 2.21922E+01 0.00000E+00
 -1      1097 7.30350E+01 2.21922E+01 0.00000E+00
 -1      1098 6.40350E+01 2.21922E+01 0.00000E+00
 -1      1099 4.98349E+01 2.57196E+01 0.00000E+00
 -1      1100 5.00795E+01 2.28444E+01 0.00000E+00
 -1      1101 5.56500E+01 2.66180E+01 0.00000E+00
 -1      1102 6.10350E+01 2.21922E+01 0.00000E+00
 -1      1103 1.27035E+02 2.21922E+01 0.00000E+00
 -1      1104 5.25572E+01 2.25183E+01 0.00000E+00
 -1      1105 1.25842E+02 2.44051E+01 0.00000E+00
 -1      1106 5.20323E+01 2.36938E+01 0.00000E+00
 -1      1107 0.00000E+00 4.85250E+01 0.00000E+00
 -1      1108 0.00000E+00 4.55750E+01 0.00000E+00
 -1      1109 0.00000E+00 4.26250E+01 0.00000E+00
 -1      1110 0.00000E+00 3.96750E+01 0.00000E+00
 -1      1111 0.00000E+00 3.67250E+01 0.00000E+00
 -1      1112 0.00000E+00 3.38000E+01 0.00000E+00
 -1      1113 0.00000E+00 3.08750E+01 0.00000E+00
 -1      1114 0.00000E+00 2.79250E+01 0.00000E+00
 -1      1115 0.00000E+00 2.49750E+01 0.00000E+00
 -1      1116 0.00000E+00 2.20250E+01 0.00000E+00
 -1      1117 0.00000E+00 1.90750E+01 0.00000E+00
 -1      1118 0.00000E+00 1.61500E+01 0.00000E+00
 -1      1119 0.00000E+00 1.32250E+01 0.00000E+00
 -1      1120 0.00000E+00 1.02750E+01 0.00000E+00
 -1      1121 0.00000E+00 7.32500E+00 0.00000E+00
 -1      1122 0.00000E+00 4.37500E+00 0.00000E+00
 -1      1123 0.00000E+00 1.45000E+00 0.00000E+00
 -1      1124 1.57500E+00 5.00000E+01 0.00000E+00
 -1      1125 4.65000E+00 5.00000E+01 0.00000E+00
 -1      1126 7.65000E+00 5.00000E+01 0.00000E+00
 -1      1127 1.06500E+01 5.00000E+01 0.00000E+00
 -1      1128 1.36500E+01 5.00000E+01 0.00000E+00
 -1      1129 1.66500E+01 5.00000E+01 0.00000E+00
 -1      1130 1.96500E+01 5.00000E+01 0.00000E+00
 -1      1131 2.26500E+01 5.00000E+01 0.00000E+00
 -1      1132 2.56500E+01 5.00000E+01 0.00000E+00
 -1      1133 2.86500E+01 5.00000E+01 0.00000E+00
 -1      1134 3.16500E+01 5.00000E+01 0.00000E+00
 -1      1135 3.46500E+01 5.00000E+01 0.00000E+00
 -1      1136 3.76500E+01 5.00000E+01 0.00000E+00
 -1      1137 4.06500E+01 5.00000E+01 0.00000E+00
 -1      1138 4.36500E+01 5.00000E+01 0.00000E+00
 -1      1139 4.66500E+01 5.00000E+01 0.00000E+00
 -1      1140 4.96500E+01 5.00000E+01 0.00000E+00
 -1      1141 5.26500E+01 5.00000E+01 0.00000E+00
 -1      1142 5.56500E+01 5.00000E+01 0.00000E+00
 -1      1143 5.86500E+01 5.00000E+01 0.00000E+00
 -1      1144 6.16500E+01 5.00000E+01 0.00000E+00
 -1      1145 6.46500E+01 5.00000E+01 0.00000E+00
 -1      1146 6.76500E+01 5.00000E+01 0.00000E+00
 -1      1147 7.06500E+01 5.00000E+01 0.00000E+00
 -1      1148 7.36500E+01 5.00000E+01 0.00000E+00
 -1      1149 7.66500E+01 5.00000E+01 0.00000E+00
 -1      1150 7.96500E+01 5.00000E+01 0.00000E+00
 -1      1151 8.26500E+01 5.00000E+01 0.00000E+00
 -1      1152 8.56500E+01 5.00000E+01 0.00000E+00
 -1      1153 8.86500E+01 5.00000E+01 0.00000E+00
 -1      1154 9.16500E+01 5.00000E+01 0.00000E+00
 -1      1155 9.46500E+01 5.00000E+01 0.00000E+00
 -1      1156 9.76500E+01 5.00000E+01 0.00000E+00
 -1      1157 1.00650E+02 5.00000E+01 0.00000E+00
 -1      1158 1.03650E+02 5.00000E+01 0.00000E+00
 -1      1159 1.06650E+02 5.00000E+01 0.00000E+00
 -1      1160 1.09650E+02 5.00000E+01 0.00000E+00
 -1      1161 1.12650E+02 5.00000E+01 0.00000E+00
 -1      1162 1.15650E+02 5.00000E+01 0.00000E+00
 -1      1163 1.18650E+02 5.00000E+01 0.00000E+00
 -1      1164 1.21650E+02 5.00000E+01 0.00000E+00
 -1      1165 1.24650E+02 5.00000E+01 0.00000E+00
 -1      1166 1.27650E+02 5.00000E+01 0.00000E+00
 -1      1167 1.30650E+02 5.00000E+01 0.00000E+00
 -1      1168 1.33650E+02 5.00000E+01 0.00000E+00
 -1      1169 1.36650E+02 5.00000E+01 0.00000E+00
 -1      1170 1.39650E+02 5.00000E+01 0.00000E+00
 -1      1171 1.42650E+02 5.00000E+01 0.00000E+00
 -1      1172 1.45650E+02 5.00000E+01 0.00000E+00
 -1      1173 1.48575E+02 5.00000E+01 0.00000E+00
 -1      1174 1.57500E+00 0.00000E+00 0.00000E+00
 -1      1175 4.65000E+00 0.00000E+00 0.00000E+00
 -1      1176 7.65000E+00 0.00000E+00 0.00000E+00
 -1      1177 1.06500E+01 0.00000E+00 0.00000E+00
 -1      1178 1.36500E+01 0.00000E+00 0.00000E+00
 -1      1179 1.66500E+01 0.00000E+00 0.00000E+00
 -1      1180 1.96500E+01 0.00000E+00 0.00000E+00
 -1      1181 2.26500E+01 0.00000E+00 0.00000E+00
 -1      1182 2.56500E+01 0.00000E+00 0.00000E+00
 -1      1183 2.86500E+01 0.00000E+00 0.00000E+00
 -1      1184 3.16500E+01 0.00000E+00 0.00000E+00
 -1      1185 3.46500E+01 0.00000E+00 0.00000E+00
 -1      1186 3.76500E+01 0.00000E+00 0.00000E+00
 -1      1187 4.06500E+01 0.00000E+00 0.00000E+00
 -1      1188 4.36500E+01 0.00000E+00 0.00000E+00
 -1      1189 4.66500E+01 0.00000E+00 0.00000E+00
 -1      1190 4.96500E+01 0.00000E+00 0.00000E+00
 -1      1191 5.26500E+01 0.00000E+00 0.00000E+00
 -1      1192 5.56500E+01 0.00000E+00 0.00000E+00
 -1      1193 5.86500E+01 0.00000E+00 0.00000E+00
 -1      1194 6.16500E+01 0.00000E+00 0.00000E+00
 -1      1195 6.46500E+01 0.00000E+00 0.00000E+00
 -1      1196 6.76500E+01 0.00000E+00 0.00000E+00
 -1      1197 7.06500E+01 0.00000E+00 0.00000E+00
 -1      1198 7.36500E+01 0.00000E+00 0.00000E+00
 -1      1199 7.66500E+01 0.00000E+00 0.00000E+00
 -1      1200 7.96500E+01 0.00000E+00 0.00000E+00
 -1      1201 8.26500E+01 0.00000E+00 0.00000E+00
 -1      1202 8.56500E+01 0.00000E+00 0.00000E+00
 -1      1203 8.86500E+01 0.00000E+00 0.00000E+00
 -1      1204 9.16500E+01 0.00000E+00 0.00000E+00
 -1      1205 9.46500E+01 0.00000E+00 0.00000E+00
 -1      1206 9.76500E+01 0.00000E+00 0.00000E+00
 -1      1207 1.00650E+02 0.00000E+00 0.00000E+00
 -1      1208 1.03650E+02 0.00000E+00 0.00000E+00
 -1      1209 1.06650E+02 0.00000E+00 0.00000E+00
 -1      1210 1.09650E+02 0.00000E+00 0.00000E+00
 -1      1211 1.12650E+02 0.00000E+00 0.00000E+00
 -1      1212 1.15650E+02 0.00000E+00 0.00000E+00
 -1      1213 1.18650E+02 0.00000E+00 0.00000E+00
 -1      1214 1.21650E+02 0.00000E+00 0.00000E+00
 -1      1215 1.24650E+02 0.00000E+00 0.00000E+00
 -1      1216 1.27650E+02 0.00000E+00 0.00000E+00
 -1      1217 1.30650E+02 0.00000E+00 0.00000E+00
 -1      1218 1.33650E+02 0.00000E+00 0.00000E+00
 -1      1219 1.36650E+02 0.00000E+00 0.00000E+00
 -1      1220 1.39650E+02 0.00000E+00 0.00000E+00
 -1      1221 1.42650E+02 0.00000E+00 0.00000E+00
 -1      1222 1.45650E+02 0.00000E+00 0.00000E+00
 -1      1223 1.48575E+02 0.00000E+00 0.00000E+00
 -1      1224 1.50000E+02 1.47500E+00 0.00000E+00
 -1      1225 1.50000E+02 4.42500E+00 0.00000E+00
 -1      1226 1.50000E+02 7.37500E+00 0.00000E+00
 -1      1227 1.50000E+02 1.03250E+01 0.00000E+00
 -1      1228 1.50000E+02 1.32750E+01 0.00000E+00
 -1      1229 1.50000E+02 1.62000E+01 0.00000E+00
 -1      1230 1.50000E+02 1.91250E+01 0.00000E+00
 -1      1231 1.50000E+02 2.20750E+01 0.00000E+00
 -1      1232 1.50000E+02 2.50250E+01 0.00000E+00
 -1      1233 1.50000E+02 2.79750E+01 0.00000E+00
 -1      1234 1.50000E+02 3.09250E+01 0.00000E+00
 -1      1235 1.50000E+02 3.38500E+01 0.00000E+00
 -1      1236 1.50000E+02 3.67750E+01 0.00000E+00
 -1      1237 1.50000E+02 3.97250E+01 0.00000E+00
 -1      1238 1.50000E+02 4.26750E+01 0.00000E+00
 -1      1239 1.50000E+02 4.56250E+01 0.00000E+00
 -1      1240 1.50000E+02 4.85500E+01 0.00000E+00
 -1      1241 3.44349E+01 2.75192E+01 0.00000E+00
 -1      1242 3.40969E+01 2.60312E+01 0.00000E+00
 -1      1243 3.34954E+01 2.47357E+01 0.00000E+00
 -1      1244 3.26119E+01 2.35552E+01 0.00000E+00
 -1      1245 3.15057E+01 2.25894E+01 0.00000E+00
 -1      1246 3.02875E+01 2.19038E+01 0.00000E+00
 -1      1247 2.88705E+01 2.14557E+01 0.00000E+00
 -1      1248 2.73377E+01 2.13178E+01 0.00000E+00
 -1      1249 2.58731E+01 2.15033E+01 0.00000E+00
 -1      1250 2.44202E+01 2.20207E+01 0.00000E+00
 -1      1251 2.30949E+01 2.28604E+01 0.00000E+00
 -1      1252 2.20015E+01 2.39596E+01 0.00000E+00
 -1      1253 2.11835E+01 2.52587E+01 0.00000E+00
 -1      1254 2.06783E+01 2.66639E+01 0.00000E+00
 -1      1255 2.04831E+01 2.81234E+01 0.00000E+00
 -1      1256 2.05967E+01 2.95870E+01 0.00000E+00
 -1      1257 2.10415E+01 3.10621E+01 0.00000E+00
 -1      1258 2.17725E+01 3.23684E+01 0.00000E+00
 -1      1259 2.27628E+01 3.34878E+01 0.00000E+00
 -1      1260 2.39530E+01 3.43625E+01 0.00000E+00
 -1      1261 2.52834E+01 3.49626E+01 0.00000E+00
 -1      1262 2.67465E+01 3.52777E+01 0.00000E+00
 -1      1263 2.82534E+01 3.52735E+01 0.00000E+00
 -1      1264 2.97948E+01 3.49226E+01 0.00000E+00
 -1      1265 3.12158E+01 3.42364E+01 0.00000E+00
 -1      1266 3.23965E+01 3.32995E+01 0.00000E+00
 -1      1267 3.33672E+01 3.21040E+01 0.00000E+00
 -1      1268 3.40689E+01 3.06810E+01 0.00000E+00
 -1      1269 3.44332E+01 2.91278E+01 0.00000E+00
 -1      1270 1.57500E+00 4.85250E+01 0.00000E+00
 -1      1271 1.29900E+00 4.48375E+01 0.00000E+00
 -1      1272 1.29900E+00 4.63125E+01 0.00000E+00
 -1      1273 1.29900E+00 4.18875E+01 0.00000E+00
 -1      1274 1.29900E+00 4.33625E+01 0.00000E+00
 -1      1275 2.59800E+00 4.41000E+01 0.00000E+00
 -1      1276 1.29900E+00 3.89375E+01 0.00000E+00
 -1      1277 1.29900E+00 4.04125E+01 0.00000E+00
 -1      1278 2.59800E+00 4.11500E+01 0.00000E+00
 -1      1279 1.29900E+00 3.59875E+01 0.00000E+00
 -1      1280 1.29900E+00 3.74625E+01 0.00000E+00
 -1      1281 2.59800E+00 3.82000E+01 0.00000E+00
 -1      1282 1.29900E+00 3.30875E+01 0.00000E+00
 -1      1283 1.29900E+00 3.45375E+01 0.00000E+00
 -1      1284 2.59800E+00 3.52750E+01 0.00000E+00
 -1      1285 1.29900E+00 3.01375E+01 0.00000E+00
 -1      1286 1.29900E+00 3.16125E+01 0.00000E+00
 -1      1287 2.59800E+00 3.23500E+01 0.00000E+00
 -1      1288 1.29900E+00 2.71875E+01 0.00000E+00
 -1      1289 1.29900E+00 2.86625E+01 0.00000E+00
 -1      1290 2.59800E+00 2.94000E+01 0.00000E+00
 -1      1291 1.29900E+00 2.42375E+01 0.00000E+00
 -1      1292 1.29900E+00 2.57125E+01 0.00000E+00
 -1      1293 2.59800E+00 2.64500E+01 0.00000E+00
 -1      1294 1.29900E+00 2.12875E+01 0.00000E+00
 -1      1295 1.29900E+00 2.27625E+01 0.00000E+00
 -1      1296 2.59800E+00 2.35000E+01 0.00000E+00
 -1      1297 1.29900E+00 1.83375E+01 0.00000E+00
 -1      1298 1.29900E+00 1.98125E+01 0.00000E+00
 -1      1299 2.59800E+00 2.05500E+01 0.00000E+00
 -1      1300 1.29900E+00 1.54375E+01 0.00000E+00
 -1      1301 1.29900E+00 1.68875E+01 0.00000E+00
 -1      1302 2.59800E+00 1.76250E+01 0.00000E+00
 -1      1303 1.29900E+00 1.24875E+01 0.00000E+00
 -1      1304 1.29900E+00 1.39625E+01 0.00000E+00
 -1      1305 2.59800E+00 1.47000E+01 0.00000E+00
 -1      1306 1.29900E+00 9.53750E+00 0.00000E+00
 -1      1307 1.29900E+00 1.10125E+01 0.00000E+00
 -1      1308 2.59800E+00 1.17500E+01 0.00000E+00
 -1      1309 1.29900E+00 6.58750E+00 0.00000E+00
 -1      1310 1.29900E+00 8.06250E+00 0.00000E+00
 -1      1311 2.59800E+00 8.80000E+00 0.00000E+00
 -1      1312 1.29900E+00 3.63750E+00 0.00000E+00
 -1      1313 1.29900E+00 5.11250E+00 0.00000E+00
 -1      1314 2.59800E+00 5.85000E+00 0.00000E+00
 -1      1315 1.43700E+00 1.09375E+00 0.00000E+00
 -1      1316 1.43700E+00 2.54375E+00 0.00000E+00
 -1      1317 2.73600E+00 3.28125E+00 0.00000E+00
 -1      1318 3.01200E+00 1.09375E+00 0.00000E+00
 -1      1319 3.90000E+00 4.87010E+01 0.00000E+00
 -1      1320 5.40000E+00 4.87010E+01 0.00000E+00
 -1      1321 6.90000E+00 4.87010E+01 0.00000E+00
 -1      1322 8.40000E+00 4.87010E+01 0.00000E+00
 -1      1323 6.15000E+00 4.74020E+01 0.00000E+00
 -1      1324 9.90000E+00 4.87010E+01 0.00000E+00
 -1      1325 1.14000E+01 4.87010E+01 0.00000E+00
 -1      1326 9.15000E+00 4.74020E+01 0.00000E+00
 -1      1327 1.29000E+01 4.87010E+01 0.00000E+00
 -1      1328 1.44000E+01 4.87010E+01 0.00000E+00
 -1      1329 1.21500E+01 4.74020E+01 0.00000E+00
 -1      1330 1.59000E+01 4.87010E+01 0.00000E+00
 -1      1331 1.74000E+01 4.87010E+01 0.00000E+00
 -1      1332 1.51500E+01 4.74020E+01 0.00000E+00
 -1      1333 1.89000E+01 4.87010E+01 0.00000E+00
 -1      1334 2.04000E+01 4.87010E+01 0.00000E+00
 -1      1335 1.81500E+01 4.74020E+01 0.00000E+00
 -1      1336 2.19000E+01 4.87010E+01 0.00000E+00
 -1      1337 2.34000E+01 4.87010E+01 0.00000E+00
 -1      1338 2.11500E+01 4.74020E+01 0.00000E+00
 -1      1339 2.49000E+01 4.87010E+01 0.00000E+00
 -1      1340 2.64000E+01 4.87010E+01 0.00000E+00
 -1      1341 2.41500E+01 4.74020E+01 0.00000E+00
 -1      1342 2.79000E+01 4.87010E+01 0.00000E+00
 -1      1343 2.94000E+01 4.87010E+01 0.00000E+00
 -1      1344 2.71500E+01 4.74020E+01 0.00000E+00
 -1      1345 3.09000E+01 4.87010E+01 0.00000E+00
 -1      1346 3.24000E+01 4.87010E+01 0.00000E+00
 -1      1347 3.01500E+01 4.74020E+01 0.00000E+00
 -1      1348 3.39000E+01 4.87010E+01 0.00000E+00
 -1      1349 3.54000E+01 4.87010E+01 0.00000E+00
 -1      1350 3.31500E+01 4.74020E+01 0.00000E+00
 -1      1351 3.69000E+01 4.87010E+01 0.00000E+00
 -1      1352 3.84000E+01 4.87010E+01 0.00000E+00
 -1      1353 3.61500E+01 4.74020E+01 0.00000E+00
 -1      1354 3.99000E+01 4.87010E+01 0.00000E+00
 -1      1355 4.14000E+01 4.87010E+01 0.00000E+00
 -1      1356 3.91500E+01 4.74020E+01 0.00000E+00
 -1      1357 4.29000E+01 4.87010E+01 0.00000E+00
 -1      1358 4.44000E+01 4.87010E+01 0.00000E+00
 -1      1359 4.21500E+01 4.74020E+01 0.00000E+00
 -1      1360 4.59000E+01 4.87010E+01 0.00000E+00
 -1      1361 4.74000E+01 4.87010E+01 0.00000E+00
 -1      1362 4.51500E+01 4.74020E+01 0.00000E+00
 -1      1363 4.89000E+01 4.87010E+01 0.00000E+00
 -1      1364 5.04000E+01 4.87010E+01 0.00000E+00
 -1      1365 4.81500E+01 4.74020E+01 0.00000E+00
 -1      1366 5.19000E+01 4.87010E+01 0.00000E+00
 -1      1367 5.34000E+01 4.87010E+01 0.00000E+00
 -1      1368 5.11500E+01 4.74020E+01 0.00000E+00
 -1      1369 5.49000E+01 4.87010E+01 0.00000E+00
 -1      1370 5.64000E+01 4.87010E+01 0.00000E+00
 -1      1371 5.41500E+01 4.74020E+01 0.00000E+00
 -1      1372 5.79000E+01 4.87010E+01 0.00000E+00
 -1      1373 5.94000E+01 4.87010E+01 0.00000E+00
 -1      1374 5.71500E+01 4.74020E+01 0.00000E+00
 -1      1375 6.09000E+01 4.87010E+01 0.00000E+00
 -1      1376 6.24000E+01 4.87010E+01 0.00000E+00
 -1      1377 6.01500E+01 4.74020E+01 0.00000E+00
 -1      1378 6.39000E+01 4.87010E+01 0.00000E+00
 -1      1379 6.54000E+01 4.87010E+01 0.00000E+00
 -1      1380 6.31500E+01 4.74020E+01 0.00000E+00
 -1      1381 6.69000E+01 4.87010E+01 0.00000E+00
 -1      1382 6.84000E+01 4.87010E+01 0.00000E+00
 -1      1383 6.61500E+01 4.74020E+01 0.00000E+00
 -1      1384 6.99000E+01 4.87010E+01 0.00000E+00
 -1      1385 7.14000E+01 4.87010E+01 0.00000E+00
 -1      1386 6.91500E+01 4.74020E+01 0.00000E+00
 -1      1387 7.29000E+01 4.87010E+01 0.00000E+00
 -1      1388 7.44000E+01 4.87010E+01 0.00000E+00
 -1      1389 7.21500E+01 4.74020E+01 0.00000E+00
 -1      1390 7.59000E+01 4.87010E+01 0.00000E+00
 -1      1391 7.74000E+01 4.87010E+01 0.00000E+00
 -1      1392 7.51500E+01 4.74020E+01 0.00000E+00
 -1      1393 7.89000E+01 4.87010E+01 0.00000E+00
 -1      1394 8.04000E+01 4.87010E+01 0.00000E+00
 -1      1395 7.81500E+01 4.74020E+01 0.00000E+00
 -1      1396 8.19000E+01 4.87010E+01 0.00000E+00
 -1      1397 8.34000E+01 4.87010E+01 0.00000E+00
 -1      1398 8.11500E+01 4.74020E+01 0.00000E+00
 -1      1399 8.49000E+01 4.87010E+01 0.00000E+00
 -1      1400 8.64000E+01 4.87010E+01 0.00000E+00
 -1      1401 8.41500E+01 4.74020E+01 0.00000E+00
 -1      1402 8.79000E+01 4.87010E+01 0.00000E+00
 -1      1403 8.94000E+01 4.87010E+01 0.00000E+00
 -1      1404 8.71500E+01 4.74020E+01 0.00000E+00
 -1      1405 9.09000E+01 4.87010E+01 0.00000E+00
 -1      1406 9.24000E+01 4.87010E+01 0.00000E+00
 -1      1407 9.01500E+01 4.74020E+01 0.00000E+00
 -1      1408 9.39000E+01 4.87010E+01 0.00000E+00
 -1      1409 9.54000E+01 4.87010E+01 0.00000E+00
 -1      1410 9.31500E+01 4.74020E+01 0.00000E+00
 -1      1411 9.69000E+01 4.87010E+01 0.00000E+00
 -1      1412 9.84000E+01 4.87010E+01 0.00000E+00
 -1      1413 9.61500E+01 4.74020E+01 0.00000E+00
 -1      1414 9.99000E+01 4.87010E+01 0.00000E+00
 -1      1415 1.01400E+02 4.87010E+01 0.00000E+00
 -1      1416 9.91500E+01 4.74020E+01 0.00000E+00
 -1      1417 1.02900E+02 4.87010E+01 0.00000E+00
 -1      1418 1.04400E+02 4.87010E+01 0.00000E+00
 -1      1419 1.02150E+02 4.74020E+01 0.00000E+00
 -1      1420 1.05900E+02 4.87010E+01 0.00000E+00
 -1      1421 1.07400E+02 4.87010E+01 0.00000E+00
 -1      1422 1.05150E+02 4.74020E+01 0.00000E+00
 -1      1423 1.08900E+02 4.87010E+01 0.00000E+00
 -1      1424 1.10400E+02 4.87010E+01 0.00000E+00
 -1      1425 1.08150E+02 4.74020E+01 0.00000E+00
 -1      1426 1.11900E+02 4.87010E+01 0.00000E+00
 -1      1427 1.13400E+02 4.87010E+01 0.00000E+00
 -1      1428 1.11150E+02 4.74020E+01 0.00000E+00
 -1      1429 1.14900E+02 4.87010E+01 0.00000E+00
 -1      1430 1.16400E+02 4.87010E+01 0.00000E+00
 -1      1431 1.14150E+02 4.74020E+01 0.00000E+00
 -1      1432 1.17900E+02 4.87010E+01 0.00000E+00
 -1      1433 1.19400E+02 4.87010E+01 0.00000E+00
 -1      1434 1.17150E+02 4.74020E+01 0.00000E+00
 -1      1435 1.20900E+02 4.87010E+01 0.00000E+00
 -1      1436 1.22400E+02 4.87010E+01 0.00000E+00
 -1      1437 1.20150E+02 4.74020E+01 0.00000E+00
 -1      1438 1.23900E+02 4.87010E+01 0.00000E+00
 -1      1439 1.25400E+02 4.87010E+01 0.00000E+00
 -1      1440 1.23150E+02 4.74020E+01 0.00000E+00
 -1      1441 1.26900E+02 4.87010E+01 0.00000E+00
 -1      1442 1.28400E+02 4.87010E+01 0.00000E+00
 -1      1443 1.26150E+02 4.74020E+01 0.00000E+00
 -1      1444 1.29900E+02 4.87010E+01 0.00000E+00
 -1      1445 1.31400E+02 4.87010E+01 0.00000E+00
 -1      1446 1.29150E+02 4.74020E+01 0.00000E+00
 -1      1447 1.32900E+02 4.87010E+01 0.00000E+00
 -1      1448 1.34400E+02 4.87010E+01 0.00000E+00
 -1      1449 1.32150E+02 4.74020E+01 0.00000E+00
 -1      1450 1.35900E+02 4.87010E+01 0.00000E+00
 -1      1451 1.37400E+02 4.87010E+01 0.00000E+00
 -1      1452 1.35150E+02 4.74020E+01 0.00000E+00
 -1      1453 1.38900E+02 4.87010E+01 0.00000E+00
 -1      1454 1.40400E+02 4.87010E+01 0.00000E+00
 -1      1455 1.38150E+02 4.74020E+01 0.00000E+00
 -1      1456 1.41900E+02 4.87010E+01 0.00000E+00
 -1      1457 1.43400E+02 4.87010E+01 0.00000E+00
 -1      1458 1.41150E+02 4.74020E+01 0.00000E+00
 -1      1459 1.44900E+02 4.87010E+01 0.00000E+00
 -1      1460 1.46400E+02 4.87010E+01 0.00000E+00
 -1      1461 1.44150E+02 4.74020E+01 0.00000E+00
 -1      1462 1.48575E+02 4.85500E+01 0.00000E+00
 -1      1463 1.47825E+02 4.72510E+01 0.00000E+00
 -1      1464 6.01200E+00 1.09375E+00 0.00000E+00
 -1      1465 4.51200E+00 1.09375E+00 0.00000E+00
 -1      1466 4.37400E+00 2.18750E+00 0.00000E+00
 -1      1467 9.01200E+00 1.09375E+00 0.00000E+00
 -1      1468 7.51200E+00 1.09375E+00 0.00000E+00
 -1      1469 7.37400E+00 2.18750E+00 0.00000E+00
 -1      1470 1.20120E+01 1.09375E+00 0.00000E+00
 -1      1471 1.05120E+01 1.09375E+00 0.00000E+00
 -1      1472 1.03740E+01 2.18750E+00 0.00000E+00
 -1      1473 1.50120E+01 1.09375E+00 0.00000E+00
 -1      1474 1.35120E+01 1.09375E+00 0.00000E+00
 -1      1475 1.33740E+01 2.18750E+00 0.00000E+00
 -1      1476 1.80120E+01 1.09375E+00 0.00000E+00
 -1      1477 1.65120E+01 1.09375E+00 0.00000E+00
 -1      1478 1.63740E+01 2.18750E+00 0.00000E+00
 -1      1479 2.10120E+01 1.09375E+00 0.00000E+00
 -1      1480 1.95120E+01 1.09375E+00 0.00000E+00
 -1      1481 1.93740E+01 2.18750E+00 0.00000E+00
 -1      1482 2.40120E+01 1.09375E+00 0.00000E+00
 -1      1483 2.25120E+01 1.09375E+00 0.00000E+00
 -1      1484 2.23740E+01 2.18750E+00 0.00000E+00
 -1      1485 2.70120E+01 1.09375E+00 0.00000E+00
 -1      1486 2.55120E+01 1.09375E+00 0.00000E+00
 -1      1487 2.53740E+01 2.18750E+00 0.00000E+00
 -1      1488 3.00120E+01 1.09375E+00 0.00000E+00
 -1      1489 2.85120E+01 1.09375E+00 0.00000E+00
 -1      1490 2.83740E+01 2.18750E+00 0.00000E+00
 -1      1491 3.30120E+01 1.09375E+00 0.00000E+00
 -1      1492 3.15120E+01 1.09375E+00 0.00000E+00
 -1      1493 3.13740E+01 2.18750E+00 0.00000E+00
 -1      1494 3.60120E+01 1.09375E+00 0.00000E+00
 -1      1495 3.45120E+01 1.09375E+00 0.00000E+00
 -1      1496 3.43740E+01 2.18750E+00 0.00000E+00
 -1      1497 3.90120E+01 1.09375E+00 0.00000E+00
 -1      1498 3.75120E+01 1.09375E+00 0.00000E+00
 -1      1499 3.73740E+01 2.18750E+00 0.00000E+00
 -1      1500 4.20120E+01 1.09375E+00 0.00000E+00
 -1      1501 4.05120E+01 1.09375E+00 0.00000E+00
 -1      1502 4.03740E+01 2.18750E+00 0.00000E+00
 -1      1503 4.50120E+01 1.09375E+00 0.00000E+00
 -1      1504 4.35120E+01 1.09375E+00 0.00000E+00
 -1      1505 4.33740E+01 2.18750E+00 0.00000E+00
 -1      1506 4.80120E+01 1.09375E+00 0.00000E+00
 -1      1507 4.65120E+01 1.09375E+00 0.00000E+00
 -1      1508 4.63740E+01 2.18750E+00 0.00000E+00
 -1      1509 5.10120E+01 1.09375E+00 0.00000E+00
 -1      1510 4.95120E+01 1.09375E+00 0.00000E+00
 -1      1511 4.93740E+01 2.18750E+00 0.00000E+00
 -1      1512 5.40120E+01 1.09375E+00 0.00000E+00
 -1      1513 5.25120E+01 1.09375E+00 0.00000E+00
 -1      1514 5.23740E+01 2.18750E+00 0.00000E+00
 -1      1515 5.70120E+01 1.09375E+00 0.00000E+00
 -1      1516 5.55120E+01 1.09375E+00 0.00000E+00
 -1      1517 5.53740E+01 2.18750E+00 0.00000E+00
 -1      1518 6.00120E+01 1.09375E+00 0.00000E+00
 -1      1519 5.85120E+01 1.09375E+00 0.00000E+00
 -1      1520 5.83740E+01 2.18750E+00 0.00000E+00
 -1      1521 6.30120E+01 1.09375E+00 0.00000E+00
 -1      1522 6.15120E+01 1.09375E+00 0.00000E+00
 -1      1523 6.13740E+01 2.18750E+00 0.00000E+00
 -1      1524 6.60120E+01 1.09375E+00 0.00000E+00
 -1      1525 6.45120E+01 1.09375E+00 0.00000E+00
 -1      1526 6.43740E+01 2.18750E+00 0.00000E+00
 -1      1527 6.90120E+01 1.09375E+00 0.00000E+00
 -1      1528 6.75120E+01 1.09375E+00 0.00000E+00
 -1      1529 6.73740E+01 2.18750E+00 0.00000E+00
 -1      1530 7.20120E+01 1.09375E+00 0.00000E+00
 -1      1531 7.05120E+01 1.09375E+00 0.00000E+00
 -1      1532 7.03740E+01 2.18750E+00 0.00000E+00
 -1      1533 7.50120E+01 1.09375E+00 0.00000E+00
 -1      1534 7.35120E+01 1.09375E+00 0.00000E+00
 -1      1535 7.33740E+01 2.18750E+00 0.00000E+00
 -1      1536 7.80120E+01 1.09375E+00 0.00000E+00
 -1      1537 7.65120E+01 1.09375E+00 0.00000E+00
 -1      1538 7.63740E+01 2.18750E+00 0.00000E+00
 -1      1539 8.10120E+01 1.09375E+00 0.00000E+00
 -1      1540 7.95120E+01 1.09375E+00 0.00000E+00
 -1      1541 7.93740E+01 2.18750E+00 0.00000E+00
 -1      1542 8.40120E+01 1.09375E+00 0.00000E+00
 -1      1543 8.25120E+01 1.09375E+00 0.00000E+00
 -1      1544 8.23740E+01 2.18750E+00 0.00000E+00
 -1      1545 8.70120E+01 1.09375E+00 0.00000E+00
 -1      1546 8.55120E+01 1.09375E+00 0.00000E+00
 -1      1547 8.53740E+01 2.18750E+00 0.00000E+00
 -1      1548 9.00120E+01 1.09375E+00 0.00000E+00
 -1      1549 8.85120E+01 1.09375E+00 0.00000E+00
 -1      1550 8.83740E+01 2.18750E+00 0.00000E+00
 -1      1551 9.30120E+01 1.09375E+00 0.00000E+00
 -1      1552 9.15120E+01 1.09375E+00 0.00000E+00
 -1      1553 9.13740E+01 2.18750E+00 0.00000E+00
 -1      1554 9.60120E+01 1.09375E+00 0.00000E+00
 -1      1555 9.45120E+01 1.09375E+00 0.00000E+00
 -1      1556 9.43740E+01 2.18750E+00 0.00000E+00
 -1      1557 9.90120E+01 1.09375E+00 0.00000E+00
 -1      1558 9.75120E+01 1.09375E+00 0.00000E+00
 -1      1559 9.73740E+01 2.18750E+00 0.00000E+00
 -1      1560 1.02012E+02 1.09375E+00 0.00000E+00
 -1      1561 1.00512E+02 1.09375E+00 0.00000E+00
 -1      1562 1.00374E+02 2.18750E+00 0.00000E+00
 -1      1563 1.05012E+02 1.09375E+00 0.00000E+00
 -1      1564 1.03512E+02 1.09375E+00 0.00000E+00
 -1      1565 1.03374E+02 2.18750E+00 0.00000E+00
 -1      1566 1.08012E+02 1.09375E+00 0.00000E+00
 -1      1567 1.06512E+02 1.09375E+00 0.00000E+00
 -1      1568 1.06374E+02 2.18750E+00 0.00000E+00
 -1      1569 1.11012E+02 1.09375E+00 0.00000E+00
 -1      1570 1.09512E+02 1.09375E+00 0.00000E+00
 -1      1571 1.09374E+02 2.18750E+00 0.00000E+00
 -1      1572 1.14012E+02 1.09375E+00 0.00000E+00
 -1      1573 1.12512E+02 1.09375E+00 0.00000E+00
 -1      1574 1.12374E+02 2.18750E+00 0.00000E+00
 -1      1575 1.17012E+02 1.09375E+00 0.00000E+00
 -1      1576 1.15512E+02 1.09375E+00 0.00000E+00
 -1      1577 1.15374E+02 2.18750E+00 0.00000E+00
 -1      1578 1.20012E+02 1.09375E+00 0.00000E+00
 -1      1579 1.18512E+02 1.09375E+00 0.00000E+00
 -1      1580 1.18374E+02 2.18750E+00 0.00000E+00
 -1      1581 1.23012E+02 1.09375E+00 0.00000E+00
 -1      1582 1.21512E+02 1.09375E+00 0.00000E+00
 -1      1583 1.21374E+02 2.18750E+00 0.00000E+00
 -1      1584 1.26012E+02 1.09375E+00 0.00000E+00
 -1      1585 1.24512E+02 1.09375E+00 0.00000E+00
 -1      1586 1.24374E+02 2.18750E+00 0.00000E+00
 -1      1587 1.29012E+02 1.09375E+00 0.00000E+00
 -1      1588 1.27512E+02 1.09375E+00 0.00000E+00
 -1      1589 1.27374E+02 2.18750E+00 0.00000E+00
 -1      1590 1.32012E+02 1.09375E+00 0.00000E+00
 -1      1591 1.30512E+02 1.09375E+00 0.00000E+00
 -1      1592 1.30374E+02 2.18750E+00 0.00000E+00
 -1      1593 1.35012E+02 1.09375E+00 0.00000E+00
 -1      1594 1.33512E+02 1.09375E+00 0.00000E+00
 -1      1595 1.33374E+02 2.18750E+00 0.00000E+00
 -1      1596 1.38012E+02 1.09375E+00 0.00000E+00
 -1      1597 1.36512E+02 1.09375E+00 0.00000E+00
 -1      1598 1.36374E+02 2.18750E+00 0.00000E+00
 -1      1599 1.41012E+02 1.09375E+00 0.00000E+00
 -1      1600 1.39512E+02 1.09375E+00 0.00000E+00
 -1      1601 1.39374E+02 2.18750E+00 0.00000E+00
 -1      1602 1.44012E+02 1.09375E+00 0.00000E+00
 -1      1603 1.42512E+02 1.09375E+00 0.00000E+00
 -1      1604 1.42374E+02 2.18750E+00 0.00000E+00
 -1      1605 1.47012E+02 1.09375E+00 0.00000E+00
 -1      1606 1.45512E+02 1.09375E+00 0.00000E+00
 -1      1607 1.45374E+02 2.18750E+00 0.00000E+00
 -1      1608 1.48575E+02 1.47500E+00 0.00000E+00
 -1      1609 1.48701E+02 5.16250E+00 0.00000E+00
 -1      1610 1.48701E+02 3.68750E+00 0.00000E+00
 -1      1611 1.48701E+02 8.11250E+00 0.00000E+00
 -1      1612 1.48701E+02 6.63750E+00 0.00000E+00
 -1      1613 1.47402E+02 5.90000E+00 0.00000E+00
 -1      1614 1.48701E+02 1.10625E+01 0.00000E+00
 -1      1615 1.48701E+02 9.58750E+00 0.00000E+00
 -1      1616 1.47402E+02 8.85000E+00 0.00000E+00
 -1      1617 1.48701E+02 1.40125E+01 0.00000E+00
 -1      1618 1.48701E+02 1.25375E+01 0.00000E+00
 -1      1619 1.47402E+02 1.18000E+01 0.00000E+00
 -1      1620 1.48701E+02 1.69125E+01 0.00000E+00
 -1      1621 1.48701E+02 1.54625E+01 0.00000E+00
 -1      1622 1.47402E+02 1.47250E+01 0.00000E+00
 -1      1623 1.48701E+02 1.98625E+01 0.00000E+00
 -1      1624 1.48701E+02 1.83875E+01 0.00000E+00
 -1      1625 1.47402E+02 1.76500E+01 0.00000E+00
 -1      1626 1.48701E+02 2.28125E+01 0.00000E+00
 -1      1627 1.48701E+02 2.13375E+01 0.00000E+00
 -1      1628 1.47402E+02 2.06000E+01 0.00000E+00
 -1      1629 1.48701E+02 2.57625E+01 0.00000E+00
 -1      1630 1.48701E+02 2.42875E+01 0.00000E+00
 -1      1631 1.47402E+02 2.35500E+01 0.00000E+00
 -1      1632 1.48701E+02 2.87125E+01 0.00000E+00
 -1      1633 1.48701E+02 2.72375E+01 0.00000E+00
 -1      1634 1.47402E+02 2.65000E+01 0.00000E+00
 -1      1635 1.48701E+02 3.16625E+01 0.00000E+00
 -1      1636 1.48701E+02 3.01875E+01 0.00000E+00
 -1      1637 1.47402E+02 2.94500E+01 0.00000E+00
 -1      1638 1.48701E+02 3.45625E+01 0.00000E+00
 -1      1639 1.48701E+02 3.31125E+01 0.00000E+00
 -1      1640 1.47402E+02 3.23750E+01 0.00000E+00
 -1      1641 1.48701E+02 3.75125E+01 0.00000E+00
 -1      1642 1.48701E+02 3.60375E+01 0.00000E+00
 -1      1643 1.47402E+02 3.53000E+01 0.00000E+00
 -1      1644 1.48701E+02 4.04625E+01 0.00000E+00
 -1      1645 1.48701E+02 3.89875E+01 0.00000E+00
 -1      1646 1.47402E+02 3.82500E+01 0.00000E+00
 -1      1647 1.48701E+02 4.34125E+01 0.00000E+00
 -1      1648 1.48701E+02 4.19375E+01 0.00000E+00
 -1      1649 1.47402E+02 4.12000E+01 0.00000E+00
 -1      1650 1.48263E+02 4.60692E+01 0.00000E+00
 -1      1651 1.48263E+02 4.45942E+01 0.00000E+00
 -1      1652 1.46964E+02 4.38568E+01 0.00000E+00
 -1      1653 1.46088E+02 4.62202E+01 0.00000E+00
 -1      1654 3.50714E+01 2.70452E+01 0.00000E+00
 -1      1655 3.51622E+01 2.78370E+01 0.00000E+00
 -1      1656 3.45546E+01 2.54876E+01 0.00000E+00
 -1      1657 3.47925E+01 2.61765E+01 0.00000E+00
 -1      1658 3.38073E+01 2.41431E+01 0.00000E+00
 -1      1659 3.41651E+01 2.47441E+01 0.00000E+00
 -1      1660 3.28226E+01 2.28311E+01 0.00000E+00
 -1      1661 3.33498E+01 2.33993E+01 0.00000E+00
 -1      1662 3.15508E+01 2.19222E+01 0.00000E+00
 -1      1663 3.21181E+01 2.23210E+01 0.00000E+00
 -1      1664 3.01938E+01 2.12398E+01 0.00000E+00
 -1      1665 3.08390E+01 2.15222E+01 0.00000E+00
 -1      1666 2.86157E+01 2.07448E+01 0.00000E+00
 -1      1667 2.93820E+01 2.09000E+01 0.00000E+00
 -1      1668 2.69452E+01 2.06348E+01 0.00000E+00
 -1      1669 2.77021E+01 2.06194E+01 0.00000E+00
 -1      1670 2.53827E+01 2.09912E+01 0.00000E+00
 -1      1671 2.60828E+01 2.08260E+01 0.00000E+00
 -1      1672 2.37697E+01 2.16237E+01 0.00000E+00
 -1      1673 2.45098E+01 2.12639E+01 0.00000E+00
 -1      1674 2.24494E+01 2.26526E+01 0.00000E+00
 -1      1675 2.30308E+01 2.21853E+01 0.00000E+00
 -1      1676 2.12474E+01 2.38738E+01 0.00000E+00
 -1      1677 2.17481E+01 2.32442E+01 0.00000E+00
 -1      1678 2.04754E+01 2.53209E+01 0.00000E+00
 -1      1679 2.07945E+01 2.46637E+01 0.00000E+00
 -1      1680 1.99582E+01 2.68814E+01 0.00000E+00
 -1      1681 2.01383E+01 2.61403E+01 0.00000E+00
 -1      1682 1.98615E+01 2.84612E+01 0.00000E+00
 -1      1683 1.98811E+01 2.77517E+01 0.00000E+00
 -1      1684 2.00276E+01 3.00777E+01 0.00000E+00
 -1      1685 1.98899E+01 2.93320E+01 0.00000E+00
 -1      1686 2.05235E+01 3.17083E+01 0.00000E+00
 -1      1687 2.02166E+01 3.09886E+01 0.00000E+00
 -1      1688 2.15149E+01 3.29895E+01 0.00000E+00
 -1      1689 2.11012E+01 3.24068E+01 0.00000E+00
 -1      1690 2.26153E+01 3.42282E+01 0.00000E+00
 -1      1691 2.20391E+01 3.37025E+01 0.00000E+00
 -1      1692 2.39661E+01 3.50317E+01 0.00000E+00
 -1      1693 2.33640E+01 3.46805E+01 0.00000E+00
 -1      1694 2.54418E+01 3.56978E+01 0.00000E+00
 -1      1695 2.47180E+01 3.54585E+01 0.00000E+00
 -1      1696 2.70477E+01 3.59223E+01 0.00000E+00
 -1      1697 2.63174E+01 3.58453E+01 0.00000E+00
 -1      1698 2.87042E+01 3.58324E+01 0.00000E+00
 -1      1699 2.79363E+01 3.59178E+01 0.00000E+00
 -1      1700 3.03888E+01 3.53960E+01 0.00000E+00
 -1      1701 2.96261E+01 3.56632E+01 0.00000E+00
 -1      1702 3.18645E+01 3.45431E+01 0.00000E+00
 -1      1703 3.12134E+01 3.49540E+01 0.00000E+00
 -1      1704 3.30573E+01 3.34445E+01 0.00000E+00
 -1      1705 3.25324E+01 3.39623E+01 0.00000E+00
 -1      1706 3.40905E+01 3.20921E+01 0.00000E+00
 -1      1707 3.36562E+01 3.27672E+01 0.00000E+00
 -1      1708 3.47304E+01 3.05020E+01 0.00000E+00
 -1      1709 3.44656E+01 3.12398E+01 0.00000E+00
 -1      1710 3.50771E+01 2.87944E+01 0.00000E+00
 -1      1711 3.49830E+01 2.96005E+01 0.00000E+00
 -1      1712 3.28875E+01 2.21358E+01 0.00000E+00
 -1      1713 3.40495E+01 2.33897E+01 0.00000E+00
 -1      1714 1.48437E+02 2.56875E+00 0.00000E+00
 -1      1715 1.47138E+02 3.30625E+00 0.00000E+00
 -1      1716 3.55650E+01 2.64891E+01 0.00000E+00
 -1      1717 3.48966E+01 2.48770E+01 0.00000E+00
 -1      1718 3.57589E+01 2.83152E+01 0.00000E+00
 -1      1719 3.14713E+01 2.12257E+01 0.00000E+00
 -1      1720 2.99477E+01 2.04859E+01 0.00000E+00
 -1      1721 2.82223E+01 2.00208E+01 0.00000E+00
 -1      1722 2.64463E+01 2.00866E+01 0.00000E+00
 -1      1723 2.47110E+01 2.05505E+01 0.00000E+00
 -1      1724 2.30992E+01 2.13848E+01 0.00000E+00
 -1      1725 2.16590E+01 2.25380E+01 0.00000E+00
 -1      1726 2.05048E+01 2.39194E+01 0.00000E+00
 -1      1727 1.97149E+01 2.55286E+01 0.00000E+00
 -1      1728 1.93006E+01 2.72183E+01 0.00000E+00
 -1      1729 1.92518E+01 2.89594E+01 0.00000E+00
 -1      1730 1.94692E+01 3.07410E+01 0.00000E+00
 -1      1731 2.02360E+01 3.23505E+01 0.00000E+00
 -1      1732 2.13380E+01 3.37621E+01 0.00000E+00
 -1      1733 2.26109E+01 3.49274E+01 0.00000E+00
 -1      1734 2.41114E+01 3.58065E+01 0.00000E+00
 -1      1735 2.57390E+01 3.63808E+01 0.00000E+00
 -1      1736 2.75032E+01 3.65238E+01 0.00000E+00
 -1      1737 2.93137E+01 3.63500E+01 0.00000E+00
 -1      1738 3.10602E+01 3.57387E+01 0.00000E+00
 -1      1739 3.25527E+01 3.47158E+01 0.00000E+00
 -1      1740 3.38195E+01 3.34576E+01 0.00000E+00
 -1      1741 3.47935E+01 3.19280E+01 0.00000E+00
 -1      1742 3.54212E+01 3.01742E+01 0.00000E+00
 -1      1743 2.87400E+00 4.77875E+01 0.00000E+00
 -1      1744 3.89700E+00 4.04125E+01 0.00000E+00
 -1      1745 3.89700E+00 4.18875E+01 0.00000E+00
 -1      1746 3.89700E+00 4.33625E+01 0.00000E+00
 -1      1747 3.89700E+00 4.48375E+01 0.00000E+00
 -1      1748 5.19600E+00 4.26250E+01 0.00000E+00
 -1      1749 3.89700E+00 3.45500E+01 0.00000E+00
 -1      1750 3.89700E+00 3.60000E+01 0.00000E+00
 -1      1751 3.89700E+00 3.16000E+01 0.00000E+00
 -1      1752 3.89700E+00 3.30750E+01 0.00000E+00
 -1      1753 5.19600E+00 3.38000E+01 0.00000E+00
 -1      1754 3.89700E+00 2.86500E+01 0.00000E+00
 -1      1755 3.89700E+00 3.01250E+01 0.00000E+00
 -1      1756 5.19600E+00 3.08500E+01 0.00000E+00
 -1      1757 3.89700E+00 2.57000E+01 0.00000E+00
 -1      1758 3.89700E+00 2.71750E+01 0.00000E+00
 -1      1759 5.19600E+00 2.79000E+01 0.00000E+00
 -1      1760 3.89700E+00 2.27500E+01 0.00000E+00
 -1      1761 3.89700E+00 2.42250E+01 0.00000E+00
 -1      1762 5.19600E+00 2.49500E+01 0.00000E+00
 -1      1763 3.89700E+00 1.98000E+01 0.00000E+00
 -1      1764 3.89700E+00 2.12750E+01 0.00000E+00
 -1      1765 5.19600E+00 2.20000E+01 0.00000E+00
 -1      1766 3.89700E+00 1.69000E+01 0.00000E+00
 -1      1767 3.89700E+00 1.83500E+01 0.00000E+00
 -1      1768 5.19600E+00 1.90750E+01 0.00000E+00
 -1      1769 3.89700E+00 1.39500E+01 0.00000E+00
 -1      1770 3.89700E+00 1.54250E+01 0.00000E+00
 -1      1771 5.19600E+00 1.61500E+01 0.00000E+00
 -1      1772 3.89700E+00 1.10000E+01 0.00000E+00
 -1      1773 3.89700E+00 1.24750E+01 0.00000E+00
 -1      1774 5.19600E+00 1.32000E+01 0.00000E+00
 -1      1775 3.89700E+00 8.05000E+00 0.00000E+00
 -1      1776 3.89700E+00 9.52500E+00 0.00000E+00
 -1      1777 5.19600E+00 1.02500E+01 0.00000E+00
 -1      1778 3.89700E+00 5.10000E+00 0.00000E+00
 -1      1779 3.89700E+00 6.57500E+00 0.00000E+00
 -1      1780 5.19600E+00 7.30000E+00 0.00000E+00
 -1      1781 4.20450E+00 3.09687E+00 0.00000E+00
 -1      1782 4.06650E+00 4.19063E+00 0.00000E+00
 -1      1783 5.36550E+00 4.91563E+00 0.00000E+00
 -1      1784 5.70450E+00 3.09687E+00 0.00000E+00
 -1      1785 3.62400E+00 4.64885E+01 0.00000E+00
 -1      1786 8.70450E+00 3.09687E+00 0.00000E+00
 -1      1787 7.20450E+00 3.09687E+00 0.00000E+00
 -1      1788 7.03500E+00 4.00625E+00 0.00000E+00
 -1      1789 4.92300E+00 4.57510E+01 0.00000E+00
 -1      1790 8.40000E+00 4.61030E+01 0.00000E+00
 -1      1791 9.90000E+00 4.61030E+01 0.00000E+00
 -1      1792 1.14000E+01 4.61030E+01 0.00000E+00
 -1      1793 1.29000E+01 4.61030E+01 0.00000E+00
 -1      1794 1.06500E+01 4.48040E+01 0.00000E+00
 -1      1795 1.44000E+01 4.61030E+01 0.00000E+00
 -1      1796 1.59000E+01 4.61030E+01 0.00000E+00
 -1      1797 1.36500E+01 4.48040E+01 0.00000E+00
 -1      1798 1.74000E+01 4.61030E+01 0.00000E+00
 -1      1799 1.89000E+01 4.61030E+01 0.00000E+00
 -1      1800 1.66500E+01 4.48040E+01 0.00000E+00
 -1      1801 2.04000E+01 4.61030E+01 0.00000E+00
 -1      1802 2.19000E+01 4.61030E+01 0.00000E+00
 -1      1803 1.96500E+01 4.48040E+01 0.00000E+00
 -1      1804 2.34000E+01 4.61030E+01 0.00000E+00
 -1      1805 2.49000E+01 4.61030E+01 0.00000E+00
 -1      1806 2.26500E+01 4.48040E+01 0.00000E+00
 -1      1807 2.64000E+01 4.61030E+01 0.00000E+00
 -1      1808 2.79000E+01 4.61030E+01 0.00000E+00
 -1      1809 2.56500E+01 4.48040E+01 0.00000E+00
 -1      1810 2.94000E+01 4.61030E+01 0.00000E+00
 -1      1811 3.09000E+01 4.61030E+01 0.00000E+00
 -1      1812 2.86500E+01 4.48040E+01 0.00000E+00
 -1      1813 3.24000E+01 4.61030E+01 0.00000E+00
 -1      1814 3.39000E+01 4.61030E+01 0.00000E+00
 -1      1815 3.16500E+01 4.48040E+01 0.00000E+00
 -1      1816 3.54000E+01 4.61030E+01 0.00000E+00
 -1      1817 3.69000E+01 4.61030E+01 0.00000E+00
 -1      1818 3.46500E+01 4.48040E+01 0.00000E+00
 -1      1819 3.84000E+01 4.61030E+01 0.00000E+00
 -1      1820 3.99000E+01 4.61030E+01 0.00000E+00
 -1      1821 3.76500E+01 4.48040E+01 0.00000E+00
 -1      1822 4.14000E+01 4.61030E+01 0.00000E+00
 -1      1823 4.29000E+01 4.61030E+01 0.00000E+00
 -1      1824 4.06500E+01 4.48040E+01 0.00000E+00
 -1      1825 4.44000E+01 4.61030E+01 0.00000E+00
 -1      1826 4.59000E+01 4.61030E+01 0.00000E+00
 -1      1827 4.36500E+01 4.48040E+01 0.00000E+00
 -1      1828 4.74000E+01 4.61030E+01 0.00000E+00
 -1      1829 4.89000E+01 4.61030E+01 0.00000E+00
 -1      1830 4.66500E+01 4.48040E+01 0.00000E+00
 -1      1831 5.04000E+01 4.61030E+01 0.00000E+00
 -1      1832 5.19000E+01 4.61030E+01 0.00000E+00
 -1      1833 4.96500E+01 4.48040E+01 0.00000E+00
 -1      1834 5.34000E+01 4.61030E+01 0.00000E+00
 -1      1835 5.49000E+01 4.61030E+01 0.00000E+00
 -1      1836 5.26500E+01 4.48040E+01 0.00000E+00
 -1      1837 5.64000E+01 4.61030E+01 0.00000E+00
 -1      1838 5.79000E+01 4.61030E+01 0.00000E+00
 -1      1839 5.56500E+01 4.48040E+01 0.00000E+00
 -1      1840 5.94000E+01 4.61030E+01 0.00000E+00
 -1      1841 6.09000E+01 4.61030E+01 0.00000E+00
 -1      1842 5.86500E+01 4.48040E+01 0.00000E+00
 -1      1843 6.24000E+01 4.61030E+01 0.00000E+00
 -1      1844 6.39000E+01 4.61030E+01 0.00000E+00
 -1      1845 6.16500E+01 4.48040E+01 0.00000E+00
 -1      1846 6.54000E+01 4.61030E+01 0.00000E+00
 -1      1847 6.69000E+01 4.61030E+01 0.00000E+00
 -1      1848 6.46500E+01 4.48040E+01 0.00000E+00
 -1      1849 6.84000E+01 4.61030E+01 0.00000E+00
 -1      1850 6.99000E+01 4.61030E+01 0.00000E+00
 -1      1851 6.76500E+01 4.48040E+01 0.00000E+00
 -1      1852 7.14000E+01 4.61030E+01 0.00000E+00
 -1      1853 7.29000E+01 4.61030E+01 0.00000E+00
 -1      1854 7.06500E+01 4.48040E+01 0.00000E+00
 -1      1855 7.44000E+01 4.61030E+01 0.00000E+00
 -1      1856 7.59000E+01 4.61030E+01 0.00000E+00
 -1      1857 7.36500E+01 4.48040E+01 0.00000E+00
 -1      1858 7.74000E+01 4.61030E+01 0.00000E+00
 -1      1859 7.89000E+01 4.61030E+01 0.00000E+00
 -1      1860 7.66500E+01 4.48040E+01 0.00000E+00
 -1      1861 8.04000E+01 4.61030E+01 0.00000E+00
 -1      1862 8.19000E+01 4.61030E+01 0.00000E+00
 -1      1863 7.96500E+01 4.48040E+01 0.00000E+00
 -1      1864 8.34000E+01 4.61030E+01 0.00000E+00
 -1      1865 8.49000E+01 4.61030E+01 0.00000E+00
 -1      1866 8.26500E+01 4.48040E+01 0.00000E+00
 -1      1867 8.64000E+01 4.61030E+01 0.00000E+00
 -1      1868 8.79000E+01 4.61030E+01 0.00000E+00
 -1      1869 8.56500E+01 4.48040E+01 0.00000E+00
 -1      1870 8.94000E+01 4.61030E+01 0.00000E+00
 -1      1871 9.09000E+01 4.61030E+01 0.00000E+00
 -1      1872 8.86500E+01 4.48040E+01 0.00000E+00
 -1      1873 9.24000E+01 4.61030E+01 0.00000E+00
 -1      1874 9.39000E+01 4.61030E+01 0.00000E+00
 -1      1875 9.16500E+01 4.48040E+01 0.00000E+00
 -1      1876 9.54000E+01 4.61030E+01 0.00000E+00
 -1      1877 9.69000E+01 4.61030E+01 0.00000E+00
 -1      1878 9.46500E+01 4.48040E+01 0.00000E+00
 -1      1879 9.84000E+01 4.61030E+01 0.00000E+00
 -1      1880 9.99000E+01 4.61030E+01 0.00000E+00
 -1      1881 9.76500E+01 4.48040E+01 0.00000E+00
 -1      1882 1.01400E+02 4.61030E+01 0.00000E+00
 -1      1883 1.02900E+02 4.61030E+01 0.00000E+00
 -1      1884 1.00650E+02 4.48040E+01 0.00000E+00
 -1      1885 1.04400E+02 4.61030E+01 0.00000E+00
 -1      1886 1.05900E+02 4.61030E+01 0.00000E+00
 -1      1887 1.03650E+02 4.48040E+01 0.00000E+00
 -1      1888 1.07400E+02 4.61030E+01 0.00000E+00
 -1      1889 1.08900E+02 4.61030E+01 0.00000E+00
 -1      1890 1.06650E+02 4.48040E+01 0.00000E+00
 -1      1891 1.10400E+02 4.61030E+01 0.00000E+00
 -1      1892 1.11900E+02 4.61030E+01 0.00000E+00
 -1      1893 1.09650E+02 4.48040E+01 0.00000E+00
 -1      1894 1.13400E+02 4.61030E+01 0.00000E+00
 -1      1895 1.14900E+02 4.61030E+01 0.00000E+00
 -1      1896 1.12650E+02 4.48040E+01 0.00000E+00
 -1      1897 1.16400E+02 4.61030E+01 0.00000E+00
 -1      1898 1.17900E+02 4.61030E+01 0.00000E+00
 -1      1899 1.15650E+02 4.48040E+01 0.00000E+00
 -1      1900 1.19400E+02 4.61030E+01 0.00000E+00
 -1      1901 1.20900E+02 4.61030E+01 0.00000E+00
 -1      1902 1.18650E+02 4.48040E+01 0.00000E+00
 -1      1903 1.22400E+02 4.61030E+01 0.00000E+00
 -1      1904 1.23900E+02 4.61030E+01 0.00000E+00
 -1      1905 1.21650E+02 4.48040E+01 0.00000E+00
 -1      1906 1.25400E+02 4.61030E+01 0.00000E+00
 -1      1907 1.26900E+02 4.61030E+01 0.00000E+00
 -1      1908 1.24650E+02 4.48040E+01 0.00000E+00
 -1      1909 1.28400E+02 4.61030E+01 0.00000E+00
 -1      1910 1.29900E+02 4.61030E+01 0.00000E+00
 -1      1911 1.27650E+02 4.48040E+01 0.00000E+00
 -1      1912 1.31400E+02 4.61030E+01 0.00000E+00
 -1      1913 1.32900E+02 4.61030E+01 0.00000E+00
 -1      1914 1.30650E+02 4.48040E+01 0.00000E+00
 -1      1915 1.34400E+02 4.61030E+01 0.00000E+00
 -1      1916 1.35900E+02 4.61030E+01 0.00000E+00
 -1      1917 1.33650E+02 4.48040E+01 0.00000E+00
 -1      1918 1.37400E+02 4.61030E+01 0.00000E+00
 -1      1919 1.38900E+02 4.61030E+01 0.00000E+00
 -1      1920 1.36650E+02 4.48040E+01 0.00000E+00
 -1      1921 1.40400E+02 4.61030E+01 0.00000E+00
 -1      1922 1.41900E+02 4.61030E+01 0.00000E+00
 -1      1923 1.39650E+02 4.48040E+01 0.00000E+00
 -1      1924 1.43244E+02 4.61616E+01 0.00000E+00
 -1      1925 1.44744E+02 4.61616E+01 0.00000E+00
 -1      1926 1.45182E+02 4.49799E+01 0.00000E+00
 -1      1927 1.42494E+02 4.48626E+01 0.00000E+00
 -1      1928 1.17045E+01 3.09687E+00 0.00000E+00
 -1      1929 1.02045E+01 3.09687E+00 0.00000E+00
 -1      1930 1.00350E+01 4.00625E+00 0.00000E+00
 -1      1931 1.47045E+01 3.09687E+00 0.00000E+00
 -1      1932 1.32045E+01 3.09687E+00 0.00000E+00
 -1      1933 1.30350E+01 4.00625E+00 0.00000E+00
 -1      1934 1.77045E+01 3.09687E+00 0.00000E+00
 -1      1935 1.62045E+01 3.09687E+00 0.00000E+00
 -1      1936 1.60350E+01 4.00625E+00 0.00000E+00
 -1      1937 2.07045E+01 3.09687E+00 0.00000E+00
 -1      1938 1.92045E+01 3.09687E+00 0.00000E+00
 -1      1939 1.90350E+01 4.00625E+00 0.00000E+00
 -1      1940 2.37045E+01 3.09687E+00 0.00000E+00
 -1      1941 2.22045E+01 3.09687E+00 0.00000E+00
 -1      1942 2.20350E+01 4.00625E+00 0.00000E+00
 -1      1943 2.67045E+01 3.09687E+00 0.00000E+00
 -1      1944 2.52045E+01 3.09687E+00 0.00000E+00
 -1      1945 2.50350E+01 4.00625E+00 0.00000E+00
 -1      1946 2.97045E+01 3.09687E+00 0.00000E+00
 -1      1947 2.82045E+01 3.09687E+00 0.00000E+00
 -1      1948 2.80350E+01 4.00625E+00 0.00000E+00
 -1      1949 3.27045E+01 3.09687E+00 0.00000E+00
 -1      1950 3.12045E+01 3.09687E+00 0.00000E+00
 -1      1951 3.10350E+01 4.00625E+00 0.00000E+00
 -1      1952 3.57045E+01 3.09687E+00 0.00000E+00
 -1      1953 3.42045E+01 3.09687E+00 0.00000E+00
 -1      1954 3.40350E+01 4.00625E+00 0.00000E+00
 -1      1955 3.87045E+01 3.09687E+00 0.00000E+00
 -1      1956 3.72045E+01 3.09687E+00 0.00000E+00
 -1      1957 3.70350E+01 4.00625E+00 0.00000E+00
 -1      1958 4.17045E+01 3.09687E+00 0.00000E+00
 -1      1959 4.02045E+01 3.09687E+00 0.00000E+00
 -1      1960 4.00350E+01 4.00625E+00 0.00000E+00
 -1      1961 4.47045E+01 3.09687E+00 0.00000E+00
 -1      1962 4.32045E+01 3.09687E+00 0.00000E+00
 -1      1963 4.30350E+01 4.00625E+00 0.00000E+00
 -1      1964 4.77045E+01 3.09687E+00 0.00000E+00
 -1      1965 4.62045E+01 3.09687E+00 0.00000E+00
 -1      1966 4.60350E+01 4.00625E+00 0.00000E+00
 -1      1967 5.07045E+01 3.09687E+00 0.00000E+00
 -1      1968 4.92045E+01 3.09687E+00 0.00000E+00
 -1      1969 4.90350E+01 4.00625E+00 0.00000E+00
 -1      1970 5.37045E+01 3.09687E+00 0.00000E+00
 -1      1971 5.22045E+01 3.09687E+00 0.00000E+00
 -1      1972 5.20350E+01 4.00625E+00 0.00000E+00
 -1      1973 5.67045E+01 3.09687E+00 0.00000E+00
 -1      1974 5.52045E+01 3.09687E+00 0.00000E+00
 -1      1975 5.50350E+01 4.00625E+00 0.00000E+00
 -1      1976 5.97045E+01 3.09687E+00 0.00000E+00
 -1      1977 5.82045E+01 3.09687E+00 0.00000E+00
 -1      1978 5.80350E+01 4.00625E+00 0.00000E+00
 -1      1979 6.27045E+01 3.09687E+00 0.00000E+00
 -1      1980 6.12045E+01 3.09687E+00 0.00000E+00
 -1      1981 6.10350E+01 4.00625E+00 0.00000E+00
 -1      1982 6.57045E+01 3.09687E+00 0.00000E+00
 -1      1983 6.42045E+01 3.09687E+00 0.00000E+00
 -1      1984 6.40350E+01 4.00625E+00 0.00000E+00
 -1      1985 6.87045E+01 3.09687E+00 0.00000E+00
 -1      1986 6.72045E+01 3.09687E+00 0.00000E+00
 -1      1987 6.70350E+01 4.00625E+00 0.00000E+00
 -1      1988 7.17045E+01 3.09687E+00 0.00000E+00
 -1      1989 7.02045E+01 3.09687E+00 0.00000E+00
 -1      1990 7.00350E+01 4.00625E+00 0.00000E+00
 -1      1991 7.47045E+01 3.09687E+00 0.00000E+00
 -1      1992 7.32045E+01 3.09687E+00 0.00000E+00
 -1      1993 7.30350E+01 4.00625E+00 0.00000E+00
 -1      1994 7.77045E+01 3.09687E+00 0.00000E+00
 -1      1995 7.62045E+01 3.09687E+00 0.00000E+00
 -1      1996 7.60350E+01 4.00625E+00 0.00000E+00
 -1      1997 8.07045E+01 3.09687E+00 0.00000E+00
 -1      1998 7.92045E+01 3.09687E+00 0.00000E+00
 -1      1999 7.90350E+01 4.00625E+00 0.00000E+00
 -1      2000 8.37045E+01 3.09687E+00 0.00000E+00
 -1      2001 8.22045E+01 3.09687E+00 0.00000E+00
 -1      2002 8.20350E+01 4.00625E+00 0.00000E+00
 -1      2003 8.67045E+01 3.09687E+00 0.00000E+00
 -1      2004 8.52045E+01 3.09687E+00 0.00000E+00
 -1      2005 8.50350E+01 4.00625E+00 0.00000E+00
 -1      2006 8.97045E+01 3.09687E+00 0.00000E+00
 -1      2007 8.82045E+01 3.09687E+00 0.00000E+00
 -1      2008 8.80350E+01 4.00625E+00 0.00000E+00
 -1      2009 9.27045E+01 3.09687E+00 0.00000E+00
 -1      2010 9.12045E+01 3.09687E+00 0.00000E+00
 -1      2011 9.10350E+01 4.00625E+00 0.00000E+00
 -1      2012 9.57045E+01 3.09687E+00 0.00000E+00
 -1      2013 9.42045E+01 3.09687E+00 0.00000E+00
 -1      2014 9.40350E+01 4.00625E+00 0.00000E+00
 -1      2015 9.87045E+01 3.09687E+00 0.00000E+00
 -1      2016 9.72045E+01 3.09687E+00 0.00000E+00
 -1      2017 9.70350E+01 4.00625E+00 0.00000E+00
 -1      2018 1.01704E+02 3.09687E+00 0.00000E+00
 -1      2019 1.00204E+02 3.09687E+00 0.00000E+00
 -1      2020 1.00035E+02 4.00625E+00 0.00000E+00
 -1      2021 1.04704E+02 3.09687E+00 0.00000E+00
 -1      2022 1.03204E+02 3.09687E+00 0.00000E+00
 -1      2023 1.03035E+02 4.00625E+00 0.00000E+00
 -1      2024 1.07704E+02 3.09687E+00 0.00000E+00
 -1      2025 1.06204E+02 3.09687E+00 0.00000E+00
 -1      2026 1.06035E+02 4.00625E+00 0.00000E+00
 -1      2027 1.10704E+02 3.09687E+00 0.00000E+00
 -1      2028 1.09204E+02 3.09687E+00 0.00000E+00
 -1      2029 1.09035E+02 4.00625E+00 0.00000E+00
 -1      2030 1.13704E+02 3.09687E+00 0.00000E+00
 -1      2031 1.12204E+02 3.09687E+00 0.00000E+00
 -1      2032 1.12035E+02 4.00625E+00 0.00000E+00
 -1      2033 1.16704E+02 3.09687E+00 0.00000E+00
 -1      2034 1.15204E+02 3.09687E+00 0.00000E+00
 -1      2035 1.15035E+02 4.00625E+00 0.00000E+00
 -1      2036 1.19704E+02 3.09687E+00 0.00000E+00
 -1      2037 1.18204E+02 3.09687E+00 0.00000E+00
 -1      2038 1.18035E+02 4.00625E+00 0.00000E+00
 -1      2039 1.22704E+02 3.09687E+00 0.00000E+00
 -1      2040 1.21204E+02 3.09687E+00 0.00000E+00
 -1      2041 1.21035E+02 4.00625E+00 0.00000E+00
 -1      2042 1.25704E+02 3.09687E+00 0.00000E+00
 -1      2043 1.24204E+02 3.09687E+00 0.00000E+00
 -1      2044 1.24035E+02 4.00625E+00 0.00000E+00
 -1      2045 1.28704E+02 3.09687E+00 0.00000E+00
 -1      2046 1.27204E+02 3.09687E+00 0.00000E+00
 -1      2047 1.27035E+02 4.00625E+00 0.00000E+00
 -1      2048 1.31704E+02 3.09687E+00 0.00000E+00
 -1      2049 1.30204E+02 3.09687E+00 0.00000E+00
 -1      2050 1.30035E+02 4.00625E+00 0.00000E+00
 -1      2051 1.34704E+02 3.09687E+00 0.00000E+00
 -1      2052 1.33204E+02 3.09687E+00 0.00000E+00
 -1      2053 1.33035E+02 4.00625E+00 0.00000E+00
 -1      2054 1.37704E+02 3.09687E+00 0.00000E+00
 -1      2055 1.36204E+02 3.09687E+00 0.00000E+00
 -1      2056 1.36035E+02 4.00625E+00 0.00000E+00
 -1      2057 1.40704E+02 3.09687E+00 0.00000E+00
 -1      2058 1.39204E+02 3.09687E+00 0.00000E+00
 -1      2059 1.39035E+02 4.00625E+00 0.00000E+00
 -1      2060 1.43704E+02 3.09687E+00 0.00000E+00
 -1      2061 1.42204E+02 3.09687E+00 0.00000E+00
 -1      2062 1.42035E+02 4.00625E+00 0.00000E+00
 -1      2063 1.46171E+02 3.20156E+00 0.00000E+00
 -1      2064 1.44671E+02 3.20156E+00 0.00000E+00
 -1      2065 1.44502E+02 4.11094E+00 0.00000E+00
 -1      2066 1.46435E+02 4.32031E+00 0.00000E+00
 -1      2067 1.46103E+02 1.25375E+01 0.00000E+00
 -1      2068 1.46103E+02 1.10625E+01 0.00000E+00
 -1      2069 1.46103E+02 9.58750E+00 0.00000E+00
 -1      2070 1.46103E+02 8.11250E+00 0.00000E+00
 -1      2071 1.44804E+02 1.03250E+01 0.00000E+00
 -1      2072 1.46269E+02 6.95391E+00 0.00000E+00
 -1      2073 1.46269E+02 5.47891E+00 0.00000E+00
 -1      2074 1.45302E+02 5.37422E+00 0.00000E+00
 -1      2075 1.44970E+02 7.69141E+00 0.00000E+00
 -1      2076 1.46103E+02 1.54375E+01 0.00000E+00
 -1      2077 1.46103E+02 1.39875E+01 0.00000E+00
 -1      2078 1.44804E+02 1.32500E+01 0.00000E+00
 -1      2079 1.46103E+02 1.83875E+01 0.00000E+00
 -1      2080 1.46103E+02 1.69125E+01 0.00000E+00
 -1      2081 1.44804E+02 1.61750E+01 0.00000E+00
 -1      2082 1.46103E+02 2.13375E+01 0.00000E+00
 -1      2083 1.46103E+02 1.98625E+01 0.00000E+00
 -1      2084 1.44804E+02 1.91250E+01 0.00000E+00
 -1      2085 1.46103E+02 2.42875E+01 0.00000E+00
 -1      2086 1.46103E+02 2.28125E+01 0.00000E+00
 -1      2087 1.44804E+02 2.20750E+01 0.00000E+00
 -1      2088 1.46103E+02 2.72375E+01 0.00000E+00
 -1      2089 1.46103E+02 2.57625E+01 0.00000E+00
 -1      2090 1.44804E+02 2.50250E+01 0.00000E+00
 -1      2091 1.46103E+02 3.01875E+01 0.00000E+00
 -1      2092 1.46103E+02 2.87125E+01 0.00000E+00
 -1      2093 1.44804E+02 2.79750E+01 0.00000E+00
 -1      2094 1.46103E+02 3.30875E+01 0.00000E+00
 -1      2095 1.46103E+02 3.16375E+01 0.00000E+00
 -1      2096 1.44804E+02 3.09000E+01 0.00000E+00
 -1      2097 1.46103E+02 3.60375E+01 0.00000E+00
 -1      2098 1.46103E+02 3.45625E+01 0.00000E+00
 -1      2099 1.44804E+02 3.38250E+01 0.00000E+00
 -1      2100 1.46103E+02 3.89875E+01 0.00000E+00
 -1      2101 1.46103E+02 3.75125E+01 0.00000E+00
 -1      2102 1.44804E+02 3.67750E+01 0.00000E+00
 -1      2103 1.46103E+02 4.19375E+01 0.00000E+00
 -1      2104 1.46103E+02 4.04625E+01 0.00000E+00
 -1      2105 1.44804E+02 3.97250E+01 0.00000E+00
 -1      2106 3.53130E+01 2.41850E+01 0.00000E+00
 -1      2107 3.57026E+01 2.49285E+01 0.00000E+00
 -1      2108 3.66556E+01 2.79123E+01 0.00000E+00
 -1      2109 3.65705E+01 2.88698E+01 0.00000E+00
 -1      2110 3.60427E+01 2.58567E+01 0.00000E+00
 -1      2111 3.63215E+01 2.67253E+01 0.00000E+00
 -1      2112 3.44441E+01 2.26343E+01 0.00000E+00
 -1      2113 3.49017E+01 2.33781E+01 0.00000E+00
 -1      2114 3.29399E+01 2.13219E+01 0.00000E+00
 -1      2115 3.36444E+01 2.18320E+01 0.00000E+00
 -1      2116 3.89700E+00 3.74688E+01 0.00000E+00
 -1      2117 3.89700E+00 3.89437E+01 0.00000E+00
 -1      2118 5.19600E+00 3.96813E+01 0.00000E+00
 -1      2119 5.19600E+00 3.67438E+01 0.00000E+00
 -1      2120 2.98081E+01 1.96796E+01 0.00000E+00
 -1      2121 3.06200E+01 2.00193E+01 0.00000E+00
 -1      2122 2.78707E+01 1.91915E+01 0.00000E+00
 -1      2123 2.87843E+01 1.93169E+01 0.00000E+00
 -1      2124 2.58476E+01 1.94268E+01 0.00000E+00
 -1      2125 2.67100E+01 1.92356E+01 0.00000E+00
 -1      2126 2.41018E+01 1.99722E+01 0.00000E+00
 -1      2127 2.49747E+01 1.96995E+01 0.00000E+00
 -1      2128 2.52384E+01 1.88484E+01 0.00000E+00
 -1      2129 2.22615E+01 2.10496E+01 0.00000E+00
 -1      2130 2.30004E+01 2.04880E+01 0.00000E+00
 -1      2131 2.08589E+01 2.22327E+01 0.00000E+00
 -1      2132 2.15602E+01 2.16412E+01 0.00000E+00
 -1      2133 2.14614E+01 2.07443E+01 0.00000E+00
 -1      2134 1.97161E+01 2.39919E+01 0.00000E+00
 -1      2135 2.01690E+01 2.32021E+01 0.00000E+00
 -1      2136 1.88307E+01 2.56439E+01 0.00000E+00
 -1      2137 1.91678E+01 2.48245E+01 0.00000E+00
 -1      2138 1.85747E+01 2.75925E+01 0.00000E+00
 -1      2139 1.86519E+01 2.67222E+01 0.00000E+00
 -1      2140 1.85345E+01 2.94186E+01 0.00000E+00
 -1      2141 1.85062E+01 2.85478E+01 0.00000E+00
 -1      2142 1.87651E+01 3.13622E+01 0.00000E+00
 -1      2143 1.85761E+01 3.04513E+01 0.00000E+00
 -1      2144 1.99932E+01 3.31395E+01 0.00000E+00
 -1      2145 1.94154E+01 3.24410E+01 0.00000E+00
 -1      2146 2.10416E+01 3.45655E+01 0.00000E+00
 -1      2147 2.05174E+01 3.38525E+01 0.00000E+00
 -1      2148 1.96968E+01 3.39430E+01 0.00000E+00
 -1      2149 2.25851E+01 3.58158E+01 0.00000E+00
 -1      2150 2.18364E+01 3.53635E+01 0.00000E+00
 -1      2151 2.40889E+01 3.66694E+01 0.00000E+00
 -1      2152 2.33370E+01 3.62426E+01 0.00000E+00
 -1      2153 2.25625E+01 3.66787E+01 0.00000E+00
 -1      2154 2.60413E+01 3.72589E+01 0.00000E+00
 -1      2155 2.51656E+01 3.71114E+01 0.00000E+00
 -1      2156 2.79513E+01 3.72534E+01 0.00000E+00
 -1      2157 2.70627E+01 3.72579E+01 0.00000E+00
 -1      2158 2.99219E+01 3.70677E+01 0.00000E+00
 -1      2159 2.90000E+01 3.72369E+01 0.00000E+00
 -1      2160 3.18183E+01 3.61627E+01 0.00000E+00
 -1      2161 3.09937E+01 3.66048E+01 0.00000E+00
 -1      2162 3.33394E+01 3.49460E+01 0.00000E+00
 -1      2163 3.26715E+01 3.55269E+01 0.00000E+00
 -1      2164 3.46986E+01 3.36315E+01 0.00000E+00
 -1      2165 3.40997E+01 3.43088E+01 0.00000E+00
 -1      2166 3.56126E+01 3.17798E+01 0.00000E+00
 -1      2167 3.52374E+01 3.26321E+01 0.00000E+00
 -1      2168 3.61716E+01 2.98982E+01 0.00000E+00
 -1      2169 3.59190E+01 3.07998E+01 0.00000E+00
 -1      2170 3.14534E+01 2.04242E+01 0.00000E+00
 -1      2171 3.21652E+01 2.08242E+01 0.00000E+00
 -1      2172 3.44966E+01 2.18204E+01 0.00000E+00
 -1      2173 6.42300E+00 4.57510E+01 0.00000E+00
 -1      2174 3.29221E+01 2.05204E+01 0.00000E+00
 -1      2175 3.13139E+01 1.96178E+01 0.00000E+00
 -1      2176 7.17300E+00 4.44520E+01 0.00000E+00
 -1      2177 3.64591E+01 2.51647E+01 0.00000E+00
 -1      2178 3.71332E+01 2.72799E+01 0.00000E+00
 -1      2179 1.45665E+02 4.31193E+01 0.00000E+00
 -1      2180 3.57076E+01 2.34297E+01 0.00000E+00
 -1      2181 3.70683E+01 2.94954E+01 0.00000E+00
 -1      2182 3.63629E+01 3.15039E+01 0.00000E+00
 -1      2183 3.55177E+01 3.34833E+01 0.00000E+00
 -1      2184 3.42185E+01 3.51199E+01 0.00000E+00
 -1      2185 3.26050E+01 3.63929E+01 0.00000E+00
 -1      2186 3.06800E+01 3.74917E+01 0.00000E+00
 -1      2187 2.85595E+01 3.79710E+01 0.00000E+00
 -1      2188 2.43912E+01 3.75475E+01 0.00000E+00
 -1      2189 2.10159E+01 3.54540E+01 0.00000E+00
 -1      2190 1.85223E+01 3.21512E+01 0.00000E+00
 -1      2191 1.76291E+01 3.18615E+01 0.00000E+00
 -1      2192 1.82794E+01 3.29403E+01 0.00000E+00
 -1      2193 1.78304E+01 3.00398E+01 0.00000E+00
 -1      2194 1.78574E+01 2.80517E+01 0.00000E+00
 -1      2195 1.81049E+01 2.60181E+01 0.00000E+00
 -1      2196 2.00702E+01 2.23053E+01 0.00000E+00
 -1      2197 2.32641E+01 1.96370E+01 0.00000E+00
 -1      2198 2.94566E+01 1.88503E+01 0.00000E+00
 -1      2199 2.72720E+01 1.85317E+01 0.00000E+00
 -1      2200 1.88320E+01 2.41073E+01 0.00000E+00
 -1      2201 2.64893E+01 3.79885E+01 0.00000E+00
 -1      2202 1.07850E+01 5.30525E+00 0.00000E+00
 -1      2203 9.28500E+00 5.30525E+00 0.00000E+00
 -1      2204 6.49500E+00 3.01125E+01 0.00000E+00
 -1      2205 6.49500E+00 3.15875E+01 0.00000E+00
 -1      2206 6.49500E+00 3.30625E+01 0.00000E+00
 -1      2207 6.49500E+00 3.45375E+01 0.00000E+00
 -1      2208 7.79400E+00 3.23250E+01 0.00000E+00
 -1      2209 6.47248E+00 2.42125E+01 0.00000E+00
 -1      2210 6.47248E+00 2.56875E+01 0.00000E+00
 -1      2211 6.47248E+00 2.12625E+01 0.00000E+00
 -1      2212 6.47248E+00 2.27375E+01 0.00000E+00
 -1      2213 7.74895E+00 2.34750E+01 0.00000E+00
 -1      2214 6.47248E+00 1.83625E+01 0.00000E+00
 -1      2215 6.47248E+00 1.98125E+01 0.00000E+00
 -1      2216 7.74895E+00 2.05500E+01 0.00000E+00
 -1      2217 6.47248E+00 1.54125E+01 0.00000E+00
 -1      2218 6.47248E+00 1.68875E+01 0.00000E+00
 -1      2219 7.74895E+00 1.76250E+01 0.00000E+00
 -1      2220 6.47248E+00 1.24625E+01 0.00000E+00
 -1      2221 6.47248E+00 1.39375E+01 0.00000E+00
 -1      2222 7.74895E+00 1.46750E+01 0.00000E+00
 -1      2223 6.47248E+00 9.51250E+00 0.00000E+00
 -1      2224 6.47248E+00 1.09875E+01 0.00000E+00
 -1      2225 7.74895E+00 1.17250E+01 0.00000E+00
 -1      2226 1.37850E+01 5.30525E+00 0.00000E+00
 -1      2227 1.22850E+01 5.30525E+00 0.00000E+00
 -1      2228 1.15350E+01 6.60425E+00 0.00000E+00
 -1      2229 9.90000E+00 4.35050E+01 0.00000E+00
 -1      2230 1.14000E+01 4.35050E+01 0.00000E+00
 -1      2231 3.29982E+01 1.95500E+01 0.00000E+00
 -1      2232 3.37730E+01 2.00477E+01 0.00000E+00
 -1      2233 1.29000E+01 4.35050E+01 0.00000E+00
 -1      2234 1.44000E+01 4.35050E+01 0.00000E+00
 -1      2235 1.21500E+01 4.22060E+01 0.00000E+00
 -1      2236 1.59000E+01 4.35050E+01 0.00000E+00
 -1      2237 1.74000E+01 4.35050E+01 0.00000E+00
 -1      2238 1.51500E+01 4.22060E+01 0.00000E+00
 -1      2239 1.89000E+01 4.35050E+01 0.00000E+00
 -1      2240 2.04000E+01 4.35050E+01 0.00000E+00
 -1      2241 1.81500E+01 4.22060E+01 0.00000E+00
 -1      2242 2.19000E+01 4.35050E+01 0.00000E+00
 -1      2243 2.34000E+01 4.35050E+01 0.00000E+00
 -1      2244 2.11500E+01 4.22060E+01 0.00000E+00
 -1      2245 2.49000E+01 4.35050E+01 0.00000E+00
 -1      2246 2.64000E+01 4.35050E+01 0.00000E+00
 -1      2247 2.41500E+01 4.22060E+01 0.00000E+00
 -1      2248 2.79000E+01 4.35050E+01 0.00000E+00
 -1      2249 2.94000E+01 4.35050E+01 0.00000E+00
 -1      2250 2.71500E+01 4.22060E+01 0.00000E+00
 -1      2251 3.09000E+01 4.35050E+01 0.00000E+00
 -1      2252 3.24000E+01 4.35050E+01 0.00000E+00
 -1      2253 3.01500E+01 4.22060E+01 0.00000E+00
 -1      2254 3.39000E+01 4.35050E+01 0.00000E+00
 -1      2255 3.54000E+01 4.35050E+01 0.00000E+00
 -1      2256 3.31500E+01 4.22060E+01 0.00000E+00
 -1      2257 3.69000E+01 4.35050E+01 0.00000E+00
 -1      2258 3.84000E+01 4.35050E+01 0.00000E+00
 -1      2259 3.61500E+01 4.22060E+01 0.00000E+00
 -1      2260 3.99000E+01 4.35050E+01 0.00000E+00
 -1      2261 4.14000E+01 4.35050E+01 0.00000E+00
 -1      2262 3.91500E+01 4.22060E+01 0.00000E+00
 -1      2263 4.29000E+01 4.35050E+01 0.00000E+00
 -1      2264 4.44000E+01 4.35050E+01 0.00000E+00
 -1      2265 4.21500E+01 4.22060E+01 0.00000E+00
 -1      2266 4.59000E+01 4.35050E+01 0.00000E+00
 -1      2267 4.74000E+01 4.35050E+01 0.00000E+00
 -1      2268 4.51500E+01 4.22060E+01 0.00000E+00
 -1      2269 4.89000E+01 4.35050E+01 0.00000E+00
 -1      2270 5.04000E+01 4.35050E+01 0.00000E+00
 -1      2271 4.81500E+01 4.22060E+01 0.00000E+00
 -1      2272 5.19000E+01 4.35050E+01 0.00000E+00
 -1      2273 5.34000E+01 4.35050E+01 0.00000E+00
 -1      2274 5.11500E+01 4.22060E+01 0.00000E+00
 -1      2275 5.49000E+01 4.35050E+01 0.00000E+00
 -1      2276 5.64000E+01 4.35050E+01 0.00000E+00
 -1      2277 5.41500E+01 4.22060E+01 0.00000E+00
 -1      2278 5.79000E+01 4.35050E+01 0.00000E+00
 -1      2279 5.94000E+01 4.35050E+01 0.00000E+00
 -1      2280 5.71500E+01 4.22060E+01 0.00000E+00
 -1      2281 6.09000E+01 4.35050E+01 0.00000E+00
 -1      2282 6.24000E+01 4.35050E+01 0.00000E+00
 -1      2283 6.01500E+01 4.22060E+01 0.00000E+00
 -1      2284 6.39000E+01 4.35050E+01 0.00000E+00
 -1      2285 6.54000E+01 4.35050E+01 0.00000E+00
 -1      2286 6.31500E+01 4.22060E+01 0.00000E+00
 -1      2287 6.69000E+01 4.35050E+01 0.00000E+00
 -1      2288 6.84000E+01 4.35050E+01 0.00000E+00
 -1      2289 6.61500E+01 4.22060E+01 0.00000E+00
 -1      2290 6.99000E+01 4.35050E+01 0.00000E+00
 -1      2291 7.14000E+01 4.35050E+01 0.00000E+00
 -1      2292 6.91500E+01 4.22060E+01 0.00000E+00
 -1      2293 7.29000E+01 4.35050E+01 0.00000E+00
 -1      2294 7.44000E+01 4.35050E+01 0.00000E+00
 -1      2295 7.21500E+01 4.22060E+01 0.00000E+00
 -1      2296 7.59000E+01 4.35050E+01 0.00000E+00
 -1      2297 7.74000E+01 4.35050E+01 0.00000E+00
 -1      2298 7.51500E+01 4.22060E+01 0.00000E+00
 -1      2299 7.89000E+01 4.35050E+01 0.00000E+00
 -1      2300 8.04000E+01 4.35050E+01 0.00000E+00
 -1      2301 7.81500E+01 4.22060E+01 0.00000E+00
 -1      2302 8.19000E+01 4.35050E+01 0.00000E+00
 -1      2303 8.34000E+01 4.35050E+01 0.00000E+00
 -1      2304 8.11500E+01 4.22060E+01 0.00000E+00
 -1      2305 8.49000E+01 4.35050E+01 0.00000E+00
 -1      2306 8.64000E+01 4.35050E+01 0.00000E+00
 -1      2307 8.41500E+01 4.22060E+01 0.00000E+00
 -1      2308 8.79000E+01 4.35050E+01 0.00000E+00
 -1      2309 8.94000E+01 4.35050E+01 0.00000E+00
 -1      2310 8.71500E+01 4.22060E+01 0.00000E+00
 -1      2311 9.09000E+01 4.35050E+01 0.00000E+00
 -1      2312 9.24000E+01 4.35050E+01 0.00000E+00
 -1      2313 9.01500E+01 4.22060E+01 0.00000E+00
 -1      2314 9.39000E+01 4.35050E+01 0.00000E+00
 -1      2315 9.54000E+01 4.35050E+01 0.00000E+00
 -1      2316 9.31500E+01 4.22060E+01 0.00000E+00
 -1      2317 9.69000E+01 4.35050E+01 0.00000E+00
 -1      2318 9.84000E+01 4.35050E+01 0.00000E+00
 -1      2319 9.61500E+01 4.22060E+01 0.00000E+00
 -1      2320 9.99000E+01 4.35050E+01 0.00000E+00
 -1      2321 1.01400E+02 4.35050E+01 0.00000E+00
 -1      2322 9.91500E+01 4.22060E+01 0.00000E+00
 -1      2323 1.02900E+02 4.35050E+01 0.00000E+00
 -1      2324 1.04400E+02 4.35050E+01 0.00000E+00
 -1      2325 1.02150E+02 4.22060E+01 0.00000E+00
 -1      2326 1.05900E+02 4.35050E+01 0.00000E+00
 -1      2327 1.07400E+02 4.35050E+01 0.00000E+00
 -1      2328 1.05150E+02 4.22060E+01 0.00000E+00
 -1      2329 1.08900E+02 4.35050E+01 0.00000E+00
 -1      2330 1.10400E+02 4.35050E+01 0.00000E+00
 -1      2331 1.08150E+02 4.22060E+01 0.00000E+00
 -1      2332 1.11900E+02 4.35050E+01 0.00000E+00
 -1      2333 1.13400E+02 4.35050E+01 0.00000E+00
 -1      2334 1.11150E+02 4.22060E+01 0.00000E+00
 -1      2335 1.14900E+02 4.35050E+01 0.00000E+00
 -1      2336 1.16400E+02 4.35050E+01 0.00000E+00
 -1      2337 1.14150E+02 4.22060E+01 0.00000E+00
 -1      2338 1.17900E+02 4.35050E+01 0.00000E+00
 -1      2339 1.19400E+02 4.35050E+01 0.00000E+00
 -1      2340 1.17150E+02 4.22060E+01 0.00000E+00
 -1      2341 1.20900E+02 4.35050E+01 0.00000E+00
 -1      2342 1.22400E+02 4.35050E+01 0.00000E+00
 -1      2343 1.20150E+02 4.22060E+01 0.00000E+00
 -1      2344 1.23900E+02 4.35050E+01 0.00000E+00
 -1      2345 1.25400E+02 4.35050E+01 0.00000E+00
 -1      2346 1.23150E+02 4.22060E+01 0.00000E+00
 -1      2347 1.26900E+02 4.35050E+01 0.00000E+00
 -1      2348 1.28400E+02 4.35050E+01 0.00000E+00
 -1      2349 1.26150E+02 4.22060E+01 0.00000E+00
 -1      2350 1.29900E+02 4.35050E+01 0.00000E+00
 -1      2351 1.31400E+02 4.35050E+01 0.00000E+00
 -1      2352 1.29150E+02 4.22060E+01 0.00000E+00
 -1      2353 1.32900E+02 4.35050E+01 0.00000E+00
 -1      2354 1.34400E+02 4.35050E+01 0.00000E+00
 -1      2355 1.32150E+02 4.22060E+01 0.00000E+00
 -1      2356 1.35900E+02 4.35050E+01 0.00000E+00
 -1      2357 1.37400E+02 4.35050E+01 0.00000E+00
 -1      2358 1.35150E+02 4.22060E+01 0.00000E+00
 -1      2359 1.38900E+02 4.35050E+01 0.00000E+00
 -1      2360 1.40400E+02 4.35050E+01 0.00000E+00
 -1      2361 1.38150E+02 4.22060E+01 0.00000E+00
 -1      2362 1.97850E+01 5.30525E+00 0.00000E+00
 -1      2363 1.82850E+01 5.30525E+00 0.00000E+00
 -1      2364 2.27850E+01 5.30525E+00 0.00000E+00
 -1      2365 2.12850E+01 5.30525E+00 0.00000E+00
 -1      2366 2.05350E+01 6.60425E+00 0.00000E+00
 -1      2367 2.57850E+01 5.30525E+00 0.00000E+00
 -1      2368 2.42850E+01 5.30525E+00 0.00000E+00
 -1      2369 2.35350E+01 6.60425E+00 0.00000E+00
 -1      2370 2.87850E+01 5.30525E+00 0.00000E+00
 -1      2371 2.72850E+01 5.30525E+00 0.00000E+00
 -1      2372 2.65350E+01 6.60425E+00 0.00000E+00
 -1      2373 3.17850E+01 5.30525E+00 0.00000E+00
 -1      2374 3.02850E+01 5.30525E+00 0.00000E+00
 -1      2375 2.95350E+01 6.60425E+00 0.00000E+00
 -1      2376 3.47850E+01 5.30525E+00 0.00000E+00
 -1      2377 3.32850E+01 5.30525E+00 0.00000E+00
 -1      2378 3.25350E+01 6.60425E+00 0.00000E+00
 -1      2379 3.77850E+01 5.30525E+00 0.00000E+00
 -1      2380 3.62850E+01 5.30525E+00 0.00000E+00
 -1      2381 3.55350E+01 6.60425E+00 0.00000E+00
 -1      2382 4.07850E+01 5.30525E+00 0.00000E+00
 -1      2383 3.92850E+01 5.30525E+00 0.00000E+00
 -1      2384 3.85350E+01 6.60425E+00 0.00000E+00
 -1      2385 4.37850E+01 5.30525E+00 0.00000E+00
 -1      2386 4.22850E+01 5.30525E+00 0.00000E+00
 -1      2387 4.15350E+01 6.60425E+00 0.00000E+00
 -1      2388 4.67850E+01 5.30525E+00 0.00000E+00
 -1      2389 4.52850E+01 5.30525E+00 0.00000E+00
 -1      2390 4.45350E+01 6.60425E+00 0.00000E+00
 -1      2391 4.97850E+01 5.30525E+00 0.00000E+00
 -1      2392 4.82850E+01 5.30525E+00 0.00000E+00
 -1      2393 4.75350E+01 6.60425E+00 0.00000E+00
 -1      2394 5.27850E+01 5.30525E+00 0.00000E+00
 -1      2395 5.12850E+01 5.30525E+00 0.00000E+00
 -1      2396 5.05350E+01 6.60425E+00 0.00000E+00
 -1      2397 5.57850E+01 5.30525E+00 0.00000E+00
 -1      2398 5.42850E+01 5.30525E+00 0.00000E+00
 -1      2399 5.35350E+01 6.60425E+00 0.00000E+00
 -1      2400 5.87850E+01 5.30525E+00 0.00000E+00
 -1      2401 5.72850E+01 5.30525E+00 0.00000E+00
 -1      2402 5.65350E+01 6.60425E+00 0.00000E+00
 -1      2403 6.17850E+01 5.30525E+00 0.00000E+00
 -1      2404 6.02850E+01 5.30525E+00 0.00000E+00
 -1      2405 5.95350E+01 6.60425E+00 0.00000E+00
 -1      2406 6.47850E+01 5.30525E+00 0.00000E+00
 -1      2407 6.32850E+01 5.30525E+00 0.00000E+00
 -1      2408 6.25350E+01 6.60425E+00 0.00000E+00
 -1      2409 6.77850E+01 5.30525E+00 0.00000E+00
 -1      2410 6.62850E+01 5.30525E+00 0.00000E+00
 -1      2411 6.55350E+01 6.60425E+00 0.00000E+00
 -1      2412 7.07850E+01 5.30525E+00 0.00000E+00
 -1      2413 6.92850E+01 5.30525E+00 0.00000E+00
 -1      2414 6.85350E+01 6.60425E+00 0.00000E+00
 -1      2415 7.37850E+01 5.30525E+00 0.00000E+00
 -1      2416 7.22850E+01 5.30525E+00 0.00000E+00
 -1      2417 7.15350E+01 6.60425E+00 0.00000E+00
 -1      2418 7.67850E+01 5.30525E+00 0.00000E+00
 -1      2419 7.52850E+01 5.30525E+00 0.00000E+00
 -1      2420 7.45350E+01 6.60425E+00 0.00000E+00
 -1      2421 7.97850E+01 5.30525E+00 0.00000E+00
 -1      2422 7.82850E+01 5.30525E+00 0.00000E+00
 -1      2423 7.75350E+01 6.60425E+00 0.00000E+00
 -1      2424 8.27850E+01 5.30525E+00 0.00000E+00
 -1      2425 8.12850E+01 5.30525E+00 0.00000E+00
 -1      2426 8.05350E+01 6.60425E+00 0.00000E+00
 -1      2427 8.57850E+01 5.30525E+00 0.00000E+00
 -1      2428 8.42850E+01 5.30525E+00 0.00000E+00
 -1      2429 8.35350E+01 6.60425E+00 0.00000E+00
 -1      2430 8.87850E+01 5.30525E+00 0.00000E+00
 -1      2431 8.72850E+01 5.30525E+00 0.00000E+00
 -1      2432 8.65350E+01 6.60425E+00 0.00000E+00
 -1      2433 9.17850E+01 5.30525E+00 0.00000E+00
 -1      2434 9.02850E+01 5.30525E+00 0.00000E+00
 -1      2435 8.95350E+01 6.60425E+00 0.00000E+00
 -1      2436 9.47850E+01 5.30525E+00 0.00000E+00
 -1      2437 9.32850E+01 5.30525E+00 0.00000E+00
 -1      2438 9.25350E+01 6.60425E+00 0.00000E+00
 -1      2439 9.77850E+01 5.30525E+00 0.00000E+00
 -1      2440 9.62850E+01 5.30525E+00 0.00000E+00
 -1      2441 9.55350E+01 6.60425E+00 0.00000E+00
 -1      2442 1.00785E+02 5.30525E+00 0.00000E+00
 -1      2443 9.92850E+01 5.30525E+00 0.00000E+00
 -1      2444 9.85350E+01 6.60425E+00 0.00000E+00
 -1      2445 1.03785E+02 5.30525E+00 0.00000E+00
 -1      2446 1.02285E+02 5.30525E+00 0.00000E+00
 -1      2447 1.01535E+02 6.60425E+00 0.00000E+00
 -1      2448 1.06785E+02 5.30525E+00 0.00000E+00
 -1      2449 1.05285E+02 5.30525E+00 0.00000E+00
 -1      2450 1.04535E+02 6.60425E+00 0.00000E+00
 -1      2451 1.09785E+02 5.30525E+00 0.00000E+00
 -1      2452 1.08285E+02 5.30525E+00 0.00000E+00
 -1      2453 1.07535E+02 6.60425E+00 0.00000E+00
 -1      2454 1.12785E+02 5.30525E+00 0.00000E+00
 -1      2455 1.11285E+02 5.30525E+00 0.00000E+00
 -1      2456 1.10535E+02 6.60425E+00 0.00000E+00
 -1      2457 1.15785E+02 5.30525E+00 0.00000E+00
 -1      2458 1.14285E+02 5.30525E+00 0.00000E+00
 -1      2459 1.13535E+02 6.60425E+00 0.00000E+00
 -1      2460 1.18785E+02 5.30525E+00 0.00000E+00
 -1      2461 1.17285E+02 5.30525E+00 0.00000E+00
 -1      2462 1.16535E+02 6.60425E+00 0.00000E+00
 -1      2463 1.21785E+02 5.30525E+00 0.00000E+00
 -1      2464 1.20285E+02 5.30525E+00 0.00000E+00
 -1      2465 1.19535E+02 6.60425E+00 0.00000E+00
 -1      2466 1.24785E+02 5.30525E+00 0.00000E+00
 -1      2467 1.23285E+02 5.30525E+00 0.00000E+00
 -1      2468 1.22535E+02 6.60425E+00 0.00000E+00
 -1      2469 1.27785E+02 5.30525E+00 0.00000E+00
 -1      2470 1.26285E+02 5.30525E+00 0.00000E+00
 -1      2471 1.25535E+02 6.60425E+00 0.00000E+00
 -1      2472 1.30785E+02 5.30525E+00 0.00000E+00
 -1      2473 1.29285E+02 5.30525E+00 0.00000E+00
 -1      2474 1.28535E+02 6.60425E+00 0.00000E+00
 -1      2475 1.33785E+02 5.30525E+00 0.00000E+00
 -1      2476 1.32285E+02 5.30525E+00 0.00000E+00
 -1      2477 1.31535E+02 6.60425E+00 0.00000E+00
 -1      2478 1.36785E+02 5.30525E+00 0.00000E+00
 -1      2479 1.35285E+02 5.30525E+00 0.00000E+00
 -1      2480 1.34535E+02 6.60425E+00 0.00000E+00
 -1      2481 1.39785E+02 5.30525E+00 0.00000E+00
 -1      2482 1.38285E+02 5.30525E+00 0.00000E+00
 -1      2483 1.37535E+02 6.60425E+00 0.00000E+00
 -1      2484 1.42785E+02 5.30525E+00 0.00000E+00
 -1      2485 1.41285E+02 5.30525E+00 0.00000E+00
 -1      2486 1.40535E+02 6.60425E+00 0.00000E+00
 -1      2487 1.44336E+02 5.26953E+00 0.00000E+00
 -1      2488 1.43505E+02 1.69125E+01 0.00000E+00
 -1      2489 1.43505E+02 1.54375E+01 0.00000E+00
 -1      2490 1.43505E+02 1.98625E+01 0.00000E+00
 -1      2491 1.43505E+02 1.83875E+01 0.00000E+00
 -1      2492 1.42206E+02 1.76500E+01 0.00000E+00
 -1      2493 1.43505E+02 1.10625E+01 0.00000E+00
 -1      2494 1.43505E+02 9.58750E+00 0.00000E+00
 -1      2495 1.43505E+02 1.39750E+01 0.00000E+00
 -1      2496 1.43505E+02 1.25250E+01 0.00000E+00
 -1      2497 1.42206E+02 1.17875E+01 0.00000E+00
 -1      2498 1.42206E+02 1.47125E+01 0.00000E+00
 -1      2499 1.43505E+02 2.28125E+01 0.00000E+00
 -1      2500 1.43505E+02 2.13375E+01 0.00000E+00
 -1      2501 1.42206E+02 2.06000E+01 0.00000E+00
 -1      2502 1.43505E+02 2.57625E+01 0.00000E+00
 -1      2503 1.43505E+02 2.42875E+01 0.00000E+00
 -1      2504 1.42206E+02 2.35500E+01 0.00000E+00
 -1      2505 1.43505E+02 2.87125E+01 0.00000E+00
 -1      2506 1.43505E+02 2.72375E+01 0.00000E+00
 -1      2507 1.42206E+02 2.65000E+01 0.00000E+00
 -1      2508 1.43505E+02 3.16125E+01 0.00000E+00
 -1      2509 1.43505E+02 3.01625E+01 0.00000E+00
 -1      2510 1.42206E+02 2.94250E+01 0.00000E+00
 -1      2511 1.43505E+02 3.45625E+01 0.00000E+00
 -1      2512 1.43505E+02 3.30875E+01 0.00000E+00
 -1      2513 1.42206E+02 3.23500E+01 0.00000E+00
 -1      2514 1.43505E+02 3.75125E+01 0.00000E+00
 -1      2515 1.43505E+02 3.60375E+01 0.00000E+00
 -1      2516 1.42206E+02 3.53000E+01 0.00000E+00
 -1      2517 1.43505E+02 4.04625E+01 0.00000E+00
 -1      2518 1.43505E+02 3.89875E+01 0.00000E+00
 -1      2519 1.42206E+02 3.82500E+01 0.00000E+00
 -1      2520 3.77917E+01 2.64541E+01 0.00000E+00
 -1      2521 3.81257E+01 2.76411E+01 0.00000E+00
 -1      2522 3.61913E+01 2.26748E+01 0.00000E+00
 -1      2523 3.66027E+01 2.34817E+01 0.00000E+00
 -1      2524 1.67850E+01 5.30525E+00 0.00000E+00
 -1      2525 1.52850E+01 5.30525E+00 0.00000E+00
 -1      2526 1.75350E+01 6.60425E+00 0.00000E+00
 -1      2527 1.44321E+02 4.30606E+01 0.00000E+00
 -1      2528 3.79892E+01 2.92610E+01 0.00000E+00
 -1      2529 3.75902E+01 3.02895E+01 0.00000E+00
 -1      2530 3.69762E+01 2.44488E+01 0.00000E+00
 -1      2531 3.73163E+01 2.53770E+01 0.00000E+00
 -1      2532 6.55950E+00 4.28890E+01 0.00000E+00
 -1      2533 8.53650E+00 4.32410E+01 0.00000E+00
 -1      2534 9.28650E+00 4.19420E+01 0.00000E+00
 -1      2535 6.55950E+00 4.14140E+01 0.00000E+00
 -1      2536 3.72838E+01 3.12695E+01 0.00000E+00
 -1      2537 3.69774E+01 3.22495E+01 0.00000E+00
 -1      2538 3.82047E+01 3.10351E+01 0.00000E+00
 -1      2539 2.92030E+01 1.79396E+01 0.00000E+00
 -1      2540 3.02269E+01 1.83023E+01 0.00000E+00
 -1      2541 6.48374E+00 2.71625E+01 0.00000E+00
 -1      2542 6.48374E+00 2.86375E+01 0.00000E+00
 -1      2543 7.78274E+00 2.93750E+01 0.00000E+00
 -1      2544 7.76021E+00 2.64250E+01 0.00000E+00
 -1      2545 2.66623E+01 1.77805E+01 0.00000E+00
 -1      2546 2.78230E+01 1.77364E+01 0.00000E+00
 -1      2547 1.79466E+01 2.41210E+01 0.00000E+00
 -1      2548 1.84950E+01 2.32884E+01 0.00000E+00
 -1      2549 2.45212E+01 1.80863E+01 0.00000E+00
 -1      2550 2.53942E+01 1.78136E+01 0.00000E+00
 -1      2551 2.23185E+01 1.91179E+01 0.00000E+00
 -1      2552 2.34199E+01 1.86021E+01 0.00000E+00
 -1      2553 2.35757E+01 1.75672E+01 0.00000E+00
 -1      2554 2.05849E+01 2.04166E+01 0.00000E+00
 -1      2555 2.12862E+01 1.98251E+01 0.00000E+00
 -1      2556 2.70009E+01 3.88456E+01 0.00000E+00
 -1      2557 2.59794E+01 3.88465E+01 0.00000E+00
 -1      2558 1.91290E+01 2.23656E+01 0.00000E+00
 -1      2559 1.98189E+01 2.13962E+01 0.00000E+00
 -1      2560 1.71695E+01 2.64170E+01 0.00000E+00
 -1      2561 1.73483E+01 2.53387E+01 0.00000E+00
 -1      2562 1.70514E+01 2.84740E+01 0.00000E+00
 -1      2563 1.71200E+01 2.75187E+01 0.00000E+00
 -1      2564 1.69943E+01 3.05906E+01 0.00000E+00
 -1      2565 1.69528E+01 2.95579E+01 0.00000E+00
 -1      2566 1.92680E+01 3.48075E+01 0.00000E+00
 -1      2567 1.87438E+01 3.40945E+01 0.00000E+00
 -1      2568 2.08576E+01 3.64034E+01 0.00000E+00
 -1      2569 2.00628E+01 3.56055E+01 0.00000E+00
 -1      2570 1.91098E+01 3.57569E+01 0.00000E+00
 -1      2571 2.25358E+01 3.76015E+01 0.00000E+00
 -1      2572 2.17839E+01 3.71747E+01 0.00000E+00
 -1      2573 2.46357E+01 3.84843E+01 0.00000E+00
 -1      2574 2.35590E+01 3.80423E+01 0.00000E+00
 -1      2575 2.90983E+01 3.88126E+01 0.00000E+00
 -1      2576 2.80496E+01 3.88291E+01 0.00000E+00
 -1      2577 2.75397E+01 3.96871E+01 0.00000E+00
 -1      2578 3.15393E+01 3.80090E+01 0.00000E+00
 -1      2579 3.04675E+01 3.84719E+01 0.00000E+00
 -1      2580 3.35942E+01 3.68298E+01 0.00000E+00
 -1      2581 3.27409E+01 3.74656E+01 0.00000E+00
 -1      2582 3.51147E+01 3.55555E+01 0.00000E+00
 -1      2583 3.43544E+01 3.61926E+01 0.00000E+00
 -1      2584 3.44903E+01 3.72654E+01 0.00000E+00
 -1      2585 3.64682E+01 3.33509E+01 0.00000E+00
 -1      2586 3.59293E+01 3.43503E+01 0.00000E+00
 -1      2587 3.13313E+01 1.87403E+01 0.00000E+00
 -1      2588 3.21648E+01 1.91451E+01 0.00000E+00
 -1      2589 3.30156E+01 1.86725E+01 0.00000E+00
 -1      2590 8.07525E+00 5.11044E+00 0.00000E+00
 -1      2591 6.57525E+00 5.11044E+00 0.00000E+00
 -1      2592 6.40575E+00 6.01981E+00 0.00000E+00
 -1      2593 8.82525E+00 6.40944E+00 0.00000E+00
 -1      2594 3.46744E+01 2.08434E+01 0.00000E+00
 -1      2595 3.54741E+01 2.16458E+01 0.00000E+00
 -1      2596 2.79836E+01 1.64372E+01 0.00000E+00
 -1      2597 2.85933E+01 1.71884E+01 0.00000E+00
 -1      2598 2.93636E+01 1.66404E+01 0.00000E+00
 -1      2599 7.79400E+00 3.52687E+01 0.00000E+00
 -1      2600 6.49500E+00 3.60062E+01 0.00000E+00
 -1      2601 6.49500E+00 3.74750E+01 0.00000E+00
 -1      2602 1.45350E+01 6.60425E+00 0.00000E+00
 -1      2603 6.40575E+00 7.49481E+00 0.00000E+00
 -1      2604 3.47505E+01 1.98731E+01 0.00000E+00
 -1      2605 3.10778E+01 1.78296E+01 0.00000E+00
 -1      2606 3.60652E+01 3.54230E+01 0.00000E+00
 -1      2607 3.62011E+01 3.64957E+01 0.00000E+00
 -1      2608 3.70157E+01 3.52905E+01 0.00000E+00
 -1      2609 1.43586E+02 6.56853E+00 0.00000E+00
 -1      2610 3.63692E+01 2.16978E+01 0.00000E+00
 -1      2611 1.43419E+02 7.72713E+00 0.00000E+00
 -1      2612 2.99576E+01 3.93300E+01 0.00000E+00
 -1      2613 3.93061E+01 2.76094E+01 0.00000E+00
 -1      2614 3.86476E+01 2.84352E+01 0.00000E+00
 -1      2615 3.91696E+01 2.92293E+01 0.00000E+00
 -1      2616 3.83088E+01 2.57382E+01 0.00000E+00
 -1      2617 3.74599E+01 2.36940E+01 0.00000E+00
 -1      2618 2.51473E+01 3.93414E+01 0.00000E+00
 -1      2619 2.08309E+01 3.73262E+01 0.00000E+00
 -1      2620 7.68223E+00 8.23231E+00 0.00000E+00
 -1      2621 1.67515E+01 3.13796E+01 0.00000E+00
 -1      2622 1.58738E+01 3.08977E+01 0.00000E+00
 -1      2623 1.65086E+01 3.21686E+01 0.00000E+00
 -1      2624 1.62153E+01 2.90248E+01 0.00000E+00
 -1      2625 1.63634E+01 2.68392E+01 0.00000E+00
 -1      2626 1.82436E+01 2.23794E+01 0.00000E+00
 -1      2627 2.14420E+01 1.87902E+01 0.00000E+00
 -1      2628 1.78506E+01 3.38047E+01 0.00000E+00
 -1      2629 6.55950E+00 3.99453E+01 0.00000E+00
 -1      2630 1.70112E+01 2.45199E+01 0.00000E+00
 -1      2631 1.66742E+01 2.37010E+01 0.00000E+00
 -1      2632 1.60758E+01 2.49187E+01 0.00000E+00
 -1      2633 3.73890E+01 3.31165E+01 0.00000E+00
 -1      2634 2.59452E+01 1.70183E+01 0.00000E+00
 -1      2635 1.96436E+01 2.04770E+01 0.00000E+00
 -1      2636 2.27804E+01 3.85383E+01 0.00000E+00
 -1      2637 1.42758E+02 4.35929E+01 0.00000E+00
 -1      2638 1.43241E+02 4.17323E+01 0.00000E+00
 -1      2639 1.41942E+02 4.09948E+01 0.00000E+00
 -1      2640 1.41414E+02 4.35342E+01 0.00000E+00
 -1      2641 1.42120E+02 8.46463E+00 0.00000E+00
 -1      2642 3.25284E+01 3.84459E+01 0.00000E+00
 -1      2643 1.40664E+02 4.22352E+01 0.00000E+00
 -1      2644 9.02543E+00 1.98250E+01 0.00000E+00
 -1      2645 9.02543E+00 2.12750E+01 0.00000E+00
 -1      2646 9.02543E+00 2.27500E+01 0.00000E+00
 -1      2647 9.02543E+00 2.42250E+01 0.00000E+00
 -1      2648 1.03019E+01 2.20250E+01 0.00000E+00
 -1      2649 9.04795E+00 1.39375E+01 0.00000E+00
 -1      2650 9.04795E+00 1.54125E+01 0.00000E+00
 -1      2651 9.04795E+00 1.09875E+01 0.00000E+00
 -1      2652 9.04795E+00 1.24625E+01 0.00000E+00
 -1      2653 1.03470E+01 1.32000E+01 0.00000E+00
 -1      2654 1.22850E+01 7.90325E+00 0.00000E+00
 -1      2655 1.07850E+01 7.90325E+00 0.00000E+00
 -1      2656 3.92563E+01 3.08260E+01 0.00000E+00
 -1      2657 3.89499E+01 3.18060E+01 0.00000E+00
 -1      2658 3.08417E+01 1.68134E+01 0.00000E+00
 -1      2659 3.19461E+01 1.72515E+01 0.00000E+00
 -1      2660 1.44000E+01 4.09070E+01 0.00000E+00
 -1      2661 1.59000E+01 4.09070E+01 0.00000E+00
 -1      2662 1.74000E+01 4.09070E+01 0.00000E+00
 -1      2663 1.89000E+01 4.09070E+01 0.00000E+00
 -1      2664 1.66500E+01 3.96080E+01 0.00000E+00
 -1      2665 2.32268E+01 4.05926E+01 0.00000E+00
 -1      2666 2.47268E+01 4.05926E+01 0.00000E+00
 -1      2667 2.60705E+01 4.09548E+01 0.00000E+00
 -1      2668 2.75705E+01 4.09548E+01 0.00000E+00
 -1      2669 2.99884E+01 4.05977E+01 0.00000E+00
 -1      2670 3.14884E+01 4.05977E+01 0.00000E+00
 -1      2671 3.29884E+01 4.05977E+01 0.00000E+00
 -1      2672 3.54000E+01 4.09070E+01 0.00000E+00
 -1      2673 3.69000E+01 4.09070E+01 0.00000E+00
 -1      2674 3.84000E+01 4.09070E+01 0.00000E+00
 -1      2675 3.99000E+01 4.09070E+01 0.00000E+00
 -1      2676 3.76500E+01 3.96080E+01 0.00000E+00
 -1      2677 4.14000E+01 4.09070E+01 0.00000E+00
 -1      2678 4.29000E+01 4.09070E+01 0.00000E+00
 -1      2679 4.06500E+01 3.96080E+01 0.00000E+00
 -1      2680 4.44000E+01 4.09070E+01 0.00000E+00
 -1      2681 4.59000E+01 4.09070E+01 0.00000E+00
 -1      2682 4.36500E+01 3.96080E+01 0.00000E+00
 -1      2683 4.74000E+01 4.09070E+01 0.00000E+00
 -1      2684 4.89000E+01 4.09070E+01 0.00000E+00
 -1      2685 4.66500E+01 3.96080E+01 0.00000E+00
 -1      2686 5.04000E+01 4.09070E+01 0.00000E+00
 -1      2687 5.19000E+01 4.09070E+01 0.00000E+00
 -1      2688 4.96500E+01 3.96080E+01 0.00000E+00
 -1      2689 5.34000E+01 4.09070E+01 0.00000E+00
 -1      2690 5.49000E+01 4.09070E+01 0.00000E+00
 -1      2691 5.26500E+01 3.96080E+01 0.00000E+00
 -1      2692 5.64000E+01 4.09070E+01 0.00000E+00
 -1      2693 5.79000E+01 4.09070E+01 0.00000E+00
 -1      2694 5.56500E+01 3.96080E+01 0.00000E+00
 -1      2695 5.94000E+01 4.09070E+01 0.00000E+00
 -1      2696 6.09000E+01 4.09070E+01 0.00000E+00
 -1      2697 5.86500E+01 3.96080E+01 0.00000E+00
 -1      2698 6.24000E+01 4.09070E+01 0.00000E+00
 -1      2699 6.39000E+01 4.09070E+01 0.00000E+00
 -1      2700 6.16500E+01 3.96080E+01 0.00000E+00
 -1      2701 6.54000E+01 4.09070E+01 0.00000E+00
 -1      2702 6.69000E+01 4.09070E+01 0.00000E+00
 -1      2703 6.46500E+01 3.96080E+01 0.00000E+00
 -1      2704 6.84000E+01 4.09070E+01 0.00000E+00
 -1      2705 6.99000E+01 4.09070E+01 0.00000E+00
 -1      2706 6.76500E+01 3.96080E+01 0.00000E+00
 -1      2707 7.14000E+01 4.09070E+01 0.00000E+00
 -1      2708 7.29000E+01 4.09070E+01 0.00000E+00
 -1      2709 7.06500E+01 3.96080E+01 0.00000E+00
 -1      2710 7.44000E+01 4.09070E+01 0.00000E+00
 -1      2711 7.59000E+01 4.09070E+01 0.00000E+00
 -1      2712 7.36500E+01 3.96080E+01 0.00000E+00
 -1      2713 7.74000E+01 4.09070E+01 0.00000E+00
 -1      2714 7.89000E+01 4.09070E+01 0.00000E+00
 -1      2715 7.66500E+01 3.96080E+01 0.00000E+00
 -1      2716 8.04000E+01 4.09070E+01 0.00000E+00
 -1      2717 8.19000E+01 4.09070E+01 0.00000E+00
 -1      2718 7.96500E+01 3.96080E+01 0.00000E+00
 -1      2719 8.34000E+01 4.09070E+01 0.00000E+00
 -1      2720 8.49000E+01 4.09070E+01 0.00000E+00
 -1      2721 8.26500E+01 3.96080E+01 0.00000E+00
 -1      2722 8.64000E+01 4.09070E+01 0.00000E+00
 -1      2723 8.79000E+01 4.09070E+01 0.00000E+00
 -1      2724 8.56500E+01 3.96080E+01 0.00000E+00
 -1      2725 8.94000E+01 4.09070E+01 0.00000E+00
 -1      2726 9.09000E+01 4.09070E+01 0.00000E+00
 -1      2727 8.86500E+01 3.96080E+01 0.00000E+00
 -1      2728 9.24000E+01 4.09070E+01 0.00000E+00
 -1      2729 9.39000E+01 4.09070E+01 0.00000E+00
 -1      2730 9.16500E+01 3.96080E+01 0.00000E+00
 -1      2731 9.54000E+01 4.09070E+01 0.00000E+00
 -1      2732 9.69000E+01 4.09070E+01 0.00000E+00
 -1      2733 9.46500E+01 3.96080E+01 0.00000E+00
 -1      2734 9.84000E+01 4.09070E+01 0.00000E+00
 -1      2735 9.99000E+01 4.09070E+01 0.00000E+00
 -1      2736 9.76500E+01 3.96080E+01 0.00000E+00
 -1      2737 1.01400E+02 4.09070E+01 0.00000E+00
 -1      2738 1.02900E+02 4.09070E+01 0.00000E+00
 -1      2739 1.00650E+02 3.96080E+01 0.00000E+00
 -1      2740 1.04400E+02 4.09070E+01 0.00000E+00
 -1      2741 1.05900E+02 4.09070E+01 0.00000E+00
 -1      2742 1.03650E+02 3.96080E+01 0.00000E+00
 -1      2743 1.07400E+02 4.09070E+01 0.00000E+00
 -1      2744 1.08900E+02 4.09070E+01 0.00000E+00
 -1      2745 1.06650E+02 3.96080E+01 0.00000E+00
 -1      2746 1.10400E+02 4.09070E+01 0.00000E+00
 -1      2747 1.11900E+02 4.09070E+01 0.00000E+00
 -1      2748 1.09650E+02 3.96080E+01 0.00000E+00
 -1      2749 1.13400E+02 4.09070E+01 0.00000E+00
 -1      2750 1.14900E+02 4.09070E+01 0.00000E+00
 -1      2751 1.12650E+02 3.96080E+01 0.00000E+00
 -1      2752 1.16400E+02 4.09070E+01 0.00000E+00
 -1      2753 1.17900E+02 4.09070E+01 0.00000E+00
 -1      2754 1.15650E+02 3.96080E+01 0.00000E+00
 -1      2755 1.19400E+02 4.09070E+01 0.00000E+00
 -1      2756 1.20900E+02 4.09070E+01 0.00000E+00
 -1      2757 1.18650E+02 3.96080E+01 0.00000E+00
 -1      2758 1.22400E+02 4.09070E+01 0.00000E+00
 -1      2759 1.23900E+02 4.09070E+01 0.00000E+00
 -1      2760 1.21650E+02 3.96080E+01 0.00000E+00
 -1      2761 1.25400E+02 4.09070E+01 0.00000E+00
 -1      2762 1.26900E+02 4.09070E+01 0.00000E+00
 -1      2763 1.24650E+02 3.96080E+01 0.00000E+00
 -1      2764 1.28400E+02 4.09070E+01 0.00000E+00
 -1      2765 1.29900E+02 4.09070E+01 0.00000E+00
 -1      2766 1.27650E+02 3.96080E+01 0.00000E+00
 -1      2767 1.31400E+02 4.09070E+01 0.00000E+00
 -1      2768 1.32900E+02 4.09070E+01 0.00000E+00
 -1      2769 1.30650E+02 3.96080E+01 0.00000E+00
 -1      2770 1.34400E+02 4.09070E+01 0.00000E+00
 -1      2771 1.35900E+02 4.09070E+01 0.00000E+00
 -1      2772 1.33650E+02 3.96080E+01 0.00000E+00
 -1      2773 1.37400E+02 4.09070E+01 0.00000E+00
 -1      2774 1.38900E+02 4.09070E+01 0.00000E+00
 -1      2775 1.36650E+02 3.96080E+01 0.00000E+00
 -1      2776 2.42850E+01 7.90325E+00 0.00000E+00
 -1      2777 2.27850E+01 7.90325E+00 0.00000E+00
 -1      2778 1.40706E+02 1.03250E+01 0.00000E+00
 -1      2779 1.40620E+02 8.46463E+00 0.00000E+00
 -1      2780 1.39120E+02 8.46463E+00 0.00000E+00
 -1      2781 2.12850E+01 7.90325E+00 0.00000E+00
 -1      2782 1.97850E+01 7.90325E+00 0.00000E+00
 -1      2783 2.20350E+01 9.20225E+00 0.00000E+00
 -1      2784 3.02850E+01 7.90325E+00 0.00000E+00
 -1      2785 2.87850E+01 7.90325E+00 0.00000E+00
 -1      2786 3.32850E+01 7.90325E+00 0.00000E+00
 -1      2787 3.17850E+01 7.90325E+00 0.00000E+00
 -1      2788 3.10350E+01 9.20225E+00 0.00000E+00
 -1      2789 3.62850E+01 7.90325E+00 0.00000E+00
 -1      2790 3.47850E+01 7.90325E+00 0.00000E+00
 -1      2791 3.40350E+01 9.20225E+00 0.00000E+00
 -1      2792 3.92850E+01 7.90325E+00 0.00000E+00
 -1      2793 3.77850E+01 7.90325E+00 0.00000E+00
 -1      2794 3.70350E+01 9.20225E+00 0.00000E+00
 -1      2795 4.22850E+01 7.90325E+00 0.00000E+00
 -1      2796 4.07850E+01 7.90325E+00 0.00000E+00
 -1      2797 4.00350E+01 9.20225E+00 0.00000E+00
 -1      2798 4.52850E+01 7.90325E+00 0.00000E+00
 -1      2799 4.37850E+01 7.90325E+00 0.00000E+00
 -1      2800 4.30350E+01 9.20225E+00 0.00000E+00
 -1      2801 4.82850E+01 7.90325E+00 0.00000E+00
 -1      2802 4.67850E+01 7.90325E+00 0.00000E+00
 -1      2803 4.60350E+01 9.20225E+00 0.00000E+00
 -1      2804 5.12850E+01 7.90325E+00 0.00000E+00
 -1      2805 4.97850E+01 7.90325E+00 0.00000E+00
 -1      2806 4.90350E+01 9.20225E+00 0.00000E+00
 -1      2807 5.42850E+01 7.90325E+00 0.00000E+00
 -1      2808 5.27850E+01 7.90325E+00 0.00000E+00
 -1      2809 5.20350E+01 9.20225E+00 0.00000E+00
 -1      2810 5.72850E+01 7.90325E+00 0.00000E+00
 -1      2811 5.57850E+01 7.90325E+00 0.00000E+00
 -1      2812 5.50350E+01 9.20225E+00 0.00000E+00
 -1      2813 6.02850E+01 7.90325E+00 0.00000E+00
 -1      2814 5.87850E+01 7.90325E+00 0.00000E+00
 -1      2815 5.80350E+01 9.20225E+00 0.00000E+00
 -1      2816 6.32850E+01 7.90325E+00 0.00000E+00
 -1      2817 6.17850E+01 7.90325E+00 0.00000E+00
 -1      2818 6.10350E+01 9.20225E+00 0.00000E+00
 -1      2819 6.62850E+01 7.90325E+00 0.00000E+00
 -1      2820 6.47850E+01 7.90325E+00 0.00000E+00
 -1      2821 6.40350E+01 9.20225E+00 0.00000E+00
 -1      2822 6.92850E+01 7.90325E+00 0.00000E+00
 -1      2823 6.77850E+01 7.90325E+00 0.00000E+00
 -1      2824 6.70350E+01 9.20225E+00 0.00000E+00
 -1      2825 7.22850E+01 7.90325E+00 0.00000E+00
 -1      2826 7.07850E+01 7.90325E+00 0.00000E+00
 -1      2827 7.00350E+01 9.20225E+00 0.00000E+00
 -1      2828 7.52850E+01 7.90325E+00 0.00000E+00
 -1      2829 7.37850E+01 7.90325E+00 0.00000E+00
 -1      2830 7.30350E+01 9.20225E+00 0.00000E+00
 -1      2831 7.82850E+01 7.90325E+00 0.00000E+00
 -1      2832 7.67850E+01 7.90325E+00 0.00000E+00
 -1      2833 7.60350E+01 9.20225E+00 0.00000E+00
 -1      2834 8.12850E+01 7.90325E+00 0.00000E+00
 -1      2835 7.97850E+01 7.90325E+00 0.00000E+00
 -1      2836 7.90350E+01 9.20225E+00 0.00000E+00
 -1      2837 8.42850E+01 7.90325E+00 0.00000E+00
 -1      2838 8.27850E+01 7.90325E+00 0.00000E+00
 -1      2839 8.20350E+01 9.20225E+00 0.00000E+00
 -1      2840 8.72850E+01 7.90325E+00 0.00000E+00
 -1      2841 8.57850E+01 7.90325E+00 0.00000E+00
 -1      2842 8.50350E+01 9.20225E+00 0.00000E+00
 -1      2843 9.02850E+01 7.90325E+00 0.00000E+00
 -1      2844 8.87850E+01 7.90325E+00 0.00000E+00
 -1      2845 8.80350E+01 9.20225E+00 0.00000E+00
 -1      2846 9.32850E+01 7.90325E+00 0.00000E+00
 -1      2847 9.17850E+01 7.90325E+00 0.00000E+00
 -1      2848 9.10350E+01 9.20225E+00 0.00000E+00
 -1      2849 9.62850E+01 7.90325E+00 0.00000E+00
 -1      2850 9.47850E+01 7.90325E+00 0.00000E+00
 -1      2851 9.40350E+01 9.20225E+00 0.00000E+00
 -1      2852 9.92850E+01 7.90325E+00 0.00000E+00
 -1      2853 9.77850E+01 7.90325E+00 0.00000E+00
 -1      2854 9.70350E+01 9.20225E+00 0.00000E+00
 -1      2855 1.02285E+02 7.90325E+00 0.00000E+00
 -1      2856 1.00785E+02 7.90325E+00 0.00000E+00
 -1      2857 1.00035E+02 9.20225E+00 0.00000E+00
 -1      2858 1.05285E+02 7.90325E+00 0.00000E+00
 -1      2859 1.03785E+02 7.90325E+00 0.00000E+00
 -1      2860 1.03035E+02 9.20225E+00 0.00000E+00
 -1      2861 1.08285E+02 7.90325E+00 0.00000E+00
 -1      2862 1.06785E+02 7.90325E+00 0.00000E+00
 -1      2863 1.06035E+02 9.20225E+00 0.00000E+00
 -1      2864 1.11285E+02 7.90325E+00 0.00000E+00
 -1      2865 1.09785E+02 7.90325E+00 0.00000E+00
 -1      2866 1.09035E+02 9.20225E+00 0.00000E+00
 -1      2867 1.14285E+02 7.90325E+00 0.00000E+00
 -1      2868 1.12785E+02 7.90325E+00 0.00000E+00
 -1      2869 1.12035E+02 9.20225E+00 0.00000E+00
 -1      2870 1.17285E+02 7.90325E+00 0.00000E+00
 -1      2871 1.15785E+02 7.90325E+00 0.00000E+00
 -1      2872 1.15035E+02 9.20225E+00 0.00000E+00
 -1      2873 1.20285E+02 7.90325E+00 0.00000E+00
 -1      2874 1.18785E+02 7.90325E+00 0.00000E+00
 -1      2875 1.18035E+02 9.20225E+00 0.00000E+00
 -1      2876 1.23285E+02 7.90325E+00 0.00000E+00
 -1      2877 1.21785E+02 7.90325E+00 0.00000E+00
 -1      2878 1.21035E+02 9.20225E+00 0.00000E+00
 -1      2879 1.26285E+02 7.90325E+00 0.00000E+00
 -1      2880 1.24785E+02 7.90325E+00 0.00000E+00
 -1      2881 1.24035E+02 9.20225E+00 0.00000E+00
 -1      2882 1.29285E+02 7.90325E+00 0.00000E+00
 -1      2883 1.27785E+02 7.90325E+00 0.00000E+00
 -1      2884 1.27035E+02 9.20225E+00 0.00000E+00
 -1      2885 1.32285E+02 7.90325E+00 0.00000E+00
 -1      2886 1.30785E+02 7.90325E+00 0.00000E+00
 -1      2887 1.30035E+02 9.20225E+00 0.00000E+00
 -1      2888 1.35285E+02 7.90325E+00 0.00000E+00
 -1      2889 1.33785E+02 7.90325E+00 0.00000E+00
 -1      2890 1.33035E+02 9.20225E+00 0.00000E+00
 -1      2891 1.37953E+02 8.18394E+00 0.00000E+00
 -1      2892 1.36453E+02 8.18394E+00 0.00000E+00
 -1      2893 1.35703E+02 9.48294E+00 0.00000E+00
 -1      2894 1.38038E+02 1.00443E+01 0.00000E+00
 -1      2895 3.69203E+01 2.05492E+01 0.00000E+00
 -1      2896 3.76375E+01 2.15782E+01 0.00000E+00
 -1      2897 1.40907E+02 2.42875E+01 0.00000E+00
 -1      2898 1.40907E+02 2.28125E+01 0.00000E+00
 -1      2899 1.40907E+02 1.83875E+01 0.00000E+00
 -1      2900 1.40907E+02 1.69125E+01 0.00000E+00
 -1      2901 1.40907E+02 2.72375E+01 0.00000E+00
 -1      2902 1.40907E+02 2.57625E+01 0.00000E+00
 -1      2903 1.39608E+02 2.50250E+01 0.00000E+00
 -1      2904 1.40907E+02 2.13375E+01 0.00000E+00
 -1      2905 1.40907E+02 1.98625E+01 0.00000E+00
 -1      2906 1.39608E+02 1.91250E+01 0.00000E+00
 -1      2907 1.39608E+02 2.20750E+01 0.00000E+00
 -1      2908 1.40907E+02 3.01375E+01 0.00000E+00
 -1      2909 1.40907E+02 2.86875E+01 0.00000E+00
 -1      2910 1.39608E+02 2.79500E+01 0.00000E+00
 -1      2911 1.40907E+02 3.30875E+01 0.00000E+00
 -1      2912 1.40907E+02 3.16125E+01 0.00000E+00
 -1      2913 1.39608E+02 3.08750E+01 0.00000E+00
 -1      2914 1.40907E+02 3.60375E+01 0.00000E+00
 -1      2915 1.40907E+02 3.45625E+01 0.00000E+00
 -1      2916 1.39608E+02 3.38250E+01 0.00000E+00
 -1      2917 8.89198E+00 8.42712E+00 0.00000E+00
 -1      2918 3.88174E+01 2.48703E+01 0.00000E+00
 -1      2919 3.92927E+01 2.59474E+01 0.00000E+00
 -1      2920 3.80703E+01 2.29360E+01 0.00000E+00
 -1      2921 3.84438E+01 2.39032E+01 0.00000E+00
 -1      2922 3.94277E+01 2.41124E+01 0.00000E+00
 -1      2923 8.85168E+00 4.05347E+01 0.00000E+00
 -1      2924 1.02152E+01 4.07987E+01 0.00000E+00
 -1      2925 1.72095E+01 3.47332E+01 0.00000E+00
 -1      2926 1.67451E+01 3.35790E+01 0.00000E+00
 -1      2927 1.51451E+01 2.94739E+01 0.00000E+00
 -1      2928 1.52437E+01 2.83900E+01 0.00000E+00
 -1      2929 1.82850E+01 7.90325E+00 0.00000E+00
 -1      2930 1.67850E+01 7.90325E+00 0.00000E+00
 -1      2931 1.90350E+01 9.20225E+00 0.00000E+00
 -1      2932 2.72850E+01 7.90325E+00 0.00000E+00
 -1      2933 2.57850E+01 7.90325E+00 0.00000E+00
 -1      2934 2.50350E+01 9.20225E+00 0.00000E+00
 -1      2935 2.80350E+01 9.20225E+00 0.00000E+00
 -1      2936 1.15576E+01 4.08528E+01 0.00000E+00
 -1      2937 1.30576E+01 4.08528E+01 0.00000E+00
 -1      2938 1.38076E+01 3.95538E+01 0.00000E+00
 -1      2939 1.11228E+01 3.94455E+01 0.00000E+00
 -1      2940 3.50336E+01 1.86439E+01 0.00000E+00
 -1      2941 3.59351E+01 1.94396E+01 0.00000E+00
 -1      2942 1.52850E+01 7.90325E+00 0.00000E+00
 -1      2943 1.37850E+01 7.90325E+00 0.00000E+00
 -1      2944 1.30350E+01 9.20225E+00 0.00000E+00
 -1      2945 1.60350E+01 9.20225E+00 0.00000E+00
 -1      2946 9.04795E+00 1.68875E+01 0.00000E+00
 -1      2947 9.04795E+00 1.83625E+01 0.00000E+00
 -1      2948 1.03470E+01 1.61500E+01 0.00000E+00
 -1      2949 9.09300E+00 3.15875E+01 0.00000E+00
 -1      2950 9.09300E+00 3.30625E+01 0.00000E+00
 -1      2951 2.04412E+01 1.84363E+01 0.00000E+00
 -1      2952 2.14735E+01 1.77292E+01 0.00000E+00
 -1      2953 2.26613E+01 1.70486E+01 0.00000E+00
 -1      2954 2.37626E+01 1.65327E+01 0.00000E+00
 -1      2955 2.07454E+01 3.83708E+01 0.00000E+00
 -1      2956 1.98191E+01 3.75996E+01 0.00000E+00
 -1      2957 1.85851E+01 2.04385E+01 0.00000E+00
 -1      2958 1.93511E+01 1.94589E+01 0.00000E+00
 -1      2959 3.84407E+01 3.29073E+01 0.00000E+00
 -1      2960 3.79314E+01 3.40087E+01 0.00000E+00
 -1      2961 3.94923E+01 3.26982E+01 0.00000E+00
 -1      2962 1.72543E+01 2.23789E+01 0.00000E+00
 -1      2963 1.78883E+01 2.14561E+01 0.00000E+00
 -1      2964 1.52932E+01 2.72883E+01 0.00000E+00
 -1      2965 1.53427E+01 2.61866E+01 0.00000E+00
 -1      2966 1.42230E+01 2.77374E+01 0.00000E+00
 -1      2967 7.48818E+00 3.88019E+01 0.00000E+00
 -1      2968 1.88996E+01 3.67611E+01 0.00000E+00
 -1      2969 1.81048E+01 3.59631E+01 0.00000E+00
 -1      2970 1.40928E+02 4.09655E+01 0.00000E+00
 -1      2971 1.41192E+02 3.96958E+01 0.00000E+00
 -1      2972 1.39914E+02 4.09362E+01 0.00000E+00
 -1      2973 3.57003E+01 3.81181E+01 0.00000E+00
 -1      2974 3.49400E+01 3.87552E+01 0.00000E+00
 -1      2975 2.52844E+01 1.60101E+01 0.00000E+00
 -1      2976 2.65525E+01 1.59770E+01 0.00000E+00
 -1      2977 3.27796E+01 1.76563E+01 0.00000E+00
 -1      2978 3.36130E+01 1.80612E+01 0.00000E+00
 -1      2979 3.25435E+01 1.66402E+01 0.00000E+00
 -1      2980 2.16768E+01 4.11789E+01 0.00000E+00
 -1      2981 2.22536E+01 3.95654E+01 0.00000E+00
 -1      2982 2.12304E+01 3.91246E+01 0.00000E+00
 -1      2983 2.01768E+01 4.11789E+01 0.00000E+00
 -1      2984 9.09300E+00 3.45313E+01 0.00000E+00
 -1      2985 9.09300E+00 3.60000E+01 0.00000E+00
 -1      2986 1.03920E+01 3.37938E+01 0.00000E+00
 -1      2987 1.03132E+01 2.49750E+01 0.00000E+00
 -1      2988 9.03670E+00 2.57000E+01 0.00000E+00
 -1      2989 9.04796E+00 2.71750E+01 0.00000E+00
 -1      2990 2.02186E+01 3.93980E+01 0.00000E+00
 -1      2991 1.75958E+01 2.04380E+01 0.00000E+00
 -1      2992 1.46594E+01 3.10519E+01 0.00000E+00
 -1      2993 1.49022E+01 3.02629E+01 0.00000E+00
 -1      2994 1.39306E+01 2.96281E+01 0.00000E+00
 -1      2995 3.80673E+01 3.50814E+01 0.00000E+00
 -1      2996 3.82032E+01 3.61541E+01 0.00000E+00
 -1      2997 3.91190E+01 3.48723E+01 0.00000E+00
 -1      2998 3.66508E+01 3.79856E+01 0.00000E+00
 -1      2999 1.94268E+01 3.98799E+01 0.00000E+00
 -1      3000 2.86192E+01 4.09383E+01 0.00000E+00
 -1      3001 1.39164E+02 3.96372E+01 0.00000E+00
 -1      3002 3.37384E+01 3.92987E+01 0.00000E+00
 -1      3003 3.86214E+01 2.17875E+01 0.00000E+00
 -1      3004 3.72035E+01 1.93200E+01 0.00000E+00
 -1      3005 1.39608E+02 1.61875E+01 0.00000E+00
 -1      3006 1.40907E+02 1.54500E+01 0.00000E+00
 -1      3007 1.40907E+02 1.39875E+01 0.00000E+00
 -1      3008 1.40706E+02 1.17875E+01 0.00000E+00
 -1      3009 1.69993E+01 3.57374E+01 0.00000E+00
 -1      3010 3.98147E+01 2.67415E+01 0.00000E+00
 -1      3011 4.03366E+01 2.75356E+01 0.00000E+00
 -1      3012 4.03232E+01 2.58736E+01 0.00000E+00
 -1      3013 9.64198E+00 9.72612E+00 0.00000E+00
 -1      3014 1.41192E+02 3.82207E+01 0.00000E+00
 -1      3015 3.99148E+01 3.00002E+01 0.00000E+00
 -1      3016 4.06601E+01 3.07711E+01 0.00000E+00
 -1      3017 4.05733E+01 2.91744E+01 0.00000E+00
 -1      3018 2.43700E+01 1.54914E+01 0.00000E+00
 -1      3019 2.49773E+01 1.44501E+01 0.00000E+00
 -1      3020 2.34555E+01 1.49727E+01 0.00000E+00
 -1      3021 1.58675E+01 3.30971E+01 0.00000E+00
 -1      3022 1.03244E+01 1.90875E+01 0.00000E+00
 -1      3023 8.78718E+00 3.80644E+01 0.00000E+00
 -1      3024 2.16605E+01 1.66946E+01 0.00000E+00
 -1      3025 1.50056E+01 2.53678E+01 0.00000E+00
 -1      3026 1.46685E+01 2.45489E+01 0.00000E+00
 -1      3027 1.39354E+01 2.58169E+01 0.00000E+00
 -1      3028 9.06485E+00 2.86437E+01 0.00000E+00
 -1      3029 9.07611E+00 3.01187E+01 0.00000E+00
 -1      3030 1.03751E+01 3.08563E+01 0.00000E+00
 -1      3031 1.03413E+01 2.79188E+01 0.00000E+00
 -1      3032 1.93826E+01 1.83979E+01 0.00000E+00
 -1      3033 1.53835E+01 2.31766E+01 0.00000E+00
 -1      3034 1.63189E+01 2.27777E+01 0.00000E+00
 -1      3035 1.59636E+01 2.18544E+01 0.00000E+00
 -1      3036 1.88141E+01 3.78058E+01 0.00000E+00
 -1      3037 3.47976E+01 1.76277E+01 0.00000E+00
 -1      3038 3.02320E+01 1.60623E+01 0.00000E+00
 -1      3039 3.11004E+01 1.54841E+01 0.00000E+00
 -1      3040 2.96223E+01 1.53111E+01 0.00000E+00
 -1      3041 1.09410E+01 1.04636E+01 0.00000E+00
 -1      3042 2.73228E+01 1.54290E+01 0.00000E+00
 -1      3043 1.39529E+02 3.85602E+01 0.00000E+00
 -1      3044 1.40542E+02 3.71145E+01 0.00000E+00
 -1      3045 1.39243E+02 3.63770E+01 0.00000E+00
 -1      3046 1.38514E+02 3.85310E+01 0.00000E+00
 -1      3047 1.16460E+01 1.24625E+01 0.00000E+00
 -1      3048 1.16460E+01 1.39375E+01 0.00000E+00
 -1      3049 1.65398E+01 2.04623E+01 0.00000E+00
 -1      3050 1.72366E+01 1.94447E+01 0.00000E+00
 -1      3051 1.16460E+01 1.54125E+01 0.00000E+00
 -1      3052 1.16460E+01 1.68875E+01 0.00000E+00
 -1      3053 1.29450E+01 1.46750E+01 0.00000E+00
 -1      3054 1.81935E+01 1.82226E+01 0.00000E+00
 -1      3055 1.92836E+01 1.72000E+01 0.00000E+00
 -1      3056 3.95414E+01 2.07464E+01 0.00000E+00
 -1      3057 3.99742E+01 2.21042E+01 0.00000E+00
 -1      3058 3.99000E+01 3.83090E+01 0.00000E+00
 -1      3059 4.14000E+01 3.83090E+01 0.00000E+00
 -1      3060 4.29000E+01 3.83090E+01 0.00000E+00
 -1      3061 4.44000E+01 3.83090E+01 0.00000E+00
 -1      3062 4.21500E+01 3.70100E+01 0.00000E+00
 -1      3063 4.59000E+01 3.83090E+01 0.00000E+00
 -1      3064 4.74000E+01 3.83090E+01 0.00000E+00
 -1      3065 4.51500E+01 3.70100E+01 0.00000E+00
 -1      3066 4.89000E+01 3.83090E+01 0.00000E+00
 -1      3067 5.04000E+01 3.83090E+01 0.00000E+00
 -1      3068 4.81500E+01 3.70100E+01 0.00000E+00
 -1      3069 5.19000E+01 3.83090E+01 0.00000E+00
 -1      3070 5.34000E+01 3.83090E+01 0.00000E+00
 -1      3071 5.11500E+01 3.70100E+01 0.00000E+00
 -1      3072 5.49000E+01 3.83090E+01 0.00000E+00
 -1      3073 5.64000E+01 3.83090E+01 0.00000E+00
 -1      3074 5.41500E+01 3.70100E+01 0.00000E+00
 -1      3075 5.79000E+01 3.83090E+01 0.00000E+00
 -1      3076 5.94000E+01 3.83090E+01 0.00000E+00
 -1      3077 5.71500E+01 3.70100E+01 0.00000E+00
 -1      3078 6.09000E+01 3.83090E+01 0.00000E+00
 -1      3079 6.24000E+01 3.83090E+01 0.00000E+00
 -1      3080 6.01500E+01 3.70100E+01 0.00000E+00
 -1      3081 6.39000E+01 3.83090E+01 0.00000E+00
 -1      3082 6.54000E+01 3.83090E+01 0.00000E+00
 -1      3083 6.31500E+01 3.70100E+01 0.00000E+00
 -1      3084 6.69000E+01 3.83090E+01 0.00000E+00
 -1      3085 6.84000E+01 3.83090E+01 0.00000E+00
 -1      3086 6.61500E+01 3.70100E+01 0.00000E+00
 -1      3087 6.99000E+01 3.83090E+01 0.00000E+00
 -1      3088 7.14000E+01 3.83090E+01 0.00000E+00
 -1      3089 6.91500E+01 3.70100E+01 0.00000E+00
 -1      3090 7.29000E+01 3.83090E+01 0.00000E+00
 -1      3091 7.44000E+01 3.83090E+01 0.00000E+00
 -1      3092 7.21500E+01 3.70100E+01 0.00000E+00
 -1      3093 7.59000E+01 3.83090E+01 0.00000E+00
 -1      3094 7.74000E+01 3.83090E+01 0.00000E+00
 -1      3095 7.51500E+01 3.70100E+01 0.00000E+00
 -1      3096 7.89000E+01 3.83090E+01 0.00000E+00
 -1      3097 8.04000E+01 3.83090E+01 0.00000E+00
 -1      3098 7.81500E+01 3.70100E+01 0.00000E+00
 -1      3099 8.19000E+01 3.83090E+01 0.00000E+00
 -1      3100 8.34000E+01 3.83090E+01 0.00000E+00
 -1      3101 8.11500E+01 3.70100E+01 0.00000E+00
 -1      3102 8.49000E+01 3.83090E+01 0.00000E+00
 -1      3103 8.64000E+01 3.83090E+01 0.00000E+00
 -1      3104 8.41500E+01 3.70100E+01 0.00000E+00
 -1      3105 8.79000E+01 3.83090E+01 0.00000E+00
 -1      3106 8.94000E+01 3.83090E+01 0.00000E+00
 -1      3107 8.71500E+01 3.70100E+01 0.00000E+00
 -1      3108 9.09000E+01 3.83090E+01 0.00000E+00
 -1      3109 9.24000E+01 3.83090E+01 0.00000E+00
 -1      3110 9.01500E+01 3.70100E+01 0.00000E+00
 -1      3111 9.39000E+01 3.83090E+01 0.00000E+00
 -1      3112 9.54000E+01 3.83090E+01 0.00000E+00
 -1      3113 9.31500E+01 3.70100E+01 0.00000E+00
 -1      3114 9.69000E+01 3.83090E+01 0.00000E+00
 -1      3115 9.84000E+01 3.83090E+01 0.00000E+00
 -1      3116 9.61500E+01 3.70100E+01 0.00000E+00
 -1      3117 9.99000E+01 3.83090E+01 0.00000E+00
 -1      3118 1.01400E+02 3.83090E+01 0.00000E+00
 -1      3119 9.91500E+01 3.70100E+01 0.00000E+00
 -1      3120 1.02900E+02 3.83090E+01 0.00000E+00
 -1      3121 1.04400E+02 3.83090E+01 0.00000E+00
 -1      3122 1.02150E+02 3.70100E+01 0.00000E+00
 -1      3123 1.05900E+02 3.83090E+01 0.00000E+00
 -1      3124 1.07400E+02 3.83090E+01 0.00000E+00
 -1      3125 1.05150E+02 3.70100E+01 0.00000E+00
 -1      3126 1.08900E+02 3.83090E+01 0.00000E+00
 -1      3127 1.10400E+02 3.83090E+01 0.00000E+00
 -1      3128 1.08150E+02 3.70100E+01 0.00000E+00
 -1      3129 1.11900E+02 3.83090E+01 0.00000E+00
 -1      3130 1.13400E+02 3.83090E+01 0.00000E+00
 -1      3131 1.11150E+02 3.70100E+01 0.00000E+00
 -1      3132 1.14900E+02 3.83090E+01 0.00000E+00
 -1      3133 1.16400E+02 3.83090E+01 0.00000E+00
 -1      3134 1.14150E+02 3.70100E+01 0.00000E+00
 -1      3135 1.17900E+02 3.83090E+01 0.00000E+00
 -1      3136 1.19400E+02 3.83090E+01 0.00000E+00
 -1      3137 1.17150E+02 3.70100E+01 0.00000E+00
 -1      3138 1.20900E+02 3.83090E+01 0.00000E+00
 -1      3139 1.22400E+02 3.83090E+01 0.00000E+00
 -1      3140 1.20150E+02 3.70100E+01 0.00000E+00
 -1      3141 1.23900E+02 3.83090E+01 0.00000E+00
 -1      3142 1.25400E+02 3.83090E+01 0.00000E+00
 -1      3143 1.23150E+02 3.70100E+01 0.00000E+00
 -1      3144 1.26900E+02 3.83090E+01 0.00000E+00
 -1      3145 1.28400E+02 3.83090E+01 0.00000E+00
 -1      3146 1.26150E+02 3.70100E+01 0.00000E+00
 -1      3147 1.29900E+02 3.83090E+01 0.00000E+00
 -1      3148 1.31400E+02 3.83090E+01 0.00000E+00
 -1      3149 1.29150E+02 3.70100E+01 0.00000E+00
 -1      3150 1.32900E+02 3.83090E+01 0.00000E+00
 -1      3151 1.34400E+02 3.83090E+01 0.00000E+00
 -1      3152 1.32150E+02 3.70100E+01 0.00000E+00
 -1      3153 1.35707E+02 3.84200E+01 0.00000E+00
 -1      3154 1.37207E+02 3.84200E+01 0.00000E+00
 -1      3155 1.37572E+02 3.73430E+01 0.00000E+00
 -1      3156 1.34957E+02 3.71210E+01 0.00000E+00
 -1      3157 2.27850E+01 1.05013E+01 0.00000E+00
 -1      3158 2.12850E+01 1.05013E+01 0.00000E+00
 -1      3159 3.47850E+01 1.05013E+01 0.00000E+00
 -1      3160 3.32850E+01 1.05013E+01 0.00000E+00
 -1      3161 3.17850E+01 1.05013E+01 0.00000E+00
 -1      3162 3.02850E+01 1.05013E+01 0.00000E+00
 -1      3163 3.25350E+01 1.18003E+01 0.00000E+00
 -1      3164 4.07850E+01 1.05013E+01 0.00000E+00
 -1      3165 3.92850E+01 1.05013E+01 0.00000E+00
 -1      3166 4.37850E+01 1.05013E+01 0.00000E+00
 -1      3167 4.22850E+01 1.05013E+01 0.00000E+00
 -1      3168 4.15350E+01 1.18003E+01 0.00000E+00
 -1      3169 4.67850E+01 1.05013E+01 0.00000E+00
 -1      3170 4.52850E+01 1.05013E+01 0.00000E+00
 -1      3171 4.45350E+01 1.18003E+01 0.00000E+00
 -1      3172 4.97850E+01 1.05013E+01 0.00000E+00
 -1      3173 4.82850E+01 1.05013E+01 0.00000E+00
 -1      3174 4.75350E+01 1.18003E+01 0.00000E+00
 -1      3175 5.27850E+01 1.05013E+01 0.00000E+00
 -1      3176 5.12850E+01 1.05013E+01 0.00000E+00
 -1      3177 5.05350E+01 1.18003E+01 0.00000E+00
 -1      3178 5.57850E+01 1.05013E+01 0.00000E+00
 -1      3179 5.42850E+01 1.05013E+01 0.00000E+00
 -1      3180 5.35350E+01 1.18003E+01 0.00000E+00
 -1      3181 5.87850E+01 1.05013E+01 0.00000E+00
 -1      3182 5.72850E+01 1.05013E+01 0.00000E+00
 -1      3183 5.65350E+01 1.18003E+01 0.00000E+00
 -1      3184 6.17850E+01 1.05013E+01 0.00000E+00
 -1      3185 6.02850E+01 1.05013E+01 0.00000E+00
 -1      3186 5.95350E+01 1.18003E+01 0.00000E+00
 -1      3187 6.47850E+01 1.05013E+01 0.00000E+00
 -1      3188 6.32850E+01 1.05013E+01 0.00000E+00
 -1      3189 6.25350E+01 1.18003E+01 0.00000E+00
 -1      3190 6.77850E+01 1.05013E+01 0.00000E+00
 -1      3191 6.62850E+01 1.05013E+01 0.00000E+00
 -1      3192 6.55350E+01 1.18003E+01 0.00000E+00
 -1      3193 7.07850E+01 1.05013E+01 0.00000E+00
 -1      3194 6.92850E+01 1.05013E+01 0.00000E+00
 -1      3195 6.85350E+01 1.18003E+01 0.00000E+00
 -1      3196 7.37850E+01 1.05013E+01 0.00000E+00
 -1      3197 7.22850E+01 1.05013E+01 0.00000E+00
 -1      3198 7.15350E+01 1.18003E+01 0.00000E+00
 -1      3199 7.67850E+01 1.05013E+01 0.00000E+00
 -1      3200 7.52850E+01 1.05013E+01 0.00000E+00
 -1      3201 7.45350E+01 1.18003E+01 0.00000E+00
 -1      3202 7.97850E+01 1.05013E+01 0.00000E+00
 -1      3203 7.82850E+01 1.05013E+01 0.00000E+00
 -1      3204 7.75350E+01 1.18003E+01 0.00000E+00
 -1      3205 8.27850E+01 1.05013E+01 0.00000E+00
 -1      3206 8.12850E+01 1.05013E+01 0.00000E+00
 -1      3207 8.05350E+01 1.18003E+01 0.00000E+00
 -1      3208 8.57850E+01 1.05013E+01 0.00000E+00
 -1      3209 8.42850E+01 1.05013E+01 0.00000E+00
 -1      3210 8.35350E+01 1.18003E+01 0.00000E+00
 -1      3211 8.87850E+01 1.05013E+01 0.00000E+00
 -1      3212 8.72850E+01 1.05013E+01 0.00000E+00
 -1      3213 8.65350E+01 1.18003E+01 0.00000E+00
 -1      3214 9.17850E+01 1.05013E+01 0.00000E+00
 -1      3215 9.02850E+01 1.05013E+01 0.00000E+00
 -1      3216 8.95350E+01 1.18003E+01 0.00000E+00
 -1      3217 9.47850E+01 1.05013E+01 0.00000E+00
 -1      3218 9.32850E+01 1.05013E+01 0.00000E+00
 -1      3219 9.25350E+01 1.18003E+01 0.00000E+00
 -1      3220 9.77850E+01 1.05013E+01 0.00000E+00
 -1      3221 9.62850E+01 1.05013E+01 0.00000E+00
 -1      3222 9.55350E+01 1.18003E+01 0.00000E+00
 -1      3223 1.00785E+02 1.05013E+01 0.00000E+00
 -1      3224 9.92850E+01 1.05013E+01 0.00000E+00
 -1      3225 9.85350E+01 1.18003E+01 0.00000E+00
 -1      3226 1.03785E+02 1.05013E+01 0.00000E+00
 -1      3227 1.02285E+02 1.05013E+01 0.00000E+00
 -1      3228 1.01535E+02 1.18003E+01 0.00000E+00
 -1      3229 1.06785E+02 1.05013E+01 0.00000E+00
 -1      3230 1.05285E+02 1.05013E+01 0.00000E+00
 -1      3231 1.04535E+02 1.18003E+01 0.00000E+00
 -1      3232 1.09785E+02 1.05013E+01 0.00000E+00
 -1      3233 1.08285E+02 1.05013E+01 0.00000E+00
 -1      3234 1.07535E+02 1.18003E+01 0.00000E+00
 -1      3235 1.12785E+02 1.05013E+01 0.00000E+00
 -1      3236 1.11285E+02 1.05013E+01 0.00000E+00
 -1      3237 1.10535E+02 1.18003E+01 0.00000E+00
 -1      3238 1.15785E+02 1.05013E+01 0.00000E+00
 -1      3239 1.14285E+02 1.05013E+01 0.00000E+00
 -1      3240 1.13535E+02 1.18003E+01 0.00000E+00
 -1      3241 1.18785E+02 1.05013E+01 0.00000E+00
 -1      3242 1.17285E+02 1.05013E+01 0.00000E+00
 -1      3243 1.16535E+02 1.18003E+01 0.00000E+00
 -1      3244 1.21785E+02 1.05013E+01 0.00000E+00
 -1      3245 1.20285E+02 1.05013E+01 0.00000E+00
 -1      3246 1.19535E+02 1.18003E+01 0.00000E+00
 -1      3247 1.24785E+02 1.05013E+01 0.00000E+00
 -1      3248 1.23285E+02 1.05013E+01 0.00000E+00
 -1      3249 1.22535E+02 1.18003E+01 0.00000E+00
 -1      3250 1.27785E+02 1.05013E+01 0.00000E+00
 -1      3251 1.26285E+02 1.05013E+01 0.00000E+00
 -1      3252 1.25535E+02 1.18003E+01 0.00000E+00
 -1      3253 1.30785E+02 1.05013E+01 0.00000E+00
 -1      3254 1.29285E+02 1.05013E+01 0.00000E+00
 -1      3255 1.28535E+02 1.18003E+01 0.00000E+00
 -1      3256 1.33785E+02 1.05013E+01 0.00000E+00
 -1      3257 1.32285E+02 1.05013E+01 0.00000E+00
 -1      3258 1.31535E+02 1.18003E+01 0.00000E+00
 -1      3259 1.38309E+02 2.86750E+01 0.00000E+00
 -1      3260 1.38309E+02 2.72250E+01 0.00000E+00
 -1      3261 1.38309E+02 2.57500E+01 0.00000E+00
 -1      3262 1.38309E+02 2.42750E+01 0.00000E+00
 -1      3263 1.37010E+02 2.64750E+01 0.00000E+00
 -1      3264 3.25381E+01 1.55910E+01 0.00000E+00
 -1      3265 3.33715E+01 1.59959E+01 0.00000E+00
 -1      3266 1.31741E+01 2.82422E+01 0.00000E+00
 -1      3267 1.32236E+01 2.71405E+01 0.00000E+00
 -1      3268 1.97850E+01 1.05013E+01 0.00000E+00
 -1      3269 1.82850E+01 1.05013E+01 0.00000E+00
 -1      3270 2.05350E+01 1.18003E+01 0.00000E+00
 -1      3271 4.03477E+01 2.30713E+01 0.00000E+00
 -1      3272 4.07213E+01 2.40385E+01 0.00000E+00
 -1      3273 4.12677E+01 2.20303E+01 0.00000E+00
 -1      3274 1.16234E+01 1.83500E+01 0.00000E+00
 -1      3275 1.16009E+01 1.98125E+01 0.00000E+00
 -1      3276 1.29224E+01 1.76125E+01 0.00000E+00
 -1      3277 1.89418E+01 3.91261E+01 0.00000E+00
 -1      3278 1.38309E+02 3.16250E+01 0.00000E+00
 -1      3279 1.38309E+02 3.01500E+01 0.00000E+00
 -1      3280 1.37010E+02 2.94250E+01 0.00000E+00
 -1      3281 1.38309E+02 3.45750E+01 0.00000E+00
 -1      3282 1.38309E+02 3.31000E+01 0.00000E+00
 -1      3283 1.37010E+02 3.23750E+01 0.00000E+00
 -1      3284 3.77850E+01 1.05013E+01 0.00000E+00
 -1      3285 3.62850E+01 1.05013E+01 0.00000E+00
 -1      3286 3.55350E+01 1.18003E+01 0.00000E+00
 -1      3287 3.85350E+01 1.18003E+01 0.00000E+00
 -1      3288 1.66182E+01 3.69556E+01 0.00000E+00
 -1      3289 1.57229E+01 3.57257E+01 0.00000E+00
 -1      3290 2.05986E+01 1.62182E+01 0.00000E+00
 -1      3291 2.17863E+01 1.55376E+01 0.00000E+00
 -1      3292 3.81508E+01 3.79856E+01 0.00000E+00
 -1      3293 1.39407E+02 1.25250E+01 0.00000E+00
 -1      3294 4.05253E+01 3.25075E+01 0.00000E+00
 -1      3295 4.00161E+01 3.36088E+01 0.00000E+00
 -1      3296 1.49748E+01 3.39718E+01 0.00000E+00
 -1      3297 1.47382E+01 3.25615E+01 0.00000E+00
 -1      3298 1.52459E+01 3.82760E+01 0.00000E+00
 -1      3299 1.67459E+01 3.82760E+01 0.00000E+00
 -1      3300 1.80223E+01 3.82876E+01 0.00000E+00
 -1      3301 3.47922E+01 1.65785E+01 0.00000E+00
 -1      3302 3.62128E+01 1.71612E+01 0.00000E+00
 -1      3303 3.47868E+01 1.55294E+01 0.00000E+00
 -1      3304 1.00862E+01 3.73269E+01 0.00000E+00
 -1      3305 1.26651E+01 2.14016E+01 0.00000E+00
 -1      3306 1.26651E+01 2.28766E+01 0.00000E+00
 -1      3307 3.76027E+01 1.79733E+01 0.00000E+00
 -1      3308 3.85880E+01 1.90830E+01 0.00000E+00
 -1      3309 2.69467E+01 1.41432E+01 0.00000E+00
 -1      3310 2.83778E+01 1.46034E+01 0.00000E+00
 -1      3311 1.26375E+01 1.02017E+01 0.00000E+00
 -1      3312 1.20435E+01 1.14631E+01 0.00000E+00
 -1      3313 1.33425E+01 1.22006E+01 0.00000E+00
 -1      3314 1.41375E+01 1.02017E+01 0.00000E+00
 -1      3315 1.19501E+01 2.42490E+01 0.00000E+00
 -1      3316 1.19614E+01 2.57240E+01 0.00000E+00
 -1      3317 1.56044E+01 2.08611E+01 0.00000E+00
 -1      3318 1.71376E+01 1.82469E+01 0.00000E+00
 -1      3319 1.37666E+01 3.19266E+01 0.00000E+00
 -1      3320 4.01520E+01 3.46815E+01 0.00000E+00
 -1      3321 3.75973E+01 1.69242E+01 0.00000E+00
 -1      3322 1.39035E+01 3.82218E+01 0.00000E+00
 -1      3323 4.21632E+01 2.37915E+01 0.00000E+00
 -1      3324 4.12432E+01 2.48326E+01 0.00000E+00
 -1      3325 4.17651E+01 2.56266E+01 0.00000E+00
 -1      3326 1.14286E+01 3.73811E+01 0.00000E+00
 -1      3327 1.45936E+01 3.51901E+01 0.00000E+00
 -1      3328 2.95184E+01 1.25590E+01 0.00000E+00
 -1      3329 2.87684E+01 1.12600E+01 0.00000E+00
 -1      3330 1.34953E+02 1.07819E+01 0.00000E+00
 -1      3331 1.34203E+02 1.20809E+01 0.00000E+00
 -1      3332 1.36120E+02 1.10626E+01 0.00000E+00
 -1      3333 1.38309E+02 1.69188E+01 0.00000E+00
 -1      3334 1.38309E+02 1.54563E+01 0.00000E+00
 -1      3335 1.38309E+02 1.98687E+01 0.00000E+00
 -1      3336 1.38309E+02 1.83937E+01 0.00000E+00
 -1      3337 1.37010E+02 1.76625E+01 0.00000E+00
 -1      3338 2.52989E+01 1.15668E+01 0.00000E+00
 -1      3339 2.37989E+01 1.15668E+01 0.00000E+00
 -1      3340 3.19284E+01 1.48398E+01 0.00000E+00
 -1      3341 1.38309E+02 2.28094E+01 0.00000E+00
 -1      3342 1.38309E+02 2.13344E+01 0.00000E+00
 -1      3343 1.37010E+02 2.06031E+01 0.00000E+00
 -1      3344 1.37010E+02 2.35344E+01 0.00000E+00
 -1      3345 4.10818E+01 2.83065E+01 0.00000E+00
 -1      3346 4.18271E+01 2.90774E+01 0.00000E+00
 -1      3347 4.15904E+01 2.74386E+01 0.00000E+00
 -1      3348 2.23937E+01 1.44963E+01 0.00000E+00
 -1      3349 1.28866E+01 2.63217E+01 0.00000E+00
 -1      3350 1.94095E+01 1.60430E+01 0.00000E+00
 -1      3351 3.92024E+01 3.77765E+01 0.00000E+00
 -1      3352 2.72684E+01 1.12600E+01 0.00000E+00
 -1      3353 4.11838E+01 3.16817E+01 0.00000E+00
 -1      3354 4.17076E+01 3.25922E+01 0.00000E+00
 -1      3355 4.18423E+01 3.08559E+01 0.00000E+00
 -1      3356 1.69612E+01 1.03515E+01 0.00000E+00
 -1      3357 1.54612E+01 1.03515E+01 0.00000E+00
 -1      3358 1.50637E+01 1.13509E+01 0.00000E+00
 -1      3359 1.77112E+01 1.16505E+01 0.00000E+00
 -1      3360 2.92462E+01 1.40253E+01 0.00000E+00
 -1      3361 1.38274E+02 1.38503E+01 0.00000E+00
 -1      3362 1.38073E+02 1.16503E+01 0.00000E+00
 -1      3363 1.36905E+02 1.13696E+01 0.00000E+00
 -1      3364 1.36975E+02 1.45815E+01 0.00000E+00
 -1      3365 1.21187E+01 3.28806E+01 0.00000E+00
 -1      3366 1.21187E+01 3.43493E+01 0.00000E+00
 -1      3367 1.20230E+01 2.99023E+01 0.00000E+00
 -1      3368 1.20399E+01 3.13710E+01 0.00000E+00
 -1      3369 3.99407E+01 1.93997E+01 0.00000E+00
 -1      3370 1.37758E+02 3.64975E+01 0.00000E+00
 -1      3371 1.38123E+02 3.54205E+01 0.00000E+00
 -1      3372 1.36824E+02 3.46955E+01 0.00000E+00
 -1      3373 1.36451E+02 3.63865E+01 0.00000E+00
 -1      3374 1.39641E+01 2.06641E+01 0.00000E+00
 -1      3375 1.45403E+01 1.92720E+01 0.00000E+00
 -1      3376 1.42098E+01 1.78312E+01 0.00000E+00
 -1      3377 1.58502E+01 1.80282E+01 0.00000E+00
 -1      3378 1.68071E+01 1.68061E+01 0.00000E+00
 -1      3379 1.42324E+01 1.63687E+01 0.00000E+00
 -1      3380 1.43133E+01 2.36256E+01 0.00000E+00
 -1      3381 4.44000E+01 3.57110E+01 0.00000E+00
 -1      3382 4.59000E+01 3.57110E+01 0.00000E+00
 -1      3383 4.74000E+01 3.57110E+01 0.00000E+00
 -1      3384 4.89000E+01 3.57110E+01 0.00000E+00
 -1      3385 4.66500E+01 3.44120E+01 0.00000E+00
 -1      3386 5.04000E+01 3.57110E+01 0.00000E+00
 -1      3387 5.19000E+01 3.57110E+01 0.00000E+00
 -1      3388 4.96500E+01 3.44120E+01 0.00000E+00
 -1      3389 5.34000E+01 3.57110E+01 0.00000E+00
 -1      3390 5.49000E+01 3.57110E+01 0.00000E+00
 -1      3391 5.26500E+01 3.44120E+01 0.00000E+00
 -1      3392 5.64000E+01 3.57110E+01 0.00000E+00
 -1      3393 5.79000E+01 3.57110E+01 0.00000E+00
 -1      3394 5.56500E+01 3.44120E+01 0.00000E+00
 -1      3395 5.94000E+01 3.57110E+01 0.00000E+00
 -1      3396 6.09000E+01 3.57110E+01 0.00000E+00
 -1      3397 5.86500E+01 3.44120E+01 0.00000E+00
 -1      3398 6.24000E+01 3.57110E+01 0.00000E+00
 -1      3399 6.39000E+01 3.57110E+01 0.00000E+00
 -1      3400 6.16500E+01 3.44120E+01 0.00000E+00
 -1      3401 6.54000E+01 3.57110E+01 0.00000E+00
 -1      3402 6.69000E+01 3.57110E+01 0.00000E+00
 -1      3403 6.46500E+01 3.44120E+01 0.00000E+00
 -1      3404 6.84000E+01 3.57110E+01 0.00000E+00
 -1      3405 6.99000E+01 3.57110E+01 0.00000E+00
 -1      3406 6.76500E+01 3.44120E+01 0.00000E+00
 -1      3407 7.14000E+01 3.57110E+01 0.00000E+00
 -1      3408 7.29000E+01 3.57110E+01 0.00000E+00
 -1      3409 7.06500E+01 3.44120E+01 0.00000E+00
 -1      3410 7.44000E+01 3.57110E+01 0.00000E+00
 -1      3411 7.59000E+01 3.57110E+01 0.00000E+00
 -1      3412 7.36500E+01 3.44120E+01 0.00000E+00
 -1      3413 7.74000E+01 3.57110E+01 0.00000E+00
 -1      3414 7.89000E+01 3.57110E+01 0.00000E+00
 -1      3415 7.66500E+01 3.44120E+01 0.00000E+00
 -1      3416 8.04000E+01 3.57110E+01 0.00000E+00
 -1      3417 8.19000E+01 3.57110E+01 0.00000E+00
 -1      3418 7.96500E+01 3.44120E+01 0.00000E+00
 -1      3419 8.34000E+01 3.57110E+01 0.00000E+00
 -1      3420 8.49000E+01 3.57110E+01 0.00000E+00
 -1      3421 8.26500E+01 3.44120E+01 0.00000E+00
 -1      3422 8.64000E+01 3.57110E+01 0.00000E+00
 -1      3423 8.79000E+01 3.57110E+01 0.00000E+00
 -1      3424 8.56500E+01 3.44120E+01 0.00000E+00
 -1      3425 8.94000E+01 3.57110E+01 0.00000E+00
 -1      3426 9.09000E+01 3.57110E+01 0.00000E+00
 -1      3427 8.86500E+01 3.44120E+01 0.00000E+00
 -1      3428 9.24000E+01 3.57110E+01 0.00000E+00
 -1      3429 9.39000E+01 3.57110E+01 0.00000E+00
 -1      3430 9.16500E+01 3.44120E+01 0.00000E+00
 -1      3431 9.54000E+01 3.57110E+01 0.00000E+00
 -1      3432 9.69000E+01 3.57110E+01 0.00000E+00
 -1      3433 9.46500E+01 3.44120E+01 0.00000E+00
 -1      3434 9.84000E+01 3.57110E+01 0.00000E+00
 -1      3435 9.99000E+01 3.57110E+01 0.00000E+00
 -1      3436 9.76500E+01 3.44120E+01 0.00000E+00
 -1      3437 1.01400E+02 3.57110E+01 0.00000E+00
 -1      3438 1.02900E+02 3.57110E+01 0.00000E+00
 -1      3439 1.00650E+02 3.44120E+01 0.00000E+00
 -1      3440 1.04400E+02 3.57110E+01 0.00000E+00
 -1      3441 1.05900E+02 3.57110E+01 0.00000E+00
 -1      3442 1.03650E+02 3.44120E+01 0.00000E+00
 -1      3443 1.07400E+02 3.57110E+01 0.00000E+00
 -1      3444 1.08900E+02 3.57110E+01 0.00000E+00
 -1      3445 1.06650E+02 3.44120E+01 0.00000E+00
 -1      3446 1.10400E+02 3.57110E+01 0.00000E+00
 -1      3447 1.11900E+02 3.57110E+01 0.00000E+00
 -1      3448 1.09650E+02 3.44120E+01 0.00000E+00
 -1      3449 1.13400E+02 3.57110E+01 0.00000E+00
 -1      3450 1.14900E+02 3.57110E+01 0.00000E+00
 -1      3451 1.12650E+02 3.44120E+01 0.00000E+00
 -1      3452 1.16400E+02 3.57110E+01 0.00000E+00
 -1      3453 1.17900E+02 3.57110E+01 0.00000E+00
 -1      3454 1.15650E+02 3.44120E+01 0.00000E+00
 -1      3455 1.19400E+02 3.57110E+01 0.00000E+00
 -1      3456 1.20900E+02 3.57110E+01 0.00000E+00
 -1      3457 1.18650E+02 3.44120E+01 0.00000E+00
 -1      3458 1.22400E+02 3.57110E+01 0.00000E+00
 -1      3459 1.23900E+02 3.57110E+01 0.00000E+00
 -1      3460 1.21650E+02 3.44120E+01 0.00000E+00
 -1      3461 1.25400E+02 3.57110E+01 0.00000E+00
 -1      3462 1.26900E+02 3.57110E+01 0.00000E+00
 -1      3463 1.24650E+02 3.44120E+01 0.00000E+00
 -1      3464 1.28400E+02 3.57110E+01 0.00000E+00
 -1      3465 1.29900E+02 3.57110E+01 0.00000E+00
 -1      3466 1.27650E+02 3.44120E+01 0.00000E+00
 -1      3467 1.31400E+02 3.57110E+01 0.00000E+00
 -1      3468 1.32900E+02 3.57110E+01 0.00000E+00
 -1      3469 1.30650E+02 3.44120E+01 0.00000E+00
 -1      3470 3.07628E+01 1.32666E+01 0.00000E+00
 -1      3471 4.52850E+01 1.30992E+01 0.00000E+00
 -1      3472 4.37850E+01 1.30992E+01 0.00000E+00
 -1      3473 4.22850E+01 1.30992E+01 0.00000E+00
 -1      3474 4.07850E+01 1.30992E+01 0.00000E+00
 -1      3475 4.30350E+01 1.43982E+01 0.00000E+00
 -1      3476 5.12850E+01 1.30992E+01 0.00000E+00
 -1      3477 4.97850E+01 1.30992E+01 0.00000E+00
 -1      3478 5.42850E+01 1.30992E+01 0.00000E+00
 -1      3479 5.27850E+01 1.30992E+01 0.00000E+00
 -1      3480 5.20350E+01 1.43982E+01 0.00000E+00
 -1      3481 5.72850E+01 1.30992E+01 0.00000E+00
 -1      3482 5.57850E+01 1.30992E+01 0.00000E+00
 -1      3483 5.50350E+01 1.43982E+01 0.00000E+00
 -1      3484 6.02850E+01 1.30992E+01 0.00000E+00
 -1      3485 5.87850E+01 1.30992E+01 0.00000E+00
 -1      3486 5.80350E+01 1.43982E+01 0.00000E+00
 -1      3487 6.32850E+01 1.30992E+01 0.00000E+00
 -1      3488 6.17850E+01 1.30992E+01 0.00000E+00
 -1      3489 6.10350E+01 1.43982E+01 0.00000E+00
 -1      3490 6.62850E+01 1.30992E+01 0.00000E+00
 -1      3491 6.47850E+01 1.30992E+01 0.00000E+00
 -1      3492 6.40350E+01 1.43982E+01 0.00000E+00
 -1      3493 6.92850E+01 1.30992E+01 0.00000E+00
 -1      3494 6.77850E+01 1.30992E+01 0.00000E+00
 -1      3495 6.70350E+01 1.43982E+01 0.00000E+00
 -1      3496 7.22850E+01 1.30992E+01 0.00000E+00
 -1      3497 7.07850E+01 1.30992E+01 0.00000E+00
 -1      3498 7.00350E+01 1.43982E+01 0.00000E+00
 -1      3499 7.52850E+01 1.30992E+01 0.00000E+00
 -1      3500 7.37850E+01 1.30992E+01 0.00000E+00
 -1      3501 7.30350E+01 1.43982E+01 0.00000E+00
 -1      3502 7.82850E+01 1.30992E+01 0.00000E+00
 -1      3503 7.67850E+01 1.30992E+01 0.00000E+00
 -1      3504 7.60350E+01 1.43982E+01 0.00000E+00
 -1      3505 8.12850E+01 1.30992E+01 0.00000E+00
 -1      3506 7.97850E+01 1.30992E+01 0.00000E+00
 -1      3507 7.90350E+01 1.43982E+01 0.00000E+00
 -1      3508 8.42850E+01 1.30992E+01 0.00000E+00
 -1      3509 8.27850E+01 1.30992E+01 0.00000E+00
 -1      3510 8.20350E+01 1.43982E+01 0.00000E+00
 -1      3511 8.72850E+01 1.30992E+01 0.00000E+00
 -1      3512 8.57850E+01 1.30992E+01 0.00000E+00
 -1      3513 8.50350E+01 1.43982E+01 0.00000E+00
 -1      3514 9.02850E+01 1.30992E+01 0.00000E+00
 -1      3515 8.87850E+01 1.30992E+01 0.00000E+00
 -1      3516 8.80350E+01 1.43982E+01 0.00000E+00
 -1      3517 9.32850E+01 1.30992E+01 0.00000E+00
 -1      3518 9.17850E+01 1.30992E+01 0.00000E+00
 -1      3519 9.10350E+01 1.43982E+01 0.00000E+00
 -1      3520 9.62850E+01 1.30992E+01 0.00000E+00
 -1      3521 9.47850E+01 1.30992E+01 0.00000E+00
 -1      3522 9.40350E+01 1.43982E+01 0.00000E+00
 -1      3523 9.92850E+01 1.30992E+01 0.00000E+00
 -1      3524 9.77850E+01 1.30992E+01 0.00000E+00
 -1      3525 9.70350E+01 1.43982E+01 0.00000E+00
 -1      3526 1.02285E+02 1.30992E+01 0.00000E+00
 -1      3527 1.00785E+02 1.30992E+01 0.00000E+00
 -1      3528 1.00035E+02 1.43982E+01 0.00000E+00
 -1      3529 1.05285E+02 1.30992E+01 0.00000E+00
 -1      3530 1.03785E+02 1.30992E+01 0.00000E+00
 -1      3531 1.03035E+02 1.43982E+01 0.00000E+00
 -1      3532 1.08285E+02 1.30992E+01 0.00000E+00
 -1      3533 1.06785E+02 1.30992E+01 0.00000E+00
 -1      3534 1.06035E+02 1.43982E+01 0.00000E+00
 -1      3535 1.11285E+02 1.30992E+01 0.00000E+00
 -1      3536 1.09785E+02 1.30992E+01 0.00000E+00
 -1      3537 1.09035E+02 1.43982E+01 0.00000E+00
 -1      3538 1.14285E+02 1.30992E+01 0.00000E+00
 -1      3539 1.12785E+02 1.30992E+01 0.00000E+00
 -1      3540 1.12035E+02 1.43982E+01 0.00000E+00
 -1      3541 1.17285E+02 1.30992E+01 0.00000E+00
 -1      3542 1.15785E+02 1.30992E+01 0.00000E+00
 -1      3543 1.15035E+02 1.43982E+01 0.00000E+00
 -1      3544 1.20285E+02 1.30992E+01 0.00000E+00
 -1      3545 1.18785E+02 1.30992E+01 0.00000E+00
 -1      3546 1.18035E+02 1.43982E+01 0.00000E+00
 -1      3547 1.23285E+02 1.30992E+01 0.00000E+00
 -1      3548 1.21785E+02 1.30992E+01 0.00000E+00
 -1      3549 1.21035E+02 1.43982E+01 0.00000E+00
 -1      3550 1.26285E+02 1.30992E+01 0.00000E+00
 -1      3551 1.24785E+02 1.30992E+01 0.00000E+00
 -1      3552 1.24035E+02 1.43982E+01 0.00000E+00
 -1      3553 1.29285E+02 1.30992E+01 0.00000E+00
 -1      3554 1.27785E+02 1.30992E+01 0.00000E+00
 -1      3555 1.27035E+02 1.43982E+01 0.00000E+00
 -1      3556 1.32285E+02 1.30992E+01 0.00000E+00
 -1      3557 1.30785E+02 1.30992E+01 0.00000E+00
 -1      3558 1.30035E+02 1.43982E+01 0.00000E+00
 -1      3559 1.28669E+01 3.61033E+01 0.00000E+00
 -1      3560 2.30489E+01 1.28658E+01 0.00000E+00
 -1      3561 1.35711E+02 3.31125E+01 0.00000E+00
 -1      3562 1.35711E+02 3.16375E+01 0.00000E+00
 -1      3563 2.13797E+01 1.34307E+01 0.00000E+00
 -1      3564 4.22927E+01 2.10786E+01 0.00000E+00
 -1      3565 4.26663E+01 2.20458E+01 0.00000E+00
 -1      3566 1.98797E+01 1.34307E+01 0.00000E+00
 -1      3567 1.22658E+01 2.91133E+01 0.00000E+00
 -1      3568 1.12665E+01 2.85164E+01 0.00000E+00
 -1      3569 3.75463E+01 1.54160E+01 0.00000E+00
 -1      3570 3.89362E+01 1.62281E+01 0.00000E+00
 -1      3571 1.35711E+02 2.72125E+01 0.00000E+00
 -1      3572 1.35711E+02 2.57375E+01 0.00000E+00
 -1      3573 1.76860E+01 1.56093E+01 0.00000E+00
 -1      3574 1.90009E+01 1.46275E+01 0.00000E+00
 -1      3575 1.81562E+01 1.29970E+01 0.00000E+00
 -1      3576 1.63986E+01 1.53906E+01 0.00000E+00
 -1      3577 1.12496E+01 2.70477E+01 0.00000E+00
 -1      3578 4.82850E+01 1.30992E+01 0.00000E+00
 -1      3579 4.67850E+01 1.30992E+01 0.00000E+00
 -1      3580 4.60350E+01 1.43982E+01 0.00000E+00
 -1      3581 4.90350E+01 1.43982E+01 0.00000E+00
 -1      3582 3.37006E+01 1.33735E+01 0.00000E+00
 -1      3583 3.22006E+01 1.33735E+01 0.00000E+00
 -1      3584 3.53281E+01 1.28782E+01 0.00000E+00
 -1      3585 3.49937E+01 1.44514E+01 0.00000E+00
 -1      3586 3.64143E+01 1.50341E+01 0.00000E+00
 -1      3587 3.68281E+01 1.28782E+01 0.00000E+00
 -1      3588 3.99524E+01 3.64775E+01 0.00000E+00
 -1      3589 4.05910E+01 1.79220E+01 0.00000E+00
 -1      3590 4.15444E+01 1.95854E+01 0.00000E+00
 -1      3591 1.35711E+02 3.01625E+01 0.00000E+00
 -1      3592 1.35711E+02 2.86875E+01 0.00000E+00
 -1      3593 1.34412E+02 2.79500E+01 0.00000E+00
 -1      3594 1.34412E+02 3.09000E+01 0.00000E+00
 -1      3595 1.37874E+01 1.35471E+01 0.00000E+00
 -1      3596 1.37874E+01 1.50221E+01 0.00000E+00
 -1      3597 1.50748E+01 1.52408E+01 0.00000E+00
 -1      3598 1.41849E+01 1.25477E+01 0.00000E+00
 -1      3599 4.23495E+01 3.52140E+01 0.00000E+00
 -1      3600 4.30995E+01 3.39150E+01 0.00000E+00
 -1      3601 4.31882E+01 2.28399E+01 0.00000E+00
 -1      3602 4.37101E+01 2.36339E+01 0.00000E+00
 -1      3603 4.42132E+01 2.18883E+01 0.00000E+00
 -1      3604 4.25104E+01 2.63975E+01 0.00000E+00
 -1      3605 4.32556E+01 2.71684E+01 0.00000E+00
 -1      3606 4.34304E+01 2.53565E+01 0.00000E+00
 -1      3607 1.34022E+02 3.59933E+01 0.00000E+00
 -1      3608 1.35329E+02 3.61043E+01 0.00000E+00
 -1      3609 1.35515E+02 3.52588E+01 0.00000E+00
 -1      3610 1.33272E+02 3.46942E+01 0.00000E+00
 -1      3611 1.36155E+02 1.26686E+01 0.00000E+00
 -1      3612 1.34620E+02 1.36606E+01 0.00000E+00
 -1      3613 1.33453E+02 1.33799E+01 0.00000E+00
 -1      3614 1.32703E+02 1.46789E+01 0.00000E+00
 -1      3615 4.02101E+01 1.45591E+01 0.00000E+00
 -1      3616 3.94601E+01 1.32601E+01 0.00000E+00
 -1      3617 4.29430E+01 1.96009E+01 0.00000E+00
 -1      3618 3.79601E+01 1.32601E+01 0.00000E+00
 -1      3619 1.35711E+02 1.84000E+01 0.00000E+00
 -1      3620 1.35711E+02 1.69250E+01 0.00000E+00
 -1      3621 2.60323E+01 1.36245E+01 0.00000E+00
 -1      3622 4.28594E+01 2.91201E+01 0.00000E+00
 -1      3623 4.23508E+01 2.99880E+01 0.00000E+00
 -1      3624 4.28746E+01 3.08985E+01 0.00000E+00
 -1      3625 1.35711E+02 2.42719E+01 0.00000E+00
 -1      3626 1.35711E+02 2.28062E+01 0.00000E+00
 -1      3627 1.34412E+02 2.50094E+01 0.00000E+00
 -1      3628 4.02611E+01 1.60673E+01 0.00000E+00
 -1      3629 1.68324E+01 1.28473E+01 0.00000E+00
 -1      3630 1.34141E+02 1.63111E+01 0.00000E+00
 -1      3631 1.35440E+02 1.55736E+01 0.00000E+00
 -1      3632 4.08495E+01 3.52140E+01 0.00000E+00
 -1      3633 4.18648E+01 1.62530E+01 0.00000E+00
 -1      3634 1.35702E+02 3.44132E+01 0.00000E+00
 -1      3635 1.34403E+02 3.36758E+01 0.00000E+00
 -1      3636 5.87850E+01 1.56973E+01 0.00000E+00
 -1      3637 5.72850E+01 1.56973E+01 0.00000E+00
 -1      3638 1.33281E+02 3.33935E+01 0.00000E+00
 -1      3639 4.89000E+01 3.31130E+01 0.00000E+00
 -1      3640 5.04000E+01 3.31130E+01 0.00000E+00
 -1      3641 5.19000E+01 3.31130E+01 0.00000E+00
 -1      3642 5.34000E+01 3.31130E+01 0.00000E+00
 -1      3643 5.11500E+01 3.18140E+01 0.00000E+00
 -1      3644 5.49000E+01 3.31130E+01 0.00000E+00
 -1      3645 5.64000E+01 3.31130E+01 0.00000E+00
 -1      3646 5.41500E+01 3.18140E+01 0.00000E+00
 -1      3647 5.79000E+01 3.31130E+01 0.00000E+00
 -1      3648 5.94000E+01 3.31130E+01 0.00000E+00
 -1      3649 5.71500E+01 3.18140E+01 0.00000E+00
 -1      3650 6.09000E+01 3.31130E+01 0.00000E+00
 -1      3651 6.24000E+01 3.31130E+01 0.00000E+00
 -1      3652 6.01500E+01 3.18140E+01 0.00000E+00
 -1      3653 6.39000E+01 3.31130E+01 0.00000E+00
 -1      3654 6.54000E+01 3.31130E+01 0.00000E+00
 -1      3655 6.31500E+01 3.18140E+01 0.00000E+00
 -1      3656 6.69000E+01 3.31130E+01 0.00000E+00
 -1      3657 6.84000E+01 3.31130E+01 0.00000E+00
 -1      3658 6.61500E+01 3.18140E+01 0.00000E+00
 -1      3659 6.99000E+01 3.31130E+01 0.00000E+00
 -1      3660 7.14000E+01 3.31130E+01 0.00000E+00
 -1      3661 6.91500E+01 3.18140E+01 0.00000E+00
 -1      3662 7.29000E+01 3.31130E+01 0.00000E+00
 -1      3663 7.44000E+01 3.31130E+01 0.00000E+00
 -1      3664 7.21500E+01 3.18140E+01 0.00000E+00
 -1      3665 7.59000E+01 3.31130E+01 0.00000E+00
 -1      3666 7.74000E+01 3.31130E+01 0.00000E+00
 -1      3667 7.51500E+01 3.18140E+01 0.00000E+00
 -1      3668 7.89000E+01 3.31130E+01 0.00000E+00
 -1      3669 8.04000E+01 3.31130E+01 0.00000E+00
 -1      3670 7.81500E+01 3.18140E+01 0.00000E+00
 -1      3671 8.19000E+01 3.31130E+01 0.00000E+00
 -1      3672 8.34000E+01 3.31130E+01 0.00000E+00
 -1      3673 8.11500E+01 3.18140E+01 0.00000E+00
 -1      3674 8.49000E+01 3.31130E+01 0.00000E+00
 -1      3675 8.64000E+01 3.31130E+01 0.00000E+00
 -1      3676 8.41500E+01 3.18140E+01 0.00000E+00
 -1      3677 8.79000E+01 3.31130E+01 0.00000E+00
 -1      3678 8.94000E+01 3.31130E+01 0.00000E+00
 -1      3679 8.71500E+01 3.18140E+01 0.00000E+00
 -1      3680 9.09000E+01 3.31130E+01 0.00000E+00
 -1      3681 9.24000E+01 3.31130E+01 0.00000E+00
 -1      3682 9.01500E+01 3.18140E+01 0.00000E+00
 -1      3683 9.39000E+01 3.31130E+01 0.00000E+00
 -1      3684 9.54000E+01 3.31130E+01 0.00000E+00
 -1      3685 9.31500E+01 3.18140E+01 0.00000E+00
 -1      3686 9.69000E+01 3.31130E+01 0.00000E+00
 -1      3687 9.84000E+01 3.31130E+01 0.00000E+00
 -1      3688 9.61500E+01 3.18140E+01 0.00000E+00
 -1      3689 9.99000E+01 3.31130E+01 0.00000E+00
 -1      3690 1.01400E+02 3.31130E+01 0.00000E+00
 -1      3691 9.91500E+01 3.18140E+01 0.00000E+00
 -1      3692 1.02900E+02 3.31130E+01 0.00000E+00
 -1      3693 1.04400E+02 3.31130E+01 0.00000E+00
 -1      3694 1.02150E+02 3.18140E+01 0.00000E+00
 -1      3695 1.05900E+02 3.31130E+01 0.00000E+00
 -1      3696 1.07400E+02 3.31130E+01 0.00000E+00
 -1      3697 1.05150E+02 3.18140E+01 0.00000E+00
 -1      3698 1.08900E+02 3.31130E+01 0.00000E+00
 -1      3699 1.10400E+02 3.31130E+01 0.00000E+00
 -1      3700 1.08150E+02 3.18140E+01 0.00000E+00
 -1      3701 1.11900E+02 3.31130E+01 0.00000E+00
 -1      3702 1.13400E+02 3.31130E+01 0.00000E+00
 -1      3703 1.11150E+02 3.18140E+01 0.00000E+00
 -1      3704 1.14900E+02 3.31130E+01 0.00000E+00
 -1      3705 1.16400E+02 3.31130E+01 0.00000E+00
 -1      3706 1.14150E+02 3.18140E+01 0.00000E+00
 -1      3707 1.17900E+02 3.31130E+01 0.00000E+00
 -1      3708 1.19400E+02 3.31130E+01 0.00000E+00
 -1      3709 1.17150E+02 3.18140E+01 0.00000E+00
 -1      3710 1.20900E+02 3.31130E+01 0.00000E+00
 -1      3711 1.22400E+02 3.31130E+01 0.00000E+00
 -1      3712 1.20150E+02 3.18140E+01 0.00000E+00
 -1      3713 1.23900E+02 3.31130E+01 0.00000E+00
 -1      3714 1.25400E+02 3.31130E+01 0.00000E+00
 -1      3715 1.23150E+02 3.18140E+01 0.00000E+00
 -1      3716 1.26900E+02 3.31130E+01 0.00000E+00
 -1      3717 1.28400E+02 3.31130E+01 0.00000E+00
 -1      3718 1.26150E+02 3.18140E+01 0.00000E+00
 -1      3719 1.29900E+02 3.31130E+01 0.00000E+00
 -1      3720 1.31400E+02 3.31130E+01 0.00000E+00
 -1      3721 1.29150E+02 3.18140E+01 0.00000E+00
 -1      3722 4.33648E+01 1.62530E+01 0.00000E+00
 -1      3723 1.59536E+01 1.40440E+01 0.00000E+00
 -1      3724 1.55087E+01 1.26975E+01 0.00000E+00
 -1      3725 5.57850E+01 1.56973E+01 0.00000E+00
 -1      3726 5.42850E+01 1.56973E+01 0.00000E+00
 -1      3727 5.65350E+01 1.69963E+01 0.00000E+00
 -1      3728 5.27850E+01 1.56973E+01 0.00000E+00
 -1      3729 5.12850E+01 1.56973E+01 0.00000E+00
 -1      3730 5.35350E+01 1.69963E+01 0.00000E+00
 -1      3731 6.17850E+01 1.56973E+01 0.00000E+00
 -1      3732 6.02850E+01 1.56973E+01 0.00000E+00
 -1      3733 5.95350E+01 1.69963E+01 0.00000E+00
 -1      3734 6.47850E+01 1.56973E+01 0.00000E+00
 -1      3735 6.32850E+01 1.56973E+01 0.00000E+00
 -1      3736 6.25350E+01 1.69963E+01 0.00000E+00
 -1      3737 6.77850E+01 1.56973E+01 0.00000E+00
 -1      3738 6.62850E+01 1.56973E+01 0.00000E+00
 -1      3739 6.55350E+01 1.69963E+01 0.00000E+00
 -1      3740 7.07850E+01 1.56973E+01 0.00000E+00
 -1      3741 6.92850E+01 1.56973E+01 0.00000E+00
 -1      3742 6.85350E+01 1.69963E+01 0.00000E+00
 -1      3743 7.37850E+01 1.56973E+01 0.00000E+00
 -1      3744 7.22850E+01 1.56973E+01 0.00000E+00
 -1      3745 7.15350E+01 1.69963E+01 0.00000E+00
 -1      3746 7.67850E+01 1.56973E+01 0.00000E+00
 -1      3747 7.52850E+01 1.56973E+01 0.00000E+00
 -1      3748 7.45350E+01 1.69963E+01 0.00000E+00
 -1      3749 7.97850E+01 1.56973E+01 0.00000E+00
 -1      3750 7.82850E+01 1.56973E+01 0.00000E+00
 -1      3751 7.75350E+01 1.69963E+01 0.00000E+00
 -1      3752 8.27850E+01 1.56973E+01 0.00000E+00
 -1      3753 8.12850E+01 1.56973E+01 0.00000E+00
 -1      3754 8.05350E+01 1.69963E+01 0.00000E+00
 -1      3755 8.57850E+01 1.56973E+01 0.00000E+00
 -1      3756 8.42850E+01 1.56973E+01 0.00000E+00
 -1      3757 8.35350E+01 1.69963E+01 0.00000E+00
 -1      3758 8.87850E+01 1.56973E+01 0.00000E+00
 -1      3759 8.72850E+01 1.56973E+01 0.00000E+00
 -1      3760 8.65350E+01 1.69963E+01 0.00000E+00
 -1      3761 9.17850E+01 1.56973E+01 0.00000E+00
 -1      3762 9.02850E+01 1.56973E+01 0.00000E+00
 -1      3763 8.95350E+01 1.69963E+01 0.00000E+00
 -1      3764 9.47850E+01 1.56973E+01 0.00000E+00
 -1      3765 9.32850E+01 1.56973E+01 0.00000E+00
 -1      3766 9.25350E+01 1.69963E+01 0.00000E+00
 -1      3767 9.77850E+01 1.56973E+01 0.00000E+00
 -1      3768 9.62850E+01 1.56973E+01 0.00000E+00
 -1      3769 9.55350E+01 1.69963E+01 0.00000E+00
 -1      3770 1.00785E+02 1.56973E+01 0.00000E+00
 -1      3771 9.92850E+01 1.56973E+01 0.00000E+00
 -1      3772 9.85350E+01 1.69963E+01 0.00000E+00
 -1      3773 1.03785E+02 1.56973E+01 0.00000E+00
 -1      3774 1.02285E+02 1.56973E+01 0.00000E+00
 -1      3775 1.01535E+02 1.69963E+01 0.00000E+00
 -1      3776 1.06785E+02 1.56973E+01 0.00000E+00
 -1      3777 1.05285E+02 1.56973E+01 0.00000E+00
 -1      3778 1.04535E+02 1.69963E+01 0.00000E+00
 -1      3779 1.09785E+02 1.56973E+01 0.00000E+00
 -1      3780 1.08285E+02 1.56973E+01 0.00000E+00
 -1      3781 1.07535E+02 1.69963E+01 0.00000E+00
 -1      3782 1.12785E+02 1.56973E+01 0.00000E+00
 -1      3783 1.11285E+02 1.56973E+01 0.00000E+00
 -1      3784 1.10535E+02 1.69963E+01 0.00000E+00
 -1      3785 1.15785E+02 1.56973E+01 0.00000E+00
 -1      3786 1.14285E+02 1.56973E+01 0.00000E+00
 -1      3787 1.13535E+02 1.69963E+01 0.00000E+00
 -1      3788 1.18785E+02 1.56973E+01 0.00000E+00
 -1      3789 1.17285E+02 1.56973E+01 0.00000E+00
 -1      3790 1.16535E+02 1.69963E+01 0.00000E+00
 -1      3791 1.21785E+02 1.56973E+01 0.00000E+00
 -1      3792 1.20285E+02 1.56973E+01 0.00000E+00
 -1      3793 1.19535E+02 1.69963E+01 0.00000E+00
 -1      3794 1.24785E+02 1.56973E+01 0.00000E+00
 -1      3795 1.23285E+02 1.56973E+01 0.00000E+00
 -1      3796 1.22535E+02 1.69963E+01 0.00000E+00
 -1      3797 1.27785E+02 1.56973E+01 0.00000E+00
 -1      3798 1.26285E+02 1.56973E+01 0.00000E+00
 -1      3799 1.25535E+02 1.69963E+01 0.00000E+00
 -1      3800 1.30785E+02 1.56973E+01 0.00000E+00
 -1      3801 1.29285E+02 1.56973E+01 0.00000E+00
 -1      3802 1.28535E+02 1.69963E+01 0.00000E+00
 -1      3803 1.35711E+02 1.98656E+01 0.00000E+00
 -1      3804 1.34412E+02 1.91281E+01 0.00000E+00
 -1      3805 1.35711E+02 2.13312E+01 0.00000E+00
 -1      3806 3.77532E+01 1.43380E+01 0.00000E+00
 -1      3807 4.50741E+01 1.60722E+01 0.00000E+00
 -1      3808 4.39039E+01 1.79270E+01 0.00000E+00
 -1      3809 4.46522E+01 1.94202E+01 0.00000E+00
 -1      3810 4.65741E+01 1.60722E+01 0.00000E+00
 -1      3811 4.37580E+01 3.30892E+01 0.00000E+00
 -1      3812 1.35405E+02 1.39676E+01 0.00000E+00
 -1      3813 4.59000E+01 3.31130E+01 0.00000E+00
 -1      3814 4.74000E+01 3.31130E+01 0.00000E+00
 -1      3815 4.81500E+01 3.18140E+01 0.00000E+00
 -1      3816 1.33047E+02 1.61445E+01 0.00000E+00
 -1      3817 1.31879E+02 1.58638E+01 0.00000E+00
 -1      3818 1.31129E+02 1.71628E+01 0.00000E+00
 -1      3819 1.33318E+02 1.74959E+01 0.00000E+00
 -1      3820 1.32531E+02 3.20945E+01 0.00000E+00
 -1      3821 4.45080E+01 3.17902E+01 0.00000E+00
 -1      3822 4.44554E+01 2.44049E+01 0.00000E+00
 -1      3823 1.33318E+02 2.04272E+01 0.00000E+00
 -1      3824 1.33318E+02 1.89616E+01 0.00000E+00
 -1      3825 1.32223E+02 1.87950E+01 0.00000E+00
 -1      3826 1.34412E+02 2.20688E+01 0.00000E+00
 -1      3827 4.37794E+01 2.80790E+01 0.00000E+00
 -1      3828 4.43031E+01 2.89896E+01 0.00000E+00
 -1      3829 4.46994E+01 2.70379E+01 0.00000E+00
 -1      3830 1.33113E+02 2.57422E+01 0.00000E+00
 -1      3831 1.33113E+02 2.42766E+01 0.00000E+00
 -1      3832 1.32531E+02 3.06195E+01 0.00000E+00
 -1      3833 4.96795E+01 1.58847E+01 0.00000E+00
 -1      3834 4.81795E+01 1.58847E+01 0.00000E+00
 -1      3835 4.72186E+01 1.75587E+01 0.00000E+00
 -1      3836 5.04295E+01 1.71837E+01 0.00000E+00
 -1      3837 4.61963E+01 1.88865E+01 0.00000E+00
 -1      3838 4.52354E+01 2.05605E+01 0.00000E+00
 -1      3839 4.57573E+01 2.13546E+01 0.00000E+00
 -1      3840 4.78018E+01 1.86990E+01 0.00000E+00
 -1      3841 1.33113E+02 2.86922E+01 0.00000E+00
 -1      3842 1.33113E+02 2.72172E+01 0.00000E+00
 -1      3843 1.31814E+02 2.64844E+01 0.00000E+00
 -1      3844 4.50166E+01 3.09223E+01 0.00000E+00
 -1      3845 5.34000E+01 3.05150E+01 0.00000E+00
 -1      3846 5.49000E+01 3.05150E+01 0.00000E+00
 -1      3847 5.64000E+01 3.05150E+01 0.00000E+00
 -1      3848 5.79000E+01 3.05150E+01 0.00000E+00
 -1      3849 5.56500E+01 2.92160E+01 0.00000E+00
 -1      3850 5.94000E+01 3.05150E+01 0.00000E+00
 -1      3851 6.09000E+01 3.05150E+01 0.00000E+00
 -1      3852 5.86500E+01 2.92160E+01 0.00000E+00
 -1      3853 6.24000E+01 3.05150E+01 0.00000E+00
 -1      3854 6.39000E+01 3.05150E+01 0.00000E+00
 -1      3855 6.16500E+01 2.92160E+01 0.00000E+00
 -1      3856 6.54000E+01 3.05150E+01 0.00000E+00
 -1      3857 6.69000E+01 3.05150E+01 0.00000E+00
 -1      3858 6.46500E+01 2.92160E+01 0.00000E+00
 -1      3859 6.84000E+01 3.05150E+01 0.00000E+00
 -1      3860 6.99000E+01 3.05150E+01 0.00000E+00
 -1      3861 6.76500E+01 2.92160E+01 0.00000E+00
 -1      3862 7.14000E+01 3.05150E+01 0.00000E+00
 -1      3863 7.29000E+01 3.05150E+01 0.00000E+00
 -1      3864 7.06500E+01 2.92160E+01 0.00000E+00
 -1      3865 7.44000E+01 3.05150E+01 0.00000E+00
 -1      3866 7.59000E+01 3.05150E+01 0.00000E+00
 -1      3867 7.36500E+01 2.92160E+01 0.00000E+00
 -1      3868 7.74000E+01 3.05150E+01 0.00000E+00
 -1      3869 7.89000E+01 3.05150E+01 0.00000E+00
 -1      3870 7.66500E+01 2.92160E+01 0.00000E+00
 -1      3871 8.04000E+01 3.05150E+01 0.00000E+00
 -1      3872 8.19000E+01 3.05150E+01 0.00000E+00
 -1      3873 7.96500E+01 2.92160E+01 0.00000E+00
 -1      3874 8.34000E+01 3.05150E+01 0.00000E+00
 -1      3875 8.49000E+01 3.05150E+01 0.00000E+00
 -1      3876 8.26500E+01 2.92160E+01 0.00000E+00
 -1      3877 8.64000E+01 3.05150E+01 0.00000E+00
 -1      3878 8.79000E+01 3.05150E+01 0.00000E+00
 -1      3879 8.56500E+01 2.92160E+01 0.00000E+00
 -1      3880 8.94000E+01 3.05150E+01 0.00000E+00
 -1      3881 9.09000E+01 3.05150E+01 0.00000E+00
 -1      3882 8.86500E+01 2.92160E+01 0.00000E+00
 -1      3883 9.24000E+01 3.05150E+01 0.00000E+00
 -1      3884 9.39000E+01 3.05150E+01 0.00000E+00
 -1      3885 9.16500E+01 2.92160E+01 0.00000E+00
 -1      3886 9.54000E+01 3.05150E+01 0.00000E+00
 -1      3887 9.69000E+01 3.05150E+01 0.00000E+00
 -1      3888 9.46500E+01 2.92160E+01 0.00000E+00
 -1      3889 9.84000E+01 3.05150E+01 0.00000E+00
 -1      3890 9.99000E+01 3.05150E+01 0.00000E+00
 -1      3891 9.76500E+01 2.92160E+01 0.00000E+00
 -1      3892 1.01400E+02 3.05150E+01 0.00000E+00
 -1      3893 1.02900E+02 3.05150E+01 0.00000E+00
 -1      3894 1.00650E+02 2.92160E+01 0.00000E+00
 -1      3895 1.04400E+02 3.05150E+01 0.00000E+00
 -1      3896 1.05900E+02 3.05150E+01 0.00000E+00
 -1      3897 1.03650E+02 2.92160E+01 0.00000E+00
 -1      3898 1.07400E+02 3.05150E+01 0.00000E+00
 -1      3899 1.08900E+02 3.05150E+01 0.00000E+00
 -1      3900 1.06650E+02 2.92160E+01 0.00000E+00
 -1      3901 1.10400E+02 3.05150E+01 0.00000E+00
 -1      3902 1.11900E+02 3.05150E+01 0.00000E+00
 -1      3903 1.09650E+02 2.92160E+01 0.00000E+00
 -1      3904 1.13400E+02 3.05150E+01 0.00000E+00
 -1      3905 1.14900E+02 3.05150E+01 0.00000E+00
 -1      3906 1.12650E+02 2.92160E+01 0.00000E+00
 -1      3907 1.16400E+02 3.05150E+01 0.00000E+00
 -1      3908 1.17900E+02 3.05150E+01 0.00000E+00
 -1      3909 1.15650E+02 2.92160E+01 0.00000E+00
 -1      3910 1.19400E+02 3.05150E+01 0.00000E+00
 -1      3911 1.20900E+02 3.05150E+01 0.00000E+00
 -1      3912 1.18650E+02 2.92160E+01 0.00000E+00
 -1      3913 1.22400E+02 3.05150E+01 0.00000E+00
 -1      3914 1.23900E+02 3.05150E+01 0.00000E+00
 -1      3915 1.21650E+02 2.92160E+01 0.00000E+00
 -1      3916 1.25400E+02 3.05150E+01 0.00000E+00
 -1      3917 1.26900E+02 3.05150E+01 0.00000E+00
 -1      3918 1.24650E+02 2.92160E+01 0.00000E+00
 -1      3919 1.28400E+02 3.05150E+01 0.00000E+00
 -1      3920 1.29900E+02 3.05150E+01 0.00000E+00
 -1      3921 1.27650E+02 2.92160E+01 0.00000E+00
 -1      3922 5.72850E+01 1.82952E+01 0.00000E+00
 -1      3923 5.57850E+01 1.82952E+01 0.00000E+00
 -1      3924 4.74000E+01 3.05150E+01 0.00000E+00
 -1      3925 4.89000E+01 3.05150E+01 0.00000E+00
 -1      3926 6.02850E+01 1.82952E+01 0.00000E+00
 -1      3927 5.87850E+01 1.82952E+01 0.00000E+00
 -1      3928 5.80350E+01 1.95942E+01 0.00000E+00
 -1      3929 5.42850E+01 1.82952E+01 0.00000E+00
 -1      3930 5.27850E+01 1.82952E+01 0.00000E+00
 -1      3931 5.50350E+01 1.95942E+01 0.00000E+00
 -1      3932 6.62850E+01 1.82952E+01 0.00000E+00
 -1      3933 6.47850E+01 1.82952E+01 0.00000E+00
 -1      3934 6.92850E+01 1.82952E+01 0.00000E+00
 -1      3935 6.77850E+01 1.82952E+01 0.00000E+00
 -1      3936 6.70350E+01 1.95942E+01 0.00000E+00
 -1      3937 7.22850E+01 1.82952E+01 0.00000E+00
 -1      3938 7.07850E+01 1.82952E+01 0.00000E+00
 -1      3939 7.00350E+01 1.95942E+01 0.00000E+00
 -1      3940 7.52850E+01 1.82952E+01 0.00000E+00
 -1      3941 7.37850E+01 1.82952E+01 0.00000E+00
 -1      3942 7.30350E+01 1.95942E+01 0.00000E+00
 -1      3943 7.82850E+01 1.82952E+01 0.00000E+00
 -1      3944 7.67850E+01 1.82952E+01 0.00000E+00
 -1      3945 7.60350E+01 1.95942E+01 0.00000E+00
 -1      3946 8.12850E+01 1.82952E+01 0.00000E+00
 -1      3947 7.97850E+01 1.82952E+01 0.00000E+00
 -1      3948 7.90350E+01 1.95942E+01 0.00000E+00
 -1      3949 8.42850E+01 1.82952E+01 0.00000E+00
 -1      3950 8.27850E+01 1.82952E+01 0.00000E+00
 -1      3951 8.20350E+01 1.95942E+01 0.00000E+00
 -1      3952 8.72850E+01 1.82952E+01 0.00000E+00
 -1      3953 8.57850E+01 1.82952E+01 0.00000E+00
 -1      3954 8.50350E+01 1.95942E+01 0.00000E+00
 -1      3955 9.02850E+01 1.82952E+01 0.00000E+00
 -1      3956 8.87850E+01 1.82952E+01 0.00000E+00
 -1      3957 8.80350E+01 1.95942E+01 0.00000E+00
 -1      3958 9.32850E+01 1.82952E+01 0.00000E+00
 -1      3959 9.17850E+01 1.82952E+01 0.00000E+00
 -1      3960 9.10350E+01 1.95942E+01 0.00000E+00
 -1      3961 9.62850E+01 1.82952E+01 0.00000E+00
 -1      3962 9.47850E+01 1.82952E+01 0.00000E+00
 -1      3963 9.40350E+01 1.95942E+01 0.00000E+00
 -1      3964 9.92850E+01 1.82952E+01 0.00000E+00
 -1      3965 9.77850E+01 1.82952E+01 0.00000E+00
 -1      3966 9.70350E+01 1.95942E+01 0.00000E+00
 -1      3967 1.02285E+02 1.82952E+01 0.00000E+00
 -1      3968 1.00785E+02 1.82952E+01 0.00000E+00
 -1      3969 1.00035E+02 1.95942E+01 0.00000E+00
 -1      3970 1.05285E+02 1.82952E+01 0.00000E+00
 -1      3971 1.03785E+02 1.82952E+01 0.00000E+00
 -1      3972 1.03035E+02 1.95942E+01 0.00000E+00
 -1      3973 1.08285E+02 1.82952E+01 0.00000E+00
 -1      3974 1.06785E+02 1.82952E+01 0.00000E+00
 -1      3975 1.06035E+02 1.95942E+01 0.00000E+00
 -1      3976 1.11285E+02 1.82952E+01 0.00000E+00
 -1      3977 1.09785E+02 1.82952E+01 0.00000E+00
 -1      3978 1.09035E+02 1.95942E+01 0.00000E+00
 -1      3979 1.14285E+02 1.82952E+01 0.00000E+00
 -1      3980 1.12785E+02 1.82952E+01 0.00000E+00
 -1      3981 1.12035E+02 1.95942E+01 0.00000E+00
 -1      3982 1.17285E+02 1.82952E+01 0.00000E+00
 -1      3983 1.15785E+02 1.82952E+01 0.00000E+00
 -1      3984 1.15035E+02 1.95942E+01 0.00000E+00
 -1      3985 1.20285E+02 1.82952E+01 0.00000E+00
 -1      3986 1.18785E+02 1.82952E+01 0.00000E+00
 -1      3987 1.18035E+02 1.95942E+01 0.00000E+00
 -1      3988 1.23285E+02 1.82952E+01 0.00000E+00
 -1      3989 1.21785E+02 1.82952E+01 0.00000E+00
 -1      3990 1.21035E+02 1.95942E+01 0.00000E+00
 -1      3991 1.26285E+02 1.82952E+01 0.00000E+00
 -1      3992 1.24785E+02 1.82952E+01 0.00000E+00
 -1      3993 1.24035E+02 1.95942E+01 0.00000E+00
 -1      3994 1.29285E+02 1.82952E+01 0.00000E+00
 -1      3995 1.27785E+02 1.82952E+01 0.00000E+00
 -1      3996 1.27035E+02 1.95942E+01 0.00000E+00
 -1      3997 4.59366E+01 2.98813E+01 0.00000E+00
 -1      3998 1.31301E+02 1.86284E+01 0.00000E+00
 -1      3999 1.30207E+02 1.84618E+01 0.00000E+00
 -1      4000 1.29457E+02 1.97608E+01 0.00000E+00
 -1      4001 1.31301E+02 2.00940E+01 0.00000E+00
 -1      4002 1.33215E+02 2.30894E+01 0.00000E+00
 -1      4003 1.33215E+02 2.16144E+01 0.00000E+00
 -1      4004 1.32121E+02 2.14478E+01 0.00000E+00
 -1      4005 1.31916E+02 2.38222E+01 0.00000E+00
 -1      4006 6.32850E+01 1.82952E+01 0.00000E+00
 -1      4007 6.17850E+01 1.82952E+01 0.00000E+00
 -1      4008 6.10350E+01 1.95942E+01 0.00000E+00
 -1      4009 4.58774E+01 2.37518E+01 0.00000E+00
 -1      4010 4.55977E+01 2.54743E+01 0.00000E+00
 -1      4011 5.04000E+01 3.05150E+01 0.00000E+00
 -1      4012 5.19000E+01 3.05150E+01 0.00000E+00
 -1      4013 4.96500E+01 2.92160E+01 0.00000E+00
 -1      4014 5.26500E+01 2.92160E+01 0.00000E+00
 -1      4015 1.30482E+02 2.85877E+01 0.00000E+00
 -1      4016 1.31232E+02 2.98867E+01 0.00000E+00
 -1      4017 5.19295E+01 1.97817E+01 0.00000E+00
 -1      4018 5.11795E+01 1.84827E+01 0.00000E+00
 -1      4019 4.95741E+01 1.86702E+01 0.00000E+00
 -1      4020 4.66866E+01 2.85823E+01 0.00000E+00
 -1      4021 1.30571E+02 2.43042E+01 0.00000E+00
 -1      4022 1.30673E+02 2.31170E+01 0.00000E+00
 -1      4023 4.61215E+01 2.63849E+01 0.00000E+00
 -1      4024 4.68997E+01 2.24240E+01 0.00000E+00
 -1      4025 6.40350E+01 1.95942E+01 0.00000E+00
 -1      4026 1.30526E+02 2.71834E+01 0.00000E+00
 -1      4027 1.30526E+02 2.57084E+01 0.00000E+00
 -1      4028 1.29283E+02 2.50032E+01 0.00000E+00
 -1      4029 1.29194E+02 2.78117E+01 0.00000E+00
 -1      4030 5.79000E+01 2.79170E+01 0.00000E+00
 -1      4031 5.94000E+01 2.79170E+01 0.00000E+00
 -1      4032 6.09000E+01 2.79170E+01 0.00000E+00
 -1      4033 6.24000E+01 2.79170E+01 0.00000E+00
 -1      4034 6.01500E+01 2.66180E+01 0.00000E+00
 -1      4035 6.39000E+01 2.79170E+01 0.00000E+00
 -1      4036 6.54000E+01 2.79170E+01 0.00000E+00
 -1      4037 6.31500E+01 2.66180E+01 0.00000E+00
 -1      4038 6.69000E+01 2.79170E+01 0.00000E+00
 -1      4039 6.84000E+01 2.79170E+01 0.00000E+00
 -1      4040 6.61500E+01 2.66180E+01 0.00000E+00
 -1      4041 6.99000E+01 2.79170E+01 0.00000E+00
 -1      4042 7.14000E+01 2.79170E+01 0.00000E+00
 -1      4043 6.91500E+01 2.66180E+01 0.00000E+00
 -1      4044 7.29000E+01 2.79170E+01 0.00000E+00
 -1      4045 7.44000E+01 2.79170E+01 0.00000E+00
 -1      4046 7.21500E+01 2.66180E+01 0.00000E+00
 -1      4047 7.59000E+01 2.79170E+01 0.00000E+00
 -1      4048 7.74000E+01 2.79170E+01 0.00000E+00
 -1      4049 7.51500E+01 2.66180E+01 0.00000E+00
 -1      4050 7.89000E+01 2.79170E+01 0.00000E+00
 -1      4051 8.04000E+01 2.79170E+01 0.00000E+00
 -1      4052 7.81500E+01 2.66180E+01 0.00000E+00
 -1      4053 8.19000E+01 2.79170E+01 0.00000E+00
 -1      4054 8.34000E+01 2.79170E+01 0.00000E+00
 -1      4055 8.11500E+01 2.66180E+01 0.00000E+00
 -1      4056 8.49000E+01 2.79170E+01 0.00000E+00
 -1      4057 8.64000E+01 2.79170E+01 0.00000E+00
 -1      4058 8.41500E+01 2.66180E+01 0.00000E+00
 -1      4059 8.79000E+01 2.79170E+01 0.00000E+00
 -1      4060 8.94000E+01 2.79170E+01 0.00000E+00
 -1      4061 8.71500E+01 2.66180E+01 0.00000E+00
 -1      4062 9.09000E+01 2.79170E+01 0.00000E+00
 -1      4063 9.24000E+01 2.79170E+01 0.00000E+00
 -1      4064 9.01500E+01 2.66180E+01 0.00000E+00
 -1      4065 9.39000E+01 2.79170E+01 0.00000E+00
 -1      4066 9.54000E+01 2.79170E+01 0.00000E+00
 -1      4067 9.31500E+01 2.66180E+01 0.00000E+00
 -1      4068 9.69000E+01 2.79170E+01 0.00000E+00
 -1      4069 9.84000E+01 2.79170E+01 0.00000E+00
 -1      4070 9.61500E+01 2.66180E+01 0.00000E+00
 -1      4071 9.99000E+01 2.79170E+01 0.00000E+00
 -1      4072 1.01400E+02 2.79170E+01 0.00000E+00
 -1      4073 9.91500E+01 2.66180E+01 0.00000E+00
 -1      4074 1.02900E+02 2.79170E+01 0.00000E+00
 -1      4075 1.04400E+02 2.79170E+01 0.00000E+00
 -1      4076 1.02150E+02 2.66180E+01 0.00000E+00
 -1      4077 1.05900E+02 2.79170E+01 0.00000E+00
 -1      4078 1.07400E+02 2.79170E+01 0.00000E+00
 -1      4079 1.05150E+02 2.66180E+01 0.00000E+00
 -1      4080 1.08900E+02 2.79170E+01 0.00000E+00
 -1      4081 1.10400E+02 2.79170E+01 0.00000E+00
 -1      4082 1.08150E+02 2.66180E+01 0.00000E+00
 -1      4083 1.11900E+02 2.79170E+01 0.00000E+00
 -1      4084 1.13400E+02 2.79170E+01 0.00000E+00
 -1      4085 1.11150E+02 2.66180E+01 0.00000E+00
 -1      4086 1.14900E+02 2.79170E+01 0.00000E+00
 -1      4087 1.16400E+02 2.79170E+01 0.00000E+00
 -1      4088 1.14150E+02 2.66180E+01 0.00000E+00
 -1      4089 1.17900E+02 2.79170E+01 0.00000E+00
 -1      4090 1.19400E+02 2.79170E+01 0.00000E+00
 -1      4091 1.17150E+02 2.66180E+01 0.00000E+00
 -1      4092 1.20900E+02 2.79170E+01 0.00000E+00
 -1      4093 1.22400E+02 2.79170E+01 0.00000E+00
 -1      4094 1.20150E+02 2.66180E+01 0.00000E+00
 -1      4095 1.23900E+02 2.79170E+01 0.00000E+00
 -1      4096 1.25400E+02 2.79170E+01 0.00000E+00
 -1      4097 1.23150E+02 2.66180E+01 0.00000E+00
 -1      4098 1.26547E+02 2.78644E+01 0.00000E+00
 -1      4099 1.28047E+02 2.78644E+01 0.00000E+00
 -1      4100 1.28092E+02 2.64601E+01 0.00000E+00
 -1      4101 1.25797E+02 2.65654E+01 0.00000E+00
 -1      4102 5.19000E+01 2.79170E+01 0.00000E+00
 -1      4103 5.34000E+01 2.79170E+01 0.00000E+00
 -1      4104 5.87850E+01 2.08932E+01 0.00000E+00
 -1      4105 5.72850E+01 2.08932E+01 0.00000E+00
 -1      4106 1.30936E+02 2.21991E+01 0.00000E+00
 -1      4107 1.31039E+02 2.10119E+01 0.00000E+00
 -1      4108 1.30116E+02 2.08453E+01 0.00000E+00
 -1      4109 1.29591E+02 2.26811E+01 0.00000E+00
 -1      4110 5.57850E+01 2.08932E+01 0.00000E+00
 -1      4111 5.42850E+01 2.08932E+01 0.00000E+00
 -1      4112 5.65350E+01 2.21922E+01 0.00000E+00
 -1      4113 7.07850E+01 2.08932E+01 0.00000E+00
 -1      4114 6.92850E+01 2.08932E+01 0.00000E+00
 -1      4115 6.77850E+01 2.08932E+01 0.00000E+00
 -1      4116 6.62850E+01 2.08932E+01 0.00000E+00
 -1      4117 6.85350E+01 2.21922E+01 0.00000E+00
 -1      4118 7.67850E+01 2.08932E+01 0.00000E+00
 -1      4119 7.52850E+01 2.08932E+01 0.00000E+00
 -1      4120 7.97850E+01 2.08932E+01 0.00000E+00
 -1      4121 7.82850E+01 2.08932E+01 0.00000E+00
 -1      4122 7.75350E+01 2.21922E+01 0.00000E+00
 -1      4123 8.27850E+01 2.08932E+01 0.00000E+00
 -1      4124 8.12850E+01 2.08932E+01 0.00000E+00
 -1      4125 8.05350E+01 2.21922E+01 0.00000E+00
 -1      4126 8.57850E+01 2.08932E+01 0.00000E+00
 -1      4127 8.42850E+01 2.08932E+01 0.00000E+00
 -1      4128 8.35350E+01 2.21922E+01 0.00000E+00
 -1      4129 8.87850E+01 2.08932E+01 0.00000E+00
 -1      4130 8.72850E+01 2.08932E+01 0.00000E+00
 -1      4131 8.65350E+01 2.21922E+01 0.00000E+00
 -1      4132 9.17850E+01 2.08932E+01 0.00000E+00
 -1      4133 9.02850E+01 2.08932E+01 0.00000E+00
 -1      4134 8.95350E+01 2.21922E+01 0.00000E+00
 -1      4135 9.47850E+01 2.08932E+01 0.00000E+00
 -1      4136 9.32850E+01 2.08932E+01 0.00000E+00
 -1      4137 9.25350E+01 2.21922E+01 0.00000E+00
 -1      4138 9.77850E+01 2.08932E+01 0.00000E+00
 -1      4139 9.62850E+01 2.08932E+01 0.00000E+00
 -1      4140 9.55350E+01 2.21922E+01 0.00000E+00
 -1      4141 1.00785E+02 2.08932E+01 0.00000E+00
 -1      4142 9.92850E+01 2.08932E+01 0.00000E+00
 -1      4143 9.85350E+01 2.21922E+01 0.00000E+00
 -1      4144 1.03785E+02 2.08932E+01 0.00000E+00
 -1      4145 1.02285E+02 2.08932E+01 0.00000E+00
 -1      4146 1.01535E+02 2.21922E+01 0.00000E+00
 -1      4147 1.06785E+02 2.08932E+01 0.00000E+00
 -1      4148 1.05285E+02 2.08932E+01 0.00000E+00
 -1      4149 1.04535E+02 2.21922E+01 0.00000E+00
 -1      4150 1.09785E+02 2.08932E+01 0.00000E+00
 -1      4151 1.08285E+02 2.08932E+01 0.00000E+00
 -1      4152 1.07535E+02 2.21922E+01 0.00000E+00
 -1      4153 1.12785E+02 2.08932E+01 0.00000E+00
 -1      4154 1.11285E+02 2.08932E+01 0.00000E+00
 -1      4155 1.10535E+02 2.21922E+01 0.00000E+00
 -1      4156 1.15785E+02 2.08932E+01 0.00000E+00
 -1      4157 1.14285E+02 2.08932E+01 0.00000E+00
 -1      4158 1.13535E+02 2.21922E+01 0.00000E+00
 -1      4159 1.18785E+02 2.08932E+01 0.00000E+00
 -1      4160 1.17285E+02 2.08932E+01 0.00000E+00
 -1      4161 1.16535E+02 2.21922E+01 0.00000E+00
 -1      4162 1.21785E+02 2.08932E+01 0.00000E+00
 -1      4163 1.20285E+02 2.08932E+01 0.00000E+00
 -1      4164 1.19535E+02 2.21922E+01 0.00000E+00
 -1      4165 1.24785E+02 2.08932E+01 0.00000E+00
 -1      4166 1.23285E+02 2.08932E+01 0.00000E+00
 -1      4167 1.22535E+02 2.21922E+01 0.00000E+00
 -1      4168 4.75849E+01 2.70186E+01 0.00000E+00
 -1      4169 7.37850E+01 2.08932E+01 0.00000E+00
 -1      4170 7.22850E+01 2.08932E+01 0.00000E+00
 -1      4171 7.15350E+01 2.21922E+01 0.00000E+00
 -1      4172 7.45350E+01 2.21922E+01 0.00000E+00
 -1      4173 4.85518E+01 1.99980E+01 0.00000E+00
 -1      4174 6.47850E+01 2.08932E+01 0.00000E+00
 -1      4175 6.32850E+01 2.08932E+01 0.00000E+00
 -1      4176 6.55350E+01 2.21922E+01 0.00000E+00
 -1      4177 4.89924E+01 2.74678E+01 0.00000E+00
 -1      4178 5.04924E+01 2.74678E+01 0.00000E+00
 -1      4179 5.12424E+01 2.61688E+01 0.00000E+00
 -1      4180 4.84273E+01 2.52705E+01 0.00000E+00
 -1      4181 4.84295E+01 2.14356E+01 0.00000E+00
 -1      4182 4.85496E+01 2.38329E+01 0.00000E+00
 -1      4183 4.99572E+01 2.42820E+01 0.00000E+00
 -1      4184 5.02018E+01 2.14068E+01 0.00000E+00
 -1      4185 5.49000E+01 2.79170E+01 0.00000E+00
 -1      4186 5.64000E+01 2.79170E+01 0.00000E+00
 -1      4187 5.71500E+01 2.66180E+01 0.00000E+00
 -1      4188 6.17850E+01 2.08932E+01 0.00000E+00
 -1      4189 6.02850E+01 2.08932E+01 0.00000E+00
 -1      4190 5.95350E+01 2.21922E+01 0.00000E+00
 -1      4191 5.41500E+01 2.66180E+01 0.00000E+00
 -1      4192 6.25350E+01 2.21922E+01 0.00000E+00
 -1      4193 1.27785E+02 2.08932E+01 0.00000E+00
 -1      4194 1.26285E+02 2.08932E+01 0.00000E+00
 -1      4195 1.29194E+02 2.06787E+01 0.00000E+00
 -1      4196 1.28136E+02 2.50559E+01 0.00000E+00
 -1      4197 1.25535E+02 2.21922E+01 0.00000E+00
 -1      4198 1.28181E+02 2.28956E+01 0.00000E+00
 -1      4199 1.28444E+02 2.19777E+01 0.00000E+00
 -1      4200 5.30461E+01 2.10563E+01 0.00000E+00
 -1      4201 5.14406E+01 2.12438E+01 0.00000E+00
 -1      4202 5.13184E+01 2.26814E+01 0.00000E+00
 -1      4203 5.37961E+01 2.23553E+01 0.00000E+00
 -1      4204 1.26394E+02 2.54589E+01 0.00000E+00
 -1      4205 1.27585E+02 2.40021E+01 0.00000E+00
 -1      4206 1.26439E+02 2.32987E+01 0.00000E+00
 -1      4207 1.25246E+02 2.55116E+01 0.00000E+00
 -1      4208 1.24939E+02 2.32987E+01 0.00000E+00
 -1      4209 6.28425E+01 2.44051E+01 0.00000E+00
 -1      4210 6.43425E+01 2.44051E+01 0.00000E+00
 -1      4211 6.58425E+01 2.44051E+01 0.00000E+00
 -1      4212 6.73425E+01 2.44051E+01 0.00000E+00
 -1      4213 6.88425E+01 2.44051E+01 0.00000E+00
 -1      4214 7.03425E+01 2.44051E+01 0.00000E+00
 -1      4215 7.18425E+01 2.44051E+01 0.00000E+00
 -1      4216 7.33425E+01 2.44051E+01 0.00000E+00
 -1      4217 7.48425E+01 2.44051E+01 0.00000E+00
 -1      4218 7.63425E+01 2.44051E+01 0.00000E+00
 -1      4219 7.78425E+01 2.44051E+01 0.00000E+00
 -1      4220 7.93425E+01 2.44051E+01 0.00000E+00
 -1      4221 8.08425E+01 2.44051E+01 0.00000E+00
 -1      4222 8.23425E+01 2.44051E+01 0.00000E+00
 -1      4223 8.38425E+01 2.44051E+01 0.00000E+00
 -1      4224 8.53425E+01 2.44051E+01 0.00000E+00
 -1      4225 8.68425E+01 2.44051E+01 0.00000E+00
 -1      4226 8.83425E+01 2.44051E+01 0.00000E+00
 -1      4227 8.98425E+01 2.44051E+01 0.00000E+00
 -1      4228 9.13425E+01 2.44051E+01 0.00000E+00
 -1      4229 9.28425E+01 2.44051E+01 0.00000E+00
 -1      4230 9.43425E+01 2.44051E+01 0.00000E+00
 -1      4231 9.58425E+01 2.44051E+01 0.00000E+00
 -1      4232 9.73425E+01 2.44051E+01 0.00000E+00
 -1      4233 9.88425E+01 2.44051E+01 0.00000E+00
 -1      4234 1.00342E+02 2.44051E+01 0.00000E+00
 -1      4235 1.01842E+02 2.44051E+01 0.00000E+00
 -1      4236 1.03342E+02 2.44051E+01 0.00000E+00
 -1      4237 1.04842E+02 2.44051E+01 0.00000E+00
 -1      4238 1.06342E+02 2.44051E+01 0.00000E+00
 -1      4239 1.07842E+02 2.44051E+01 0.00000E+00
 -1      4240 1.09342E+02 2.44051E+01 0.00000E+00
 -1      4241 1.10842E+02 2.44051E+01 0.00000E+00
 -1      4242 1.12342E+02 2.44051E+01 0.00000E+00
 -1      4243 1.13842E+02 2.44051E+01 0.00000E+00
 -1      4244 1.15342E+02 2.44051E+01 0.00000E+00
 -1      4245 1.16842E+02 2.44051E+01 0.00000E+00
 -1      4246 1.18342E+02 2.44051E+01 0.00000E+00
 -1      4247 1.19842E+02 2.44051E+01 0.00000E+00
 -1      4248 1.21342E+02 2.44051E+01 0.00000E+00
 -1      4249 5.38425E+01 2.44051E+01 0.00000E+00
 -1      4250 5.53425E+01 2.44051E+01 0.00000E+00
 -1      4251 5.68425E+01 2.44051E+01 0.00000E+00
 -1      4252 5.83425E+01 2.44051E+01 0.00000E+00
 -1      4253 5.98425E+01 2.44051E+01 0.00000E+00
 -1      4254 1.22842E+02 2.44051E+01 0.00000E+00
 -1      4255 6.13425E+01 2.44051E+01 0.00000E+00
 -1      4256 1.24342E+02 2.44051E+01 0.00000E+00
 -1      4257 5.09336E+01 2.47067E+01 0.00000E+00
 -1      4258 5.23411E+01 2.51559E+01 0.00000E+00
 -1      4259 5.10559E+01 2.32691E+01 0.00000E+00
 -1      4260 5.22948E+01 2.31061E+01 0.00000E+00
 -1      4261 5.35336E+01 2.29430E+01 0.00000E+00
 -3
    3C                          2049                                     1
 -1       164    8    0    1
 -2         6         7        23      1107      1270      1124
 -1       165    8    0    1
 -2         7         8       164      1108      1271      1272
 -1       166    8    0    1
 -2         8         9       165      1109      1273      1274
 -1       167    8    0    1
 -2         8       165       164      1274      1275      1271
 -1       168    8    0    1
 -2         9        10       166      1110      1276      1277
 -1       169    8    0    1
 -2         9       166       165      1277      1278      1273
 -1       170    8    0    1
 -2        10        11       167      1111      1279      1280
 -1       171    8    0    1
 -2        10       167       166      1280      1281      1276
 -1       172    8    0    1
 -2        11        12       168      1112      1282      1283
 -1       173    8    0    1
 -2        11       168       167      1283      1284      1279
 -1       174    8    0    1
 -2        12        13       169      1113      1285      1286
 -1       175    8    0    1
 -2        12       169       168      1286      1287      1282
 -1       176    8    0    1
 -2        13        14       170      1114      1288      1289
 -1       177    8    0    1
 -2        13       170       169      1289      1290      1285
 -1       178    8    0    1
 -2        14        15       171      1115      1291      1292
 -1       179    8    0    1
 -2        14       171       170      1292      1293      1288
 -1       180    8    0    1
 -2        15        16       172      1116      1294      1295
 -1       181    8    0    1
 -2        15       172       171      1295      1296      1291
 -1       182    8    0    1
 -2        16        17       173      1117      1297      1298
 -1       183    8    0    1
 -2        16       173       172      1298      1299      1294
 -1       184    8    0    1
 -2        17        18       174      1118      1300      1301
 -1       185    8    0    1
 -2        17       174       173      1301      1302      1297
 -1       186    8    0    1
 -2        18        19       175      1119      1303      1304
 -1       187    8    0    1
 -2        18       175       174      1304      1305      1300
 -1       188    8    0    1
 -2        19        20       176      1120      1306      1307
 -1       189    8    0    1
 -2        19       176       175      1307      1308      1303
 -1       190    8    0    1
 -2        20        21       177      1121      1309      1310
 -1       191    8    0    1
 -2        20       177       176      1310      1311      1306
 -1       192    8    0    1
 -2        21        22       178      1122      1312      1313
 -1       193    8    0    1
 -2        21       178       177      1313      1314      1309
 -1       194    8    0    1
 -2        22         5       179      1123      1315      1316
 -1       195    8    0    1
 -2       178        22       179      1312      1316      1317
 -1       196    8    0    1
 -2         5        72       179      1174      1318      1315
 -1       197    8    0    1
 -2        24        23       180      1125      1319      1320
 -1       198    8    0    1
 -2        25        24       181      1126      1321      1322
 -1       199    8    0    1
 -2        24       180       181      1320      1323      1321
 -1       200    8    0    1
 -2        26        25       182      1127      1324      1325
 -1       201    8    0    1
 -2        25       181       182      1322      1326      1324
 -1       202    8    0    1
 -2        27        26       183      1128      1327      1328
 -1       203    8    0    1
 -2        26       182       183      1325      1329      1327
 -1       204    8    0    1
 -2        28        27       184      1129      1330      1331
 -1       205    8    0    1
 -2        27       183       184      1328      1332      1330
 -1       206    8    0    1
 -2        29        28       185      1130      1333      1334
 -1       207    8    0    1
 -2        28       184       185      1331      1335      1333
 -1       208    8    0    1
 -2        30        29       186      1131      1336      1337
 -1       209    8    0    1
 -2        29       185       186      1334      1338      1336
 -1       210    8    0    1
 -2        31        30       187      1132      1339      1340
 -1       211    8    0    1
 -2        30       186       187      1337      1341      1339
 -1       212    8    0    1
 -2        32        31       188      1133      1342      1343
 -1       213    8    0    1
 -2        31       187       188      1340      1344      1342
 -1       214    8    0    1
 -2        33        32       189      1134      1345      1346
 -1       215    8    0    1
 -2        32       188       189      1343      1347      1345
 -1       216    8    0    1
 -2        34        33       190      1135      1348      1349
 -1       217    8    0    1
 -2        33       189       190      1346      1350      1348
 -1       218    8    0    1
 -2        35        34       191      1136      1351      1352
 -1       219    8    0    1
 -2        34       190       191      1349      1353      1351
 -1       220    8    0    1
 -2        36        35       192      1137      1354      1355
 -1       221    8    0    1
 -2        35       191       192      1352      1356      1354
 -1       222    8    0    1
 -2        37        36       193      1138      1357      1358
 -1       223    8    0    1
 -2        36       192       193      1355      1359      1357
 -1       224    8    0    1
 -2        38        37       194      1139      1360      1361
 -1       225    8    0    1
 -2        37       193       194      1358      1362      1360
 -1       226    8    0    1
 -2        39        38       195      1140      1363      1364
 -1       227    8    0    1
 -2        38       194       195      1361      1365      1363
 -1       228    8    0    1
 -2        40        39       196      1141      1366      1367
 -1       229    8    0    1
 -2        39       195       196      1364      1368      1366
 -1       230    8    0    1
 -2        41        40       197      1142      1369      1370
 -1       231    8    0    1
 -2        40       196       197      1367      1371      1369
 -1       232    8    0    1
 -2        42        41       198      1143      1372      1373
 -1       233    8    0    1
 -2        41       197       198      1370      1374      1372
 -1       234    8    0    1
 -2        43        42       199      1144      1375      1376
 -1       235    8    0    1
 -2        42       198       199      1373      1377      1375
 -1       236    8    0    1
 -2        44        43       200      1145      1378      1379
 -1       237    8    0    1
 -2        43       199       200      1376      1380      1378
 -1       238    8    0    1
 -2        45        44       201      1146      1381      1382
 -1       239    8    0    1
 -2        44       200       201      1379      1383      1381
 -1       240    8    0    1
 -2        46        45       202      1147      1384      1385
 -1       241    8    0    1
 -2        45       201       202      1382      1386      1384
 -1       242    8    0    1
 -2        47        46       203      1148      1387      1388
 -1       243    8    0    1
 -2        46       202       203      1385      1389      1387
 -1       244    8    0    1
 -2        48        47       204      1149      1390      1391
 -1       245    8    0    1
 -2        47       203       204      1388      1392      1390
 -1       246    8    0    1
 -2        49        48       205      1150      1393      1394
 -1       247    8    0    1
 -2        48       204       205      1391      1395      1393
 -1       248    8    0    1
 -2        50        49       206      1151      1396      1397
 -1       249    8    0    1
 -2        49       205       206      1394      1398      1396
 -1       250    8    0    1
 -2        51        50       207      1152      1399      1400
 -1       251    8    0    1
 -2        50       206       207      1397      1401      1399
 -1       252    8    0    1
 -2        52        51       208      1153      1402      1403
 -1       253    8    0    1
 -2        51       207       208      1400      1404      1402
 -1       254    8    0    1
 -2        53        52       209      1154      1405      1406
 -1       255    8    0    1
 -2        52       208       209      1403      1407      1405
 -1       256    8    0    1
 -2        54        53       210      1155      1408      1409
 -1       257    8    0    1
 -2        53       209       210      1406      1410      1408
 -1       258    8    0    1
 -2        55        54       211      1156      1411      1412
 -1       259    8    0    1
 -2        54       210       211      1409      1413      1411
 -1       260    8    0    1
 -2        56        55       212      1157      1414      1415
 -1       261    8    0    1
 -2        55       211       212      1412      1416      1414
 -1       262    8    0    1
 -2        57        56       213      1158      1417      1418
 -1       263    8    0    1
 -2        56       212       213      1415      1419      1417
 -1       264    8    0    1
 -2        58        57       214      1159      1420      1421
 -1       265    8    0    1
 -2        57       213       214      1418      1422      1420
 -1       266    8    0    1
 -2        59        58       215      1160      1423      1424
 -1       267    8    0    1
 -2        58       214       215      1421      1425      1423
 -1       268    8    0    1
 -2        60        59       216      1161      1426      1427
 -1       269    8    0    1
 -2        59       215       216      1424      1428      1426
 -1       270    8    0    1
 -2        61        60       217      1162      1429      1430
 -1       271    8    0    1
 -2        60       216       217      1427      1431      1429
 -1       272    8    0    1
 -2        62        61       218      1163      1432      1433
 -1       273    8    0    1
 -2        61       217       218      1430      1434      1432
 -1       274    8    0    1
 -2        63        62       219      1164      1435      1436
 -1       275    8    0    1
 -2        62       218       219      1433      1437      1435
 -1       276    8    0    1
 -2        64        63       220      1165      1438      1439
 -1       277    8    0    1
 -2        63       219       220      1436      1440      1438
 -1       278    8    0    1
 -2        65        64       221      1166      1441      1442
 -1       279    8    0    1
 -2        64       220       221      1439      1443      1441
 -1       280    8    0    1
 -2        66        65       222      1167      1444      1445
 -1       281    8    0    1
 -2        65       221       222      1442      1446      1444
 -1       282    8    0    1
 -2        67        66       223      1168      1447      1448
 -1       283    8    0    1
 -2        66       222       223      1445      1449      1447
 -1       284    8    0    1
 -2        68        67       224      1169      1450      1451
 -1       285    8    0    1
 -2        67       223       224      1448      1452      1450
 -1       286    8    0    1
 -2        69        68       225      1170      1453      1454
 -1       287    8    0    1
 -2        68       224       225      1451      1455      1453
 -1       288    8    0    1
 -2        70        69       226      1171      1456      1457
 -1       289    8    0    1
 -2        69       225       226      1454      1458      1456
 -1       290    8    0    1
 -2        71        70       227      1172      1459      1460
 -1       291    8    0    1
 -2        70       226       227      1457      1461      1459
 -1       292    8    0    1
 -2         4        71       136      1173      1462      1240
 -1       293    8    0    1
 -2       136        71       227      1462      1460      1463
 -1       294    8    0    1
 -2        72        73       228      1175      1464      1465
 -1       295    8    0    1
 -2        72       228       179      1465      1466      1318
 -1       296    8    0    1
 -2        73        74       229      1176      1467      1468
 -1       297    8    0    1
 -2        73       229       228      1468      1469      1464
 -1       298    8    0    1
 -2        74        75       230      1177      1470      1471
 -1       299    8    0    1
 -2        74       230       229      1471      1472      1467
 -1       300    8    0    1
 -2        75        76       231      1178      1473      1474
 -1       301    8    0    1
 -2        75       231       230      1474      1475      1470
 -1       302    8    0    1
 -2        76        77       232      1179      1476      1477
 -1       303    8    0    1
 -2        76       232       231      1477      1478      1473
 -1       304    8    0    1
 -2        77        78       233      1180      1479      1480
 -1       305    8    0    1
 -2        77       233       232      1480      1481      1476
 -1       306    8    0    1
 -2        78        79       234      1181      1482      1483
 -1       307    8    0    1
 -2        78       234       233      1483      1484      1479
 -1       308    8    0    1
 -2        79        80       235      1182      1485      1486
 -1       309    8    0    1
 -2        79       235       234      1486      1487      1482
 -1       310    8    0    1
 -2        80        81       236      1183      1488      1489
 -1       311    8    0    1
 -2        80       236       235      1489      1490      1485
 -1       312    8    0    1
 -2        81        82       237      1184      1491      1492
 -1       313    8    0    1
 -2        81       237       236      1492      1493      1488
 -1       314    8    0    1
 -2        82        83       238      1185      1494      1495
 -1       315    8    0    1
 -2        82       238       237      1495      1496      1491
 -1       316    8    0    1
 -2        83        84       239      1186      1497      1498
 -1       317    8    0    1
 -2        83       239       238      1498      1499      1494
 -1       318    8    0    1
 -2        84        85       240      1187      1500      1501
 -1       319    8    0    1
 -2        84       240       239      1501      1502      1497
 -1       320    8    0    1
 -2        85        86       241      1188      1503      1504
 -1       321    8    0    1
 -2        85       241       240      1504      1505      1500
 -1       322    8    0    1
 -2        86        87       242      1189      1506      1507
 -1       323    8    0    1
 -2        86       242       241      1507      1508      1503
 -1       324    8    0    1
 -2        87        88       243      1190      1509      1510
 -1       325    8    0    1
 -2        87       243       242      1510      1511      1506
 -1       326    8    0    1
 -2        88        89       244      1191      1512      1513
 -1       327    8    0    1
 -2        88       244       243      1513      1514      1509
 -1       328    8    0    1
 -2        89        90       245      1192      1515      1516
 -1       329    8    0    1
 -2        89       245       244      1516      1517      1512
 -1       330    8    0    1
 -2        90        91       246      1193      1518      1519
 -1       331    8    0    1
 -2        90       246       245      1519      1520      1515
 -1       332    8    0    1
 -2        91        92       247      1194      1521      1522
 -1       333    8    0    1
 -2        91       247       246      1522      1523      1518
 -1       334    8    0    1
 -2        92        93       248      1195      1524      1525
 -1       335    8    0    1
 -2        92       248       247      1525      1526      1521
 -1       336    8    0    1
 -2        93        94       249      1196      1527      1528
 -1       337    8    0    1
 -2        93       249       248      1528      1529      1524
 -1       338    8    0    1
 -2        94        95       250      1197      1530      1531
 -1       339    8    0    1
 -2        94       250       249      1531      1532      1527
 -1       340    8    0    1
 -2        95        96       251      1198      1533      1534
 -1       341    8    0    1
 -2        95       251       250      1534      1535      1530
 -1       342    8    0    1
 -2        96        97       252      1199      1536      1537
 -1       343    8    0    1
 -2        96       252       251      1537      1538      1533
 -1       344    8    0    1
 -2        97        98       253      1200      1539      1540
 -1       345    8    0    1
 -2        97       253       252      1540      1541      1536
 -1       346    8    0    1
 -2        98        99       254      1201      1542      1543
 -1       347    8    0    1
 -2        98       254       253      1543      1544      1539
 -1       348    8    0    1
 -2        99       100       255      1202      1545      1546
 -1       349    8    0    1
 -2        99       255       254      1546      1547      1542
 -1       350    8    0    1
 -2       100       101       256      1203      1548      1549
 -1       351    8    0    1
 -2       100       256       255      1549      1550      1545
 -1       352    8    0    1
 -2       101       102       257      1204      1551      1552
 -1       353    8    0    1
 -2       101       257       256      1552      1553      1548
 -1       354    8    0    1
 -2       102       103       258      1205      1554      1555
 -1       355    8    0    1
 -2       102       258       257      1555      1556      1551
 -1       356    8    0    1
 -2       103       104       259      1206      1557      1558
 -1       357    8    0    1
 -2       103       259       258      1558      1559      1554
 -1       358    8    0    1
 -2       104       105       260      1207      1560      1561
 -1       359    8    0    1
 -2       104       260       259      1561      1562      1557
 -1       360    8    0    1
 -2       105       106       261      1208      1563      1564
 -1       361    8    0    1
 -2       105       261       260      1564      1565      1560
 -1       362    8    0    1
 -2       106       107       262      1209      1566      1567
 -1       363    8    0    1
 -2       106       262       261      1567      1568      1563
 -1       364    8    0    1
 -2       107       108       263      1210      1569      1570
 -1       365    8    0    1
 -2       107       263       262      1570      1571      1566
 -1       366    8    0    1
 -2       108       109       264      1211      1572      1573
 -1       367    8    0    1
 -2       108       264       263      1573      1574      1569
 -1       368    8    0    1
 -2       109       110       265      1212      1575      1576
 -1       369    8    0    1
 -2       109       265       264      1576      1577      1572
 -1       370    8    0    1
 -2       110       111       266      1213      1578      1579
 -1       371    8    0    1
 -2       110       266       265      1579      1580      1575
 -1       372    8    0    1
 -2       111       112       267      1214      1581      1582
 -1       373    8    0    1
 -2       111       267       266      1582      1583      1578
 -1       374    8    0    1
 -2       112       113       268      1215      1584      1585
 -1       375    8    0    1
 -2       112       268       267      1585      1586      1581
 -1       376    8    0    1
 -2       113       114       269      1216      1587      1588
 -1       377    8    0    1
 -2       113       269       268      1588      1589      1584
 -1       378    8    0    1
 -2       114       115       270      1217      1590      1591
 -1       379    8    0    1
 -2       114       270       269      1591      1592      1587
 -1       380    8    0    1
 -2       115       116       271      1218      1593      1594
 -1       381    8    0    1
 -2       115       271       270      1594      1595      1590
 -1       382    8    0    1
 -2       116       117       272      1219      1596      1597
 -1       383    8    0    1
 -2       116       272       271      1597      1598      1593
 -1       384    8    0    1
 -2       117       118       273      1220      1599      1600
 -1       385    8    0    1
 -2       117       273       272      1600      1601      1596
 -1       386    8    0    1
 -2       118       119       274      1221      1602      1603
 -1       387    8    0    1
 -2       118       274       273      1603      1604      1599
 -1       388    8    0    1
 -2       119       120       275      1222      1605      1606
 -1       389    8    0    1
 -2       119       275       274      1606      1607      1602
 -1       390    8    0    1
 -2       120         3       121      1223      1224      1608
 -1       391    8    0    1
 -2       121       122       276      1225      1609      1610
 -1       392    8    0    1
 -2       122       123       277      1226      1611      1612
 -1       393    8    0    1
 -2       122       277       276      1612      1613      1609
 -1       394    8    0    1
 -2       123       124       278      1227      1614      1615
 -1       395    8    0    1
 -2       123       278       277      1615      1616      1611
 -1       396    8    0    1
 -2       124       125       279      1228      1617      1618
 -1       397    8    0    1
 -2       124       279       278      1618      1619      1614
 -1       398    8    0    1
 -2       125       126       280      1229      1620      1621
 -1       399    8    0    1
 -2       125       280       279      1621      1622      1617
 -1       400    8    0    1
 -2       126       127       281      1230      1623      1624
 -1       401    8    0    1
 -2       126       281       280      1624      1625      1620
 -1       402    8    0    1
 -2       127       128       282      1231      1626      1627
 -1       403    8    0    1
 -2       127       282       281      1627      1628      1623
 -1       404    8    0    1
 -2       128       129       283      1232      1629      1630
 -1       405    8    0    1
 -2       128       283       282      1630      1631      1626
 -1       406    8    0    1
 -2       129       130       284      1233      1632      1633
 -1       407    8    0    1
 -2       129       284       283      1633      1634      1629
 -1       408    8    0    1
 -2       130       131       285      1234      1635      1636
 -1       409    8    0    1
 -2       130       285       284      1636      1637      1632
 -1       410    8    0    1
 -2       131       132       286      1235      1638      1639
 -1       411    8    0    1
 -2       131       286       285      1639      1640      1635
 -1       412    8    0    1
 -2       132       133       287      1236      1641      1642
 -1       413    8    0    1
 -2       132       287       286      1642      1643      1638
 -1       414    8    0    1
 -2       133       134       288      1237      1644      1645
 -1       415    8    0    1
 -2       133       288       287      1645      1646      1641
 -1       416    8    0    1
 -2       134       135       289      1238      1647      1648
 -1       417    8    0    1
 -2       134       289       288      1648      1649      1644
 -1       418    8    0    1
 -2       135       136       290      1239      1650      1651
 -1       419    8    0    1
 -2       289       135       290      1647      1651      1652
 -1       420    8    0    1
 -2       136       227       290      1463      1653      1650
 -1       421    8    0    1
 -2         2       137       291      1241      1654      1655
 -1       422    8    0    1
 -2       137       138       292      1242      1656      1657
 -1       423    8    0    1
 -2       138       139       293      1243      1658      1659
 -1       424    8    0    1
 -2       139       140       294      1244      1660      1661
 -1       425    8    0    1
 -2       140       141       295      1245      1662      1663
 -1       426    8    0    1
 -2       141       142       296      1246      1664      1665
 -1       427    8    0    1
 -2       142       143       297      1247      1666      1667
 -1       428    8    0    1
 -2       143       144       298      1248      1668      1669
 -1       429    8    0    1
 -2       144       145       299      1249      1670      1671
 -1       430    8    0    1
 -2       145       146       300      1250      1672      1673
 -1       431    8    0    1
 -2       146       147       301      1251      1674      1675
 -1       432    8    0    1
 -2       147       148       302      1252      1676      1677
 -1       433    8    0    1
 -2       148       149       303      1253      1678      1679
 -1       434    8    0    1
 -2       149       150       304      1254      1680      1681
 -1       435    8    0    1
 -2       150       151       305      1255      1682      1683
 -1       436    8    0    1
 -2       151       152       306      1256      1684      1685
 -1       437    8    0    1
 -2       152       153       307      1257      1686      1687
 -1       438    8    0    1
 -2       153       154       308      1258      1688      1689
 -1       439    8    0    1
 -2       154       155       309      1259      1690      1691
 -1       440    8    0    1
 -2       155       156       310      1260      1692      1693
 -1       441    8    0    1
 -2       156       157       311      1261      1694      1695
 -1       442    8    0    1
 -2       157         1       312      1262      1696      1697
 -1       443    8    0    1
 -2         1       158       313      1263      1698      1699
 -1       444    8    0    1
 -2       158       159       314      1264      1700      1701
 -1       445    8    0    1
 -2       159       160       315      1265      1702      1703
 -1       446    8    0    1
 -2       160       161       316      1266      1704      1705
 -1       447    8    0    1
 -2       161       162       317      1267      1706      1707
 -1       448    8    0    1
 -2       162       163       318      1268      1708      1709
 -1       449    8    0    1
 -2       163         2       319      1269      1710      1711
 -1       450    8    0    1
 -2       294       140       295      1660      1663      1712
 -1       451    8    0    1
 -2       293       139       294      1658      1661      1713
 -1       452    8    0    1
 -2       120       121       275      1608      1714      1605
 -1       453    8    0    1
 -2       121       276       275      1610      1715      1714
 -1       454    8    0    1
 -2       291       137       292      1654      1657      1716
 -1       455    8    0    1
 -2       292       138       293      1656      1659      1717
 -1       456    8    0    1
 -2         2       291       319      1655      1718      1710
 -1       457    8    0    1
 -2       141       296       295      1665      1719      1662
 -1       458    8    0    1
 -2       142       297       296      1667      1720      1664
 -1       459    8    0    1
 -2       143       298       297      1669      1721      1666
 -1       460    8    0    1
 -2       144       299       298      1671      1722      1668
 -1       461    8    0    1
 -2       145       300       299      1673      1723      1670
 -1       462    8    0    1
 -2       146       301       300      1675      1724      1672
 -1       463    8    0    1
 -2       147       302       301      1677      1725      1674
 -1       464    8    0    1
 -2       148       303       302      1679      1726      1676
 -1       465    8    0    1
 -2       149       304       303      1681      1727      1678
 -1       466    8    0    1
 -2       150       305       304      1683      1728      1680
 -1       467    8    0    1
 -2       151       306       305      1685      1729      1682
 -1       468    8    0    1
 -2       152       307       306      1687      1730      1684
 -1       469    8    0    1
 -2       153       308       307      1689      1731      1686
 -1       470    8    0    1
 -2       154       309       308      1691      1732      1688
 -1       471    8    0    1
 -2       155       310       309      1693      1733      1690
 -1       472    8    0    1
 -2       156       311       310      1695      1734      1692
 -1       473    8    0    1
 -2       157       312       311      1697      1735      1694
 -1       474    8    0    1
 -2         1       313       312      1699      1736      1696
 -1       475    8    0    1
 -2       158       314       313      1701      1737      1698
 -1       476    8    0    1
 -2       159       315       314      1703      1738      1700
 -1       477    8    0    1
 -2       160       316       315      1705      1739      1702
 -1       478    8    0    1
 -2       161       317       316      1707      1740      1704
 -1       479    8    0    1
 -2       162       318       317      1709      1741      1706
 -1       480    8    0    1
 -2       163       319       318      1711      1742      1708
 -1       481    8    0    1
 -2        23         7       164      1270      1272      1743
 -1       482    8    0    1
 -2       165       166       320      1278      1744      1745
 -1       483    8    0    1
 -2       164       165       321      1275      1746      1747
 -1       484    8    0    1
 -2       165       320       321      1745      1748      1746
 -1       485    8    0    1
 -2       167       168       322      1284      1749      1750
 -1       486    8    0    1
 -2       168       169       323      1287      1751      1752
 -1       487    8    0    1
 -2       168       323       322      1752      1753      1749
 -1       488    8    0    1
 -2       169       170       324      1290      1754      1755
 -1       489    8    0    1
 -2       169       324       323      1755      1756      1751
 -1       490    8    0    1
 -2       170       171       325      1293      1757      1758
 -1       491    8    0    1
 -2       170       325       324      1758      1759      1754
 -1       492    8    0    1
 -2       171       172       326      1296      1760      1761
 -1       493    8    0    1
 -2       171       326       325      1761      1762      1757
 -1       494    8    0    1
 -2       172       173       327      1299      1763      1764
 -1       495    8    0    1
 -2       172       327       326      1764      1765      1760
 -1       496    8    0    1
 -2       173       174       328      1302      1766      1767
 -1       497    8    0    1
 -2       173       328       327      1767      1768      1763
 -1       498    8    0    1
 -2       174       175       329      1305      1769      1770
 -1       499    8    0    1
 -2       174       329       328      1770      1771      1766
 -1       500    8    0    1
 -2       175       176       330      1308      1772      1773
 -1       501    8    0    1
 -2       175       330       329      1773      1774      1769
 -1       502    8    0    1
 -2       176       177       331      1311      1775      1776
 -1       503    8    0    1
 -2       176       331       330      1776      1777      1772
 -1       504    8    0    1
 -2       177       178       332      1314      1778      1779
 -1       505    8    0    1
 -2       177       332       331      1779      1780      1775
 -1       506    8    0    1
 -2       178       179       333      1317      1781      1782
 -1       507    8    0    1
 -2       332       178       333      1778      1782      1783
 -1       508    8    0    1
 -2       179       228       333      1466      1784      1781
 -1       509    8    0    1
 -2       180        23       164      1319      1743      1785
 -1       510    8    0    1
 -2       228       229       334      1469      1786      1787
 -1       511    8    0    1
 -2       228       334       333      1787      1788      1784
 -1       512    8    0    1
 -2       180       164       321      1785      1747      1789
 -1       513    8    0    1
 -2       182       181       335      1326      1790      1791
 -1       514    8    0    1
 -2       183       182       336      1329      1792      1793
 -1       515    8    0    1
 -2       182       335       336      1791      1794      1792
 -1       516    8    0    1
 -2       184       183       337      1332      1795      1796
 -1       517    8    0    1
 -2       183       336       337      1793      1797      1795
 -1       518    8    0    1
 -2       185       184       338      1335      1798      1799
 -1       519    8    0    1
 -2       184       337       338      1796      1800      1798
 -1       520    8    0    1
 -2       186       185       339      1338      1801      1802
 -1       521    8    0    1
 -2       185       338       339      1799      1803      1801
 -1       522    8    0    1
 -2       187       186       340      1341      1804      1805
 -1       523    8    0    1
 -2       186       339       340      1802      1806      1804
 -1       524    8    0    1
 -2       188       187       341      1344      1807      1808
 -1       525    8    0    1
 -2       187       340       341      1805      1809      1807
 -1       526    8    0    1
 -2       189       188       342      1347      1810      1811
 -1       527    8    0    1
 -2       188       341       342      1808      1812      1810
 -1       528    8    0    1
 -2       190       189       343      1350      1813      1814
 -1       529    8    0    1
 -2       189       342       343      1811      1815      1813
 -1       530    8    0    1
 -2       191       190       344      1353      1816      1817
 -1       531    8    0    1
 -2       190       343       344      1814      1818      1816
 -1       532    8    0    1
 -2       192       191       345      1356      1819      1820
 -1       533    8    0    1
 -2       191       344       345      1817      1821      1819
 -1       534    8    0    1
 -2       193       192       346      1359      1822      1823
 -1       535    8    0    1
 -2       192       345       346      1820      1824      1822
 -1       536    8    0    1
 -2       194       193       347      1362      1825      1826
 -1       537    8    0    1
 -2       193       346       347      1823      1827      1825
 -1       538    8    0    1
 -2       195       194       348      1365      1828      1829
 -1       539    8    0    1
 -2       194       347       348      1826      1830      1828
 -1       540    8    0    1
 -2       196       195       349      1368      1831      1832
 -1       541    8    0    1
 -2       195       348       349      1829      1833      1831
 -1       542    8    0    1
 -2       197       196       350      1371      1834      1835
 -1       543    8    0    1
 -2       196       349       350      1832      1836      1834
 -1       544    8    0    1
 -2       198       197       351      1374      1837      1838
 -1       545    8    0    1
 -2       197       350       351      1835      1839      1837
 -1       546    8    0    1
 -2       199       198       352      1377      1840      1841
 -1       547    8    0    1
 -2       198       351       352      1838      1842      1840
 -1       548    8    0    1
 -2       200       199       353      1380      1843      1844
 -1       549    8    0    1
 -2       199       352       353      1841      1845      1843
 -1       550    8    0    1
 -2       201       200       354      1383      1846      1847
 -1       551    8    0    1
 -2       200       353       354      1844      1848      1846
 -1       552    8    0    1
 -2       202       201       355      1386      1849      1850
 -1       553    8    0    1
 -2       201       354       355      1847      1851      1849
 -1       554    8    0    1
 -2       203       202       356      1389      1852      1853
 -1       555    8    0    1
 -2       202       355       356      1850      1854      1852
 -1       556    8    0    1
 -2       204       203       357      1392      1855      1856
 -1       557    8    0    1
 -2       203       356       357      1853      1857      1855
 -1       558    8    0    1
 -2       205       204       358      1395      1858      1859
 -1       559    8    0    1
 -2       204       357       358      1856      1860      1858
 -1       560    8    0    1
 -2       206       205       359      1398      1861      1862
 -1       561    8    0    1
 -2       205       358       359      1859      1863      1861
 -1       562    8    0    1
 -2       207       206       360      1401      1864      1865
 -1       563    8    0    1
 -2       206       359       360      1862      1866      1864
 -1       564    8    0    1
 -2       208       207       361      1404      1867      1868
 -1       565    8    0    1
 -2       207       360       361      1865      1869      1867
 -1       566    8    0    1
 -2       209       208       362      1407      1870      1871
 -1       567    8    0    1
 -2       208       361       362      1868      1872      1870
 -1       568    8    0    1
 -2       210       209       363      1410      1873      1874
 -1       569    8    0    1
 -2       209       362       363      1871      1875      1873
 -1       570    8    0    1
 -2       211       210       364      1413      1876      1877
 -1       571    8    0    1
 -2       210       363       364      1874      1878      1876
 -1       572    8    0    1
 -2       212       211       365      1416      1879      1880
 -1       573    8    0    1
 -2       211       364       365      1877      1881      1879
 -1       574    8    0    1
 -2       213       212       366      1419      1882      1883
 -1       575    8    0    1
 -2       212       365       366      1880      1884      1882
 -1       576    8    0    1
 -2       214       213       367      1422      1885      1886
 -1       577    8    0    1
 -2       213       366       367      1883      1887      1885
 -1       578    8    0    1
 -2       215       214       368      1425      1888      1889
 -1       579    8    0    1
 -2       214       367       368      1886      1890      1888
 -1       580    8    0    1
 -2       216       215       369      1428      1891      1892
 -1       581    8    0    1
 -2       215       368       369      1889      1893      1891
 -1       582    8    0    1
 -2       217       216       370      1431      1894      1895
 -1       583    8    0    1
 -2       216       369       370      1892      1896      1894
 -1       584    8    0    1
 -2       218       217       371      1434      1897      1898
 -1       585    8    0    1
 -2       217       370       371      1895      1899      1897
 -1       586    8    0    1
 -2       219       218       372      1437      1900      1901
 -1       587    8    0    1
 -2       218       371       372      1898      1902      1900
 -1       588    8    0    1
 -2       220       219       373      1440      1903      1904
 -1       589    8    0    1
 -2       219       372       373      1901      1905      1903
 -1       590    8    0    1
 -2       221       220       374      1443      1906      1907
 -1       591    8    0    1
 -2       220       373       374      1904      1908      1906
 -1       592    8    0    1
 -2       222       221       375      1446      1909      1910
 -1       593    8    0    1
 -2       221       374       375      1907      1911      1909
 -1       594    8    0    1
 -2       223       222       376      1449      1912      1913
 -1       595    8    0    1
 -2       222       375       376      1910      1914      1912
 -1       596    8    0    1
 -2       224       223       377      1452      1915      1916
 -1       597    8    0    1
 -2       223       376       377      1913      1917      1915
 -1       598    8    0    1
 -2       225       224       378      1455      1918      1919
 -1       599    8    0    1
 -2       224       377       378      1916      1920      1918
 -1       600    8    0    1
 -2       226       225       379      1458      1921      1922
 -1       601    8    0    1
 -2       225       378       379      1919      1923      1921
 -1       602    8    0    1
 -2       227       226       380      1461      1924      1925
 -1       603    8    0    1
 -2       290       227       380      1653      1925      1926
 -1       604    8    0    1
 -2       226       379       380      1922      1927      1924
 -1       605    8    0    1
 -2       229       230       381      1472      1928      1929
 -1       606    8    0    1
 -2       229       381       334      1929      1930      1786
 -1       607    8    0    1
 -2       230       231       382      1475      1931      1932
 -1       608    8    0    1
 -2       230       382       381      1932      1933      1928
 -1       609    8    0    1
 -2       231       232       383      1478      1934      1935
 -1       610    8    0    1
 -2       231       383       382      1935      1936      1931
 -1       611    8    0    1
 -2       232       233       384      1481      1937      1938
 -1       612    8    0    1
 -2       232       384       383      1938      1939      1934
 -1       613    8    0    1
 -2       233       234       385      1484      1940      1941
 -1       614    8    0    1
 -2       233       385       384      1941      1942      1937
 -1       615    8    0    1
 -2       234       235       386      1487      1943      1944
 -1       616    8    0    1
 -2       234       386       385      1944      1945      1940
 -1       617    8    0    1
 -2       235       236       387      1490      1946      1947
 -1       618    8    0    1
 -2       235       387       386      1947      1948      1943
 -1       619    8    0    1
 -2       236       237       388      1493      1949      1950
 -1       620    8    0    1
 -2       236       388       387      1950      1951      1946
 -1       621    8    0    1
 -2       237       238       389      1496      1952      1953
 -1       622    8    0    1
 -2       237       389       388      1953      1954      1949
 -1       623    8    0    1
 -2       238       239       390      1499      1955      1956
 -1       624    8    0    1
 -2       238       390       389      1956      1957      1952
 -1       625    8    0    1
 -2       239       240       391      1502      1958      1959
 -1       626    8    0    1
 -2       239       391       390      1959      1960      1955
 -1       627    8    0    1
 -2       240       241       392      1505      1961      1962
 -1       628    8    0    1
 -2       240       392       391      1962      1963      1958
 -1       629    8    0    1
 -2       241       242       393      1508      1964      1965
 -1       630    8    0    1
 -2       241       393       392      1965      1966      1961
 -1       631    8    0    1
 -2       242       243       394      1511      1967      1968
 -1       632    8    0    1
 -2       242       394       393      1968      1969      1964
 -1       633    8    0    1
 -2       243       244       395      1514      1970      1971
 -1       634    8    0    1
 -2       243       395       394      1971      1972      1967
 -1       635    8    0    1
 -2       244       245       396      1517      1973      1974
 -1       636    8    0    1
 -2       244       396       395      1974      1975      1970
 -1       637    8    0    1
 -2       245       246       397      1520      1976      1977
 -1       638    8    0    1
 -2       245       397       396      1977      1978      1973
 -1       639    8    0    1
 -2       246       247       398      1523      1979      1980
 -1       640    8    0    1
 -2       246       398       397      1980      1981      1976
 -1       641    8    0    1
 -2       247       248       399      1526      1982      1983
 -1       642    8    0    1
 -2       247       399       398      1983      1984      1979
 -1       643    8    0    1
 -2       248       249       400      1529      1985      1986
 -1       644    8    0    1
 -2       248       400       399      1986      1987      1982
 -1       645    8    0    1
 -2       249       250       401      1532      1988      1989
 -1       646    8    0    1
 -2       249       401       400      1989      1990      1985
 -1       647    8    0    1
 -2       250       251       402      1535      1991      1992
 -1       648    8    0    1
 -2       250       402       401      1992      1993      1988
 -1       649    8    0    1
 -2       251       252       403      1538      1994      1995
 -1       650    8    0    1
 -2       251       403       402      1995      1996      1991
 -1       651    8    0    1
 -2       252       253       404      1541      1997      1998
 -1       652    8    0    1
 -2       252       404       403      1998      1999      1994
 -1       653    8    0    1
 -2       253       254       405      1544      2000      2001
 -1       654    8    0    1
 -2       253       405       404      2001      2002      1997
 -1       655    8    0    1
 -2       254       255       406      1547      2003      2004
 -1       656    8    0    1
 -2       254       406       405      2004      2005      2000
 -1       657    8    0    1
 -2       255       256       407      1550      2006      2007
 -1       658    8    0    1
 -2       255       407       406      2007      2008      2003
 -1       659    8    0    1
 -2       256       257       408      1553      2009      2010
 -1       660    8    0    1
 -2       256       408       407      2010      2011      2006
 -1       661    8    0    1
 -2       257       258       409      1556      2012      2013
 -1       662    8    0    1
 -2       257       409       408      2013      2014      2009
 -1       663    8    0    1
 -2       258       259       410      1559      2015      2016
 -1       664    8    0    1
 -2       258       410       409      2016      2017      2012
 -1       665    8    0    1
 -2       259       260       411      1562      2018      2019
 -1       666    8    0    1
 -2       259       411       410      2019      2020      2015
 -1       667    8    0    1
 -2       260       261       412      1565      2021      2022
 -1       668    8    0    1
 -2       260       412       411      2022      2023      2018
 -1       669    8    0    1
 -2       261       262       413      1568      2024      2025
 -1       670    8    0    1
 -2       261       413       412      2025      2026      2021
 -1       671    8    0    1
 -2       262       263       414      1571      2027      2028
 -1       672    8    0    1
 -2       262       414       413      2028      2029      2024
 -1       673    8    0    1
 -2       263       264       415      1574      2030      2031
 -1       674    8    0    1
 -2       263       415       414      2031      2032      2027
 -1       675    8    0    1
 -2       264       265       416      1577      2033      2034
 -1       676    8    0    1
 -2       264       416       415      2034      2035      2030
 -1       677    8    0    1
 -2       265       266       417      1580      2036      2037
 -1       678    8    0    1
 -2       265       417       416      2037      2038      2033
 -1       679    8    0    1
 -2       266       267       418      1583      2039      2040
 -1       680    8    0    1
 -2       266       418       417      2040      2041      2036
 -1       681    8    0    1
 -2       267       268       419      1586      2042      2043
 -1       682    8    0    1
 -2       267       419       418      2043      2044      2039
 -1       683    8    0    1
 -2       268       269       420      1589      2045      2046
 -1       684    8    0    1
 -2       268       420       419      2046      2047      2042
 -1       685    8    0    1
 -2       269       270       421      1592      2048      2049
 -1       686    8    0    1
 -2       269       421       420      2049      2050      2045
 -1       687    8    0    1
 -2       270       271       422      1595      2051      2052
 -1       688    8    0    1
 -2       270       422       421      2052      2053      2048
 -1       689    8    0    1
 -2       271       272       423      1598      2054      2055
 -1       690    8    0    1
 -2       271       423       422      2055      2056      2051
 -1       691    8    0    1
 -2       272       273       424      1601      2057      2058
 -1       692    8    0    1
 -2       272       424       423      2058      2059      2054
 -1       693    8    0    1
 -2       273       274       425      1604      2060      2061
 -1       694    8    0    1
 -2       273       425       424      2061      2062      2057
 -1       695    8    0    1
 -2       274       275       426      1607      2063      2064
 -1       696    8    0    1
 -2       425       274       426      2060      2064      2065
 -1       697    8    0    1
 -2       275       276       426      1715      2066      2063
 -1       698    8    0    1
 -2       278       279       427      1619      2067      2068
 -1       699    8    0    1
 -2       277       278       428      1616      2069      2070
 -1       700    8    0    1
 -2       278       427       428      2068      2071      2069
 -1       701    8    0    1
 -2       276       277       429      1613      2072      2073
 -1       702    8    0    1
 -2       426       276       429      2066      2073      2074
 -1       703    8    0    1
 -2       277       428       429      2070      2075      2072
 -1       704    8    0    1
 -2       279       280       430      1622      2076      2077
 -1       705    8    0    1
 -2       279       430       427      2077      2078      2067
 -1       706    8    0    1
 -2       280       281       431      1625      2079      2080
 -1       707    8    0    1
 -2       280       431       430      2080      2081      2076
 -1       708    8    0    1
 -2       281       282       432      1628      2082      2083
 -1       709    8    0    1
 -2       281       432       431      2083      2084      2079
 -1       710    8    0    1
 -2       282       283       433      1631      2085      2086
 -1       711    8    0    1
 -2       282       433       432      2086      2087      2082
 -1       712    8    0    1
 -2       283       284       434      1634      2088      2089
 -1       713    8    0    1
 -2       283       434       433      2089      2090      2085
 -1       714    8    0    1
 -2       284       285       435      1637      2091      2092
 -1       715    8    0    1
 -2       284       435       434      2092      2093      2088
 -1       716    8    0    1
 -2       285       286       436      1640      2094      2095
 -1       717    8    0    1
 -2       285       436       435      2095      2096      2091
 -1       718    8    0    1
 -2       286       287       437      1643      2097      2098
 -1       719    8    0    1
 -2       286       437       436      2098      2099      2094
 -1       720    8    0    1
 -2       287       288       438      1646      2100      2101
 -1       721    8    0    1
 -2       287       438       437      2101      2102      2097
 -1       722    8    0    1
 -2       288       289       439      1649      2103      2104
 -1       723    8    0    1
 -2       288       439       438      2104      2105      2100
 -1       724    8    0    1
 -2       292       293       440      1717      2106      2107
 -1       725    8    0    1
 -2       319       291       441      1718      2108      2109
 -1       726    8    0    1
 -2       291       292       442      1716      2110      2111
 -1       727    8    0    1
 -2       293       294       443      1713      2112      2113
 -1       728    8    0    1
 -2       294       295       444      1712      2114      2115
 -1       729    8    0    1
 -2       166       167       445      1281      2116      2117
 -1       730    8    0    1
 -2       320       166       445      1744      2117      2118
 -1       731    8    0    1
 -2       167       322       445      1750      2119      2116
 -1       732    8    0    1
 -2       296       297       446      1720      2120      2121
 -1       733    8    0    1
 -2       297       298       447      1721      2122      2123
 -1       734    8    0    1
 -2       298       299       448      1722      2124      2125
 -1       735    8    0    1
 -2       299       300       449      1723      2126      2127
 -1       736    8    0    1
 -2       299       449       448      2127      2128      2124
 -1       737    8    0    1
 -2       300       301       450      1724      2129      2130
 -1       738    8    0    1
 -2       301       302       451      1725      2131      2132
 -1       739    8    0    1
 -2       301       451       450      2132      2133      2129
 -1       740    8    0    1
 -2       302       303       452      1726      2134      2135
 -1       741    8    0    1
 -2       303       304       453      1727      2136      2137
 -1       742    8    0    1
 -2       304       305       454      1728      2138      2139
 -1       743    8    0    1
 -2       305       306       455      1729      2140      2141
 -1       744    8    0    1
 -2       306       307       456      1730      2142      2143
 -1       745    8    0    1
 -2       307       308       457      1731      2144      2145
 -1       746    8    0    1
 -2       308       309       458      1732      2146      2147
 -1       747    8    0    1
 -2       308       458       457      2147      2148      2144
 -1       748    8    0    1
 -2       309       310       459      1733      2149      2150
 -1       749    8    0    1
 -2       310       311       460      1734      2151      2152
 -1       750    8    0    1
 -2       310       460       459      2152      2153      2149
 -1       751    8    0    1
 -2       311       312       461      1735      2154      2155
 -1       752    8    0    1
 -2       312       313       462      1736      2156      2157
 -1       753    8    0    1
 -2       313       314       463      1737      2158      2159
 -1       754    8    0    1
 -2       314       315       464      1738      2160      2161
 -1       755    8    0    1
 -2       315       316       465      1739      2162      2163
 -1       756    8    0    1
 -2       316       317       466      1740      2164      2165
 -1       757    8    0    1
 -2       317       318       467      1741      2166      2167
 -1       758    8    0    1
 -2       318       319       468      1742      2168      2169
 -1       759    8    0    1
 -2       295       296       469      1719      2170      2171
 -1       760    8    0    1
 -2       443       294       444      2112      2115      2172
 -1       761    8    0    1
 -2       180       321       181      1789      2173      1323
 -1       762    8    0    1
 -2       444       295       469      2114      2171      2174
 -1       763    8    0    1
 -2       296       446       469      2121      2175      2170
 -1       764    8    0    1
 -2       335       181       321      1790      2173      2176
 -1       765    8    0    1
 -2       442       292       440      2110      2107      2177
 -1       766    8    0    1
 -2       441       291       442      2108      2111      2178
 -1       767    8    0    1
 -2       439       289       290      2103      1652      2179
 -1       768    8    0    1
 -2       440       293       443      2106      2113      2180
 -1       769    8    0    1
 -2       319       441       468      2109      2181      2168
 -1       770    8    0    1
 -2       467       318       468      2166      2169      2182
 -1       771    8    0    1
 -2       466       317       467      2164      2167      2183
 -1       772    8    0    1
 -2       465       316       466      2162      2165      2184
 -1       773    8    0    1
 -2       464       315       465      2160      2163      2185
 -1       774    8    0    1
 -2       463       314       464      2158      2161      2186
 -1       775    8    0    1
 -2       462       313       463      2156      2159      2187
 -1       776    8    0    1
 -2       460       311       461      2151      2155      2188
 -1       777    8    0    1
 -2       458       309       459      2146      2150      2189
 -1       778    8    0    1
 -2       456       307       470      2142      2190      2191
 -1       779    8    0    1
 -2       307       457       470      2145      2192      2190
 -1       780    8    0    1
 -2       455       306       456      2140      2143      2193
 -1       781    8    0    1
 -2       454       305       455      2138      2141      2194
 -1       782    8    0    1
 -2       453       304       454      2136      2139      2195
 -1       783    8    0    1
 -2       451       302       452      2131      2135      2196
 -1       784    8    0    1
 -2       449       300       450      2126      2130      2197
 -1       785    8    0    1
 -2       446       297       447      2120      2123      2198
 -1       786    8    0    1
 -2       447       298       448      2122      2125      2199
 -1       787    8    0    1
 -2       452       303       453      2134      2137      2200
 -1       788    8    0    1
 -2       461       312       462      2154      2157      2201
 -1       789    8    0    1
 -2       334       381       471      1930      2202      2203
 -1       790    8    0    1
 -2       323       324       472      1756      2204      2205
 -1       791    8    0    1
 -2       322       323       473      1753      2206      2207
 -1       792    8    0    1
 -2       323       472       473      2205      2208      2206
 -1       793    8    0    1
 -2       325       326       474      1762      2209      2210
 -1       794    8    0    1
 -2       326       327       475      1765      2211      2212
 -1       795    8    0    1
 -2       326       475       474      2212      2213      2209
 -1       796    8    0    1
 -2       327       328       476      1768      2214      2215
 -1       797    8    0    1
 -2       327       476       475      2215      2216      2211
 -1       798    8    0    1
 -2       328       329       477      1771      2217      2218
 -1       799    8    0    1
 -2       328       477       476      2218      2219      2214
 -1       800    8    0    1
 -2       329       330       478      1774      2220      2221
 -1       801    8    0    1
 -2       329       478       477      2221      2222      2217
 -1       802    8    0    1
 -2       330       331       479      1777      2223      2224
 -1       803    8    0    1
 -2       330       479       478      2224      2225      2220
 -1       804    8    0    1
 -2       381       382       480      1933      2226      2227
 -1       805    8    0    1
 -2       381       480       471      2227      2228      2202
 -1       806    8    0    1
 -2       336       335       481      1794      2229      2230
 -1       807    8    0    1
 -2       444       469       482      2174      2231      2232
 -1       808    8    0    1
 -2       337       336       483      1797      2233      2234
 -1       809    8    0    1
 -2       336       481       483      2230      2235      2233
 -1       810    8    0    1
 -2       338       337       484      1800      2236      2237
 -1       811    8    0    1
 -2       337       483       484      2234      2238      2236
 -1       812    8    0    1
 -2       339       338       485      1803      2239      2240
 -1       813    8    0    1
 -2       338       484       485      2237      2241      2239
 -1       814    8    0    1
 -2       340       339       486      1806      2242      2243
 -1       815    8    0    1
 -2       339       485       486      2240      2244      2242
 -1       816    8    0    1
 -2       341       340       487      1809      2245      2246
 -1       817    8    0    1
 -2       340       486       487      2243      2247      2245
 -1       818    8    0    1
 -2       342       341       488      1812      2248      2249
 -1       819    8    0    1
 -2       341       487       488      2246      2250      2248
 -1       820    8    0    1
 -2       343       342       489      1815      2251      2252
 -1       821    8    0    1
 -2       342       488       489      2249      2253      2251
 -1       822    8    0    1
 -2       344       343       490      1818      2254      2255
 -1       823    8    0    1
 -2       343       489       490      2252      2256      2254
 -1       824    8    0    1
 -2       345       344       491      1821      2257      2258
 -1       825    8    0    1
 -2       344       490       491      2255      2259      2257
 -1       826    8    0    1
 -2       346       345       492      1824      2260      2261
 -1       827    8    0    1
 -2       345       491       492      2258      2262      2260
 -1       828    8    0    1
 -2       347       346       493      1827      2263      2264
 -1       829    8    0    1
 -2       346       492       493      2261      2265      2263
 -1       830    8    0    1
 -2       348       347       494      1830      2266      2267
 -1       831    8    0    1
 -2       347       493       494      2264      2268      2266
 -1       832    8    0    1
 -2       349       348       495      1833      2269      2270
 -1       833    8    0    1
 -2       348       494       495      2267      2271      2269
 -1       834    8    0    1
 -2       350       349       496      1836      2272      2273
 -1       835    8    0    1
 -2       349       495       496      2270      2274      2272
 -1       836    8    0    1
 -2       351       350       497      1839      2275      2276
 -1       837    8    0    1
 -2       350       496       497      2273      2277      2275
 -1       838    8    0    1
 -2       352       351       498      1842      2278      2279
 -1       839    8    0    1
 -2       351       497       498      2276      2280      2278
 -1       840    8    0    1
 -2       353       352       499      1845      2281      2282
 -1       841    8    0    1
 -2       352       498       499      2279      2283      2281
 -1       842    8    0    1
 -2       354       353       500      1848      2284      2285
 -1       843    8    0    1
 -2       353       499       500      2282      2286      2284
 -1       844    8    0    1
 -2       355       354       501      1851      2287      2288
 -1       845    8    0    1
 -2       354       500       501      2285      2289      2287
 -1       846    8    0    1
 -2       356       355       502      1854      2290      2291
 -1       847    8    0    1
 -2       355       501       502      2288      2292      2290
 -1       848    8    0    1
 -2       357       356       503      1857      2293      2294
 -1       849    8    0    1
 -2       356       502       503      2291      2295      2293
 -1       850    8    0    1
 -2       358       357       504      1860      2296      2297
 -1       851    8    0    1
 -2       357       503       504      2294      2298      2296
 -1       852    8    0    1
 -2       359       358       505      1863      2299      2300
 -1       853    8    0    1
 -2       358       504       505      2297      2301      2299
 -1       854    8    0    1
 -2       360       359       506      1866      2302      2303
 -1       855    8    0    1
 -2       359       505       506      2300      2304      2302
 -1       856    8    0    1
 -2       361       360       507      1869      2305      2306
 -1       857    8    0    1
 -2       360       506       507      2303      2307      2305
 -1       858    8    0    1
 -2       362       361       508      1872      2308      2309
 -1       859    8    0    1
 -2       361       507       508      2306      2310      2308
 -1       860    8    0    1
 -2       363       362       509      1875      2311      2312
 -1       861    8    0    1
 -2       362       508       509      2309      2313      2311
 -1       862    8    0    1
 -2       364       363       510      1878      2314      2315
 -1       863    8    0    1
 -2       363       509       510      2312      2316      2314
 -1       864    8    0    1
 -2       365       364       511      1881      2317      2318
 -1       865    8    0    1
 -2       364       510       511      2315      2319      2317
 -1       866    8    0    1
 -2       366       365       512      1884      2320      2321
 -1       867    8    0    1
 -2       365       511       512      2318      2322      2320
 -1       868    8    0    1
 -2       367       366       513      1887      2323      2324
 -1       869    8    0    1
 -2       366       512       513      2321      2325      2323
 -1       870    8    0    1
 -2       368       367       514      1890      2326      2327
 -1       871    8    0    1
 -2       367       513       514      2324      2328      2326
 -1       872    8    0    1
 -2       369       368       515      1893      2329      2330
 -1       873    8    0    1
 -2       368       514       515      2327      2331      2329
 -1       874    8    0    1
 -2       370       369       516      1896      2332      2333
 -1       875    8    0    1
 -2       369       515       516      2330      2334      2332
 -1       876    8    0    1
 -2       371       370       517      1899      2335      2336
 -1       877    8    0    1
 -2       370       516       517      2333      2337      2335
 -1       878    8    0    1
 -2       372       371       518      1902      2338      2339
 -1       879    8    0    1
 -2       371       517       518      2336      2340      2338
 -1       880    8    0    1
 -2       373       372       519      1905      2341      2342
 -1       881    8    0    1
 -2       372       518       519      2339      2343      2341
 -1       882    8    0    1
 -2       374       373       520      1908      2344      2345
 -1       883    8    0    1
 -2       373       519       520      2342      2346      2344
 -1       884    8    0    1
 -2       375       374       521      1911      2347      2348
 -1       885    8    0    1
 -2       374       520       521      2345      2349      2347
 -1       886    8    0    1
 -2       376       375       522      1914      2350      2351
 -1       887    8    0    1
 -2       375       521       522      2348      2352      2350
 -1       888    8    0    1
 -2       377       376       523      1917      2353      2354
 -1       889    8    0    1
 -2       376       522       523      2351      2355      2353
 -1       890    8    0    1
 -2       378       377       524      1920      2356      2357
 -1       891    8    0    1
 -2       377       523       524      2354      2358      2356
 -1       892    8    0    1
 -2       379       378       525      1923      2359      2360
 -1       893    8    0    1
 -2       378       524       525      2357      2361      2359
 -1       894    8    0    1
 -2       383       384       526      1939      2362      2363
 -1       895    8    0    1
 -2       384       385       527      1942      2364      2365
 -1       896    8    0    1
 -2       384       527       526      2365      2366      2362
 -1       897    8    0    1
 -2       385       386       528      1945      2367      2368
 -1       898    8    0    1
 -2       385       528       527      2368      2369      2364
 -1       899    8    0    1
 -2       386       387       529      1948      2370      2371
 -1       900    8    0    1
 -2       386       529       528      2371      2372      2367
 -1       901    8    0    1
 -2       387       388       530      1951      2373      2374
 -1       902    8    0    1
 -2       387       530       529      2374      2375      2370
 -1       903    8    0    1
 -2       388       389       531      1954      2376      2377
 -1       904    8    0    1
 -2       388       531       530      2377      2378      2373
 -1       905    8    0    1
 -2       389       390       532      1957      2379      2380
 -1       906    8    0    1
 -2       389       532       531      2380      2381      2376
 -1       907    8    0    1
 -2       390       391       533      1960      2382      2383
 -1       908    8    0    1
 -2       390       533       532      2383      2384      2379
 -1       909    8    0    1
 -2       391       392       534      1963      2385      2386
 -1       910    8    0    1
 -2       391       534       533      2386      2387      2382
 -1       911    8    0    1
 -2       392       393       535      1966      2388      2389
 -1       912    8    0    1
 -2       392       535       534      2389      2390      2385
 -1       913    8    0    1
 -2       393       394       536      1969      2391      2392
 -1       914    8    0    1
 -2       393       536       535      2392      2393      2388
 -1       915    8    0    1
 -2       394       395       537      1972      2394      2395
 -1       916    8    0    1
 -2       394       537       536      2395      2396      2391
 -1       917    8    0    1
 -2       395       396       538      1975      2397      2398
 -1       918    8    0    1
 -2       395       538       537      2398      2399      2394
 -1       919    8    0    1
 -2       396       397       539      1978      2400      2401
 -1       920    8    0    1
 -2       396       539       538      2401      2402      2397
 -1       921    8    0    1
 -2       397       398       540      1981      2403      2404
 -1       922    8    0    1
 -2       397       540       539      2404      2405      2400
 -1       923    8    0    1
 -2       398       399       541      1984      2406      2407
 -1       924    8    0    1
 -2       398       541       540      2407      2408      2403
 -1       925    8    0    1
 -2       399       400       542      1987      2409      2410
 -1       926    8    0    1
 -2       399       542       541      2410      2411      2406
 -1       927    8    0    1
 -2       400       401       543      1990      2412      2413
 -1       928    8    0    1
 -2       400       543       542      2413      2414      2409
 -1       929    8    0    1
 -2       401       402       544      1993      2415      2416
 -1       930    8    0    1
 -2       401       544       543      2416      2417      2412
 -1       931    8    0    1
 -2       402       403       545      1996      2418      2419
 -1       932    8    0    1
 -2       402       545       544      2419      2420      2415
 -1       933    8    0    1
 -2       403       404       546      1999      2421      2422
 -1       934    8    0    1
 -2       403       546       545      2422      2423      2418
 -1       935    8    0    1
 -2       404       405       547      2002      2424      2425
 -1       936    8    0    1
 -2       404       547       546      2425      2426      2421
 -1       937    8    0    1
 -2       405       406       548      2005      2427      2428
 -1       938    8    0    1
 -2       405       548       547      2428      2429      2424
 -1       939    8    0    1
 -2       406       407       549      2008      2430      2431
 -1       940    8    0    1
 -2       406       549       548      2431      2432      2427
 -1       941    8    0    1
 -2       407       408       550      2011      2433      2434
 -1       942    8    0    1
 -2       407       550       549      2434      2435      2430
 -1       943    8    0    1
 -2       408       409       551      2014      2436      2437
 -1       944    8    0    1
 -2       408       551       550      2437      2438      2433
 -1       945    8    0    1
 -2       409       410       552      2017      2439      2440
 -1       946    8    0    1
 -2       409       552       551      2440      2441      2436
 -1       947    8    0    1
 -2       410       411       553      2020      2442      2443
 -1       948    8    0    1
 -2       410       553       552      2443      2444      2439
 -1       949    8    0    1
 -2       411       412       554      2023      2445      2446
 -1       950    8    0    1
 -2       411       554       553      2446      2447      2442
 -1       951    8    0    1
 -2       412       413       555      2026      2448      2449
 -1       952    8    0    1
 -2       412       555       554      2449      2450      2445
 -1       953    8    0    1
 -2       413       414       556      2029      2451      2452
 -1       954    8    0    1
 -2       413       556       555      2452      2453      2448
 -1       955    8    0    1
 -2       414       415       557      2032      2454      2455
 -1       956    8    0    1
 -2       414       557       556      2455      2456      2451
 -1       957    8    0    1
 -2       415       416       558      2035      2457      2458
 -1       958    8    0    1
 -2       415       558       557      2458      2459      2454
 -1       959    8    0    1
 -2       416       417       559      2038      2460      2461
 -1       960    8    0    1
 -2       416       559       558      2461      2462      2457
 -1       961    8    0    1
 -2       417       418       560      2041      2463      2464
 -1       962    8    0    1
 -2       417       560       559      2464      2465      2460
 -1       963    8    0    1
 -2       418       419       561      2044      2466      2467
 -1       964    8    0    1
 -2       418       561       560      2467      2468      2463
 -1       965    8    0    1
 -2       419       420       562      2047      2469      2470
 -1       966    8    0    1
 -2       419       562       561      2470      2471      2466
 -1       967    8    0    1
 -2       420       421       563      2050      2472      2473
 -1       968    8    0    1
 -2       420       563       562      2473      2474      2469
 -1       969    8    0    1
 -2       421       422       564      2053      2475      2476
 -1       970    8    0    1
 -2       421       564       563      2476      2477      2472
 -1       971    8    0    1
 -2       422       423       565      2056      2478      2479
 -1       972    8    0    1
 -2       422       565       564      2479      2480      2475
 -1       973    8    0    1
 -2       423       424       566      2059      2481      2482
 -1       974    8    0    1
 -2       423       566       565      2482      2483      2478
 -1       975    8    0    1
 -2       424       425       567      2062      2484      2485
 -1       976    8    0    1
 -2       424       567       566      2485      2486      2481
 -1       977    8    0    1
 -2       425       426       429      2065      2074      2487
 -1       978    8    0    1
 -2       430       431       568      2081      2488      2489
 -1       979    8    0    1
 -2       431       432       569      2084      2490      2491
 -1       980    8    0    1
 -2       431       569       568      2491      2492      2488
 -1       981    8    0    1
 -2       428       427       570      2071      2493      2494
 -1       982    8    0    1
 -2       427       430       571      2078      2495      2496
 -1       983    8    0    1
 -2       570       427       571      2493      2496      2497
 -1       984    8    0    1
 -2       430       568       571      2489      2498      2495
 -1       985    8    0    1
 -2       432       433       572      2087      2499      2500
 -1       986    8    0    1
 -2       432       572       569      2500      2501      2490
 -1       987    8    0    1
 -2       433       434       573      2090      2502      2503
 -1       988    8    0    1
 -2       433       573       572      2503      2504      2499
 -1       989    8    0    1
 -2       434       435       574      2093      2505      2506
 -1       990    8    0    1
 -2       434       574       573      2506      2507      2502
 -1       991    8    0    1
 -2       435       436       575      2096      2508      2509
 -1       992    8    0    1
 -2       435       575       574      2509      2510      2505
 -1       993    8    0    1
 -2       436       437       576      2099      2511      2512
 -1       994    8    0    1
 -2       436       576       575      2512      2513      2508
 -1       995    8    0    1
 -2       437       438       577      2102      2514      2515
 -1       996    8    0    1
 -2       437       577       576      2515      2516      2511
 -1       997    8    0    1
 -2       438       439       578      2105      2517      2518
 -1       998    8    0    1
 -2       438       578       577      2518      2519      2514
 -1       999    8    0    1
 -2       441       442       579      2178      2520      2521
 -1      1000    8    0    1
 -2       440       443       580      2180      2522      2523
 -1      1001    8    0    1
 -2       382       383       581      1936      2524      2525
 -1      1002    8    0    1
 -2       383       526       581      2363      2526      2524
 -1      1003    8    0    1
 -2       439       290       380      2179      1926      2527
 -1      1004    8    0    1
 -2       468       441       582      2181      2528      2529
 -1      1005    8    0    1
 -2       442       440       583      2177      2530      2531
 -1      1006    8    0    1
 -2       335       321       584      2176      2532      2533
 -1      1007    8    0    1
 -2       481       335       584      2229      2533      2534
 -1      1008    8    0    1
 -2       321       320       584      1748      2535      2532
 -1      1009    8    0    1
 -2       467       468       585      2182      2536      2537
 -1      1010    8    0    1
 -2       468       582       585      2529      2538      2536
 -1      1011    8    0    1
 -2       446       447       586      2198      2539      2540
 -1      1012    8    0    1
 -2       324       325       587      1759      2541      2542
 -1      1013    8    0    1
 -2       472       324       587      2204      2542      2543
 -1      1014    8    0    1
 -2       325       474       587      2210      2544      2541
 -1      1015    8    0    1
 -2       447       448       588      2199      2545      2546
 -1      1016    8    0    1
 -2       452       453       589      2200      2547      2548
 -1      1017    8    0    1
 -2       448       449       590      2128      2549      2550
 -1      1018    8    0    1
 -2       449       450       591      2197      2551      2552
 -1      1019    8    0    1
 -2       449       591       590      2552      2553      2549
 -1      1020    8    0    1
 -2       450       451       592      2133      2554      2555
 -1      1021    8    0    1
 -2       461       462       593      2201      2556      2557
 -1      1022    8    0    1
 -2       451       452       594      2196      2558      2559
 -1      1023    8    0    1
 -2       453       454       595      2195      2560      2561
 -1      1024    8    0    1
 -2       454       455       596      2194      2562      2563
 -1      1025    8    0    1
 -2       455       456       597      2193      2564      2565
 -1      1026    8    0    1
 -2       457       458       598      2148      2566      2567
 -1      1027    8    0    1
 -2       458       459       599      2189      2568      2569
 -1      1028    8    0    1
 -2       458       599       598      2569      2570      2566
 -1      1029    8    0    1
 -2       459       460       600      2153      2571      2572
 -1      1030    8    0    1
 -2       460       461       601      2188      2573      2574
 -1      1031    8    0    1
 -2       462       463       602      2187      2575      2576
 -1      1032    8    0    1
 -2       462       602       593      2576      2577      2556
 -1      1033    8    0    1
 -2       463       464       603      2186      2578      2579
 -1      1034    8    0    1
 -2       464       465       604      2185      2580      2581
 -1      1035    8    0    1
 -2       465       466       605      2184      2582      2583
 -1      1036    8    0    1
 -2       465       605       604      2583      2584      2580
 -1      1037    8    0    1
 -2       466       467       606      2183      2585      2586
 -1      1038    8    0    1
 -2       469       446       607      2175      2587      2588
 -1      1039    8    0    1
 -2       469       607       482      2588      2589      2231
 -1      1040    8    0    1
 -2       333       334       608      1788      2590      2591
 -1      1041    8    0    1
 -2       332       333       608      1783      2591      2592
 -1      1042    8    0    1
 -2       334       471       608      2203      2593      2590
 -1      1043    8    0    1
 -2       443       444       609      2172      2594      2595
 -1      1044    8    0    1
 -2       447       588       610      2546      2596      2597
 -1      1045    8    0    1
 -2       447       610       586      2597      2598      2539
 -1      1046    8    0    1
 -2       322       473       611      2207      2599      2600
 -1      1047    8    0    1
 -2       322       611       445      2600      2601      2119
 -1      1048    8    0    1
 -2       480       382       581      2226      2525      2602
 -1      1049    8    0    1
 -2       331       332       608      1780      2592      2603
 -1      1050    8    0    1
 -2       609       444       482      2594      2232      2604
 -1      1051    8    0    1
 -2       607       446       586      2587      2540      2605
 -1      1052    8    0    1
 -2       605       466       612      2582      2606      2607
 -1      1053    8    0    1
 -2       466       606       612      2586      2608      2606
 -1      1054    8    0    1
 -2       425       429       567      2487      2609      2484
 -1      1055    8    0    1
 -2       580       443       609      2522      2595      2610
 -1      1056    8    0    1
 -2       429       428       567      2075      2611      2609
 -1      1057    8    0    1
 -2       602       463       603      2575      2579      2612
 -1      1058    8    0    1
 -2       441       579       613      2521      2613      2614
 -1      1059    8    0    1
 -2       441       613       582      2614      2615      2528
 -1      1060    8    0    1
 -2       579       442       583      2520      2531      2616
 -1      1061    8    0    1
 -2       440       580       583      2523      2617      2530
 -1      1062    8    0    1
 -2       601       461       593      2573      2557      2618
 -1      1063    8    0    1
 -2       599       459       600      2568      2572      2619
 -1      1064    8    0    1
 -2       331       608       479      2603      2620      2223
 -1      1065    8    0    1
 -2       597       456       614      2564      2621      2622
 -1      1066    8    0    1
 -2       456       470       614      2191      2623      2621
 -1      1067    8    0    1
 -2       596       455       597      2562      2565      2624
 -1      1068    8    0    1
 -2       595       454       596      2560      2563      2625
 -1      1069    8    0    1
 -2       594       452       589      2558      2548      2626
 -1      1070    8    0    1
 -2       591       450       592      2551      2555      2627
 -1      1071    8    0    1
 -2       470       457       598      2192      2567      2628
 -1      1072    8    0    1
 -2       584       320       445      2535      2118      2629
 -1      1073    8    0    1
 -2       589       453       615      2547      2630      2631
 -1      1074    8    0    1
 -2       453       595       615      2561      2632      2630
 -1      1075    8    0    1
 -2       467       585       606      2537      2633      2585
 -1      1076    8    0    1
 -2       448       590       588      2550      2634      2545
 -1      1077    8    0    1
 -2       592       451       594      2554      2559      2635
 -1      1078    8    0    1
 -2       600       460       601      2571      2574      2636
 -1      1079    8    0    1
 -2       439       380       616      2527      2637      2638
 -1      1080    8    0    1
 -2       578       439       616      2517      2638      2639
 -1      1081    8    0    1
 -2       380       379       616      1927      2640      2637
 -1      1082    8    0    1
 -2       567       428       570      2611      2494      2641
 -1      1083    8    0    1
 -2       603       464       604      2578      2581      2642
 -1      1084    8    0    1
 -2       616       379       525      2640      2360      2643
 -1      1085    8    0    1
 -2       475       476       617      2216      2644      2645
 -1      1086    8    0    1
 -2       474       475       618      2213      2646      2647
 -1      1087    8    0    1
 -2       475       617       618      2645      2648      2646
 -1      1088    8    0    1
 -2       477       478       619      2222      2649      2650
 -1      1089    8    0    1
 -2       478       479       620      2225      2651      2652
 -1      1090    8    0    1
 -2       478       620       619      2652      2653      2649
 -1      1091    8    0    1
 -2       471       480       621      2228      2654      2655
 -1      1092    8    0    1
 -2       585       582       622      2538      2656      2657
 -1      1093    8    0    1
 -2       607       586       623      2605      2658      2659
 -1      1094    8    0    1
 -2       484       483       624      2238      2660      2661
 -1      1095    8    0    1
 -2       485       484       625      2241      2662      2663
 -1      1096    8    0    1
 -2       484       624       625      2661      2664      2662
 -1      1097    8    0    1
 -2       487       486       601      2247      2665      2666
 -1      1098    8    0    1
 -2       488       487       593      2250      2667      2668
 -1      1099    8    0    1
 -2       489       488       603      2253      2669      2670
 -1      1100    8    0    1
 -2       490       489       603      2256      2670      2671
 -1      1101    8    0    1
 -2       491       490       626      2259      2672      2673
 -1      1102    8    0    1
 -2       492       491       627      2262      2674      2675
 -1      1103    8    0    1
 -2       491       626       627      2673      2676      2674
 -1      1104    8    0    1
 -2       493       492       628      2265      2677      2678
 -1      1105    8    0    1
 -2       492       627       628      2675      2679      2677
 -1      1106    8    0    1
 -2       494       493       629      2268      2680      2681
 -1      1107    8    0    1
 -2       493       628       629      2678      2682      2680
 -1      1108    8    0    1
 -2       495       494       630      2271      2683      2684
 -1      1109    8    0    1
 -2       494       629       630      2681      2685      2683
 -1      1110    8    0    1
 -2       496       495       631      2274      2686      2687
 -1      1111    8    0    1
 -2       495       630       631      2684      2688      2686
 -1      1112    8    0    1
 -2       497       496       632      2277      2689      2690
 -1      1113    8    0    1
 -2       496       631       632      2687      2691      2689
 -1      1114    8    0    1
 -2       498       497       633      2280      2692      2693
 -1      1115    8    0    1
 -2       497       632       633      2690      2694      2692
 -1      1116    8    0    1
 -2       499       498       634      2283      2695      2696
 -1      1117    8    0    1
 -2       498       633       634      2693      2697      2695
 -1      1118    8    0    1
 -2       500       499       635      2286      2698      2699
 -1      1119    8    0    1
 -2       499       634       635      2696      2700      2698
 -1      1120    8    0    1
 -2       501       500       636      2289      2701      2702
 -1      1121    8    0    1
 -2       500       635       636      2699      2703      2701
 -1      1122    8    0    1
 -2       502       501       637      2292      2704      2705
 -1      1123    8    0    1
 -2       501       636       637      2702      2706      2704
 -1      1124    8    0    1
 -2       503       502       638      2295      2707      2708
 -1      1125    8    0    1
 -2       502       637       638      2705      2709      2707
 -1      1126    8    0    1
 -2       504       503       639      2298      2710      2711
 -1      1127    8    0    1
 -2       503       638       639      2708      2712      2710
 -1      1128    8    0    1
 -2       505       504       640      2301      2713      2714
 -1      1129    8    0    1
 -2       504       639       640      2711      2715      2713
 -1      1130    8    0    1
 -2       506       505       641      2304      2716      2717
 -1      1131    8    0    1
 -2       505       640       641      2714      2718      2716
 -1      1132    8    0    1
 -2       507       506       642      2307      2719      2720
 -1      1133    8    0    1
 -2       506       641       642      2717      2721      2719
 -1      1134    8    0    1
 -2       508       507       643      2310      2722      2723
 -1      1135    8    0    1
 -2       507       642       643      2720      2724      2722
 -1      1136    8    0    1
 -2       509       508       644      2313      2725      2726
 -1      1137    8    0    1
 -2       508       643       644      2723      2727      2725
 -1      1138    8    0    1
 -2       510       509       645      2316      2728      2729
 -1      1139    8    0    1
 -2       509       644       645      2726      2730      2728
 -1      1140    8    0    1
 -2       511       510       646      2319      2731      2732
 -1      1141    8    0    1
 -2       510       645       646      2729      2733      2731
 -1      1142    8    0    1
 -2       512       511       647      2322      2734      2735
 -1      1143    8    0    1
 -2       511       646       647      2732      2736      2734
 -1      1144    8    0    1
 -2       513       512       648      2325      2737      2738
 -1      1145    8    0    1
 -2       512       647       648      2735      2739      2737
 -1      1146    8    0    1
 -2       514       513       649      2328      2740      2741
 -1      1147    8    0    1
 -2       513       648       649      2738      2742      2740
 -1      1148    8    0    1
 -2       515       514       650      2331      2743      2744
 -1      1149    8    0    1
 -2       514       649       650      2741      2745      2743
 -1      1150    8    0    1
 -2       516       515       651      2334      2746      2747
 -1      1151    8    0    1
 -2       515       650       651      2744      2748      2746
 -1      1152    8    0    1
 -2       517       516       652      2337      2749      2750
 -1      1153    8    0    1
 -2       516       651       652      2747      2751      2749
 -1      1154    8    0    1
 -2       518       517       653      2340      2752      2753
 -1      1155    8    0    1
 -2       517       652       653      2750      2754      2752
 -1      1156    8    0    1
 -2       519       518       654      2343      2755      2756
 -1      1157    8    0    1
 -2       518       653       654      2753      2757      2755
 -1      1158    8    0    1
 -2       520       519       655      2346      2758      2759
 -1      1159    8    0    1
 -2       519       654       655      2756      2760      2758
 -1      1160    8    0    1
 -2       521       520       656      2349      2761      2762
 -1      1161    8    0    1
 -2       520       655       656      2759      2763      2761
 -1      1162    8    0    1
 -2       522       521       657      2352      2764      2765
 -1      1163    8    0    1
 -2       521       656       657      2762      2766      2764
 -1      1164    8    0    1
 -2       523       522       658      2355      2767      2768
 -1      1165    8    0    1
 -2       522       657       658      2765      2769      2767
 -1      1166    8    0    1
 -2       524       523       659      2358      2770      2771
 -1      1167    8    0    1
 -2       523       658       659      2768      2772      2770
 -1      1168    8    0    1
 -2       525       524       660      2361      2773      2774
 -1      1169    8    0    1
 -2       524       659       660      2771      2775      2773
 -1      1170    8    0    1
 -2       527       528       661      2369      2776      2777
 -1      1171    8    0    1
 -2       567       570       662      2641      2778      2779
 -1      1172    8    0    1
 -2       567       662       566      2779      2780      2486
 -1      1173    8    0    1
 -2       526       527       663      2366      2781      2782
 -1      1174    8    0    1
 -2       527       661       663      2777      2783      2781
 -1      1175    8    0    1
 -2       529       530       664      2375      2784      2785
 -1      1176    8    0    1
 -2       530       531       665      2378      2786      2787
 -1      1177    8    0    1
 -2       530       665       664      2787      2788      2784
 -1      1178    8    0    1
 -2       531       532       666      2381      2789      2790
 -1      1179    8    0    1
 -2       531       666       665      2790      2791      2786
 -1      1180    8    0    1
 -2       532       533       667      2384      2792      2793
 -1      1181    8    0    1
 -2       532       667       666      2793      2794      2789
 -1      1182    8    0    1
 -2       533       534       668      2387      2795      2796
 -1      1183    8    0    1
 -2       533       668       667      2796      2797      2792
 -1      1184    8    0    1
 -2       534       535       669      2390      2798      2799
 -1      1185    8    0    1
 -2       534       669       668      2799      2800      2795
 -1      1186    8    0    1
 -2       535       536       670      2393      2801      2802
 -1      1187    8    0    1
 -2       535       670       669      2802      2803      2798
 -1      1188    8    0    1
 -2       536       537       671      2396      2804      2805
 -1      1189    8    0    1
 -2       536       671       670      2805      2806      2801
 -1      1190    8    0    1
 -2       537       538       672      2399      2807      2808
 -1      1191    8    0    1
 -2       537       672       671      2808      2809      2804
 -1      1192    8    0    1
 -2       538       539       673      2402      2810      2811
 -1      1193    8    0    1
 -2       538       673       672      2811      2812      2807
 -1      1194    8    0    1
 -2       539       540       674      2405      2813      2814
 -1      1195    8    0    1
 -2       539       674       673      2814      2815      2810
 -1      1196    8    0    1
 -2       540       541       675      2408      2816      2817
 -1      1197    8    0    1
 -2       540       675       674      2817      2818      2813
 -1      1198    8    0    1
 -2       541       542       676      2411      2819      2820
 -1      1199    8    0    1
 -2       541       676       675      2820      2821      2816
 -1      1200    8    0    1
 -2       542       543       677      2414      2822      2823
 -1      1201    8    0    1
 -2       542       677       676      2823      2824      2819
 -1      1202    8    0    1
 -2       543       544       678      2417      2825      2826
 -1      1203    8    0    1
 -2       543       678       677      2826      2827      2822
 -1      1204    8    0    1
 -2       544       545       679      2420      2828      2829
 -1      1205    8    0    1
 -2       544       679       678      2829      2830      2825
 -1      1206    8    0    1
 -2       545       546       680      2423      2831      2832
 -1      1207    8    0    1
 -2       545       680       679      2832      2833      2828
 -1      1208    8    0    1
 -2       546       547       681      2426      2834      2835
 -1      1209    8    0    1
 -2       546       681       680      2835      2836      2831
 -1      1210    8    0    1
 -2       547       548       682      2429      2837      2838
 -1      1211    8    0    1
 -2       547       682       681      2838      2839      2834
 -1      1212    8    0    1
 -2       548       549       683      2432      2840      2841
 -1      1213    8    0    1
 -2       548       683       682      2841      2842      2837
 -1      1214    8    0    1
 -2       549       550       684      2435      2843      2844
 -1      1215    8    0    1
 -2       549       684       683      2844      2845      2840
 -1      1216    8    0    1
 -2       550       551       685      2438      2846      2847
 -1      1217    8    0    1
 -2       550       685       684      2847      2848      2843
 -1      1218    8    0    1
 -2       551       552       686      2441      2849      2850
 -1      1219    8    0    1
 -2       551       686       685      2850      2851      2846
 -1      1220    8    0    1
 -2       552       553       687      2444      2852      2853
 -1      1221    8    0    1
 -2       552       687       686      2853      2854      2849
 -1      1222    8    0    1
 -2       553       554       688      2447      2855      2856
 -1      1223    8    0    1
 -2       553       688       687      2856      2857      2852
 -1      1224    8    0    1
 -2       554       555       689      2450      2858      2859
 -1      1225    8    0    1
 -2       554       689       688      2859      2860      2855
 -1      1226    8    0    1
 -2       555       556       690      2453      2861      2862
 -1      1227    8    0    1
 -2       555       690       689      2862      2863      2858
 -1      1228    8    0    1
 -2       556       557       691      2456      2864      2865
 -1      1229    8    0    1
 -2       556       691       690      2865      2866      2861
 -1      1230    8    0    1
 -2       557       558       692      2459      2867      2868
 -1      1231    8    0    1
 -2       557       692       691      2868      2869      2864
 -1      1232    8    0    1
 -2       558       559       693      2462      2870      2871
 -1      1233    8    0    1
 -2       558       693       692      2871      2872      2867
 -1      1234    8    0    1
 -2       559       560       694      2465      2873      2874
 -1      1235    8    0    1
 -2       559       694       693      2874      2875      2870
 -1      1236    8    0    1
 -2       560       561       695      2468      2876      2877
 -1      1237    8    0    1
 -2       560       695       694      2877      2878      2873
 -1      1238    8    0    1
 -2       561       562       696      2471      2879      2880
 -1      1239    8    0    1
 -2       561       696       695      2880      2881      2876
 -1      1240    8    0    1
 -2       562       563       697      2474      2882      2883
 -1      1241    8    0    1
 -2       562       697       696      2883      2884      2879
 -1      1242    8    0    1
 -2       563       564       698      2477      2885      2886
 -1      1243    8    0    1
 -2       563       698       697      2886      2887      2882
 -1      1244    8    0    1
 -2       564       565       699      2480      2888      2889
 -1      1245    8    0    1
 -2       564       699       698      2889      2890      2885
 -1      1246    8    0    1
 -2       565       566       700      2483      2891      2892
 -1      1247    8    0    1
 -2       699       565       700      2888      2892      2893
 -1      1248    8    0    1
 -2       566       662       700      2780      2894      2891
 -1      1249    8    0    1
 -2       580       609       701      2610      2895      2896
 -1      1250    8    0    1
 -2       572       573       702      2504      2897      2898
 -1      1251    8    0    1
 -2       568       569       703      2492      2899      2900
 -1      1252    8    0    1
 -2       573       574       704      2507      2901      2902
 -1      1253    8    0    1
 -2       573       704       702      2902      2903      2897
 -1      1254    8    0    1
 -2       569       572       705      2501      2904      2905
 -1      1255    8    0    1
 -2       703       569       705      2899      2905      2906
 -1      1256    8    0    1
 -2       572       702       705      2898      2907      2904
 -1      1257    8    0    1
 -2       574       575       706      2510      2908      2909
 -1      1258    8    0    1
 -2       574       706       704      2909      2910      2901
 -1      1259    8    0    1
 -2       575       576       707      2513      2911      2912
 -1      1260    8    0    1
 -2       575       707       706      2912      2913      2908
 -1      1261    8    0    1
 -2       576       577       708      2516      2914      2915
 -1      1262    8    0    1
 -2       576       708       707      2915      2916      2911
 -1      1263    8    0    1
 -2       479       608       471      2620      2593      2917
 -1      1264    8    0    1
 -2       579       583       709      2616      2918      2919
 -1      1265    8    0    1
 -2       583       580       710      2617      2920      2921
 -1      1266    8    0    1
 -2       583       710       709      2921      2922      2918
 -1      1267    8    0    1
 -2       481       584       711      2534      2923      2924
 -1      1268    8    0    1
 -2       470       598       712      2628      2925      2926
 -1      1269    8    0    1
 -2       596       597       713      2624      2927      2928
 -1      1270    8    0    1
 -2       581       526       714      2526      2929      2930
 -1      1271    8    0    1
 -2       526       663       714      2782      2931      2929
 -1      1272    8    0    1
 -2       528       529       715      2372      2932      2933
 -1      1273    8    0    1
 -2       661       528       715      2776      2933      2934
 -1      1274    8    0    1
 -2       529       664       715      2785      2935      2932
 -1      1275    8    0    1
 -2       483       481       716      2235      2936      2937
 -1      1276    8    0    1
 -2       624       483       716      2660      2937      2938
 -1      1277    8    0    1
 -2       481       711       716      2924      2939      2936
 -1      1278    8    0    1
 -2       609       482       717      2604      2940      2941
 -1      1279    8    0    1
 -2       480       581       718      2602      2942      2943
 -1      1280    8    0    1
 -2       621       480       718      2654      2943      2944
 -1      1281    8    0    1
 -2       581       714       718      2930      2945      2942
 -1      1282    8    0    1
 -2       593       487       601      2667      2666      2618
 -1      1283    8    0    1
 -2       476       477       719      2219      2946      2947
 -1      1284    8    0    1
 -2       477       619       719      2650      2948      2946
 -1      1285    8    0    1
 -2       473       472       720      2208      2949      2950
 -1      1286    8    0    1
 -2       591       592       721      2627      2951      2952
 -1      1287    8    0    1
 -2       590       591       722      2553      2953      2954
 -1      1288    8    0    1
 -2       599       600       723      2619      2955      2956
 -1      1289    8    0    1
 -2       592       594       724      2635      2957      2958
 -1      1290    8    0    1
 -2       606       585       725      2633      2959      2960
 -1      1291    8    0    1
 -2       585       622       725      2657      2961      2959
 -1      1292    8    0    1
 -2       594       589       726      2626      2962      2963
 -1      1293    8    0    1
 -2       595       596       727      2625      2964      2965
 -1      1294    8    0    1
 -2       596       713       727      2928      2966      2964
 -1      1295    8    0    1
 -2       584       445       711      2629      2967      2923
 -1      1296    8    0    1
 -2       598       599       728      2570      2968      2969
 -1      1297    8    0    1
 -2       578       616       729      2639      2970      2971
 -1      1298    8    0    1
 -2       616       525       729      2643      2972      2970
 -1      1299    8    0    1
 -2       604       605       626      2584      2973      2974
 -1      1300    8    0    1
 -2       588       590       730      2634      2975      2976
 -1      1301    8    0    1
 -2       482       607       731      2589      2977      2978
 -1      1302    8    0    1
 -2       607       623       731      2659      2979      2977
 -1      1303    8    0    1
 -2       601       486       732      2665      2980      2981
 -1      1304    8    0    1
 -2       600       601       732      2636      2981      2982
 -1      1305    8    0    1
 -2       486       485       732      2244      2983      2980
 -1      1306    8    0    1
 -2       611       473       733      2599      2984      2985
 -1      1307    8    0    1
 -2       473       720       733      2950      2986      2984
 -1      1308    8    0    1
 -2       474       618       734      2647      2987      2988
 -1      1309    8    0    1
 -2       474       734       587      2988      2989      2544
 -1      1310    8    0    1
 -2       723       600       732      2955      2982      2990
 -1      1311    8    0    1
 -2       594       726       724      2963      2991      2957
 -1      1312    8    0    1
 -2       597       614       735      2622      2992      2993
 -1      1313    8    0    1
 -2       597       735       713      2993      2994      2927
 -1      1314    8    0    1
 -2       612       606       736      2608      2995      2996
 -1      1315    8    0    1
 -2       606       725       736      2960      2997      2995
 -1      1316    8    0    1
 -2       605       612       626      2607      2998      2973
 -1      1317    8    0    1
 -2       485       625       732      2663      2999      2983
 -1      1318    8    0    1
 -2       488       593       602      2668      2577      3000
 -1      1319    8    0    1
 -2       525       660       729      2774      3001      2972
 -1      1320    8    0    1
 -2       490       603       626      2671      3002      2672
 -1      1321    8    0    1
 -2       580       701       710      2896      3003      2920
 -1      1322    8    0    1
 -2       602       603       488      2612      2669      3000
 -1      1323    8    0    1
 -2       701       609       717      2895      2941      3004
 -1      1324    8    0    1
 -2       568       703       737      2900      3005      3006
 -1      1325    8    0    1
 -2       568       737       571      3006      3007      2498
 -1      1326    8    0    1
 -2       570       571       662      2497      3008      2778
 -1      1327    8    0    1
 -2       712       598       728      2925      2969      3009
 -1      1328    8    0    1
 -2       613       579       738      2613      3010      3011
 -1      1329    8    0    1
 -2       579       709       738      2919      3012      3010
 -1      1330    8    0    1
 -2       479       471       621      2917      2655      3013
 -1      1331    8    0    1
 -2       577       578       729      2519      2971      3014
 -1      1332    8    0    1
 -2       622       582       739      2656      3015      3016
 -1      1333    8    0    1
 -2       582       613       739      2615      3017      3015
 -1      1334    8    0    1
 -2       730       590       740      2975      3018      3019
 -1      1335    8    0    1
 -2       590       722       740      2954      3020      3018
 -1      1336    8    0    1
 -2       614       470       712      2623      2926      3021
 -1      1337    8    0    1
 -2       476       719       617      2947      3022      2644
 -1      1338    8    0    1
 -2       445       611       711      2601      3023      2967
 -1      1339    8    0    1
 -2       722       591       721      2953      2952      3024
 -1      1340    8    0    1
 -2       615       595       741      2632      3025      3026
 -1      1341    8    0    1
 -2       595       727       741      2965      3027      3025
 -1      1342    8    0    1
 -2       472       587       742      2543      3028      3029
 -1      1343    8    0    1
 -2       720       472       742      2949      3029      3030
 -1      1344    8    0    1
 -2       587       734       742      2989      3031      3028
 -1      1345    8    0    1
 -2       721       592       724      2951      2958      3032
 -1      1346    8    0    1
 -2       589       615       743      2631      3033      3034
 -1      1347    8    0    1
 -2       589       743       726      3034      3035      2962
 -1      1348    8    0    1
 -2       599       723       728      2956      3036      2968
 -1      1349    8    0    1
 -2       717       482       731      2940      2978      3037
 -1      1350    8    0    1
 -2       623       586       744      2658      3038      3039
 -1      1351    8    0    1
 -2       586       610       744      2598      3040      3038
 -1      1352    8    0    1
 -2       620       479       621      2651      3013      3041
 -1      1353    8    0    1
 -2       588       730       610      2976      3042      2596
 -1      1354    8    0    1
 -2       577       729       745      3014      3043      3044
 -1      1355    8    0    1
 -2       708       577       745      2914      3044      3045
 -1      1356    8    0    1
 -2       729       660       745      3001      3046      3043
 -1      1357    8    0    1
 -2       619       620       746      2653      3047      3048
 -1      1358    8    0    1
 -2       724       726       747      2991      3049      3050
 -1      1359    8    0    1
 -2       719       619       748      2948      3051      3052
 -1      1360    8    0    1
 -2       619       746       748      3048      3053      3051
 -1      1361    8    0    1
 -2       721       724       749      3032      3054      3055
 -1      1362    8    0    1
 -2       710       701       750      3003      3056      3057
 -1      1363    8    0    1
 -2       628       627       751      2679      3058      3059
 -1      1364    8    0    1
 -2       629       628       752      2682      3060      3061
 -1      1365    8    0    1
 -2       628       751       752      3059      3062      3060
 -1      1366    8    0    1
 -2       630       629       753      2685      3063      3064
 -1      1367    8    0    1
 -2       629       752       753      3061      3065      3063
 -1      1368    8    0    1
 -2       631       630       754      2688      3066      3067
 -1      1369    8    0    1
 -2       630       753       754      3064      3068      3066
 -1      1370    8    0    1
 -2       632       631       755      2691      3069      3070
 -1      1371    8    0    1
 -2       631       754       755      3067      3071      3069
 -1      1372    8    0    1
 -2       633       632       756      2694      3072      3073
 -1      1373    8    0    1
 -2       632       755       756      3070      3074      3072
 -1      1374    8    0    1
 -2       634       633       757      2697      3075      3076
 -1      1375    8    0    1
 -2       633       756       757      3073      3077      3075
 -1      1376    8    0    1
 -2       635       634       758      2700      3078      3079
 -1      1377    8    0    1
 -2       634       757       758      3076      3080      3078
 -1      1378    8    0    1
 -2       636       635       759      2703      3081      3082
 -1      1379    8    0    1
 -2       635       758       759      3079      3083      3081
 -1      1380    8    0    1
 -2       637       636       760      2706      3084      3085
 -1      1381    8    0    1
 -2       636       759       760      3082      3086      3084
 -1      1382    8    0    1
 -2       638       637       761      2709      3087      3088
 -1      1383    8    0    1
 -2       637       760       761      3085      3089      3087
 -1      1384    8    0    1
 -2       639       638       762      2712      3090      3091
 -1      1385    8    0    1
 -2       638       761       762      3088      3092      3090
 -1      1386    8    0    1
 -2       640       639       763      2715      3093      3094
 -1      1387    8    0    1
 -2       639       762       763      3091      3095      3093
 -1      1388    8    0    1
 -2       641       640       764      2718      3096      3097
 -1      1389    8    0    1
 -2       640       763       764      3094      3098      3096
 -1      1390    8    0    1
 -2       642       641       765      2721      3099      3100
 -1      1391    8    0    1
 -2       641       764       765      3097      3101      3099
 -1      1392    8    0    1
 -2       643       642       766      2724      3102      3103
 -1      1393    8    0    1
 -2       642       765       766      3100      3104      3102
 -1      1394    8    0    1
 -2       644       643       767      2727      3105      3106
 -1      1395    8    0    1
 -2       643       766       767      3103      3107      3105
 -1      1396    8    0    1
 -2       645       644       768      2730      3108      3109
 -1      1397    8    0    1
 -2       644       767       768      3106      3110      3108
 -1      1398    8    0    1
 -2       646       645       769      2733      3111      3112
 -1      1399    8    0    1
 -2       645       768       769      3109      3113      3111
 -1      1400    8    0    1
 -2       647       646       770      2736      3114      3115
 -1      1401    8    0    1
 -2       646       769       770      3112      3116      3114
 -1      1402    8    0    1
 -2       648       647       771      2739      3117      3118
 -1      1403    8    0    1
 -2       647       770       771      3115      3119      3117
 -1      1404    8    0    1
 -2       649       648       772      2742      3120      3121
 -1      1405    8    0    1
 -2       648       771       772      3118      3122      3120
 -1      1406    8    0    1
 -2       650       649       773      2745      3123      3124
 -1      1407    8    0    1
 -2       649       772       773      3121      3125      3123
 -1      1408    8    0    1
 -2       651       650       774      2748      3126      3127
 -1      1409    8    0    1
 -2       650       773       774      3124      3128      3126
 -1      1410    8    0    1
 -2       652       651       775      2751      3129      3130
 -1      1411    8    0    1
 -2       651       774       775      3127      3131      3129
 -1      1412    8    0    1
 -2       653       652       776      2754      3132      3133
 -1      1413    8    0    1
 -2       652       775       776      3130      3134      3132
 -1      1414    8    0    1
 -2       654       653       777      2757      3135      3136
 -1      1415    8    0    1
 -2       653       776       777      3133      3137      3135
 -1      1416    8    0    1
 -2       655       654       778      2760      3138      3139
 -1      1417    8    0    1
 -2       654       777       778      3136      3140      3138
 -1      1418    8    0    1
 -2       656       655       779      2763      3141      3142
 -1      1419    8    0    1
 -2       655       778       779      3139      3143      3141
 -1      1420    8    0    1
 -2       657       656       780      2766      3144      3145
 -1      1421    8    0    1
 -2       656       779       780      3142      3146      3144
 -1      1422    8    0    1
 -2       658       657       781      2769      3147      3148
 -1      1423    8    0    1
 -2       657       780       781      3145      3149      3147
 -1      1424    8    0    1
 -2       659       658       782      2772      3150      3151
 -1      1425    8    0    1
 -2       658       781       782      3148      3152      3150
 -1      1426    8    0    1
 -2       660       659       783      2775      3153      3154
 -1      1427    8    0    1
 -2       745       660       783      3046      3154      3155
 -1      1428    8    0    1
 -2       659       782       783      3151      3156      3153
 -1      1429    8    0    1
 -2       663       661       784      2783      3157      3158
 -1      1430    8    0    1
 -2       665       666       785      2791      3159      3160
 -1      1431    8    0    1
 -2       664       665       786      2788      3161      3162
 -1      1432    8    0    1
 -2       665       785       786      3160      3163      3161
 -1      1433    8    0    1
 -2       667       668       787      2797      3164      3165
 -1      1434    8    0    1
 -2       668       669       788      2800      3166      3167
 -1      1435    8    0    1
 -2       668       788       787      3167      3168      3164
 -1      1436    8    0    1
 -2       669       670       789      2803      3169      3170
 -1      1437    8    0    1
 -2       669       789       788      3170      3171      3166
 -1      1438    8    0    1
 -2       670       671       790      2806      3172      3173
 -1      1439    8    0    1
 -2       670       790       789      3173      3174      3169
 -1      1440    8    0    1
 -2       671       672       791      2809      3175      3176
 -1      1441    8    0    1
 -2       671       791       790      3176      3177      3172
 -1      1442    8    0    1
 -2       672       673       792      2812      3178      3179
 -1      1443    8    0    1
 -2       672       792       791      3179      3180      3175
 -1      1444    8    0    1
 -2       673       674       793      2815      3181      3182
 -1      1445    8    0    1
 -2       673       793       792      3182      3183      3178
 -1      1446    8    0    1
 -2       674       675       794      2818      3184      3185
 -1      1447    8    0    1
 -2       674       794       793      3185      3186      3181
 -1      1448    8    0    1
 -2       675       676       795      2821      3187      3188
 -1      1449    8    0    1
 -2       675       795       794      3188      3189      3184
 -1      1450    8    0    1
 -2       676       677       796      2824      3190      3191
 -1      1451    8    0    1
 -2       676       796       795      3191      3192      3187
 -1      1452    8    0    1
 -2       677       678       797      2827      3193      3194
 -1      1453    8    0    1
 -2       677       797       796      3194      3195      3190
 -1      1454    8    0    1
 -2       678       679       798      2830      3196      3197
 -1      1455    8    0    1
 -2       678       798       797      3197      3198      3193
 -1      1456    8    0    1
 -2       679       680       799      2833      3199      3200
 -1      1457    8    0    1
 -2       679       799       798      3200      3201      3196
 -1      1458    8    0    1
 -2       680       681       800      2836      3202      3203
 -1      1459    8    0    1
 -2       680       800       799      3203      3204      3199
 -1      1460    8    0    1
 -2       681       682       801      2839      3205      3206
 -1      1461    8    0    1
 -2       681       801       800      3206      3207      3202
 -1      1462    8    0    1
 -2       682       683       802      2842      3208      3209
 -1      1463    8    0    1
 -2       682       802       801      3209      3210      3205
 -1      1464    8    0    1
 -2       683       684       803      2845      3211      3212
 -1      1465    8    0    1
 -2       683       803       802      3212      3213      3208
 -1      1466    8    0    1
 -2       684       685       804      2848      3214      3215
 -1      1467    8    0    1
 -2       684       804       803      3215      3216      3211
 -1      1468    8    0    1
 -2       685       686       805      2851      3217      3218
 -1      1469    8    0    1
 -2       685       805       804      3218      3219      3214
 -1      1470    8    0    1
 -2       686       687       806      2854      3220      3221
 -1      1471    8    0    1
 -2       686       806       805      3221      3222      3217
 -1      1472    8    0    1
 -2       687       688       807      2857      3223      3224
 -1      1473    8    0    1
 -2       687       807       806      3224      3225      3220
 -1      1474    8    0    1
 -2       688       689       808      2860      3226      3227
 -1      1475    8    0    1
 -2       688       808       807      3227      3228      3223
 -1      1476    8    0    1
 -2       689       690       809      2863      3229      3230
 -1      1477    8    0    1
 -2       689       809       808      3230      3231      3226
 -1      1478    8    0    1
 -2       690       691       810      2866      3232      3233
 -1      1479    8    0    1
 -2       690       810       809      3233      3234      3229
 -1      1480    8    0    1
 -2       691       692       811      2869      3235      3236
 -1      1481    8    0    1
 -2       691       811       810      3236      3237      3232
 -1      1482    8    0    1
 -2       692       693       812      2872      3238      3239
 -1      1483    8    0    1
 -2       692       812       811      3239      3240      3235
 -1      1484    8    0    1
 -2       693       694       813      2875      3241      3242
 -1      1485    8    0    1
 -2       693       813       812      3242      3243      3238
 -1      1486    8    0    1
 -2       694       695       814      2878      3244      3245
 -1      1487    8    0    1
 -2       694       814       813      3245      3246      3241
 -1      1488    8    0    1
 -2       695       696       815      2881      3247      3248
 -1      1489    8    0    1
 -2       695       815       814      3248      3249      3244
 -1      1490    8    0    1
 -2       696       697       816      2884      3250      3251
 -1      1491    8    0    1
 -2       696       816       815      3251      3252      3247
 -1      1492    8    0    1
 -2       697       698       817      2887      3253      3254
 -1      1493    8    0    1
 -2       697       817       816      3254      3255      3250
 -1      1494    8    0    1
 -2       698       699       818      2890      3256      3257
 -1      1495    8    0    1
 -2       698       818       817      3257      3258      3253
 -1      1496    8    0    1
 -2       704       706       819      2910      3259      3260
 -1      1497    8    0    1
 -2       702       704       820      2903      3261      3262
 -1      1498    8    0    1
 -2       704       819       820      3260      3263      3261
 -1      1499    8    0    1
 -2       731       623       821      2979      3264      3265
 -1      1500    8    0    1
 -2       727       713       822      2966      3266      3267
 -1      1501    8    0    1
 -2       714       663       823      2931      3268      3269
 -1      1502    8    0    1
 -2       663       784       823      3158      3270      3268
 -1      1503    8    0    1
 -2       709       710       824      2922      3271      3272
 -1      1504    8    0    1
 -2       710       750       824      3057      3273      3271
 -1      1505    8    0    1
 -2       617       719       825      3022      3274      3275
 -1      1506    8    0    1
 -2       719       748       825      3052      3276      3274
 -1      1507    8    0    1
 -2       723       732       625      2990      2999      3277
 -1      1508    8    0    1
 -2       706       707       826      2913      3278      3279
 -1      1509    8    0    1
 -2       706       826       819      3279      3280      3259
 -1      1510    8    0    1
 -2       707       708       827      2916      3281      3282
 -1      1511    8    0    1
 -2       707       827       826      3282      3283      3278
 -1      1512    8    0    1
 -2       666       667       828      2794      3284      3285
 -1      1513    8    0    1
 -2       785       666       828      3159      3285      3286
 -1      1514    8    0    1
 -2       667       787       828      3165      3287      3284
 -1      1515    8    0    1
 -2       712       728       829      3009      3288      3289
 -1      1516    8    0    1
 -2       722       721       830      3024      3290      3291
 -1      1517    8    0    1
 -2       627       626       612      2676      2998      3292
 -1      1518    8    0    1
 -2       662       571       737      3008      3007      3293
 -1      1519    8    0    1
 -2       725       622       831      2961      3294      3295
 -1      1520    8    0    1
 -2       614       712       832      3021      3296      3297
 -1      1521    8    0    1
 -2       625       624       829      2664      3298      3299
 -1      1522    8    0    1
 -2       728       723       625      3036      3277      3300
 -1      1523    8    0    1
 -2       717       731       833      3037      3301      3302
 -1      1524    8    0    1
 -2       731       821       833      3265      3303      3301
 -1      1525    8    0    1
 -2       711       611       733      3023      2985      3304
 -1      1526    8    0    1
 -2       618       617       743      2648      3305      3306
 -1      1527    8    0    1
 -2       701       717       834      3004      3307      3308
 -1      1528    8    0    1
 -2       610       730       835      3042      3309      3310
 -1      1529    8    0    1
 -2       620       621       836      3041      3311      3312
 -1      1530    8    0    1
 -2       746       620       836      3047      3312      3313
 -1      1531    8    0    1
 -2       621       718       836      2944      3314      3311
 -1      1532    8    0    1
 -2       728       625       829      3300      3299      3288
 -1      1533    8    0    1
 -2       734       618       741      2987      3315      3316
 -1      1534    8    0    1
 -2       747       726       743      3049      3035      3317
 -1      1535    8    0    1
 -2       724       747       749      3050      3318      3054
 -1      1536    8    0    1
 -2       735       614       832      2992      3297      3319
 -1      1537    8    0    1
 -2       736       725       831      2997      3295      3320
 -1      1538    8    0    1
 -2       717       833       834      3302      3321      3307
 -1      1539    8    0    1
 -2       624       716       829      2938      3322      3298
 -1      1540    8    0    1
 -2       709       824       837      3272      3323      3324
 -1      1541    8    0    1
 -2       709       837       738      3324      3325      3012
 -1      1542    8    0    1
 -2       716       711       733      2939      3304      3326
 -1      1543    8    0    1
 -2       712       829       832      3289      3327      3296
 -1      1544    8    0    1
 -2       664       786       835      3162      3328      3329
 -1      1545    8    0    1
 -2       818       699       838      3256      3330      3331
 -1      1546    8    0    1
 -2       699       700       838      2893      3332      3330
 -1      1547    8    0    1
 -2       737       703       839      3005      3333      3334
 -1      1548    8    0    1
 -2       703       705       840      2906      3335      3336
 -1      1549    8    0    1
 -2       703       840       839      3336      3337      3333
 -1      1550    8    0    1
 -2       661       715       740      2934      3338      3339
 -1      1551    8    0    1
 -2       603       604       626      2642      2974      3002
 -1      1552    8    0    1
 -2       821       623       744      3264      3039      3340
 -1      1553    8    0    1
 -2       705       702       841      2907      3341      3342
 -1      1554    8    0    1
 -2       840       705       841      3335      3342      3343
 -1      1555    8    0    1
 -2       702       820       841      3262      3344      3341
 -1      1556    8    0    1
 -2       739       613       842      3017      3345      3346
 -1      1557    8    0    1
 -2       613       738       842      3011      3347      3345
 -1      1558    8    0    1
 -2       740       722       830      3020      3291      3348
 -1      1559    8    0    1
 -2       727       822       741      3267      3349      3027
 -1      1560    8    0    1
 -2       830       721       749      3290      3055      3350
 -1      1561    8    0    1
 -2       627       612       736      3292      2996      3351
 -1      1562    8    0    1
 -2       664       835       715      3329      3352      2935
 -1      1563    8    0    1
 -2       831       622       843      3294      3353      3354
 -1      1564    8    0    1
 -2       622       739       843      3016      3355      3353
 -1      1565    8    0    1
 -2       718       714       844      2945      3356      3357
 -1      1566    8    0    1
 -2       836       718       844      3314      3357      3358
 -1      1567    8    0    1
 -2       714       823       844      3269      3359      3356
 -1      1568    8    0    1
 -2       744       610       835      3040      3310      3360
 -1      1569    8    0    1
 -2       662       737       845      3293      3361      3362
 -1      1570    8    0    1
 -2       700       662       845      2894      3362      3363
 -1      1571    8    0    1
 -2       737       839       845      3334      3364      3361
 -1      1572    8    0    1
 -2       733       720       832      2986      3365      3366
 -1      1573    8    0    1
 -2       720       742       735      3030      3367      3368
 -1      1574    8    0    1
 -2       750       701       834      3056      3308      3369
 -1      1575    8    0    1
 -2       708       745       846      3045      3370      3371
 -1      1576    8    0    1
 -2       827       708       846      3281      3371      3372
 -1      1577    8    0    1
 -2       745       783       846      3155      3373      3370
 -1      1578    8    0    1
 -2       832       720       735      3365      3368      3319
 -1      1579    8    0    1
 -2       747       743       825      3317      3374      3375
 -1      1580    8    0    1
 -2       747       825       847      3375      3376      3377
 -1      1581    8    0    1
 -2       749       747       847      3318      3377      3378
 -1      1582    8    0    1
 -2       825       748       847      3276      3379      3376
 -1      1583    8    0    1
 -2       617       825       743      3275      3374      3305
 -1      1584    8    0    1
 -2       618       743       741      3306      3380      3315
 -1      1585    8    0    1
 -2       753       752       848      3065      3381      3382
 -1      1586    8    0    1
 -2       754       753       849      3068      3383      3384
 -1      1587    8    0    1
 -2       753       848       849      3382      3385      3383
 -1      1588    8    0    1
 -2       755       754       850      3071      3386      3387
 -1      1589    8    0    1
 -2       754       849       850      3384      3388      3386
 -1      1590    8    0    1
 -2       756       755       851      3074      3389      3390
 -1      1591    8    0    1
 -2       755       850       851      3387      3391      3389
 -1      1592    8    0    1
 -2       757       756       852      3077      3392      3393
 -1      1593    8    0    1
 -2       756       851       852      3390      3394      3392
 -1      1594    8    0    1
 -2       758       757       853      3080      3395      3396
 -1      1595    8    0    1
 -2       757       852       853      3393      3397      3395
 -1      1596    8    0    1
 -2       759       758       854      3083      3398      3399
 -1      1597    8    0    1
 -2       758       853       854      3396      3400      3398
 -1      1598    8    0    1
 -2       760       759       855      3086      3401      3402
 -1      1599    8    0    1
 -2       759       854       855      3399      3403      3401
 -1      1600    8    0    1
 -2       761       760       856      3089      3404      3405
 -1      1601    8    0    1
 -2       760       855       856      3402      3406      3404
 -1      1602    8    0    1
 -2       762       761       857      3092      3407      3408
 -1      1603    8    0    1
 -2       761       856       857      3405      3409      3407
 -1      1604    8    0    1
 -2       763       762       858      3095      3410      3411
 -1      1605    8    0    1
 -2       762       857       858      3408      3412      3410
 -1      1606    8    0    1
 -2       764       763       859      3098      3413      3414
 -1      1607    8    0    1
 -2       763       858       859      3411      3415      3413
 -1      1608    8    0    1
 -2       765       764       860      3101      3416      3417
 -1      1609    8    0    1
 -2       764       859       860      3414      3418      3416
 -1      1610    8    0    1
 -2       766       765       861      3104      3419      3420
 -1      1611    8    0    1
 -2       765       860       861      3417      3421      3419
 -1      1612    8    0    1
 -2       767       766       862      3107      3422      3423
 -1      1613    8    0    1
 -2       766       861       862      3420      3424      3422
 -1      1614    8    0    1
 -2       768       767       863      3110      3425      3426
 -1      1615    8    0    1
 -2       767       862       863      3423      3427      3425
 -1      1616    8    0    1
 -2       769       768       864      3113      3428      3429
 -1      1617    8    0    1
 -2       768       863       864      3426      3430      3428
 -1      1618    8    0    1
 -2       770       769       865      3116      3431      3432
 -1      1619    8    0    1
 -2       769       864       865      3429      3433      3431
 -1      1620    8    0    1
 -2       771       770       866      3119      3434      3435
 -1      1621    8    0    1
 -2       770       865       866      3432      3436      3434
 -1      1622    8    0    1
 -2       772       771       867      3122      3437      3438
 -1      1623    8    0    1
 -2       771       866       867      3435      3439      3437
 -1      1624    8    0    1
 -2       773       772       868      3125      3440      3441
 -1      1625    8    0    1
 -2       772       867       868      3438      3442      3440
 -1      1626    8    0    1
 -2       774       773       869      3128      3443      3444
 -1      1627    8    0    1
 -2       773       868       869      3441      3445      3443
 -1      1628    8    0    1
 -2       775       774       870      3131      3446      3447
 -1      1629    8    0    1
 -2       774       869       870      3444      3448      3446
 -1      1630    8    0    1
 -2       776       775       871      3134      3449      3450
 -1      1631    8    0    1
 -2       775       870       871      3447      3451      3449
 -1      1632    8    0    1
 -2       777       776       872      3137      3452      3453
 -1      1633    8    0    1
 -2       776       871       872      3450      3454      3452
 -1      1634    8    0    1
 -2       778       777       873      3140      3455      3456
 -1      1635    8    0    1
 -2       777       872       873      3453      3457      3455
 -1      1636    8    0    1
 -2       779       778       874      3143      3458      3459
 -1      1637    8    0    1
 -2       778       873       874      3456      3460      3458
 -1      1638    8    0    1
 -2       780       779       875      3146      3461      3462
 -1      1639    8    0    1
 -2       779       874       875      3459      3463      3461
 -1      1640    8    0    1
 -2       781       780       876      3149      3464      3465
 -1      1641    8    0    1
 -2       780       875       876      3462      3466      3464
 -1      1642    8    0    1
 -2       782       781       877      3152      3467      3468
 -1      1643    8    0    1
 -2       781       876       877      3465      3469      3467
 -1      1644    8    0    1
 -2       835       786       744      3328      3470      3360
 -1      1645    8    0    1
 -2       788       789       878      3171      3471      3472
 -1      1646    8    0    1
 -2       787       788       879      3168      3473      3474
 -1      1647    8    0    1
 -2       788       878       879      3472      3475      3473
 -1      1648    8    0    1
 -2       790       791       880      3177      3476      3477
 -1      1649    8    0    1
 -2       791       792       881      3180      3478      3479
 -1      1650    8    0    1
 -2       791       881       880      3479      3480      3476
 -1      1651    8    0    1
 -2       792       793       882      3183      3481      3482
 -1      1652    8    0    1
 -2       792       882       881      3482      3483      3478
 -1      1653    8    0    1
 -2       793       794       883      3186      3484      3485
 -1      1654    8    0    1
 -2       793       883       882      3485      3486      3481
 -1      1655    8    0    1
 -2       794       795       884      3189      3487      3488
 -1      1656    8    0    1
 -2       794       884       883      3488      3489      3484
 -1      1657    8    0    1
 -2       795       796       885      3192      3490      3491
 -1      1658    8    0    1
 -2       795       885       884      3491      3492      3487
 -1      1659    8    0    1
 -2       796       797       886      3195      3493      3494
 -1      1660    8    0    1
 -2       796       886       885      3494      3495      3490
 -1      1661    8    0    1
 -2       797       798       887      3198      3496      3497
 -1      1662    8    0    1
 -2       797       887       886      3497      3498      3493
 -1      1663    8    0    1
 -2       798       799       888      3201      3499      3500
 -1      1664    8    0    1
 -2       798       888       887      3500      3501      3496
 -1      1665    8    0    1
 -2       799       800       889      3204      3502      3503
 -1      1666    8    0    1
 -2       799       889       888      3503      3504      3499
 -1      1667    8    0    1
 -2       800       801       890      3207      3505      3506
 -1      1668    8    0    1
 -2       800       890       889      3506      3507      3502
 -1      1669    8    0    1
 -2       801       802       891      3210      3508      3509
 -1      1670    8    0    1
 -2       801       891       890      3509      3510      3505
 -1      1671    8    0    1
 -2       802       803       892      3213      3511      3512
 -1      1672    8    0    1
 -2       802       892       891      3512      3513      3508
 -1      1673    8    0    1
 -2       803       804       893      3216      3514      3515
 -1      1674    8    0    1
 -2       803       893       892      3515      3516      3511
 -1      1675    8    0    1
 -2       804       805       894      3219      3517      3518
 -1      1676    8    0    1
 -2       804       894       893      3518      3519      3514
 -1      1677    8    0    1
 -2       805       806       895      3222      3520      3521
 -1      1678    8    0    1
 -2       805       895       894      3521      3522      3517
 -1      1679    8    0    1
 -2       806       807       896      3225      3523      3524
 -1      1680    8    0    1
 -2       806       896       895      3524      3525      3520
 -1      1681    8    0    1
 -2       807       808       897      3228      3526      3527
 -1      1682    8    0    1
 -2       807       897       896      3527      3528      3523
 -1      1683    8    0    1
 -2       808       809       898      3231      3529      3530
 -1      1684    8    0    1
 -2       808       898       897      3530      3531      3526
 -1      1685    8    0    1
 -2       809       810       899      3234      3532      3533
 -1      1686    8    0    1
 -2       809       899       898      3533      3534      3529
 -1      1687    8    0    1
 -2       810       811       900      3237      3535      3536
 -1      1688    8    0    1
 -2       810       900       899      3536      3537      3532
 -1      1689    8    0    1
 -2       811       812       901      3240      3538      3539
 -1      1690    8    0    1
 -2       811       901       900      3539      3540      3535
 -1      1691    8    0    1
 -2       812       813       902      3243      3541      3542
 -1      1692    8    0    1
 -2       812       902       901      3542      3543      3538
 -1      1693    8    0    1
 -2       813       814       903      3246      3544      3545
 -1      1694    8    0    1
 -2       813       903       902      3545      3546      3541
 -1      1695    8    0    1
 -2       814       815       904      3249      3547      3548
 -1      1696    8    0    1
 -2       814       904       903      3548      3549      3544
 -1      1697    8    0    1
 -2       815       816       905      3252      3550      3551
 -1      1698    8    0    1
 -2       815       905       904      3551      3552      3547
 -1      1699    8    0    1
 -2       816       817       906      3255      3553      3554
 -1      1700    8    0    1
 -2       816       906       905      3554      3555      3550
 -1      1701    8    0    1
 -2       817       818       907      3258      3556      3557
 -1      1702    8    0    1
 -2       817       907       906      3557      3558      3553
 -1      1703    8    0    1
 -2       832       829       733      3327      3559      3366
 -1      1704    8    0    1
 -2       661       740       784      3339      3560      3157
 -1      1705    8    0    1
 -2       826       827       908      3283      3561      3562
 -1      1706    8    0    1
 -2       784       740       830      3560      3348      3563
 -1      1707    8    0    1
 -2       716       733       829      3326      3559      3322
 -1      1708    8    0    1
 -2       824       750       909      3273      3564      3565
 -1      1709    8    0    1
 -2       823       784       830      3270      3563      3566
 -1      1710    8    0    1
 -2       822       713       742      3266      3567      3568
 -1      1711    8    0    1
 -2       834       833       910      3321      3569      3570
 -1      1712    8    0    1
 -2       820       819       911      3263      3571      3572
 -1      1713    8    0    1
 -2       830       749       912      3350      3573      3574
 -1      1714    8    0    1
 -2       823       830       912      3566      3574      3575
 -1      1715    8    0    1
 -2       749       847       912      3378      3576      3573
 -1      1716    8    0    1
 -2       742       734       822      3031      3577      3568
 -1      1717    8    0    1
 -2       789       790       913      3174      3578      3579
 -1      1718    8    0    1
 -2       878       789       913      3471      3579      3580
 -1      1719    8    0    1
 -2       790       880       913      3477      3581      3578
 -1      1720    8    0    1
 -2       743       615       741      3033      3026      3380
 -1      1721    8    0    1
 -2       786       785       821      3163      3582      3583
 -1      1722    8    0    1
 -2       821       785       914      3582      3584      3585
 -1      1723    8    0    1
 -2       833       821       914      3303      3585      3586
 -1      1724    8    0    1
 -2       785       828       914      3286      3587      3584
 -1      1725    8    0    1
 -2       744       786       821      3470      3583      3340
 -1      1726    8    0    1
 -2       751       627       736      3058      3351      3588
 -1      1727    8    0    1
 -2       750       834       915      3369      3589      3590
 -1      1728    8    0    1
 -2       819       826       916      3280      3591      3592
 -1      1729    8    0    1
 -2       911       819       916      3571      3592      3593
 -1      1730    8    0    1
 -2       826       908       916      3562      3594      3591
 -1      1731    8    0    1
 -2       748       746       917      3053      3595      3596
 -1      1732    8    0    1
 -2       847       748       917      3379      3596      3597
 -1      1733    8    0    1
 -2       746       836       917      3313      3598      3595
 -1      1734    8    0    1
 -2       822       734       741      3577      3316      3349
 -1      1735    8    0    1
 -2       742       713       735      3567      2994      3367
 -1      1736    8    0    1
 -2       848       752       831      3381      3599      3600
 -1      1737    8    0    1
 -2       837       824       918      3323      3601      3602
 -1      1738    8    0    1
 -2       824       909       918      3565      3603      3601
 -1      1739    8    0    1
 -2       842       738       919      3347      3604      3605
 -1      1740    8    0    1
 -2       738       837       919      3325      3606      3604
 -1      1741    8    0    1
 -2       783       782       920      3156      3607      3608
 -1      1742    8    0    1
 -2       846       783       920      3373      3608      3609
 -1      1743    8    0    1
 -2       782       877       920      3468      3610      3607
 -1      1744    8    0    1
 -2       838       700       845      3332      3363      3611
 -1      1745    8    0    1
 -2       818       838       921      3331      3612      3613
 -1      1746    8    0    1
 -2       818       921       907      3613      3614      3556
 -1      1747    8    0    1
 -2       787       879       910      3474      3615      3616
 -1      1748    8    0    1
 -2       909       750       915      3564      3590      3617
 -1      1749    8    0    1
 -2       787       910       828      3616      3618      3287
 -1      1750    8    0    1
 -2       839       840       922      3337      3619      3620
 -1      1751    8    0    1
 -2       740       715       835      3338      3352      3621
 -1      1752    8    0    1
 -2       739       842       923      3346      3622      3623
 -1      1753    8    0    1
 -2       739       923       843      3623      3624      3355
 -1      1754    8    0    1
 -2       841       820       924      3344      3625      3626
 -1      1755    8    0    1
 -2       820       911       924      3572      3627      3625
 -1      1756    8    0    1
 -2       835       730       740      3309      3019      3621
 -1      1757    8    0    1
 -2       834       910       879      3570      3615      3628
 -1      1758    8    0    1
 -2       823       912       844      3575      3629      3359
 -1      1759    8    0    1
 -2       839       922       921      3620      3630      3631
 -1      1760    8    0    1
 -2       736       831       751      3320      3632      3588
 -1      1761    8    0    1
 -2       831       752       751      3599      3062      3632
 -1      1762    8    0    1
 -2       834       879       915      3628      3633      3589
 -1      1763    8    0    1
 -2       827       846       920      3372      3609      3634
 -1      1764    8    0    1
 -2       827       920       908      3634      3635      3561
 -1      1765    8    0    1
 -2       882       883       925      3486      3636      3637
 -1      1766    8    0    1
 -2       920       877       908      3610      3638      3635
 -1      1767    8    0    1
 -2       850       849       926      3388      3639      3640
 -1      1768    8    0    1
 -2       851       850       927      3391      3641      3642
 -1      1769    8    0    1
 -2       850       926       927      3640      3643      3641
 -1      1770    8    0    1
 -2       852       851       928      3394      3644      3645
 -1      1771    8    0    1
 -2       851       927       928      3642      3646      3644
 -1      1772    8    0    1
 -2       853       852       929      3397      3647      3648
 -1      1773    8    0    1
 -2       852       928       929      3645      3649      3647
 -1      1774    8    0    1
 -2       854       853       930      3400      3650      3651
 -1      1775    8    0    1
 -2       853       929       930      3648      3652      3650
 -1      1776    8    0    1
 -2       855       854       931      3403      3653      3654
 -1      1777    8    0    1
 -2       854       930       931      3651      3655      3653
 -1      1778    8    0    1
 -2       856       855       932      3406      3656      3657
 -1      1779    8    0    1
 -2       855       931       932      3654      3658      3656
 -1      1780    8    0    1
 -2       857       856       933      3409      3659      3660
 -1      1781    8    0    1
 -2       856       932       933      3657      3661      3659
 -1      1782    8    0    1
 -2       858       857       934      3412      3662      3663
 -1      1783    8    0    1
 -2       857       933       934      3660      3664      3662
 -1      1784    8    0    1
 -2       859       858       935      3415      3665      3666
 -1      1785    8    0    1
 -2       858       934       935      3663      3667      3665
 -1      1786    8    0    1
 -2       860       859       936      3418      3668      3669
 -1      1787    8    0    1
 -2       859       935       936      3666      3670      3668
 -1      1788    8    0    1
 -2       861       860       937      3421      3671      3672
 -1      1789    8    0    1
 -2       860       936       937      3669      3673      3671
 -1      1790    8    0    1
 -2       862       861       938      3424      3674      3675
 -1      1791    8    0    1
 -2       861       937       938      3672      3676      3674
 -1      1792    8    0    1
 -2       863       862       939      3427      3677      3678
 -1      1793    8    0    1
 -2       862       938       939      3675      3679      3677
 -1      1794    8    0    1
 -2       864       863       940      3430      3680      3681
 -1      1795    8    0    1
 -2       863       939       940      3678      3682      3680
 -1      1796    8    0    1
 -2       865       864       941      3433      3683      3684
 -1      1797    8    0    1
 -2       864       940       941      3681      3685      3683
 -1      1798    8    0    1
 -2       866       865       942      3436      3686      3687
 -1      1799    8    0    1
 -2       865       941       942      3684      3688      3686
 -1      1800    8    0    1
 -2       867       866       943      3439      3689      3690
 -1      1801    8    0    1
 -2       866       942       943      3687      3691      3689
 -1      1802    8    0    1
 -2       868       867       944      3442      3692      3693
 -1      1803    8    0    1
 -2       867       943       944      3690      3694      3692
 -1      1804    8    0    1
 -2       869       868       945      3445      3695      3696
 -1      1805    8    0    1
 -2       868       944       945      3693      3697      3695
 -1      1806    8    0    1
 -2       870       869       946      3448      3698      3699
 -1      1807    8    0    1
 -2       869       945       946      3696      3700      3698
 -1      1808    8    0    1
 -2       871       870       947      3451      3701      3702
 -1      1809    8    0    1
 -2       870       946       947      3699      3703      3701
 -1      1810    8    0    1
 -2       872       871       948      3454      3704      3705
 -1      1811    8    0    1
 -2       871       947       948      3702      3706      3704
 -1      1812    8    0    1
 -2       873       872       949      3457      3707      3708
 -1      1813    8    0    1
 -2       872       948       949      3705      3709      3707
 -1      1814    8    0    1
 -2       874       873       950      3460      3710      3711
 -1      1815    8    0    1
 -2       873       949       950      3708      3712      3710
 -1      1816    8    0    1
 -2       875       874       951      3463      3713      3714
 -1      1817    8    0    1
 -2       874       950       951      3711      3715      3713
 -1      1818    8    0    1
 -2       876       875       952      3466      3716      3717
 -1      1819    8    0    1
 -2       875       951       952      3714      3718      3716
 -1      1820    8    0    1
 -2       877       876       953      3469      3719      3720
 -1      1821    8    0    1
 -2       876       952       953      3717      3721      3719
 -1      1822    8    0    1
 -2       879       878       915      3475      3722      3633
 -1      1823    8    0    1
 -2       844       912       917      3629      3723      3724
 -1      1824    8    0    1
 -2       881       882       954      3483      3725      3726
 -1      1825    8    0    1
 -2       882       925       954      3637      3727      3725
 -1      1826    8    0    1
 -2       880       881       955      3480      3728      3729
 -1      1827    8    0    1
 -2       881       954       955      3726      3730      3728
 -1      1828    8    0    1
 -2       883       884       956      3489      3731      3732
 -1      1829    8    0    1
 -2       883       956       925      3732      3733      3636
 -1      1830    8    0    1
 -2       884       885       957      3492      3734      3735
 -1      1831    8    0    1
 -2       884       957       956      3735      3736      3731
 -1      1832    8    0    1
 -2       885       886       958      3495      3737      3738
 -1      1833    8    0    1
 -2       885       958       957      3738      3739      3734
 -1      1834    8    0    1
 -2       886       887       959      3498      3740      3741
 -1      1835    8    0    1
 -2       886       959       958      3741      3742      3737
 -1      1836    8    0    1
 -2       887       888       960      3501      3743      3744
 -1      1837    8    0    1
 -2       887       960       959      3744      3745      3740
 -1      1838    8    0    1
 -2       888       889       961      3504      3746      3747
 -1      1839    8    0    1
 -2       888       961       960      3747      3748      3743
 -1      1840    8    0    1
 -2       889       890       962      3507      3749      3750
 -1      1841    8    0    1
 -2       889       962       961      3750      3751      3746
 -1      1842    8    0    1
 -2       890       891       963      3510      3752      3753
 -1      1843    8    0    1
 -2       890       963       962      3753      3754      3749
 -1      1844    8    0    1
 -2       891       892       964      3513      3755      3756
 -1      1845    8    0    1
 -2       891       964       963      3756      3757      3752
 -1      1846    8    0    1
 -2       892       893       965      3516      3758      3759
 -1      1847    8    0    1
 -2       892       965       964      3759      3760      3755
 -1      1848    8    0    1
 -2       893       894       966      3519      3761      3762
 -1      1849    8    0    1
 -2       893       966       965      3762      3763      3758
 -1      1850    8    0    1
 -2       894       895       967      3522      3764      3765
 -1      1851    8    0    1
 -2       894       967       966      3765      3766      3761
 -1      1852    8    0    1
 -2       895       896       968      3525      3767      3768
 -1      1853    8    0    1
 -2       895       968       967      3768      3769      3764
 -1      1854    8    0    1
 -2       896       897       969      3528      3770      3771
 -1      1855    8    0    1
 -2       896       969       968      3771      3772      3767
 -1      1856    8    0    1
 -2       897       898       970      3531      3773      3774
 -1      1857    8    0    1
 -2       897       970       969      3774      3775      3770
 -1      1858    8    0    1
 -2       898       899       971      3534      3776      3777
 -1      1859    8    0    1
 -2       898       971       970      3777      3778      3773
 -1      1860    8    0    1
 -2       899       900       972      3537      3779      3780
 -1      1861    8    0    1
 -2       899       972       971      3780      3781      3776
 -1      1862    8    0    1
 -2       900       901       973      3540      3782      3783
 -1      1863    8    0    1
 -2       900       973       972      3783      3784      3779
 -1      1864    8    0    1
 -2       901       902       974      3543      3785      3786
 -1      1865    8    0    1
 -2       901       974       973      3786      3787      3782
 -1      1866    8    0    1
 -2       902       903       975      3546      3788      3789
 -1      1867    8    0    1
 -2       902       975       974      3789      3790      3785
 -1      1868    8    0    1
 -2       903       904       976      3549      3791      3792
 -1      1869    8    0    1
 -2       903       976       975      3792      3793      3788
 -1      1870    8    0    1
 -2       904       905       977      3552      3794      3795
 -1      1871    8    0    1
 -2       904       977       976      3795      3796      3791
 -1      1872    8    0    1
 -2       905       906       978      3555      3797      3798
 -1      1873    8    0    1
 -2       905       978       977      3798      3799      3794
 -1      1874    8    0    1
 -2       906       907       979      3558      3800      3801
 -1      1875    8    0    1
 -2       906       979       978      3801      3802      3797
 -1      1876    8    0    1
 -2       922       840       980      3619      3803      3804
 -1      1877    8    0    1
 -2       840       841       980      3343      3805      3803
 -1      1878    8    0    1
 -2       912       847       917      3576      3597      3723
 -1      1879    8    0    1
 -2       910       833       914      3569      3586      3806
 -1      1880    8    0    1
 -2       915       878       981      3722      3807      3808
 -1      1881    8    0    1
 -2       909       915       981      3617      3808      3809
 -1      1882    8    0    1
 -2       878       913       981      3580      3810      3807
 -1      1883    8    0    1
 -2       831       843       848      3354      3811      3600
 -1      1884    8    0    1
 -2       839       921       845      3631      3812      3364
 -1      1885    8    0    1
 -2       914       828       910      3587      3618      3806
 -1      1886    8    0    1
 -2       849       848       982      3385      3813      3814
 -1      1887    8    0    1
 -2       849       982       926      3814      3815      3639
 -1      1888    8    0    1
 -2       836       844       917      3358      3724      3598
 -1      1889    8    0    1
 -2       907       921       983      3614      3816      3817
 -1      1890    8    0    1
 -2       979       907       983      3800      3817      3818
 -1      1891    8    0    1
 -2       921       922       983      3630      3819      3816
 -1      1892    8    0    1
 -2       908       877       953      3638      3720      3820
 -1      1893    8    0    1
 -2       848       843       982      3811      3821      3813
 -1      1894    8    0    1
 -2       837       918       919      3602      3822      3606
 -1      1895    8    0    1
 -2       838       845       921      3611      3812      3612
 -1      1896    8    0    1
 -2       922       980       984      3804      3823      3824
 -1      1897    8    0    1
 -2       922       984       983      3824      3825      3819
 -1      1898    8    0    1
 -2       980       841       924      3805      3626      3826
 -1      1899    8    0    1
 -2       923       842       985      3622      3827      3828
 -1      1900    8    0    1
 -2       842       919       985      3605      3829      3827
 -1      1901    8    0    1
 -2       924       911       986      3627      3830      3831
 -1      1902    8    0    1
 -2       908       953       916      3820      3832      3594
 -1      1903    8    0    1
 -2       913       880       987      3581      3833      3834
 -1      1904    8    0    1
 -2       981       913       987      3810      3834      3835
 -1      1905    8    0    1
 -2       880       955       987      3729      3836      3833
 -1      1906    8    0    1
 -2       909       981       988      3809      3837      3838
 -1      1907    8    0    1
 -2       918       909       988      3603      3838      3839
 -1      1908    8    0    1
 -2       981       987       988      3835      3840      3837
 -1      1909    8    0    1
 -2       911       916       989      3593      3841      3842
 -1      1910    8    0    1
 -2       911       989       986      3842      3843      3830
 -1      1911    8    0    1
 -2       982       843       923      3821      3624      3844
 -1      1912    8    0    1
 -2       928       927       990      3646      3845      3846
 -1      1913    8    0    1
 -2       929       928       991      3649      3847      3848
 -1      1914    8    0    1
 -2       928       990       991      3846      3849      3847
 -1      1915    8    0    1
 -2       930       929       992      3652      3850      3851
 -1      1916    8    0    1
 -2       929       991       992      3848      3852      3850
 -1      1917    8    0    1
 -2       931       930       993      3655      3853      3854
 -1      1918    8    0    1
 -2       930       992       993      3851      3855      3853
 -1      1919    8    0    1
 -2       932       931       994      3658      3856      3857
 -1      1920    8    0    1
 -2       931       993       994      3854      3858      3856
 -1      1921    8    0    1
 -2       933       932       995      3661      3859      3860
 -1      1922    8    0    1
 -2       932       994       995      3857      3861      3859
 -1      1923    8    0    1
 -2       934       933       996      3664      3862      3863
 -1      1924    8    0    1
 -2       933       995       996      3860      3864      3862
 -1      1925    8    0    1
 -2       935       934       997      3667      3865      3866
 -1      1926    8    0    1
 -2       934       996       997      3863      3867      3865
 -1      1927    8    0    1
 -2       936       935       998      3670      3868      3869
 -1      1928    8    0    1
 -2       935       997       998      3866      3870      3868
 -1      1929    8    0    1
 -2       937       936       999      3673      3871      3872
 -1      1930    8    0    1
 -2       936       998       999      3869      3873      3871
 -1      1931    8    0    1
 -2       938       937      1000      3676      3874      3875
 -1      1932    8    0    1
 -2       937       999      1000      3872      3876      3874
 -1      1933    8    0    1
 -2       939       938      1001      3679      3877      3878
 -1      1934    8    0    1
 -2       938      1000      1001      3875      3879      3877
 -1      1935    8    0    1
 -2       940       939      1002      3682      3880      3881
 -1      1936    8    0    1
 -2       939      1001      1002      3878      3882      3880
 -1      1937    8    0    1
 -2       941       940      1003      3685      3883      3884
 -1      1938    8    0    1
 -2       940      1002      1003      3881      3885      3883
 -1      1939    8    0    1
 -2       942       941      1004      3688      3886      3887
 -1      1940    8    0    1
 -2       941      1003      1004      3884      3888      3886
 -1      1941    8    0    1
 -2       943       942      1005      3691      3889      3890
 -1      1942    8    0    1
 -2       942      1004      1005      3887      3891      3889
 -1      1943    8    0    1
 -2       944       943      1006      3694      3892      3893
 -1      1944    8    0    1
 -2       943      1005      1006      3890      3894      3892
 -1      1945    8    0    1
 -2       945       944      1007      3697      3895      3896
 -1      1946    8    0    1
 -2       944      1006      1007      3893      3897      3895
 -1      1947    8    0    1
 -2       946       945      1008      3700      3898      3899
 -1      1948    8    0    1
 -2       945      1007      1008      3896      3900      3898
 -1      1949    8    0    1
 -2       947       946      1009      3703      3901      3902
 -1      1950    8    0    1
 -2       946      1008      1009      3899      3903      3901
 -1      1951    8    0    1
 -2       948       947      1010      3706      3904      3905
 -1      1952    8    0    1
 -2       947      1009      1010      3902      3906      3904
 -1      1953    8    0    1
 -2       949       948      1011      3709      3907      3908
 -1      1954    8    0    1
 -2       948      1010      1011      3905      3909      3907
 -1      1955    8    0    1
 -2       950       949      1012      3712      3910      3911
 -1      1956    8    0    1
 -2       949      1011      1012      3908      3912      3910
 -1      1957    8    0    1
 -2       951       950      1013      3715      3913      3914
 -1      1958    8    0    1
 -2       950      1012      1013      3911      3915      3913
 -1      1959    8    0    1
 -2       952       951      1014      3718      3916      3917
 -1      1960    8    0    1
 -2       951      1013      1014      3914      3918      3916
 -1      1961    8    0    1
 -2       953       952      1015      3721      3919      3920
 -1      1962    8    0    1
 -2       952      1014      1015      3917      3921      3919
 -1      1963    8    0    1
 -2       954       925      1016      3727      3922      3923
 -1      1964    8    0    1
 -2       926       982      1017      3815      3924      3925
 -1      1965    8    0    1
 -2       925       956      1018      3733      3926      3927
 -1      1966    8    0    1
 -2       925      1018      1016      3927      3928      3922
 -1      1967    8    0    1
 -2       955       954      1019      3730      3929      3930
 -1      1968    8    0    1
 -2       954      1016      1019      3923      3931      3929
 -1      1969    8    0    1
 -2       957       958      1020      3739      3932      3933
 -1      1970    8    0    1
 -2       958       959      1021      3742      3934      3935
 -1      1971    8    0    1
 -2       958      1021      1020      3935      3936      3932
 -1      1972    8    0    1
 -2       959       960      1022      3745      3937      3938
 -1      1973    8    0    1
 -2       959      1022      1021      3938      3939      3934
 -1      1974    8    0    1
 -2       960       961      1023      3748      3940      3941
 -1      1975    8    0    1
 -2       960      1023      1022      3941      3942      3937
 -1      1976    8    0    1
 -2       961       962      1024      3751      3943      3944
 -1      1977    8    0    1
 -2       961      1024      1023      3944      3945      3940
 -1      1978    8    0    1
 -2       962       963      1025      3754      3946      3947
 -1      1979    8    0    1
 -2       962      1025      1024      3947      3948      3943
 -1      1980    8    0    1
 -2       963       964      1026      3757      3949      3950
 -1      1981    8    0    1
 -2       963      1026      1025      3950      3951      3946
 -1      1982    8    0    1
 -2       964       965      1027      3760      3952      3953
 -1      1983    8    0    1
 -2       964      1027      1026      3953      3954      3949
 -1      1984    8    0    1
 -2       965       966      1028      3763      3955      3956
 -1      1985    8    0    1
 -2       965      1028      1027      3956      3957      3952
 -1      1986    8    0    1
 -2       966       967      1029      3766      3958      3959
 -1      1987    8    0    1
 -2       966      1029      1028      3959      3960      3955
 -1      1988    8    0    1
 -2       967       968      1030      3769      3961      3962
 -1      1989    8    0    1
 -2       967      1030      1029      3962      3963      3958
 -1      1990    8    0    1
 -2       968       969      1031      3772      3964      3965
 -1      1991    8    0    1
 -2       968      1031      1030      3965      3966      3961
 -1      1992    8    0    1
 -2       969       970      1032      3775      3967      3968
 -1      1993    8    0    1
 -2       969      1032      1031      3968      3969      3964
 -1      1994    8    0    1
 -2       970       971      1033      3778      3970      3971
 -1      1995    8    0    1
 -2       970      1033      1032      3971      3972      3967
 -1      1996    8    0    1
 -2       971       972      1034      3781      3973      3974
 -1      1997    8    0    1
 -2       971      1034      1033      3974      3975      3970
 -1      1998    8    0    1
 -2       972       973      1035      3784      3976      3977
 -1      1999    8    0    1
 -2       972      1035      1034      3977      3978      3973
 -1      2000    8    0    1
 -2       973       974      1036      3787      3979      3980
 -1      2001    8    0    1
 -2       973      1036      1035      3980      3981      3976
 -1      2002    8    0    1
 -2       974       975      1037      3790      3982      3983
 -1      2003    8    0    1
 -2       974      1037      1036      3983      3984      3979
 -1      2004    8    0    1
 -2       975       976      1038      3793      3985      3986
 -1      2005    8    0    1
 -2       975      1038      1037      3986      3987      3982
 -1      2006    8    0    1
 -2       976       977      1039      3796      3988      3989
 -1      2007    8    0    1
 -2       976      1039      1038      3989      3990      3985
 -1      2008    8    0    1
 -2       977       978      1040      3799      3991      3992
 -1      2009    8    0    1
 -2       977      1040      1039      3992      3993      3988
 -1      2010    8    0    1
 -2       978       979      1041      3802      3994      3995
 -1      2011    8    0    1
 -2       978      1041      1040      3995      3996      3991
 -1      2012    8    0    1
 -2       982       923       985      3844      3828      3997
 -1      2013    8    0    1
 -2       979       983      1042      3818      3998      3999
 -1      2014    8    0    1
 -2      1041       979      1042      3994      3999      4000
 -1      2015    8    0    1
 -2       983       984      1042      3825      4001      3998
 -1      2016    8    0    1
 -2       980       924      1043      3826      4002      4003
 -1      2017    8    0    1
 -2       984       980      1043      3823      4003      4004
 -1      2018    8    0    1
 -2       924       986      1043      3831      4005      4002
 -1      2019    8    0    1
 -2       956       957      1044      3736      4006      4007
 -1      2020    8    0    1
 -2       956      1044      1018      4007      4008      3926
 -1      2021    8    0    1
 -2       919       918      1045      3822      4009      4010
 -1      2022    8    0    1
 -2       927       926      1046      3643      4011      4012
 -1      2023    8    0    1
 -2       926      1017      1046      3925      4013      4011
 -1      2024    8    0    1
 -2       990       927      1046      3845      4012      4014
 -1      2025    8    0    1
 -2       953      1015       989      3920      4015      4016
 -1      2026    8    0    1
 -2       955      1019      1047      3930      4017      4018
 -1      2027    8    0    1
 -2       955      1047       987      4018      4019      3836
 -1      2028    8    0    1
 -2       982       985      1017      3997      4020      3924
 -1      2029    8    0    1
 -2      1043       986      1048      4005      4021      4022
 -1      2030    8    0    1
 -2       985       919      1045      3829      4010      4023
 -1      2031    8    0    1
 -2       918       988      1045      3839      4024      4009
 -1      2032    8    0    1
 -2       916       953       989      3832      4016      3841
 -1      2033    8    0    1
 -2       957      1020      1044      3933      4025      4006
 -1      2034    8    0    1
 -2       986       989      1049      3843      4026      4027
 -1      2035    8    0    1
 -2      1048       986      1049      4021      4027      4028
 -1      2036    8    0    1
 -2       989      1015      1049      4015      4029      4026
 -1      2037    8    0    1
 -2       992       991      1050      3852      4030      4031
 -1      2038    8    0    1
 -2       993       992      1051      3855      4032      4033
 -1      2039    8    0    1
 -2       992      1050      1051      4031      4034      4032
 -1      2040    8    0    1
 -2       994       993      1052      3858      4035      4036
 -1      2041    8    0    1
 -2       993      1051      1052      4033      4037      4035
 -1      2042    8    0    1
 -2       995       994      1053      3861      4038      4039
 -1      2043    8    0    1
 -2       994      1052      1053      4036      4040      4038
 -1      2044    8    0    1
 -2       996       995      1054      3864      4041      4042
 -1      2045    8    0    1
 -2       995      1053      1054      4039      4043      4041
 -1      2046    8    0    1
 -2       997       996      1055      3867      4044      4045
 -1      2047    8    0    1
 -2       996      1054      1055      4042      4046      4044
 -1      2048    8    0    1
 -2       998       997      1056      3870      4047      4048
 -1      2049    8    0    1
 -2       997      1055      1056      4045      4049      4047
 -1      2050    8    0    1
 -2       999       998      1057      3873      4050      4051
 -1      2051    8    0    1
 -2       998      1056      1057      4048      4052      4050
 -1      2052    8    0    1
 -2      1000       999      1058      3876      4053      4054
 -1      2053    8    0    1
 -2       999      1057      1058      4051      4055      4053
 -1      2054    8    0    1
 -2      1001      1000      1059      3879      4056      4057
 -1      2055    8    0    1
 -2      1000      1058      1059      4054      4058      4056
 -1      2056    8    0    1
 -2      1002      1001      1060      3882      4059      4060
 -1      2057    8    0    1
 -2      1001      1059      1060      4057      4061      4059
 -1      2058    8    0    1
 -2      1003      1002      1061      3885      4062      4063
 -1      2059    8    0    1
 -2      1002      1060      1061      4060      4064      4062
 -1      2060    8    0    1
 -2      1004      1003      1062      3888      4065      4066
 -1      2061    8    0    1
 -2      1003      1061      1062      4063      4067      4065
 -1      2062    8    0    1
 -2      1005      1004      1063      3891      4068      4069
 -1      2063    8    0    1
 -2      1004      1062      1063      4066      4070      4068
 -1      2064    8    0    1
 -2      1006      1005      1064      3894      4071      4072
 -1      2065    8    0    1
 -2      1005      1063      1064      4069      4073      4071
 -1      2066    8    0    1
 -2      1007      1006      1065      3897      4074      4075
 -1      2067    8    0    1
 -2      1006      1064      1065      4072      4076      4074
 -1      2068    8    0    1
 -2      1008      1007      1066      3900      4077      4078
 -1      2069    8    0    1
 -2      1007      1065      1066      4075      4079      4077
 -1      2070    8    0    1
 -2      1009      1008      1067      3903      4080      4081
 -1      2071    8    0    1
 -2      1008      1066      1067      4078      4082      4080
 -1      2072    8    0    1
 -2      1010      1009      1068      3906      4083      4084
 -1      2073    8    0    1
 -2      1009      1067      1068      4081      4085      4083
 -1      2074    8    0    1
 -2      1011      1010      1069      3909      4086      4087
 -1      2075    8    0    1
 -2      1010      1068      1069      4084      4088      4086
 -1      2076    8    0    1
 -2      1012      1011      1070      3912      4089      4090
 -1      2077    8    0    1
 -2      1011      1069      1070      4087      4091      4089
 -1      2078    8    0    1
 -2      1013      1012      1071      3915      4092      4093
 -1      2079    8    0    1
 -2      1012      1070      1071      4090      4094      4092
 -1      2080    8    0    1
 -2      1014      1013      1072      3918      4095      4096
 -1      2081    8    0    1
 -2      1013      1071      1072      4093      4097      4095
 -1      2082    8    0    1
 -2      1015      1014      1073      3921      4098      4099
 -1      2083    8    0    1
 -2      1049      1015      1073      4029      4099      4100
 -1      2084    8    0    1
 -2      1014      1072      1073      4096      4101      4098
 -1      2085    8    0    1
 -2       990      1046      1074      4014      4102      4103
 -1      2086    8    0    1
 -2      1016      1018      1075      3928      4104      4105
 -1      2087    8    0    1
 -2       984      1043      1076      4004      4106      4107
 -1      2088    8    0    1
 -2      1042       984      1076      4001      4107      4108
 -1      2089    8    0    1
 -2      1043      1048      1076      4022      4109      4106
 -1      2090    8    0    1
 -2      1019      1016      1077      3931      4110      4111
 -1      2091    8    0    1
 -2      1016      1075      1077      4105      4112      4110
 -1      2092    8    0    1
 -2      1021      1022      1078      3939      4113      4114
 -1      2093    8    0    1
 -2      1020      1021      1079      3936      4115      4116
 -1      2094    8    0    1
 -2      1021      1078      1079      4114      4117      4115
 -1      2095    8    0    1
 -2      1023      1024      1080      3945      4118      4119
 -1      2096    8    0    1
 -2      1024      1025      1081      3948      4120      4121
 -1      2097    8    0    1
 -2      1024      1081      1080      4121      4122      4118
 -1      2098    8    0    1
 -2      1025      1026      1082      3951      4123      4124
 -1      2099    8    0    1
 -2      1025      1082      1081      4124      4125      4120
 -1      2100    8    0    1
 -2      1026      1027      1083      3954      4126      4127
 -1      2101    8    0    1
 -2      1026      1083      1082      4127      4128      4123
 -1      2102    8    0    1
 -2      1027      1028      1084      3957      4129      4130
 -1      2103    8    0    1
 -2      1027      1084      1083      4130      4131      4126
 -1      2104    8    0    1
 -2      1028      1029      1085      3960      4132      4133
 -1      2105    8    0    1
 -2      1028      1085      1084      4133      4134      4129
 -1      2106    8    0    1
 -2      1029      1030      1086      3963      4135      4136
 -1      2107    8    0    1
 -2      1029      1086      1085      4136      4137      4132
 -1      2108    8    0    1
 -2      1030      1031      1087      3966      4138      4139
 -1      2109    8    0    1
 -2      1030      1087      1086      4139      4140      4135
 -1      2110    8    0    1
 -2      1031      1032      1088      3969      4141      4142
 -1      2111    8    0    1
 -2      1031      1088      1087      4142      4143      4138
 -1      2112    8    0    1
 -2      1032      1033      1089      3972      4144      4145
 -1      2113    8    0    1
 -2      1032      1089      1088      4145      4146      4141
 -1      2114    8    0    1
 -2      1033      1034      1090      3975      4147      4148
 -1      2115    8    0    1
 -2      1033      1090      1089      4148      4149      4144
 -1      2116    8    0    1
 -2      1034      1035      1091      3978      4150      4151
 -1      2117    8    0    1
 -2      1034      1091      1090      4151      4152      4147
 -1      2118    8    0    1
 -2      1035      1036      1092      3981      4153      4154
 -1      2119    8    0    1
 -2      1035      1092      1091      4154      4155      4150
 -1      2120    8    0    1
 -2      1036      1037      1093      3984      4156      4157
 -1      2121    8    0    1
 -2      1036      1093      1092      4157      4158      4153
 -1      2122    8    0    1
 -2      1037      1038      1094      3987      4159      4160
 -1      2123    8    0    1
 -2      1037      1094      1093      4160      4161      4156
 -1      2124    8    0    1
 -2      1038      1039      1095      3990      4162      4163
 -1      2125    8    0    1
 -2      1038      1095      1094      4163      4164      4159
 -1      2126    8    0    1
 -2      1039      1040      1096      3993      4165      4166
 -1      2127    8    0    1
 -2      1039      1096      1095      4166      4167      4162
 -1      2128    8    0    1
 -2       985      1045      1017      4023      4168      4020
 -1      2129    8    0    1
 -2      1022      1023      1097      3942      4169      4170
 -1      2130    8    0    1
 -2      1078      1022      1097      4113      4170      4171
 -1      2131    8    0    1
 -2      1023      1080      1097      4119      4172      4169
 -1      2132    8    0    1
 -2       988       987      1047      3840      4019      4173
 -1      2133    8    0    1
 -2      1044      1020      1098      4025      4174      4175
 -1      2134    8    0    1
 -2      1020      1079      1098      4116      4176      4174
 -1      2135    8    0    1
 -2      1046      1017      1099      4013      4177      4178
 -1      2136    8    0    1
 -2      1074      1046      1099      4102      4178      4179
 -1      2137    8    0    1
 -2      1017      1045      1099      4168      4180      4177
 -1      2138    8    0    1
 -2      1045       988      1100      4024      4181      4182
 -1      2139    8    0    1
 -2      1099      1045      1100      4180      4182      4183
 -1      2140    8    0    1
 -2       988      1047      1100      4173      4184      4181
 -1      2141    8    0    1
 -2       991       990      1101      3849      4185      4186
 -1      2142    8    0    1
 -2       991      1101      1050      4186      4187      4030
 -1      2143    8    0    1
 -2      1018      1044      1102      4008      4188      4189
 -1      2144    8    0    1
 -2      1018      1102      1075      4189      4190      4104
 -1      2145    8    0    1
 -2       990      1074      1101      4103      4191      4185
 -1      2146    8    0    1
 -2      1044      1098      1102      4175      4192      4188
 -1      2147    8    0    1
 -2      1040      1041      1103      3996      4193      4194
 -1      2148    8    0    1
 -2      1041      1042      1076      4000      4108      4195
 -1      2149    8    0    1
 -2      1048      1049      1073      4028      4100      4196
 -1      2150    8    0    1
 -2      1040      1103      1096      4194      4197      4165
 -1      2151    8    0    1
 -2      1076      1048      1103      4109      4198      4199
 -1      2152    8    0    1
 -2      1047      1019      1104      4017      4200      4201
 -1      2153    8    0    1
 -2      1100      1047      1104      4184      4201      4202
 -1      2154    8    0    1
 -2      1019      1077      1104      4111      4203      4200
 -1      2155    8    0    1
 -2      1103      1041      1076      4193      4195      4199
 -1      2156    8    0    1
 -2      1048      1073      1105      4196      4204      4205
 -1      2157    8    0    1
 -2      1103      1048      1105      4198      4205      4206
 -1      2158    8    0    1
 -2      1073      1072      1105      4101      4207      4204
 -1      2159    8    0    1
 -2      1096      1103      1105      4197      4206      4208
 -1      2160    8    0    1
 -2      1052      1051      1098      4037      4209      4210
 -1      2161    8    0    1
 -2      1053      1052      1079      4040      4211      4212
 -1      2162    8    0    1
 -2      1054      1053      1078      4043      4213      4214
 -1      2163    8    0    1
 -2      1055      1054      1097      4046      4215      4216
 -1      2164    8    0    1
 -2      1056      1055      1080      4049      4217      4218
 -1      2165    8    0    1
 -2      1057      1056      1081      4052      4219      4220
 -1      2166    8    0    1
 -2      1058      1057      1082      4055      4221      4222
 -1      2167    8    0    1
 -2      1059      1058      1083      4058      4223      4224
 -1      2168    8    0    1
 -2      1060      1059      1084      4061      4225      4226
 -1      2169    8    0    1
 -2      1061      1060      1085      4064      4227      4228
 -1      2170    8    0    1
 -2      1062      1061      1086      4067      4229      4230
 -1      2171    8    0    1
 -2      1063      1062      1087      4070      4231      4232
 -1      2172    8    0    1
 -2      1064      1063      1088      4073      4233      4234
 -1      2173    8    0    1
 -2      1065      1064      1089      4076      4235      4236
 -1      2174    8    0    1
 -2      1066      1065      1090      4079      4237      4238
 -1      2175    8    0    1
 -2      1067      1066      1091      4082      4239      4240
 -1      2176    8    0    1
 -2      1068      1067      1092      4085      4241      4242
 -1      2177    8    0    1
 -2      1069      1068      1093      4088      4243      4244
 -1      2178    8    0    1
 -2      1070      1069      1094      4091      4245      4246
 -1      2179    8    0    1
 -2      1071      1070      1095      4094      4247      4248
 -1      2180    8    0    1
 -2      1101      1074      1077      4191      4249      4250
 -1      2181    8    0    1
 -2      1094      1069      1093      4245      4244      4161
 -1      2182    8    0    1
 -2      1050      1101      1075      4187      4251      4252
 -1      2183    8    0    1
 -2      1078      1053      1079      4213      4212      4117
 -1      2184    8    0    1
 -2      1088      1063      1087      4233      4232      4143
 -1      2185    8    0    1
 -2      1081      1082      1057      4125      4221      4220
 -1      2186    8    0    1
 -2      1080      1081      1056      4122      4219      4218
 -1      2187    8    0    1
 -2      1083      1084      1059      4131      4225      4224
 -1      2188    8    0    1
 -2      1084      1085      1060      4134      4227      4226
 -1      2189    8    0    1
 -2      1085      1086      1061      4137      4229      4228
 -1      2190    8    0    1
 -2      1086      1087      1062      4140      4231      4230
 -1      2191    8    0    1
 -2      1088      1089      1064      4146      4235      4234
 -1      2192    8    0    1
 -2      1089      1090      1065      4149      4237      4236
 -1      2193    8    0    1
 -2      1090      1091      1066      4152      4239      4238
 -1      2194    8    0    1
 -2      1091      1092      1067      4155      4241      4240
 -1      2195    8    0    1
 -2      1092      1093      1068      4158      4243      4242
 -1      2196    8    0    1
 -2      1050      1075      1102      4252      4190      4253
 -1      2197    8    0    1
 -2      1094      1095      1070      4164      4247      4246
 -1      2198    8    0    1
 -2      1095      1096      1071      4167      4254      4248
 -1      2199    8    0    1
 -2      1052      1098      1079      4210      4176      4211
 -1      2200    8    0    1
 -2      1077      1075      1101      4112      4251      4250
 -1      2201    8    0    1
 -2      1082      1083      1058      4128      4223      4222
 -1      2202    8    0    1
 -2      1102      1098      1051      4192      4209      4255
 -1      2203    8    0    1
 -2      1080      1055      1097      4217      4216      4172
 -1      2204    8    0    1
 -2      1051      1050      1102      4034      4253      4255
 -1      2205    8    0    1
 -2      1054      1078      1097      4214      4171      4215
 -1      2206    8    0    1
 -2      1071      1096      1072      4254      4256      4097
 -1      2207    8    0    1
 -2      1074      1099      1106      4179      4257      4258
 -1      2208    8    0    1
 -2      1072      1096      1105      4256      4208      4207
 -1      2209    8    0    1
 -2      1106      1099      1100      4257      4183      4259
 -1      2210    8    0    1
 -2      1106      1100      1104      4259      4202      4260
 -1      2211    8    0    1
 -2      1077      1074      1106      4249      4258      4261
 -1      2212    8    0    1
 -2      1104      1077      1106      4203      4261      4260
 -3
    1PSTEP                         1           1           1          
  100CL  101 1.000000000        4261                     0    1           1
 -4  DISP        4    1
 -5  D1          1    2    1    0
 -5  D2          1    2    2    0
 -5  D3          1    2    3    0
 -5  ALL         1    2    0    0    1ALL
 -1         1 3.11968E-03-1.09248E-03-5.00710E-15
 -1         2 5.26752E-03-3.06628E-04-8.09160E-15
 -1         3 1.48147E-02-1.20558E-03-1.25197E-13
 -1         4 1.55987E-02-2.63451E-03-1.29616E-13
 -1         5 0.00000E+00 0.00000E+00 0.00000E+00
 -1         6 0.00000E+00 0.00000E+00 0.00000E+00
 -1         7 0.00000E+00 0.00000E+00 0.00000E+00
 -1         8 0.00000E+00 0.00000E+00 0.00000E+00
 -1         9 0.00000E+00 0.00000E+00 0.00000E+00
 -1        10 0.00000E+00 0.00000E+00 0.00000E+00
 -1        11 0.00000E+00 0.00000E+00 0.00000E+00
 -1        12 0.00000E+00 0.00000E+00 0.00000E+00
 -1        13 0.00000E+00 0.00000E+00 0.00000E+00
 -1        14 0.00000E+00 0.00000E+00 0.00000E+00
 -1        15 0.00000E+00 0.00000E+00 0.00000E+00
 -1        16 0.00000E+00 0.00000E+00 0.00000E+00
 -1        17 0.00000E+00 0.00000E+00 0.00000E+00
 -1        18 0.00000E+00 0.00000E+00 0.00000E+00
 -1        19 0.00000E+00 0.00000E+00 0.00000E+00
 -1        20 0.00000E+00 0.00000E+00 0.00000E+00
 -1        21 0.00000E+00 0.00000E+00 0.00000E+00
 -1        22 0.00000E+00 0.00000E+00 0.00000E+00
 -1        23 4.95625E-04-2.68631E-04 3.80419E-17
 -1        24 8.84722E-04-4.16195E-04-5.79371E-17
 -1        25 1.26739E-03-5.50135E-04-2.85409E-16
 -1        26 1.65108E-03-6.93139E-04-6.45487E-16
 -1        27 2.02931E-03-8.56225E-04-1.13943E-15
 -1        28 2.38916E-03-1.03750E-03-1.77043E-15
 -1        29 2.71629E-03-1.21966E-03-2.54726E-15
 -1        30 3.00413E-03-1.37117E-03-3.47819E-15
 -1        31 3.26271E-03-1.45806E-03-4.56833E-15
 -1        32 3.51768E-03-1.46327E-03-5.82040E-15
 -1        33 3.79681E-03-1.39834E-03-7.22745E-15
 -1        34 4.11456E-03-1.29628E-03-8.76966E-15
 -1        35 4.46750E-03-1.19280E-03-1.04414E-14
 -1        36 4.84131E-03-1.11192E-03-1.22277E-14
 -1        37 5.22035E-03-1.06302E-03-1.41205E-14
 -1        38 5.59334E-03-1.04515E-03-1.61137E-14
 -1        39 5.95436E-03-1.05253E-03-1.82052E-14
 -1        40 6.30158E-03-1.07838E-03-2.03930E-14
 -1        41 6.63562E-03-1.11673E-03-2.26723E-14
 -1        42 6.95819E-03-1.16299E-03-2.50424E-14
 -1        43 7.27133E-03-1.21387E-03-2.75043E-14
 -1        44 7.57701E-03-1.26714E-03-3.00488E-14
 -1        45 7.87693E-03-1.32138E-03-3.26773E-14
 -1        46 8.17250E-03-1.37568E-03-3.53946E-14
 -1        47 8.46485E-03-1.42953E-03-3.82076E-14
 -1        48 8.75486E-03-1.48266E-03-4.11162E-14
 -1        49 9.04319E-03-1.53497E-03-4.41106E-14
 -1        50 9.33036E-03-1.58644E-03-4.71868E-14
 -1        51 9.61675E-03-1.63713E-03-5.03485E-14
 -1        52 9.90261E-03-1.68711E-03-5.35944E-14
 -1        53 1.01882E-02-1.73649E-03-5.69244E-14
 -1        54 1.04735E-02-1.78534E-03-6.03287E-14
 -1        55 1.07588E-02-1.83377E-03-6.37960E-14
 -1        56 1.10441E-02-1.88186E-03-6.73247E-14
 -1        57 1.13293E-02-1.92967E-03-7.09243E-14
 -1        58 1.16146E-02-1.97726E-03-7.45715E-14
 -1        59 1.19000E-02-2.02469E-03-7.82640E-14
 -1        60 1.21854E-02-2.07199E-03-8.19986E-14
 -1        61 1.24709E-02-2.11921E-03-8.57844E-14
 -1        62 1.27564E-02-2.16635E-03-8.96300E-14
 -1        63 1.30419E-02-2.21345E-03-9.35250E-14
 -1        64 1.33275E-02-2.26052E-03-9.74630E-14
 -1        65 1.36132E-02-2.30757E-03-1.01441E-13
 -1        66 1.38988E-02-2.35461E-03-1.05447E-13
 -1        67 1.41845E-02-2.40164E-03-1.09479E-13
 -1        68 1.44702E-02-2.44867E-03-1.13509E-13
 -1        69 1.47559E-02-2.49571E-03-1.17547E-13
 -1        70 1.50416E-02-2.54276E-03-1.21602E-13
 -1        71 1.53273E-02-2.58981E-03-1.25695E-13
 -1        72 4.73337E-04 2.79906E-04 5.81674E-17
 -1        73 8.21155E-04 4.35811E-04-7.76560E-18
 -1        74 1.15245E-03 5.58681E-04-1.96911E-16
 -1        75 1.47393E-03 6.69234E-04-5.13021E-16
 -1        76 1.78390E-03 7.73044E-04-9.58374E-16
 -1        77 2.07848E-03 8.67839E-04-1.53803E-15
 -1        78 2.35500E-03 9.45571E-04-2.25840E-15
 -1        79 2.61464E-03 9.95263E-04-3.11785E-15
 -1        80 2.86369E-03 1.00728E-03-4.11865E-15
 -1        81 3.11224E-03 9.77666E-04-5.26680E-15
 -1        82 3.37080E-03 9.10396E-04-6.56004E-15
 -1        83 3.64657E-03 8.16099E-04-7.98605E-15
 -1        84 3.94150E-03 7.08260E-04-9.53504E-15
 -1        85 4.25278E-03 5.99120E-04-1.12078E-14
 -1        86 4.57495E-03 4.97186E-04-1.30046E-14
 -1        87 4.90210E-03 4.06746E-04-1.49206E-14
 -1        88 5.22932E-03 3.28713E-04-1.69414E-14
 -1        89 5.55330E-03 2.61908E-04-1.90637E-14
 -1        90 5.87221E-03 2.04181E-04-2.12812E-14
 -1        91 6.18540E-03 1.53186E-04-2.35863E-14
 -1        92 6.49299E-03 1.06793E-04-2.59828E-14
 -1        93 6.79554E-03 6.32680E-05-2.84707E-14
 -1        94 7.09380E-03 2.13025E-05-3.10513E-14
 -1        95 7.38857E-03-2.00318E-05-3.37268E-14
 -1        96 7.68059E-03-6.13517E-05-3.64914E-14
 -1        97 7.97050E-03-1.03036E-04-3.93410E-14
 -1        98 8.25885E-03-1.45291E-04-4.22806E-14
 -1        99 8.54608E-03-1.88204E-04-4.53124E-14
 -1       100 8.83253E-03-2.31784E-04-4.84339E-14
 -1       101 9.11846E-03-2.75992E-04-5.16325E-14
 -1       102 9.40406E-03-3.20763E-04-5.48947E-14
 -1       103 9.68946E-03-3.66022E-04-5.82263E-14
 -1       104 9.97477E-03-4.11689E-04-6.16135E-14
 -1       105 1.02600E-02-4.57693E-04-6.50599E-14
 -1       106 1.05453E-02-5.03966E-04-6.85687E-14
 -1       107 1.08307E-02-5.50451E-04-7.21428E-14
 -1       108 1.11160E-02-5.97100E-04-7.57786E-14
 -1       109 1.14014E-02-6.43872E-04-7.94711E-14
 -1       110 1.16869E-02-6.90737E-04-8.32063E-14
 -1       111 1.19724E-02-7.37668E-04-8.69770E-14
 -1       112 1.22580E-02-7.84645E-04-9.07698E-14
 -1       113 1.25436E-02-8.31654E-04-9.45848E-14
 -1       114 1.28292E-02-8.78683E-04-9.84062E-14
 -1       115 1.31148E-02-9.25723E-04-1.02231E-13
 -1       116 1.34005E-02-9.72768E-04-1.06062E-13
 -1       117 1.36862E-02-1.01981E-03-1.09894E-13
 -1       118 1.39719E-02-1.06685E-03-1.13750E-13
 -1       119 1.42576E-02-1.11388E-03-1.17627E-13
 -1       120 1.45433E-02-1.16091E-03-1.21515E-13
 -1       121 1.48610E-02-1.28986E-03-1.25503E-13
 -1       122 1.49072E-02-1.37415E-03-1.25829E-13
 -1       123 1.49534E-02-1.45844E-03-1.26118E-13
 -1       124 1.49996E-02-1.54274E-03-1.26409E-13
 -1       125 1.50459E-02-1.62705E-03-1.26699E-13
 -1       126 1.50913E-02-1.70994E-03-1.26986E-13
 -1       127 1.51375E-02-1.79426E-03-1.27276E-13
 -1       128 1.51838E-02-1.87859E-03-1.27547E-13
 -1       129 1.52300E-02-1.96293E-03-1.27794E-13
 -1       130 1.52763E-02-2.04726E-03-1.28012E-13
 -1       131 1.53226E-02-2.13159E-03-1.28241E-13
 -1       132 1.53681E-02-2.21447E-03-1.28496E-13
 -1       133 1.54144E-02-2.29878E-03-1.28771E-13
 -1       134 1.54607E-02-2.38308E-03-1.29025E-13
 -1       135 1.55069E-02-2.46737E-03-1.29253E-13
 -1       136 1.55532E-02-2.55166E-03-1.29445E-13
 -1       137 5.19113E-03-1.27663E-04-7.99645E-15
 -1       138 5.02671E-03 3.17767E-05-7.75899E-15
 -1       139 4.79042E-03 1.73544E-04-7.41114E-15
 -1       140 4.45039E-03 3.10860E-04-6.91684E-15
 -1       141 4.08853E-03 4.10789E-04-6.40282E-15
 -1       142 3.67966E-03 4.84638E-04-5.84151E-15
 -1       143 3.19874E-03 5.29174E-04-5.20746E-15
 -1       144 2.72871E-03 5.32222E-04-4.61317E-15
 -1       145 2.29539E-03 4.99776E-04-4.09212E-15
 -1       146 1.84408E-03 4.24014E-04-3.56917E-15
 -1       147 1.49326E-03 3.26623E-04-3.17821E-15
 -1       148 1.19589E-03 1.98696E-04-2.85688E-15
 -1       149 1.00897E-03 6.72867E-05-2.66032E-15
 -1       150 9.05376E-04-7.99593E-05-2.55363E-15
 -1       151 8.96675E-04-2.25242E-04-2.54569E-15
 -1       152 9.82200E-04-3.85562E-04-2.63436E-15
 -1       153 1.17199E-03-5.51504E-04-2.82826E-15
 -1       154 1.42998E-03-7.01272E-04-3.09473E-15
 -1       155 1.79435E-03-8.50338E-04-3.48078E-15
 -1       156 2.18079E-03-9.61865E-04-3.90350E-15
 -1       157 2.64706E-03-1.04997E-03-4.43807E-15
 -1       158 3.61452E-03-1.08846E-03-5.63667E-15
 -1       159 4.09913E-03-1.03230E-03-6.29314E-15
 -1       160 4.50625E-03-9.36831E-04-6.87530E-15
 -1       161 4.82678E-03-8.15207E-04-7.35888E-15
 -1       162 5.08309E-03-6.58947E-04-7.76687E-15
 -1       163 5.22972E-03-4.89917E-04-8.01181E-15
 -1       164 2.89410E-04-1.01886E-04-2.11758E-17
 -1       165 2.54382E-04-5.83758E-05-3.95463E-17
 -1       166 2.26696E-04-3.03665E-05-5.00224E-17
 -1       167 2.01504E-04-1.36436E-05-5.60092E-17
 -1       168 1.80165E-04-7.25491E-06-5.94177E-17
 -1       169 1.64925E-04-9.27670E-06-6.11558E-17
 -1       170 1.58996E-04-1.59889E-05-6.15217E-17
 -1       171 1.63065E-04-2.19281E-05-6.10745E-17
 -1       172 1.75061E-04-2.21572E-05-5.95905E-17
 -1       173 1.91235E-04-1.41325E-05-5.72120E-17
 -1       174 2.07752E-04 1.63156E-06-5.40610E-17
 -1       175 2.23180E-04 2.39260E-05-4.94227E-17
 -1       176 2.37205E-04 5.08595E-05-4.19586E-17
 -1       177 2.52079E-04 8.25948E-05-2.95987E-17
 -1       178 2.74271E-04 1.24088E-04-8.76849E-18
 -1       179 3.44101E-04 1.91734E-04 1.38846E-17
 -1       180 5.81410E-04-2.48382E-04-6.10067E-17
 -1       181 9.63954E-04-3.84882E-04-2.47239E-16
 -1       182 1.33819E-03-5.20854E-04-5.57246E-16
 -1       183 1.70875E-03-6.74180E-04-9.95633E-16
 -1       184 2.07304E-03-8.50886E-04-1.56602E-15
 -1       185 2.42486E-03-1.04253E-03-2.27546E-15
 -1       186 2.75807E-03-1.22272E-03-3.13241E-15
 -1       187 3.07237E-03-1.35258E-03-4.14425E-15
 -1       188 3.37704E-03-1.39998E-03-5.31551E-15
 -1       189 3.68708E-03-1.36121E-03-6.64418E-15
 -1       190 4.01373E-03-1.26425E-03-8.11721E-15
 -1       191 4.35846E-03-1.15031E-03-9.72146E-15
 -1       192 4.71502E-03-1.05244E-03-1.14498E-14
 -1       193 5.07483E-03-9.86901E-04-1.32867E-14
 -1       194 5.43092E-03-9.55988E-04-1.52281E-14
 -1       195 5.77910E-03-9.54551E-04-1.72670E-14
 -1       196 6.11763E-03-9.75178E-04-1.94023E-14
 -1       197 6.44639E-03-1.01093E-03-2.16309E-14
 -1       198 6.76622E-03-1.05630E-03-2.39476E-14
 -1       199 7.07833E-03-1.10734E-03-2.63540E-14
 -1       200 7.38405E-03-1.16134E-03-2.88525E-14
 -1       201 7.68464E-03-1.21656E-03-3.14332E-14
 -1       202 7.98120E-03-1.27192E-03-3.41036E-14
 -1       203 8.27464E-03-1.32679E-03-3.68675E-14
 -1       204 8.56574E-03-1.38086E-03-3.97192E-14
 -1       205 8.85508E-03-1.43399E-03-4.26625E-14
 -1       206 9.14315E-03-1.48617E-03-4.56892E-14
 -1       207 9.43030E-03-1.53743E-03-4.87998E-14
 -1       208 9.71681E-03-1.58789E-03-5.19932E-14
 -1       209 1.00029E-02-1.63764E-03-5.52720E-14
 -1       210 1.02887E-02-1.68680E-03-5.86282E-14
 -1       211 1.05743E-02-1.73546E-03-6.20544E-14
 -1       212 1.08598E-02-1.78371E-03-6.55429E-14
 -1       213 1.11453E-02-1.83165E-03-6.90967E-14
 -1       214 1.14307E-02-1.87934E-03-7.27101E-14
 -1       215 1.17162E-02-1.92684E-03-7.63739E-14
 -1       216 1.20017E-02-1.97419E-03-8.00817E-14
 -1       217 1.22872E-02-2.02144E-03-8.38373E-14
 -1       218 1.25728E-02-2.06860E-03-8.76434E-14
 -1       219 1.28583E-02-2.11572E-03-9.15048E-14
 -1       220 1.31439E-02-2.16279E-03-9.54151E-14
 -1       221 1.34296E-02-2.20984E-03-9.93629E-14
 -1       222 1.37152E-02-2.25688E-03-1.03338E-13
 -1       223 1.40009E-02-2.30391E-03-1.07341E-13
 -1       224 1.42866E-02-2.35093E-03-1.11360E-13
 -1       225 1.45723E-02-2.39797E-03-1.15381E-13
 -1       226 1.48580E-02-2.44501E-03-1.19425E-13
 -1       227 1.51437E-02-2.49205E-03-1.23497E-13
 -1       228 7.03170E-04 3.48876E-04-7.05375E-17
 -1       229 1.04464E-03 4.75649E-04-2.70600E-16
 -1       230 1.37322E-03 5.89104E-04-5.92930E-16
 -1       231 1.69082E-03 6.96211E-04-1.04133E-15
 -1       232 1.99666E-03 7.95463E-04-1.62148E-15
 -1       233 2.28985E-03 8.78820E-04-2.33885E-15
 -1       234 2.57142E-03 9.34517E-04-3.19578E-15
 -1       235 2.84533E-03 9.51605E-04-4.19424E-15
 -1       236 3.11799E-03 9.24964E-04-5.33605E-15
 -1       237 3.39619E-03 8.58115E-04-6.62042E-15
 -1       238 3.68475E-03 7.62153E-04-8.03946E-15
 -1       239 3.98517E-03 6.51557E-04-9.58356E-15
 -1       240 4.29585E-03 5.39560E-04-1.12530E-14
 -1       241 4.61341E-03 4.35324E-04-1.30429E-14
 -1       242 4.93401E-03 3.43399E-04-1.49482E-14
 -1       243 5.25438E-03 2.64680E-04-1.69593E-14
 -1       244 5.57220E-03 1.97820E-04-1.90722E-14
 -1       245 5.88611E-03 1.40468E-04-2.12811E-14
 -1       246 6.19557E-03 9.00943E-05-2.35805E-14
 -1       247 6.50059E-03 4.44280E-05-2.59721E-14
 -1       248 6.80152E-03 1.63970E-06-2.84532E-14
 -1       249 7.09889E-03-3.96389E-05-3.10269E-14
 -1       250 7.39328E-03-8.03666E-05-3.36871E-14
 -1       251 7.68528E-03-1.21172E-04-3.64389E-14
 -1       252 7.97539E-03-1.62434E-04-3.92820E-14
 -1       253 8.26407E-03-2.04352E-04-4.22131E-14
 -1       254 8.55167E-03-2.47003E-04-4.52329E-14
 -1       255 8.83851E-03-2.90382E-04-4.83387E-14
 -1       256 9.12480E-03-3.34441E-04-5.15235E-14
 -1       257 9.41073E-03-3.79104E-04-5.47790E-14
 -1       258 9.69642E-03-4.24286E-04-5.81016E-14
 -1       259 9.98197E-03-4.69902E-04-6.14832E-14
 -1       260 1.02674E-02-5.15871E-04-6.49269E-14
 -1       261 1.05529E-02-5.62123E-04-6.84340E-14
 -1       262 1.08383E-02-6.08597E-04-7.20006E-14
 -1       263 1.11238E-02-6.55240E-04-7.56246E-14
 -1       264 1.14093E-02-7.02012E-04-7.93052E-14
 -1       265 1.16948E-02-7.48878E-04-8.30335E-14
 -1       266 1.19804E-02-7.95812E-04-8.67974E-14
 -1       267 1.22659E-02-8.42793E-04-9.05913E-14
 -1       268 1.25515E-02-8.89807E-04-9.44076E-14
 -1       269 1.28372E-02-9.36840E-04-9.82346E-14
 -1       270 1.31228E-02-9.83884E-04-1.02068E-13
 -1       271 1.34085E-02-1.03093E-03-1.05906E-13
 -1       272 1.36942E-02-1.07798E-03-1.09747E-13
 -1       273 1.39799E-02-1.12502E-03-1.13605E-13
 -1       274 1.42656E-02-1.17206E-03-1.17482E-13
 -1       275 1.45513E-02-1.21908E-03-1.21374E-13
 -1       276 1.46367E-02-1.29129E-03-1.22287E-13
 -1       277 1.46829E-02-1.37558E-03-1.22580E-13
 -1       278 1.47291E-02-1.45988E-03-1.22869E-13
 -1       279 1.47753E-02-1.54418E-03-1.23156E-13
 -1       280 1.48208E-02-1.62706E-03-1.23434E-13
 -1       281 1.48670E-02-1.71138E-03-1.23707E-13
 -1       282 1.49132E-02-1.79570E-03-1.23973E-13
 -1       283 1.49595E-02-1.88003E-03-1.24226E-13
 -1       284 1.50057E-02-1.96435E-03-1.24460E-13
 -1       285 1.50520E-02-2.04867E-03-1.24687E-13
 -1       286 1.50975E-02-2.13156E-03-1.24913E-13
 -1       287 1.51438E-02-2.21587E-03-1.25143E-13
 -1       288 1.51901E-02-2.30017E-03-1.25371E-13
 -1       289 1.52364E-02-2.38447E-03-1.25585E-13
 -1       290 1.51900E-02-2.43826E-03-1.24547E-13
 -1       291 5.26356E-03-2.79482E-04-8.88485E-15
 -1       292 5.09364E-03-1.70332E-04-8.57033E-15
 -1       293 4.83284E-03-3.73572E-05-8.15384E-15
 -1       294 4.47733E-03 1.12984E-04-7.68904E-15
 -1       295 4.10915E-03 2.97186E-04-6.99936E-15
 -1       296 3.73968E-03 4.49731E-04-6.34258E-15
 -1       297 3.34630E-03 5.69961E-04-5.63807E-15
 -1       298 2.96457E-03 6.18386E-04-4.90158E-15
 -1       299 2.59759E-03 5.71838E-04-4.25620E-15
 -1       300 2.21345E-03 4.57608E-04-3.65591E-15
 -1       301 1.80662E-03 3.03908E-04-3.17957E-15
 -1       302 1.45099E-03 1.39515E-04-2.76987E-15
 -1       303 1.14468E-03 1.36156E-05-2.51425E-15
 -1       304 9.45033E-04-8.43798E-05-2.34027E-15
 -1       305 8.66589E-04-1.56156E-04-2.29735E-15
 -1       306 9.18307E-04-2.28393E-04-2.31984E-15
 -1       307 1.11330E-03-3.20251E-04-2.43110E-15
 -1       308 1.39697E-03-4.87082E-04-2.73553E-15
 -1       309 1.77410E-03-6.59006E-04-3.05129E-15
 -1       310 2.15484E-03-8.62458E-04-3.51859E-15
 -1       311 2.56120E-03-1.03499E-03-4.03289E-15
 -1       312 2.94675E-03-1.14892E-03-4.67733E-15
 -1       313 3.33312E-03-1.17171E-03-5.38672E-15
 -1       314 3.73514E-03-1.09580E-03-6.17988E-15
 -1       315 4.15064E-03-9.43455E-04-6.93366E-15
 -1       316 4.53917E-03-7.76492E-04-7.57252E-15
 -1       317 4.88175E-03-6.08600E-04-8.17030E-15
 -1       318 5.15086E-03-4.76841E-04-8.54345E-15
 -1       319 5.28572E-03-3.67995E-04-8.80099E-15
 -1       320 4.95653E-04-1.09669E-04-1.71938E-16
 -1       321 5.59351E-04-1.73724E-04-1.42200E-16
 -1       322 3.84464E-04-3.77913E-05-2.01025E-16
 -1       323 3.41244E-04-2.80376E-05-2.07228E-16
 -1       324 3.16599E-04-3.10393E-05-2.09942E-16
 -1       325 3.15686E-04-3.79094E-05-2.10010E-16
 -1       326 3.36643E-04-3.84968E-05-2.07760E-16
 -1       327 3.71278E-04-2.58390E-05-2.03244E-16
 -1       328 4.09243E-04 1.09059E-06-1.96579E-16
 -1       329 4.45144E-04 4.08180E-05-1.86754E-16
 -1       330 4.76409E-04 8.95411E-05-1.71765E-16
 -1       331 5.05918E-04 1.45597E-04-1.49142E-16
 -1       332 5.42305E-04 2.11800E-04-1.13618E-16
 -1       333 6.13718E-04 2.76021E-04-9.85743E-17
 -1       334 9.54307E-04 4.02370E-04-3.03688E-16
 -1       335 1.04504E-03-3.56590E-04-4.58868E-16
 -1       336 1.40582E-03-4.95234E-04-8.46111E-16
 -1       337 1.77085E-03-6.57725E-04-1.35876E-15
 -1       338 2.13852E-03-8.46476E-04-2.00217E-15
 -1       339 2.50209E-03-1.04653E-03-2.78573E-15
 -1       340 2.85313E-03-1.22055E-03-3.71966E-15
 -1       341 3.19070E-03-1.32001E-03-4.81060E-15
 -1       342 3.52578E-03-1.31759E-03-6.06202E-15
 -1       343 3.87127E-03-1.23128E-03-7.46561E-15
 -1       344 4.22913E-03-1.10951E-03-9.00791E-15
 -1       345 4.59117E-03-9.96474E-04-1.06757E-14
 -1       346 4.94851E-03-9.15746E-04-1.24588E-14
 -1       347 5.29633E-03-8.72415E-04-1.43479E-14
 -1       348 5.63367E-03-8.61889E-04-1.63365E-14
 -1       349 5.96141E-03-8.76441E-04-1.84203E-14
 -1       350 6.28090E-03-9.08521E-04-2.05958E-14
 -1       351 6.59348E-03-9.51997E-04-2.28623E-14
 -1       352 6.90033E-03-1.00234E-03-2.52178E-14
 -1       353 7.20247E-03-1.05642E-03-2.76654E-14
 -1       354 7.50077E-03-1.11217E-03-3.01990E-14
 -1       355 7.79598E-03-1.16829E-03-3.28188E-14
 -1       356 8.08874E-03-1.22400E-03-3.55324E-14
 -1       357 8.37959E-03-1.27890E-03-3.83341E-14
 -1       358 8.66895E-03-1.33280E-03-4.12248E-14
 -1       359 8.95720E-03-1.38566E-03-4.42007E-14
 -1       360 9.24462E-03-1.43751E-03-4.72619E-14
 -1       361 9.53142E-03-1.48846E-03-5.04064E-14
 -1       362 9.81779E-03-1.53861E-03-5.36329E-14
 -1       363 1.01039E-02-1.58809E-03-5.69417E-14
 -1       364 1.03897E-02-1.63701E-03-6.03226E-14
 -1       365 1.06754E-02-1.68546E-03-6.37728E-14
 -1       366 1.09611E-02-1.73356E-03-6.72846E-14
 -1       367 1.12467E-02-1.78136E-03-7.08585E-14
 -1       368 1.15323E-02-1.82894E-03-7.44886E-14
 -1       369 1.18179E-02-1.87635E-03-7.81677E-14
 -1       370 1.21034E-02-1.92364E-03-8.18981E-14
 -1       371 1.23890E-02-1.97083E-03-8.56751E-14
 -1       372 1.26747E-02-2.01796E-03-8.95002E-14
 -1       373 1.29603E-02-2.06505E-03-9.33774E-14
 -1       374 1.32459E-02-2.11210E-03-9.72979E-14
 -1       375 1.35316E-02-2.15914E-03-1.01249E-13
 -1       376 1.38173E-02-2.20617E-03-1.05224E-13
 -1       377 1.41030E-02-2.25320E-03-1.09221E-13
 -1       378 1.43887E-02-2.30022E-03-1.13230E-13
 -1       379 1.46744E-02-2.34726E-03-1.17249E-13
 -1       380 1.49322E-02-2.39276E-03-1.20884E-13
 -1       381 1.28700E-03 5.16899E-04-6.27136E-16
 -1       382 1.61157E-03 6.25982E-04-1.07370E-15
 -1       383 1.92729E-03 7.28796E-04-1.64957E-15
 -1       384 2.23308E-03 8.17634E-04-2.35942E-15
 -1       385 2.52902E-03 8.80118E-04-3.20787E-15
 -1       386 2.81775E-03 9.03706E-04-4.19819E-15
 -1       387 3.10440E-03 8.81612E-04-5.33040E-15
 -1       388 3.39477E-03 8.16515E-04-6.60475E-15
 -1       389 3.69290E-03 7.19913E-04-8.01461E-15
 -1       390 3.99971E-03 6.07366E-04-9.55117E-15
 -1       391 4.31347E-03 4.93153E-04-1.12122E-14
 -1       392 4.63113E-03 3.87056E-04-1.29928E-14
 -1       393 4.94968E-03 2.93852E-04-1.48880E-14
 -1       394 5.26677E-03 2.14420E-04-1.68882E-14
 -1       395 5.58087E-03 1.47302E-04-1.89909E-14
 -1       396 5.89122E-03 9.00179E-05-2.11895E-14
 -1       397 6.19760E-03 3.99199E-05-2.34796E-14
 -1       398 6.50016E-03-5.35379E-06-2.58621E-14
 -1       399 6.79925E-03-4.77008E-05-2.83355E-14
 -1       400 7.09533E-03-8.85360E-05-3.08978E-14
 -1       401 7.38889E-03-1.28848E-04-3.35456E-14
 -1       402 7.68039E-03-1.69281E-04-3.62858E-14
 -1       403 7.97027E-03-2.10223E-04-3.91175E-14
 -1       404 8.25888E-03-2.51872E-04-4.20392E-14
 -1       405 8.54653E-03-2.94303E-04-4.50469E-14
 -1       406 8.83349E-03-3.37508E-04-4.81384E-14
 -1       407 9.11993E-03-3.81430E-04-5.13116E-14
 -1       408 9.40602E-03-4.25989E-04-5.45565E-14
 -1       409 9.69186E-03-4.71092E-04-5.78692E-14
 -1       410 9.97756E-03-5.16650E-04-6.12448E-14
 -1       411 1.02632E-02-5.62579E-04-6.46822E-14
 -1       412 1.05487E-02-6.08802E-04-6.81826E-14
 -1       413 1.08343E-02-6.55256E-04-7.17423E-14
 -1       414 1.11198E-02-7.01888E-04-7.53574E-14
 -1       415 1.14053E-02-7.48652E-04-7.90273E-14
 -1       416 1.16909E-02-7.95514E-04-8.27467E-14
 -1       417 1.19765E-02-8.42447E-04-8.65070E-14
 -1       418 1.22621E-02-8.89429E-04-9.03018E-14
 -1       419 1.25477E-02-9.36443E-04-9.41182E-14
 -1       420 1.28334E-02-9.83478E-04-9.79494E-14
 -1       421 1.31190E-02-1.03052E-03-1.01789E-13
 -1       422 1.34047E-02-1.07757E-03-1.05633E-13
 -1       423 1.36904E-02-1.12462E-03-1.09481E-13
 -1       424 1.39761E-02-1.17167E-03-1.13342E-13
 -1       425 1.42618E-02-1.21871E-03-1.17219E-13
 -1       426 1.44492E-02-1.25500E-03-1.19750E-13
 -1       427 1.45048E-02-1.46130E-03-1.19619E-13
 -1       428 1.44586E-02-1.37700E-03-1.19338E-13
 -1       429 1.44539E-02-1.31600E-03-1.19545E-13
 -1       430 1.45502E-02-1.54418E-03-1.19888E-13
 -1       431 1.45964E-02-1.62849E-03-1.20153E-13
 -1       432 1.46427E-02-1.71281E-03-1.20410E-13
 -1       433 1.46889E-02-1.79713E-03-1.20656E-13
 -1       434 1.47351E-02-1.88145E-03-1.20897E-13
 -1       435 1.47814E-02-1.96577E-03-1.21122E-13
 -1       436 1.48269E-02-2.04866E-03-1.21340E-13
 -1       437 1.48732E-02-2.13297E-03-1.21552E-13
 -1       438 1.49195E-02-2.21728E-03-1.21756E-13
 -1       439 1.49658E-02-2.30158E-03-1.21956E-13
 -1       440 4.94098E-03-1.74087E-04-9.03905E-15
 -1       441 5.31929E-03-3.39891E-04-9.83372E-15
 -1       442 5.18888E-03-2.69508E-04-9.43073E-15
 -1       443 4.63355E-03-4.75409E-05-8.58523E-15
 -1       444 4.20036E-03 1.68451E-04-7.74815E-15
 -1       445 4.37756E-04-6.46977E-05-1.90203E-16
 -1       446 3.50242E-03 5.18187E-04-6.22009E-15
 -1       447 3.13867E-03 6.32584E-04-5.35079E-15
 -1       448 2.77398E-03 6.31153E-04-4.45917E-15
 -1       449 2.47576E-03 5.43625E-04-3.85032E-15
 -1       450 2.04901E-03 3.51196E-04-3.15810E-15
 -1       451 1.71615E-03 1.91368E-04-2.75704E-15
 -1       452 1.30733E-03 1.85398E-05-2.39087E-15
 -1       453 1.04192E-03-8.08285E-05-2.13123E-15
 -1       454 8.75346E-04-1.33929E-04-2.04347E-15
 -1       455 8.60455E-04-1.64398E-04-2.01600E-15
 -1       456 9.85786E-04-2.04972E-04-2.04432E-15
 -1       457 1.31388E-03-3.42349E-04-2.34887E-15
 -1       458 1.62850E-03-4.91592E-04-2.62039E-15
 -1       459 2.07212E-03-7.30091E-04-3.06819E-15
 -1       460 2.40428E-03-9.23017E-04-3.52956E-15
 -1       461 2.82296E-03-1.12984E-03-4.26390E-15
 -1       462 3.15635E-03-1.20887E-03-5.03795E-15
 -1       463 3.49921E-03-1.17810E-03-5.91468E-15
 -1       464 3.90244E-03-1.02025E-03-6.89084E-15
 -1       465 4.30063E-03-8.22339E-04-7.72226E-15
 -1       466 4.66283E-03-6.39164E-04-8.50446E-15
 -1       467 5.02356E-03-4.83954E-04-9.06981E-15
 -1       468 5.24127E-03-3.94472E-04-9.39203E-15
 -1       469 3.84483E-03 3.56315E-04-6.98681E-15
 -1       470 1.12081E-03-2.29933E-04-1.95425E-15
 -1       471 1.06365E-03 3.75357E-04-5.27942E-16
 -1       472 4.83360E-04-5.34075E-05-4.40969E-16
 -1       473 5.43771E-04-6.42770E-05-4.33732E-16
 -1       474 4.79370E-04-5.62236E-05-4.36876E-16
 -1       475 5.31354E-04-4.12313E-05-4.31733E-16
 -1       476 5.94913E-04-6.02830E-06-4.22856E-16
 -1       477 6.56901E-04 4.80688E-05-4.09259E-16
 -1       478 7.09279E-04 1.14693E-04-3.88727E-16
 -1       479 7.53798E-04 1.89197E-04-3.58580E-16
 -1       480 1.39557E-03 4.84619E-04-9.30293E-16
 -1       481 1.11667E-03-3.29456E-04-6.94384E-16
 -1       482 3.98802E-03 2.52812E-04-7.81254E-15
 -1       483 1.46676E-03-4.67036E-04-1.15193E-15
 -1       484 1.83437E-03-6.36285E-04-1.73226E-15
 -1       485 2.21709E-03-8.39593E-04-2.44345E-15
 -1       486 2.60267E-03-1.05440E-03-3.29734E-15
 -1       487 2.97579E-03-1.22145E-03-4.30693E-15
 -1       488 3.33904E-03-1.27431E-03-5.47941E-15
 -1       489 3.70668E-03-1.20365E-03-6.81187E-15
 -1       490 4.08885E-03-1.06828E-03-8.29274E-15
 -1       491 4.46964E-03-9.35773E-04-9.90471E-15
 -1       492 4.83665E-03-8.40798E-04-1.16343E-14
 -1       493 5.18368E-03-7.88401E-04-1.34712E-14
 -1       494 5.51308E-03-7.71761E-04-1.54090E-14
 -1       495 5.82960E-03-7.81864E-04-1.74429E-14
 -1       496 6.13743E-03-8.10679E-04-1.95686E-14
 -1       497 6.43952E-03-8.51896E-04-2.17855E-14
 -1       498 6.73771E-03-9.00851E-04-2.40894E-14
 -1       499 7.03310E-03-9.54241E-04-2.64867E-14
 -1       500 7.32636E-03-1.00981E-03-2.89736E-14
 -1       501 7.61794E-03-1.06610E-03-3.15447E-14
 -1       502 7.90818E-03-1.12220E-03-3.42072E-14
 -1       503 8.19733E-03-1.17759E-03-3.69597E-14
 -1       504 8.48561E-03-1.23201E-03-3.97984E-14
 -1       505 8.77319E-03-1.28538E-03-4.27243E-14
 -1       506 9.06025E-03-1.33770E-03-4.57354E-14
 -1       507 9.34689E-03-1.38907E-03-4.88289E-14
 -1       508 9.63322E-03-1.43958E-03-5.20084E-14
 -1       509 9.91933E-03-1.48935E-03-5.52671E-14
 -1       510 1.02053E-02-1.53851E-03-5.86021E-14
 -1       511 1.04911E-02-1.58716E-03-6.20100E-14
 -1       512 1.07769E-02-1.63540E-03-6.54849E-14
 -1       513 1.10626E-02-1.68332E-03-6.90172E-14
 -1       514 1.13483E-02-1.73099E-03-7.26102E-14
 -1       515 1.16339E-02-1.77847E-03-7.62627E-14
 -1       516 1.19196E-02-1.82581E-03-7.99627E-14
 -1       517 1.22053E-02-1.87304E-03-8.37135E-14
 -1       518 1.24909E-02-1.92019E-03-8.75102E-14
 -1       519 1.27766E-02-1.96729E-03-9.13525E-14
 -1       520 1.30623E-02-2.01436E-03-9.52439E-14
 -1       521 1.33479E-02-2.06140E-03-9.91659E-14
 -1       522 1.36336E-02-2.10843E-03-1.03119E-13
 -1       523 1.39193E-02-2.15546E-03-1.07092E-13
 -1       524 1.42050E-02-2.20248E-03-1.11083E-13
 -1       525 1.44907E-02-2.24951E-03-1.15082E-13
 -1       526 2.04965E-03 6.94741E-04-2.11072E-15
 -1       527 2.36591E-03 7.78964E-04-2.89902E-15
 -1       528 2.67327E-03 8.29276E-04-3.82704E-15
 -1       529 2.97512E-03 8.31995E-04-4.89870E-15
 -1       530 3.27764E-03 7.83855E-04-6.11237E-15
 -1       531 3.58624E-03 6.94423E-04-7.46571E-15
 -1       532 3.90236E-03 5.81319E-04-8.95034E-15
 -1       533 4.22363E-03 4.62368E-04-1.05604E-14
 -1       534 4.54613E-03 3.50242E-04-1.22902E-14
 -1       535 4.86655E-03 2.51342E-04-1.41350E-14
 -1       536 5.18299E-03 1.67226E-04-1.60875E-14
 -1       537 5.49476E-03 9.65962E-05-1.81418E-14
 -1       538 5.80197E-03 3.68950E-05-2.02938E-14
 -1       539 6.10506E-03-1.46950E-05-2.25409E-14
 -1       540 6.40461E-03-6.07319E-05-2.48793E-14
 -1       541 6.70120E-03-1.03304E-04-2.73100E-14
 -1       542 6.99533E-03-1.43996E-04-2.98266E-14
 -1       543 7.28747E-03-1.83933E-04-3.24314E-14
 -1       544 7.57801E-03-2.23866E-04-3.51235E-14
 -1       545 7.86729E-03-2.64259E-04-3.79077E-14
 -1       546 8.15557E-03-3.05363E-04-4.07811E-14
 -1       547 8.44309E-03-3.47286E-04-4.37450E-14
 -1       548 8.73004E-03-3.90037E-04-4.67926E-14
 -1       549 9.01657E-03-4.33568E-04-4.99217E-14
 -1       550 9.30278E-03-4.77798E-04-5.31314E-14
 -1       551 9.58878E-03-5.22632E-04-5.64059E-14
 -1       552 9.87462E-03-5.67973E-04-5.97478E-14
 -1       553 1.01604E-02-6.13732E-04-6.31550E-14
 -1       554 1.04461E-02-6.59824E-04-6.66251E-14
 -1       555 1.07317E-02-7.06178E-04-7.01553E-14
 -1       556 1.10173E-02-7.52736E-04-7.37438E-14
 -1       557 1.13030E-02-7.99447E-04-7.73815E-14
 -1       558 1.15886E-02-8.46272E-04-8.10726E-14
 -1       559 1.18742E-02-8.93179E-04-8.48144E-14
 -1       560 1.21599E-02-9.40143E-04-8.85968E-14
 -1       561 1.24455E-02-9.87148E-04-9.24068E-14
 -1       562 1.27312E-02-1.03418E-03-9.62342E-14
 -1       563 1.30169E-02-1.08122E-03-1.00081E-13
 -1       564 1.33026E-02-1.12827E-03-1.03927E-13
 -1       565 1.35883E-02-1.17533E-03-1.07785E-13
 -1       566 1.38740E-02-1.22238E-03-1.11652E-13
 -1       567 1.41597E-02-1.26942E-03-1.15528E-13
 -1       568 1.43259E-02-1.54560E-03-1.16618E-13
 -1       569 1.43721E-02-1.62992E-03-1.16869E-13
 -1       570 1.42342E-02-1.37842E-03-1.16099E-13
 -1       571 1.42801E-02-1.46201E-03-1.16362E-13
 -1       572 1.44183E-02-1.71423E-03-1.17108E-13
 -1       573 1.44646E-02-1.79855E-03-1.17341E-13
 -1       574 1.45108E-02-1.88287E-03-1.17562E-13
 -1       575 1.45563E-02-1.96576E-03-1.17770E-13
 -1       576 1.46026E-02-2.05008E-03-1.17974E-13
 -1       577 1.46489E-02-2.13439E-03-1.18169E-13
 -1       578 1.46952E-02-2.21869E-03-1.18355E-13
 -1       579 5.29838E-03-3.25782E-04-1.05865E-14
 -1       580 4.81103E-03-1.55598E-04-9.56858E-15
 -1       581 1.72526E-03 5.92706E-04-1.45608E-15
 -1       582 5.31861E-03-3.72707E-04-1.04582E-14
 -1       583 5.09010E-03-2.57528E-04-1.00122E-14
 -1       584 7.94422E-04-2.09181E-04-3.88199E-16
 -1       585 5.17658E-03-4.22439E-04-1.01170E-14
 -1       586 3.32673E-03 5.88056E-04-5.99163E-15
 -1       587 4.60137E-04-5.57592E-05-4.40891E-16
 -1       588 2.94360E-03 6.63405E-04-4.86883E-15
 -1       589 1.17154E-03-4.59385E-05-2.00318E-15
 -1       590 2.60290E-03 6.05783E-04-3.96157E-15
 -1       591 2.25915E-03 4.56415E-04-3.26561E-15
 -1       592 1.87275E-03 2.58426E-04-2.68519E-15
 -1       593 3.03399E-03-1.21009E-03-4.64316E-15
 -1       594 1.48737E-03 7.49502E-05-2.29544E-15
 -1       595 9.04348E-04-1.17146E-04-1.75190E-15
 -1       596 8.26095E-04-1.37181E-04-1.72929E-15
 -1       597 8.66306E-04-1.49500E-04-1.69362E-15
 -1       598 1.46898E-03-3.67858E-04-2.16751E-15
 -1       599 1.84819E-03-5.68048E-04-2.55618E-15
 -1       600 2.26421E-03-8.17410E-04-3.06358E-15
 -1       601 2.62576E-03-1.03439E-03-3.69485E-15
 -1       602 3.32250E-03-1.23412E-03-5.47887E-15
 -1       603 3.72140E-03-1.12111E-03-6.69361E-15
 -1       604 4.12921E-03-9.16554E-04-7.87090E-15
 -1       605 4.44532E-03-7.45590E-04-8.66579E-15
 -1       606 4.88620E-03-5.33934E-04-9.54982E-15
 -1       607 3.68501E-03 4.20330E-04-6.99482E-15
 -1       608 8.02860E-04 2.97270E-04-2.81649E-16
 -1       609 4.40016E-03 3.20472E-05-8.76220E-15
 -1       610 3.13006E-03 6.54040E-04-5.46794E-15
 -1       611 6.26952E-04-9.74781E-05-4.20430E-16
 -1       612 4.70807E-03-6.41485E-04-9.70694E-15
 -1       613 5.37858E-03-3.57556E-04-1.12206E-14
 -1       614 9.40921E-04-1.60536E-04-1.60378E-15
 -1       615 9.80365E-04-8.88084E-05-1.62650E-15
 -1       616 1.46848E-02-2.28298E-03-1.17805E-13
 -1       617 7.63650E-04-2.17180E-05-7.30485E-16
 -1       618 6.68222E-04-6.33988E-05-7.39273E-16
 -1       619 9.43297E-04 1.30277E-04-6.98999E-16
 -1       620 1.00542E-03 2.21906E-04-6.64575E-16
 -1       621 1.18132E-03 3.42400E-04-7.78799E-16
 -1       622 5.31684E-03-4.08791E-04-1.13496E-14
 -1       623 3.51565E-03 5.16908E-04-6.75075E-15
 -1       624 1.50583E-03-4.29751E-04-1.47174E-15
 -1       625 1.87983E-03-6.06817E-04-2.11291E-15
 -1       626 4.36808E-03-8.68112E-04-9.13065E-15
 -1       627 4.74989E-03-7.56142E-04-1.08109E-14
 -1       628 5.09717E-03-6.98261E-04-1.25980E-14
 -1       629 5.41750E-03-6.80636E-04-1.44865E-14
 -1       630 5.72053E-03-6.90041E-04-1.64719E-14
 -1       631 6.01396E-03-7.17541E-04-1.85489E-14
 -1       632 6.30269E-03-7.57056E-04-2.07168E-14
 -1       633 6.58941E-03-8.04346E-04-2.29727E-14
 -1       634 6.87543E-03-8.56372E-04-2.53169E-14
 -1       635 7.16132E-03-9.10981E-04-2.77546E-14
 -1       636 7.44727E-03-9.66685E-04-3.02791E-14
 -1       637 7.73331E-03-1.02251E-03-3.28919E-14
 -1       638 8.01939E-03-1.07784E-03-3.55947E-14
 -1       639 8.30548E-03-1.13236E-03-3.83799E-14
 -1       640 8.59155E-03-1.18591E-03-4.12556E-14
 -1       641 8.87757E-03-1.23845E-03-4.42192E-14
 -1       642 9.16355E-03-1.29005E-03-4.72651E-14
 -1       643 9.44947E-03-1.34078E-03-5.03939E-14
 -1       644 9.73534E-03-1.39076E-03-5.36064E-14
 -1       645 1.00212E-02-1.44009E-03-5.68958E-14
 -1       646 1.03070E-02-1.48890E-03-6.02612E-14
 -1       647 1.05927E-02-1.53726E-03-6.36928E-14
 -1       648 1.08785E-02-1.58528E-03-6.71882E-14
 -1       649 1.11642E-02-1.63303E-03-7.07429E-14
 -1       650 1.14500E-02-1.68057E-03-7.43597E-14
 -1       651 1.17357E-02-1.72795E-03-7.80317E-14
 -1       652 1.20214E-02-1.77522E-03-8.17543E-14
 -1       653 1.23071E-02-1.82240E-03-8.55233E-14
 -1       654 1.25928E-02-1.86952E-03-8.93385E-14
 -1       655 1.28785E-02-1.91660E-03-9.31995E-14
 -1       656 1.31643E-02-1.96365E-03-9.70954E-14
 -1       657 1.34500E-02-2.01068E-03-1.01021E-13
 -1       658 1.37357E-02-2.05771E-03-1.04976E-13
 -1       659 1.40214E-02-2.10473E-03-1.08946E-13
 -1       660 1.43071E-02-2.15176E-03-1.12931E-13
 -1       661 2.51670E-03 7.41642E-04-3.45150E-15
 -1       662 1.39485E-02-1.33138E-03-1.12205E-13
 -1       663 2.19010E-03 6.60572E-04-2.58591E-15
 -1       664 3.14680E-03 7.51701E-04-5.61222E-15
 -1       665 3.46536E-03 6.70801E-04-6.90892E-15
 -1       666 3.79284E-03 5.54943E-04-8.34176E-15
 -1       667 4.12616E-03 4.28702E-04-9.90317E-15
 -1       668 4.45897E-03 3.09491E-04-1.15860E-14
 -1       669 4.78618E-03 2.05397E-04-1.33826E-14
 -1       670 5.10554E-03 1.17911E-04-1.52873E-14
 -1       671 5.41706E-03 4.51726E-05-1.72952E-14
 -1       672 5.72193E-03-1.58510E-05-1.94017E-14
 -1       673 6.02160E-03-6.82562E-05-2.16052E-14
 -1       674 6.31742E-03-1.14748E-04-2.38999E-14
 -1       675 6.61045E-03-1.57500E-04-2.62875E-14
 -1       676 6.90148E-03-1.98161E-04-2.87597E-14
 -1       677 7.19106E-03-2.37914E-04-3.13192E-14
 -1       678 7.47959E-03-2.77562E-04-3.39669E-14
 -1       679 7.76735E-03-3.17612E-04-3.67032E-14
 -1       680 8.05454E-03-3.58353E-04-3.95315E-14
 -1       681 8.34131E-03-3.99917E-04-4.24483E-14
 -1       682 8.62778E-03-4.42331E-04-4.54518E-14
 -1       683 8.91401E-03-4.85559E-04-4.85376E-14
 -1       684 9.20007E-03-5.29525E-04-5.17086E-14
 -1       685 9.48601E-03-5.74135E-04-5.49516E-14
 -1       686 9.77186E-03-6.19291E-04-5.82571E-14
 -1       687 1.00577E-02-6.64898E-04-6.16304E-14
 -1       688 1.03434E-02-7.10869E-04-6.50698E-14
 -1       689 1.06291E-02-7.57130E-04-6.85677E-14
 -1       690 1.09148E-02-8.03615E-04-7.21285E-14
 -1       691 1.12005E-02-8.50271E-04-7.57402E-14
 -1       692 1.14862E-02-8.97055E-04-7.94033E-14
 -1       693 1.17719E-02-9.43933E-04-8.31199E-14
 -1       694 1.20576E-02-9.90877E-04-8.68870E-14
 -1       695 1.23433E-02-1.03787E-03-9.06876E-14
 -1       696 1.26290E-02-1.08489E-03-9.45109E-14
 -1       697 1.29147E-02-1.13193E-03-9.83560E-14
 -1       698 1.32004E-02-1.17898E-03-1.02210E-13
 -1       699 1.34861E-02-1.22603E-03-1.06074E-13
 -1       700 1.37173E-02-1.27871E-03-1.09135E-13
 -1       701 4.66712E-03-8.43876E-05-1.01476E-14
 -1       702 1.41940E-02-1.71566E-03-1.13806E-13
 -1       703 1.41015E-02-1.54702E-03-1.13349E-13
 -1       704 1.42403E-02-1.79998E-03-1.14020E-13
 -1       705 1.41478E-02-1.63134E-03-1.13587E-13
 -1       706 1.42857E-02-1.88287E-03-1.14225E-13
 -1       707 1.43320E-02-1.96719E-03-1.14423E-13
 -1       708 1.43783E-02-2.05150E-03-1.14611E-13
 -1       709 5.23223E-03-3.04680E-04-1.11617E-14
 -1       710 5.01830E-03-2.34096E-04-1.06939E-14
 -1       711 9.06418E-04-2.07171E-04-6.23101E-16
 -1       712 1.21246E-03-2.48173E-04-1.69606E-15
 -1       713 7.68191E-04-1.18773E-04-1.33986E-15
 -1       714 1.85503E-03 5.56565E-04-1.85665E-15
 -1       715 2.83308E-03 7.76602E-04-4.45866E-15
 -1       716 1.19500E-03-3.06093E-04-1.00176E-15
 -1       717 4.23209E-03 1.35261E-04-9.02224E-15
 -1       718 1.51681E-03 4.47571E-04-1.25608E-15
 -1       719 8.63228E-04 4.60836E-05-7.21902E-16
 -1       720 6.74673E-04-8.91518E-05-7.49021E-16
 -1       721 2.02263E-03 3.64155E-04-2.70578E-15
 -1       722 2.38563E-03 5.45327E-04-3.37497E-15
 -1       723 2.02252E-03-6.71618E-04-2.50980E-15
 -1       724 1.61001E-03 1.51942E-04-2.16873E-15
 -1       725 5.10685E-03-4.76971E-04-1.07556E-14
 -1       726 1.28713E-03 9.89815E-06-1.86183E-15
 -1       727 7.87150E-04-1.13892E-04-1.35775E-15
 -1       728 1.63781E-03-4.48463E-04-2.07268E-15
 -1       729 1.45012E-02-2.18522E-03-1.15637E-13
 -1       730 2.77683E-03 6.71947E-04-4.36841E-15
 -1       731 3.77408E-03 3.80676E-04-7.55156E-15
 -1       732 2.25534E-03-8.25393E-04-2.75637E-15
 -1       733 7.88528E-04-1.26332E-04-7.36590E-16
 -1       734 6.05692E-04-7.85638E-05-7.46067E-16
 -1       735 7.86984E-04-1.18301E-04-1.25576E-15
 -1       736 4.97329E-03-5.68463E-04-1.09103E-14
 -1       737 1.40557E-02-1.46342E-03-1.13106E-13
 -1       738 5.37220E-03-3.44152E-04-1.18081E-14
 -1       739 5.43363E-03-3.89447E-04-1.21313E-14
 -1       740 2.56407E-03 6.45640E-04-3.73476E-15
 -1       741 8.11741E-04-9.76748E-05-1.24195E-15
 -1       742 6.05880E-04-7.90268E-05-7.50051E-16
 -1       743 1.06099E-03-4.51669E-05-1.49364E-15
 -1       744 3.32155E-03 6.13129E-04-6.18110E-15
 -1       745 1.43427E-02-2.10163E-03-1.13773E-13
 -1       746 1.25806E-03 2.46968E-04-1.06286E-15
 -1       747 1.36469E-03 7.92766E-05-1.71295E-15
 -1       748 1.17324E-03 1.38001E-04-1.09648E-15
 -1       749 1.73280E-03 2.62232E-04-2.11687E-15
 -1       750 4.99517E-03-1.90272E-04-1.17262E-14
 -1       751 5.05167E-03-5.99757E-04-1.17260E-14
 -1       752 5.35316E-03-5.87304E-04-1.35674E-14
 -1       753 5.63489E-03-6.00509E-04-1.55059E-14
 -1       754 5.90876E-03-6.29348E-04-1.75353E-14
 -1       755 6.18058E-03-6.68225E-04-1.96542E-14
 -1       756 6.45319E-03-7.13886E-04-2.18633E-14
 -1       757 6.72773E-03-7.64022E-04-2.41597E-14
 -1       758 7.00445E-03-8.16891E-04-2.65451E-14
 -1       759 7.28323E-03-8.71179E-04-2.90208E-14
 -1       760 7.56373E-03-9.25943E-04-3.15856E-14
 -1       761 7.84562E-03-9.80543E-04-3.42384E-14
 -1       762 8.12859E-03-1.03458E-03-3.69766E-14
 -1       763 8.41237E-03-1.08785E-03-3.98001E-14
 -1       764 8.69675E-03-1.14025E-03-4.27126E-14
 -1       765 8.98156E-03-1.19179E-03-4.57105E-14
 -1       766 9.26669E-03-1.24253E-03-4.87903E-14
 -1       767 9.55203E-03-1.29255E-03-5.19555E-14
 -1       768 9.83754E-03-1.34194E-03-5.52012E-14
 -1       769 1.01231E-02-1.39080E-03-5.85247E-14
 -1       770 1.04088E-02-1.43922E-03-6.19161E-14
 -1       771 1.06945E-02-1.48730E-03-6.53714E-14
 -1       772 1.09803E-02-1.53510E-03-6.88877E-14
 -1       773 1.12660E-02-1.58268E-03-7.24674E-14
 -1       774 1.15518E-02-1.63010E-03-7.61056E-14
 -1       775 1.18375E-02-1.67739E-03-7.97980E-14
 -1       776 1.21233E-02-1.72459E-03-8.35398E-14
 -1       777 1.24090E-02-1.77173E-03-8.73300E-14
 -1       778 1.26948E-02-1.81882E-03-9.11646E-14
 -1       779 1.29805E-02-1.86588E-03-9.50376E-14
 -1       780 1.32663E-02-1.91292E-03-9.89413E-14
 -1       781 1.35520E-02-1.95995E-03-1.02870E-13
 -1       782 1.38377E-02-2.00698E-03-1.06819E-13
 -1       783 1.40902E-02-2.05430E-03-1.10292E-13
 -1       784 2.34101E-03 6.31990E-04-3.07359E-15
 -1       785 3.67681E-03 5.33199E-04-7.72317E-15
 -1       786 3.33636E-03 6.54907E-04-6.34258E-15
 -1       787 4.37375E-03 2.63285E-04-1.08755E-14
 -1       788 4.71139E-03 1.53254E-04-1.26276E-14
 -1       789 5.03597E-03 6.37599E-05-1.44870E-14
 -1       790 5.34831E-03-9.04785E-06-1.64501E-14
 -1       791 5.65099E-03-6.95222E-05-1.85129E-14
 -1       792 5.94682E-03-1.21375E-04-2.06698E-14
 -1       793 6.23815E-03-1.67488E-04-2.29216E-14
 -1       794 6.52668E-03-2.10024E-04-2.52653E-14
 -1       795 6.81357E-03-2.50565E-04-2.76954E-14
 -1       796 7.09959E-03-2.90234E-04-3.02124E-14
 -1       797 7.38518E-03-3.29797E-04-3.28155E-14
 -1       798 7.67059E-03-3.69743E-04-3.55059E-14
 -1       799 7.95599E-03-4.10359E-04-3.82872E-14
 -1       800 8.24141E-03-4.51783E-04-4.11594E-14
 -1       801 8.52690E-03-4.94050E-04-4.41209E-14
 -1       802 8.81245E-03-5.37131E-04-4.71630E-14
 -1       803 9.09806E-03-5.80957E-04-5.02904E-14
 -1       804 9.38372E-03-6.25438E-04-5.34978E-14
 -1       805 9.66941E-03-6.70479E-04-5.67732E-14
 -1       806 9.95512E-03-7.15987E-04-6.01115E-14
 -1       807 1.02408E-02-7.61875E-04-6.35179E-14
 -1       808 1.05266E-02-8.08065E-04-6.69842E-14
 -1       809 1.08123E-02-8.54494E-04-7.05133E-14
 -1       810 1.10981E-02-9.01105E-04-7.41022E-14
 -1       811 1.13838E-02-9.47854E-04-7.77431E-14
 -1       812 1.16695E-02-9.94705E-04-8.14351E-14
 -1       813 1.19553E-02-1.04163E-03-8.51789E-14
 -1       814 1.22410E-02-1.08860E-03-8.89643E-14
 -1       815 1.25267E-02-1.13562E-03-9.27821E-14
 -1       816 1.28125E-02-1.18265E-03-9.66234E-14
 -1       817 1.30982E-02-1.22969E-03-1.00480E-13
 -1       818 1.33839E-02-1.27675E-03-1.04349E-13
 -1       819 1.40155E-02-1.80069E-03-1.10706E-13
 -1       820 1.39693E-02-1.71637E-03-1.10505E-13
 -1       821 3.68102E-03 4.60845E-04-7.50212E-15
 -1       822 6.85146E-04-9.71516E-05-1.01302E-15
 -1       823 1.99291E-03 5.20002E-04-2.27250E-15
 -1       824 5.20285E-03-2.71278E-04-1.22210E-14
 -1       825 1.05179E-03 3.51820E-05-1.10995E-15
 -1       826 1.40618E-02-1.88501E-03-1.10899E-13
 -1       827 1.41081E-02-1.96933E-03-1.11081E-13
 -1       828 4.02609E-03 3.93593E-04-9.23750E-15
 -1       829 1.34474E-03-3.17627E-04-1.53597E-15
 -1       830 2.13789E-03 4.72566E-04-2.75930E-15
 -1       831 5.29130E-03-4.60784E-04-1.19834E-14
 -1       832 9.52468E-04-1.58361E-04-1.27747E-15
 -1       833 4.09453E-03 2.45257E-04-8.96368E-15
 -1       834 4.53917E-03 2.57988E-05-1.05281E-14
 -1       835 3.01403E-03 6.98997E-04-5.12813E-15
 -1       836 1.39082E-03 3.46595E-04-1.16218E-15
 -1       837 5.37399E-03-3.22806E-04-1.28940E-14
 -1       838 1.36151E-02-1.32942E-03-1.07412E-13
 -1       839 1.38312E-02-1.46448E-03-1.09848E-13
 -1       840 1.38774E-02-1.54879E-03-1.10080E-13
 -1       841 1.39233E-02-1.63258E-03-1.10299E-13
 -1       842 5.48236E-03-3.76582E-04-1.27370E-14
 -1       843 5.44904E-03-4.29362E-04-1.27853E-14
 -1       844 1.68870E-03 4.29670E-04-1.66826E-15
 -1       845 1.37742E-02-1.37159E-03-1.09496E-13
 -1       846 1.40992E-02-2.01182E-03-1.10688E-13
 -1       847 1.44298E-03 1.88556E-04-1.56479E-15
 -1       848 5.57309E-03-5.15915E-04-1.45429E-14
 -1       849 5.81922E-03-5.47677E-04-1.65258E-14
 -1       850 6.06956E-03-5.86489E-04-1.85975E-14
 -1       851 6.32551E-03-6.30372E-04-2.07589E-14
 -1       852 6.58699E-03-6.78051E-04-2.30092E-14
 -1       853 6.85342E-03-7.28402E-04-2.53473E-14
 -1       854 7.12410E-03-7.80428E-04-2.77730E-14
 -1       855 7.39826E-03-8.33310E-04-3.02875E-14
 -1       856 7.67524E-03-8.86422E-04-3.28922E-14
 -1       857 7.95445E-03-9.39330E-04-3.55834E-14
 -1       858 8.23538E-03-9.91758E-04-3.83575E-14
 -1       859 8.51764E-03-1.04356E-03-4.12186E-14
 -1       860 8.80090E-03-1.09468E-03-4.41673E-14
 -1       861 9.08491E-03-1.14513E-03-4.72019E-14
 -1       862 9.36947E-03-1.19496E-03-5.03200E-14
 -1       863 9.65443E-03-1.24422E-03-5.35206E-14
 -1       864 9.93968E-03-1.29301E-03-5.67997E-14
 -1       865 1.02251E-02-1.34140E-03-6.01518E-14
 -1       866 1.05107E-02-1.38946E-03-6.35698E-14
 -1       867 1.07964E-02-1.43725E-03-6.70485E-14
 -1       868 1.10821E-02-1.48484E-03-7.05890E-14
 -1       869 1.13679E-02-1.53226E-03-7.41898E-14
 -1       870 1.16537E-02-1.57957E-03-7.78523E-14
 -1       871 1.19395E-02-1.62678E-03-8.15637E-14
 -1       872 1.22252E-02-1.67393E-03-8.53280E-14
 -1       873 1.25110E-02-1.72103E-03-8.91393E-14
 -1       874 1.27968E-02-1.76810E-03-9.29885E-14
 -1       875 1.30826E-02-1.81515E-03-9.68708E-14
 -1       876 1.33683E-02-1.86218E-03-1.00778E-13
 -1       877 1.36541E-02-1.90921E-03-1.04708E-13
 -1       878 4.97947E-03 2.69832E-06-1.36842E-14
 -1       879 4.64940E-03 9.28736E-05-1.18673E-14
 -1       880 5.59060E-03-1.25165E-04-1.76250E-14
 -1       881 5.88111E-03-1.74586E-04-1.97386E-14
 -1       882 6.16661E-03-2.19077E-04-2.19468E-14
 -1       883 6.44944E-03-2.60703E-04-2.42464E-14
 -1       884 6.73116E-03-3.00843E-04-2.66348E-14
 -1       885 7.01268E-03-3.40423E-04-2.91089E-14
 -1       886 7.29450E-03-3.80060E-04-3.16685E-14
 -1       887 7.57686E-03-4.20148E-04-3.43158E-14
 -1       888 7.85983E-03-4.60915E-04-3.70503E-14
 -1       889 8.14338E-03-5.02470E-04-3.98783E-14
 -1       890 8.42747E-03-5.44838E-04-4.27967E-14
 -1       891 8.71199E-03-5.87986E-04-4.57977E-14
 -1       892 8.99686E-03-6.31851E-04-4.88813E-14
 -1       893 9.28201E-03-6.76349E-04-5.20461E-14
 -1       894 9.56736E-03-7.21390E-04-5.52887E-14
 -1       895 9.85287E-03-7.66887E-04-5.85968E-14
 -1       896 1.01385E-02-8.12756E-04-6.19709E-14
 -1       897 1.04242E-02-8.58925E-04-6.54074E-14
 -1       898 1.07099E-02-9.05331E-04-6.89054E-14
 -1       899 1.09956E-02-9.51920E-04-7.24663E-14
 -1       900 1.12814E-02-9.98649E-04-7.60825E-14
 -1       901 1.15672E-02-1.04548E-03-7.97557E-14
 -1       902 1.18529E-02-1.09239E-03-8.34749E-14
 -1       903 1.21387E-02-1.13935E-03-8.72394E-14
 -1       904 1.24245E-02-1.18636E-03-9.10455E-14
 -1       905 1.27102E-02-1.23338E-03-9.48823E-14
 -1       906 1.29960E-02-1.28042E-03-9.87420E-14
 -1       907 1.32817E-02-1.32747E-03-1.02616E-13
 -1       908 1.38375E-02-1.88645E-03-1.07567E-13
 -1       909 5.24891E-03-2.37383E-04-1.34279E-14
 -1       910 4.35571E-03 1.80616E-04-1.03647E-14
 -1       911 1.37450E-02-1.71780E-03-1.07207E-13
 -1       912 1.73465E-03 3.55607E-04-1.90498E-15
 -1       913 5.29157E-03-6.76913E-05-1.56051E-14
 -1       914 4.04898E-03 3.23176E-04-9.11017E-15
 -1       915 4.92066E-03-9.32006E-05-1.24105E-14
 -1       916 1.37912E-02-1.80212E-03-1.07390E-13
 -1       917 1.43104E-03 2.72732E-04-1.36517E-15
 -1       918 5.42285E-03-2.96576E-04-1.41325E-14
 -1       919 5.53408E-03-3.63495E-04-1.38563E-14
 -1       920 1.38766E-02-1.96051E-03-1.07691E-13
 -1       921 1.35129E-02-1.38014E-03-1.05679E-13
 -1       922 1.36068E-02-1.46589E-03-1.06593E-13
 -1       923 5.54171E-03-4.10069E-04-1.34076E-14
 -1       924 1.36990E-02-1.63400E-03-1.07015E-13
 -1       925 6.37827E-03-3.09247E-04-2.32315E-14
 -1       926 5.96309E-03-5.13435E-04-1.75464E-14
 -1       927 6.20080E-03-5.54585E-04-1.96606E-14
 -1       928 6.44872E-03-5.98930E-04-2.18648E-14
 -1       929 6.70473E-03-6.45917E-04-2.41551E-14
 -1       930 6.96723E-03-6.94854E-04-2.65345E-14
 -1       931 7.23495E-03-7.45059E-04-2.89996E-14
 -1       932 7.50685E-03-7.95945E-04-3.15537E-14
 -1       933 7.78207E-03-8.47055E-04-3.41985E-14
 -1       934 8.05992E-03-8.98064E-04-3.69259E-14
 -1       935 8.33981E-03-9.48767E-04-3.97383E-14
 -1       936 8.62128E-03-9.99049E-04-4.26381E-14
 -1       937 8.90397E-03-1.04887E-03-4.56245E-14
 -1       938 9.18757E-03-1.09822E-03-4.86954E-14
 -1       939 9.47184E-03-1.14715E-03-5.18506E-14
 -1       940 9.75661E-03-1.19569E-03-5.50874E-14
 -1       941 1.00417E-02-1.24391E-03-5.84004E-14
 -1       942 1.03271E-02-1.29185E-03-6.17795E-14
 -1       943 1.06127E-02-1.33956E-03-6.52236E-14
 -1       944 1.08983E-02-1.38710E-03-6.87289E-14
 -1       945 1.11841E-02-1.43449E-03-7.22926E-14
 -1       946 1.14699E-02-1.48178E-03-7.59172E-14
 -1       947 1.17557E-02-1.52898E-03-7.95976E-14
 -1       948 1.20415E-02-1.57613E-03-8.33319E-14
 -1       949 1.23273E-02-1.62323E-03-8.71150E-14
 -1       950 1.26131E-02-1.67031E-03-9.09421E-14
 -1       951 1.28989E-02-1.71736E-03-9.48021E-14
 -1       952 1.31846E-02-1.76440E-03-9.86960E-14
 -1       953 1.34704E-02-1.81144E-03-1.02604E-13
 -1       954 6.10283E-03-2.69334E-04-2.09747E-14
 -1       955 5.82554E-03-2.27865E-04-1.88088E-14
 -1       956 6.65356E-03-3.48625E-04-2.55771E-14
 -1       957 6.92965E-03-3.88060E-04-2.80072E-14
 -1       958 7.20697E-03-4.27909E-04-3.05234E-14
 -1       959 7.48567E-03-4.68386E-04-3.31276E-14
 -1       960 7.76572E-03-5.09602E-04-3.58213E-14
 -1       961 8.04699E-03-5.51596E-04-3.86062E-14
 -1       962 8.32932E-03-5.94357E-04-4.14801E-14
 -1       963 8.61252E-03-6.37836E-04-4.44399E-14
 -1       964 8.89642E-03-6.81967E-04-4.74805E-14
 -1       965 9.18087E-03-7.26671E-04-5.06026E-14
 -1       966 9.46574E-03-7.71865E-04-5.38063E-14
 -1       967 9.75092E-03-8.17472E-04-5.70832E-14
 -1       968 1.00363E-02-8.63417E-04-6.04310E-14
 -1       969 1.03219E-02-9.09636E-04-6.38376E-14
 -1       970 1.06075E-02-9.56073E-04-6.73042E-14
 -1       971 1.08933E-02-1.00268E-03-7.08351E-14
 -1       972 1.11790E-02-1.04941E-03-7.44270E-14
 -1       973 1.14648E-02-1.09625E-03-7.80752E-14
 -1       974 1.17506E-02-1.14315E-03-8.17733E-14
 -1       975 1.20364E-02-1.19011E-03-8.55167E-14
 -1       976 1.23222E-02-1.23710E-03-8.93045E-14
 -1       977 1.26080E-02-1.28412E-03-9.31326E-14
 -1       978 1.28937E-02-1.33116E-03-9.69918E-14
 -1       979 1.31795E-02-1.37820E-03-1.00868E-13
 -1       980 1.36528E-02-1.54968E-03-1.06808E-13
 -1       981 5.24687E-03-1.50806E-04-1.45187E-14
 -1       982 5.73806E-03-4.75914E-04-1.55219E-14
 -1       983 1.33932E-02-1.42205E-03-1.03729E-13
 -1       984 1.34391E-02-1.50583E-03-1.03939E-13
 -1       985 5.64150E-03-3.99777E-04-1.45552E-14
 -1       986 1.34745E-02-1.63516E-03-1.03725E-13
 -1       987 5.53868E-03-1.91527E-04-1.66122E-14
 -1       988 5.46530E-03-2.44795E-04-1.53661E-14
 -1       989 1.35208E-02-1.71950E-03-1.03906E-13
 -1       990 6.30654E-03-5.26380E-04-2.07241E-14
 -1       991 6.55360E-03-5.69162E-04-2.29697E-14
 -1       992 6.80906E-03-6.14294E-04-2.53019E-14
 -1       993 7.07114E-03-6.61163E-04-2.77188E-14
 -1       994 7.33848E-03-7.09198E-04-3.02235E-14
 -1       995 7.61004E-03-7.57924E-04-3.28181E-14
 -1       996 7.88495E-03-8.06977E-04-3.55006E-14
 -1       997 8.16254E-03-8.56098E-04-3.82684E-14
 -1       998 8.44222E-03-9.05122E-04-4.11209E-14
 -1       999 8.72354E-03-9.53951E-04-4.40609E-14
 -1      1000 9.00611E-03-1.00254E-03-4.70848E-14
 -1      1001 9.28963E-03-1.05088E-03-5.01937E-14
 -1      1002 9.57386E-03-1.09898E-03-5.33877E-14
 -1      1003 9.85860E-03-1.14686E-03-5.66605E-14
 -1      1004 1.01437E-02-1.19456E-03-6.00011E-14
 -1      1005 1.04291E-02-1.24210E-03-6.34093E-14
 -1      1006 1.07147E-02-1.28951E-03-6.68777E-14
 -1      1007 1.10004E-02-1.33682E-03-7.04076E-14
 -1      1008 1.12861E-02-1.38405E-03-7.39946E-14
 -1      1009 1.15719E-02-1.43122E-03-7.76402E-14
 -1      1010 1.18577E-02-1.47835E-03-8.13439E-14
 -1      1011 1.21435E-02-1.52544E-03-8.50970E-14
 -1      1012 1.24293E-02-1.57252E-03-8.88958E-14
 -1      1013 1.27151E-02-1.61957E-03-9.27363E-14
 -1      1014 1.30009E-02-1.66661E-03-9.66128E-14
 -1      1015 1.32867E-02-1.71365E-03-1.00509E-13
 -1      1016 6.31229E-03-3.55030E-04-2.22184E-14
 -1      1017 5.84903E-03-4.50230E-04-1.65032E-14
 -1      1018 6.57970E-03-3.93413E-04-2.45220E-14
 -1      1019 6.04658E-03-3.17444E-04-2.00029E-14
 -1      1020 7.12162E-03-4.72948E-04-2.93831E-14
 -1      1021 7.39623E-03-5.14085E-04-3.19450E-14
 -1      1022 7.67303E-03-5.56072E-04-3.45964E-14
 -1      1023 7.95176E-03-5.98841E-04-3.73399E-14
 -1      1024 8.23212E-03-6.42318E-04-4.01700E-14
 -1      1025 8.51382E-03-6.86426E-04-4.30887E-14
 -1      1026 8.79660E-03-7.31085E-04-4.60882E-14
 -1      1027 9.08023E-03-7.76218E-04-4.91670E-14
 -1      1028 9.36451E-03-8.21752E-04-5.23313E-14
 -1      1029 9.64927E-03-8.67620E-04-5.55777E-14
 -1      1030 9.93439E-03-9.13761E-04-5.88921E-14
 -1      1031 1.02198E-02-9.60123E-04-6.22721E-14
 -1      1032 1.05053E-02-1.00666E-03-6.57116E-14
 -1      1033 1.07910E-02-1.05333E-03-6.92138E-14
 -1      1034 1.10767E-02-1.10012E-03-7.27768E-14
 -1      1035 1.13625E-02-1.14698E-03-7.63983E-14
 -1      1036 1.16483E-02-1.19390E-03-8.00735E-14
 -1      1037 1.19341E-02-1.24086E-03-8.37958E-14
 -1      1038 1.22199E-02-1.28786E-03-8.75649E-14
 -1      1039 1.25057E-02-1.33487E-03-9.13789E-14
 -1      1040 1.27915E-02-1.38190E-03-9.52309E-14
 -1      1041 1.30773E-02-1.42894E-03-9.91058E-14
 -1      1042 1.32582E-02-1.46739E-03-1.01522E-13
 -1      1043 1.34568E-02-1.57050E-03-1.03834E-13
 -1      1044 6.84942E-03-4.32714E-04-2.69094E-14
 -1      1045 5.68383E-03-3.65222E-04-1.56712E-14
 -1      1046 6.07029E-03-4.86560E-04-1.85686E-14
 -1      1047 5.77641E-03-2.87594E-04-1.77484E-14
 -1      1048 1.32156E-02-1.55586E-03-1.00400E-13
 -1      1049 1.32511E-02-1.63476E-03-1.00463E-13
 -1      1050 6.64523E-03-5.37752E-04-2.40745E-14
 -1      1051 6.90360E-03-5.80950E-04-2.64442E-14
 -1      1052 7.16773E-03-6.25773E-04-2.89000E-14
 -1      1053 7.43655E-03-6.71727E-04-3.14461E-14
 -1      1054 7.70917E-03-7.18423E-04-3.40811E-14
 -1      1055 7.98486E-03-7.65573E-04-3.68033E-14
 -1      1056 8.26302E-03-8.12971E-04-3.96138E-14
 -1      1057 8.54313E-03-8.60479E-04-4.25042E-14
 -1      1058 8.82476E-03-9.08010E-04-4.54829E-14
 -1      1059 9.10756E-03-9.55512E-04-4.85445E-14
 -1      1060 9.39126E-03-1.00296E-03-5.16938E-14
 -1      1061 9.67562E-03-1.05034E-03-5.49267E-14
 -1      1062 9.96047E-03-1.09766E-03-5.82306E-14
 -1      1063 1.02457E-02-1.14492E-03-6.16004E-14
 -1      1064 1.05311E-02-1.19213E-03-6.50320E-14
 -1      1065 1.08167E-02-1.23929E-03-6.85271E-14
 -1      1066 1.11024E-02-1.28642E-03-7.20831E-14
 -1      1067 1.13882E-02-1.33352E-03-7.56943E-14
 -1      1068 1.16740E-02-1.38061E-03-7.93635E-14
 -1      1069 1.19598E-02-1.42767E-03-8.30862E-14
 -1      1070 1.22457E-02-1.47473E-03-8.68552E-14
 -1      1071 1.25315E-02-1.52178E-03-9.06694E-14
 -1      1072 1.28173E-02-1.56882E-03-9.45242E-14
 -1      1073 1.30342E-02-1.60179E-03-9.74873E-14
 -1      1074 6.15218E-03-4.58636E-04-1.95907E-14
 -1      1075 6.50778E-03-4.34557E-04-2.34669E-14
 -1      1076 1.32369E-02-1.51163E-03-1.00962E-13
 -1      1077 6.24965E-03-3.96973E-04-2.12041E-14
 -1      1078 7.58084E-03-6.00075E-04-3.33759E-14
 -1      1079 7.30738E-03-5.56967E-04-3.07655E-14
 -1      1080 8.13532E-03-6.88512E-04-3.88667E-14
 -1      1081 8.41549E-03-7.33564E-04-4.17414E-14
 -1      1082 8.69711E-03-7.79034E-04-4.46985E-14
 -1      1083 8.97988E-03-8.24841E-04-4.77392E-14
 -1      1084 9.26352E-03-8.70922E-04-5.08635E-14
 -1      1085 9.54784E-03-9.17222E-04-5.40720E-14
 -1      1086 9.83264E-03-9.63697E-04-5.73564E-14
 -1      1087 1.01178E-02-1.01031E-03-6.07067E-14
 -1      1088 1.04032E-02-1.05704E-03-6.41196E-14
 -1      1089 1.06888E-02-1.10384E-03-6.75947E-14
 -1      1090 1.09745E-02-1.15072E-03-7.11324E-14
 -1      1091 1.12602E-02-1.19764E-03-7.47246E-14
 -1      1092 1.15460E-02-1.24461E-03-7.83754E-14
 -1      1093 1.18319E-02-1.29159E-03-8.20781E-14
 -1      1094 1.21177E-02-1.33860E-03-8.58306E-14
 -1      1095 1.24035E-02-1.38562E-03-8.96242E-14
 -1      1096 1.26893E-02-1.43266E-03-9.34641E-14
 -1      1097 7.85697E-03-6.43974E-04-3.60752E-14
 -1      1098 7.03706E-03-5.14843E-04-2.82461E-14
 -1      1099 5.91653E-03-4.10015E-04-1.75921E-14
 -1      1100 5.85511E-03-3.54300E-04-1.76825E-14
 -1      1101 6.39406E-03-4.96771E-04-2.17879E-14
 -1      1102 6.77038E-03-4.73943E-04-2.58126E-14
 -1      1103 1.29751E-02-1.47969E-03-9.73374E-14
 -1      1104 6.04941E-03-3.74792E-04-1.94122E-14
 -1      1105 1.28962E-02-1.52426E-03-9.59319E-14
 -1      1106 6.03835E-03-3.94158E-04-1.90758E-14
 -1      1107 0.00000E+00 0.00000E+00 0.00000E+00
 -1      1108 0.00000E+00 0.00000E+00 0.00000E+00
 -1      1109 0.00000E+00 0.00000E+00 0.00000E+00
 -1      1110 0.00000E+00 0.00000E+00 0.00000E+00
 -1      1111 0.00000E+00 0.00000E+00 0.00000E+00
 -1      1112 0.00000E+00 0.00000E+00 0.00000E+00
 -1      1113 0.00000E+00 0.00000E+00 0.00000E+00
 -1      1114 0.00000E+00 0.00000E+00 0.00000E+00
 -1      1115 0.00000E+00 0.00000E+00 0.00000E+00
 -1      1116 0.00000E+00 0.00000E+00 0.00000E+00
 -1      1117 0.00000E+00 0.00000E+00 0.00000E+00
 -1      1118 0.00000E+00 0.00000E+00 0.00000E+00
 -1      1119 0.00000E+00 0.00000E+00 0.00000E+00
 -1      1120 0.00000E+00 0.00000E+00 0.00000E+00
 -1      1121 0.00000E+00 0.00000E+00 0.00000E+00
 -1      1122 0.00000E+00 0.00000E+00 0.00000E+00
 -1      1123 0.00000E+00 0.00000E+00 0.00000E+00
 -1      1124 2.50858E-04-1.53485E-04 1.64528E-17
 -1      1125 6.83188E-04-3.39993E-04-2.82028E-17
 -1      1126 1.07084E-03-4.80270E-04-1.87716E-16
 -1      1127 1.45629E-03-6.16253E-04-4.82795E-16
 -1      1128 1.83858E-03-7.69268E-04-9.11895E-16
 -1      1129 2.20871E-03-9.45508E-04-1.47561E-15
 -1      1130 2.55331E-03-1.13556E-03-2.17990E-15
 -1      1131 2.86139E-03-1.31267E-03-3.03383E-15
 -1      1132 3.13409E-03-1.43951E-03-4.04448E-15
 -1      1133 3.38960E-03-1.48633E-03-5.21431E-15
 -1      1134 3.65581E-03-1.44975E-03-6.54392E-15
 -1      1135 3.95446E-03-1.35554E-03-8.01900E-15
 -1      1136 4.29057E-03-1.24280E-03-9.62448E-15
 -1      1137 4.65448E-03-1.14429E-03-1.13524E-14
 -1      1138 5.03093E-03-1.07703E-03-1.31900E-14
 -1      1139 5.40662E-03-1.04402E-03-1.51317E-14
 -1      1140 5.77324E-03-1.04049E-03-1.71740E-14
 -1      1141 6.12710E-03-1.05915E-03-1.93127E-14
 -1      1142 6.46763E-03-1.09312E-03-2.15448E-14
 -1      1143 6.79595E-03-1.13693E-03-2.38720E-14
 -1      1144 7.11390E-03-1.18661E-03-2.62899E-14
 -1      1145 7.42343E-03-1.23947E-03-2.87934E-14
 -1      1146 7.72636E-03-1.29375E-03-3.13776E-14
 -1      1147 8.02423E-03-1.34836E-03-3.40481E-14
 -1      1148 8.31829E-03-1.40264E-03-3.68123E-14
 -1      1149 8.60956E-03-1.45625E-03-3.96742E-14
 -1      1150 8.89881E-03-1.50903E-03-4.26279E-14
 -1      1151 9.18662E-03-1.56094E-03-4.56611E-14
 -1      1152 9.47344E-03-1.61202E-03-4.87816E-14
 -1      1153 9.75959E-03-1.66234E-03-5.19851E-14
 -1      1154 1.00453E-02-1.71199E-03-5.52698E-14
 -1      1155 1.03308E-02-1.76108E-03-5.86365E-14
 -1      1156 1.06161E-02-1.80970E-03-6.20700E-14
 -1      1157 1.09014E-02-1.85793E-03-6.55679E-14
 -1      1158 1.11867E-02-1.90585E-03-6.91338E-14
 -1      1159 1.14720E-02-1.95354E-03-7.27562E-14
 -1      1160 1.17573E-02-2.00103E-03-7.64234E-14
 -1      1161 1.20427E-02-2.04838E-03-8.01396E-14
 -1      1162 1.23282E-02-2.09563E-03-8.39011E-14
 -1      1163 1.26136E-02-2.14280E-03-8.77156E-14
 -1      1164 1.28992E-02-2.18992E-03-9.15842E-14
 -1      1165 1.31847E-02-2.23700E-03-9.54982E-14
 -1      1166 1.34703E-02-2.28405E-03-9.94576E-14
 -1      1167 1.37560E-02-2.33109E-03-1.03452E-13
 -1      1168 1.40416E-02-2.37813E-03-1.07469E-13
 -1      1169 1.43273E-02-2.42516E-03-1.11499E-13
 -1      1170 1.46130E-02-2.47219E-03-1.15528E-13
 -1      1171 1.48987E-02-2.51923E-03-1.19578E-13
 -1      1172 1.51844E-02-2.56628E-03-1.23653E-13
 -1      1173 1.54630E-02-2.61216E-03-1.27662E-13
 -1      1174 2.58912E-04 1.72178E-04 2.95310E-17
 -1      1175 6.41541E-04 3.63355E-04 1.09098E-17
 -1      1176 9.81919E-04 5.01477E-04-1.17229E-16
 -1      1177 1.31016E-03 6.17357E-04-3.71705E-16
 -1      1178 1.62711E-03 7.24828E-04-7.54347E-16
 -1      1179 1.93013E-03 8.26101E-04-1.26769E-15
 -1      1180 2.21618E-03 9.15557E-04-1.91852E-15
 -1      1181 2.48458E-03 9.82590E-04-2.70834E-15
 -1      1182 2.73907E-03 1.01555E-03-3.63834E-15
 -1      1183 2.98793E-03 1.00666E-03-4.71197E-15
 -1      1184 3.24154E-03 9.55763E-04-5.93282E-15
 -1      1185 3.50882E-03 8.70935E-04-7.29248E-15
 -1      1186 3.79432E-03 7.65465E-04-8.78045E-15
 -1      1187 4.09750E-03 6.53294E-04-1.03898E-14
 -1      1188 4.41419E-03 5.45336E-04-1.21222E-14
 -1      1189 4.73870E-03 4.47999E-04-1.39798E-14
 -1      1190 5.06569E-03 3.63588E-04-1.59476E-14
 -1      1191 5.39111E-03 2.91592E-04-1.80186E-14
 -1      1192 5.71240E-03 2.30026E-04-2.01888E-14
 -1      1193 6.02837E-03 1.76420E-04-2.24478E-14
 -1      1194 6.33873E-03 1.28414E-04-2.47983E-14
 -1      1195 6.64382E-03 8.40216E-05-2.72404E-14
 -1      1196 6.94426E-03 4.17111E-05-2.97724E-14
 -1      1197 7.24083E-03 3.74715E-07-3.23999E-14
 -1      1198 7.53428E-03-4.07394E-05-3.51234E-14
 -1      1199 7.82530E-03-8.21068E-05-3.79313E-14
 -1      1200 8.11449E-03-1.24000E-04-4.08229E-14
 -1      1201 8.40232E-03-1.66548E-04-4.38082E-14
 -1      1202 8.68920E-03-2.09785E-04-4.68863E-14
 -1      1203 8.97542E-03-2.53687E-04-5.00474E-14
 -1      1204 9.26120E-03-2.98195E-04-5.32746E-14
 -1      1205 9.54672E-03-3.43233E-04-5.65714E-14
 -1      1206 9.83209E-03-3.88720E-04-5.99328E-14
 -1      1207 1.01174E-02-4.34579E-04-6.33468E-14
 -1      1208 1.04027E-02-4.80739E-04-6.68186E-14
 -1      1209 1.06880E-02-5.27137E-04-7.03576E-14
 -1      1210 1.09733E-02-5.73720E-04-7.39640E-14
 -1      1211 1.12587E-02-6.20443E-04-7.76327E-14
 -1      1212 1.15442E-02-6.67273E-04-8.13448E-14
 -1      1213 1.18297E-02-7.14179E-04-8.50978E-14
 -1      1214 1.21152E-02-7.61140E-04-8.88791E-14
 -1      1215 1.24008E-02-8.08139E-04-9.26809E-14
 -1      1216 1.26864E-02-8.55161E-04-9.64951E-14
 -1      1217 1.29720E-02-9.02199E-04-1.00317E-13
 -1      1218 1.32577E-02-9.49244E-04-1.04145E-13
 -1      1219 1.35433E-02-9.96290E-04-1.07978E-13
 -1      1220 1.38290E-02-1.04333E-03-1.11822E-13
 -1      1221 1.41147E-02-1.09037E-03-1.15690E-13
 -1      1222 1.44004E-02-1.13740E-03-1.19569E-13
 -1      1223 1.46790E-02-1.18325E-03-1.23361E-13
 -1      1224 1.48379E-02-1.24772E-03-1.25345E-13
 -1      1225 1.48841E-02-1.33201E-03-1.25671E-13
 -1      1226 1.49303E-02-1.41630E-03-1.25976E-13
 -1      1227 1.49765E-02-1.50059E-03-1.26262E-13
 -1      1228 1.50228E-02-1.58489E-03-1.26552E-13
 -1      1229 1.50686E-02-1.66849E-03-1.26838E-13
 -1      1230 1.51144E-02-1.75210E-03-1.27129E-13
 -1      1231 1.51606E-02-1.83643E-03-1.27414E-13
 -1      1232 1.52069E-02-1.92076E-03-1.27673E-13
 -1      1233 1.52532E-02-2.00509E-03-1.27903E-13
 -1      1234 1.52994E-02-2.08942E-03-1.28119E-13
 -1      1235 1.53453E-02-2.17303E-03-1.28364E-13
 -1      1236 1.53912E-02-2.25663E-03-1.28633E-13
 -1      1237 1.54375E-02-2.34093E-03-1.28899E-13
 -1      1238 1.54838E-02-2.42523E-03-1.29138E-13
 -1      1239 1.55301E-02-2.50951E-03-1.29354E-13
 -1      1240 1.55760E-02-2.59308E-03-1.29539E-13
 -1      1241 5.28014E-03-2.31118E-04-8.07418E-15
 -1      1242 5.14126E-03-8.18493E-05-7.91014E-15
 -1      1243 4.91517E-03 6.27255E-05-7.62311E-15
 -1      1244 4.60300E-03 2.12473E-04-7.21205E-15
 -1      1245 4.23473E-03 3.52932E-04-6.71399E-15
 -1      1246 3.84897E-03 4.65101E-04-6.18128E-15
 -1      1247 3.41851E-03 5.44842E-04-5.58494E-15
 -1      1248 2.96543E-03 5.74846E-04-4.96819E-15
 -1      1249 2.53475E-03 5.50340E-04-4.40666E-15
 -1      1250 2.10160E-03 4.73221E-04-3.87334E-15
 -1      1251 1.69616E-03 3.59314E-04-3.40654E-15
 -1      1252 1.35046E-03 2.28260E-04-3.03582E-15
 -1      1253 1.08356E-03 9.48482E-05-2.76882E-15
 -1      1254 9.15374E-04-3.20193E-05-2.60941E-15
 -1      1255 8.49860E-04-1.55881E-04-2.55092E-15
 -1      1256 8.91834E-04-2.84108E-04-2.59162E-15
 -1      1257 1.04840E-03-4.30275E-04-2.73837E-15
 -1      1258 1.29992E-03-5.86664E-04-2.97952E-15
 -1      1259 1.63393E-03-7.50998E-04-3.31598E-15
 -1      1260 2.02288E-03-9.06828E-04-3.73589E-15
 -1      1261 2.44407E-03-1.03345E-03-4.22389E-15
 -1      1262 2.89560E-03-1.11651E-03-4.78401E-15
 -1      1263 3.35518E-03-1.13638E-03-5.38399E-15
 -1      1264 3.82655E-03-1.08765E-03-6.02399E-15
 -1      1265 4.26879E-03-9.82913E-04-6.63610E-15
 -1      1266 4.64571E-03-8.48983E-04-7.16135E-15
 -1      1267 4.96188E-03-6.97586E-04-7.60445E-15
 -1      1268 5.19112E-03-5.40212E-04-7.92468E-15
 -1      1269 5.30123E-03-3.85374E-04-8.08168E-15
 -1      1270 2.04135E-04-1.05577E-04-1.95156E-18
 -1      1271 1.33620E-04-3.75652E-05-2.41506E-17
 -1      1272 1.43055E-04-5.29699E-05-1.80249E-17
 -1      1273 1.19534E-04-1.72928E-05-3.40846E-17
 -1      1274 1.26414E-04-2.60235E-05-3.08998E-17
 -1      1275 2.65626E-04-7.02839E-05-7.32921E-17
 -1      1276 1.07393E-04-4.89200E-06-3.95734E-17
 -1      1277 1.13557E-04-1.03034E-05-3.78251E-17
 -1      1278 2.37087E-04-3.49663E-05-9.09239E-17
 -1      1279 9.62431E-05 1.27255E-06-4.30428E-17
 -1      1280 1.01772E-04-1.29134E-06-4.20399E-17
 -1      1281 2.11490E-04-1.30866E-05-1.01495E-16
 -1      1282 8.71367E-05 1.68161E-06-4.48860E-17
 -1      1283 9.14374E-05 1.70630E-06-4.42761E-17
 -1      1284 1.88407E-04-2.80251E-06-1.07729E-16
 -1      1285 8.11626E-05-2.46006E-06-4.58889E-17
 -1      1286 8.36825E-05-5.54216E-07-4.57127E-17
 -1      1287 1.69973E-04-2.85524E-06-1.11280E-16
 -1      1288 7.95592E-05-8.62075E-06-4.60108E-17
 -1      1289 7.98024E-05-6.17185E-06-4.60108E-17
 -1      1290 1.59293E-04-1.04060E-05-1.12784E-16
 -1      1291 8.23259E-05-1.34924E-05-4.57533E-17
 -1      1292 8.04517E-05-1.20221E-05-4.59837E-17
 -1      1293 1.58499E-04-2.01331E-05-1.12920E-16
 -1      1294 8.83369E-05-1.43865E-05-4.48047E-17
 -1      1295 8.50257E-05-1.49673E-05-4.52519E-17
 -1      1296 1.66893E-04-2.59792E-05-1.11890E-16
 -1      1297 9.58909E-05-1.02151E-05-4.32868E-17
 -1      1298 9.19978E-05-1.31338E-05-4.39102E-17
 -1      1299 1.81364E-04-2.36725E-05-1.09437E-16
 -1      1300 1.03393E-04-1.64218E-06-4.11455E-17
 -1      1301 9.96400E-05-6.43258E-06-4.19451E-17
 -1      1302 1.97886E-04-1.21874E-05-1.05506E-16
 -1      1303 1.10353E-04 1.03712E-05-3.79877E-17
 -1      1304 1.06869E-04 4.10808E-06-3.91939E-17
 -1      1305 2.13701E-04 7.09927E-06-1.00099E-16
 -1      1306 1.16729E-04 2.46716E-05-3.29055E-17
 -1      1307 1.13392E-04 1.73693E-05-3.50062E-17
 -1      1308 2.27829E-04 3.21942E-05-9.17642E-17
 -1      1309 1.23615E-04 4.15224E-05-2.45707E-17
 -1      1310 1.19662E-04 3.27625E-05-2.81757E-17
 -1      1311 2.40976E-04 6.17139E-05-7.88215E-17
 -1      1312 1.34253E-04 6.48255E-05-1.10860E-17
 -1      1313 1.27560E-04 5.19465E-05-1.77538E-17
 -1      1314 2.56540E-04 9.76946E-05-5.88180E-17
 -1      1315 1.81194E-04 1.14926E-04 1.04626E-17
 -1      1316 1.56693E-04 8.62827E-05-3.02221E-18
 -1      1317 2.95699E-04 1.50262E-04-3.46538E-17
 -1      1318 3.87264E-04 2.30305E-04 1.05710E-18
 -1      1319 5.23873E-04-2.51713E-04-4.29209E-17
 -1      1320 7.22271E-04-3.28141E-04-9.55318E-17
 -1      1321 9.16896E-04-3.97345E-04-1.83081E-16
 -1      1322 1.10934E-03-4.63485E-04-3.02614E-16
 -1      1323 7.67165E-04-3.13403E-04-1.73174E-16
 -1      1324 1.30011E-03-5.31287E-04-4.53888E-16
 -1      1325 1.48942E-03-6.02319E-04-6.38243E-16
 -1      1326 1.14761E-03-4.47573E-04-4.21673E-16
 -1      1327 1.67724E-03-6.79191E-04-8.54961E-16
 -1      1328 1.86287E-03-7.62041E-04-1.10556E-15
 -1      1329 1.52126E-03-5.90876E-04-7.96618E-16
 -1      1330 2.04559E-03-8.51414E-04-1.38939E-15
 -1      1331 2.22418E-03-9.45866E-04-1.70808E-15
 -1      1332 1.88930E-03-7.57692E-04-1.30203E-15
 -1      1333 2.39766E-03-1.04333E-03-2.06184E-15
 -1      1334 2.56495E-03-1.14026E-03-2.45175E-15
 -1      1335 2.24810E-03-9.48241E-04-1.94221E-15
 -1      1336 2.72557E-03-1.23201E-03-2.88010E-15
 -1      1337 2.87959E-03-1.31353E-03-3.34715E-15
 -1      1338 2.59156E-03-1.14452E-03-2.72558E-15
 -1      1339 3.02773E-03-1.37948E-03-3.85288E-15
 -1      1340 3.17186E-03-1.42572E-03-4.39798E-15
 -1      1341 2.91573E-03-1.31015E-03-3.66013E-15
 -1      1342 3.31388E-03-1.44945E-03-4.98343E-15
 -1      1343 3.45668E-03-1.45020E-03-5.60821E-15
 -1      1344 3.22473E-03-1.40399E-03-4.75145E-15
 -1      1345 3.60231E-03-1.42982E-03-6.27150E-15
 -1      1346 3.75303E-03-1.39188E-03-6.97292E-15
 -1      1347 3.53142E-03-1.40474E-03-6.00057E-15
 -1      1348 3.90987E-03-1.34159E-03-7.70865E-15
 -1      1349 4.07325E-03-1.28424E-03-8.47876E-15
 -1      1350 3.84987E-03-1.32657E-03-7.40007E-15
 -1      1351 4.24283E-03-1.22523E-03-9.28080E-15
 -1      1352 4.41763E-03-1.16879E-03-1.01139E-14
 -1      1353 4.18627E-03-1.20956E-03-8.93781E-15
 -1      1354 4.59654E-03-1.11815E-03-1.09776E-14
 -1      1355 4.77803E-03-1.07548E-03-1.18688E-14
 -1      1356 4.53738E-03-1.09526E-03-1.06042E-14
 -1      1357 4.96088E-03-1.04164E-03-1.27874E-14
 -1      1358 5.14381E-03-1.01705E-03-1.37319E-14
 -1      1359 4.89544E-03-1.00958E-03-1.23859E-14
 -1      1360 5.32590E-03-1.00105E-03-1.47019E-14
 -1      1361 5.50633E-03-9.93190E-04-1.56973E-14
 -1      1362 5.25285E-03-9.60827E-04-1.42738E-14
 -1      1363 5.68459E-03-9.92268E-04-1.67167E-14
 -1      1364 5.86030E-03-9.97507E-04-1.77619E-14
 -1      1365 5.60442E-03-9.46006E-04-1.62621E-14
 -1      1366 6.03330E-03-1.00776E-03-1.88305E-14
 -1      1367 6.20348E-03-1.02226E-03-1.99215E-14
 -1      1368 5.94738E-03-9.57617E-04-1.83491E-14
 -1      1369 6.37090E-03-1.04011E-03-2.10367E-14
 -1      1370 6.53564E-03-1.06066E-03-2.21743E-14
 -1      1371 6.28086E-03-9.87791E-04-2.05302E-14
 -1      1372 6.69788E-03-1.08332E-03-2.33351E-14
 -1      1373 6.85777E-03-1.10756E-03-2.45206E-14
 -1      1374 6.60516E-03-1.03002E-03-2.28023E-14
 -1      1375 7.01551E-03-1.13302E-03-2.57271E-14
 -1      1376 7.17130E-03-1.15931E-03-2.69545E-14
 -1      1377 6.92123E-03-1.07950E-03-2.51654E-14
 -1      1378 7.32533E-03-1.18624E-03-2.82037E-14
 -1      1379 7.47780E-03-1.21352E-03-2.94745E-14
 -1      1380 7.23030E-03-1.13293E-03-2.76181E-14
 -1      1381 7.62887E-03-1.24104E-03-3.07679E-14
 -1      1382 7.77872E-03-1.26862E-03-3.20803E-14
 -1      1383 7.53361E-03-1.18818E-03-3.01580E-14
 -1      1384 7.92749E-03-1.29622E-03-3.34163E-14
 -1      1385 8.07532E-03-1.32370E-03-3.47749E-14
 -1      1386 7.83233E-03-1.24389E-03-3.27848E-14
 -1      1387 8.22234E-03-1.35105E-03-3.61552E-14
 -1      1388 8.36864E-03-1.37821E-03-3.75600E-14
 -1      1389 8.12746E-03-1.29928E-03-3.54998E-14
 -1      1390 8.51434E-03-1.40517E-03-3.89890E-14
 -1      1391 8.65951E-03-1.43190E-03-4.04419E-14
 -1      1392 8.41984E-03-1.35392E-03-3.83062E-14
 -1      1393 8.80424E-03-1.45840E-03-4.19155E-14
 -1      1394 8.94859E-03-1.48465E-03-4.34090E-14
 -1      1395 8.71015E-03-1.40761E-03-4.12052E-14
 -1      1396 9.09263E-03-1.51069E-03-4.49236E-14
 -1      1397 9.23639E-03-1.53649E-03-4.64599E-14
 -1      1398 8.99892E-03-1.46030E-03-4.41893E-14
 -1      1399 9.37993E-03-1.56208E-03-4.80172E-14
 -1      1400 9.52329E-03-1.58746E-03-4.95970E-14
 -1      1401 9.28659E-03-1.51203E-03-4.72570E-14
 -1      1402 9.66649E-03-1.61266E-03-5.11972E-14
 -1      1403 9.80957E-03-1.63767E-03-5.28160E-14
 -1      1404 9.57346E-03-1.56288E-03-5.04099E-14
 -1      1405 9.95255E-03-1.66252E-03-5.44567E-14
 -1      1406 1.00954E-02-1.68721E-03-5.61173E-14
 -1      1407 9.85978E-03-1.61297E-03-5.36459E-14
 -1      1408 1.02383E-02-1.71177E-03-5.77988E-14
 -1      1409 1.03811E-02-1.73620E-03-5.94963E-14
 -1      1410 1.01457E-02-1.66240E-03-5.69629E-14
 -1      1411 1.05238E-02-1.76051E-03-6.12092E-14
 -1      1412 1.06665E-02-1.78472E-03-6.29389E-14
 -1      1413 1.04315E-02-1.71128E-03-6.03525E-14
 -1      1414 1.08093E-02-1.80884E-03-6.46871E-14
 -1      1415 1.09520E-02-1.83287E-03-6.64521E-14
 -1      1416 1.07170E-02-1.75971E-03-6.38091E-14
 -1      1417 1.10946E-02-1.85683E-03-6.82311E-14
 -1      1418 1.12373E-02-1.88073E-03-7.00256E-14
 -1      1419 1.10025E-02-1.80779E-03-6.73312E-14
 -1      1420 1.13800E-02-1.90457E-03-7.18330E-14
 -1      1421 1.15227E-02-1.92836E-03-7.36514E-14
 -1      1422 1.12880E-02-1.85558E-03-7.09126E-14
 -1      1423 1.16654E-02-1.95210E-03-7.54848E-14
 -1      1424 1.18081E-02-1.97581E-03-7.73298E-14
 -1      1425 1.15735E-02-1.90316E-03-7.45487E-14
 -1      1426 1.19509E-02-1.99948E-03-7.91867E-14
 -1      1427 1.20936E-02-2.02312E-03-8.10559E-14
 -1      1428 1.18590E-02-1.95057E-03-7.82356E-14
 -1      1429 1.22363E-02-2.04675E-03-8.29351E-14
 -1      1430 1.23791E-02-2.07034E-03-8.48256E-14
 -1      1431 1.21445E-02-1.99785E-03-8.19692E-14
 -1      1432 1.25218E-02-2.09393E-03-8.67322E-14
 -1      1433 1.26646E-02-2.11750E-03-8.86515E-14
 -1      1434 1.24300E-02-2.04505E-03-8.57513E-14
 -1      1435 1.28074E-02-2.14105E-03-9.05819E-14
 -1      1436 1.29502E-02-2.16460E-03-9.25259E-14
 -1      1437 1.27156E-02-2.09218E-03-8.95836E-14
 -1      1438 1.30930E-02-2.18813E-03-9.44834E-14
 -1      1439 1.32358E-02-2.21166E-03-9.64487E-14
 -1      1440 1.30011E-02-2.13927E-03-9.34674E-14
 -1      1441 1.33786E-02-2.23519E-03-9.84226E-14
 -1      1442 1.35214E-02-2.25871E-03-1.00408E-13
 -1      1443 1.32868E-02-2.18632E-03-9.73947E-14
 -1      1444 1.36642E-02-2.28223E-03-1.02402E-13
 -1      1445 1.38070E-02-2.30574E-03-1.04400E-13
 -1      1446 1.35724E-02-2.23336E-03-1.01355E-13
 -1      1447 1.39499E-02-2.32926E-03-1.06403E-13
 -1      1448 1.40927E-02-2.35277E-03-1.08413E-13
 -1      1449 1.38581E-02-2.28039E-03-1.05344E-13
 -1      1450 1.42355E-02-2.37629E-03-1.10425E-13
 -1      1451 1.43784E-02-2.39980E-03-1.12434E-13
 -1      1452 1.41437E-02-2.32742E-03-1.09353E-13
 -1      1453 1.45212E-02-2.42332E-03-1.14450E-13
 -1      1454 1.46641E-02-2.44684E-03-1.16468E-13
 -1      1455 1.44294E-02-2.37445E-03-1.13374E-13
 -1      1456 1.48069E-02-2.47036E-03-1.18493E-13
 -1      1457 1.49498E-02-2.49388E-03-1.20522E-13
 -1      1458 1.47151E-02-2.42148E-03-1.17407E-13
 -1      1459 1.50926E-02-2.51740E-03-1.22559E-13
 -1      1460 1.52355E-02-2.54093E-03-1.24606E-13
 -1      1461 1.50008E-02-2.46853E-03-1.21464E-13
 -1      1462 1.54403E-02-2.57073E-03-1.27577E-13
 -1      1463 1.53485E-02-2.52185E-03-1.26470E-13
 -1      1464 7.50721E-04 3.93751E-04-7.25602E-17
 -1      1465 5.72676E-04 3.18139E-04-2.03559E-17
 -1      1466 5.16673E-04 2.73826E-04-4.68104E-17
 -1      1467 1.09170E-03 5.19519E-04-2.69099E-16
 -1      1468 9.23306E-04 4.59186E-04-1.55488E-16
 -1      1469 8.68933E-04 4.16079E-04-1.87309E-16
 -1      1470 1.41832E-03 6.31660E-04-5.90253E-16
 -1      1471 1.25651E-03 5.76681E-04-4.13718E-16
 -1      1472 1.20589E-03 5.35325E-04-4.49754E-16
 -1      1473 1.73233E-03 7.38018E-04-1.03877E-15
 -1      1474 1.57690E-03 6.85658E-04-7.98298E-16
 -1      1475 1.53008E-03 6.45846E-04-8.36313E-16
 -1      1476 2.03267E-03 8.36832E-04-1.62064E-15
 -1      1477 1.88430E-03 7.88880E-04-1.31254E-15
 -1      1478 1.84236E-03 7.50903E-04-1.35143E-15
 -1      1479 2.31835E-03 9.19571E-04-2.33941E-15
 -1      1480 2.17735E-03 8.80942E-04-1.96285E-15
 -1      1481 2.14227E-03 8.45373E-04-2.00062E-15
 -1      1482 2.59078E-03 9.74088E-04-3.19808E-15
 -1      1483 2.45601E-03 9.51044E-04-2.75107E-15
 -1      1484 2.43003E-03 9.18366E-04-2.78796E-15
 -1      1485 2.85478E-03 9.89351E-04-4.19762E-15
 -1      1486 2.72339E-03 9.86972E-04-3.67993E-15
 -1      1487 2.70813E-03 9.57176E-04-3.71498E-15
 -1      1488 3.11790E-03 9.60455E-04-5.34227E-15
 -1      1489 2.98590E-03 9.80238E-04-4.75210E-15
 -1      1490 2.98175E-03 9.52653E-04-4.78496E-15
 -1      1491 3.38799E-03 8.91309E-04-6.62941E-15
 -1      1492 3.25160E-03 9.30231E-04-5.96868E-15
 -1      1493 3.25750E-03 9.03714E-04-5.99828E-15
 -1      1494 3.67065E-03 7.93372E-04-8.04997E-15
 -1      1495 3.52751E-03 8.45002E-04-7.32328E-15
 -1      1496 3.54115E-03 8.18365E-04-7.34959E-15
 -1      1497 3.96766E-03 6.81377E-04-9.59707E-15
 -1      1498 3.81738E-03 7.38246E-04-8.80823E-15
 -1      1499 3.83579E-03 7.10647E-04-8.83108E-15
 -1      1500 4.27726E-03 5.68620E-04-1.12664E-14
 -1      1501 4.12110E-03 6.24463E-04-1.04164E-14
 -1      1502 4.14132E-03 5.95556E-04-1.04373E-14
 -1      1503 4.59552E-03 4.64168E-04-1.30575E-14
 -1      1504 4.43560E-03 5.15032E-04-1.21466E-14
 -1      1505 4.45525E-03 4.84884E-04-1.21658E-14
 -1      1506 4.91799E-03 3.72389E-04-1.49667E-14
 -1      1507 4.75651E-03 4.16620E-04-1.39982E-14
 -1      1508 4.77402E-03 3.85533E-04-1.40129E-14
 -1      1509 5.24076E-03 2.93984E-04-1.69804E-14
 -1      1510 5.07956E-03 3.31595E-04-1.59606E-14
 -1      1511 5.09419E-03 2.99943E-04-1.59701E-14
 -1      1512 5.56104E-03 2.27462E-04-1.90984E-14
 -1      1513 5.40136E-03 2.59389E-04-1.80265E-14
 -1      1514 5.41302E-03 2.27511E-04-1.80313E-14
 -1      1515 5.87719E-03 1.70385E-04-2.13082E-14
 -1      1516 5.71971E-03 1.97908E-04-2.01922E-14
 -1      1517 5.72871E-03 1.66066E-04-2.01923E-14
 -1      1518 6.18851E-03 1.20185E-04-2.36113E-14
 -1      1519 6.03348E-03 1.44574E-04-2.24486E-14
 -1      1520 6.04031E-03 1.12940E-04-2.24453E-14
 -1      1521 6.49497E-03 7.45926E-05-2.60035E-14
 -1      1522 6.34234E-03 9.69335E-05-2.47959E-14
 -1      1523 6.34753E-03 6.56039E-05-2.47902E-14
 -1      1524 6.79695E-03 3.17964E-05-2.84882E-14
 -1      1525 6.64649E-03 5.29362E-05-2.72339E-14
 -1      1526 6.65053E-03 2.19485E-05-2.72252E-14
 -1      1527 7.09503E-03-9.54870E-06-3.10630E-14
 -1      1528 6.94643E-03 1.10071E-05-2.97651E-14
 -1      1529 6.94974E-03-1.96406E-05-2.97520E-14
 -1      1530 7.38986E-03-5.03788E-05-3.37331E-14
 -1      1531 7.24281E-03-2.99850E-05-3.23866E-14
 -1      1532 7.24569E-03-6.03188E-05-3.23698E-14
 -1      1533 7.68210E-03-9.13040E-05-3.64935E-14
 -1      1534 7.53627E-03-7.08028E-05-3.51019E-14
 -1      1535 7.53896E-03-1.00861E-04-3.50779E-14
 -1      1536 7.97231E-03-1.32689E-04-3.93386E-14
 -1      1537 7.82743E-03-1.11924E-04-3.79046E-14
 -1      1538 7.83008E-03-1.41750E-04-3.78754E-14
 -1      1539 8.26099E-03-1.74725E-04-4.22726E-14
 -1      1540 8.11682E-03-1.53619E-04-4.07949E-14
 -1      1541 8.11953E-03-1.83254E-04-4.07615E-14
 -1      1542 8.54854E-03-2.17481E-04-4.52981E-14
 -1      1543 8.40489E-03-1.96012E-04-4.37737E-14
 -1      1544 8.40772E-03-2.25495E-04-4.37368E-14
 -1      1545 8.83529E-03-2.60954E-04-4.84113E-14
 -1      1546 8.69200E-03-2.39130E-04-4.68440E-14
 -1      1547 8.69498E-03-2.68496E-04-4.67996E-14
 -1      1548 9.12148E-03-3.05091E-04-5.16000E-14
 -1      1549 8.97844E-03-2.82943E-04-4.99968E-14
 -1      1550 8.98158E-03-3.12219E-04-4.99450E-14
 -1      1551 9.40729E-03-3.49819E-04-5.48580E-14
 -1      1552 9.26442E-03-3.27386E-04-5.32205E-14
 -1      1553 9.26771E-03-3.56595E-04-5.31635E-14
 -1      1554 9.69288E-03-3.95053E-04-5.81819E-14
 -1      1555 9.55011E-03-3.72378E-04-5.65113E-14
 -1      1556 9.55353E-03-4.01538E-04-5.64509E-14
 -1      1557 9.97834E-03-4.40709E-04-6.15693E-14
 -1      1558 9.83562E-03-4.17833E-04-5.98682E-14
 -1      1559 9.83917E-03-4.46960E-04-5.98027E-14
 -1      1560 1.02637E-02-4.86711E-04-6.50112E-14
 -1      1561 1.01210E-02-4.63671E-04-6.32827E-14
 -1      1562 1.01247E-02-4.92775E-04-6.32149E-14
 -1      1563 1.05491E-02-5.32987E-04-6.85152E-14
 -1      1564 1.04064E-02-5.09818E-04-6.67558E-14
 -1      1565 1.04102E-02-5.38906E-04-6.66879E-14
 -1      1566 1.08345E-02-5.79478E-04-7.20832E-14
 -1      1567 1.06918E-02-5.56208E-04-7.02927E-14
 -1      1568 1.06956E-02-5.85287E-04-7.02234E-14
 -1      1569 1.11199E-02-6.26134E-04-7.57180E-14
 -1      1570 1.09772E-02-6.02788E-04-7.38917E-14
 -1      1571 1.09811E-02-6.31862E-04-7.38184E-14
 -1      1572 1.14054E-02-6.72915E-04-7.94006E-14
 -1      1573 1.12626E-02-6.49511E-04-7.75533E-14
 -1      1574 1.12665E-02-6.78583E-04-7.74719E-14
 -1      1575 1.16909E-02-7.19787E-04-8.31314E-14
 -1      1576 1.15481E-02-6.96341E-04-8.12614E-14
 -1      1577 1.15520E-02-7.25412E-04-8.11749E-14
 -1      1578 1.19764E-02-7.66725E-04-8.68972E-14
 -1      1579 1.18336E-02-7.43249E-04-8.50102E-14
 -1      1580 1.18376E-02-7.72321E-04-8.49219E-14
 -1      1581 1.22620E-02-8.13709E-04-9.06886E-14
 -1      1582 1.21192E-02-7.90212E-04-8.87900E-14
 -1      1583 1.21231E-02-8.19286E-04-8.87004E-14
 -1      1584 1.25476E-02-8.60723E-04-9.44990E-14
 -1      1585 1.24048E-02-8.37213E-04-9.25925E-14
 -1      1586 1.24087E-02-8.66288E-04-9.25030E-14
 -1      1587 1.28332E-02-9.07757E-04-9.83197E-14
 -1      1588 1.26904E-02-8.84238E-04-9.64084E-14
 -1      1589 1.26944E-02-9.13315E-04-9.63215E-14
 -1      1590 1.31188E-02-9.54801E-04-1.02149E-13
 -1      1591 1.29760E-02-9.31278E-04-1.00234E-13
 -1      1592 1.29800E-02-9.60357E-04-1.00150E-13
 -1      1593 1.34045E-02-1.00185E-03-1.05983E-13
 -1      1594 1.32617E-02-9.78325E-04-1.04066E-13
 -1      1595 1.32657E-02-1.00741E-03-1.03984E-13
 -1      1596 1.36902E-02-1.04890E-03-1.09825E-13
 -1      1597 1.35473E-02-1.02537E-03-1.07903E-13
 -1      1598 1.35513E-02-1.05446E-03-1.07827E-13
 -1      1599 1.39759E-02-1.09594E-03-1.13684E-13
 -1      1600 1.38330E-02-1.07242E-03-1.11752E-13
 -1      1601 1.38370E-02-1.10150E-03-1.11679E-13
 -1      1602 1.42616E-02-1.14297E-03-1.17558E-13
 -1      1603 1.41187E-02-1.11946E-03-1.15620E-13
 -1      1604 1.41227E-02-1.14854E-03-1.15548E-13
 -1      1605 1.45473E-02-1.19000E-03-1.21441E-13
 -1      1606 1.44044E-02-1.16649E-03-1.19498E-13
 -1      1607 1.44084E-02-1.19557E-03-1.19429E-13
 -1      1608 1.47021E-02-1.22539E-03-1.23505E-13
 -1      1609 1.47719E-02-1.33272E-03-1.24054E-13
 -1      1610 1.47488E-02-1.29058E-03-1.23899E-13
 -1      1611 1.48182E-02-1.41701E-03-1.24348E-13
 -1      1612 1.47950E-02-1.37487E-03-1.24205E-13
 -1      1613 1.46598E-02-1.33344E-03-1.22434E-13
 -1      1614 1.48644E-02-1.50131E-03-1.24638E-13
 -1      1615 1.48413E-02-1.45916E-03-1.24490E-13
 -1      1616 1.47060E-02-1.41773E-03-1.22724E-13
 -1      1617 1.49106E-02-1.58562E-03-1.24923E-13
 -1      1618 1.48875E-02-1.54346E-03-1.24783E-13
 -1      1619 1.47522E-02-1.50203E-03-1.23010E-13
 -1      1620 1.49560E-02-1.66850E-03-1.25204E-13
 -1      1621 1.49333E-02-1.62706E-03-1.25063E-13
 -1      1622 1.47980E-02-1.58562E-03-1.23291E-13
 -1      1623 1.50023E-02-1.75282E-03-1.25487E-13
 -1      1624 1.49791E-02-1.71066E-03-1.25346E-13
 -1      1625 1.48439E-02-1.66922E-03-1.23567E-13
 -1      1626 1.50485E-02-1.83715E-03-1.25757E-13
 -1      1627 1.50254E-02-1.79498E-03-1.25625E-13
 -1      1628 1.48901E-02-1.75354E-03-1.23839E-13
 -1      1629 1.50947E-02-1.92148E-03-1.26006E-13
 -1      1630 1.50716E-02-1.87931E-03-1.25884E-13
 -1      1631 1.49363E-02-1.83786E-03-1.24097E-13
 -1      1632 1.51410E-02-2.00580E-03-1.26232E-13
 -1      1633 1.51179E-02-1.96364E-03-1.26121E-13
 -1      1634 1.49826E-02-1.92219E-03-1.24339E-13
 -1      1635 1.51873E-02-2.09013E-03-1.26460E-13
 -1      1636 1.51641E-02-2.04796E-03-1.26343E-13
 -1      1637 1.50289E-02-2.00651E-03-1.24565E-13
 -1      1638 1.52328E-02-2.17301E-03-1.26695E-13
 -1      1639 1.52100E-02-2.13157E-03-1.26578E-13
 -1      1640 1.50747E-02-2.09012E-03-1.24790E-13
 -1      1641 1.52791E-02-2.25732E-03-1.26950E-13
 -1      1642 1.52559E-02-2.21517E-03-1.26822E-13
 -1      1643 1.51206E-02-2.17371E-03-1.25023E-13
 -1      1644 1.53254E-02-2.34162E-03-1.27191E-13
 -1      1645 1.53022E-02-2.29948E-03-1.27075E-13
 -1      1646 1.51669E-02-2.25802E-03-1.25258E-13
 -1      1647 1.53717E-02-2.42592E-03-1.27415E-13
 -1      1648 1.53485E-02-2.38377E-03-1.27306E-13
 -1      1649 1.52132E-02-2.34232E-03-1.25482E-13
 -1      1650 1.53716E-02-2.49496E-03-1.26997E-13
 -1      1651 1.53485E-02-2.45281E-03-1.26898E-13
 -1      1652 1.52132E-02-2.41137E-03-1.25072E-13
 -1      1653 1.51669E-02-2.46516E-03-1.24031E-13
 -1      1654 5.26541E-03-2.45609E-04-8.45003E-15
 -1      1655 5.31304E-03-2.89991E-04-8.49839E-15
 -1      1656 5.07207E-03-1.28444E-04-8.18055E-15
 -1      1657 5.17416E-03-1.82032E-04-8.30100E-15
 -1      1658 4.79383E-03 1.14581E-05-7.80676E-15
 -1      1659 4.93180E-03-5.40018E-05-7.98244E-15
 -1      1660 4.41866E-03 1.74555E-04-7.33663E-15
 -1      1661 4.59882E-03 9.04657E-05-7.58690E-15
 -1      1662 4.04897E-03 3.50372E-04-6.74623E-15
 -1      1663 4.22045E-03 2.75295E-04-7.00465E-15
 -1      1664 3.67305E-03 4.95029E-04-6.14558E-15
 -1      1665 3.84690E-03 4.31825E-04-6.42710E-15
 -1      1666 3.26935E-03 5.99548E-04-5.48105E-15
 -1      1667 3.45374E-03 5.59211E-04-5.79905E-15
 -1      1668 2.88122E-03 6.24412E-04-4.81752E-15
 -1      1669 3.05427E-03 6.24896E-04-5.11272E-15
 -1      1670 2.50545E-03 5.62839E-04-4.23381E-15
 -1      1671 2.67462E-03 5.98463E-04-4.49136E-15
 -1      1672 2.09845E-03 4.31461E-04-3.66599E-15
 -1      1673 2.29294E-03 5.01339E-04-3.92319E-15
 -1      1674 1.69915E-03 2.78493E-04-3.22248E-15
 -1      1675 1.87184E-03 3.50023E-04-3.41494E-15
 -1      1676 1.34240E-03 1.15658E-04-2.84707E-15
 -1      1677 1.50745E-03 1.86917E-04-3.00384E-15
 -1      1678 1.06078E-03-4.05011E-06-2.61107E-15
 -1      1679 1.17499E-03 4.73206E-05-2.70709E-15
 -1      1680 8.84612E-04-1.01317E-04-2.46436E-15
 -1      1681 9.52696E-04-6.12344E-05-2.51639E-15
 -1      1682 8.34814E-04-1.76918E-04-2.43548E-15
 -1      1683 8.41746E-04-1.43163E-04-2.43981E-15
 -1      1684 9.16542E-04-2.60487E-04-2.49196E-15
 -1      1685 8.61479E-04-2.19558E-04-2.44949E-15
 -1      1686 1.13954E-03-3.70594E-04-2.64898E-15
 -1      1687 1.02144E-03-3.12388E-04-2.55642E-15
 -1      1688 1.43856E-03-5.41244E-04-2.94248E-15
 -1      1689 1.29010E-03-4.67469E-04-2.81169E-15
 -1      1690 1.83344E-03-7.26458E-04-3.30384E-15
 -1      1691 1.64574E-03-6.31804E-04-3.11436E-15
 -1      1692 2.21540E-03-9.20260E-04-3.76045E-15
 -1      1693 2.03864E-03-8.37466E-04-3.55117E-15
 -1      1694 2.63049E-03-1.08267E-03-4.29290E-15
 -1      1695 2.44194E-03-1.01136E-03-4.02830E-15
 -1      1696 3.02309E-03-1.17491E-03-4.90523E-15
 -1      1697 2.84448E-03-1.14313E-03-4.62174E-15
 -1      1698 3.42462E-03-1.17356E-03-5.57215E-15
 -1      1699 3.23798E-03-1.18677E-03-5.25895E-15
 -1      1700 3.84393E-03-1.07460E-03-6.29038E-15
 -1      1701 3.64819E-03-1.13251E-03-5.96073E-15
 -1      1702 4.26283E-03-9.14682E-04-6.94841E-15
 -1      1703 4.07557E-03-9.92764E-04-6.65567E-15
 -1      1704 4.64514E-03-7.47487E-04-7.49951E-15
 -1      1705 4.47704E-03-8.25106E-04-7.25510E-15
 -1      1706 4.98209E-03-5.80624E-04-7.99406E-15
 -1      1707 4.83095E-03-6.54272E-04-7.78635E-15
 -1      1708 5.22404E-03-4.51707E-04-8.29504E-15
 -1      1709 5.12903E-03-5.08659E-04-8.17131E-15
 -1      1710 5.32515E-03-3.42480E-04-8.45491E-15
 -1      1711 5.29758E-03-3.89496E-04-8.41516E-15
 -1      1712 4.26188E-03 1.81065E-04-7.37939E-15
 -1      1713 4.64474E-03-3.72556E-06-7.94961E-15
 -1      1714 1.47061E-02-1.25448E-03-1.23438E-13
 -1      1715 1.45940E-02-1.25519E-03-1.21828E-13
 -1      1716 5.22128E-03-2.54607E-04-8.73912E-15
 -1      1717 4.98098E-03-1.47563E-04-8.38107E-15
 -1      1718 5.32965E-03-3.21555E-04-8.85100E-15
 -1      1719 3.88322E-03 3.75218E-04-6.71560E-15
 -1      1720 3.50691E-03 5.37037E-04-6.04031E-15
 -1      1721 3.14253E-03 6.37475E-04-5.32102E-15
 -1      1722 2.79981E-03 6.35906E-04-4.63074E-15
 -1      1723 2.43824E-03 5.37517E-04-4.00336E-15
 -1      1724 2.04936E-03 3.73845E-04-3.45936E-15
 -1      1725 1.65067E-03 1.90056E-04-3.00588E-15
 -1      1726 1.29439E-03 3.34132E-05-2.66634E-15
 -1      1727 1.01509E-03-7.38225E-05-2.44434E-15
 -1      1728 8.58206E-04-1.36859E-04-2.33256E-15
 -1      1729 8.41306E-04-1.83952E-04-2.32210E-15
 -1      1730 9.76277E-04-2.42072E-04-2.39278E-15
 -1      1731 1.24218E-03-3.55665E-04-2.60394E-15
 -1      1732 1.60147E-03-5.33762E-04-2.92459E-15
 -1      1733 1.99862E-03-7.44029E-04-3.32345E-15
 -1      1734 2.40009E-03-9.60102E-04-3.82455E-15
 -1      1735 2.77785E-03-1.12961E-03-4.40837E-15
 -1      1736 3.13961E-03-1.20892E-03-5.08659E-15
 -1      1737 3.50934E-03-1.17247E-03-5.83214E-15
 -1      1738 3.90146E-03-1.02997E-03-6.59862E-15
 -1      1739 4.30946E-03-8.39675E-04-7.28702E-15
 -1      1740 4.69865E-03-6.51229E-04-7.89616E-15
 -1      1741 5.03587E-03-4.98790E-04-8.37588E-15
 -1      1742 5.26404E-03-3.93178E-04-8.68367E-15
 -1      1743 3.53929E-04-1.59993E-04-4.04001E-17
 -1      1744 3.52107E-04-5.64744E-05-1.45297E-16
 -1      1745 3.73336E-04-7.73561E-05-1.35552E-16
 -1      1746 3.95891E-04-1.03000E-04-1.23613E-16
 -1      1747 4.21154E-04-1.33756E-04-1.07173E-16
 -1      1748 5.21626E-04-1.31989E-04-1.97135E-16
 -1      1749 2.75754E-04-1.28834E-05-1.66235E-16
 -1      1750 2.92777E-04-1.78930E-05-1.62915E-16
 -1      1751 2.48162E-04-1.27403E-05-1.70681E-16
 -1      1752 2.60396E-04-1.12813E-05-1.68743E-16
 -1      1753 3.57326E-04-2.49125E-05-2.46995E-16
 -1      1754 2.34737E-04-2.16760E-05-1.72063E-16
 -1      1755 2.39375E-04-1.65812E-05-1.71602E-16
 -1      1756 3.22296E-04-2.48637E-05-2.51779E-16
 -1      1757 2.37939E-04-3.16078E-05-1.71982E-16
 -1      1758 2.34350E-04-2.71365E-05-1.72239E-16
 -1      1759 3.09304E-04-3.41573E-05-2.53310E-16
 -1      1760 2.55338E-04-3.42972E-05-1.69867E-16
 -1      1761 2.45327E-04-3.42901E-05-1.71209E-16
 -1      1762 3.20346E-04-4.19242E-05-2.52429E-16
 -1      1763 2.80818E-04-2.49034E-05-1.65788E-16
 -1      1764 2.67646E-04-3.12266E-05-1.68106E-16
 -1      1765 3.49863E-04-3.84313E-05-2.48933E-16
 -1      1766 3.07506E-04-3.41986E-06-1.59784E-16
 -1      1767 2.94387E-04-1.55203E-05-1.63186E-16
 -1      1768 3.87666E-04-1.93675E-05-2.42834E-16
 -1      1769 3.32262E-04 2.83973E-05-1.50975E-16
 -1      1770 3.20349E-04 1.15015E-05-1.56030E-16
 -1      1771 4.25259E-04 1.43713E-05-2.34079E-16
 -1      1772 3.53869E-04 6.74347E-05-1.37301E-16
 -1      1773 3.43360E-04 4.72356E-05-1.44998E-16
 -1      1774 4.58447E-04 5.95619E-05-2.20540E-16
 -1      1775 3.74941E-04 1.12991E-04-1.16376E-16
 -1      1776 3.64089E-04 8.94568E-05-1.28370E-16
 -1      1777 4.87317E-04 1.12841E-04-2.00062E-16
 -1      1778 4.02924E-04 1.69400E-04-8.39308E-17
 -1      1779 3.87367E-04 1.39586E-04-1.02010E-16
 -1      1780 5.17353E-04 1.74435E-04-1.68986E-16
 -1      1781 4.72081E-04 2.36225E-04-6.13252E-17
 -1      1782 4.35157E-04 1.99208E-04-7.62872E-17
 -1      1783 5.69137E-04 2.40993E-04-1.40621E-16
 -1      1784 6.47930E-04 3.11248E-04-1.17975E-16
 -1      1785 4.19176E-04-1.62763E-04-7.54469E-17
 -1      1786 9.92822E-04 4.40057E-04-3.22238E-16
 -1      1787 8.21626E-04 3.78207E-04-2.05429E-16
 -1      1788 7.78485E-04 3.41042E-04-2.19808E-16
 -1      1789 5.60960E-04-2.01595E-04-1.39144E-16
 -1      1790 1.00075E-03-3.65888E-04-3.85664E-16
 -1      1791 1.18563E-03-4.32555E-04-5.45394E-16
 -1      1792 1.36997E-03-5.03467E-04-7.35956E-16
 -1      1793 1.55355E-03-5.79758E-04-9.58353E-16
 -1      1794 1.22237E-03-4.18494E-04-6.74062E-16
 -1      1795 1.73753E-03-6.62896E-04-1.21313E-15
 -1      1796 1.92004E-03-7.52985E-04-1.50105E-15
 -1      1797 1.58666E-03-5.69029E-04-1.12402E-15
 -1      1798 2.10245E-03-8.49269E-04-1.82222E-15
 -1      1799 2.28199E-03-9.49712E-04-2.17824E-15
 -1      1800 1.95509E-03-7.48196E-04-1.70220E-15
 -1      1801 2.45938E-03-1.05090E-03-2.57087E-15
 -1      1802 2.63268E-03-1.14765E-03-3.00008E-15
 -1      1803 2.32349E-03-9.51277E-04-2.41606E-15
 -1      1804 2.80126E-03-1.23471E-03-3.46832E-15
 -1      1805 2.96664E-03-1.30516E-03-3.97440E-15
 -1      1806 2.68238E-03-1.15098E-03-3.27550E-15
 -1      1807 3.12704E-03-1.35444E-03-4.51979E-15
 -1      1808 3.28786E-03-1.37881E-03-5.10537E-15
 -1      1809 3.02466E-03-1.29831E-03-4.28859E-15
 -1      1810 3.44688E-03-1.37780E-03-5.73032E-15
 -1      1811 3.61007E-03-1.35372E-03-6.39320E-15
 -1      1812 3.35627E-03-1.34807E-03-5.45908E-15
 -1      1813 3.77552E-03-1.31051E-03-7.09320E-15
 -1      1814 3.94572E-03-1.25510E-03-7.82810E-15
 -1      1815 3.69351E-03-1.29450E-03-6.78593E-15
 -1      1816 4.11955E-03-1.19327E-03-8.59692E-15
 -1      1817 4.29576E-03-1.13080E-03-9.39868E-15
 -1      1818 4.04587E-03-1.17712E-03-8.25671E-15
 -1      1819 4.47456E-03-1.07223E-03-1.02317E-14
 -1      1820 4.65302E-03-1.02063E-03-1.10945E-14
 -1      1821 4.40818E-03-1.04918E-03-9.86033E-15
 -1      1822 4.83218E-03-9.78112E-04-1.19844E-14
 -1      1823 5.00935E-03-9.45089E-04-1.29023E-14
 -1      1824 4.76969E-03-9.46754E-04-1.15847E-14
 -1      1825 5.18574E-03-9.21756E-04-1.38468E-14
 -1      1826 5.35959E-03-9.07374E-04-1.48154E-14
 -1      1827 5.12285E-03-8.83334E-04-1.34196E-14
 -1      1828 5.53179E-03-9.01113E-04-1.58091E-14
 -1      1829 5.70145E-03-9.01950E-04-1.68272E-14
 -1      1830 5.46526E-03-8.57302E-04-1.53577E-14
 -1      1831 5.86908E-03-9.08759E-04-1.78701E-14
 -1      1832 6.03442E-03-9.20627E-04-1.89364E-14
 -1      1833 5.79740E-03-8.61137E-04-1.73928E-14
 -1      1834 6.19765E-03-9.36522E-04-2.00249E-14
 -1      1835 6.35888E-03-9.55742E-04-2.11362E-14
 -1      1836 6.12067E-03-8.86413E-04-1.95214E-14
 -1      1837 6.51813E-03-9.77490E-04-2.22710E-14
 -1      1838 6.67568E-03-1.00126E-03-2.34283E-14
 -1      1839 6.43651E-03-9.25923E-04-2.17423E-14
 -1      1840 6.83148E-03-1.02649E-03-2.46085E-14
 -1      1841 6.98585E-03-1.05284E-03-2.58113E-14
 -1      1842 6.74617E-03-9.74220E-04-2.40536E-14
 -1      1843 7.13874E-03-1.07995E-03-2.70360E-14
 -1      1844 7.29045E-03-1.10757E-03-2.82817E-14
 -1      1845 7.05069E-03-1.02748E-03-2.64552E-14
 -1      1846 7.44095E-03-1.13549E-03-2.95504E-14
 -1      1847 7.59050E-03-1.16355E-03-3.08415E-14
 -1      1848 7.35098E-03-1.08314E-03-2.89465E-14
 -1      1849 7.73907E-03-1.19164E-03-3.21541E-14
 -1      1850 7.88689E-03-1.21964E-03-3.34878E-14
 -1      1851 7.64783E-03-1.13959E-03-3.15242E-14
 -1      1852 8.03395E-03-1.24751E-03-3.48449E-14
 -1      1853 8.18041E-03-1.27518E-03-3.62238E-14
 -1      1854 7.94192E-03-1.19586E-03-3.41915E-14
 -1      1855 8.32629E-03-1.30263E-03-3.76261E-14
 -1      1856 8.47172E-03-1.32982E-03-3.90511E-14
 -1      1857 8.23381E-03-1.25139E-03-3.69487E-14
 -1      1858 8.61670E-03-1.35676E-03-4.04978E-14
 -1      1859 8.76133E-03-1.38343E-03-4.19670E-14
 -1      1860 8.52399E-03-1.30592E-03-3.97938E-14
 -1      1861 8.90564E-03-1.40984E-03-4.34571E-14
 -1      1862 9.04969E-03-1.43599E-03-4.49675E-14
 -1      1863 8.81286E-03-1.35937E-03-4.27269E-14
 -1      1864 9.19350E-03-1.46191E-03-4.64993E-14
 -1      1865 9.33712E-03-1.48758E-03-4.80528E-14
 -1      1866 9.10074E-03-1.41176E-03-4.57449E-14
 -1      1867 9.48057E-03-1.51305E-03-4.96276E-14
 -1      1868 9.62389E-03-1.53830E-03-5.12231E-14
 -1      1869 9.38790E-03-1.46318E-03-4.88478E-14
 -1      1870 9.76709E-03-1.56336E-03-5.28378E-14
 -1      1871 9.91019E-03-1.58825E-03-5.44729E-14
 -1      1872 9.67452E-03-1.51372E-03-5.20324E-14
 -1      1873 1.00532E-02-1.61297E-03-5.61296E-14
 -1      1874 1.01962E-02-1.63755E-03-5.78048E-14
 -1      1875 9.96076E-03-1.56352E-03-5.52988E-14
 -1      1876 1.03391E-02-1.66200E-03-5.94981E-14
 -1      1877 1.04820E-02-1.68633E-03-6.12062E-14
 -1      1878 1.02467E-02-1.61270E-03-5.86445E-14
 -1      1879 1.06248E-02-1.71055E-03-6.29307E-14
 -1      1880 1.07676E-02-1.73467E-03-6.46746E-14
 -1      1881 1.05326E-02-1.66136E-03-6.20588E-14
 -1      1882 1.09104E-02-1.75871E-03-6.64336E-14
 -1      1883 1.10532E-02-1.78267E-03-6.82073E-14
 -1      1884 1.08182E-02-1.70961E-03-6.55382E-14
 -1      1885 1.11960E-02-1.80657E-03-6.99971E-14
 -1      1886 1.13387E-02-1.83041E-03-7.17978E-14
 -1      1887 1.11039E-02-1.75754E-03-6.90810E-14
 -1      1888 1.14815E-02-1.85419E-03-7.36143E-14
 -1      1889 1.16243E-02-1.87793E-03-7.54441E-14
 -1      1890 1.13895E-02-1.80522E-03-7.26832E-14
 -1      1891 1.17670E-02-1.90164E-03-7.72845E-14
 -1      1892 1.19098E-02-1.92531E-03-7.91392E-14
 -1      1893 1.16751E-02-1.85270E-03-7.63377E-14
 -1      1894 1.20526E-02-1.94895E-03-8.10042E-14
 -1      1895 1.21954E-02-1.97256E-03-8.28816E-14
 -1      1896 1.19607E-02-1.90004E-03-8.00410E-14
 -1      1897 1.23381E-02-1.99616E-03-8.47715E-14
 -1      1898 1.24809E-02-2.01974E-03-8.66736E-14
 -1      1899 1.22462E-02-1.94727E-03-8.37946E-14
 -1      1900 1.26237E-02-2.04330E-03-8.85910E-14
 -1      1901 1.27665E-02-2.06685E-03-9.05158E-14
 -1      1902 1.25319E-02-1.99442E-03-8.75967E-14
 -1      1903 1.29093E-02-2.09040E-03-9.24546E-14
 -1      1904 1.30521E-02-2.11393E-03-9.44073E-14
 -1      1905 1.28175E-02-2.04152E-03-9.14484E-14
 -1      1906 1.31950E-02-2.13746E-03-9.63677E-14
 -1      1907 1.33378E-02-2.16098E-03-9.83362E-14
 -1      1908 1.31031E-02-2.08859E-03-9.53436E-14
 -1      1909 1.34806E-02-2.18450E-03-1.00314E-13
 -1      1910 1.36234E-02-2.20801E-03-1.02299E-13
 -1      1911 1.33888E-02-2.13563E-03-9.92756E-14
 -1      1912 1.37663E-02-2.23153E-03-1.04292E-13
 -1      1913 1.39091E-02-2.25504E-03-1.06287E-13
 -1      1914 1.36744E-02-2.18266E-03-1.03240E-13
 -1      1915 1.40519E-02-2.27855E-03-1.08286E-13
 -1      1916 1.41948E-02-2.30207E-03-1.10291E-13
 -1      1917 1.39601E-02-2.22969E-03-1.07225E-13
 -1      1918 1.43376E-02-2.32558E-03-1.12299E-13
 -1      1919 1.44805E-02-2.34910E-03-1.14309E-13
 -1      1920 1.42458E-02-2.27671E-03-1.11226E-13
 -1      1921 1.46233E-02-2.37261E-03-1.16325E-13
 -1      1922 1.47662E-02-2.39613E-03-1.18346E-13
 -1      1923 1.45315E-02-2.32374E-03-1.15245E-13
 -1      1924 1.48951E-02-2.41888E-03-1.20164E-13
 -1      1925 1.50379E-02-2.44240E-03-1.22198E-13
 -1      1926 1.50611E-02-2.41551E-03-1.22719E-13
 -1      1927 1.48033E-02-2.37001E-03-1.19075E-13
 -1      1928 1.32563E-03 5.54888E-04-6.46605E-16
 -1      1929 1.16049E-03 4.98580E-04-4.68877E-16
 -1      1930 1.11731E-03 4.61495E-04-4.84476E-16
 -1      1931 1.64760E-03 6.64107E-04-1.09555E-15
 -1      1932 1.48794E-03 6.10183E-04-8.55192E-16
 -1      1933 1.44739E-03 5.73906E-04-8.70221E-16
 -1      1934 1.95888E-03 7.66869E-04-1.67496E-15
 -1      1935 1.80468E-03 7.16722E-04-1.36852E-15
 -1      1936 1.76847E-03 6.81831E-04-1.38184E-15
 -1      1937 2.25904E-03 8.54982E-04-2.38922E-15
 -1      1938 2.11039E-03 8.13470E-04-2.01500E-15
 -1      1939 2.07991E-03 7.80881E-04-2.02518E-15
 -1      1940 2.54885E-03 9.15734E-04-3.24242E-15
 -1      1941 2.40506E-03 8.89518E-04-2.79850E-15
 -1      1942 2.38117E-03 8.60149E-04-2.80472E-15
 -1      1943 2.83154E-03 9.36774E-04-4.23647E-15
 -1      1944 2.69065E-03 9.31652E-04-3.72151E-15
 -1      1945 2.67352E-03 9.05824E-04-3.72380E-15
 -1      1946 3.11258E-03 9.11831E-04-5.37339E-15
 -1      1947 2.97170E-03 9.29943E-04-4.78690E-15
 -1      1948 2.96097E-03 9.07063E-04-4.78481E-15
 -1      1949 3.39789E-03 8.44120E-04-6.65131E-15
 -1      1950 3.25420E-03 8.82675E-04-5.99482E-15
 -1      1951 3.24924E-03 8.61460E-04-5.98763E-15
 -1      1952 3.69165E-03 7.45408E-04-8.06341E-15
 -1      1953 3.54346E-03 7.97712E-04-7.34104E-15
 -1      1954 3.54351E-03 7.76770E-04-7.32898E-15
 -1      1955 3.99501E-03 6.31344E-04-9.60382E-15
 -1      1956 3.84215E-03 6.89422E-04-8.81803E-15
 -1      1957 3.84624E-03 6.67804E-04-8.80200E-15
 -1      1958 4.30649E-03 5.16181E-04-1.12680E-14
 -1      1959 4.14995E-03 5.73294E-04-1.04206E-14
 -1      1960 4.15681E-03 5.50633E-04-1.04006E-14
 -1      1961 4.62314E-03 4.09635E-04-1.30515E-14
 -1      1962 4.46445E-03 4.61537E-04-1.21453E-14
 -1      1963 4.47265E-03 4.37886E-04-1.21210E-14
 -1      1964 4.94179E-03 3.16369E-04-1.49497E-14
 -1      1965 4.78248E-03 3.61293E-04-1.39866E-14
 -1      1966 4.79070E-03 3.36893E-04-1.39581E-14
 -1      1967 5.25979E-03 2.37124E-04-1.69536E-14
 -1      1968 5.10107E-03 2.75090E-04-1.59387E-14
 -1      1969 5.10834E-03 2.50214E-04-1.59046E-14
 -1      1970 5.57528E-03 1.70312E-04-1.90606E-14
 -1      1971 5.41798E-03 2.02320E-04-1.79942E-14
 -1      1972 5.42372E-03 1.77206E-04-1.79557E-14
 -1      1973 5.88718E-03 1.13350E-04-2.12623E-14
 -1      1974 5.73175E-03 1.40763E-04-2.01504E-14
 -1      1975 5.73577E-03 1.15591E-04-2.01057E-14
 -1      1976 6.19507E-03 6.35261E-05-2.35575E-14
 -1      1977 6.04165E-03 8.76881E-05-2.23981E-14
 -1      1978 6.04403E-03 6.25844E-05-2.23493E-14
 -1      1979 6.49894E-03 1.84512E-05-2.59434E-14
 -1      1980 6.34750E-03 4.05073E-05-2.47392E-14
 -1      1981 6.34845E-03 1.55525E-05-2.46854E-14
 -1      1982 6.79911E-03-2.37763E-05-2.84196E-14
 -1      1983 6.64946E-03-2.93637E-06-2.71705E-14
 -1      1984 6.64927E-03-2.76985E-05-2.71131E-14
 -1      1985 7.09603E-03-6.45609E-05-3.09869E-14
 -1      1986 6.94794E-03-4.42926E-05-2.96922E-14
 -1      1987 6.94688E-03-6.88457E-05-2.96301E-14
 -1      1988 7.39020E-03-1.04875E-04-3.36435E-14
 -1      1989 7.24342E-03-8.47407E-05-3.23045E-14
 -1      1990 7.24175E-03-1.09087E-04-3.22367E-14
 -1      1991 7.68213E-03-1.45347E-04-3.63899E-14
 -1      1992 7.53641E-03-1.25070E-04-3.50041E-14
 -1      1993 7.53433E-03-1.49225E-04-3.49308E-14
 -1      1994 7.97228E-03-1.86349E-04-3.92264E-14
 -1      1995 7.82740E-03-1.65772E-04-3.77975E-14
 -1      1996 7.82508E-03-1.89756E-04-3.77168E-14
 -1      1997 8.26106E-03-2.28070E-04-4.21530E-14
 -1      1998 8.11682E-03-2.07116E-04-4.06785E-14
 -1      1999 8.11437E-03-2.30954E-04-4.05934E-14
 -1      2000 8.54880E-03-2.70574E-04-4.51643E-14
 -1      2001 8.40504E-03-2.49225E-04-4.36473E-14
 -1      2002 8.40255E-03-2.72941E-04-4.35573E-14
 -1      2003 8.83578E-03-3.13849E-04-4.82636E-14
 -1      2004 8.69237E-03-2.92119E-04-4.67039E-14
 -1      2005 8.68989E-03-3.15736E-04-4.66067E-14
 -1      2006 9.12221E-03-3.57835E-04-5.14398E-14
 -1      2007 8.97905E-03-3.35758E-04-4.98423E-14
 -1      2008 8.97662E-03-3.59296E-04-4.97383E-14
 -1      2009 9.40827E-03-4.02450E-04-5.46891E-14
 -1      2010 9.26528E-03-3.80070E-04-5.30556E-14
 -1      2011 9.26291E-03-4.03546E-04-5.29463E-14
 -1      2012 9.69408E-03-4.47601E-04-5.80026E-14
 -1      2013 9.55120E-03-4.24964E-04-5.63378E-14
 -1      2014 9.54890E-03-4.48393E-04-5.62236E-14
 -1      2015 9.97973E-03-4.93199E-04-6.13840E-14
 -1      2016 9.83692E-03-4.70349E-04-5.96856E-14
 -1      2017 9.83468E-03-4.93743E-04-5.95671E-14
 -1      2018 1.02653E-02-5.39160E-04-6.48228E-14
 -1      2019 1.01225E-02-5.16138E-04-6.30958E-14
 -1      2020 1.01203E-02-5.39506E-04-6.29743E-14
 -1      2021 1.05508E-02-5.85408E-04-6.83248E-14
 -1      2022 1.04080E-02-5.62252E-04-6.65669E-14
 -1      2023 1.04059E-02-5.85601E-04-6.64432E-14
 -1      2024 1.08363E-02-6.31883E-04-7.18863E-14
 -1      2025 1.06935E-02-6.08621E-04-7.00989E-14
 -1      2026 1.06915E-02-6.31957E-04-6.99728E-14
 -1      2027 1.11218E-02-6.78529E-04-7.55064E-14
 -1      2028 1.09790E-02-6.55187E-04-7.36874E-14
 -1      2029 1.09770E-02-6.78515E-04-7.35580E-14
 -1      2030 1.14073E-02-7.25305E-04-7.91782E-14
 -1      2031 1.12646E-02-7.01903E-04-7.73366E-14
 -1      2032 1.12626E-02-7.25226E-04-7.71995E-14
 -1      2033 1.16929E-02-7.72175E-04-8.29016E-14
 -1      2034 1.15501E-02-7.48730E-04-8.10339E-14
 -1      2035 1.15481E-02-7.72050E-04-8.08932E-14
 -1      2036 1.19784E-02-8.19114E-04-8.66631E-14
 -1      2037 1.18356E-02-7.95637E-04-8.47785E-14
 -1      2038 1.18337E-02-8.18956E-04-8.46334E-14
 -1      2039 1.22640E-02-8.66100E-04-9.04535E-14
 -1      2040 1.21212E-02-8.42602E-04-8.85547E-14
 -1      2041 1.21193E-02-8.65920E-04-8.84098E-14
 -1      2042 1.25496E-02-9.13117E-04-9.42661E-14
 -1      2043 1.24068E-02-8.89605E-04-9.23579E-14
 -1      2044 1.24049E-02-9.12923E-04-9.22121E-14
 -1      2045 1.28353E-02-9.60154E-04-9.80929E-14
 -1      2046 1.26925E-02-9.36633E-04-9.61792E-14
 -1      2047 1.26906E-02-9.59952E-04-9.60338E-14
 -1      2048 1.31209E-02-1.00720E-03-1.01928E-13
 -1      2049 1.29781E-02-9.83676E-04-1.00010E-13
 -1      2050 1.29762E-02-1.00700E-03-9.98696E-14
 -1      2051 1.34066E-02-1.05425E-03-1.05769E-13
 -1      2052 1.32638E-02-1.03073E-03-1.03847E-13
 -1      2053 1.32619E-02-1.05405E-03-1.03710E-13
 -1      2054 1.36923E-02-1.10130E-03-1.09616E-13
 -1      2055 1.35495E-02-1.07778E-03-1.07691E-13
 -1      2056 1.35476E-02-1.10110E-03-1.07556E-13
 -1      2057 1.39780E-02-1.14835E-03-1.13480E-13
 -1      2058 1.38351E-02-1.12482E-03-1.11546E-13
 -1      2059 1.38333E-02-1.14815E-03-1.11412E-13
 -1      2060 1.42637E-02-1.19538E-03-1.17358E-13
 -1      2061 1.41209E-02-1.17187E-03-1.15418E-13
 -1      2062 1.41190E-02-1.19519E-03-1.15286E-13
 -1      2063 1.45003E-02-1.23704E-03-1.20564E-13
 -1      2064 1.43574E-02-1.21353E-03-1.18620E-13
 -1      2065 1.43555E-02-1.23686E-03-1.18491E-13
 -1      2066 1.45429E-02-1.27315E-03-1.21020E-13
 -1      2067 1.46400E-02-1.50274E-03-1.21387E-13
 -1      2068 1.46169E-02-1.46059E-03-1.21245E-13
 -1      2069 1.45938E-02-1.41844E-03-1.21102E-13
 -1      2070 1.45707E-02-1.37629E-03-1.20960E-13
 -1      2071 1.44817E-02-1.41915E-03-1.19482E-13
 -1      2072 1.45684E-02-1.34579E-03-1.21064E-13
 -1      2073 1.45453E-02-1.30365E-03-1.20918E-13
 -1      2074 1.44516E-02-1.28550E-03-1.19652E-13
 -1      2075 1.44562E-02-1.34650E-03-1.19445E-13
 -1      2076 1.46855E-02-1.58562E-03-1.21657E-13
 -1      2077 1.46628E-02-1.54418E-03-1.21522E-13
 -1      2078 1.45275E-02-1.50274E-03-1.19758E-13
 -1      2079 1.47317E-02-1.66994E-03-1.21928E-13
 -1      2080 1.47086E-02-1.62778E-03-1.21792E-13
 -1      2081 1.45733E-02-1.58634E-03-1.20022E-13
 -1      2082 1.47779E-02-1.75426E-03-1.22189E-13
 -1      2083 1.47548E-02-1.71210E-03-1.22060E-13
 -1      2084 1.46195E-02-1.67065E-03-1.20284E-13
 -1      2085 1.48242E-02-1.83858E-03-1.22440E-13
 -1      2086 1.48011E-02-1.79642E-03-1.22316E-13
 -1      2087 1.46658E-02-1.75497E-03-1.20537E-13
 -1      2088 1.48704E-02-1.92290E-03-1.22675E-13
 -1      2089 1.48473E-02-1.88074E-03-1.22559E-13
 -1      2090 1.47120E-02-1.83929E-03-1.20780E-13
 -1      2091 1.49167E-02-2.00722E-03-1.22900E-13
 -1      2092 1.48936E-02-1.96506E-03-1.22789E-13
 -1      2093 1.47583E-02-1.92361E-03-1.21009E-13
 -1      2094 1.49622E-02-2.09011E-03-1.23122E-13
 -1      2095 1.49395E-02-2.04866E-03-1.23010E-13
 -1      2096 1.48042E-02-2.00721E-03-1.21229E-13
 -1      2097 1.50085E-02-2.17442E-03-1.23346E-13
 -1      2098 1.49854E-02-2.13226E-03-1.23234E-13
 -1      2099 1.48501E-02-2.09081E-03-1.21445E-13
 -1      2100 1.50548E-02-2.25872E-03-1.23561E-13
 -1      2101 1.50316E-02-2.21657E-03-1.23453E-13
 -1      2102 1.48964E-02-2.17512E-03-1.21656E-13
 -1      2103 1.51011E-02-2.34302E-03-1.23771E-13
 -1      2104 1.50779E-02-2.30087E-03-1.23669E-13
 -1      2105 1.49427E-02-2.25943E-03-1.21861E-13
 -1      2106 4.88429E-03-1.59069E-04-8.61769E-15
 -1      2107 5.02717E-03-2.13344E-04-8.82769E-15
 -1      2108 5.32957E-03-3.24984E-04-9.37042E-15
 -1      2109 5.33895E-03-3.37936E-04-9.32884E-15
 -1      2110 5.16352E-03-2.61860E-04-9.01571E-15
 -1      2111 5.25840E-03-2.92616E-04-9.17263E-15
 -1      2112 4.53026E-03-1.32290E-05-8.16471E-15
 -1      2113 4.71279E-03-9.11537E-05-8.40024E-15
 -1      2114 4.11042E-03 2.09707E-04-7.41234E-15
 -1      2115 4.29407E-03 1.06210E-04-7.75889E-15
 -1      2116 3.11681E-04-2.68247E-05-1.58497E-16
 -1      2117 3.31440E-04-3.95771E-05-1.52479E-16
 -1      2118 4.62328E-04-7.72017E-05-2.22316E-16
 -1      2119 4.06617E-04-4.15768E-05-2.37752E-16
 -1      2120 3.40156E-03 5.72922E-04-5.98043E-15
 -1      2121 3.56556E-03 4.98664E-04-6.33472E-15
 -1      2122 3.05882E-03 6.65632E-04-5.18067E-15
 -1      2123 3.20910E-03 6.36973E-04-5.54971E-15
 -1      2124 2.72427E-03 6.34039E-04-4.41419E-15
 -1      2125 2.86847E-03 6.63276E-04-4.73249E-15
 -1      2126 2.40035E-03 5.11056E-04-3.80590E-15
 -1      2127 2.56379E-03 5.83742E-04-4.10411E-15
 -1      2128 2.65102E-03 6.16675E-04-4.19996E-15
 -1      2129 1.98592E-03 3.06709E-04-3.21513E-15
 -1      2130 2.17124E-03 4.00976E-04-3.44816E-15
 -1      2131 1.61954E-03 1.25697E-04-2.80254E-15
 -1      2132 1.80139E-03 2.16362E-04-3.00472E-15
 -1      2133 1.91506E-03 2.52462E-04-2.99444E-15
 -1      2134 1.23112E-03-2.86729E-05-2.48181E-15
 -1      2135 1.39360E-03 3.11650E-05-2.60748E-15
 -1      2136 9.73217E-04-1.14549E-04-2.25901E-15
 -1      2137 1.08404E-03-8.32509E-05-2.34406E-15
 -1      2138 8.34932E-04-1.51131E-04-2.18891E-15
 -1      2139 8.78890E-04-1.39918E-04-2.21002E-15
 -1      2140 8.53717E-04-1.74038E-04-2.18556E-15
 -1      2141 8.26024E-04-1.64675E-04-2.17514E-15
 -1      2142 1.02920E-03-2.18189E-04-2.25747E-15
 -1      2143 9.25458E-04-1.92944E-04-2.20460E-15
 -1      2144 1.36727E-03-3.61440E-04-2.56807E-15
 -1      2145 1.20898E-03-2.89050E-04-2.41798E-15
 -1      2146 1.73212E-03-5.34982E-04-2.86807E-15
 -1      2147 1.54074E-03-4.42877E-04-2.71347E-15
 -1      2148 1.47708E-03-3.75608E-04-2.51402E-15
 -1      2149 2.16003E-03-7.82302E-04-3.33563E-15
 -1      2150 1.97515E-03-6.66337E-04-3.10483E-15
 -1      2151 2.51804E-03-9.93620E-04-3.82978E-15
 -1      2152 2.34152E-03-8.90195E-04-3.57686E-15
 -1      2153 2.27555E-03-8.23021E-04-3.34060E-15
 -1      2154 2.89673E-03-1.17734E-03-4.52611E-15
 -1      2155 2.74158E-03-1.10837E-03-4.20508E-15
 -1      2156 3.22300E-03-1.23291E-03-5.26854E-15
 -1      2157 3.07286E-03-1.22164E-03-4.91550E-15
 -1      2158 3.56536E-03-1.16261E-03-6.09948E-15
 -1      2159 3.40426E-03-1.21349E-03-5.70372E-15
 -1      2160 3.96409E-03-9.76681E-04-6.95876E-15
 -1      2161 3.78164E-03-1.07180E-03-6.57932E-15
 -1      2162 4.36929E-03-7.66428E-04-7.68508E-15
 -1      2163 4.18253E-03-8.64930E-04-7.36268E-15
 -1      2164 4.74797E-03-5.75985E-04-8.36770E-15
 -1      2165 4.56863E-03-6.62419E-04-8.06497E-15
 -1      2166 5.09693E-03-4.38030E-04-8.83031E-15
 -1      2167 4.95022E-03-4.92145E-04-8.64020E-15
 -1      2168 5.29784E-03-3.63750E-04-9.11121E-15
 -1      2169 5.21993E-03-3.92210E-04-8.98367E-15
 -1      2170 3.74979E-03 4.08079E-04-6.71075E-15
 -1      2171 3.91772E-03 3.15274E-04-7.04058E-15
 -1      2172 4.39700E-03 2.67367E-05-8.19501E-15
 -1      2173 7.45046E-04-2.67516E-04-2.30190E-16
 -1      2174 3.98545E-03 2.51109E-04-7.40467E-15
 -1      2175 3.63508E-03 4.50214E-04-6.64564E-15
 -1      2176 7.94034E-04-2.56418E-04-3.13673E-16
 -1      2177 5.09239E-03-2.57975E-04-9.25359E-15
 -1      2178 5.30646E-03-3.21929E-04-9.64600E-15
 -1      2179 1.50779E-02-2.36992E-03-1.23256E-13
 -1      2180 4.78806E-03-1.52103E-04-8.83688E-15
 -1      2181 5.32795E-03-3.48227E-04-9.62805E-15
 -1      2182 5.16185E-03-4.02270E-04-9.25090E-15
 -1      2183 4.84589E-03-5.18257E-04-8.81162E-15
 -1      2184 4.45787E-03-6.99789E-04-8.14146E-15
 -1      2185 4.06105E-03-9.15907E-04-7.34105E-15
 -1      2186 3.66437E-03-1.12557E-03-6.44032E-15
 -1      2187 3.31735E-03-1.23696E-03-5.51867E-15
 -1      2188 2.64834E-03-1.05293E-03-3.93731E-15
 -1      2189 1.87661E-03-5.82987E-04-2.87746E-15
 -1      2190 1.11709E-03-2.28009E-04-2.21754E-15
 -1      2191 1.03734E-03-1.88644E-04-2.02778E-15
 -1      2192 1.20921E-03-2.43683E-04-2.17608E-15
 -1      2193 8.81134E-04-1.66584E-04-2.05244E-15
 -1      2194 8.22392E-04-1.53907E-04-2.04992E-15
 -1      2195 9.20088E-04-1.34001E-04-2.10899E-15
 -1      2196 1.52263E-03 6.69215E-05-2.60357E-15
 -1      2197 2.29841E-03 4.57072E-04-3.54057E-15
 -1      2198 3.29353E-03 6.11033E-04-5.82791E-15
 -1      2199 2.95954E-03 6.75967E-04-4.94599E-15
 -1      2200 1.15965E-03-7.24457E-05-2.28534E-15
 -1      2201 2.99900E-03-1.21210E-03-4.69476E-15
 -1      2202 1.17041E-03 4.46380E-04-6.14539E-16
 -1      2203 1.00299E-03 3.89548E-04-4.47328E-16
 -1      2204 3.92782E-04-3.78472E-05-3.57218E-16
 -1      2205 4.09491E-04-3.58875E-05-3.55307E-16
 -1      2206 4.33566E-04-3.75280E-05-3.52339E-16
 -1      2207 4.62743E-04-4.40850E-05-3.47934E-16
 -1      2208 5.03540E-04-5.08349E-05-4.78431E-16
 -1      2209 4.05537E-04-5.04425E-05-3.54426E-16
 -1      2210 3.90645E-04-5.01515E-05-3.55808E-16
 -1      2211 4.50122E-04-3.81348E-05-3.49384E-16
 -1      2212 4.26258E-04-4.66775E-05-3.52447E-16
 -1      2213 4.97464E-04-5.57288E-05-4.75789E-16
 -1      2214 5.01227E-04-7.21501E-06-3.41104E-16
 -1      2215 4.75818E-04-2.48433E-05-3.45766E-16
 -1      2216 5.58996E-04-3.19356E-05-4.69067E-16
 -1      2217 5.49642E-04 4.04150E-05-3.28527E-16
 -1      2218 5.26427E-04 1.50003E-05-3.35561E-16
 -1      2219 6.24347E-04 1.33549E-05-4.57872E-16
 -1      2220 5.90521E-04 9.93147E-05-3.08984E-16
 -1      2221 5.71063E-04 6.88556E-05-3.19935E-16
 -1      2222 6.82138E-04 7.53538E-05-4.40566E-16
 -1      2223 6.26370E-04 1.66203E-04-2.80239E-16
 -1      2224 6.08751E-04 1.31917E-04-2.96109E-16
 -1      2225 7.29495E-04 1.47527E-04-4.14274E-16
 -1      2226 1.50119E-03 5.57669E-04-1.03960E-15
 -1      2227 1.33659E-03 5.02451E-04-8.11390E-16
 -1      2228 1.22714E-03 4.30493E-04-7.50214E-16
 -1      2229 1.08014E-03-3.37371E-04-6.10907E-16
 -1      2230 1.25709E-03-4.03946E-04-8.07785E-16
 -1      2231 3.88023E-03 2.95153E-04-7.43902E-15
 -1      2232 4.04848E-03 1.93968E-04-7.82324E-15
 -1      2233 1.43693E-03-4.76374E-04-1.03446E-15
 -1      2234 1.61897E-03-5.56363E-04-1.29279E-15
 -1      2235 1.28861E-03-3.88423E-04-9.45763E-16
 -1      2236 1.80487E-03-6.44302E-04-1.58279E-15
 -1      2237 1.99206E-03-7.40847E-04-1.90559E-15
 -1      2238 1.65017E-03-5.41873E-04-1.46465E-15
 -1      2239 2.18196E-03-8.44313E-04-2.26242E-15
 -1      2240 2.37042E-03-9.51490E-04-2.65459E-15
 -1      2241 2.03030E-03-7.32779E-04-2.11074E-15
 -1      2242 2.55712E-03-1.05861E-03-3.08422E-15
 -1      2243 2.73975E-03-1.15568E-03-3.55162E-15
 -1      2244 2.41960E-03-9.54608E-04-2.89393E-15
 -1      2245 2.91621E-03-1.23724E-03-4.05715E-15
 -1      2246 3.09032E-03-1.29288E-03-4.60261E-15
 -1      2247 2.79907E-03-1.16435E-03-3.82645E-15
 -1      2248 3.25882E-03-1.31890E-03-5.18850E-15
 -1      2249 3.43123E-03-1.31398E-03-5.81403E-15
 -1      2250 3.15866E-03-1.28567E-03-4.91743E-15
 -1      2251 3.60450E-03-1.28021E-03-6.47747E-15
 -1      2252 3.78393E-03-1.22702E-03-7.17900E-15
 -1      2253 3.51410E-03-1.26948E-03-6.16912E-15
 -1      2254 3.96700E-03-1.16058E-03-7.91529E-15
 -1      2255 4.15277E-03-1.09120E-03-8.68590E-15
 -1      2256 3.88675E-03-1.14704E-03-7.57317E-15
 -1      2257 4.34052E-03-1.02380E-03-9.48888E-15
 -1      2258 4.52576E-03-9.63502E-04-1.03229E-14
 -1      2259 4.27198E-03-9.98553E-04-9.11744E-15
 -1      2260 4.70956E-03-9.13156E-04-1.11863E-14
 -1      2261 4.88865E-03-8.72993E-04-1.20767E-14
 -1      2262 4.65116E-03-8.77658E-04-1.07876E-14
 -1      2263 5.06478E-03-8.43800E-04-1.29933E-14
 -1      2264 5.23629E-03-8.24088E-04-1.39372E-14
 -1      2265 5.01072E-03-8.02700E-04-1.25693E-14
 -1      2266 5.40474E-03-8.13578E-04-1.49065E-14
 -1      2267 5.56961E-03-8.10588E-04-1.58996E-14
 -1      2268 5.34958E-03-7.69401E-04-1.44550E-14
 -1      2269 5.73194E-03-8.14377E-04-1.69160E-14
 -1      2270 5.89173E-03-8.23626E-04-1.79565E-14
 -1      2271 5.67226E-03-7.68131E-04-1.64407E-14
 -1      2272 6.04952E-03-8.37486E-04-1.90205E-14
 -1      2273 6.20554E-03-8.55047E-04-2.01061E-14
 -1      2274 5.98393E-03-7.89613E-04-1.85194E-14
 -1      2275 6.36000E-03-8.75552E-04-2.12156E-14
 -1      2276 6.51319E-03-8.98397E-04-2.23472E-14
 -1      2277 6.28847E-03-8.26395E-04-2.06909E-14
 -1      2278 6.66513E-03-9.22994E-04-2.35020E-14
 -1      2279 6.81612E-03-9.48950E-04-2.46794E-14
 -1      2280 6.58834E-03-8.72915E-04-2.29522E-14
 -1      2281 6.96610E-03-9.75849E-04-2.58788E-14
 -1      2282 7.11532E-03-1.00343E-03-2.71008E-14
 -1      2283 6.88499E-03-9.25197E-04-2.53038E-14
 -1      2284 7.26373E-03-1.03143E-03-2.83436E-14
 -1      2285 7.41154E-03-1.05968E-03-2.96091E-14
 -1      2286 7.17927E-03-9.80502E-04-2.77441E-14
 -1      2287 7.55868E-03-1.08801E-03-3.08981E-14
 -1      2288 7.70533E-03-1.11633E-03-3.22083E-14
 -1      2289 7.47170E-03-1.03703E-03-3.02734E-14
 -1      2290 7.85145E-03-1.14453E-03-3.35407E-14
 -1      2291 7.99718E-03-1.17256E-03-3.48949E-14
 -1      2292 7.76265E-03-1.09363E-03-3.28913E-14
 -1      2293 8.14248E-03-1.20037E-03-3.62712E-14
 -1      2294 8.28747E-03-1.22793E-03-3.76703E-14
 -1      2295 8.05240E-03-1.14966E-03-3.55975E-14
 -1      2296 8.43212E-03-1.25523E-03-3.90927E-14
 -1      2297 8.57653E-03-1.28224E-03-4.05357E-14
 -1      2298 8.34117E-03-1.20474E-03-3.83921E-14
 -1      2299 8.72068E-03-1.30899E-03-4.19998E-14
 -1      2300 8.86464E-03-1.33546E-03-4.34863E-14
 -1      2301 8.62916E-03-1.25875E-03-4.12759E-14
 -1      2302 9.00840E-03-1.36166E-03-4.49918E-14
 -1      2303 9.15202E-03-1.38761E-03-4.65198E-14
 -1      2304 8.91653E-03-1.31165E-03-4.42422E-14
 -1      2305 9.29549E-03-1.41333E-03-4.80701E-14
 -1      2306 9.43886E-03-1.43881E-03-4.96409E-14
 -1      2307 9.20342E-03-1.36353E-03-4.72947E-14
 -1      2308 9.58212E-03-1.46408E-03-5.12317E-14
 -1      2309 9.72530E-03-1.48916E-03-5.28417E-14
 -1      2310 9.48994E-03-1.41447E-03-5.04321E-14
 -1      2311 9.86841E-03-1.51406E-03-5.44740E-14
 -1      2312 1.00115E-02-1.53879E-03-5.61255E-14
 -1      2313 9.77619E-03-1.46461E-03-5.36524E-14
 -1      2314 1.01545E-02-1.56338E-03-5.77938E-14
 -1      2315 1.02974E-02-1.58783E-03-5.94827E-14
 -1      2316 1.00622E-02-1.51407E-03-5.69482E-14
 -1      2317 1.04403E-02-1.61216E-03-6.11883E-14
 -1      2318 1.05832E-02-1.63638E-03-6.29091E-14
 -1      2319 1.03481E-02-1.56295E-03-6.03184E-14
 -1      2320 1.07261E-02-1.66050E-03-6.46461E-14
 -1      2321 1.08690E-02-1.68454E-03-6.64004E-14
 -1      2322 1.06340E-02-1.61138E-03-6.37577E-14
 -1      2323 1.10118E-02-1.70850E-03-6.81699E-14
 -1      2324 1.11546E-02-1.73239E-03-6.99536E-14
 -1      2325 1.09197E-02-1.65945E-03-6.72603E-14
 -1      2326 1.12974E-02-1.75623E-03-7.17529E-14
 -1      2327 1.14403E-02-1.78001E-03-7.35656E-14
 -1      2328 1.12054E-02-1.70723E-03-7.08242E-14
 -1      2329 1.15831E-02-1.80375E-03-7.53909E-14
 -1      2330 1.17259E-02-1.82745E-03-7.72288E-14
 -1      2331 1.14911E-02-1.75479E-03-7.44457E-14
 -1      2332 1.18687E-02-1.85111E-03-7.90799E-14
 -1      2333 1.20115E-02-1.87475E-03-8.09439E-14
 -1      2334 1.17768E-02-1.80218E-03-7.81200E-14
 -1      2335 1.21543E-02-1.89837E-03-8.28177E-14
 -1      2336 1.22972E-02-1.92196E-03-8.47055E-14
 -1      2337 1.20624E-02-1.84946E-03-8.18430E-14
 -1      2338 1.24400E-02-1.94553E-03-8.66064E-14
 -1      2339 1.25828E-02-1.96909E-03-8.85197E-14
 -1      2340 1.23481E-02-1.89664E-03-8.56174E-14
 -1      2341 1.27256E-02-1.99264E-03-9.04445E-14
 -1      2342 1.28685E-02-2.01618E-03-9.23782E-14
 -1      2343 1.26338E-02-1.94376E-03-8.94398E-14
 -1      2344 1.30113E-02-2.03972E-03-9.43223E-14
 -1      2345 1.31541E-02-2.06324E-03-9.62769E-14
 -1      2346 1.29194E-02-1.99084E-03-9.33045E-14
 -1      2347 1.32969E-02-2.08676E-03-9.82414E-14
 -1      2348 1.34398E-02-2.11028E-03-1.00214E-13
 -1      2349 1.32051E-02-2.03789E-03-9.72090E-14
 -1      2350 1.35826E-02-2.13379E-03-1.02191E-13
 -1      2351 1.37255E-02-2.15731E-03-1.04177E-13
 -1      2352 1.34908E-02-2.08492E-03-1.01147E-13
 -1      2353 1.38683E-02-2.18082E-03-1.06167E-13
 -1      2354 1.40112E-02-2.20433E-03-1.08158E-13
 -1      2355 1.37765E-02-2.13195E-03-1.05108E-13
 -1      2356 1.41540E-02-2.22784E-03-1.10156E-13
 -1      2357 1.42968E-02-2.25135E-03-1.12158E-13
 -1      2358 1.40622E-02-2.17897E-03-1.09089E-13
 -1      2359 1.44397E-02-2.27487E-03-1.14163E-13
 -1      2360 1.45825E-02-2.29838E-03-1.16175E-13
 -1      2361 1.43479E-02-2.22599E-03-1.13086E-13
 -1      2362 2.14186E-03 7.63597E-04-2.27361E-15
 -1      2363 1.98490E-03 7.16534E-04-1.91541E-15
 -1      2364 2.44870E-03 8.39018E-04-3.09305E-15
 -1      2365 2.29639E-03 8.05148E-04-2.66630E-15
 -1      2366 2.20933E-03 7.46038E-04-2.52595E-15
 -1      2367 2.74710E-03 8.76675E-04-4.05268E-15
 -1      2368 2.59851E-03 8.63434E-04-3.55534E-15
 -1      2369 2.52107E-03 8.17344E-04-3.38473E-15
 -1      2370 3.04158E-03 8.66218E-04-5.15408E-15
 -1      2371 2.89417E-03 8.77739E-04-4.58548E-15
 -1      2372 2.82450E-03 8.45958E-04-4.38422E-15
 -1      2373 3.33820E-03 8.07729E-04-6.39721E-15
 -1      2374 3.18901E-03 8.42526E-04-5.75789E-15
 -1      2375 3.12516E-03 8.22492E-04-5.52614E-15
 -1      2376 3.64163E-03 7.12219E-04-7.77668E-15
 -1      2377 3.48879E-03 7.63557E-04-7.07067E-15
 -1      2378 3.42980E-03 7.50113E-04-6.80974E-15
 -1      2379 3.95286E-03 5.96946E-04-9.28638E-15
 -1      2380 3.79637E-03 6.55953E-04-8.51532E-15
 -1      2381 3.74224E-03 6.43945E-04-8.22782E-15
 -1      2382 4.26977E-03 4.78302E-04-1.09210E-14
 -1      2383 4.11091E-03 5.37210E-04-1.00884E-14
 -1      2384 4.06169E-03 5.23424E-04-9.77479E-15
 -1      2385 4.58902E-03 3.67703E-04-1.26741E-14
 -1      2386 4.42944E-03 4.21541E-04-1.17829E-14
 -1      2387 4.38439E-03 4.04710E-04-1.14447E-14
 -1      2388 4.90764E-03 2.70754E-04-1.45421E-14
 -1      2389 4.74867E-03 3.17376E-04-1.35944E-14
 -1      2390 4.70638E-03 2.97468E-04-1.32304E-14
 -1      2391 5.22369E-03 1.88592E-04-1.65162E-14
 -1      2392 5.06616E-03 2.27872E-04-1.55162E-14
 -1      2393 5.02501E-03 2.05361E-04-1.51282E-14
 -1      2394 5.53615E-03 1.19707E-04-1.85943E-14
 -1      2395 5.38046E-03 1.52629E-04-1.75434E-14
 -1      2396 5.33909E-03 1.28115E-04-1.71309E-14
 -1      2397 5.84470E-03 6.14366E-05-2.07681E-14
 -1      2398 5.69095E-03 8.94096E-05-1.96693E-14
 -1      2399 5.64844E-03 6.34589E-05-1.92341E-14
 -1      2400 6.14940E-03 1.09297E-05-2.30361E-14
 -1      2401 5.99752E-03 3.53673E-05-2.18903E-14
 -1      2402 5.95345E-03 8.46626E-06-2.14331E-14
 -1      2403 6.45057E-03-3.43586E-05-2.53968E-14
 -1      2404 6.30040E-03-1.22377E-05-2.42050E-14
 -1      2405 6.25465E-03-3.96940E-05-2.37253E-14
 -1      2406 6.74860E-03-7.64738E-05-2.78473E-14
 -1      2407 6.59994E-03-5.57128E-05-2.66112E-14
 -1      2408 6.55265E-03-8.34201E-05-2.61101E-14
 -1      2409 7.04394E-03-1.16942E-04-3.03860E-14
 -1      2410 6.89657E-03-9.68406E-05-2.91054E-14
 -1      2411 6.84798E-03-1.24578E-04-2.85824E-14
 -1      2412 7.33703E-03-1.56828E-04-3.30147E-14
 -1      2413 7.19073E-03-1.36907E-04-3.16889E-14
 -1      2414 7.14111E-03-1.64526E-04-3.11431E-14
 -1      2415 7.62828E-03-1.96831E-04-3.57302E-14
 -1      2416 7.48285E-03-1.76782E-04-3.43614E-14
 -1      2417 7.43247E-03-2.04192E-04-3.37929E-14
 -1      2418 7.91805E-03-2.37367E-04-3.85378E-14
 -1      2419 7.77332E-03-2.17012E-04-3.71221E-14
 -1      2420 7.72241E-03-2.44168E-04-3.65303E-14
 -1      2421 8.20667E-03-2.78653E-04-4.14366E-14
 -1      2422 8.06249E-03-2.57906E-04-3.99764E-14
 -1      2423 8.01123E-03-2.84793E-04-3.93602E-14
 -1      2424 8.49441E-03-3.20772E-04-4.44188E-14
 -1      2425 8.35063E-03-2.99605E-04-4.29172E-14
 -1      2426 8.29916E-03-3.26232E-04-4.22784E-14
 -1      2427 8.78147E-03-3.63715E-04-4.74897E-14
 -1      2428 8.63801E-03-3.42140E-04-4.59439E-14
 -1      2429 8.58643E-03-3.68529E-04-4.52829E-14
 -1      2430 9.06804E-03-4.07423E-04-5.06392E-14
 -1      2431 8.92481E-03-3.85476E-04-4.90547E-14
 -1      2432 8.87320E-03-4.11654E-04-4.83708E-14
 -1      2433 9.35426E-03-4.51811E-04-5.38624E-14
 -1      2434 9.21119E-03-4.29536E-04-5.22403E-14
 -1      2435 9.15959E-03-4.55534E-04-5.15391E-14
 -1      2436 9.64023E-03-4.96782E-04-5.71547E-14
 -1      2437 9.49727E-03-4.74228E-04-5.55014E-14
 -1      2438 9.44572E-03-5.00075E-04-5.47796E-14
 -1      2439 9.92604E-03-5.42238E-04-6.05159E-14
 -1      2440 9.78315E-03-5.19453E-04-5.88269E-14
 -1      2441 9.73166E-03-5.45178E-04-5.80889E-14
 -1      2442 1.02117E-02-5.88089E-04-6.39365E-14
 -1      2443 1.00689E-02-5.65118E-04-6.22179E-14
 -1      2444 1.00175E-02-5.90745E-04-6.14629E-14
 -1      2445 1.04974E-02-6.34256E-04-6.74220E-14
 -1      2446 1.03546E-02-6.11137E-04-6.56722E-14
 -1      2447 1.03032E-02-6.36687E-04-6.49013E-14
 -1      2448 1.07830E-02-6.80670E-04-7.09642E-14
 -1      2449 1.06402E-02-6.57436E-04-6.91853E-14
 -1      2450 1.05889E-02-6.82927E-04-6.84000E-14
 -1      2451 1.10686E-02-7.27273E-04-7.45633E-14
 -1      2452 1.09258E-02-7.03951E-04-7.27570E-14
 -1      2453 1.08745E-02-7.29398E-04-7.19567E-14
 -1      2454 1.13542E-02-7.74019E-04-7.82172E-14
 -1      2455 1.12114E-02-7.50630E-04-7.63850E-14
 -1      2456 1.11601E-02-7.76045E-04-7.55698E-14
 -1      2457 1.16398E-02-8.20869E-04-8.19226E-14
 -1      2458 1.14970E-02-7.97432E-04-8.00645E-14
 -1      2459 1.14458E-02-8.22823E-04-7.92362E-14
 -1      2460 1.19254E-02-8.67794E-04-8.56733E-14
 -1      2461 1.17826E-02-8.44324E-04-8.37918E-14
 -1      2462 1.17314E-02-8.69698E-04-8.29523E-14
 -1      2463 1.22110E-02-9.14772E-04-8.94562E-14
 -1      2464 1.20682E-02-8.91278E-04-8.75601E-14
 -1      2465 1.20171E-02-9.16641E-04-8.67122E-14
 -1      2466 1.24966E-02-9.61785E-04-9.32665E-14
 -1      2467 1.23538E-02-9.38275E-04-9.13597E-14
 -1      2468 1.23027E-02-9.63631E-04-9.05047E-14
 -1      2469 1.27823E-02-1.00882E-03-9.70963E-14
 -1      2470 1.26395E-02-9.85301E-04-9.51789E-14
 -1      2471 1.25884E-02-1.01065E-03-9.43223E-14
 -1      2472 1.30680E-02-1.05587E-03-1.00934E-13
 -1      2473 1.29251E-02-1.03234E-03-9.90137E-14
 -1      2474 1.28740E-02-1.05769E-03-9.81570E-14
 -1      2475 1.33536E-02-1.10292E-03-1.04782E-13
 -1      2476 1.32108E-02-1.07939E-03-1.02858E-13
 -1      2477 1.31597E-02-1.10474E-03-1.02002E-13
 -1      2478 1.36393E-02-1.14997E-03-1.08636E-13
 -1      2479 1.34965E-02-1.12645E-03-1.06707E-13
 -1      2480 1.34454E-02-1.15180E-03-1.05855E-13
 -1      2481 1.39250E-02-1.19702E-03-1.12501E-13
 -1      2482 1.37822E-02-1.17350E-03-1.10565E-13
 -1      2483 1.37311E-02-1.19885E-03-1.09717E-13
 -1      2484 1.42107E-02-1.24406E-03-1.16379E-13
 -1      2485 1.40679E-02-1.22055E-03-1.14438E-13
 -1      2486 1.40168E-02-1.24590E-03-1.13588E-13
 -1      2487 1.43579E-02-1.26735E-03-1.18387E-13
 -1      2488 1.44611E-02-1.58705E-03-1.18383E-13
 -1      2489 1.44380E-02-1.54489E-03-1.18255E-13
 -1      2490 1.45074E-02-1.67136E-03-1.18639E-13
 -1      2491 1.44843E-02-1.62921E-03-1.18512E-13
 -1      2492 1.43490E-02-1.58776E-03-1.16747E-13
 -1      2493 1.43695E-02-1.41986E-03-1.17858E-13
 -1      2494 1.43464E-02-1.37771E-03-1.17719E-13
 -1      2495 1.44151E-02-1.50310E-03-1.18125E-13
 -1      2496 1.43924E-02-1.46166E-03-1.17993E-13
 -1      2497 1.42571E-02-1.42021E-03-1.16232E-13
 -1      2498 1.43030E-02-1.50380E-03-1.16492E-13
 -1      2499 1.45536E-02-1.75568E-03-1.18883E-13
 -1      2500 1.45305E-02-1.71352E-03-1.18762E-13
 -1      2501 1.43952E-02-1.67207E-03-1.16993E-13
 -1      2502 1.45999E-02-1.84000E-03-1.19119E-13
 -1      2503 1.45767E-02-1.79784E-03-1.19004E-13
 -1      2504 1.44414E-02-1.75639E-03-1.17229E-13
 -1      2505 1.46461E-02-1.92432E-03-1.19341E-13
 -1      2506 1.46230E-02-1.88216E-03-1.19231E-13
 -1      2507 1.44877E-02-1.84071E-03-1.17456E-13
 -1      2508 1.46916E-02-2.00721E-03-1.19553E-13
 -1      2509 1.46689E-02-1.96577E-03-1.19448E-13
 -1      2510 1.45336E-02-1.92432E-03-1.17670E-13
 -1      2511 1.47379E-02-2.09152E-03-1.19763E-13
 -1      2512 1.47148E-02-2.04937E-03-1.19659E-13
 -1      2513 1.45795E-02-2.00792E-03-1.17877E-13
 -1      2514 1.47842E-02-2.17583E-03-1.19964E-13
 -1      2515 1.47611E-02-2.13368E-03-1.19866E-13
 -1      2516 1.46258E-02-2.09223E-03-1.18079E-13
 -1      2517 1.48305E-02-2.26013E-03-1.20160E-13
 -1      2518 1.48074E-02-2.21798E-03-1.20061E-13
 -1      2519 1.46721E-02-2.17654E-03-1.18272E-13
 -1      2520 5.26848E-03-3.21846E-04-1.00238E-14
 -1      2521 5.34118E-03-3.36326E-04-1.02275E-14
 -1      2522 4.71424E-03-1.42499E-04-9.10008E-15
 -1      2523 4.87008E-03-2.02125E-04-9.33050E-15
 -1      2524 1.82559E-03 6.65549E-04-1.59134E-15
 -1      2525 1.66440E-03 6.12332E-04-1.29931E-15
 -1      2526 1.88811E-03 6.48806E-04-1.80428E-15
 -1      2527 1.49490E-02-2.34717E-03-1.21431E-13
 -1      2528 5.35163E-03-3.50309E-04-1.01622E-14
 -1      2529 5.30378E-03-3.58857E-04-9.94126E-15
 -1      2530 5.02636E-03-2.55045E-04-9.54403E-15
 -1      2531 5.15563E-03-2.90683E-04-9.74120E-15
 -1      2532 6.76913E-04-1.86249E-04-2.89387E-16
 -1      2533 9.11888E-04-2.72372E-04-4.63469E-16
 -1      2534 9.49816E-04-2.59532E-04-5.67946E-16
 -1      2535 6.37899E-04-1.49227E-04-3.07981E-16
 -1      2536 5.22502E-03-3.80859E-04-9.77483E-15
 -1      2537 5.11182E-03-4.12533E-04-9.61196E-15
 -1      2538 5.27817E-03-3.73772E-04-1.03073E-14
 -1      2539 3.22266E-03 6.39335E-04-5.71852E-15
 -1      2540 3.37819E-03 5.74681E-04-6.15651E-15
 -1      2541 3.83109E-04-4.67908E-05-3.57339E-16
 -1      2542 3.83320E-04-4.21902E-05-3.57082E-16
 -1      2543 4.59648E-04-5.16314E-05-4.81860E-16
 -1      2544 4.58527E-04-5.88214E-05-4.80003E-16
 -1      2545 2.87607E-03 6.78116E-04-4.71468E-15
 -1      2546 3.02951E-03 6.80382E-04-5.15863E-15
 -1      2547 1.10092E-03-9.54535E-05-2.09655E-15
 -1      2548 1.24128E-03-5.42463E-05-2.22394E-15
 -1      2549 2.57531E-03 5.94150E-04-3.95766E-15
 -1      2550 2.70161E-03 6.43576E-04-4.25688E-15
 -1      2551 2.20104E-03 4.02296E-04-3.25861E-15
 -1      2552 2.39430E-03 5.08935E-04-3.59893E-15
 -1      2553 2.45905E-03 5.50390E-04-3.65002E-15
 -1      2554 1.83291E-03 2.02750E-04-2.76374E-15
 -1      2555 1.99217E-03 2.89065E-04-2.95876E-15
 -1      2556 3.09300E-03-1.24295E-03-4.89181E-15
 -1      2557 2.95237E-03-1.20069E-03-4.50426E-15
 -1      2558 1.41640E-03 1.09272E-05-2.37859E-15
 -1      2559 1.62019E-03 9.91420E-05-2.55754E-15
 -1      2560 8.67344E-04-1.41863E-04-1.92183E-15
 -1      2561 9.51624E-04-1.30604E-04-1.96419E-15
 -1      2562 8.12496E-04-1.46467E-04-1.89502E-15
 -1      2563 8.21509E-04-1.48129E-04-1.90858E-15
 -1      2564 8.99235E-04-1.52914E-04-1.89204E-15
 -1      2565 8.37896E-04-1.48308E-04-1.87865E-15
 -1      2566 1.56415E-03-3.90709E-04-2.42335E-15
 -1      2567 1.40540E-03-3.18169E-04-2.29187E-15
 -1      2568 1.98771E-03-6.25701E-04-2.84724E-15
 -1      2569 1.77198E-03-5.00221E-04-2.62861E-15
 -1      2570 1.66938E-03-4.37248E-04-2.39374E-15
 -1      2571 2.36738E-03-8.68885E-04-3.34001E-15
 -1      2572 2.21177E-03-7.64969E-04-3.11276E-15
 -1      2573 2.74370E-03-1.10379E-03-4.02464E-15
 -1      2574 2.55842E-03-9.90628E-04-3.66309E-15
 -1      2575 3.38562E-03-1.23715E-03-5.74497E-15
 -1      2576 3.24103E-03-1.25556E-03-5.30852E-15
 -1      2577 3.17742E-03-1.26012E-03-5.09914E-15
 -1      2578 3.76622E-03-1.08104E-03-6.83934E-15
 -1      2579 3.58956E-03-1.17056E-03-6.34654E-15
 -1      2580 4.16539E-03-8.56073E-04-7.83816E-15
 -1      2581 3.98291E-03-9.63566E-04-7.41638E-15
 -1      2582 4.52013E-03-6.62954E-04-8.61938E-15
 -1      2583 4.34073E-03-7.57533E-04-8.22405E-15
 -1      2584 4.26086E-03-8.17871E-04-8.30020E-15
 -1      2585 4.94751E-03-4.70811E-04-9.33793E-15
 -1      2586 4.76599E-03-5.45045E-04-9.05011E-15
 -1      2587 3.56518E-03 4.80811E-04-6.65126E-15
 -1      2588 3.71865E-03 3.90303E-04-7.03834E-15
 -1      2589 3.80553E-03 3.36748E-04-7.44073E-15
 -1      2590 8.71424E-04 3.48544E-04-3.29299E-16
 -1      2591 7.02049E-04 2.87251E-04-2.15472E-16
 -1      2592 6.66981E-04 2.53883E-04-2.22682E-16
 -1      2593 9.29133E-04 3.36100E-04-4.30564E-16
 -1      2594 4.27299E-03 7.00588E-05-8.28623E-15
 -1      2595 4.48816E-03-4.07979E-05-8.70818E-15
 -1      2596 3.03774E-03 6.85982E-04-5.21320E-15
 -1      2597 3.12314E-03 6.69438E-04-5.46335E-15
 -1      2598 3.20986E-03 6.46607E-04-5.77506E-15
 -1      2599 5.78419E-04-7.03526E-05-4.68131E-16
 -1      2600 4.96029E-04-5.60934E-05-3.42283E-16
 -1      2601 5.31159E-04-7.36339E-05-3.34531E-16
 -1      2602 1.55965E-03 5.40777E-04-1.21432E-15
 -1      2603 6.45193E-04 2.14315E-04-2.48133E-16
 -1      2604 4.16787E-03 1.24475E-04-8.31762E-15
 -1      2605 3.47697E-03 5.26388E-04-6.52923E-15
 -1      2606 4.65384E-03-6.03132E-04-9.13317E-15
 -1      2607 4.56338E-03-6.67469E-04-9.21157E-15
 -1      2608 4.78118E-03-5.59880E-04-9.65940E-15
 -1      2609 1.43068E-02-1.29271E-03-1.17537E-13
 -1      2610 4.59865E-03-9.53834E-05-9.19088E-15
 -1      2611 1.43091E-02-1.32321E-03-1.17431E-13
 -1      2612 3.50100E-03-1.21375E-03-6.11585E-15
 -1      2613 5.36811E-03-3.48194E-04-1.09241E-14
 -1      2614 5.36980E-03-3.47557E-04-1.05417E-14
 -1      2615 5.37957E-03-3.56258E-04-1.08589E-14
 -1      2616 5.22799E-03-3.16156E-04-1.03181E-14
 -1      2617 4.96310E-03-2.40083E-04-9.81254E-15
 -1      2618 2.85032E-03-1.15860E-03-4.20126E-15
 -1      2619 2.08355E-03-6.80584E-04-2.84505E-15
 -1      2620 7.72574E-04 2.39699E-04-3.60999E-16
 -1      2621 9.51608E-04-1.57782E-04-1.84845E-15
 -1      2622 8.81575E-04-1.39000E-04-1.67868E-15
 -1      2623 1.01169E-03-1.66788E-04-1.80517E-15
 -1      2624 8.08148E-04-1.38378E-04-1.73850E-15
 -1      2625 8.28988E-04-1.39912E-04-1.76726E-15
 -1      2626 1.32833E-03-2.06752E-05-2.17949E-15
 -1      2627 2.09619E-03 3.54017E-04-3.00983E-15
 -1      2628 1.28525E-03-2.62134E-04-2.09135E-15
 -1      2629 5.99730E-04-1.17513E-04-3.22469E-16
 -1      2630 1.00740E-03-1.16710E-04-1.90263E-15
 -1      2631 1.06343E-03-9.76404E-05-1.84131E-15
 -1      2632 9.27535E-04-1.22945E-04-1.71913E-15
 -1      2633 5.04726E-03-4.41578E-04-9.85603E-15
 -1      2634 2.78370E-03 6.69409E-04-4.44984E-15
 -1      2635 1.70088E-03 1.42183E-04-2.52428E-15
 -1      2636 2.47382E-03-9.36129E-04-3.41638E-15
 -1      2637 1.48085E-02-2.33786E-03-1.19351E-13
 -1      2638 1.48253E-02-2.29227E-03-1.19886E-13
 -1      2639 1.46900E-02-2.25083E-03-1.18090E-13
 -1      2640 1.46796E-02-2.31512E-03-1.17539E-13
 -1      2641 1.41970E-02-1.32392E-03-1.15815E-13
 -1      2642 3.89444E-03-1.02658E-03-7.31289E-15
 -1      2643 1.45878E-02-2.26624E-03-1.16450E-13
 -1      2644 6.78532E-04-1.93462E-05-6.07248E-16
 -1      2645 6.37730E-04-4.14851E-05-6.12290E-16
 -1      2646 5.97454E-04-5.77101E-05-6.15786E-16
 -1      2647 5.62853E-04-6.70204E-05-6.18537E-16
 -1      2648 7.08573E-04-5.35381E-05-7.74595E-16
 -1      2649 8.25199E-04 1.19204E-04-5.72621E-16
 -1      2650 7.94450E-04 7.96406E-05-5.85239E-16
 -1      2651 8.77480E-04 2.03823E-04-5.38428E-16
 -1      2652 8.52585E-04 1.60970E-04-5.57266E-16
 -1      2653 9.75222E-04 1.71684E-04-7.22675E-16
 -1      2654 1.28665E-03 4.13050E-04-8.91932E-16
 -1      2655 1.11959E-03 3.59245E-04-6.86896E-16
 -1      2656 5.33423E-03-3.75449E-04-1.09235E-14
 -1      2657 5.26183E-03-3.90750E-04-1.07505E-14
 -1      2658 3.40446E-03 5.68059E-04-6.41318E-15
 -1      2659 3.56704E-03 4.79922E-04-6.91877E-15
 -1      2660 1.49210E-03-4.41708E-04-1.34821E-15
 -1      2661 1.67589E-03-5.23591E-04-1.63899E-15
 -1      2662 1.86830E-03-6.16228E-04-1.96151E-15
 -1      2663 2.06503E-03-7.21559E-04-2.31640E-15
 -1      2664 1.69517E-03-5.02180E-04-1.81559E-15
 -1      2665 2.63626E-03-1.05348E-03-3.54701E-15
 -1      2666 2.83437E-03-1.15831E-03-4.04574E-15
 -1      2667 3.01081E-03-1.23748E-03-4.52461E-15
 -1      2668 3.19666E-03-1.27488E-03-5.10196E-15
 -1      2669 3.49191E-03-1.23723E-03-6.12078E-15
 -1      2670 3.68802E-03-1.17427E-03-6.80239E-15
 -1      2671 3.88830E-03-1.09278E-03-7.52150E-15
 -1      2672 4.20584E-03-9.70432E-04-8.74409E-15
 -1      2673 4.40416E-03-8.96835E-04-9.55133E-15
 -1      2674 4.59901E-03-8.38337E-04-1.03878E-14
 -1      2675 4.78434E-03-7.91687E-04-1.12528E-14
 -1      2676 4.55277E-03-7.95748E-04-9.98802E-15
 -1      2677 4.96368E-03-7.58737E-04-1.21458E-14
 -1      2678 5.13516E-03-7.36166E-04-1.30629E-14
 -1      2679 4.92359E-03-7.11599E-04-1.17206E-14
 -1      2680 5.30116E-03-7.24096E-04-1.40061E-14
 -1      2681 5.46183E-03-7.19489E-04-1.49747E-14
 -1      2682 5.25946E-03-6.76936E-04-1.35585E-14
 -1      2683 5.61867E-03-7.22131E-04-1.59667E-14
 -1      2684 5.77236E-03-7.30059E-04-1.69822E-14
 -1      2685 5.57112E-03-6.75845E-04-1.54941E-14
 -1      2686 5.92370E-03-7.42781E-04-1.80212E-14
 -1      2687 6.07331E-03-7.59150E-04-1.90830E-14
 -1      2688 5.86870E-03-6.96729E-04-1.75249E-14
 -1      2689 6.22156E-03-7.78604E-04-2.01681E-14
 -1      2690 6.36891E-03-8.00467E-04-2.12749E-14
 -1      2691 6.15912E-03-7.32096E-04-1.96466E-14
 -1      2692 6.51545E-03-8.24224E-04-2.24042E-14
 -1      2693 6.66154E-03-8.49470E-04-2.35566E-14
 -1      2694 6.44635E-03-7.76940E-04-2.18592E-14
 -1      2695 6.80712E-03-8.75793E-04-2.47305E-14
 -1      2696 6.95244E-03-9.02942E-04-2.59277E-14
 -1      2697 6.73239E-03-8.27711E-04-2.41603E-14
 -1      2698 7.09743E-03-9.30616E-04-2.71472E-14
 -1      2699 7.24225E-03-9.58661E-04-2.83873E-14
 -1      2700 7.01816E-03-8.81872E-04-2.65509E-14
 -1      2701 7.38681E-03-9.86873E-04-2.96499E-14
 -1      2702 7.53125E-03-1.01516E-03-3.09368E-14
 -1      2703 7.30399E-03-9.37655E-04-2.90312E-14
 -1      2704 7.67549E-03-1.04338E-03-3.22446E-14
 -1      2705 7.81962E-03-1.07150E-03-3.35745E-14
 -1      2706 7.58996E-03-9.93870E-04-3.15991E-14
 -1      2707 7.96358E-03-1.09943E-03-3.49268E-14
 -1      2708 8.10745E-03-1.12714E-03-3.62994E-14
 -1      2709 7.87603E-03-1.04977E-03-3.42569E-14
 -1      2710 8.25117E-03-1.15461E-03-3.76956E-14
 -1      2711 8.39482E-03-1.18182E-03-3.91136E-14
 -1      2712 8.16215E-03-1.10491E-03-3.70021E-14
 -1      2713 8.53834E-03-1.20876E-03-4.05543E-14
 -1      2714 8.68180E-03-1.23542E-03-4.20147E-14
 -1      2715 8.44826E-03-1.15908E-03-3.98340E-14
 -1      2716 8.82517E-03-1.26182E-03-4.34972E-14
 -1      2717 8.96847E-03-1.28796E-03-4.49996E-14
 -1      2718 8.73435E-03-1.21222E-03-4.27532E-14
 -1      2719 9.11170E-03-1.31385E-03-4.65236E-14
 -1      2720 9.25489E-03-1.33951E-03-4.80699E-14
 -1      2721 9.02038E-03-1.26434E-03-4.57572E-14
 -1      2722 9.39801E-03-1.36495E-03-4.96357E-14
 -1      2723 9.54110E-03-1.39017E-03-5.12235E-14
 -1      2724 9.30636E-03-1.31553E-03-4.88429E-14
 -1      2725 9.68414E-03-1.41521E-03-5.28325E-14
 -1      2726 9.82716E-03-1.44008E-03-5.44606E-14
 -1      2727 9.59229E-03-1.36589E-03-5.20153E-14
 -1      2728 9.97014E-03-1.46478E-03-5.61059E-14
 -1      2729 1.01131E-02-1.48934E-03-5.77696E-14
 -1      2730 9.87817E-03-1.41554E-03-5.52665E-14
 -1      2731 1.02560E-02-1.51376E-03-5.94528E-14
 -1      2732 1.03990E-02-1.53807E-03-6.11531E-14
 -1      2733 1.01640E-02-1.46460E-03-5.85911E-14
 -1      2734 1.05419E-02-1.56227E-03-6.28718E-14
 -1      2735 1.06848E-02-1.58638E-03-6.46054E-14
 -1      2736 1.04498E-02-1.51317E-03-6.19886E-14
 -1      2737 1.08276E-02-1.61040E-03-6.63546E-14
 -1      2738 1.09705E-02-1.63434E-03-6.81199E-14
 -1      2739 1.07356E-02-1.56135E-03-6.54528E-14
 -1      2740 1.11134E-02-1.65823E-03-6.98994E-14
 -1      2741 1.12562E-02-1.68205E-03-7.16945E-14
 -1      2742 1.10213E-02-1.60923E-03-6.89777E-14
 -1      2743 1.13991E-02-1.70582E-03-7.35023E-14
 -1      2744 1.15419E-02-1.72955E-03-7.53249E-14
 -1      2745 1.13071E-02-1.65686E-03-7.25619E-14
 -1      2746 1.16848E-02-1.75325E-03-7.71624E-14
 -1      2747 1.18276E-02-1.77691E-03-7.90120E-14
 -1      2748 1.15928E-02-1.70431E-03-7.62053E-14
 -1      2749 1.19705E-02-1.80054E-03-8.08714E-14
 -1      2750 1.21133E-02-1.82415E-03-8.27429E-14
 -1      2751 1.18785E-02-1.75162E-03-7.99001E-14
 -1      2752 1.22562E-02-1.84774E-03-8.46303E-14
 -1      2753 1.23990E-02-1.87131E-03-8.65302E-14
 -1      2754 1.21643E-02-1.79884E-03-8.36442E-14
 -1      2755 1.25419E-02-1.89487E-03-8.84382E-14
 -1      2756 1.26847E-02-1.91842E-03-9.03588E-14
 -1      2757 1.24500E-02-1.84598E-03-8.74398E-14
 -1      2758 1.28276E-02-1.94196E-03-9.22890E-14
 -1      2759 1.29704E-02-1.96549E-03-9.42276E-14
 -1      2760 1.27357E-02-1.89307E-03-9.12738E-14
 -1      2761 1.31133E-02-1.98901E-03-9.61793E-14
 -1      2762 1.32561E-02-2.01253E-03-9.81372E-14
 -1      2763 1.30214E-02-1.94013E-03-9.51526E-14
 -1      2764 1.33990E-02-2.03605E-03-1.00104E-13
 -1      2765 1.35418E-02-2.05956E-03-1.02076E-13
 -1      2766 1.33071E-02-1.98717E-03-9.90633E-14
 -1      2767 1.36847E-02-2.08307E-03-1.04056E-13
 -1      2768 1.38275E-02-2.10659E-03-1.06040E-13
 -1      2769 1.35928E-02-2.03420E-03-1.03005E-13
 -1      2770 1.39704E-02-2.13010E-03-1.08025E-13
 -1      2771 1.41132E-02-2.15361E-03-1.10016E-13
 -1      2772 1.38785E-02-2.08122E-03-1.06966E-13
 -1      2773 1.42561E-02-2.17712E-03-1.12011E-13
 -1      2774 1.43989E-02-2.20063E-03-1.14011E-13
 -1      2775 1.41642E-02-2.12824E-03-1.10940E-13
 -1      2776 2.59800E-03 7.96336E-04-3.67992E-15
 -1      2777 2.44103E-03 7.67757E-04-3.21368E-15
 -1      2778 1.40914E-02-1.35490E-03-1.14151E-13
 -1      2779 1.40541E-02-1.30040E-03-1.13873E-13
 -1      2780 1.39112E-02-1.27687E-03-1.11931E-13
 -1      2781 2.28170E-03 7.28710E-04-2.78213E-15
 -1      2782 2.11960E-03 6.82669E-04-2.38497E-15
 -1      2783 2.35726E-03 7.12661E-04-3.04142E-15
 -1      2784 3.21174E-03 7.76454E-04-5.90242E-15
 -1      2785 3.05776E-03 8.02738E-04-5.29299E-15
 -1      2786 3.52463E-03 6.88564E-04-7.22621E-15
 -1      2787 3.36692E-03 7.37430E-04-6.54675E-15
 -1      2788 3.30194E-03 7.25867E-04-6.28230E-15
 -1      2789 3.84633E-03 5.71442E-04-8.68275E-15
 -1      2790 3.68445E-03 6.32034E-04-7.93826E-15
 -1      2791 3.62427E-03 6.21418E-04-7.64606E-15
 -1      2792 4.17379E-03 4.46743E-04-1.02679E-14
 -1      2793 4.00983E-03 5.08844E-04-9.45991E-15
 -1      2794 3.95581E-03 4.94415E-04-9.14275E-15
 -1      2795 4.50152E-03 3.29550E-04-1.19714E-14
 -1      2796 4.33811E-03 3.86604E-04-1.11049E-14
 -1      2797 4.29063E-03 3.67640E-04-1.07637E-14
 -1      2798 4.82526E-03 2.27055E-04-1.37906E-14
 -1      2799 4.66422E-03 2.76315E-04-1.28670E-14
 -1      2800 4.62203E-03 2.53930E-04-1.25029E-14
 -1      2801 5.14302E-03 1.40701E-04-1.57172E-14
 -1      2802 4.98506E-03 1.81958E-04-1.47410E-14
 -1      2803 4.94609E-03 1.57484E-04-1.43531E-14
 -1      2804 5.45452E-03 6.88277E-05-1.77475E-14
 -1      2805 5.29959E-03 1.03152E-04-1.67192E-14
 -1      2806 5.26180E-03 7.75216E-05-1.63085E-14
 -1      2807 5.76045E-03 8.52620E-06-1.98755E-14
 -1      2808 5.60816E-03 3.74386E-05-1.87995E-14
 -1      2809 5.56996E-03 1.11736E-05-1.83650E-14
 -1      2810 6.06182E-03-4.32566E-05-2.20990E-14
 -1      2811 5.91166E-03-1.82465E-05-2.09754E-14
 -1      2812 5.87207E-03-4.48803E-05-2.05186E-14
 -1      2813 6.35956E-03-8.92321E-05-2.44168E-14
 -1      2814 6.21109E-03-6.68231E-05-2.32466E-14
 -1      2815 6.16965E-03-9.36733E-05-2.27671E-14
 -1      2816 6.65448E-03-1.31589E-04-2.68216E-14
 -1      2817 6.50732E-03-1.10752E-04-2.56074E-14
 -1      2818 6.46392E-03-1.37711E-04-2.51073E-14
 -1      2819 6.94720E-03-1.71979E-04-2.93178E-14
 -1      2820 6.80107E-03-1.51950E-04-2.80599E-14
 -1      2821 6.75585E-03-1.78931E-04-2.75363E-14
 -1      2822 7.23823E-03-2.11576E-04-3.18996E-14
 -1      2823 7.09289E-03-1.91822E-04-3.05970E-14
 -1      2824 7.04609E-03-2.18753E-04-3.00533E-14
 -1      2825 7.52794E-03-2.51163E-04-3.45719E-14
 -1      2826 7.38322E-03-2.31336E-04-3.32251E-14
 -1      2827 7.33512E-03-2.58163E-04-3.26575E-14
 -1      2828 7.81661E-03-2.91226E-04-3.73302E-14
 -1      2829 7.67238E-03-2.71114E-04-3.59400E-14
 -1      2830 7.62326E-03-2.97802E-04-3.53501E-14
 -1      2831 8.10449E-03-3.32029E-04-4.01824E-14
 -1      2832 7.96063E-03-3.11524E-04-3.87444E-14
 -1      2833 7.91075E-03-3.38052E-04-3.81325E-14
 -1      2834 8.39177E-03-3.73687E-04-4.31215E-14
 -1      2835 8.24819E-03-3.52748E-04-4.16418E-14
 -1      2836 8.19775E-03-3.79110E-04-4.10050E-14
 -1      2837 8.67858E-03-4.16211E-04-4.61460E-14
 -1      2838 8.53522E-03-3.94841E-04-4.46228E-14
 -1      2839 8.48440E-03-4.21042E-04-4.39664E-14
 -1      2840 8.96504E-03-4.59552E-04-4.92548E-14
 -1      2841 8.82184E-03-4.37783E-04-4.76907E-14
 -1      2842 8.77077E-03-4.63834E-04-4.70109E-14
 -1      2843 9.25125E-03-5.03627E-04-5.24384E-14
 -1      2844 9.10817E-03-4.81503E-04-5.08365E-14
 -1      2845 9.05694E-03-5.07420E-04-5.01365E-14
 -1      2846 9.53727E-03-5.48337E-04-5.56961E-14
 -1      2847 9.39427E-03-5.25908E-04-5.40588E-14
 -1      2848 9.34296E-03-5.51708E-04-5.33403E-14
 -1      2849 9.82315E-03-5.93582E-04-5.90226E-14
 -1      2850 9.68022E-03-5.70898E-04-5.73523E-14
 -1      2851 9.62887E-03-5.96600E-04-5.66156E-14
 -1      2852 1.01090E-02-6.39265E-04-6.24114E-14
 -1      2853 9.96606E-03-6.16373E-04-6.07088E-14
 -1      2854 9.91471E-03-6.41993E-04-5.99559E-14
 -1      2855 1.03947E-02-6.85300E-04-6.58650E-14
 -1      2856 1.02518E-02-6.62243E-04-6.41308E-14
 -1      2857 1.02005E-02-6.87796E-04-6.33619E-14
 -1      2858 1.06804E-02-7.31613E-04-6.93790E-14
 -1      2859 1.05375E-02-7.08425E-04-6.76160E-14
 -1      2860 1.04862E-02-7.33926E-04-6.68299E-14
 -1      2861 1.09661E-02-7.78140E-04-7.29490E-14
 -1      2862 1.08232E-02-7.54853E-04-7.11556E-14
 -1      2863 1.07720E-02-7.80312E-04-7.03577E-14
 -1      2864 1.12517E-02-8.24829E-04-7.65746E-14
 -1      2865 1.11089E-02-8.01467E-04-7.47562E-14
 -1      2866 1.10577E-02-8.26895E-04-7.39420E-14
 -1      2867 1.15374E-02-8.71639E-04-8.02539E-14
 -1      2868 1.13946E-02-8.48221E-04-7.84084E-14
 -1      2869 1.13434E-02-8.73625E-04-7.75812E-14
 -1      2870 1.18231E-02-9.18536E-04-8.39825E-14
 -1      2871 1.16802E-02-8.95078E-04-8.21121E-14
 -1      2872 1.16291E-02-9.20465E-04-8.12732E-14
 -1      2873 1.21087E-02-9.65495E-04-8.77502E-14
 -1      2874 1.19659E-02-9.42009E-04-8.58620E-14
 -1      2875 1.19147E-02-9.67383E-04-8.50122E-14
 -1      2876 1.23944E-02-1.01250E-03-9.15513E-14
 -1      2877 1.22516E-02-9.88991E-04-8.96470E-14
 -1      2878 1.22004E-02-1.01436E-03-8.87897E-14
 -1      2879 1.26801E-02-1.05952E-03-9.53785E-14
 -1      2880 1.25373E-02-1.03601E-03-9.34624E-14
 -1      2881 1.24861E-02-1.06137E-03-9.26005E-14
 -1      2882 1.29658E-02-1.10657E-03-9.92193E-14
 -1      2883 1.28229E-02-1.08305E-03-9.72986E-14
 -1      2884 1.27718E-02-1.10840E-03-9.64351E-14
 -1      2885 1.32515E-02-1.15362E-03-1.03071E-13
 -1      2886 1.31086E-02-1.13010E-03-1.01143E-13
 -1      2887 1.30575E-02-1.15545E-03-1.00283E-13
 -1      2888 1.35372E-02-1.20068E-03-1.06931E-13
 -1      2889 1.33943E-02-1.17715E-03-1.05001E-13
 -1      2890 1.33432E-02-1.20250E-03-1.04141E-13
 -1      2891 1.37956E-02-1.25054E-03-1.10394E-13
 -1      2892 1.36528E-02-1.22701E-03-1.08459E-13
 -1      2893 1.36017E-02-1.25237E-03-1.07602E-13
 -1      2894 1.38329E-02-1.30504E-03-1.10669E-13
 -1      2895 4.52287E-03-5.57091E-05-9.47782E-15
 -1      2896 4.72242E-03-1.46543E-04-9.88874E-15
 -1      2897 1.43293E-02-1.75711E-03-1.15574E-13
 -1      2898 1.43062E-02-1.71495E-03-1.15462E-13
 -1      2899 1.42368E-02-1.58847E-03-1.15109E-13
 -1      2900 1.42137E-02-1.54631E-03-1.14984E-13
 -1      2901 1.43755E-02-1.84143E-03-1.15793E-13
 -1      2902 1.43524E-02-1.79927E-03-1.15685E-13
 -1      2903 1.42171E-02-1.75782E-03-1.13919E-13
 -1      2904 1.42830E-02-1.67279E-03-1.15346E-13
 -1      2905 1.42599E-02-1.63063E-03-1.15229E-13
 -1      2906 1.41247E-02-1.58918E-03-1.13469E-13
 -1      2907 1.41709E-02-1.67350E-03-1.13699E-13
 -1      2908 1.44210E-02-1.92432E-03-1.15998E-13
 -1      2909 1.43983E-02-1.88287E-03-1.15896E-13
 -1      2910 1.42630E-02-1.84143E-03-1.14129E-13
 -1      2911 1.44673E-02-2.00863E-03-1.16200E-13
 -1      2912 1.44442E-02-1.96648E-03-1.16100E-13
 -1      2913 1.43089E-02-1.92503E-03-1.14331E-13
 -1      2914 1.45136E-02-2.09294E-03-1.16395E-13
 -1      2915 1.44905E-02-2.05079E-03-1.16298E-13
 -1      2916 1.43552E-02-2.00935E-03-1.14525E-13
 -1      2917 9.01368E-04 2.75907E-04-4.80342E-16
 -1      2918 5.17555E-03-3.05446E-04-1.06056E-14
 -1      2919 5.28467E-03-3.29452E-04-1.08979E-14
 -1      2920 4.91952E-03-2.25920E-04-1.01522E-14
 -1      2921 5.05779E-03-2.71343E-04-1.03766E-14
 -1      2922 5.14239E-03-2.91706E-04-1.09532E-14
 -1      2923 8.50892E-04-2.01265E-04-5.38754E-16
 -1      2924 1.00742E-03-2.57382E-04-6.98579E-16
 -1      2925 1.33719E-03-2.75511E-04-1.95825E-15
 -1      2926 1.16749E-03-2.11891E-04-1.85748E-15
 -1      2927 7.92566E-04-1.24330E-04-1.54255E-15
 -1      2928 7.76491E-04-1.29103E-04-1.55950E-15
 -1      2929 1.95521E-03 6.31370E-04-2.02149E-15
 -1      2930 1.78922E-03 5.77600E-04-1.69183E-15
 -1      2931 2.02567E-03 6.14415E-04-2.24334E-15
 -1      2932 2.90551E-03 8.14902E-04-4.71936E-15
 -1      2933 2.75194E-03 8.12581E-04-4.18192E-15
 -1      2934 2.67742E-03 7.76006E-04-3.97799E-15
 -1      2935 2.98876E-03 7.82194E-04-5.05799E-15
 -1      2936 1.15853E-03-3.10973E-04-8.81741E-16
 -1      2937 1.32981E-03-3.75618E-04-1.11512E-15
 -1      2938 1.34813E-03-3.54626E-04-1.26299E-15
 -1      2939 1.04597E-03-2.45081E-04-8.39484E-16
 -1      2940 4.08792E-03 1.77998E-04-8.44745E-15
 -1      2941 4.28404E-03 6.65836E-05-8.93014E-15
 -1      2942 1.62190E-03 5.22487E-04-1.39423E-15
 -1      2943 1.45434E-03 4.67518E-04-1.12743E-15
 -1      2944 1.34792E-03 3.94102E-04-1.04001E-15
 -1      2945 1.68700E-03 5.03556E-04-1.57838E-15
 -1      2946 7.59634E-04 4.23508E-05-5.95349E-16
 -1      2947 7.21439E-04 9.14428E-06-6.03535E-16
 -1      2948 9.04558E-04 8.11378E-05-7.51352E-16
 -1      2949 5.67067E-04-6.32311E-05-6.24677E-16
 -1      2950 6.06119E-04-6.97041E-05-6.20543E-16
 -1      2951 1.98000E-03 3.04008E-04-2.73914E-15
 -1      2952 2.16291E-03 4.07566E-04-3.02178E-15
 -1      2953 2.35278E-03 5.09482E-04-3.36692E-15
 -1      2954 2.51005E-03 5.89483E-04-3.70767E-15
 -1      2955 2.16424E-03-7.34804E-04-2.82216E-15
 -1      2956 1.96531E-03-6.05692E-04-2.57617E-15
 -1      2957 1.57260E-03 9.07511E-05-2.27131E-15
 -1      2958 1.75817E-03 1.84933E-04-2.45915E-15
 -1      2959 5.14522E-03-4.23344E-04-1.04593E-14
 -1      2960 5.00082E-03-4.71660E-04-1.01727E-14
 -1      2961 5.23229E-03-4.17517E-04-1.10756E-14
 -1      2962 1.23602E-03-4.49278E-05-1.96663E-15
 -1      2963 1.39363E-03 1.22010E-05-2.10870E-15
 -1      2964 7.86943E-04-1.30569E-04-1.56894E-15
 -1      2965 8.24791E-04-1.31205E-04-1.57972E-15
 -1      2966 7.49136E-04-1.19355E-04-1.38085E-15
 -1      2967 6.57943E-04-1.19089E-04-4.15534E-16
 -1      2968 1.75774E-03-4.83486E-04-2.34676E-15
 -1      2969 1.56992E-03-3.83643E-04-2.15801E-15
 -1      2970 1.45930E-02-2.23410E-03-1.16729E-13
 -1      2971 1.45982E-02-2.20195E-03-1.17003E-13
 -1      2972 1.44959E-02-2.21737E-03-1.15370E-13
 -1      2973 4.37155E-03-7.94300E-04-8.93540E-15
 -1      2974 4.22579E-03-8.80611E-04-8.52991E-15
 -1      2975 2.70883E-03 6.62260E-04-4.21134E-15
 -1      2976 2.86060E-03 6.90314E-04-4.66432E-15
 -1      2977 3.70270E-03 4.02369E-04-7.31556E-15
 -1      2978 3.84536E-03 3.16047E-04-7.72398E-15
 -1      2979 3.62146E-03 4.58617E-04-7.18772E-15
 -1      2980 2.45059E-03-9.51674E-04-3.06371E-15
 -1      2981 2.45693E-03-9.33638E-04-3.25223E-15
 -1      2982 2.28754E-03-8.19002E-04-2.95468E-15
 -1      2983 2.25054E-03-8.32619E-04-2.64213E-15
 -1      2984 6.53963E-04-8.29761E-05-6.15122E-16
 -1      2985 7.06330E-04-1.03647E-04-6.07180E-16
 -1      2986 7.20586E-04-9.49642E-05-7.81791E-16
 -1      2987 6.22201E-04-7.87937E-05-7.81290E-16
 -1      2988 5.36940E-04-6.98801E-05-6.21309E-16
 -1      2989 5.23240E-04-6.88659E-05-6.23376E-16
 -1      2990 2.16029E-03-7.44900E-04-2.67390E-15
 -1      2991 1.45583E-03 5.61589E-05-2.04879E-15
 -1      2992 8.41590E-04-1.23504E-04-1.45709E-15
 -1      2993 8.12184E-04-1.23086E-04-1.49934E-15
 -1      2994 7.56081E-04-1.12652E-04-1.33034E-15
 -1      2995 4.91456E-03-5.21835E-04-1.02546E-14
 -1      2996 4.83850E-03-5.79406E-04-1.03311E-14
 -1      2997 5.03764E-03-4.99502E-04-1.08607E-14
 -1      2998 4.51110E-03-7.40492E-04-9.45216E-15
 -1      2999 2.08003E-03-7.08319E-04-2.46286E-15
 -1      3000 3.32191E-03-1.27785E-03-5.52940E-15
 -1      3001 1.44041E-02-2.16849E-03-1.14291E-13
 -1      3002 4.03268E-03-9.88019E-04-7.90780E-15
 -1      3003 4.84445E-03-1.85910E-04-1.04485E-14
 -1      3004 4.43744E-03 5.04080E-06-9.61021E-15
 -1      3005 1.40786E-02-1.50522E-03-1.13228E-13
 -1      3006 1.41908E-02-1.50451E-03-1.14861E-13
 -1      3007 1.41679E-02-1.46272E-03-1.14735E-13
 -1      3008 1.41143E-02-1.39669E-03-1.14282E-13
 -1      3009 1.42003E-03-3.16597E-04-1.91484E-15
 -1      3010 5.35101E-03-3.44630E-04-1.12160E-14
 -1      3011 5.39988E-03-3.54412E-04-1.15379E-14
 -1      3012 5.32462E-03-3.37454E-04-1.15090E-14
 -1      3013 9.62395E-04 2.60767E-04-5.85957E-16
 -1      3014 1.45750E-02-2.15980E-03-1.16913E-13
 -1      3015 5.39009E-03-3.69371E-04-1.13095E-14
 -1      3016 5.39841E-03-3.85795E-04-1.17635E-14
 -1      3017 5.42720E-03-3.69453E-04-1.16981E-14
 -1      3018 2.60056E-03 6.39621E-04-3.89844E-15
 -1      3019 2.67636E-03 6.76610E-04-4.08969E-15
 -1      3020 2.49342E-03 6.10936E-04-3.59813E-15
 -1      3021 1.05697E-03-1.76574E-04-1.68274E-15
 -1      3022 8.11968E-04 2.47573E-06-7.66707E-16
 -1      3023 7.55518E-04-1.37414E-04-5.57293E-16
 -1      3024 2.22811E-03 4.62354E-04-3.07233E-15
 -1      3025 8.49504E-04-1.23107E-04-1.51996E-15
 -1      3026 8.79667E-04-1.11620E-04-1.46130E-15
 -1      3027 7.82533E-04-1.15834E-04-1.33267E-15
 -1      3028 5.23440E-04-6.53112E-05-6.25083E-16
 -1      3029 5.38008E-04-6.29071E-05-6.25083E-16
 -1      3030 6.22786E-04-7.64303E-05-7.87896E-16
 -1      3031 5.86595E-04-7.93242E-05-7.86243E-16
 -1      3032 1.83705E-03 2.45987E-04-2.46855E-15
 -1      3033 1.01567E-03-8.66778E-05-1.59343E-15
 -1      3034 1.11955E-03-7.21836E-05-1.77457E-15
 -1      3035 1.16858E-03-4.16408E-05-1.70738E-15
 -1      3036 1.84408E-03-5.41590E-04-2.32419E-15
 -1      3037 3.98210E-03 2.52071E-04-8.30836E-15
 -1      3038 3.30540E-03 6.16523E-04-6.13691E-15
 -1      3039 3.39926E-03 5.81827E-04-6.50711E-15
 -1      3040 3.21847E-03 6.53816E-04-5.86583E-15
 -1      3041 1.09189E-03 2.78629E-04-7.60554E-16
 -1      3042 2.94909E-03 6.96974E-04-4.94647E-15
 -1      3043 1.44219E-02-2.14343E-03-1.14712E-13
 -1      3044 1.44958E-02-2.11801E-03-1.15974E-13
 -1      3045 1.43605E-02-2.07657E-03-1.14199E-13
 -1      3046 1.43249E-02-2.12669E-03-1.13358E-13
 -1      3047 1.13149E-03 2.31764E-04-8.91363E-16
 -1      3048 1.09809E-03 1.80536E-04-9.10825E-16
 -1      3049 1.33674E-03 2.60252E-05-1.82435E-15
 -1      3050 1.49395E-03 9.60980E-05-1.97199E-15
 -1      3051 1.05920E-03 1.29296E-04-9.26342E-16
 -1      3052 1.01349E-03 8.03134E-05-9.39055E-16
 -1      3053 1.22096E-03 1.87466E-04-1.12054E-15
 -1      3054 1.69310E-03 1.96444E-04-2.18402E-15
 -1      3055 1.89121E-03 3.04087E-04-2.44207E-15
 -1      3056 4.83449E-03-1.60345E-04-1.09556E-14
 -1      3057 5.00052E-03-2.30959E-04-1.12365E-14
 -1      3058 4.89703E-03-6.61406E-04-1.12965E-14
 -1      3059 5.06673E-03-6.38535E-04-1.21910E-14
 -1      3060 5.22762E-03-6.28410E-04-1.31106E-14
 -1      3061 5.38177E-03-6.25399E-04-1.40547E-14
 -1      3062 5.20603E-03-5.77420E-04-1.26636E-14
 -1      3063 5.53063E-03-6.29747E-04-1.50231E-14
 -1      3064 5.67611E-03-6.38565E-04-1.60150E-14
 -1      3065 5.49754E-03-5.83138E-04-1.45522E-14
 -1      3066 5.81894E-03-6.51767E-04-1.70287E-14
 -1      3067 5.96041E-03-6.68047E-04-1.80662E-14
 -1      3068 5.77443E-03-6.07617E-04-1.65351E-14
 -1      3069 6.10077E-03-6.87108E-04-1.91270E-14
 -1      3070 6.24080E-03-7.08311E-04-2.02097E-14
 -1      3071 6.04634E-03-6.43547E-04-1.86079E-14
 -1      3072 6.38054E-03-7.31285E-04-2.13149E-14
 -1      3073 6.52042E-03-7.55690E-04-2.24426E-14
 -1      3074 6.31782E-03-6.87251E-04-2.07726E-14
 -1      3075 6.66037E-03-7.81171E-04-2.35926E-14
 -1      3076 6.80065E-03-8.07535E-04-2.47640E-14
 -1      3077 6.59087E-03-7.36211E-04-2.30258E-14
 -1      3078 6.94113E-03-8.34485E-04-2.59584E-14
 -1      3079 7.08196E-03-8.61908E-04-2.71742E-14
 -1      3080 6.86617E-03-7.88519E-04-2.53680E-14
 -1      3081 7.22300E-03-8.89575E-04-2.84136E-14
 -1      3082 7.36436E-03-9.17420E-04-2.96741E-14
 -1      3083 7.14373E-03-8.42707E-04-2.77982E-14
 -1      3084 7.50591E-03-9.45281E-04-3.09575E-14
 -1      3085 7.64771E-03-9.73121E-04-3.22632E-14
 -1      3086 7.42326E-03-8.97689E-04-3.03179E-14
 -1      3087 7.78966E-03-1.00084E-03-3.35893E-14
 -1      3088 7.93180E-03-1.02841E-03-3.49387E-14
 -1      3089 7.70442E-03-9.52703E-04-3.29253E-14
 -1      3090 8.07404E-03-1.05577E-03-3.63106E-14
 -1      3091 8.21643E-03-1.08292E-03-3.77025E-14
 -1      3092 7.98684E-03-1.00726E-03-3.56210E-14
 -1      3093 8.35889E-03-1.10984E-03-3.91170E-14
 -1      3094 8.50146E-03-1.13651E-03-4.05532E-14
 -1      3095 8.27023E-03-1.06107E-03-3.84028E-14
 -1      3096 8.64407E-03-1.16293E-03-4.20111E-14
 -1      3097 8.78675E-03-1.18911E-03-4.34909E-14
 -1      3098 8.55433E-03-1.11401E-03-4.12718E-14
 -1      3099 8.92947E-03-1.21506E-03-4.49911E-14
 -1      3100 9.07223E-03-1.24078E-03-4.65121E-14
 -1      3101 8.83896E-03-1.16605E-03-4.42275E-14
 -1      3102 9.21501E-03-1.26628E-03-4.80534E-14
 -1      3103 9.35782E-03-1.29158E-03-4.96158E-14
 -1      3104 9.12396E-03-1.21723E-03-4.72660E-14
 -1      3105 9.50065E-03-1.31669E-03-5.12002E-14
 -1      3106 9.64349E-03-1.34162E-03-5.28058E-14
 -1      3107 9.40923E-03-1.26763E-03-5.03892E-14
 -1      3108 9.78634E-03-1.36639E-03-5.44295E-14
 -1      3109 9.92921E-03-1.39101E-03-5.60715E-14
 -1      3110 9.69468E-03-1.31733E-03-5.35942E-14
 -1      3111 1.00721E-02-1.41549E-03-5.77324E-14
 -1      3112 1.02149E-02-1.43986E-03-5.94119E-14
 -1      3113 9.98025E-03-1.36646E-03-5.68766E-14
 -1      3114 1.03578E-02-1.46411E-03-6.11096E-14
 -1      3115 1.05007E-02-1.48826E-03-6.28235E-14
 -1      3116 1.02659E-02-1.41509E-03-6.02335E-14
 -1      3117 1.06436E-02-1.51233E-03-6.45534E-14
 -1      3118 1.07865E-02-1.53632E-03-6.62974E-14
 -1      3119 1.05516E-02-1.46333E-03-6.36577E-14
 -1      3120 1.09293E-02-1.56023E-03-6.80573E-14
 -1      3121 1.10722E-02-1.58409E-03-6.98344E-14
 -1      3122 1.08374E-02-1.51126E-03-6.71414E-14
 -1      3123 1.12151E-02-1.60789E-03-7.16249E-14
 -1      3124 1.13580E-02-1.63165E-03-7.34290E-14
 -1      3125 1.11231E-02-1.55894E-03-7.06900E-14
 -1      3126 1.15008E-02-1.65537E-03-7.52505E-14
 -1      3127 1.16437E-02-1.67905E-03-7.70853E-14
 -1      3128 1.14089E-02-1.60643E-03-7.42977E-14
 -1      3129 1.17866E-02-1.70270E-03-7.89307E-14
 -1      3130 1.19295E-02-1.72632E-03-8.07894E-14
 -1      3131 1.16946E-02-1.65378E-03-7.79626E-14
 -1      3132 1.20723E-02-1.74993E-03-8.26600E-14
 -1      3133 1.22152E-02-1.77351E-03-8.45446E-14
 -1      3134 1.19804E-02-1.70102E-03-8.16783E-14
 -1      3135 1.23581E-02-1.79708E-03-8.64409E-14
 -1      3136 1.25009E-02-1.82064E-03-8.83483E-14
 -1      3137 1.22662E-02-1.74818E-03-8.54431E-14
 -1      3138 1.26438E-02-1.84418E-03-9.02654E-14
 -1      3139 1.27867E-02-1.86772E-03-9.21911E-14
 -1      3140 1.25519E-02-1.79529E-03-8.92560E-14
 -1      3141 1.29295E-02-1.89125E-03-9.41281E-14
 -1      3142 1.30724E-02-1.91477E-03-9.60734E-14
 -1      3143 1.28377E-02-1.84236E-03-9.31079E-14
 -1      3144 1.32153E-02-1.93829E-03-9.80265E-14
 -1      3145 1.33581E-02-1.96181E-03-9.99873E-14
 -1      3146 1.31234E-02-1.88941E-03-9.69927E-14
 -1      3147 1.35010E-02-1.98532E-03-1.01954E-13
 -1      3148 1.36438E-02-2.00883E-03-1.03928E-13
 -1      3149 1.34091E-02-1.93644E-03-1.00908E-13
 -1      3150 1.37867E-02-2.03234E-03-1.05908E-13
 -1      3151 1.39296E-02-2.05586E-03-1.07888E-13
 -1      3152 1.36949E-02-1.98347E-03-1.04848E-13
 -1      3153 1.40558E-02-2.07952E-03-1.09624E-13
 -1      3154 1.41987E-02-2.10303E-03-1.11614E-13
 -1      3155 1.42165E-02-2.07797E-03-1.12036E-13
 -1      3156 1.39640E-02-2.03064E-03-1.08560E-13
 -1      3157 2.43648E-03 6.98285E-04-3.30340E-15
 -1      3158 2.26935E-03 6.51707E-04-2.86832E-15
 -1      3159 3.72981E-03 5.48019E-04-8.07136E-15
 -1      3160 3.56167E-03 6.12450E-04-7.35212E-15
 -1      3161 3.39682E-03 6.70537E-04-6.66630E-15
 -1      3162 3.23451E-03 7.16576E-04-6.01560E-15
 -1      3163 3.49864E-03 6.07015E-04-7.05555E-15
 -1      3164 4.41281E-03 2.85990E-04-1.12641E-14
 -1      3165 4.24311E-03 3.47126E-04-1.04209E-14
 -1      3166 4.74616E-03 1.78005E-04-1.30369E-14
 -1      3167 4.58095E-03 2.29609E-04-1.21365E-14
 -1      3168 4.54107E-03 2.03561E-04-1.17697E-14
 -1      3169 5.06880E-03 8.89771E-05-1.49176E-14
 -1      3170 4.90899E-03 1.31344E-04-1.39642E-14
 -1      3171 4.87379E-03 1.03414E-04-1.35742E-14
 -1      3172 5.38114E-03 1.60152E-05-1.69021E-14
 -1      3173 5.22623E-03 5.08048E-05-1.58976E-14
 -1      3174 5.19292E-03 2.27490E-05-1.54861E-14
 -1      3175 5.68514E-03-4.47091E-05-1.89851E-14
 -1      3176 5.53408E-03-1.55980E-05-1.79314E-14
 -1      3177 5.50053E-03-4.30983E-05-1.74983E-14
 -1      3178 5.98302E-03-9.66744E-05-2.11639E-14
 -1      3179 5.83473E-03-7.15679E-05-2.00630E-14
 -1      3180 5.79964E-03-9.84629E-05-1.96071E-14
 -1      3181 6.27668E-03-1.42736E-04-2.34378E-14
 -1      3182 6.13028E-03-1.20281E-04-2.22887E-14
 -1      3183 6.09298E-03-1.46732E-04-2.18119E-14
 -1      3184 6.56754E-03-1.85108E-04-2.57996E-14
 -1      3185 6.42238E-03-1.64266E-04-2.46082E-14
 -1      3186 6.38268E-03-1.90452E-04-2.41081E-14
 -1      3187 6.85659E-03-2.25439E-04-2.82526E-14
 -1      3188 6.71224E-03-2.05448E-04-2.70143E-14
 -1      3189 6.67021E-03-2.31498E-04-2.64953E-14
 -1      3190 7.14449E-03-2.64904E-04-3.07895E-14
 -1      3191 7.00064E-03-2.45226E-04-2.95104E-14
 -1      3192 6.95654E-03-2.71214E-04-2.89676E-14
 -1      3193 7.43165E-03-3.04296E-04-3.34166E-14
 -1      3194 7.28813E-03-2.84575E-04-3.20918E-14
 -1      3195 7.24227E-03-3.10532E-04-3.15283E-14
 -1      3196 7.71835E-03-3.44119E-04-3.61304E-14
 -1      3197 7.57504E-03-3.24134E-04-3.47628E-14
 -1      3198 7.52773E-03-3.50067E-04-3.41754E-14
 -1      3199 8.00475E-03-3.84658E-04-3.89348E-14
 -1      3200 7.86157E-03-3.64289E-04-3.75211E-14
 -1      3201 7.81312E-03-3.90192E-04-3.69115E-14
 -1      3202 8.29094E-03-4.26045E-04-4.18299E-14
 -1      3203 8.14786E-03-4.05243E-04-4.03714E-14
 -1      3204 8.09853E-03-4.31106E-04-3.97392E-14
 -1      3205 8.57700E-03-4.68307E-04-4.48097E-14
 -1      3206 8.43398E-03-4.47068E-04-4.33094E-14
 -1      3207 8.38400E-03-4.72883E-04-4.26549E-14
 -1      3208 8.86297E-03-5.11405E-04-4.78760E-14
 -1      3209 8.71999E-03-4.89756E-04-4.63321E-14
 -1      3210 8.66954E-03-5.15517E-04-4.56566E-14
 -1      3211 9.14887E-03-5.55262E-04-5.10204E-14
 -1      3212 9.00592E-03-5.33244E-04-4.94392E-14
 -1      3213 8.95514E-03-5.58950E-04-4.87413E-14
 -1      3214 9.43471E-03-5.99783E-04-5.42432E-14
 -1      3215 9.29179E-03-5.77445E-04-5.26221E-14
 -1      3216 9.24079E-03-6.03097E-04-5.19063E-14
 -1      3217 9.72052E-03-6.44866E-04-5.75338E-14
 -1      3218 9.57762E-03-6.22260E-04-5.58791E-14
 -1      3219 9.52648E-03-6.47861E-04-5.51463E-14
 -1      3220 1.00063E-02-6.90415E-04-6.08912E-14
 -1      3221 9.86342E-03-6.67588E-04-5.92051E-14
 -1      3222 9.81220E-03-6.93143E-04-5.84531E-14
 -1      3223 1.02921E-02-7.36342E-04-6.43116E-14
 -1      3224 1.01492E-02-7.13336E-04-6.25930E-14
 -1      3225 1.00979E-02-7.38851E-04-6.18265E-14
 -1      3226 1.05778E-02-7.82567E-04-6.77954E-14
 -1      3227 1.04349E-02-7.59421E-04-6.60459E-14
 -1      3228 1.03837E-02-7.84902E-04-6.52628E-14
 -1      3229 1.08636E-02-8.29026E-04-7.13356E-14
 -1      3230 1.07207E-02-8.05771E-04-6.95593E-14
 -1      3231 1.06694E-02-8.31223E-04-6.87605E-14
 -1      3232 1.11493E-02-8.75662E-04-7.49366E-14
 -1      3233 1.10064E-02-8.52325E-04-7.31287E-14
 -1      3234 1.09552E-02-8.77753E-04-7.23182E-14
 -1      3235 1.14350E-02-9.22433E-04-7.85892E-14
 -1      3236 1.12921E-02-8.99033E-04-7.67553E-14
 -1      3237 1.12409E-02-9.24442E-04-7.59316E-14
 -1      3238 1.17207E-02-9.69300E-04-8.22923E-14
 -1      3239 1.15779E-02-9.45856E-04-8.04339E-14
 -1      3240 1.15267E-02-9.71250E-04-7.95976E-14
 -1      3241 1.20064E-02-1.01624E-03-8.60432E-14
 -1      3242 1.18636E-02-9.92762E-04-8.41639E-14
 -1      3243 1.18124E-02-1.01814E-03-8.33138E-14
 -1      3244 1.22922E-02-1.06322E-03-8.98318E-14
 -1      3245 1.21493E-02-1.03973E-03-8.79336E-14
 -1      3246 1.20981E-02-1.06510E-03-8.70765E-14
 -1      3247 1.25779E-02-1.11024E-03-9.36520E-14
 -1      3248 1.24350E-02-1.08673E-03-9.17374E-14
 -1      3249 1.23839E-02-1.11210E-03-9.08754E-14
 -1      3250 1.28636E-02-1.15728E-03-9.74922E-14
 -1      3251 1.27207E-02-1.13376E-03-9.55700E-14
 -1      3252 1.26696E-02-1.15912E-03-9.47034E-14
 -1      3253 1.31493E-02-1.20433E-03-1.01347E-13
 -1      3254 1.30064E-02-1.18081E-03-9.94197E-14
 -1      3255 1.29553E-02-1.20617E-03-9.85522E-14
 -1      3256 1.34350E-02-1.25139E-03-1.05214E-13
 -1      3257 1.32921E-02-1.22786E-03-1.03279E-13
 -1      3258 1.32410E-02-1.25322E-03-1.02418E-13
 -1      3259 1.41506E-02-1.84178E-03-1.12468E-13
 -1      3260 1.41279E-02-1.80034E-03-1.12367E-13
 -1      3261 1.41048E-02-1.75817E-03-1.12263E-13
 -1      3262 1.40816E-02-1.71601E-03-1.12157E-13
 -1      3263 1.39924E-02-1.75853E-03-1.10610E-13
 -1      3264 3.58229E-03 4.95642E-04-7.16557E-15
 -1      3265 3.70377E-03 4.26254E-04-7.56983E-15
 -1      3266 7.10088E-04-1.07069E-04-1.20516E-15
 -1      3267 7.19501E-04-1.11093E-04-1.21359E-15
 -1      3268 2.09910E-03 5.97801E-04-2.46808E-15
 -1      3269 1.92708E-03 5.41059E-04-2.10151E-15
 -1      3270 2.17394E-03 5.83365E-04-2.69617E-15
 -1      3271 5.11588E-03-2.72175E-04-1.14765E-14
 -1      3272 5.22160E-03-3.03352E-04-1.17172E-14
 -1      3273 5.10591E-03-2.47095E-04-1.20017E-14
 -1      3274 9.58743E-04 3.31951E-05-9.45329E-16
 -1      3275 8.98658E-04-7.67689E-06-9.49612E-16
 -1      3276 1.11765E-03 7.68488E-05-1.14335E-15
 -1      3277 1.96575E-03-6.28554E-04-2.34802E-15
 -1      3278 1.41969E-02-1.92610E-03-1.12664E-13
 -1      3279 1.41738E-02-1.88394E-03-1.12567E-13
 -1      3280 1.40387E-02-1.84285E-03-1.10809E-13
 -1      3281 1.42432E-02-2.01042E-03-1.12848E-13
 -1      3282 1.42201E-02-1.96826E-03-1.12756E-13
 -1      3283 1.40850E-02-1.92717E-03-1.10994E-13
 -1      3284 4.07151E-03 4.12233E-04-9.60737E-15
 -1      3285 3.90030E-03 4.79662E-04-8.82287E-15
 -1      3286 3.84448E-03 4.66814E-04-8.50181E-15
 -1      3287 4.19576E-03 3.25935E-04-1.00765E-14
 -1      3288 1.49247E-03-3.60260E-04-1.83095E-15
 -1      3289 1.28416E-03-2.62933E-04-1.65260E-15
 -1      3290 2.10375E-03 4.20615E-04-2.77638E-15
 -1      3291 2.27590E-03 5.13744E-04-3.10177E-15
 -1      3292 4.70358E-03-6.84109E-04-1.02892E-14
 -1      3293 1.40021E-02-1.39740E-03-1.12659E-13
 -1      3294 5.31298E-03-4.18203E-04-1.16909E-14
 -1      3295 5.20744E-03-4.46867E-04-1.13892E-14
 -1      3296 1.06827E-03-1.79367E-04-1.51371E-15
 -1      3297 9.40122E-04-1.42623E-04-1.47109E-15
 -1      3298 1.43360E-03-3.61019E-04-1.54324E-15
 -1      3299 1.61363E-03-4.38102E-04-1.84958E-15
 -1      3300 1.77790E-03-5.14147E-04-2.13380E-15
 -1      3301 3.91858E-03 3.06419E-04-8.28427E-15
 -1      3302 4.14159E-03 1.84641E-04-9.03041E-15
 -1      3303 3.87010E-03 3.55565E-04-8.25506E-15
 -1      3304 8.46746E-04-1.53537E-04-7.20520E-16
 -1      3305 9.16334E-04-4.47565E-05-1.11871E-15
 -1      3306 8.44085E-04-7.55182E-05-1.12201E-15
 -1      3307 4.37675E-03 6.40082E-05-9.79794E-15
 -1      3308 4.58603E-03-4.32879E-05-1.03719E-14
 -1      3309 2.90109E-03 7.08810E-04-4.78660E-15
 -1      3310 3.06447E-03 6.95473E-04-5.34612E-15
 -1      3311 1.28564E-03 3.44076E-04-1.00014E-15
 -1      3312 1.19555E-03 2.79307E-04-9.34027E-16
 -1      3313 1.32645E-03 2.93809E-04-1.15178E-15
 -1      3314 1.45512E-03 3.96587E-04-1.24798E-15
 -1      3315 7.37276E-04-8.87433E-05-1.01271E-15
 -1      3316 6.92451E-04-9.71371E-05-1.01565E-15
 -1      3317 1.21034E-03-6.02487E-06-1.63761E-15
 -1      3318 1.55908E-03 1.54945E-04-1.94786E-15
 -1      3319 8.45528E-04-1.21260E-04-1.30144E-15
 -1      3320 5.14613E-03-4.87999E-04-1.14709E-14
 -1      3321 4.30659E-03 1.23443E-04-9.76626E-15
 -1      3322 1.27844E-03-3.01389E-04-1.29511E-15
 -1      3323 5.30138E-03-3.09643E-04-1.25844E-14
 -1      3324 5.30949E-03-3.26365E-04-1.20453E-14
 -1      3325 5.38513E-03-3.42728E-04-1.23757E-14
 -1      3326 9.75673E-04-1.90558E-04-9.04753E-16
 -1      3327 1.13319E-03-2.09952E-04-1.44045E-15
 -1      3328 3.17305E-03 6.97222E-04-5.76262E-15
 -1      3329 3.08027E-03 7.35285E-04-5.41971E-15
 -1      3330 1.35506E-02-1.27772E-03-1.06743E-13
 -1      3331 1.34995E-02-1.30308E-03-1.05882E-13
 -1      3332 1.36662E-02-1.30406E-03-1.08274E-13
 -1      3333 1.39664E-02-1.50575E-03-1.11596E-13
 -1      3334 1.39435E-02-1.46395E-03-1.11478E-13
 -1      3335 1.40126E-02-1.59007E-03-1.11832E-13
 -1      3336 1.39895E-02-1.54791E-03-1.11715E-13
 -1      3337 1.38543E-02-1.50663E-03-1.09967E-13
 -1      3338 2.71188E-03 7.31084E-04-4.14205E-15
 -1      3339 2.54678E-03 7.00869E-04-3.64659E-15
 -1      3340 3.48665E-03 5.53340E-04-6.86690E-15
 -1      3341 1.40587E-02-1.67412E-03-1.12053E-13
 -1      3342 1.40355E-02-1.63196E-03-1.11943E-13
 -1      3343 1.39004E-02-1.59069E-03-1.10194E-13
 -1      3344 1.39463E-02-1.67447E-03-1.10406E-13
 -1      3345 5.44408E-03-3.66714E-04-1.19967E-14
 -1      3346 5.47927E-03-3.79595E-04-1.24605E-14
 -1      3347 5.44764E-03-3.64264E-04-1.22963E-14
 -1      3348 2.36725E-03 5.76555E-04-3.26806E-15
 -1      3349 7.21868E-04-1.07121E-04-1.15959E-15
 -1      3350 1.95311E-03 3.66241E-04-2.46668E-15
 -1      3351 4.84504E-03-6.46267E-04-1.08948E-14
 -1      3352 2.92008E-03 7.49157E-04-4.84005E-15
 -1      3353 5.39259E-03-4.05456E-04-1.20856E-14
 -1      3354 5.38573E-03-4.30049E-04-1.24093E-14
 -1      3355 5.45637E-03-4.00084E-04-1.24841E-14
 -1      3356 1.77629E-03 4.95604E-04-1.80119E-15
 -1      3357 1.60399E-03 4.39255E-04-1.49555E-15
 -1      3358 1.54068E-03 3.86298E-04-1.44187E-15
 -1      3359 1.84448E-03 4.75742E-04-1.99714E-15
 -1      3360 3.15709E-03 6.81623E-04-5.68583E-15
 -1      3361 1.39150E-02-1.41750E-03-1.11298E-13
 -1      3362 1.38614E-02-1.35148E-03-1.10853E-13
 -1      3363 1.37458E-02-1.32514E-03-1.09315E-13
 -1      3364 1.38027E-02-1.41803E-03-1.09674E-13
 -1      3365 7.97388E-04-1.07908E-04-1.03294E-15
 -1      3366 8.72635E-04-1.30466E-04-1.02732E-15
 -1      3367 6.82961E-04-9.22143E-05-1.02379E-15
 -1      3368 7.26744E-04-9.57170E-05-1.02410E-15
 -1      3369 4.76577E-03-1.03401E-04-1.11525E-14
 -1      3370 1.42209E-02-2.05672E-03-1.12232E-13
 -1      3371 1.42388E-02-2.03166E-03-1.12653E-13
 -1      3372 1.41037E-02-1.99058E-03-1.10888E-13
 -1      3373 1.40947E-02-2.03306E-03-1.10493E-13
 -1      3374 1.06794E-03-1.75696E-05-1.33414E-15
 -1      3375 1.20693E-03 4.03828E-05-1.43363E-15
 -1      3376 1.24501E-03 9.33272E-05-1.36628E-15
 -1      3377 1.41872E-03 1.23672E-04-1.67851E-15
 -1      3378 1.59389E-03 2.14211E-04-1.86945E-15
 -1      3379 1.30945E-03 1.53981E-04-1.35930E-15
 -1      3380 9.13764E-04-9.32432E-05-1.39931E-15
 -1      3381 5.47285E-03-5.38071E-04-1.40825E-14
 -1      3382 5.60488E-03-5.50164E-04-1.50507E-14
 -1      3383 5.73493E-03-5.65277E-04-1.60413E-14
 -1      3384 5.86519E-03-5.82610E-04-1.70544E-14
 -1      3385 5.70035E-03-5.24521E-04-1.55487E-14
 -1      3386 5.99520E-03-6.01905E-04-1.80909E-14
 -1      3387 6.12607E-03-6.22839E-04-1.91501E-14
 -1      3388 5.94704E-03-5.62171E-04-1.75751E-14
 -1      3389 6.25748E-03-6.45114E-04-2.02313E-14
 -1      3390 6.38995E-03-6.68611E-04-2.13348E-14
 -1      3391 6.19915E-03-6.04887E-04-1.96914E-14
 -1      3392 6.52324E-03-6.93018E-04-2.24609E-14
 -1      3393 6.65759E-03-7.18286E-04-2.36093E-14
 -1      3394 6.45715E-03-6.51618E-04-2.18970E-14
 -1      3395 6.79277E-03-7.44124E-04-2.47789E-14
 -1      3396 6.92889E-03-7.70507E-04-2.59710E-14
 -1      3397 6.72063E-03-7.01338E-04-2.41921E-14
 -1      3398 7.06576E-03-7.97191E-04-2.71849E-14
 -1      3399 7.20343E-03-8.24160E-04-2.84211E-14
 -1      3400 6.98888E-03-7.53069E-04-2.65738E-14
 -1      3401 7.34172E-03-8.51226E-04-2.96803E-14
 -1      3402 7.48066E-03-8.78382E-04-3.09613E-14
 -1      3403 7.26111E-03-8.05940E-04-2.90450E-14
 -1      3404 7.62010E-03-9.05492E-04-3.22639E-14
 -1      3405 7.76005E-03-9.32557E-04-3.35879E-14
 -1      3406 7.53658E-03-8.59253E-04-3.16041E-14
 -1      3407 7.90040E-03-9.59484E-04-3.49340E-14
 -1      3408 8.04114E-03-9.86280E-04-3.63025E-14
 -1      3409 7.81463E-03-9.12496E-04-3.42506E-14
 -1      3410 8.18218E-03-1.01289E-03-3.76925E-14
 -1      3411 8.32352E-03-1.03932E-03-3.91034E-14
 -1      3412 8.09468E-03-9.65330E-04-3.69848E-14
 -1      3413 8.46508E-03-1.06554E-03-4.05367E-14
 -1      3414 8.60687E-03-1.09157E-03-4.19916E-14
 -1      3415 8.37628E-03-1.01756E-03-3.98039E-14
 -1      3416 8.74883E-03-1.11739E-03-4.34670E-14
 -1      3417 8.89095E-03-1.14301E-03-4.49636E-14
 -1      3418 8.65906E-03-1.06910E-03-4.27096E-14
 -1      3419 9.03320E-03-1.16844E-03-4.64812E-14
 -1      3420 9.17557E-03-1.19368E-03-4.80201E-14
 -1      3421 8.94272E-03-1.11993E-03-4.57001E-14
 -1      3422 9.31802E-03-1.21875E-03-4.95813E-14
 -1      3423 9.46056E-03-1.24366E-03-5.11632E-14
 -1      3424 9.22703E-03-1.17010E-03-4.87758E-14
 -1      3425 9.60317E-03-1.26841E-03-5.27629E-14
 -1      3426 9.74583E-03-1.29303E-03-5.43835E-14
 -1      3427 9.51182E-03-1.21965E-03-5.19367E-14
 -1      3428 9.88854E-03-1.31751E-03-5.60244E-14
 -1      3429 1.00313E-02-1.34188E-03-5.76831E-14
 -1      3430 9.79695E-03-1.26869E-03-5.51742E-14
 -1      3431 1.01741E-02-1.36614E-03-5.93592E-14
 -1      3432 1.03169E-02-1.39031E-03-6.10541E-14
 -1      3433 1.00823E-02-1.31727E-03-5.84895E-14
 -1      3434 1.04597E-02-1.41438E-03-6.27638E-14
 -1      3435 1.06026E-02-1.43838E-03-6.44890E-14
 -1      3436 1.03679E-02-1.36549E-03-6.18735E-14
 -1      3437 1.07454E-02-1.46232E-03-6.62308E-14
 -1      3438 1.08883E-02-1.48619E-03-6.79874E-14
 -1      3439 1.06535E-02-1.41341E-03-6.53221E-14
 -1      3440 1.10312E-02-1.51000E-03-6.97584E-14
 -1      3441 1.11740E-02-1.53377E-03-7.15453E-14
 -1      3442 1.09392E-02-1.46109E-03-6.88322E-14
 -1      3443 1.13169E-02-1.55750E-03-7.33486E-14
 -1      3444 1.14598E-02-1.58119E-03-7.51664E-14
 -1      3445 1.12250E-02-1.50859E-03-7.24031E-14
 -1      3446 1.16027E-02-1.60486E-03-7.69964E-14
 -1      3447 1.17456E-02-1.62849E-03-7.88396E-14
 -1      3448 1.15108E-02-1.55594E-03-7.60332E-14
 -1      3449 1.18885E-02-1.65210E-03-8.06962E-14
 -1      3450 1.20314E-02-1.67570E-03-8.25660E-14
 -1      3451 1.17966E-02-1.60320E-03-7.97174E-14
 -1      3452 1.21743E-02-1.69928E-03-8.44474E-14
 -1      3453 1.23171E-02-1.72284E-03-8.63423E-14
 -1      3454 1.20823E-02-1.65037E-03-8.34539E-14
 -1      3455 1.24600E-02-1.74639E-03-8.82471E-14
 -1      3456 1.26029E-02-1.76993E-03-9.01633E-14
 -1      3457 1.23681E-02-1.69749E-03-8.72406E-14
 -1      3458 1.27458E-02-1.79347E-03-9.20874E-14
 -1      3459 1.28887E-02-1.81700E-03-9.40201E-14
 -1      3460 1.26539E-02-1.74457E-03-9.10688E-14
 -1      3461 1.30315E-02-1.84052E-03-9.59623E-14
 -1      3462 1.31744E-02-1.86404E-03-9.79113E-14
 -1      3463 1.29397E-02-1.79163E-03-9.49329E-14
 -1      3464 1.33173E-02-1.88756E-03-9.98670E-14
 -1      3465 1.34602E-02-1.91107E-03-1.01828E-13
 -1      3466 1.32254E-02-1.83867E-03-9.88270E-14
 -1      3467 1.36030E-02-1.93458E-03-1.03794E-13
 -1      3468 1.37459E-02-1.95810E-03-1.05767E-13
 -1      3469 1.35112E-02-1.88570E-03-1.02745E-13
 -1      3470 3.31874E-03 6.45125E-04-6.30916E-15
 -1      3471 5.00445E-03 3.06951E-05-1.41167E-14
 -1      3472 4.84221E-03 7.32238E-05-1.31849E-14
 -1      3473 4.67517E-03 1.20871E-04-1.22789E-14
 -1      3474 4.50431E-03 1.75078E-04-1.14012E-14
 -1      3475 4.81439E-03 4.06089E-05-1.27938E-14
 -1      3476 5.61946E-03-9.96219E-05-1.80970E-14
 -1      3477 5.46992E-03-7.14252E-05-1.70649E-14
 -1      3478 5.91303E-03-1.50002E-04-2.02314E-14
 -1      3479 5.76703E-03-1.25594E-04-1.91524E-14
 -1      3480 5.73705E-03-1.53132E-04-1.86980E-14
 -1      3481 6.20163E-03-1.95032E-04-2.24607E-14
 -1      3482 6.05779E-03-1.73013E-04-2.13344E-14
 -1      3483 6.02475E-03-1.99217E-04-2.08580E-14
 -1      3484 6.48741E-03-2.36835E-04-2.47812E-14
 -1      3485 6.34476E-03-2.16222E-04-2.36101E-14
 -1      3486 6.30861E-03-2.41618E-04-2.31120E-14
 -1      3487 6.77177E-03-2.76907E-04-2.71894E-14
 -1      3488 6.62969E-03-2.57013E-04-2.59743E-14
 -1      3489 6.59063E-03-2.81999E-04-2.54555E-14
 -1      3490 7.05558E-03-3.16287E-04-2.96846E-14
 -1      3491 6.91369E-03-2.96636E-04-2.84257E-14
 -1      3492 6.87205E-03-3.21476E-04-2.78853E-14
 -1      3493 7.33932E-03-3.55671E-04-3.22667E-14
 -1      3494 7.19743E-03-3.35950E-04-3.09651E-14
 -1      3495 7.15358E-03-3.60796E-04-3.04023E-14
 -1      3496 7.62326E-03-3.95506E-04-3.49360E-14
 -1      3497 7.48125E-03-3.75517E-04-3.35908E-14
 -1      3498 7.43559E-03-4.00444E-04-3.30061E-14
 -1      3499 7.90750E-03-4.36048E-04-3.76945E-14
 -1      3500 7.76533E-03-4.15681E-04-3.63040E-14
 -1      3501 7.71820E-03-4.40717E-04-3.56981E-14
 -1      3502 8.19204E-03-4.77417E-04-4.05459E-14
 -1      3503 8.04972E-03-4.56628E-04-3.91086E-14
 -1      3504 8.00145E-03-4.81770E-04-3.84806E-14
 -1      3505 8.47689E-03-5.19642E-04-4.34817E-14
 -1      3506 8.33443E-03-4.98425E-04-4.20028E-14
 -1      3507 8.28526E-03-5.23659E-04-4.13534E-14
 -1      3508 8.76197E-03-5.62687E-04-4.65047E-14
 -1      3509 8.61940E-03-5.41067E-04-4.49824E-14
 -1      3510 8.56957E-03-5.66372E-04-4.43114E-14
 -1      3511 9.04726E-03-6.06481E-04-4.96091E-14
 -1      3512 8.90459E-03-5.84496E-04-4.80472E-14
 -1      3513 8.85429E-03-6.09854E-04-4.73538E-14
 -1      3514 9.33271E-03-6.50934E-04-5.27926E-14
 -1      3515 9.18997E-03-6.28631E-04-5.11922E-14
 -1      3516 9.13932E-03-6.54024E-04-5.04781E-14
 -1      3517 9.61826E-03-6.95950E-04-5.60493E-14
 -1      3518 9.47547E-03-6.73378E-04-5.44125E-14
 -1      3519 9.42459E-03-6.98791E-04-5.36801E-14
 -1      3520 9.90390E-03-7.41436E-04-5.93746E-14
 -1      3521 9.76107E-03-7.18640E-04-5.77022E-14
 -1      3522 9.71003E-03-7.44063E-04-5.69536E-14
 -1      3523 1.01896E-02-7.87305E-04-6.27623E-14
 -1      3524 1.00467E-02-7.64327E-04-6.10612E-14
 -1      3525 9.99561E-03-7.89752E-04-6.02956E-14
 -1      3526 1.04753E-02-8.33479E-04-6.62148E-14
 -1      3527 1.03325E-02-8.10358E-04-6.44810E-14
 -1      3528 1.02813E-02-8.35780E-04-6.37005E-14
 -1      3529 1.07611E-02-8.79894E-04-6.97277E-14
 -1      3530 1.06182E-02-8.56660E-04-6.79645E-14
 -1      3531 1.05670E-02-8.82077E-04-6.71683E-14
 -1      3532 1.10468E-02-9.26494E-04-7.33008E-14
 -1      3533 1.09039E-02-9.03174E-04-7.15073E-14
 -1      3534 1.08527E-02-9.28583E-04-7.06976E-14
 -1      3535 1.13326E-02-9.73234E-04-7.69295E-14
 -1      3536 1.11897E-02-9.49849E-04-7.51079E-14
 -1      3537 1.11385E-02-9.75250E-04-7.42859E-14
 -1      3538 1.16183E-02-1.02008E-03-8.06103E-14
 -1      3539 1.14755E-02-9.96645E-04-7.87644E-14
 -1      3540 1.14243E-02-1.02204E-03-7.79303E-14
 -1      3541 1.19041E-02-1.06700E-03-8.43379E-14
 -1      3542 1.17612E-02-1.04353E-03-8.24668E-14
 -1      3543 1.17100E-02-1.06892E-03-8.16233E-14
 -1      3544 1.21899E-02-1.11397E-03-8.81116E-14
 -1      3545 1.20470E-02-1.09048E-03-8.62212E-14
 -1      3546 1.19958E-02-1.11586E-03-8.53633E-14
 -1      3547 1.24756E-02-1.16098E-03-9.19222E-14
 -1      3548 1.23327E-02-1.13747E-03-9.00139E-14
 -1      3549 1.22816E-02-1.16284E-03-8.91500E-14
 -1      3550 1.27613E-02-1.20801E-03-9.57579E-14
 -1      3551 1.26185E-02-1.18449E-03-9.38353E-14
 -1      3552 1.25673E-02-1.20986E-03-9.29687E-14
 -1      3553 1.30471E-02-1.25505E-03-9.96155E-14
 -1      3554 1.29042E-02-1.23153E-03-9.76837E-14
 -1      3555 1.28531E-02-1.25689E-03-9.68130E-14
 -1      3556 1.33328E-02-1.30210E-03-1.03485E-13
 -1      3557 1.31899E-02-1.27858E-03-1.01548E-13
 -1      3558 1.31388E-02-1.30394E-03-1.00678E-13
 -1      3559 1.04103E-03-1.91232E-04-1.13704E-15
 -1      3560 2.45860E-03 6.47625E-04-3.44016E-15
 -1      3561 1.39728E-02-1.92789E-03-1.09324E-13
 -1      3562 1.39497E-02-1.88573E-03-1.09236E-13
 -1      3563 2.25835E-03 5.63816E-04-2.95940E-15
 -1      3564 5.12613E-03-2.27124E-04-1.25957E-14
 -1      3565 5.22515E-03-2.64970E-04-1.28507E-14
 -1      3566 2.07672E-03 4.98155E-04-2.55551E-15
 -1      3567 6.79669E-04-9.62477E-05-1.06119E-15
 -1      3568 6.31121E-04-8.78604E-05-9.13650E-16
 -1      3569 4.21584E-03 2.05209E-04-9.69048E-15
 -1      3570 4.43182E-03 9.82822E-05-1.04821E-14
 -1      3571 1.38802E-02-1.75924E-03-1.08958E-13
 -1      3572 1.38571E-02-1.71708E-03-1.08859E-13
 -1      3573 1.74991E-03 3.05873E-04-2.05244E-15
 -1      3574 1.94349E-03 4.10037E-04-2.35181E-15
 -1      3575 1.87457E-03 4.40201E-04-2.12536E-15
 -1      3576 1.59845E-03 2.65539E-04-1.77060E-15
 -1      3577 6.34256E-04-8.98177E-05-9.11523E-16
 -1      3578 5.31789E-03-4.08357E-05-1.60581E-14
 -1      3579 5.16298E-03-6.85723E-06-1.50743E-14
 -1      3580 5.13671E-03-3.83450E-05-1.46631E-14
 -1      3581 5.44246E-03-1.00837E-04-1.66321E-14
 -1      3582 3.66456E-03 5.02708E-04-7.65765E-15
 -1      3583 3.48661E-03 5.77976E-04-6.95287E-15
 -1      3584 3.84787E-03 4.35321E-04-8.44084E-15
 -1      3585 3.85485E-03 3.90542E-04-8.32777E-15
 -1      3586 4.05611E-03 2.83175E-04-9.07564E-15
 -1      3587 4.02748E-03 3.59375E-04-9.21240E-15
 -1      3588 5.00889E-03-5.67854E-04-1.13453E-14
 -1      3589 4.73090E-03-4.95906E-05-1.14857E-14
 -1      3590 4.94885E-03-1.53135E-04-1.21007E-14
 -1      3591 1.39265E-02-1.84357E-03-1.09147E-13
 -1      3592 1.39034E-02-1.80141E-03-1.09054E-13
 -1      3593 1.37681E-02-1.75996E-03-1.07304E-13
 -1      3594 1.38144E-02-1.84429E-03-1.07484E-13
 -1      3595 1.34623E-03 2.55991E-04-1.24854E-15
 -1      3596 1.30494E-03 1.97238E-04-1.26703E-15
 -1      3597 1.44625E-03 2.26385E-04-1.50459E-15
 -1      3598 1.41522E-03 3.08255E-04-1.30291E-15
 -1      3599 5.31261E-03-5.10039E-04-1.27994E-14
 -1      3600 5.43220E-03-4.75061E-04-1.32696E-14
 -1      3601 5.31718E-03-2.93878E-04-1.31921E-14
 -1      3602 5.40252E-03-3.17654E-04-1.35375E-14
 -1      3603 5.34308E-03-2.76372E-04-1.38077E-14
 -1      3604 5.45937E-03-3.59123E-04-1.28453E-14
 -1      3605 5.52297E-03-3.73138E-04-1.33216E-14
 -1      3606 5.46827E-03-3.50096E-04-1.34003E-14
 -1      3607 1.38572E-02-1.98375E-03-1.07262E-13
 -1      3608 1.39834E-02-2.00741E-03-1.08993E-13
 -1      3609 1.39879E-02-1.98617E-03-1.09191E-13
 -1      3610 1.37653E-02-1.93486E-03-1.06200E-13
 -1      3611 1.36947E-02-1.35050E-03-1.08454E-13
 -1      3612 1.35640E-02-1.35478E-03-1.06550E-13
 -1      3613 1.34484E-02-1.32844E-03-1.05019E-13
 -1      3614 1.33973E-02-1.35380E-03-1.04148E-13
 -1      3615 4.49880E-03 1.29969E-04-1.11377E-14
 -1      3616 4.35539E-03 2.20762E-04-1.06562E-14
 -1      3617 5.08900E-03-1.79745E-04-1.29477E-14
 -1      3618 4.17706E-03 2.87859E-04-9.83094E-15
 -1      3619 1.37421E-02-1.50734E-03-1.08335E-13
 -1      3620 1.37190E-02-1.46518E-03-1.08220E-13
 -1      3621 2.79564E-03 7.07366E-04-4.44379E-15
 -1      3622 5.52918E-03-3.90437E-04-1.30987E-14
 -1      3623 5.49913E-03-3.93934E-04-1.27905E-14
 -1      3624 5.51226E-03-4.11343E-04-1.31226E-14
 -1      3625 1.38341E-02-1.67519E-03-1.08758E-13
 -1      3626 1.38112E-02-1.63329E-03-1.08657E-13
 -1      3627 1.37220E-02-1.67590E-03-1.07113E-13
 -1      3628 4.58098E-03 5.36583E-05-1.12277E-14
 -1      3629 1.71917E-03 3.92614E-04-1.82692E-15
 -1      3630 1.35599E-02-1.42301E-03-1.06139E-13
 -1      3631 1.36721E-02-1.42231E-03-1.07765E-13
 -1      3632 5.17745E-03-5.08926E-04-1.18864E-14
 -1      3633 4.77583E-03-7.76345E-06-1.21732E-14
 -1      3634 1.39924E-02-1.96492E-03-1.09389E-13
 -1      3635 1.38571E-02-1.92348E-03-1.07633E-13
 -1      3636 6.41365E-03-2.86568E-04-2.37641E-14
 -1      3637 6.27418E-03-2.66526E-04-2.26137E-14
 -1      3638 1.37458E-02-1.89783E-03-1.06141E-13
 -1      3639 5.90039E-03-5.25057E-04-1.70607E-14
 -1      3640 6.02002E-03-5.45598E-04-1.80963E-14
 -1      3641 6.14165E-03-5.66877E-04-1.91542E-14
 -1      3642 6.26572E-03-5.89187E-04-2.02340E-14
 -1      3643 6.08432E-03-5.31130E-04-1.86179E-14
 -1      3644 6.39164E-03-6.12140E-04-2.13356E-14
 -1      3645 6.51953E-03-6.35929E-04-2.24604E-14
 -1      3646 6.32617E-03-5.74597E-04-2.07763E-14
 -1      3647 6.64902E-03-6.60227E-04-2.36075E-14
 -1      3648 6.78011E-03-6.85140E-04-2.47757E-14
 -1      3649 6.57751E-03-6.20795E-04-2.30239E-14
 -1      3650 6.91252E-03-7.10396E-04-2.59654E-14
 -1      3651 7.04623E-03-7.36051E-04-2.71773E-14
 -1      3652 6.83635E-03-6.69176E-04-2.53587E-14
 -1      3653 7.18103E-03-7.61889E-04-2.84118E-14
 -1      3654 7.31686E-03-7.87942E-04-2.96685E-14
 -1      3655 7.10120E-03-7.19083E-04-2.77806E-14
 -1      3656 7.45356E-03-8.14047E-04-3.09465E-14
 -1      3657 7.59109E-03-8.40225E-04-3.22464E-14
 -1      3658 7.37085E-03-7.69894E-04-3.02904E-14
 -1      3659 7.72931E-03-8.66358E-04-3.35697E-14
 -1      3660 7.86818E-03-8.92464E-04-3.49135E-14
 -1      3661 7.64431E-03-8.21097E-04-3.28890E-14
 -1      3662 8.00759E-03-9.18461E-04-3.62780E-14
 -1      3663 8.14750E-03-9.44367E-04-3.76655E-14
 -1      3664 7.92080E-03-8.72309E-04-3.55753E-14
 -1      3665 8.28783E-03-9.70129E-04-3.90737E-14
 -1      3666 8.42855E-03-9.95764E-04-4.05042E-14
 -1      3667 8.19965E-03-9.23275E-04-3.83467E-14
 -1      3668 8.56958E-03-1.02124E-03-4.19559E-14
 -1      3669 8.71091E-03-1.04658E-03-4.34276E-14
 -1      3670 8.48034E-03-9.73845E-04-4.12040E-14
 -1      3671 8.85248E-03-1.07176E-03-4.49214E-14
 -1      3672 8.99426E-03-1.09680E-03-4.64366E-14
 -1      3673 8.76243E-03-1.02395E-03-4.41471E-14
 -1      3674 9.13623E-03-1.12169E-03-4.79747E-14
 -1      3675 9.27836E-03-1.14645E-03-4.95330E-14
 -1      3676 9.04560E-03-1.07356E-03-4.71756E-14
 -1      3677 9.42062E-03-1.17108E-03-5.11116E-14
 -1      3678 9.56300E-03-1.19560E-03-5.27094E-14
 -1      3679 9.32956E-03-1.12272E-03-5.02891E-14
 -1      3680 9.70548E-03-1.22000E-03-5.43280E-14
 -1      3681 9.84803E-03-1.24430E-03-5.59659E-14
 -1      3682 9.61410E-03-1.17147E-03-5.34842E-14
 -1      3683 9.99066E-03-1.26850E-03-5.76221E-14
 -1      3684 1.01333E-02-1.29262E-03-5.92949E-14
 -1      3685 9.89908E-03-1.21985E-03-5.67573E-14
 -1      3686 1.02761E-02-1.31666E-03-6.09855E-14
 -1      3687 1.04188E-02-1.34064E-03-6.26918E-14
 -1      3688 1.01844E-02-1.26792E-03-6.01018E-14
 -1      3689 1.05617E-02-1.36455E-03-6.44143E-14
 -1      3690 1.07045E-02-1.38840E-03-6.61552E-14
 -1      3691 1.04698E-02-1.31574E-03-6.35117E-14
 -1      3692 1.08473E-02-1.41221E-03-6.79081E-14
 -1      3693 1.09902E-02-1.43597E-03-6.96749E-14
 -1      3694 1.07555E-02-1.36336E-03-6.69859E-14
 -1      3695 1.11331E-02-1.45969E-03-7.14605E-14
 -1      3696 1.12760E-02-1.48338E-03-7.32604E-14
 -1      3697 1.10412E-02-1.41082E-03-7.05215E-14
 -1      3698 1.14188E-02-1.50704E-03-7.50735E-14
 -1      3699 1.15617E-02-1.53068E-03-7.69008E-14
 -1      3700 1.13269E-02-1.45816E-03-7.41158E-14
 -1      3701 1.17046E-02-1.55429E-03-7.87418E-14
 -1      3702 1.18475E-02-1.57789E-03-8.05952E-14
 -1      3703 1.16127E-02-1.50540E-03-7.77689E-14
 -1      3704 1.19904E-02-1.60147E-03-8.24630E-14
 -1      3705 1.21333E-02-1.62504E-03-8.43432E-14
 -1      3706 1.18985E-02-1.55257E-03-8.14741E-14
 -1      3707 1.22762E-02-1.64859E-03-8.62339E-14
 -1      3708 1.24191E-02-1.67214E-03-8.81383E-14
 -1      3709 1.21844E-02-1.59969E-03-8.52303E-14
 -1      3710 1.25620E-02-1.69568E-03-9.00514E-14
 -1      3711 1.27049E-02-1.71921E-03-9.19717E-14
 -1      3712 1.24702E-02-1.64678E-03-8.90329E-14
 -1      3713 1.28478E-02-1.74274E-03-9.39053E-14
 -1      3714 1.29907E-02-1.76626E-03-9.58444E-14
 -1      3715 1.27560E-02-1.69384E-03-9.28760E-14
 -1      3716 1.31336E-02-1.78978E-03-9.77882E-14
 -1      3717 1.32765E-02-1.81330E-03-9.97399E-14
 -1      3718 1.30417E-02-1.74089E-03-9.67518E-14
 -1      3719 1.34193E-02-1.83681E-03-1.01697E-13
 -1      3720 1.35622E-02-1.86033E-03-1.03659E-13
 -1      3721 1.33275E-02-1.78792E-03-1.00651E-13
 -1      3722 4.93993E-03-4.96180E-05-1.30792E-14
 -1      3723 1.58599E-03 3.08932E-04-1.66298E-15
 -1      3724 1.56536E-03 3.48859E-04-1.55305E-15
 -1      3725 6.13440E-03-2.46149E-04-2.14873E-14
 -1      3726 5.99397E-03-2.25198E-04-2.03829E-14
 -1      3727 6.24146E-03-2.90967E-04-2.21178E-14
 -1      3728 5.85269E-03-2.03587E-04-1.93009E-14
 -1      3729 5.71005E-03-1.80874E-04-1.82428E-14
 -1      3730 5.96552E-03-2.51027E-04-1.99065E-14
 -1      3731 6.69217E-03-3.26027E-04-2.61290E-14
 -1      3732 6.55291E-03-3.06361E-04-2.49363E-14
 -1      3733 6.51648E-03-3.30095E-04-2.44171E-14
 -1      3734 6.97096E-03-3.65280E-04-2.85820E-14
 -1      3735 6.83148E-03-3.45648E-04-2.73456E-14
 -1      3736 6.79191E-03-3.69133E-04-2.68061E-14
 -1      3737 7.25050E-03-4.04806E-04-3.11211E-14
 -1      3738 7.11060E-03-3.84992E-04-2.98410E-14
 -1      3739 7.06842E-03-4.08509E-04-2.92802E-14
 -1      3740 7.53102E-03-4.44904E-04-3.37478E-14
 -1      3741 7.39062E-03-4.24776E-04-3.24227E-14
 -1      3742 7.34630E-03-4.48479E-04-3.18412E-14
 -1      3743 7.81252E-03-4.85743E-04-3.64628E-14
 -1      3744 7.67164E-03-4.65230E-04-3.50939E-14
 -1      3745 7.62560E-03-4.89186E-04-3.44909E-14
 -1      3746 8.09495E-03-5.27394E-04-3.92688E-14
 -1      3747 7.95362E-03-5.06470E-04-3.78541E-14
 -1      3748 7.90621E-03-5.30693E-04-3.72298E-14
 -1      3749 8.37817E-03-5.69859E-04-4.21630E-14
 -1      3750 8.23646E-03-5.48530E-04-4.07051E-14
 -1      3751 8.18800E-03-5.73004E-04-4.00582E-14
 -1      3752 8.66205E-03-6.13096E-04-4.51423E-14
 -1      3753 8.52003E-03-5.91387E-04-4.36423E-14
 -1      3754 8.47076E-03-6.16081E-04-4.29749E-14
 -1      3755 8.94647E-03-6.57035E-04-4.82046E-14
 -1      3756 8.80420E-03-6.34984E-04-4.66642E-14
 -1      3757 8.75432E-03-6.59860E-04-4.59754E-14
 -1      3758 9.23129E-03-7.01591E-04-5.13476E-14
 -1      3759 9.08883E-03-6.79242E-04-4.97660E-14
 -1      3760 9.03852E-03-7.04264E-04-4.90563E-14
 -1      3761 9.51643E-03-7.46677E-04-5.45688E-14
 -1      3762 9.37383E-03-7.24074E-04-5.29498E-14
 -1      3763 9.32319E-03-7.49208E-04-5.22189E-14
 -1      3764 9.80179E-03-7.92205E-04-5.78603E-14
 -1      3765 9.65909E-03-7.69391E-04-5.62050E-14
 -1      3766 9.60823E-03-7.94609E-04-5.54593E-14
 -1      3767 1.00873E-02-8.38097E-04-6.12199E-14
 -1      3768 9.94454E-03-8.15110E-04-5.95321E-14
 -1      3769 9.89354E-03-8.40389E-04-5.87697E-14
 -1      3770 1.03730E-02-8.84281E-04-6.46411E-14
 -1      3771 1.02301E-02-8.61156E-04-6.29229E-14
 -1      3772 1.01790E-02-8.86477E-04-6.21460E-14
 -1      3773 1.06587E-02-9.30696E-04-6.81244E-14
 -1      3774 1.05158E-02-9.07463E-04-6.63743E-14
 -1      3775 1.04647E-02-9.32811E-04-6.55839E-14
 -1      3776 1.09444E-02-9.77290E-04-7.16701E-14
 -1      3777 1.08015E-02-9.53973E-04-6.98905E-14
 -1      3778 1.07504E-02-9.79339E-04-6.90840E-14
 -1      3779 1.12302E-02-1.02402E-03-7.52736E-14
 -1      3780 1.10873E-02-1.00064E-03-7.34641E-14
 -1      3781 1.10361E-02-1.02602E-03-7.26443E-14
 -1      3782 1.15160E-02-1.07085E-03-7.89310E-14
 -1      3783 1.13731E-02-1.04743E-03-7.70949E-14
 -1      3784 1.13219E-02-1.07281E-03-7.62623E-14
 -1      3785 1.18018E-02-1.11776E-03-8.26355E-14
 -1      3786 1.16589E-02-1.09430E-03-8.07786E-14
 -1      3787 1.16077E-02-1.11968E-03-7.99319E-14
 -1      3788 1.20875E-02-1.16472E-03-8.63909E-14
 -1      3789 1.19447E-02-1.14124E-03-8.45083E-14
 -1      3790 1.18935E-02-1.16662E-03-8.36528E-14
 -1      3791 1.23733E-02-1.21172E-03-9.01884E-14
 -1      3792 1.22304E-02-1.18822E-03-8.82844E-14
 -1      3793 1.21793E-02-1.21360E-03-8.74187E-14
 -1      3794 1.26591E-02-1.25875E-03-9.40150E-14
 -1      3795 1.25162E-02-1.23523E-03-9.20986E-14
 -1      3796 1.24651E-02-1.26061E-03-9.12267E-14
 -1      3797 1.29449E-02-1.30578E-03-9.78715E-14
 -1      3798 1.28020E-02-1.28226E-03-9.59398E-14
 -1      3799 1.27509E-02-1.30763E-03-9.50661E-14
 -1      3800 1.32306E-02-1.35283E-03-1.01744E-13
 -1      3801 1.30877E-02-1.32931E-03-9.98058E-14
 -1      3802 1.30366E-02-1.35468E-03-9.89305E-14
 -1      3803 1.37651E-02-1.54923E-03-1.08446E-13
 -1      3804 1.36298E-02-1.50778E-03-1.06701E-13
 -1      3805 1.37880E-02-1.59113E-03-1.08553E-13
 -1      3806 4.19338E-03 2.47976E-04-9.76294E-15
 -1      3807 5.11130E-03-8.16113E-05-1.41338E-14
 -1      3808 5.08541E-03-1.31365E-04-1.34792E-14
 -1      3809 5.24236E-03-2.01084E-04-1.40044E-14
 -1      3810 5.26441E-03-1.12772E-04-1.50931E-14
 -1      3811 5.51204E-03-4.62283E-04-1.36843E-14
 -1      3812 1.36436E-02-1.37586E-03-1.07591E-13
 -1      3813 5.66921E-03-4.87104E-04-1.50583E-14
 -1      3814 5.78377E-03-5.05827E-04-1.60476E-14
 -1      3815 5.85448E-03-4.90729E-04-1.65486E-14
 -1      3816 1.34531E-02-1.40109E-03-1.04707E-13
 -1      3817 1.33374E-02-1.37475E-03-1.03171E-13
 -1      3818 1.32863E-02-1.40012E-03-1.02296E-13
 -1      3819 1.35000E-02-1.44397E-03-1.05158E-13
 -1      3820 1.36540E-02-1.84894E-03-1.05084E-13
 -1      3821 5.59746E-03-4.44633E-04-1.41566E-14
 -1      3822 5.49275E-03-3.39055E-04-1.40255E-14
 -1      3823 1.35459E-02-1.52776E-03-1.05372E-13
 -1      3824 1.35230E-02-1.48586E-03-1.05267E-13
 -1      3825 1.34161E-02-1.46394E-03-1.03833E-13
 -1      3826 1.36759E-02-1.59184E-03-1.06911E-13
 -1      3827 5.56974E-03-3.88116E-04-1.36623E-14
 -1      3828 5.60684E-03-4.02818E-04-1.40046E-14
 -1      3829 5.60157E-03-3.83651E-04-1.42315E-14
 -1      3830 1.36097E-02-1.67648E-03-1.05467E-13
 -1      3831 1.35867E-02-1.63458E-03-1.05369E-13
 -1      3832 1.36308E-02-1.80678E-03-1.05002E-13
 -1      3833 5.56267E-03-1.61288E-04-1.71458E-14
 -1      3834 5.41626E-03-1.35598E-04-1.61367E-14
 -1      3835 5.39441E-03-1.76479E-04-1.55806E-14
 -1      3836 5.68346E-03-2.13116E-04-1.77244E-14
 -1      3837 5.35952E-03-2.05387E-04-1.49703E-14
 -1      3838 5.35786E-03-2.47471E-04-1.44143E-14
 -1      3839 5.44462E-03-2.76833E-04-1.47748E-14
 -1      3840 5.50056E-03-2.22168E-04-1.60141E-14
 -1      3841 1.36560E-02-1.76081E-03-1.05649E-13
 -1      3842 1.36329E-02-1.71865E-03-1.05559E-13
 -1      3843 1.34976E-02-1.67733E-03-1.03818E-13
 -1      3844 5.64444E-03-4.37397E-04-1.44783E-14
 -1      3845 6.25938E-03-5.38937E-04-2.02183E-14
 -1      3846 6.38104E-03-5.60706E-04-2.13188E-14
 -1      3847 6.50513E-03-5.82955E-04-2.24417E-14
 -1      3848 6.63144E-03-6.05948E-04-2.35869E-14
 -1      3849 6.43125E-03-5.46650E-04-2.18612E-14
 -1      3850 6.75966E-03-6.29339E-04-2.47530E-14
 -1      3851 6.88963E-03-6.53269E-04-2.59407E-14
 -1      3852 6.68199E-03-5.90831E-04-2.41487E-14
 -1      3853 7.02111E-03-6.77479E-04-2.71501E-14
 -1      3854 7.15398E-03-7.02047E-04-2.83823E-14
 -1      3855 6.94041E-03-6.37038E-04-2.65218E-14
 -1      3856 7.28804E-03-7.26777E-04-2.96366E-14
 -1      3857 7.42321E-03-7.51714E-04-3.09120E-14
 -1      3858 7.20490E-03-6.84671E-04-2.89832E-14
 -1      3859 7.55934E-03-7.76714E-04-3.22109E-14
 -1      3860 7.69634E-03-8.01808E-04-3.35313E-14
 -1      3861 7.47420E-03-7.33202E-04-3.15341E-14
 -1      3862 7.83410E-03-8.26892E-04-3.48737E-14
 -1      3863 7.97255E-03-8.51988E-04-3.62367E-14
 -1      3864 7.74736E-03-7.82210E-04-3.41724E-14
 -1      3865 8.11160E-03-8.77025E-04-3.76212E-14
 -1      3866 8.25118E-03-9.02023E-04-3.90276E-14
 -1      3867 8.02356E-03-8.31387E-04-3.68985E-14
 -1      3868 8.39123E-03-9.26934E-04-4.04558E-14
 -1      3869 8.53170E-03-9.51777E-04-4.19045E-14
 -1      3870 8.30218E-03-8.80526E-04-3.97085E-14
 -1      3871 8.67252E-03-9.76520E-04-4.33754E-14
 -1      3872 8.81367E-03-1.00118E-03-4.48663E-14
 -1      3873 8.58269E-03-9.29497E-04-4.26049E-14
 -1      3874 8.95508E-03-1.02574E-03-4.63802E-14
 -1      3875 9.09674E-03-1.05022E-03-4.79154E-14
 -1      3876 8.86464E-03-9.78236E-04-4.55880E-14
 -1      3877 9.23859E-03-1.07460E-03-4.94713E-14
 -1      3878 9.38063E-03-1.09890E-03-5.10472E-14
 -1      3879 9.14771E-03-1.02672E-03-4.86548E-14
 -1      3880 9.52282E-03-1.12311E-03-5.26430E-14
 -1      3881 9.66514E-03-1.14725E-03-5.42602E-14
 -1      3882 9.43160E-03-1.07495E-03-5.18057E-14
 -1      3883 9.80757E-03-1.17132E-03-5.58960E-14
 -1      3884 9.95009E-03-1.19533E-03-5.75492E-14
 -1      3885 9.71611E-03-1.12294E-03-5.50375E-14
 -1      3886 1.00927E-02-1.21927E-03-5.92200E-14
 -1      3887 1.02354E-02-1.24317E-03-6.09077E-14
 -1      3888 1.00011E-02-1.17073E-03-5.83415E-14
 -1      3889 1.03781E-02-1.26701E-03-6.26128E-14
 -1      3890 1.05208E-02-1.29081E-03-6.43328E-14
 -1      3891 1.02863E-02-1.21835E-03-6.17145E-14
 -1      3892 1.06636E-02-1.31457E-03-6.60676E-14
 -1      3893 1.08065E-02-1.33829E-03-6.78180E-14
 -1      3894 1.05718E-02-1.26583E-03-6.51515E-14
 -1      3895 1.09493E-02-1.36198E-03-6.95841E-14
 -1      3896 1.10922E-02-1.38565E-03-7.13667E-14
 -1      3897 1.08575E-02-1.31318E-03-6.86495E-14
 -1      3898 1.12351E-02-1.40929E-03-7.31628E-14
 -1      3899 1.13780E-02-1.43291E-03-7.49716E-14
 -1      3900 1.11432E-02-1.36045E-03-7.22107E-14
 -1      3901 1.15209E-02-1.45652E-03-7.67973E-14
 -1      3902 1.16638E-02-1.48011E-03-7.86359E-14
 -1      3903 1.14290E-02-1.40765E-03-7.58281E-14
 -1      3904 1.18067E-02-1.50368E-03-8.04880E-14
 -1      3905 1.19496E-02-1.52724E-03-8.23530E-14
 -1      3906 1.17148E-02-1.45480E-03-7.95031E-14
 -1      3907 1.20925E-02-1.55080E-03-8.42289E-14
 -1      3908 1.22354E-02-1.57434E-03-8.61163E-14
 -1      3909 1.20006E-02-1.50191E-03-8.32287E-14
 -1      3910 1.23783E-02-1.59788E-03-8.80167E-14
 -1      3911 1.25212E-02-1.62142E-03-8.99274E-14
 -1      3912 1.22864E-02-1.54899E-03-8.70014E-14
 -1      3913 1.26641E-02-1.64494E-03-9.18463E-14
 -1      3914 1.28070E-02-1.66847E-03-9.37769E-14
 -1      3915 1.25722E-02-1.59605E-03-9.08196E-14
 -1      3916 1.29499E-02-1.69199E-03-9.57137E-14
 -1      3917 1.30928E-02-1.71551E-03-9.76571E-14
 -1      3918 1.28580E-02-1.64310E-03-9.46740E-14
 -1      3919 1.32357E-02-1.73903E-03-9.96060E-14
 -1      3920 1.33786E-02-1.76255E-03-1.01557E-13
 -1      3921 1.31438E-02-1.69014E-03-9.85604E-14
 -1      3922 6.34570E-03-3.33856E-04-2.27490E-14
 -1      3923 6.21034E-03-3.14716E-04-2.16210E-14
 -1      3924 5.80649E-03-4.59490E-04-1.60367E-14
 -1      3925 5.91363E-03-4.78506E-04-1.70479E-14
 -1      3926 6.61698E-03-3.72365E-04-2.50719E-14
 -1      3927 6.48115E-03-3.53054E-04-2.39000E-14
 -1      3928 6.44682E-03-3.75212E-04-2.33827E-14
 -1      3929 6.07508E-03-2.95593E-04-2.05153E-14
 -1      3930 5.93946E-03-2.76326E-04-1.94310E-14
 -1      3931 6.18073E-03-3.37745E-04-2.11243E-14
 -1      3932 7.16442E-03-4.51272E-04-2.99788E-14
 -1      3933 7.02684E-03-4.31273E-04-2.87200E-14
 -1      3934 7.44098E-03-4.91899E-04-3.25632E-14
 -1      3935 7.30245E-03-4.71491E-04-3.12606E-14
 -1      3936 7.25898E-03-4.93780E-04-3.06797E-14
 -1      3937 7.71934E-03-5.33353E-04-3.52370E-14
 -1      3938 7.57994E-03-5.12531E-04-3.38886E-14
 -1      3939 7.53458E-03-5.35233E-04-3.32879E-14
 -1      3940 7.99929E-03-5.75615E-04-3.79990E-14
 -1      3941 7.85912E-03-5.54392E-04-3.66066E-14
 -1      3942 7.81228E-03-5.77535E-04-3.59848E-14
 -1      3943 8.28061E-03-6.18637E-04-4.08504E-14
 -1      3944 8.13979E-03-5.97040E-04-3.94137E-14
 -1      3945 8.09179E-03-6.20608E-04-3.87707E-14
 -1      3946 8.56305E-03-6.62353E-04-4.37871E-14
 -1      3947 8.42170E-03-6.40416E-04-4.23079E-14
 -1      3948 8.37281E-03-6.64367E-04-4.16431E-14
 -1      3949 8.84639E-03-7.06687E-04-4.68080E-14
 -1      3950 8.70461E-03-6.84450E-04-4.52878E-14
 -1      3951 8.65505E-03-7.08730E-04-4.46018E-14
 -1      3952 9.13043E-03-7.51558E-04-4.99087E-14
 -1      3953 8.98833E-03-7.29062E-04-4.83484E-14
 -1      3954 8.93827E-03-7.53615E-04-4.76419E-14
 -1      3955 9.41502E-03-7.96886E-04-5.30921E-14
 -1      3956 9.27267E-03-7.74171E-04-5.14902E-14
 -1      3957 9.22224E-03-7.98944E-04-5.07641E-14
 -1      3958 9.70000E-03-8.42596E-04-5.63517E-14
 -1      3959 9.55747E-03-8.19698E-04-5.47133E-14
 -1      3960 9.50677E-03-8.44644E-04-5.39682E-14
 -1      3961 9.98527E-03-8.88620E-04-5.96800E-14
 -1      3962 9.84261E-03-8.65573E-04-5.80070E-14
 -1      3963 9.79173E-03-8.90650E-04-5.72476E-14
 -1      3964 1.02708E-02-9.34896E-04-6.30730E-14
 -1      3965 1.01280E-02-9.11730E-04-6.13685E-14
 -1      3966 1.00770E-02-9.36905E-04-6.05929E-14
 -1      3967 1.05564E-02-9.81374E-04-6.65275E-14
 -1      3968 1.04135E-02-9.58113E-04-6.47932E-14
 -1      3969 1.03625E-02-9.83359E-04-6.40021E-14
 -1      3970 1.08421E-02-1.02801E-03-7.00439E-14
 -1      3971 1.06992E-02-1.00467E-03-6.82775E-14
 -1      3972 1.06481E-02-1.02997E-03-6.74737E-14
 -1      3973 1.11278E-02-1.07476E-03-7.36218E-14
 -1      3974 1.09850E-02-1.05137E-03-7.18264E-14
 -1      3975 1.09338E-02-1.07670E-03-7.10078E-14
 -1      3976 1.14136E-02-1.12161E-03-7.72527E-14
 -1      3977 1.12707E-02-1.09817E-03-7.54298E-14
 -1      3978 1.12196E-02-1.12353E-03-7.45995E-14
 -1      3979 1.16994E-02-1.16852E-03-8.09364E-14
 -1      3980 1.15565E-02-1.14506E-03-7.90887E-14
 -1      3981 1.15054E-02-1.17042E-03-7.82454E-14
 -1      3982 1.19852E-02-1.21548E-03-8.46709E-14
 -1      3983 1.18423E-02-1.19199E-03-8.27974E-14
 -1      3984 1.17912E-02-1.21737E-03-8.19446E-14
 -1      3985 1.22710E-02-1.26248E-03-8.84490E-14
 -1      3986 1.21281E-02-1.23897E-03-8.65542E-14
 -1      3987 1.20770E-02-1.26435E-03-8.56908E-14
 -1      3988 1.25568E-02-1.30949E-03-9.22661E-14
 -1      3989 1.24139E-02-1.28598E-03-9.03525E-14
 -1      3990 1.23628E-02-1.31136E-03-8.94792E-14
 -1      3991 1.28426E-02-1.35653E-03-9.61186E-14
 -1      3992 1.26997E-02-1.33301E-03-9.41887E-14
 -1      3993 1.26486E-02-1.35838E-03-9.33096E-14
 -1      3994 1.31284E-02-1.40357E-03-9.99898E-14
 -1      3995 1.29855E-02-1.38005E-03-9.80521E-14
 -1      3996 1.29344E-02-1.40542E-03-9.71708E-14
 -1      3997 5.70861E-03-4.33390E-04-1.50663E-14
 -1      3998 1.33257E-02-1.44471E-03-1.02623E-13
 -1      3999 1.32188E-02-1.42279E-03-1.01193E-13
 -1      4000 1.31677E-02-1.44816E-03-1.00313E-13
 -1      4001 1.33486E-02-1.48661E-03-1.02727E-13
 -1      4002 1.35779E-02-1.60225E-03-1.05422E-13
 -1      4003 1.35548E-02-1.56009E-03-1.05321E-13
 -1      4004 1.34479E-02-1.53817E-03-1.03886E-13
 -1      4005 1.34656E-02-1.60283E-03-1.03780E-13
 -1      4006 6.88977E-03-4.11452E-04-2.74822E-14
 -1      4007 6.75313E-03-3.91831E-04-2.62659E-14
 -1      4008 6.71504E-03-4.13712E-04-2.57275E-14
 -1      4009 5.56534E-03-3.37564E-04-1.49223E-14
 -1      4010 5.61323E-03-3.67906E-04-1.47811E-14
 -1      4011 6.02512E-03-4.97724E-04-1.80828E-14
 -1      4012 6.14067E-03-5.18115E-04-1.91392E-14
 -1      4013 5.96288E-03-4.66705E-04-1.75488E-14
 -1      4014 6.19043E-03-5.05090E-04-1.96605E-14
 -1      4015 1.34037E-02-1.71658E-03-1.02208E-13
 -1      4016 1.34956E-02-1.76547E-03-1.03261E-13
 -1      4017 5.91288E-03-3.04619E-04-1.88884E-14
 -1      4018 5.80065E-03-2.60738E-04-1.83055E-14
 -1      4019 5.66166E-03-2.45004E-04-1.72052E-14
 -1      4020 5.75141E-03-4.23184E-04-1.55434E-14
 -1      4021 1.33450E-02-1.59551E-03-1.02062E-13
 -1      4022 1.33362E-02-1.56318E-03-1.02115E-13
 -1      4023 5.67478E-03-3.86363E-04-1.51388E-14
 -1      4024 5.58767E-03-3.15685E-04-1.55530E-14
 -1      4025 6.98575E-03-4.53251E-04-2.81598E-14
 -1      4026 1.33859E-02-1.67713E-03-1.02184E-13
 -1      4027 1.33628E-02-1.63496E-03-1.02093E-13
 -1      4028 1.32333E-02-1.59531E-03-1.00433E-13
 -1      4029 1.32689E-02-1.67421E-03-1.00487E-13
 -1      4030 6.60250E-03-5.53384E-04-2.35460E-14
 -1      4031 6.72959E-03-5.75287E-04-2.47104E-14
 -1      4032 6.85850E-03-5.97574E-04-2.58961E-14
 -1      4033 6.98901E-03-6.20379E-04-2.71029E-14
 -1      4034 6.77498E-03-5.58992E-04-2.52714E-14
 -1      4035 7.12096E-03-6.43456E-04-2.83337E-14
 -1      4036 7.25419E-03-6.66884E-04-2.95852E-14
 -1      4037 7.03593E-03-6.03064E-04-2.76847E-14
 -1      4038 7.38857E-03-6.90485E-04-3.08590E-14
 -1      4039 7.52398E-03-7.14308E-04-3.21557E-14
 -1      4040 7.30221E-03-6.48519E-04-3.01861E-14
 -1      4041 7.66031E-03-7.38224E-04-3.34748E-14
 -1      4042 7.79747E-03-7.62267E-04-3.48153E-14
 -1      4043 7.57281E-03-6.94906E-04-3.27781E-14
 -1      4044 7.93537E-03-7.86343E-04-3.61764E-14
 -1      4045 8.07393E-03-8.10481E-04-3.75599E-14
 -1      4046 7.84689E-03-7.41881E-04-3.54563E-14
 -1      4047 8.21306E-03-8.34613E-04-3.89642E-14
 -1      4048 8.35272E-03-8.58763E-04-4.03904E-14
 -1      4049 8.12378E-03-7.89195E-04-3.82228E-14
 -1      4050 8.49283E-03-8.82882E-04-4.18388E-14
 -1      4051 8.63335E-03-9.06992E-04-4.33068E-14
 -1      4052 8.40289E-03-8.36678E-04-4.10732E-14
 -1      4053 8.77422E-03-9.31060E-04-4.47960E-14
 -1      4054 8.91540E-03-9.55103E-04-4.63085E-14
 -1      4055 8.68377E-03-8.84219E-04-4.40080E-14
 -1      4056 9.05685E-03-9.79100E-04-4.78411E-14
 -1      4057 9.19854E-03-1.00307E-03-4.93944E-14
 -1      4058 8.96600E-03-9.31750E-04-4.70294E-14
 -1      4059 9.34043E-03-1.02699E-03-5.09699E-14
 -1      4060 9.48249E-03-1.05087E-03-5.25647E-14
 -1      4061 9.24927E-03-9.79234E-04-5.01345E-14
 -1      4062 9.62470E-03-1.07472E-03-5.41794E-14
 -1      4063 9.76704E-03-1.09853E-03-5.58135E-14
 -1      4064 9.53332E-03-1.02665E-03-5.33234E-14
 -1      4065 9.90949E-03-1.12231E-03-5.74650E-14
 -1      4066 1.00520E-02-1.14606E-03-5.91334E-14
 -1      4067 9.81794E-03-1.07401E-03-5.65892E-14
 -1      4068 1.01946E-02-1.16978E-03-6.08194E-14
 -1      4069 1.03373E-02-1.19347E-03-6.25208E-14
 -1      4070 1.01030E-02-1.12130E-03-5.99262E-14
 -1      4071 1.04801E-02-1.21714E-03-6.42387E-14
 -1      4072 1.06228E-02-1.24080E-03-6.59709E-14
 -1      4073 1.03883E-02-1.16853E-03-6.33262E-14
 -1      4074 1.07657E-02-1.26443E-03-6.77189E-14
 -1      4075 1.09085E-02-1.28804E-03-6.94835E-14
 -1      4076 1.06739E-02-1.21572E-03-6.67903E-14
 -1      4077 1.10514E-02-1.31164E-03-7.12605E-14
 -1      4078 1.11942E-02-1.33523E-03-7.30546E-14
 -1      4079 1.09595E-02-1.26286E-03-7.03150E-14
 -1      4080 1.13371E-02-1.35880E-03-7.48627E-14
 -1      4081 1.14800E-02-1.38237E-03-7.66840E-14
 -1      4082 1.12453E-02-1.30998E-03-7.38983E-14
 -1      4083 1.16229E-02-1.40593E-03-7.85194E-14
 -1      4084 1.17658E-02-1.42948E-03-8.03687E-14
 -1      4085 1.15311E-02-1.35707E-03-7.75382E-14
 -1      4086 1.19087E-02-1.45302E-03-8.22302E-14
 -1      4087 1.20517E-02-1.47656E-03-8.41026E-14
 -1      4088 1.18169E-02-1.40414E-03-8.12323E-14
 -1      4089 1.21946E-02-1.50009E-03-8.59893E-14
 -1      4090 1.23375E-02-1.52362E-03-8.78853E-14
 -1      4091 1.21027E-02-1.45121E-03-8.49779E-14
 -1      4092 1.24804E-02-1.54715E-03-8.97940E-14
 -1      4093 1.26233E-02-1.57068E-03-9.17115E-14
 -1      4094 1.23886E-02-1.49826E-03-8.87686E-14
 -1      4095 1.27662E-02-1.59420E-03-9.36395E-14
 -1      4096 1.29091E-02-1.61772E-03-9.55735E-14
 -1      4097 1.26744E-02-1.54530E-03-9.26027E-14
 -1      4098 1.30176E-02-1.63420E-03-9.70523E-14
 -1      4099 1.31605E-02-1.65772E-03-9.89993E-14
 -1      4100 1.31427E-02-1.61828E-03-9.89742E-14
 -1      4101 1.29257E-02-1.58531E-03-9.60076E-14
 -1      4102 6.11756E-03-4.72564E-04-1.91054E-14
 -1      4103 6.23454E-03-4.91763E-04-2.01826E-14
 -1      4104 6.54482E-03-4.15315E-04-2.40165E-14
 -1      4105 6.41311E-03-3.96362E-04-2.28646E-14
 -1      4106 1.33468E-02-1.54106E-03-1.02395E-13
 -1      4107 1.33380E-02-1.50873E-03-1.02449E-13
 -1      4108 1.32475E-02-1.48951E-03-1.01239E-13
 -1      4109 1.32262E-02-1.53374E-03-1.00681E-13
 -1      4110 6.28236E-03-3.77809E-04-2.17347E-14
 -1      4111 6.15231E-03-3.59710E-04-2.06273E-14
 -1      4112 6.37979E-03-4.16469E-04-2.23473E-14
 -1      4113 7.62715E-03-5.78569E-04-3.40130E-14
 -1      4114 7.48934E-03-5.57258E-04-3.26865E-14
 -1      4115 7.35217E-03-5.36154E-04-3.13818E-14
 -1      4116 7.21566E-03-5.15301E-04-3.00990E-14
 -1      4117 7.44409E-03-5.78582E-04-3.20853E-14
 -1      4118 8.18375E-03-6.65719E-04-3.95424E-14
 -1      4119 8.04388E-03-6.43683E-04-3.81266E-14
 -1      4120 8.46463E-03-7.10229E-04-4.24375E-14
 -1      4121 8.32401E-03-6.87910E-04-4.09806E-14
 -1      4122 8.27523E-03-7.11025E-04-4.03177E-14
 -1      4123 8.74680E-03-7.55237E-04-4.54179E-14
 -1      4124 8.60557E-03-7.32679E-04-4.39169E-14
 -1      4125 8.55613E-03-7.56279E-04-4.32339E-14
 -1      4126 9.02998E-03-8.00663E-04-4.84779E-14
 -1      4127 8.88828E-03-7.77904E-04-4.69377E-14
 -1      4128 8.83833E-03-8.01914E-04-4.62336E-14
 -1      4129 9.31393E-03-8.46434E-04-5.16228E-14
 -1      4130 9.17187E-03-8.23510E-04-5.00396E-14
 -1      4131 9.12155E-03-8.47857E-04-4.93162E-14
 -1      4132 9.59847E-03-8.92490E-04-5.48466E-14
 -1      4133 9.45614E-03-8.69430E-04-5.32236E-14
 -1      4134 9.40555E-03-8.94048E-04-5.24816E-14
 -1      4135 9.88344E-03-9.38777E-04-5.81436E-14
 -1      4136 9.74091E-03-9.15608E-04-5.64870E-14
 -1      4137 9.69013E-03-9.40437E-04-5.57264E-14
 -1      4138 1.01687E-02-9.85249E-04-6.15067E-14
 -1      4139 1.00260E-02-9.61992E-04-5.98170E-14
 -1      4140 9.97513E-03-9.86984E-04-5.90420E-14
 -1      4141 1.04542E-02-1.03187E-03-6.49343E-14
 -1      4142 1.03114E-02-1.00854E-03-6.32132E-14
 -1      4143 1.02604E-02-1.03366E-03-6.24228E-14
 -1      4144 1.07398E-02-1.07860E-03-6.84221E-14
 -1      4145 1.05970E-02-1.05522E-03-6.66692E-14
 -1      4146 1.05459E-02-1.08042E-03-6.58667E-14
 -1      4147 1.10256E-02-1.12542E-03-7.19733E-14
 -1      4148 1.08827E-02-1.10200E-03-7.01897E-14
 -1      4149 1.08316E-02-1.12727E-03-6.93728E-14
 -1      4150 1.13113E-02-1.17231E-03-7.55774E-14
 -1      4151 1.11684E-02-1.14886E-03-7.37688E-14
 -1      4152 1.11173E-02-1.17417E-03-7.29382E-14
 -1      4153 1.15972E-02-1.21925E-03-7.92395E-14
 -1      4154 1.14542E-02-1.19578E-03-7.74028E-14
 -1      4155 1.14031E-02-1.22112E-03-7.65598E-14
 -1      4156 1.18830E-02-1.26623E-03-8.29523E-14
 -1      4157 1.17401E-02-1.24273E-03-8.10896E-14
 -1      4158 1.16889E-02-1.26809E-03-8.02363E-14
 -1      4159 1.21688E-02-1.31323E-03-8.67121E-14
 -1      4160 1.20259E-02-1.28972E-03-8.48260E-14
 -1      4161 1.19748E-02-1.31509E-03-8.39630E-14
 -1      4162 1.24546E-02-1.36025E-03-9.05140E-14
 -1      4163 1.23117E-02-1.33673E-03-8.86084E-14
 -1      4164 1.22606E-02-1.36211E-03-8.77359E-14
 -1      4165 1.27404E-02-1.40728E-03-9.43554E-14
 -1      4166 1.25975E-02-1.38376E-03-9.24302E-14
 -1      4167 1.25464E-02-1.40914E-03-9.15514E-14
 -1      4168 5.78716E-03-4.09732E-04-1.61161E-14
 -1      4169 7.90447E-03-6.21798E-04-3.67339E-14
 -1      4170 7.76554E-03-6.00095E-04-3.53626E-14
 -1      4171 7.71880E-03-6.22048E-04-3.47402E-14
 -1      4172 7.99599E-03-6.66244E-04-3.74844E-14
 -1      4173 5.62370E-03-2.70133E-04-1.65680E-14
 -1      4174 7.07991E-03-4.94691E-04-2.88398E-14
 -1      4175 6.94488E-03-4.74375E-04-2.76009E-14
 -1      4176 7.17234E-03-5.36027E-04-2.95201E-14
 -1      4177 5.89448E-03-4.31003E-04-1.70725E-14
 -1      4178 6.00428E-03-4.48155E-04-1.81066E-14
 -1      4179 6.03763E-03-4.34229E-04-1.86067E-14
 -1      4180 5.80525E-03-3.88979E-04-1.66461E-14
 -1      4181 5.67219E-03-3.07121E-04-1.65386E-14
 -1      4182 5.77060E-03-3.62860E-04-1.66934E-14
 -1      4183 5.89282E-03-3.85364E-04-1.76653E-14
 -1      4184 5.82015E-03-3.25164E-04-1.77440E-14
 -1      4185 6.35469E-03-5.11501E-04-2.12817E-14
 -1      4186 6.47742E-03-5.32205E-04-2.24035E-14
 -1      4187 6.52063E-03-5.16872E-04-2.29448E-14
 -1      4188 6.81070E-03-4.54347E-04-2.63851E-14
 -1      4189 6.67730E-03-4.34660E-04-2.51910E-14
 -1      4190 6.63971E-03-4.54641E-04-2.46526E-14
 -1      4191 6.27466E-03-4.77366E-04-2.07038E-14
 -1      4192 6.90405E-03-4.94615E-04-2.70432E-14
 -1      4193 1.30262E-02-1.45432E-03-9.82262E-14
 -1      4194 1.28833E-02-1.43080E-03-9.62881E-14
 -1      4195 1.31571E-02-1.47028E-03-1.00035E-13
 -1      4196 1.31249E-02-1.57883E-03-9.89463E-14
 -1      4197 1.28322E-02-1.45617E-03-9.54026E-14
 -1      4198 1.30953E-02-1.51778E-03-9.88696E-14
 -1      4199 1.31060E-02-1.49566E-03-9.91485E-14
 -1      4200 6.05050E-03-3.48855E-04-1.97358E-14
 -1      4201 5.91925E-03-3.35005E-04-1.86007E-14
 -1      4202 5.95456E-03-3.66504E-04-1.85654E-14
 -1      4203 6.15122E-03-3.87138E-04-2.03245E-14
 -1      4204 1.29652E-02-1.56302E-03-9.67117E-14
 -1      4205 1.30559E-02-1.54006E-03-9.81687E-14
 -1      4206 1.29356E-02-1.50198E-03-9.66393E-14
 -1      4207 1.28567E-02-1.54654E-03-9.52352E-14
 -1      4208 1.27927E-02-1.47846E-03-9.47034E-14
 -1      4209 6.97258E-03-5.49152E-04-2.73695E-14
 -1      4210 7.10532E-03-5.70661E-04-2.86037E-14
 -1      4211 7.23921E-03-5.92420E-04-2.98592E-14
 -1      4212 7.37407E-03-6.14515E-04-3.11366E-14
 -1      4213 7.50988E-03-6.36788E-04-3.24371E-14
 -1      4214 7.64650E-03-6.59306E-04-3.37605E-14
 -1      4215 7.78389E-03-6.81949E-04-3.51047E-14
 -1      4216 7.92195E-03-7.04767E-04-3.64708E-14
 -1      4217 8.06064E-03-7.27672E-04-3.78586E-14
 -1      4218 8.19987E-03-7.50702E-04-3.92692E-14
 -1      4219 8.33960E-03-7.73790E-04-4.07014E-14
 -1      4220 8.47976E-03-7.96968E-04-4.21544E-14
 -1      4221 8.62031E-03-8.20185E-04-4.36275E-14
 -1      4222 8.76121E-03-8.43465E-04-4.51209E-14
 -1      4223 8.90241E-03-8.66772E-04-4.66365E-14
 -1      4224 9.04387E-03-8.90123E-04-4.81726E-14
 -1      4225 9.18557E-03-9.13493E-04-4.97301E-14
 -1      4226 9.32746E-03-9.36893E-04-5.13093E-14
 -1      4227 9.46953E-03-9.60307E-04-5.29075E-14
 -1      4228 9.61174E-03-9.83742E-04-5.45253E-14
 -1      4229 9.75408E-03-1.00719E-03-5.61622E-14
 -1      4230 9.89653E-03-1.03065E-03-5.78166E-14
 -1      4231 1.00391E-02-1.05411E-03-5.94875E-14
 -1      4232 1.01817E-02-1.07759E-03-6.11750E-14
 -1      4233 1.03244E-02-1.10107E-03-6.28782E-14
 -1      4234 1.04671E-02-1.12456E-03-6.45976E-14
 -1      4235 1.06099E-02-1.14805E-03-6.63308E-14
 -1      4236 1.07527E-02-1.17155E-03-6.80815E-14
 -1      4237 1.08955E-02-1.19505E-03-6.98485E-14
 -1      4238 1.10384E-02-1.21856E-03-7.16281E-14
 -1      4239 1.11813E-02-1.24207E-03-7.34214E-14
 -1      4240 1.13242E-02-1.26558E-03-7.52307E-14
 -1      4241 1.14671E-02-1.28909E-03-7.70537E-14
 -1      4242 1.16100E-02-1.31260E-03-7.88887E-14
 -1      4243 1.17529E-02-1.33612E-03-8.07374E-14
 -1      4244 1.18958E-02-1.35963E-03-8.25992E-14
 -1      4245 1.20387E-02-1.38315E-03-8.44733E-14
 -1      4246 1.21816E-02-1.40666E-03-8.63590E-14
 -1      4247 1.23246E-02-1.43018E-03-8.82543E-14
 -1      4248 1.24675E-02-1.45370E-03-9.01618E-14
 -1      4249 6.20581E-03-4.30557E-04-2.04233E-14
 -1      4250 6.32930E-03-4.48804E-04-2.15269E-14
 -1      4251 6.45483E-03-4.67639E-04-2.26534E-14
 -1      4252 6.58197E-03-4.87285E-04-2.37996E-14
 -1      4253 6.71080E-03-5.07387E-04-2.49697E-14
 -1      4254 1.26104E-02-1.47722E-03-9.20763E-14
 -1      4255 6.84100E-03-5.28099E-04-2.61585E-14
 -1      4256 1.27533E-02-1.50074E-03-9.40033E-14
 -1      4257 5.98039E-03-4.03810E-04-1.83536E-14
 -1      4258 6.10156E-03-4.27990E-04-1.93619E-14
 -1      4259 5.95067E-03-3.76296E-04-1.83996E-14
 -1      4260 6.04688E-03-3.86192E-04-1.92690E-14
 -1      4261 6.14491E-03-3.96806E-04-2.01531E-14
 -3
    1PSTEP                         2           1           1          
  100CL  101 1.000000000        4261                     0    1           1
 -4  STRESS      6    1
 -5  SXX         1    4    1    1
 -5  SYY         1    4    2    2
 -5  SZZ         1    4    3    3
 -5  SXY         1    4    1    2
 -5  SYZ         1    4    2    3
 -5  SZX         1    4    3    1
 -1         1 6.79049E+01 9.29700E-01 3.81161E+00-5.82407E-02-4.74655E-14-1.95337E-13
 -1         2-8.06300E-01-2.37950E+01-3.36025E+00-6.02721E-02 3.03389E-13 1.01721E-13
 -1         3 1.99998E+01 1.90718E-05-5.77898E-05 1.91292E-05-6.88143E-13-7.50694E-13
 -1         4 1.99998E+01 1.74382E-05-5.94274E-05-1.78511E-05 2.93836E-13-9.45615E-14
 -1         5 3.69952E+01 6.97231E+00 2.96265E+00 6.74110E+00-3.16136E-14 2.77806E-12
 -1         6 4.11072E+01 1.39523E+01 5.40036E+00-9.22206E+00-1.54321E-13 2.56578E-12
 -1         7 2.55368E+01 7.41082E+00 6.67495E-02-4.12580E+00-2.25098E-14 5.54487E-13
 -1         8 2.28481E+01 6.86928E+00 1.41837E-01-1.93210E+00-2.74503E-14-8.03585E-14
 -1         9 2.06030E+01 6.21151E+00 8.52579E-02-8.21759E-01-2.57433E-14-4.39578E-13
 -1        10 1.85527E+01 5.59835E+00 3.59600E-02-1.64406E-01-1.45023E-14-6.29744E-13
 -1        11 1.67107E+01 5.04832E+00-2.17119E-02 1.14134E-01-1.18933E-14-7.33399E-13
 -1        12 1.52812E+01 4.62048E+00-7.51674E-02 5.00307E-02-5.24580E-15-7.96083E-13
 -1        13 1.44394E+01 4.36860E+00-1.04971E-01-2.63071E-01-3.16414E-15-8.11753E-13
 -1        14 1.43450E+01 4.33875E+00-9.68921E-02-6.46453E-01-6.24500E-16-8.09206E-13
 -1        15 1.49476E+01 4.51604E+00-5.40378E-02-8.97291E-01 2.71311E-15-7.82461E-13
 -1        16 1.60315E+01 4.83688E+00 4.86495E-03-8.72054E-01 7.59809E-15-7.33547E-13
 -1        17 1.73224E+01 5.21992E+00 5.78565E-02-5.31685E-01 1.14908E-14-6.70491E-13
 -1        18 1.85817E+01 5.59702E+00 9.15441E-02 6.06583E-02 1.48562E-14-5.87044E-13
 -1        19 1.97589E+01 5.95240E+00 1.04106E-01 8.45561E-01 2.33841E-14-4.66983E-13
 -1        20 2.08753E+01 6.29395E+00 1.00430E-01 1.75957E+00 2.90878E-14-2.39170E-13
 -1        21 2.21448E+01 6.68675E+00 9.82717E-02 2.85055E+00 3.45834E-14 1.66412E-13
 -1        22 2.43378E+01 7.28494E+00 2.05170E-01 4.49085E+00 7.46625E-15 9.80042E-13
 -1        23 2.93150E+01-1.71288E+00-1.08866E+00-4.82424E-01-9.48755E-14 2.03647E-12
 -1        24 2.68095E+01-8.80865E-02-2.77420E-01 1.27837E-01-2.91139E-14 1.60654E-12
 -1        25 2.68746E+01-2.63239E-02-4.79038E-03 8.67740E-02-1.32311E-14 1.18141E-12
 -1        26 2.67838E+01 2.11003E-02 8.50377E-02 2.27090E-02-5.58689E-15 8.80001E-13
 -1        27 2.59939E+01 3.66224E-02 1.15158E-01-4.80954E-02 1.98973E-14 7.40640E-13
 -1        28 2.41843E+01 2.77552E-02 9.31974E-02-1.32574E-01-1.21858E-14 6.75168E-13
 -1        29 2.15306E+01-8.31489E-03-2.33130E-03-1.87104E-01-5.06519E-15 4.78555E-13
 -1        30 1.89301E+01-5.49095E-02-1.37753E-01-1.51034E-01 5.89806E-17 2.85307E-13
 -1        31 1.76616E+01-7.99706E-02-2.14850E-01-1.70373E-02-1.20737E-15-4.01246E-14
 -1        32 1.84543E+01-6.33839E-02-1.67099E-01 1.31459E-01-4.01528E-14-4.97290E-13
 -1        33 2.08483E+01-1.73742E-02-3.61011E-02 1.97223E-01 3.13379E-14-7.22283E-13
 -1        34 2.35920E+01 2.67532E-02 7.56229E-02 1.63499E-01-3.13144E-14-7.21374E-13
 -1        35 2.56024E+01 4.73752E-02 1.15126E-01 8.55073E-02 6.12010E-14-7.14446E-13
 -1        36 2.64816E+01 4.46024E-02 9.55472E-02 1.71635E-02-1.25707E-14-5.27607E-13
 -1        37 2.63947E+01 3.02086E-02 5.58290E-02-2.13208E-02-4.70195E-14-3.91868E-13
 -1        38 2.57163E+01 1.46888E-02 2.14653E-02-3.46641E-02-9.65948E-15-5.91435E-13
 -1        39 2.47864E+01 3.08677E-03 1.88968E-04-3.39500E-02-1.75598E-14-5.68512E-13
 -1        40 2.38294E+01-3.82582E-03-9.91372E-03-2.76979E-02 2.72168E-14-6.28306E-13
 -1        41 2.29627E+01-7.07984E-03-1.30798E-02-2.05189E-02 9.93704E-15-8.66608E-13
 -1        42 2.22321E+01-8.01103E-03-1.27506E-02-1.42990E-02-2.96746E-14-9.01781E-13
 -1        43 2.16434E+01-7.67874E-03-1.10201E-02-9.51390E-03-4.13649E-14-6.13041E-13
 -1        44 2.11834E+01-6.77078E-03-8.95608E-03-6.05973E-03 7.47735E-14-2.21185E-13
 -1        45 2.08324E+01-5.68155E-03-7.02305E-03-3.66278E-03-2.95411E-14 3.02278E-14
 -1        46 2.05698E+01-4.61410E-03-5.38068E-03-2.04694E-03 1.25516E-14-1.30125E-13
 -1        47 2.03768E+01-3.65947E-03-4.05179E-03-9.86362E-04-5.47243E-14-3.48059E-13
 -1        48 2.02377E+01-2.84821E-03-3.00590E-03-3.11572E-04 6.72170E-14-6.46429E-13
 -1        49 2.01395E+01-2.18065E-03-2.19719E-03 9.94140E-05 3.60063E-14-4.92397E-13
 -1        50 2.00719E+01-1.64362E-03-1.58007E-03 3.32640E-04 2.92820E-14-5.60504E-13
 -1        51 2.00269E+01-1.21913E-03-1.11458E-03 4.48196E-04-1.88314E-14-3.59092E-13
 -1        52 1.99982E+01-8.88641E-04-7.67608E-04 4.87801E-04-3.23820E-14-1.90232E-13
 -1        53 1.99811E+01-6.34963E-04-5.12359E-04 4.80255E-04-2.56465E-15-5.11398E-13
 -1        54 1.99721E+01-4.43024E-04-3.27476E-04 4.45265E-04 3.19343E-14-4.56127E-13
 -1        55 1.99684E+01-3.00010E-04-1.96064E-04 3.96126E-04-5.63740E-14-4.60404E-13
 -1        56 1.99682E+01-1.95251E-04-1.04840E-04 3.41604E-04-3.24842E-14-6.29629E-13
 -1        57 1.99701E+01-1.20013E-04-4.34350E-05 2.87274E-04 5.16574E-15-4.17544E-13
 -1        58 1.99732E+01-6.72393E-05-3.81769E-06 2.36483E-04 5.39074E-14-3.79656E-13
 -1        59 1.99768E+01-3.13005E-05 2.01752E-05 1.91044E-04-3.38352E-14-3.63633E-13
 -1        60 1.99804E+01-7.76264E-06 3.32207E-05 1.51736E-04-9.30432E-15-3.64382E-13
 -1        61 1.99839E+01 6.82617E-06 3.88252E-05 1.18672E-04 9.23816E-14-3.81746E-13
 -1        62 1.99871E+01 1.51224E-05 3.95831E-05 9.15512E-05-4.62009E-14-1.72249E-13
 -1        63 1.99899E+01 1.91500E-05 3.73942E-05 6.98390E-05-6.76199E-14-2.41339E-13
 -1        64 1.99923E+01 2.04418E-05 3.36474E-05 5.28858E-05-7.57729E-14-3.81378E-13
 -1        65 1.99943E+01 2.01587E-05 2.93916E-05 3.99868E-05-7.23463E-14-4.83080E-13
 -1        66 1.99960E+01 1.91889E-05 2.55115E-05 3.03872E-05 6.07035E-14-4.30249E-13
 -1        67 1.99973E+01 1.82152E-05 2.29235E-05 2.32118E-05 1.09034E-13 6.88223E-14
 -1        68 1.99984E+01 1.77141E-05 2.26838E-05 1.72404E-05 1.26938E-14 6.52775E-13
 -1        69 1.99992E+01 1.76659E-05 2.53136E-05 1.03674E-05-9.27694E-14 4.64516E-13
 -1        70 1.99997E+01 1.51442E-05 2.61241E-05-2.70775E-06 6.89180E-14 2.35054E-13
 -1        71 1.99999E+01-2.80152E-06 1.21377E-06-2.05857E-05-1.29724E-13 2.28386E-13
 -1        72 2.49066E+01-4.48344E-01-1.07570E+00-4.28731E-01 3.34732E-14 2.56356E-12
 -1        73 2.35612E+01-5.55801E-02-2.73267E-01-8.88603E-02 1.55240E-14 1.99629E-12
 -1        74 2.28593E+01-5.17608E-03-2.13808E-02-3.46727E-02 2.99476E-14 1.55004E-12
 -1        75 2.21488E+01 3.66735E-03 3.65055E-02-1.01011E-02-5.84417E-15 1.28320E-12
 -1        76 2.11933E+01 1.39008E-03 3.64884E-02 1.73575E-02 6.85205E-15 1.14404E-12
 -1        77 1.99781E+01-7.37849E-03 1.28355E-02 4.44513E-02 2.34313E-15 9.72578E-13
 -1        78 1.86956E+01-1.79216E-02-2.33986E-02 6.10248E-02-2.54848E-14 9.24101E-13
 -1        79 1.76855E+01-2.44477E-02-5.80084E-02 5.62365E-02 7.93376E-15 8.10596E-13
 -1        80 1.72880E+01-2.32708E-02-7.36207E-02 2.83103E-02 1.99647E-14 5.86194E-13
 -1        81 1.76604E+01-1.48016E-02-6.14932E-02-1.15341E-02 1.19687E-14 2.57124E-13
 -1        82 1.86835E+01-3.24575E-03-2.84949E-02-4.54405E-02 2.47241E-15 1.53454E-14
 -1        83 2.00229E+01 6.74227E-03 7.77725E-03-6.07226E-02-2.31450E-14 2.33667E-14
 -1        84 2.13036E+01 1.24446E-02 3.25285E-02-5.67717E-02 5.25730E-15 7.28376E-14
 -1        85 2.22621E+01 1.36286E-02 4.08872E-02-4.13018E-02 1.23640E-14 7.86871E-15
 -1        86 2.28001E+01 1.16529E-02 3.65436E-02-2.32288E-02 2.39961E-14-2.75700E-13
 -1        87 2.29513E+01 8.24927E-03 2.61409E-02-8.22622E-03-5.11395E-14-2.67843E-13
 -1        88 2.28162E+01 4.75518E-03 1.50832E-02 1.76638E-03 7.94612E-15-2.36583E-13
 -1        89 2.25070E+01 1.89165E-03 6.20974E-03 7.14370E-03-1.16414E-14-2.17813E-13
 -1        90 2.21182E+01-1.19546E-04 2.63586E-04 9.18736E-03-3.94092E-15 2.37492E-14
 -1        91 2.17163E+01-1.34161E-03-3.11522E-03 9.19845E-03-1.00085E-14-6.07292E-14
 -1        92 2.13419E+01-1.95222E-03-4.64176E-03 8.16524E-03-1.68346E-14-1.42376E-13
 -1        93 2.10156E+01-2.14262E-03-4.99793E-03 6.72804E-03-5.11276E-14-3.33058E-14
 -1        94 2.07445E+01-2.07345E-03-4.70019E-03 5.25356E-03 5.05177E-14-1.91828E-13
 -1        95 2.05276E+01-1.86322E-03-4.09290E-03 3.92491E-03-4.25656E-14-5.36862E-13
 -1        96 2.03595E+01-1.59188E-03-3.38538E-03 2.81423E-03 2.12712E-14-1.60684E-13
 -1        97 2.02331E+01-1.30932E-03-2.69405E-03 1.93235E-03 1.30280E-14 9.62362E-14
 -1        98 2.01408E+01-1.04402E-03-2.07631E-03 1.25983E-03 2.03571E-14-2.22946E-13
 -1        99 2.00754E+01-8.10129E-04-1.55438E-03 7.64884E-04-2.38216E-14-4.62816E-13
 -1       100 2.00307E+01-6.12818E-04-1.13069E-03 4.13201E-04-6.41940E-14-2.78457E-13
 -1       101 2.00016E+01-4.51904E-04-7.97516E-04 1.72796E-04-7.00497E-15 1.88972E-13
 -1       102 1.99839E+01-3.24321E-04-5.42657E-04 1.60912E-05 5.18442E-15 1.72056E-13
 -1       103 1.99742E+01-2.25680E-04-3.52722E-04-7.95322E-05-4.79134E-14 2.31921E-13
 -1       104 1.99699E+01-1.51223E-04-2.14879E-04-1.31957E-04 4.12226E-14 6.09249E-13
 -1       105 1.99693E+01-9.63696E-05-1.17711E-04-1.54901E-04 2.99588E-14 8.58642E-13
 -1       106 1.99709E+01-5.70022E-05-5.15323E-05-1.58606E-04-1.19948E-13 6.36876E-13
 -1       107 1.99737E+01-2.95842E-05-8.40738E-06-1.50519E-04 1.29109E-13-1.59943E-13
 -1       108 1.99772E+01-1.11783E-05 1.79837E-05-1.35904E-04 1.42657E-14-8.26056E-13
 -1       109 1.99807E+01 5.90059E-07 3.25572E-05-1.18365E-04 6.55174E-15-2.27747E-13
 -1       110 1.99841E+01 7.59954E-06 3.90562E-05-1.00279E-04 1.79367E-14-4.94142E-13
 -1       111 1.99872E+01 1.13099E-05 4.02764E-05-8.31314E-05-3.41443E-14-4.26779E-13
 -1       112 1.99900E+01 1.28408E-05 3.82740E-05-6.77899E-05-1.54157E-13 3.40664E-14
 -1       113 1.99923E+01 1.30473E-05 3.45539E-05-5.46986E-05-1.32204E-14 1.48485E-13
 -1       114 1.99943E+01 1.25891E-05 3.02478E-05-4.40247E-05 1.37203E-14-1.07658E-13
 -1       115 1.99960E+01 1.19595E-05 2.62952E-05-3.57180E-05-9.33448E-14-5.91380E-13
 -1       116 1.99974E+01 1.15386E-05 2.36453E-05-2.95092E-05-4.86070E-14-2.60385E-13
 -1       117 1.99984E+01 1.15949E-05 2.35349E-05-2.48918E-05 1.06591E-13-8.36602E-13
 -1       118 1.99992E+01 1.18962E-05 2.64608E-05-2.03404E-05-8.02891E-14-1.18290E-12
 -1       119 1.99997E+01 1.00705E-05 2.71352E-05-1.04666E-05 7.15989E-14-1.32401E-12
 -1       120 1.99999E+01-1.04914E-05-1.50865E-06 1.39837E-05 3.34924E-13-1.62445E-12
 -1       121 1.99998E+01 4.29464E-05 8.43923E-07 2.21901E-05-1.79909E-12-2.54214E-14
 -1       122 1.99998E+01-1.20274E-04 2.61817E-05-3.70086E-06-5.66837E-13 2.48279E-13
 -1       123 1.99998E+01-6.02316E-04 1.86092E-05-1.87901E-05 2.11227E-13-4.40745E-14
 -1       124 1.99998E+01-1.26676E-03 5.77321E-06-2.46188E-05-3.31872E-13 1.79563E-13
 -1       125 1.99998E+01-1.98028E-03-5.64851E-06-2.41532E-05-2.26567E-13-6.31254E-14
 -1       126 1.99998E+01-2.61629E-03-1.43162E-05-1.99980E-05-4.74829E-13 7.66774E-14
 -1       127 1.99998E+01-3.10180E-03-2.00614E-05-1.29783E-05-1.17320E-12 1.76108E-13
 -1       128 1.99998E+01-3.36014E-03-2.29550E-05-4.43684E-06-5.99940E-13 2.09771E-13
 -1       129 1.99998E+01-3.35801E-03-2.29343E-05 4.59100E-06 1.44526E-13 1.88861E-13
 -1       130 1.99998E+01-3.09562E-03-2.00024E-05 1.30973E-05 6.54005E-13 7.89355E-14
 -1       131 1.99998E+01-2.60693E-03-1.41067E-05 2.02676E-05-8.92506E-13-3.88748E-13
 -1       132 1.99998E+01-1.96906E-03-5.56932E-06 2.42429E-05-1.83542E-12 4.04765E-13
 -1       133 1.99998E+01-1.25490E-03 5.85714E-06 2.45239E-05-1.96477E-12-8.29865E-14
 -1       134 1.99998E+01-5.89837E-04 1.99388E-05 2.04979E-05-1.65479E-12 7.23993E-14
 -1       135 1.99998E+01-1.21409E-04 2.30995E-05 5.13822E-06-1.11582E-12 7.43629E-14
 -1       136 1.99998E+01 3.71834E-05-9.94648E-08-3.85494E-05-3.12691E-13 6.18796E-14
 -1       137-1.38502E+00-1.81996E+01-2.96719E+00-3.48351E+00 2.03304E-12 5.36529E-13
 -1       138-1.15004E+00-6.77847E+00-2.11462E+00-2.27835E+00 2.78705E-12 1.23476E-12
 -1       139 3.56042E+00 4.42188E+00-9.43735E-01 4.22709E+00 2.81936E-12 2.15300E-12
 -1       140 1.65911E+01 1.09845E+01 4.89517E-01 1.33570E+01 2.34240E-12 2.65776E-12
 -1       141 3.42012E+01 1.03428E+01 1.77420E+00 1.83641E+01 1.33241E-12 2.17820E-12
 -1       142 5.24581E+01 5.61211E+00 2.82555E+00 1.59514E+01 4.35846E-13 1.35125E-12
 -1       143 6.42832E+01 1.46025E+00 3.41559E+00 5.36015E+00 2.38871E-14-2.36894E-14
 -1       144 6.27663E+01 1.82056E+00 3.29923E+00-7.51786E+00 2.63220E-13-1.54435E-12
 -1       145 4.95291E+01 6.28513E+00 2.58368E+00-1.65059E+01 1.01641E-12-2.73381E-12
 -1       146 2.84093E+01 1.07334E+01 1.27865E+00-1.71238E+01 2.16976E-12-3.38618E-12
 -1       147 1.11263E+01 9.49236E+00-1.38431E-01-1.03194E+01 3.05961E-12-3.02264E-12
 -1       148 1.01848E+00 8.14547E-01-1.45793E+00-1.44373E+00 3.04184E-12-1.94750E-12
 -1       149-1.40144E+00-1.04919E+01-2.39220E+00 3.01838E+00 2.23638E-12-8.52998E-13
 -1       150-9.36071E-01-1.94133E+01-2.95076E+00 2.26211E+00 7.64111E-13-1.51847E-13
 -1       151-8.10678E-01-2.12070E+01-3.10125E+00-1.53350E+00-9.10966E-13-1.41605E-13
 -1       152-1.74473E+00-1.49018E+01-2.80231E+00-3.86277E+00-2.40824E-12-7.69197E-13
 -1       153-4.62854E-01-3.68163E+00-2.02404E+00-8.81990E-01-3.17552E-12-1.78590E-12
 -1       154 6.32689E+00 6.30251E+00-8.32514E-01 6.52648E+00-3.20050E-12-2.82813E-12
 -1       155 2.23300E+01 1.06348E+01 7.25785E-01 1.52001E+01-2.53358E-12-3.46095E-12
 -1       156 4.20800E+01 8.33432E+00 2.20118E+00 1.79881E+01-1.49558E-12-3.21043E-12
 -1       157 6.04575E+01 3.42057E+00 3.36778E+00 1.23219E+01-4.79602E-13-1.98824E-12
 -1       158 6.03560E+01 3.72652E+00 3.40963E+00-1.30331E+01-4.14051E-13 1.45550E-12
 -1       159 4.05293E+01 9.15871E+00 2.19643E+00-1.85330E+01-1.35159E-12 2.63162E-12
 -1       160 1.93499E+01 1.09467E+01 6.21507E-01-1.44082E+01-2.20862E-12 2.84928E-12
 -1       161 4.92836E+00 5.48740E+00-9.08524E-01-5.41082E+00-2.74980E-12 2.24720E-12
 -1       162-1.44957E+00-6.76284E+00-2.24718E+00 2.56947E+00-2.59998E-12 1.21161E-12
 -1       163-1.49750E+00-1.90361E+01-3.10531E+00 3.98148E+00-1.84891E-12 4.93681E-13
 -1       164 2.54390E+01 3.83823E+00-5.39127E-02-2.61822E+00-3.23745E-13 2.34299E-13
 -1       165 2.26165E+01 4.30351E+00-4.71807E-02-1.49528E+00-2.83287E-13-1.74579E-13
 -1       166 2.01540E+01 4.46952E+00-3.41301E-02-6.79537E-01-2.08663E-13-4.24376E-13
 -1       167 1.78777E+01 4.57366E+00-2.50885E-02-1.70413E-01-1.37404E-13-5.66862E-13
 -1       168 1.59300E+01 4.70226E+00-1.87998E-02-9.88857E-03-8.03645E-14-6.43303E-13
 -1       169 1.45317E+01 4.80567E+00-1.53976E-02-1.68388E-01-5.21380E-14-6.95941E-13
 -1       170 1.39934E+01 4.79709E+00-1.39411E-02-5.12408E-01-2.10411E-14-7.02567E-13
 -1       171 1.43838E+01 4.64821E+00-1.41171E-02-8.20161E-01 1.35482E-15-6.88497E-13
 -1       172 1.55048E+01 4.42431E+00-1.52443E-02-8.91642E-01 3.21566E-14-6.41472E-13
 -1       173 1.69980E+01 4.23381E+00-1.76342E-02-6.39443E-01 7.41403E-14-5.87612E-13
 -1       174 1.85028E+01 4.15200E+00-2.16134E-02-1.07438E-01 1.50105E-13-5.16717E-13
 -1       175 1.98869E+01 4.17860E+00-2.79630E-02 6.30545E-01 2.17675E-13-4.07950E-13
 -1       176 2.11230E+01 4.24541E+00-3.89653E-02 1.48161E+00 2.96938E-13-2.51065E-13
 -1       177 2.24097E+01 4.20051E+00-5.43151E-02 2.40276E+00 3.51224E-13 2.86472E-14
 -1       178 2.42505E+01 3.61627E+00-6.59051E-02 3.34190E+00 3.52598E-13 5.17794E-13
 -1       179 2.60813E+01 1.12814E+00-3.68159E-01 2.90727E+00 2.55330E-13 1.16079E-12
 -1       180 2.76276E+01 7.58703E-01-1.80105E-03-1.24303E+00-2.74104E-13 7.09786E-13
 -1       181 2.65224E+01 4.22244E-02-1.18334E-02-2.38116E-01-2.28245E-13 6.03002E-13
 -1       182 2.60514E+01-1.14666E-01 8.90669E-03-1.73402E-01-1.72302E-13 5.23451E-13
 -1       183 2.56862E+01-2.60341E-01 6.00980E-03-5.76892E-01-9.16558E-14 4.28258E-13
 -1       184 2.50421E+01-3.09311E-01 3.84090E-03-1.23646E+00-5.94338E-14 3.88043E-13
 -1       185 2.39862E+01-1.61998E-01 2.12672E-03-1.79846E+00-1.05089E-13 3.71289E-13
 -1       186 2.26997E+01 1.96229E-01-3.32703E-03-1.76796E+00-1.60768E-13 2.34337E-13
 -1       187 2.17058E+01 5.54786E-01-1.08215E-02-8.70385E-01-2.16044E-13 8.89393E-14
 -1       188 2.15564E+01 6.03617E-01-1.23028E-02 5.28023E-01-2.87843E-13-7.73483E-14
 -1       189 2.23232E+01 2.96270E-01-6.26320E-03 1.60667E+00-1.71851E-13-2.56923E-13
 -1       190 2.35154E+01-9.79157E-02-8.70321E-04 1.82625E+00-7.26508E-14-4.63506E-13
 -1       191 2.45268E+01-3.16243E-01 1.17188E-06 1.31623E+00 3.26466E-14-5.07700E-13
 -1       192 2.50321E+01-3.26288E-01-3.17090E-03 5.42421E-01 5.73534E-14-5.11153E-13
 -1       193 2.50158E+01-2.27225E-01-5.26413E-03-1.19584E-01 4.45668E-14-5.02000E-13
 -1       194 2.46218E+01-1.15237E-01-5.16808E-03-5.29561E-01-1.32110E-13-4.83961E-13
 -1       195 2.40215E+01-3.28078E-02-3.51474E-03-7.07690E-01 2.97628E-14-4.80126E-13
 -1       196 2.33522E+01 1.48300E-02-1.52706E-03-7.29198E-01 3.78773E-14-4.28775E-13
 -1       197 2.27034E+01 3.65389E-02 5.10413E-05-6.65703E-01-5.88336E-14-3.53401E-13
 -1       198 2.21229E+01 4.26562E-02 1.02210E-03-5.66975E-01-9.97150E-14-3.06448E-13
 -1       199 2.16300E+01 4.07900E-02 1.47201E-03-4.61906E-01 1.01223E-13-3.23017E-13
 -1       200 2.12263E+01 3.55541E-02 1.57089E-03-3.64839E-01 2.02707E-13-2.08734E-13
 -1       201 2.09045E+01 2.94155E-02 1.47262E-03-2.81478E-01 1.27744E-13-2.16179E-13
 -1       202 2.06537E+01 2.35468E-02 1.28459E-03-2.12949E-01-6.91931E-14-8.10121E-14
 -1       203 2.04617E+01 1.84178E-02 1.07102E-03-1.58226E-01-1.30498E-13-4.52256E-14
 -1       204 2.03174E+01 1.41480E-02 8.65660E-04-1.15452E-01-1.88923E-13-9.23264E-14
 -1       205 2.02109E+01 1.06977E-02 6.83641E-04-8.25914E-02 4.28451E-14-1.72783E-13
 -1       206 2.01336E+01 7.96612E-03 5.29785E-04-5.77404E-02-3.10740E-14-3.37330E-13
 -1       207 2.00789E+01 5.83721E-03 4.03698E-04-3.92357E-02 2.84606E-15-3.18697E-13
 -1       208 2.00410E+01 4.20063E-03 3.02649E-04-2.56818E-02 4.99266E-14-3.25147E-13
 -1       209 2.00157E+01 2.95911E-03 2.23091E-04-1.59369E-02-8.49985E-14-2.99151E-13
 -1       210 1.99995E+01 2.03027E-03 1.61420E-04-9.08278E-03-6.86511E-14-1.45785E-13
 -1       211 1.99898E+01 1.34595E-03 1.14320E-04-4.39105E-03-8.26889E-15-4.09645E-13
 -1       212 1.99846E+01 8.50604E-04 7.88858E-05-1.29149E-03-4.05014E-14-3.93024E-13
 -1       213 1.99824E+01 4.99531E-04 5.26578E-05 6.57001E-04 1.19461E-13-1.21024E-13
 -1       214 1.99823E+01 2.57124E-04 3.35938E-05 1.79121E-03-4.39824E-14-3.15044E-13
 -1       215 1.99833E+01 9.53308E-05 2.00269E-05 2.36471E-03-2.72051E-14-4.25532E-13
 -1       216 1.99850E+01-7.70407E-06 1.06154E-05 2.56538E-03-3.66916E-14-4.41404E-13
 -1       217 1.99870E+01-6.88122E-05 4.29248E-06 2.52994E-03-4.16903E-15-2.13698E-13
 -1       218 1.99891E+01-1.00802E-04 2.19530E-07 2.35565E-03 1.33572E-13-2.28295E-13
 -1       219 1.99911E+01-1.13310E-04-2.25640E-06 2.10973E-03-1.13263E-13-2.17935E-13
 -1       220 1.99929E+01-1.13532E-04-3.63963E-06 1.83676E-03-1.57764E-13-1.88064E-13
 -1       221 1.99945E+01-1.06843E-04-4.31655E-06 1.56432E-03 1.28068E-13-4.80702E-14
 -1       222 1.99958E+01-9.73491E-05-4.57302E-06 1.30714E-03 1.14796E-13 3.34730E-13
 -1       223 1.99970E+01-8.83539E-05-4.58670E-06 1.07006E-03 2.98057E-13 5.96725E-13
 -1       224 1.99979E+01-8.27673E-05-4.39191E-06 8.49893E-04 2.34681E-13 3.38645E-13
 -1       225 1.99987E+01-8.32947E-05-3.84645E-06 6.36744E-04-3.79705E-14 3.00861E-13
 -1       226 1.99992E+01-9.16183E-05-3.27491E-06 4.17139E-04-1.72859E-13 3.65305E-13
 -1       227 1.99996E+01-1.02220E-04-2.33739E-06 1.85549E-04-7.05031E-14 2.72674E-13
 -1       228 2.46402E+01 2.09603E-01-5.24826E-02 1.09472E+00 2.67394E-13 1.02361E-12
 -1       229 2.34433E+01 3.71477E-02 1.10294E-02 5.85401E-01 2.33036E-13 8.21007E-13
 -1       230 2.26124E+01-4.11085E-02 1.54219E-02 5.67196E-01 1.10440E-13 6.71530E-13
 -1       231 2.18118E+01-5.84865E-02 9.93176E-03 6.98010E-01 1.00007E-13 5.92943E-13
 -1       232 2.09492E+01-2.70781E-02 5.16991E-03 8.10310E-01 6.20104E-14 5.15803E-13
 -1       233 2.00905E+01 4.20163E-02 1.04706E-03 7.76016E-01 6.09643E-14 4.43202E-13
 -1       234 1.94105E+01 1.20394E-01-2.50004E-03 5.24838E-01 1.05516E-13 3.23716E-13
 -1       235 1.91046E+01 1.65595E-01-3.93316E-03 9.39436E-02 1.35002E-13 1.74016E-13
 -1       236 1.92719E+01 1.51032E-01-2.40080E-03-3.76277E-01 1.58499E-13 3.74462E-14
 -1       237 1.98508E+01 8.37087E-02 7.40721E-04-7.17930E-01 7.52443E-14 1.46246E-14
 -1       238 2.06449E+01 5.86123E-04 3.03172E-03-8.32093E-01 2.22492E-14-4.66138E-14
 -1       239 2.14243E+01-6.19403E-02 3.37898E-03-7.30836E-01 4.60656E-15-1.35660E-13
 -1       240 2.20191E+01-8.87104E-02 2.15196E-03-5.00825E-01 9.42679E-14-2.22853E-13
 -1       241 2.23564E+01-8.51322E-02 4.59476E-04-2.40322E-01 6.44502E-14-2.01112E-13
 -1       242 2.24450E+01-6.51233E-02-8.27734E-04-1.73034E-02-3.80841E-14-9.58957E-14
 -1       243 2.23397E+01-4.10503E-02-1.40414E-03 1.39233E-01 2.89306E-14-1.31689E-13
 -1       244 2.21085E+01-2.01090E-02-1.38250E-03 2.28677E-01-4.14368E-14-7.02086E-14
 -1       245 2.18133E+01-4.91689E-03-1.03646E-03 2.64464E-01-7.09042E-14-1.53151E-13
 -1       246 2.15009E+01 4.61504E-03-6.01298E-04 2.63540E-01 2.62472E-14-1.14392E-13
 -1       247 2.12023E+01 9.68285E-03-2.15260E-04 2.40910E-01 7.27272E-15-6.19002E-14
 -1       248 2.09351E+01 1.16666E-02 6.75783E-05 2.07785E-01-6.91267E-14-1.69173E-13
 -1       249 2.07072E+01 1.17349E-02 2.43907E-04 1.71626E-01 1.23514E-13-2.21947E-13
 -1       250 2.05199E+01 1.07448E-02 3.33179E-04 1.36897E-01 7.51149E-14-1.96810E-13
 -1       251 2.03708E+01 9.26855E-03 3.60501E-04 1.05937E-01-1.83851E-13-3.11238E-13
 -1       252 2.02553E+01 7.65991E-03 3.48458E-04 7.96961E-02 4.37736E-15-2.43917E-13
 -1       253 2.01681E+01 6.12014E-03 3.14403E-04 5.82823E-02 6.87233E-14-1.09391E-13
 -1       254 2.01041E+01 4.75055E-03 2.70421E-04 4.13425E-02 5.98760E-14-4.74846E-14
 -1       255 2.00585E+01 3.59046E-03 2.24274E-04 2.83045E-02-1.93668E-13-6.49235E-14
 -1       256 2.00269E+01 2.64301E-03 1.80536E-04 1.85273E-02-2.30941E-13-3.15890E-14
 -1       257 2.00061E+01 1.89186E-03 1.41590E-04 1.13862E-02-1.82375E-14 1.61913E-13
 -1       258 1.99930E+01 1.31171E-03 1.08392E-04 6.31773E-03-1.13531E-13 3.15757E-13
 -1       259 1.99856E+01 8.74533E-04 8.10280E-05 2.83829E-03-8.42201E-14 3.35684E-13
 -1       260 1.99820E+01 5.53193E-04 5.90909E-05 5.47868E-04-3.36606E-14 3.85542E-13
 -1       261 1.99810E+01 3.23235E-04 4.19310E-05-8.74886E-04 9.87511E-14 3.66888E-13
 -1       262 1.99816E+01 1.63665E-04 2.88127E-05-1.68168E-03 4.93826E-13 3.13152E-14
 -1       263 1.99831E+01 5.70817E-05 1.90089E-05-2.06514E-03 5.49486E-14-6.51039E-14
 -1       264 1.99852E+01-1.05468E-05 1.18517E-05-2.16929E-03-1.58138E-13-1.57573E-13
 -1       265 1.99874E+01-5.02712E-05 6.75681E-06-2.09928E-03 1.43520E-13-1.75354E-13
 -1       266 1.99895E+01-7.06245E-05 3.22965E-06-1.92979E-03-7.95429E-14-4.15003E-14
 -1       267 1.99915E+01-7.80894E-05 8.62428E-07-1.71204E-03-1.61954E-13 1.76439E-14
 -1       268 1.99933E+01-7.75403E-05-6.73586E-07-1.47945E-03 4.56162E-14-3.14169E-13
 -1       269 1.99949E+01-7.26578E-05-1.63355E-06-1.25203E-03 1.17785E-13-2.79346E-13
 -1       270 1.99963E+01-6.63437E-05-2.20167E-06-1.03952E-03 9.25287E-14-3.58935E-13
 -1       271 1.99974E+01-6.09014E-05-2.40494E-06-8.43487E-04-3.11097E-15-5.30860E-13
 -1       272 1.99983E+01-5.83710E-05-2.04466E-06-6.59291E-04 2.78177E-13-5.69878E-13
 -1       273 1.99989E+01-6.11105E-05-9.12069E-07-4.76439E-04 8.60704E-15-4.17538E-13
 -1       274 1.99994E+01-7.11960E-05-8.97221E-07-2.81334E-04 1.09824E-13-3.54889E-13
 -1       275 1.99997E+01-6.60011E-05-3.69895E-06-8.11459E-05-2.51189E-14-5.42825E-13
 -1       276 1.99997E+01-2.29177E-04-2.24695E-06-1.96070E-04 7.63499E-14 9.11607E-13
 -1       277 1.99997E+01-5.66693E-04-7.80645E-07-3.94243E-04 2.59656E-14 1.70567E-13
 -1       278 1.99998E+01-1.01718E-03-3.14961E-07-5.21663E-04-1.16503E-13-1.07431E-13
 -1       279 1.99998E+01-1.52008E-03 2.86266E-07-5.54380E-04-9.64723E-14 8.92378E-14
 -1       280 1.99998E+01-1.99705E-03 1.31360E-06-5.01207E-04-2.12243E-13-2.40749E-13
 -1       281 1.99999E+01-2.39849E-03 2.23171E-06-3.75826E-04-2.26465E-13-4.94562E-13
 -1       282 1.99999E+01-2.66135E-03 2.87792E-06-1.99978E-04-1.94650E-13 2.57004E-13
 -1       283 1.99999E+01-2.75191E-03 3.10149E-06 1.62801E-06-8.02029E-14 4.24549E-13
 -1       284 1.99999E+01-2.65856E-03 2.87625E-06 2.03042E-04-3.72138E-13 8.39589E-14
 -1       285 1.99999E+01-2.39313E-03 2.23117E-06 3.78376E-04-3.39798E-13-5.95741E-13
 -1       286 1.99998E+01-1.99790E-03 1.25852E-06 5.01443E-04-1.01457E-13-4.10683E-13
 -1       287 1.99998E+01-1.51190E-03 2.95971E-07 5.54935E-04-2.40080E-13-9.33096E-14
 -1       288 1.99998E+01-1.00887E-03-3.72110E-07 5.20138E-04-2.97910E-13 1.36710E-13
 -1       289 1.99997E+01-5.64658E-04-2.11451E-06 3.89904E-04-4.61473E-13 2.83471E-13
 -1       290 1.99996E+01-3.14451E-04-2.42535E-06 3.23827E-04-2.74994E-13 6.16486E-13
 -1       291-3.72389E-01-8.75818E+00-7.22340E-01 1.84991E+00 1.75027E-13 8.29781E-13
 -1       292 3.38491E+00-7.54577E+00-7.03840E-01 3.97421E+00 6.75016E-13 6.99683E-13
 -1       293 9.69187E+00-4.17566E+00-4.64880E-01 5.86151E+00 9.82658E-13 9.61606E-13
 -1       294 1.95394E+01-9.58106E-01-6.43226E-02 7.31297E+00 9.17072E-13 7.49262E-13
 -1       295 2.89546E+01 2.94119E+00 3.35690E-01 7.89892E+00 1.01208E-12 6.04794E-13
 -1       296 3.79291E+01 5.09491E+00 6.94649E-01 6.75751E+00 7.88306E-13 5.01210E-13
 -1       297 4.31901E+01 6.52840E+00 7.80030E-01 3.19765E+00 6.98441E-13-3.16414E-14
 -1       298 4.40914E+01 7.21245E+00 7.40268E-01-1.22128E-01 7.89452E-13-3.85289E-13
 -1       299 4.28991E+01 6.10159E+00 7.82785E-01-3.65978E+00 9.13034E-13-8.08964E-13
 -1       300 3.56354E+01 4.32479E+00 4.95518E-01-6.06108E+00 1.05141E-12-1.04408E-12
 -1       301 2.54797E+01 2.24347E+00 1.61851E-01-7.91062E+00 1.25636E-12-1.34542E-12
 -1       302 1.56782E+01-1.43548E+00-2.17611E-01-7.00813E+00 1.05008E-12-1.20932E-12
 -1       303 6.82881E+00-4.49348E+00-5.31631E-01-5.21485E+00 8.97366E-13-1.10924E-12
 -1       304 1.45972E+00-6.75172E+00-6.69160E-01-3.20536E+00 4.18054E-13-9.49588E-13
 -1       305-9.49173E-01-8.36993E+00-8.18459E-01-7.41111E-01-8.38253E-14-8.88220E-13
 -1       306 1.78036E-01-7.52989E+00-7.25476E-01 1.80262E+00-5.77399E-13-9.39596E-13
 -1       307 5.80214E+00-5.66536E+00-4.79058E-01 4.83463E+00-8.00249E-13-1.00781E-12
 -1       308 1.21808E+01-3.00089E+00-4.49241E-01 5.95993E+00-1.36036E-12-1.32613E-12
 -1       309 2.31277E+01-4.10898E-01-3.31096E-02 6.88330E+00-1.20512E-12-1.30881E-12
 -1       310 3.31494E+01 3.07688E+00 4.17443E-01 6.92524E+00-1.18933E-12-1.31345E-12
 -1       311 4.11204E+01 5.19233E+00 7.05918E-01 4.06388E+00-1.05624E-12-8.41716E-13
 -1       312 4.63983E+01 6.68057E+00 9.92148E-01 1.46576E+00-9.36001E-13-5.13214E-13
 -1       313 4.65100E+01 6.76764E+00 1.01553E+00-1.91646E+00-7.91117E-13 3.00870E-14
 -1       314 4.09038E+01 5.24159E+00 7.20521E-01-4.64440E+00-8.78728E-13 4.32321E-13
 -1       315 3.19730E+01 2.70076E+00 3.90200E-01-7.06698E+00-9.09606E-13 8.67750E-13
 -1       316 2.08999E+01-2.71186E-01-6.01633E-02-7.40370E+00-1.06495E-12 1.00978E-12
 -1       317 1.10527E+01-4.35463E+00-4.65273E-01-5.91311E+00-9.67726E-13 9.77940E-13
 -1       318 2.99285E+00-8.13915E+00-8.52220E-01-3.31993E+00-7.21312E-13 7.28591E-13
 -1       319-7.36146E-01-9.96436E+00-9.19345E-01-1.07150E+00-9.32587E-14 9.26356E-13
 -1       320 2.19978E+01 2.72052E+00-2.55034E-02-6.95925E-01-2.53053E-13-1.70993E-13
 -1       321 2.45901E+01 1.95480E+00-2.45315E-02-1.25834E+00-3.13596E-13 9.73249E-14
 -1       322 1.69985E+01 3.84855E+00-1.09491E-02 2.65196E-01-1.04271E-13-4.69130E-13
 -1       323 1.49265E+01 4.39244E+00-3.04786E-03 1.84698E-01-5.43129E-14-5.54248E-13
 -1       324 1.37344E+01 4.68774E+00 5.48498E-04-2.94661E-01-3.87496E-14-5.99720E-13
 -1       325 1.37235E+01 4.57971E+00-1.83598E-04-8.91589E-01-2.38183E-14-5.95732E-13
 -1       326 1.47991E+01 4.11712E+00-3.75714E-03-1.24257E+00-4.23088E-15-5.48329E-13
 -1       327 1.65073E+01 3.53129E+00-8.99002E-03-1.13429E+00 3.49774E-14-4.84590E-13
 -1       328 1.83086E+01 3.05696E+00-1.39015E-02-6.09760E-01 1.14463E-13-4.07344E-13
 -1       329 1.99352E+01 2.77161E+00-1.91480E-02 1.75319E-01 2.03014E-13-3.22169E-13
 -1       330 2.12774E+01 2.62000E+00-2.47484E-02 1.02111E+00 2.83542E-13-1.89661E-13
 -1       331 2.24679E+01 2.41775E+00-3.02583E-02 1.76644E+00 3.59202E-13-7.71432E-15
 -1       332 2.36743E+01 1.85885E+00-3.97807E-02 2.17451E+00 3.84587E-13 3.00582E-13
 -1       333 2.43999E+01 1.01856E+00-3.15439E-02 1.83241E+00 3.59926E-13 5.78749E-13
 -1       334 2.36662E+01 2.12804E-01 4.46592E-03 1.12729E+00 3.01722E-13 4.91138E-13
 -1       335 2.52152E+01 1.04322E-01 5.68524E-03-3.66148E-01-2.31019E-13 1.77275E-13
 -1       336 2.52559E+01-5.60437E-01-1.63168E-03-4.41793E-01-1.37091E-13 1.99836E-13
 -1       337 2.54343E+01-9.91633E-01-5.89008E-03-1.11507E+00-6.64748E-14 2.59579E-13
 -1       338 2.54714E+01-9.16565E-01-9.95114E-03-2.08201E+00-7.91204E-14 2.64533E-13
 -1       339 2.51043E+01-4.63527E-02-1.65092E-02-2.69329E+00-2.15032E-13 2.38590E-13
 -1       340 2.43992E+01 1.34943E+00-2.49685E-02-2.14171E+00-3.10866E-13 1.36549E-13
 -1       341 2.39067E+01 2.20813E+00-3.41144E-02-3.09074E-01-3.89737E-13-1.18756E-13
 -1       342 2.41425E+01 1.65647E+00-2.81897E-02 1.69703E+00-3.96121E-13-3.07686E-13
 -1       343 2.47532E+01 2.44628E-01-2.09040E-02 2.57539E+00-2.39396E-13-3.83072E-13
 -1       344 2.50960E+01-8.63748E-01-1.05647E-02 2.10816E+00-6.92649E-14-3.96495E-13
 -1       345 2.49253E+01-1.19877E+00-9.97072E-03 9.93860E-01 5.46390E-14-4.31122E-13
 -1       346 2.44163E+01-9.79475E-01-9.13632E-03-7.58523E-02 9.60065E-14-3.30494E-13
 -1       347 2.37924E+01-5.85232E-01-7.28418E-03-7.95809E-01-8.40194E-14-2.61631E-13
 -1       348 2.31809E+01-2.42006E-01-4.38550E-03-1.15364E+00-7.59050E-16-1.74805E-13
 -1       349 2.26263E+01-1.59666E-02-1.71383E-03-1.24652E+00 5.49699E-15-1.61520E-13
 -1       350 2.21383E+01 1.04806E-01 1.00756E-04-1.18115E+00 5.44138E-14-2.16513E-13
 -1       351 2.17162E+01 1.53983E-01 1.09897E-03-1.03866E+00-3.67219E-14-1.87150E-13
 -1       352 2.13568E+01 1.61871E-01 1.50766E-03-8.70626E-01 5.14985E-14-2.26101E-13
 -1       353 2.10560E+01 1.49225E-01 1.55799E-03-7.05772E-01 1.51280E-13-1.72873E-13
 -1       354 2.08087E+01 1.28366E-01 1.42448E-03-5.57912E-01 1.68143E-13-3.09595E-13
 -1       355 2.06088E+01 1.05870E-01 1.21725E-03-4.32087E-01 5.05760E-14-2.82296E-13
 -1       356 2.04502E+01 8.48711E-02 9.97102E-04-3.28646E-01-3.55012E-14-1.54919E-13
 -1       357 2.03262E+01 6.66172E-02 7.93435E-04-2.45692E-01-1.35869E-13-7.32953E-14
 -1       358 2.02311E+01 5.13923E-02 6.17780E-04-1.80452E-01-1.12907E-13-3.20890E-14
 -1       359 2.01592E+01 3.90312E-02 4.72430E-04-1.29995E-01-9.04269E-14-1.99842E-13
 -1       360 2.01059E+01 2.91896E-02 3.55390E-04-9.15752E-02 1.41326E-14-1.84312E-13
 -1       361 2.00671E+01 2.14766E-02 2.63003E-04-6.27740E-02 2.59663E-14-1.35705E-13
 -1       362 2.00395E+01 1.55168E-02 1.91245E-04-4.15382E-02-4.93763E-14-6.55485E-14
 -1       363 2.00204E+01 1.09749E-02 1.36319E-04-2.61673E-02-3.23724E-14-2.46466E-13
 -1       364 2.00076E+01 7.56293E-03 9.48760E-05-1.52780E-02-7.88928E-14-1.05697E-13
 -1       365 1.99994E+01 5.03991E-03 6.40787E-05-7.76298E-03-2.06631E-14-9.92678E-15
 -1       366 1.99945E+01 3.20734E-03 4.15756E-05-2.74752E-03 5.65507E-14-1.69039E-13
 -1       367 1.99919E+01 1.90405E-03 2.54515E-05 4.49831E-04-1.33140E-13-2.87847E-13
 -1       368 1.99909E+01 1.00082E-03 1.41674E-05 2.35268E-03-1.17988E-13-2.56264E-13
 -1       369 1.99908E+01 3.95255E-04 6.50109E-06 3.35749E-03 5.74813E-14-4.92488E-14
 -1       370 1.99914E+01 7.20761E-06 1.49346E-06 3.75957E-03 9.55076E-14 2.53645E-14
 -1       371 1.99923E+01-2.25309E-04-1.60013E-06 3.77484E-03 2.12280E-13 9.51555E-14
 -1       372 1.99934E+01-3.49673E-04-3.35168E-06 3.55761E-03 2.25626E-13 3.91491E-13
 -1       373 1.99944E+01-4.01724E-04-4.19714E-06 3.21501E-03-5.98098E-15 6.03740E-13
 -1       374 1.99955E+01-4.08406E-04-4.46711E-06 2.81830E-03-2.37923E-14 7.51370E-13
 -1       375 1.99964E+01-3.90041E-04-4.41363E-06 2.41167E-03 2.86586E-13 4.35976E-13
 -1       376 1.99972E+01-3.62240E-04-4.22136E-06 2.01885E-03 3.19951E-13 5.03021E-13
 -1       377 1.99980E+01-3.37321E-04-4.00154E-06 1.64806E-03-1.79832E-14 3.06110E-13
 -1       378 1.99985E+01-3.24945E-04-3.80622E-06 1.29626E-03-6.70159E-14 3.98730E-13
 -1       379 1.99990E+01-3.31755E-04-4.29567E-06 9.53413E-04-1.44554E-14 5.21667E-13
 -1       380 1.99994E+01-3.27824E-04-3.28507E-06 6.34062E-04 2.96410E-15 6.16437E-13
 -1       381 2.30103E+01-8.60001E-02 7.60024E-03 9.94848E-01 2.03768E-13 4.30241E-13
 -1       382 2.23913E+01-1.61964E-01 3.55161E-03 1.12492E+00 1.46026E-13 3.36817E-13
 -1       383 2.17493E+01-7.86985E-02 2.14955E-03 1.27084E+00 1.00540E-13 2.59208E-13
 -1       384 2.10914E+01 1.30389E-01 2.86795E-03 1.22703E+00 1.03846E-13 2.26876E-13
 -1       385 2.05277E+01 3.78982E-01 3.67644E-03 8.65327E-01 1.75265E-13 1.44340E-13
 -1       386 2.02231E+01 5.30024E-01 4.18988E-03 2.18101E-01 1.97699E-13 6.76555E-14
 -1       387 2.02793E+01 4.94240E-01 5.16554E-03-5.08704E-01 1.97699E-13 2.83343E-14
 -1       388 2.06596E+01 2.83862E-01 4.88356E-03-1.05243E+00 8.47265E-14-3.02857E-14
 -1       389 2.11984E+01 1.47202E-02 2.53204E-03-1.24845E+00 9.76605E-14-6.27614E-14
 -1       390 2.17071E+01-1.93562E-01-4.39403E-04-1.10762E+00 5.76154E-14-2.10608E-13
 -1       391 2.20604E+01-2.87504E-01-2.83269E-03-7.61327E-01 9.64925E-14-2.35406E-13
 -1       392 2.22186E+01-2.81244E-01-3.94873E-03-3.61610E-01 4.70134E-14-1.60487E-13
 -1       393 2.22022E+01-2.18693E-01-3.88182E-03-1.47499E-02-4.68516E-14-1.52675E-13
 -1       394 2.20578E+01-1.40348E-01-3.07264E-03 2.32416E-01 2.44659E-14-1.12349E-13
 -1       395 2.18352E+01-7.06195E-02-1.98707E-03 3.76676E-01-1.06077E-14-2.22820E-13
 -1       396 2.15761E+01-1.90322E-02-9.78282E-04 4.36989E-01 2.96393E-14-2.90446E-13
 -1       397 2.13113E+01 1.40190E-02-2.06737E-04 4.38564E-01-5.61597E-15-3.41188E-13
 -1       398 2.10609E+01 3.20912E-02 2.99221E-04 4.04376E-01-1.24923E-14-3.28118E-13
 -1       399 2.08367E+01 3.95935E-02 5.79118E-04 3.52058E-01-2.93466E-14-1.91101E-13
 -1       400 2.06440E+01 4.03862E-02 6.93471E-04 2.93676E-01 1.39203E-13-2.75474E-13
 -1       401 2.04837E+01 3.73693E-02 7.00077E-04 2.36691E-01 1.97101E-14-7.92443E-14
 -1       402 2.03542E+01 3.25211E-02 6.44648E-04 1.85193E-01-9.68978E-14-3.28220E-14
 -1       403 2.02521E+01 2.70915E-02 5.59346E-04 1.41002E-01-8.20255E-14-8.30834E-14
 -1       404 2.01736E+01 2.18093E-02 4.64869E-04 1.04517E-01 3.79873E-14 2.59505E-14
 -1       405 2.01145E+01 1.70554E-02 3.73408E-04 7.53223E-02 2.73837E-14 2.70461E-13
 -1       406 2.00713E+01 1.29900E-02 2.91343E-04 5.25890E-02-1.25245E-13 2.01362E-13
 -1       407 2.00404E+01 9.64201E-03 2.21335E-04 3.53301E-02-2.47607E-13 1.24969E-13
 -1       408 2.00191E+01 6.96706E-03 1.63808E-04 2.25525E-02-1.80060E-13 2.89357E-13
 -1       409 2.00049E+01 4.88541E-03 1.17949E-04 1.33407E-02-7.24288E-14 3.17209E-13
 -1       410 1.99960E+01 3.30466E-03 8.23472E-05 6.89541E-03 2.00080E-14 2.02505E-13
 -1       411 1.99909E+01 2.13312E-03 5.53842E-05 2.54611E-03-8.21069E-14 8.70234E-14
 -1       412 1.99883E+01 1.28690E-03 3.54622E-05-2.52929E-04 2.47899E-13 9.16607E-14
 -1       413 1.99876E+01 6.93144E-04 2.11243E-05-1.93428E-03 3.96111E-13 1.76822E-13
 -1       414 1.99879E+01 2.90853E-04 1.11082E-05-2.83291E-03 1.06308E-13 6.05158E-13
 -1       415 1.99889E+01 3.04549E-05 4.35928E-06-3.20238E-03-1.76678E-14 3.36942E-13
 -1       416 1.99902E+01-1.27401E-04 2.06973E-08-3.23024E-03 1.74936E-13-6.70938E-14
 -1       417 1.99916E+01-2.13320E-04-2.58815E-06-3.05171E-03-9.67810E-14-1.49353E-13
 -1       418 1.99931E+01-2.50709E-04-3.99885E-06-2.76125E-03-9.12974E-14-1.54709E-13
 -1       419 1.99944E+01-2.57268E-04-4.62121E-06-2.42213E-03 1.40747E-13-3.68283E-13
 -1       420 1.99956E+01-2.46365E-04-4.76911E-06-2.07393E-03 2.72832E-14-3.54723E-13
 -1       421 1.99967E+01-2.28310E-04-4.67863E-06-1.73821E-03 8.68223E-14-1.87735E-13
 -1       422 1.99976E+01-2.11390E-04-4.50843E-06-1.42253E-03 8.03026E-14-1.57369E-13
 -1       423 1.99983E+01-2.01219E-04-4.08901E-06-1.12406E-03-8.03434E-14 2.31859E-14
 -1       424 1.99989E+01-2.04072E-04-3.52087E-06-8.32997E-04-1.63063E-14 3.57815E-13
 -1       425 1.99993E+01-2.17609E-04-2.95785E-06-5.38195E-04 6.63194E-14 4.74771E-13
 -1       426 1.99995E+01-2.36821E-04-2.12578E-06-3.67560E-04 2.36904E-13 6.65347E-13
 -1       427 1.99998E+01-1.23176E-03-4.77079E-07-9.53329E-04-1.38297E-13-3.77017E-14
 -1       428 1.99996E+01-8.11962E-04-2.33230E-06-8.45070E-04-1.33322E-13-1.42746E-13
 -1       429 1.99995E+01-5.03534E-04-3.09391E-06-6.27910E-04-1.51276E-14 4.51991E-13
 -1       430 1.99999E+01-1.63387E-03 7.30096E-07-9.20817E-04-2.51891E-13-4.42274E-13
 -1       431 2.00000E+01-1.98989E-03 1.82817E-06-7.58945E-04-2.94664E-13-2.26341E-13
 -1       432 2.00001E+01-2.25163E-03 2.63810E-06-4.96494E-04 3.03404E-15-1.15891E-13
 -1       433 2.00001E+01-2.38981E-03 3.06052E-06-1.70879E-04-2.97780E-13 3.09398E-13
 -1       434 2.00001E+01-2.38887E-03 3.06046E-06 1.76099E-04-3.93801E-13-2.73734E-14
 -1       435 2.00001E+01-2.24881E-03 2.62703E-06 5.01195E-04-2.54476E-13 5.19270E-14
 -1       436 2.00000E+01-1.99087E-03 1.80881E-06 7.58858E-04-2.23311E-13-5.20466E-13
 -1       437 1.99999E+01-1.63499E-03 7.58888E-07 9.21127E-04-1.88317E-14-2.74067E-14
 -1       438 1.99998E+01-1.22493E-03-5.21042E-07 9.53932E-04 3.60682E-14-4.33049E-14
 -1       439 1.99996E+01-8.04134E-04-2.23468E-06 8.46349E-04-6.09337E-14-7.48613E-14
 -1       440 1.10410E+01-5.14406E+00-4.37219E-02 7.12376E+00 9.62563E-14 5.20625E-13
 -1       441 2.06931E+00-2.93220E+00 6.13417E-02-1.02048E-02-7.30158E-14 8.37441E-13
 -1       442 4.32661E+00-4.52781E+00-6.23604E-02 4.96111E+00-4.62685E-14 7.92019E-13
 -1       443 1.87354E+01-4.98392E+00-3.26106E-02 6.90335E+00 7.46903E-14 2.36394E-13
 -1       444 2.70606E+01-2.49127E+00 2.27613E-02 4.54692E+00 3.82416E-13-1.72015E-13
 -1       445 1.94652E+01 3.27921E+00-1.56191E-02-9.23462E-02-1.79138E-13-3.48965E-13
 -1       446 3.46497E+01 4.99183E+00 5.76618E-02 5.57821E-01 7.04339E-13-2.87784E-13
 -1       447 3.44890E+01 7.79993E+00-2.34140E-02-1.03224E-01 8.02275E-13-2.55348E-13
 -1       448 3.46066E+01 7.42861E+00-1.82239E-03 4.72886E-01 8.95561E-13-1.68143E-13
 -1       449 3.41662E+01 4.65577E+00 2.98960E-02-7.88069E-02 7.77725E-13-1.15574E-13
 -1       450 3.01951E+01-1.77443E-01-2.06943E-02-2.44216E+00 5.31498E-13-1.66617E-13
 -1       451 2.48591E+01-2.75185E+00 1.51544E-02-5.12712E+00 3.29611E-13-3.63043E-13
 -1       452 1.51176E+01-3.92083E+00-5.33233E-02-7.05954E+00 1.70836E-13-7.42505E-13
 -1       453 8.20486E+00-3.18147E+00 1.61110E-02-6.46779E+00-4.73788E-14-9.19070E-13
 -1       454 2.30231E+00-2.56873E+00-4.20797E-02-3.10843E+00-5.80438E-14-1.04093E-12
 -1       455 1.70353E+00-2.26008E+00-1.62008E-02 9.34537E-01-7.75456E-14-1.05438E-12
 -1       456 6.03075E+00-2.54104E+00 6.92824E-02 4.81606E+00-2.77972E-14-8.95353E-13
 -1       457 1.42949E+01-4.45991E+00-2.57150E-02 6.53901E+00-2.60542E-13-6.74932E-13
 -1       458 2.18718E+01-4.43873E+00-4.71138E-02 5.64526E+00-3.39756E-13-5.64992E-13
 -1       459 2.99373E+01-1.98553E+00 6.14030E-03 2.49014E+00-5.92588E-13-2.80900E-13
 -1       460 3.35754E+01 1.55048E+00-7.61783E-03 2.68544E-01-7.74620E-13-1.40624E-13
 -1       461 3.51508E+01 6.16918E+00 1.93944E-03-1.06681E+00-9.53820E-13-7.89924E-14
 -1       462 3.63795E+01 7.88132E+00 4.94108E-02-1.78047E-01-9.74831E-13-1.89348E-13
 -1       463 3.51501E+01 6.18306E+00 1.22629E-02 6.82351E-01-8.48030E-13-2.86951E-13
 -1       464 3.35779E+01 1.53342E+00 3.81988E-02-6.81452E-01-6.19733E-13-2.00118E-13
 -1       465 2.84949E+01-2.73631E+00-4.26916E-03-3.82201E+00-3.32206E-13 1.11675E-13
 -1       466 2.14169E+01-5.30734E+00-9.40345E-03-6.16019E+00-1.50893E-13 2.37775E-13
 -1       467 1.11406E+01-5.46857E+00-8.41065E-02-6.81545E+00-1.37335E-13 5.93768E-13
 -1       468 3.84653E+00-4.88810E+00-1.12125E-01-4.35462E+00 8.23230E-14 9.20666E-13
 -1       469 3.19720E+01 1.13554E+00 4.31203E-02 2.29672E+00 5.94141E-13-2.09083E-13
 -1       470 1.21448E+01-2.83769E+00 9.99077E-02 6.05575E+00 1.59435E-13-6.41695E-13
 -1       471 2.33623E+01 1.38850E-01 1.98530E-04 1.40644E+00 2.84481E-13 1.96003E-13
 -1       472 1.35908E+01 4.04872E+00 8.02105E-03 3.56136E-01-3.03197E-15-5.94148E-13
 -1       473 1.57547E+01 3.26020E+00 2.15207E-03 9.30615E-01-1.34643E-14-4.79601E-13
 -1       474 1.37136E+01 3.81797E+00 5.81217E-03-1.63944E+00-4.28293E-14-5.68486E-13
 -1       475 1.57163E+01 2.93598E+00-1.56263E-04-1.89911E+00-3.15254E-14-4.90286E-13
 -1       476 1.79560E+01 2.12219E+00-2.09011E-03-1.44257E+00 1.91250E-14-4.07666E-13
 -1       477 1.99349E+01 1.58158E+00-5.56015E-03-5.33045E-01 1.12376E-13-2.87978E-13
 -1       478 2.14068E+01 1.32615E+00-7.73045E-03 4.51237E-01 1.95395E-13-1.88842E-13
 -1       479 2.25010E+01 1.15255E+00-7.91728E-03 1.25476E+00 2.97540E-13-5.46776E-14
 -1       480 2.31435E+01-2.65807E-01 1.88456E-03 1.42663E+00 2.34885E-13 1.62773E-13
 -1       481 2.39270E+01-2.50817E-01-1.91070E-03-7.24037E-03-1.38276E-13 3.76783E-14
 -1       482 2.89106E+01-2.15455E+00-4.93596E-02 1.01594E+00 2.28303E-13-4.52062E-13
 -1       483 2.47624E+01-1.36350E+00-1.86281E-04-2.05592E-01-5.36291E-14 8.85927E-14
 -1       484 2.58615E+01-2.00870E+00-1.02692E-02-1.11331E+00-4.48760E-14 1.62469E-13
 -1       485 2.67775E+01-1.37225E+00-3.67065E-02-2.39823E+00-1.51500E-13 1.64075E-13
 -1       486 2.69975E+01 9.39850E-01-5.98474E-02-3.06523E+00-3.63418E-13 1.36360E-13
 -1       487 2.64366E+01 3.72376E+00-1.39549E-01-1.80263E+00-5.99118E-13-3.51941E-14
 -1       488 2.61706E+01 4.22448E+00-1.74402E-01 1.00380E+00-6.08305E-13-2.86760E-13
 -1       489 2.67599E+01 1.61779E+00-7.44636E-02 2.81672E+00-3.86125E-13-3.93637E-13
 -1       490 2.65801E+01-1.14218E+00-3.39472E-02 2.39668E+00-1.01039E-13-4.20518E-13
 -1       491 2.57521E+01-2.30145E+00-1.36455E-02 1.00380E+00 9.75683E-14-3.26798E-13
 -1       492 2.44280E+01-2.10740E+00-4.92379E-03-3.63062E-01 1.17477E-13-1.83969E-13
 -1       493 2.32374E+01-1.37251E+00-3.77502E-03-1.21409E+00 6.86224E-14-1.91260E-13
 -1       494 2.23593E+01-6.56207E-01-2.65125E-03-1.60097E+00-1.19847E-14-1.80907E-13
 -1       495 2.17624E+01-1.47461E-01-1.14525E-03-1.68054E+00 1.46464E-14-6.90549E-14
 -1       496 2.13603E+01 1.47685E-01-1.42012E-04-1.58471E+00 1.94388E-14-6.42706E-14
 -1       497 2.10769E+01 2.86394E-01 4.20085E-04-1.40381E+00-8.75335E-15-1.64369E-13
 -1       498 2.08631E+01 3.28333E-01 6.70895E-04-1.19293E+00-5.36689E-14-1.04323E-13
 -1       499 2.06925E+01 3.17711E-01 7.25279E-04-9.83508E-01 7.40637E-14-1.65733E-13
 -1       500 2.05517E+01 2.82627E-01 6.76205E-04-7.91867E-01 5.72476E-14-3.22308E-13
 -1       501 2.04343E+01 2.39216E-01 5.83718E-04-6.25077E-01 9.67190E-14-3.12887E-13
 -1       502 2.03368E+01 1.95928E-01 4.80992E-04-4.84812E-01 1.65696E-13-1.55912E-13
 -1       503 2.02568E+01 1.56699E-01 3.84242E-04-3.69823E-01-1.03293E-13-1.10368E-13
 -1       504 2.01923E+01 1.22981E-01 3.00060E-04-2.77459E-01-2.00174E-13-1.41413E-13
 -1       505 2.01410E+01 9.49504E-02 2.30057E-04-2.04553E-01-1.55245E-13-2.04222E-13
 -1       506 2.01010E+01 7.21870E-02 1.73512E-04-1.47918E-01-4.13689E-14-2.12929E-13
 -1       507 2.00704E+01 5.40330E-02 1.28772E-04-1.04601E-01-4.02885E-14-3.45988E-13
 -1       508 2.00475E+01 3.97767E-02 9.39506E-05-7.19890E-02 3.31249E-14-3.79260E-13
 -1       509 2.00306E+01 2.87405E-02 6.72400E-05-4.78476E-02 1.09604E-15-3.08672E-13
 -1       510 2.00184E+01 2.03180E-02 4.70389E-05-3.03082E-02 4.70318E-14-5.09404E-14
 -1       511 2.00099E+01 1.39854E-02 3.19850E-05-1.78380E-02-1.26120E-13 7.51534E-14
 -1       512 2.00041E+01 9.30122E-03 2.09484E-05-9.20018E-03-8.28480E-14-3.03398E-14
 -1       513 2.00004E+01 5.89984E-03 1.30076E-05-3.41154E-03-7.42037E-14-8.33852E-14
 -1       514 1.99981E+01 3.48298E-03 7.42124E-06 2.98007E-04-1.50493E-13-1.18764E-13
 -1       515 1.99968E+01 1.81060E-03 3.60016E-06 2.52275E-03 8.71635E-14-6.71730E-14
 -1       516 1.99963E+01 6.92015E-04 1.08119E-06 3.71421E-03 1.38148E-13 3.40910E-14
 -1       517 1.99962E+01-2.23378E-05-4.95492E-07 4.20964E-03 1.61402E-14 1.40043E-14
 -1       518 1.99964E+01-4.48304E-04-1.40646E-06 4.25611E-03 2.58415E-13-1.71222E-13
 -1       519 1.99967E+01-6.74576E-04-1.86204E-06 4.03043E-03 1.94891E-13-6.17582E-14
 -1       520 1.99971E+01-7.68395E-04-2.02211E-06 3.65535E-03 3.02678E-14 1.03385E-13
 -1       521 1.99976E+01-7.80470E-04-2.00659E-06 3.21248E-03-1.29631E-13 1.06253E-13
 -1       522 1.99980E+01-7.49156E-04-1.91493E-06 2.75238E-03 2.08996E-13 1.19881E-14
 -1       523 1.99984E+01-7.03820E-04-1.82114E-06 2.30231E-03 8.68704E-14 2.19184E-14
 -1       524 1.99988E+01-6.66174E-04-1.69902E-06 1.87241E-03-5.53821E-14 2.07291E-15
 -1       525 1.99991E+01-6.52034E-04-1.81131E-06 1.46128E-03 1.23849E-13 1.17076E-13
 -1       526 2.24834E+01 4.94376E-02 1.38796E-03 1.76339E+00 1.35068E-13 1.21168E-13
 -1       527 2.20054E+01 6.27437E-01 1.88507E-03 1.53422E+00 1.68462E-13 7.06626E-14
 -1       528 2.15885E+01 1.15808E+00 5.84635E-04 8.19182E-01 2.57133E-13 3.31637E-14
 -1       529 2.14362E+01 1.30486E+00 6.14274E-04-1.90300E-01 2.61832E-13-7.39593E-14
 -1       530 2.16182E+01 9.51937E-01 3.25903E-03-1.11228E+00 2.01939E-13-1.27374E-13
 -1       531 2.19701E+01 3.14614E-01 1.69563E-03-1.58436E+00 9.97848E-14-2.10083E-13
 -1       532 2.22773E+01-2.83587E-01-2.33642E-04-1.52937E+00 1.23939E-13-2.33070E-13
 -1       533 2.23992E+01-6.29397E-01-1.88217E-03-1.11159E+00 6.05294E-14-2.00240E-13
 -1       534 2.23279E+01-7.02675E-01-2.69197E-03-5.66435E-01 3.20497E-14-1.99109E-13
 -1       535 2.21258E+01-5.95923E-01-2.77600E-03-6.80077E-02-2.50582E-14-1.61694E-13
 -1       536 2.18622E+01-4.16019E-01-2.32645E-03 3.01684E-01-8.37687E-15-1.92380E-13
 -1       537 2.15859E+01-2.36855E-01-1.56933E-03 5.28974E-01 3.72527E-14-2.31403E-13
 -1       538 2.13232E+01-9.37928E-02-8.31336E-04 6.35539E-01-6.97318E-15-6.35762E-14
 -1       539 2.10857E+01 4.71662E-03-2.54802E-04 6.54307E-01-9.11761E-14 4.31362E-15
 -1       540 2.08772E+01 6.37620E-02 1.30134E-04 6.16789E-01-1.15903E-13 4.88343E-14
 -1       541 2.06980E+01 9.30120E-02 3.51048E-04 5.48178E-01-4.68456E-14 5.09423E-14
 -1       542 2.05466E+01 1.02102E-01 4.49949E-04 4.66505E-01 9.00277E-14-2.89655E-14
 -1       543 2.04209E+01 9.88453E-02 4.67786E-04 3.83548E-01-7.94841E-15 8.20104E-14
 -1       544 2.03183E+01 8.89047E-02 4.37810E-04 3.06274E-01-1.19719E-13 1.27039E-13
 -1       545 2.02360E+01 7.60644E-02 3.83769E-04 2.38242E-01-2.34875E-14 1.04001E-14
 -1       546 2.01712E+01 6.26772E-02 3.21159E-04 1.80760E-01-6.89613E-14 8.93329E-14
 -1       547 2.01209E+01 5.00868E-02 2.59255E-04 1.33746E-01 2.83108E-14 1.47270E-13
 -1       548 2.00828E+01 3.89657E-02 2.03038E-04 9.63388E-02 4.38332E-14 1.11918E-13
 -1       549 2.00543E+01 2.95631E-02 1.54710E-04 6.73060E-02-9.31664E-14 1.72435E-13
 -1       550 2.00337E+01 2.18764E-02 1.14788E-04 4.53008E-02-3.24354E-13-3.15525E-14
 -1       551 2.00190E+01 1.57659E-02 8.28417E-05 2.90167E-02-1.51252E-13 2.53168E-14
 -1       552 2.00088E+01 1.10279E-02 5.79663E-05 1.72709E-02 8.49142E-14 2.84803E-14
 -1       553 2.00022E+01 7.44002E-03 3.90806E-05 9.04086E-03-8.58011E-14 1.65343E-13
 -1       554 1.99980E+01 4.78712E-03 2.50966E-05 3.47332E-03 2.02604E-13 1.87351E-13
 -1       555 1.99955E+01 2.87493E-03 1.50116E-05-1.24129E-04 1.41210E-13 2.57996E-13
 -1       556 1.99944E+01 1.53606E-03 7.95177E-06-2.29965E-03 7.82476E-15 4.66427E-13
 -1       557 1.99940E+01 6.31063E-04 3.18399E-06-3.47753E-03 2.34522E-13 3.36972E-13
 -1       558 1.99942E+01 4.69186E-05 1.11540E-07-3.97903E-03 2.86408E-13 2.74397E-13
 -1       559 1.99947E+01-3.05957E-04-1.74003E-06-4.04188E-03 1.15166E-13 1.96381E-13
 -1       560 1.99953E+01-4.97229E-04-2.74025E-06-3.83751E-03-4.66672E-14-2.66564E-14
 -1       561 1.99960E+01-5.80261E-04-3.17345E-06-3.48566E-03 1.29760E-13-2.03275E-13
 -1       562 1.99967E+01-5.95539E-04-3.25415E-06-3.06636E-03 1.57847E-14 1.52044E-14
 -1       563 1.99974E+01-5.73760E-04-3.13711E-06-2.62947E-03 1.26294E-13 2.08943E-14
 -1       564 1.99979E+01-5.38244E-04-3.07707E-06-2.20254E-03 2.69431E-14 9.01683E-14
 -1       565 1.99984E+01-5.09442E-04-3.74156E-06-1.79824E-03-1.50479E-13 1.30159E-13
 -1       566 1.99989E+01-4.96345E-04-3.61363E-06-1.41004E-03-1.37494E-13 2.06921E-13
 -1       567 1.99992E+01-5.02712E-04-2.58118E-06-1.02861E-03-2.02443E-13 3.17487E-13
 -1       568 2.00001E+01-1.74163E-03 5.94569E-07-1.14969E-03-5.19750E-14-1.53951E-15
 -1       569 2.00003E+01-2.01808E-03 1.06883E-06-8.53115E-04 7.26122E-14-7.66813E-14
 -1       570 1.99996E+01-1.00318E-03-4.88931E-07-1.28609E-03-2.17625E-13-1.48984E-13
 -1       571 1.99999E+01-1.39134E-03-7.66781E-07-1.29787E-03-3.31808E-13-2.78607E-14
 -1       572 2.00004E+01-2.19474E-03 1.31521E-06-4.52022E-04-6.20280E-14 5.43272E-14
 -1       573 2.00005E+01-2.25506E-03 1.40055E-06 3.26587E-06-5.00861E-14 1.61434E-13
 -1       574 2.00004E+01-2.19355E-03 1.29003E-06 4.58336E-04-2.37262E-14 1.03894E-13
 -1       575 2.00003E+01-2.01981E-03 9.91883E-07 8.52654E-04-7.49281E-14-3.04626E-13
 -1       576 2.00001E+01-1.74293E-03 6.89439E-07 1.14989E-03-2.51447E-15-4.02599E-13
 -1       577 1.99999E+01-1.38974E-03 4.12229E-07 1.30168E-03 1.22291E-13-2.61502E-14
 -1       578 1.99996E+01-9.96461E-04-9.31029E-07 1.27686E-03-9.00243E-14-1.96828E-14
 -1       579 6.14263E+00-1.23473E+00 1.76973E-01 3.30099E+00-1.63022E-13 8.02775E-13
 -1       580 1.71339E+01-4.91999E+00 6.49976E-02 6.94628E+00-3.15269E-13 8.29128E-14
 -1       581 2.28714E+01-2.89300E-01 7.65493E-04 1.63858E+00 1.65537E-13 1.45393E-13
 -1       582 6.02859E+00-1.57467E+00 1.64964E-01-3.20401E+00 1.43541E-13 7.42975E-13
 -1       583 1.03538E+01-3.40310E+00 1.17335E-01 6.53157E+00-2.78291E-13 3.82826E-13
 -1       584 2.30132E+01 1.04692E+00-7.13316E-03-2.14628E-01-2.12887E-13-7.88525E-14
 -1       585 1.04028E+01-3.37836E+00 1.21014E-01-6.11135E+00 3.53106E-13 6.62401E-13
 -1       586 3.02930E+01 5.53003E+00-1.63032E-01-1.37915E+00 7.15650E-13-2.17187E-13
 -1       587 1.28408E+01 4.27534E+00 6.96724E-03-7.08866E-01-2.93222E-14-6.07971E-13
 -1       588 2.97648E+01 7.37884E+00-1.75210E-01 4.19508E-01 7.15053E-13-7.87721E-14
 -1       589 1.46196E+01-3.02424E+00 8.86008E-02-6.77836E+00-2.30156E-13-6.15102E-13
 -1       590 2.95495E+01 4.99411E+00-1.67566E-01 1.92371E+00 6.53332E-13 1.13048E-13
 -1       591 2.99166E+01 1.08220E+00-1.03331E-01 1.10843E+00 4.41258E-13 2.04337E-13
 -1       592 2.75308E+01-2.70841E+00-3.57891E-02-1.88582E+00 1.49011E-13 1.03077E-13
 -1       593 3.03782E+01 6.36451E+00-1.78029E-01-1.15940E+00-8.23258E-13-5.79762E-14
 -1       594 2.16298E+01-4.07128E+00 2.25949E-02-5.46832E+00-1.11737E-13-2.77231E-13
 -1       595 7.65065E+00-3.20271E-01 1.62686E-01-4.91406E+00-1.93012E-13-8.75036E-13
 -1       596 4.50917E+00 5.01323E-01 1.64958E-01-1.32524E+00-5.57575E-14-1.01158E-12
 -1       597 6.30143E+00 3.55052E-01 1.78925E-01 2.59715E+00 9.86537E-14-8.96699E-13
 -1       598 2.06197E+01-4.56018E+00 6.78853E-02 5.29999E+00 1.11723E-13-2.60682E-13
 -1       599 2.67601E+01-4.35376E+00-1.58616E-02 2.54568E+00-3.39867E-14-3.86080E-14
 -1       600 3.03992E+01-1.49641E+00-9.62646E-02-8.89952E-01-3.72244E-13 1.93630E-13
 -1       601 3.11333E+01 2.83363E+00-1.25386E-01-2.46411E+00-6.94063E-13 1.73937E-13
 -1       602 3.06319E+01 6.23928E+00-1.71677E-01 9.21613E-01-7.60073E-13-2.76751E-13
 -1       603 3.09077E+01 2.50954E+00-1.20976E-01 2.29599E+00-5.61509E-13-5.07969E-13
 -1       604 2.98198E+01-2.58617E+00-1.17581E-01 2.76619E-02-1.51757E-13-3.64431E-13
 -1       605 2.67059E+01-4.81270E+00-2.95132E-02-2.69708E+00 6.42889E-14-3.18370E-13
 -1       606 1.83523E+01-5.18577E+00 8.10381E-02-6.39692E+00 2.46567E-13 1.82084E-13
 -1       607 3.03945E+01 1.37203E+00-1.17060E-01-8.24857E-01 4.36137E-13-3.55639E-13
 -1       608 2.35372E+01 7.96049E-01-6.97777E-03 1.64047E+00 3.48748E-13 2.14883E-13
 -1       609 2.45847E+01-4.93820E+00 1.59942E-02 4.47997E+00-4.07036E-14-3.06921E-13
 -1       610 2.76075E+01 6.13589E+00-1.47878E-01-8.18933E-01 7.02792E-13-1.27248E-13
 -1       611 1.85830E+01 2.32694E+00 9.67008E-04 7.92148E-01-6.81970E-14-3.69854E-13
 -1       612 2.38088E+01-5.21298E+00 3.07585E-02-3.92615E+00 2.80592E-13-2.56305E-13
 -1       613 6.98762E+00-7.34334E-02 1.73349E-01 1.57964E-01 8.13412E-15 5.74089E-13
 -1       614 1.01966E+01-2.25636E-01 1.28988E-01 4.28751E+00 1.94393E-13-7.38423E-13
 -1       615 1.21763E+01-7.16059E-01 1.05558E-01-5.72195E+00-2.94070E-13-6.71393E-13
 -1       616 1.99993E+01-6.51119E-04-2.08638E-06 1.18312E-03-4.98971E-14 2.56055E-13
 -1       617 1.74093E+01 1.17211E+00 4.27882E-03-2.56766E+00-9.49202E-14-3.98896E-13
 -1       618 1.42912E+01 2.45767E+00 2.74634E-02-2.78718E+00-1.05581E-13-5.23554E-13
 -1       619 2.17018E+01 1.24794E-01 1.05937E-03-2.02353E-01 1.00592E-13-1.51489E-13
 -1       620 2.26726E+01 9.68842E-02-3.72888E-03 8.01165E-01 1.92901E-13-5.13047E-14
 -1       621 2.32750E+01-1.91697E-01 2.17731E-03 1.33089E+00 2.32694E-13 6.77642E-14
 -1       622 1.09883E+01-1.17882E+00 1.35534E-01-4.41301E+00 3.20678E-13 5.53509E-13
 -1       623 2.79666E+01 2.61525E+00-1.27755E-01-1.96918E+00 4.56551E-13-2.09412E-13
 -1       624 2.42493E+01-2.41475E+00-6.90289E-03 8.14005E-01 2.53158E-14 3.14748E-14
 -1       625 2.67300E+01-3.24660E+00-1.03967E-02-2.45096E-01-2.44969E-14 1.77804E-13
 -1       626 2.70900E+01-3.55295E+00-4.42367E-02 4.07090E-01 1.44391E-13-4.33270E-13
 -1       627 2.47328E+01-3.48185E+00 9.83296E-03-1.30965E+00 2.14773E-13-2.81837E-13
 -1       628 2.26285E+01-2.32650E+00 3.19912E-03-2.09392E+00 9.67493E-14-1.86095E-13
 -1       629 2.13846E+01-1.16863E+00 8.12348E-04-2.25773E+00 4.98744E-14-1.42066E-13
 -1       630 2.07046E+01-3.28752E-01 3.22923E-04-2.14543E+00 1.23587E-13-4.79456E-14
 -1       631 2.03787E+01 1.73223E-01 2.19432E-04-1.92011E+00 1.75315E-14-7.76067E-14
 -1       632 2.02388E+01 4.25119E-01 2.30605E-04-1.66266E+00-5.16034E-14-1.21510E-13
 -1       633 2.01852E+01 5.17679E-01 2.72401E-04-1.40614E+00 6.20817E-14-2.69261E-14
 -1       634 2.01650E+01 5.19113E-01 2.75148E-04-1.16603E+00 9.88685E-15 2.44146E-14
 -1       635 2.01538E+01 4.74364E-01 2.47835E-04-9.49971E-01 7.17450E-16 1.04669E-13
 -1       636 2.01420E+01 4.10549E-01 2.09495E-04-7.61258E-01 3.86290E-14 3.84220E-14
 -1       637 2.01275E+01 3.42840E-01 1.70442E-04-6.00446E-01 1.19029E-13-1.49882E-13
 -1       638 2.01109E+01 2.79015E-01 1.35191E-04-4.66286E-01 1.03450E-13-2.02022E-13
 -1       639 2.00934E+01 2.22532E-01 1.05220E-04-3.56449E-01-2.17841E-13-6.67959E-14
 -1       640 2.00766E+01 1.74465E-01 8.06049E-05-2.68056E-01-2.30352E-13-2.33751E-14
 -1       641 2.00612E+01 1.34650E-01 6.08430E-05-1.98059E-01-1.55772E-13-1.12339E-14
 -1       642 2.00477E+01 1.02338E-01 4.52433E-05-1.43492E-01-9.75415E-14-9.76570E-14
 -1       643 2.00363E+01 7.65574E-02 3.31024E-05-1.01616E-01 3.49520E-14-8.66210E-14
 -1       644 2.00270E+01 5.62974E-02 2.37772E-05-6.99987E-02-1.66016E-14-2.19089E-13
 -1       645 2.00196E+01 4.06063E-02 1.67091E-05-4.65390E-02 2.06523E-13-1.32491E-14
 -1       646 2.00138E+01 2.86314E-02 1.14273E-05-2.94647E-02 8.68196E-14-1.83107E-13
 -1       647 2.00095E+01 1.96334E-02 7.54213E-06-1.73102E-02-1.44384E-14 7.60010E-14
 -1       648 2.00062E+01 1.29862E-02 4.73594E-06-8.88496E-03-2.80925E-13 1.80770E-13
 -1       649 2.00038E+01 8.16930E-03 2.75262E-06-3.23752E-03-1.33028E-13 1.79659E-13
 -1       650 2.00021E+01 4.75673E-03 1.38814E-06 3.80374E-04-2.27043E-13 3.09440E-14
 -1       651 2.00009E+01 2.40497E-03 4.81801E-07 2.54783E-03-8.39883E-15-1.78410E-13
 -1       652 2.00002E+01 8.40846E-04-9.14665E-08 3.70565E-03 1.60183E-13-3.42695E-13
 -1       653 1.99997E+01-1.50067E-04-4.27630E-07 4.18343E-03-9.02220E-15-3.37844E-13
 -1       654 1.99994E+01-7.33899E-04-5.99804E-07 4.22261E-03 2.24863E-13-3.30264E-13
 -1       655 1.99993E+01-1.03787E-03-6.62916E-07 3.99581E-03 2.14819E-13-4.51862E-13
 -1       656 1.99992E+01-1.15848E-03-6.61886E-07 3.62266E-03 7.58710E-14-3.63762E-13
 -1       657 1.99992E+01-1.16854E-03-6.26019E-07 3.18242E-03 7.46690E-14-4.05413E-14
 -1       658 1.99993E+01-1.12305E-03-5.77750E-07 2.72411E-03-6.56716E-14-7.21855E-14
 -1       659 1.99994E+01-1.06323E-03-5.64294E-07 2.27406E-03-1.27276E-14-1.39041E-13
 -1       660 1.99994E+01-1.01876E-03-6.66379E-07 1.84182E-03 1.02124E-13-4.52619E-14
 -1       661 2.29468E+01 1.56829E+00 3.25422E-03 1.62213E+00 2.72612E-13-9.10329E-15
 -1       662 1.99995E+01-9.97411E-04-1.53379E-07-1.70467E-03-2.31354E-13-9.67569E-14
 -1       663 2.33587E+01 4.76596E-01-2.26368E-03 2.06916E+00 2.23512E-13 3.69382E-14
 -1       664 2.25889E+01 2.08631E+00-1.80566E-03-8.48703E-01 3.07651E-13-8.46198E-14
 -1       665 2.29085E+01 1.06903E+00-3.30957E-03-1.71491E+00 2.62721E-13-2.02078E-13
 -1       666 2.31704E+01-1.41175E-01-4.35042E-03-1.80917E+00 1.36712E-13-2.73593E-13
 -1       667 2.31318E+01-9.56403E-01-2.59227E-03-1.32132E+00 4.29650E-14-2.61747E-13
 -1       668 2.28000E+01-1.23383E+00-1.01397E-03-6.27753E-01 2.27021E-14-8.26556E-14
 -1       669 2.23210E+01-1.12182E+00-7.98596E-04-1.70980E-04-6.27766E-14-5.26499E-14
 -1       670 2.18315E+01-8.28055E-01-9.88771E-04 4.50702E-01 2.82577E-14-7.92751E-14
 -1       671 2.14076E+01-5.05865E-01-7.43990E-04 7.17791E-01 8.65539E-16-1.16725E-14
 -1       672 2.10712E+01-2.34585E-01-4.27888E-04 8.37082E-01-9.39768E-14 1.29379E-13
 -1       673 2.08154E+01-3.88451E-02-1.71451E-04 8.52714E-01-5.81160E-14 1.16333E-13
 -1       674 2.06236E+01 8.52996E-02-7.27139E-06 8.02935E-01-2.85238E-14 3.82184E-14
 -1       675 2.04794E+01 1.52784E-01 9.05948E-05 7.16904E-01 2.78659E-15-2.36616E-14
 -1       676 2.03696E+01 1.80188E-01 1.40468E-04 6.15202E-01 6.13567E-15-4.09933E-14
 -1       677 2.02848E+01 1.81770E-01 1.56858E-04 5.11392E-01 1.63847E-14 3.31554E-14
 -1       678 2.02185E+01 1.68340E-01 1.52706E-04 4.13730E-01-3.85602E-14 5.54889E-14
 -1       679 2.01664E+01 1.47440E-01 1.37431E-04 3.26671E-01-3.33266E-14 9.52085E-14
 -1       680 2.01254E+01 1.23983E-01 1.17329E-04 2.52079E-01-4.94859E-14 3.50094E-14
 -1       681 2.00932E+01 1.00946E-01 9.62979E-05 1.90154E-01-8.47965E-16-6.63799E-16
 -1       682 2.00682E+01 7.99639E-02 7.65454E-05 1.40100E-01 3.94997E-14 2.54115E-14
 -1       683 2.00488E+01 6.17868E-02 5.91606E-05 1.00594E-01-8.93433E-14 1.46425E-13
 -1       684 2.00341E+01 4.66141E-02 4.45336E-05 7.01046E-02-9.97856E-14 1.61689E-13
 -1       685 2.00231E+01 3.43216E-02 3.26450E-05 4.70875E-02-3.02720E-13-4.23561E-14
 -1       686 2.00149E+01 2.46155E-02 2.32561E-05 3.01036E-02-5.54980E-14-4.84233E-14
 -1       687 2.00091E+01 1.71301E-02 1.60301E-05 1.78787E-02 8.47067E-15 8.51391E-14
 -1       688 2.00049E+01 1.14879E-02 1.06043E-05 9.32634E-03 6.54099E-14-1.12283E-13
 -1       689 2.00021E+01 7.33390E-03 6.63174E-06 3.54758E-03 1.49460E-13 1.19938E-13
 -1       690 2.00003E+01 4.35257E-03 3.80198E-06-1.82833E-04 3.03453E-13 3.25230E-14
 -1       691 1.99991E+01 2.27489E-03 1.84967E-06-2.43689E-03 1.19027E-13-2.71040E-13
 -1       692 1.99985E+01 8.78326E-04 5.55500E-07-3.65614E-03 2.38178E-13 1.50403E-14
 -1       693 1.99982E+01-1.66703E-05-2.56928E-07-4.17424E-03 3.11420E-13 2.80670E-14
 -1       694 1.99981E+01-5.51931E-04-7.27120E-07-4.23762E-03 1.70767E-13 8.24251E-14
 -1       695 1.99982E+01-8.37564E-04-9.61667E-07-4.02363E-03 2.62204E-13-8.04639E-14
 -1       696 1.99983E+01-9.57862E-04-1.04399E-06-3.65582E-03-1.22463E-13-1.91583E-13
 -1       697 1.99985E+01-9.76776E-04-1.02249E-06-3.21645E-03 1.21891E-13-2.49246E-14
 -1       698 1.99988E+01-9.42940E-04-1.05066E-06-2.75703E-03 5.78939E-14-3.14633E-14
 -1       699 1.99990E+01-8.93816E-04-9.01319E-07-2.30746E-03-1.26640E-14 1.08267E-13
 -1       700 1.99993E+01-9.42547E-04-1.22896E-06-2.00439E-03-1.03199E-13-9.14029E-14
 -1       701 2.18505E+01-4.66902E+00 4.41593E-02 4.78637E+00-2.30697E-13-1.42387E-13
 -1       702 2.00009E+01-2.21382E-03 5.04727E-07-2.79553E-04 4.04559E-13 1.08553E-13
 -1       703 2.00005E+01-1.87872E-03 3.52143E-07-1.25785E-03-1.25567E-13-6.02534E-15
 -1       704 2.00009E+01-2.21360E-03 4.49908E-07 2.86790E-04 1.19734E-14-1.04243E-13
 -1       705 2.00008E+01-2.09942E-03 4.55231E-07-8.14618E-04 2.01477E-13-1.00714E-13
 -1       706 2.00008E+01-2.10155E-03 3.25411E-07 8.12776E-04-9.53760E-14 8.03769E-14
 -1       707 2.00005E+01-1.88139E-03 2.82356E-07 1.25604E-03 6.53737E-15-4.53212E-13
 -1       708 2.00002E+01-1.56957E-03 4.07883E-07 1.55030E-03-9.79128E-15 4.39288E-14
 -1       709 1.08409E+01-1.41951E+00 1.35710E-01 5.00165E+00-2.85525E-13 3.09232E-13
 -1       710 1.52522E+01-3.28807E+00 9.46729E-02 6.25563E+00-3.60652E-13 1.45033E-13
 -1       711 2.15264E+01 5.02226E-01-1.36288E-02 7.29609E-01-8.58436E-14-1.61070E-13
 -1       712 1.74618E+01-2.57844E+00 8.13160E-02 5.01826E+00 2.35662E-13-3.19089E-13
 -1       713 8.05557E+00 2.27796E+00 1.51532E-01 1.05221E-01 3.46650E-14-8.42368E-13
 -1       714 2.35715E+01-3.48710E-01-3.01253E-04 1.93286E+00 1.75691E-13 1.28127E-13
 -1       715 2.25085E+01 2.33613E+00-1.52360E-02 4.70573E-01 3.01200E-13-9.53122E-15
 -1       716 2.27411E+01-1.04372E+00 1.47787E-02 1.01460E+00-1.24050E-14-5.65928E-14
 -1       717 2.62842E+01-3.99056E+00-2.55085E-02 1.47891E+00 1.54477E-14-4.12607E-13
 -1       718 2.34966E+01-5.72230E-01-2.26413E-03 1.56605E+00 1.64663E-13 1.28342E-13
 -1       719 1.99857E+01 3.96423E-01 5.10437E-03-1.49418E+00-6.51692E-15-2.30738E-13
 -1       720 1.38992E+01 2.75807E+00 2.57818E-02 1.62669E+00 7.18659E-14-5.30690E-13
 -1       721 2.77564E+01-1.37942E+00-5.44729E-02 7.29981E-01 2.12628E-13 2.02279E-13
 -1       722 2.77289E+01 2.22787E+00-1.06764E-01 2.29766E+00 4.16230E-13 1.67869E-13
 -1       723 2.80063E+01-3.22741E+00-2.78422E-02-2.20085E-01-5.56170E-14 2.71377E-13
 -1       724 2.46509E+01-3.60449E+00-2.51967E-03-2.81213E+00-1.09726E-13 3.70450E-14
 -1       725 1.59093E+01-3.36456E+00 9.16089E-02-5.85399E+00 3.87298E-13 2.50723E-13
 -1       726 1.93852E+01-3.10577E+00 5.67513E-02-5.29710E+00-2.76001E-13-3.08113E-13
 -1       727 8.61604E+00 1.92449E+00 1.32510E-01-2.79685E+00-1.28997E-13-8.18436E-13
 -1       728 2.44940E+01-4.26370E+00 3.22123E-02 2.81311E+00 1.45592E-13 9.23740E-16
 -1       729 1.99995E+01-9.99908E-04-7.91140E-07 1.55792E-03 1.70054E-13-2.21860E-13
 -1       730 2.63740E+01 5.46866E+00-1.32924E-01 1.30393E+00 5.89410E-13 1.39888E-14
 -1       731 2.83248E+01-3.32976E-01-8.80535E-02-1.28951E+00 2.88960E-13-2.89629E-13
 -1       732 2.82452E+01-1.58574E+00-6.02258E-02-2.15170E+00-1.95621E-13 2.64892E-13
 -1       733 1.73178E+01 1.41987E+00 1.68527E-02 1.98127E+00 4.83279E-14-3.78174E-13
 -1       734 1.19747E+01 3.47482E+00 3.38855E-02-1.73711E+00-7.05208E-14-6.44245E-13
 -1       735 9.83208E+00 2.03543E+00 1.04833E-01 1.92119E+00 1.07692E-13-7.56235E-13
 -1       736 2.08126E+01-4.04093E+00 6.49117E-02-4.53735E+00 3.95468E-13-1.05711E-13
 -1       737 2.00002E+01-1.57168E-03 3.97785E-07-1.55717E-03-1.08160E-14 8.19290E-14
 -1       738 9.53246E+00 2.38839E-02 1.32672E-01 2.66362E+00-1.74308E-13 5.57138E-13
 -1       739 1.00227E+01 3.14174E-01 1.18986E-01-1.93839E+00 9.88376E-14 4.74131E-13
 -1       740 2.56164E+01 3.37286E+00-7.84131E-02 2.20504E+00 3.94519E-13 1.58569E-13
 -1       741 1.14238E+01 1.45836E+00 9.19846E-02-3.88593E+00-2.15909E-13-6.79266E-13
 -1       742 1.18076E+01 3.64286E+00 3.27330E-02 1.25479E-01 1.20485E-14-6.52468E-13
 -1       743 1.64790E+01-1.29400E+00 6.92724E-02-5.18819E+00-3.23585E-13-4.55667E-13
 -1       744 2.63144E+01 3.87187E+00-9.63629E-02-1.84565E+00 5.48832E-13-2.13312E-13
 -1       745 1.99999E+01-1.30687E-03 4.94407E-08 1.74642E-03-4.37394E-14-4.21731E-14
 -1       746 2.31882E+01-8.39655E-01-8.21484E-03 4.79397E-01 1.16203E-13-2.32116E-14
 -1       747 2.22010E+01-2.88103E+00 3.50572E-02-3.35989E+00-2.10462E-13-1.08555E-13
 -1       748 2.22609E+01-1.08318E+00 1.73598E-03-9.35492E-01-1.64889E-14-6.88646E-14
 -1       749 2.57285E+01-2.54802E+00-1.62813E-02-3.03703E-01 4.97258E-15 1.25322E-13
 -1       750 1.88325E+01-3.05750E+00 2.69245E-02 4.77179E+00-1.52098E-13 7.06796E-14
 -1       751 2.12714E+01-3.19974E+00 3.11045E-02-3.64426E+00 3.31631E-13-9.09806E-14
 -1       752 1.98273E+01-1.57086E+00 2.25048E-03-3.21226E+00 1.44350E-13 6.18876E-14
 -1       753 1.92224E+01-4.16263E-01 2.89655E-03-2.66810E+00 9.48635E-14 1.79477E-13
 -1       754 1.91139E+01 2.48894E-01 1.20964E-03-2.18603E+00 6.12032E-17 1.14011E-13
 -1       755 1.91965E+01 5.89591E-01 2.84172E-04-1.80011E+00-4.84654E-14 3.08023E-14
 -1       756 1.93480E+01 7.23728E-01 1.36168E-04-1.48705E+00 2.62130E-14 1.11682E-14
 -1       757 1.95063E+01 7.36668E-01 1.11159E-04-1.22627E+00 7.72569E-14-1.58941E-14
 -1       758 1.96448E+01 6.84732E-01 8.82484E-05-1.00449E+00 1.21753E-13 1.24645E-13
 -1       759 1.97555E+01 6.02962E-01 6.69406E-05-8.14442E-01 1.36198E-14 2.63588E-13
 -1       760 1.98390E+01 5.12057E-01 4.99154E-05-6.52179E-01-3.45100E-14 3.18596E-13
 -1       761 1.98993E+01 4.23470E-01 3.71418E-05-5.15071E-01 5.95464E-14 3.57162E-15
 -1       762 1.99412E+01 3.42943E-01 2.76690E-05-4.00813E-01 3.58856E-14-1.06028E-13
 -1       763 1.99694E+01 2.72835E-01 2.05920E-05-3.07048E-01-2.16829E-13-6.06762E-14
 -1       764 1.99876E+01 2.13597E-01 1.52512E-05-2.31310E-01-2.52061E-13 1.30884E-14
 -1       765 1.99989E+01 1.64664E-01 1.11945E-05-1.71104E-01-2.07245E-13 1.11967E-13
 -1       766 2.00053E+01 1.24987E-01 8.10915E-06-1.24010E-01-1.11298E-14 1.85854E-13
 -1       767 2.00086E+01 9.33358E-02 5.77137E-06-8.77722E-02-1.08556E-13 1.49528E-13
 -1       768 2.00099E+01 6.84683E-02 4.01434E-06-6.03604E-02-2.59193E-14 1.94633E-13
 -1       769 2.00100E+01 4.92207E-02 2.70941E-06-4.00005E-02-2.82898E-14-6.00876E-14
 -1       770 2.00093E+01 3.45490E-02 1.75505E-06-2.51804E-02 8.47661E-14-2.56509E-13
 -1       771 2.00082E+01 2.35455E-02 1.07033E-06-1.46389E-02 1.59273E-14-2.81342E-13
 -1       772 2.00071E+01 1.54385E-02 5.90629E-07-7.34506E-03-3.72128E-14 1.47710E-13
 -1       773 2.00059E+01 9.58502E-03 2.64596E-07-2.47142E-03-2.87604E-13 1.41043E-13
 -1       774 2.00048E+01 5.45795E-03 5.17811E-08 6.34779E-04-2.68862E-13 1.38180E-13
 -1       775 2.00038E+01 2.63192E-03-7.92472E-08 2.47953E-03-1.94219E-13-1.26773E-13
 -1       776 2.00029E+01 7.68639E-04-1.52204E-07 3.44820E-03 2.62361E-14-2.98934E-13
 -1       777 2.00022E+01-3.97255E-04-1.83471E-07 3.82872E-03 1.01892E-13-1.90223E-13
 -1       778 2.00016E+01-1.07120E-03-1.86441E-07 3.83171E-03 3.03588E-13-4.16283E-14
 -1       779 2.00011E+01-1.41035E-03-1.72561E-07 3.60729E-03 2.31227E-13 5.92016E-14
 -1       780 2.00007E+01-1.53377E-03-1.60958E-07 3.25912E-03 2.84777E-13 5.72646E-14
 -1       781 2.00004E+01-1.53113E-03-1.12679E-07 2.85537E-03 6.90550E-14 1.16752E-14
 -1       782 2.00002E+01-1.46937E-03 1.14408E-08 2.43884E-03-2.11164E-13 1.02519E-13
 -1       783 2.00000E+01-1.37846E-03-3.90305E-07 2.08964E-03 6.75497E-14-7.80602E-14
 -1       784 2.44082E+01 1.39227E+00-2.65640E-02 2.25557E+00 2.92768E-13 1.47586E-13
 -1       785 2.43975E+01 3.80783E-01-1.81891E-02-2.05739E+00 2.07073E-13-3.67813E-13
 -1       786 2.40219E+01 2.46290E+00-4.87408E-02-1.71858E+00 4.09348E-13-2.90753E-13
 -1       787 2.35583E+01-1.84768E+00-8.51886E-05-4.99448E-01-1.49465E-13-1.89185E-13
 -1       788 2.26967E+01-1.77231E+00 1.11265E-03 2.85698E-01-1.30581E-15-2.41319E-13
 -1       789 2.18874E+01-1.34569E+00-2.23116E-04 7.81996E-01 4.52893E-15-1.25856E-13
 -1       790 2.12481E+01-8.48894E-01-3.97304E-04 1.02867E+00-3.74718E-14-9.86509E-14
 -1       791 2.07947E+01-4.21339E-01-2.14734E-04 1.10242E+00-1.32629E-13 2.36805E-14
 -1       792 2.04948E+01-1.06558E-01-4.16144E-05 1.07125E+00-5.97150E-14-2.36107E-14
 -1       793 2.03062E+01 9.89736E-02 1.37517E-05 9.81678E-01-9.22716E-14 2.07444E-14
 -1       794 2.01919E+01 2.16403E-01 3.42460E-05 8.63845E-01-8.22592E-14 1.83655E-13
 -1       795 2.01245E+01 2.69944E-01 4.62123E-05 7.36873E-01 1.86909E-14 2.93539E-13
 -1       796 2.00853E+01 2.81002E-01 4.90624E-05 6.12543E-01-2.51763E-14 3.26053E-13
 -1       797 2.00623E+01 2.66231E-01 4.65528E-05 4.97729E-01-5.62124E-14 2.18240E-13
 -1       798 2.00483E+01 2.37592E-01 4.13061E-05 3.96020E-01-2.41341E-14 9.83448E-14
 -1       799 2.00391E+01 2.03147E-01 3.49923E-05 3.08795E-01 2.27721E-14-3.59716E-14
 -1       800 2.00326E+01 1.67992E-01 2.86106E-05 2.35989E-01-2.68644E-14-5.77218E-14
 -1       801 2.00274E+01 1.35100E-01 2.27131E-05 1.76641E-01-3.88020E-14 3.69722E-14
 -1       802 2.00230E+01 1.05991E-01 1.75631E-05 1.29299E-01-1.01213E-13 1.98497E-13
 -1       803 2.00191E+01 8.12462E-02 1.32448E-05 9.22992E-02-1.95796E-13 1.14992E-13
 -1       804 2.00157E+01 6.08635E-02 9.73752E-06 6.39605E-02 8.61304E-14 1.27823E-13
 -1       805 2.00128E+01 4.45140E-02 6.96517E-06 4.26975E-02-1.08211E-13-3.05459E-13
 -1       806 2.00102E+01 3.17067E-02 4.82705E-06 2.70891E-02-1.75861E-13-1.87299E-13
 -1       807 2.00080E+01 2.18964E-02 3.21684E-06 1.59069E-02 1.49072E-13 3.12288E-14
 -1       808 2.00061E+01 1.45473E-02 2.03345E-06 8.12009E-03 1.40447E-13-6.40476E-14
 -1       809 2.00046E+01 9.16892E-03 1.18656E-06 2.88501E-03 2.67462E-13-1.66567E-13
 -1       810 2.00034E+01 5.33333E-03 5.98822E-07-4.73522E-04 2.04717E-13-1.63364E-13
 -1       811 2.00024E+01 2.67948E-03 2.06191E-07-2.48481E-03-8.05545E-14-5.09894E-14
 -1       812 2.00017E+01 9.11280E-04-4.28247E-08-3.55551E-03 6.88563E-15 1.57380E-13
 -1       813 2.00011E+01-2.08685E-04-1.88174E-07-3.99157E-03 1.27132E-13 2.89361E-13
 -1       814 2.00007E+01-8.67119E-04-2.63563E-07-4.01811E-03 2.13186E-13 1.99217E-13
 -1       815 2.00003E+01-1.20851E-03-2.89143E-07-3.79641E-03 5.09346E-14 6.25742E-15
 -1       816 2.00001E+01-1.34318E-03-2.88601E-07-3.43821E-03-1.06741E-13-2.65270E-13
 -1       817 1.99999E+01-1.35467E-03-3.09824E-07-3.01776E-03-1.24597E-13-6.14764E-14
 -1       818 1.99998E+01-1.30691E-03-3.21999E-07-2.58314E-03-1.69054E-13 1.91200E-13
 -1       819 2.00014E+01-2.21891E-03 6.07904E-08 6.57846E-04-4.34687E-14-2.51904E-13
 -1       820 2.00015E+01-2.27540E-03 2.19265E-07-2.14912E-06 9.66458E-14-7.42436E-14
 -1       821 2.64865E+01 5.07573E-01-6.90292E-02-2.06144E+00 2.37924E-13-2.72900E-13
 -1       822 1.01665E+01 3.10184E+00 7.42648E-02-1.18116E+00-4.83125E-14-7.17964E-13
 -1       823 2.45758E+01-2.93957E-01-6.57240E-03 2.10512E+00 1.98718E-13 1.54887E-13
 -1       824 1.55753E+01-1.63640E+00 6.31180E-02 4.75221E+00-2.35453E-13 1.31964E-13
 -1       825 2.00497E+01-8.76185E-01 6.77229E-03-2.70677E+00-1.60378E-13-2.20959E-13
 -1       826 2.00011E+01-2.04976E-03 5.16244E-08 1.24871E-03-1.50060E-13-7.22393E-14
 -1       827 2.00006E+01-1.77551E-03 4.53391E-07 1.70147E-03-4.24793E-14-4.47625E-13
 -1       828 2.42112E+01-1.19228E+00-1.11884E-02-1.43040E+00 2.14958E-14-2.34589E-13
 -1       829 2.18120E+01-2.75146E+00 4.59665E-02 3.02550E+00 1.47545E-13-1.06004E-13
 -1       830 2.65375E+01-5.29131E-02-5.19798E-02 2.09501E+00 2.35975E-13 2.69295E-13
 -1       831 1.52409E+01-1.72887E+00 7.06698E-02-4.72800E+00 3.51831E-13 2.39631E-13
 -1       832 1.46695E+01 7.39757E-02 6.82483E-02 3.80915E+00 2.09992E-13-4.64255E-13
 -1       833 2.61558E+01-2.67985E+00-2.06779E-02-2.79785E-01-1.72544E-14-2.74458E-13
 -1       834 2.38691E+01-3.95281E+00 9.06784E-03 2.32612E+00-7.09884E-14-3.65080E-13
 -1       835 2.47813E+01 4.63401E+00-8.52310E-02-2.56837E-01 5.41744E-13-1.05090E-13
 -1       836 2.35717E+01-7.49319E-01-1.09205E-03 1.19334E+00 1.46964E-13 5.68530E-14
 -1       837 1.35960E+01-3.06807E-01 5.74025E-02 3.63640E+00-2.74317E-13 2.36961E-13
 -1       838 1.99999E+01-1.33296E-03 2.69395E-06-2.22716E-03-8.90683E-14 1.58193E-13
 -1       839 2.00006E+01-1.77681E-03-1.49715E-07-1.70224E-03-5.82494E-14 1.09793E-13
 -1       840 2.00011E+01-2.04783E-03 2.59306E-07-1.24400E-03 3.94720E-14 2.08484E-13
 -1       841 2.00014E+01-2.21687E-03 3.07047E-07-6.57400E-04 1.52047E-13 3.27386E-13
 -1       842 1.05843E+01 7.81740E-01 8.32112E-02 3.70013E-01-3.15686E-14 4.39475E-13
 -1       843 1.31415E+01-1.16032E-01 7.36790E-02-3.22532E+00 1.79663E-13 4.10316E-13
 -1       844 2.41476E+01-8.79331E-01-3.85752E-03 1.59853E+00 1.51679E-13 7.96852E-14
 -1       845 2.00000E+01-1.38768E-03 9.78074E-07-1.99396E-03 7.72127E-14 7.11778E-14
 -1       846 2.00003E+01-1.58786E-03-1.10131E-06 1.92514E-03 1.20939E-13 1.59396E-13
 -1       847 2.37681E+01-2.16637E+00-4.23975E-04-8.87867E-01-7.65599E-14 4.74923E-14
 -1       848 1.70766E+01-2.29125E-01 1.40588E-02-3.04795E+00 2.13588E-13 2.07385E-13
 -1       849 1.74458E+01 4.60951E-01 2.20768E-03-2.26547E+00-1.58934E-14 2.74998E-13
 -1       850 1.79329E+01 8.10258E-01 2.82607E-04-1.74374E+00-7.49720E-14 3.03922E-13
 -1       851 1.83776E+01 9.45898E-01-8.60298E-05-1.39019E+00-4.23465E-14 1.73581E-13
 -1       852 1.87562E+01 9.55031E-01-5.96503E-06-1.13226E+00-1.92960E-14 1.86009E-13
 -1       853 1.90648E+01 8.93388E-01 1.89041E-05-9.30149E-01 1.16583E-13 1.67706E-13
 -1       854 1.93091E+01 7.96302E-01 1.81753E-05-7.63084E-01 1.34553E-13 1.41255E-13
 -1       855 1.94984E+01 6.85992E-01 1.27188E-05-6.21161E-01 1.31599E-13 1.10709E-13
 -1       856 1.96423E+01 5.75817E-01 8.12493E-06-4.99732E-01-1.77973E-13 1.38839E-13
 -1       857 1.97499E+01 4.73237E-01 5.04075E-06-3.96422E-01-5.99019E-14 2.60449E-14
 -1       858 1.98292E+01 3.81922E-01 3.08548E-06-3.09623E-01-1.11691E-13-2.56526E-13
 -1       859 1.98868E+01 3.03186E-01 1.85833E-06-2.37831E-01-1.56972E-13-3.32222E-13
 -1       860 1.99279E+01 2.36941E-01 1.08333E-06-1.79453E-01-2.03960E-13-1.26528E-13
 -1       861 1.99567E+01 1.82322E-01 5.88904E-07-1.32801E-01 3.59446E-15-1.04078E-13
 -1       862 1.99765E+01 1.38074E-01 2.71822E-07-9.61670E-02-5.66265E-14-9.33941E-14
 -1       863 1.99896E+01 1.02806E-01 7.00070E-08-6.79080E-02 8.47148E-14 5.68055E-14
 -1       864 1.99981E+01 7.51285E-02-5.48200E-08-4.65067E-02-1.19151E-14 2.39221E-13
 -1       865 2.00032E+01 5.37417E-02-1.27303E-07-3.06123E-02-1.02763E-13 3.65678E-13
 -1       866 2.00060E+01 3.74779E-02-1.64096E-07-1.90579E-02-2.02784E-13 1.70878E-13
 -1       867 2.00073E+01 2.53188E-02-1.76914E-07-1.08611E-02 1.95151E-13 2.03482E-14
 -1       868 2.00076E+01 1.63971E-02-1.74208E-07-5.21382E-03-1.51220E-13-1.28977E-13
 -1       869 2.00072E+01 9.98909E-03-1.62172E-07-1.46472E-03-2.20476E-13-4.00625E-14
 -1       870 2.00065E+01 5.50139E-03-1.45422E-07 9.00968E-04-3.26335E-13 1.82380E-13
 -1       871 2.00057E+01 2.45553E-03-1.27179E-07 2.28253E-03-1.11460E-13 2.97091E-13
 -1       872 2.00048E+01 4.71431E-04-1.07696E-07 2.98380E-03 8.22641E-14 2.25483E-13
 -1       873 2.00039E+01-7.48533E-04-7.98239E-08 3.23141E-03 1.94860E-13-1.42603E-14
 -1       874 2.00031E+01-1.43440E-03-4.83498E-08 3.19052E-03 8.97245E-14-3.79434E-13
 -1       875 2.00024E+01-1.76151E-03-1.68753E-08 2.97829E-03 3.72877E-13-4.43352E-13
 -1       876 2.00017E+01-1.86268E-03-1.21120E-07 2.67561E-03 2.80217E-13-3.75821E-13
 -1       877 2.00012E+01-1.83977E-03-5.48418E-07 2.33305E-03 3.20422E-13-9.56708E-14
 -1       878 2.19067E+01-1.94202E+00-3.40840E-03 1.37838E+00-7.83549E-14-2.95788E-13
 -1       879 2.31466E+01-2.55686E+00-1.40731E-03 8.77130E-01-1.36609E-14-3.07769E-13
 -1       880 2.04134E+01-6.09767E-01-8.50265E-04 1.47428E+00-1.67865E-13-6.40755E-14
 -1       881 2.00779E+01-1.66745E-01 8.92058E-05 1.33592E+00-1.06646E-13-1.17872E-13
 -1       882 1.99038E+01 1.23173E-01 5.79212E-05 1.16608E+00-1.26679E-13-6.14404E-14
 -1       883 1.98299E+01 2.92176E-01 1.61117E-05 9.92794E-01-2.22890E-13-2.01124E-15
 -1       884 1.98140E+01 3.73060E-01 1.11746E-05 8.29188E-01-1.32457E-13 1.18430E-13
 -1       885 1.98286E+01 3.94550E-01 8.71070E-06 6.80960E-01 3.82467E-14 2.19209E-13
 -1       886 1.98563E+01 3.78972E-01 6.69287E-06 5.50302E-01 1.58111E-13 6.71379E-14
 -1       887 1.98876E+01 3.42572E-01 5.05456E-06 4.37661E-01 6.13333E-14-4.48360E-16
 -1       888 1.99170E+01 2.96560E-01 3.77920E-06 3.42466E-01-6.44608E-14 4.22681E-14
 -1       889 1.99422E+01 2.48254E-01 2.80165E-06 2.63506E-01-7.27554E-14 1.29396E-13
 -1       890 1.99625E+01 2.02110E-01 2.05577E-06 1.99181E-01-2.22030E-13 1.85409E-13
 -1       891 1.99779E+01 1.60569E-01 1.48980E-06 1.47693E-01-1.42171E-13 1.08489E-13
 -1       892 1.99891E+01 1.24715E-01 1.06375E-06 1.07192E-01-7.32514E-14 7.09134E-14
 -1       893 1.99969E+01 9.47650E-02 7.46013E-07 7.58902E-02-2.62169E-14-2.70778E-13
 -1       894 2.00019E+01 7.04152E-02 5.11526E-07 5.21347E-02 2.35596E-13-1.14219E-15
 -1       895 2.00049E+01 5.10844E-02 3.40555E-07 3.44514E-02-1.73999E-13-1.02792E-13
 -1       896 2.00064E+01 3.60728E-02 2.17700E-07 2.15642E-02-1.00645E-13-3.38049E-13
 -1       897 2.00069E+01 2.46626E-02 1.31016E-07 1.23966E-02 1.61804E-13-2.31525E-13
 -1       898 2.00068E+01 1.61777E-02 7.12628E-08 6.06029E-03 1.49342E-13-6.53521E-14
 -1       899 2.00063E+01 1.00144E-02 3.13069E-08 1.83755E-03 2.68831E-13 8.99737E-14
 -1       900 2.00055E+01 5.65470E-03 5.63372E-09-8.40599E-04-1.61018E-13 2.64955E-13
 -1       901 2.00047E+01 2.66677E-03-9.95204E-09-2.41673E-03-1.38573E-13 3.80183E-13
 -1       902 2.00039E+01 6.99667E-04-1.80063E-08-3.22856E-03 1.43483E-14 1.16775E-13
 -1       903 2.00031E+01-5.25989E-04-1.78743E-08-3.52873E-03 2.00920E-13 5.05841E-14
 -1       904 2.00024E+01-1.22879E-03-2.35195E-08-3.50204E-03 2.17368E-13 1.66178E-13
 -1       905 2.00018E+01-1.57723E-03-2.63961E-08-3.28002E-03 7.50500E-14 2.69501E-13
 -1       906 2.00013E+01-1.69952E-03-5.27541E-08-2.95311E-03-1.50361E-13 1.71428E-13
 -1       907 2.00009E+01-1.69123E-03 4.06364E-07-2.58182E-03-2.64388E-13 2.84146E-14
 -1       908 2.00013E+01-1.99292E-03 8.62864E-07 1.73794E-03-4.24681E-14-5.21023E-13
 -1       909 1.80029E+01-1.57325E+00 1.85723E-02 3.76054E+00-2.20572E-13 1.87922E-13
 -1       910 2.43759E+01-2.75407E+00-1.42790E-02 2.14038E-01-6.91382E-14-2.70593E-13
 -1       911 2.00021E+01-2.33663E-03 9.47452E-08 3.82572E-04 2.71569E-13-2.96223E-13
 -1       912 2.49710E+01-1.47950E+00-5.12449E-03 1.09115E+00 7.59792E-14 2.07196E-13
 -1       913 2.09961E+01-1.22054E+00-1.81402E-03 1.52552E+00-1.20998E-13-2.72245E-13
 -1       914 2.51601E+01-1.74928E+00-6.27219E-03-1.10426E+00-2.81069E-14-2.77957E-13
 -1       915 2.13451E+01-2.84001E+00 1.49030E-02 2.94789E+00-8.95443E-14-2.36491E-13
 -1       916 2.00018E+01-2.22577E-03-1.69168E-07 1.11520E-03 1.71791E-13-4.59848E-13
 -1       917 2.38121E+01-1.33780E+00-3.61975E-03 4.94570E-01 6.08374E-14 4.18386E-14
 -1       918 1.62924E+01-5.09241E-01 2.20827E-02 3.36614E+00-2.57894E-13 2.42618E-13
 -1       919 1.31618E+01 6.38833E-01 3.07228E-02 2.06312E+00-1.68178E-13 3.68536E-13
 -1       920 2.00007E+01-1.71334E-03-5.31006E-07 2.14049E-03-1.57387E-13 1.72444E-13
 -1       921 2.00008E+01-1.71324E-03-1.58833E-06-2.22160E-03-5.42222E-14-9.23347E-14
 -1       922 2.00013E+01-1.99208E-03-1.88366E-07-1.73742E-03 6.71016E-14 4.68107E-13
 -1       923 1.22381E+01 7.82762E-01 6.00725E-02-1.42780E+00 3.42508E-14 3.47829E-13
 -1       924 2.00021E+01-2.33413E-03 6.38639E-08-3.84730E-04 1.93818E-13-7.71577E-15
 -1       925 1.93748E+01 3.97856E-01-7.74723E-05 1.09622E+00-2.37858E-13-2.90282E-14
 -1       926 1.64976E+01 1.07448E+00-2.77081E-04-1.34426E+00 6.00243E-14 2.32167E-13
 -1       927 1.73399E+01 1.16207E+00-5.79862E-04-1.03664E+00-1.05373E-13 3.31033E-13
 -1       928 1.79800E+01 1.14721E+00-1.88347E-04-8.42309E-01-3.83026E-14 2.03664E-13
 -1       929 1.84705E+01 1.07349E+00-7.93241E-05-7.02642E-01 8.04165E-14 1.60373E-13
 -1       930 1.88498E+01 9.65945E-01-3.58076E-05-5.90627E-01 1.65966E-13 2.54142E-13
 -1       931 1.91429E+01 8.43344E-01-2.05979E-05-4.94376E-01 8.67263E-14 1.50898E-13
 -1       932 1.93685E+01 7.18436E-01-1.41645E-05-4.09086E-01-4.63314E-14 1.41201E-14
 -1       933 1.95409E+01 5.99339E-01-1.08204E-05-3.33356E-01-2.17379E-13-2.49787E-14
 -1       934 1.96717E+01 4.90791E-01-8.70420E-06-2.66991E-01-2.41776E-13-5.84245E-14
 -1       935 1.97698E+01 3.95117E-01-7.10651E-06-2.09960E-01-1.78827E-13-1.53560E-14
 -1       936 1.98425E+01 3.12999E-01-5.77123E-06-1.61993E-01 3.44633E-15 2.88860E-14
 -1       937 1.98957E+01 2.44060E-01-4.62005E-06-1.22513E-01-1.19184E-13 2.02854E-14
 -1       938 1.99339E+01 1.87294E-01-3.63319E-06-9.06942E-02-1.26936E-14-1.32008E-13
 -1       939 1.99609E+01 1.41365E-01-2.80324E-06-6.55697E-02 5.03057E-14-1.04831E-13
 -1       940 1.99795E+01 1.04814E-01-2.12066E-06-4.61277E-02 1.86193E-13 7.66884E-15
 -1       941 1.99919E+01 7.61901E-02-1.57151E-06-3.13872E-02 2.68233E-14 7.56769E-14
 -1       942 1.99998E+01 5.41347E-02-1.13890E-06-2.04472E-02-1.18317E-13 2.19243E-13
 -1       943 2.00045E+01 3.74230E-02-8.04913E-07-1.25138E-02-3.09696E-14 3.54971E-13
 -1       944 2.00071E+01 2.49853E-02-5.52253E-07-6.91001E-03-1.38842E-13-2.93946E-14
 -1       945 2.00081E+01 1.59104E-02-3.65235E-07-3.07477E-03-1.23894E-13-6.75339E-14
 -1       946 2.00082E+01 9.43782E-03-2.30506E-07-5.53771E-04-2.35711E-13 1.02743E-13
 -1       947 2.00077E+01 4.94525E-03-1.37537E-07 1.01270E-03-3.97193E-14 1.25258E-13
 -1       948 2.00069E+01 1.93165E-03-7.77636E-08 1.90359E-03 7.03552E-14 2.09764E-13
 -1       949 2.00059E+01 1.13007E-07-3.70415E-08 2.33078E-03-1.66744E-13 1.58513E-13
 -1       950 2.00049E+01-1.15927E-03 1.92532E-08 2.45195E-03 1.17343E-14-1.61747E-13
 -1       951 2.00039E+01-1.78577E-03 3.82088E-08 2.38108E-03 1.19124E-14-1.85963E-13
 -1       952 2.00030E+01-2.05945E-03 1.30634E-08 2.19962E-03 3.38663E-13-2.84242E-13
 -1       953 2.00023E+01-2.12345E-03-2.76233E-08 1.96048E-03 3.84759E-13-4.97694E-13
 -1       954 1.93718E+01 1.90168E-01 1.26396E-05 1.35078E+00-1.77850E-13-1.17288E-13
 -1       955 1.94845E+01-1.68499E-01 7.82130E-04 1.64847E+00-1.30598E-13-2.55409E-13
 -1       956 1.94347E+01 4.97244E-01-6.04166E-05 8.84032E-01-1.38773E-13-1.37191E-13
 -1       957 1.95188E+01 5.23905E-01-4.41092E-05 7.08347E-01-2.73393E-14-2.54094E-13
 -1       958 1.96081E+01 5.04621E-01-3.42907E-05 5.63153E-01 5.72850E-14-1.75911E-13
 -1       959 1.96923E+01 4.58849E-01-2.74212E-05 4.43516E-01 2.74054E-14 7.83938E-14
 -1       960 1.97663E+01 4.00240E-01-2.19436E-05 3.45466E-01-1.40159E-13 1.95465E-13
 -1       961 1.98282E+01 3.37940E-01-1.73517E-05 2.65735E-01-5.70826E-14 2.01506E-13
 -1       962 1.98781E+01 2.77705E-01-1.34954E-05 2.01541E-01-9.59552E-14 4.79682E-15
 -1       963 1.99169E+01 2.22842E-01-1.02980E-05 1.50450E-01-1.32055E-13-5.23704E-14
 -1       964 1.99463E+01 1.74948E-01-7.69071E-06 1.10306E-01 2.78129E-14-2.13240E-13
 -1       965 1.99678E+01 1.34492E-01-5.60369E-06 7.92023E-02 6.78833E-14-2.64341E-13
 -1       966 1.99831E+01 1.01236E-01-3.96615E-06 5.54648E-02 5.45804E-14-2.11699E-13
 -1       967 1.99935E+01 7.45370E-02-2.70854E-06 3.76455E-02-3.89501E-14-1.10581E-13
 -1       968 2.00002E+01 5.35633E-02-1.76473E-06 2.45110E-02 9.10978E-14-1.22071E-13
 -1       969 2.00043E+01 3.74256E-02-1.07420E-06 1.50287E-02-7.99737E-14-7.32512E-14
 -1       970 2.00065E+01 2.52645E-02-5.83409E-07 8.34768E-03-2.85985E-14 3.20667E-14
 -1       971 2.00074E+01 1.62977E-02-2.46502E-07 3.77893E-03 1.32285E-14 2.48336E-13
 -1       972 2.00075E+01 9.84240E-03-2.53628E-08 7.73350E-04-1.44819E-13 6.74730E-13
 -1       973 2.00070E+01 5.32173E-03 1.10881E-07-1.09939E-03-6.50369E-14 4.92535E-13
 -1       974 2.00062E+01 2.26070E-03 1.87073E-07-2.17083E-03 2.08057E-13 1.91667E-13
 -1       975 2.00053E+01 2.76802E-04 2.25003E-07-2.69179E-03 2.16462E-13 1.15602E-13
 -1       976 2.00044E+01-9.32033E-04 2.43894E-07-2.84854E-03 2.36226E-13 5.34657E-14
 -1       977 2.00035E+01-1.60097E-03 1.95092E-07-2.77653E-03 2.09107E-14 5.86644E-14
 -1       978 2.00028E+01-1.91074E-03 1.18458E-07-2.57061E-03-2.04622E-13 2.56737E-13
 -1       979 2.00020E+01-1.99482E-03 3.13632E-07-2.29785E-03-8.45520E-14 3.21585E-13
 -1       980 2.00018E+01-2.21685E-03-2.12831E-09-1.11918E-03 2.26067E-13 2.16403E-13
 -1       981 2.01657E+01-1.59018E+00 8.92358E-04 2.51617E+00-4.17616E-14-1.18787E-13
 -1       982 1.53782E+01 8.61574E-01 9.54368E-03-1.88055E+00 1.37072E-13 1.64892E-13
 -1       983 2.00017E+01-2.01095E-03-2.45145E-07-2.01519E-03 1.49591E-13 2.86531E-13
 -1       984 2.00023E+01-2.24455E-03 1.31413E-07-1.33642E-03-3.01180E-14 2.86816E-13
 -1       985 1.32637E+01 1.11830E+00 2.01298E-02 4.27968E-01-6.63386E-14 3.36924E-13
 -1       986 2.00028E+01-2.40353E-03 1.37002E-07-2.64694E-06 6.18564E-14 1.02800E-13
 -1       987 1.96656E+01-7.23103E-01 1.87806E-03 2.04952E+00-2.09380E-13-1.09723E-13
 -1       988 1.84904E+01-7.67866E-01 1.02891E-02 2.78570E+00-1.83588E-13 1.82637E-13
 -1       989 2.00027E+01-2.35147E-03-8.41481E-07 8.59422E-04 2.26199E-13-6.63118E-13
 -1       990 1.72943E+01 1.25519E+00-5.21827E-04-3.19522E-01-1.63040E-13 8.12877E-14
 -1       991 1.79462E+01 1.18418E+00-3.21956E-04-3.05283E-01-1.38717E-15 1.25662E-13
 -1       992 1.84410E+01 1.08019E+00-2.05919E-04-2.89361E-01 1.56380E-13 1.31572E-13
 -1       993 1.88207E+01 9.58880E-01-1.47272E-04-2.67332E-01 6.09684E-15-6.47192E-15
 -1       994 1.91145E+01 8.31089E-01-1.08028E-04-2.39331E-01-1.68978E-14-1.23858E-13
 -1       995 1.93419E+01 7.05070E-01-8.27068E-05-2.07674E-01-1.50496E-13-1.21304E-13
 -1       996 1.95174E+01 5.86626E-01-6.55787E-05-1.74995E-01-1.92128E-13-5.82148E-14
 -1       997 1.96519E+01 4.79359E-01-5.29344E-05-1.43490E-01-1.33678E-13-2.71555E-14
 -1       998 1.97539E+01 3.85085E-01-4.28878E-05-1.14682E-01-2.52463E-14 5.52636E-14
 -1       999 1.98302E+01 3.04292E-01-3.45704E-05-8.94344E-02-1.92542E-13-9.46695E-14
 -1      1000 1.98867E+01 2.36547E-01-2.75858E-05-6.80705E-02 3.05349E-15 2.51746E-14
 -1      1001 1.99276E+01 1.80846E-01-2.17309E-05-5.05314E-02-7.02496E-14 1.12286E-13
 -1      1002 1.99567E+01 1.35866E-01-1.68717E-05-3.65150E-02 2.62923E-13-1.91856E-13
 -1      1003 1.99769E+01 1.00164E-01-1.28939E-05-2.55900E-02 2.49574E-13-4.64077E-14
 -1      1004 1.99905E+01 7.22983E-02-9.68717E-06-1.72773E-02 1.49634E-13 1.15377E-13
 -1      1005 1.99993E+01 5.09152E-02-7.14301E-06-1.11046E-02-7.69448E-14 1.52186E-13
 -1      1006 2.00046E+01 3.47939E-02-5.15742E-06-6.63834E-03-3.36290E-13-7.62317E-14
 -1      1007 2.00074E+01 2.28681E-02-3.63387E-06-3.49949E-03-1.50402E-13-1.44711E-13
 -1      1008 2.00086E+01 1.42305E-02-2.48589E-06-1.36917E-03-3.72457E-14-1.23033E-13
 -1      1009 2.00088E+01 8.12585E-03-1.63878E-06 1.29348E-05-1.86389E-13-7.39595E-14
 -1      1010 2.00083E+01 3.93750E-03-1.03101E-06 8.53790E-04 6.18020E-14 1.95707E-13
 -1      1011 2.00074E+01 1.17083E-03-6.10746E-07 1.31398E-03 1.05425E-14 1.03492E-13
 -1      1012 2.00064E+01-5.64344E-04-2.92305E-07 1.51510E-03-2.52172E-13 2.00622E-13
 -1      1013 2.00053E+01-1.57088E-03-7.09144E-09 1.54816E-03-8.32682E-14 7.67237E-14
 -1      1014 2.00042E+01-2.07863E-03 1.39000E-06 1.47665E-03 9.46719E-14-9.55545E-14
 -1      1015 2.00033E+01-2.27948E-03 1.14177E-06 1.35261E-03 1.20695E-13-5.11020E-13
 -1      1016 1.88035E+01 5.54401E-01-6.17214E-04 1.14447E+00-2.72386E-13 1.04082E-13
 -1      1017 1.51010E+01 1.27472E+00 3.93136E-03-3.82393E-01 6.79559E-14 1.22594E-13
 -1      1018 1.89829E+01 6.51702E-01-2.56030E-04 8.80948E-01-1.15913E-13 7.97005E-14
 -1      1019 1.86527E+01 3.38235E-01-6.62829E-04 1.49413E+00-2.17017E-13 7.72763E-14
 -1      1020 1.93270E+01 6.41524E-01-1.18182E-04 5.25535E-01-4.21789E-14-2.06844E-14
 -1      1021 1.94730E+01 5.82713E-01-9.52308E-05 4.05026E-01-3.90106E-14-5.00243E-15
 -1      1022 1.95969E+01 5.09656E-01-7.93529E-05 3.10645E-01-4.43180E-14 4.47874E-14
 -1      1023 1.96992E+01 4.32451E-01-6.61823E-05 2.36543E-01-1.63896E-13 1.77792E-14
 -1      1024 1.97813E+01 3.57646E-01-5.46009E-05 1.78419E-01-1.01464E-13 1.49291E-13
 -1      1025 1.98456E+01 2.89137E-01-4.43688E-05 1.33011E-01-4.63986E-14 2.02335E-13
 -1      1026 1.98948E+01 2.28907E-01-3.54461E-05 9.77689E-02 6.88782E-14 3.37680E-14
 -1      1027 1.99316E+01 1.77624E-01-2.78100E-05 7.06573E-02 3.02478E-14 1.94233E-14
 -1      1028 1.99584E+01 1.35108E-01-2.14078E-05 5.00239E-02-6.77580E-14-3.68043E-16
 -1      1029 1.99774E+01 1.00670E-01-1.61506E-05 3.45191E-02-6.95706E-14 2.97804E-14
 -1      1030 1.99903E+01 7.33599E-02-1.19218E-05 2.30391E-02-1.38268E-13 7.89090E-14
 -1      1031 1.99988E+01 5.21334E-02-8.58860E-06 1.46845E-02-3.77494E-14 1.55665E-13
 -1      1032 2.00040E+01 3.59606E-02-6.01435E-06 8.72762E-03-4.14215E-14 1.05493E-13
 -1      1033 2.00068E+01 2.38884E-02-4.06720E-06 4.58486E-03-1.45767E-13 1.41409E-13
 -1      1034 2.00081E+01 1.50735E-02-2.62631E-06 1.79352E-03-2.54214E-13 1.89304E-13
 -1      1035 2.00083E+01 8.79460E-03-1.58499E-06-8.93763E-06-1.10725E-13 2.82685E-13
 -1      1036 2.00079E+01 4.45135E-03-8.51330E-07-1.10266E-03 2.30717E-13 3.00956E-13
 -1      1037 2.00071E+01 1.55504E-03-3.45200E-07-1.70091E-03 2.01326E-13 3.27594E-13
 -1      1038 2.00061E+01-2.84117E-04 4.75941E-08-1.96304E-03 2.43707E-13 5.33500E-13
 -1      1039 2.00051E+01-1.36999E-03 2.81874E-07-2.00616E-03-9.12964E-15 5.60149E-13
 -1      1040 2.00041E+01-1.94104E-03 2.80532E-07-1.91750E-03-7.58074E-14 5.48728E-13
 -1      1041 2.00032E+01-2.17524E-03-4.40370E-07-1.75020E-03-1.11638E-13 3.15638E-13
 -1      1042 2.00027E+01-2.22952E-03-6.85903E-07-1.54290E-03-2.39956E-13 2.56600E-13
 -1      1043 2.00027E+01-2.35994E-03-6.85371E-08-6.95149E-04 7.39311E-14 5.64332E-15
 -1      1044 1.91615E+01 6.71374E-01-1.62383E-04 6.80336E-01-5.57394E-14-8.36426E-14
 -1      1045 1.53716E+01 6.80616E-01 1.11330E-02 1.97934E+00-9.65586E-14 1.90721E-13
 -1      1046 1.64019E+01 1.28595E+00 3.94926E-04-3.43015E-01 5.88834E-14 1.30089E-14
 -1      1047 1.84109E+01-2.45360E-02-3.95885E-03 1.99619E+00-1.53937E-14 2.09879E-13
 -1      1048 2.00036E+01-2.37453E-03-4.71504E-07-4.70483E-04-1.25195E-13-8.74638E-14
 -1      1049 2.00036E+01-2.35871E-03-1.34408E-06 4.53339E-04-7.81552E-14-4.74360E-14
 -1      1050 1.81567E+01 1.10080E+00-4.37317E-04 1.38100E-01 5.22545E-14 1.87571E-13
 -1      1051 1.85834E+01 1.00552E+00-3.44899E-04 5.62642E-02-2.12850E-14 1.07908E-13
 -1      1052 1.89177E+01 8.93566E-01-2.38127E-04 6.85389E-03-5.66193E-14-8.71852E-14
 -1      1053 1.91807E+01 7.74862E-01-1.60235E-04-2.05647E-02-7.94449E-14-1.09288E-13
 -1      1054 1.93874E+01 6.57269E-01-1.06857E-04-3.34847E-02-1.72827E-13-1.71495E-13
 -1      1055 1.95489E+01 5.46396E-01-7.00360E-05-3.73001E-02-2.68779E-13-6.86263E-14
 -1      1056 1.96737E+01 4.45786E-01-4.43956E-05-3.58059E-02-8.39422E-14-1.27900E-13
 -1      1057 1.97692E+01 3.57286E-01-2.65713E-05-3.15730E-02-2.20620E-14-1.52535E-13
 -1      1058 1.98411E+01 2.81451E-01-1.43468E-05-2.62586E-02-3.36856E-14-8.67195E-15
 -1      1059 1.98944E+01 2.17934E-01-6.16816E-06-2.08626E-02-2.42909E-14-7.98020E-14
 -1      1060 1.99331E+01 1.65812E-01-8.99946E-07-1.59321E-02-3.45838E-14 1.71919E-13
 -1      1061 1.99607E+01 1.23843E-01 2.30235E-06-1.17178E-02 1.64896E-13 1.47348E-13
 -1      1062 1.99798E+01 9.06505E-02 4.06820E-06-8.28679E-03 6.24029E-14-1.60692E-13
 -1      1063 1.99926E+01 6.48593E-02 4.86315E-06-5.60174E-03-2.06576E-14-3.16444E-13
 -1      1064 2.00007E+01 4.51733E-02 5.02680E-06-3.57291E-03-1.96221E-13-2.51621E-13
 -1      1065 2.00056E+01 3.04247E-02 4.80239E-06-2.09101E-03-2.09602E-13 6.90663E-15
 -1      1066 2.00081E+01 1.95960E-02 4.36015E-06-1.04653E-03-6.00605E-14 5.78470E-14
 -1      1067 2.00091E+01 1.18239E-02 3.81584E-06-3.39925E-04-1.34977E-13 7.52659E-14
 -1      1068 2.00091E+01 6.39239E-03 3.24522E-06 1.13866E-04-4.47021E-14-6.00170E-14
 -1      1069 2.00084E+01 2.71939E-03 2.69645E-06 3.84430E-04-8.58300E-14-1.77378E-13
 -1      1070 2.00075E+01 3.40218E-04 2.20807E-06 5.26940E-04-1.30305E-13-3.17905E-13
 -1      1071 2.00064E+01-1.10926E-03 1.90715E-06 5.84168E-04-1.00854E-13-1.23295E-13
 -1      1072 2.00052E+01-1.90222E-03-1.91192E-06 5.85412E-04-7.94806E-14-3.92508E-14
 -1      1073 2.00044E+01-2.22812E-03-4.18113E-07 5.24360E-04-2.43023E-13 7.83469E-14
 -1      1074 1.68722E+01 1.18940E+00-1.79056E-03 4.60780E-01 4.93523E-14-4.35772E-14
 -1      1075 1.84581E+01 8.41228E-01 2.87090E-04 7.95268E-01-1.41949E-13-9.58097E-14
 -1      1076 2.00032E+01-2.31882E-03 7.87818E-07-1.02877E-03-7.15681E-14 4.89707E-13
 -1      1077 1.81114E+01 7.74552E-01 3.13775E-04 1.09001E+00-7.20573E-14 2.36657E-13
 -1      1078 1.94187E+01 6.20965E-01 1.57825E-04 2.34310E-01-1.31058E-13-3.61162E-14
 -1      1079 1.92397E+01 7.10932E-01 2.22078E-04 3.16807E-01-6.22173E-14-1.53960E-13
 -1      1080 1.96794E+01 4.38243E-01 8.08314E-05 1.27489E-01-1.79666E-13 9.73018E-14
 -1      1081 1.97699E+01 3.56179E-01 5.85321E-05 9.33462E-02-1.27002E-13 9.68755E-14
 -1      1082 1.98395E+01 2.83804E-01 4.25029E-05 6.77766E-02 9.95923E-14 1.12752E-13
 -1      1083 1.98919E+01 2.21873E-01 3.07951E-05 4.86542E-02 8.27887E-14 1.77549E-13
 -1      1084 1.99306E+01 1.70212E-01 2.21534E-05 3.44080E-02 4.55157E-14 1.17006E-13
 -1      1085 1.99584E+01 1.28075E-01 1.57444E-05 2.38611E-02-4.89790E-14-4.25998E-14
 -1      1086 1.99779E+01 9.44019E-02 1.09938E-05 1.61225E-02-7.55227E-14-4.10282E-14
 -1      1087 1.99911E+01 6.80107E-02 7.49063E-06 1.05111E-02-3.80766E-14-1.54053E-13
 -1      1088 1.99997E+01 4.77170E-02 4.93175E-06 6.50352E-03 4.56788E-15-1.61013E-13
 -1      1089 2.00048E+01 3.24121E-02 3.08805E-06 3.69643E-03-8.73871E-14-1.94082E-13
 -1      1090 2.00076E+01 2.11047E-02 1.78378E-06 1.77906E-03-4.59215E-14-2.00823E-13
 -1      1091 2.00088E+01 1.29379E-02 8.83422E-07 5.12790E-04-2.30517E-13-2.64452E-13
 -1      1092 2.00089E+01 7.19195E-03 2.83488E-07-2.84581E-04-1.10233E-13-3.12024E-13
 -1      1093 2.00084E+01 3.27559E-03-9.21451E-08-7.51008E-04 3.13851E-14 4.70329E-14
 -1      1094 2.00075E+01 7.13037E-04-3.07291E-07-9.89986E-04-6.29011E-14 1.74638E-13
 -1      1095 2.00064E+01-8.73182E-04-6.09383E-07-1.07880E-03 1.79950E-14 3.45913E-13
 -1      1096 2.00053E+01-1.77647E-03-1.78530E-06-1.06633E-03-4.24845E-14 2.72916E-13
 -1      1097 1.95637E+01 5.27860E-01 1.12440E-04 1.73121E-01-7.41470E-14-1.00265E-14
 -1      1098 1.90225E+01 7.87867E-01 3.04871E-04 4.28863E-01-8.39858E-14-9.92542E-14
 -1      1099 1.61125E+01 1.05321E+00 5.04876E-04 1.04185E+00-8.16812E-14 1.00276E-13
 -1      1100 1.71769E+01 5.32436E-01 3.99340E-03 1.73523E+00-1.06141E-13 3.25267E-13
 -1      1101 1.76030E+01 1.16947E+00-1.95872E-04 2.67601E-01 4.34522E-14 1.63317E-13
 -1      1102 1.87630E+01 8.37784E-01 3.77081E-04 5.82471E-01 1.03662E-14-8.37519E-14
 -1      1103 2.00042E+01-2.20082E-03-1.05001E-06-9.94406E-04-3.89011E-14 3.61094E-13
 -1      1104 1.77065E+01 6.78205E-01 1.56076E-03 1.36576E+00-1.19859E-13 4.51744E-13
 -1      1105 2.00048E+01-2.10349E-03 3.90509E-06-2.35297E-04-1.27438E-13-1.42394E-13
 -1      1106 1.72908E+01 8.23859E-01 1.41151E-03 1.22212E+00-1.37718E-13 2.41296E-13
 -1      1107 3.30672E+01 1.07044E+01 2.61407E+00-6.76521E+00-4.31877E-14 1.53499E-12
 -1      1108 2.45071E+01 7.46726E+00 3.83748E-01-2.88139E+00-2.29816E-14 3.01717E-13
 -1      1109 2.17700E+01 6.57690E+00 1.53011E-01-1.34438E+00-1.75970E-14-2.45678E-13
 -1      1110 1.95816E+01 5.89506E+00 6.85787E-02-4.71644E-01-1.08802E-14-5.16925E-13
 -1      1111 1.76212E+01 5.28668E+00 1.00294E-03-4.25643E-03-7.79932E-15-6.71052E-13
 -1      1112 1.59826E+01 4.77608E+00-6.23158E-02 1.00033E-01-3.96905E-15-7.50280E-13
 -1      1113 1.48496E+01 4.42296E+00-1.06373E-01-9.68893E-02-2.27596E-15-7.91974E-13
 -1      1114 1.43826E+01 4.27944E+00-1.17796E-01-4.57100E-01-1.48492E-15-7.97528E-13
 -1      1115 1.46348E+01 4.36320E+00-9.07797E-02-7.85067E-01 1.02696E-15-7.82661E-13
 -1      1116 1.54760E+01 4.63205E+00-3.58667E-02-9.03239E-01 2.91434E-15-7.45506E-13
 -1      1117 1.66650E+01 5.00743E+00 2.64621E-02-7.19676E-01 5.02376E-15-6.88297E-13
 -1      1118 1.79467E+01 5.40729E+00 7.75685E-02-2.47866E-01 6.21725E-15-6.14139E-13
 -1      1119 1.91728E+01 5.78407E+00 1.07451E-01 4.45892E-01 9.52016E-15-5.13263E-13
 -1      1120 2.03315E+01 6.13543E+00 1.19882E-01 1.29788E+00 1.24067E-14-3.37520E-13
 -1      1121 2.15506E+01 6.50554E+00 1.34501E-01 2.29501E+00 1.82077E-14-1.91444E-14
 -1      1122 2.32933E+01 7.06017E+00 2.40561E-01 3.62235E+00 2.09555E-14 5.78888E-13
 -1      1123 2.88291E+01 9.13785E+00 1.63024E+00 6.10646E+00 4.57412E-14 1.81083E-12
 -1      1124 3.44846E+01 3.87998E+00 1.18473E+00-4.31006E+00-1.72251E-13 2.31093E-12
 -1      1125 2.70124E+01-1.98026E-01-6.54800E-01 2.91799E-02-5.85365E-14 1.92797E-12
 -1      1126 2.67419E+01-6.13823E-02-1.64566E-01 1.05024E-01-1.93075E-14 1.39635E-12
 -1      1127 2.68865E+01 1.70404E-02 5.64803E-02 4.70583E-02-1.81454E-14 1.02539E-12
 -1      1128 2.65348E+01 6.70284E-02 1.41696E-01-1.49673E-02 1.83881E-16 7.91053E-13
 -1      1129 2.52564E+01 8.34527E-02 1.55185E-01-9.20064E-02-4.73580E-16 7.35009E-13
 -1      1130 2.29332E+01 4.24068E-02 7.13662E-02-1.61633E-01-8.10333E-15 5.94053E-13
 -1      1131 2.01083E+01-5.80393E-02-1.05160E-01-1.71316E-01 3.11296E-15 3.87967E-13
 -1      1132 1.79863E+01-1.58536E-01-2.72113E-01-8.54181E-02-4.95610E-15 1.35170E-13
 -1      1133 1.77235E+01-1.71814E-01-2.94908E-01 5.80449E-02-4.02282E-15-2.38504E-13
 -1      1134 1.94777E+01-8.44485E-02-1.52987E-01 1.66468E-01-6.92675E-15-6.99163E-13
 -1      1135 2.22619E+01 2.76872E-02 3.60428E-02 1.82109E-01 4.45694E-15-6.87506E-13
 -1      1136 2.47706E+01 9.17129E-02 1.50209E-01 1.25774E-01 8.67015E-15-7.80778E-13
 -1      1137 2.62326E+01 9.66185E-02 1.62864E-01 5.26430E-02-8.65540E-15-6.15272E-13
 -1      1138 2.65781E+01 6.95733E-02 1.16688E-01-7.50285E-04-3.01668E-15-4.48628E-13
 -1      1139 2.61307E+01 3.69340E-02 6.01318E-02-2.69765E-02-2.71437E-14-4.74742E-13
 -1      1140 2.52758E+01 1.15895E-02 1.74277E-02-3.38134E-02-3.01278E-15-6.11192E-13
 -1      1141 2.43016E+01-3.98769E-03-7.23578E-03-3.07984E-02-2.14359E-14-5.51743E-13
 -1      1142 2.33747E+01-1.17154E-02-1.82224E-02-2.43821E-02 1.61880E-14-7.81288E-13
 -1      1143 2.25711E+01-1.43753E-02-2.10721E-02-1.78187E-02-1.48711E-14-9.63816E-13
 -1      1144 2.19120E+01-1.42252E-02-1.98880E-02-1.23403E-02 2.19011E-14-7.22849E-13
 -1      1145 2.13906E+01-1.27464E-02-1.71074E-02-8.18374E-03 2.58344E-15-4.48816E-13
 -1      1146 2.09888E+01-1.07958E-02-1.39816E-02-5.19619E-03 1.32190E-14-1.35326E-14
 -1      1147 2.06857E+01-8.82050E-03-1.10701E-02-3.12336E-03-7.22100E-15-3.01269E-14
 -1      1148 2.04611E+01-7.02651E-03-8.57458E-03-1.72436E-03-1.30448E-14-2.59169E-13
 -1      1149 2.02979E+01-5.48889E-03-6.52856E-03-8.05349E-04 5.61048E-15-5.40880E-13
 -1      1150 2.01814E+01-4.21687E-03-4.89566E-03-2.21170E-04 4.51475E-14-5.16743E-13
 -1      1151 2.01004E+01-3.18961E-03-3.61615E-03 1.33110E-04 9.81729E-15-5.13943E-13
 -1      1152 2.00455E+01-2.37502E-03-2.62780E-03 3.31990E-04 2.16251E-14-5.30038E-13
 -1      1153 2.00097E+01-1.73888E-03-1.87406E-03 4.27857E-04 2.51396E-14-2.38950E-13
 -1      1154 1.99876E+01-1.24905E-03-1.30652E-03 4.57306E-04-7.39070E-14-3.82599E-13
 -1      1155 1.99752E+01-8.77158E-04-8.85032E-04 4.45715E-04 4.71398E-14-4.98591E-13
 -1      1156 1.99693E+01-5.98980E-04-5.76875E-04 4.10494E-04-2.27385E-15-4.32240E-13
 -1      1157 1.99677E+01-3.94295E-04-3.55689E-04 3.63392E-04-1.58333E-14-4.67671E-13
 -1      1158 1.99688E+01-2.46498E-04-2.00454E-04 3.12139E-04 8.04021E-16-6.18798E-13
 -1      1159 1.99715E+01-1.42144E-04-9.45597E-05 2.61625E-04 3.02566E-14-2.99242E-13
 -1      1160 1.99749E+01-7.04828E-05-2.50113E-05 2.14755E-04 1.02539E-14-4.16100E-13
 -1      1161 1.99786E+01-2.30202E-05 1.82512E-05 1.73071E-04 1.60570E-15-3.86696E-13
 -1      1162 1.99822E+01 6.87171E-06 4.29262E-05 1.37198E-04 4.12994E-14-3.59218E-13
 -1      1163 1.99856E+01 2.43042E-05 5.48347E-05 1.07172E-04-3.18814E-14-3.41996E-13
 -1      1164 1.99886E+01 3.31746E-05 5.83283E-05 8.26686E-05-4.79582E-15-1.86192E-13
 -1      1165 1.99911E+01 3.64291E-05 5.66366E-05 6.31600E-05-3.07985E-14-2.47760E-13
 -1      1166 1.99933E+01 3.62882E-05 5.21703E-05 4.80094E-05-4.24196E-14-4.65743E-13
 -1      1167 1.99952E+01 3.44381E-05 4.68012E-05 3.65108E-05-5.54406E-14-3.95327E-13
 -1      1168 1.99967E+01 3.21823E-05 4.21338E-05 2.78610E-05 7.56766E-14-2.07114E-13
 -1      1169 1.99979E+01 3.05317E-05 3.97195E-05 2.10237E-05 3.13893E-14 4.69338E-13
 -1      1170 1.99988E+01 3.01552E-05 4.07644E-05 1.43964E-05 1.35985E-15 5.39384E-13
 -1      1171 1.99995E+01 3.04537E-05 4.35824E-05 4.97937E-06-1.96592E-14 3.94980E-13
 -1      1172 1.99998E+01 3.27594E-05 3.38564E-05-1.30867E-05 4.98621E-16 1.67234E-13
 -1      1173 1.99998E+01-1.49743E-05-3.19630E-05-1.50240E-05 4.35485E-14 1.41262E-13
 -1      1174 3.17596E+01 5.93346E-01 3.25865E-01 2.10138E+00-3.03924E-14 2.82319E-12
 -1      1175 2.41774E+01-4.83628E-02-5.87873E-01 9.49472E-02 1.79370E-14 2.31151E-12
 -1      1176 2.31633E+01-9.60875E-03-1.44652E-01-8.42729E-03 1.05862E-14 1.78761E-12
 -1      1177 2.25219E+01 1.45390E-02 1.68437E-02-1.43059E-02 1.53551E-14 1.41818E-12
 -1      1178 2.17216E+01 1.84012E-02 5.14302E-02-1.93677E-03-1.10285E-15 1.23747E-12
 -1      1179 2.06353E+01 6.21296E-03 3.67708E-02 2.03723E-02 1.00159E-15 1.06801E-12
 -1      1180 1.93533E+01-1.70240E-02-4.60851E-03 4.40029E-02-1.91212E-14 9.50004E-13
 -1      1181 1.81532E+01-4.04431E-02-5.59249E-02 5.76281E-02-8.45591E-15 8.80407E-13
 -1      1182 1.73991E+01-5.14618E-02-9.37989E-02 5.18670E-02 8.47759E-15 7.19202E-13
 -1      1183 1.73644E+01-4.46192E-02-9.89213E-02 2.65276E-02 1.88877E-14 4.62023E-13
 -1      1184 1.80771E+01-2.46195E-02-6.94659E-02-7.85432E-03 1.10944E-14 1.09274E-13
 -1      1185 1.92986E+01-2.43273E-03-2.23864E-02-3.65952E-02-1.02641E-14-1.91722E-14
 -1      1186 2.06528E+01 1.34153E-02 1.99436E-02-5.01469E-02 9.12584E-15 6.16313E-14
 -1      1187 2.18040E+01 2.02618E-02 4.40336E-02-4.82268E-02-1.10341E-14 6.52534E-14
 -1      1188 2.25666E+01 1.99699E-02 4.88499E-02-3.66706E-02 3.10004E-14-1.14672E-13
 -1      1189 2.29119E+01 1.58233E-02 4.09660E-02-2.22930E-02 4.02673E-15-3.19595E-13
 -1      1190 2.29132E+01 1.05547E-02 2.81103E-02-9.68099E-03-1.35874E-14-2.51037E-13
 -1      1191 2.26819E+01 5.76501E-03 1.56493E-02-6.98420E-04 1.25074E-15-2.90951E-13
 -1      1192 2.23245E+01 2.09786E-03 6.03727E-03 4.63736E-03-1.44053E-14-7.89559E-14
 -1      1193 2.19226E+01-3.75144E-04-2.95304E-04 7.13652E-03 1.66322E-14 3.20056E-14
 -1      1194 2.15300E+01-1.84254E-03-3.87961E-03 7.75635E-03-2.02029E-14-6.01966E-14
 -1      1195 2.11769E+01-2.56480E-03-5.50628E-03 7.29451E-03-1.01085E-14-7.85049E-14
 -1      1196 2.08767E+01-2.78458E-03-5.89015E-03 6.31254E-03-1.00993E-14-5.71531E-14
 -1      1197 2.06321E+01-2.69459E-03-5.56689E-03 5.16264E-03 1.78983E-14-4.30845E-13
 -1      1198 2.04396E+01-2.43419E-03-4.89669E-03 4.04344E-03-1.93916E-14-4.47611E-13
 -1      1199 2.02926E+01-2.09742E-03-4.10322E-03 3.05244E-03 1.84680E-15-3.51902E-14
 -1      1200 2.01837E+01-1.74375E-03-3.31506E-03 2.22589E-03 3.53741E-14-1.31191E-14
 -1      1201 2.01053E+01-1.40802E-03-2.59900E-03 1.56573E-03-2.10057E-14-3.71183E-13
 -1      1202 2.00508E+01-1.10841E-03-1.98374E-03 1.05662E-03-8.84153E-16-4.15990E-13
 -1      1203 2.00144E+01-8.52314E-04-1.47566E-03 6.76088E-04-4.87448E-14-5.84745E-14
 -1      1204 1.99914E+01-6.40538E-04-1.06898E-03 4.00244E-04 1.87106E-16 2.16960E-13
 -1      1205 1.99780E+01-4.70139E-04-7.52019E-04 2.06750E-04 1.40616E-14 1.28726E-13
 -1      1206 1.99713E+01-3.36301E-04-5.10969E-04 7.61486E-05 1.15099E-15 3.81115E-13
 -1      1207 1.99691E+01-2.33527E-04-3.32013E-04-7.72150E-06-1.05167E-14 7.40530E-13
 -1      1208 1.99697E+01-1.56348E-04-2.02481E-04-5.78256E-05-2.01269E-14 7.89225E-13
 -1      1209 1.99720E+01-9.97253E-05-1.11353E-04-8.42686E-05-1.30007E-14 3.72335E-13
 -1      1210 1.99753E+01-5.92399E-05-4.94004E-05-9.47282E-05 8.82601E-14-6.76050E-13
 -1      1211 1.99788E+01-3.11493E-05-9.11668E-06-9.48983E-05-4.95474E-15-5.04713E-13
 -1      1212 1.99823E+01-1.23701E-05 1.54571E-05-8.89000E-05-4.36468E-16-3.49798E-13
 -1      1213 1.99856E+01-4.12999E-07 2.89593E-05-7.96410E-05 3.69398E-14-5.52140E-13
 -1      1214 1.99886E+01 6.70306E-06 3.49439E-05-6.91169E-05-7.77661E-14-1.75947E-13
 -1      1215 1.99912E+01 1.05486E-05 3.61135E-05-5.86566E-05-6.74864E-14 1.13453E-13
 -1      1216 1.99933E+01 1.23867E-05 3.45486E-05-4.91176E-05-4.21113E-14 2.20347E-14
 -1      1217 1.99952E+01 1.32714E-05 3.19413E-05-4.10206E-05-5.47702E-15-3.20273E-13
 -1      1218 1.99967E+01 1.40730E-05 2.98060E-05-3.46125E-05-8.36183E-14-4.99365E-13
 -1      1219 1.99979E+01 1.56145E-05 2.97828E-05-2.98851E-05 2.78456E-14-4.94273E-13
 -1      1220 1.99988E+01 1.85750E-05 3.33799E-05-2.63068E-05 4.98016E-14-1.04688E-12
 -1      1221 1.99995E+01 2.18007E-05 3.86246E-05-2.12592E-05-4.80243E-14-1.12397E-12
 -1      1222 1.99998E+01 1.63892E-05 2.89786E-05-7.31687E-06 1.51928E-13-1.54961E-12
 -1      1223 1.99998E+01-1.30750E-05-3.26258E-05 1.34646E-05 2.10490E-14-1.28700E-12
 -1      1224 1.99998E+01 3.90675E-05-3.01924E-05 1.30547E-05-1.37804E-12-1.25348E-13
 -1      1225 1.99998E+01 2.15373E-05 3.18957E-05 1.07736E-05-1.60532E-12 4.85739E-14
 -1      1226 1.99998E+01-3.18119E-04 3.53895E-05-1.14870E-05 9.56228E-14 2.31099E-14
 -1      1227 1.99998E+01-9.13604E-04 1.83625E-05-2.16494E-05-1.82474E-14-5.67388E-15
 -1      1228 1.99998E+01-1.62647E-03-1.12713E-06-2.42524E-05-1.83657E-13 6.03046E-14
 -1      1229 1.99998E+01-2.32149E-03-1.75773E-05-2.17797E-05-4.67430E-13-7.37876E-14
 -1      1230 1.99998E+01-2.89776E-03-2.95378E-05-1.64322E-05-9.11386E-13 5.28570E-14
 -1      1231 1.99998E+01-3.27952E-03-3.69794E-05-8.67247E-06-8.98627E-13 8.20527E-14
 -1      1232 1.99998E+01-3.41089E-03-3.94486E-05 7.68445E-08-2.25594E-13 9.37971E-14
 -1      1233 1.99998E+01-3.27526E-03-3.69023E-05 8.82351E-06 5.27600E-13 2.32751E-13
 -1      1234 1.99998E+01-2.88979E-03-2.93494E-05 1.65384E-05-4.00258E-14-2.04110E-13
 -1      1235 1.99998E+01-2.31056E-03-1.72895E-05 2.21623E-05-1.46829E-12-1.05115E-14
 -1      1236 1.99998E+01-1.61450E-03-9.24944E-07 2.42921E-05-2.04637E-12 1.05243E-13
 -1      1237 1.99998E+01-9.01638E-04 1.88629E-05 2.19088E-05-1.86115E-12-3.15237E-14
 -1      1238 1.99998E+01-3.00148E-04 3.81012E-05 1.37829E-05-1.44172E-12 8.40469E-14
 -1      1239 1.99998E+01 1.04032E-05 2.85765E-05-2.10904E-05-5.35982E-13-8.44930E-14
 -1      1240 1.99998E+01 4.41167E-05-3.04943E-05-1.50430E-05-1.13004E-14 6.55086E-14
 -1      1241-1.22443E+00-2.27467E+01-3.66349E+00-2.12265E+00 1.34459E-12 3.63778E-13
 -1      1242-1.64447E+00-1.36060E+01-2.95438E+00-3.57085E+00 2.49667E-12 9.64784E-13
 -1      1243 6.78123E-01-1.34510E+00-1.71158E+00 4.29905E-01 2.86371E-12 1.71729E-12
 -1      1244 9.65466E+00 8.27736E+00-1.76925E-01 8.78903E+00 2.70672E-12 2.57638E-12
 -1      1245 2.56410E+01 1.14140E+01 1.40739E+00 1.64288E+01 1.86418E-12 2.55862E-12
 -1      1246 4.45349E+01 8.61392E+00 2.82532E+00 1.80112E+01 8.84459E-13 1.84097E-12
 -1      1247 6.07152E+01 3.82559E+00 3.84773E+00 1.12999E+01 2.22128E-13 7.12874E-13
 -1      1248 6.60829E+01 1.94748E+00 4.15465E+00-1.17429E+00 1.10363E-13-8.00221E-13
 -1      1249 5.84187E+01 4.39321E+00 3.67904E+00-1.27188E+01 6.09540E-13-2.22722E-12
 -1      1250 3.99518E+01 9.19936E+00 2.38754E+00-1.76876E+01 1.64058E-12-3.21743E-12
 -1      1251 1.96790E+01 1.08784E+01 7.66299E-01-1.41378E+01 2.68252E-12-3.35976E-12
 -1      1252 5.50496E+00 5.46112E+00-8.58719E-01-5.60470E+00 3.15592E-12-2.59215E-12
 -1      1253-6.69294E-01-5.42599E+00-2.21248E+00 1.44831E+00 2.72027E-12-1.44218E-12
 -1      1254-1.38368E+00-1.62448E+01-3.07241E+00 3.16882E+00 1.56153E-12-5.26051E-13
 -1      1255-9.02177E-01-2.20915E+01-3.52604E+00 4.56228E-01-6.53089E-14-1.36342E-13
 -1      1256-1.40161E+00-1.97681E+01-3.44488E+00-3.17541E+00-1.74283E-12-4.76806E-13
 -1      1257-1.63260E+00-1.01852E+01-2.79232E+00-3.03667E+00-2.88458E-12-1.33621E-12
 -1      1258 2.23287E+00 1.19140E+00-1.65435E+00 2.25303E+00-3.28648E-12-2.40030E-12
 -1      1259 1.39599E+01 9.12251E+00 3.19683E-02 1.09955E+01-2.94653E-12-3.25873E-12
 -1      1260 3.27820E+01 1.02568E+01 1.84767E+00 1.73692E+01-2.06923E-12-3.47211E-12
 -1      1261 5.29200E+01 6.47194E+00 3.40732E+00 1.59855E+01-9.88876E-13-2.67297E-12
 -1      1262 6.68181E+01 2.36864E+00 4.37912E+00 6.54986E+00-2.16084E-13-1.15824E-12
 -1      1263 6.68647E+01 2.41697E+00 4.38548E+00-6.95268E+00-1.84373E-13 6.77791E-13
 -1      1264 5.21534E+01 7.00796E+00 3.42515E+00-1.67300E+01-8.55926E-13 2.13940E-12
 -1      1265 3.03623E+01 1.09208E+01 1.77900E+00-1.72064E+01-1.87039E-12 2.92277E-12
 -1      1266 1.17437E+01 8.85098E+00-7.16746E-02-9.99825E+00-2.58860E-12 2.63300E-12
 -1      1267 1.13281E+00-6.75873E-01-1.74081E+00-8.90626E-01-2.66942E-12 1.81566E-12
 -1      1268-1.73953E+00-1.39823E+01-3.03050E+00 4.03211E+00-2.39009E-12 8.78242E-13
 -1      1269-1.08992E+00-2.33526E+01-3.72613E+00 2.28849E+00-8.54039E-13 2.93210E-13
 -1      1270 2.77076E+01 2.13158E+00-7.66749E-01-2.39774E+00-6.13953E-14 1.27226E-12
 -1      1271 2.41109E+01 5.16198E+00-3.60541E-02-2.16908E+00-1.63314E-13 5.55875E-14
 -1      1272 2.54252E+01 5.44764E+00-4.73425E-02-3.31013E+00-2.17687E-13 3.39923E-13
 -1      1273 2.15447E+01 5.23574E+00-2.10214E-02-1.14933E+00-1.57069E-13-3.57034E-13
 -1      1274 2.27497E+01 5.58749E+00 4.41303E-02-1.70606E+00-1.82326E-13-1.78385E-13
 -1      1275 2.40636E+01 4.11241E+00-1.25933E-02-1.92896E+00-2.83704E-13 6.32550E-14
 -1      1276 1.93041E+01 5.02468E+00-2.55272E-02-4.15702E-01-1.15102E-13-5.79731E-13
 -1      1277 2.04172E+01 5.36133E+00 3.74085E-02-7.53482E-01-1.37751E-13-4.79835E-13
 -1      1278 2.13888E+01 4.41449E+00-2.56717E-02-1.06915E+00-2.33383E-13-2.90643E-13
 -1      1279 1.72534E+01 4.81384E+00-4.07568E-02-2.05149E-02-7.69523E-14-7.03040E-13
 -1      1280 1.82625E+01 5.11732E+00 2.46373E-02-1.78313E-01-8.97338E-14-6.47191E-13
 -1      1281 1.90081E+01 4.50818E+00-3.02763E-02-4.09634E-01-1.65219E-13-4.88370E-13
 -1      1282 1.55793E+01 4.68035E+00-5.34305E-02 2.95797E-02-4.14807E-14-7.73598E-13
 -1      1283 1.63710E+01 4.91854E+00 4.39838E-03 3.54101E-02-5.54001E-14-7.38454E-13
 -1      1284 1.68908E+01 4.60728E+00-2.83251E-02-7.36537E-02-1.04625E-13-5.99489E-13
 -1      1285 1.44832E+01 4.62154E+00-5.37381E-02-2.02545E-01-2.71796E-14-8.07402E-13
 -1      1286 1.49466E+01 4.76069E+00-2.16123E-02-7.63901E-02-3.33622E-14-7.98229E-13
 -1      1287 1.52171E+01 4.71878E+00-2.31369E-02-7.60693E-02-6.04967E-14-6.69209E-13
 -1      1288 1.41940E+01 4.61215E+00-3.73678E-02-5.62531E-01-8.22953E-15-8.08687E-13
 -1      1289 1.42333E+01 4.62520E+00-4.41795E-02-4.01895E-01-1.59144E-14-8.08707E-13
 -1      1290 1.42494E+01 4.76645E+00-1.96090E-02-3.36861E-01-3.72757E-14-6.92108E-13
 -1      1291 1.47088E+01 4.62522E+00-1.08968E-02-8.40438E-01 4.50334E-15-7.88452E-13
 -1      1292 1.43542E+01 4.52134E+00-5.30345E-02-7.42865E-01-1.43982E-15-8.01759E-13
 -1      1293 1.41750E+01 4.68800E+00-1.95355E-02-6.73889E-01-7.87738E-15-6.93545E-13
 -1      1294 1.58140E+01 4.66246E+00 1.49689E-02-8.66619E-01 2.46470E-14-7.40579E-13
 -1      1295 1.51964E+01 4.48011E+00-4.41814E-02-9.00355E-01 1.49186E-14-7.65061E-13
 -1      1296 1.49300E+01 4.50238E+00-2.20224E-02-8.70525E-01 1.29775E-14-6.60061E-13
 -1      1297 1.71951E+01 4.74316E+00 3.15418E-02-5.77143E-01 5.21250E-14-6.78830E-13
 -1      1298 1.64783E+01 4.53048E+00-2.34758E-02-7.59454E-01 4.22717E-14-7.13046E-13
 -1      1299 1.62393E+01 4.30059E+00-2.38457E-02-7.80709E-01 5.03833E-14-6.10375E-13
 -1      1300 1.85623E+01 4.87818E+00 3.72187E-02-2.15819E-02 9.38694E-14-6.01866E-13
 -1      1301 1.78798E+01 4.67230E+00-1.81356E-03-3.21357E-01 8.21287E-14-6.44870E-13
 -1      1302 1.77447E+01 4.17632E+00-2.34933E-02-3.84146E-01 1.06526E-13-5.46372E-13
 -1      1303 1.98314E+01 5.06490E+00 3.44469E-02 7.34936E-01 1.38695E-13-4.85698E-13
 -1      1304 1.92074E+01 4.87279E+00 1.16993E-02 3.43637E-01 1.20723E-13-5.51181E-13
 -1      1305 1.91955E+01 4.16279E+00-2.31538E-02 2.55100E-01 1.74610E-13-4.57055E-13
 -1      1306 2.10036E+01 5.27482E+00 2.62852E-02 1.61531E+00 1.85629E-13-2.92658E-13
 -1      1307 2.04151E+01 5.08730E+00 1.15100E-02 1.16013E+00 1.65520E-13-4.08562E-13
 -1      1308 2.05120E+01 4.22614E+00-2.41164E-02 1.05222E+00 2.43763E-13-3.22228E-13
 -1      1309 2.22843E+01 5.46173E+00 2.03504E-02 2.62299E+00 2.25264E-13 5.30409E-14
 -1      1310 2.16027E+01 5.24095E+00-5.29104E-03 2.07331E+00 1.97245E-13-1.50588E-13
 -1      1311 2.17781E+01 4.26422E+00-2.52094E-02 1.93567E+00 3.07074E-13-1.00218E-13
 -1      1312 2.42224E+01 5.39620E+00 2.32576E-02 3.93306E+00 1.98452E-13 6.88949E-13
 -1      1313 2.31216E+01 5.15713E+00-3.67536E-02 3.09815E+00 1.92374E-13 2.99816E-13
 -1      1314 2.33279E+01 4.03645E+00-1.75049E-02 2.86165E+00 3.41702E-13 2.87090E-13
 -1      1315 3.11489E+01 3.53701E+00 9.98487E-01 4.78276E+00 9.36334E-14 1.89171E-12
 -1      1316 2.54177E+01 3.88683E+00-1.92371E-01 3.84593E+00 9.64506E-14 1.05593E-12
 -1      1317 2.55373E+01 2.69380E+00-2.22552E-02 3.31644E+00 3.24232E-13 8.59535E-13
 -1      1318 2.51702E+01 3.41332E-01-8.27490E-01 1.04106E+00 1.69642E-13 1.83664E-12
 -1      1319 2.80462E+01 5.31535E-02-4.25496E-01-8.29754E-01-1.68185E-13 1.35469E-12
 -1      1320 2.72157E+01 2.46714E-01-1.50627E-01-4.11073E-01-1.63758E-13 1.14134E-12
 -1      1321 2.68257E+01 9.95204E-02-6.41114E-02-1.03089E-01-1.20730E-13 1.07673E-12
 -1      1322 2.66854E+01 1.91075E-02-3.69472E-03-7.04048E-02-1.16372E-13 8.89802E-13
 -1      1323 2.68412E+01 2.39094E-01-1.04047E-01-6.31868E-01-2.75578E-13 6.60749E-13
 -1      1324 2.64892E+01-2.53376E-02 1.68504E-02-5.21511E-02-9.43360E-14 8.37323E-13
 -1      1325 2.63658E+01-6.75134E-02 2.52794E-02-8.91277E-02-9.30655E-14 7.05741E-13
 -1      1326 2.61988E+01-2.18789E-02-1.85597E-02-1.74939E-01-2.02359E-13 5.72625E-13
 -1      1327 2.61848E+01-1.03311E-01 3.49570E-02-2.63680E-01-4.28581E-14 6.52665E-13
 -1      1328 2.57695E+01-1.23042E-01 2.90152E-02-3.35498E-01-3.40093E-14 5.68962E-13
 -1      1329 2.58962E+01-1.69942E-01 2.01277E-02-3.57748E-01-1.41303E-13 4.94922E-13
 -1      1330 2.54275E+01-1.44190E-01 3.79488E-02-6.14629E-01-8.42035E-15 5.52558E-13
 -1      1331 2.45726E+01-1.22794E-01 2.57242E-02-7.02385E-01-5.53706E-14 5.14956E-13
 -1      1332 2.54352E+01-2.45015E-01 3.57526E-02-9.01303E-01-6.44831E-14 4.10083E-13
 -1      1333 2.39994E+01-1.03936E-01 2.69492E-02-9.35952E-01-5.40644E-14 5.02154E-13
 -1      1334 2.27988E+01-2.90548E-02 7.41881E-03-9.86145E-01-6.46544E-14 4.09256E-13
 -1      1335 2.45784E+01-1.94069E-01 3.24939E-02-1.53668E+00-1.01281E-13 3.93225E-13
 -1      1336 2.20961E+01 3.95243E-02-4.96341E-03-9.68169E-01-6.80237E-14 3.54411E-13
 -1      1337 2.09485E+01 1.39889E-01-2.69343E-02-9.18117E-01-8.01945E-14 2.59168E-13
 -1      1338 2.33363E+01 2.48615E-02-8.34503E-05-1.83005E+00-1.18812E-13 3.15879E-13
 -1      1339 2.04051E+01 2.15079E-01-4.38832E-02-5.39474E-01-1.11616E-13 1.84047E-13
 -1      1340 1.98521E+01 2.71064E-01-5.53713E-02-3.85649E-01-1.24956E-13 3.86843E-14
 -1      1341 2.20892E+01 3.20461E-01-5.36980E-02-1.36688E+00-1.80071E-13 1.55362E-13
 -1      1342 1.97726E+01 2.81881E-01-5.82725E-02 1.98917E-01-1.37643E-13-7.06032E-14
 -1      1343 2.01152E+01 2.45757E-01-5.14276E-02 3.67183E-01-1.65833E-13-2.61617E-13
 -1      1344 2.14549E+01 4.81347E-01-8.77658E-02-1.77644E-01-2.39874E-13 5.22585E-15
 -1      1345 2.05396E+01 1.81338E-01-3.72191E-02 8.20332E-01-1.34188E-13-4.00922E-13
 -1      1346 2.15872E+01 8.26872E-02-1.70334E-02 8.99551E-01-5.13443E-14-4.98962E-13
 -1      1347 2.18052E+01 3.79918E-01-6.59913E-02 1.10827E+00-2.69833E-13-1.75745E-13
 -1      1348 2.22466E+01 5.26076E-03-2.66895E-03 9.97266E-01-2.27058E-14-5.81840E-13
 -1      1349 2.34702E+01-8.44743E-02 1.69299E-02 9.65149E-01-3.92446E-14-5.97800E-13
 -1      1350 2.28950E+01 9.50391E-02-1.16462E-02 1.76832E+00-9.19664E-14-3.74464E-13
 -1      1351 2.40313E+01-1.18004E-01 1.81510E-02 7.55125E-01-4.62512E-14-6.01366E-13
 -1      1352 2.49551E+01-1.58309E-01 2.98662E-02 6.65730E-01 3.14002E-14-6.35408E-13
 -1      1353 2.40894E+01-1.64416E-01 3.02152E-02 1.59976E+00-3.66998E-14-4.87083E-13
 -1      1354 2.52410E+01-1.47600E-01 1.98701E-02 3.41172E-01 7.24872E-14-5.88918E-13
 -1      1355 2.56676E+01-1.44443E-01 2.34219E-02 2.53383E-01 2.09780E-14-5.18422E-13
 -1      1356 2.48832E+01-2.68630E-01 4.11472E-02 9.31314E-01 6.85701E-14-5.40793E-13
 -1      1357 2.56707E+01-1.15257E-01 1.16813E-02-2.67754E-02 3.61811E-14-4.98978E-13
 -1      1358 2.56527E+01-9.24960E-02 1.12571E-02-8.49076E-02 1.40461E-14-4.86891E-13
 -1      1359 2.51158E+01-2.36069E-01 3.17007E-02 2.00010E-01 3.36051E-14-4.78174E-13
 -1      1360 2.54525E+01-6.61162E-02 3.53147E-03-2.59419E-01-9.26524E-14-4.27420E-13
 -1      1361 2.51491E+01-4.18887E-02 1.94329E-03-2.86976E-01-8.10706E-14-5.33448E-13
 -1      1362 2.48788E+01-1.47950E-01 1.71036E-02-3.37651E-01-3.52461E-14-5.01895E-13
 -1      1363 2.48390E+01-2.54222E-02-9.59330E-04-3.63380E-01-5.54678E-16-5.26926E-13
 -1      1364 2.44053E+01-7.13752E-03-2.54280E-03-3.69724E-01-1.80346E-15-5.55622E-13
 -1      1365 2.43498E+01-6.51685E-02 5.41682E-03-6.28427E-01-6.40278E-14-4.74783E-13
 -1      1366 2.40592E+01 3.29827E-04-2.20191E-03-3.79646E-01 7.32205E-15-4.91343E-13
 -1      1367 2.36031E+01 1.18137E-02-3.61262E-03-3.74394E-01 1.58250E-14-4.98584E-13
 -1      1368 2.36914E+01-9.57784E-03-1.60047E-03-7.24350E-01 4.44935E-14-5.10904E-13
 -1      1369 2.32683E+01 1.34676E-02-1.76839E-03-3.48197E-01-1.59378E-16-5.10005E-13
 -1      1370 2.28492E+01 1.97140E-02-3.07548E-03-3.38043E-01-3.68269E-14-5.41858E-13
 -1      1371 2.30182E+01 2.00238E-02-4.91366E-03-7.00411E-01-2.02940E-14-4.29156E-13
 -1      1372 2.25507E+01 1.83768E-02-8.64683E-04-2.96867E-01-3.98054E-14-5.91397E-13
 -1      1373 2.21936E+01 2.12404E-02-2.09555E-03-2.85623E-01-6.02244E-14-6.04641E-13
 -1      1374 2.23968E+01 3.18572E-02-5.95895E-03-6.17478E-01-1.02055E-13-3.24671E-13
 -1      1375 2.19411E+01 1.87322E-02-7.40059E-05-2.41730E-01 5.00962E-14-5.92750E-13
 -1      1376 2.16510E+01 1.96399E-02-1.20407E-03-2.31244E-01 3.40841E-14-5.05278E-13
 -1      1377 2.18580E+01 3.36669E-02-5.82984E-03-5.14594E-01 2.31603E-14-3.01600E-13
 -1      1378 2.14449E+01 1.69390E-02 4.36605E-04-1.90704E-01 4.20089E-14-4.19127E-13
 -1      1379 2.12167E+01 1.68177E-02-5.55933E-04-1.81698E-01 1.56285E-13-2.54109E-13
 -1      1380 2.14103E+01 3.07092E-02-5.18904E-03-4.13060E-01 1.06427E-13-3.11855E-13
 -1      1381 2.10531E+01 1.43682E-02 6.91231E-04-1.46915E-01 1.25891E-13-2.27257E-13
 -1      1382 2.08780E+01 1.37656E-02-1.41567E-04-1.39534E-01 3.48653E-14-9.44279E-14
 -1      1383 2.10496E+01 2.60007E-02-4.38778E-03-3.22668E-01 2.21675E-13-2.22576E-13
 -1      1384 2.07508E+01 1.17201E-02 7.68187E-04-1.10973E-01-2.59931E-14-6.97511E-14
 -1      1385 2.06191E+01 1.09394E-02 9.69715E-05-1.05102E-01-3.37480E-14-9.23328E-14
 -1      1386 2.07657E+01 2.10697E-02-3.59399E-03-2.46692E-01 5.55328E-15-1.26165E-13
 -1      1387 2.05221E+01 9.31006E-03 7.40940E-04-8.23245E-02-3.38756E-14-1.06944E-13
 -1      1388 2.04249E+01 8.50915E-03 2.17952E-04-7.77529E-02-8.95027E-14-1.94080E-13
 -1      1389 2.05467E+01 1.65904E-02-2.87895E-03-1.85103E-01-8.89935E-14-6.22190E-14
 -1      1390 2.03522E+01 7.24996E-03 6.61975E-04-5.99711E-02-1.65543E-13-2.30810E-13
 -1      1391 2.02818E+01 6.50512E-03 2.66036E-04-5.64712E-02-8.76739E-14-3.74366E-13
 -1      1392 2.03808E+01 1.27930E-02-2.26619E-03-1.36417E-01-1.94180E-13-1.01589E-13
 -1      1393 2.02283E+01 5.55283E-03 5.63866E-04-4.28286E-02 8.70981E-14-4.31244E-13
 -1      1394 2.01783E+01 4.89597E-03 2.71701E-04-4.01895E-02 5.25450E-14-3.68428E-13
 -1      1395 2.02573E+01 9.69795E-03-1.75688E-03-9.86677E-02-4.60073E-14-1.27592E-13
 -1      1396 2.01397E+01 4.18827E-03 4.64817E-04-2.98854E-02 1.96907E-15-4.41038E-13
 -1      1397 2.01051E+01 3.62809E-03 2.54462E-04-2.79252E-02-1.25476E-14-4.47356E-13
 -1      1398 2.01669E+01 7.23765E-03-1.34245E-03-6.98765E-02-1.09574E-14-2.65348E-13
 -1      1399 2.00777E+01 3.11058E-03 3.73912E-04-2.02624E-02 3.32082E-14-4.51848E-13
 -1      1400 2.00545E+01 2.64410E-03 2.26297E-04-1.88297E-02-1.75643E-14-4.06405E-13
 -1      1401 2.01022E+01 5.31660E-03-1.01079E-03-4.82555E-02-3.92964E-15-3.23526E-13
 -1      1402 2.00357E+01 2.27194E-03 2.94893E-04-1.32249E-02-6.64695E-15-2.96627E-13
 -1      1403 2.00207E+01 1.89074E-03 1.94298E-04-1.21967E-02 2.07270E-14-2.78804E-13
 -1      1404 2.00569E+01 3.83816E-03-7.49160E-04-3.22746E-02-3.19850E-15-3.26488E-13
 -1      1405 2.00082E+01 1.62815E-03 2.28585E-04-8.17305E-03-7.01341E-14-2.17389E-13
 -1      1406 1.99992E+01 1.32167E-03 1.62496E-04-7.45114E-03-5.94382E-14-3.54483E-13
 -1      1407 2.00261E+01 2.71537E-03-5.45566E-04-2.06656E-02 2.75849E-14-4.14853E-13
 -1      1408 1.99912E+01 1.14063E-03 1.74327E-04-4.62600E-03-1.14430E-14-2.77245E-13
 -1      1409 1.99863E+01 8.97915E-04 1.33039E-04-4.13275E-03-1.11681E-14-2.83650E-13
 -1      1410 2.00060E+01 1.87405E-03-3.89281E-04-1.23991E-02-7.20330E-14-1.83603E-13
 -1      1411 1.99816E+01 7.76772E-04 1.30800E-04-2.20303E-03 1.11439E-14-3.92236E-13
 -1      1412 1.99794E+01 5.87384E-04 1.06934E-04-1.87788E-03-3.68353E-14-4.80615E-13
 -1      1413 1.99935E+01 1.25279E-03-2.71020E-04-6.65277E-03-6.30886E-14-2.34098E-13
 -1      1414 1.99769E+01 5.09587E-04 9.64638E-05-6.06560E-04-5.38829E-14-4.29432E-13
 -1      1415 1.99766E+01 3.64018E-04 8.45148E-05-4.02781E-04-5.98155E-14-5.09144E-13
 -1      1416 1.99864E+01 8.01645E-04-1.82919E-04-2.77831E-03-2.56429E-14-4.18782E-13
 -1      1417 1.99756E+01 3.17040E-04 6.97921E-05 3.93230E-04 4.40262E-14-3.83641E-13
 -1      1418 1.99764E+01 2.06913E-04 6.57236E-05 5.11261E-04 1.03331E-13-2.71441E-13
 -1      1419 1.99830E+01 4.80465E-04-1.18430E-04-2.70936E-04 1.03448E-14-2.78987E-13
 -1      1420 1.99764E+01 1.81374E-04 4.93826E-05 9.71592E-04-5.47391E-14-3.27558E-13
 -1      1421 1.99778E+01 9.94800E-05 5.02889E-05 1.03065E-03-2.63112E-14-3.48062E-13
 -1      1422 1.99820E+01 2.57333E-04-7.21758E-05 1.25751E-03 4.53072E-14-1.91464E-13
 -1      1423 1.99784E+01 8.84403E-05 3.40016E-05 1.26030E-03 3.87787E-14-3.53579E-13
 -1      1424 1.99800E+01 2.86932E-05 3.78349E-05 1.28021E-03-1.92264E-14-3.15134E-13
 -1      1425 1.99826E+01 1.07120E-04-3.98044E-05 2.10149E-03-4.63044E-14-4.22714E-13
 -1      1426 1.99810E+01 2.70927E-05 2.25952E-05 1.35689E-03-8.73510E-15-3.92843E-13
 -1      1427 1.99827E+01-1.55558E-05 2.79484E-05 1.35207E-03-5.06131E-15-4.00923E-13
 -1      1428 1.99841E+01 1.02496E-05-1.78361E-05 2.48114E-03-2.28015E-14-4.44563E-13
 -1      1429 1.99838E+01-1.13445E-05 1.42815E-05 1.33224E-03-1.80777E-14-3.00708E-13
 -1      1430 1.99854E+01-4.10205E-05 2.02182E-05 1.31295E-03 7.65834E-14-3.08394E-13
 -1      1431 1.99860E+01-4.83669E-05-3.52601E-06 2.55827E-03-5.11213E-14-3.39691E-13
 -1      1432 1.99865E+01-3.35463E-05 8.33528E-06 1.23671E-03 9.77504E-14-2.95969E-13
 -1      1433 1.99880E+01-5.35771E-05 1.42584E-05 1.21005E-03 1.18720E-14-2.40988E-13
 -1      1434 1.99881E+01-8.02215E-05 5.26376E-06 2.44943E-03 7.36867E-14-2.07330E-13
 -1      1435 1.99891E+01-4.45903E-05 4.16888E-06 1.10508E-03-6.49655E-14-1.47847E-13
 -1      1436 1.99904E+01-5.76298E-05 9.72047E-06 1.07577E-03-1.23992E-13-3.12191E-13
 -1      1437 1.99901E+01-9.39677E-05 1.01770E-05 2.23653E-03 4.69731E-14-1.92054E-13
 -1      1438 1.99914E+01-4.83055E-05 1.31408E-06 9.60367E-04-1.22187E-13-2.54945E-13
 -1      1439 1.99925E+01-5.64559E-05 6.30039E-06 9.31366E-04-8.90616E-14-3.27540E-13
 -1      1440 1.99920E+01-9.60589E-05 1.24632E-05 1.97519E-03-1.87927E-13-2.58464E-13
 -1      1441 1.99933E+01-4.75740E-05-5.91110E-07 8.16799E-04 2.78074E-15-1.87303E-13
 -1      1442 1.99943E+01-5.24996E-05 3.74872E-06 7.89755E-04 5.26721E-14-3.10462E-13
 -1      1443 1.99937E+01-9.12938E-05 1.30646E-05 1.70129E-03-2.12819E-14-7.64092E-14
 -1      1444 1.99950E+01-4.45965E-05-1.80177E-06 6.81991E-04-3.06415E-14-7.33733E-14
 -1      1445 1.99959E+01-4.76242E-05 1.89744E-06 6.57548E-04 6.41536E-14-5.16782E-14
 -1      1446 1.99952E+01-8.32897E-05 1.26952E-05 1.43583E-03 1.45172E-13 8.81624E-14
 -1      1447 1.99964E+01-4.11215E-05-2.43641E-06 5.58442E-04 1.97854E-13 8.05854E-14
 -1      1448 1.99971E+01-4.33190E-05 7.18020E-07 5.36429E-04 1.93795E-13 2.71415E-13
 -1      1449 1.99965E+01-7.48958E-05 1.19182E-05 1.18849E-03 2.26386E-13 4.86119E-13
 -1      1450 1.99976E+01-3.86413E-05-2.40608E-06 4.44497E-04 2.05450E-13 1.74929E-13
 -1      1451 1.99981E+01-4.08608E-05 3.78186E-07 4.24001E-04 1.41105E-13 4.11551E-13
 -1      1452 1.99975E+01-6.85633E-05 1.12159E-05 9.60018E-04 2.45545E-13 4.31398E-13
 -1      1453 1.99985E+01-3.84926E-05-1.36196E-06 3.34930E-04-4.81947E-14 5.14241E-13
 -1      1454 1.99989E+01-4.11781E-05 1.10972E-06 3.14258E-04-1.68515E-13 3.73487E-13
 -1      1455 1.99983E+01-6.66724E-05 1.09884E-05 7.43868E-04 1.09985E-13 3.70248E-13
 -1      1456 1.99992E+01-4.13098E-05 9.12227E-07 2.22436E-04-1.18894E-13 4.16301E-13
 -1      1457 1.99994E+01-4.37633E-05 1.87654E-06 1.99157E-04-8.40218E-15 3.36793E-13
 -1      1458 1.99990E+01-7.10755E-05 1.11012E-05 5.28021E-04-2.14366E-13 2.05333E-13
 -1      1459 1.99996E+01-4.97820E-05 1.53739E-06 1.00692E-04 2.56599E-14 2.66877E-13
 -1      1460 1.99997E+01-4.15001E-05-2.92879E-06 7.43611E-05-8.67506E-14 2.49239E-13
 -1      1461 1.99994E+01-8.11253E-05 1.03926E-05 3.03487E-04-3.38653E-14 3.61874E-13
 -1      1462 1.99998E+01-4.46634E-06-8.86949E-06-1.54499E-05-2.12863E-13 2.44757E-13
 -1      1463 1.99997E+01-5.32584E-05 2.27773E-06 6.48647E-05-2.19914E-13 2.07903E-13
 -1      1464 2.42053E+01 4.74575E-02-1.44565E-01 4.37532E-01 1.53100E-13 1.49761E-12
 -1      1465 2.53840E+01 1.99563E-01-2.43347E-01 6.54735E-01 1.32172E-13 1.73672E-12
 -1      1466 2.53740E+01 8.66007E-01-9.65648E-02 1.97163E+00 2.63595E-13 1.16028E-12
 -1      1467 2.31798E+01-9.84879E-04-4.12327E-03 2.66558E-01 1.36008E-13 1.17497E-12
 -1      1468 2.36451E+01 6.90602E-02-5.86679E-02 2.82405E-01 1.16511E-13 1.36783E-12
 -1      1469 2.39462E+01 1.17234E-01-4.80286E-02 8.16155E-01 2.41578E-13 9.46172E-13
 -1      1470 2.23764E+01-1.93474E-02 2.26661E-02 2.84729E-01 5.78036E-14 9.70332E-13
 -1      1471 2.27627E+01-6.36940E-03 8.43540E-03 2.67228E-01 7.38749E-14 1.08755E-12
 -1      1472 2.30109E+01-8.64950E-03 4.24241E-03 5.72327E-01 1.78302E-13 7.61656E-13
 -1      1473 2.14903E+01-1.99146E-02 1.92905E-02 3.67362E-01 6.71645E-14 8.66519E-13
 -1      1474 2.19641E+01-3.19266E-02 1.70502E-02 3.36582E-01 4.14261E-14 9.25826E-13
 -1      1475 2.22266E+01-4.60924E-02 1.62369E-02 6.29745E-01 8.85763E-14 6.42606E-13
 -1      1476 2.04585E+01-4.63852E-03 7.03226E-03 4.31716E-01 3.98779E-14 7.37754E-13
 -1      1477 2.10380E+01-2.54729E-02 1.09472E-02 4.06168E-01 3.17006E-14 7.99784E-13
 -1      1478 2.14030E+01-3.83902E-02 1.37949E-02 7.53957E-01 8.55553E-14 5.55495E-13
 -1      1479 1.94053E+01 2.16046E-02-9.47955E-03 4.11473E-01 2.55642E-14 6.80667E-13
 -1      1480 2.00053E+01 5.94846E-03 1.96973E-03 4.09213E-01 2.95866E-14 7.05710E-13
 -1      1481 2.05299E+01 5.65625E-03 4.57210E-03 7.97739E-01 5.61396E-14 5.07028E-13
 -1      1482 1.85793E+01 4.72703E-02-2.50109E-02 2.71698E-01 6.34059E-14 5.56978E-13
 -1      1483 1.90468E+01 4.95635E-02-7.08862E-03 3.03202E-01 3.65853E-14 6.12097E-13
 -1      1484 1.97345E+01 7.10161E-02-8.06193E-03 6.59247E-01 7.92717E-14 3.86836E-13
 -1      1485 1.82385E+01 5.81146E-02-3.16709E-02 3.59049E-02 8.01356E-14 3.71392E-13
 -1      1486 1.84210E+01 8.37636E-02-1.30422E-02 9.55404E-02 7.30908E-14 4.76019E-13
 -1      1487 1.92149E+01 1.27565E-01-1.84542E-02 3.18767E-01 1.24742E-13 2.51846E-13
 -1      1488 1.85055E+01 4.76540E-02-2.51473E-02-2.17310E-01 7.68838E-14 1.55702E-13
 -1      1489 1.83330E+01 9.00547E-02-1.27701E-02-1.49999E-01 9.14303E-14 2.99986E-13
 -1      1490 1.91310E+01 1.42634E-01-2.17584E-02-1.34937E-01 1.46844E-13 1.18308E-13
 -1      1491 1.92917E+01 2.15427E-02-8.75689E-03-3.96947E-01 3.59634E-14 3.25642E-14
 -1      1492 1.88190E+01 6.53587E-02-6.24825E-03-3.45935E-01 4.95957E-14 1.20966E-13
 -1      1493 1.95070E+01 1.05299E-01-1.73126E-02-5.45595E-01 1.17899E-13 1.20338E-14
 -1      1494 2.03396E+01-6.45024E-03 8.48614E-03-4.51583E-01-1.84874E-14-3.46528E-14
 -1      1495 1.97184E+01 2.39084E-02 2.77470E-03-4.30565E-01 1.32718E-14 1.41553E-15
 -1      1496 2.02097E+01 3.45224E-02-9.04474E-03-7.76560E-01 7.09858E-14 5.47652E-15
 -1      1497 2.13543E+01-2.51026E-02 1.92367E-02-3.90781E-01 1.81322E-14-3.27863E-14
 -1      1498 2.07565E+01-1.44345E-02 9.59547E-03-3.98147E-01 1.18161E-14-4.80033E-14
 -1      1499 2.10171E+01-3.42231E-02-1.32150E-03-7.83665E-01 1.95902E-14-1.08323E-13
 -1      1500 2.21229E+01-3.12285E-02 2.14751E-02-2.63439E-01 3.88379E-14-1.15703E-13
 -1      1501 2.16714E+01-3.72661E-02 1.19037E-02-2.87965E-01 2.80193E-14-7.81701E-14
 -1      1502 2.17219E+01-7.55669E-02 3.54112E-03-6.17305E-01 4.12231E-14-1.67460E-13
 -1      1503 2.25593E+01-2.79279E-02 1.76379E-02-1.22926E-01 2.72486E-14-2.35659E-13
 -1      1504 2.23023E+01-4.31680E-02 1.02412E-02-1.52222E-01 5.11900E-14-1.29959E-13
 -1      1505 2.21992E+01-8.47654E-02 5.39149E-03-3.71185E-01 8.99177E-14-2.13049E-13
 -1      1506 2.26822E+01-2.02004E-02 1.14265E-02-4.92200E-03-6.20142E-14-1.86278E-13
 -1      1507 2.26069E+01-3.75004E-02 6.65188E-03-3.05933E-02-8.59035E-15-2.17218E-13
 -1      1508 2.24167E+01-7.16763E-02 5.19647E-03-1.28956E-01 1.48501E-14-1.65059E-13
 -1      1509 2.25667E+01-1.19472E-02 5.58101E-03 7.63236E-02 2.19907E-14-1.88087E-13
 -1      1510 2.26281E+01-2.68278E-02 3.02370E-03 5.78548E-02-4.78784E-16-1.92924E-13
 -1      1511 2.24081E+01-4.93914E-02 4.05016E-03 6.09413E-02 4.49640E-15-9.44904E-14
 -1      1512 2.23013E+01-5.19348E-03 1.33145E-03 1.21575E-01-3.39752E-14-1.63592E-13
 -1      1513 2.24471E+01-1.58695E-02 3.66655E-04 1.10511E-01-1.17640E-14-1.43826E-13
 -1      1514 2.22369E+01-2.73821E-02 2.72064E-03 1.83905E-01-9.51583E-15-1.17341E-13
 -1      1515 2.19631E+01-5.17608E-04-1.20269E-03 1.38652E-01-5.36721E-14-8.44828E-14
 -1      1516 2.21488E+01-6.97446E-03-1.12270E-03 1.33567E-01-4.67971E-14-1.51951E-13
 -1      1517 2.19698E+01-1.01754E-02 1.58088E-03 2.46488E-01-4.73673E-14-1.10050E-13
 -1      1518 2.16085E+01 2.27779E-03-2.39986E-03 1.36839E-01 1.07047E-14-6.86040E-14
 -1      1519 2.18022E+01-7.72248E-04-1.69032E-03 1.35904E-01 2.45732E-14-5.27356E-14
 -1      1520 2.16623E+01 1.27269E-03 7.37003E-04 2.63931E-01-1.19499E-14-1.72981E-13
 -1      1521 2.12737E+01 3.66008E-03-2.73182E-03 1.24118E-01-2.63302E-14-9.91065E-14
 -1      1522 2.14552E+01 3.00461E-03-1.68913E-03 1.25710E-01-1.17799E-15-7.02641E-14
 -1      1523 2.13538E+01 7.78549E-03 1.70144E-04 2.52203E-01 3.50693E-14-1.36319E-14
 -1      1524 2.09777E+01 4.10218E-03-2.58422E-03 1.06328E-01-4.21837E-14-1.04242E-13
 -1      1525 2.11369E+01 4.93854E-03-1.41329E-03 1.09228E-01-3.74694E-14-1.72953E-13
 -1      1526 2.10688E+01 1.07216E-02-1.79582E-04 2.24389E-01-6.28740E-14-1.11615E-13
 -1      1527 2.07285E+01 3.98204E-03-2.21774E-03 8.72770E-02 6.72596E-14-1.66511E-13
 -1      1528 2.08614E+01 5.62121E-03-1.05353E-03 9.06656E-02-3.29543E-15-1.46521E-13
 -1      1529 2.08199E+01 1.13565E-02-3.73795E-04 1.89804E-01 1.92674E-14-2.03971E-13
 -1      1530 2.05264E+01 3.56665E-03-1.78724E-03 6.91988E-02 2.87374E-14-3.44386E-13
 -1      1531 2.06332E+01 5.53380E-03-7.11711E-04 7.25726E-02 8.54063E-14-2.30637E-13
 -1      1532 2.06116E+01 1.06707E-02-4.62787E-04 1.54402E-01 1.20663E-13-1.97621E-13
 -1      1533 2.03675E+01 3.02911E-03-1.37439E-03 5.32260E-02-9.66186E-14-2.29609E-13
 -1      1534 2.04507E+01 5.02431E-03-4.30547E-04 5.63086E-02-1.49656E-13-4.04905E-13
 -1      1535 2.04430E+01 9.33735E-03-4.83869E-04 1.21583E-01-7.21659E-14-2.58278E-13
 -1      1536 2.02462E+01 2.47333E-03-1.01585E-03 3.97867E-02-9.98350E-15-9.55455E-14
 -1      1537 2.03091E+01 4.32482E-03-2.19524E-04 4.24516E-02 1.83729E-15-2.02182E-13
 -1      1538 2.03107E+01 7.78002E-03-4.63530E-04 9.29902E-02-6.86803E-14-2.84945E-13
 -1      1539 2.01562E+01 1.95623E-03-7.22922E-04 2.88912E-02 6.36153E-14-1.53032E-13
 -1      1540 2.02023E+01 3.57944E-03-7.23530E-05 3.11043E-02 5.80976E-14 7.05545E-16
 -1      1541 2.02095E+01 6.24425E-03-4.20091E-04 6.91583E-02 1.92924E-14-1.62451E-13
 -1      1542 2.00911E+01 1.50467E-03-4.93837E-04 2.03246E-02 5.26548E-15-2.54189E-13
 -1      1543 2.01240E+01 2.87078E-03 2.30205E-05 2.21051E-02 4.19377E-14-1.62696E-13
 -1      1544 2.01342E+01 4.85738E-03-3.65900E-04 4.99688E-02 8.41705E-14-7.23634E-14
 -1      1545 2.00457E+01 1.12728E-03-3.20939E-04 1.37711E-02-1.36981E-13-1.98722E-13
 -1      1546 2.00683E+01 2.24073E-03 7.93425E-05 1.51651E-02-9.44940E-14-2.76818E-13
 -1      1547 2.00796E+01 3.67305E-03-3.08985E-04 3.49624E-02-6.52173E-14-5.95221E-14
 -1      1548 2.00151E+01 8.22343E-04-1.94611E-04 8.88757E-03-1.11609E-13 1.28244E-13
 -1      1549 2.00300E+01 1.70564E-03 1.07854E-04 9.95207E-03-1.55287E-13-6.96410E-14
 -1      1550 2.00413E+01 2.70162E-03-2.54296E-04 2.35354E-02-2.39505E-13-3.95932E-14
 -1      1551 1.99956E+01 5.82790E-04-1.05304E-04 5.34533E-03-1.07845E-14 2.32979E-13
 -1      1552 2.00048E+01 1.26666E-03 1.17597E-04 6.13873E-03-3.37973E-16 2.11767E-13
 -1      1553 2.00154E+01 1.92992E-03-2.04626E-04 1.50568E-02-1.11635E-13 1.81384E-14
 -1      1554 1.99841E+01 3.99319E-04-4.44670E-05 2.85133E-03-1.07525E-13 3.18996E-13
 -1      1555 1.99892E+01 9.16613E-04 1.15422E-04 3.42790E-03-5.49900E-14 2.33612E-13
 -1      1556 1.99987E+01 1.33360E-03-1.61295E-04 8.93368E-03-2.21356E-14 2.07458E-13
 -1      1557 1.99781E+01 2.62201E-04-4.90073E-06 1.15620E-03-2.67458E-14 4.85371E-13
 -1      1558 1.99805E+01 6.44403E-04 1.06293E-04 1.56367E-03-7.87316E-14 3.22997E-13
 -1      1559 1.99886E+01 8.84518E-04-1.24662E-04 4.64337E-03-1.05184E-13 3.24196E-13
 -1      1560 1.99759E+01 1.62280E-04 1.92153E-05 5.51522E-05 1.12049E-14 5.87844E-13
 -1      1561 1.99764E+01 4.37657E-04 9.36579E-05 3.33776E-04-5.95201E-15 5.16832E-13
 -1      1562 1.99833E+01 5.54924E-04-9.44894E-05 1.74432E-03-6.40640E-14 4.02959E-13
 -1      1563 1.99761E+01 9.14580E-05 3.24379E-05-6.15324E-04-1.27001E-16 5.33083E-13
 -1      1564 1.99755E+01 2.84295E-04 7.98077E-05-4.32613E-04 7.58395E-14 6.26541E-13
 -1      1565 1.99811E+01 3.19617E-04-7.01998E-05-1.24102E-04 2.93352E-14 3.62979E-13
 -1      1566 1.99777E+01 4.28770E-05 3.82392E-05-9.82535E-04 3.20321E-13-6.31404E-15
 -1      1567 1.99765E+01 1.73353E-04 6.61832E-05-8.69486E-04 1.54282E-13 3.47332E-13
 -1      1568 1.99810E+01 1.56882E-04-5.10557E-05-1.24856E-03 2.83059E-13 2.53633E-13
 -1      1569 1.99802E+01 1.09083E-05 3.91990E-05-1.14333E-03 5.54923E-14-5.09587E-13
 -1      1570 1.99786E+01 9.53439E-05 5.36204E-05-1.07950E-03 1.51238E-13-2.41326E-13
 -1      1571 1.99821E+01 4.86923E-05-3.62739E-05-1.85142E-03 3.33463E-13-5.36712E-14
 -1      1572 1.99830E+01-8.94792E-06 3.71859E-05-1.16972E-03-7.04297E-14-1.70638E-13
 -1      1573 1.99813E+01 4.23391E-05 4.25396E-05-1.13953E-03-9.83460E-14-3.79644E-13
 -1      1574 1.99840E+01-1.94805E-05-2.50964E-05-2.10128E-03-9.50502E-14-1.01509E-13
 -1      1575 1.99857E+01-2.02107E-05 3.35171E-05-1.11390E-03 1.49720E-14-2.95642E-13
 -1      1576 1.99841E+01 7.89217E-06 3.30858E-05-1.10575E-03 5.07972E-14-1.75266E-13
 -1      1577 1.99862E+01-5.90614E-05-1.68304E-05-2.12299E-03 3.03842E-14-1.99328E-13
 -1      1578 1.99884E+01-2.55811E-05 2.90930E-05-1.01268E-03-7.46843E-14-2.55736E-13
 -1      1579 1.99869E+01-1.31244E-05 2.52317E-05-1.01812E-03-3.68259E-15-2.95024E-13
 -1      1580 1.99884E+01-7.88435E-05-1.08663E-05-2.00674E-03 5.66461E-14-1.25814E-13
 -1      1581 1.99907E+01-2.71019E-05 2.45082E-05-8.91046E-04-1.55886E-13 2.18177E-14
 -1      1582 1.99894E+01-2.47188E-05 1.88483E-05-9.04124E-04-9.45365E-14-1.72355E-13
 -1      1583 1.99905E+01-8.54680E-05-6.68077E-06-1.81569E-03-1.34307E-13-2.57945E-14
 -1      1584 1.99928E+01-2.63069E-05 2.01420E-05-7.65096E-04-1.39681E-14-6.41173E-14
 -1      1585 1.99917E+01-2.99905E-05 1.37561E-05-7.81779E-04-8.58534E-14-9.26613E-14
 -1      1586 1.99924E+01-8.38744E-05-3.82886E-06-1.59239E-03-5.85370E-14-1.74193E-13
 -1      1587 1.99946E+01-2.43589E-05 1.62387E-05-6.44212E-04 6.57113E-14-1.93250E-13
 -1      1588 1.99936E+01-3.13404E-05 9.76062E-06-6.61975E-04 3.52391E-14-9.42017E-14
 -1      1589 1.99941E+01-7.77113E-05-1.92684E-06-1.36376E-03 3.44627E-14-2.90392E-13
 -1      1590 1.99961E+01-2.21885E-05 1.29963E-05-5.32642E-04 4.21253E-14-3.99643E-13
 -1      1591 1.99953E+01-3.06880E-05 6.68585E-06-5.50188E-04 1.33658E-13-2.50409E-13
 -1      1592 1.99956E+01-6.97115E-05-6.19898E-07-1.14485E-03 1.65791E-13-3.53939E-13
 -1      1593 1.99973E+01-2.05165E-05 1.06871E-05-4.30538E-04-3.68627E-14-3.57642E-13
 -1      1594 1.99967E+01-2.96157E-05 4.44284E-06-4.47621E-04-5.59213E-14-5.43015E-13
 -1      1595 1.99968E+01-6.20250E-05 4.65458E-07-9.41509E-04 3.11568E-14-3.96111E-13
 -1      1596 1.99983E+01-2.00058E-05 9.78717E-06-3.34823E-04 2.63992E-13-6.97006E-13
 -1      1597 1.99978E+01-2.95183E-05 3.11759E-06-3.52139E-04 1.39214E-13-4.69200E-13
 -1      1598 1.99978E+01-5.63655E-05 1.81221E-06-7.52353E-04 9.43608E-14-5.91282E-13
 -1      1599 1.99991E+01-2.13534E-05 1.04340E-05-2.39187E-04-3.27244E-14-8.61042E-13
 -1      1600 1.99987E+01-3.18481E-05 2.95664E-06-2.58668E-04 8.53460E-14-7.27465E-13
 -1      1601 1.99986E+01-5.45687E-05 3.93842E-06-5.70061E-04 2.00317E-13-5.13036E-13
 -1      1602 1.99995E+01-2.45476E-05 1.00088E-05-1.35158E-04 9.28564E-14-8.46866E-13
 -1      1603 1.99993E+01-3.73856E-05 3.43543E-06-1.60421E-04-2.55608E-14-7.66476E-13
 -1      1604 1.99992E+01-5.87032E-05 6.33695E-06-3.83054E-04-2.42061E-14-3.14349E-13
 -1      1605 1.99998E+01-2.54195E-05-3.42796E-06-2.97116E-05-1.57272E-14-1.07481E-12
 -1      1606 1.99997E+01-3.92448E-05 1.30595E-06-5.69751E-05 5.03722E-14-9.72462E-13
 -1      1607 1.99996E+01-6.18943E-05 6.63805E-06-1.83347E-04 1.91681E-13-4.35558E-13
 -1      1608 1.99998E+01-5.49484E-06-9.56987E-06 1.02674E-05-6.40876E-13-7.02892E-13
 -1      1609 1.99998E+01-1.96522E-04 5.76912E-06-1.07200E-04-2.99654E-13 6.75775E-13
 -1      1610 1.99998E+01-9.87142E-05-3.11073E-06-7.97156E-05-9.10205E-13 3.86771E-13
 -1      1611 1.99998E+01-5.98280E-04 4.16448E-06-2.10994E-04 6.85539E-14-2.35225E-14
 -1      1612 1.99998E+01-3.68027E-04 3.91964E-06-1.92376E-04-1.99237E-13 2.35797E-13
 -1      1613 1.99997E+01-3.73350E-04 7.44171E-06-2.96363E-04 9.70953E-14 6.71440E-13
 -1      1614 1.99998E+01-1.14244E-03 1.61400E-06-2.73083E-04-2.23487E-13-4.84642E-14
 -1      1615 1.99998E+01-8.29022E-04 2.89024E-06-2.64522E-04-7.19194E-15 2.76582E-14
 -1      1616 1.99998E+01-7.74388E-04 6.64830E-06-4.62615E-04-2.58350E-14-1.49728E-15
 -1      1617 1.99998E+01-1.73946E-03-5.53258E-08-2.85868E-04-1.37528E-13 5.34504E-14
 -1      1618 1.99998E+01-1.40232E-03 1.17092E-06-2.87333E-04-2.47798E-13 2.05392E-13
 -1      1619 1.99998E+01-1.26460E-03 1.49317E-06-5.42831E-04-7.66173E-14-1.18848E-13
 -1      1620 1.99998E+01-2.28734E-03-7.10903E-07-2.54438E-04-2.42652E-13-7.66215E-14
 -1      1621 1.99998E+01-1.98613E-03 2.10085E-07-2.63876E-04-2.60470E-13-1.26632E-13
 -1      1622 1.99998E+01-1.76957E-03-3.48457E-06-5.31754E-04-2.15505E-13-1.00313E-13
 -1      1623 1.99998E+01-2.72582E-03-8.95132E-07-1.86460E-04-6.48396E-13-1.40959E-13
 -1      1624 1.99998E+01-2.49545E-03-3.27895E-07-2.02315E-04-3.48739E-13-1.47016E-13
 -1      1625 1.99998E+01-2.22181E-03-7.47496E-06-4.41750E-04-2.45190E-13-4.05162E-13
 -1      1626 1.99998E+01-2.98469E-03-8.25679E-07-9.35871E-05-3.69143E-13 2.25530E-13
 -1      1627 1.99998E+01-2.86199E-03-5.40402E-07-1.13245E-04-7.26738E-13 2.90952E-13
 -1      1628 1.99999E+01-2.56332E-03-1.02903E-05-2.89883E-04-2.72100E-13-7.96171E-14
 -1      1629 1.99998E+01-3.03058E-03-6.90118E-07 1.13118E-05 6.12457E-14 3.16555E-13
 -1      1630 1.99998E+01-3.03160E-03-6.94249E-07-9.62136E-06-3.80687E-13 4.56379E-13
 -1      1631 1.99999E+01-2.74494E-03-1.17183E-05-9.98400E-05-1.54248E-13 3.02228E-13
 -1      1632 1.99998E+01-2.85758E-03-5.16527E-07 1.14811E-04 5.61385E-14 1.51136E-13
 -1      1633 1.99998E+01-2.98223E-03-8.30764E-07 9.52003E-05-1.04755E-13 2.40131E-13
 -1      1634 1.99999E+01-2.74351E-03-1.17074E-05 1.03028E-04-8.64138E-14 2.22349E-13
 -1      1635 1.99998E+01-2.48819E-03-2.51957E-07 2.03535E-04-5.40252E-13-6.24745E-13
 -1      1636 1.99998E+01-2.72016E-03-9.43042E-07 1.87819E-04 7.39524E-14-2.61528E-13
 -1      1637 1.99999E+01-2.55922E-03-1.02364E-05 2.92722E-04-4.18225E-13-1.32574E-13
 -1      1638 1.99998E+01-1.98154E-03 1.58225E-07 2.64109E-04-8.89838E-13 9.29012E-14
 -1      1639 1.99998E+01-2.28347E-03-7.51594E-07 2.54791E-04-4.84613E-13-4.80231E-13
 -1      1640 1.99998E+01-2.21909E-03-7.50075E-06 4.43016E-04-2.23139E-13-7.86392E-13
 -1      1641 1.99998E+01-1.39241E-03 1.14486E-06 2.87468E-04-1.07907E-12-9.95288E-14
 -1      1642 1.99998E+01-1.72989E-03-5.93788E-08 2.86161E-04-9.82255E-13 1.88431E-13
 -1      1643 1.99998E+01-1.76580E-03-3.41877E-06 5.32369E-04-2.25456E-13 3.04636E-14
 -1      1644 1.99998E+01-8.19644E-04 3.10965E-06 2.64255E-04-1.00935E-12 1.29243E-13
 -1      1645 1.99998E+01-1.13274E-03 1.57315E-06 2.72495E-04-1.10577E-12 3.92024E-14
 -1      1646 1.99998E+01-1.25613E-03 1.60057E-06 5.42453E-04-3.48326E-13-2.98774E-14
 -1      1647 1.99998E+01-3.67761E-04 1.19829E-06 1.92050E-04-8.51663E-13 2.65422E-13
 -1      1648 1.99998E+01-5.92115E-04 4.23150E-06 2.11210E-04-1.01770E-12 1.74169E-13
 -1      1649 1.99998E+01-7.68188E-04 6.50840E-06 4.60421E-04-4.26479E-13 1.04541E-13
 -1      1650 1.99997E+01-1.46351E-04-5.38618E-06 1.26455E-04-3.50566E-13 2.43395E-13
 -1      1651 1.99997E+01-2.48448E-04 3.66669E-06 1.65891E-04-6.35953E-13 3.52872E-13
 -1      1652 1.99997E+01-4.24979E-04 4.95417E-06 3.57404E-04-3.23657E-13 5.10486E-13
 -1      1653 1.99996E+01-2.06670E-04-2.67398E-06 2.56853E-04-2.03501E-13 3.88553E-13
 -1      1654-3.18634E-01-1.29016E+01-1.48061E+00-4.59339E-01 1.06659E-12 6.56614E-13
 -1      1655-4.37042E-01-1.52934E+01-1.71031E+00 5.90368E-01 2.77722E-13 5.04957E-13
 -1      1656 1.75511E+00-6.93999E+00-1.11595E+00 9.71891E-01 1.69931E-12 8.98476E-13
 -1      1657 9.22189E-01-1.19273E+01-1.60499E+00 2.84120E-01 1.31051E-12 6.39339E-13
 -1      1658 6.98067E+00 1.97635E-01-5.30084E-01 4.81883E+00 1.89204E-12 1.46827E-12
 -1      1659 4.02562E+00-4.96830E+00-1.24636E+00 2.04400E+00 1.83564E-12 1.07220E-12
 -1      1660 1.80931E+01 4.92732E+00 2.54595E-01 9.86545E+00 1.64158E-12 1.61382E-12
 -1      1661 1.15727E+01 1.62545E+00-5.88503E-01 6.22892E+00 1.80100E-12 1.47604E-12
 -1      1662 3.10008E+01 6.81978E+00 9.74593E-01 1.27921E+01 1.19793E-12 1.36557E-12
 -1      1663 2.26503E+01 6.47194E+00 1.80875E-01 1.08516E+01 1.58940E-12 1.58273E-12
 -1      1664 4.40533E+01 5.43646E+00 1.47601E+00 1.12874E+01 6.40266E-13 9.33476E-13
 -1      1665 3.57899E+01 6.95587E+00 8.86952E-01 1.24710E+01 1.02141E-12 1.27098E-12
 -1      1666 5.23563E+01 3.81146E+00 1.64178E+00 4.58926E+00 3.61849E-13 2.79221E-14
 -1      1667 4.72477E+01 5.30861E+00 1.36963E+00 9.13826E+00 5.27786E-13 6.04072E-13
 -1      1668 5.23656E+01 4.00192E+00 1.53411E+00-3.30949E+00 5.31408E-13-8.58258E-13
 -1      1669 5.30045E+01 3.87369E+00 1.57926E+00 2.09299E+00 4.21885E-13-2.59875E-13
 -1      1670 4.56581E+01 5.40930E+00 1.25019E+00-9.71917E+00 8.92203E-13-1.70020E-12
 -1      1671 5.15019E+01 3.84750E+00 1.62510E+00-5.79976E+00 6.00020E-13-1.18627E-12
 -1      1672 3.19890E+01 6.66623E+00 5.62908E-01-1.15715E+01 1.52567E-12-2.16516E-12
 -1      1673 4.15018E+01 5.38606E+00 1.28190E+00-1.10957E+01 1.08180E-12-1.85096E-12
 -1      1674 1.80744E+01 5.60439E+00-1.79980E-01-9.42740E+00 2.08988E-12-2.18825E-12
 -1      1675 2.63916E+01 6.71606E+00 6.69964E-01-1.21640E+01 1.75304E-12-2.30926E-12
 -1      1676 8.30179E+00-1.18183E-01-8.45386E-01-4.68031E+00 1.98319E-12-1.59905E-12
 -1      1677 1.36540E+01 3.97411E+00-5.64691E-02-8.27649E+00 2.05036E-12-2.01439E-12
 -1      1678 2.52991E+00-6.80252E+00-1.34523E+00-1.27113E+00 1.53466E-12-9.93983E-13
 -1      1679 4.46728E+00-1.74724E+00-7.61675E-01-3.23794E+00 1.94289E-12-1.44706E-12
 -1      1680 2.50864E-01-1.22135E+01-1.56944E+00-4.18222E-01 6.00020E-13-5.66824E-13
 -1      1681 6.47185E-01-8.32369E+00-1.22062E+00-3.38308E-01 1.28730E-12-8.54899E-13
 -1      1682-6.10340E-01-1.40212E+01-1.64797E+00-8.41028E-01-4.66117E-13-4.85945E-13
 -1      1683-5.75909E-01-1.32453E+01-1.57028E+00 4.65536E-01 3.11084E-13-4.90719E-13
 -1      1684-2.11227E-01-1.07052E+01-1.41190E+00-7.28582E-01-1.45084E-12-7.86482E-13
 -1      1685-2.75298E-01-1.35030E+01-1.64496E+00-3.49196E-02-7.54896E-13-5.55084E-13
 -1      1686 3.37974E+00-4.58005E+00-9.46880E-01 2.03744E+00-1.93978E-12-1.30654E-12
 -1      1687 1.92598E+00-9.30161E+00-1.40487E+00 6.80751E-01-1.56708E-12-9.15157E-13
 -1      1688 9.52518E+00 1.82040E+00-4.62387E-01 5.98243E+00-2.30083E-12-2.00773E-12
 -1      1689 5.62893E+00-2.78448E+00-1.17542E+00 2.84874E+00-2.23122E-12-1.55898E-12
 -1      1690 2.25706E+01 5.10470E+00 3.60721E-01 1.05552E+01-1.88582E-12-2.31526E-12
 -1      1691 1.47967E+01 2.71773E+00-5.39697E-01 7.15584E+00-2.12286E-12-2.06246E-12
 -1      1692 3.67101E+01 5.90425E+00 1.13669E+00 1.22265E+01-1.38123E-12-2.24376E-12
 -1      1693 2.75334E+01 6.28671E+00 2.91810E-01 1.12308E+01-1.78457E-12-2.36633E-12
 -1      1694 4.94515E+01 4.33194E+00 1.67541E+00 8.24247E+00-8.14019E-13-1.42153E-12
 -1      1695 4.13421E+01 5.83443E+00 1.04963E+00 1.07503E+01-1.20265E-12-1.95466E-12
 -1      1696 5.59545E+01 3.52884E+00 1.96344E+00 1.13291E+00-5.11313E-13-3.92630E-13
 -1      1697 5.25865E+01 4.31971E+00 1.68554E+00 6.37943E+00-6.85535E-13-1.18017E-12
 -1      1698 5.26433E+01 4.49811E+00 1.72610E+00-6.92680E+00-5.76539E-13 6.89893E-13
 -1      1699 5.60415E+01 3.54335E+00 1.97170E+00-1.41565E+00-4.18582E-13-4.31738E-14
 -1      1700 4.04771E+01 6.23086E+00 1.04581E+00-1.13393E+01-1.02013E-12 1.46216E-12
 -1      1701 4.92741E+01 4.56253E+00 1.71510E+00-8.90829E+00-6.76351E-13 9.29257E-13
 -1      1702 2.55786E+01 6.15333E+00 2.28269E-01-1.09311E+01-1.46427E-12 1.84897E-12
 -1      1703 3.53116E+01 6.06374E+00 1.10555E+00-1.24596E+01-1.17628E-12 1.70575E-12
 -1      1704 1.27156E+01 2.55522E+00-6.11887E-01-6.79051E+00-1.85807E-12 1.63036E-12
 -1      1705 1.99345E+01 5.48457E+00 3.16848E-01-1.04787E+01-1.64302E-12 1.85563E-12
 -1      1706 4.59286E+00-5.06773E+00-1.31871E+00-2.03748E+00-1.72384E-12 1.11922E-12
 -1      1707 8.44883E+00 5.60462E-01-4.94005E-01-5.40563E+00-1.84075E-12 1.52822E-12
 -1      1708 5.79247E-01-1.27513E+01-1.80411E+00 3.67289E-01-1.26565E-12 6.27335E-13
 -1      1709 1.41237E+00-7.27302E+00-1.26762E+00-4.47929E-01-1.67799E-12 8.78631E-13
 -1      1710-5.73993E-01-1.60065E+01-1.82059E+00-2.30184E-01 3.38202E-14 4.76924E-13
 -1      1711-6.09922E-01-1.40305E+01-1.69769E+00 1.12094E+00-9.17488E-13 6.54587E-13
 -1      1712 2.44003E+01 1.16312E+00 2.45803E-01 7.56750E+00 9.99145E-13 7.17093E-13
 -1      1713 1.46135E+01-2.55604E+00-2.70492E-01 6.72085E+00 1.00497E-12 9.62841E-13
 -1      1714 1.99998E+01-2.70977E-05 3.89332E-07-2.55501E-05-7.79445E-13-4.19707E-13
 -1      1715 1.99997E+01-1.43591E-04 6.05227E-07-1.35667E-04-8.51810E-14 1.65913E-13
 -1      1716 1.06382E+00-9.03871E+00-1.06400E+00 2.83103E+00 4.72067E-13 8.14293E-13
 -1      1717 6.18715E+00-6.39621E+00-8.16095E-01 4.78999E+00 8.57092E-13 8.42756E-13
 -1      1718-1.10734E+00-1.02178E+01-1.19524E+00 3.90479E-01 4.80310E-14 9.44356E-13
 -1      1719 3.41228E+01 4.50388E+00 8.43076E-01 7.52234E+00 9.23928E-13 6.07625E-13
 -1      1720 4.18543E+01 6.40224E+00 1.25312E+00 5.15283E+00 7.46347E-13 2.58682E-13
 -1      1721 4.50347E+01 7.62680E+00 1.35549E+00 1.56348E+00 7.36078E-13-2.30205E-13
 -1      1722 4.49178E+01 7.38725E+00 1.36080E+00-1.92124E+00 8.54539E-13-5.66214E-13
 -1      1723 4.03130E+01 5.85435E+00 1.11261E+00-5.00055E+00 1.00990E-12-9.80993E-13
 -1      1724 3.13423E+01 3.68036E+00 6.42316E-01-7.25503E+00 1.18278E-12-1.26554E-12
 -1      1725 2.05920E+01 4.25323E-01 9.26840E-03-7.37149E+00 1.18749E-12-1.33271E-12
 -1      1726 1.10522E+01-3.18107E+00-4.88668E-01-6.13417E+00 1.02385E-12-1.24359E-12
 -1      1727 3.76536E+00-6.26771E+00-8.68354E-01-4.11113E+00 6.77902E-13-1.06530E-12
 -1      1728-2.06148E-01-8.36043E+00-1.08453E+00-1.92053E+00 1.92513E-13-9.41636E-13
 -1      1729-8.88139E-01-8.83866E+00-1.14576E+00 4.72312E-01-3.59296E-13-9.51295E-13
 -1      1730 2.49834E+00-7.14811E+00-8.75521E-01 3.28257E+00-7.62168E-13-1.02132E-12
 -1      1731 8.49727E+00-5.07509E+00-7.61131E-01 5.09893E+00-1.11311E-12-1.19073E-12
 -1      1732 1.76999E+01-1.67488E+00-2.31592E-01 6.59397E+00-1.33171E-12-1.38928E-12
 -1      1733 2.84004E+01 1.60127E+00 3.63403E-01 6.89442E+00-1.23601E-12-1.37512E-12
 -1      1734 3.82642E+01 4.65442E+00 1.00888E+00 5.75007E+00-1.14021E-12-1.10456E-12
 -1      1735 4.49974E+01 6.70281E+00 1.41165E+00 2.86283E+00-1.01336E-12-7.29028E-13
 -1      1736 4.80433E+01 7.47204E+00 1.64711E+00-2.29859E-01-8.62366E-13-2.55310E-13
 -1      1737 4.49721E+01 6.78697E+00 1.43374E+00-3.38560E+00-8.62144E-13 2.87104E-13
 -1      1738 3.74632E+01 4.48570E+00 9.77089E-01-6.03947E+00-9.29437E-13 7.07434E-13
 -1      1739 2.68710E+01 1.53071E+00 3.70815E-01-7.43913E+00-9.96758E-13 1.02696E-12
 -1      1740 1.59116E+01-2.45548E+00-3.01917E-01-6.58558E+00-1.05205E-12 1.03062E-12
 -1      1741 6.69239E+00-6.62717E+00-8.45686E-01-4.59508E+00-9.25704E-13 8.94979E-13
 -1      1742 6.54536E-01-9.94716E+00-1.23759E+00-2.09885E+00-4.08007E-13 8.67001E-13
 -1      1743 2.83502E+01 2.06514E+00-1.59147E-02-2.12855E+00-2.13454E-13 1.06434E-12
 -1      1744 2.10572E+01 3.56538E+00-4.49158E-02-6.98132E-01-2.21576E-13-2.54789E-13
 -1      1745 2.23119E+01 3.47422E+00-3.50230E-02-1.08932E+00-2.73698E-13-1.35184E-13
 -1      1746 2.35816E+01 3.08687E+00-5.59419E-02-1.39206E+00-2.84382E-13 1.63619E-14
 -1      1747 2.47278E+01 2.75821E+00-1.37362E-01-1.80480E+00-3.20070E-13 2.06418E-13
 -1      1748 2.32759E+01 2.41255E+00-1.36476E-02-9.70739E-01-2.81535E-13-2.83697E-14
 -1      1749 1.64190E+01 4.26618E+00-3.43340E-02 1.23454E-01-9.27487E-14-5.03050E-13
 -1      1750 1.74899E+01 4.24349E+00 7.42369E-03 2.40790E-02-1.25011E-13-4.68639E-13
 -1      1751 1.46985E+01 4.59320E+00-2.48572E-02 4.70629E-03-5.42934E-14-5.74240E-13
 -1      1752 1.54778E+01 4.57820E+00 1.03708E-02 6.81811E-02-6.92970E-14-5.46442E-13
 -1      1753 1.59537E+01 4.10351E+00-8.17281E-03 2.48079E-01-7.52679E-14-5.14340E-13
 -1      1754 1.38663E+01 4.74987E+00-9.30628E-03-4.01330E-01-3.00525E-14-5.98359E-13
 -1      1755 1.41570E+01 4.76470E+00 5.88615E-04-2.40910E-01-4.64264E-14-5.93872E-13
 -1      1756 1.43329E+01 4.53635E+00 7.06672E-03-4.06479E-02-4.56475E-14-5.82141E-13
 -1      1757 1.40908E+01 4.63884E+00 6.51932E-03-8.43746E-01-9.77517E-15-5.87127E-13
 -1      1758 1.38458E+01 4.69097E+00-1.46613E-02-7.01868E-01-2.07700E-14-5.97113E-13
 -1      1759 1.37345E+01 4.63531E+00 1.13693E-02-5.96771E-01-3.01304E-14-6.03129E-13
 -1      1760 1.52061E+01 4.30703E+00 1.48596E-02-1.04656E+00 1.58224E-14-5.41285E-13
 -1      1761 1.45519E+01 4.37679E+00-2.58058E-02-1.02788E+00-2.75214E-15-5.65971E-13
 -1      1762 1.42597E+01 4.33844E+00 2.25191E-03-1.08688E+00-1.69222E-14-5.77918E-13
 -1      1763 1.68010E+01 3.91731E+00 1.18745E-02-8.66090E-01 5.78218E-14-4.80230E-13
 -1      1764 1.59619E+01 3.97275E+00-2.83679E-02-1.01091E+00 3.62523E-14-5.08639E-13
 -1      1765 1.56396E+01 3.79725E+00-1.36642E-02-1.21142E+00 1.40504E-14-5.19008E-13
 -1      1766 1.84357E+01 3.62765E+00 1.08829E-03-3.43638E-01 1.35713E-13-4.12354E-13
 -1      1767 1.76211E+01 3.64398E+00-2.58721E-02-6.22782E-01 9.23307E-14-4.49089E-13
 -1      1768 1.73932E+01 3.26357E+00-2.31777E-02-8.87574E-01 7.38142E-14-4.46287E-13
 -1      1769 1.99217E+01 3.48116E+00-1.35430E-02 4.09481E-01 2.15928E-13-3.14526E-13
 -1      1770 1.92019E+01 3.46182E+00-2.45586E-02 3.57067E-02 1.74053E-13-3.68296E-13
 -1      1771 1.91121E+01 2.89525E+00-2.55124E-02-2.23625E-01 1.56004E-13-3.64082E-13
 -1      1772 2.11941E+01 3.41548E+00-3.16799E-02 1.24936E+00 2.97507E-13-1.76026E-13
 -1      1773 2.05760E+01 3.39374E+00-2.87674E-02 8.30716E-01 2.45848E-13-2.50220E-13
 -1      1774 2.06073E+01 2.70182E+00-2.15554E-02 5.99482E-01 2.37511E-13-2.56861E-13
 -1      1775 2.24006E+01 3.24761E+00-5.90402E-02 2.06263E+00 3.57265E-13 4.14668E-14
 -1      1776 2.17842E+01 3.30785E+00-4.31299E-02 1.63334E+00 3.23306E-13-8.30239E-14
 -1      1777 2.18799E+01 2.56277E+00-1.31161E-02 1.40271E+00 3.23239E-13-8.97685E-14
 -1      1778 2.39264E+01 2.60830E+00-7.16117E-02 2.67484E+00 3.72701E-13 4.42119E-13
 -1      1779 2.30891E+01 2.96065E+00-5.55965E-02 2.33088E+00 3.57004E-13 2.02616E-13
 -1      1780 2.31473E+01 2.22378E+00 4.65237E-03 1.99889E+00 3.61706E-13 1.44627E-13
 -1      1781 2.51924E+01 1.14385E+00-1.39980E-01 2.21756E+00 3.17496E-13 9.09328E-13
 -1      1782 2.44974E+01 2.24780E+00-1.10224E-03 2.59942E+00 3.50078E-13 6.00409E-13
 -1      1783 2.40491E+01 1.47021E+00-2.99704E-02 2.02085E+00 3.75982E-13 4.41060E-13
 -1      1784 2.44323E+01 6.61895E-01-6.86817E-02 1.44507E+00 3.27530E-13 8.05691E-13
 -1      1785 2.68069E+01 2.47632E+00 8.38325E-02-2.21050E+00-2.80932E-13 5.30881E-13
 -1      1786 2.35142E+01 1.10552E-01-1.34721E-02 8.37370E-01 2.73790E-13 6.63827E-13
 -1      1787 2.41181E+01 2.69579E-01-1.92032E-02 1.09222E+00 2.72886E-13 7.58686E-13
 -1      1788 2.40472E+01 6.29199E-01 2.42516E-03 1.46445E+00 3.22201E-13 5.41031E-13
 -1      1789 2.62549E+01 1.59879E+00 8.03735E-02-1.42347E+00-2.91791E-13 4.01276E-13
 -1      1790 2.59462E+01 1.69155E-01 3.73566E-02-3.26904E-01-2.19734E-13 3.94005E-13
 -1      1791 2.56347E+01-8.59642E-02-1.60777E-02-2.58225E-01-1.93721E-13 3.33256E-13
 -1      1792 2.56874E+01-2.71618E-01 3.00877E-02-3.22174E-01-1.52217E-13 3.61525E-13
 -1      1793 2.54551E+01-4.67440E-01-2.10116E-02-5.18701E-01-1.22570E-13 3.07047E-13
 -1      1794 2.51881E+01-2.46232E-01-1.20929E-02-3.72552E-01-1.88805E-13 1.83921E-13
 -1      1795 2.55659E+01-5.92941E-01 1.69817E-02-8.44756E-01-7.62940E-14 3.27191E-13
 -1      1796 2.52146E+01-6.69345E-01-2.25603E-02-1.19281E+00-5.27633E-14 3.17110E-13
 -1      1797 2.53244E+01-7.83205E-01-7.29890E-03-7.53020E-01-1.09043E-13 2.30046E-13
 -1      1798 2.52384E+01-6.40055E-01-2.11722E-03-1.64150E+00-6.84548E-14 3.47611E-13
 -1      1799 2.47248E+01-4.81751E-01-6.65515E-03-1.95145E+00-1.06434E-13 3.28857E-13
 -1      1800 2.54662E+01-9.45729E-01 3.11341E-03-1.59506E+00-7.67966E-14 2.76963E-13
 -1      1801 2.45176E+01-2.05282E-01-2.43256E-02-2.22010E+00-1.44222E-13 3.18984E-13
 -1      1802 2.39384E+01 2.08634E-01 1.65921E-02-2.21786E+00-1.98239E-13 2.20275E-13
 -1      1803 2.53238E+01-4.61720E-01 5.68053E-03-2.42789E+00-1.48818E-13 2.60817E-13
 -1      1804 2.35389E+01 6.49028E-01-3.43602E-02-1.94917E+00-2.35114E-13 1.63617E-13
 -1      1805 2.31160E+01 1.07203E+00 1.95255E-02-1.46449E+00-2.35523E-13 1.09373E-13
 -1      1806 2.47667E+01 6.66742E-01-1.37685E-02-2.49799E+00-2.75113E-13 1.82222E-13
 -1      1807 2.28436E+01 1.33834E+00-1.78157E-02-6.23651E-01-2.90781E-13 9.18710E-15
 -1      1808 2.27801E+01 1.39556E+00-9.64617E-03 1.49781E-01-3.15831E-13-9.12907E-14
 -1      1809 2.41252E+01 1.76098E+00-4.97778E-02-1.28508E+00-3.44016E-13 4.49723E-14
 -1      1810 2.29113E+01 1.22588E+00 1.31921E-02 1.06676E+00-3.56208E-13-1.68607E-13
 -1      1811 2.32284E+01 8.60338E-01-3.45969E-02 1.65570E+00-2.70797E-13-2.35487E-13
 -1      1812 2.39897E+01 1.90429E+00-5.67145E-02 7.32197E-01-3.93664E-13-2.56298E-13
 -1      1813 2.35845E+01 4.14524E-01 1.86914E-02 2.07281E+00-2.12157E-13-3.01766E-13
 -1      1814 2.41015E+01-4.90040E-02-3.38239E-02 2.17345E+00-1.44386E-13-3.87617E-13
 -1      1815 2.44582E+01 9.58405E-01-2.35632E-02 2.22087E+00-3.24442E-13-3.57794E-13
 -1      1816 2.43036E+01-3.95901E-01-2.57947E-03 1.97565E+00-9.13323E-14-3.98388E-13
 -1      1817 2.47729E+01-6.45860E-01-1.49873E-02 1.68445E+00 2.53304E-14-4.34276E-13
 -1      1818 2.49712E+01-2.87719E-01 5.49574E-03 2.39892E+00-1.50484E-13-4.07399E-13
 -1      1819 2.46945E+01-7.55081E-01-2.51730E-02 1.17775E+00 6.37008E-14-4.58225E-13
 -1      1820 2.49550E+01-7.59645E-01-1.96430E-03 7.52349E-01 3.78378E-14-4.65475E-13
 -1      1821 2.50525E+01-1.00813E+00 1.15856E-02 1.56042E+00 9.48243E-15-4.31123E-13
 -1      1822 2.46849E+01-6.94367E-01-3.27977E-02 2.54647E-01 3.70034E-14-4.62570E-13
 -1      1823 2.47045E+01-5.72853E-01 2.56090E-03-1.04166E-01 6.12774E-14-4.17977E-13
 -1      1824 2.46939E+01-1.08058E+00 1.86127E-03 4.43502E-01 5.18500E-14-3.97828E-13
 -1      1825 2.43732E+01-4.53043E-01-2.68394E-02-4.42466E-01-2.46417E-14-4.14088E-13
 -1      1826 2.42035E+01-3.17775E-01 2.12174E-03-6.64044E-01-8.19015E-14-3.82369E-13
 -1      1827 2.41117E+01-7.79842E-01-4.72488E-03-4.55536E-01 1.88963E-14-2.98769E-13
 -1      1828 2.38831E+01-2.13159E-01-1.61218E-02-8.33244E-01-7.10725E-14-3.39069E-13
 -1      1829 2.36024E+01-1.13093E-01 1.08927E-03-9.29318E-01 3.15117E-14-2.74273E-13
 -1      1830 2.34861E+01-4.13932E-01-6.40913E-03-9.90088E-01-4.39310E-14-2.35155E-13
 -1      1831 2.33168E+01-4.39955E-02-6.27899E-03-9.74457E-01 4.58412E-14-2.99994E-13
 -1      1832 2.29934E+01 1.45431E-02 7.05210E-04-9.85041E-01 4.07414E-14-2.88139E-13
 -1      1833 2.28985E+01-1.31316E-01-5.70325E-03-1.20977E+00 1.23788E-14-1.84861E-13
 -1      1834 2.27461E+01 5.18172E-02 5.69891E-04-9.56380E-01 3.17927E-14-3.02747E-13
 -1      1835 2.24266E+01 7.88397E-02 8.36623E-04-9.19881E-01-9.83697E-16-3.10588E-13
 -1      1836 2.23741E+01 4.06457E-02-4.57549E-03-1.21894E+00 2.44257E-14-1.92916E-13
 -1      1837 2.22154E+01 9.45261E-02 4.42082E-03-8.55552E-01-3.49074E-14-2.70951E-13
 -1      1838 2.19260E+01 1.02130E-01 1.14132E-03-7.99056E-01-7.69810E-14-2.52035E-13
 -1      1839 2.19170E+01 1.24737E-01-3.72907E-03-1.11200E+00 1.76385E-14-1.91484E-13
 -1      1840 2.17477E+01 1.05358E-01 6.05807E-03-7.23085E-01-2.02887E-14-2.33927E-13
 -1      1841 2.14998E+01 1.02716E-01 1.38786E-03-6.62628E-01 9.07978E-14-1.88326E-13
 -1      1842 2.15252E+01 1.52930E-01-3.18249E-03-9.55005E-01-1.09834E-14-2.60603E-13
 -1      1843 2.13513E+01 9.97014E-02 6.31747E-03-5.88245E-01 1.06381E-13-2.11589E-13
 -1      1844 2.11471E+01 9.25604E-02 1.49668E-03-5.31998E-01 1.89858E-13-1.62362E-13
 -1      1845 2.11951E+01 1.50644E-01-2.80549E-03-7.87679E-01 7.74068E-14-2.21059E-13
 -1      1846 2.10254E+01 8.69779E-02 5.84145E-03-4.65466E-01 2.07989E-13-2.37100E-13
 -1      1847 2.08619E+01 7.85272E-02 1.47720E-03-4.16815E-01 1.42335E-13-2.54468E-13
 -1      1848 2.09216E+01 1.34271E-01-2.49388E-03-6.30953E-01 1.83685E-13-2.14668E-13
 -1      1849 2.07637E+01 7.23380E-02 5.04846E-03-3.60359E-01 6.60156E-14-2.41232E-13
 -1      1850 2.06357E+01 6.41607E-02 1.36906E-03-3.20090E-01 1.13017E-15-1.76833E-13
 -1      1851 2.06991E+01 1.13124E-01-2.19706E-03-4.94021E-01 9.14183E-14-2.97844E-13
 -1      1852 2.05579E+01 5.83081E-02 4.17983E-03-2.73804E-01-4.85473E-14-1.36753E-13
 -1      1853 2.04597E+01 5.10792E-02 1.21229E-03-2.41441E-01-7.84483E-14-1.16375E-13
 -1      1854 2.05212E+01 9.19602E-02-1.90218E-03-3.79437E-01 2.99706E-14-2.18749E-13
 -1      1855 2.03989E+01 4.59486E-02 3.35909E-03-2.04416E-01-1.58521E-13-3.75112E-14
 -1      1856 2.03249E+01 3.98693E-02 1.03728E-03-1.78966E-01-1.36304E-13-5.07609E-14
 -1      1857 2.03812E+01 7.29077E-02-1.61409E-03-2.86349E-01-9.55497E-14-1.22309E-13
 -1      1858 2.02782E+01 3.55614E-02 2.63953E-03-1.49916E-01-9.63897E-14-2.65158E-14
 -1      1859 2.02234E+01 3.06062E-02 8.63894E-04-1.30253E-01-5.78853E-14-2.87475E-14
 -1      1860 2.02729E+01 5.66960E-02-1.34235E-03-2.12378E-01-1.03281E-13-5.63799E-14
 -1      1861 2.01882E+01 2.70878E-02 2.03614E-03-1.07835E-01-6.99849E-14-1.41284E-13
 -1      1862 2.01483E+01 2.31355E-02 7.03596E-04-9.28810E-02-6.85858E-14-2.76631E-13
 -1      1863 2.01905E+01 4.33672E-02-1.09519E-03-1.54652E-01-1.23152E-13-8.76593E-14
 -1      1864 2.01222E+01 2.03185E-02 1.54481E-03-7.58484E-02-1.86304E-14-2.39819E-13
 -1      1865 2.00938E+01 1.72187E-02 5.62013E-04-6.46505E-02 1.01915E-17-2.21501E-13
 -1      1866 2.01289E+01 3.26617E-02-8.77515E-04-1.10325E-01-2.62090E-14-2.39690E-13
 -1      1867 2.00748E+01 1.49988E-02 1.15323E-03-5.19100E-02 1.90594E-14-1.84676E-13
 -1      1868 2.00551E+01 1.26028E-02 4.41015E-04-4.36597E-02 3.33652E-14-1.91759E-13
 -1      1869 2.00836E+01 2.42136E-02-6.91059E-04-7.68093E-02 2.91391E-14-1.95635E-13
 -1      1870 2.00417E+01 1.08780E-02 8.46436E-04-3.42872E-02-1.15328E-14-1.89330E-13
 -1      1871 2.00284E+01 9.05134E-03 3.40228E-04-2.83173E-02-6.21251E-14-2.60375E-13
 -1      1872 2.00511E+01 1.76455E-02-5.35098E-04-5.18707E-02-5.21527E-14-5.86846E-14
 -1      1873 2.00191E+01 7.72936E-03 6.09692E-04-2.15500E-02-4.03671E-14-2.67291E-13
 -1      1874 2.00105E+01 6.35640E-03 2.58048E-04-1.73201E-02 5.50233E-18-2.24899E-13
 -1      1875 2.00283E+01 1.26095E-02-4.07338E-04-3.36329E-02-9.58497E-15-2.14074E-13
 -1      1876 2.00043E+01 5.35741E-03 4.29630E-04-1.25394E-02-1.24557E-13-2.19619E-13
 -1      1877 1.99991E+01 4.34121E-03 1.92285E-04-9.61813E-03-5.16253E-14-2.35978E-13
 -1      1878 2.00128E+01 8.80182E-03-3.04631E-04-2.05557E-02-7.06348E-14-1.98491E-13
 -1      1879 1.99951E+01 3.59778E-03 2.94704E-04-6.33013E-03-4.35798E-14-2.32569E-13
 -1      1880 1.99923E+01 2.85860E-03 1.40567E-04-4.37770E-03-2.11181E-14-1.78341E-13
 -1      1881 2.00026E+01 5.96559E-03-2.23501E-04-1.13956E-02-7.81881E-14-3.10673E-14
 -1      1882 1.99899E+01 2.31481E-03 1.95216E-04-2.19303E-03 2.61513E-14-2.98797E-13
 -1      1883 1.99887E+01 1.78802E-03 1.00577E-04-9.45373E-04 7.44159E-14-1.82645E-13
 -1      1884 1.99963E+01 3.88793E-03-1.60495E-04-5.16342E-03 3.87170E-14-9.57046E-14
 -1      1885 1.99874E+01 1.39816E-03 1.23182E-04 4.38660E-04-3.67201E-14-2.25874E-13
 -1      1886 1.99872E+01 1.03199E-03 7.01800E-05 1.18424E-03-3.69706E-14-2.53852E-13
 -1      1887 1.99928E+01 2.39515E-03-1.12391E-04-1.08263E-03-4.57883E-14-2.66331E-13
 -1      1888 1.99867E+01 7.59179E-04 7.21295E-05 1.99977E-03-8.53618E-14-3.04003E-13
 -1      1889 1.99872E+01 5.12653E-04 4.74880E-05 2.39665E-03-9.46519E-14-3.72985E-13
 -1      1890 1.99911E+01 1.34725E-03-7.63059E-05 1.44790E-03-1.23647E-13-3.04977E-13
 -1      1891 1.99872E+01 3.27473E-04 3.68812E-05 2.81908E-03-3.17022E-14-2.82853E-13
 -1      1892 1.99880E+01 1.68538E-04 3.08762E-05 2.98151E-03-4.87049E-14-2.72431E-13
 -1      1893 1.99907E+01 6.32811E-04-4.97467E-05 2.88701E-03 5.76199E-15-1.16902E-13
 -1      1894 1.99883E+01 4.78338E-05 1.33475E-05 3.14125E-03 3.66463E-14-2.02229E-13
 -1      1895 1.99892E+01-4.82872E-05 1.89777E-05 3.15283E-03 5.88103E-14-6.83425E-14
 -1      1896 1.99910E+01 1.64168E-04-3.06077E-05 3.57957E-03 8.32327E-14-5.75435E-14
 -1      1897 1.99897E+01-1.22536E-04-1.66179E-06 3.14499E-03 9.04163E-14-4.02742E-14
 -1      1898 1.99907E+01-1.74763E-04 1.06614E-05 3.06560E-03 1.73511E-13-2.16689E-14
 -1      1899 1.99918E+01-1.26834E-04-1.71486E-05 3.78036E-03 9.94200E-14-2.84256E-14
 -1      1900 1.99912E+01-2.16411E-04-1.06034E-05 2.95801E-03 1.82412E-13 1.38701E-13
 -1      1901 1.99922E+01-2.39027E-04 5.00195E-06 2.82937E-03 8.23001E-14 1.54344E-13
 -1      1902 1.99928E+01-2.92555E-04-7.95716E-06 3.67382E-03 2.44791E-13 3.15145E-13
 -1      1903 1.99927E+01-2.58623E-04-1.53439E-05 2.66895E-03-8.09761E-14 2.05319E-13
 -1      1904 1.99936E+01-2.62313E-04 1.24631E-06 2.51902E-03-1.02905E-13 2.79024E-13
 -1      1905 1.99939E+01-3.72775E-04-1.90677E-06 3.39011E-03 9.79305E-14 4.27419E-13
 -1      1906 1.99942E+01-2.67840E-04-1.72795E-05 2.33684E-03-7.58280E-14 3.44798E-13
 -1      1907 1.99950E+01-2.60584E-04-1.21962E-06 2.18323E-03 3.44375E-14 3.85531E-13
 -1      1908 1.99950E+01-3.97468E-04 1.88584E-06 3.01800E-03-4.40681E-15 6.90217E-13
 -1      1909 1.99954E+01-2.58106E-04-1.74341E-05 1.99842E-03 2.42175E-13 2.19205E-13
 -1      1910 1.99961E+01-2.45930E-04-2.89699E-06 1.85091E-03 3.15495E-13 4.14703E-13
 -1      1911 1.99960E+01-3.89179E-04 4.09910E-06 2.61488E-03 8.21942E-14 6.16987E-13
 -1      1912 1.99965E+01-2.40150E-04-1.65288E-05 1.67356E-03 2.61859E-13 5.66738E-13
 -1      1913 1.99971E+01-2.27739E-04-4.17171E-06 1.53592E-03 3.44077E-13 7.72021E-13
 -1      1914 1.99969E+01-3.65059E-04 5.24068E-06 2.21450E-03 3.41627E-13 4.64879E-13
 -1      1915 1.99974E+01-2.22412E-04-1.50128E-05 1.36923E-03 1.17812E-13 5.53040E-13
 -1      1916 1.99979E+01-2.13533E-04-5.27274E-06 1.24049E-03 7.88422E-14 4.62929E-13
 -1      1917 1.99976E+01-3.38469E-04 5.68605E-06 1.83263E-03 1.42921E-13 4.35543E-13
 -1      1918 1.99982E+01-2.11698E-04-1.30688E-05 1.08259E-03 5.42828E-14 3.30574E-13
 -1      1919 1.99986E+01-2.09302E-04-6.20087E-06 9.58163E-04 8.75803E-14 3.17697E-13
 -1      1920 1.99983E+01-3.20061E-04 5.66001E-06 1.47166E-03-5.12802E-14 2.81122E-13
 -1      1921 1.99988E+01-2.12721E-04-1.05897E-05 8.03993E-04 6.69370E-14 1.96404E-13
 -1      1922 1.99991E+01-2.16885E-04-6.69630E-06 6.77391E-04-1.40850E-13 3.80792E-13
 -1      1923 1.99988E+01-3.17683E-04 4.99861E-06 1.12494E-03-2.07758E-14 4.32967E-13
 -1      1924 1.99993E+01-2.17602E-04-8.30220E-06 5.30847E-04-4.09389E-14 4.64391E-13
 -1      1925 1.99995E+01-2.21260E-04-7.46093E-06 4.03909E-04 1.62073E-15 3.91630E-13
 -1      1926 1.99995E+01-3.04498E-04 4.34158E-06 4.78431E-04-1.04281E-13 6.98491E-13
 -1      1927 1.99992E+01-3.19257E-04 6.66079E-06 7.91719E-04-1.47221E-14 5.99483E-13
 -1      1928 2.27898E+01-6.55413E-02 3.64089E-03 7.80019E-01 1.65117E-13 5.52787E-13
 -1      1929 2.32231E+01-5.64971E-03 1.12101E-02 7.89506E-01 2.19548E-13 6.20901E-13
 -1      1930 2.33208E+01 6.37125E-02 1.90626E-03 1.04751E+00 2.60316E-13 4.65320E-13
 -1      1931 2.20908E+01-1.05188E-01 4.38511E-03 9.16984E-01 1.29400E-13 4.67544E-13
 -1      1932 2.24921E+01-1.02401E-01 8.66036E-03 8.39545E-01 1.14742E-13 5.04117E-13
 -1      1933 2.26922E+01-1.17195E-01 5.25485E-03 1.05484E+00 1.66828E-13 3.99735E-13
 -1      1934 2.13488E+01-4.07523E-02 5.34044E-03 1.04507E+00 7.63250E-14 3.90484E-13
 -1      1935 2.17677E+01-8.19635E-02 4.30352E-03 9.75823E-01 9.41504E-14 4.14968E-13
 -1      1936 2.20720E+01-1.12796E-01 5.57896E-03 1.20078E+00 1.31900E-13 2.94648E-13
 -1      1937 2.06000E+01 1.01723E-01 6.14963E-03 9.98840E-01 8.25364E-14 3.37324E-13
 -1      1938 2.10116E+01 3.36957E-02 3.91887E-03 1.01476E+00 7.71527E-14 3.86597E-13
 -1      1939 2.14182E+01 2.87700E-02 3.08859E-03 1.26026E+00 9.43221E-14 2.52143E-13
 -1      1940 1.99814E+01 2.60893E-01 3.89303E-03 6.82892E-01 1.40123E-13 2.46875E-13
 -1      1941 2.03107E+01 1.99666E-01 6.57092E-03 8.26768E-01 1.11693E-13 2.91446E-13
 -1      1942 2.07928E+01 2.47494E-01-2.76723E-03 1.06181E+00 1.47015E-13 1.99318E-13
 -1      1943 1.96716E+01 3.48707E-01-3.76858E-04 1.38082E-01 1.57832E-13 1.23225E-13
 -1      1944 1.98308E+01 3.32052E-01 1.02123E-02 3.86789E-01 1.45845E-13 1.90481E-13
 -1      1945 2.03425E+01 4.35473E-01-9.69251E-03 5.52254E-01 1.80566E-13 9.49670E-14
 -1      1946 1.97760E+01 3.12737E-01-2.85846E-03-4.60005E-01 1.71694E-13 2.68084E-14
 -1      1947 1.97146E+01 3.54090E-01 1.24220E-02-1.88677E-01 1.64240E-13 9.83150E-14
 -1      1948 2.02129E+01 4.89885E-01-1.11929E-02-1.45659E-01 1.99320E-13 6.41808E-14
 -1      1949 2.02524E+01 1.69662E-01-1.63304E-03-8.97319E-01 6.17952E-14-2.23155E-14
 -1      1950 1.99895E+01 2.49323E-01 1.09733E-02-6.99734E-01 1.33999E-13 3.12944E-15
 -1      1951 2.04397E+01 3.75310E-01-5.95517E-03-7.91534E-01 1.42661E-13 3.15676E-15
 -1      1952 2.09219E+01-3.35112E-03 1.86202E-03-1.04550E+00 4.94889E-14-4.44384E-14
 -1      1953 2.05428E+01 7.50418E-02 5.63414E-03-9.75316E-01 8.65627E-14-2.04559E-14
 -1      1954 2.09148E+01 1.46899E-01 5.10162E-05-1.16394E+00 9.71098E-14-4.64663E-14
 -1      1955 2.15717E+01-1.32260E-01 5.06478E-03-9.18749E-01 1.52686E-14-1.77677E-13
 -1      1956 2.11856E+01-8.44722E-02-9.65395E-04-9.67414E-01 3.64266E-14-1.25781E-13
 -1      1957 2.14528E+01-8.34878E-02 3.28680E-03-1.18715E+00 6.62287E-14-1.34290E-13
 -1      1958 2.20498E+01-1.86971E-01 6.12538E-03-6.27039E-01 1.24174E-13-2.45463E-13
 -1      1959 2.17444E+01-1.75973E-01-6.01356E-03-7.46550E-01 4.10384E-14-1.88129E-13
 -1      1960 2.18922E+01-2.32301E-01 3.11353E-03-9.37049E-01 7.96576E-14-2.41519E-13
 -1      1961 2.22982E+01-1.79129E-01 5.11960E-03-2.95459E-01 5.03087E-14-1.81602E-13
 -1      1962 2.21159E+01-1.94216E-01-8.29990E-03-4.32917E-01 7.83800E-14-1.87044E-13
 -1      1963 2.21510E+01-2.77466E-01 1.46350E-03-5.59270E-01 7.73253E-14-1.88404E-13
 -1      1964 2.23321E+01-1.37326E-01 3.14239E-03-1.06166E-02-5.61231E-14-1.26465E-13
 -1      1965 2.22742E+01-1.63601E-01-8.13548E-03-1.29696E-01-5.81132E-15-1.55105E-13
 -1      1966 2.22216E+01-2.45428E-01 1.29855E-05-1.83978E-01 6.20858E-15-1.79016E-13
 -1      1967 2.22040E+01-8.69021E-02 1.23645E-03 1.90222E-01 2.93407E-14-8.86487E-14
 -1      1968 2.22461E+01-1.13257E-01-6.49212E-03 1.05334E-01 2.28290E-15-7.27983E-14
 -1      1969 2.21394E+01-1.77066E-01-6.99809E-04 1.13031E-01-1.76669E-14-1.38548E-13
 -1      1970 2.19741E+01-4.27295E-02-8.09137E-05 3.05717E-01-5.21675E-14-1.47102E-13
 -1      1971 2.20828E+01-6.36202E-02-4.30834E-03 2.55951E-01-3.37842E-14-1.30085E-13
 -1      1972 2.19532E+01-1.04497E-01-8.17502E-04 3.07800E-01 4.54931E-15-1.05799E-13
 -1      1973 2.16948E+01-1.03773E-02-7.65884E-04 3.52451E-01-2.02901E-14-1.99764E-13
 -1      1974 2.18389E+01-2.44261E-02-2.23013E-03 3.31243E-01 5.02549E-15-1.70081E-13
 -1      1975 2.17096E+01-4.47982E-02-6.75504E-04 4.08956E-01 2.65881E-14-2.94537E-13
 -1      1976 2.14048E+01 1.01662E-02-9.80915E-04 3.51702E-01-2.38496E-15-2.94232E-13
 -1      1977 2.15600E+01 2.14782E-03-5.82556E-04 3.50430E-01-3.23950E-14-2.40447E-13
 -1      1978 2.14452E+01-3.08723E-03-5.09644E-04 4.38945E-01 1.08264E-14-2.70815E-13
 -1      1979 2.11297E+01 2.12667E-02-9.21607E-04 3.22523E-01 4.32272E-14-2.15093E-13
 -1      1980 2.12796E+01 1.77271E-02 5.51534E-04 3.33373E-01 2.34174E-14-2.08107E-13
 -1      1981 2.11856E+01 2.21042E-02-4.07359E-04 4.21958E-01-1.79167E-14-3.59949E-13
 -1      1982 2.08839E+01 2.57484E-02-7.39212E-04 2.79313E-01-4.05095E-14-1.88659E-13
 -1      1983 2.10189E+01 2.51562E-02 1.22301E-03 2.96323E-01-3.23151E-14-1.29409E-13
 -1      1984 2.09469E+01 3.46916E-02-3.70081E-04 3.78278E-01-4.92899E-14-2.41276E-13
 -1      1985 2.06738E+01 2.60528E-02-5.27646E-04 2.31780E-01 1.44961E-13-2.95341E-13
 -1      1986 2.07895E+01 2.71875E-02 1.53653E-03 2.50887E-01 2.14836E-14-2.33571E-13
 -1      1987 2.07376E+01 3.87647E-02-3.70436E-04 3.22692E-01 7.59983E-14-2.34726E-13
 -1      1988 2.05003E+01 2.40015E-02-3.35148E-04 1.85826E-01 6.07347E-14-1.59564E-13
 -1      1989 2.05957E+01 2.59995E-02 1.60273E-03 2.04525E-01 1.38360E-13-1.56856E-13
 -1      1990 2.05608E+01 3.76689E-02-3.81728E-04 2.64900E-01 8.35046E-14-1.81990E-13
 -1      1991 2.03613E+01 2.08323E-02-1.80700E-04 1.44608E-01-1.27555E-13-2.10259E-13
 -1      1992 2.04375E+01 2.31336E-02 1.51583E-03 1.61529E-01-6.00825E-14-8.58415E-14
 -1      1993 2.04159E+01 3.38140E-02-3.87076E-04 2.10630E-01-3.47025E-14-3.19829E-14
 -1      1994 2.02528E+01 1.73243E-02-6.72445E-05 1.09467E-01-1.35165E-14-1.38733E-13
 -1      1995 2.03120E+01 1.95950E-02 1.34663E-03 1.24000E-01-1.10996E-13-1.94676E-13
 -1      1996 2.03002E+01 2.87901E-02-3.79401E-04 1.62801E-01-1.05233E-13-6.93393E-14
 -1      1997 2.01702E+01 1.39300E-02 9.77878E-06 8.06256E-02-5.83572E-15-5.86738E-14
 -1      1998 2.02150E+01 1.59913E-02 1.14379E-03 9.26332E-02 1.02929E-14-9.44306E-14
 -1      1999 2.02102E+01 2.35671E-02-3.58283E-04 1.22500E-01 5.46882E-15-7.91666E-14
 -1      2000 2.01089E+01 1.08845E-02 5.75722E-05 5.76774E-02 2.74001E-14 1.47762E-13
 -1      2001 2.01419E+01 1.26572E-02 9.38048E-04 6.72931E-02 2.54862E-14 7.25363E-14
 -1      2002 2.01418E+01 1.86858E-02-3.26698E-04 8.97039E-02 1.68235E-14 1.52137E-13
 -1      2003 2.00646E+01 8.28496E-03 8.35098E-05 3.99087E-02-1.76054E-13 3.97928E-14
 -1      2004 2.00882E+01 9.75075E-03 7.47080E-04 4.74029E-02-5.48429E-14 5.86273E-14
 -1      2005 2.00910E+01 1.44070E-02-2.88711E-04 6.37836E-02-2.92271E-14 2.63952E-13
 -1      2006 2.00335E+01 6.14672E-03 9.40506E-05 2.64977E-02-2.47701E-13-1.65249E-14
 -1      2007 2.00499E+01 7.32130E-03 5.79623E-04 3.21933E-02-2.19520E-13 5.82103E-14
 -1      2008 2.00543E+01 1.08194E-02-2.48166E-04 4.38268E-02-2.34114E-13 1.13122E-13
 -1      2009 2.00125E+01 4.43980E-03 9.43893E-05 1.66320E-02-1.22798E-13 1.81183E-13
 -1      2010 2.00234E+01 5.35593E-03 4.38683E-04 2.08542E-02-1.97138E-13 4.64767E-14
 -1      2011 2.00285E+01 7.91216E-03-2.08114E-04 2.88420E-02-1.92562E-13 1.99784E-13
 -1      2012 1.99989E+01 3.11227E-03 8.84668E-05 9.57088E-03-8.70427E-14 3.13362E-13
 -1      2013 2.00058E+01 3.80921E-03 3.23827E-04 1.26199E-02-4.65659E-14 2.44495E-13
 -1      2014 2.00110E+01 5.62239E-03-1.70668E-04 1.78746E-02-1.08959E-13 2.81119E-13
 -1      2015 1.99908E+01 2.10464E-03 7.91335E-05 4.67329E-03-5.14362E-14 2.10578E-13
 -1      2016 1.99947E+01 2.62195E-03 2.32745E-04 6.81124E-03-5.61128E-14 2.48770E-13
 -1      2017 1.99997E+01 3.86442E-03-1.37094E-04 1.00675E-02-3.55973E-14 2.66041E-13
 -1      2018 1.99865E+01 1.35813E-03 6.83575E-05 1.40523E-03-6.51061E-14 2.61176E-13
 -1      2019 1.99884E+01 1.73231E-03 1.62272E-04 2.85225E-03-7.70541E-14 2.33740E-13
 -1      2020 1.99929E+01 2.54746E-03-1.07983E-04 4.68666E-03-2.32021E-14 1.51038E-13
 -1      2021 1.99847E+01 8.19099E-04 5.74290E-05-6.65164E-04 1.56961E-13 2.05258E-13
 -1      2022 1.99853E+01 1.08202E-03 1.09016E-04 2.70186E-04 7.70553E-14 2.88052E-13
 -1      2023 1.99892E+01 1.58541E-03-8.34372E-05 1.12474E-03 6.09292E-14 1.32348E-13
 -1      2024 1.99846E+01 4.40994E-04 4.71366E-05-1.87824E-03 4.51504E-13 1.29007E-13
 -1      2025 1.99844E+01 6.19420E-04 6.97219E-05-1.31234E-03 2.34200E-13 1.96648E-13
 -1      2026 1.99877E+01 9.01732E-04-6.32383E-05-1.10658E-03 3.06913E-13 5.59634E-14
 -1      2027 1.99855E+01 1.84903E-04 3.79116E-05-2.49607E-03 7.37477E-14 3.41238E-13
 -1      2028 1.99848E+01 3.00643E-04 4.14664E-05-2.18937E-03 3.10409E-13 3.30617E-13
 -1      2029 1.99875E+01 4.31287E-04-4.69769E-05-2.39033E-03 2.65470E-13 4.60818E-13
 -1      2030 1.99871E+01 1.92081E-05 2.99400E-05-2.71590E-03-9.46644E-14 3.89676E-14
 -1      2031 1.99860E+01 8.95828E-05 2.17358E-05-2.58483E-03-3.07757E-14 2.31723E-13
 -1      2032 1.99882E+01 1.20456E-04-3.41513E-05-3.02015E-03 3.77296E-14 5.04286E-13
 -1      2033 1.99888E+01-8.11826E-05 2.32451E-05-2.68271E-03 2.04717E-13-1.06438E-13
 -1      2034 1.99877E+01-4.27121E-05 8.43958E-06-2.66538E-03 1.41557E-14-9.72989E-14
 -1      2035 1.99894E+01-7.37567E-05-2.42343E-05-3.21607E-03 6.43886E-14 6.21128E-14
 -1      2036 1.99906E+01-1.35785E-04 1.77474E-05-2.50031E-03-9.37568E-14-7.83418E-14
 -1      2037 1.99895E+01-1.18965E-04-1.16283E-07-2.55201E-03 8.01310E-14-1.96733E-13
 -1      2038 1.99909E+01-1.85072E-04-1.67166E-05-3.13908E-03 9.78851E-14-1.36275E-13
 -1      2039 1.99923E+01-1.59536E-04 1.33050E-05-2.24059E-03-1.05015E-13-6.90919E-14
 -1      2040 1.99913E+01-1.56689E-04-5.27564E-06-2.33004E-03-8.11393E-14-6.91930E-14
 -1      2041 1.99923E+01-2.39448E-04-1.11320E-05-2.90370E-03-1.32677E-13-1.33579E-13
 -1      2042 1.99939E+01-1.63751E-04 9.73916E-06-1.95112E-03 9.94108E-14-3.85875E-13
 -1      2043 1.99930E+01-1.69205E-04-8.08577E-06-2.05735E-03-2.82666E-14-1.66680E-13
 -1      2044 1.99937E+01-2.56574E-04-7.06982E-06-2.58858E-03 5.70120E-14-3.08118E-13
 -1      2045 1.99953E+01-1.57009E-04 6.85134E-06-1.66106E-03 3.86836E-14-2.81612E-13
 -1      2046 1.99945E+01-1.66589E-04-9.35017E-06-1.77102E-03 5.38305E-14-3.38108E-13
 -1      2047 1.99950E+01-2.51285E-04-4.17820E-06-2.24499E-03 5.83929E-14-3.94315E-13
 -1      2048 1.99965E+01-1.45995E-04 4.43051E-06-1.38557E-03 3.53391E-14-2.64407E-13
 -1      2049 1.99958E+01-1.56554E-04-9.67283E-06-1.49230E-03 1.48506E-13-2.06043E-13
 -1      2050 1.99961E+01-2.34841E-04-2.16116E-06-1.90340E-03 1.07340E-13-2.60836E-13
 -1      2051 1.99975E+01-1.36035E-04 2.37807E-06-1.12867E-03 8.74507E-15-3.85266E-13
 -1      2052 1.99969E+01-1.45297E-04-9.49834E-06-1.23030E-03-7.42637E-15-2.90280E-13
 -1      2053 1.99971E+01-2.16139E-04-7.76345E-07-1.57839E-03 6.03595E-14-1.51848E-13
 -1      2054 1.99983E+01-1.31126E-04 7.68615E-07-8.86471E-04 9.83933E-14-2.84063E-13
 -1      2055 1.99978E+01-1.37327E-04-8.98288E-06-9.84693E-04-2.43487E-14-3.37717E-13
 -1      2056 1.99979E+01-2.01347E-04 4.78239E-07-1.27203E-03-3.00401E-14-4.26904E-14
 -1      2057 1.99989E+01-1.35066E-04-2.98567E-07-6.48619E-04-5.18259E-15 3.32485E-14
 -1      2058 1.99986E+01-1.36859E-04-8.06163E-06-7.48703E-04 9.67335E-14-8.01883E-14
 -1      2059 1.99986E+01-1.96684E-04 1.62537E-06-9.78423E-04-2.66569E-14 1.17947E-13
 -1      2060 1.99994E+01-1.47768E-04-2.65924E-06-4.04126E-04 4.95221E-14 4.92991E-14
 -1      2061 1.99991E+01-1.44306E-04-6.26274E-06-5.11572E-04 1.61310E-14 6.80609E-14
 -1      2062 1.99991E+01-2.05535E-04 2.17190E-06-6.86565E-04 1.75464E-14 4.07189E-13
 -1      2063 1.99996E+01-1.54305E-04-5.14294E-06-2.17945E-04 1.33834E-13 1.89964E-13
 -1      2064 1.99995E+01-1.58919E-04-4.45273E-06-3.26338E-04 1.71744E-13 1.25342E-13
 -1      2065 1.99994E+01-2.22907E-04 2.34864E-06-4.52558E-04 1.36992E-13 5.37163E-13
 -1      2066 1.99996E+01-2.29216E-04 8.71636E-08-2.79997E-04 1.44465E-13 7.43194E-13
 -1      2067 1.99998E+01-1.37087E-03 2.92533E-06-7.51572E-04-3.06410E-14-1.57061E-14
 -1      2068 1.99997E+01-1.13059E-03-4.02056E-06-7.34657E-04-9.48733E-14-1.48345E-14
 -1      2069 1.99997E+01-9.13486E-04 7.21936E-07-6.85319E-04-1.15919E-13-1.40269E-13
 -1      2070 1.99997E+01-6.96290E-04-5.32722E-06-6.12658E-04-2.70319E-14 2.07577E-14
 -1      2071 1.99997E+01-1.01842E-03 2.65817E-07-9.07954E-04-1.40197E-13-6.65834E-14
 -1      2072 1.99996E+01-5.38712E-04-1.07885E-06-5.11567E-04 2.96935E-14 3.50023E-13
 -1      2073 1.99996E+01-3.66285E-04-4.84401E-06-4.02841E-04 1.20872E-13 6.91223E-13
 -1      2074 1.99995E+01-3.68217E-04-3.32590E-06-4.95597E-04 1.52233E-13 5.63732E-13
 -1      2075 1.99996E+01-6.53416E-04 1.82212E-06-7.36016E-04-1.34282E-13 9.11199E-14
 -1      2076 1.99999E+01-1.80541E-03 5.26704E-06-7.05688E-04-2.89389E-13-2.88471E-13
 -1      2077 1.99998E+01-1.57674E-03-5.46118E-07-7.37564E-04-1.65439E-13-6.14595E-14
 -1      2078 1.99998E+01-1.43804E-03-1.71016E-06-9.43337E-04-1.65217E-13-2.83163E-13
 -1      2079 1.99999E+01-2.18017E-03 7.27549E-06-5.59875E-04-2.59750E-13-4.64046E-13
 -1      2080 1.99999E+01-1.98773E-03 2.85027E-06-6.33761E-04-3.26558E-13-2.18789E-13
 -1      2081 1.99999E+01-1.82644E-03-4.41441E-06-8.45385E-04-3.15116E-13-3.42490E-13
 -1      2082 2.00000E+01-2.44018E-03 8.46794E-06-3.39383E-04-8.90661E-14 4.23453E-14
 -1      2083 2.00000E+01-2.31387E-03 5.79462E-06-4.42567E-04-9.45084E-14-2.66730E-13
 -1      2084 2.00000E+01-2.14290E-03-6.36324E-06-6.31588E-04-1.19191E-13-1.73370E-13
 -1      2085 2.00000E+01-2.55425E-03 8.66750E-06-7.54977E-05-2.22369E-13 2.56357E-13
 -1      2086 2.00000E+01-2.51071E-03 7.77743E-06-1.93730E-04-1.78347E-13 2.20742E-13
 -1      2087 2.00001E+01-2.34775E-03-7.62501E-06-3.35680E-04-8.56897E-14 9.17557E-14
 -1      2088 2.00000E+01-2.50887E-03 7.77895E-06 1.97861E-04-3.27447E-13-7.39286E-14
 -1      2089 2.00000E+01-2.55378E-03 8.66293E-06 7.97357E-05-1.97682E-13 2.14449E-13
 -1      2090 2.00001E+01-2.41806E-03-8.05646E-06 2.62947E-06-4.08975E-13 2.65965E-13
 -1      2091 2.00000E+01-2.30981E-03 5.85170E-06 4.46104E-04-3.33494E-13-9.22992E-14
 -1      2092 2.00000E+01-2.43748E-03 8.39806E-06 3.43298E-04-3.40494E-13 6.18449E-14
 -1      2093 2.00001E+01-2.34592E-03-7.59803E-06 3.40690E-04-2.49635E-13-1.02342E-13
 -1      2094 1.99999E+01-1.98839E-03 2.90678E-06 6.33652E-04-1.50710E-13-5.90033E-13
 -1      2095 1.99999E+01-2.17810E-03 7.22047E-06 5.61241E-04-3.23367E-13-4.19530E-13
 -1      2096 2.00000E+01-2.14172E-03-6.43555E-06 6.33813E-04-3.14910E-13-1.83909E-13
 -1      2097 1.99998E+01-1.57362E-03-6.18802E-07 7.38196E-04-9.53706E-14 1.02363E-13
 -1      2098 1.99999E+01-1.80639E-03 5.29192E-06 7.05985E-04-6.13663E-14-8.29848E-14
 -1      2099 1.99999E+01-1.82762E-03-4.37459E-06 8.45459E-04-1.02865E-13-4.16781E-13
 -1      2100 1.99997E+01-1.12256E-03-4.01773E-06 7.33896E-04-6.28402E-14 3.37582E-14
 -1      2101 1.99998E+01-1.36337E-03 2.99034E-06 7.52075E-04-4.05989E-14-2.16296E-13
 -1      2102 1.99998E+01-1.43548E-03-1.87001E-06 9.44011E-04 2.35076E-14-1.40561E-14
 -1      2103 1.99997E+01-6.79951E-04-2.14160E-06 6.12864E-04-2.39453E-13 2.97922E-14
 -1      2104 1.99997E+01-9.06281E-04 9.90589E-07 6.83220E-04-1.34284E-13-4.27223E-14
 -1      2105 1.99997E+01-1.01318E-03 4.20566E-08 9.05287E-04-5.98355E-14 2.46030E-14
 -1      2106 1.05866E+01-4.66022E+00-1.59626E-01 6.59966E+00 5.31686E-13 7.21645E-13
 -1      2107 7.17062E+00-6.13527E+00-3.77046E-01 5.51710E+00 3.65818E-13 6.09582E-13
 -1      2108 9.27657E-01-5.52640E+00-2.17088E-01 1.12704E+00 3.64292E-14 7.78655E-13
 -1      2109 8.35907E-01-6.11997E+00-3.09092E-01-8.26833E-01-6.59472E-14 8.69360E-13
 -1      2110 4.08126E+00-5.94988E+00-2.90866E-01 4.66462E+00 3.27738E-13 6.97831E-13
 -1      2111 1.96981E+00-6.37998E+00-3.50552E-01 3.25788E+00 7.19702E-14 7.47458E-13
 -1      2112 1.90770E+01-2.94998E+00-5.35546E-03 7.13062E+00 5.21361E-13 4.69624E-13
 -1      2113 1.42895E+01-4.63408E+00-3.02731E-01 6.42079E+00 4.84057E-13 6.35686E-13
 -1      2114 2.79228E+01 2.38280E-01 2.09374E-01 6.19206E+00 7.25087E-13 2.00839E-13
 -1      2115 2.32145E+01-1.83739E+00-1.31664E-01 5.87368E+00 6.16451E-13 2.64955E-13
 -1      2116 1.86326E+01 3.91250E+00-3.86253E-02-1.35244E-01-1.55360E-13-4.10581E-13
 -1      2117 1.98432E+01 3.88205E+00-8.45971E-03-4.01819E-01-1.98962E-13-3.36054E-13
 -1      2118 2.07441E+01 3.00156E+00-1.74797E-02-3.86889E-01-2.02666E-13-2.63324E-13
 -1      2119 1.82172E+01 3.54176E+00-2.10958E-02 1.02567E-01-1.38495E-13-4.08023E-13
 -1      2120 3.83180E+01 5.63529E+00 2.44571E-01 2.02702E+00 7.16427E-13-1.63480E-13
 -1      2121 3.61581E+01 4.69876E+00 2.21626E-01 3.32070E+00 6.92502E-13 7.34413E-14
 -1      2122 3.88212E+01 7.37184E+00 1.94171E-01 1.98902E-01 7.53064E-13-3.46943E-13
 -1      2123 3.85641E+01 6.96009E+00 2.38639E-01 1.15865E+00 7.55784E-13-1.65951E-13
 -1      2124 3.84346E+01 6.51710E+00 2.35108E-01-1.19971E+00 9.09384E-13-4.69291E-13
 -1      2125 3.87858E+01 7.16355E+00 1.84728E-01-5.93631E-02 8.46601E-13-3.10627E-13
 -1      2126 3.47206E+01 4.21072E+00 8.76912E-02-2.78017E+00 8.75855E-13-5.71654E-13
 -1      2127 3.80168E+01 5.31761E+00 2.86268E-01-2.02363E+00 8.89955E-13-4.87999E-13
 -1      2128 3.49293E+01 6.42345E+00 2.74685E-01 2.09402E-01 8.64697E-13-1.48048E-13
 -1      2129 2.79365E+01 6.47831E-01-6.02060E-02-5.01183E+00 8.28781E-13-7.23643E-13
 -1      2130 3.24463E+01 2.04284E+00 1.54125E-01-4.27974E+00 8.08395E-13-5.96634E-13
 -1      2131 2.02828E+01-2.15102E+00-1.81096E-01-6.06562E+00 6.44595E-13-7.68552E-13
 -1      2132 2.51519E+01-3.64344E-01 1.05798E-01-6.44200E+00 7.94920E-13-8.06799E-13
 -1      2133 2.78430E+01-1.36641E+00 1.18503E-01-3.77108E+00 4.56940E-13-3.11973E-13
 -1      2134 1.09105E+01-4.10639E+00-3.29097E-01-6.09958E+00 5.13867E-13-9.20798E-13
 -1      2135 1.54075E+01-2.59225E+00-7.24472E-02-7.08822E+00 6.38600E-13-9.40137E-13
 -1      2136 4.80909E+00-4.68669E+00-2.94729E-01-4.76667E+00 1.73750E-13-9.18210E-13
 -1      2137 7.74624E+00-3.80149E+00-1.49255E-01-6.00244E+00 4.28269E-13-9.61314E-13
 -1      2138 7.34003E-01-5.23288E+00-3.73966E-01-1.75053E+00-7.56756E-14-9.46354E-13
 -1      2139 1.99661E+00-4.45548E+00-2.58051E-01-3.31452E+00 1.92013E-13-9.52238E-13
 -1      2140 1.07464E+00-4.68873E+00-2.78736E-01 1.53703E+00-3.17246E-13-9.60787E-13
 -1      2141 4.41820E-01-5.07213E+00-3.47696E-01-9.45374E-02-7.27925E-14-9.71889E-13
 -1      2142 5.93612E+00-4.11653E+00-1.80348E-01 4.89949E+00-3.91409E-13-9.01335E-13
 -1      2143 3.08178E+00-4.91005E+00-3.34370E-01 3.18085E+00-2.79526E-13-9.27758E-13
 -1      2144 1.35196E+01-3.84100E+00-1.49549E-01 6.37501E+00-8.11351E-13-9.78440E-13
 -1      2145 1.00448E+01-4.77189E+00-2.18572E-01 5.77979E+00-5.63494E-13-8.55246E-13
 -1      2146 2.23789E+01-2.38171E+00-1.23624E-02 6.28256E+00-7.99416E-13-9.02833E-13
 -1      2147 1.71079E+01-3.78809E+00-3.09385E-01 5.83563E+00-7.97640E-13-9.36251E-13
 -1      2148 1.81097E+01-4.57883E+00-4.85738E-02 6.11141E+00-3.06088E-13-6.62720E-13
 -1      2149 3.13291E+01 4.44844E-01 1.86869E-01 4.61246E+00-9.08107E-13-7.64278E-13
 -1      2150 2.65002E+01-1.38634E+00-1.41897E-01 4.58320E+00-8.54150E-13-7.61502E-13
 -1      2151 3.67336E+01 3.28956E+00 2.01862E-01 2.23260E+00-9.34086E-13-4.79117E-13
 -1      2152 3.32948E+01 1.91529E+00 4.22067E-02 3.30222E+00-9.35980E-13-7.04437E-13
 -1      2153 3.21247E+01 9.77834E-03 1.79642E-01 1.35581E+00-6.88255E-13-2.49911E-13
 -1      2154 4.01414E+01 6.34518E+00 3.45920E-01 4.29959E-01-9.53904E-13-3.16774E-13
 -1      2155 3.77968E+01 5.40166E+00 1.57009E-01 1.11175E+00-9.88487E-13-4.36873E-13
 -1      2156 4.08798E+01 7.12994E+00 3.22262E-01-7.00980E-01-8.74800E-13-1.12632E-13
 -1      2157 4.08422E+01 7.09061E+00 3.13870E-01 3.14567E-01-9.24982E-13-3.19911E-13
 -1      2158 3.77161E+01 5.39566E+00 1.64167E-01-1.56857E+00-8.34055E-13 4.25215E-14
 -1      2159 4.01770E+01 6.40742E+00 3.57539E-01-8.60752E-01-8.30225E-13-1.08302E-13
 -1      2160 3.27307E+01 1.75584E+00 5.57417E-02-3.60063E+00-7.48582E-13 3.26073E-13
 -1      2161 3.66597E+01 3.29311E+00 2.41042E-01-2.76123E+00-7.73964E-13 1.04805E-13
 -1      2162 2.46366E+01-1.73983E+00-1.69020E-01-5.54407E+00-6.67633E-13 5.56888E-13
 -1      2163 2.98948E+01 1.87122E-02 1.66298E-01-5.44182E+00-6.41154E-13 4.60965E-13
 -1      2164 1.62360E+01-4.76934E+00-2.84328E-01-6.08158E+00-5.06595E-13 6.23557E-13
 -1      2165 2.11919E+01-2.85330E+00 2.50846E-02-6.76789E+00-6.23501E-13 5.68878E-13
 -1      2166 7.03199E+00-6.59691E+00-4.75153E-01-5.03089E+00-4.19276E-13 6.88130E-13
 -1      2167 1.12052E+01-4.85745E+00-1.90356E-01-6.45561E+00-5.78426E-13 7.16059E-13
 -1      2168 1.52345E+00-7.08511E+00-4.54613E-01-2.58260E+00 2.05114E-14 8.85181E-13
 -1      2169 3.64008E+00-6.39937E+00-3.70915E-01-4.06991E+00-2.98872E-13 7.84900E-13
 -1      2170 3.45536E+01 3.12660E+00 3.06833E-01 4.52990E+00 6.99102E-13 1.45106E-13
 -1      2171 3.03845E+01 1.67577E+00 1.48824E-02 4.93827E+00 7.73048E-13 1.86295E-13
 -1      2172 2.30948E+01-3.82893E+00 4.12865E-02 5.78456E+00 2.52576E-13 3.32789E-14
 -1      2173 2.56798E+01 8.57792E-01-3.42804E-02-7.93601E-01-2.70787E-13 3.40981E-13
 -1      2174 2.98346E+01-5.21821E-01 1.60334E-01 3.41391E+00 5.05609E-13-1.44496E-13
 -1      2175 3.38494E+01 3.35787E+00 2.74304E-01 1.48174E+00 6.46649E-13-2.19602E-13
 -1      2176 2.49048E+01 9.11724E-01-2.64983E-02-7.69634E-01-2.78378E-13 1.61461E-13
 -1      2177 7.52771E+00-5.09976E+00-1.49357E-01 6.08676E+00 2.85327E-14 6.74821E-13
 -1      2178 2.81048E+00-4.07557E+00-1.27110E-01 2.50003E+00-7.83956E-14 8.40494E-13
 -1      2179 1.99996E+01-5.53717E-04-3.38182E-06 5.86555E-04-1.47282E-13 3.05467E-13
 -1      2180 1.49394E+01-5.14974E+00-4.39877E-02 7.07845E+00 9.86988E-14 4.47021E-13
 -1      2181 2.61097E+00-4.25094E+00-1.68429E-01-2.16924E+00 5.60246E-14 8.85292E-13
 -1      2182 7.31325E+00-5.42120E+00-1.89360E-01-5.65274E+00-7.37743E-14 8.23619E-13
 -1      2183 1.63183E+01-5.44406E+00-3.23432E-02-6.66120E+00-1.72418E-13 4.32133E-13
 -1      2184 2.50323E+01-4.10830E+00 1.35621E-02-4.94351E+00-2.66287E-13 2.00728E-13
 -1      2185 3.15689E+01-3.90823E-01 2.07680E-01-2.34824E+00-4.76189E-13-1.28786E-14
 -1      2186 3.50877E+01 4.10837E+00 2.52940E-01-7.16262E-03-7.35190E-13-2.41585E-13
 -1      2187 3.64061E+01 7.49675E+00 3.20950E-01 2.71873E-01-9.32421E-13-2.13218E-13
 -1      2188 3.50934E+01 4.10059E+00 2.19518E-01-3.66140E-01-8.92647E-13-1.18905E-13
 -1      2189 2.62192E+01-3.24335E+00 4.98632E-02 4.19170E+00-4.94438E-13-4.65961E-13
 -1      2190 9.36458E+00-4.03222E+00-8.30965E-02 5.58981E+00-2.59626E-13-8.24160E-13
 -1      2191 9.23240E+00-2.54676E+00 1.41634E-01 5.54929E+00 3.21410E-14-7.75963E-13
 -1      2192 1.28911E+01-3.93235E+00-1.15499E-01 6.29910E+00-2.49800E-14-6.34964E-13
 -1      2193 3.64730E+00-2.65518E+00-6.85967E-02 2.92999E+00-8.17957E-14-1.00392E-12
 -1      2194 1.77446E+00-2.72164E+00-1.51117E-01-1.08068E+00-8.13100E-14-1.07386E-12
 -1      2195 5.00691E+00-3.07911E+00-9.73495E-02-4.86659E+00-2.15106E-14-1.00553E-12
 -1      2196 2.01042E+01-3.42768E+00-1.10427E-02-6.26408E+00 2.59348E-13-5.94469E-13
 -1      2197 3.27761E+01 2.43646E+00 1.92228E-01-1.29091E+00 6.58210E-13-1.67588E-13
 -1      2198 3.52527E+01 6.74413E+00 2.54136E-01 2.37367E-01 7.88702E-13-2.47274E-13
 -1      2199 3.52253E+01 7.96270E+00 2.12275E-01 1.97754E-01 8.25451E-13-2.47732E-13
 -1      2200 1.14908E+01-3.83765E+00-1.04199E-01-6.73306E+00 6.93889E-14-8.56870E-13
 -1      2201 3.63820E+01 7.46147E+00 3.07649E-01-6.53307E-01-9.59954E-13-1.47549E-13
 -1      2202 2.31884E+01-1.11160E-03-7.16390E-03 1.20306E+00 2.42155E-13 3.11303E-13
 -1      2203 2.35405E+01 2.27926E-01 2.09113E-02 1.29178E+00 2.89557E-13 3.41607E-13
 -1      2204 1.36304E+01 4.34734E+00-1.59301E-02 1.69970E-02-2.36985E-14-5.97801E-13
 -1      2205 1.43183E+01 4.24012E+00 1.95193E-02 2.62525E-01-2.88519E-14-5.75362E-13
 -1      2206 1.52725E+01 3.79982E+00-2.98422E-02 5.48647E-01-2.89241E-14-5.19605E-13
 -1      2207 1.64491E+01 3.58831E+00 2.25199E-02 5.77407E-01-6.21118E-14-4.77405E-13
 -1      2208 1.46775E+01 3.65389E+00 1.49326E-02 6.81712E-01-2.26381E-15-5.36632E-13
 -1      2209 1.43321E+01 3.99687E+00 2.54961E-02-1.42714E+00-2.27301E-14-5.61128E-13
 -1      2210 1.36665E+01 4.17124E+00-2.28120E-02-1.25148E+00-3.62615E-14-5.86805E-13
 -1      2211 1.61842E+01 3.27668E+00 2.59105E-02-1.49335E+00 1.15348E-15-4.93834E-13
 -1      2212 1.51847E+01 3.50414E+00-2.93816E-02-1.56571E+00-1.67660E-14-5.20651E-13
 -1      2213 1.47117E+01 3.36299E+00 4.31280E-03-1.81309E+00-3.54794E-14-5.34291E-13
 -1      2214 1.81785E+01 2.62090E+00 1.40662E-02-1.00712E+00 6.96158E-14-4.11387E-13
 -1      2215 1.71808E+01 2.81857E+00-2.16925E-02-1.29083E+00 2.61700E-14-4.54549E-13
 -1      2216 1.68110E+01 2.49299E+00-1.68302E-02-1.69903E+00-6.28273E-15-4.53016E-13
 -1      2217 1.99447E+01 2.18755E+00-4.01812E-03-1.72007E-01 1.60068E-13-3.13245E-13
 -1      2218 1.91027E+01 2.32281E+00-1.28530E-02-5.77657E-01 1.10249E-13-3.52594E-13
 -1      2219 1.89270E+01 1.81668E+00-2.08757E-02-9.98603E-01 6.62018E-14-3.44121E-13
 -1      2220 2.13219E+01 1.95809E+00-2.20781E-02 7.29684E-01 2.44539E-13-1.97849E-13
 -1      2221 2.06790E+01 2.05190E+00-9.47919E-03 3.10677E-01 1.93213E-13-2.55117E-13
 -1      2222 2.06666E+01 1.44496E+00-1.38286E-02-3.55196E-02 1.50974E-13-2.35486E-13
 -1      2223 2.24105E+01 1.74955E+00-4.38367E-02 1.48539E+00 3.35649E-13-3.73347E-14
 -1      2224 2.18996E+01 1.88590E+00-1.11026E-02 1.13117E+00 2.86456E-13-1.26048E-13
 -1      2225 2.19493E+01 1.27131E+00-1.91850E-03 8.55429E-01 2.53294E-13-1.21743E-13
 -1      2226 2.27736E+01-2.24008E-01-4.47277E-03 1.27956E+00 1.94465E-13 2.41859E-13
 -1      2227 2.30979E+01-1.50433E-01 1.72148E-02 1.22095E+00 2.15015E-13 3.00121E-13
 -1      2228 2.32256E+01-6.26634E-02-2.51663E-04 1.39860E+00 2.64939E-13 1.98473E-13
 -1      2229 2.46112E+01 8.08832E-03 3.29256E-02-2.18282E-01-1.74566E-13 1.03804E-13
 -1      2230 2.45909E+01-4.81882E-01-2.63690E-02-2.09925E-01-1.36003E-13 1.12370E-13
 -1      2231 3.01573E+01-6.49305E-01-7.45216E-02 1.69784E+00 4.11255E-13-3.54938E-13
 -1      2232 2.80736E+01-2.30918E+00-2.72666E-02 2.61689E+00 2.79048E-13-3.36398E-13
 -1      2233 2.50601E+01-8.77100E-01 3.77944E-02-3.53450E-01-8.80143E-14 1.63038E-13
 -1      2234 2.50929E+01-1.24392E+00-3.09831E-02-6.52226E-01-6.18325E-14 1.68148E-13
 -1      2235 2.42645E+01-8.35751E-01-2.46414E-02-7.37600E-02-1.06729E-13 7.57855E-14
 -1      2236 2.56772E+01-1.44766E+00 2.04749E-02-1.12988E+00-5.87809E-14 2.26113E-13
 -1      2237 2.56576E+01-1.46112E+00-2.90655E-02-1.59949E+00-6.91610E-14 1.97973E-13
 -1      2238 2.52295E+01-1.73187E+00-3.02179E-02-6.22495E-01-4.59069E-14 1.23902E-13
 -1      2239 2.61034E+01-1.19666E+00-2.61171E-02-2.22443E+00-9.41556E-14 2.22933E-13
 -1      2240 2.59401E+01-5.96956E-01-1.76783E-02-2.55664E+00-1.94584E-13 2.01623E-13
 -1      2241 2.63030E+01-1.71075E+00-1.79260E-02-1.75053E+00-9.47107E-14 1.78836E-13
 -1      2242 2.59638E+01 2.84441E-01-8.34950E-02-2.82163E+00-2.85431E-13 1.71444E-13
 -1      2243 2.56962E+01 1.36678E+00-4.89962E-03-2.59262E+00-3.54293E-13 1.42143E-13
 -1      2244 2.69303E+01-2.10550E-01-3.02205E-02-2.78565E+00-2.71075E-13 1.33338E-13
 -1      2245 2.53693E+01 2.33277E+00-1.16146E-01-1.90677E+00-4.54373E-13 5.85660E-14
 -1      2246 2.52153E+01 3.03890E+00-4.51276E-02-1.02546E+00-5.07969E-13-6.78884E-14
 -1      2247 2.68005E+01 2.44021E+00-6.15227E-02-2.57483E+00-4.68431E-13 8.73607E-14
 -1      2248 2.50993E+01 3.16339E+00-7.62967E-02 3.19597E-01-5.01682E-13-2.31577E-13
 -1      2249 2.51733E+01 2.72239E+00-1.14192E-01 1.28710E+00-4.80900E-13-3.20270E-13
 -1      2250 2.65700E+01 4.09149E+00-5.50676E-02-4.64649E-01-6.18824E-13-1.68476E-13
 -1      2251 2.54403E+01 1.87010E+00-1.30079E-02 2.23717E+00-4.09124E-13-3.75831E-13
 -1      2252 2.56706E+01 7.40324E-01-9.82971E-02 2.63064E+00-2.97921E-13-3.81022E-13
 -1      2253 2.65968E+01 3.08858E+00-8.42688E-02 2.03907E+00-5.10286E-13-3.51684E-13
 -1      2254 2.57116E+01-2.60300E-01-7.09273E-03 2.48045E+00-1.74073E-13-4.14828E-13
 -1      2255 2.58006E+01-1.06171E+00-5.20827E-02 2.22167E+00-7.34499E-14-3.93656E-13
 -1      2256 2.67585E+01 7.59405E-02-4.16963E-02 2.65136E+00-2.34370E-13-4.21718E-13
 -1      2257 2.54178E+01-1.53581E+00-1.95891E-02 1.56674E+00-6.75328E-15-3.63890E-13
 -1      2258 2.53331E+01-1.73496E+00-1.92997E-04 9.99795E-01 9.46782E-14-3.69424E-13
 -1      2259 2.61842E+01-1.65470E+00-1.32749E-02 1.75406E+00-4.27089E-15-3.78003E-13
 -1      2260 2.46624E+01-1.69167E+00-3.18130E-02 3.14099E-01 8.39632E-14-3.05689E-13
 -1      2261 2.44497E+01-1.48650E+00 1.94631E-02-2.02486E-01 1.13884E-13-2.09505E-13
 -1      2262 2.50353E+01-2.23700E+00-2.33513E-02 2.91235E-01 1.07905E-13-2.55324E-13
 -1      2263 2.38221E+01-1.22786E+00-2.46825E-02-6.47699E-01 1.05038E-13-2.31892E-13
 -1      2264 2.35455E+01-9.24666E-01 1.81724E-02-9.88388E-01-1.07941E-14-2.00194E-13
 -1      2265 2.37649E+01-1.77022E+00-2.69678E-02-8.15724E-01 1.09769E-13-1.66048E-13
 -1      2266 2.30759E+01-6.60550E-01-1.46446E-02-1.20006E+00-8.55960E-14-1.76610E-13
 -1      2267 2.27926E+01-4.10502E-01 1.18851E-02-1.36615E+00-1.05601E-14-1.63734E-13
 -1      2268 2.27453E+01-1.03485E+00-2.24993E-02-1.42526E+00 8.10311E-15-1.99189E-13
 -1      2269 2.24738E+01-2.19218E-01-6.00327E-03-1.41798E+00-5.96268E-15-9.90484E-14
 -1      2270 2.22082E+01-5.86709E-02 6.41244E-03-1.45684E+00-1.31298E-14-1.12400E-13
 -1      2271 2.20275E+01-4.13375E-01-1.47438E-02-1.65124E+00 1.15246E-14-1.31537E-13
 -1      2272 2.19966E+01 5.38559E-02-1.23220E-04-1.41645E+00-1.96781E-14-9.85956E-14
 -1      2273 2.17572E+01 1.38025E-01 2.83193E-03-1.37895E+00 5.34764E-14-1.45826E-13
 -1      2274 2.15427E+01-5.92308E-03-8.27569E-03-1.63799E+00-1.12937E-14-6.97382E-14
 -1      2275 2.16118E+01 1.91892E-01 3.23800E-03-1.29376E+00 3.45312E-14-1.95092E-13
 -1      2276 2.14011E+01 2.24977E-01 9.12964E-04-1.21863E+00-1.50284E-14-1.49355E-13
 -1      2277 2.12083E+01 2.13627E-01-4.33577E-03-1.49655E+00 3.22332E-14-1.23242E-13
 -1      2278 2.12945E+01 2.42337E-01 4.83623E-03-1.11759E+00-7.28019E-14-1.46473E-13
 -1      2279 2.11129E+01 2.45993E-01 5.41632E-05-1.02981E+00-2.65202E-14-2.00337E-13
 -1      2280 2.09635E+01 3.04990E-01-2.32119E-03-1.29887E+00-3.86276E-14-1.20480E-13
 -1      2281 2.10299E+01 2.43489E-01 5.30412E-03-9.29214E-01 6.60152E-14-2.06222E-13
 -1      2282 2.08765E+01 2.32425E-01-2.38995E-04-8.42996E-01 1.18516E-13-2.26081E-13
 -1      2283 2.07727E+01 3.20977E-01-1.44266E-03-1.08774E+00-4.40208E-15-1.52265E-13
 -1      2284 2.08091E+01 2.20642E-01 5.11277E-03-7.51100E-01 1.16838E-13-2.34141E-13
 -1      2285 2.06821E+01 2.03659E-01-2.71353E-04-6.73450E-01 1.15658E-13-3.22027E-13
 -1      2286 2.06174E+01 2.98218E-01-1.12267E-03-8.86734E-01 8.93982E-14-2.44555E-13
 -1      2287 2.06265E+01 1.88646E-01 4.58602E-03-5.93724E-01 1.23112E-13-3.26674E-13
 -1      2288 2.05233E+01 1.70520E-01-2.06400E-04-5.27316E-01 5.29088E-14-2.73674E-13
 -1      2289 2.04885E+01 2.59039E-01-1.02378E-03-7.07354E-01 6.08543E-14-3.63122E-13
 -1      2290 2.04773E+01 1.55427E-01 3.92825E-03-4.60506E-01 9.62849E-14-2.03510E-13
 -1      2291 2.03951E+01 1.38488E-01-1.21976E-04-4.05631E-01 6.90377E-14-1.33652E-13
 -1      2292 2.03813E+01 2.15800E-01-9.81712E-04-5.53832E-01 1.49493E-13-2.04637E-13
 -1      2293 2.03574E+01 1.24775E-01 3.25799E-03-3.51050E-01-7.35303E-14-1.42195E-13
 -1      2294 2.02929E+01 1.09980E-01-4.95235E-05-3.06824E-01-1.09138E-13-8.89336E-14
 -1      2295 2.02929E+01 1.74702E-01-9.31740E-04-4.26297E-01 1.96383E-14-1.80857E-13
 -1      2296 2.02626E+01 9.81850E-02 2.63718E-03-2.63127E-01-1.28807E-13-1.32969E-13
 -1      2297 2.02129E+01 8.57755E-02 2.20084E-06-2.28179E-01-1.35383E-13-8.00605E-14
 -1      2298 2.02211E+01 1.38420E-01-8.57896E-04-3.22749E-01-1.41830E-13-6.86026E-14
 -1      2299 2.01888E+01 7.59692E-02 2.09307E-03-1.93794E-01-1.35239E-13-1.63710E-13
 -1      2300 2.01511E+01 6.58363E-02 3.42046E-05-1.66641E-01-9.29515E-14-1.63700E-13
 -1      2301 2.01636E+01 1.07749E-01-7.64167E-04-2.40251E-01-1.95324E-13-1.84143E-13
 -1      2302 2.01324E+01 5.78734E-02 1.63310E-03-1.40009E-01-7.55311E-14-1.74935E-13
 -1      2303 2.01043E+01 4.97620E-02 5.07962E-05-1.19241E-01-1.58032E-14-1.75217E-13
 -1      2304 2.01185E+01 8.25532E-02-6.60205E-04-1.75612E-01-8.02920E-14-1.76994E-13
 -1      2305 2.00899E+01 4.34119E-02 1.25415E-03-9.89294E-02-7.32015E-15-2.56116E-13
 -1      2306 2.00694E+01 3.70230E-02 5.66625E-05-8.32913E-02-1.52276E-14-2.61097E-13
 -1      2307 2.00836E+01 6.22805E-02-5.55217E-04-1.25754E-01-4.20023E-14-2.80373E-13
 -1      2308 2.00587E+01 3.20360E-02 9.48155E-04-6.80424E-02 3.52760E-14-2.74392E-13
 -1      2309 2.00440E+01 2.70765E-02 5.57544E-05-5.64587E-02 2.75708E-14-1.50043E-13
 -1      2310 2.00573E+01 4.62406E-02-4.55954E-04-8.78923E-02-8.15600E-15-3.79367E-13
 -1      2311 2.00361E+01 2.32151E-02 7.05210E-04-4.52036E-02 4.55313E-15-2.22935E-13
 -1      2312 2.00259E+01 1.94191E-02 5.10185E-05-3.67770E-02-1.14275E-14-2.36815E-13
 -1      2313 2.00377E+01 3.37366E-02-3.66525E-04-5.96022E-02-2.26516E-14-3.75699E-13
 -1      2314 2.00202E+01 1.64711E-02 5.15248E-04-2.86258E-02-6.01391E-14-1.55269E-13
 -1      2315 2.00133E+01 1.36076E-02 4.44804E-05-2.26223E-02-9.71425E-16-6.49249E-14
 -1      2316 2.00234E+01 2.41263E-02-2.88879E-04-3.88333E-02 5.09674E-14-1.53624E-13
 -1      2317 2.00093E+01 1.13901E-02 3.68887E-04-1.68478E-02-9.95280E-14 2.39219E-15
 -1      2318 2.00049E+01 9.26374E-03 3.74381E-05-1.26765E-02-7.82309E-14 5.44734E-14
 -1      2319 2.00133E+01 1.68462E-02-2.23430E-04-2.38868E-02-2.08730E-14 2.15807E-14
 -1      2320 2.00022E+01 7.62251E-03 2.57792E-04-8.69400E-03-1.70178E-14-6.80782E-14
 -1      2321 1.99995E+01 6.07116E-03 3.06615E-05-5.88591E-03 5.28613E-16-1.00109E-13
 -1      2322 2.00064E+01 1.14160E-02-1.69609E-04-1.33794E-02-1.36586E-13 3.00238E-14
 -1      2323 1.99978E+01 4.87852E-03 1.74792E-04-3.23195E-03-1.41137E-14-7.24998E-14
 -1      2324 1.99963E+01 3.76976E-03 2.45596E-05-1.42024E-03-1.13645E-13-1.83473E-13
 -1      2325 2.00018E+01 7.43477E-03-1.26294E-04-6.20293E-03-6.82182E-14-6.39467E-14
 -1      2326 1.99952E+01 2.92158E-03 1.13854E-04 2.67239E-04-1.76291E-13-1.79648E-13
 -1      2327 1.99946E+01 2.14863E-03 1.93068E-05 1.36565E-03-1.38535E-13-2.08550E-13
 -1      2328 1.99989E+01 4.57329E-03-9.21109E-05-1.48243E-03-1.34017E-13-1.17259E-13
 -1      2329 1.99940E+01 1.56107E-03 6.99939E-05 2.36532E-03-1.70454E-14-8.89166E-14
 -1      2330 1.99939E+01 1.03895E-03 1.49325E-05 2.96565E-03 1.06756E-13 3.54946E-14
 -1      2331 1.99972E+01 2.56488E-03-6.56309E-05 1.46281E-03-3.67064E-14-1.19184E-13
 -1      2332 1.99936E+01 6.45394E-04 3.91601E-05 3.48868E-03 1.19986E-13 7.13130E-14
 -1      2333 1.99939E+01 3.07323E-04 1.13815E-05 3.75191E-03 8.95841E-14 1.46389E-13
 -1      2334 1.99964E+01 1.19641E-03-4.54888E-05 3.15440E-03 1.13501E-13-1.73713E-14
 -1      2335 1.99938E+01 5.54783E-05 1.81069E-05 3.95560E-03 3.57825E-14 4.01484E-14
 -1      2336 1.99943E+01-1.50386E-04 8.55266E-06 3.99997E-03 1.21324E-13 8.45883E-14
 -1      2337 1.99961E+01 2.99702E-04-3.04500E-05 3.98563E-03 8.78791E-14 3.17664E-14
 -1      2338 1.99944E+01-3.01046E-04 4.27163E-06 3.99925E-03 3.05665E-13-3.83094E-14
 -1      2339 1.99949E+01-4.14457E-04 6.32271E-06 3.90970E-03 2.93809E-13 9.38791E-14
 -1      2340 1.99962E+01-2.56311E-04-1.94398E-05 4.24774E-03 1.08737E-13-4.15415E-14
 -1      2341 1.99951E+01-4.94988E-04-4.33887E-06 3.78653E-03 2.02012E-13 6.31583E-14
 -1      2342 1.99956E+01-5.46097E-04 4.55922E-06 3.62238E-03 1.33342E-13 2.60778E-13
 -1      2343 1.99965E+01-5.72551E-04-1.15502E-05 4.15189E-03 1.99851E-13-1.70727E-13
 -1      2344 1.99958E+01-5.80074E-04-9.25013E-06 3.43343E-03 4.28809E-14 2.66970E-13
 -1      2345 1.99963E+01-5.91578E-04 3.12738E-06 3.23451E-03 2.49196E-14 3.54740E-13
 -1      2346 1.99969E+01-7.25896E-04-6.03461E-06 3.84726E-03 1.16999E-13 7.96285E-14
 -1      2347 1.99965E+01-5.96823E-04-1.16061E-05 3.01721E-03-4.31427E-14 3.81127E-13
 -1      2348 1.99970E+01-5.85796E-04 1.89397E-06 2.80858E-03 3.05195E-14 1.85524E-13
 -1      2349 1.99974E+01-7.74460E-04-2.29767E-06 3.43555E-03-1.52198E-14 1.44788E-13
 -1      2350 1.99972E+01-5.75854E-04-1.22470E-05 2.58589E-03 2.53229E-13 1.00260E-13
 -1      2351 1.99976E+01-5.55273E-04 7.34596E-07 2.38146E-03 3.07577E-13 6.75072E-14
 -1      2352 1.99978E+01-7.62107E-04 1.17042E-07 2.98246E-03-1.45893E-14 5.27428E-14
 -1      2353 1.99978E+01-5.40613E-04-1.17687E-05 2.16541E-03 1.54722E-13 2.99880E-14
 -1      2354 1.99982E+01-5.20436E-04-4.20882E-07 1.97069E-03 1.12014E-14 8.14744E-14
 -1      2355 1.99982E+01-7.22204E-04 1.53405E-06 2.52664E-03 1.58027E-13 1.72961E-14
 -1      2356 1.99984E+01-5.08994E-04-1.05450E-05 1.76523E-03-6.27460E-15 1.19356E-14
 -1      2357 1.99987E+01-4.96635E-04-1.58220E-06 1.57984E-03-4.27025E-15 2.00349E-13
 -1      2358 1.99986E+01-6.80047E-04 2.21331E-06 2.08646E-03-2.33369E-14 1.37215E-14
 -1      2359 1.99988E+01-4.93831E-04-8.77871E-06 1.38347E-03-5.42488E-14 3.68368E-13
 -1      2360 1.99991E+01-4.93941E-04-3.67625E-06 1.20342E-03-6.68367E-14 3.70963E-13
 -1      2361 1.99990E+01-6.54058E-04 2.24142E-06 1.66624E-03 7.04119E-14 6.70224E-14
 -1      2362 2.18095E+01 1.34074E-01 1.23607E-02 1.48906E+00 1.16538E-13 1.53987E-13
 -1      2363 2.21157E+01-4.24168E-02-2.87236E-03 1.51337E+00 1.17849E-13 1.97916E-13
 -1      2364 2.13007E+01 5.51573E-01 1.90372E-02 1.18391E+00 1.81951E-13 9.02889E-14
 -1      2365 2.15526E+01 3.36828E-01-5.02093E-03 1.37571E+00 1.44403E-13 1.26472E-13
 -1      2366 2.22431E+01 3.40442E-01 2.65453E-03 1.67170E+00 1.58872E-13 7.93385E-14
 -1      2367 2.09406E+01 8.64424E-01 1.51963E-02 4.97973E-01 2.37328E-13 3.44236E-14
 -1      2368 2.10746E+01 7.36781E-01-4.05822E-04 8.43994E-01 2.11045E-13 6.44931E-14
 -1      2369 2.17777E+01 8.88786E-01-6.46773E-03 1.20132E+00 2.07396E-13 6.33246E-14
 -1      2370 2.08784E+01 8.77628E-01 4.81952E-03-3.64197E-01 2.17350E-13-2.27253E-14
 -1      2371 2.08625E+01 9.15333E-01 1.00828E-02 2.20690E-02 2.28264E-13 1.30668E-15
 -1      2372 2.14834E+01 1.21071E+00-1.56066E-02 3.22957E-01 2.69473E-13-2.41071E-14
 -1      2373 2.11365E+01 5.68611E-01-4.42168E-03-1.08302E+00 1.34701E-13-9.84772E-14
 -1      2374 2.09819E+01 7.58386E-01 1.92627E-02-8.00302E-01 2.08517E-13-4.41327E-14
 -1      2375 2.15026E+01 1.11341E+00-1.15056E-02-6.69309E-01 2.28671E-13-8.98463E-14
 -1      2376 2.15663E+01 1.13356E-01-9.29128E-03-1.40773E+00 1.03707E-13-1.38003E-13
 -1      2377 2.13351E+01 3.47079E-01 1.67291E-02-1.31182E+00 1.06696E-13-1.09844E-13
 -1      2378 2.17893E+01 6.31665E-01-2.70956E-04-1.37520E+00 1.61243E-13-1.87085E-13
 -1      2379 2.19685E+01-2.70737E-01-7.99288E-03-1.30860E+00 9.63515E-14-2.08182E-13
 -1      2380 2.17384E+01-9.66213E-02 6.30264E-03-1.38834E+00 1.30209E-13-1.46386E-13
 -1      2381 2.21395E+01 2.52887E-02 8.35588E-03-1.57966E+00 1.12554E-13-2.28177E-13
 -1      2382 2.22088E+01-4.67240E-01-4.15690E-03-9.30091E-01 6.23958E-14-2.34094E-13
 -1      2383 2.20380E+01-3.94292E-01-4.77729E-03-1.11296E+00 7.84832E-14-2.21449E-13
 -1      2384 2.23605E+01-4.44757E-01 9.70159E-03-1.33134E+00 8.94153E-14-2.16146E-13
 -1      2385 2.22583E+01-4.84348E-01-8.37032E-04-4.61569E-01 4.37367E-14-1.88609E-13
 -1      2386 2.21723E+01-4.95677E-01-1.13599E-02-6.68624E-01 6.58462E-14-1.94280E-13
 -1      2387 2.23815E+01-6.57576E-01 6.26257E-03-8.39521E-01 4.87665E-14-1.89282E-13
 -1      2388 2.21553E+01-3.92523E-01 9.07452E-04-4.13549E-02-1.16144E-14-1.73125E-13
 -1      2389 2.21512E+01-4.49016E-01-1.28306E-02-2.19392E-01 2.46396E-14-1.54129E-13
 -1      2390 2.22375E+01-6.44798E-01 2.13158E-03-3.12198E-01-6.50868E-15-1.97890E-13
 -1      2391 2.19564E+01-2.62897E-01 1.43784E-03 2.66072E-01-1.76586E-14-1.88177E-13
 -1      2392 2.20161E+01-3.30680E-01-1.09473E-02 1.39806E-01-2.02590E-14-1.55854E-13
 -1      2393 2.19986E+01-5.04345E-01-6.97811E-04 1.23440E-01-1.40504E-14-1.78469E-13
 -1      2394 2.17104E+01-1.41245E-01 1.41194E-03 4.51630E-01 3.17201E-14-2.35195E-13
 -1      2395 2.18116E+01-2.00669E-01-7.65793E-03 3.78222E-01 2.22084E-14-1.73692E-13
 -1      2396 2.17247E+01-3.26447E-01-1.93512E-03 4.21323E-01-1.13321E-15-2.22377E-13
 -1      2397 2.14517E+01-4.75873E-02 1.20947E-03 5.35124E-01 2.49936E-14-2.34715E-13
 -1      2398 2.15742E+01-9.13078E-02-4.32898E-03 5.04781E-01 5.01014E-14-1.96571E-13
 -1      2399 2.14530E+01-1.66255E-01-2.17886E-03 5.86822E-01 2.79811E-14-1.43812E-13
 -1      2400 2.12017E+01 1.48860E-02 1.00920E-03 5.45379E-01-3.23586E-14-1.61418E-13
 -1      2401 2.13299E+01-1.30833E-02-1.63035E-03 5.45279E-01-3.90665E-14-1.63548E-13
 -1      2402 2.12015E+01-4.60124E-02-2.02519E-03 6.47998E-01-6.64995E-14-2.36643E-14
 -1      2403 2.09729E+01 5.09230E-02 8.57562E-04 5.09581E-01-6.69723E-14-1.70355E-13
 -1      2404 2.10959E+01 3.56578E-02 2.64605E-04 5.28014E-01-2.87762E-14-1.42134E-13
 -1      2405 2.09776E+01 3.24404E-02-1.78710E-03 6.37378E-01-1.01660E-13 2.08868E-14
 -1      2406 2.07713E+01 6.75740E-02 7.49101E-04 4.49153E-01-7.65206E-14-9.25039E-14
 -1      2407 2.08827E+01 6.13173E-02 1.42753E-03 4.77072E-01-7.43682E-14-1.17470E-13
 -1      2408 2.07833E+01 7.64263E-02-1.57202E-03 5.83391E-01-7.29962E-14 2.54885E-14
 -1      2409 2.05990E+01 7.14391E-02 6.65404E-04 3.79163E-01 1.26972E-13-1.48952E-13
 -1      2410 2.06957E+01 7.09485E-02 2.02004E-03 4.10320E-01 4.22546E-14-1.31261E-13
 -1      2411 2.06178E+01 9.55656E-02-1.39525E-03 5.07626E-01 1.74780E-14 5.64768E-15
 -1      2412 2.04557E+01 6.76968E-02 5.92213E-04 3.09245E-01-4.75937E-14 1.91823E-14
 -1      2413 2.05367E+01 7.05149E-02 2.21317E-03 3.39734E-01 6.30062E-14-6.47129E-14
 -1      2414 2.04793E+01 9.85551E-02-1.24463E-03 4.24924E-01 5.26753E-14-6.43981E-15
 -1      2415 2.03392E+01 6.00114E-02 5.22385E-04 2.44930E-01-1.01880E-13 4.71861E-14
 -1      2416 2.04050E+01 6.44409E-02 2.15293E-03 2.72580E-01-1.02575E-13 2.79460E-14
 -1      2417 2.03654E+01 9.21036E-02-1.10611E-03 3.44594E-01-7.57349E-14 1.04258E-13
 -1      2418 2.02465E+01 5.07818E-02 4.53886E-04 1.88903E-01-7.05967E-14-4.50592E-14
 -1      2419 2.02987E+01 5.57350E-02 1.94990E-03 2.12723E-01-6.32674E-14 1.18722E-14
 -1      2420 2.02734E+01 8.09058E-02-9.71938E-04 2.71844E-01-7.54984E-14 7.54632E-14
 -1      2421 2.01744E+01 4.14661E-02 3.87383E-04 1.42013E-01 2.61559E-14 5.31844E-14
 -1      2422 2.02147E+01 4.62982E-02 1.68098E-03 1.61761E-01-5.28933E-14 1.71366E-14
 -1      2423 2.02003E+01 6.80059E-02-8.40489E-04 2.09064E-01-4.14686E-14 2.74320E-14
 -1      2424 2.01193E+01 3.28719E-02 3.24492E-04 1.04003E-01 2.67233E-14 2.21387E-13
 -1      2425 2.01498E+01 3.72391E-02 1.39588E-03 1.19875E-01 4.38787E-14 1.93425E-13
 -1      2426 2.01432E+01 5.52328E-02-7.13694E-04 1.56837E-01-2.80704E-14 1.08385E-13
 -1      2427 2.00783E+01 2.53813E-02 2.66782E-04 7.40229E-02-2.36977E-14 2.26367E-13
 -1      2428 2.01007E+01 2.91338E-02 1.12414E-03 8.64399E-02 2.40517E-14 1.99142E-13
 -1      2429 2.00995E+01 4.35815E-02-5.94653E-04 1.14670E-01 5.13040E-14 7.57794E-14
 -1      2430 2.00483E+01 1.91130E-02 2.15352E-04 5.09597E-02-2.15805E-13 1.69565E-13
 -1      2431 2.00645E+01 2.22190E-02 8.81380E-04 6.04345E-02-8.09430E-14 2.25866E-13
 -1      2432 2.00666E+01 3.35044E-02-4.86176E-04 8.15042E-02-1.88493E-15 1.20731E-13
 -1      2433 2.00271E+01 1.40324E-02 1.70735E-04 3.36412E-02-2.87771E-13 1.61388E-13
 -1      2434 2.00383E+01 1.65270E-02 6.74072E-04 4.06956E-02-3.20165E-13 9.98446E-14
 -1      2435 2.00425E+01 2.51209E-02-3.90134E-04 5.60401E-02-2.47066E-13 6.18957E-14
 -1      2436 2.00124E+01 1.00243E-02 1.32961E-04 2.09557E-02-1.07505E-13 1.41907E-13
 -1      2437 2.00200E+01 1.19763E-02 5.03051E-04 2.60747E-02-1.42926E-13 1.51862E-13
 -1      2438 2.00251E+01 1.83586E-02-3.07327E-04 3.69470E-02-2.00968E-13-1.08387E-15
 -1      2439 2.00028E+01 6.93898E-03 1.01685E-04 1.19123E-02 6.09579E-14 5.93499E-14
 -1      2440 2.00076E+01 8.42992E-03 3.65934E-04 1.55223E-02 5.28386E-16 1.38232E-13
 -1      2441 2.00130E+01 1.30468E-02-2.37638E-04 2.29775E-02-5.80649E-14 3.81799E-14
 -1      2442 1.99968E+01 4.61947E-03 7.63199E-05 5.66522E-03-7.92114E-14 9.77883E-14
 -1      2443 1.99996E+01 5.73150E-03 2.58733E-04 8.12586E-03 2.64718E-14 1.60639E-13
 -1      2444 2.00048E+01 8.97459E-03-1.80277E-04 1.30283E-02 1.78922E-14 4.94161E-14
 -1      2445 1.99933E+01 2.91750E-03 5.61502E-05 1.51588E-03 1.96068E-13 9.04151E-14
 -1      2446 1.99948E+01 3.72655E-03 1.76873E-04 3.12156E-03 2.91663E-14 7.03347E-14
 -1      2447 1.99996E+01 5.92580E-03-1.34027E-04 6.16139E-03 2.81769E-14 1.76817E-13
 -1      2448 1.99917E+01 1.70124E-03 4.04172E-05-1.09697E-03 2.55441E-13 1.51742E-13
 -1      2449 1.99922E+01 2.27380E-03 1.15808E-04-1.11705E-04 2.39669E-13 5.63607E-14
 -1      2450 1.99964E+01 3.69864E-03-9.74636E-05 1.60446E-03 2.22077E-13 2.71972E-13
 -1      2451 1.99912E+01 8.58317E-04 2.83791E-05-2.61368E-03 3.56246E-14 5.39929E-13
 -1      2452 1.99911E+01 1.25044E-03 7.13595E-05-2.06629E-03 1.64813E-13 3.97181E-13
 -1      2453 1.99947E+01 2.11510E-03-6.91086E-05-1.26198E-03 4.10641E-14 3.09761E-13
 -1      2454 1.99915E+01 2.95947E-04 1.93479E-05-3.37206E-03 7.45793E-14 3.81749E-13
 -1      2455 1.99910E+01 5.53504E-04 3.98748E-05-3.12363E-03 1.40197E-13 4.46112E-13
 -1      2456 1.99940E+01 1.02433E-03-4.75409E-05-2.92330E-03 1.31564E-13 4.04277E-13
 -1      2457 1.99922E+01-6.05192E-05 1.27078E-05-3.62549E-03 2.02919E-13 1.22963E-13
 -1      2458 1.99916E+01 9.90969E-05 1.82793E-05-3.57268E-03 1.53193E-13 2.62728E-13
 -1      2459 1.99940E+01 3.02380E-04-3.14616E-05-3.75146E-03 2.73870E-13 2.84652E-13
 -1      2460 1.99931E+01-2.69875E-04 7.92140E-06-3.55955E-03-5.08086E-14 9.63591E-14
 -1      2461 1.99924E+01-1.79543E-04 4.05862E-06-3.62740E-03 1.29454E-13 7.63820E-14
 -1      2462 1.99944E+01-1.50133E-04-1.97287E-05-4.02518E-03 2.21830E-13 2.40819E-13
 -1      2463 1.99942E+01-3.77602E-04 4.52662E-06-3.30644E-03-9.65951E-14-3.66516E-14
 -1      2464 1.99935E+01-3.34511E-04-4.79257E-06-3.44216E-03-1.20706E-13 2.76534E-15
 -1      2465 1.99950E+01-4.11222E-04-1.13681E-05-3.94840E-03-9.39447E-15 1.78518E-13
 -1      2466 1.99952E+01-4.18405E-04 2.12888E-06-2.95702E-03 1.40635E-13-1.53361E-13
 -1      2467 1.99945E+01-4.05807E-04-9.83879E-06-3.12493E-03 2.41554E-15-1.15879E-13
 -1      2468 1.99957E+01-5.41099E-04-5.57049E-06-3.66615E-03 5.00412E-14-1.85689E-13
 -1      2469 1.99961E+01-4.18590E-04 3.91008E-07-2.57059E-03 2.01445E-14-1.53633E-13
 -1      2470 1.99955E+01-4.23816E-04-1.22727E-05-2.74803E-03 1.04889E-13-1.43507E-13
 -1      2471 1.99964E+01-5.85650E-04-1.68110E-06-3.27788E-03 8.62595E-14-1.17079E-14
 -1      2472 1.99970E+01-3.98161E-04-9.43777E-07-2.18241E-03 8.77424E-14-1.06424E-13
 -1      2473 1.99965E+01-4.11577E-04-1.29823E-05-2.35666E-03 8.74650E-14-1.96921E-13
 -1      2474 1.99970E+01-5.79660E-04 8.16800E-07-2.84820E-03 8.79002E-14-7.81856E-14
 -1      2475 1.99977E+01-3.72905E-04-2.22116E-06-1.80965E-03 1.16582E-13-2.45309E-14
 -1      2476 1.99973E+01-3.86877E-04-1.26445E-05-1.97565E-03 1.68567E-14-5.23440E-14
 -1      2477 1.99977E+01-5.49474E-04 2.33341E-06-2.41537E-03 2.19080E-14 9.74523E-14
 -1      2478 1.99984E+01-3.54239E-04-2.92941E-06-1.45417E-03-1.32280E-13 1.09960E-13
 -1      2479 1.99980E+01-3.64615E-04-1.18582E-05-1.61372E-03 7.76036E-16 6.02028E-14
 -1      2480 1.99982E+01-5.15119E-04 3.68948E-06-1.99949E-03-1.67061E-14 1.29718E-13
 -1      2481 1.99989E+01-3.50962E-04-3.59541E-06-1.11181E-03-9.16995E-14 2.80154E-13
 -1      2482 1.99986E+01-3.52983E-04-1.08656E-05-1.26909E-03-1.79771E-13 1.22150E-13
 -1      2483 1.99987E+01-4.89722E-04 6.76149E-06-1.60224E-03-1.58202E-13 1.48046E-13
 -1      2484 1.99993E+01-3.64284E-04-4.85465E-06-7.76435E-04-8.23302E-14 4.05081E-13
 -1      2485 1.99990E+01-3.56839E-04-9.39528E-06-9.33534E-04-7.13494E-14 3.44389E-13
 -1      2486 1.99991E+01-4.85114E-04 7.77024E-06-1.21570E-03-1.38740E-13 2.10164E-13
 -1      2487 1.99994E+01-3.60880E-04-5.73998E-06-5.86258E-04 2.21627E-14 4.71011E-13
 -1      2488 2.00001E+01-1.85337E-03 7.97044E-06-9.48166E-04-1.79026E-13-1.24658E-13
 -1      2489 2.00000E+01-1.68836E-03-1.87440E-06-1.03577E-03-1.53980E-13-3.54175E-13
 -1      2490 2.00002E+01-2.12171E-03 8.16017E-06-6.67863E-04-3.13440E-15-1.36472E-13
 -1      2491 2.00002E+01-1.99970E-03 1.38619E-06-8.08546E-04-6.61806E-14-8.35586E-14
 -1      2492 2.00002E+01-1.89474E-03-5.19016E-06-1.00723E-03 3.45043E-14 6.85171E-14
 -1      2493 1.99997E+01-1.11141E-03 5.15930E-06-1.11515E-03-2.27883E-13-1.02113E-13
 -1      2494 1.99996E+01-9.12498E-04-7.25546E-06-1.06478E-03-1.69933E-13-1.24875E-13
 -1      2495 1.99999E+01-1.50175E-03 6.50280E-06-1.10460E-03-3.03504E-13-3.36808E-13
 -1      2496 1.99998E+01-1.31623E-03-5.15970E-06-1.12130E-03-2.87019E-13 7.89027E-15
 -1      2497 1.99997E+01-1.20009E-03 2.44397E-06-1.29357E-03-2.51890E-13-9.27252E-15
 -1      2498 2.00000E+01-1.57527E-03-4.04066E-06-1.23354E-03-1.92195E-13-1.06759E-13
 -1      2499 2.00003E+01-2.27951E-03 7.57264E-06-3.04603E-04-1.67359E-13 1.60351E-13
 -1      2500 2.00003E+01-2.21503E-03 4.08782E-06-4.78797E-04-3.25478E-14-6.95957E-14
 -1      2501 2.00004E+01-2.12511E-03-6.39957E-06-6.56245E-04-1.16023E-14-1.26827E-13
 -1      2502 2.00003E+01-2.31090E-03 6.20842E-06 9.57039E-05-2.62961E-13 1.05844E-13
 -1      2503 2.00003E+01-2.31137E-03 6.20321E-06-8.98281E-05-2.68977E-13 2.75055E-13
 -1      2504 2.00005E+01-2.24565E-03-7.04399E-06-2.25606E-04-8.49761E-14 1.15623E-13
 -1      2505 2.00003E+01-2.21298E-03 4.16266E-06 4.84240E-04-1.08020E-13 2.04326E-14
 -1      2506 2.00003E+01-2.27852E-03 7.51460E-06 3.10385E-04-2.08712E-13-5.33691E-14
 -1      2507 2.00005E+01-2.24513E-03-7.04137E-06 2.32088E-04-1.23502E-14 9.04655E-14
 -1      2508 2.00002E+01-2.00095E-03 1.40219E-06 8.08212E-04-2.09028E-13-4.18819E-13
 -1      2509 2.00002E+01-2.12115E-03 8.07932E-06 6.70049E-04-1.45078E-13-1.55406E-13
 -1      2510 2.00004E+01-2.12517E-03-6.51340E-06 6.59033E-04-8.04907E-15-1.38845E-13
 -1      2511 2.00000E+01-1.68891E-03-1.57368E-06 1.03555E-03-4.56270E-14-2.75250E-13
 -1      2512 2.00001E+01-1.85475E-03 7.87886E-06 9.47968E-04-3.26094E-14-4.94632E-13
 -1      2513 2.00002E+01-1.89635E-03-5.16613E-06 1.00718E-03-6.11293E-14-3.82081E-13
 -1      2514 1.99998E+01-1.31035E-03-4.15452E-06 1.12462E-03 2.16765E-14 5.08233E-14
 -1      2515 1.99999E+01-1.50315E-03 6.57541E-06 1.10604E-03 4.83049E-15-4.75110E-14
 -1      2516 2.00000E+01-1.57651E-03-2.86693E-06 1.23303E-03-2.64571E-14-2.13144E-13
 -1      2517 1.99996E+01-9.04435E-04-5.83374E-06 1.05545E-03-1.19223E-13-1.30689E-14
 -1      2518 1.99997E+01-1.10506E-03 4.10986E-06 1.11324E-03-3.53138E-14-9.55350E-15
 -1      2519 1.99997E+01-1.19603E-03 4.53007E-07 1.29558E-03 7.55885E-14-6.12122E-14
 -1      2520 5.24897E+00-2.81011E+00 8.72770E-02 4.21122E+00-8.90399E-14 8.07465E-13
 -1      2521 4.04562E+00-2.01092E+00 1.08306E-01 1.70043E+00-1.31062E-13 7.96585E-13
 -1      2522 1.76960E+01-5.02908E+00-4.71173E-02 7.00299E+00-1.10745E-13 1.33664E-13
 -1      2523 1.42380E+01-4.91664E+00 4.39757E-02 6.94526E+00-1.28897E-13 2.92523E-13
 -1      2524 2.23207E+01-1.63776E-01 2.38516E-03 1.45635E+00 1.41126E-13 1.99217E-13
 -1      2525 2.26370E+01-2.27427E-01 5.34512E-03 1.38367E+00 1.51079E-13 2.30092E-13
 -1      2526 2.26804E+01-1.15109E-01 5.62239E-03 1.71236E+00 1.44053E-13 1.44013E-13
 -1      2527 1.99995E+01-5.64886E-04-4.91974E-06 7.50138E-04-3.52466E-14 3.38016E-13
 -1      2528 3.94434E+00-2.21136E+00 8.90696E-02-1.67717E+00 1.79579E-14 7.52121E-13
 -1      2529 5.02153E+00-3.20116E+00 5.71964E-02-3.85635E+00 9.62563E-14 8.32889E-13
 -1      2530 1.06048E+01-4.31548E+00 1.47386E-02 6.89016E+00-8.97060E-14 4.55885E-13
 -1      2531 7.38931E+00-3.83801E+00 3.49038E-02 5.69803E+00-1.81577E-13 6.41764E-13
 -1      2532 2.37906E+01 1.51310E+00-4.34232E-03-7.07646E-01-2.54692E-13 5.93969E-15
 -1      2533 2.40946E+01 5.26168E-01-2.52970E-02-2.94785E-01-2.29280E-13 4.94984E-14
 -1      2534 2.34419E+01 3.94042E-01-1.07020E-02-9.00289E-02-1.77265E-13-9.24087E-15
 -1      2535 2.25096E+01 1.90231E+00-5.76300E-03-4.66156E-01-2.31731E-13-1.19467E-13
 -1      2536 7.21293E+00-3.98887E+00 2.11858E-02-5.18739E+00 2.08361E-13 8.18290E-13
 -1      2537 1.06228E+01-4.45351E+00-1.21144E-02-6.55082E+00 1.22902E-13 6.08180E-13
 -1      2538 8.15291E+00-2.56680E+00 1.32607E-01-4.66053E+00 2.53020E-13 7.75630E-13
 -1      2539 3.21334E+01 6.59715E+00-1.67599E-01-6.80052E-01 7.80598E-13-2.24640E-13
 -1      2540 3.25387E+01 5.26979E+00-4.90162E-02-5.82105E-01 7.35412E-13-2.70534E-13
 -1      2541 1.33094E+01 4.43154E+00 6.28812E-03-8.03420E-01-2.70741E-14-6.06922E-13
 -1      2542 1.32901E+01 4.47469E+00-2.45623E-03-4.92982E-01-3.49483E-14-6.06866E-13
 -1      2543 1.32367E+01 4.19114E+00 3.30759E-02-1.66485E-01-1.89573E-14-6.06837E-13
 -1      2544 1.32950E+01 4.06767E+00 2.82341E-02-1.19600E+00-3.91479E-14-5.95451E-13
 -1      2545 3.21375E+01 7.43429E+00-9.82362E-02 5.65652E-01 7.75657E-13-1.15935E-13
 -1      2546 3.19809E+01 7.55561E+00-1.35910E-01 7.26842E-02 7.58282E-13-1.74145E-13
 -1      2547 1.14733E+01-2.93044E+00 8.36174E-02-6.63360E+00-1.22791E-13-7.67691E-13
 -1      2548 1.47698E+01-3.50999E+00 7.56102E-03-7.02074E+00-1.37668E-14-6.67300E-13
 -1      2549 3.17397E+01 4.82128E+00-9.81140E-02 1.11360E+00 6.99996E-13 3.92464E-14
 -1      2550 3.17580E+01 6.06276E+00-1.80266E-01 1.07109E+00 7.68247E-13 9.85323E-16
 -1      2551 3.01546E+01 5.41334E-01-4.59692E-02-5.05674E-01 4.79693E-13 4.08007E-14
 -1      2552 3.16663E+01 2.69439E+00-1.44383E-01 4.36464E-01 6.06265E-13 5.70655E-14
 -1      2553 3.00294E+01 3.17961E+00-4.68233E-02 1.53654E+00 5.35488E-13 1.66339E-13
 -1      2554 2.63403E+01-2.64555E+00 2.69148E-02-3.31758E+00 2.27499E-13-1.28536E-13
 -1      2555 2.85162E+01-1.62164E+00-1.31734E-01-2.26405E+00 3.59608E-13-2.53964E-14
 -1      2556 3.31443E+01 6.90851E+00-1.55687E-01-5.06919E-01-9.07940E-13-1.43410E-13
 -1      2557 3.27001E+01 6.28453E+00-1.05652E-01-1.30189E+00-8.61922E-13-5.90639E-14
 -1      2558 1.85650E+01-3.88064E+00 2.48357E-02-6.20667E+00 2.88658E-15-4.99552E-13
 -1      2559 2.29102E+01-3.57082E+00-7.88194E-02-5.36372E+00 1.27787E-13-2.92488E-13
 -1      2560 5.03866E+00-1.37628E+00 7.37590E-02-3.98171E+00-1.36058E-13-9.58900E-13
 -1      2561 7.76592E+00-1.78168E+00 5.78273E-02-5.67961E+00-1.35003E-13-8.80684E-13
 -1      2562 3.08157E+00-8.32911E-01 6.85397E-02-1.36756E-01-7.42878E-14-1.01047E-12
 -1      2563 3.40199E+00-9.85593E-01 6.34796E-02-2.28454E+00-4.77535E-14-1.02018E-12
 -1      2564 6.05150E+00-1.12822E+00 9.75802E-02 3.71374E+00 5.06539E-14-8.85125E-13
 -1      2565 4.10338E+00-8.82951E-01 1.05713E-01 1.73320E+00 2.86438E-14-9.75220E-13
 -1      2566 2.10407E+01-4.63025E+00-5.59986E-02 5.53670E+00-1.13132E-13-3.95947E-13
 -1      2567 1.76406E+01-4.45305E+00 4.96243E-02 5.81788E+00-4.45755E-14-4.62588E-13
 -1      2568 2.80156E+01-3.34038E+00-1.04301E-01 2.60920E+00-3.41879E-13-1.49075E-13
 -1      2569 2.44877E+01-4.30188E+00-2.47649E-04 3.99458E+00-1.74499E-13-2.92655E-13
 -1      2570 2.38765E+01-4.49937E+00 8.12626E-02 3.90657E+00 5.06262E-14-1.87503E-13
 -1      2571 3.16983E+01-9.68683E-02-1.26526E-01-1.61094E-01-5.86493E-13 1.69309E-15
 -1      2572 3.02130E+01-1.64761E+00-3.97759E-02 6.16458E-01-4.72716E-13-4.39648E-14
 -1      2573 3.28706E+01 4.30866E+00-1.78858E-01-1.56507E+00-8.24674E-13 3.29459E-14
 -1      2574 3.24573E+01 2.20465E+00-7.03325E-02-1.18548E+00-7.40435E-13 4.42979E-14
 -1      2575 3.27141E+01 6.29619E+00-1.02817E-01 1.00406E+00-7.98694E-13-2.93376E-13
 -1      2576 3.32585E+01 6.96440E+00-1.19319E-01 1.99208E-01-8.65807E-13-2.06663E-13
 -1      2577 3.06906E+01 6.49796E+00-6.55881E-02-2.07200E-01-8.08575E-13-1.42124E-13
 -1      2578 3.23131E+01 1.99716E+00-7.64563E-02 9.75201E-01-5.74679E-13-3.88523E-13
 -1      2579 3.27015E+01 4.12214E+00-2.11683E-01 1.22929E+00-7.07712E-13-3.94546E-13
 -1      2580 2.92792E+01-2.65292E+00-7.94590E-02-1.71221E+00-2.28623E-13-1.79967E-13
 -1      2581 3.13001E+01-5.79575E-01-1.09990E-01-4.19636E-01-4.01307E-13-3.00704E-13
 -1      2582 2.42154E+01-4.94905E+00-8.93540E-03-4.46817E+00-6.50591E-14-8.72080E-14
 -1      2583 2.74546E+01-3.87416E+00-3.61076E-02-3.38531E+00-1.57763E-13-1.05971E-13
 -1      2584 2.85787E+01-3.73592E+00-6.10355E-04-1.24543E+00-3.50275E-14-3.17135E-13
 -1      2585 1.49230E+01-5.27314E+00 2.13482E-02-6.53017E+00 1.02696E-13 3.66797E-13
 -1      2586 1.95427E+01-5.40361E+00-5.90814E-02-6.25104E+00 4.24660E-14 1.92249E-13
 -1      2587 3.21819E+01 3.05307E+00-1.17171E-01-5.11451E-02 5.91277E-13-3.21881E-13
 -1      2588 3.11253E+01 1.19964E+00-7.43574E-02 5.89023E-01 5.17975E-13-3.03424E-13
 -1      2589 2.98669E+01-2.64073E-01 1.62103E-02 5.39900E-02 3.30666E-13-3.79918E-13
 -1      2590 2.35894E+01 4.74042E-01-1.77061E-02 1.37025E+00 3.25830E-13 3.50392E-13
 -1      2591 2.39560E+01 9.28098E-01-1.22561E-02 1.72473E+00 3.41012E-13 3.86708E-13
 -1      2592 2.35694E+01 1.32346E+00-2.75075E-02 1.88620E+00 3.64388E-13 2.54883E-13
 -1      2593 2.34128E+01 4.45567E-01-1.87440E-02 1.49702E+00 3.29734E-13 2.15003E-13
 -1      2594 2.55409E+01-3.89728E+00-6.68369E-02 4.57730E+00 1.64008E-13-2.67508E-13
 -1      2595 2.18391E+01-4.83109E+00 3.11113E-02 5.61084E+00 1.77081E-14-8.50847E-14
 -1      2596 2.86785E+01 6.83416E+00-1.31918E-01-2.36777E-01 7.13013E-13-1.03296E-13
 -1      2597 3.07528E+01 6.84693E+00-1.11211E-01-4.98758E-01 7.41379E-13-1.74971E-13
 -1      2598 2.89423E+01 5.88004E+00-1.37246E-01-1.05569E+00 6.97220E-13-1.72355E-13
 -1      2599 1.71378E+01 2.77366E+00-9.02935E-03 8.97430E-01-4.46925E-14-4.20030E-13
 -1      2600 1.77263E+01 3.07207E+00-2.76956E-02 5.31519E-01-8.32882E-14-4.20233E-13
 -1      2601 1.90559E+01 2.81990E+00 9.88851E-03 3.27230E-01-1.24813E-13-3.58975E-13
 -1      2602 2.30037E+01-2.78570E-01 3.23865E-03 1.52992E+00 2.05687E-13 1.51378E-13
 -1      2603 2.30777E+01 1.59308E+00-1.08362E-02 1.75246E+00 3.45175E-13 9.68253E-14
 -1      2604 2.70241E+01-3.62983E+00 2.82293E-02 2.74680E+00 9.05803E-14-3.76671E-13
 -1      2605 3.06893E+01 3.62915E+00-4.23409E-02-1.12550E+00 5.80813E-13-2.85244E-13
 -1      2606 2.28602E+01-5.28782E+00 6.29218E-02-4.96571E+00 7.81875E-14-3.36120E-14
 -1      2607 2.49886E+01-5.23430E+00-1.17173E-01-3.29870E+00 1.82895E-13-2.83662E-13
 -1      2608 2.12519E+01-5.06500E+00 1.14457E-01-5.26373E+00 2.37768E-13-3.89064E-14
 -1      2609 1.99994E+01-5.03245E-04-1.30164E-06-8.25710E-04-1.50844E-13 3.60721E-13
 -1      2610 2.10617E+01-5.02073E+00 8.42216E-02 5.81701E+00-1.64202E-13-9.62078E-14
 -1      2611 1.99994E+01-6.53386E-04 6.89474E-07-9.36655E-04-1.54415E-13 7.25809E-14
 -1      2612 3.11175E+01 4.83215E+00-2.37275E-02 1.73151E+00-6.72823E-13-4.12448E-13
 -1      2613 6.43521E+00-6.93126E-01 1.32865E-01 1.59874E+00-1.09621E-13 7.01827E-13
 -1      2614 4.89518E+00-1.36868E+00 1.85501E-01 9.63543E-02-3.35175E-14 7.16815E-13
 -1      2615 6.38273E+00-8.09179E-01 1.50530E-01-1.39348E+00 8.81586E-14 6.27970E-13
 -1      2616 8.09078E+00-2.41822E+00 1.26886E-01 4.94566E+00-2.14551E-13 6.21780E-13
 -1      2617 1.37707E+01-4.20355E+00 1.03334E-01 6.84294E+00-2.86049E-13 2.66759E-13
 -1      2618 3.11996E+01 4.88685E+00-2.49901E-02-1.95593E+00-7.58865E-13 5.10425E-14
 -1      2619 2.88791E+01-2.89844E+00 1.27553E-02 8.22803E-01-2.14599E-13 7.24421E-14
 -1      2620 2.30713E+01 1.05292E+00 1.55794E-02 1.51293E+00 3.20927E-13 7.79593E-14
 -1      2621 8.44191E+00-1.32615E+00 1.60949E-01 4.51049E+00 9.95592E-14-8.22425E-13
 -1      2622 8.26322E+00 8.25520E-02 1.56188E-01 3.51111E+00 1.18669E-13-8.19733E-13
 -1      2623 1.08034E+01-1.64697E+00-9.75226E-03 5.10303E+00 1.84019E-13-6.77486E-13
 -1      2624 5.29207E+00 3.59343E-01 1.58796E-01 7.13861E-01 7.17482E-15-9.70751E-13
 -1      2625 5.99018E+00 2.65306E-02 1.61546E-01-3.19810E+00-1.15269E-13-9.78911E-13
 -1      2626 1.81539E+01-3.64080E+00 6.68001E-02-6.20091E+00-1.74055E-13-4.65164E-13
 -1      2627 2.90259E+01-8.06309E-01-1.27203E-03-3.35951E-01 3.12011E-13 1.56153E-13
 -1      2628 1.64712E+01-3.72798E+00 1.23838E-01 5.85421E+00 1.04111E-13-4.74731E-13
 -1      2629 2.12455E+01 2.17098E+00-1.15317E-02-1.50493E-01-1.92413E-13-2.24740E-13
 -1      2630 1.04749E+01-1.89415E+00 9.85905E-02-6.08953E+00-1.96676E-13-8.10102E-13
 -1      2631 1.32479E+01-1.92868E+00 5.46423E-02-6.14234E+00-2.92502E-13-6.43374E-13
 -1      2632 1.00344E+01-4.98754E-01 1.56959E-01-5.44774E+00-2.19005E-13-7.70578E-13
 -1      2633 1.44168E+01-4.37216E+00 1.28216E-01-6.38748E+00 2.97651E-13 4.15140E-13
 -1      2634 2.99125E+01 6.34713E+00-1.00339E-01 1.20519E+00 6.78596E-13 9.33975E-15
 -1      2635 2.48067E+01-3.45636E+00 2.90698E-02-3.78449E+00 3.26128E-14-1.11466E-13
 -1      2636 3.10527E+01 7.15988E-01-2.23567E-02-1.65147E+00-5.56735E-13 1.94927E-13
 -1      2637 1.99993E+01-4.94075E-04-6.59272E-06 9.05456E-04-3.68570E-14 4.25245E-13
 -1      2638 1.99995E+01-7.21959E-04 3.61997E-06 1.01399E-03-4.03438E-14 8.26256E-14
 -1      2639 1.99994E+01-8.24883E-04-2.85652E-06 1.23461E-03-1.44052E-13 1.97417E-13
 -1      2640 1.99991E+01-4.96958E-04-9.17906E-06 1.07045E-03-5.91600E-14 4.59299E-13
 -1      2641 1.99994E+01-7.53615E-04-4.72486E-06-1.16727E-03-2.13431E-13 9.36662E-14
 -1      2642 3.07179E+01 1.13353E-01 2.09609E-02 1.15352E+00-3.86538E-13-4.41924E-13
 -1      2643 1.99992E+01-6.42683E-04 4.46811E-06 1.31899E-03 2.54644E-14 8.49733E-14
 -1      2644 1.77460E+01 1.70719E+00 3.69083E-02-1.97689E+00-3.49321E-14-4.00940E-13
 -1      2645 1.64379E+01 2.02658E+00-3.36216E-02-2.23745E+00-6.49368E-14-4.38550E-13
 -1      2646 1.51552E+01 2.75376E+00 6.40915E-02-2.30791E+00-6.88533E-14-5.09754E-13
 -1      2647 1.38942E+01 3.05513E+00-3.67414E-02-2.19539E+00-7.56218E-14-5.45215E-13
 -1      2648 1.58106E+01 1.78107E+00 3.39644E-04-2.76211E+00-9.30315E-14-4.72155E-13
 -1      2649 2.15247E+01 7.15788E-01-1.14773E-02 1.19615E-01 1.47837E-13-1.77887E-13
 -1      2650 2.08318E+01 8.66431E-01 8.15978E-03-3.73759E-01 1.01683E-13-2.20449E-13
 -1      2651 2.25435E+01 6.02119E-01-1.74082E-02 9.96261E-01 2.48319E-13-6.07726E-14
 -1      2652 2.20820E+01 7.23982E-01 9.39211E-03 6.36705E-01 1.87763E-13-1.17090E-13
 -1      2653 2.22014E+01 1.24027E-01-1.18080E-03 3.25257E-01 1.48718E-13-8.97865E-14
 -1      2654 2.32015E+01-2.56981E-01-1.50983E-02 1.37461E+00 2.44313E-13 1.13254E-13
 -1      2655 2.33363E+01-4.92732E-04 1.24296E-02 1.37040E+00 2.55033E-13 1.27334E-13
 -1      2656 8.52100E+00-1.35599E+00 1.31855E-01-3.81052E+00 2.58168E-13 6.74405E-13
 -1      2657 1.06072E+01-2.26909E+00 1.04767E-01-5.28147E+00 3.22992E-13 6.29108E-13
 -1      2658 2.89897E+01 4.01097E+00-1.80304E-01-1.64729E+00 5.89584E-13-2.07293E-13
 -1      2659 2.92189E+01 2.08681E+00-1.06644E-01-1.47595E+00 4.48197E-13-2.88242E-13
 -1      2660 2.46348E+01-1.79434E+00 5.44422E-02 2.59860E-01 8.68229E-16 5.70047E-14
 -1      2661 2.51161E+01-2.32593E+00-3.42491E-02-1.08478E-01 2.01228E-16 8.39519E-14
 -1      2662 2.63375E+01-2.51759E+00 3.42555E-02-7.59728E-01-2.08269E-14 1.67543E-13
 -1      2663 2.67923E+01-2.25168E+00-3.16413E-02-1.36102E+00-1.00545E-13 1.63914E-13
 -1      2664 2.53352E+01-2.94241E+00-4.77388E-02 3.78071E-01-2.23432E-15 1.01927E-13
 -1      2665 2.88259E+01 1.65914E+00-1.52293E-01-2.79604E+00-4.95604E-13 1.46022E-13
 -1      2666 2.87178E+01 3.58598E+00-1.31935E-01-2.23276E+00-6.44235E-13 4.39301E-14
 -1      2667 2.81430E+01 4.86219E+00-2.55051E-01-1.40924E+00-7.04020E-13-6.36531E-14
 -1      2668 2.80608E+01 5.42145E+00-1.65965E-01-4.84633E-02-7.22228E-13-1.75603E-13
 -1      2669 2.86267E+01 3.90316E+00-1.22241E-01 1.75113E+00-6.16784E-13-3.65950E-13
 -1      2670 2.85825E+01 2.10770E+00-1.32315E-01 2.54430E+00-4.77382E-13-4.27117E-13
 -1      2671 2.84494E+01 1.66578E-01-1.12413E-01 2.37383E+00-2.94806E-13-4.64705E-13
 -1      2672 2.68595E+01-2.22872E+00-1.59695E-02 1.43771E+00-2.46157E-14-4.20530E-13
 -1      2673 2.64706E+01-2.92704E+00-2.18428E-02 6.78839E-01 1.16965E-13-3.90413E-13
 -1      2674 2.52133E+01-2.92018E+00-1.98130E-02-1.93062E-01 1.60155E-13-2.75284E-13
 -1      2675 2.45868E+01-2.67808E+00 4.55497E-02-7.96064E-01 1.74350E-13-2.48597E-13
 -1      2676 2.57057E+01-3.54199E+00-6.70502E-02-5.45525E-01 1.73851E-13-3.33101E-13
 -1      2677 2.35663E+01-2.27595E+00-9.98920E-03-1.25233E+00 1.09970E-13-1.89715E-13
 -1      2678 2.30045E+01-1.77194E+00 3.78931E-02-1.61307E+00 8.29350E-14-1.66358E-13
 -1      2679 2.34414E+01-2.95186E+00-5.04798E-02-1.74958E+00 1.67593E-13-2.52449E-13
 -1      2680 2.23411E+01-1.30422E+00-1.17742E-03-1.75350E+00 3.96150E-14-1.75733E-13
 -1      2681 2.19185E+01-8.65057E-01 2.22174E-02-1.90623E+00 4.00875E-14-1.85007E-13
 -1      2682 2.18862E+01-1.79166E+00-4.05020E-02-2.19277E+00 5.71674E-14-1.36429E-13
 -1      2683 2.15532E+01-5.09978E-01 3.04760E-03-1.88263E+00 6.04133E-14-1.06896E-13
 -1      2684 2.12595E+01-2.14251E-01 1.06591E-02-1.90119E+00 7.76331E-14-7.00212E-14
 -1      2685 2.09755E+01-7.70836E-01-2.45733E-02-2.20949E+00 9.53453E-14-9.10643E-14
 -1      2686 2.10831E+01 5.86345E-03 4.60728E-03-1.80434E+00 2.96375E-14-7.77710E-14
 -1      2687 2.08814E+01 1.70754E-01 3.70187E-03-1.74744E+00 2.42387E-14-6.83126E-14
 -1      2688 2.05093E+01-8.68695E-02-1.23085E-02-2.03492E+00 6.74778E-14-7.77349E-14
 -1      2689 2.08064E+01 2.84766E-01 4.69650E-03-1.62519E+00 1.23698E-14-9.58435E-14
 -1      2690 2.06621E+01 3.58735E-01 1.00146E-04-1.53152E+00-2.08130E-14-1.30709E-13
 -1      2691 2.02964E+01 2.96248E-01-5.17345E-03-1.79179E+00-1.38724E-14-8.92611E-14
 -1      2692 2.06350E+01 4.03381E-01 4.48420E-03-1.40560E+00 1.63163E-14-1.28355E-13
 -1      2693 2.05248E+01 4.22195E-01-1.49957E-03-1.29918E+00 4.03987E-14-5.58144E-14
 -1      2694 2.02090E+01 4.71175E-01-1.52037E-03-1.53398E+00-2.32899E-15-6.62252E-14
 -1      2695 2.05170E+01 4.26747E-01 4.19590E-03-1.18000E+00-1.52397E-14-6.63538E-14
 -1      2696 2.04280E+01 4.15811E-01-2.03113E-03-1.07486E+00 1.00585E-14-6.47008E-14
 -1      2697 2.01757E+01 5.19023E-01 5.10509E-05-1.28523E+00 4.27165E-14 1.47343E-16
 -1      2698 2.04257E+01 3.99911E-01 3.85187E-03-9.67417E-01 4.54220E-14-2.53874E-14
 -1      2699 2.03517E+01 3.75225E-01-2.03322E-03-8.71062E-01 3.96609E-14-9.49991E-14
 -1      2700 2.01608E+01 4.97396E-01 5.23927E-04-1.05693E+00-7.31778E-15 5.41011E-14
 -1      2701 2.03494E+01 3.50750E-01 3.45856E-03-7.77420E-01 3.14563E-14-8.40082E-14
 -1      2702 2.02873E+01 3.21549E-01-1.80297E-03-6.93235E-01 7.91298E-14-1.18886E-13
 -1      2703 2.01490E+01 4.42858E-01 5.05950E-04-8.54455E-01 2.22846E-14 9.79656E-14
 -1      2704 2.02835E+01 2.95106E-01 3.03327E-03-6.13731E-01 1.23429E-13-1.86003E-13
 -1      2705 2.02315E+01 2.66295E-01-1.49782E-03-5.42601E-01 1.41576E-13-1.40756E-13
 -1      2706 2.01352E+01 3.76802E-01 3.21103E-04-6.79704E-01 9.37142E-14-8.84745E-14
 -1      2707 2.02263E+01 2.41242E-01 2.60026E-03-4.76548E-01 1.32839E-13-2.03949E-13
 -1      2708 2.01835E+01 2.15144E-01-1.19498E-03-4.17954E-01 2.47510E-15-1.44127E-13
 -1      2709 2.01190E+01 3.10799E-01 1.20311E-04-5.32293E-01 1.11985E-13-2.42674E-13
 -1      2710 2.01774E+01 1.92960E-01 2.18242E-03-3.64098E-01-1.87926E-13-7.22621E-14
 -1      2711 2.01427E+01 1.70456E-01-9.27470E-04-3.16811E-01-2.57743E-13-1.24897E-13
 -1      2712 2.01016E+01 2.50491E-01-3.87078E-05-4.10405E-01-7.03630E-14-6.48021E-14
 -1      2713 2.01364E+01 1.51600E-01 1.79668E-03-2.73637E-01-2.33224E-13-1.42963E-13
 -1      2714 2.01088E+01 1.32805E-01-7.05272E-04-2.36144E-01-1.96926E-13-1.12888E-13
 -1      2715 2.00842E+01 1.98135E-01-1.43413E-04-3.11416E-01-2.38584E-13-7.27037E-14
 -1      2716 2.01028E+01 1.17214E-01 1.45306E-03-2.02080E-01-1.52880E-13-1.20597E-13
 -1      2717 2.00811E+01 1.01875E-01-5.27430E-04-1.72830E-01-5.44486E-14-1.36868E-13
 -1      2718 2.00679E+01 1.54168E-01-2.00148E-04-2.32348E-01-1.90305E-13-4.34606E-14
 -1      2719 2.00758E+01 8.92468E-02 1.15575E-03-1.46365E-01-3.33647E-14-2.58696E-13
 -1      2720 2.00591E+01 7.69538E-02-3.88508E-04-1.23900E-01-5.86019E-14-2.72363E-13
 -1      2721 2.00535E+01 1.18116E-01-2.20995E-04-1.70186E-01-1.02631E-13-7.76938E-14
 -1      2722 2.00546E+01 6.68965E-02 9.04661E-04-1.03658E-01 1.40689E-14-2.39884E-13
 -1      2723 2.00420E+01 5.71979E-02-2.81856E-04-8.66743E-02 3.82886E-14-2.72103E-13
 -1      2724 2.00411E+01 8.91027E-02-2.17912E-04-1.22074E-01-3.14656E-14-6.45013E-14
 -1      2725 2.00382E+01 4.93080E-02 6.96948E-04-7.14408E-02-6.43082E-15-3.39979E-13
 -1      2726 2.00289E+01 4.17672E-02-2.01093E-04-5.88149E-02-1.40314E-14-2.69710E-13
 -1      2727 2.00309E+01 6.61256E-02-2.00614E-04-8.54226E-02 6.26880E-15-2.13116E-13
 -1      2728 2.00259E+01 3.56661E-02 5.28247E-04-4.75500E-02 9.98390E-14-1.26675E-13
 -1      2729 2.00191E+01 2.98872E-02-1.40670E-04-3.83349E-02 1.53601E-13-4.16763E-14
 -1      2730 2.00227E+01 4.81966E-02-1.76175E-04-5.79654E-02 9.15945E-14-1.12178E-13
 -1      2731 2.00167E+01 2.52378E-02 3.93525E-04-3.01659E-02 5.80381E-14-5.69762E-14
 -1      2732 2.00120E+01 2.08752E-02-9.60062E-05-2.35805E-02 1.81692E-14-3.40027E-14
 -1      2733 2.00162E+01 3.44087E-02-1.49351E-04-3.77662E-02 1.42486E-13-1.67241E-13
 -1      2734 2.00101E+01 1.73864E-02 2.87653E-04-1.77893E-02-8.59174E-14 9.08146E-14
 -1      2735 2.00069E+01 1.41463E-02-6.34192E-05-1.31998E-02-8.16457E-14 8.36217E-14
 -1      2736 2.00112E+01 2.39633E-02-1.23096E-04-2.32074E-02 7.10015E-14-6.34940E-14
 -1      2737 2.00055E+01 1.15723E-02 2.05764E-04-9.20534E-03-1.51464E-13 1.29900E-13
 -1      2738 2.00033E+01 9.20947E-03-3.99998E-05-6.10581E-03-1.15053E-13 2.86848E-14
 -1      2739 2.00075E+01 1.61765E-02-9.90735E-05-1.29624E-02-1.71719E-13 1.77137E-13
 -1      2740 2.00023E+01 7.34683E-03 1.43441E-04-3.44535E-03-1.27709E-13-3.25222E-14
 -1      2741 2.00010E+01 5.65986E-03-2.34742E-05-1.43790E-03-1.36724E-13-1.13416E-14
 -1      2742 2.00047E+01 1.04747E-02-7.80700E-05-5.96151E-03-1.87608E-13 1.20898E-13
 -1      2743 2.00003E+01 4.34228E-03 9.68126E-05 2.51325E-04-1.56332E-13 7.80425E-16
 -1      2744 1.99995E+01 3.16835E-03-1.20795E-05 1.47499E-03-5.02594E-14-8.32340E-14
 -1      2745 2.00027E+01 6.38486E-03-6.03134E-05-1.35651E-03-1.69902E-13 1.51125E-13
 -1      2746 1.99990E+01 2.26200E-03 6.25708E-05 2.47287E-03 5.88395E-14-2.15050E-13
 -1      2747 1.99986E+01 1.47116E-03-4.45988E-06 3.14786E-03 7.88069E-14-1.99257E-13
 -1      2748 2.00014E+01 3.52272E-03-4.56965E-05 1.51493E-03-1.23144E-13-1.50958E-13
 -1      2749 1.99983E+01 8.69765E-04 3.79516E-05 3.66682E-03 1.71660E-13-2.77093E-13
 -1      2750 1.99982E+01 3.59671E-04 4.17824E-07 3.96943E-03 9.57439E-14-2.57101E-13
 -1      2751 2.00004E+01 1.58059E-03-3.39299E-05 3.16155E-03 7.80984E-14-2.54267E-13
 -1      2752 1.99980E+01-2.00666E-05 2.06902E-05 4.16780E-03-2.39829E-14-2.57812E-13
 -1      2753 1.99980E+01-3.28962E-04 3.33207E-06 4.22773E-03 8.24561E-14-2.56835E-13
 -1      2754 1.99999E+01 3.15328E-04-2.46425E-05 3.96749E-03 8.76728E-14-3.21215E-13
 -1      2755 1.99979E+01-5.51526E-04 8.96510E-06 4.22113E-03 2.18626E-13-2.72126E-13
 -1      2756 1.99981E+01-7.20308E-04 4.86117E-06 4.13162E-03 2.16665E-13-2.60750E-13
 -1      2757 1.99995E+01-4.62707E-04-1.74444E-05 4.21739E-03 7.27171E-14-2.62233E-13
 -1      2758 1.99980E+01-8.35047E-04 1.33743E-06 4.00239E-03 2.37512E-13-1.77847E-13
 -1      2759 1.99982E+01-9.10132E-04 5.42686E-06 3.82857E-03 1.34164E-13-1.51554E-13
 -1      2760 1.99993E+01-8.99618E-04-1.19647E-05 4.11754E-03 2.51731E-13-3.35011E-13
 -1      2761 1.99982E+01-9.54481E-04-3.30896E-06 3.63347E-03 1.00001E-14-6.64577E-14
 -1      2762 1.99984E+01-9.70886E-04 5.33047E-06 3.41899E-03-4.44576E-14-9.32453E-14
 -1      2763 1.99992E+01-1.10677E-03-7.87627E-06 3.81347E-03 1.30028E-13-4.70681E-13
 -1      2764 1.99984E+01-9.73138E-04-5.81579E-06 3.19538E-03-1.06425E-13 3.05132E-14
 -1      2765 1.99986E+01-9.57268E-04 4.77764E-06 2.96769E-03 4.98380E-14 1.91230E-14
 -1      2766 1.99992E+01-1.16841E-03-4.90819E-06 3.40414E-03 8.46093E-14-1.99259E-13
 -1      2767 1.99987E+01-9.38884E-04-6.82198E-06 2.73831E-03 1.08189E-13 7.48477E-14
 -1      2768 1.99989E+01-9.10735E-04 3.92649E-06 2.51271E-03 5.21970E-14 4.15289E-14
 -1      2769 1.99993E+01-1.14813E-03-2.84586E-06 2.95335E-03 4.54417E-14-5.36780E-14
 -1      2770 1.99989E+01-8.88400E-04-6.93985E-06 2.28945E-03 8.51611E-14 3.73840E-14
 -1      2771 1.99991E+01-8.62430E-04 2.72310E-06 2.07191E-03-7.74285E-14 5.30189E-14
 -1      2772 1.99993E+01-1.09393E-03-1.57334E-06 2.49841E-03-3.79906E-14-1.51566E-13
 -1      2773 1.99991E+01-8.47112E-04-5.93960E-06 1.85974E-03-4.92278E-14 6.20372E-14
 -1      2774 1.99993E+01-8.35491E-04 4.99350E-07 1.65110E-03 1.61654E-13 1.16081E-13
 -1      2775 1.99994E+01-1.03940E-03 1.42961E-07 2.05674E-03 1.62179E-14-9.18159E-14
 -1      2776 2.22908E+01 1.44716E+00 2.24909E-02 1.21461E+00 2.59308E-13 4.37545E-14
 -1      2777 2.24495E+01 1.03758E+00-2.09379E-02 1.56647E+00 2.01369E-13 6.28058E-14
 -1      2778 1.99995E+01-9.95325E-04 2.26960E-07-1.48940E-03-2.39251E-13-5.48720E-14
 -1      2779 1.99993E+01-7.55388E-04-4.80357E-06-1.36797E-03-2.67512E-13 1.16743E-13
 -1      2780 1.99991E+01-7.56915E-04-1.03850E-05-1.56853E-03-1.63611E-13 5.98646E-15
 -1      2781 2.26988E+01 6.17716E-01 1.59403E-02 1.79383E+00 1.89818E-13 7.09402E-14
 -1      2782 2.28985E+01 2.08058E-01-1.64386E-02 1.90159E+00 1.79145E-13 9.25566E-14
 -1      2783 2.31693E+01 1.03174E+00 1.63522E-03 1.87963E+00 2.40083E-13-5.73413E-15
 -1      2784 2.20951E+01 1.46262E+00-1.69206E-02-9.78884E-01 2.33575E-13-8.34142E-14
 -1      2785 2.20357E+01 1.73355E+00 9.91596E-03-5.14146E-01 2.91424E-13-7.41785E-14
 -1      2786 2.24079E+01 6.12312E-01-2.47223E-02-1.63184E+00 1.62214E-13-2.00665E-13
 -1      2787 2.22886E+01 1.08424E+00 2.28184E-02-1.40201E+00 2.24874E-13-1.66791E-13
 -1      2788 2.27671E+01 1.59252E+00-2.58135E-03-1.32057E+00 2.83886E-13-1.65444E-13
 -1      2789 2.26958E+01-2.68562E-01-1.94166E-02-1.65040E+00 1.08862E-13-2.58726E-13
 -1      2790 2.25822E+01 1.55064E-01 1.36377E-02-1.69507E+00 1.07239E-13-2.46137E-13
 -1      2791 2.30706E+01 4.84152E-01 9.73331E-03-1.79978E+00 1.95505E-13-2.24255E-13
 -1      2792 2.27508E+01-8.12449E-01-7.11941E-03-1.20643E+00 4.44272E-14-1.98029E-13
 -1      2793 2.27016E+01-5.86532E-01-3.67086E-04-1.42844E+00 7.57152E-14-2.43356E-13
 -1      2794 2.31807E+01-5.36512E-01 1.03620E-02-1.58229E+00 9.65595E-14-3.05205E-13
 -1      2795 2.25633E+01-9.60968E-01 2.93057E-03-5.96169E-01 3.50709E-14-1.56965E-13
 -1      2796 2.25900E+01-9.30490E-01-9.55388E-03-8.73306E-01 5.77776E-14-1.59072E-13
 -1      2797 2.29780E+01-1.09163E+00 5.75408E-03-9.74517E-01 2.67150E-14-1.79246E-13
 -1      2798 2.22311E+01-8.39178E-01 7.44133E-03-3.80625E-02-7.67790E-14-1.26554E-13
 -1      2799 2.23151E+01-9.27817E-01-1.21869E-02-2.85940E-01-4.62807E-14-1.29640E-13
 -1      2800 2.25556E+01-1.18141E+00-8.08833E-04-3.06302E-01-1.27670E-14-4.65829E-14
 -1      2801 2.18571E+01-6.00558E-01 7.80725E-03 3.70983E-01 2.49667E-14-1.21325E-13
 -1      2802 2.19722E+01-7.31691E-01-1.07243E-02 1.89844E-01 5.15386E-15-9.54965E-14
 -1      2803 2.20622E+01-9.82053E-01-5.48733E-03 2.34333E-01-9.91243E-15-8.85667E-14
 -1      2804 2.15061E+01-3.53362E-01 6.41390E-03 6.18711E-01 1.79551E-14-1.24494E-13
 -1      2805 2.16313E+01-4.78291E-01-7.57974E-03 5.08971E-01 1.09319E-14-9.48576E-14
 -1      2806 2.16039E+01-6.73840E-01-6.69117E-03 5.91908E-01 1.04462E-14-4.77347E-14
 -1      2807 2.12045E+01-1.51125E-01 4.55725E-03 7.32703E-01-7.05277E-14 5.49997E-14
 -1      2808 2.13271E+01-2.48503E-01-4.38913E-03 6.82712E-01-1.37891E-14-5.60446E-14
 -1      2809 2.12261E+01-3.75665E-01-5.84812E-03 7.82966E-01-3.84653E-14 3.54621E-14
 -1      2810 2.09558E+01-8.55336E-03 2.90087E-03 7.50881E-01-7.41795E-14 1.20732E-13
 -1      2811 2.10694E+01-7.45464E-02-1.85983E-03 7.44184E-01-6.56510E-14 6.42351E-14
 -1      2812 2.09333E+01-1.40668E-01-4.43628E-03 8.48522E-01-8.97147E-14 1.27662E-13
 -1      2813 2.07540E+01 7.94797E-02 1.65325E-03 7.07966E-01-1.07552E-13 6.87401E-14
 -1      2814 2.08557E+01 4.05175E-02-8.85547E-05 7.29020E-01-5.43606E-14 2.86127E-14
 -1      2815 2.07123E+01 2.03879E-02-3.16766E-03 8.29965E-01-2.58799E-14 6.87000E-14
 -1      2816 2.05912E+01 1.25321E-01 8.14922E-04 6.31151E-01-1.32864E-14 2.57684E-15
 -1      2817 2.06801E+01 1.06531E-01 1.03348E-03 6.67537E-01-8.75385E-14 3.50973E-14
 -1      2818 2.05462E+01 1.16948E-01-2.22785E-03 7.60992E-01-1.74328E-14 1.11376E-14
 -1      2819 2.04598E+01 1.41914E-01 3.00181E-04 5.39801E-01 3.67776E-14 1.01687E-14
 -1      2820 2.05359E+01 1.36709E-01 1.65688E-03 5.82590E-01 2.58162E-15-1.86185E-14
 -1      2821 2.04205E+01 1.64862E-01-1.59312E-03 6.66401E-01 7.06629E-15-7.38869E-14
 -1      2822 2.03541E+01 1.40078E-01 1.18404E-05 4.46646E-01 4.31958E-14 6.68648E-14
 -1      2823 2.04181E+01 1.43175E-01 1.92208E-03 4.89968E-01 6.95988E-14 5.31801E-14
 -1      2824 2.03239E+01 1.79648E-01-1.18549E-03 5.63187E-01 1.79377E-14 6.34213E-15
 -1      2825 2.02694E+01 1.27853E-01-1.30220E-04 3.59341E-01-6.70963E-14 8.72451E-14
 -1      2826 2.03221E+01 1.35429E-01 1.94761E-03 3.99694E-01-1.02404E-14 6.29995E-14
 -1      2827 2.02489E+01 1.73922E-01-9.25180E-04 4.62188E-01-2.98738E-15 3.61769E-14
 -1      2828 2.02020E+01 1.10745E-01-1.84227E-04 2.81919E-01-3.69652E-14 5.64136E-14
 -1      2829 2.02447E+01 1.20237E-01 1.82576E-03 3.17496E-01-3.54523E-14 1.36127E-13
 -1      2830 2.01901E+01 1.56908E-01-7.51888E-04 3.69699E-01-5.40513E-14 8.50522E-14
 -1      2831 2.01489E+01 9.22733E-02-1.89204E-04 2.15981E-01-7.03624E-14 3.92847E-14
 -1      2832 2.01828E+01 1.02077E-01 1.62400E-03 2.46107E-01-9.16815E-15 2.47432E-14
 -1      2833 2.01439E+01 1.34859E-01-6.27058E-04 2.88834E-01-3.91605E-14 5.57012E-14
 -1      2834 2.01076E+01 7.45178E-02-1.69770E-04 1.61594E-01 2.17523E-14 1.34883E-14
 -1      2835 2.01340E+01 8.37117E-02 1.38907E-03 1.86298E-01-2.60308E-14 2.90064E-15
 -1      2836 2.01075E+01 1.11730E-01-5.28748E-04 2.20593E-01-3.85223E-14 3.38983E-14
 -1      2837 2.00759E+01 5.85791E-02-1.40603E-04 1.17932E-01 5.30949E-14 7.17383E-14
 -1      2838 2.00961E+01 6.66993E-02 1.15136E-03 1.37647E-01 4.58067E-14 9.96785E-14
 -1      2839 2.00791E+01 8.98300E-02-4.45743E-04 1.64650E-01 3.79960E-14 2.82536E-14
 -1      2840 2.00519E+01 4.49235E-02-1.09897E-04 8.37213E-02-7.60950E-14 1.66027E-13
 -1      2841 2.00671E+01 5.17979E-02 9.29108E-04 9.90730E-02 2.38741E-16 1.54110E-13
 -1      2842 2.00572E+01 7.03523E-02-3.72956E-04 1.19932E-01-2.94154E-14 4.24043E-14
 -1      2843 2.00342E+01 3.36290E-02-8.18087E-05 5.75231E-02-2.02436E-13 3.17420E-14
 -1      2844 2.00453E+01 3.92605E-02 7.31941E-04 6.92014E-02-1.19178E-13 1.78500E-13
 -1      2845 2.00404E+01 5.37703E-02-3.08414E-04 8.50011E-02-9.46833E-14 1.54205E-13
 -1      2846 2.00212E+01 2.45524E-02-5.80891E-05 3.79132E-02-2.32361E-13 1.95441E-15
 -1      2847 2.00292E+01 2.90407E-02 5.63679E-04 4.65910E-02-2.70959E-13-4.73445E-14
 -1      2848 2.00277E+01 4.01201E-02-2.51487E-04 5.83116E-02-2.08423E-13 4.41685E-14
 -1      2849 2.00121E+01 1.74397E-02-3.91356E-05 2.35816E-02-7.38331E-15 1.82386E-14
 -1      2850 2.00176E+01 2.09303E-02 4.24451E-04 2.98711E-02-1.25551E-13-1.94818E-14
 -1      2851 2.00183E+01 2.91923E-02-2.01960E-04 3.83688E-02-1.60631E-13-5.97952E-14
 -1      2852 2.00057E+01 1.19951E-02-2.46420E-05 1.33809E-02-4.96848E-14 1.56259E-13
 -1      2853 2.00095E+01 1.46473E-02 3.12225E-04 1.78136E-02 7.56151E-14 1.53895E-13
 -1      2854 2.00114E+01 2.06572E-02-1.59610E-04 2.38144E-02-1.92168E-14 2.13601E-14
 -1      2855 2.00015E+01 7.92256E-03-1.39882E-05 6.34215E-03 1.24578E-13 1.08792E-13
 -1      2856 2.00039E+01 9.89122E-03 2.23859E-04 9.36322E-03-3.50694E-14 1.07237E-13
 -1      2857 2.00066E+01 1.41437E-02-1.24055E-04 1.34676E-02 2.98072E-14-6.71323E-14
 -1      2858 1.99989E+01 4.94906E-03-6.46226E-06 1.67050E-03 1.54231E-13 3.71875E-13
 -1      2859 2.00003E+01 6.37448E-03 1.55797E-04 3.64265E-03 2.32261E-13 2.10870E-13
 -1      2860 2.00032E+01 9.28659E-03-9.47512E-05 6.33629E-03 7.34662E-14-3.74543E-14
 -1      2861 1.99974E+01 2.83521E-03-1.37989E-06-1.26990E-03 1.68725E-13 1.27370E-13
 -1      2862 1.99981E+01 3.83878E-03 1.04504E-04-5.85077E-05 1.85933E-13 2.07756E-13
 -1      2863 2.00009E+01 5.75159E-03-7.10323E-05 1.60895E-03 2.54316E-13 1.98980E-13
 -1      2864 1.99966E+01 1.37897E-03 1.85910E-06-2.97644E-03 2.01087E-13-2.11629E-14
 -1      2865 1.99969E+01 2.06213E-03 6.67123E-05-2.30192E-03 1.25574E-13 1.20870E-13
 -1      2866 1.99995E+01 3.24771E-03-5.21719E-05-1.36204E-03 1.97329E-13-1.42464E-13
 -1      2867 1.99964E+01 4.14625E-04 3.74993E-06-3.82988E-03 2.61771E-13 1.24899E-13
 -1      2868 1.99963E+01 8.59889E-04 3.95468E-05-3.52207E-03 2.84172E-13 1.82271E-13
 -1      2869 1.99987E+01 1.53031E-03-3.74358E-05-3.08248E-03 1.60541E-13-1.81867E-13
 -1      2870 1.99964E+01-1.90540E-04 4.68143E-06-4.11536E-03 2.83694E-13 3.30978E-14
 -1      2871 1.99962E+01 8.24650E-05 2.05698E-05-4.04778E-03 3.42253E-13 1.56722E-13
 -1      2872 1.99982E+01 3.99420E-04-2.61237E-05-3.93904E-03 2.99363E-13 6.31876E-15
 -1      2873 1.99967E+01-5.40692E-04 4.94463E-06-4.04134E-03 7.08647E-14-2.52553E-14
 -1      2874 1.99964E+01-3.88743E-04 7.77360E-06-4.12237E-03 1.85843E-13 1.00413E-13
 -1      2875 1.99981E+01-3.04674E-04-1.75966E-05-4.22095E-03 2.18740E-13 1.25575E-13
 -1      2876 1.99971E+01-7.16269E-04 4.74667E-06-3.75598E-03 1.88730E-13-2.64016E-13
 -1      2877 1.99968E+01-6.46048E-04-4.51519E-07-3.92123E-03 1.62297E-13-1.05530E-13
 -1      2878 1.99981E+01-7.07114E-04-1.12924E-05-4.13940E-03 2.19335E-13 3.50581E-14
 -1      2879 1.99975E+01-7.78619E-04 4.22873E-06-3.36077E-03-3.47677E-14-1.48433E-13
 -1      2880 1.99972E+01-7.60258E-04-5.36757E-06-3.56686E-03 4.16094E-14-3.34649E-13
 -1      2881 1.99982E+01-9.04398E-04-6.73075E-06-3.84423E-03 3.52561E-14-1.25392E-13
 -1      2882 1.99980E+01-7.74233E-04 3.50002E-06-2.92153E-03 1.27723E-13 1.91518E-15
 -1      2883 1.99976E+01-7.85170E-04-7.93466E-06-3.14107E-03 5.26596E-14-1.12835E-13
 -1      2884 1.99984E+01-9.70077E-04-3.51296E-06-3.43790E-03 2.18806E-14-1.55586E-13
 -1      2885 1.99983E+01-7.38841E-04 2.23263E-06-2.47732E-03 2.66396E-14 9.46131E-16
 -1      2886 1.99981E+01-7.61818E-04-8.93216E-06-2.69484E-03 1.12887E-13 4.34558E-14
 -1      2887 1.99987E+01-9.59787E-04-1.27443E-06-2.98676E-03 9.48699E-14 2.76445E-14
 -1      2888 1.99987E+01-7.00872E-04-1.75293E-06-2.04717E-03-1.31943E-13 1.43099E-13
 -1      2889 1.99984E+01-7.21236E-04-9.28716E-06-2.25428E-03-2.81929E-14 1.26578E-13
 -1      2890 1.99989E+01-9.14626E-04 1.70764E-06-2.53084E-03 2.45218E-14-1.95190E-14
 -1      2891 1.99990E+01-7.19858E-04-4.63856E-06-1.70654E-03-1.02119E-13 7.38722E-14
 -1      2892 1.99988E+01-7.32300E-04-1.03501E-05-1.90807E-03-1.35781E-13 7.26735E-14
 -1      2893 1.99991E+01-9.06367E-04 9.22818E-06-2.15230E-03-5.29552E-14 4.93083E-14
 -1      2894 1.99994E+01-9.50720E-04 1.46802E-05-1.84770E-03-1.45837E-13-2.04622E-13
 -1      2895 2.28499E+01-4.99405E+00-8.99399E-02 4.71542E+00-1.32630E-13-2.07423E-13
 -1      2896 1.97860E+01-4.63433E+00 1.37290E-01 5.77210E+00-3.15095E-13-5.93510E-14
 -1      2897 2.00007E+01-2.22497E-03 5.14162E-06-1.33249E-04 1.92330E-13 1.05017E-13
 -1      2898 2.00007E+01-2.19766E-03 2.85169E-06-3.69369E-04 2.05925E-13 1.75783E-13
 -1      2899 2.00004E+01-1.93556E-03 8.27449E-06-1.04895E-03-6.03831E-14-1.36518E-14
 -1      2900 2.00003E+01-1.81031E-03-2.55834E-06-1.20392E-03-6.17298E-14 8.62201E-14
 -1      2901 2.00007E+01-2.19688E-03 2.91848E-06 3.76115E-04-3.65469E-14 4.39869E-14
 -1      2902 2.00007E+01-2.22495E-03 5.07443E-06 1.40088E-04 2.67622E-14-9.81761E-15
 -1      2903 2.00009E+01-2.22953E-03-6.51534E-06 3.63165E-06 1.69944E-13-1.30671E-13
 -1      2904 2.00006E+01-2.13559E-03 6.96580E-06-6.27502E-04 7.41714E-14 2.61445E-14
 -1      2905 2.00005E+01-2.05545E-03 2.82607E-07-8.35803E-04 8.70806E-14-1.53892E-13
 -1      2906 2.00007E+01-2.00250E-03-5.55425E-06-1.04142E-03-8.40838E-14-9.22291E-14
 -1      2907 2.00008E+01-2.17177E-03-6.22067E-06-5.49880E-04 3.86578E-13 1.19276E-13
 -1      2908 2.00005E+01-2.05744E-03 2.18933E-07 8.34630E-04-2.37355E-14-7.23119E-14
 -1      2909 2.00006E+01-2.13603E-03 6.84373E-06 6.29851E-04-3.16004E-14 1.70661E-13
 -1      2910 2.00008E+01-2.17249E-03-6.39011E-06 5.52506E-04-8.15326E-14-1.61756E-15
 -1      2911 2.00003E+01-1.81259E-03-2.30431E-06 1.20301E-03-1.26652E-14-4.33363E-13
 -1      2912 2.00004E+01-1.93824E-03 8.05459E-06 1.04818E-03-5.70922E-14-3.34902E-13
 -1      2913 2.00007E+01-2.00496E-03-5.60567E-06 1.04009E-03-2.16340E-14-2.40628E-13
 -1      2914 2.00000E+01-1.48075E-03-1.80464E-06 1.42184E-03 1.26530E-13-4.08323E-14
 -1      2915 2.00002E+01-1.64560E-03 7.57793E-06 1.34594E-03 1.59173E-14-2.10355E-13
 -1      2916 2.00003E+01-1.73739E-03-3.73458E-06 1.41284E-03-1.56110E-14-2.51938E-13
 -1      2917 2.30027E+01 6.17976E-01-6.03644E-03 1.37378E+00 2.89173E-13 6.60591E-14
 -1      2918 1.05144E+01-2.39993E+00 1.18108E-01 5.77956E+00-2.76057E-13 3.14249E-13
 -1      2919 8.43194E+00-1.33607E+00 1.33002E-01 4.17822E+00-2.32037E-13 5.73402E-13
 -1      2920 1.59075E+01-4.21212E+00-1.10594E-02 6.66264E+00-3.30819E-13 1.34712E-13
 -1      2921 1.29396E+01-3.26187E+00 1.39578E-01 6.31231E+00-3.31346E-13 2.06432E-13
 -1      2922 1.30545E+01-2.34940E+00 1.45417E-01 5.64870E+00-3.09391E-13 1.88724E-13
 -1      2923 2.23066E+01 8.10157E-01 8.56462E-03 2.38449E-01-1.41816E-13-1.23519E-13
 -1      2924 2.27571E+01 7.36373E-02-1.77765E-02 3.61503E-01-1.23080E-13-7.27250E-14
 -1      2925 1.86404E+01-3.74987E+00-6.74931E-02 5.21253E+00 1.57777E-13-2.85480E-13
 -1      2926 1.50784E+01-2.50456E+00 1.95821E-01 5.44494E+00 2.00062E-13-4.73982E-13
 -1      2927 7.03401E+00 1.28791E+00 1.21141E-01 1.30760E+00 7.18661E-14-8.61922E-13
 -1      2928 6.31238E+00 1.43521E+00 1.62753E-01-6.02135E-01-2.00881E-15-9.18376E-13
 -1      2929 2.30348E+01-1.12561E-01 4.38320E-03 1.84903E+00 1.56276E-13 1.29519E-13
 -1      2930 2.32133E+01-3.36282E-01-3.60696E-03 1.78176E+00 1.59945E-13 1.54236E-13
 -1      2931 2.34868E+01 7.67836E-02 1.02890E-02 2.02255E+00 2.03317E-13 8.03463E-14
 -1      2932 2.20198E+01 1.80192E+00-1.76671E-03 1.32293E-01 2.93883E-13-1.95677E-14
 -1      2933 2.20522E+01 1.68514E+00-2.50072E-02 6.33473E-01 2.82610E-13 8.05259E-15
 -1      2934 2.27349E+01 2.00959E+00 1.84369E-03 1.09457E+00 2.94339E-13-6.02383E-15
 -1      2935 2.25959E+01 2.18497E+00-4.34677E-03-1.87011E-01 3.10568E-13-3.08772E-14
 -1      2936 2.33978E+01-5.45980E-01 4.88339E-02 4.36626E-01-6.16447E-14-9.62945E-15
 -1      2937 2.37519E+01-1.23915E+00-1.08929E-02 4.07021E-01-3.55653E-14 1.75649E-14
 -1      2938 2.33667E+01-1.68115E+00-1.95037E-02 8.94846E-01 5.87898E-15 3.48853E-15
 -1      2939 2.20761E+01-3.49678E-01-2.98390E-02 9.03579E-01-5.80248E-14-1.09446E-13
 -1      2940 2.73269E+01-3.32163E+00-1.47812E-01 1.33067E+00 1.16924E-13-4.03608E-13
 -1      2941 2.56372E+01-4.26016E+00 6.73700E-02 2.80991E+00-1.38223E-14-3.65055E-13
 -1      2942 2.31903E+01-4.33626E-01-8.16071E-03 1.60652E+00 1.81662E-13 1.37382E-13
 -1      2943 2.33276E+01-4.02420E-01 7.11313E-03 1.50284E+00 1.96240E-13 1.38935E-13
 -1      2944 2.33831E+01-3.80706E-01 4.94583E-03 1.43643E+00 2.06083E-13 1.03053E-13
 -1      2945 2.35472E+01-4.68089E-01 4.52566E-03 1.75149E+00 1.67370E-13 1.42462E-13
 -1      2946 1.99742E+01 1.01019E+00 1.00095E-02-9.99251E-01 5.63083E-14-2.61953E-13
 -1      2947 1.89296E+01 1.26756E+00-3.04049E-03-1.47811E+00 1.90776E-15-3.20084E-13
 -1      2948 2.08388E+01 2.42385E-01-9.55390E-03-8.38074E-01 4.70392E-14-1.89535E-13
 -1      2949 1.36299E+01 3.34680E+00-2.81943E-02 9.65621E-01 3.54183E-14-5.63063E-13
 -1      2950 1.49425E+01 3.05121E+00 5.48973E-02 1.25288E+00 2.83131E-14-5.00752E-13
 -1      2951 2.78584E+01-1.81238E+00 6.16429E-02-4.26621E-01 1.73125E-13 1.70794E-13
 -1      2952 2.85368E+01-3.84496E-01-1.96466E-01 8.01857E-01 3.41227E-13 1.95274E-13
 -1      2953 2.89217E+01 1.80506E+00-4.35614E-02 1.81016E+00 4.14307E-13 1.86490E-13
 -1      2954 2.84871E+01 3.53242E+00-1.74234E-01 2.08204E+00 5.29132E-13 1.40388E-13
 -1      2955 2.89601E+01-2.44863E+00-1.19421E-01-5.18651E-01-1.99671E-13 2.57308E-13
 -1      2956 2.75497E+01-3.66083E+00 2.86924E-02 1.01148E+00-2.79568E-14 1.40887E-13
 -1      2957 2.33921E+01-3.65366E+00 1.02533E-01-4.02955E+00-1.16643E-13-1.26239E-13
 -1      2958 2.57436E+01-3.39100E+00-1.52922E-01-2.45971E+00 2.82552E-14 5.98827E-14
 -1      2959 1.33148E+01-3.35579E+00 1.22570E-01-5.94945E+00 3.76518E-13 4.14252E-13
 -1      2960 1.69224E+01-4.33754E+00 3.48456E-02-6.12343E+00 3.02161E-13 2.15744E-13
 -1      2961 1.34967E+01-2.31001E+00 1.49256E-01-5.19991E+00 3.58602E-13 4.19165E-13
 -1      2962 1.71055E+01-2.97015E+00 1.00842E-01-6.03839E+00-2.43458E-13-4.53186E-13
 -1      2963 2.02565E+01-3.68784E+00-3.38318E-02-5.46905E+00-1.80855E-13-2.96582E-13
 -1      2964 6.61934E+00 1.23404E+00 1.39259E-01-2.08675E+00-9.83137E-14-9.06775E-13
 -1      2965 8.06005E+00 7.93836E-01 1.21159E-01-3.82088E+00-1.67422E-13-8.42965E-13
 -1      2966 8.34075E+00 2.09422E+00 1.73939E-01-1.34367E+00-5.19706E-14-8.49223E-13
 -1      2967 2.04426E+01 1.93139E+00-1.27331E-02 3.05958E-01-1.35009E-13-2.53055E-13
 -1      2968 2.52720E+01-4.46631E+00-1.10464E-01 2.77239E+00 6.64607E-14-3.52496E-14
 -1      2969 2.27732E+01-4.27582E+00 1.24320E-01 3.93371E+00 1.25774E-13-1.24029E-13
 -1      2970 1.99994E+01-8.27291E-04-1.13430E-06 1.37197E-03 4.78634E-14 1.03841E-13
 -1      2971 1.99995E+01-9.98099E-04-1.09376E-06 1.41734E-03 7.42753E-14-1.58049E-13
 -1      2972 1.99993E+01-8.32648E-04-5.85531E-06 1.51262E-03 2.31658E-13 3.51495E-14
 -1      2973 2.72138E+01-3.98065E+00 5.91422E-02-9.83859E-01 1.29084E-13-3.66956E-13
 -1      2974 2.81957E+01-3.39900E+00-1.83415E-01 2.27276E-01 5.09731E-14-3.75838E-13
 -1      2975 2.79460E+01 5.28841E+00-1.35188E-01 1.59994E+00 6.27304E-13 3.18010E-14
 -1      2976 2.80491E+01 6.28766E+00-1.75553E-01 7.94694E-01 6.41487E-13-4.26673E-14
 -1      2977 2.91930E+01 3.98948E-01-1.69879E-01-9.55965E-01 3.62793E-13-3.07060E-13
 -1      2978 2.86662E+01-1.03717E+00-2.74417E-02-2.33901E-01 2.76883E-13-3.61294E-13
 -1      2979 2.82718E+01 1.18507E+00-7.84226E-02-1.66409E+00 3.59296E-13-2.43139E-13
 -1      2980 2.76762E+01-2.52011E-01-5.61925E-02-2.57246E+00-3.00031E-13 1.83006E-13
 -1      2981 2.95195E+01 4.10029E-01-1.02360E-01-2.34771E+00-4.39274E-13 2.52548E-13
 -1      2982 2.92407E+01-1.56392E+00-8.16690E-02-1.63378E+00-2.56531E-13 2.70881E-13
 -1      2983 2.75333E+01-1.54517E+00-7.03558E-02-2.24650E+00-1.64199E-13 1.79023E-13
 -1      2984 1.64190E+01 2.29908E+00-3.85996E-02 1.40639E+00 1.62765E-14-4.25040E-13
 -1      2985 1.80331E+01 1.89345E+00 2.34273E-02 1.32459E+00-1.45812E-14-3.71075E-13
 -1      2986 1.56228E+01 2.04824E+00 1.36439E-02 1.84672E+00 4.91274E-14-4.54828E-13
 -1      2987 1.31652E+01 2.92013E+00 3.19088E-02-2.33637E+00-8.85143E-14-5.91152E-13
 -1      2988 1.29435E+01 3.66876E+00 4.25243E-02-1.67986E+00-5.98614E-14-6.00966E-13
 -1      2989 1.23577E+01 3.83012E+00-1.31383E-02-1.20082E+00-5.06426E-14-6.22275E-13
 -1      2990 2.81413E+01-2.28738E+00-1.58071E-02-1.13587E+00-1.41269E-13 2.64122E-13
 -1      2991 2.21968E+01-3.40155E+00 7.22535E-02-4.14236E+00-1.95705E-13-1.63383E-13
 -1      2992 9.70001E+00 8.43626E-01 2.42789E-02 3.04630E+00 1.50373E-13-7.43003E-13
 -1      2993 8.31262E+00 1.23133E+00 1.90545E-01 2.17680E+00 1.05214E-13-8.25118E-13
 -1      2994 8.97339E+00 2.15363E+00 1.39091E-01 1.06701E+00 5.34850E-14-8.03121E-13
 -1      2995 1.98424E+01-4.58473E+00 1.17139E-01-5.37516E+00 3.24851E-13 6.50487E-14
 -1      2996 2.19928E+01-4.67232E+00-3.68252E-02-4.19041E+00 3.50102E-13-1.65317E-13
 -1      2997 1.84365E+01-3.69344E+00 9.13527E-02-5.22170E+00 3.79190E-13 7.31151E-14
 -1      2998 2.57786E+01-4.25842E+00 4.56544E-02-1.84220E+00 2.03736E-13-3.34746E-13
 -1      2999 2.74985E+01-2.42197E+00-2.87520E-02-1.20104E+00-1.13761E-13 2.12816E-13
 -1      3000 2.80676E+01 5.00394E+00-3.17551E-01 9.64006E-01-6.83981E-13-2.70967E-13
 -1      3001 1.99995E+01-1.00664E-03 1.60331E-06 1.69786E-03 1.20334E-13-1.51262E-13
 -1      3002 2.89408E+01-1.08005E+00-8.52636E-02 1.47860E+00-1.82868E-13-4.75911E-13
 -1      3003 1.86532E+01-4.02207E+00 8.59132E-02 5.69772E+00-3.19647E-13 2.00534E-14
 -1      3004 2.42951E+01-4.40231E+00 5.27123E-02 3.15834E+00-6.18464E-14-2.73469E-13
 -1      3005 2.00003E+01-1.73562E-03-4.67744E-06-1.41056E-03-7.90685E-15 3.31594E-14
 -1      3006 2.00002E+01-1.64329E-03 1.05847E-05-1.34385E-03-2.04768E-14-2.07274E-15
 -1      3007 2.00000E+01-1.48933E-03-7.47385E-06-1.43082E-03-1.32218E-13-5.90778E-14
 -1      3008 1.99997E+01-1.18421E-03 6.12890E-06-1.49818E-03-2.80300E-13-4.58160E-14
 -1      3009 2.11477E+01-3.55158E+00 9.10390E-02 3.99188E+00 1.82854E-13-1.82685E-13
 -1      3010 8.06672E+00-5.48490E-01 2.09958E-01 2.96120E+00-1.78968E-13 6.84952E-13
 -1      3011 8.12223E+00-6.26978E-02 1.20926E-01 1.48731E+00-7.33233E-14 5.67629E-13
 -1      3012 1.00779E+01-7.07286E-01 1.22302E-01 3.75625E+00-2.66190E-13 4.71442E-13
 -1      3013 2.29145E+01 4.45661E-01 5.95428E-04 1.28000E+00 2.62129E-13 1.93413E-14
 -1      3014 1.99997E+01-1.19237E-03-1.42860E-07 1.43167E-03 1.97671E-13-1.32933E-13
 -1      3015 8.24696E+00-5.39368E-01 1.82592E-01-2.54125E+00 1.25788E-13 6.08624E-13
 -1      3016 1.04513E+01-4.27160E-01 1.24046E-01-3.09336E+00 2.29278E-13 5.13173E-13
 -1      3017 8.40820E+00 9.97280E-02 1.06569E-01-9.69443E-01 3.99542E-14 4.98657E-13
 -1      3018 2.74694E+01 4.01141E+00-1.35291E-01 2.04726E+00 5.18502E-13 1.00961E-13
 -1      3019 2.59397E+01 4.33372E+00-1.40401E-01 1.73542E+00 4.96436E-13 7.21229E-14
 -1      3020 2.67855E+01 2.93733E+00-2.33286E-02 2.27047E+00 3.98792E-13 1.62925E-13
 -1      3021 1.38680E+01-1.39409E+00 1.37626E-01 4.84020E+00 2.08042E-13-5.39416E-13
 -1      3022 1.86576E+01 7.43181E-01-1.61504E-02-2.05653E+00-4.68757E-14-3.14388E-13
 -1      3023 2.00552E+01 1.42507E+00-3.33180E-03 7.58998E-01-6.89882E-14-2.71380E-13
 -1      3024 2.78817E+01 3.81463E-01-7.70439E-02 1.57755E+00 3.19120E-13 1.75970E-13
 -1      3025 9.83834E+00 5.89750E-01 1.58094E-01-4.35296E+00-2.06238E-13-7.64264E-13
 -1      3026 1.16520E+01 2.41297E-01 2.84204E-02-4.81023E+00-2.53644E-13-6.62900E-13
 -1      3027 1.00033E+01 1.69391E+00 1.04615E-01-3.38184E+00-1.64431E-13-7.47152E-13
 -1      3028 1.22836E+01 3.93401E+00 4.21223E-03-3.07094E-01-7.33528E-15-6.21980E-13
 -1      3029 1.27265E+01 3.84128E+00 2.84029E-02 2.47070E-01 6.19968E-15-6.24086E-13
 -1      3030 1.28709E+01 3.21896E+00 5.88327E-02 9.20303E-01 3.83782E-14-6.11278E-13
 -1      3031 1.18291E+01 3.59173E+00 5.72261E-02-8.07627E-01-2.85492E-14-6.58352E-13
 -1      3032 2.64176E+01-2.58640E+00-5.91621E-03-1.04984E+00 4.73337E-14 1.29050E-13
 -1      3033 1.43789E+01-8.67826E-01 1.46621E-01-5.48068E+00-3.00426E-13-5.56499E-13
 -1      3034 1.57231E+01-2.19472E+00 9.38325E-02-5.92631E+00-2.85258E-13-5.28542E-13
 -1      3035 1.77395E+01-2.35589E+00-2.26517E-02-5.24208E+00-3.04846E-13-3.70710E-13
 -1      3036 2.64869E+01-3.71954E+00 6.69434E-02 1.18681E+00 6.30745E-14 1.24817E-13
 -1      3037 2.74259E+01-2.27501E+00-4.60679E-02 5.26186E-02 1.52323E-13-3.44919E-13
 -1      3038 2.81924E+01 4.57777E+00-1.39763E-01-1.60430E+00 6.12482E-13-2.07875E-13
 -1      3039 2.72061E+01 3.33861E+00-6.89522E-02-1.92216E+00 5.14727E-13-2.44631E-13
 -1      3040 2.69036E+01 5.02219E+00-1.23808E-01-1.36140E+00 6.19255E-13-1.47118E-13
 -1      3041 2.29634E+01-4.47285E-02-7.72972E-03 1.07498E+00 2.18161E-13 4.44978E-15
 -1      3042 2.70955E+01 5.90526E+00-1.28277E-01 3.25833E-01 6.45400E-13-5.33115E-14
 -1      3043 1.99997E+01-1.15300E-03 1.65212E-06 1.64954E-03-3.98100E-15-2.40700E-13
 -1      3044 1.99999E+01-1.34491E-03 1.69141E-06 1.52162E-03 1.62818E-13-9.79442E-14
 -1      3045 2.00000E+01-1.44058E-03-3.25777E-06 1.65029E-03 8.95239E-14 5.54136E-14
 -1      3046 1.99996E+01-1.16795E-03-4.29487E-06 1.79344E-03-1.11348E-14-8.16130E-14
 -1      3047 2.28935E+01-3.84984E-01-1.27147E-02 6.17674E-01 1.43601E-13-4.08532E-14
 -1      3048 2.25068E+01-3.47344E-01 2.04653E-02 1.47998E-01 1.03687E-13-8.23124E-14
 -1      3049 2.10449E+01-2.87267E+00 1.39619E-01-4.27625E+00-2.50779E-13-2.15240E-13
 -1      3050 2.30666E+01-3.41920E+00-1.17986E-01-3.17863E+00-1.52808E-13-4.65556E-14
 -1      3051 2.19327E+01-4.87072E-01-1.05714E-02-5.77839E-01 4.49454E-14-1.15786E-13
 -1      3052 2.11394E+01-3.19950E-01 2.15911E-02-1.20877E+00-2.26477E-14-1.46509E-13
 -1      3053 2.27815E+01-9.42413E-01 6.31384E-03-1.88901E-01 5.99527E-14-3.81375E-14
 -1      3054 2.54368E+01-2.84507E+00 1.05068E-01-1.43915E+00-5.26003E-14 1.04236E-13
 -1      3055 2.64701E+01-2.19457E+00-1.54181E-01 1.02811E-01 1.13003E-13 1.59386E-13
 -1      3056 1.99680E+01-4.01849E+00-8.85844E-02 4.86342E+00-2.06613E-13-3.53745E-14
 -1      3057 1.72538E+01-3.05200E+00 1.21055E-01 5.43611E+00-2.59098E-13 9.29118E-14
 -1      3058 2.30608E+01-3.42032E+00 7.59678E-03-2.49743E+00 2.70901E-13-2.06243E-13
 -1      3059 2.20628E+01-2.69963E+00 5.58156E-02-2.77155E+00 2.23558E-13-1.68490E-13
 -1      3060 2.13024E+01-1.95833E+00 3.14628E-02-2.69965E+00 1.10536E-13-6.04985E-14
 -1      3061 2.06642E+01-1.31661E+00 3.19124E-02-2.70333E+00 8.14826E-14-1.40610E-14
 -1      3062 2.03664E+01-2.46576E+00-5.43590E-02-3.46174E+00 2.52491E-13-2.52125E-14
 -1      3063 2.03530E+01-7.93086E-01 2.07659E-02-2.48267E+00 9.64636E-14-6.59255E-15
 -1      3064 1.99995E+01-3.62428E-01 9.96493E-03-2.39253E+00 1.44366E-13 4.56725E-14
 -1      3065 1.94114E+01-1.01525E+00-2.80440E-02-2.94074E+00 1.03418E-13 1.24394E-13
 -1      3066 1.99331E+01-3.19174E-02 1.44668E-02-2.17302E+00 5.82406E-14 9.94593E-15
 -1      3067 1.97578E+01 2.10663E-01 8.19016E-04-2.04925E+00 6.33216E-15-2.30793E-14
 -1      3068 1.91373E+01-9.15053E-02-1.05485E-02-2.42027E+00 4.31241E-14 1.68121E-13
 -1      3069 1.97979E+01 3.88070E-01 8.89157E-03-1.86210E+00-1.80735E-14-2.99350E-14
 -1      3070 1.97189E+01 5.03221E-01-2.75264E-03-1.73167E+00-6.18626E-14-3.99783E-14
 -1      3071 1.91488E+01 4.19506E-01-2.78556E-03-1.98924E+00-1.70697E-14 2.04766E-14
 -1      3072 1.97969E+01 5.79314E-01 5.59680E-03-1.57456E+00-1.83937E-14-6.98741E-14
 -1      3073 1.97636E+01 6.15583E-01-3.80833E-03-1.44835E+00 3.50548E-14 9.32774E-15
 -1      3074 1.92770E+01 6.59839E-01 9.71502E-04-1.64100E+00-1.29234E-14 4.08183E-14
 -1      3075 1.98463E+01 6.31005E-01 3.80143E-03-1.31521E+00 5.64643E-14 3.26722E-15
 -1      3076 1.98314E+01 6.22724E-01-3.86408E-03-1.19819E+00 6.61381E-14 2.78798E-14
 -1      3077 1.94355E+01 7.34030E-01 2.48064E-03-1.35488E+00 4.03876E-14-1.22224E-14
 -1      3078 1.99047E+01 6.05316E-01 2.85403E-03-1.08431E+00 8.66483E-14 9.76878E-14
 -1      3079 1.98951E+01 5.74671E-01-3.52674E-03-9.79055E-01 5.42541E-14 1.41146E-13
 -1      3080 1.95839E+01 7.14205E-01 2.74434E-03-1.11400E+00 9.54255E-14 4.45326E-14
 -1      3081 1.99545E+01 5.41911E-01 2.34050E-03-8.81564E-01-1.31564E-14 1.98449E-13
 -1      3082 1.99452E+01 5.02310E-01-3.04701E-03-7.89320E-01-4.49678E-15 1.72833E-13
 -1      3083 1.97073E+01 6.46688E-01 2.44520E-03-9.08281E-01 8.20436E-14 1.84269E-13
 -1      3084 1.99907E+01 4.64462E-01 2.02154E-03-7.06420E-01 1.42667E-14 1.29390E-13
 -1      3085 1.99804E+01 4.23500E-01-2.54239E-03-6.27424E-01 5.48437E-14 7.20397E-14
 -1      3086 1.98028E+01 5.59640E-01 1.95769E-03-7.32234E-01-2.09478E-14 3.03345E-13
 -1      3087 2.00139E+01 3.86175E-01 1.77682E-03-5.57740E-01 6.62232E-14-6.05987E-14
 -1      3088 2.00029E+01 3.47814E-01-2.06928E-03-4.91484E-01 9.11224E-14-1.72294E-13
 -1      3089 1.98731E+01 4.69270E-01 1.46404E-03-5.82635E-01-2.09486E-14 2.20120E-13
 -1      3090 2.00268E+01 3.13782E-01 1.55564E-03-4.33725E-01 3.25930E-14-1.41632E-13
 -1      3091 2.00157E+01 2.79819E-01-1.65221E-03-3.79196E-01-9.41630E-14-6.21840E-14
 -1      3092 1.99229E+01 3.84217E-01 1.03978E-03-4.57040E-01 7.69304E-14-1.09424E-13
 -1      3093 2.00323E+01 2.50209E-01 1.34272E-03-3.32039E-01-1.81361E-13-2.26746E-14
 -1      3094 2.00218E+01 2.21211E-01-1.29843E-03-2.87936E-01-2.33601E-13 3.72650E-14
 -1      3095 1.99570E+01 3.08529E-01 7.05632E-04-3.53126E-01-9.42457E-14-8.01514E-14
 -1      3096 2.00330E+01 1.96244E-01 1.13803E-03-2.50026E-01-2.40148E-13-8.50631E-15
 -1      3097 2.00236E+01 1.72118E-01-1.00615E-03-2.14939E-01-2.14432E-13 1.50068E-14
 -1      3098 1.99795E+01 2.43594E-01 4.57015E-04-2.68477E-01-2.38262E-13-4.12646E-14
 -1      3099 2.00309E+01 1.51548E-01 9.46305E-04-1.84934E-01-1.93401E-13 5.95501E-14
 -1      3100 2.00227E+01 1.31878E-01-7.69348E-04-1.57461E-01-1.72808E-13 6.82757E-14
 -1      3101 1.99938E+01 1.89329E-01 2.79802E-04-2.00608E-01-2.10820E-13 6.08047E-14
 -1      3102 2.00273E+01 1.15243E-01 7.72235E-04-1.34085E-01-6.50594E-14 1.80976E-13
 -1      3103 2.00204E+01 9.94777E-02-5.80450E-04-1.12913E-01-4.94582E-15 1.13605E-13
 -1      3104 2.00023E+01 1.44908E-01 1.58043E-04-1.47056E-01-9.24667E-14 1.58772E-13
 -1      3105 2.00232E+01 8.62416E-02 6.18838E-04-9.49946E-02-8.50285E-14 7.69393E-14
 -1      3106 2.00176E+01 7.37991E-02-4.31756E-04-7.89425E-02-9.09979E-14 8.89859E-15
 -1      3107 2.00070E+01 1.09171E-01 7.73421E-05-1.05480E-01-7.14904E-14 1.04141E-13
 -1      3108 2.00191E+01 6.34244E-02 4.87220E-04-6.54399E-02-4.12195E-14 1.92527E-14
 -1      3109 2.00146E+01 5.37492E-02-3.16142E-04-5.34786E-02 1.10188E-13 8.59647E-14
 -1      3110 2.00092E+01 8.08693E-02 2.59792E-05-7.37352E-02-8.74958E-14 1.86271E-13
 -1      3111 2.00153E+01 4.57367E-02 3.76929E-04-4.34888E-02 8.40795E-14-3.88367E-14
 -1      3112 2.00118E+01 3.83249E-02-2.27332E-04-3.47434E-02 4.19595E-14-1.69044E-13
 -1      3113 2.00098E+01 5.87902E-02-5.03132E-06-4.99183E-02 8.15946E-15 4.14527E-14
 -1      3114 2.00120E+01 3.22298E-02 2.86446E-04-2.75023E-02 8.51706E-14-2.23061E-13
 -1      3115 2.00093E+01 2.66401E-02-1.59970E-04-2.12451E-02 8.16962E-14-1.82477E-13
 -1      3116 2.00095E+01 4.18220E-02-2.23091E-05-3.23863E-02 1.15052E-14-1.61381E-13
 -1      3117 2.00092E+01 2.20778E-02 2.13640E-04-1.61189E-02 1.29595E-14-7.71436E-14
 -1      3118 2.00072E+01 1.79333E-02-1.09572E-04-1.17553E-02-1.70234E-13-4.39175E-14
 -1      3119 2.00086E+01 2.89840E-02-3.05909E-05-1.97534E-02 6.59014E-14-3.10390E-13
 -1      3120 2.00069E+01 1.45786E-02 1.56116E-04-8.22876E-03-2.59135E-13 1.44283E-13
 -1      3121 2.00054E+01 1.15637E-02-7.24403E-05-5.28143E-03-1.07019E-13 1.91816E-13
 -1      3122 2.00075E+01 1.94329E-02-3.31876E-05-1.08745E-02-5.24544E-14-3.45381E-14
 -1      3123 2.00050E+01 9.14653E-03 1.11463E-04-2.94243E-03-1.51385E-13 2.75887E-13
 -1      3124 2.00040E+01 7.00145E-03-4.55641E-05-1.03440E-03-2.83148E-13 1.54603E-13
 -1      3125 2.00063E+01 1.24592E-02-3.23650E-05-4.82166E-03-9.76019E-14 1.64628E-13
 -1      3126 2.00036E+01 5.30116E-03 7.74117E-05 4.40822E-04-2.67779E-13 5.02166E-14
 -1      3127 2.00029E+01 3.81540E-03-2.65196E-05 1.60242E-03-1.20003E-13 2.92544E-14
 -1      3128 2.00052E+01 7.47632E-03-2.96402E-05-8.55835E-04-3.49451E-13 9.30763E-14
 -1      3129 2.00025E+01 2.65439E-03 5.19193E-05 2.46399E-03-1.08517E-13-7.74792E-14
 -1      3130 2.00020E+01 1.65982E-03-1.33764E-05 3.10296E-03-2.92539E-14-2.17953E-13
 -1      3131 2.00042E+01 4.00722E-03-2.60044E-05 1.60114E-03-2.12409E-13 4.70014E-14
 -1      3132 2.00016E+01 8.97129E-04 3.32139E-05 3.54072E-03 6.51158E-14-2.52281E-13
 -1      3133 2.00013E+01 2.61338E-04-4.61567E-06 3.82502E-03 2.08221E-14-4.00615E-13
 -1      3134 2.00033E+01 1.66953E-03-2.20842E-05 2.99389E-03-7.61083E-14-1.93785E-13
 -1      3135 2.00010E+01-2.13385E-04 1.98013E-05 3.98032E-03 1.17714E-14-3.06296E-13
 -1      3136 2.00008E+01-5.93317E-04 9.42572E-07 4.03355E-03 1.11319E-13-3.07874E-13
 -1      3137 2.00025E+01 1.61157E-04-1.82592E-05 3.65817E-03 8.64249E-14-3.03035E-13
 -1      3138 2.00005E+01-8.65394E-04 1.04506E-05 4.00936E-03 2.65033E-13-1.58414E-13
 -1      3139 2.00005E+01-1.06848E-03 4.20431E-06 3.92028E-03 2.39917E-13-2.28690E-13
 -1      3140 2.00019E+01-7.53393E-04-1.47453E-05 3.84248E-03 1.82020E-13-1.06136E-13
 -1      3141 2.00002E+01-1.20312E-03 4.16988E-06 3.78970E-03 1.34954E-13-2.48486E-13
 -1      3142 2.00002E+01-1.28938E-03 5.85246E-06 3.62018E-03 1.88666E-13-1.99274E-13
 -1      3143 2.00013E+01-1.25542E-03-1.16506E-05 3.72654E-03 2.04219E-13-4.50383E-14
 -1      3144 2.00000E+01-1.33597E-03 1.73907E-07 3.43336E-03 1.90508E-13-1.40881E-13
 -1      3145 2.00000E+01-1.35071E-03 6.38893E-06 3.22478E-03 2.22363E-13 1.26440E-14
 -1      3146 2.00009E+01-1.48299E-03-9.03530E-06 3.43672E-03 3.06716E-13 5.12139E-14
 -1      3147 1.99998E+01-1.34650E-03-2.10728E-06 3.01448E-03 1.07218E-13-1.51481E-14
 -1      3148 1.99999E+01-1.32373E-03 6.24904E-06 2.79277E-03-6.76062E-14-5.65342E-14
 -1      3149 2.00006E+01-1.54057E-03-6.93144E-06 3.05856E-03 2.06397E-13 4.50472E-15
 -1      3150 1.99997E+01-1.29740E-03-3.24613E-06 2.57913E-03-2.49132E-13-8.89338E-15
 -1      3151 1.99998E+01-1.26256E-03 4.86497E-06 2.35823E-03-1.57013E-13-1.10432E-13
 -1      3152 2.00003E+01-1.50671E-03-5.46083E-06 2.64710E-03-1.13327E-13 9.52446E-14
 -1      3153 1.99997E+01-1.22400E-03-3.85413E-06 2.18107E-03 4.78031E-14-1.40115E-13
 -1      3154 1.99997E+01-1.19578E-03 2.83627E-06 1.96486E-03 1.27915E-13-7.19079E-14
 -1      3155 1.99999E+01-1.34034E-03 6.64358E-07 1.91623E-03-6.83357E-14 1.92720E-15
 -1      3156 2.00001E+01-1.42613E-03-3.01897E-06 2.26398E-03-1.61846E-14-7.80793E-14
 -1      3157 2.36923E+01 1.50186E+00 4.85978E-03 1.88785E+00 2.93569E-13 3.02709E-14
 -1      3158 2.38542E+01 8.29581E-01-3.99321E-02 2.13487E+00 2.52359E-13 7.33805E-14
 -1      3159 2.37358E+01 3.59235E-02-3.53767E-02-1.89808E+00 1.66522E-13-2.98924E-13
 -1      3160 2.36403E+01 8.38452E-01 9.57862E-03-1.88086E+00 2.55849E-13-2.74819E-13
 -1      3161 2.34320E+01 1.63302E+00-5.55276E-02-1.66378E+00 3.26921E-13-2.43713E-13
 -1      3162 2.33173E+01 2.34744E+00 6.07401E-03-1.24943E+00 3.53533E-13-1.86308E-13
 -1      3163 2.42722E+01 1.50507E+00-2.09970E-03-1.93680E+00 3.32241E-13-3.49467E-13
 -1      3164 2.31818E+01-1.52355E+00 8.20650E-03-5.65918E-01-8.61402E-14-1.17842E-13
 -1      3165 2.33290E+01-1.40363E+00-1.36778E-02-9.06949E-01-3.94555E-14-2.06127E-13
 -1      3166 2.25289E+01-1.41438E+00 1.55631E-02 1.30673E-01-1.85064E-14-9.03079E-14
 -1      3167 2.27431E+01-1.52474E+00-1.25597E-02-1.69577E-01-1.48700E-14-8.60462E-14
 -1      3168 2.30973E+01-1.82740E+00-6.81334E-03-9.36083E-02-9.82714E-14-2.09765E-13
 -1      3169 2.18821E+01-1.05529E+00 1.45384E-02 6.04159E-01-6.90789E-15-1.04668E-13
 -1      3170 2.21051E+01-1.25765E+00-9.28302E-03 3.94902E-01-1.76682E-15-7.92450E-14
 -1      3171 2.22513E+01-1.57908E+00-1.35524E-02 5.47272E-01 2.12012E-14-2.02011E-13
 -1      3172 2.13469E+01-6.53308E-01 1.10565E-02 8.63588E-01-2.74264E-14-3.61002E-14
 -1      3173 2.15441E+01-8.57130E-01-5.28354E-03 7.43848E-01-9.02056E-15-6.86532E-14
 -1      3174 2.15293E+01-1.11383E+00-1.43100E-02 9.14983E-01-1.85453E-14-8.19463E-14
 -1      3175 2.09465E+01-3.11789E-01 7.37760E-03 9.63149E-01-1.29944E-13 8.03350E-14
 -1      3176 2.11062E+01-4.75868E-01-2.07903E-03 9.13321E-01-7.61490E-14 1.31005E-14
 -1      3177 2.09921E+01-6.46726E-01-1.14180E-02 1.07137E+00-9.79416E-14-9.80983E-14
 -1      3178 2.06639E+01-6.28150E-02 4.39525E-03 9.57809E-01-5.60261E-14 1.26435E-14
 -1      3179 2.07874E+01-1.77825E-01-1.35048E-04 9.56338E-01-6.90280E-14 7.88636E-14
 -1      3180 2.06250E+01-2.71357E-01-7.88292E-03 1.09018E+00-8.51929E-14 4.56552E-14
 -1      3181 2.04701E+01 9.75645E-02 2.23288E-03 8.89833E-01-5.56372E-14 3.45270E-15
 -1      3182 2.05643E+01 2.63976E-02 9.15573E-04 9.18629E-01-5.05386E-14 3.01841E-14
 -1      3183 2.03882E+01-8.35333E-03-5.07145E-03 1.02820E+00-6.69755E-14-3.09135E-14
 -1      3184 2.03385E+01 1.87014E-01 8.15140E-04 7.88989E-01-3.47551E-14 9.21426E-14
 -1      3185 2.04105E+01 1.49615E-01 1.44632E-03 8.34385E-01-5.53017E-14 1.33353E-13
 -1      3186 2.02418E+01 1.55045E-01-3.09307E-03 9.23496E-01-1.05656E-13 1.13924E-13
 -1      3187 2.02484E+01 2.25574E-01-3.41092E-05 6.75302E-01 1.00217E-14 8.35644E-14
 -1      3188 2.03042E+01 2.11717E-01 1.68430E-03 7.27660E-01 2.02424E-14 1.58008E-13
 -1      3189 2.01541E+01 2.41699E-01-1.79729E-03 8.00465E-01-1.63236E-14 2.66937E-13
 -1      3190 2.01855E+01 2.30759E-01-4.91645E-04 5.61598E-01-2.13796E-14 1.17119E-13
 -1      3191 2.02294E+01 2.31924E-01 1.74273E-03 6.14547E-01 5.81098E-15 1.29687E-13
 -1      3192 2.01026E+01 2.74654E-01-1.00789E-03 6.74435E-01 7.07098E-15 2.62914E-13
 -1      3193 2.01405E+01 2.16055E-01-6.94904E-04 4.55554E-01-3.02017E-14 1.22298E-13
 -1      3194 2.01753E+01 2.25865E-01 1.68787E-03 5.05196E-01-3.25207E-14 8.96553E-14
 -1      3195 2.00725E+01 2.73143E-01-5.56799E-04 5.54649E-01-4.01345E-14 2.63670E-13
 -1      3196 2.01072E+01 1.91031E-01-7.42917E-04 3.61264E-01-6.26365E-14 8.32093E-14
 -1      3197 2.01350E+01 2.05054E-01 1.56214E-03 4.05487E-01-4.63582E-14 9.94222E-14
 -1      3198 2.00545E+01 2.51607E-01-3.14291E-04 4.46287E-01-3.77907E-14 1.83689E-13
 -1      3199 2.00821E+01 1.62045E-01-7.03200E-04 2.80398E-01-2.14772E-14-2.87720E-14
 -1      3200 2.01043E+01 1.77393E-01 1.39545E-03 3.18316E-01 2.51024E-14 2.20567E-14
 -1      3201 2.00431E+01 2.20142E-01-1.92290E-04 3.51795E-01 7.49834E-15 2.74379E-14
 -1      3202 2.00627E+01 1.33043E-01-6.19808E-04 2.13048E-01-2.29291E-14-2.89312E-14
 -1      3203 2.00803E+01 1.47963E-01 1.21017E-03 2.44578E-01-7.13202E-16-1.48296E-14
 -1      3204 2.00354E+01 1.85374E-01-1.35349E-04 2.71803E-01-8.05823E-15-5.80634E-14
 -1      3205 2.00476E+01 1.06265E-01-5.20189E-04 1.58350E-01-7.77379E-15 5.20053E-14
 -1      3206 2.00615E+01 1.19796E-01 1.02273E-03 1.83891E-01-2.49129E-14 2.33895E-14
 -1      3207 2.00295E+01 1.51364E-01-1.10665E-04 2.05778E-01-3.04787E-14-8.96063E-14
 -1      3208 2.00358E+01 8.28090E-02-4.20467E-04 1.14924E-01-1.09742E-13 1.33650E-13
 -1      3209 2.00466E+01 9.45126E-02 8.44510E-04 1.35134E-01-4.64839E-15 5.85355E-14
 -1      3210 2.00247E+01 1.20373E-01-1.00027E-04 1.52500E-01-6.13384E-14 1.40487E-13
 -1      3211 2.00265E+01 6.30378E-02-3.29306E-04 8.11776E-02-1.16797E-13 1.27233E-13
 -1      3212 2.00348E+01 7.28074E-02 6.82588E-04 9.68211E-02-1.32365E-13 1.19811E-13
 -1      3213 2.00207E+01 9.34569E-02-9.40864E-05 1.10400E-01-1.61883E-13 1.24146E-13
 -1      3214 2.00194E+01 4.68748E-02-2.50631E-04 5.54985E-02-1.05702E-13-1.42833E-15
 -1      3215 2.00256E+01 5.47976E-02 5.40650E-04 6.73476E-02 1.14012E-14 1.70582E-13
 -1      3216 2.00171E+01 7.09061E-02-8.85829E-05 7.78001E-02-8.55208E-14 1.90239E-13
 -1      3217 2.00138E+01 3.40010E-02-1.85494E-04 3.63752E-02-1.01202E-13-1.46598E-13
 -1      3218 2.00185E+01 4.02668E-02 4.19856E-04 4.51520E-02-2.17708E-13-1.41833E-13
 -1      3219 2.00139E+01 5.25553E-02-8.19975E-05 5.30628E-02 1.86542E-14-1.23369E-13
 -1      3220 2.00096E+01 2.39855E-02-1.33316E-04 2.24597E-02-9.07431E-14-8.19540E-14
 -1      3221 2.00130E+01 2.88279E-02 3.19639E-04 2.88059E-02-9.72269E-14-9.14308E-14
 -1      3222 2.00112E+01 3.79936E-02-7.41579E-05 3.46829E-02-1.57648E-13-2.91593E-13
 -1      3223 2.00065E+01 1.63670E-02-9.26886E-05 1.25944E-02 1.33696E-13-1.05775E-13
 -1      3224 2.00089E+01 2.00264E-02 2.38358E-04 1.70587E-02 7.59588E-14 2.88950E-14
 -1      3225 2.00088E+01 2.67017E-02-6.54560E-05 2.13351E-02-2.57803E-15-8.43074E-14
 -1      3226 2.00041E+01 1.07020E-02-6.18738E-05 5.81415E-03 8.18968E-14-1.04555E-13
 -1      3227 2.00058E+01 1.34045E-02 1.73797E-04 8.85216E-03 1.40847E-13-1.29103E-13
 -1      3228 2.00068E+01 1.81382E-02-5.64352E-05 1.18899E-02 1.73672E-13 3.57314E-14
 -1      3229 2.00025E+01 6.59007E-03-3.91003E-05 1.33413E-03 3.22256E-13-5.71131E-14
 -1      3230 2.00036E+01 8.53689E-03 1.23533E-04 3.31462E-03 2.32312E-13-6.98743E-14
 -1      3231 2.00052E+01 1.17895E-02-4.75944E-05 5.41068E-03 1.49647E-13-1.07063E-13
 -1      3232 2.00013E+01 3.68561E-03-2.27265E-05-1.46945E-03 1.69709E-13-1.08454E-13
 -1      3233 2.00020E+01 5.04865E-03 8.51669E-05-2.54677E-04 2.73317E-13-3.60800E-14
 -1      3234 2.00039E+01 7.19590E-03-3.93112E-05 1.13902E-03 2.50538E-13-1.94041E-13
 -1      3235 2.00005E+01 1.69959E-03-1.13180E-05-3.08217E-03 1.20435E-14 2.01405E-14
 -1      3236 2.00009E+01 2.62140E-03 5.64727E-05-2.40709E-03-2.58039E-14-9.59398E-14
 -1      3237 2.00028E+01 3.96280E-03-3.18288E-05-1.52639E-03 7.08093E-14-7.74719E-14
 -1      3238 1.99999E+01 3.96754E-04-3.67236E-06-3.87424E-03 1.39771E-13 9.24424E-14
 -1      3239 2.00001E+01 9.92569E-04 3.54785E-05-3.56745E-03 1.50037E-13 5.86859E-14
 -1      3240 2.00020E+01 1.76160E-03-2.52712E-05-3.05256E-03-3.15749E-14-4.36053E-16
 -1      3241 1.99996E+01-4.10315E-04 1.18394E-06-4.12191E-03 1.58528E-13 1.47094E-13
 -1      3242 1.99997E+01-4.92232E-05 2.04971E-05-4.05631E-03 1.75505E-13 1.25442E-13
 -1      3243 2.00013E+01 3.25653E-04-1.96701E-05-3.79492E-03 5.80642E-14 2.63981E-13
 -1      3244 1.99994E+01-8.68167E-04 4.01602E-06-4.02643E-03 2.03333E-13-1.10603E-15
 -1      3245 1.99994E+01-6.70792E-04 1.01255E-05-4.11011E-03 2.00866E-13-3.26769E-14
 -1      3246 2.00008E+01-5.56939E-04-1.49974E-05-4.01822E-03 1.98327E-13 2.24018E-13
 -1      3247 1.99993E+01-1.08968E-03 5.41168E-06-3.73017E-03-6.90086E-14-3.33198E-14
 -1      3248 1.99993E+01-1.00156E-03 3.23139E-06-3.89875E-03 1.33793E-13-1.03927E-13
 -1      3249 2.00005E+01-1.05159E-03-1.11868E-05-3.91501E-03 1.05553E-13 1.65525E-13
 -1      3250 1.99993E+01-1.16073E-03 5.83264E-06-3.33011E-03 2.10229E-14-1.42056E-13
 -1      3251 1.99992E+01-1.14061E-03-1.09115E-06-3.54037E-03-1.17406E-13-1.55791E-13
 -1      3252 2.00002E+01-1.28550E-03-8.14191E-06-3.62125E-03-1.63781E-14-1.55329E-13
 -1      3253 1.99994E+01-1.14660E-03 5.35857E-06-2.88892E-03-1.96489E-14-1.20559E-15
 -1      3254 1.99992E+01-1.16323E-03-3.58659E-06-3.11352E-03 8.12386E-14-2.15213E-14
 -1      3255 2.00000E+01-1.35525E-03-5.71473E-06-3.22940E-03-8.08843E-14-2.04946E-13
 -1      3256 1.99994E+01-1.09971E-03 1.75480E-06-2.44467E-03-6.59985E-14 1.20661E-13
 -1      3257 1.99993E+01-1.12718E-03-5.63785E-06-2.66579E-03-9.29132E-14 8.13348E-14
 -1      3258 1.99999E+01-1.33225E-03-2.44754E-06-2.79985E-03-1.36284E-13 6.71492E-14
 -1      3259 2.00011E+01-2.15751E-03-1.38770E-08 7.36640E-04-1.48569E-13 2.95895E-14
 -1      3260 2.00012E+01-2.20730E-03 5.22619E-06 4.67956E-04-8.44432E-14-4.29414E-14
 -1      3261 2.00012E+01-2.23867E-03 2.87894E-06 1.45528E-04 1.32354E-13-8.81547E-14
 -1      3262 2.00012E+01-2.23866E-03 2.80541E-06-1.43702E-04 2.27208E-13-5.18869E-14
 -1      3263 2.00014E+01-2.25853E-03-5.73184E-06 3.29325E-04 3.06073E-14-1.73285E-13
 -1      3264 2.71147E+01 1.39947E+00-1.61152E-01-1.93076E+00 3.45751E-13-2.31037E-13
 -1      3265 2.74585E+01 2.40394E-01-1.73624E-02-1.72006E+00 2.62367E-13-2.85064E-13
 -1      3266 9.11737E+00 2.68328E+00 9.69487E-02-5.87140E-01-3.40093E-15-7.72535E-13
 -1      3267 9.41378E+00 2.51895E+00 1.15947E-01-1.97149E+00-8.24410E-14-7.74478E-13
 -1      3268 2.39700E+01 1.69580E-01 5.80306E-03 2.09399E+00 2.16414E-13 8.59528E-14
 -1      3269 2.40471E+01-3.47893E-01-1.33541E-02 2.00208E+00 1.83792E-13 1.14574E-13
 -1      3270 2.45500E+01 5.81410E-01 8.38581E-03 2.24866E+00 2.40483E-13 1.74531E-13
 -1      3271 1.52715E+01-2.45582E+00 3.73787E-02 5.49602E+00-2.77549E-13 1.27662E-13
 -1      3272 1.32857E+01-1.51404E+00 9.26282E-02 4.90026E+00-2.30149E-13 1.98314E-13
 -1      3273 1.72713E+01-2.31042E+00 8.47418E-02 4.77338E+00-1.89050E-13 1.02182E-13
 -1      3274 2.00325E+01-2.10003E-01 1.84624E-02-2.09074E+00-7.62440E-14-2.33498E-13
 -1      3275 1.87108E+01 2.02715E-01 1.73491E-02-2.58874E+00-1.38854E-13-3.14311E-13
 -1      3276 2.12249E+01-9.79494E-01 1.77306E-02-1.81719E+00-8.60241E-14-1.43680E-13
 -1      3277 2.72098E+01-3.37959E+00-9.71241E-02-1.62335E-01-5.27946E-14 2.10644E-13
 -1      3278 2.00008E+01-1.96662E-03-2.83732E-06 1.25239E-03-1.81315E-15-2.21271E-13
 -1      3279 2.00010E+01-2.06437E-03 7.33525E-06 1.02510E-03-1.77039E-13 2.38829E-14
 -1      3280 2.00012E+01-2.14480E-03-5.42067E-06 9.57884E-04-1.47517E-13-1.50541E-13
 -1      3281 2.00004E+01-1.67407E-03-1.62345E-06 1.62468E-03-5.86517E-14-2.06843E-13
 -1      3282 2.00006E+01-1.81681E-03 7.92038E-06 1.47463E-03 9.13541E-15-4.57316E-13
 -1      3283 2.00009E+01-1.92261E-03-4.08475E-06 1.48551E-03-6.12893E-14-2.90277E-13
 -1      3284 2.36533E+01-1.10153E+00-1.03120E-02-1.36251E+00 2.41044E-14-2.82455E-13
 -1      3285 2.36689E+01-6.20561E-01-8.53167E-03-1.61613E+00 1.02752E-13-2.63753E-13
 -1      3286 2.43264E+01-4.24807E-01-8.46514E-03-1.75240E+00 1.15844E-13-2.96312E-13
 -1      3287 2.38864E+01-1.54491E+00-4.17397E-03-9.60598E-01-5.87768E-14-2.24713E-13
 -1      3288 2.28722E+01-3.73503E+00-8.80433E-02 2.99241E+00 1.40055E-13-4.28407E-14
 -1      3289 1.99772E+01-2.42408E+00 2.04475E-01 3.88727E+00 2.00673E-13-1.98699E-13
 -1      3290 2.72964E+01-4.58243E-01 5.19294E-02 1.51107E+00 2.34840E-13 2.32467E-13
 -1      3291 2.69763E+01 8.97975E-01-1.68928E-01 2.11740E+00 3.38278E-13 2.18339E-13
 -1      3292 2.44868E+01-4.24381E+00 7.77545E-02-2.47051E+00 2.57051E-13-2.74180E-13
 -1      3293 1.99998E+01-1.29635E-03-3.06082E-06-1.64993E-03-8.80504E-14-6.50989E-15
 -1      3294 1.30733E+01-1.44515E+00 8.95016E-02-4.55125E+00 3.04382E-13 3.94060E-13
 -1      3295 1.54509E+01-2.53957E+00 7.12925E-02-5.31640E+00 3.63473E-13 2.85563E-13
 -1      3296 1.56653E+01-1.46819E+00-8.63964E-02 4.50451E+00 2.12289E-13-3.79960E-13
 -1      3297 1.27373E+01 8.18592E-02 2.11329E-01 4.01014E+00 2.13697E-13-5.99298E-13
 -1      3298 2.32268E+01-2.59858E+00 4.09974E-02 1.84069E+00 6.76950E-14-4.07062E-14
 -1      3299 2.44386E+01-3.20174E+00 1.36659E-02 1.46271E+00 7.97765E-14 2.51466E-14
 -1      3300 2.58496E+01-3.57203E+00 9.26117E-02 1.15459E+00 5.93102E-14 1.10627E-13
 -1      3301 2.70630E+01-1.72384E+00-1.25707E-01-7.13669E-01 1.38852E-13-2.70339E-13
 -1      3302 2.63133E+01-3.10449E+00 5.70088E-02 5.02810E-01 9.21832E-15-3.32082E-13
 -1      3303 2.64035E+01-1.21239E+00-6.06244E-02-1.17043E+00 1.20807E-13-2.93980E-13
 -1      3304 1.95661E+01 9.75230E-01 3.40883E-02 1.36884E+00-8.97850E-15-2.66401E-13
 -1      3305 1.70285E+01 5.65332E-02 5.28522E-02-3.75658E+00-2.02591E-13-4.15577E-13
 -1      3306 1.50365E+01 6.80933E-01 8.94482E-03-3.93374E+00-2.18532E-13-4.87235E-13
 -1      3307 2.47504E+01-4.13529E+00-1.21488E-01 2.04331E+00-2.23224E-14-3.94827E-13
 -1      3308 2.31204E+01-4.12739E+00 1.27607E-01 3.44436E+00-1.19734E-13-2.60916E-13
 -1      3309 2.56682E+01 5.20327E+00-6.53243E-02 5.76194E-01 5.85532E-13-2.09555E-14
 -1      3310 2.61698E+01 5.25232E+00-1.53955E-01-5.61027E-01 6.21947E-13-1.09024E-13
 -1      3311 2.34030E+01-4.73161E-01-1.27364E-04 1.25000E+00 1.70153E-13 5.38452E-14
 -1      3312 2.31426E+01-3.40673E-01 7.75087E-03 9.86269E-01 1.61832E-13 6.84462E-15
 -1      3313 2.34002E+01-7.88888E-01-1.20293E-03 8.42315E-01 1.37634E-13 1.87657E-14
 -1      3314 2.34977E+01-6.64938E-01-1.61041E-02 1.35979E+00 1.50373E-13 8.57487E-14
 -1      3315 1.30160E+01 2.04798E+00 1.02651E-01-3.28357E+00-1.64800E-13-5.84709E-13
 -1      3316 1.15473E+01 2.51702E+00 2.95925E-02-2.74762E+00-1.35883E-13-6.56336E-13
 -1      3317 1.95128E+01-2.16378E+00 8.86478E-02-4.37139E+00-2.67356E-13-2.95475E-13
 -1      3318 2.41343E+01-2.75134E+00 3.86998E-02-1.83252E+00-1.07858E-13 8.22259E-15
 -1      3319 1.22167E+01 1.13146E+00 1.29237E-01 2.96730E+00 1.56528E-13-6.30801E-13
 -1      3320 1.78368E+01-2.95709E+00 5.25348E-02-4.76462E+00 3.83318E-13 6.43652E-14
 -1      3321 2.50834E+01-3.39550E+00 2.32996E-04 1.01910E+00-4.68514E-14-3.10123E-13
 -1      3322 2.23551E+01-1.80145E+00 6.28405E-02 1.94538E+00 5.96489E-14-8.96885E-14
 -1      3323 1.46037E+01-9.83104E-01 7.47054E-02 4.15496E+00-2.81133E-13 1.82472E-13
 -1      3324 1.23553E+01-8.24309E-01 1.14994E-01 4.31547E+00-2.64143E-13 2.66120E-13
 -1      3325 1.15396E+01-1.54040E-01 6.73674E-02 3.23665E+00-2.06606E-13 4.07507E-13
 -1      3326 2.00044E+01 5.85514E-02-5.46085E-03 1.65986E+00 1.20876E-14-2.35405E-13
 -1      3327 1.81556E+01-1.43667E+00 2.83536E-02 3.63103E+00 1.68046E-13-2.94924E-13
 -1      3328 2.44127E+01 3.57639E+00-4.76408E-02-1.08493E+00 4.53831E-13-2.08028E-13
 -1      3329 2.35973E+01 3.24363E+00-4.66143E-02-5.61134E-01 4.09617E-13-1.11897E-13
 -1      3330 1.99994E+01-1.12123E-03-7.27857E-06-2.27737E-03-4.57290E-14 1.37037E-13
 -1      3331 1.99999E+01-1.31921E-03 3.83025E-06-2.40354E-03-1.39180E-13 1.69019E-13
 -1      3332 1.99996E+01-1.14034E-03-3.26660E-06-2.11732E-03-1.13611E-13 8.24717E-14
 -1      3333 2.00006E+01-1.81504E-03 9.27047E-06-1.47364E-03-8.51135E-14 6.45579E-14
 -1      3334 2.00004E+01-1.67871E-03-7.79853E-06-1.62460E-03-3.48237E-14 2.20860E-13
 -1      3335 2.00010E+01-2.06262E-03 7.41879E-06-1.02393E-03 7.14505E-14 2.26031E-14
 -1      3336 2.00008E+01-1.96420E-03-2.48894E-06-1.25055E-03-6.49877E-14 4.66144E-14
 -1      3337 2.00009E+01-1.92179E-03-4.54457E-06-1.47937E-03-7.12592E-15 7.78350E-14
 -1      3338 2.39554E+01 3.05843E+00-2.45050E-02 1.28902E+00 3.57797E-13 5.31146E-14
 -1      3339 2.41369E+01 2.39517E+00-4.81181E-02 1.84173E+00 3.36007E-13 7.96980E-14
 -1      3340 2.64909E+01 2.29288E+00-5.27876E-02-2.04912E+00 4.10845E-13-2.72907E-13
 -1      3341 2.00012E+01-2.20658E-03 5.37105E-06-4.64064E-04 2.97810E-13 2.91880E-13
 -1      3342 2.00011E+01-2.15552E-03 1.96588E-07-7.37394E-04 2.36688E-13 1.63153E-13
 -1      3343 2.00012E+01-2.14284E-03-5.07914E-06-9.55056E-04 7.90171E-14 3.24984E-13
 -1      3344 2.00014E+01-2.25736E-03-5.52110E-06-3.31286E-04 9.08367E-14 1.20156E-13
 -1      3345 8.99850E+00 4.10631E-01 1.80246E-01 2.45206E-01-4.32423E-15 4.82309E-13
 -1      3346 1.02074E+01 5.04926E-01 7.73971E-02-7.25338E-01 6.09985E-14 4.68847E-13
 -1      3347 9.92973E+00 3.86931E-01 7.37953E-02 1.43966E+00-1.10235E-13 4.63504E-13
 -1      3348 2.62464E+01 1.67222E+00-5.79434E-02 2.25473E+00 3.01825E-13 2.37019E-13
 -1      3349 1.06595E+01 2.33504E+00 1.00889E-01-2.52964E+00-1.32605E-13-7.20375E-13
 -1      3350 2.62479E+01-1.39374E+00-3.97176E-02 9.07198E-01 1.32748E-13 1.82430E-13
 -1      3351 2.30103E+01-3.76458E+00 5.43297E-02-2.96885E+00 2.85317E-13-2.26159E-13
 -1      3352 2.35452E+01 3.42557E+00-6.11152E-02 1.23730E-01 4.19741E-13-6.75467E-14
 -1      3353 1.21583E+01-6.25330E-01 1.26982E-01-3.80170E+00 2.32606E-13 4.61686E-13
 -1      3354 1.41726E+01-8.33455E-01 1.09126E-01-3.89075E+00 2.75936E-13 3.23554E-13
 -1      3355 1.14543E+01 3.38269E-02 5.30147E-02-2.63673E+00 1.26867E-13 4.47642E-13
 -1      3356 2.38353E+01-5.97158E-01-9.25591E-03 1.75430E+00 1.77502E-13 9.26461E-14
 -1      3357 2.38107E+01-7.26036E-01 6.52793E-04 1.57553E+00 1.42976E-13 9.55550E-14
 -1      3358 2.38330E+01-8.39853E-01-1.17860E-02 1.38060E+00 1.47213E-13 7.63604E-14
 -1      3359 2.43428E+01-5.89209E-01-7.73627E-03 1.83897E+00 1.84571E-13 1.08369E-13
 -1      3360 2.55531E+01 4.34542E+00-8.99932E-02-9.92941E-01 5.37667E-13-1.37824E-13
 -1      3361 2.00001E+01-1.46318E-03 1.31834E-05-1.77265E-03-9.91892E-15 1.14607E-13
 -1      3362 1.99997E+01-1.20259E-03-7.58100E-06-1.84675E-03-3.16726E-14 5.13951E-14
 -1      3363 1.99996E+01-1.18060E-03-1.13881E-05-2.00837E-03 1.66573E-14 1.38986E-14
 -1      3364 2.00003E+01-1.59092E-03-3.64459E-06-1.86045E-03 9.93768E-15 1.22090E-13
 -1      3365 1.40547E+01 1.45684E+00-1.20749E-02 2.64370E+00 1.42995E-13-4.80574E-13
 -1      3366 1.62176E+01 8.95375E-01 1.20163E-01 2.78596E+00 1.32627E-13-4.14675E-13
 -1      3367 1.07637E+01 2.82323E+00 1.52029E-02 9.44896E-01 6.18915E-14-6.87908E-13
 -1      3368 1.20172E+01 2.46196E+00 9.08844E-02 1.77925E+00 1.01937E-13-6.34187E-13
 -1      3369 2.14818E+01-3.58751E+00 4.00902E-02 3.69203E+00-1.27259E-13-1.48899E-13
 -1      3370 2.00001E+01-1.44456E-03 2.57901E-06 1.83538E-03 1.88943E-14 1.07827E-13
 -1      3371 2.00003E+01-1.57290E-03 3.39451E-06 1.73599E-03-1.00553E-14 1.07188E-13
 -1      3372 2.00005E+01-1.68384E-03-2.88282E-06 1.81540E-03 8.71727E-14-1.31874E-13
 -1      3373 2.00002E+01-1.48600E-03-2.43455E-06 2.00650E-03 4.82162E-14 5.84064E-14
 -1      3374 1.84300E+01-1.05398E+00 3.80571E-02-3.88795E+00-2.35804E-13-3.22352E-13
 -1      3375 2.08827E+01-1.96457E+00-5.69179E-02-3.10164E+00-1.78982E-13-1.55612E-13
 -1      3376 2.20132E+01-1.58901E+00 3.26265E-02-1.87342E+00-1.22308E-13-9.51168E-14
 -1      3377 2.31176E+01-2.41652E+00 6.29264E-02-2.01835E+00-1.46186E-13-7.36217E-15
 -1      3378 2.45219E+01-2.46541E+00-8.62943E-02-6.67400E-01-3.38670E-14 8.77172E-14
 -1      3379 2.28787E+01-1.69079E+00-4.36930E-02-9.53966E-01-4.21677E-14-1.49212E-14
 -1      3380 1.37655E+01 3.13693E-02 6.58613E-02-4.71472E+00-2.75183E-13-5.91964E-13
 -1      3381 1.85041E+01-8.67188E-01 4.24929E-02-3.13612E+00 1.79029E-13 1.30769E-13
 -1      3382 1.81437E+01-3.42936E-01 3.93156E-03-2.84364E+00 1.41496E-13 2.12855E-13
 -1      3383 1.83557E+01 4.71558E-02 2.26205E-02-2.47025E+00 8.80177E-15 2.72821E-13
 -1      3384 1.82801E+01 3.31708E-01-8.32356E-03-2.22796E+00-2.16535E-14 2.55513E-13
 -1      3385 1.72569E+01 1.12104E-01 1.17520E-02-2.64475E+00 1.03655E-13 2.38922E-13
 -1      3386 1.85307E+01 5.48027E-01 1.30359E-02-1.96457E+00-5.59098E-14 2.02473E-13
 -1      3387 1.85557E+01 6.82594E-01-9.24678E-03-1.77735E+00-5.25443E-14 1.34418E-13
 -1      3388 1.77118E+01 6.46257E-01 7.43169E-03-1.99370E+00-6.18236E-14 2.93726E-13
 -1      3389 1.87865E+01 7.77745E-01 6.34051E-03-1.59259E+00-5.61465E-14 1.17525E-13
 -1      3390 1.88526E+01 8.22397E-01-7.81484E-03-1.44393E+00-2.95350E-14 1.06729E-13
 -1      3391 1.81788E+01 8.87941E-01 7.19451E-03-1.56182E+00-4.17489E-14 2.20693E-13
 -1      3392 1.90487E+01 8.44655E-01 3.18807E-03-1.30654E+00-1.30690E-14 7.12483E-14
 -1      3393 1.91219E+01 8.36882E-01-6.24618E-03-1.18385E+00 2.82179E-14 6.33639E-14
 -1      3394 1.85882E+01 9.58978E-01 6.71137E-03-1.25832E+00-4.50692E-14 1.73038E-13
 -1      3395 1.92815E+01 8.18004E-01 1.70690E-03-1.07536E+00 1.11758E-13 4.24825E-14
 -1      3396 1.93468E+01 7.82261E-01-5.00777E-03-9.71044E-01 1.25066E-13 9.62470E-14
 -1      3397 1.89282E+01 9.31139E-01 5.81404E-03-1.02953E+00 4.65890E-14 2.02248E-13
 -1      3398 1.94735E+01 7.42591E-01 1.07864E-03-8.81482E-01 1.29173E-13 1.14070E-13
 -1      3399 1.95259E+01 6.94205E-01-4.04763E-03-7.91696E-01 1.04695E-13 1.59863E-13
 -1      3400 1.92011E+01 8.50338E-01 4.78429E-03-8.45488E-01 1.45170E-13 1.36230E-13
 -1      3401 1.96243E+01 6.46293E-01 8.50346E-04-7.16100E-01 6.86696E-14 1.53334E-13
 -1      3402 1.96636E+01 5.94532E-01-3.28214E-03-6.38928E-01 2.22889E-14 2.34531E-13
 -1      3403 1.94147E+01 7.45376E-01 3.79521E-03-6.91241E-01 1.31678E-13 1.00924E-13
 -1      3404 1.97388E+01 5.45726E-01 7.83434E-04-5.74790E-01-1.21157E-13 2.06485E-13
 -1      3405 1.97668E+01 4.95856E-01-2.65615E-03-5.09112E-01-6.62993E-14 9.81401E-14
 -1      3406 1.95786E+01 6.34085E-01 2.93056E-03-5.59676E-01-2.75706E-14 1.02628E-13
 -1      3407 1.98235E+01 4.50147E-01 7.60263E-04-4.55008E-01-2.90577E-15-1.25132E-14
 -1      3408 1.98426E+01 4.04885E-01-2.13702E-03-3.99896E-01 2.69353E-14-8.30446E-14
 -1      3409 1.97022E+01 5.26872E-01 2.21520E-03-4.47369E-01-1.28250E-13 1.43883E-13
 -1      3410 1.98847E+01 3.64185E-01 7.31497E-04-3.54795E-01 7.62785E-15-2.07288E-13
 -1      3411 1.98970E+01 3.24681E-01-1.70490E-03-3.09280E-01-1.50029E-13-2.29485E-13
 -1      3412 1.97940E+01 4.29277E-01 1.64438E-03-3.52369E-01-7.03713E-14-1.37434E-13
 -1      3413 1.99279E+01 2.89661E-01 6.83101E-04-2.72237E-01-1.74662E-13-2.43344E-13
 -1      3414 1.99355E+01 2.56146E-01-1.34643E-03-2.35261E-01-1.99056E-13-1.31528E-13
 -1      3415 1.98611E+01 3.43761E-01 1.20066E-03-2.73134E-01-1.45728E-13-3.33448E-13
 -1      3416 1.99578E+01 2.26769E-01 6.16774E-04-2.05325E-01-2.57055E-13-4.97556E-14
 -1      3417 1.99621E+01 1.98959E-01-1.05134E-03-1.75777E-01-2.19615E-13 4.24484E-14
 -1      3418 1.99095E+01 2.70905E-01 8.62670E-04-2.08116E-01-2.04210E-13-1.85484E-13
 -1      3419 1.99780E+01 1.74813E-01 5.39526E-04-1.51985E-01-9.34118E-14-4.44586E-15
 -1      3420 1.99801E+01 1.52161E-01-8.10828E-04-1.28760E-01 1.42459E-14 2.62068E-14
 -1      3421 1.99438E+01 2.10205E-01 6.09417E-04-1.55672E-01-1.02634E-13-1.09894E-13
 -1      3422 1.99911E+01 1.32661E-01 4.58769E-04-1.10171E-01-5.39770E-14 4.24914E-15
 -1      3423 1.99919E+01 1.14514E-01-6.16995E-04-9.22171E-02-4.78387E-14 3.87542E-14
 -1      3424 1.99675E+01 1.60579E-01 4.22349E-04-1.14099E-01-1.11477E-14-1.22786E-13
 -1      3425 1.99994E+01 9.90152E-02 3.80389E-04-7.79451E-02 3.04021E-14 8.46610E-14
 -1      3426 1.99993E+01 8.47022E-02-4.62634E-04-6.43034E-02 3.94628E-14 1.78861E-13
 -1      3427 1.99837E+01 1.20684E-01 2.85995E-04-8.17194E-02-3.64084E-15-3.19508E-14
 -1      3428 2.00043E+01 7.25701E-02 3.08308E-04-5.35446E-02-2.51178E-14 1.60825E-13
 -1      3429 2.00037E+01 6.14519E-02-3.41236E-04-4.33660E-02-1.46517E-14 1.21692E-13
 -1      3430 1.99942E+01 8.91149E-02 1.87939E-04-5.69496E-02 4.80263E-14 1.25382E-13
 -1      3431 2.00068E+01 5.20993E-02 2.44688E-04-3.54132E-02-7.85303E-14 1.42587E-13
 -1      3432 2.00060E+01 4.35960E-02-2.47007E-04-2.79680E-02-7.00594E-15 9.03453E-14
 -1      3433 2.00008E+01 6.45171E-02 1.18460E-04-3.83546E-02-6.22389E-14 3.46109E-13
 -1      3434 2.00079E+01 3.64993E-02 1.90343E-04-2.22160E-02-5.81653E-14 1.04511E-14
 -1      3435 2.00070E+01 3.01015E-02-1.74880E-04-1.68914E-02-4.51437E-14-1.08196E-13
 -1      3436 2.00047E+01 4.56481E-02 7.00828E-05-2.46752E-02-1.82617E-13 2.60364E-13
 -1      3437 2.00080E+01 2.48069E-02 1.45164E-04-1.28344E-02 8.52037E-14-1.66232E-13
 -1      3438 2.00071E+01 2.00783E-02-1.20495E-04-9.12628E-03 1.14600E-13 3.92701E-14
 -1      3439 2.00067E+01 3.14085E-02 3.71262E-05-1.48371E-02 2.85208E-14 7.60887E-14
 -1      3440 2.00075E+01 1.62015E-02 1.08477E-04-6.35070E-03-7.01739E-14 7.24268E-14
 -1      3441 2.00067E+01 1.27759E-02-8.01611E-05-3.85254E-03-2.54273E-13-5.28940E-14
 -1      3442 2.00074E+01 2.08508E-02 1.53131E-05-7.94547E-03 2.50066E-14 7.88480E-15
 -1      3443 2.00067E+01 9.99759E-03 7.93073E-05-2.02675E-03-2.90381E-13 3.59645E-14
 -1      3444 2.00060E+01 7.57347E-03-5.08065E-05-4.16346E-04-2.72673E-13 6.58833E-14
 -1      3445 2.00074E+01 1.31762E-02 1.44819E-06-3.27155E-03-2.21027E-13-1.74317E-13
 -1      3446 2.00057E+01 5.63258E-03 5.65687E-05 7.20603E-04-2.94613E-13 1.53385E-13
 -1      3447 2.00052E+01 3.96538E-03-2.99079E-05 1.69406E-03-2.55914E-13 7.84548E-14
 -1      3448 2.00068E+01 7.72376E-03-6.83773E-06-2.33147E-04-2.52794E-13-2.17391E-14
 -1      3449 2.00048E+01 2.65207E-03 3.91831E-05 2.34371E-03-1.67221E-13 5.18848E-14
 -1      3450 2.00043E+01 1.54664E-03-1.54243E-05 2.87200E-03-4.17815E-14 1.48324E-14
 -1      3451 2.00060E+01 3.95568E-03-1.12871E-05 1.62590E-03-2.21992E-13 3.14358E-13
 -1      3452 2.00039E+01 6.94565E-04 2.61535E-05 3.18711E-03 6.27581E-14-3.41930E-14
 -1      3453 2.00035E+01-2.64159E-06-5.72575E-06 3.41412E-03 1.62033E-13 1.23440E-14
 -1      3454 2.00052E+01 1.44145E-03-1.31686E-05 2.65635E-03-1.67579E-14 2.85139E-13
 -1      3455 2.00031E+01-5.23490E-04 1.66053E-05 3.50814E-03 1.87399E-13-3.25213E-14
 -1      3456 2.00028E+01-9.31671E-04 4.65380E-07 3.53960E-03 3.01027E-13 7.02872E-14
 -1      3457 2.00043E+01-1.58636E-04-1.33946E-05 3.12270E-03 1.57298E-13 4.34486E-14
 -1      3458 2.00024E+01-1.22162E-03 9.78808E-06 3.49481E-03 1.91378E-13-1.92700E-13
 -1      3459 2.00021E+01-1.43212E-03 4.14440E-06 3.40646E-03 1.61824E-13-5.84062E-14
 -1      3460 2.00034E+01-1.10904E-03-1.26215E-05 3.22025E-03 1.30391E-13-1.56899E-13
 -1      3461 2.00018E+01-1.56762E-03 5.07587E-06 3.28094E-03 3.58896E-13-1.57525E-13
 -1      3462 2.00016E+01-1.64969E-03 6.06928E-06 3.12544E-03 3.56828E-13-1.83986E-13
 -1      3463 2.00027E+01-1.61281E-03-1.13019E-05 3.08962E-03 2.36438E-13-4.09898E-13
 -1      3464 2.00012E+01-1.68856E-03 1.97742E-06 2.95892E-03 2.34911E-13-1.64706E-13
 -1      3465 2.00011E+01-1.69480E-03 6.63793E-06 2.77141E-03 1.85442E-13-1.14714E-13
 -1      3466 2.00020E+01-1.82429E-03-9.82775E-06 2.82933E-03 2.94237E-13-4.72532E-13
 -1      3467 2.00008E+01-1.67936E-03 7.35999E-07 2.58870E-03 1.75873E-13-3.86098E-14
 -1      3468 2.00007E+01-1.64955E-03 5.09218E-06 2.39179E-03 6.81502E-14 1.46278E-13
 -1      3469 2.00014E+01-1.86213E-03-8.96214E-06 2.50558E-03 2.88355E-13-2.43401E-13
 -1      3470 2.50675E+01 3.04656E+00-1.26770E-01-1.75026E+00 4.74301E-13-2.43014E-13
 -1      3471 2.19275E+01-1.58938E+00 2.41827E-02 1.06451E+00-7.24986E-14-2.57072E-13
 -1      3472 2.23028E+01-1.88301E+00-6.99694E-03 8.53498E-01-3.44924E-14-3.18034E-13
 -1      3473 2.29589E+01-2.10719E+00 2.97078E-02 5.66075E-01 3.45644E-15-3.33947E-13
 -1      3474 2.33604E+01-2.23038E+00-9.80508E-03 1.95416E-01-8.29840E-14-2.43326E-13
 -1      3475 2.24229E+01-2.29282E+00-3.82789E-02 1.15031E+00-2.76467E-14-3.04042E-13
 -1      3476 2.06233E+01-4.97094E-01 9.13045E-03 1.27975E+00-1.59117E-13-2.74087E-14
 -1      3477 2.08451E+01-7.37745E-01 2.16097E-03 1.26124E+00-1.06806E-13-9.70264E-14
 -1      3478 2.02984E+01-1.27559E-01 4.93480E-03 1.19796E+00-1.01848E-13-4.42869E-14
 -1      3479 2.04471E+01-2.97414E-01 3.22837E-03 1.22423E+00-1.09686E-13-3.14894E-14
 -1      3480 2.02136E+01-3.98864E-01-1.22264E-02 1.40713E+00-1.44571E-13-7.77485E-14
 -1      3481 2.01114E+01 1.15099E-01 2.11529E-03 1.07092E+00-1.22728E-13-5.65735E-15
 -1      3482 2.02066E+01 7.79525E-03 3.19097E-03 1.12163E+00-9.42344E-14-2.99586E-14
 -1      3483 1.99737E+01-2.79793E-02-6.90474E-03 1.25147E+00-1.04211E-13-8.42878E-14
 -1      3484 2.00138E+01 2.55311E-01 3.97491E-04 9.27020E-01-1.67050E-13 6.50161E-14
 -1      3485 2.00727E+01 1.96524E-01 2.79097E-03 9.88909E-01-1.73967E-13 1.25005E-14
 -1      3486 1.98579E+01 2.04645E-01-3.81468E-03 1.07920E+00-1.72892E-13-3.86785E-14
 -1      3487 1.99701E+01 3.20825E-01-5.56803E-04 7.82662E-01-4.10000E-14 2.69744E-13
 -1      3488 2.00059E+01 2.96392E-01 2.34346E-03 8.47416E-01-8.71919E-14 1.58611E-13
 -1      3489 1.98181E+01 3.31399E-01-1.86327E-03 9.10426E-01-1.87160E-13 5.85638E-14
 -1      3490 1.99566E+01 3.36194E-01-1.03296E-03 6.46866E-01-3.35739E-14 3.22381E-13
 -1      3491 1.99784E+01 3.34244E-01 1.96200E-03 7.09407E-01-1.84382E-14 2.71604E-13
 -1      3492 1.98202E+01 3.83556E-01-7.11666E-04 7.54377E-01-4.52478E-14 1.68638E-13
 -1      3493 1.99584E+01 3.20604E-01-1.21472E-03 5.24347E-01 4.28578E-14 1.70427E-13
 -1      3494 1.99721E+01 3.32120E-01 1.65758E-03 5.81723E-01 5.81686E-14 2.56773E-13
 -1      3495 1.98428E+01 3.86990E-01-8.31980E-05 6.14889E-01 1.00330E-13 1.68844E-13
 -1      3496 1.99669E+01 2.87972E-01-1.22124E-03 4.17239E-01 9.92738E-15 4.74857E-14
 -1      3497 1.99759E+01 3.06541E-01 1.41184E-03 4.67922E-01-7.48962E-15 1.13031E-13
 -1      3498 1.98729E+01 3.61190E-01 2.22749E-04 4.93243E-01 1.13229E-13-9.43650E-15
 -1      3499 1.99771E+01 2.47817E-01-1.12984E-03 3.26018E-01-9.10302E-15 4.83096E-14
 -1      3500 1.99835E+01 2.69129E-01 1.20487E-03 3.69452E-01-7.66811E-15 5.91963E-14
 -1      3501 1.99034E+01 3.20015E-01 3.39566E-04 3.89361E-01-1.98373E-14 1.09373E-14
 -1      3502 1.99865E+01 2.06266E-01-9.90456E-04 2.50086E-01-4.02485E-14 8.34656E-14
 -1      3503 1.99914E+01 2.27599E-01 1.02368E-03 2.86361E-01-6.43827E-15 8.55254E-14
 -1      3504 1.99306E+01 2.72809E-01 3.52591E-04 3.02341E-01-8.03804E-14 9.63950E-14
 -1      3505 1.99942E+01 1.66978E-01-8.34645E-04 1.88188E-01-1.43577E-13 5.39070E-14
 -1      3506 1.99982E+01 1.86754E-01 8.61685E-04 2.17799E-01-1.38153E-13 8.68513E-14
 -1      3507 1.99532E+01 2.25507E-01 3.14425E-04 2.30770E-01-1.00007E-13 1.79978E-13
 -1      3508 1.99998E+01 1.31901E-01-6.81440E-04 1.38711E-01-1.01258E-13 1.86995E-13
 -1      3509 2.00032E+01 1.49320E-01 7.16374E-04 1.62379E-01-7.25761E-14 1.04788E-13
 -1      3510 1.99708E+01 1.81581E-01 2.56092E-04 1.72939E-01-2.26068E-13 1.18048E-13
 -1      3511 2.00037E+01 1.01842E-01-5.41438E-04 9.99058E-02-1.81665E-13 9.38520E-14
 -1      3512 2.00066E+01 1.16618E-01 5.87146E-04 1.18448E-01-1.12835E-13 1.83813E-13
 -1      3513 1.99839E+01 1.42809E-01 1.94818E-04 1.27021E-01-8.05702E-14 9.08302E-14
 -1      3514 2.00060E+01 7.68963E-02-4.19658E-04 7.00398E-02 3.55275E-14-6.96878E-14
 -1      3515 2.00085E+01 8.90588E-02 4.73940E-04 8.42821E-02-1.16464E-13-1.65308E-14
 -1      3516 1.99932E+01 1.09846E-01 1.39282E-04 9.11918E-02-7.35505E-14-8.15444E-14
 -1      3517 2.00071E+01 5.67402E-02-3.17572E-04 4.74941E-02 1.12538E-13-9.47184E-14
 -1      3518 2.00092E+01 6.64986E-02 3.76531E-04 5.82156E-02 1.70366E-13 2.68452E-14
 -1      3519 1.99995E+01 8.26480E-02 9.30799E-05 6.37288E-02 9.40191E-14-2.10623E-13
 -1      3520 2.00074E+01 4.08357E-02-2.34524E-04 3.08204E-02-1.95117E-13-1.62845E-13
 -1      3521 2.00092E+01 4.84868E-02 2.94268E-04 3.87210E-02-1.16539E-13-2.06407E-13
 -1      3522 2.00034E+01 6.07731E-02 5.69421E-05 4.30670E-02 4.29106E-14 5.58052E-14
 -1      3523 2.00071E+01 2.85607E-02-1.68692E-04 1.87652E-02 2.50909E-14-1.41402E-13
 -1      3524 2.00086E+01 3.44298E-02 2.26078E-04 2.44515E-02-1.44230E-13-1.71206E-13
 -1      3525 2.00056E+01 4.35784E-02 3.01177E-05 2.78309E-02-1.54777E-13-2.49414E-13
 -1      3526 2.00065E+01 1.92908E-02-1.17732E-04 1.02735E-02 1.77383E-13-5.92522E-14
 -1      3527 2.00077E+01 2.36958E-02 1.70570E-04 1.42556E-02 1.91970E-13-3.62011E-14
 -1      3528 2.00066E+01 3.03526E-02 1.12054E-05 1.68446E-02 6.09853E-14-2.87503E-13
 -1      3529 2.00057E+01 1.24458E-02-7.91817E-05 4.47791E-03 1.91699E-13-4.39106E-14
 -1      3530 2.00066E+01 1.56773E-02 1.26180E-04 7.17494E-03 1.76488E-13-2.03318E-14
 -1      3531 2.00068E+01 2.03966E-02-1.37005E-06 9.12608E-03 1.40017E-13-1.15830E-13
 -1      3532 2.00048E+01 7.51353E-03-5.06963E-05 6.80934E-04 2.15840E-13-1.02762E-13
 -1      3533 2.00056E+01 9.82504E-03 9.12995E-05 2.42908E-03 2.65752E-13-5.46261E-14
 -1      3534 2.00065E+01 1.30688E-02-9.10429E-06 3.87336E-03 1.94964E-13 1.64604E-14
 -1      3535 2.00040E+01 4.05761E-03-3.01766E-05-1.66755E-03-7.30460E-14 2.61117E-14
 -1      3536 2.00046E+01 5.66316E-03 6.43718E-05-6.03826E-04 3.69023E-14-6.55339E-16
 -1      3537 2.00058E+01 7.80672E-03-1.32958E-05 4.43934E-04 7.87514E-14 2.39906E-13
 -1      3538 2.00032E+01 1.71729E-03-1.58214E-05-2.99290E-03-1.47693E-13 2.27743E-13
 -1      3539 2.00036E+01 2.79263E-03 4.39615E-05-2.40976E-03-1.02954E-13 1.32813E-13
 -1      3540 2.00050E+01 4.13431E-03-1.50070E-05-1.66702E-03-1.29008E-13 3.02015E-13
 -1      3541 2.00025E+01 2.01103E-04-6.13241E-06-3.61754E-03 6.66307E-14 2.61243E-13
 -1      3542 2.00028E+01 8.87329E-04 2.87928E-05-3.36107E-03-8.05931E-15 2.19874E-13
 -1      3543 2.00042E+01 1.65938E-03-1.50680E-05-2.84877E-03-8.51878E-14 2.62977E-13
 -1      3544 2.00019E+01-7.21686E-04 9.83708E-08-3.78077E-03 1.76674E-13 2.49471E-13
 -1      3545 2.00021E+01-3.13435E-04 1.77689E-05-3.73726E-03 1.70105E-13 2.37538E-13
 -1      3546 2.00034E+01 6.61554E-05-1.41025E-05-3.39573E-03 1.36145E-13 2.99168E-14
 -1      3547 2.00014E+01-1.23072E-03 3.81675E-06-3.65597E-03 1.44185E-13 1.76818E-13
 -1      3548 2.00016E+01-1.01430E-03 9.96795E-06-3.74355E-03 2.19250E-13 2.16879E-13
 -1      3549 2.00027E+01-8.94774E-04-1.25806E-05-3.52595E-03 1.71484E-13 9.85761E-14
 -1      3550 2.00010E+01-1.46385E-03 5.75802E-06-3.36496E-03-3.27141E-14 1.00127E-14
 -1      3551 2.00011E+01-1.37344E-03 4.64589E-06-3.52660E-03 9.94977E-14 1.23757E-13
 -1      3552 2.00021E+01-1.41726E-03-1.08422E-05-3.39704E-03 1.75936E-13 2.87698E-13
 -1      3553 2.00006E+01-1.52568E-03 6.35844E-06-2.99013E-03-1.93698E-13 2.78896E-14
 -1      3554 2.00007E+01-1.51161E-03 1.11618E-06-3.18765E-03-1.44306E-13 1.49005E-15
 -1      3555 2.00015E+01-1.64951E-03-9.01437E-06-3.11951E-03-5.56376E-14 2.36307E-13
 -1      3556 2.00004E+01-1.49642E-03 4.62683E-06-2.58470E-03-1.90189E-13 6.76026E-14
 -1      3557 2.00004E+01-1.52122E-03-1.96293E-06-2.79260E-03-2.27215E-13-5.45281E-14
 -1      3558 2.00011E+01-1.70238E-03-6.07677E-06-2.76817E-03-1.82900E-13 1.18382E-13
 -1      3559 1.91200E+01-6.42317E-01-3.52147E-02 2.59239E+00 9.82478E-14-2.42500E-13
 -1      3560 2.49602E+01 2.27402E+00-7.53604E-02 2.23216E+00 3.41793E-13 1.71394E-13
 -1      3561 2.00010E+01-1.89099E-03-4.13209E-06 1.71953E-03-1.56135E-13-4.83354E-13
 -1      3562 2.00012E+01-2.00975E-03 8.62029E-06 1.49099E-03-8.89068E-14-3.93172E-13
 -1      3563 2.54677E+01 8.50775E-01-2.28637E-02 2.24416E+00 2.56212E-13 2.19151E-13
 -1      3564 1.81871E+01-2.34858E+00-4.74068E-02 4.27006E+00-1.71989E-13 1.32609E-13
 -1      3565 1.68187E+01-1.56891E+00 4.94305E-02 4.19858E+00-2.28055E-13 1.70950E-13
 -1      3566 2.54875E+01-2.17024E-01-3.04973E-02 2.07902E+00 2.02043E-13 2.30021E-13
 -1      3567 1.01569E+01 2.96391E+00 9.76318E-02 8.82720E-02 2.46461E-14-7.34246E-13
 -1      3568 1.09678E+01 3.33314E+00 2.84846E-02-4.79459E-01-2.19304E-14-6.80525E-13
 -1      3569 2.51740E+01-2.78852E+00-4.26725E-02 4.83974E-02-6.60982E-14-2.71453E-13
 -1      3570 2.41915E+01-3.25995E+00 2.14506E-02 1.21081E+00-5.41052E-14-3.15464E-13
 -1      3571 2.00017E+01-2.27596E-03 4.54555E-07 5.21263E-04 1.25030E-13-3.33395E-13
 -1      3572 2.00018E+01-2.30044E-03 3.61123E-06 1.87608E-04 1.62386E-13-1.23330E-13
 -1      3573 2.54347E+01-1.87111E+00 4.90657E-02 4.79825E-01 2.79915E-14 1.76900E-13
 -1      3574 2.56501E+01-9.15911E-01-5.48037E-02 1.53909E+00 1.59438E-13 2.48636E-13
 -1      3575 2.47705E+01-9.06711E-01-2.11453E-02 1.57961E+00 1.52253E-13 1.81732E-13
 -1      3576 2.44503E+01-1.86578E+00-5.94368E-03 1.00352E-01-7.66227E-15 1.12544E-13
 -1      3577 1.10896E+01 3.28005E+00 5.47248E-02-1.45618E+00-5.91237E-14-6.80137E-13
 -1      3578 2.11481E+01-1.00035E+00 1.56169E-02 1.26421E+00-6.95843E-14-1.80907E-13
 -1      3579 2.14535E+01-1.29978E+00-1.47556E-03 1.16958E+00-5.73174E-14-1.90337E-13
 -1      3580 2.13581E+01-1.61969E+00-3.53460E-02 1.46401E+00-1.26398E-13-2.88094E-13
 -1      3581 2.06468E+01-9.38490E-01-2.26605E-02 1.50555E+00-1.15924E-13-1.67821E-13
 -1      3582 2.53852E+01 4.41422E-01-4.92837E-02-2.06266E+00 2.04350E-13-3.17725E-13
 -1      3583 2.52654E+01 1.69991E+00-4.43160E-02-1.92774E+00 3.49727E-13-2.93158E-13
 -1      3584 2.48008E+01-7.29293E-01-3.58584E-02-1.57776E+00 7.21576E-14-3.19120E-13
 -1      3585 2.58009E+01-7.58672E-01-4.34740E-02-1.55467E+00 9.83449E-14-2.88353E-13
 -1      3586 2.56661E+01-2.08458E+00 2.17266E-02-7.21726E-01-6.74460E-15-3.07362E-13
 -1      3587 2.46997E+01-1.45091E+00-9.62488E-03-1.27378E+00-1.65146E-14-2.25386E-13
 -1      3588 2.10184E+01-3.56674E+00 5.67769E-02-4.10472E+00 3.53231E-13-9.67997E-14
 -1      3589 2.23667E+01-3.50114E+00-6.26385E-02 2.70619E+00-9.40871E-14-2.84874E-13
 -1      3590 2.02790E+01-2.86459E+00 8.12979E-02 3.83725E+00-1.17162E-13-9.62633E-14
 -1      3591 2.00015E+01-2.14083E-03-3.69931E-06 1.18054E-03-2.85144E-15-2.21045E-13
 -1      3592 2.00016E+01-2.21118E-03 6.07854E-06 8.82538E-04 1.54268E-13-4.20289E-13
 -1      3593 2.00020E+01-2.28490E-03-4.60874E-06 7.53101E-04 2.14762E-13-4.99392E-13
 -1      3594 2.00016E+01-2.11465E-03-1.47491E-06 1.43821E-03 9.38241E-14-4.76382E-13
 -1      3595 2.34304E+01-1.11272E+00-3.16854E-02 4.79487E-01 9.56576E-14 3.25434E-15
 -1      3596 2.31301E+01-1.23077E+00 1.64410E-02-2.23592E-01 2.19633E-14-2.40472E-14
 -1      3597 2.38688E+01-1.64124E+00 4.45059E-02-1.44721E-01-7.50615E-15 5.28492E-14
 -1      3598 2.37091E+01-9.90465E-01 1.23680E-02 8.75967E-01 1.11913E-13 4.90654E-14
 -1      3599 1.77683E+01-1.65433E+00 4.09135E-02-3.93273E+00 2.79973E-13 1.07747E-13
 -1      3600 1.61983E+01-9.47755E-01 2.18748E-02-3.82393E+00 2.83393E-13 2.16265E-13
 -1      3601 1.59064E+01-1.07869E+00 2.51975E-02 4.02250E+00-2.55927E-13 1.83808E-13
 -1      3602 1.50506E+01-3.75838E-01 7.60485E-02 3.50339E+00-2.88733E-13 2.31679E-13
 -1      3603 1.71987E+01-1.03591E+00 4.03541E-02 3.50023E+00-2.26932E-13 2.59785E-13
 -1      3604 1.15877E+01 3.85326E-01 1.25052E-01 2.35103E+00-1.62969E-13 4.45775E-13
 -1      3605 1.18308E+01 7.16189E-01 4.03993E-02 1.27689E+00-1.07475E-13 3.96953E-13
 -1      3606 1.32340E+01 1.09966E-01-2.85901E-03 2.83780E+00-2.24104E-13 2.95427E-13
 -1      3607 2.00005E+01-1.59060E-03 4.58240E-07 2.28578E-03-1.31569E-13 1.09118E-13
 -1      3608 2.00003E+01-1.54329E-03 3.36895E-06 2.11772E-03-5.86620E-14 4.47549E-14
 -1      3609 2.00005E+01-1.64959E-03-1.65372E-06 2.02865E-03 8.79901E-15 1.54819E-13
 -1      3610 2.00009E+01-1.78390E-03-7.61588E-06 2.23659E-03 8.23843E-14 4.15393E-14
 -1      3611 2.00000E+01-1.34592E-03 1.26682E-05-2.10454E-03 2.49297E-14 3.66189E-14
 -1      3612 2.00003E+01-1.52996E-03-3.77775E-06-2.23080E-03-3.07886E-14 9.53173E-14
 -1      3613 2.00003E+01-1.51210E-03-4.17116E-06-2.40964E-03-7.61383E-14 9.14847E-14
 -1      3614 2.00008E+01-1.70093E-03 9.51754E-07-2.39846E-03-1.71364E-13-7.32698E-14
 -1      3615 2.36711E+01-2.62474E+00-1.74024E-02 5.40303E-01-3.49920E-14-3.01089E-13
 -1      3616 2.40112E+01-2.24757E+00 1.60103E-02-1.81634E-01-1.04691E-13-2.53489E-13
 -1      3617 1.97624E+01-2.21471E+00 5.21161E-02 3.43693E+00-1.60733E-13-8.99716E-14
 -1      3618 2.43749E+01-1.99095E+00-1.60637E-02-6.48000E-01-2.16572E-14-2.18486E-13
 -1      3619 2.00012E+01-2.01215E-03 6.69834E-06-1.48546E-03 1.08119E-13 3.72743E-13
 -1      3620 2.00010E+01-1.88312E-03-2.16656E-06-1.71401E-03-3.12902E-14 2.52920E-13
 -1      3621 2.52565E+01 4.26137E+00-6.34760E-02 1.04439E+00 5.02647E-13 2.18627E-14
 -1      3622 1.12789E+01 7.48852E-01 3.68255E-02-5.99253E-01 1.17146E-14 4.08708E-13
 -1      3623 1.12626E+01 5.84356E-01 1.34842E-01-1.67587E+00 8.38600E-14 3.98806E-13
 -1      3624 1.26939E+01 3.19685E-01 7.54699E-02-2.29216E+00 1.21532E-13 3.96287E-13
 -1      3625 2.00018E+01-2.29993E-03 3.29018E-06-1.91002E-04 9.94651E-14 5.41081E-14
 -1      3626 2.00017E+01-2.27247E-03 1.25366E-06-5.21372E-04 1.27320E-13 1.00030E-13
 -1      3627 2.00021E+01-2.34278E-03-4.44000E-06-1.33579E-06 2.52989E-13-6.96430E-14
 -1      3628 2.35792E+01-3.15651E+00 4.01825E-02 1.50368E+00-5.28100E-14-3.15289E-13
 -1      3629 2.45980E+01-1.11089E+00 2.06505E-02 1.36828E+00 1.14409E-13 1.49612E-13
 -1      3630 2.00010E+01-1.85675E-03-4.69583E-06-1.97971E-03-3.86352E-14 1.16216E-13
 -1      3631 2.00007E+01-1.73581E-03 7.45986E-06-1.95420E-03-3.93077E-14-8.10330E-17
 -1      3632 1.83834E+01-2.52894E+00 7.63508E-02-4.36370E+00 3.44738E-13 6.34735E-14
 -1      3633 2.23225E+01-2.75480E+00-8.02677E-04 1.93376E+00-5.26610E-14-2.39206E-13
 -1      3634 2.00007E+01-1.73721E-03 5.48540E-06 1.91588E-03-1.03061E-13-1.23355E-13
 -1      3635 2.00010E+01-1.85698E-03-5.73929E-07 1.94715E-03-1.27015E-13-1.44889E-13
 -1      3636 1.96041E+01 3.42738E-01-9.86224E-04 1.04386E+00-2.09056E-13-2.99885E-14
 -1      3637 1.96461E+01 2.65422E-01 4.80808E-03 1.13339E+00-1.68917E-13-5.37664E-14
 -1      3638 2.00013E+01-1.91018E-03 5.90016E-06 2.02462E-03 2.11121E-13-2.82810E-13
 -1      3639 1.69559E+01 7.90196E-01 9.11754E-03-1.79405E+00 1.12564E-14 2.58776E-13
 -1      3640 1.71862E+01 9.09240E-01-1.90212E-02-1.55806E+00-2.71115E-14 2.95042E-13
 -1      3641 1.76234E+01 9.97643E-01 3.47958E-03-1.38211E+00-8.29597E-14 3.77724E-13
 -1      3642 1.78366E+01 1.03334E+00-1.32663E-02-1.22424E+00-6.50490E-14 2.60240E-13
 -1      3643 1.69769E+01 1.14033E+00 1.86786E-02-1.18368E+00-2.54413E-14 2.84065E-13
 -1      3644 1.81668E+01 1.05118E+00 5.37115E-04-1.10949E+00-1.34782E-14 2.18734E-13
 -1      3645 1.83513E+01 1.03849E+00-9.02906E-03-9.95172E-01 8.62700E-15 1.93269E-13
 -1      3646 1.77015E+01 1.16928E+00 1.31332E-02-9.36258E-01-8.51414E-14 2.76746E-13
 -1      3647 1.86035E+01 1.01554E+00-4.96504E-04-9.12051E-01 2.39378E-14 1.93810E-13
 -1      3648 1.87552E+01 9.75081E-01-6.43108E-03-8.22252E-01 4.88282E-14 2.26213E-13
 -1      3649 1.82550E+01 1.12131E+00 9.74280E-03-7.71082E-01 3.52916E-14 1.57228E-13
 -1      3650 1.89495E+01 9.29765E-01-7.50167E-04-7.56147E-01 1.48587E-13 2.41705E-13
 -1      3651 1.90701E+01 8.75172E-01-4.80346E-03-6.81268E-01 1.66513E-13 2.33173E-13
 -1      3652 1.86823E+01 1.02803E+00 7.40663E-03-6.45886E-01 1.09762E-13 1.90144E-13
 -1      3653 1.92201E+01 8.19699E-01-6.68861E-04-6.25503E-01 8.00276E-14 1.98917E-13
 -1      3654 1.93134E+01 7.60112E-01-3.72272E-03-5.61112E-01 1.23909E-13 1.73273E-13
 -1      3655 1.90129E+01 9.10926E-01 5.66274E-03-5.42041E-01 1.17709E-13 1.97072E-13
 -1      3656 1.94290E+01 7.02277E-01-4.57036E-04-5.12740E-01 3.03739E-14 7.26140E-14
 -1      3657 1.94998E+01 6.43434E-01-2.95476E-03-4.56950E-01-1.24028E-13 7.69341E-14
 -1      3658 1.92681E+01 7.85648E-01 4.33905E-03-4.51354E-01 2.09107E-14 8.70078E-14
 -1      3659 1.95885E+01 5.87929E-01-2.32605E-04-4.14831E-01-1.54959E-13 9.18143E-14
 -1      3660 1.96412E+01 5.33198E-01-2.37255E-03-3.66819E-01-9.53535E-14 6.64347E-14
 -1      3661 1.94640E+01 6.62481E-01 3.32039E-03-3.70849E-01-1.18951E-13-2.46414E-14
 -1      3662 1.97086E+01 4.82614E-01-4.80120E-05-3.30511E-01-1.70918E-13-1.04991E-14
 -1      3663 1.97472E+01 4.33741E-01-1.90902E-03-2.89768E-01-1.83848E-13-9.90155E-14
 -1      3664 1.96133E+01 5.47762E-01 2.52945E-03-2.99791E-01-2.33888E-13-3.88598E-14
 -1      3665 1.97980E+01 3.89279E-01 8.19924E-05-2.58982E-01-1.49270E-13-1.42611E-13
 -1      3666 1.98258E+01 3.46944E-01-1.52925E-03-2.24995E-01-1.58581E-13-2.15989E-13
 -1      3667 1.97259E+01 4.44961E-01 1.91369E-03-2.38093E-01-1.89838E-13-7.67569E-14
 -1      3668 1.98637E+01 3.08921E-01 1.60892E-04-1.99385E-01-1.14861E-13-1.90205E-13
 -1      3669 1.98833E+01 2.73126E-01-1.21453E-03-1.71543E-01-8.34609E-14-5.81451E-14
 -1      3670 1.98099E+01 3.55536E-01 1.43527E-03-1.85609E-01-8.69825E-14 8.10658E-15
 -1      3671 1.99112E+01 2.41327E-01 1.99195E-04-1.50655E-01-1.46026E-13 5.40067E-15
 -1      3672 1.99248E+01 2.11672E-01-9.53770E-04-1.28262E-01-1.04253E-13 3.25216E-15
 -1      3673 1.98718E+01 2.79605E-01 1.06536E-03-1.41914E-01-4.01432E-14 7.70188E-14
 -1      3674 1.99450E+01 1.85582E-01 2.08616E-04-1.11558E-01-6.62877E-15-1.10026E-13
 -1      3675 1.99541E+01 1.61453E-01-7.39240E-04-9.38708E-02-8.69492E-15-1.44303E-13
 -1      3676 1.99167E+01 2.16448E-01 7.81252E-04-1.06302E-01-9.24113E-14-1.17044E-13
 -1      3677 1.99685E+01 1.40412E-01 1.99461E-04-8.07719E-02-3.50256E-14-9.46598E-14
 -1      3678 1.99745E+01 1.21104E-01-5.64664E-04-6.70539E-02 2.20832E-14-3.31965E-14
 -1      3679 1.99488E+01 1.64872E-01 5.64774E-04-7.78727E-02 2.71350E-14-1.38649E-13
 -1      3680 1.99845E+01 1.04407E-01 1.79747E-04-5.69818E-02 1.26266E-13 1.98728E-15
 -1      3681 1.99882E+01 8.92016E-02-4.24432E-04-4.65382E-02 1.12521E-13 1.28277E-13
 -1      3682 1.99711E+01 1.23462E-01 4.01336E-04-5.56317E-02 1.08045E-13-7.51202E-14
 -1      3683 1.99950E+01 7.61597E-02 1.55203E-04-3.89484E-02 2.14932E-14 1.54265E-13
 -1      3684 1.99972E+01 6.43735E-02-3.13366E-04-3.11507E-02 8.50588E-15 2.77168E-13
 -1      3685 1.99863E+01 9.07513E-02 2.79236E-04-3.85802E-02 7.96114E-14 3.24745E-14
 -1      3686 2.00016E+01 5.43471E-02 1.29621E-04-2.55529E-02-1.37768E-13 2.60715E-13
 -1      3687 2.00026E+01 4.53586E-02-2.26705E-04-1.98521E-02-2.09542E-13 1.85847E-13
 -1      3688 1.99962E+01 6.53226E-02 1.89122E-04-2.57757E-02 2.92448E-15 1.63188E-13
 -1      3689 2.00054E+01 3.77771E-02 1.05309E-04-1.58199E-02-1.45865E-13 2.67041E-13
 -1      3690 2.00057E+01 3.10391E-02-1.60142E-04-1.17499E-02 6.31824E-14 2.99193E-13
 -1      3691 2.00024E+01 4.58758E-02 1.23558E-04-1.63698E-02-7.13668E-14 2.37369E-13
 -1      3692 2.00073E+01 2.54077E-02 8.35126E-05-8.92380E-03 2.67049E-14 4.45537E-14
 -1      3693 2.00072E+01 2.04506E-02-1.09866E-04-6.09825E-03-7.83036E-14-2.24087E-14
 -1      3694 2.00059E+01 3.12573E-02 7.66671E-05-9.62707E-03-8.93076E-14 2.21944E-13
 -1      3695 2.00079E+01 1.63497E-02 6.47649E-05-4.18236E-03-1.30124E-13-1.42545E-13
 -1      3696 2.00076E+01 1.27795E-02-7.25786E-05-2.28808E-03-1.86734E-13-3.29080E-14
 -1      3697 2.00076E+01 2.04714E-02 4.38288E-05-4.92876E-03-1.27492E-13-1.24796E-13
 -1      3698 2.00078E+01 9.86068E-03 4.91444E-05-1.04463E-03-1.81409E-13 2.27433E-14
 -1      3699 2.00073E+01 7.35282E-03-4.54854E-05 1.67212E-04-2.61388E-13 1.35122E-13
 -1      3700 2.00081E+01 1.26785E-02 2.14391E-05-1.76757E-03-1.80158E-13 1.28386E-14
 -1      3701 2.00072E+01 5.33158E-03 3.64659E-05 9.25418E-04-1.89536E-13 1.84813E-13
 -1      3702 2.00067E+01 3.62330E-03-2.62640E-05 1.64878E-03-5.04473E-14 2.18496E-13
 -1      3703 2.00079E+01 7.18430E-03 6.70750E-06 2.62920E-04-1.49020E-13 1.87306E-13
 -1      3704 2.00063E+01 2.27133E-03 2.64073E-05 2.06612E-03-1.88194E-14 2.67383E-13
 -1      3705 2.00058E+01 1.15328E-03-1.30172E-05 2.44929E-03 6.36095E-14 2.93648E-13
 -1      3706 2.00072E+01 3.42475E-03-2.50622E-06 1.48144E-03 1.21068E-14 8.70313E-14
 -1      3707 2.00054E+01 2.90077E-04 1.85972E-05 2.63484E-03-6.68461E-14 1.67708E-13
 -1      3708 2.00049E+01-4.02037E-04-4.20825E-06 2.78893E-03-1.09926E-14-1.58862E-14
 -1      3709 2.00063E+01 9.49250E-04-7.82032E-06 2.13286E-03-2.67062E-14 2.42140E-13
 -1      3710 2.00044E+01-9.17210E-04 1.26811E-05 2.82340E-03 7.21386E-14-1.08394E-13
 -1      3711 2.00040E+01-1.31072E-03 1.35085E-06 2.82986E-03 6.54504E-14-2.35121E-13
 -1      3712 2.00053E+01-5.96790E-04-1.04306E-05 2.40142E-03-7.99873E-14-3.01250E-14
 -1      3713 2.00035E+01-1.58624E-03 8.28922E-06 2.77130E-03 1.72887E-14-2.57136E-13
 -1      3714 2.00032E+01-1.77823E-03 4.60224E-06 2.68816E-03 1.40663E-13-2.30219E-13
 -1      3715 2.00044E+01-1.48890E-03-1.12888E-05 2.42267E-03 1.68558E-14-1.11173E-13
 -1      3716 2.00027E+01-1.89612E-03 5.11461E-06 2.57739E-03 3.27486E-13-4.10097E-13
 -1      3717 2.00024E+01-1.96040E-03 6.11226E-06 2.44506E-03 3.52785E-13-3.75226E-13
 -1      3718 2.00034E+01-1.93774E-03-1.11343E-05 2.29340E-03 1.56458E-13-2.62950E-13
 -1      3719 2.00020E+01-1.98031E-03 3.53456E-06 2.30982E-03 3.41818E-13-4.14044E-13
 -1      3720 2.00017E+01-1.97900E-03 4.52596E-06 2.15743E-03 3.27864E-13-3.55697E-13
 -1      3721 2.00026E+01-2.10110E-03-9.80968E-06 2.08179E-03 3.87804E-13-2.95174E-13
 -1      3722 2.17269E+01-2.32046E+00 3.56812E-02 2.08675E+00-5.40332E-14-2.26285E-13
 -1      3723 2.42929E+01-1.47506E+00-4.27214E-02 7.51652E-01 6.94965E-14 1.32391E-13
 -1      3724 2.40125E+01-1.14318E+00-1.22642E-02 1.04412E+00 9.94641E-14 7.13613E-14
 -1      3725 1.96441E+01 1.56432E-01 6.05929E-04 1.25569E+00-1.80525E-13-1.14444E-13
 -1      3726 1.97369E+01 1.66786E-02 6.63091E-03 1.34755E+00-1.38119E-13-1.32777E-13
 -1      3727 1.93656E+01 2.91707E-01-3.59130E-03 1.22148E+00-2.22223E-13-3.41024E-14
 -1      3728 1.97944E+01-1.63496E-01 4.00702E-03 1.48541E+00-8.02729E-14-1.88510E-13
 -1      3729 1.99732E+01-3.83827E-01 1.02252E-02 1.56680E+00-1.38071E-13-1.38922E-13
 -1      3730 1.94087E+01 5.24726E-03-6.86118E-03 1.49790E+00-1.31342E-13-2.03399E-13
 -1      3731 1.96238E+01 4.32082E-01-1.65997E-03 8.56963E-01-1.67818E-13-6.38314E-14
 -1      3732 1.96360E+01 3.98836E-01 3.39374E-03 9.39370E-01-1.90661E-13-1.63008E-14
 -1      3733 1.94030E+01 4.47324E-01-1.29522E-03 9.88428E-01-1.96549E-13-7.83768E-14
 -1      3734 1.96720E+01 4.55979E-01-1.88367E-03 6.95459E-01 3.34560E-14-6.63870E-14
 -1      3735 1.96682E+01 4.51846E-01 2.40921E-03 7.69037E-01-9.62152E-14-8.26335E-14
 -1      3736 1.94780E+01 5.11311E-01-1.83794E-05 7.94797E-01-7.96955E-14-2.23189E-13
 -1      3737 1.97302E+01 4.38648E-01-1.87346E-03 5.57687E-01 1.17629E-13-5.61125E-14
 -1      3738 1.97192E+01 4.52370E-01 1.74895E-03 6.21996E-01 9.37673E-14-1.01522E-14
 -1      3739 1.95661E+01 5.15434E-01 6.31642E-04 6.34598E-01 1.35344E-14-2.21010E-13
 -1      3740 1.97878E+01 3.97799E-01-1.73959E-03 4.41538E-01 5.89624E-14 7.67801E-14
 -1      3741 1.97747E+01 4.21272E-01 1.31002E-03 4.96723E-01 1.01892E-13 5.29608E-14
 -1      3742 1.96533E+01 4.83017E-01 9.07283E-04 5.02367E-01 3.96058E-14-4.98434E-14
 -1      3743 1.98397E+01 3.45794E-01-1.54438E-03 3.44823E-01-1.18793E-13 1.54260E-13
 -1      3744 1.98271E+01 3.73445E-01 1.01331E-03 3.91362E-01-1.60577E-14 1.32609E-13
 -1      3745 1.97323E+01 4.30761E-01 9.66595E-04 3.93670E-01-4.52977E-14 1.39447E-13
 -1      3746 1.98835E+01 2.90825E-01-1.32566E-03 2.65351E-01-1.05870E-13 1.74171E-13
 -1      3747 1.98727E+01 3.19022E-01 8.05052E-04 3.03935E-01-9.36165E-14 1.21792E-13
 -1      3748 1.97999E+01 3.70156E-01 9.08175E-04 3.04902E-01-1.18963E-13 2.00541E-13
 -1      3749 1.99189E+01 2.37972E-01-1.10687E-03 2.00959E-01-1.42757E-13 8.74143E-14
 -1      3750 1.99102E+01 2.64517E-01 6.51240E-04 2.32411E-01-1.16493E-13 7.19241E-14
 -1      3751 1.98553E+01 3.08707E-01 7.93024E-04 2.33045E-01-5.58102E-14 1.51444E-13
 -1      3752 1.99463E+01 1.90090E-01-9.02136E-04 1.49544E-01-1.71130E-13-3.05532E-14
 -1      3753 1.99398E+01 2.13798E-01 5.31612E-04 1.74755E-01-1.85711E-13 6.65944E-14
 -1      3754 1.98992E+01 2.50976E-01 6.58055E-04 1.75496E-01-1.28434E-13-3.84671E-14
 -1      3755 1.99668E+01 1.48510E-01-7.19204E-04 1.09111E-01-1.41681E-14-7.96621E-14
 -1      3756 1.99622E+01 1.68882E-01 4.34639E-04 1.28983E-01-6.65648E-14-4.97590E-14
 -1      3757 1.99329E+01 1.99433E-01 5.24590E-04 1.29963E-01-3.26678E-14-1.48162E-13
 -1      3758 1.99817E+01 1.13567E-01-5.61448E-04 7.78160E-02 3.11037E-14-3.05886E-13
 -1      3759 1.99786E+01 1.30544E-01 3.53940E-04 9.32139E-02 2.89163E-14-1.10683E-13
 -1      3760 1.99580E+01 1.55118E-01 4.03898E-04 9.44132E-02 2.48318E-14-2.71864E-13
 -1      3761 1.99920E+01 8.49883E-02-4.29304E-04 5.39949E-02 1.05577E-13-1.71968E-13
 -1      3762 1.99901E+01 9.87751E-02 2.85973E-04 6.57162E-02-4.59381E-15-2.80386E-13
 -1      3763 1.99761E+01 1.18148E-01 3.00917E-04 6.70574E-02 7.07593E-14-2.38692E-13
 -1      3764 1.99988E+01 6.21625E-02-3.21359E-04 3.61849E-02-7.16523E-14-8.16588E-14
 -1      3765 1.99978E+01 7.31046E-02 2.28652E-04 4.49414E-02 1.38841E-13-1.37621E-14
 -1      3766 1.99888E+01 8.80801E-02 2.16758E-04 4.63348E-02 1.71613E-15-1.03708E-13
 -1      3767 2.00031E+01 4.43252E-02-2.35155E-04 2.31294E-02-4.75039E-14-2.91536E-13
 -1      3768 2.00027E+01 5.28256E-02 1.80585E-04 2.95380E-02-5.37570E-14-1.41700E-13
 -1      3769 1.99972E+01 6.41757E-02 1.50372E-04 3.09052E-02 3.48315E-14-1.85411E-13
 -1      3770 2.00055E+01 3.06767E-02-1.67760E-04 1.37712E-02 9.38161E-15-2.33698E-13
 -1      3771 2.00055E+01 3.71433E-02 1.40674E-04 1.83535E-02-5.98472E-14-2.69272E-13
 -1      3772 2.00025E+01 4.55698E-02 9.96333E-05 1.96360E-02 1.76429E-14-9.33060E-14
 -1      3773 2.00066E+01 2.04529E-02-1.16148E-04 7.23862E-03 7.46687E-14-8.27924E-14
 -1      3774 2.00068E+01 2.52679E-02 1.07940E-04 1.04260E-02 6.63132E-14-9.87462E-14
 -1      3775 2.00055E+01 3.13847E-02 6.20179E-05 1.15864E-02-1.02526E-13 6.33561E-14
 -1      3776 2.00068E+01 1.29650E-02-7.74464E-05 2.82612E-03 1.37686E-13 1.51535E-13
 -1      3777 2.00072E+01 1.64687E-02 8.14568E-05 4.96829E-03 7.93823E-14 1.90258E-15
 -1      3778 2.00070E+01 2.07964E-02 3.50035E-05 5.98731E-03 1.96706E-14 8.83753E-14
 -1      3779 2.00065E+01 7.61624E-03-4.90675E-05-2.70311E-05-1.85300E-13 4.86981E-13
 -1      3780 2.00070E+01 1.01004E-02 6.03392E-05 1.34796E-03 8.30173E-14 3.99071E-13
 -1      3781 2.00074E+01 1.30695E-02 1.62855E-05 2.22050E-03-8.14877E-14 4.42728E-13
 -1      3782 2.00058E+01 3.90587E-03-2.87717E-05-1.75868E-03-7.44130E-14 4.50259E-13
 -1      3783 2.00063E+01 5.61371E-03 4.37551E-05-9.33925E-04-1.46234E-13 3.64330E-13
 -1      3784 2.00072E+01 7.57198E-03 3.87543E-06-2.02845E-04-6.42105E-14 5.74562E-13
 -1      3785 2.00051E+01 1.42392E-03-1.46794E-05-2.70458E-03 9.79036E-14 1.24615E-13
 -1      3786 2.00055E+01 2.55313E-03 3.09393E-05-2.26392E-03 7.64943E-14 3.04335E-13
 -1      3787 2.00066E+01 3.77603E-03-3.87222E-06-1.66286E-03 4.26227E-14 3.56882E-13
 -1      3788 2.00042E+01-1.57924E-04-5.23754E-06-3.11734E-03 2.05530E-13-3.60879E-14
 -1      3789 2.00047E+01 5.50125E-04 2.12041E-05-2.93602E-03 1.31157E-13 1.61682E-14
 -1      3790 2.00057E+01 1.25150E-03-8.27056E-06-2.45003E-03 2.44209E-13 1.53241E-13
 -1      3791 2.00034E+01-1.09788E-03 7.80100E-07-3.18318E-03 1.77439E-13 2.08765E-14
 -1      3792 2.00038E+01-6.87679E-04 1.39521E-05-3.16951E-03 2.19952E-13-4.99908E-14
 -1      3793 2.00048E+01-3.44899E-04-1.03227E-05-2.78223E-03 1.74474E-13 9.15661E-14
 -1      3794 2.00027E+01-1.59608E-03 4.28038E-06-3.03610E-03 6.00174E-14 1.57140E-13
 -1      3795 2.00030E+01-1.38851E-03 8.65455E-06-3.12445E-03 1.46310E-13 4.68604E-14
 -1      3796 2.00039E+01-1.28258E-03-1.08731E-05-2.81983E-03 1.46511E-13 4.29441E-14
 -1      3797 2.00020E+01-1.80512E-03 6.10342E-06-2.76897E-03-1.89643E-13 1.80494E-13
 -1      3798 2.00023E+01-1.72821E-03 4.86523E-06-2.91409E-03-1.03953E-13 1.96719E-13
 -1      3799 2.00031E+01-1.77025E-03-1.05674E-05-2.67775E-03-1.22580E-13 1.52393E-13
 -1      3800 2.00015E+01-1.84060E-03 5.96940E-06-2.44453E-03-1.28795E-13 2.01251E-13
 -1      3801 2.00017E+01-1.84180E-03 1.10903E-06-2.61614E-03-7.00976E-14 2.04736E-13
 -1      3802 2.00024E+01-1.96391E-03-8.90342E-06-2.43597E-03-1.33207E-13 3.43445E-13
 -1      3803 2.00015E+01-2.13090E-03-9.85787E-07-1.17944E-03 1.45035E-13 2.44069E-13
 -1      3804 2.00016E+01-2.11160E-03-3.59142E-06-1.43261E-03 2.13937E-13 3.46544E-13
 -1      3805 2.00016E+01-2.21064E-03 5.25200E-06-8.83960E-04 2.21270E-13 2.13611E-13
 -1      3806 2.47999E+01-2.30190E+00-1.07262E-02-4.41841E-01-5.46243E-14-2.36961E-13
 -1      3807 2.11268E+01-1.78913E+00 1.62513E-02 1.97559E+00-2.63522E-14-1.81136E-13
 -1      3808 2.05802E+01-2.25955E+00-4.61600E-02 2.73953E+00-6.39955E-14-1.73264E-13
 -1      3809 1.91787E+01-1.56629E+00 2.71572E-02 3.13414E+00-1.56798E-13 1.04868E-14
 -1      3810 2.06552E+01-1.37192E+00 2.32574E-02 1.99790E+00-8.85652E-14-2.05933E-13
 -1      3811 1.51251E+01-2.04484E-01 8.57879E-03-3.15770E+00 2.00733E-13 3.01661E-13
 -1      3812 2.00004E+01-1.55073E-03-2.79557E-06-2.10591E-03-1.33542E-14 3.73214E-14
 -1      3813 1.62008E+01 3.38297E-01 2.53578E-02-2.44196E+00 1.77418E-13 2.06829E-13
 -1      3814 1.63738E+01 6.00605E-01-1.97346E-02-2.07424E+00 9.66137E-14 1.91047E-13
 -1      3815 1.60411E+01 9.77797E-01 3.66025E-02-1.59335E+00 1.21653E-13 2.08840E-13
 -1      3816 2.00012E+01-1.86042E-03 3.24327E-06-2.11622E-03 1.38932E-14-9.13072E-15
 -1      3817 2.00013E+01-1.85244E-03-3.07540E-06-2.29909E-03-6.81524E-14 1.84873E-13
 -1      3818 2.00019E+01-2.00749E-03-3.83768E-06-2.15623E-03 4.03156E-14 3.71414E-13
 -1      3819 2.00015E+01-1.99844E-03 6.24576E-07-1.87643E-03 6.90376E-14 3.77360E-13
 -1      3820 2.00018E+01-2.06724E-03-6.51566E-06 1.84382E-03 2.14326E-13-5.22734E-13
 -1      3821 1.43256E+01 4.02079E-01 3.31803E-02-2.51369E+00 1.22755E-13 3.11640E-13
 -1      3822 1.46374E+01 3.11136E-02 1.01870E-02 2.81774E+00-2.28758E-13 2.56763E-13
 -1      3823 2.00021E+01-2.22684E-03 1.37414E-06-1.22908E-03 9.56525E-14 2.80388E-13
 -1      3824 2.00018E+01-2.12035E-03 2.40050E-06-1.54321E-03 1.72498E-14 3.47454E-13
 -1      3825 2.00020E+01-2.13096E-03-2.11387E-06-1.67733E-03 4.52366E-14 2.66504E-13
 -1      3826 2.00020E+01-2.28326E-03-3.74917E-06-7.54221E-04 1.73730E-13 4.76097E-14
 -1      3827 1.21435E+01 9.98607E-01 1.09048E-01 4.35769E-01-5.11206E-14 4.09912E-13
 -1      3828 1.26238E+01 9.17697E-01-2.62229E-03-4.82918E-01-3.57579E-14 3.40460E-13
 -1      3829 1.30910E+01 8.49538E-01-1.16842E-02 1.20720E+00-9.55421E-14 3.82590E-13
 -1      3830 2.00025E+01-2.36907E-03 1.04993E-06 1.90521E-04 2.04406E-13-1.21807E-13
 -1      3831 2.00025E+01-2.36712E-03 1.93057E-06-1.94758E-04 1.63010E-13 5.76879E-14
 -1      3832 2.00021E+01-2.17504E-03 4.23700E-06 1.52674E-03 2.59878E-13-4.63936E-13
 -1      3833 2.00758E+01-6.56275E-01 1.04961E-02 1.74879E+00-1.92705E-13-1.28558E-13
 -1      3834 2.03814E+01-9.76149E-01 1.44630E-02 1.80283E+00-1.62781E-13-2.11905E-13
 -1      3835 1.98262E+01-1.18215E+00-2.85977E-02 2.28524E+00-1.08497E-13-1.04219E-13
 -1      3836 1.95422E+01-4.59911E-01-1.21822E-02 1.84416E+00-1.84471E-13-1.97408E-13
 -1      3837 1.93728E+01-1.17532E+00 1.92319E-02 2.61734E+00-1.40531E-13 4.61865E-14
 -1      3838 1.82252E+01-1.21020E+00-1.60298E-02 3.24996E+00-2.15059E-13 1.78228E-13
 -1      3839 1.75294E+01-6.24180E-01 5.21352E-02 3.06405E+00-2.15830E-13 2.09240E-13
 -1      3840 1.91104E+01-7.46331E-01 7.12020E-03 2.36907E+00-2.04755E-13 1.05912E-13
 -1      3841 2.00023E+01-2.28978E-03-1.40267E-06 9.85679E-04 1.79070E-13-6.06916E-13
 -1      3842 2.00024E+01-2.33889E-03 4.64984E-06 6.20595E-04 2.77114E-13-5.42387E-13
 -1      3843 2.00028E+01-2.37843E-03-2.45083E-06 4.30738E-04 1.33470E-13-3.87721E-13
 -1      3844 1.39230E+01 8.47741E-01 4.97350E-02-1.67791E+00 4.82086E-14 2.86859E-13
 -1      3845 1.72903E+01 1.20577E+00-6.47913E-03-6.65661E-01-1.22361E-13 1.67813E-13
 -1      3846 1.76125E+01 1.18867E+00-1.07094E-02-5.92046E-01-1.22091E-13 1.40012E-13
 -1      3847 1.79452E+01 1.16195E+00-4.61485E-03-5.65184E-01-5.58526E-14 9.89167E-14
 -1      3848 1.81917E+01 1.12080E+00-7.10250E-03-5.11886E-01 6.81054E-14 9.69207E-14
 -1      3849 1.76619E+01 1.23503E+00 1.35783E-02-3.12813E-01-1.17112E-13 6.92801E-14
 -1      3850 1.84427E+01 1.07321E+00-3.60266E-03-4.89553E-01 1.39391E-13 8.31080E-14
 -1      3851 1.86335E+01 1.01779E+00-5.00216E-03-4.45684E-01 1.42497E-13 1.49588E-13
 -1      3852 1.82235E+01 1.14292E+00 9.74647E-03-2.97720E-01 9.57724E-14 1.28091E-13
 -1      3853 1.88256E+01 9.59327E-01-2.75864E-03-4.24173E-01 5.50071E-14 1.10749E-13
 -1      3854 1.89730E+01 8.97311E-01-3.72568E-03-3.85055E-01 3.99348E-14 2.58619E-14
 -1      3855 1.86525E+01 1.02748E+00 7.18609E-03-2.78768E-01 6.94619E-14 4.04829E-14
 -1      3856 1.91215E+01 8.34909E-01-2.03599E-03-3.63269E-01 2.60278E-14-2.66331E-14
 -1      3857 1.92348E+01 7.71765E-01-2.90355E-03-3.27380E-01-1.95790E-14-9.52779E-14
 -1      3858 1.89836E+01 9.01000E-01 5.42660E-03-2.53625E-01 3.43700E-15-3.97272E-14
 -1      3859 1.93500E+01 7.10209E-01-1.45219E-03-3.05721E-01-7.86087E-14-1.00261E-13
 -1      3860 1.94363E+01 6.49694E-01-2.32850E-03-2.72937E-01-2.34749E-13-1.52702E-13
 -1      3861 1.92403E+01 7.72671E-01 4.15788E-03-2.23652E-01-7.18786E-14-1.57676E-13
 -1      3862 1.95254E+01 5.92078E-01-9.99655E-04-2.52223E-01-2.31339E-13-6.42848E-14
 -1      3863 1.95906E+01 5.36549E-01-1.89149E-03-2.22851E-01-1.95879E-13-5.09008E-14
 -1      3864 1.94388E+01 6.49358E-01 3.20405E-03-1.91360E-01-1.70768E-13-9.71526E-14
 -1      3865 1.96590E+01 4.84653E-01-6.61410E-04-2.03824E-01-1.97988E-13-1.83908E-14
 -1      3866 1.97078E+01 4.35373E-01-1.53833E-03-1.78148E-01-1.74089E-13-3.80435E-15
 -1      3867 1.95916E+01 5.35668E-01 2.46770E-03-1.59178E-01-1.87755E-13-2.95139E-14
 -1      3868 1.97598E+01 3.90015E-01-4.17206E-04-1.61310E-01-1.30032E-13 8.88986E-14
 -1      3869 1.97958E+01 3.47448E-01-1.24316E-03-1.39421E-01 2.14485E-15 1.12048E-13
 -1      3870 1.97081E+01 4.34247E-01 1.89128E-03-1.28966E-01-7.76967E-14-2.80603E-14
 -1      3871 1.98350E+01 3.08771E-01-2.46847E-04-1.25004E-01-7.41299E-14-1.09119E-14
 -1      3872 1.98612E+01 2.72835E-01-9.93685E-04-1.06790E-01-1.08722E-13-3.46542E-14
 -1      3873 1.97959E+01 3.46206E-01 1.43783E-03-1.01911E-01-8.48592E-14-6.74964E-15
 -1      3874 1.98902E+01 2.40549E-01-1.32167E-04-9.48049E-02-5.38119E-14-8.72249E-14
 -1      3875 1.99089E+01 2.10813E-01-7.83468E-04-7.99908E-02-1.73323E-14-5.28301E-16
 -1      3876 1.98613E+01 2.71542E-01 1.08154E-03-7.85980E-02-1.01832E-13-1.15853E-13
 -1      3877 1.99301E+01 1.84367E-01-5.79828E-05-7.02878E-02-1.47185E-14-2.11928E-14
 -1      3878 1.99432E+01 1.60209E-01-6.08237E-04-5.84971E-02 5.02192E-14-2.92960E-15
 -1      3879 1.99092E+01 2.09514E-01 8.03079E-04-5.91536E-02-4.00701E-14 1.17396E-13
 -1      3880 1.99584E+01 1.38922E-01-1.22960E-05-5.08333E-02 1.84137E-13-1.18059E-13
 -1      3881 1.99674E+01 1.19629E-01-4.64291E-04-4.16432E-02 2.42240E-13-2.78715E-14
 -1      3882 1.99436E+01 1.58941E-01 5.87228E-04-4.33908E-02 8.44477E-14-6.05168E-14
 -1      3883 1.99780E+01 1.02779E-01 1.39702E-05-3.57314E-02 2.45554E-13 2.20235E-15
 -1      3884 1.99839E+01 8.76241E-02-3.47961E-04-2.87155E-02 1.17836E-13 9.01864E-14
 -1      3885 1.99679E+01 1.18424E-01 4.21624E-04-3.09388E-02 2.66256E-13-1.70847E-13
 -1      3886 1.99911E+01 7.45029E-02 2.74377E-05-2.42611E-02 5.28373E-14 9.93220E-14
 -1      3887 1.99948E+01 6.27953E-02-2.55545E-04-1.90178E-02 2.16176E-14 1.63343E-13
 -1      3888 1.99844E+01 8.65094E-02 2.96102E-04-2.13393E-02 1.86748E-13 1.23077E-13
 -1      3889 1.99995E+01 5.27466E-02 3.27890E-05-1.57425E-02-5.63661E-14 1.79442E-13
 -1      3890 2.00016E+01 4.38550E-02-1.83405E-04-1.19121E-02 1.38884E-14 2.41787E-13
 -1      3891 1.99954E+01 6.17890E-02 2.02277E-04-1.41150E-02 3.14260E-14 6.70659E-14
 -1      3892 2.00045E+01 3.62924E-02 3.32424E-05-9.56710E-03-1.59094E-13 1.14912E-13
 -1      3893 2.00056E+01 2.96607E-02-1.28105E-04-6.83882E-03-2.46001E-13-7.89844E-15
 -1      3894 2.00022E+01 4.29676E-02 1.33259E-04-8.81194E-03-2.02225E-13 1.24674E-13
 -1      3895 2.00072E+01 2.40754E-02 3.09481E-05-5.21081E-03-1.62613E-13-1.23223E-13
 -1      3896 2.00077E+01 1.92267E-02-8.65117E-05-3.32468E-03-1.08384E-13-8.67533E-14
 -1      3897 2.00062E+01 2.88954E-02 8.34272E-05-5.02337E-03-2.56678E-13-1.17102E-13
 -1      3898 2.00084E+01 1.51878E-02 2.72997E-05-2.23650E-03-6.31761E-14-7.88632E-14
 -1      3899 2.00084E+01 1.17223E-02-5.58657E-05-9.80331E-04-1.43535E-13 7.51898E-16
 -1      3900 2.00081E+01 1.85804E-02 4.82420E-05-2.40032E-03-7.53404E-14-1.14618E-13
 -1      3901 2.00085E+01 8.87243E-03 2.31679E-05-2.88999E-04-2.52568E-13-1.12706E-14
 -1      3902 2.00082E+01 6.46151E-03-3.38016E-05 5.06381E-04-1.51134E-13 8.12996E-14
 -1      3903 2.00087E+01 1.11874E-02 2.40756E-05-6.53356E-04-1.37862E-13-1.15572E-13
 -1      3904 2.00080E+01 4.50986E-03 1.90701E-05 9.13501E-04 3.59445E-14 8.25513E-14
 -1      3905 2.00076E+01 2.88812E-03-1.83455E-05 1.38010E-03 8.98955E-14 1.57718E-13
 -1      3906 2.00085E+01 6.02715E-03 8.06213E-06 4.50894E-04-3.88629E-14 7.29164E-14
 -1      3907 2.00072E+01 1.60189E-03 1.52898E-05 1.58967E-03 5.38565E-14 1.39077E-13
 -1      3908 2.00067E+01 5.58616E-04-7.88210E-06 1.82837E-03-4.82870E-14 1.24908E-13
 -1      3909 2.00078E+01 2.54177E-03-2.03219E-06 1.09590E-03 1.30622E-14 2.14594E-13
 -1      3910 2.00062E+01-2.45581E-04 1.19677E-05 1.90551E-03-2.27892E-13 1.79028E-13
 -1      3911 2.00056E+01-8.75112E-04-1.03872E-06 1.99174E-03-1.43895E-13 2.36200E-15
 -1      3912 2.00069E+01 2.86981E-04-7.89243E-06 1.42246E-03-1.21872E-13 1.25945E-13
 -1      3913 2.00051E+01-1.33980E-03 9.17291E-06 1.98460E-03-6.31491E-14-1.17603E-13
 -1      3914 2.00046E+01-1.68337E-03 3.12780E-06 1.97355E-03-1.46619E-14-1.86449E-13
 -1      3915 2.00058E+01-1.08492E-03-1.06119E-05 1.53617E-03-1.91684E-13 1.90415E-13
 -1      3916 2.00041E+01-1.91715E-03 6.78101E-06 1.91571E-03 1.09721E-13-1.87010E-13
 -1      3917 2.00037E+01-2.07061E-03 4.79271E-06 1.84713E-03 2.39650E-13-2.54348E-13
 -1      3918 2.00047E+01-1.84319E-03-1.13165E-05 1.51499E-03 5.79129E-15 6.23418E-14
 -1      3919 2.00032E+01-2.15911E-03 4.79221E-06 1.76197E-03 1.97643E-13-3.12518E-13
 -1      3920 2.00028E+01-2.20038E-03 4.66571E-06 1.66053E-03 2.66045E-13-4.73465E-13
 -1      3921 2.00037E+01-2.19623E-03-1.03456E-05 1.41900E-03 1.10149E-13-3.36312E-13
 -1      3922 1.90874E+01 4.67999E-01-4.01135E-03 1.12151E+00-2.47198E-13 2.97968E-14
 -1      3923 1.90948E+01 3.82261E-01 6.57976E-03 1.24959E+00-1.91915E-13 6.55576E-15
 -1      3924 1.51052E+01 1.02087E+00-3.31802E-02-1.12415E+00 1.13908E-13 1.15381E-13
 -1      3925 1.57502E+01 1.13659E+00-2.67136E-02-8.93345E-01 9.87775E-14 1.30890E-13
 -1      3926 1.92052E+01 5.67597E-01-3.69621E-03 8.84242E-01-1.36383E-13-5.22985E-14
 -1      3927 1.91822E+01 5.32103E-01 4.35201E-03 9.89046E-01-2.06623E-13-1.10578E-15
 -1      3928 1.88979E+01 6.05509E-01 6.24078E-04 1.00927E+00-1.91021E-13 8.99172E-14
 -1      3929 1.90145E+01 2.54450E-01-3.95439E-03 1.42070E+00-1.99797E-13-2.57046E-14
 -1      3930 1.90840E+01 1.00512E-01 1.11735E-02 1.57224E+00-2.12586E-13-8.53732E-14
 -1      3931 1.87306E+01 4.47025E-01-8.38167E-04 1.31597E+00-2.41239E-13 8.24047E-14
 -1      3932 1.94637E+01 5.68302E-01-2.81679E-03 5.46135E-01 4.00262E-15-6.84066E-14
 -1      3933 1.94229E+01 5.86314E-01 1.76346E-03 6.16336E-01-1.63640E-14-1.38529E-13
 -1      3934 1.95792E+01 5.16827E-01-2.39981E-03 4.25877E-01-2.65624E-14-2.64446E-15
 -1      3935 1.95400E+01 5.46309E-01 1.13895E-03 4.83381E-01-1.78992E-14-8.31800E-14
 -1      3936 1.94060E+01 6.14610E-01 1.87791E-03 4.63969E-01-5.02323E-14 3.19801E-14
 -1      3937 1.96786E+01 4.51678E-01-2.01754E-03 3.29436E-01-9.34310E-14 3.39883E-14
 -1      3938 1.96439E+01 4.86264E-01 7.52711E-04 3.76397E-01-4.94730E-15 2.36045E-14
 -1      3939 1.95403E+01 5.48373E-01 1.74811E-03 3.56826E-01-3.71571E-14 2.17867E-14
 -1      3940 1.97612E+01 3.82503E-01-1.67293E-03 2.52287E-01-1.28386E-13 8.15152E-14
 -1      3941 1.97320E+01 4.17932E-01 5.15684E-04 2.90409E-01-1.77940E-13 1.03426E-13
 -1      3942 1.96526E+01 4.72905E-01 1.54169E-03 2.72803E-01-1.14484E-13 4.14376E-14
 -1      3943 1.98276E+01 3.15474E-01-1.36715E-03 1.90910E-01-5.33395E-14 7.37989E-14
 -1      3944 1.98041E+01 3.49079E-01 3.69511E-04 2.21593E-01-5.13201E-14 1.66157E-13
 -1      3945 1.97439E+01 3.96567E-01 1.30712E-03 2.06853E-01-1.35143E-13 6.94300E-14
 -1      3946 1.98796E+01 2.54206E-01-1.10036E-03 1.42465E-01-1.30648E-13 4.88121E-14
 -1      3947 1.98613E+01 2.84482E-01 2.77437E-04 1.66903E-01-9.40879E-14 7.61035E-14
 -1      3948 1.98164E+01 3.24604E-01 1.07332E-03 1.55213E-01-4.92625E-14 2.10408E-13
 -1      3949 1.99193E+01 2.00500E-01-8.71710E-04 1.04605E-01 5.02785E-14-4.63707E-14
 -1      3950 1.99055E+01 2.26756E-01 2.17045E-04 1.23837E-01-2.64076E-14-3.42442E-14
 -1      3951 1.98725E+01 2.59965E-01 8.56979E-04 1.14988E-01-2.08813E-14 5.73046E-14
 -1      3952 1.99487E+01 1.54929E-01-6.79315E-04 7.53584E-02 5.58486E-14-1.18039E-13
 -1      3953 1.99387E+01 1.77019E-01 1.75059E-04 9.02931E-02 6.12031E-14-8.35378E-14
 -1      3954 1.99150E+01 2.03981E-01 6.66704E-04 8.38923E-02 5.42462E-14 5.20890E-14
 -1      3955 1.99700E+01 1.17292E-01-5.20365E-04 5.30603E-02 2.50157E-14-1.23214E-13
 -1      3956 1.99629E+01 1.35406E-01 1.43846E-04 6.44912E-02-1.20692E-14-7.68835E-14
 -1      3957 1.99463E+01 1.56895E-01 5.05710E-04 6.00860E-02-4.08799E-14 1.58694E-14
 -1      3958 1.99849E+01 8.69273E-02-3.91402E-04 3.63093E-02-1.22114E-13-1.03126E-13
 -1      3959 1.99801E+01 1.01450E-01 1.19161E-04 4.49205E-02-1.02596E-14-1.31198E-13
 -1      3960 1.99688E+01 1.18269E-01 3.73764E-04 4.20710E-02-5.13597E-14-3.07035E-14
 -1      3961 1.99949E+01 6.29501E-02-2.88620E-04 2.39334E-02 7.11207E-16-4.15195E-14
 -1      3962 1.99919E+01 7.43515E-02 9.87211E-05 3.03075E-02-1.04480E-13-1.04821E-13
 -1      3963 1.99845E+01 8.72792E-02 2.68596E-04 2.86229E-02-8.31265E-14 4.24401E-14
 -1      3964 2.00013E+01 4.43995E-02-2.08146E-04 1.49631E-02-5.78950E-14 4.77139E-14
 -1      3965 1.99995E+01 5.31713E-02 8.13375E-05 1.95882E-02 3.89287E-14 7.57747E-14
 -1      3966 1.99950E+01 6.29231E-02 1.86897E-04 1.87415E-02-1.08383E-13 1.19423E-13
 -1      3967 2.00051E+01 3.03357E-02-1.46261E-04 8.60587E-03-6.82793E-14 5.94048E-14
 -1      3968 2.00042E+01 3.69484E-02 6.63952E-05 1.18850E-02-6.49974E-14 5.96087E-14
 -1      3969 2.00016E+01 4.41586E-02 1.24988E-04 1.16147E-02-4.31422E-14 1.07303E-13
 -1      3970 2.00070E+01 1.98959E-02-9.95536E-05 4.22260E-03-7.95559E-14 1.89501E-13
 -1      3971 2.00067E+01 2.47754E-02 5.35603E-05 6.48284E-03-8.77439E-14 2.83665E-14
 -1      3972 2.00056E+01 2.99895E-02 7.92519E-05 6.58786E-03-8.11845E-14 1.41934E-13
 -1      3973 2.00077E+01 1.23213E-02-6.49979E-05 1.30491E-03-2.36727E-13 4.65280E-13
 -1      3974 2.00078E+01 1.58382E-02 4.26201E-05 2.80777E-03-1.31930E-13 2.32455E-13
 -1      3975 2.00076E+01 1.95135E-02 4.63795E-05 3.13890E-03-1.87762E-13 1.07762E-13
 -1      3976 2.00076E+01 6.96665E-03-3.99934E-05-5.45641E-04-7.83557E-14 4.48623E-13
 -1      3977 2.00080E+01 9.43368E-03 3.34040E-05 4.05438E-04-1.38971E-13 4.90641E-13
 -1      3978 2.00083E+01 1.19449E-02 2.34858E-05 8.56037E-04-2.05201E-13 2.26300E-13
 -1      3979 2.00071E+01 3.29750E-03-2.23607E-05-1.63654E-03 1.58122E-13 2.26333E-13
 -1      3980 2.00075E+01 4.97185E-03 2.57501E-05-1.07825E-03 6.58108E-14 4.19701E-13
 -1      3981 2.00081E+01 6.62003E-03 8.14953E-06-5.81310E-04 8.32145E-14 3.61541E-13
 -1      3982 2.00062E+01 8.80926E-04-1.03245E-05-2.20113E-03 2.14865E-13 2.52758E-13
 -1      3983 2.00067E+01 1.96976E-03 1.94957E-05-1.91485E-03 2.21509E-13 2.75214E-13
 -1      3984 2.00075E+01 2.99217E-03-1.60178E-06-1.41922E-03 2.01884E-13 2.97164E-13
 -1      3985 2.00053E+01-6.26642E-04-2.38322E-06-2.41312E-03 2.33629E-13 3.19706E-13
 -1      3986 2.00058E+01 4.01790E-05 1.44732E-05-2.30884E-03 1.99130E-13 3.57098E-13
 -1      3987 2.00066E+01 6.20307E-04-7.31438E-06-1.84349E-03 2.03307E-13 4.27311E-13
 -1      3988 2.00043E+01-1.49330E-03 2.55796E-06-2.39968E-03 1.30607E-14 2.85057E-13
 -1      3989 2.00048E+01-1.12131E-03 1.04908E-05-2.41153E-03 1.90535E-13 3.19349E-13
 -1      3990 2.00056E+01-8.43735E-04-1.00340E-05-1.99154E-03 1.33605E-13 5.13688E-13
 -1      3991 2.00034E+01-1.92706E-03 5.06206E-06-2.25244E-03-1.33137E-13 3.61723E-13
 -1      3992 2.00039E+01-1.75123E-03 7.24714E-06-2.33348E-03-7.10602E-14 3.43258E-13
 -1      3993 2.00046E+01-1.67091E-03-1.09009E-05-1.96593E-03-7.99736E-14 5.21562E-13
 -1      3994 2.00026E+01-2.08136E-03 5.81406E-06-2.03050E-03-1.18784E-13 2.32160E-13
 -1      3995 2.00030E+01-2.03309E-03 4.15337E-06-2.14903E-03-7.92506E-14 3.10389E-13
 -1      3996 2.00036E+01-2.07219E-03-1.01142E-05-1.83607E-03-7.32150E-14 4.65293E-13
 -1      3997 1.42528E+01 9.96886E-01 1.91993E-02-8.32650E-01 2.94435E-14 2.29629E-13
 -1      3998 2.00022E+01-2.11928E-03 4.23670E-06-1.78195E-03-7.07917E-14 1.92252E-13
 -1      3999 2.00024E+01-2.11094E-03-4.92114E-07-1.91835E-03-2.15759E-13 2.65410E-13
 -1      4000 2.00030E+01-2.20736E-03-6.67853E-06-1.64451E-03-1.58871E-13 2.77480E-13
 -1      4001 2.00025E+01-2.23833E-03-5.16365E-07-1.43971E-03-1.46511E-13 3.04672E-13
 -1      4002 2.00024E+01-2.34335E-03 2.01571E-06-5.41151E-04 1.00092E-13-1.12720E-13
 -1      4003 2.00023E+01-2.28880E-03 1.93837E-06-9.10405E-04 1.06675E-13 6.42644E-14
 -1      4004 2.00025E+01-2.30311E-03-2.26746E-06-1.01536E-03 9.57406E-14 1.52663E-13
 -1      4005 2.00028E+01-2.38065E-03-2.72388E-06-3.51394E-04-9.05996E-15 1.00307E-13
 -1      4006 1.93362E+01 5.91895E-01-3.25981E-03 6.96213E-01-2.05828E-14-1.73995E-13
 -1      4007 1.92992E+01 5.89368E-01 2.75632E-03 7.81915E-01-4.90262E-14-1.37175E-13
 -1      4008 1.90783E+01 6.64226E-01 1.51322E-03 7.78295E-01-9.60630E-14-3.07146E-14
 -1      4009 1.56643E+01 3.29872E-03-4.29846E-02 2.69065E+00-1.71492E-13 2.05919E-13
 -1      4010 1.44977E+01 7.12916E-01 9.44959E-02 2.00866E+00-1.25142E-13 2.74421E-13
 -1      4011 1.64079E+01 1.17962E+00-9.07929E-03-8.20421E-01 7.75157E-14 9.28915E-14
 -1      4012 1.68380E+01 1.20117E+00-1.65477E-02-7.02543E-01-3.52671E-14 1.42099E-13
 -1      4013 1.58774E+01 1.30992E+00 3.72152E-02-3.56019E-01 8.36419E-14 5.23158E-14
 -1      4014 1.69214E+01 1.29130E+00 2.23760E-02-3.30564E-01-5.77106E-14 3.49555E-14
 -1      4015 2.00030E+01-2.31789E-03-2.28158E-06 1.10716E-03 2.27509E-13-5.38964E-13
 -1      4016 2.00025E+01-2.23742E-03-6.13936E-07 1.41345E-03 3.23975E-13-5.61369E-13
 -1      4017 1.85447E+01 1.68429E-01 1.84822E-03 1.73421E+00-1.20868E-13 1.42422E-13
 -1      4018 1.89669E+01-1.11808E-01-5.05589E-03 1.81921E+00-9.06504E-14-4.98957E-14
 -1      4019 1.90739E+01-3.58989E-01 1.59971E-02 2.02099E+00-1.11771E-13 4.02491E-14
 -1      4020 1.42908E+01 1.28071E+00 6.26263E-02-1.51188E-02-1.36210E-14 2.53344E-13
 -1      4021 2.00032E+01-2.39073E-03-7.04489E-07-2.36847E-04-3.50712E-14-1.41798E-14
 -1      4022 2.00031E+01-2.36570E-03-1.56876E-06-5.78067E-04-1.86344E-15-3.22366E-14
 -1      4023 1.42192E+01 8.60264E-01-2.34103E-02 1.26600E+00-7.81016E-14 2.60660E-13
 -1      4024 1.68623E+01-9.74319E-02-9.32265E-03 2.49333E+00-1.31979E-13 1.92662E-13
 -1      4025 1.92506E+01 6.59148E-01 1.84797E-03 6.01193E-01-2.69383E-14-7.56496E-14
 -1      4026 2.00031E+01-2.35951E-03 8.84003E-07 6.53140E-04 9.01523E-14-3.69708E-13
 -1      4027 2.00032E+01-2.38311E-03 2.24472E-06 2.28929E-04-2.76379E-14 3.81693E-14
 -1      4028 2.00036E+01-2.35947E-03 2.43882E-06-4.08364E-06-1.51633E-13-1.69004E-14
 -1      4029 2.00035E+01-2.31242E-03 5.13467E-07 8.99294E-04 8.39228E-14-3.83847E-13
 -1      4030 1.80343E+01 1.13061E+00-8.71354E-03-7.89243E-02 4.99111E-14 2.87505E-13
 -1      4031 1.82914E+01 1.08767E+00-3.60635E-03-8.62531E-02 9.91564E-14 2.64828E-13
 -1      4032 1.85008E+01 1.03384E+00-6.21204E-03-1.12856E-01 6.79068E-14 2.33633E-13
 -1      4033 1.86971E+01 9.79759E-01-2.76762E-03-1.13131E-01 5.47400E-15 9.60793E-14
 -1      4034 1.84041E+01 1.06403E+00 1.05376E-02 9.52718E-02 1.36635E-14 1.53763E-13
 -1      4035 1.88612E+01 9.19461E-01-4.48745E-03-1.27333E-01-1.82568E-14 1.27371E-14
 -1      4036 1.90125E+01 8.60079E-01-2.22771E-03-1.21845E-01-3.89758E-14-5.72815E-14
 -1      4037 1.87767E+01 9.58302E-01 8.32801E-03 3.03015E-02-4.22207E-14-1.76992E-14
 -1      4038 1.91419E+01 7.97945E-01-3.26751E-03-1.27686E-01-2.66470E-14-8.93374E-14
 -1      4039 1.92587E+01 7.37842E-01-1.84705E-03-1.18330E-01-8.58062E-14-8.72256E-14
 -1      4040 1.90696E+01 8.41235E-01 6.66199E-03-7.69655E-03-5.15840E-14-9.75265E-14
 -1      4041 1.93605E+01 6.77472E-01-2.38404E-03-1.18847E-01-1.34198E-13-4.43835E-14
 -1      4042 1.94504E+01 6.19956E-01-1.54754E-03-1.07427E-01-1.78171E-13-4.83018E-14
 -1      4043 1.93001E+01 7.21655E-01 5.34504E-03-2.75890E-02-1.39223E-13-2.06161E-13
 -1      4044 1.95301E+01 5.63833E-01-1.73513E-03-1.04844E-01-2.52710E-13-7.43701E-14
 -1      4045 1.95988E+01 5.11053E-01-1.29192E-03-9.28094E-02-1.85049E-13-4.87716E-14
 -1      4046 1.94807E+01 6.06236E-01 4.27172E-03-3.57709E-02-2.17735E-13-1.02752E-13
 -1      4047 1.96606E+01 4.60665E-01-1.25583E-03-8.86881E-02-4.35046E-14-7.54484E-14
 -1      4048 1.97125E+01 4.13812E-01-1.06550E-03-7.70648E-02-1.84690E-14-6.76344E-14
 -1      4049 1.96210E+01 4.99512E-01 3.38408E-03-3.68081E-02-1.89060E-13-9.82555E-14
 -1      4050 1.97599E+01 3.69851E-01-9.01856E-04-7.24382E-02-5.65235E-14-6.21121E-14
 -1      4051 1.97987E+01 3.29387E-01-8.64107E-04-6.18649E-02-1.45257E-13-7.70854E-14
 -1      4052 1.97289E+01 4.04148E-01 2.64832E-03-3.38642E-02-5.10224E-14-1.39644E-13
 -1      4053 1.98345E+01 2.91956E-01-6.41358E-04-5.73656E-02-1.66476E-13 6.75951E-15
 -1      4054 1.98631E+01 2.57824E-01-6.87406E-04-4.81699E-02-3.25877E-14 4.29085E-14
 -1      4055 1.98108E+01 3.21324E-01 2.04217E-03-2.90391E-02-1.56055E-14-8.58066E-14
 -1      4056 1.98896E+01 2.26628E-01-4.50694E-04-4.41431E-02-2.54758E-14 3.32681E-17
 -1      4057 1.99104E+01 1.98431E-01-5.35644E-04-3.64281E-02-9.74975E-14 2.39051E-14
 -1      4058 1.98719E+01 2.51124E-01 1.54845E-03-2.36514E-02-2.90247E-14-7.50978E-14
 -1      4059 1.99297E+01 1.72931E-01-3.12083E-04-3.30247E-02-1.13047E-13 1.04864E-13
 -1      4060 1.99445E+01 1.50077E-01-4.08367E-04-2.67451E-02 7.08221E-14-4.01981E-14
 -1      4061 1.99168E+01 1.92894E-01 1.15208E-03-1.84676E-02-5.80118E-14 3.81344E-14
 -1      4062 1.99583E+01 1.29607E-01-2.12106E-04-2.39932E-02 1.94083E-13-5.79004E-14
 -1      4063 1.99685E+01 1.11413E-01-3.04155E-04-1.90172E-02 1.92751E-13 2.14485E-14
 -1      4064 1.99491E+01 1.45533E-01 8.38981E-04-1.38818E-02 8.51189E-14 1.73607E-13
 -1      4065 1.99781E+01 9.52618E-02-1.40665E-04-1.68738E-02 1.52028E-13-1.07490E-13
 -1      4066 1.99849E+01 8.10288E-02-2.20811E-04-1.30274E-02 1.43940E-13-1.05265E-14
 -1      4067 1.99718E+01 1.07715E-01 5.95947E-04-1.00499E-02 1.16290E-13 3.30261E-14
 -1      4068 1.99913E+01 6.85019E-02-9.01897E-05-1.14145E-02 1.15022E-13-1.38850E-13
 -1      4069 1.99958E+01 5.75596E-02-1.55676E-04-8.51224E-03-5.20100E-14-1.45134E-13
 -1      4070 1.99872E+01 7.80483E-02 4.10767E-04-6.98487E-03 1.80378E-14-2.59924E-13
 -1      4071 1.99999E+01 4.80118E-02-5.50278E-05-7.33930E-03-1.57473E-13-9.38750E-14
 -1      4072 2.00025E+01 3.97496E-02-1.05932E-04-5.20269E-03-2.62078E-13-2.03907E-13
 -1      4073 1.99973E+01 5.51847E-02 2.72455E-04-4.62223E-03-9.62061E-14-3.02389E-13
 -1      4074 2.00050E+01 3.26046E-02-3.09756E-05-4.38057E-03-2.77860E-13-1.01355E-13
 -1      4075 2.00064E+01 2.64850E-02-6.88349E-05-2.84888E-03-1.84959E-13-1.18723E-13
 -1      4076 2.00035E+01 3.78806E-02 1.71395E-04-2.86190E-03-2.16943E-13-1.04323E-13
 -1      4077 2.00077E+01 2.12436E-02-1.49181E-05-2.29712E-03-1.19926E-13-9.75128E-14
 -1      4078 2.00083E+01 1.68065E-02-4.18693E-05-1.23195E-03-4.22643E-14-1.51130E-13
 -1      4079 2.00070E+01 2.50341E-02 9.93824E-05-1.59423E-03-1.65620E-13 9.67944E-14
 -1      4080 2.00088E+01 1.30473E-02-4.55478E-06-8.82021E-04-9.58328E-14-6.69804E-14
 -1      4081 2.00089E+01 9.90828E-03-2.28279E-05-1.68341E-04-1.78000E-13-1.78147E-14
 -1      4082 2.00087E+01 1.56973E-02 4.95868E-05-7.14604E-04-4.20691E-14-7.66408E-15
 -1      4083 2.00089E+01 7.28275E-03 1.80468E-06 3.57001E-05-6.37191E-14-3.88020E-14
 -1      4084 2.00087E+01 5.12699E-03-9.84237E-06 4.90806E-04 2.47581E-14 3.70857E-14
 -1      4085 2.00091E+01 9.07426E-03 1.64496E-05-1.30706E-04-1.23100E-13 9.18148E-14
 -1      4086 2.00084E+01 3.35242E-03 5.39342E-06 5.93069E-04-2.75204E-14 1.55091E-14
 -1      4087 2.00079E+01 1.92689E-03-1.37334E-06 8.62719E-04-2.43715E-14-2.62992E-14
 -1      4088 2.00087E+01 4.51153E-03-4.44657E-06 2.34780E-04-4.20480E-14-1.58777E-13
 -1      4089 2.00075E+01 7.77797E-04 7.09044E-06 8.96939E-04-7.62427E-14-6.86439E-14
 -1      4090 2.00069E+01-1.17427E-04 3.80675E-06 1.03721E-03-1.73289E-13-1.67422E-14
 -1      4091 2.00079E+01 1.48233E-03-1.64653E-05 4.44234E-04-1.13713E-13-2.36197E-13
 -1      4092 2.00064E+01-8.18405E-04 7.45472E-06 1.02813E-03-1.66071E-13-2.61393E-14
 -1      4093 2.00058E+01-1.33821E-03 6.55460E-06 1.08061E-03-9.42645E-14 4.81286E-14
 -1      4094 2.00068E+01-4.29857E-04-2.15788E-05 5.46877E-04-1.39686E-13-2.99768E-13
 -1      4095 2.00053E+01-1.73027E-03 6.55608E-06 1.04554E-03-5.03747E-14 5.94410E-14
 -1      4096 2.00047E+01-1.99070E-03 5.49473E-06 1.03434E-03-1.27689E-14-1.33866E-15
 -1      4097 2.00057E+01-1.54207E-03-1.67418E-05 5.82854E-04-1.45251E-13-7.17908E-14
 -1      4098 2.00043E+01-2.13325E-03 7.74750E-06 9.92044E-04-1.40735E-13-8.19392E-14
 -1      4099 2.00039E+01-2.25489E-03 5.07938E-06 9.51091E-04-5.16527E-14-3.60410E-13
 -1      4100 2.00040E+01-2.30839E-03-8.14946E-06 4.87260E-04-1.38595E-13-1.49027E-14
 -1      4101 2.00047E+01-2.07405E-03-1.40972E-05 5.59832E-04-1.77192E-13 7.34361E-14
 -1      4102 1.65886E+01 1.21551E+00-1.81395E-02 5.60092E-02 4.87797E-14 1.09966E-14
 -1      4103 1.70560E+01 1.21923E+00-8.61683E-03 4.31557E-02-5.68443E-14 8.17027E-14
 -1      4104 1.87137E+01 7.31758E-01-7.78639E-03 8.36733E-01-1.21408E-13 7.01380E-14
 -1      4105 1.86384E+01 7.06323E-01 5.03772E-03 9.62591E-01-2.46558E-13 8.06665E-14
 -1      4106 2.00029E+01-2.34040E-03 1.39285E-06-8.61893E-04 7.37077E-14 2.70675E-13
 -1      4107 2.00028E+01-2.28414E-03 8.46314E-07-1.18038E-03-4.43125E-14 3.85798E-13
 -1      4108 2.00030E+01-2.27078E-03 1.80365E-06-1.28466E-03-9.98338E-14 4.70166E-13
 -1      4109 2.00034E+01-2.33594E-03 6.15446E-07-7.53849E-04-1.02013E-13 1.29865E-13
 -1      4110 1.84443E+01 6.47845E-01-9.93146E-03 1.11353E+00-2.30732E-13 1.97926E-13
 -1      4111 1.83713E+01 5.64125E-01 1.60372E-03 1.28995E+00-1.58471E-13 1.97064E-13
 -1      4112 1.83129E+01 8.17680E-01 1.01603E-02 9.37215E-01-1.18359E-13 4.61762E-14
 -1      4113 1.95047E+01 5.59876E-01-2.89966E-03 2.73039E-01-8.31530E-14 5.29948E-14
 -1      4114 1.94467E+01 6.02904E-01 6.38422E-04 3.16648E-01-6.48673E-14 6.87844E-15
 -1      4115 1.93526E+01 6.39938E-01-3.64953E-03 3.61458E-01-2.86060E-14-6.33795E-14
 -1      4116 1.92850E+01 6.78097E-01 1.14931E-03 4.17403E-01-6.27007E-14-8.17679E-14
 -1      4117 1.93438E+01 6.71526E-01 5.34448E-03 2.74514E-01-9.96756E-14-1.31210E-13
 -1      4118 1.97283E+01 3.94532E-01-1.82679E-03 1.53357E-01-1.75368E-13 7.85694E-14
 -1      4119 1.96895E+01 4.35688E-01 1.79487E-04 1.80129E-01-1.41259E-13 3.86515E-14
 -1      4120 1.98061E+01 3.19968E-01-1.43714E-03 1.13481E-01-6.62324E-14 2.05109E-13
 -1      4121 1.97757E+01 3.57121E-01 9.48215E-05 1.34423E-01-1.96768E-13 1.71648E-13
 -1      4122 1.97321E+01 4.00061E-01 2.83274E-03 1.09924E-01-1.77816E-13 7.84737E-14
 -1      4123 1.98659E+01 2.54250E-01-1.11971E-03 8.29847E-02 1.01381E-13 9.89171E-14
 -1      4124 1.98426E+01 2.86617E-01 5.49551E-05 9.92832E-02 6.84032E-14 1.76256E-13
 -1      4125 1.98105E+01 3.22189E-01 2.22062E-03 8.01506E-02 8.39456E-15 8.54023E-14
 -1      4126 1.99107E+01 1.98119E-01-8.62197E-04 5.97928E-02 4.09019E-14 1.10417E-13
 -1      4127 1.98934E+01 2.25511E-01 3.90886E-05 7.23836E-02 1.04716E-13 1.33175E-13
 -1      4128 1.98701E+01 2.54497E-01 1.70821E-03 5.78688E-02 7.24999E-14 1.53677E-13
 -1      4129 1.99437E+01 1.51413E-01-6.54957E-04 4.22948E-02-3.75202E-14 4.40523E-14
 -1      4130 1.99311E+01 1.74031E-01 3.48570E-05 5.19293E-02 2.32748E-15 5.81837E-14
 -1      4131 1.99145E+01 1.97264E-01 1.28736E-03 4.12370E-02 6.42989E-14 1.65448E-13
 -1      4132 1.99673E+01 1.13432E-01-4.89928E-04 2.92263E-02-2.64193E-14 7.19057E-15
 -1      4133 1.99585E+01 1.31702E-01 3.52571E-05 3.65144E-02-6.11818E-14-5.50017E-15
 -1      4134 1.99468E+01 1.50020E-01 9.48541E-04 2.88855E-02-1.77354E-14 5.47384E-14
 -1      4135 1.99837E+01 8.31823E-02-3.60125E-04 1.95874E-02-1.01763E-13 6.91332E-14
 -1      4136 1.99777E+01 9.76453E-02 3.66120E-05 2.50268E-02-3.50317E-15 8.05307E-14
 -1      4137 1.99698E+01 1.11847E-01 6.81274E-04 1.97823E-02-4.11909E-14-5.75062E-14
 -1      4138 1.99946E+01 5.95627E-02-2.59416E-04 1.25853E-02 5.76657E-15 1.19837E-15
 -1      4139 1.99908E+01 7.07909E-02 3.72340E-05 1.65815E-02-8.61559E-14 8.02560E-14
 -1      4140 1.99857E+01 8.16126E-02 4.74808E-04 1.31422E-02-8.95417E-14-5.14813E-14
 -1      4141 2.00016E+01 4.14753E-02-1.82436E-04 7.59183E-03-4.88198E-14-4.66736E-14
 -1      4142 1.99993E+01 5.00246E-02 3.65630E-05 1.04738E-02-6.19559E-15 4.83975E-15
 -1      4143 1.99961E+01 5.81204E-02 3.18731E-04 8.36346E-03 1.10189E-14-2.50819E-13
 -1      4144 2.00057E+01 2.78975E-02-1.24546E-04 4.11141E-03-1.32854E-13 3.52899E-14
 -1      4145 2.00044E+01 3.42774E-02 3.46250E-05 6.14414E-03-8.12810E-14 3.07411E-14
 -1      4146 2.00027E+01 4.02135E-02 2.03441E-04 4.98294E-03-6.13629E-14-1.40002E-13
 -1      4147 2.00078E+01 1.79189E-02-8.17888E-05 1.75552E-03-1.73629E-13-5.74404E-14
 -1      4148 2.00073E+01 2.25777E-02 3.17062E-05 3.15016E-03-9.16161E-14-1.53674E-14
 -1      4149 2.00065E+01 2.68324E-02 1.20435E-04 2.64382E-03-1.93345E-14-2.81978E-13
 -1      4150 2.00085E+01 1.07566E-02-5.08478E-05 2.22180E-04-1.09916E-13-8.31527E-14
 -1      4151 2.00085E+01 1.40763E-02 2.81674E-05 1.14524E-03-2.04298E-13-2.66371E-14
 -1      4152 2.00083E+01 1.70450E-02 6.24308E-05 1.07163E-03-1.96931E-13-1.40906E-13
 -1      4153 2.00084E+01 5.75539E-03-2.89834E-05-7.20799E-04 1.12434E-13-3.40497E-15
 -1      4154 2.00087E+01 8.05326E-03 2.43483E-05-1.39739E-04-6.02630E-14-5.84163E-14
 -1      4155 2.00089E+01 1.00568E-02 2.33729E-05 5.62209E-05-1.39134E-13-3.96041E-13
 -1      4156 2.00077E+01 2.37935E-03-1.39599E-05-1.24977E-03 1.40939E-13 1.86781E-13
 -1      4157 2.00082E+01 3.91333E-03 2.05274E-05-9.11271E-04 2.09236E-13 2.04296E-13
 -1      4158 2.00086E+01 5.20699E-03-1.64216E-06-5.62153E-04-5.06654E-14-8.72197E-14
 -1      4159 2.00068E+01 1.98897E-04-3.96511E-06-1.49661E-03 1.09604E-13 4.43973E-13
 -1      4160 2.00073E+01 1.17457E-03 1.69156E-05-1.32573E-03 5.80037E-14 2.95659E-13
 -1      4161 2.00078E+01 1.95825E-03-1.64667E-05-9.03857E-04-4.49578E-14 7.86975E-14
 -1      4162 2.00058E+01-1.12493E-03 1.79410E-06-1.55779E-03-3.46286E-15 5.83575E-13
 -1      4163 2.00063E+01-5.46519E-04 1.36058E-05-1.49933E-03 1.71146E-13 5.27670E-13
 -1      4164 2.00068E+01-1.18361E-04-2.39054E-05-1.05876E-03 1.30547E-14 2.75486E-13
 -1      4165 2.00047E+01-1.84839E-03 5.45791E-06-1.49903E-03-7.91695E-14 4.32539E-13
 -1      4166 2.00052E+01-1.54532E-03 1.15351E-05-1.51278E-03-4.24933E-14 4.97054E-13
 -1      4167 2.00058E+01-1.35894E-03-2.37034E-05-1.09158E-03 2.60796E-14 2.71242E-13
 -1      4168 1.51159E+01 1.03439E+00 1.29371E-02 7.70111E-01-2.01297E-14 2.21738E-13
 -1      4169 1.96290E+01 4.75847E-01-2.30574E-03 2.05331E-01-9.46845E-14-1.48436E-14
 -1      4170 1.95808E+01 5.19357E-01 3.42795E-04 2.39482E-01-3.74955E-14 5.35948E-14
 -1      4171 1.95031E+01 5.78943E-01 4.38532E-03 2.02936E-01-8.51381E-14-1.07938E-14
 -1      4172 1.96311E+01 4.86676E-01 3.55174E-03 1.49696E-01-1.33459E-13 3.71774E-14
 -1      4173 1.84669E+01-3.66548E-01 1.69563E-02 2.35639E+00-8.79735E-14 1.93895E-13
 -1      4174 1.91702E+01 7.05901E-01-4.62309E-03 4.77548E-01-7.58145E-14-3.85829E-14
 -1      4175 1.90949E+01 7.32828E-01 1.99854E-03 5.49918E-01-8.30529E-14-6.36670E-14
 -1      4176 1.91490E+01 7.56178E-01 6.44335E-03 3.71365E-01-6.35509E-14-8.19898E-14
 -1      4177 1.55103E+01 1.13232E+00-2.51572E-02 3.70196E-01-5.58407E-15 1.58018E-13
 -1      4178 1.61753E+01 1.17942E+00-1.10131E-02 3.26763E-01 1.95946E-14 7.94139E-14
 -1      4179 1.65399E+01 1.14957E+00 1.77128E-02 7.38992E-01-2.09891E-14-2.01028E-14
 -1      4180 1.57356E+01 9.02245E-01 9.69798E-03 1.45923E+00-9.00369E-14 1.71985E-13
 -1      4181 1.76749E+01-1.16461E-01-1.93991E-02 2.30071E+00-1.21147E-13 2.77780E-13
 -1      4182 1.63590E+01 6.32793E-01 2.54830E-02 1.86007E+00-1.12767E-13 2.30619E-13
 -1      4183 1.67219E+01 7.70804E-01 1.45406E-02 1.40488E+00-9.44813E-14 1.78111E-13
 -1      4184 1.77095E+01 2.36748E-01-2.37553E-02 1.88618E+00-5.45991E-14 3.10524E-13
 -1      4185 1.74224E+01 1.19758E+00-1.18107E-02-2.12343E-02-9.35059E-14 1.66410E-13
 -1      4186 1.77624E+01 1.17312E+00-4.90954E-03-3.48760E-02 7.02606E-15 2.19672E-13
 -1      4187 1.79253E+01 1.14787E+00 1.35690E-02 1.99756E-01 6.77635E-14 2.14516E-13
 -1      4188 1.89568E+01 7.43228E-01-5.93363E-03 6.31240E-01-3.57760E-14-3.24315E-14
 -1      4189 1.88780E+01 7.50100E-01 3.35348E-03 7.25925E-01-2.06390E-14 5.53893E-14
 -1      4190 1.86362E+01 8.49250E-01 8.95039E-03 6.85464E-01-6.71740E-14-1.02526E-13
 -1      4191 1.72889E+01 1.19897E+00 1.59864E-02 3.60516E-01 2.08843E-14 7.96781E-14
 -1      4192 1.89144E+01 8.20975E-01 7.67986E-03 5.03500E-01-4.00050E-14-1.28060E-13
 -1      4193 2.00037E+01-2.18613E-03 3.64377E-06-1.38191E-03-1.02013E-13 4.26422E-13
 -1      4194 2.00042E+01-2.06006E-03 5.01596E-06-1.44349E-03-3.16827E-14 4.55190E-13
 -1      4195 2.00032E+01-2.24150E-03 2.57972E-06-1.38163E-03-7.81131E-14 4.98431E-13
 -1      4196 2.00040E+01-2.30411E-03 2.11743E-06 1.29851E-05-1.67697E-13 8.26723E-14
 -1      4197 2.00047E+01-1.99760E-03-1.21739E-05-1.03147E-03-6.61192E-14 2.64307E-13
 -1      4198 2.00039E+01-2.28726E-03 2.49802E-06-7.24864E-04-1.17246E-13 1.85141E-13
 -1      4199 2.00037E+01-2.26982E-03-5.90488E-06-1.01064E-03-1.05758E-13 4.87653E-13
 -1      4200 1.81513E+01 4.91938E-01-1.17456E-02 1.43830E+00-1.44100E-13 2.84908E-13
 -1      4201 1.80131E+01 3.43286E-01-3.85875E-03 1.68852E+00-7.67074E-14 3.61015E-13
 -1      4202 1.74874E+01 6.33975E-01 2.18159E-02 1.52889E+00-1.17176E-13 3.81505E-13
 -1      4203 1.79253E+01 7.23413E-01 1.02080E-03 1.21270E+00-9.32282E-14 3.95355E-13
 -1      4204 2.00046E+01-2.16046E-03 7.06815E-06 1.55313E-04-1.08629E-13 6.07090E-14
 -1      4205 2.00042E+01-2.25922E-03-7.10790E-06-3.56023E-04-1.65212E-13-7.97878E-14
 -1      4206 2.00045E+01-2.14548E-03 1.68805E-06-6.28547E-04-1.08384E-13 4.78064E-14
 -1      4207 2.00051E+01-1.99124E-03 6.93242E-06 1.81240E-04-5.25678E-14-7.03965E-14
 -1      4208 2.00051E+01-1.94533E-03-6.02267E-06-6.51840E-04-1.28200E-13 2.88763E-14
 -1      4209 1.87791E+01 8.87663E-01-7.73651E-03 2.54020E-01-6.05303E-14-7.33036E-14
 -1      4210 1.89485E+01 8.43867E-01-2.60123E-03 2.18949E-01-4.13518E-14-1.03804E-13
 -1      4211 1.90594E+01 7.95506E-01-6.08431E-03 1.70392E-01-4.44953E-14-1.11189E-13
 -1      4212 1.91930E+01 7.45235E-01-2.30444E-03 1.48563E-01-8.59518E-14-1.38219E-13
 -1      4213 1.92843E+01 6.92831E-01-4.81672E-03 1.13413E-01-1.50539E-13-1.18574E-13
 -1      4214 1.93893E+01 6.40944E-01-1.98596E-03 1.00517E-01-1.72318E-13-1.72148E-13
 -1      4215 1.94633E+01 5.88716E-01-3.81803E-03 7.48831E-02-1.50995E-13-9.97246E-14
 -1      4216 1.95455E+01 5.38613E-01-1.66804E-03 6.78592E-02-1.92469E-13-1.42409E-14
 -1      4217 1.96045E+01 4.89402E-01-3.01442E-03 4.90422E-02-2.32489E-13 4.33809E-14
 -1      4218 1.96681E+01 4.43255E-01-1.36561E-03 4.57371E-02-1.81120E-13 8.73279E-15
 -1      4219 1.97144E+01 3.98775E-01-2.36078E-03 3.18510E-02-1.09447E-13-3.38292E-14
 -1      4220 1.97631E+01 3.57783E-01-1.08955E-03 3.07836E-02-5.54033E-15-2.45196E-14
 -1      4221 1.97987E+01 3.18880E-01-1.82829E-03 2.04988E-02 5.86780E-14-3.92470E-14
 -1      4222 1.98354E+01 2.83522E-01-8.46724E-04 2.06819E-02 5.71073E-14 3.09751E-14
 -1      4223 1.98623E+01 2.50414E-01-1.39675E-03 1.30512E-02 3.03373E-14 2.13055E-14
 -1      4224 1.98895E+01 2.20664E-01-6.40224E-04 1.38519E-02 6.28738E-14 4.18955E-14
 -1      4225 1.99094E+01 1.93145E-01-1.05036E-03 8.19345E-03 4.82851E-14 4.97150E-14
 -1      4226 1.99292E+01 1.68656E-01-4.70003E-04 9.22535E-03 4.14046E-14 1.66013E-13
 -1      4227 1.99436E+01 1.46260E-01-7.75770E-04 5.04190E-03-5.44226E-15 1.06861E-13
 -1      4228 1.99577E+01 1.26498E-01-3.33733E-04 6.08446E-03 6.99805E-14-2.14936E-15
 -1      4229 1.99678E+01 1.08625E-01-5.61203E-04 3.00894E-03 1.12572E-14 1.46206E-14
 -1      4230 1.99776E+01 9.29734E-02-2.27683E-04 3.94876E-03-4.42009E-14-1.85652E-13
 -1      4231 1.99845E+01 7.89737E-02-3.96168E-04 1.70699E-03-4.31410E-14-1.40131E-13
 -1      4232 1.99911E+01 6.68013E-02-1.47451E-04 2.49682E-03-7.18759E-14-2.34261E-13
 -1      4233 1.99955E+01 5.60368E-02-2.71398E-04 8.81899E-04-3.46791E-14-1.56763E-13
 -1      4234 1.99997E+01 4.67413E-02-8.85241E-05 1.51293E-03-9.38272E-14-1.44576E-13
 -1      4235 2.00024E+01 3.86196E-02-1.78836E-04 3.67550E-04-1.51092E-13-1.33930E-13
 -1      4236 2.00049E+01 3.16547E-02-4.66404E-05 8.51401E-04-1.18113E-13-1.22661E-13
 -1      4237 2.00064E+01 2.56490E-02-1.11612E-04 5.54258E-05-9.88144E-14-4.79125E-14
 -1      4238 2.00078E+01 2.05361E-02-1.80072E-05 4.12946E-04-6.87319E-14 3.08097E-14
 -1      4239 2.00084E+01 1.61928E-02-6.39822E-05-1.25506E-04-1.81483E-13 4.19285E-14
 -1      4240 2.00089E+01 1.25247E-02 6.05232E-07 1.29135E-04-1.95841E-13-1.26208E-13
 -1      4241 2.00090E+01 9.46317E-03-3.12385E-05-2.21923E-04-1.38594E-13-5.04081E-14
 -1      4242 2.00090E+01 6.90169E-03 1.18457E-05-4.77054E-05-1.42269E-13-1.23483E-13
 -1      4243 2.00088E+01 4.80958E-03-9.60686E-06-2.64649E-04-6.91718E-14-3.20274E-14
 -1      4244 2.00085E+01 3.07937E-03 1.77973E-05-1.51093E-04-7.25989E-14-9.62806E-14
 -1      4245 2.00080E+01 1.70545E-03 3.81641E-06-2.74199E-04-1.19257E-13-6.75861E-14
 -1      4246 2.00076E+01 5.86492E-04 1.99109E-05-2.04700E-04-5.76254E-14-1.47789E-13
 -1      4247 2.00070E+01-2.68444E-04 1.07957E-05-2.64718E-04-7.13493E-14-6.37041E-14
 -1      4248 2.00065E+01-9.49135E-04 1.81897E-05-2.25629E-04-4.27694E-14 7.98296E-14
 -1      4249 1.74738E+01 9.60533E-01-1.08334E-02 8.17506E-01 2.30057E-14 4.84831E-14
 -1      4250 1.78177E+01 9.80226E-01-1.48557E-03 6.89220E-01 2.82199E-14 7.74643E-14
 -1      4251 1.79965E+01 9.88442E-01-1.24592E-02 5.54784E-01-2.72276E-15-3.82864E-14
 -1      4252 1.82739E+01 9.77996E-01-2.73852E-03 4.71022E-01-2.95910E-14-7.86376E-14
 -1      4253 1.84306E+01 9.57027E-01-9.91245E-03 3.76128E-01 1.40255E-14-5.13887E-14
 -1      4254 2.00059E+01-1.44678E-03 8.99963E-06-2.49020E-04-2.19299E-14 1.19205E-13
 -1      4255 1.86462E+01 9.26160E-01-2.82292E-03 3.21631E-01-1.65292E-14-4.83414E-14
 -1      4256 2.00053E+01-1.81770E-03 1.04866E-05-2.28983E-04-6.01647E-14 8.41173E-14
 -1      4257 1.67143E+01 9.27973E-01-3.62953E-03 1.13900E+00-1.26992E-13 1.14562E-13
 -1      4258 1.70660E+01 1.01457E+00 1.10564E-03 8.43811E-01-2.89893E-14 1.19605E-14
 -1      4259 1.72267E+01 6.53702E-01-7.48660E-03 1.46852E+00-1.25164E-13 2.86383E-13
 -1      4260 1.75157E+01 7.39563E-01 1.10839E-03 1.30137E+00-1.30109E-13 3.64195E-13
 -1      4261 1.77473E+01 8.06211E-01 1.19600E-02 1.15651E+00-7.69004E-14 2.93645E-13
 -3
    1PSTEP                         3           1           1          
  100CL  101 1.000000000        4261                     0    1           1
 -4  TOSTRAIN    6    1
 -5  EXX         1    4    1    1
 -5  EYY         1    4    2    2
 -5  EZZ         1    4    3    3
 -5  EXY         1    4    1    2
 -5  EYZ         1    4    2    3
 -5  EZX         1    4    3    1
 -1         1 3.16583E-04-9.80250E-05-8.01846E-05-3.60538E-07-2.93973E-19-1.20907E-18
 -1         2 3.49537E-05-1.07357E-04 1.91435E-05-3.73113E-07 1.87802E-18 6.29663E-19
 -1         3 9.52373E-05-2.85710E-05-2.85715E-05 1.18419E-10-4.25993E-18-4.64715E-18
 -1         4 9.52373E-05-2.85710E-05-2.85715E-05-1.10507E-10 1.81899E-18-5.85380E-19
 -1         5 1.61975E-04-2.38811E-05-4.87028E-05 4.17306E-05-1.96035E-19 1.71960E-17
 -1         6 1.68102E-04 3.24803E-10-5.29405E-05-5.70890E-05-9.55030E-19 1.58844E-17
 -1         7 1.10922E-04-1.28689E-06-4.67502E-05-2.55406E-05-1.39337E-19 3.43263E-18
 -1         8 9.87847E-05-1.31953E-07-4.17780E-05-1.19606E-05-1.69830E-19-4.97443E-19
 -1         9 8.91140E-05 2.40005E-08-3.79004E-05-5.08708E-06-1.59454E-19-2.72120E-18
 -1        10 8.02971E-05 1.03596E-07-3.43302E-05-1.01775E-06-8.98914E-20-3.89841E-18
 -1        11 7.23941E-05 1.98153E-07-3.11878E-05 7.06542E-07-7.36919E-20-4.54010E-18
 -1        12 6.62742E-05 2.79442E-07-2.87889E-05 3.09714E-07-3.23461E-20-4.92813E-18
 -1        13 6.26683E-05 3.25073E-07-2.73685E-05-1.62853E-06-1.95744E-20-5.02514E-18
 -1        14 6.22497E-05 3.06299E-07-2.71525E-05-4.00185E-06-3.82488E-21-5.00937E-18
 -1        15 6.48046E-05 2.28478E-07-2.80625E-05-5.55466E-06 1.67289E-20-4.84380E-18
 -1        16 6.94236E-05 1.23698E-07-2.97888E-05-5.39843E-06 4.71162E-20-4.54100E-18
 -1        17 7.49479E-05 2.78453E-08-3.19278E-05-3.29138E-06 7.09390E-20-4.15066E-18
 -1        18 8.03575E-05-2.35122E-08-3.41050E-05 3.75504E-07 9.19560E-20-3.63407E-18
 -1        19 8.54378E-05-3.09543E-08-3.62347E-05 5.23443E-06 1.44843E-19-2.89084E-18
 -1        20 9.02715E-05 5.81062E-09-3.83350E-05 1.08926E-05 1.80047E-19-1.48060E-18
 -1        21 9.57584E-05 6.58888E-08-4.07199E-05 1.76463E-05 2.13982E-19 1.03018E-18
 -1        22 1.05194E-04-3.71147E-07-4.41983E-05 2.78005E-05 4.59515E-20 6.06698E-18
 -1        23 1.43597E-04-4.84799E-05-4.46157E-05-2.98643E-06-5.87153E-19 1.26069E-17
 -1        24 1.28186E-04-3.83224E-05-3.94945E-05 7.91373E-07-1.80203E-19 9.94526E-18
 -1        25 1.28019E-04-3.85107E-05-3.83774E-05 5.37172E-07-8.19147E-20 7.31355E-18
 -1        26 1.27390E-04-3.82836E-05-3.78878E-05 1.40580E-07-3.45828E-20 5.44764E-18
 -1        27 1.23563E-04-3.71242E-05-3.66380E-05-2.97734E-07 1.23172E-19 4.58495E-18
 -1        28 1.14990E-04-3.45499E-05-3.41448E-05-8.20699E-07-7.54372E-20 4.17960E-18
 -1        29 1.02542E-04-3.07943E-05-3.07573E-05-1.15826E-06-3.13589E-20 2.96244E-18
 -1        30 9.04184E-05-2.71076E-05-2.76205E-05-9.34973E-07 3.54033E-22 1.76630E-18
 -1        31 8.45239E-05-2.53047E-05-2.61397E-05-1.05469E-07-7.48764E-21-2.48396E-19
 -1        32 8.82070E-05-2.64264E-05-2.70685E-05 8.13794E-07-2.48571E-19-3.07836E-18
 -1        33 9.93539E-05-2.98144E-05-2.99304E-05 1.22090E-06 1.93998E-19-4.47154E-18
 -1        34 1.12197E-04-3.36835E-05-3.33810E-05 1.01214E-06-1.93858E-19-4.46561E-18
 -1        35 1.21684E-04-3.65137E-05-3.60943E-05 5.29331E-07 3.78875E-19-4.42265E-18
 -1        36 1.25903E-04-3.77550E-05-3.74397E-05 1.06250E-07-7.78278E-20-3.26615E-18
 -1        37 1.25566E-04-3.76426E-05-3.74840E-05-1.31986E-07-2.91075E-19-2.42585E-18
 -1        38 1.22407E-04-3.66982E-05-3.66563E-05-2.14587E-07-5.97936E-20-3.66126E-18
 -1        39 1.18026E-04-3.53948E-05-3.54127E-05-2.10167E-07-1.08704E-19-3.51940E-18
 -1        40 1.13493E-04-3.40461E-05-3.40838E-05-1.71463E-07 1.68486E-19-3.88948E-18
 -1        41 1.09375E-04-3.28189E-05-3.28561E-05-1.27022E-07 6.15154E-20-5.36470E-18
 -1        42 1.05897E-04-3.17801E-05-3.18094E-05-8.85177E-08-1.83700E-19-5.58249E-18
 -1        43 1.03090E-04-3.09399E-05-3.09606E-05-5.88956E-08-2.56070E-19-3.79502E-18
 -1        44 1.00896E-04-3.02815E-05-3.02950E-05-3.75126E-08 4.62884E-19-1.36924E-18
 -1        45 9.92202E-05-2.97776E-05-2.97859E-05-2.26743E-08-1.82875E-19 1.87123E-19
 -1        46 9.79656E-05-2.93997E-05-2.94044E-05-1.26715E-08 7.76996E-20-8.05537E-19
 -1        47 9.70435E-05-2.91214E-05-2.91238E-05-6.10605E-09-3.38769E-19-2.15465E-18
 -1        48 9.63784E-05-2.89203E-05-2.89212E-05-1.92878E-09 4.16105E-19-4.00170E-18
 -1        49 9.59086E-05-2.87780E-05-2.87781E-05 6.15420E-10 2.22896E-19-3.04817E-18
 -1        50 9.55852E-05-2.86797E-05-2.86794E-05 2.05920E-09 1.81270E-19-3.46979E-18
 -1        51 9.53695E-05-2.86141E-05-2.86134E-05 2.77455E-09-1.16575E-19-2.22295E-18
 -1        52 9.52319E-05-2.85720E-05-2.85713E-05 3.01972E-09-2.00460E-19-1.17763E-18
 -1        53 9.51498E-05-2.85467E-05-2.85460E-05 2.97301E-09-1.58763E-20-3.16580E-18
 -1        54 9.51061E-05-2.85331E-05-2.85324E-05 2.75640E-09 1.97689E-19-2.82364E-18
 -1        55 9.50883E-05-2.85274E-05-2.85268E-05 2.45221E-09-3.48982E-19-2.85012E-18
 -1        56 9.50871E-05-2.85268E-05-2.85262E-05 2.11469E-09-2.01093E-19-3.89770E-18
 -1        57 9.50961E-05-2.85293E-05-2.85288E-05 1.77836E-09 3.19784E-20-2.58480E-18
 -1        58 9.51106E-05-2.85335E-05-2.85331E-05 1.46394E-09 3.33712E-19-2.35025E-18
 -1        59 9.51275E-05-2.85384E-05-2.85381E-05 1.18265E-09-2.09456E-19-2.25106E-18
 -1        60 9.51449E-05-2.85436E-05-2.85433E-05 9.39321E-10-5.75982E-20-2.25570E-18
 -1        61 9.51614E-05-2.85485E-05-2.85483E-05 7.34639E-10 5.71886E-19-2.36319E-18
 -1        62 9.51765E-05-2.85530E-05-2.85528E-05 5.66746E-10-2.86006E-19-1.06630E-18
 -1        63 9.51898E-05-2.85569E-05-2.85568E-05 4.32337E-10-4.18599E-19-1.49401E-18
 -1        64 9.52012E-05-2.85603E-05-2.85603E-05 3.27388E-10-4.69070E-19-2.36091E-18
 -1        65 9.52108E-05-2.85632E-05-2.85632E-05 2.47537E-10-4.47858E-19-2.99049E-18
 -1        66 9.52188E-05-2.85656E-05-2.85656E-05 1.88111E-10 3.75783E-19-2.66345E-18
 -1        67 9.52253E-05-2.85675E-05-2.85675E-05 1.43692E-10 6.74974E-19 4.26043E-19
 -1        68 9.52304E-05-2.85691E-05-2.85691E-05 1.06726E-10 7.85809E-20 4.04099E-18
 -1        69 9.52342E-05-2.85702E-05-2.85702E-05 6.41794E-11-5.74287E-19 2.87557E-18
 -1        70 9.52366E-05-2.85710E-05-2.85709E-05-1.67623E-11 4.26635E-19 1.45510E-18
 -1        71 9.52374E-05-2.85712E-05-2.85712E-05-1.27435E-10-8.03053E-19 1.41382E-18
 -1        72 1.20780E-04-3.61791E-05-4.00627E-05-2.65405E-06 2.07258E-19 1.58698E-17
 -1        73 1.12666E-04-3.35331E-05-3.48807E-05-5.50088E-07 9.61018E-20 1.23580E-17
 -1        74 1.08892E-04-3.26502E-05-3.27505E-05-2.14640E-07 1.85396E-19 9.59547E-18
 -1        75 1.05413E-04-3.16758E-05-3.14725E-05-6.25307E-08-3.61751E-20 7.94366E-18
 -1        76 1.00867E-04-3.03217E-05-3.01044E-05 1.07451E-07 4.24158E-20 7.08215E-18
 -1        77 9.51260E-05-2.85936E-05-2.84685E-05 2.75174E-07 1.45051E-20 6.02078E-18
 -1        78 8.90858E-05-2.67600E-05-2.67939E-05 3.77772E-07-1.57762E-19 5.72070E-18
 -1        79 8.43347E-05-2.52986E-05-2.55064E-05 3.48131E-07 4.91122E-20 5.01794E-18
 -1        80 8.24620E-05-2.47027E-05-2.50144E-05 1.75254E-07 1.23591E-19 3.62882E-18
 -1        81 8.42064E-05-2.52118E-05-2.55009E-05-7.14018E-08 7.40906E-20 1.59173E-18
 -1        82 8.90142E-05-2.66654E-05-2.68217E-05-2.81298E-07 1.53024E-20 9.49736E-20
 -1        83 9.53266E-05-2.85832E-05-2.85768E-05-3.75902E-07-1.43279E-19 1.44578E-19
 -1        84 1.01382E-04-3.04210E-05-3.02967E-05-3.51444E-07 3.25500E-20 4.50873E-19
 -1        85 1.05932E-04-3.17965E-05-3.16277E-05-2.55678E-07 7.65365E-20 4.86912E-20
 -1        86 1.08503E-04-3.25683E-05-3.24142E-05-1.43797E-07 1.48548E-19-1.70671E-18
 -1        87 1.09243E-04-3.27857E-05-3.26749E-05-5.09242E-08-3.16583E-19-1.65808E-18
 -1        88 1.08620E-04-3.25934E-05-3.25295E-05 1.09347E-08 4.91908E-20-1.46456E-18
 -1        89 1.07165E-04-3.21527E-05-3.21260E-05 4.42229E-08-7.20651E-20-1.34834E-18
 -1        90 1.05324E-04-3.15983E-05-3.15960E-05 5.68742E-08-2.43960E-20 1.47020E-19
 -1        91 1.03417E-04-3.10252E-05-3.10362E-05 5.69428E-08-6.19576E-20-3.75950E-19
 -1        92 1.01638E-04-3.04911E-05-3.05078E-05 5.05467E-08-1.04214E-19-8.81384E-19
 -1        93 1.00084E-04-3.00253E-05-3.00430E-05 4.16498E-08-3.16504E-19-2.06186E-19
 -1        94 9.87930E-05-2.96382E-05-2.96544E-05 3.25220E-08 3.12728E-19-1.18751E-18
 -1        95 9.77590E-05-2.93282E-05-2.93420E-05 2.42971E-08-2.63501E-19-3.32343E-18
 -1        96 9.69573E-05-2.90878E-05-2.90989E-05 1.74214E-08 1.31680E-19-9.94714E-19
 -1        97 9.63539E-05-2.89068E-05-2.89154E-05 1.19622E-08 8.06495E-20 5.95747E-19
 -1        98 9.59128E-05-2.87745E-05-2.87809E-05 7.79895E-09 1.26020E-19-1.38014E-18
 -1        99 9.56004E-05-2.86807E-05-2.86853E-05 4.73500E-09-1.47467E-19-2.86505E-18
 -1       100 9.53869E-05-2.86166E-05-2.86198E-05 2.55791E-09-3.97391E-19-1.72378E-18
 -1       101 9.52477E-05-2.85748E-05-2.85769E-05 1.06969E-09-4.33640E-20 1.16983E-18
 -1       102 9.51627E-05-2.85492E-05-2.85505E-05 9.96120E-11 3.20941E-20 1.06511E-18
 -1       103 9.51160E-05-2.85351E-05-2.85359E-05-4.92342E-10-2.96607E-19 1.43570E-18
 -1       104 9.50955E-05-2.85289E-05-2.85293E-05-8.16875E-10 2.55188E-19 3.77154E-18
 -1       105 9.50923E-05-2.85279E-05-2.85280E-05-9.58909E-10 1.85460E-19 5.31540E-18
 -1       106 9.50997E-05-2.85301E-05-2.85300E-05-9.81846E-10-7.42537E-19 3.94256E-18
 -1       107 9.51131E-05-2.85340E-05-2.85339E-05-9.31784E-10 7.99246E-19-9.90123E-19
 -1       108 9.51293E-05-2.85389E-05-2.85387E-05-8.41310E-10 8.83114E-20-5.11368E-18
 -1       109 9.51461E-05-2.85439E-05-2.85437E-05-7.32738E-10 4.05584E-20-1.40986E-18
 -1       110 9.51623E-05-2.85487E-05-2.85485E-05-6.20772E-10 1.11037E-19-3.05897E-18
 -1       111 9.51771E-05-2.85532E-05-2.85530E-05-5.14623E-10-2.11370E-19-2.64197E-18
 -1       112 9.51902E-05-2.85571E-05-2.85569E-05-4.19652E-10-9.54305E-19 2.10887E-19
 -1       113 9.52015E-05-2.85605E-05-2.85603E-05-3.38611E-10-8.18406E-20 9.19191E-19
 -1       114 9.52111E-05-2.85633E-05-2.85632E-05-2.72534E-10 8.49355E-20-6.66451E-19
 -1       115 9.52190E-05-2.85657E-05-2.85656E-05-2.21111E-10-5.77849E-19-3.66092E-18
 -1       116 9.52254E-05-2.85676E-05-2.85675E-05-1.82676E-10-3.00901E-19-1.61191E-18
 -1       117 9.52305E-05-2.85691E-05-2.85691E-05-1.54092E-10 6.59851E-19-5.17896E-18
 -1       118 9.52343E-05-2.85703E-05-2.85702E-05-1.25917E-10-4.97028E-19-7.32270E-18
 -1       119 9.52366E-05-2.85710E-05-2.85709E-05-6.47931E-11 4.43232E-19-8.19626E-18
 -1       120 9.52374E-05-2.85713E-05-2.85712E-05 8.65658E-11 2.07334E-18-1.00561E-17
 -1       121 9.52371E-05-2.85709E-05-2.85712E-05 1.37367E-10-1.11372E-17-1.57371E-19
 -1       122 9.52373E-05-2.85718E-05-2.85709E-05-2.29101E-11-3.50899E-18 1.53696E-18
 -1       123 9.52380E-05-2.85740E-05-2.85702E-05-1.16320E-10 1.30759E-18-2.72842E-19
 -1       124 9.52390E-05-2.85772E-05-2.85693E-05-1.52402E-10-2.05444E-18 1.11158E-18
 -1       125 9.52400E-05-2.85806E-05-2.85683E-05-1.49520E-10-1.40256E-18-3.90776E-19
 -1       126 9.52409E-05-2.85836E-05-2.85675E-05-1.23797E-10-2.93942E-18 4.74670E-19
 -1       127 9.52415E-05-2.85859E-05-2.85668E-05-8.03420E-11-7.26269E-18 1.09019E-18
 -1       128 9.52419E-05-2.85871E-05-2.85664E-05-2.74662E-11-3.71391E-18 1.29858E-18
 -1       129 9.52419E-05-2.85871E-05-2.85664E-05 2.84205E-11 8.94684E-19 1.16914E-18
 -1       130 9.52415E-05-2.85858E-05-2.85668E-05 8.10785E-11 4.04861E-18 4.88648E-19
 -1       131 9.52408E-05-2.85835E-05-2.85675E-05 1.25466E-10-5.52504E-18-2.40654E-18
 -1       132 9.52399E-05-2.85805E-05-2.85684E-05 1.50075E-10-1.13621E-17 2.50569E-18
 -1       133 9.52389E-05-2.85771E-05-2.85693E-05 1.51815E-10-1.21629E-17-5.13726E-19
 -1       134 9.52380E-05-2.85740E-05-2.85702E-05 1.26892E-10-1.02440E-17 4.48186E-19
 -1       135 9.52373E-05-2.85718E-05-2.85709E-05 3.18080E-11-6.90746E-18 4.60342E-19
 -1       136 9.52371E-05-2.85710E-05-2.85712E-05-2.38639E-10-1.93571E-18 3.83064E-19
 -1       137 2.36429E-05-8.04473E-05 1.38486E-05-2.15646E-05 1.25861E-17 3.32122E-18
 -1       138 7.22802E-06-2.76146E-05 1.25681E-06-1.41041E-05 1.72519E-17 7.64341E-18
 -1       139 1.19856E-05 1.73185E-05-1.58973E-05 2.61677E-05 1.74527E-17 1.33285E-17
 -1       140 6.26136E-05 2.79064E-05-3.70626E-05 8.26860E-05 1.45012E-17 1.64528E-17
 -1       141 1.45553E-04-2.14209E-06-5.51858E-05 1.13683E-04 8.24777E-18 1.34835E-17
 -1       142 2.37746E-04-5.22522E-05-6.95024E-05 9.87467E-05 2.69812E-18 8.36530E-18
 -1       143 2.99145E-04-8.97589E-05-7.76544E-05 3.31819E-05 1.47622E-19-1.46748E-19
 -1       144 2.91573E-04-8.57100E-05-7.65564E-05-4.65391E-05 1.62949E-18-9.56088E-18
 -1       145 2.23183E-04-4.45176E-05-6.74313E-05-1.02179E-04 6.29176E-18-1.69237E-17
 -1       146 1.18122E-04 8.70018E-06-4.98294E-05-1.06004E-04 1.34327E-17-2.09628E-17
 -1       147 3.96195E-05 2.95048E-05-3.01144E-05-6.38823E-05 1.89401E-17-1.87122E-17
 -1       148 5.76901E-06 4.50658E-06-9.56112E-06-8.93739E-06 1.88291E-17-1.20554E-17
 -1       149 1.17324E-05-4.45422E-05 5.59913E-06 1.86852E-05 1.38452E-17-5.28030E-18
 -1       150 2.74912E-05-8.68917E-05 1.50193E-05 1.40036E-05 4.73004E-18-9.40020E-19
 -1       151 3.08657E-05-9.53972E-05 1.66859E-05-9.49310E-06-5.63928E-18-8.76573E-19
 -1       152 1.69833E-05-6.44651E-05 1.04364E-05-2.39124E-05-1.49084E-17-4.76149E-18
 -1       153 5.94689E-06-1.39788E-05-3.71762E-06-5.45994E-06-1.96567E-17-1.10551E-17
 -1       154 2.23138E-05 2.21628E-05-2.20063E-05 4.04020E-05-1.98155E-17-1.75065E-17
 -1       155 9.01037E-05 1.77052E-05-4.36364E-05 9.40961E-05-1.56820E-17-2.14227E-17
 -1       156 1.85330E-04-2.35716E-05-6.15386E-05 1.11355E-04-9.25807E-18-1.98739E-17
 -1       157 2.78195E-04-7.48905E-05-7.52173E-05 7.62784E-05-2.96890E-18-1.23091E-17
 -1       158 2.77215E-04-7.33485E-05-7.53102E-05-8.06810E-05-2.56315E-18 9.01095E-18
 -1       159 1.76775E-04-1.74239E-05-6.05237E-05-1.14728E-04-8.36657E-18 1.62914E-17
 -1       160 7.56164E-05 2.35966E-05-4.03213E-05-8.91936E-05-1.36703E-17 1.76382E-17
 -1       161 1.69271E-05 2.03879E-05-1.92060E-05-3.34956E-05-1.70232E-17 1.39134E-17
 -1       162 5.96876E-06-2.69229E-05 1.03114E-06 1.59062E-05-1.60945E-17 7.50048E-18
 -1       163 2.44996E-05-8.40726E-05 1.45465E-05 2.46472E-05-1.14455E-17 3.05580E-18
 -1       164 1.15732E-04-1.79871E-05-4.20813E-05-1.62080E-05-2.00403E-18 1.45041E-18
 -1       165 1.01617E-04-1.17489E-05-3.86818E-05-9.25647E-06-1.75370E-18-1.08077E-18
 -1       166 8.96352E-05-7.45925E-06-3.53390E-05-4.20666E-06-1.29176E-18-2.62707E-18
 -1       167 7.86339E-05-3.72439E-06-3.21928E-05-1.05494E-06-8.50600E-19-3.50915E-18
 -1       168 6.91663E-05-3.38536E-07-2.95641E-05-6.12149E-08-4.97513E-19-3.98236E-18
 -1       169 6.23553E-05 2.14657E-06-2.76981E-05-1.04240E-06-3.22772E-19-4.30820E-18
 -1       170 5.98019E-05 2.87268E-06-2.69099E-05-3.17205E-06-1.30257E-19-4.34923E-18
 -1       171 6.18742E-05 1.60621E-06-2.72558E-05-5.07719E-06 8.39754E-21-4.26213E-18
 -1       172 6.75337E-05-1.05981E-06-2.85427E-05-5.51969E-06 1.99059E-19-3.97102E-18
 -1       173 7.49196E-05-4.09661E-06-3.04151E-05-3.95846E-06 4.58953E-19-3.63759E-18
 -1       174 8.22080E-05-6.63027E-06-3.24669E-05-6.65090E-07 9.29228E-19-3.19871E-18
 -1       175 8.87699E-05-8.47177E-06-3.45124E-05 3.90337E-06 1.34751E-18-2.52538E-18
 -1       176 9.45763E-05-9.90375E-06-3.64261E-05 9.17188E-06 1.83817E-18-1.55420E-18
 -1       177 1.00789E-04-1.19337E-05-3.82732E-05 1.48743E-05 2.17425E-18 1.77348E-19
 -1       178 1.10407E-04-1.73291E-05-4.01235E-05 2.06880E-05 2.18280E-18 3.20533E-18
 -1       179 1.23111E-04-3.13610E-05-4.06238E-05 1.79974E-05 1.58058E-18 7.18580E-18
 -1       180 1.30479E-04-3.58525E-05-4.05604E-05-7.69495E-06-1.69679E-18 4.39390E-18
 -1       181 1.26254E-04-3.76711E-05-3.80058E-05-1.47405E-06-1.41294E-18 3.73286E-18
 -1       182 1.24206E-04-3.77751E-05-3.70101E-05-1.07344E-06-1.06663E-18 3.24041E-18
 -1       183 1.22678E-04-3.79428E-05-3.62940E-05-3.57123E-06-5.67393E-19 2.65112E-18
 -1       184 1.19684E-04-3.72528E-05-3.53142E-05-7.65427E-06-3.67930E-19 2.40217E-18
 -1       185 1.14449E-04-3.50405E-05-3.40245E-05-1.11333E-05-6.50558E-19 2.29844E-18
 -1       186 1.07818E-04-3.14890E-05-3.27243E-05-1.09445E-05-9.95227E-19 1.45066E-18
 -1       187 1.02584E-04-2.83510E-05-3.18524E-05-5.38810E-06-1.33743E-18 5.50595E-19
 -1       188 1.01805E-04-2.79029E-05-3.17158E-05 3.26871E-06-1.78187E-18-4.78825E-19
 -1       189 1.05886E-04-3.04705E-05-3.23433E-05 9.94608E-06-1.06383E-18-1.59047E-18
 -1       190 1.12119E-04-3.40585E-05-3.34578E-05 1.13054E-05-4.49746E-19-2.86933E-18
 -1       191 1.17246E-04-3.65442E-05-3.45865E-05 8.14808E-06 2.02090E-19-3.14292E-18
 -1       192 1.19671E-04-3.73094E-05-3.53092E-05 3.35784E-06 3.55042E-19-3.16428E-18
 -1       193 1.19455E-04-3.68114E-05-3.54374E-05-7.40280E-07 2.75885E-19-3.10762E-18
 -1       194 1.17419E-04-3.57154E-05-3.50340E-05-3.27823E-06-8.17827E-19-2.99595E-18
 -1       195 1.14440E-04-3.44676E-05-3.42862E-05-4.38094E-06 1.84245E-19-2.97220E-18
 -1       196 1.11182E-04-3.32875E-05-3.33887E-05-4.51408E-06 2.34478E-19-2.65432E-18
 -1       197 1.08059E-04-3.22595E-05-3.24854E-05-4.12102E-06-3.64206E-19-2.18772E-18
 -1       198 1.05285E-04-3.14025E-05-3.16603E-05-3.50985E-06-6.17284E-19-1.89705E-18
 -1       199 1.02940E-04-3.07078E-05-3.09512E-05-2.85942E-06 6.26611E-19-1.99963E-18
 -1       200 1.01024E-04-3.01562E-05-3.03665E-05-2.25853E-06 1.25485E-18-1.29217E-18
 -1       201 9.95012E-05-2.97256E-05-2.98986E-05-1.74248E-06 7.90799E-19-1.33825E-18
 -1       202 9.83153E-05-2.93949E-05-2.95328E-05-1.31825E-06-4.28338E-19-5.01503E-19
 -1       203 9.74090E-05-2.91449E-05-2.92523E-05-9.79497E-07-8.07847E-19-2.79968E-19
 -1       204 9.67283E-05-2.89588E-05-2.90410E-05-7.14700E-07-1.16952E-18-5.71544E-19
 -1       205 9.62260E-05-2.88227E-05-2.88847E-05-5.11280E-07 2.65233E-19-1.06961E-18
 -1       206 9.58624E-05-2.87252E-05-2.87712E-05-3.57441E-07-1.92363E-19-2.08823E-18
 -1       207 9.56047E-05-2.86569E-05-2.86905E-05-2.42888E-07 1.76186E-20-1.97289E-18
 -1       208 9.54269E-05-2.86104E-05-2.86346E-05-1.58983E-07 3.09069E-19-2.01282E-18
 -1       209 9.53082E-05-2.85800E-05-2.85970E-05-9.86573E-08-5.26181E-19-1.85189E-18
 -1       210 9.52324E-05-2.85612E-05-2.85728E-05-5.62267E-08-4.24983E-19-9.02476E-19
 -1       211 9.51872E-05-2.85505E-05-2.85582E-05-2.71827E-08-5.11884E-20-2.53590E-18
 -1       212 9.51633E-05-2.85455E-05-2.85502E-05-7.99495E-09-2.50723E-19-2.43301E-18
 -1       213 9.51537E-05-2.85440E-05-2.85468E-05 4.06715E-09 7.39520E-19-7.49198E-19
 -1       214 9.51533E-05-2.85449E-05-2.85463E-05 1.10885E-08-2.72272E-19-1.95027E-18
 -1       215 9.51586E-05-2.85472E-05-2.85477E-05 1.46387E-08-1.68412E-19-2.63425E-18
 -1       216 9.51668E-05-2.85501E-05-2.85500E-05 1.58809E-08-2.27139E-19-2.73250E-18
 -1       217 9.51765E-05-2.85532E-05-2.85528E-05 1.56615E-08-2.58083E-20-1.32289E-18
 -1       218 9.51863E-05-2.85563E-05-2.85557E-05 1.45826E-08 8.26871E-19-1.41325E-18
 -1       219 9.51958E-05-2.85592E-05-2.85585E-05 1.30602E-08-7.01151E-19-1.34912E-18
 -1       220 9.52043E-05-2.85618E-05-2.85611E-05 1.13704E-08-9.76637E-19-1.16421E-18
 -1       221 9.52119E-05-2.85640E-05-2.85634E-05 9.68386E-09 7.92801E-19-2.97578E-19
 -1       222 9.52184E-05-2.85659E-05-2.85654E-05 8.09182E-09 7.10642E-19 2.07214E-18
 -1       223 9.52239E-05-2.85675E-05-2.85670E-05 6.62419E-09 1.84511E-18 3.69401E-18
 -1       224 9.52283E-05-2.85688E-05-2.85684E-05 5.26124E-09 1.45279E-18 2.09637E-18
 -1       225 9.52318E-05-2.85699E-05-2.85694E-05 3.94175E-09-2.35056E-19 1.86247E-18
 -1       226 9.52344E-05-2.85707E-05-2.85702E-05 2.58229E-09-1.07008E-18 2.26141E-18
 -1       227 9.52362E-05-2.85713E-05-2.85707E-05 1.14863E-09-4.36447E-19 1.68798E-18
 -1       228 1.17110E-04-3.41273E-05-3.57497E-05 6.77686E-06 1.65521E-18 6.33664E-18
 -1       229 1.11566E-04-3.33293E-05-3.34910E-05 3.62391E-06 1.44260E-18 5.08244E-18
 -1       230 1.07715E-04-3.25213E-05-3.21713E-05 3.51121E-06 6.83673E-19 4.15709E-18
 -1       231 1.03935E-04-3.14524E-05-3.10288E-05 4.32101E-06 6.19092E-19 3.67060E-18
 -1       232 9.97893E-05-3.00637E-05-2.98641E-05 5.01621E-06 3.83873E-19 3.19305E-18
 -1       233 9.56075E-05-2.85021E-05-2.87557E-05 4.80391E-06 3.77395E-19 2.74364E-18
 -1       234 9.22628E-05-2.71525E-05-2.79132E-05 3.24900E-06 6.53201E-19 2.00396E-18
 -1       235 9.07434E-05-2.64981E-05-2.75476E-05 5.81556E-07 8.35727E-19 1.07724E-18
 -1       236 9.15586E-05-2.68086E-05-2.77585E-05-2.32933E-06 9.81169E-19 2.31796E-19
 -1       237 9.44072E-05-2.79608E-05-2.84744E-05-4.44433E-06 4.65794E-19 9.05432E-20
 -1       238 9.83038E-05-2.94942E-05-2.94791E-05-5.15105E-06 1.37734E-19-2.88550E-19
 -1       239 1.02104E-04-3.09059E-05-3.05015E-05-4.52422E-06 2.85179E-20-8.39820E-19
 -1       240 1.04976E-04-3.18813E-05-3.13189E-05-3.10034E-06 5.83561E-19-1.37956E-18
 -1       241 1.06580E-04-3.23438E-05-3.18139E-05-1.48771E-06 3.98972E-19-1.24498E-18
 -1       242 1.06975E-04-3.23733E-05-3.19752E-05-1.07116E-07-2.35763E-19-5.93644E-19
 -1       243 1.06440E-04-3.21073E-05-3.18619E-05 8.61917E-07 1.79095E-19-8.15219E-19
 -1       244 1.05310E-04-3.16774E-05-3.15615E-05 1.41562E-06-2.56514E-19-4.34626E-19
 -1       245 1.03882E-04-3.11839E-05-3.11598E-05 1.63716E-06-4.38931E-19-9.48074E-19
 -1       246 1.02380E-04-3.06928E-05-3.07251E-05 1.63144E-06 1.62482E-19-7.08142E-19
 -1       247 1.00950E-04-3.02426E-05-3.03038E-05 1.49135E-06 4.50214E-20-3.83192E-19
 -1       248 9.96742E-05-2.98518E-05-2.99236E-05 1.28629E-06-4.27927E-19-1.04726E-18
 -1       249 9.85885E-05-2.95262E-05-2.95973E-05 1.06244E-06 7.64608E-19-1.37396E-18
 -1       250 9.76980E-05-2.92635E-05-2.93279E-05 8.47457E-07 4.64998E-19-1.21835E-18
 -1       251 9.69899E-05-2.90575E-05-2.91126E-05 6.55803E-07-1.13813E-18-1.92671E-18
 -1       252 9.64422E-05-2.89001E-05-2.89454E-05 4.93357E-07 2.70972E-20-1.50996E-18
 -1       253 9.60295E-05-2.87829E-05-2.88188E-05 3.60795E-07 4.25430E-19-6.77184E-19
 -1       254 9.57268E-05-2.86979E-05-2.87257E-05 2.55929E-07 3.70661E-19-2.93952E-19
 -1       255 9.55110E-05-2.86382E-05-2.86590E-05 1.75219E-07-1.19890E-18-4.01907E-19
 -1       256 9.53624E-05-2.85976E-05-2.86128E-05 1.14693E-07-1.42963E-18-1.95551E-19
 -1       257 9.52641E-05-2.85713E-05-2.85821E-05 7.04861E-08-1.12899E-19 1.00232E-18
 -1       258 9.52029E-05-2.85554E-05-2.85628E-05 3.91098E-08-7.02810E-19 1.95468E-18
 -1       259 9.51680E-05-2.85468E-05-2.85517E-05 1.75703E-08-5.21363E-19 2.07804E-18
 -1       260 9.51514E-05-2.85431E-05-2.85462E-05 3.39156E-09-2.08375E-19 2.38669E-18
 -1       261 9.51469E-05-2.85427E-05-2.85445E-05-5.41596E-09 6.11317E-19 2.27121E-18
 -1       262 9.51500E-05-2.85443E-05-2.85452E-05-1.04104E-08 3.05702E-18 1.93856E-19
 -1       263 9.51576E-05-2.85471E-05-2.85473E-05-1.27842E-08 3.40158E-19-4.03024E-19
 -1       264 9.51674E-05-2.85503E-05-2.85501E-05-1.34289E-08-9.78952E-19-9.75453E-19
 -1       265 9.51779E-05-2.85536E-05-2.85533E-05-1.29956E-08 8.88458E-19-1.08552E-18
 -1       266 9.51883E-05-2.85568E-05-2.85563E-05-1.19463E-08-4.92409E-19-2.56907E-19
 -1       267 9.51979E-05-2.85597E-05-2.85592E-05-1.05983E-08-1.00257E-18 1.09224E-19
 -1       268 9.52065E-05-2.85623E-05-2.85618E-05-9.15852E-09 2.82386E-19-1.94486E-18
 -1       269 9.52140E-05-2.85645E-05-2.85641E-05-7.75066E-09 7.29145E-19-1.72929E-18
 -1       270 9.52204E-05-2.85664E-05-2.85660E-05-6.43511E-09 5.72796E-19-2.22198E-18
 -1       271 9.52256E-05-2.85680E-05-2.85676E-05-5.22159E-09-1.92584E-20-3.28628E-18
 -1       272 9.52299E-05-2.85692E-05-2.85689E-05-4.08132E-09 1.72205E-18-3.52782E-18
 -1       273 9.52331E-05-2.85702E-05-2.85698E-05-2.94939E-09 5.32817E-20-2.58476E-18
 -1       274 9.52354E-05-2.85709E-05-2.85705E-05-1.74159E-09 6.79863E-19-2.19693E-18
 -1       275 9.52367E-05-2.85713E-05-2.85709E-05-5.02332E-10-1.55498E-19-3.36035E-18
 -1       276 9.52370E-05-2.85721E-05-2.85707E-05-1.21377E-09 4.72642E-19 5.64328E-18
 -1       277 9.52376E-05-2.85737E-05-2.85702E-05-2.44055E-09 1.60740E-19 1.05589E-18
 -1       278 9.52384E-05-2.85759E-05-2.85696E-05-3.22934E-09-7.21208E-19-6.65049E-19
 -1       279 9.52393E-05-2.85784E-05-2.85690E-05-3.43188E-09-5.97210E-19 5.52425E-19
 -1       280 9.52402E-05-2.85807E-05-2.85683E-05-3.10271E-09-1.31389E-18-1.49035E-18
 -1       281 9.52409E-05-2.85827E-05-2.85678E-05-2.32654E-09-1.40192E-18-3.06157E-18
 -1       282 9.52413E-05-2.85839E-05-2.85674E-05-1.23796E-09-1.20498E-18 1.59098E-18
 -1       283 9.52415E-05-2.85844E-05-2.85673E-05 1.00781E-11-4.96494E-19 2.62816E-18
 -1       284 9.52413E-05-2.85839E-05-2.85674E-05 1.25693E-09-2.30371E-18 5.19746E-19
 -1       285 9.52409E-05-2.85826E-05-2.85678E-05 2.34233E-09-2.10351E-18-3.68792E-18
 -1       286 9.52402E-05-2.85807E-05-2.85683E-05 3.10417E-09-6.28068E-19-2.54233E-18
 -1       287 9.52393E-05-2.85783E-05-2.85690E-05 3.43531E-09-1.48621E-18-5.77631E-19
 -1       288 9.52384E-05-2.85759E-05-2.85697E-05 3.21990E-09-1.84420E-18 8.46297E-19
 -1       289 9.52376E-05-2.85737E-05-2.85702E-05 2.41369E-09-2.85674E-18 1.75482E-18
 -1       290 9.52368E-05-2.85724E-05-2.85705E-05 2.00464E-09-1.70234E-18 3.81634E-18
 -1       291 1.17703E-05-4.01417E-05 9.60395E-06 1.14518E-05 1.08346E-18 5.13651E-18
 -1       292 2.79038E-05-3.97623E-05 2.59246E-06 2.46023E-05 4.17905E-18 4.33157E-18
 -1       293 5.27811E-05-3.30655E-05-1.00940E-05 3.62855E-05 6.08276E-18 5.95284E-18
 -1       294 9.45055E-05-3.23840E-05-2.68511E-05 4.52708E-05 5.67703E-18 4.63793E-18
 -1       295 1.33198E-04-2.78376E-05-4.39669E-05 4.88980E-05 6.26508E-18 3.74346E-18
 -1       296 1.72344E-04-3.09154E-05-5.81551E-05 4.18322E-05 4.87999E-18 3.10311E-18
 -1       297 1.95226E-04-3.17268E-05-6.73120E-05 1.97950E-05 4.32379E-18-1.96088E-19
 -1       298 1.98598E-04-2.97002E-05-6.97661E-05-7.56033E-07 4.88749E-18-2.38511E-18
 -1       299 1.94447E-04-3.33475E-05-6.62734E-05-2.26558E-05 5.65172E-18-5.00819E-18
 -1       300 1.62806E-04-3.10214E-05-5.47264E-05-3.75210E-05 6.50871E-18-6.46456E-18
 -1       301 1.17896E-04-2.59476E-05-3.88338E-05-4.89705E-05 7.77767E-18-8.32845E-18
 -1       302 7.70195E-05-2.89221E-05-2.13829E-05-4.33836E-05 6.49971E-18-7.48618E-18
 -1       303 3.96969E-05-3.03935E-05-5.86777E-06-3.22824E-05 5.55632E-18-6.86671E-18
 -1       304 1.75523E-05-3.32804E-05 4.37352E-06-1.98427E-05 2.58726E-18-5.87820E-18
 -1       305 8.60640E-06-3.73316E-05 9.41558E-06-4.58783E-06-5.18887E-19-5.49830E-18
 -1       306 1.26412E-05-3.50745E-05 7.04800E-06 1.11591E-05-3.57437E-18-5.81658E-18
 -1       307 3.64070E-05-3.45823E-05-2.47664E-06 2.99286E-05-4.95387E-18-6.23898E-18
 -1       308 6.29325E-05-3.10493E-05-1.52534E-05 3.68948E-05-8.42141E-18-8.20955E-18
 -1       309 1.10766E-04-3.49489E-05-3.26102E-05 4.26109E-05-7.46067E-18-8.10166E-18
 -1       310 1.52862E-04-3.33008E-05-4.97640E-05 4.28706E-05-7.36273E-18-8.13046E-18
 -1       311 1.87385E-04-3.50265E-05-6.27995E-05 2.51573E-05-6.53856E-18-5.21073E-18
 -1       312 2.09983E-04-3.58885E-05-7.11025E-05 9.07378E-06-5.79476E-18-3.17711E-18
 -1       313 2.10357E-04-3.56667E-05-7.12751E-05-1.18638E-05-4.89733E-18 1.86347E-19
 -1       314 1.86263E-04-3.45034E-05-6.24909E-05-2.87510E-05-5.43954E-18 2.67726E-18
 -1       315 1.47837E-04-3.33724E-05-4.76759E-05-4.37479E-05-5.63055E-18 5.37188E-18
 -1       316 9.99965E-05-3.10624E-05-2.97560E-05-4.58324E-05-6.59352E-18 6.25174E-18
 -1       317 5.95176E-05-3.58613E-05-1.17843E-05-3.66050E-05-5.99106E-18 6.05396E-18
 -1       318 2.70965E-05-4.18159E-05 3.29366E-06-2.05520E-05-4.46492E-18 4.51037E-18
 -1       319 1.20427E-05-4.50843E-05 1.09086E-05-6.63311E-06-5.77200E-19 5.73452E-18
 -1       320 1.00901E-04-1.84341E-05-3.54333E-05-4.30811E-06-1.56652E-18-1.05851E-18
 -1       321 1.14338E-04-2.57851E-05-3.80381E-05-7.78973E-06-1.94130E-18 6.02479E-19
 -1       322 7.54628E-05-5.94148E-06-2.98336E-05 1.64169E-06-6.45480E-19-2.90413E-18
 -1       323 6.48079E-05-4.02810E-07-2.76130E-05 1.14337E-06-3.36230E-19-3.43107E-18
 -1       324 5.87045E-05 2.70117E-06-2.63148E-05-1.82409E-06-2.39879E-19-3.71255E-18
 -1       325 5.88078E-05 2.20343E-06-2.61483E-05-5.51936E-06-1.47446E-19-3.68787E-18
 -1       326 6.45959E-05-1.53091E-06-2.70411E-05-7.69207E-06-2.61910E-20-3.39442E-18
 -1       327 7.35742E-05-6.75330E-06-2.86693E-05-7.02182E-06 2.16533E-19-2.99984E-18
 -1       328 8.28364E-05-1.15783E-05-3.05884E-05-3.77470E-06 7.08581E-19-2.52166E-18
 -1       329 9.09975E-05-1.52534E-05-3.25295E-05 1.08531E-06 1.25675E-18-1.99439E-18
 -1       330 9.76134E-05-1.78847E-05-3.42570E-05 6.32119E-06 1.75526E-18-1.17408E-18
 -1       331 1.03579E-04-2.05407E-05-3.56950E-05 1.09351E-05 2.22363E-18-4.77515E-20
 -1       332 1.10136E-04-2.49119E-05-3.66654E-05 1.34613E-05 2.38077E-18 1.86077E-18
 -1       333 1.14780E-04-2.99617E-05-3.64623E-05 1.13435E-05 2.22812E-18 3.58273E-18
 -1       334 1.12386E-04-3.28019E-05-3.40916E-05 6.97849E-06 1.86780E-18 3.04038E-18
 -1       335 1.19915E-04-3.55331E-05-3.61437E-05-2.26663E-06-1.43011E-18 1.09741E-18
 -1       336 1.21069E-04-3.87463E-05-3.52870E-05-2.73491E-06-8.48660E-19 1.23709E-18
 -1       337 1.22541E-04-4.10484E-05-3.49462E-05-6.90282E-06-4.11507E-19 1.60692E-18
 -1       338 1.22616E-04-4.07381E-05-3.51257E-05-1.28886E-05-4.89792E-19 1.63759E-18
 -1       339 1.19634E-04-3.60604E-05-3.58756E-05-1.66728E-05-1.33117E-18 1.47698E-18
 -1       340 1.14295E-04-2.83945E-05-3.69027E-05-1.32582E-05-1.92441E-18 8.45307E-19
 -1       341 1.10736E-04-2.35888E-05-3.74694E-05-1.91331E-06-2.41268E-18-7.35156E-19
 -1       342 1.12638E-04-2.65611E-05-3.69899E-05 1.05054E-05-2.45219E-18-1.90472E-18
 -1       343 1.17553E-04-3.41669E-05-3.58107E-05 1.59429E-05-1.48198E-18-2.37140E-18
 -1       344 1.20754E-04-3.99494E-05-3.46678E-05 1.30505E-05-4.28789E-19-2.45449E-18
 -1       345 1.20419E-04-4.13017E-05-3.39425E-05 6.15247E-06 3.38251E-19-2.66885E-18
 -1       346 1.17681E-04-3.95316E-05-3.35247E-05-4.69562E-07 5.94333E-19-2.04591E-18
 -1       347 1.14144E-04-3.67655E-05-3.31878E-05-4.92644E-06-5.20121E-19-1.61962E-18
 -1       348 1.10737E-04-3.42618E-05-3.27908E-05-7.14157E-06-4.69673E-21-1.08213E-18
 -1       349 1.07770E-04-3.23969E-05-3.23087E-05-7.71658E-06 3.40288E-20-9.99886E-19
 -1       350 1.05271E-04-3.11273E-05-3.17754E-05-7.31190E-06 3.36848E-19-1.34032E-18
 -1       351 1.03189E-04-3.02915E-05-3.12379E-05-6.42982E-06-2.27327E-19-1.15855E-18
 -1       352 1.01466E-04-2.97411E-05-3.07338E-05-5.38959E-06 3.18801E-19-1.39967E-18
 -1       353 1.00051E-04-2.93716E-05-3.02858E-05-4.36907E-06 9.36494E-19-1.07017E-18
 -1       354 9.89034E-05-2.91174E-05-2.99033E-05-3.45374E-06 1.04089E-18-1.91654E-18
 -1       355 9.79843E-05-2.89388E-05-2.95866E-05-2.67483E-06 3.13089E-19-1.74754E-18
 -1       356 9.72590E-05-2.88118E-05-2.93310E-05-2.03448E-06-2.19769E-19-9.59023E-19
 -1       357 9.66954E-05-2.87214E-05-2.91289E-05-1.52095E-06-8.41096E-19-4.53733E-19
 -1       358 9.62641E-05-2.86577E-05-2.89720E-05-1.11709E-06-6.98948E-19-1.98646E-19
 -1       359 9.59397E-05-2.86137E-05-2.88524E-05-8.04733E-07-5.59786E-19-1.23712E-18
 -1       360 9.57001E-05-2.85842E-05-2.87627E-05-5.66894E-07 8.74874E-20-1.14098E-18
 -1       361 9.55265E-05-2.85654E-05-2.86967E-05-3.88601E-07 1.60744E-19-8.40080E-19
 -1       362 9.54037E-05-2.85542E-05-2.86491E-05-2.57141E-07-3.05663E-19-4.05776E-19
 -1       363 9.53193E-05-2.85485E-05-2.86156E-05-1.61988E-07-2.00400E-19-1.52574E-18
 -1       364 9.52632E-05-2.85464E-05-2.85926E-05-9.45782E-08-4.88384E-19-6.54316E-19
 -1       365 9.52279E-05-2.85467E-05-2.85775E-05-4.80566E-08-1.27915E-19-6.14515E-20
 -1       366 9.52073E-05-2.85484E-05-2.85680E-05-1.70084E-08 3.50076E-19-1.04643E-18
 -1       367 9.51968E-05-2.85508E-05-2.85625E-05 2.78467E-09-8.24202E-19-1.78191E-18
 -1       368 9.51931E-05-2.85536E-05-2.85597E-05 1.45642E-08-7.30402E-19-1.58639E-18
 -1       369 9.51938E-05-2.85564E-05-2.85589E-05 2.07844E-08 3.55837E-19-3.04874E-19
 -1       370 9.51971E-05-2.85591E-05-2.85591E-05 2.32735E-08 5.91237E-19 1.57019E-19
 -1       371 9.52018E-05-2.85615E-05-2.85601E-05 2.33680E-08 1.31411E-18 5.89058E-19
 -1       372 9.52070E-05-2.85636E-05-2.85615E-05 2.20233E-08 1.39673E-18 2.42352E-18
 -1       373 9.52122E-05-2.85654E-05-2.85629E-05 1.99025E-08-3.70251E-20 3.73744E-18
 -1       374 9.52171E-05-2.85669E-05-2.85644E-05 1.74466E-08-1.47286E-19 4.65134E-18
 -1       375 9.52216E-05-2.85682E-05-2.85658E-05 1.49294E-08 1.77410E-18 2.69890E-18
 -1       376 9.52255E-05-2.85692E-05-2.85670E-05 1.24977E-08 1.98065E-18 3.11394E-18
 -1       377 9.52288E-05-2.85701E-05-2.85680E-05 1.02023E-08-1.11325E-19 1.89497E-18
 -1       378 9.52316E-05-2.85709E-05-2.85689E-05 8.02446E-09-4.14860E-19 2.46833E-18
 -1       379 9.52339E-05-2.85716E-05-2.85696E-05 5.90208E-09-8.94858E-20 3.22937E-18
 -1       380 9.52355E-05-2.85721E-05-2.85701E-05 3.92515E-09 1.83492E-20 3.81604E-18
 -1       381 1.09685E-04-3.32922E-05-3.27128E-05 6.15858E-06 1.26141E-18 2.66340E-18
 -1       382 1.06852E-04-3.27639E-05-3.17393E-05 6.96380E-06 9.03972E-19 2.08506E-18
 -1       383 1.03677E-04-3.14483E-05-3.09478E-05 7.86713E-06 6.22390E-19 1.60462E-18
 -1       384 1.00245E-04-2.95138E-05-3.03032E-05 7.59589E-06 6.42857E-19 1.40447E-18
 -1       385 9.72041E-05-2.75258E-05-2.98491E-05 5.35678E-06 1.08497E-18 8.93540E-19
 -1       386 9.55373E-05-2.63722E-05-2.96274E-05 1.35015E-06 1.22388E-18 4.18820E-19
 -1       387 9.58547E-05-2.66243E-05-2.96519E-05-3.14912E-06 1.22385E-18 1.75400E-19
 -1       388 9.79666E-05-2.81690E-05-2.98960E-05-6.51502E-06 5.24497E-19-1.87489E-19
 -1       389 1.00920E-04-3.02169E-05-3.02924E-05-7.72848E-06 6.04565E-19-3.88525E-19
 -1       390 1.03644E-04-3.19313E-05-3.07358E-05-6.85672E-06 3.56663E-19-1.30376E-18
 -1       391 1.05464E-04-3.28799E-05-3.11176E-05-4.71298E-06 5.97337E-19-1.45727E-18
 -1       392 1.06210E-04-3.30744E-05-3.13578E-05-2.23854E-06 2.91037E-19-9.93489E-19
 -1       393 1.06043E-04-3.27532E-05-3.14234E-05-9.13089E-08-2.90036E-19-9.45128E-19
 -1       394 1.05242E-04-3.21751E-05-3.13253E-05 1.43876E-06 1.51457E-19-6.95495E-19
 -1       395 1.04081E-04-3.15266E-05-3.11018E-05 2.33180E-06-6.56666E-20-1.37936E-18
 -1       396 1.02772E-04-3.09123E-05-3.08005E-05 2.70517E-06 1.83482E-19-1.79800E-18
 -1       397 1.01463E-04-3.03776E-05-3.04657E-05 2.71492E-06-3.47655E-20-2.11211E-18
 -1       398 1.00244E-04-2.99346E-05-3.01314E-05 2.50328E-06-7.73331E-20-2.03120E-18
 -1       399 9.91649E-05-2.95790E-05-2.98205E-05 2.17941E-06-1.81670E-19-1.18301E-18
 -1       400 9.82459E-05-2.93001E-05-2.95458E-05 1.81799E-06 8.61734E-19-1.70532E-18
 -1       401 9.74871E-05-2.90855E-05-2.93125E-05 1.46523E-06 1.22014E-19-4.90560E-19
 -1       402 9.68773E-05-2.89235E-05-2.91208E-05 1.14643E-06-5.99843E-19-2.03183E-19
 -1       403 9.63991E-05-2.88034E-05-2.89676E-05 8.72867E-07-5.07777E-19-5.14326E-19
 -1       404 9.60327E-05-2.87162E-05-2.88483E-05 6.47009E-07 2.35160E-19 1.60646E-19
 -1       405 9.57586E-05-2.86544E-05-2.87576E-05 4.66281E-07 1.69518E-19 1.67428E-18
 -1       406 9.55585E-05-2.86118E-05-2.86904E-05 3.25551E-07-7.75326E-19 1.24653E-18
 -1       407 9.54164E-05-2.85835E-05-2.86419E-05 2.18710E-07-1.53280E-18 7.73618E-19
 -1       408 9.53187E-05-2.85657E-05-2.86078E-05 1.39611E-07-1.11466E-18 1.79126E-18
 -1       409 9.52543E-05-2.85553E-05-2.85848E-05 8.25850E-08-4.48369E-19 1.96367E-18
 -1       410 9.52142E-05-2.85501E-05-2.85700E-05 4.26859E-08 1.23859E-19 1.25360E-18
 -1       411 9.51915E-05-2.85483E-05-2.85612E-05 1.57616E-08-5.08281E-19 5.38716E-19
 -1       412 9.51807E-05-2.85487E-05-2.85564E-05-1.56575E-09 1.53461E-18 5.67423E-19
 -1       413 9.51778E-05-2.85504E-05-2.85545E-05-1.19741E-08 2.45212E-18 1.09461E-18
 -1       414 9.51800E-05-2.85528E-05-2.85545E-05-1.75371E-08 6.58098E-19 3.74622E-18
 -1       415 9.51850E-05-2.85554E-05-2.85555E-05-1.98243E-08-1.09372E-19 2.08583E-18
 -1       416 9.51915E-05-2.85580E-05-2.85572E-05-1.99968E-08 1.08294E-18-4.15343E-19
 -1       417 9.51986E-05-2.85605E-05-2.85592E-05-1.88915E-08-5.99121E-19-9.24564E-19
 -1       418 9.52054E-05-2.85627E-05-2.85612E-05-1.70934E-08-5.65174E-19-9.57723E-19
 -1       419 9.52118E-05-2.85647E-05-2.85631E-05-1.49942E-08 8.71291E-19-2.27985E-18
 -1       420 9.52176E-05-2.85663E-05-2.85648E-05-1.28386E-08 1.68896E-19-2.19591E-18
 -1       421 9.52226E-05-2.85677E-05-2.85664E-05-1.07604E-08 5.37471E-19-1.16217E-18
 -1       422 9.52268E-05-2.85689E-05-2.85677E-05-8.80614E-09 4.97111E-19-9.74186E-19
 -1       423 9.52303E-05-2.85699E-05-2.85687E-05-6.95847E-09-4.97364E-19 1.43532E-19
 -1       424 9.52330E-05-2.85708E-05-2.85695E-05-5.15665E-09-1.00944E-19 2.21505E-18
 -1       425 9.52352E-05-2.85715E-05-2.85702E-05-3.33169E-09 4.10549E-19 2.93906E-18
 -1       426 9.52362E-05-2.85719E-05-2.85704E-05-2.27537E-09 1.46655E-18 4.11881E-18
 -1       427 9.52387E-05-2.85769E-05-2.85693E-05-5.90156E-09-8.56126E-19-2.33391E-19
 -1       428 9.52374E-05-2.85747E-05-2.85697E-05-5.23139E-09-8.25324E-19-8.83668E-19
 -1       429 9.52366E-05-2.85732E-05-2.85701E-05-3.88706E-09-9.36473E-20 2.79804E-18
 -1       430 9.52399E-05-2.85791E-05-2.85689E-05-5.70030E-09-1.55933E-18-2.73789E-18
 -1       431 9.52409E-05-2.85809E-05-2.85686E-05-4.69823E-09-1.82411E-18-1.40116E-18
 -1       432 9.52417E-05-2.85823E-05-2.85683E-05-3.07354E-09 1.87821E-20-7.17420E-19
 -1       433 9.52421E-05-2.85830E-05-2.85682E-05-1.05782E-09-1.84340E-18 1.91532E-18
 -1       434 9.52421E-05-2.85830E-05-2.85682E-05 1.09014E-09-2.43781E-18-1.69454E-19
 -1       435 9.52417E-05-2.85823E-05-2.85683E-05 3.10264E-09-1.57533E-18 3.21453E-19
 -1       436 9.52409E-05-2.85809E-05-2.85686E-05 4.69769E-09-1.38240E-18-3.22193E-18
 -1       437 9.52399E-05-2.85791E-05-2.85689E-05 5.70221E-09-1.16577E-19-1.69661E-19
 -1       438 9.52387E-05-2.85769E-05-2.85693E-05 5.90529E-09 2.23279E-19-2.68078E-19
 -1       439 9.52374E-05-2.85747E-05-2.85697E-05 5.23930E-09-3.77208E-19-4.63427E-19
 -1       440 5.99875E-05-4.02060E-05-8.63246E-06 4.40995E-05 5.95888E-19 3.22291E-18
 -1       441 1.39551E-05-1.70066E-05 1.52480E-06-6.31728E-08-4.51978E-19 5.18416E-18
 -1       442 2.71603E-05-2.76528E-05-9.52348E-09 3.07117E-05-2.86615E-19 4.90284E-18
 -1       443 9.63827E-05-5.04513E-05-1.98003E-05 4.27350E-05 4.62162E-19 1.46343E-18
 -1       444 1.32386E-04-5.05537E-05-3.49906E-05 2.81476E-05 2.36735E-18-1.06472E-18
 -1       445 8.80292E-05-1.21698E-05-3.25664E-05-5.71667E-07-1.10895E-18-2.16026E-18
 -1       446 1.57785E-04-2.58114E-05-5.63562E-05 3.45318E-06 4.36042E-18-1.78142E-18
 -1       447 1.53124E-04-1.20939E-05-6.05242E-05-6.39008E-07 4.96626E-18-1.58064E-18
 -1       448 1.54184E-04-1.40611E-05-6.00590E-05 2.92739E-06 5.54372E-18-1.04100E-18
 -1       449 1.56002E-04-2.66812E-05-5.53175E-05-4.87852E-07 4.81448E-18-7.15531E-19
 -1       450 1.44069E-04-4.39512E-05-4.29809E-05-1.51181E-05 3.29025E-18-1.03147E-18
 -1       451 1.22286E-04-4.86386E-05-3.15095E-05-3.17393E-05 2.04045E-18-2.24728E-18
 -1       452 7.76660E-05-4.01910E-05-1.62493E-05-4.37019E-05 1.05720E-18-4.59648E-18
 -1       453 4.35927E-05-2.68941E-05-7.09956E-06-4.00387E-05-2.93391E-19-5.68963E-18
 -1       454 1.46931E-05-1.54609E-05 1.80223E-07-1.92427E-05-3.59301E-19-6.44370E-18
 -1       455 1.13639E-05-1.31727E-05 7.17913E-07 5.78523E-06-4.79950E-19-6.52681E-18
 -1       456 3.22489E-05-2.08145E-05-4.65539E-06 2.98137E-05-1.72159E-19-5.54288E-18
 -1       457 7.44790E-05-4.16222E-05-1.41724E-05 4.04796E-05-1.61360E-18-4.17816E-18
 -1       458 1.10560E-04-5.23150E-05-2.51287E-05 3.49468E-05-2.10350E-18-3.49750E-18
 -1       459 1.45386E-04-5.22312E-05-3.99018E-05 1.54152E-05-3.66850E-18-1.73896E-18
 -1       460 1.57679E-04-4.05707E-05-5.02160E-05 1.66242E-06-4.79534E-18-8.70962E-19
 -1       461 1.58569E-04-2.08411E-05-5.90193E-05-6.60408E-06-5.90424E-18-4.88844E-19
 -1       462 1.61906E-04-1.45111E-05-6.29944E-05-1.10219E-06-6.03458E-18-1.17210E-18
 -1       463 1.58531E-04-2.07888E-05-5.89890E-05 4.22408E-06-5.24959E-18-1.77623E-18
 -1       464 1.57650E-04-4.07211E-05-4.99772E-05-4.21851E-06-3.83642E-18-1.23857E-18
 -1       465 1.39605E-04-5.37309E-05-3.68183E-05-2.36601E-05-2.05628E-18 6.91073E-19
 -1       466 1.09581E-04-5.58552E-05-2.30584E-05-3.81345E-05-9.33748E-19 1.47188E-18
 -1       467 6.09829E-05-4.18358E-05-8.50340E-06-4.21909E-05-8.50527E-19 3.67562E-18
 -1       468 2.54600E-05-2.86115E-05 9.54029E-07-2.69572E-05 5.09596E-19 5.69947E-18
 -1       469 1.50564E-04-4.03285E-05-4.70912E-05 1.42178E-05 3.67800E-18-1.29416E-18
 -1       470 6.17435E-05-3.10052E-05-1.28201E-05 3.74880E-05 9.87164E-19-3.97243E-18
 -1       471 1.11050E-04-3.27138E-05-3.35721E-05 8.70652E-06 1.76108E-18 1.21335E-18
 -1       472 5.89230E-05-1.47335E-07-2.51612E-05 2.20465E-06-1.87737E-20-3.67806E-18
 -1       473 7.03621E-05-6.98510E-06-2.71540E-05 5.76095E-06-8.33500E-20-2.96896E-18
 -1       474 5.98403E-05-1.41834E-06-2.50174E-05-1.01489E-05-2.65133E-19-3.51920E-18
 -1       475 7.06454E-05-8.47072E-06-2.66468E-05-1.17564E-05-1.95161E-19-3.03510E-18
 -1       476 8.24762E-05-1.55428E-05-2.86931E-05-8.93019E-06 1.18395E-19-2.52364E-18
 -1       477 9.26764E-05-2.09391E-05-3.07642E-05-3.29980E-06 6.95661E-19-1.78271E-18
 -1       478 1.00054E-04-2.42551E-05-3.25124E-05 2.79337E-06 1.20959E-18-1.16902E-18
 -1       479 1.05512E-04-2.66446E-05-3.38285E-05 7.76754E-06 1.84192E-18-3.38479E-19
 -1       480 1.10584E-04-3.43306E-05-3.26735E-05 8.83154E-06 1.45405E-18 1.00765E-18
 -1       481 1.14299E-04-3.53730E-05-3.38322E-05-4.48213E-08-8.55996E-19 2.33248E-19
 -1       482 1.40818E-04-5.14902E-05-3.84580E-05 6.28913E-06 1.41328E-18-2.79844E-18
 -1       483 1.19864E-04-4.18675E-05-3.34279E-05-1.27271E-06-3.31997E-19 5.48428E-19
 -1       484 1.26034E-04-4.64955E-05-3.41243E-05-6.89193E-06-2.77802E-19 1.00576E-18
 -1       485 1.29525E-04-4.47356E-05-3.64680E-05-1.48462E-05-9.37871E-19 1.01569E-18
 -1       486 1.27302E-04-3.40069E-05-4.01955E-05-1.89752E-05-2.24972E-18 8.44135E-19
 -1       487 1.20768E-04-1.98350E-05-4.37508E-05-1.11591E-05-3.70887E-18-2.17873E-19
 -1       488 1.18836E-04-1.70208E-05-4.42520E-05 6.21398E-06-3.76570E-18-1.77517E-18
 -1       489 1.25223E-04-3.04183E-05-4.08941E-05 1.74369E-05-2.39041E-18-2.43675E-18
 -1       490 1.28252E-04-4.33620E-05-3.65015E-05 1.48366E-05-6.25501E-19-2.60321E-18
 -1       491 1.25936E-04-4.77284E-05-3.35658E-05 6.21400E-06 6.04000E-19-2.02304E-18
 -1       492 1.19341E-04-4.49253E-05-3.19100E-05-2.24752E-06 7.27240E-19-1.13886E-18
 -1       493 1.12620E-04-3.97266E-05-3.12535E-05-7.51580E-06 4.24806E-19-1.18399E-18
 -1       494 1.07414E-04-3.50629E-05-3.10170E-05-9.91077E-06-7.41904E-20-1.11990E-18
 -1       495 1.03843E-04-3.17897E-05-3.08840E-05-1.04033E-05 9.06672E-20-4.27482E-19
 -1       496 1.01505E-04-2.98113E-05-3.07264E-05-9.81012E-06 1.20336E-19-3.97865E-19
 -1       497 9.99563E-05-2.87466E-05-3.05169E-05-8.69028E-06-5.41875E-20-1.01752E-18
 -1       498 9.88782E-05-2.82419E-05-3.02703E-05-7.38483E-06-3.32236E-19-6.45810E-19
 -1       499 9.80807E-05-2.80488E-05-3.00111E-05-6.08838E-06 4.58489E-19-1.02597E-18
 -1       500 9.74604E-05-2.80147E-05-2.97601E-05-4.90203E-06 3.54390E-19-1.99524E-18
 -1       501 9.69635E-05-2.80535E-05-2.95308E-05-3.86952E-06 5.98736E-19-1.93692E-18
 -1       502 9.65613E-05-2.81203E-05-2.93302E-05-3.00122E-06 1.02574E-18-9.65169E-19
 -1       503 9.62367E-05-2.81927E-05-2.91604E-05-2.28938E-06-6.39436E-19-6.83227E-19
 -1       504 9.59775E-05-2.82609E-05-2.90203E-05-1.71760E-06-1.23917E-18-8.75412E-19
 -1       505 9.57735E-05-2.83210E-05-2.89074E-05-1.26628E-06-9.61040E-19-1.26423E-18
 -1       506 9.56158E-05-2.83723E-05-2.88180E-05-9.15684E-07-2.56094E-19-1.31813E-18
 -1       507 9.54961E-05-2.84149E-05-2.87486E-05-6.47529E-07-2.49405E-19-2.14183E-18
 -1       508 9.54071E-05-2.84499E-05-2.86956E-05-4.45646E-07 2.05059E-19-2.34780E-18
 -1       509 9.53424E-05-2.84783E-05-2.86558E-05-2.96199E-07 6.78501E-21-1.91083E-18
 -1       510 9.52966E-05-2.85010E-05-2.86265E-05-1.87622E-07 2.91149E-19-3.15345E-19
 -1       511 9.52651E-05-2.85190E-05-2.86054E-05-1.10426E-07-7.80746E-19 4.65236E-19
 -1       512 9.52444E-05-2.85330E-05-2.85905E-05-5.69535E-08-5.12869E-19-1.87818E-19
 -1       513 9.52314E-05-2.85439E-05-2.85803E-05-2.11190E-08-4.59356E-19-5.16194E-19
 -1       514 9.52240E-05-2.85521E-05-2.85736E-05 1.84480E-09-9.31621E-19-7.35208E-19
 -1       515 9.52204E-05-2.85583E-05-2.85695E-05 1.56170E-08 5.39583E-19-4.15833E-19
 -1       516 9.52194E-05-2.85628E-05-2.85671E-05 2.29927E-08 8.55200E-19 2.11040E-19
 -1       517 9.52199E-05-2.85661E-05-2.85659E-05 2.60597E-08 9.99156E-20 8.66930E-20
 -1       518 9.52214E-05-2.85684E-05-2.85656E-05 2.63474E-08 1.59971E-18-1.05995E-18
 -1       519 9.52234E-05-2.85699E-05-2.85658E-05 2.49503E-08 1.20647E-18-3.82313E-19
 -1       520 9.52256E-05-2.85710E-05-2.85663E-05 2.26284E-08 1.87372E-19 6.40001E-19
 -1       521 9.52278E-05-2.85717E-05-2.85669E-05 1.98868E-08-8.02476E-19 6.57757E-19
 -1       522 9.52298E-05-2.85722E-05-2.85676E-05 1.70385E-08 1.29378E-18 7.42118E-20
 -1       523 9.52316E-05-2.85725E-05-2.85682E-05 1.42524E-08 5.37769E-19 1.35685E-19
 -1       524 9.52333E-05-2.85729E-05-2.85688E-05 1.15911E-08-3.42842E-19 1.28323E-20
 -1       525 9.52348E-05-2.85733E-05-2.85692E-05 9.04602E-09 7.66681E-19 7.24757E-19
 -1       526 1.06991E-04-3.18857E-05-3.21832E-05 1.09162E-05 8.36136E-19 7.50089E-19
 -1       527 1.03889E-04-2.84512E-05-3.23236E-05 9.49753E-06 1.04286E-18 4.37435E-19
 -1       528 1.01147E-04-2.53269E-05-3.24923E-05 5.07113E-06 1.59177E-18 2.05300E-19
 -1       529 1.00212E-04-2.44105E-05-3.24843E-05-1.17805E-06 1.62086E-18-4.57841E-19
 -1       530 1.01579E-04-2.63548E-05-3.22275E-05-6.88552E-06 1.25010E-18-7.88502E-19
 -1       531 1.04168E-04-2.98902E-05-3.18273E-05-9.80791E-06 6.17715E-19-1.30052E-18
 -1       532 1.06488E-04-3.31748E-05-3.14207E-05-9.46752E-06 7.67242E-19-1.44281E-18
 -1       533 1.07565E-04-3.49933E-05-3.11087E-05-6.88128E-06 3.74708E-19-1.23958E-18
 -1       534 1.07331E-04-3.52392E-05-3.09060E-05-3.50650E-06 1.98401E-19-1.23258E-18
 -1       535 1.06216E-04-3.44420E-05-3.07702E-05-4.21000E-07-1.55122E-19-1.00096E-18
 -1       536 1.04703E-04-3.32094E-05-3.06485E-05 1.86757E-06-5.18580E-20-1.19092E-18
 -1       537 1.03131E-04-3.19626E-05-3.05061E-05 3.27460E-06 2.30613E-19-1.43250E-18
 -1       538 1.01674E-04-3.09072E-05-3.03317E-05 3.93429E-06-4.31669E-20-3.93567E-19
 -1       539 1.00402E-04-3.00996E-05-3.01304E-05 4.05047E-06-5.64424E-19 2.67031E-20
 -1       540 9.93240E-05-2.95211E-05-2.99151E-05 3.81822E-06-7.17492E-19 3.02308E-19
 -1       541 9.84284E-05-2.91261E-05-2.96997E-05 3.39348E-06-2.89997E-19 3.15357E-19
 -1       542 9.76944E-05-2.88667E-05-2.94960E-05 2.88789E-06 5.57314E-19-1.79310E-19
 -1       543 9.71006E-05-2.87027E-05-2.93117E-05 2.37435E-06-4.92043E-20 5.07683E-19
 -1       544 9.66264E-05-2.86035E-05-2.91511E-05 1.89598E-06-7.41119E-19 7.86429E-19
 -1       545 9.62529E-05-2.85470E-05-2.90155E-05 1.47483E-06-1.45399E-19 6.43816E-20
 -1       546 9.59632E-05-2.85179E-05-2.89040E-05 1.11899E-06-4.26903E-19 5.53013E-19
 -1       547 9.57420E-05-2.85061E-05-2.88145E-05 8.27950E-07 1.75257E-19 9.11668E-19
 -1       548 9.55763E-05-2.85044E-05-2.87444E-05 5.96383E-07 2.71349E-19 6.92823E-19
 -1       549 9.54544E-05-2.85085E-05-2.86906E-05 4.16656E-07-5.76744E-19 1.06745E-18
 -1       550 9.53669E-05-2.85155E-05-2.86502E-05 2.80433E-07-2.00791E-18-1.95325E-19
 -1       551 9.53057E-05-2.85236E-05-2.86206E-05 1.79627E-07-9.36322E-19 1.56723E-19
 -1       552 9.52644E-05-2.85316E-05-2.85995E-05 1.06915E-07 5.25659E-19 1.76306E-19
 -1       553 9.52377E-05-2.85391E-05-2.85849E-05 5.59672E-08-5.31150E-19 1.02355E-18
 -1       554 9.52215E-05-2.85458E-05-2.85752E-05 2.15015E-08 1.25421E-18 1.15979E-18
 -1       555 9.52128E-05-2.85514E-05-2.85691E-05-7.68416E-10 8.74158E-19 1.59712E-18
 -1       556 9.52091E-05-2.85561E-05-2.85655E-05-1.42359E-08 4.84390E-20 2.88740E-18
 -1       557 9.52087E-05-2.85599E-05-2.85638E-05-2.15276E-08 1.45180E-18 2.08602E-18
 -1       558 9.52104E-05-2.85629E-05-2.85632E-05-2.46321E-08 1.77300E-18 1.69865E-18
 -1       559 9.52132E-05-2.85653E-05-2.85634E-05-2.50212E-08 7.12930E-19 1.21569E-18
 -1       560 9.52165E-05-2.85671E-05-2.85640E-05-2.37560E-08-2.88892E-19-1.65016E-19
 -1       561 9.52199E-05-2.85685E-05-2.85649E-05-2.15779E-08 8.03276E-19-1.25837E-18
 -1       562 9.52233E-05-2.85696E-05-2.85659E-05-1.89823E-08 9.77150E-20 9.41224E-20
 -1       563 9.52263E-05-2.85704E-05-2.85668E-05-1.62777E-08 7.81818E-19 1.29346E-19
 -1       564 9.52290E-05-2.85710E-05-2.85677E-05-1.36348E-08 1.66791E-19 5.58185E-19
 -1       565 9.52314E-05-2.85716E-05-2.85685E-05-1.11320E-08-9.31540E-19 8.05747E-19
 -1       566 9.52334E-05-2.85722E-05-2.85691E-05-8.72884E-09-8.51150E-19 1.28094E-18
 -1       567 9.52351E-05-2.85727E-05-2.85696E-05-6.36756E-09-1.25322E-18 1.96539E-18
 -1       568 9.52412E-05-2.85799E-05-2.85691E-05-7.11713E-09-3.21750E-19-9.53030E-21
 -1       569 9.52425E-05-2.85815E-05-2.85690E-05-5.28119E-09 4.49504E-19-4.74694E-19
 -1       570 9.52376E-05-2.85756E-05-2.85694E-05-7.96153E-09-1.34720E-18-9.22282E-19
 -1       571 9.52395E-05-2.85779E-05-2.85693E-05-8.03445E-09-2.05405E-18-1.72471E-19
 -1       572 9.52433E-05-2.85825E-05-2.85689E-05-2.79823E-09-3.83983E-19 3.36311E-19
 -1       573 9.52436E-05-2.85829E-05-2.85689E-05 2.02173E-11-3.10057E-19 9.99352E-19
 -1       574 9.52433E-05-2.85825E-05-2.85689E-05 2.83732E-09-1.46876E-19 6.43153E-19
 -1       575 9.52425E-05-2.85815E-05-2.85690E-05 5.27833E-09-4.63841E-19-1.88578E-18
 -1       576 9.52412E-05-2.85799E-05-2.85691E-05 7.11839E-09-1.55658E-20-2.49228E-18
 -1       577 9.52395E-05-2.85779E-05-2.85693E-05 8.05799E-09 7.57040E-19-1.61882E-19
 -1       578 9.52375E-05-2.85756E-05-2.85694E-05 7.90438E-09-5.57293E-19-1.21846E-19
 -1       579 3.07617E-05-1.49077E-05-6.16855E-06 2.04347E-05-1.00911E-18 4.96954E-18
 -1       580 8.85255E-05-4.79983E-05-1.71389E-05 4.30008E-05-1.95156E-18 5.13236E-19
 -1       581 1.09324E-04-3.40522E-05-3.22565E-05 1.01436E-05 1.02475E-18 9.00052E-19
 -1       582 3.07214E-05-1.63464E-05-5.57721E-06-1.98343E-05 8.88591E-19 4.59918E-18
 -1       583 5.39978E-05-3.11640E-05-9.37085E-06 4.04335E-05-1.72260E-18 2.36989E-18
 -1       584 1.08101E-04-2.78805E-05-3.44056E-05-1.32865E-06-1.31788E-18-4.88128E-19
 -1       585 5.41905E-05-3.11215E-05-9.45866E-06-3.78322E-05 2.18582E-18 4.10059E-18
 -1       586 1.36585E-04-1.67093E-05-5.19521E-05-8.53758E-06 4.43035E-18-1.34440E-18
 -1       587 5.50291E-05 2.00484E-06-2.44185E-05-4.38822E-06-1.81519E-19-3.76364E-18
 -1       588 1.31446E-04-7.13354E-06-5.38967E-05 2.59695E-06 4.42617E-18-4.87649E-19
 -1       589 7.38108E-05-3.54128E-05-1.61428E-05-4.19613E-05-1.42476E-18-3.80784E-18
 -1       590 1.33817E-04-1.81928E-05-5.01460E-05 1.19087E-05 4.04469E-18 6.99861E-19
 -1       591 1.41062E-04-3.74371E-05-4.47761E-05 6.86173E-06 2.73150E-18 1.26494E-18
 -1       592 1.35019E-04-5.21758E-05-3.56310E-05-1.16741E-05 9.22445E-19 6.38186E-19
 -1       593 1.35820E-04-1.28360E-05-5.33374E-05-7.17726E-06-5.09617E-18-3.58917E-19
 -1       594 1.08783E-04-5.03190E-05-2.49760E-05-3.38515E-05-6.91655E-19-1.71619E-18
 -1       595 3.66568E-05-1.26870E-05-9.69728E-06-3.04204E-05-1.19485E-18-5.41688E-18
 -1       596 2.05204E-05-4.29007E-06-6.37233E-06-8.20388E-06-3.45199E-19-6.26243E-18
 -1       597 2.92440E-05-7.56693E-06-8.65724E-06 1.60776E-05 6.10737E-19-5.55092E-18
 -1       598 1.04606E-04-5.12688E-05-2.26189E-05 3.28094E-05 6.91655E-19-1.61370E-18
 -1       599 1.33671E-04-5.89382E-05-3.20845E-05 1.57590E-05-2.10382E-19-2.39022E-19
 -1       600 1.47033E-04-5.04157E-05-4.17481E-05-5.50923E-06-2.30435E-18 1.19892E-18
 -1       601 1.44385E-04-3.08035E-05-4.91212E-05-1.52540E-05-4.29636E-18 1.07690E-18
 -1       602 1.37198E-04-1.38038E-05-5.34906E-05 5.70522E-06-4.70548E-18-1.71331E-18
 -1       603 1.43767E-04-3.20308E-05-4.83150E-05 1.42133E-05-3.47628E-18-3.14450E-18
 -1       604 1.45861E-04-5.47468E-05-3.94651E-05 1.71240E-07-9.39373E-19-2.25597E-18
 -1       605 1.34088E-04-6.10267E-05-3.14165E-05-1.66962E-05 3.98105E-19-1.97083E-18
 -1       606 9.46846E-05-5.10275E-05-1.84235E-05-3.96000E-05 1.52641E-18 1.12718E-18
 -1       607 1.42943E-04-3.67200E-05-4.59381E-05-5.10626E-06 2.69973E-18-2.20133E-18
 -1       608 1.10955E-04-2.98239E-05-3.47950E-05 1.01553E-05 2.15891E-18 1.33023E-18
 -1       609 1.24102E-04-5.86591E-05-2.79903E-05 2.77332E-05-2.52045E-19-1.89995E-18
 -1       610 1.22910E-04-1.00095E-05-4.89090E-05-5.06958E-06 4.35078E-18-7.87741E-19
 -1       611 8.51647E-05-1.54678E-05-2.98667E-05 4.90377E-06-4.22169E-19-2.28957E-18
 -1       612 1.20779E-04-5.88803E-05-2.64190E-05-2.43048E-05 1.73695E-18-1.58664E-18
 -1       613 3.31316E-05-1.05796E-05-9.05194E-06 9.77872E-07 5.03439E-20 3.55394E-18
 -1       614 4.86932E-05-1.58253E-05-1.36300E-05 2.65417E-05 1.20342E-18-4.57117E-18
 -1       615 5.88543E-05-2.09553E-05-1.58691E-05-3.54216E-05-1.82049E-18-4.15644E-18
 -1       616 9.52357E-05-2.85735E-05-2.85695E-05 7.32408E-09-3.08887E-19 1.58510E-18
 -1       617 8.12207E-05-1.92950E-05-2.65244E-05-1.58950E-05-5.87599E-19-2.46936E-18
 -1       618 6.45031E-05-8.75202E-06-2.37962E-05-1.72540E-05-6.53588E-19-3.24104E-18
 -1       619 1.03162E-04-3.04098E-05-3.11758E-05-1.25266E-06 6.22712E-19-9.37789E-19
 -1       620 1.07832E-04-3.19228E-05-3.25456E-05 4.95959E-06 1.19415E-18-3.17602E-19
 -1       621 1.11104E-04-3.41660E-05-3.29658E-05 8.23887E-06 1.44049E-18 4.19494E-19
 -1       622 5.38154E-05-2.15046E-05-1.33681E-05-2.73187E-05 1.98509E-18 3.42620E-18
 -1       623 1.29621E-04-2.73162E-05-4.42967E-05-1.21902E-05 2.82623E-18-1.29638E-18
 -1       624 1.18933E-04-4.61309E-05-3.12251E-05 5.03908E-06 1.56717E-19 1.94844E-19
 -1       625 1.31939E-04-5.36309E-05-3.35973E-05-1.51726E-06-1.51654E-19 1.10071E-18
 -1       626 1.34139E-04-5.55556E-05-3.38350E-05 2.52008E-06 8.93845E-19-2.68212E-18
 -1       627 1.22735E-04-5.19268E-05-3.03116E-05-8.10737E-06 1.32955E-18-1.74470E-18
 -1       628 1.11074E-04-4.34096E-05-2.89876E-05-1.29624E-05 5.98924E-19-1.15202E-18
 -1       629 1.03500E-04-3.61155E-05-2.88761E-05-1.39764E-05 3.08745E-19-8.79456E-19
 -1       630 9.90624E-05-3.11439E-05-2.91068E-05-1.32812E-05 7.65059E-19-2.96808E-19
 -1       631 9.67936E-05-2.82879E-05-2.93588E-05-1.18864E-05 1.08528E-19-4.80423E-19
 -1       632 9.57678E-05-2.68886E-05-2.95189E-05-1.02927E-05-3.19449E-19-7.52203E-19
 -1       633 9.53800E-05-2.63712E-05-2.95742E-05-8.70465E-06 3.84315E-19-1.66685E-19
 -1       634 9.52818E-05-2.63355E-05-2.95474E-05-7.21829E-06 6.12045E-20 1.51138E-19
 -1       635 9.52922E-05-2.65325E-05-2.94676E-05-5.88077E-06 4.44108E-21 6.47949E-19
 -1       636 9.53276E-05-2.68196E-05-2.93598E-05-4.71255E-06 2.39132E-19 2.37850E-19
 -1       637 9.53553E-05-2.71213E-05-2.92426E-05-3.71704E-06 7.36847E-19-9.27838E-19
 -1       638 9.53672E-05-2.74014E-05-2.91278E-05-2.88653E-06 6.40405E-19-1.25061E-18
 -1       639 9.53650E-05-2.76454E-05-2.90223E-05-2.20659E-06-1.34854E-18-4.13498E-19
 -1       640 9.53534E-05-2.78502E-05-2.89297E-05-1.65939E-06-1.42599E-18-1.44703E-19
 -1       641 9.53369E-05-2.80177E-05-2.88509E-05-1.22608E-06-9.64306E-19-6.95429E-20
 -1       642 9.53189E-05-2.81523E-05-2.87855E-05-8.88282E-07-6.03829E-19-6.04543E-19
 -1       643 9.53016E-05-2.82588E-05-2.87325E-05-6.29051E-07 2.16369E-19-5.36225E-19
 -1       644 9.52863E-05-2.83420E-05-2.86903E-05-4.33325E-07-1.02772E-19-1.35626E-18
 -1       645 9.52735E-05-2.84061E-05-2.86574E-05-2.88098E-07 1.27847E-18-8.20183E-20
 -1       646 9.52631E-05-2.84549E-05-2.86321E-05-1.82400E-07 5.37455E-19-1.13352E-18
 -1       647 9.52551E-05-2.84915E-05-2.86129E-05-1.07158E-07-8.93808E-20 4.70483E-19
 -1       648 9.52490E-05-2.85184E-05-2.85988E-05-5.50021E-08-1.73906E-18 1.11905E-18
 -1       649 9.52445E-05-2.85380E-05-2.85885E-05-2.00418E-08-8.23507E-19 1.11218E-18
 -1       650 9.52414E-05-2.85518E-05-2.85812E-05 2.35469E-09-1.40550E-18 1.91558E-19
 -1       651 9.52392E-05-2.85613E-05-2.85762E-05 1.57723E-08-5.19928E-20-1.10444E-18
 -1       652 9.52377E-05-2.85677E-05-2.85729E-05 2.29398E-08 9.91610E-19-2.12145E-18
 -1       653 9.52369E-05-2.85717E-05-2.85708E-05 2.58974E-08-5.58517E-20-2.09142E-18
 -1       654 9.52364E-05-2.85741E-05-2.85695E-05 2.61400E-08 1.39201E-18-2.04449E-18
 -1       655 9.52361E-05-2.85753E-05-2.85689E-05 2.47360E-08 1.32983E-18-2.79724E-18
 -1       656 9.52361E-05-2.85758E-05-2.85687E-05 2.24260E-08 4.69677E-19-2.25186E-18
 -1       657 9.52362E-05-2.85759E-05-2.85687E-05 1.97007E-08 4.62237E-19-2.50970E-19
 -1       658 9.52363E-05-2.85758E-05-2.85688E-05 1.68635E-08-4.06538E-19-4.46863E-19
 -1       659 9.52366E-05-2.85756E-05-2.85690E-05 1.40775E-08-7.87902E-20-8.60731E-19
 -1       660 9.52369E-05-2.85755E-05-2.85692E-05 1.14018E-08 6.32194E-19-2.80193E-19
 -1       661 1.07026E-04-2.53178E-05-3.50061E-05 1.00418E-05 1.68760E-18-5.63571E-20
 -1       662 9.52370E-05-2.85754E-05-2.85692E-05-1.05527E-08-1.43219E-18-5.98971E-19
 -1       663 1.10554E-04-3.10968E-05-3.40612E-05 1.28091E-05 1.38365E-18 2.28667E-19
 -1       664 1.04588E-04-2.23325E-05-3.52589E-05-5.25387E-06 1.90451E-18-5.23837E-19
 -1       665 1.07566E-04-2.76311E-05-3.42694E-05-1.06161E-05 1.62637E-18-1.25096E-18
 -1       666 1.10543E-04-3.37666E-05-3.29196E-05-1.11996E-05 8.46315E-19-1.69367E-18
 -1       667 1.11522E-04-3.75961E-05-3.16915E-05-8.17962E-06 2.65973E-19-1.62034E-18
 -1       668 1.10336E-04-3.84454E-05-3.08137E-05-3.88609E-06 1.40537E-19-5.11677E-19
 -1       669 1.07894E-04-3.72281E-05-3.02884E-05-1.05845E-09-3.88616E-19-3.25928E-19
 -1       670 1.05144E-04-3.51296E-05-3.00097E-05 2.79006E-06 1.74930E-19-4.90750E-19
 -1       671 1.02664E-04-3.29900E-05-2.98631E-05 4.44347E-06 5.35818E-21-7.22581E-20
 -1       672 1.00675E-04-3.12181E-05-2.97686E-05 5.18194E-06-5.81762E-19 8.00915E-19
 -1       673 9.91766E-05-2.99210E-05-2.96816E-05 5.27871E-06-3.59766E-19 7.20159E-19
 -1       674 9.80858E-05-2.90561E-05-2.95842E-05 4.97055E-06-1.76576E-19 2.36590E-19
 -1       675 9.73025E-05-2.85288E-05-2.94741E-05 4.43798E-06 1.72504E-20-1.46477E-19
 -1       676 9.67403E-05-2.82415E-05-2.93561E-05 3.80839E-06 3.79827E-20-2.53768E-19
 -1       677 9.63343E-05-2.81129E-05-2.92372E-05 3.16576E-06 1.01429E-19 2.05248E-19
 -1       678 9.60380E-05-2.80822E-05-2.91234E-05 2.56119E-06-2.38706E-19 3.43503E-19
 -1       679 9.58199E-05-2.81073E-05-2.90192E-05 2.02225E-06-2.06307E-19 5.89386E-19
 -1       680 9.56581E-05-2.81604E-05-2.89272E-05 1.56049E-06-3.06342E-19 2.16725E-19
 -1       681 9.55377E-05-2.82241E-05-2.88484E-05 1.17715E-06-5.24938E-21-4.10929E-21
 -1       682 9.54483E-05-2.82881E-05-2.87827E-05 8.67284E-07 2.44522E-19 1.57309E-19
 -1       683 9.53822E-05-2.83470E-05-2.87292E-05 6.22725E-07-5.53077E-19 9.06440E-19
 -1       684 9.53338E-05-2.83982E-05-2.86865E-05 4.33981E-07-6.17720E-19 1.00093E-18
 -1       685 9.52988E-05-2.84410E-05-2.86532E-05 2.91494E-07-1.87398E-18-2.62204E-19
 -1       686 9.52740E-05-2.84756E-05-2.86278E-05 1.86356E-07-3.43559E-19-2.99763E-19
 -1       687 9.52567E-05-2.85028E-05-2.86088E-05 1.10678E-07 5.24375E-20 5.27052E-19
 -1       688 9.52451E-05-2.85238E-05-2.85948E-05 5.77345E-08 4.04919E-19-6.95084E-19
 -1       689 9.52376E-05-2.85395E-05-2.85849E-05 2.19612E-08 9.25230E-19 7.42472E-19
 -1       690 9.52331E-05-2.85511E-05-2.85780E-05-1.13182E-09 1.87852E-18 2.01333E-19
 -1       691 9.52306E-05-2.85593E-05-2.85734E-05-1.50855E-08 7.36833E-19-1.67786E-18
 -1       692 9.52296E-05-2.85651E-05-2.85705E-05-2.26333E-08 1.47443E-18 9.31063E-20
 -1       693 9.52295E-05-2.85689E-05-2.85688E-05-2.58405E-08 1.92784E-18 1.73748E-19
 -1       694 9.52299E-05-2.85714E-05-2.85679E-05-2.62329E-08 1.05713E-18 5.10251E-19
 -1       695 9.52307E-05-2.85728E-05-2.85676E-05-2.49082E-08 1.62317E-18-4.98110E-19
 -1       696 9.52316E-05-2.85736E-05-2.85677E-05-2.26312E-08-7.58106E-19-1.18599E-18
 -1       697 9.52326E-05-2.85740E-05-2.85680E-05-1.99113E-08 7.54564E-19-1.54295E-19
 -1       698 9.52336E-05-2.85742E-05-2.85683E-05-1.70673E-08 3.58391E-19-1.94773E-19
 -1       699 9.52345E-05-2.85742E-05-2.85687E-05-1.42843E-08-7.83961E-20 6.70223E-19
 -1       700 9.52359E-05-2.85749E-05-2.85690E-05-1.24081E-08-6.38848E-19-5.65828E-19
 -1       701 1.10657E-04-5.35116E-05-2.43347E-05 2.96299E-05-1.42810E-18-8.81427E-19
 -1       702 9.52457E-05-2.85833E-05-2.85696E-05-1.73056E-09 2.50441E-18 6.71998E-19
 -1       703 9.52433E-05-2.85811E-05-2.85695E-05-7.78671E-09-7.77319E-19-3.72997E-20
 -1       704 9.52456E-05-2.85833E-05-2.85696E-05 1.77537E-09 7.41213E-20-6.45311E-19
 -1       705 9.52448E-05-2.85826E-05-2.85696E-05-5.04288E-09 1.24724E-18-6.23468E-19
 -1       706 9.52449E-05-2.85826E-05-2.85696E-05 5.03147E-09-5.90423E-19 4.97571E-19
 -1       707 9.52433E-05-2.85811E-05-2.85695E-05 7.77550E-09 4.04695E-20-2.80560E-18
 -1       708 9.52411E-05-2.85791E-05-2.85694E-05 9.59707E-09-6.06127E-20 2.71940E-19
 -1       709 5.34573E-05-2.24404E-05-1.28129E-05 3.09626E-05-1.76755E-18 1.91429E-18
 -1       710 7.71916E-05-3.75816E-05-1.66408E-05 3.87253E-05-2.23259E-18 8.97802E-19
 -1       711 1.01809E-04-2.83410E-05-3.15343E-05 4.51663E-06-5.31414E-19-9.97087E-19
 -1       712 8.67187E-05-3.73398E-05-2.08747E-05 3.10654E-05 1.45886E-18-1.97523E-18
 -1       713 3.48892E-05-8.77005E-07-1.40406E-05 6.51366E-07 2.14584E-19-5.21465E-18
 -1       714 1.12744E-04-3.53336E-05-3.31768E-05 1.19653E-05 1.08761E-18 7.93169E-19
 -1       715 1.03868E-04-2.10089E-05-3.55649E-05 2.91307E-06 1.86457E-18-5.90053E-20
 -1       716 1.09761E-04-3.74785E-05-3.09259E-05 6.28088E-06-7.67888E-20-3.50334E-19
 -1       717 1.30900E-04-5.65151E-05-3.19696E-05 9.15517E-06 9.56022E-20-2.55428E-18
 -1       718 1.12709E-04-3.62883E-05-3.27599E-05 9.69460E-06 1.01935E-18 7.94498E-19
 -1       719 9.45962E-05-2.66705E-05-2.90930E-05-9.24968E-06-4.03449E-20-1.42838E-18
 -1       720 6.22097E-05-6.75914E-06-2.36733E-05 1.00700E-05 4.44896E-19-3.28520E-18
 -1       721 1.34222E-04-4.61429E-05-3.79408E-05 4.51893E-06 1.31628E-18 1.25221E-18
 -1       722 1.29012E-04-2.88514E-05-4.33038E-05 1.42236E-05 2.57665E-18 1.03910E-18
 -1       723 1.38014E-04-5.53379E-05-3.55310E-05-1.36243E-06-3.44294E-19 1.67993E-18
 -1       724 1.22538E-04-5.23763E-05-3.00784E-05-1.74084E-05-6.79241E-19 2.29294E-19
 -1       725 8.04341E-05-3.88801E-05-1.74848E-05-3.62390E-05 2.39758E-18 1.55219E-18
 -1       726 9.66660E-05-4.25635E-05-2.29860E-05-3.27916E-05-1.70847E-18-1.90741E-18
 -1       727 3.80902E-05-3.33370E-06-1.44269E-05-1.73138E-05-7.98547E-19-5.06647E-18
 -1       728 1.22683E-04-5.53408E-05-2.87470E-05 1.74145E-05 9.01270E-19 5.75056E-21
 -1       729 9.52372E-05-2.85755E-05-2.85693E-05 9.64424E-09 1.05272E-18-1.37342E-18
 -1       730 1.17968E-04-1.14460E-05-4.61225E-05 8.07195E-06 3.64886E-18 8.65562E-20
 -1       731 1.35482E-04-4.19238E-05-4.04076E-05-7.98266E-06 1.78879E-18-1.79301E-18
 -1       732 1.36852E-04-4.78154E-05-3.83717E-05-1.33200E-05-1.21102E-18 1.63980E-18
 -1       733 8.04134E-05-1.80026E-05-2.66879E-05 1.22650E-05 2.99177E-19-2.34107E-18
 -1       734 5.20098E-05-6.08318E-07-2.19093E-05-1.07535E-05-4.36546E-19-3.98815E-18
 -1       735 4.37619E-05-4.50307E-06-1.64544E-05 1.18931E-05 6.66661E-19-4.68147E-18
 -1       736 1.04788E-04-4.90676E-05-2.36505E-05-2.80884E-05 2.44812E-18-6.54422E-19
 -1       737 9.52411E-05-2.85791E-05-2.85694E-05-9.63963E-09-6.69559E-20 5.07179E-19
 -1       738 4.51690E-05-1.36936E-05-1.30202E-05 1.64890E-05-1.07907E-18 3.44893E-18
 -1       739 4.71084E-05-1.29921E-05-1.42004E-05-1.19995E-05 6.11836E-19 2.93510E-18
 -1       740 1.17276E-04-2.04216E-05-4.17866E-05 1.36502E-05 2.44225E-18 9.81592E-19
 -1       741 5.21842E-05-9.50653E-06-1.79650E-05-2.40558E-05-1.33657E-18-4.20492E-18
 -1       742 5.09759E-05 4.32159E-07-2.19162E-05 7.76774E-07 7.45803E-20-4.03909E-18
 -1       743 8.02209E-05-2.98023E-05-2.13630E-05-3.21174E-05-2.00315E-18-2.82079E-18
 -1       744 1.19913E-04-1.90169E-05-4.35821E-05-1.14254E-05 3.39756E-18-1.32046E-18
 -1       745 9.52393E-05-2.85774E-05-2.85694E-05 1.08111E-08-2.70768E-19-2.61072E-19
 -1       746 1.11631E-04-3.71125E-05-3.19655E-05 2.96770E-06 7.19350E-19-1.43690E-19
 -1       747 1.09785E-04-4.54850E-05-2.74331E-05-2.07993E-05-1.30288E-18-6.72030E-19
 -1       748 1.07549E-04-3.69617E-05-3.02456E-05-5.79114E-06-1.02073E-19-4.26306E-19
 -1       749 1.26180E-04-4.88652E-05-3.31926E-05-1.88007E-06 3.07910E-20 7.75790E-19
 -1       750 9.40081E-05-4.15016E-05-2.24075E-05 2.95397E-05-9.41583E-19 4.37579E-19
 -1       751 1.05819E-04-4.56690E-05-2.56685E-05-2.25597E-05 2.05292E-18-5.63214E-19
 -1       752 9.66568E-05-3.58083E-05-2.60700E-05-1.98854E-05 8.93595E-19 3.83114E-19
 -1       753 9.21259E-05-2.94470E-05-2.68522E-05-1.65168E-05 5.87247E-19 1.11105E-18
 -1       754 9.06612E-05-2.61221E-05-2.76553E-05-1.35326E-05 3.79883E-22 7.05783E-19
 -1       755 9.05691E-05-2.46164E-05-2.82645E-05-1.11436E-05-3.00024E-19 1.90680E-19
 -1       756 9.10994E-05-2.41939E-05-2.86733E-05-9.20555E-06 1.62270E-19 6.91365E-20
 -1       757 9.18344E-05-2.43583E-05-2.89179E-05-7.59121E-06 4.78257E-19-9.83923E-20
 -1       758 9.25682E-05-2.48035E-05-2.90417E-05-6.21826E-06 7.53708E-19 7.71610E-19
 -1       759 9.32125E-05-2.53510E-05-2.90832E-05-5.04178E-06 8.43129E-20 1.63173E-18
 -1       760 9.37400E-05-2.59032E-05-2.90727E-05-4.03730E-06-2.13634E-19 1.97226E-18
 -1       761 9.41536E-05-2.64111E-05-2.90324E-05-3.18854E-06 3.68621E-19 2.21100E-20
 -1       762 9.44683E-05-2.68545E-05-2.89773E-05-2.48122E-06 2.22149E-19-6.56362E-19
 -1       763 9.47026E-05-2.72285E-05-2.89174E-05-1.90077E-06-1.34228E-18-3.75615E-19
 -1       764 9.48740E-05-2.75366E-05-2.88588E-05-1.43192E-06-1.56038E-18 8.10232E-20
 -1       765 9.49974E-05-2.77857E-05-2.88050E-05-1.05922E-06-1.28295E-18 6.93129E-19
 -1       766 9.50849E-05-2.79839E-05-2.87576E-05-7.67683E-07-6.88985E-20 1.15053E-18
 -1       767 9.51459E-05-2.81393E-05-2.87171E-05-5.43352E-07-6.72016E-19 9.25653E-19
 -1       768 9.51875E-05-2.82596E-05-2.86834E-05-3.73659E-07-1.60453E-19 1.20487E-18
 -1       769 9.52152E-05-2.83513E-05-2.86560E-05-2.47622E-07-1.75128E-19-3.71971E-19
 -1       770 9.52329E-05-2.84202E-05-2.86340E-05-1.55878E-07 5.24742E-19-1.58791E-18
 -1       771 9.52437E-05-2.84711E-05-2.86168E-05-9.06216E-08 9.85975E-20-1.74164E-18
 -1       772 9.52496E-05-2.85080E-05-2.86036E-05-4.54694E-08-2.30365E-19 9.14398E-19
 -1       773 9.52524E-05-2.85342E-05-2.85935E-05-1.52993E-08-1.78041E-18 8.73124E-19
 -1       774 9.52530E-05-2.85522E-05-2.85860E-05 3.92958E-09-1.66438E-18 8.55403E-19
 -1       775 9.52523E-05-2.85643E-05-2.85806E-05 1.53495E-08-1.20231E-18-7.84786E-19
 -1       776 9.52509E-05-2.85719E-05-2.85767E-05 2.13460E-08 1.62414E-19-1.85054E-18
 -1       777 9.52492E-05-2.85765E-05-2.85740E-05 2.37016E-08 6.30760E-19-1.17757E-18
 -1       778 9.52473E-05-2.85788E-05-2.85722E-05 2.37201E-08 1.87935E-18-2.57699E-19
 -1       779 9.52455E-05-2.85797E-05-2.85710E-05 2.23308E-08 1.43140E-18 3.66486E-19
 -1       780 9.52438E-05-2.85798E-05-2.85703E-05 2.01755E-08 1.76291E-18 3.54495E-19
 -1       781 9.52423E-05-2.85793E-05-2.85699E-05 1.76761E-08 4.27483E-19 7.22749E-20
 -1       782 9.52411E-05-2.85787E-05-2.85696E-05 1.50976E-08-1.30721E-18 6.34643E-19
 -1       783 9.52400E-05-2.85780E-05-2.85694E-05 1.29358E-08 4.18165E-19-4.83230E-19
 -1       784 1.14278E-04-2.82010E-05-3.69843E-05 1.39630E-05 1.81235E-18 9.13618E-19
 -1       785 1.15661E-04-3.30143E-05-3.54842E-05-1.27362E-05 1.28188E-18-2.27692E-18
 -1       786 1.10941E-04-2.25192E-05-3.80675E-05-1.06388E-05 2.53402E-18-1.79992E-18
 -1       787 1.14822E-04-4.24531E-05-3.10156E-05-3.09182E-06-9.25262E-19-1.17115E-18
 -1       788 1.10610E-04-4.08650E-05-2.98867E-05 1.76861E-06-8.08445E-21-1.49388E-18
 -1       789 1.06148E-04-3.76754E-05-2.93463E-05 4.84093E-06 2.80371E-20-7.79106E-19
 -1       790 1.02395E-04-3.43962E-05-2.91436E-05 6.36798E-06-2.31969E-19-6.10697E-19
 -1       791 9.96245E-05-3.17127E-05-2.91058E-05 6.82453E-06-8.21035E-19 1.46594E-19
 -1       792 9.77467E-05-2.97857E-05-2.91263E-05 6.63157E-06-3.69664E-19-1.46161E-19
 -1       793 9.65548E-05-2.85376E-05-2.91502E-05 6.07705E-06-5.71205E-19 1.28418E-19
 -1       794 9.58427E-05-2.78151E-05-2.91546E-05 5.34761E-06-5.09223E-19 1.13691E-18
 -1       795 9.54452E-05-2.74639E-05-2.91347E-05 4.56160E-06 1.15705E-19 1.81715E-18
 -1       796 9.52426E-05-2.73552E-05-2.90944E-05 3.79194E-06-1.55853E-19 2.01842E-18
 -1       797 9.51542E-05-2.73927E-05-2.90405E-05 3.08118E-06-3.47982E-19 1.35101E-18
 -1       798 9.51285E-05-2.75091E-05-2.89796E-05 2.45155E-06-1.49402E-19 6.08801E-19
 -1       799 9.51342E-05-2.76600E-05-2.89174E-05 1.91159E-06 1.40970E-19-2.22681E-19
 -1       800 9.51532E-05-2.78180E-05-2.88578E-05 1.46089E-06-1.66304E-19-3.57326E-19
 -1       801 9.51754E-05-2.79672E-05-2.88034E-05 1.09349E-06-2.40203E-19 2.28875E-19
 -1       802 9.51961E-05-2.80996E-05-2.87556E-05 8.00420E-07-6.26557E-19 1.22879E-18
 -1       803 9.52132E-05-2.82119E-05-2.87148E-05 5.71376E-07-1.21207E-18 7.11858E-19
 -1       804 9.52261E-05-2.83041E-05-2.86808E-05 3.95946E-07 5.33188E-19 7.91286E-19
 -1       805 9.52353E-05-2.83777E-05-2.86532E-05 2.64318E-07-6.69875E-19-1.89094E-18
 -1       806 9.52413E-05-2.84350E-05-2.86312E-05 1.67695E-07-1.08866E-18-1.15947E-18
 -1       807 9.52448E-05-2.84786E-05-2.86141E-05 9.84714E-08 9.22824E-19 1.93321E-19
 -1       808 9.52465E-05-2.85109E-05-2.86010E-05 5.02672E-08 8.69434E-19-3.96485E-19
 -1       809 9.52470E-05-2.85344E-05-2.85911E-05 1.78596E-08 1.65572E-18-1.03113E-18
 -1       810 9.52466E-05-2.85509E-05-2.85839E-05-2.93133E-09 1.26730E-18-1.01130E-18
 -1       811 9.52458E-05-2.85621E-05-2.85787E-05-1.53822E-08-4.98671E-19-3.15649E-19
 -1       812 9.52447E-05-2.85695E-05-2.85751E-05-2.20103E-08 4.26254E-20 9.74256E-19
 -1       813 9.52436E-05-2.85740E-05-2.85727E-05-2.47097E-08 7.87008E-19 1.79128E-18
 -1       814 9.52424E-05-2.85765E-05-2.85711E-05-2.48740E-08 1.31973E-18 1.23325E-18
 -1       815 9.52414E-05-2.85777E-05-2.85702E-05-2.35016E-08 3.15309E-19 3.87364E-20
 -1       816 9.52405E-05-2.85780E-05-2.85696E-05-2.12841E-08-6.60779E-19-1.64215E-18
 -1       817 9.52397E-05-2.85778E-05-2.85694E-05-1.86814E-08-7.71318E-19-3.80568E-19
 -1       818 9.52391E-05-2.85774E-05-2.85693E-05-1.59909E-08-1.04653E-18 1.18362E-18
 -1       819 9.52479E-05-2.85840E-05-2.85702E-05 4.07238E-09-2.69092E-19-1.55941E-18
 -1       820 9.52484E-05-2.85844E-05-2.85703E-05-1.33041E-11 5.98284E-19-4.59603E-19
 -1       821 1.25500E-04-3.53223E-05-3.88917E-05-1.27613E-05 1.47286E-18-1.68941E-18
 -1       822 4.38748E-05 1.40931E-07-1.86012E-05-7.31192E-06-2.99082E-19-4.44454E-18
 -1       823 1.17457E-04-3.64986E-05-3.47196E-05 1.30317E-05 1.23015E-18 9.58823E-19
 -1       824 7.64156E-05-3.01330E-05-1.96121E-05 2.94184E-05-1.45757E-18 8.16897E-19
 -1       825 9.67166E-05-3.28244E-05-2.73584E-05-1.67562E-05-9.92835E-19-1.36783E-18
 -1       826 9.52463E-05-2.85828E-05-2.85701E-05 7.73012E-09-9.28944E-19-4.47196E-19
 -1       827 9.52437E-05-2.85808E-05-2.85698E-05 1.05329E-08-2.62967E-19-2.77101E-18
 -1       828 1.17011E-04-4.02489E-05-3.29374E-05-8.85488E-06 1.33060E-19-1.45221E-18
 -1       829 1.07732E-04-4.43279E-05-2.70105E-05 1.87293E-05 9.13353E-19-6.56234E-19
 -1       830 1.26519E-04-3.80884E-05-3.80826E-05 1.29691E-05 1.46080E-18 1.66704E-18
 -1       831 7.49446E-05-3.01064E-05-1.89664E-05-2.92686E-05 2.17797E-18 1.48349E-18
 -1       832 6.96516E-05-2.07017E-05-2.07371E-05 2.35804E-05 1.29997E-18-2.87401E-18
 -1       833 1.28409E-04-5.00971E-05-3.36355E-05-1.73200E-06-1.06802E-19-1.69900E-18
 -1       834 1.19296E-04-5.29346E-05-2.84086E-05 1.43998E-05-4.39455E-19-2.26001E-18
 -1       835 1.11508E-04-1.32134E-05-4.24278E-05-1.58994E-06 3.35369E-18-6.50574E-19
 -1       836 1.13318E-04-3.72405E-05-3.26086E-05 7.38732E-06 9.09773E-19 3.51948E-19
 -1       837 6.50992E-05-2.09659E-05-1.87112E-05 2.25111E-05-1.69814E-18 1.46686E-18
 -1       838 9.52396E-05-2.85777E-05-2.85694E-05-1.37872E-08-5.51375E-19 9.79293E-19
 -1       839 9.52437E-05-2.85808E-05-2.85698E-05-1.05377E-08-3.60592E-19 6.79668E-19
 -1       840 9.52463E-05-2.85828E-05-2.85701E-05-7.70092E-09 2.44350E-19 1.29062E-18
 -1       841 9.52479E-05-2.85840E-05-2.85702E-05-4.06962E-09 9.41240E-19 2.02667E-18
 -1       842 4.91659E-05-1.15168E-05-1.58410E-05 2.29056E-06-1.95435E-19 2.72062E-18
 -1       843 6.26392E-05-1.94314E-05-1.82570E-05-1.99663E-05 1.11220E-18 2.54008E-18
 -1       844 1.16250E-04-3.86784E-05-3.32588E-05 9.89563E-06 9.38970E-19 4.93286E-19
 -1       845 9.52401E-05-2.85780E-05-2.85694E-05-1.23435E-08 4.77984E-19 4.40624E-19
 -1       846 9.52420E-05-2.85795E-05-2.85697E-05 1.19175E-08 7.48670E-19 9.86739E-19
 -1       847 1.16277E-04-4.42699E-05-3.08616E-05-5.49632E-06-4.73951E-19 2.94009E-19
 -1       848 8.16245E-05-2.55063E-05-2.40009E-05-1.88683E-05 1.32222E-18 1.28381E-18
 -1       849 8.24137E-05-2.27308E-05-2.55706E-05-1.40243E-05-9.83898E-20 1.70237E-18
 -1       850 8.42370E-05-2.17605E-05-2.67746E-05-1.07946E-05-4.64113E-19 1.88142E-18
 -1       851 8.61612E-05-2.17493E-05-2.76054E-05-8.60594E-06-2.62145E-19 1.07455E-18
 -1       852 8.79511E-05-2.22468E-05-2.81590E-05-7.00925E-06-1.19452E-19 1.15148E-18
 -1       853 8.95083E-05-2.29812E-05-2.85116E-05-5.75806E-06 7.21702E-19 1.03818E-18
 -1       854 9.08106E-05-2.37926E-05-2.87220E-05-4.72385E-06 8.32945E-19 8.74437E-19
 -1       855 9.18695E-05-2.45882E-05-2.88348E-05-3.84528E-06 8.14662E-19 6.85340E-19
 -1       856 9.27121E-05-2.53184E-05-2.88830E-05-3.09358E-06-1.10174E-18 8.59477E-19
 -1       857 9.33712E-05-2.59607E-05-2.88902E-05-2.45404E-06-3.70821E-19 1.61230E-19
 -1       858 9.38793E-05-2.65088E-05-2.88731E-05-1.91671E-06-6.91423E-19-1.58802E-18
 -1       859 9.42658E-05-2.69659E-05-2.88428E-05-1.47229E-06-9.71733E-19-2.05661E-18
 -1       860 9.45562E-05-2.73401E-05-2.88069E-05-1.11090E-06-1.26261E-18-7.83266E-19
 -1       861 9.47714E-05-2.76414E-05-2.87700E-05-8.22101E-07 2.22514E-20-6.44293E-19
 -1       862 9.49287E-05-2.78803E-05-2.87350E-05-5.95320E-07-3.50545E-19-5.78154E-19
 -1       863 9.50419E-05-2.80671E-05-2.87035E-05-4.20383E-07 5.24425E-19 3.51653E-19
 -1       864 9.51217E-05-2.82109E-05-2.86760E-05-2.87899E-07-7.37601E-20 1.48089E-18
 -1       865 9.51766E-05-2.83201E-05-2.86528E-05-1.89505E-07-6.36149E-19 2.26372E-18
 -1       866 9.52133E-05-2.84016E-05-2.86336E-05-1.17977E-07-1.25533E-18 1.05782E-18
 -1       867 9.52367E-05-2.84613E-05-2.86180E-05-6.72355E-08 1.20807E-18 1.25965E-19
 -1       868 9.52507E-05-2.85042E-05-2.86057E-05-3.22760E-08-9.36125E-19-7.98432E-19
 -1       869 9.52583E-05-2.85342E-05-2.85960E-05-9.06733E-09-1.36485E-18-2.48006E-19
 -1       870 9.52614E-05-2.85546E-05-2.85886E-05 5.57742E-09-2.02017E-18 1.12902E-18
 -1       871 9.52616E-05-2.85678E-05-2.85830E-05 1.41299E-08-6.89989E-19 1.83913E-18
 -1       872 9.52601E-05-2.85760E-05-2.85789E-05 1.84712E-08 5.09254E-19 1.39585E-18
 -1       873 9.52577E-05-2.85805E-05-2.85759E-05 2.00040E-08 1.20628E-18-8.82781E-20
 -1       874 9.52548E-05-2.85827E-05-2.85738E-05 1.97508E-08 5.55438E-19-2.34888E-18
 -1       875 9.52518E-05-2.85832E-05-2.85723E-05 1.84370E-08 2.30829E-18-2.74456E-18
 -1       876 9.52490E-05-2.85828E-05-2.85712E-05 1.65633E-08 1.73468E-18-2.32651E-18
 -1       877 9.52464E-05-2.85819E-05-2.85705E-05 1.44427E-08 1.98356E-18-5.92248E-19
 -1       878 1.07097E-04-4.05382E-05-2.85372E-05 8.53283E-06-4.85059E-19-1.83107E-18
 -1       879 1.13876E-04-4.52400E-05-2.94206E-05 5.42985E-06-8.45709E-20-1.90524E-18
 -1       880 9.80790E-05-3.20645E-05-2.82950E-05 9.12648E-06-1.03917E-18-3.96658E-19
 -1       881 9.58473E-05-2.94769E-05-2.84441E-05 8.26997E-06-6.60189E-19-7.29686E-19
 -1       882 9.46038E-05-2.78475E-05-2.86096E-05 7.21858E-06-7.84201E-19-3.80345E-19
 -1       883 9.40105E-05-2.69371E-05-2.87457E-05 6.14587E-06-1.37979E-18-1.24506E-20
 -1       884 9.38196E-05-2.65293E-05-2.88387E-05 5.13307E-06-8.19971E-19 7.33138E-19
 -1       885 9.38580E-05-2.64477E-05-2.88901E-05 4.21547E-06 2.36765E-19 1.35701E-18
 -1       886 9.40126E-05-2.65616E-05-2.89076E-05 3.40663E-06 9.78782E-19 4.15616E-19
 -1       887 9.42134E-05-2.67796E-05-2.89002E-05 2.70933E-06 3.79682E-19-2.77561E-21
 -1       888 9.44193E-05-2.70407E-05-2.88765E-05 2.12002E-06-3.99043E-19 2.61659E-19
 -1       889 9.46084E-05-2.73068E-05-2.88435E-05 1.63123E-06-4.50390E-19 8.01024E-19
 -1       890 9.47707E-05-2.75554E-05-2.88065E-05 1.23303E-06-1.37447E-18 1.14777E-18
 -1       891 9.49035E-05-2.77753E-05-2.87692E-05 9.14288E-07-8.80104E-19 6.71598E-19
 -1       892 9.50081E-05-2.79620E-05-2.87340E-05 6.63569E-07-4.53461E-19 4.38988E-19
 -1       893 9.50877E-05-2.81157E-05-2.87023E-05 4.69796E-07-1.62295E-19-1.67625E-18
 -1       894 9.51465E-05-2.82388E-05-2.86747E-05 3.22739E-07 1.45845E-18-7.07067E-21
 -1       895 9.51883E-05-2.83351E-05-2.86514E-05 2.13271E-07-1.07714E-18-6.36331E-19
 -1       896 9.52171E-05-2.84088E-05-2.86321E-05 1.33493E-07-6.23041E-19-2.09269E-18
 -1       897 9.52358E-05-2.84639E-05-2.86166E-05 7.67408E-08 1.00165E-18-1.43325E-18
 -1       898 9.52473E-05-2.85041E-05-2.86042E-05 3.75161E-08 9.24496E-19-4.04561E-19
 -1       899 9.52536E-05-2.85327E-05-2.85947E-05 1.13753E-08 1.66419E-18 5.56980E-19
 -1       900 9.52563E-05-2.85524E-05-2.85874E-05-5.20371E-09-9.96778E-19 1.64020E-18
 -1       901 9.52567E-05-2.85655E-05-2.85820E-05-1.49607E-08-8.57831E-19 2.35351E-18
 -1       902 9.52556E-05-2.85737E-05-2.85780E-05-1.99863E-08 8.88225E-20 7.22892E-19
 -1       903 9.52537E-05-2.85784E-05-2.85751E-05-2.18445E-08 1.24379E-18 3.13140E-19
 -1       904 9.52514E-05-2.85807E-05-2.85731E-05-2.16793E-08 1.34561E-18 1.02872E-18
 -1       905 9.52490E-05-2.85815E-05-2.85718E-05-2.03049E-08 4.64595E-19 1.66834E-18
 -1       906 9.52468E-05-2.85814E-05-2.85709E-05-1.82812E-08-9.30806E-19 1.06122E-18
 -1       907 9.52447E-05-2.85807E-05-2.85703E-05-1.59827E-08-1.63669E-18 1.75900E-19
 -1       908 9.52473E-05-2.85828E-05-2.85705E-05 1.07587E-08-2.62897E-19-3.22538E-18
 -1       909 8.79493E-05-3.32367E-05-2.33826E-05 2.32795E-05-1.36545E-18 1.16333E-18
 -1       910 1.20030E-04-4.79169E-05-3.09563E-05 1.32499E-06-4.27999E-19-1.67511E-18
 -1       911 9.52514E-05-2.85855E-05-2.85711E-05 2.36830E-09 1.68114E-18-1.83376E-18
 -1       912 1.21030E-04-4.27108E-05-3.35837E-05 6.75475E-06 4.70338E-19 1.28264E-18
 -1       913 1.01728E-04-3.58040E-05-2.82595E-05 9.44369E-06-7.49034E-19-1.68532E-18
 -1       914 1.22318E-04-4.42639E-05-3.34739E-05-6.83588E-06-1.73992E-19-1.72068E-18
 -1       915 1.05679E-04-4.40382E-05-2.63649E-05 1.82488E-05-5.54328E-19-1.46399E-18
 -1       916 9.52500E-05-2.85847E-05-2.85709E-05 6.90361E-09 1.06347E-18-2.84668E-18
 -1       917 1.15307E-04-4.03825E-05-3.21233E-05 3.06163E-06 3.76614E-19 2.59001E-19
 -1       918 7.82786E-05-2.57313E-05-2.24422E-05 2.08380E-05-1.59648E-18 1.50193E-18
 -1       919 6.17189E-05-1.58045E-05-1.95689E-05 1.27717E-05-1.04110E-18 2.28140E-18
 -1       920 9.52439E-05-2.85806E-05-2.85700E-05 1.32507E-08-9.74300E-19 1.06751E-18
 -1       921 9.52441E-05-2.85807E-05-2.85701E-05-1.37528E-08-3.35661E-19-5.71596E-19
 -1       922 9.52473E-05-2.85828E-05-2.85705E-05-1.07555E-08 4.15391E-19 2.89781E-18
 -1       923 5.70728E-05-1.38414E-05-1.83152E-05-8.83875E-06 2.12028E-19 2.15324E-18
 -1       924 9.52514E-05-2.85855E-05-2.85711E-05-2.38166E-09 1.19983E-18-4.77643E-20
 -1       925 9.16927E-05-2.57836E-05-2.82470E-05 6.78613E-06-1.47245E-18-1.79698E-19
 -1       926 7.70253E-05-1.84510E-05-2.51043E-05-8.32163E-06 3.71580E-19 1.43722E-18
 -1       927 8.09119E-05-1.92369E-05-2.64342E-05-6.41730E-06-6.52307E-19 2.04925E-18
 -1       928 8.39804E-05-2.02226E-05-2.73255E-05-5.21429E-06-2.37112E-19 1.26078E-18
 -1       929 8.64214E-05-2.12745E-05-2.79204E-05-4.34969E-06 4.97817E-19 9.92786E-19
 -1       930 8.83813E-05-2.23286E-05-2.83084E-05-3.65626E-06 1.02741E-18 1.57326E-18
 -1       931 8.99521E-05-2.33311E-05-2.85519E-05-3.06042E-06 5.36877E-19 9.34131E-19
 -1       932 9.12046E-05-2.42481E-05-2.86957E-05-2.53244E-06-2.86814E-19 8.74102E-20
 -1       933 9.21959E-05-2.50616E-05-2.87719E-05-2.06363E-06-1.34568E-18-1.54630E-19
 -1       934 9.29735E-05-2.57653E-05-2.88036E-05-1.65280E-06-1.49671E-18-3.61675E-19
 -1       935 9.35773E-05-2.63610E-05-2.88070E-05-1.29975E-06-1.10702E-18-9.50611E-20
 -1       936 9.40409E-05-2.68559E-05-2.87936E-05-1.00282E-06 2.13344E-20 1.78818E-19
 -1       937 9.43925E-05-2.72602E-05-2.87710E-05-7.58413E-07-7.37804E-19 1.25576E-19
 -1       938 9.46558E-05-2.75851E-05-2.87446E-05-5.61440E-07-7.85797E-20-8.17195E-19
 -1       939 9.48499E-05-2.78424E-05-2.87175E-05-4.05907E-07 3.11416E-19-6.48953E-19
 -1       940 9.49906E-05-2.80430E-05-2.86918E-05-2.85552E-07 1.15262E-18 4.74737E-20
 -1       941 9.50905E-05-2.81970E-05-2.86687E-05-1.94302E-07 1.66049E-19 4.68476E-19
 -1       942 9.51597E-05-2.83133E-05-2.86485E-05-1.26578E-07-7.32437E-19 1.35722E-18
 -1       943 9.52062E-05-2.83997E-05-2.86314E-05-7.74661E-08-1.91716E-19 2.19744E-18
 -1       944 9.52360E-05-2.84625E-05-2.86172E-05-4.27762E-08-8.59501E-19-1.81967E-19
 -1       945 9.52539E-05-2.85072E-05-2.86057E-05-1.90343E-08-7.66962E-19-4.18067E-19
 -1       946 9.52636E-05-2.85382E-05-2.85966E-05-3.42811E-09-1.45917E-18 6.36028E-19
 -1       947 9.52676E-05-2.85589E-05-2.85895E-05 6.26909E-09-2.45882E-19 7.75409E-19
 -1       948 9.52680E-05-2.85720E-05-2.85840E-05 1.17841E-08 4.35532E-19 1.29854E-18
 -1       949 9.52661E-05-2.85798E-05-2.85798E-05 1.44286E-08-1.03223E-18 9.81271E-19
 -1       950 9.52630E-05-2.85839E-05-2.85768E-05 1.51787E-08 7.26408E-20-1.00129E-18
 -1       951 9.52593E-05-2.85855E-05-2.85745E-05 1.47400E-08 7.37436E-20-1.15120E-18
 -1       952 9.52555E-05-2.85856E-05-2.85728E-05 1.36167E-08 2.09649E-18-1.75959E-18
 -1       953 9.52520E-05-2.85848E-05-2.85716E-05 1.21363E-08 2.38184E-18-3.08097E-18
 -1       954 9.19750E-05-2.67684E-05-2.79456E-05 8.36198E-06-1.10098E-18-7.26066E-19
 -1       955 9.30231E-05-2.86386E-05-2.75906E-05 1.02048E-05-8.08460E-19-1.58111E-18
 -1       956 9.18361E-05-2.53960E-05-2.84746E-05 5.47258E-06-8.59069E-19-8.49279E-19
 -1       957 9.21984E-05-2.53892E-05-2.86327E-05 4.38500E-06-1.69243E-19-1.57296E-18
 -1       958 9.26512E-05-2.56086E-05-2.87327E-05 3.48619E-06 3.54621E-19-1.08897E-18
 -1       959 9.31175E-05-2.59469E-05-2.87875E-05 2.74558E-06 1.69653E-19 4.85295E-19
 -1       960 9.35535E-05-2.63316E-05-2.88095E-05 2.13860E-06-8.67653E-19 1.21002E-18
 -1       961 9.39373E-05-2.67168E-05-2.88089E-05 1.64503E-06-3.53369E-19 1.24742E-18
 -1       962 9.42608E-05-2.70748E-05-2.87940E-05 1.24764E-06-5.94008E-19 2.96946E-20
 -1       963 9.45242E-05-2.73916E-05-2.87711E-05 9.31357E-07-8.17482E-19-3.24198E-19
 -1       964 9.47324E-05-2.76616E-05-2.87447E-05 6.82848E-07 1.72175E-19-1.32006E-18
 -1       965 9.48927E-05-2.78850E-05-2.87176E-05 4.90300E-07 4.20230E-19-1.63639E-18
 -1       966 9.50129E-05-2.80652E-05-2.86919E-05 3.43354E-07 3.37879E-19-1.31052E-18
 -1       967 9.51006E-05-2.82072E-05-2.86686E-05 2.33043E-07-2.41120E-19-6.84551E-19
 -1       968 9.51627E-05-2.83167E-05-2.86483E-05 1.51735E-07 5.63939E-19-7.55678E-19
 -1       969 9.52053E-05-2.83994E-05-2.86311E-05 9.30347E-08-4.95075E-19-4.53460E-19
 -1       970 9.52331E-05-2.84604E-05-2.86168E-05 5.16761E-08-1.77038E-19 1.98508E-19
 -1       971 9.52501E-05-2.85044E-05-2.86053E-05 2.33934E-08 8.18905E-20 1.53732E-18
 -1       972 9.52596E-05-2.85352E-05-2.85962E-05 4.78741E-09-8.96498E-19 4.17690E-18
 -1       973 9.52638E-05-2.85561E-05-2.85890E-05-6.80576E-09-4.02610E-19 3.04903E-18
 -1       974 9.52645E-05-2.85696E-05-2.85836E-05-1.34385E-08 1.28797E-18 1.18651E-18
 -1       975 9.52631E-05-2.85777E-05-2.85795E-05-1.66635E-08 1.34001E-18 7.15632E-19
 -1       976 9.52605E-05-2.85822E-05-2.85764E-05-1.76338E-08 1.46235E-18 3.30978E-19
 -1       977 9.52573E-05-2.85841E-05-2.85742E-05-1.71880E-08 1.29447E-19 3.63161E-19
 -1       978 9.52539E-05-2.85845E-05-2.85726E-05-1.59133E-08-1.26671E-18 1.58933E-18
 -1       979 9.52507E-05-2.85839E-05-2.85715E-05-1.42248E-08-5.23417E-19 1.99076E-18
 -1       980 9.52500E-05-2.85846E-05-2.85709E-05-6.92823E-09 1.39946E-18 1.33964E-18
 -1       981 9.82977E-05-3.63818E-05-2.65322E-05 1.55763E-05-2.58522E-19-7.35347E-19
 -1       982 7.19853E-05-1.78798E-05-2.31543E-05-1.16415E-05 8.48542E-19 1.02077E-18
 -1       983 9.52490E-05-2.85834E-05-2.85710E-05-1.24750E-08 9.26038E-19 1.77376E-18
 -1       984 9.52523E-05-2.85854E-05-2.85715E-05-8.27310E-09-1.86445E-19 1.77553E-18
 -1       985 6.15340E-05-1.36516E-05-2.04498E-05 2.64933E-06-4.10660E-19 2.08573E-18
 -1       986 9.52551E-05-2.85869E-05-2.85721E-05-1.63859E-11 3.82921E-19 6.36383E-19
 -1       987 9.46762E-05-3.15398E-05-2.70518E-05 1.26875E-05-1.29616E-18-6.79242E-19
 -1       988 8.91319E-05-3.00861E-05-2.52690E-05 1.72448E-05-1.13650E-18 1.13061E-18
 -1       989 9.52543E-05-2.85865E-05-2.85719E-05 5.32023E-09 1.40028E-18-4.10501E-18
 -1       990 8.05617E-05-1.87284E-05-2.65018E-05-1.97799E-06-1.00929E-18 5.03209E-19
 -1       991 8.37671E-05-1.99981E-05-2.73307E-05-1.88985E-06-8.58681E-21 7.77910E-19
 -1       992 8.62717E-05-2.12003E-05-2.78885E-05-1.79128E-06 9.68068E-19 8.14495E-19
 -1       993 8.82530E-05-2.23205E-05-2.82573E-05-1.65491E-06 3.77422E-20-4.00644E-20
 -1       994 8.98341E-05-2.33486E-05-2.84941E-05-1.48157E-06-1.04605E-19-7.66742E-19
 -1       995 9.10973E-05-2.42737E-05-2.86390E-05-1.28560E-06-9.31643E-19-7.50931E-19
 -1       996 9.21023E-05-2.50885E-05-2.87204E-05-1.08330E-06-1.18937E-18-3.60377E-19
 -1       997 9.28957E-05-2.57914E-05-2.87592E-05-8.88271E-07-8.27533E-19-1.68106E-19
 -1       998 9.35159E-05-2.63860E-05-2.87701E-05-7.09939E-07-1.56287E-19 3.42108E-19
 -1       999 9.39951E-05-2.68799E-05-2.87638E-05-5.53641E-07-1.19193E-18-5.86050E-19
 -1      1000 9.43604E-05-2.72830E-05-2.87476E-05-4.21389E-07 1.89026E-20 1.55843E-19
 -1      1001 9.46350E-05-2.76068E-05-2.87265E-05-3.12813E-07-4.34878E-19 6.95102E-19
 -1      1002 9.48380E-05-2.78626E-05-2.87038E-05-2.26045E-07 1.62762E-18-1.18768E-18
 -1      1003 9.49852E-05-2.80615E-05-2.86816E-05-1.58414E-07 1.54498E-18-2.87286E-19
 -1      1004 9.50897E-05-2.82136E-05-2.86612E-05-1.06954E-07 9.26304E-19 7.14241E-19
 -1      1005 9.51619E-05-2.83279E-05-2.86432E-05-6.87429E-08-4.76325E-19 9.42101E-19
 -1      1006 9.52101E-05-2.84123E-05-2.86277E-05-4.10945E-08-2.08179E-18-4.71910E-19
 -1      1007 9.52408E-05-2.84731E-05-2.86147E-05-2.16635E-08-9.31057E-19-8.95828E-19
 -1      1008 9.52590E-05-2.85160E-05-2.86041E-05-8.47582E-09-2.30568E-19-7.61631E-19
 -1      1009 9.52684E-05-2.85453E-05-2.85956E-05 8.00725E-11-1.15384E-18-4.57845E-19
 -1      1010 9.52720E-05-2.85645E-05-2.85889E-05 5.28536E-09 3.82584E-19 1.21152E-18
 -1      1011 9.52718E-05-2.85765E-05-2.85837E-05 8.13414E-09 6.52632E-20 6.40668E-19
 -1      1012 9.52693E-05-2.85832E-05-2.85797E-05 9.37920E-09-1.56107E-18 1.24194E-18
 -1      1013 9.52656E-05-2.85865E-05-2.85768E-05 9.58385E-09-5.15470E-19 4.74956E-19
 -1      1014 9.52613E-05-2.85874E-05-2.85745E-05 9.14115E-09 5.86064E-19-5.91528E-19
 -1      1015 9.52570E-05-2.85870E-05-2.85729E-05 8.37330E-09 7.47160E-19-3.16346E-18
 -1      1016 8.87495E-05-2.42213E-05-2.76571E-05 7.08480E-06-1.68620E-18 6.44320E-19
 -1      1017 7.00830E-05-1.55084E-05-2.33752E-05-2.36720E-06 4.20677E-19 7.58915E-19
 -1      1018 8.94641E-05-2.40147E-05-2.80507E-05 5.45349E-06-7.17556E-19 4.93384E-19
 -1      1019 8.83403E-05-2.50352E-05-2.71331E-05 9.24937E-06-1.34344E-18 4.78377E-19
 -1      1020 9.11173E-05-2.45550E-05-2.85271E-05 3.25331E-06-2.61108E-19-1.28046E-19
 -1      1021 9.18961E-05-2.50436E-05-2.86514E-05 2.50730E-06-2.41494E-19-3.09674E-20
 -1      1022 9.25908E-05-2.55686E-05-2.87241E-05 1.92304E-06-2.74349E-19 2.77256E-19
 -1      1023 9.31879E-05-2.60823E-05-2.87598E-05 1.46431E-06-1.01459E-18 1.10061E-19
 -1      1024 9.36857E-05-2.65558E-05-2.87701E-05 1.10450E-06-6.28107E-19 9.24183E-19
 -1      1025 9.40899E-05-2.69740E-05-2.87641E-05 8.23400E-07-2.87230E-19 1.25255E-18
 -1      1026 9.44104E-05-2.73311E-05-2.87484E-05 6.05236E-07 4.26389E-19 2.09040E-19
 -1      1027 9.46588E-05-2.76279E-05-2.87276E-05 4.37402E-07 1.87248E-19 1.20239E-19
 -1      1028 9.48471E-05-2.78686E-05-2.87051E-05 3.09672E-07-4.19454E-19-2.27838E-21
 -1      1029 9.49865E-05-2.80597E-05-2.86830E-05 2.13690E-07-4.30675E-19 1.84355E-19
 -1      1030 9.50872E-05-2.82083E-05-2.86625E-05 1.42623E-07-8.55945E-19 4.88485E-19
 -1      1031 9.51578E-05-2.83214E-05-2.86442E-05 9.09042E-08-2.33687E-19 9.63638E-19
 -1      1032 9.52057E-05-2.84059E-05-2.86285E-05 5.40281E-08-2.56419E-19 6.53053E-19
 -1      1033 9.52366E-05-2.84675E-05-2.86154E-05 2.83825E-08-9.02364E-19 8.75389E-19
 -1      1034 9.52553E-05-2.85113E-05-2.86046E-05 1.11027E-08-1.57371E-18 1.17188E-18
 -1      1035 9.52653E-05-2.85415E-05-2.85959E-05-5.53282E-11-6.85441E-19 1.74995E-18
 -1      1036 9.52695E-05-2.85615E-05-2.85891E-05-6.82597E-09 1.42824E-18 1.86306E-18
 -1      1037 9.52698E-05-2.85742E-05-2.85838E-05-1.05295E-08 1.24630E-18 2.02797E-18
 -1      1038 9.52678E-05-2.85816E-05-2.85798E-05-1.21521E-08 1.50866E-18 3.30262E-18
 -1      1039 9.52644E-05-2.85853E-05-2.85768E-05-1.24191E-08-5.65168E-20 3.46759E-18
 -1      1040 9.52605E-05-2.85865E-05-2.85745E-05-1.18702E-08-4.69284E-19 3.39689E-18
 -1      1041 9.52564E-05-2.85863E-05-2.85729E-05-1.08346E-08-6.91092E-19 1.95395E-18
 -1      1042 9.52543E-05-2.85860E-05-2.85722E-05-9.55126E-09-1.48544E-18 1.58847E-18
 -1      1043 9.52542E-05-2.85865E-05-2.85719E-05-4.30330E-09 4.57668E-19 3.49348E-20
 -1      1044 9.02865E-05-2.41764E-05-2.83335E-05 4.21160E-06-3.45053E-19-5.17788E-19
 -1      1045 7.22099E-05-1.87343E-05-2.28787E-05 1.22531E-05-5.97746E-19 1.18066E-18
 -1      1046 7.62666E-05-1.73083E-05-2.52664E-05-2.12343E-06 3.64515E-19 8.05302E-20
 -1      1047 8.77115E-05-2.64124E-05-2.62850E-05 1.23574E-05-9.52937E-20 1.29925E-18
 -1      1048 9.52585E-05-2.85878E-05-2.85732E-05-2.91251E-09-7.75018E-19-5.41443E-19
 -1      1049 9.52586E-05-2.85878E-05-2.85732E-05 2.80638E-09-4.83818E-19-2.93651E-19
 -1      1050 8.48883E-05-2.06955E-05-2.75127E-05 8.54906E-07 3.23480E-19 1.16116E-18
 -1      1051 8.70565E-05-2.17591E-05-2.79858E-05 3.48302E-07-1.31765E-19 6.68005E-19
 -1      1052 8.88079E-05-2.27698E-05-2.83029E-05 4.24288E-08-3.50501E-19-5.39717E-19
 -1      1053 9.02301E-05-2.37110E-05-2.85087E-05-1.27305E-07-4.91802E-19-6.76547E-19
 -1      1054 9.13824E-05-2.45663E-05-2.86358E-05-2.07286E-07-1.06988E-18-1.06164E-18
 -1      1055 9.23094E-05-2.53250E-05-2.87079E-05-2.30905E-07-1.66387E-18-4.24829E-19
 -1      1056 9.30477E-05-2.59825E-05-2.87424E-05-2.21655E-07-5.19642E-19-7.91764E-19
 -1      1057 9.36285E-05-2.65403E-05-2.87522E-05-1.95452E-07-1.36574E-19-9.44262E-19
 -1      1058 9.40792E-05-2.70041E-05-2.87465E-05-1.62553E-07-2.08530E-19-5.36836E-20
 -1      1059 9.44237E-05-2.73827E-05-2.87319E-05-1.29149E-07-1.50372E-19-4.94012E-19
 -1      1060 9.46828E-05-2.76863E-05-2.87128E-05-9.86273E-08-2.14090E-19 1.06426E-18
 -1      1061 9.48741E-05-2.79256E-05-2.86922E-05-7.25386E-08 1.02079E-18 9.12157E-19
 -1      1062 9.50124E-05-2.81109E-05-2.86721E-05-5.12992E-08 3.86304E-19-9.94762E-19
 -1      1063 9.51101E-05-2.82520E-05-2.86535E-05-3.46774E-08-1.27880E-19-1.95894E-18
 -1      1064 9.51770E-05-2.83574E-05-2.86370E-05-2.21180E-08-1.21470E-18-1.55765E-18
 -1      1065 9.52212E-05-2.84345E-05-2.86228E-05-1.29444E-08-1.29754E-18 4.27553E-20
 -1      1066 9.52487E-05-2.84897E-05-2.86110E-05-6.47853E-09-3.71803E-19 3.58101E-19
 -1      1067 9.52645E-05-2.85281E-05-2.86013E-05-2.10430E-09-8.35575E-19 4.65932E-19
 -1      1068 9.52721E-05-2.85539E-05-2.85935E-05 7.04886E-10-2.76728E-19-3.71534E-19
 -1      1069 9.52744E-05-2.85705E-05-2.85874E-05 2.37981E-09-5.31329E-19-1.09805E-18
 -1      1070 9.52732E-05-2.85805E-05-2.85826E-05 3.26201E-09-8.06648E-19-1.96798E-18
 -1      1071 9.52700E-05-2.85858E-05-2.85789E-05 3.61628E-09-6.24331E-19-7.63253E-19
 -1      1072 9.52656E-05-2.85879E-05-2.85762E-05 3.62398E-09-4.92023E-19-2.42981E-19
 -1      1073 9.52622E-05-2.85883E-05-2.85745E-05 3.24604E-09-1.50443E-18 4.85005E-19
 -1      1074 7.86472E-05-1.84368E-05-2.58108E-05 2.85244E-06 3.05516E-19-2.69763E-19
 -1      1075 8.66937E-05-2.23633E-05-2.75691E-05 4.92309E-06-8.78730E-19-5.93108E-19
 -1      1076 9.52567E-05-2.85871E-05-2.85727E-05-6.36857E-09-4.43040E-19 3.03152E-18
 -1      1077 8.51378E-05-2.21855E-05-2.69784E-05 6.74771E-06-4.46070E-19 1.46502E-18
 -1      1078 9.15825E-05-2.47842E-05-2.86273E-05 1.45049E-06-8.11313E-19-2.23576E-19
 -1      1079 9.06016E-05-2.41002E-05-2.84998E-05 1.96118E-06-3.85154E-19-9.53083E-19
 -1      1080 9.30851E-05-2.60266E-05-2.87391E-05 7.89215E-07-1.11222E-18 6.02344E-19
 -1      1081 9.36334E-05-2.65467E-05-2.87512E-05 5.77857E-07-7.86203E-19 5.99705E-19
 -1      1082 9.40681E-05-2.69907E-05-2.87473E-05 4.19570E-07 6.16524E-19 6.97988E-19
 -1      1083 9.44063E-05-2.73605E-05-2.87338E-05 3.01193E-07 5.12501E-19 1.09911E-18
 -1      1084 9.46643E-05-2.76617E-05-2.87153E-05 2.13002E-07 2.81764E-19 7.24324E-19
 -1      1085 9.48571E-05-2.79022E-05-2.86949E-05 1.47712E-07-3.03204E-19-2.63713E-19
 -1      1086 9.49982E-05-2.80904E-05-2.86747E-05 9.98060E-08-4.67521E-19-2.53984E-19
 -1      1087 9.50988E-05-2.82349E-05-2.86559E-05 6.50687E-08-2.35712E-19-9.53660E-19
 -1      1088 9.51684E-05-2.83438E-05-2.86391E-05 4.02599E-08 2.82774E-20-9.96745E-19
 -1      1089 9.52148E-05-2.84240E-05-2.86246E-05 2.28826E-08-5.40968E-19-1.20146E-18
 -1      1090 9.52443E-05-2.84818E-05-2.86125E-05 1.10132E-08-2.84276E-19-1.24319E-18
 -1      1091 9.52615E-05-2.85224E-05-2.86025E-05 3.17441E-09-1.42701E-18-1.63708E-18
 -1      1092 9.52702E-05-2.85499E-05-2.85944E-05-1.76169E-09-6.82394E-19-1.93158E-18
 -1      1093 9.52733E-05-2.85678E-05-2.85881E-05-4.64910E-09 1.94289E-19 2.91156E-19
 -1      1094 9.52726E-05-2.85787E-05-2.85831E-05-6.12849E-09-3.89388E-19 1.08109E-18
 -1      1095 9.52698E-05-2.85847E-05-2.85793E-05-6.67827E-09 1.11398E-19 2.14137E-18
 -1      1096 9.52658E-05-2.85874E-05-2.85765E-05-6.60110E-09-2.62999E-19 1.68948E-18
 -1      1097 9.24064E-05-2.54347E-05-2.87017E-05 1.07170E-06-4.59005E-19-6.20683E-20
 -1      1098 8.94573E-05-2.34237E-05-2.82991E-05 2.65487E-06-5.19913E-19-6.14431E-19
 -1      1099 7.52208E-05-1.80033E-05-2.45200E-05 6.44955E-06-5.05646E-19 6.20758E-19
 -1      1100 8.10286E-05-2.20088E-05-2.52801E-05 1.07419E-05-6.57059E-19 2.01356E-18
 -1      1101 8.21534E-05-1.95780E-05-2.68187E-05 1.65658E-06 2.68990E-19 1.01101E-18
 -1      1102 8.81504E-05-2.28154E-05-2.79994E-05 3.60577E-06 6.41716E-20-5.18464E-19
 -1      1103 9.52612E-05-2.85879E-05-2.85743E-05-6.15584E-09-2.40816E-19 2.23534E-18
 -1      1104 8.33458E-05-2.20678E-05-2.62565E-05 8.45472E-06-7.41983E-19 2.79651E-18
 -1      1105 9.52642E-05-2.85884E-05-2.85753E-05-1.45660E-09-7.88899E-19-8.81488E-19
 -1      1106 8.11584E-05-2.07801E-05-2.58714E-05 7.56548E-06-8.52539E-19 1.49374E-18
 -1      1107 1.38436E-04 3.24803E-10-5.00829E-05-4.18799E-05-2.66815E-19 9.50286E-18
 -1      1108 1.05485E-04 1.04438E-10-4.38502E-05-1.78372E-05-1.42725E-19 1.86781E-18
 -1      1109 9.40523E-05 5.91913E-11-3.97669E-05-8.32233E-06-1.08844E-19-1.52083E-18
 -1      1110 8.47262E-05 3.66872E-11-3.60687E-05-2.91970E-06-6.71274E-20-3.20000E-18
 -1      1111 7.63568E-05 1.73823E-11-3.27208E-05-2.63493E-08-4.84926E-20-4.15415E-18
 -1      1112 6.93735E-05-1.70277E-13-2.99520E-05 6.19251E-07-2.45640E-20-4.64460E-18
 -1      1113 6.45457E-05-1.29210E-11-2.80387E-05-5.99791E-07-1.39760E-20-4.90270E-18
 -1      1114 6.25435E-05-1.66027E-11-2.72210E-05-2.82966E-06-9.18501E-21-4.93708E-18
 -1      1115 6.35860E-05-9.96857E-12-2.75723E-05-4.85994E-06 6.35275E-21-4.84505E-18
 -1      1116 6.71294E-05 3.93784E-12-2.88966E-05-5.59148E-06 1.83171E-20-4.61503E-18
 -1      1117 7.21657E-05 1.97879E-11-3.08345E-05-4.45513E-06 3.12343E-20-4.26088E-18
 -1      1118 7.76250E-05 3.30372E-11-3.29935E-05-1.53441E-06 3.82224E-20-3.80179E-18
 -1      1119 8.28824E-05 4.24615E-11-3.51409E-05 2.76029E-06 5.86570E-20-3.17733E-18
 -1      1120 8.78806E-05 4.95070E-11-3.72391E-05 8.03452E-06 7.67624E-20-2.08941E-18
 -1      1121 9.31361E-05 5.93890E-11-3.94397E-05 1.42072E-05 1.12655E-19-1.18505E-19
 -1      1122 1.00491E-04 8.73149E-11-4.22165E-05 2.24241E-05 1.29596E-19 3.58361E-18
 -1      1123 1.21899E-04 1.97538E-10-4.64755E-05 3.78019E-05 2.82909E-19 1.12096E-17
 -1      1124 1.56977E-04-3.24801E-05-4.91650E-05-2.66813E-05-1.06620E-18 1.43064E-17
 -1      1125 1.29849E-04-3.85967E-05-4.14244E-05 1.80637E-07-3.62265E-19 1.19350E-17
 -1      1126 1.27665E-04-3.82599E-05-3.88987E-05 6.50149E-07-1.19538E-19 8.64413E-18
 -1      1127 1.27926E-04-3.84088E-05-3.81646E-05 2.91313E-07-1.12331E-19 6.34764E-18
 -1      1128 1.26058E-04-3.77901E-05-3.73279E-05-9.26544E-08 1.13158E-21 4.89703E-18
 -1      1129 1.19927E-04-3.59048E-05-3.54608E-05-5.69564E-07-2.93815E-21 4.55005E-18
 -1      1130 1.09043E-04-3.26618E-05-3.24825E-05-1.00058E-06-5.01569E-20 3.67729E-18
 -1      1131 9.59870E-05-2.88523E-05-2.91440E-05-1.06053E-06 1.92501E-20 2.40176E-18
 -1      1132 8.62641E-05-2.60609E-05-2.67640E-05-5.28779E-07-3.06917E-20 8.36710E-19
 -1      1133 8.50642E-05-2.57161E-05-2.64781E-05 3.59326E-07-2.48816E-20-1.47638E-18
 -1      1134 9.30902E-05-2.80089E-05-2.84332E-05 1.03052E-06-4.28744E-20-4.32834E-18
 -1      1135 1.05918E-04-3.17224E-05-3.16706E-05 1.12734E-06 2.75881E-20-4.25613E-18
 -1      1136 1.17610E-04-3.51645E-05-3.48024E-05 7.78603E-07 5.36807E-20-4.83328E-18
 -1      1137 1.24546E-04-3.72477E-05-3.68376E-05 3.25885E-07-5.35748E-20-3.80874E-18
 -1      1138 1.26296E-04-3.78041E-05-3.75124E-05-4.64462E-09-1.86744E-20-2.77722E-18
 -1      1139 1.24293E-04-3.72396E-05-3.70960E-05-1.66997E-07-1.68033E-19-2.93889E-18
 -1      1140 1.20320E-04-3.60781E-05-3.60419E-05-2.09321E-07-1.86513E-20-3.78359E-18
 -1      1141 1.15738E-04-3.47252E-05-3.47453E-05-1.90657E-07-1.32699E-19-3.41561E-18
 -1      1142 1.11351E-04-3.34222E-05-3.34625E-05-1.50937E-07 1.00213E-19-4.83651E-18
 -1      1143 1.07532E-04-3.22828E-05-3.23243E-05-1.10306E-07-9.20619E-20-5.96650E-18
 -1      1144 1.04391E-04-3.13421E-05-3.13772E-05-7.63921E-08 1.35577E-19-4.47478E-18
 -1      1145 1.01902E-04-3.05942E-05-3.06212E-05-5.06613E-08 1.59911E-20-2.77839E-18
 -1      1146 9.99821E-05-3.00154E-05-3.00352E-05-3.21669E-08 8.18313E-20-8.37769E-20
 -1      1147 9.85316E-05-2.95771E-05-2.95911E-05-1.93351E-08-4.47033E-20-1.86503E-19
 -1      1148 9.74563E-05-2.92514E-05-2.92610E-05-1.06746E-08-8.07535E-20-1.60438E-18
 -1      1149 9.66736E-05-2.90137E-05-2.90202E-05-4.98549E-09 3.47317E-20-3.34830E-18
 -1      1150 9.61152E-05-2.88437E-05-2.88479E-05-1.36915E-09 2.79485E-19-3.19889E-18
 -1      1151 9.57257E-05-2.87248E-05-2.87275E-05 8.24015E-10 6.07746E-20-3.18155E-18
 -1      1152 9.54617E-05-2.86439E-05-2.86455E-05 2.05518E-09 1.33870E-19-3.28119E-18
 -1      1153 9.52894E-05-2.85909E-05-2.85917E-05 2.64864E-09 1.55626E-19-1.47921E-18
 -1      1154 9.51828E-05-2.85578E-05-2.85582E-05 2.83094E-09-4.57519E-19-2.36847E-18
 -1      1155 9.51224E-05-2.85389E-05-2.85389E-05 2.75919E-09 2.91818E-19-3.08651E-18
 -1      1156 9.50935E-05-2.85296E-05-2.85294E-05 2.54115E-09-1.40761E-20-2.67577E-18
 -1      1157 9.50853E-05-2.85266E-05-2.85264E-05 2.24957E-09-9.80157E-20-2.89511E-18
 -1      1158 9.50902E-05-2.85277E-05-2.85275E-05 1.93229E-09 4.97725E-21-3.83065E-18
 -1      1159 9.51026E-05-2.85312E-05-2.85309E-05 1.61958E-09 1.87303E-19-1.85245E-18
 -1      1160 9.51187E-05-2.85359E-05-2.85356E-05 1.32944E-09 6.34767E-20-2.57585E-18
 -1      1161 9.51362E-05-2.85410E-05-2.85407E-05 1.07139E-09 9.94002E-21-2.39383E-18
 -1      1162 9.51533E-05-2.85460E-05-2.85458E-05 8.49319E-10 2.55663E-19-2.22373E-18
 -1      1163 9.51692E-05-2.85508E-05-2.85506E-05 6.63444E-10-1.97361E-19-2.11712E-18
 -1      1164 9.51834E-05-2.85550E-05-2.85548E-05 5.11758E-10-2.96884E-20-1.15262E-18
 -1      1165 9.51958E-05-2.85587E-05-2.85586E-05 3.90991E-10-1.90657E-19-1.53375E-18
 -1      1166 9.52063E-05-2.85618E-05-2.85617E-05 2.97201E-10-2.62597E-19-2.88317E-18
 -1      1167 9.52151E-05-2.85645E-05-2.85644E-05 2.26019E-10-3.43204E-19-2.44727E-18
 -1      1168 9.52223E-05-2.85666E-05-2.85666E-05 1.72473E-10 4.68474E-19-1.28214E-18
 -1      1169 9.52281E-05-2.85684E-05-2.85683E-05 1.30146E-10 1.94315E-19 2.90543E-18
 -1      1170 9.52325E-05-2.85697E-05-2.85696E-05 8.91203E-11 8.41809E-21 3.33904E-18
 -1      1171 9.52356E-05-2.85706E-05-2.85706E-05 3.08247E-11-1.21700E-19 2.44511E-18
 -1      1172 9.52372E-05-2.85711E-05-2.85711E-05-8.10127E-11 3.08670E-21 1.03526E-18
 -1      1173 9.52374E-05-2.85712E-05-2.85713E-05-9.30057E-11 2.69586E-19 8.74482E-19
 -1      1174 1.49923E-04-4.30109E-05-4.46667E-05 1.30085E-05-1.88200E-19 1.74760E-17
 -1      1175 1.16040E-04-3.39297E-05-3.72695E-05 5.87768E-07 1.11094E-19 1.43096E-17
 -1      1176 1.10522E-04-3.29296E-05-3.37655E-05-5.21689E-08 6.55524E-20 1.10661E-17
 -1      1177 1.07202E-04-3.21289E-05-3.21147E-05-8.85606E-08 9.50579E-20 8.77923E-18
 -1      1178 1.03337E-04-3.10168E-05-3.08123E-05-1.19895E-08-6.82424E-21 7.66055E-18
 -1      1179 9.82022E-05-2.95020E-05-2.93128E-05 1.26114E-07 6.19806E-21 6.61146E-18
 -1      1180 9.21897E-05-2.77221E-05-2.76453E-05 2.72399E-07-1.18369E-19 5.88111E-18
 -1      1181 8.65815E-05-2.60458E-05-2.61417E-05 3.56746E-07-5.23440E-20 5.45013E-18
 -1      1182 8.30604E-05-2.49669E-05-2.52290E-05 3.21081E-07 5.24763E-20 4.45219E-18
 -1      1183 8.28928E-05-2.48775E-05-2.52136E-05 1.64218E-07 1.16927E-19 2.86015E-18
 -1      1184 8.62157E-05-2.58424E-05-2.61200E-05-4.86220E-08 6.86725E-20 6.76515E-19
 -1      1185 9.19337E-05-2.75491E-05-2.76726E-05-2.26541E-07-6.35432E-20-1.18796E-19
 -1      1186 9.82991E-05-2.94686E-05-2.94282E-05-3.10433E-07 5.64948E-20 3.81535E-19
 -1      1187 1.03737E-04-3.11150E-05-3.09679E-05-2.98547E-07-6.83020E-20 4.03929E-19
 -1      1188 1.07362E-04-3.22127E-05-3.20339E-05-2.27009E-07 1.91906E-19-7.09893E-19
 -1      1189 1.09023E-04-3.27145E-05-3.25589E-05-1.38004E-07 2.49263E-20-1.97844E-18
 -1      1190 1.09055E-04-3.27231E-05-3.26144E-05-5.99299E-08-8.41143E-20-1.55404E-18
 -1      1191 1.07979E-04-3.23977E-05-3.23365E-05-4.32355E-09 7.74406E-21-1.80112E-18
 -1      1192 1.06296E-04-3.18908E-05-3.18664E-05 2.87075E-08-8.91754E-20-4.88751E-19
 -1      1193 1.04394E-04-3.13194E-05-3.13189E-05 4.41785E-08 1.02961E-19 1.98153E-19
 -1      1194 1.02532E-04-3.07604E-05-3.07730E-05 4.80155E-08-1.25066E-19-3.72661E-19
 -1      1195 1.00854E-04-3.02570E-05-3.02752E-05 4.51565E-08-6.25764E-20-4.85985E-19
 -1      1196 9.94252E-05-2.98287E-05-2.98479E-05 3.90776E-08-6.25187E-20-3.53808E-19
 -1      1197 9.82599E-05-2.94793E-05-2.94971E-05 3.19592E-08 1.10800E-19-2.66713E-18
 -1      1198 9.73419E-05-2.92040E-05-2.92193E-05 2.50308E-08-1.20043E-19-2.77092E-18
 -1      1199 9.66405E-05-2.89936E-05-2.90060E-05 1.88961E-08 1.14331E-20-2.17850E-19
 -1      1200 9.61201E-05-2.88374E-05-2.88472E-05 1.37793E-08 2.18982E-19-8.12126E-20
 -1      1201 9.57454E-05-2.87249E-05-2.87323E-05 9.69263E-09-1.30036E-19-2.29780E-18
 -1      1202 9.54845E-05-2.86465E-05-2.86519E-05 6.54099E-09-5.47304E-21-2.57518E-18
 -1      1203 9.53100E-05-2.85940E-05-2.85978E-05 4.18531E-09-3.01753E-19-3.61985E-19
 -1      1204 9.51995E-05-2.85606E-05-2.85633E-05 2.47770E-09 1.15831E-21 1.34309E-18
 -1      1205 9.51350E-05-2.85411E-05-2.85429E-05 1.27988E-09 8.70478E-20 7.96873E-19
 -1      1206 9.51025E-05-2.85313E-05-2.85323E-05 4.71396E-10 7.12520E-21 2.35928E-18
 -1      1207 9.50916E-05-2.85279E-05-2.85285E-05-4.77997E-11-6.51032E-20 4.58424E-18
 -1      1208 9.50944E-05-2.85286E-05-2.85289E-05-3.57968E-10-1.24595E-19 4.88568E-18
 -1      1209 9.51053E-05-2.85318E-05-2.85319E-05-5.21663E-10-8.04803E-20 2.30493E-18
 -1      1210 9.51205E-05-2.85363E-05-2.85362E-05-5.86413E-10 5.46372E-19-4.18507E-18
 -1      1211 9.51372E-05-2.85413E-05-2.85412E-05-5.87466E-10-3.06722E-20-3.12441E-18
 -1      1212 9.51539E-05-2.85463E-05-2.85461E-05-5.50333E-10-2.70195E-21-2.16541E-18
 -1      1213 9.51696E-05-2.85509E-05-2.85508E-05-4.93016E-10 2.28675E-19-3.41801E-18
 -1      1214 9.51836E-05-2.85551E-05-2.85550E-05-4.27866E-10-4.81409E-19-1.08919E-18
 -1      1215 9.51959E-05-2.85588E-05-2.85586E-05-3.63112E-10-4.17773E-19 7.02330E-19
 -1      1216 9.52063E-05-2.85619E-05-2.85618E-05-3.04061E-10-2.60689E-19 1.36405E-19
 -1      1217 9.52151E-05-2.85645E-05-2.85644E-05-2.53937E-10-3.39054E-20-1.98264E-18
 -1      1218 9.52223E-05-2.85667E-05-2.85666E-05-2.14268E-10-5.17637E-19-3.09130E-18
 -1      1219 9.52281E-05-2.85684E-05-2.85683E-05-1.85003E-10 1.72377E-19-3.05978E-18
 -1      1220 9.52325E-05-2.85697E-05-2.85696E-05-1.62852E-10 3.08296E-19-6.48070E-18
 -1      1221 9.52356E-05-2.85707E-05-2.85706E-05-1.31604E-10-2.97293E-19-6.95794E-18
 -1      1222 9.52372E-05-2.85712E-05-2.85711E-05-4.52949E-11 9.40505E-19-9.59280E-18
 -1      1223 9.52374E-05-2.85712E-05-2.85713E-05 8.33522E-11 1.30304E-19-7.96717E-18
 -1      1224 9.52371E-05-2.85709E-05-2.85713E-05 8.08146E-11-8.53075E-18-7.75966E-19
 -1      1225 9.52372E-05-2.85711E-05-2.85711E-05 6.66935E-11-9.93769E-18 3.00696E-19
 -1      1226 9.52377E-05-2.85727E-05-2.85706E-05-7.11098E-11 5.91951E-19 1.43061E-19
 -1      1227 9.52385E-05-2.85755E-05-2.85698E-05-1.34020E-10-1.12960E-19-3.51240E-20
 -1      1228 9.52395E-05-2.85789E-05-2.85688E-05-1.50134E-10-1.13692E-18 3.73314E-19
 -1      1229 9.52404E-05-2.85822E-05-2.85679E-05-1.34827E-10-2.89361E-18-4.56780E-19
 -1      1230 9.52412E-05-2.85849E-05-2.85671E-05-1.01723E-10-5.64192E-18 3.27210E-19
 -1      1231 9.52417E-05-2.85867E-05-2.85666E-05-5.36867E-11-5.56293E-18 5.07945E-19
 -1      1232 9.52419E-05-2.85873E-05-2.85664E-05 4.75704E-13-1.39653E-18 5.80648E-19
 -1      1233 9.52417E-05-2.85866E-05-2.85666E-05 5.46217E-11 3.26610E-18 1.44084E-18
 -1      1234 9.52412E-05-2.85848E-05-2.85671E-05 1.02380E-10-2.47779E-19-1.26354E-18
 -1      1235 9.52404E-05-2.85821E-05-2.85679E-05 1.37195E-10-9.08940E-18-6.50715E-20
 -1      1236 9.52394E-05-2.85788E-05-2.85688E-05 1.50380E-10-1.26680E-17 6.51503E-19
 -1      1237 9.52385E-05-2.85755E-05-2.85698E-05 1.35626E-10-1.15214E-17-1.95147E-19
 -1      1238 9.52376E-05-2.85727E-05-2.85706E-05 8.53227E-11-8.92495E-18 5.20290E-19
 -1      1239 9.52372E-05-2.85712E-05-2.85711E-05-1.30560E-10-3.31798E-18-5.23052E-19
 -1      1240 9.52371E-05-2.85709E-05-2.85713E-05-9.31233E-11-6.99547E-20 4.05530E-19
 -1      1241 3.18982E-05-1.01335E-04 1.67993E-05-1.31402E-05 8.32295E-18 2.25189E-18
 -1      1242 1.58268E-05-5.82205E-05 7.71782E-06-2.21053E-05 1.54558E-17 5.97201E-18
 -1      1243 7.59583E-06-4.92887E-06-7.19754E-06 2.66132E-06 1.77267E-17 1.06303E-17
 -1      1244 3.44025E-05 2.58764E-05-2.64597E-05 5.44083E-05 1.67543E-17 1.59496E-17
 -1      1245 1.03784E-04 1.57119E-05-4.62338E-05 1.01702E-04 1.15408E-17 1.58395E-17
 -1      1246 1.95729E-04-2.66388E-05-6.24730E-05 1.11498E-04 5.47480E-18 1.13977E-17
 -1      1247 2.78158E-04-7.40157E-05-7.38786E-05 6.99518E-05 1.37495E-18 4.41135E-18
 -1      1248 3.05963E-04-9.10656E-05-7.74022E-05-7.26942E-06 6.83079E-19-4.95387E-18
 -1      1249 2.66653E-04-6.77911E-05-7.22121E-05-7.87355E-05 3.77343E-18-1.37872E-17
 -1      1250 1.73694E-04-1.66783E-05-5.88467E-05-1.09494E-04 1.01547E-17-1.99188E-17
 -1      1251 7.70741E-05 2.25945E-05-4.00044E-05-8.75198E-05 1.66044E-17-2.07980E-17
 -1      1252 1.96393E-05 1.93678E-05-1.97550E-05-3.46957E-05 1.95360E-17-1.60445E-17
 -1      1253 7.72499E-06-2.17212E-05-1.82807E-06 8.96570E-06 1.68390E-17-8.92773E-18
 -1      1254 2.10071E-05-7.09903E-05 1.05530E-05 1.96165E-05 9.66634E-18-3.25642E-18
 -1      1255 3.23004E-05-9.88716E-05 1.60574E-05 2.82427E-06-4.04458E-19-8.43962E-19
 -1      1256 2.64870E-05-8.72102E-05 1.38383E-05-1.96573E-05-1.07895E-17-2.95159E-18
 -1      1257 1.07650E-05-4.21796E-05 3.58579E-06-1.87984E-05-1.78555E-17-8.27170E-18
 -1      1258 1.12941E-05 4.84689E-06-1.27697E-05 1.39473E-05-2.03457E-17-1.48570E-17
 -1      1259 5.33981E-05 2.34521E-05-3.28227E-05 6.80676E-05-1.82383E-17-2.01729E-17
 -1      1260 1.38813E-04-6.29141E-07-5.26856E-05 1.07524E-04-1.28088E-17-2.14926E-17
 -1      1261 2.37887E-04-4.96488E-05-6.86203E-05 9.89581E-05-6.12193E-18-1.65459E-17
 -1      1262 3.08542E-04-9.04310E-05-7.79852E-05 4.05467E-05-1.33770E-18-7.17013E-18
 -1      1263 3.08686E-04-9.02767E-05-7.80907E-05-4.30404E-05-1.14140E-18 4.19620E-18
 -1      1264 2.33445E-04-4.60267E-05-6.82060E-05-1.03567E-04-5.29819E-18 1.32451E-17
 -1      1265 1.26440E-04 6.08784E-06-5.05045E-05-1.06516E-04-1.15764E-17 1.80926E-17
 -1      1266 4.33805E-05 2.54732E-05-2.97623E-05-6.18939E-05-1.60242E-17 1.62986E-17
 -1      1267 8.84674E-06-2.34987E-06-8.94234E-06-5.51340E-06-1.65239E-17 1.12418E-17
 -1      1268 1.60205E-05-5.97679E-05 8.02876E-06 2.49607E-05-1.47951E-17 5.43626E-18
 -1      1269 3.34938E-05-1.04323E-04 1.71743E-05 1.41669E-05-5.28760E-18 1.81503E-18
 -1      1270 1.29991E-04-2.83366E-05-4.62786E-05-1.48431E-05-3.79894E-19 7.87614E-18
 -1      1271 1.07491E-04-9.81177E-06-4.19901E-05-1.34276E-05-1.01093E-18 3.44054E-19
 -1      1272 1.13358E-04-1.03130E-05-4.43295E-05-2.04913E-05-1.34763E-18 2.10424E-18
 -1      1273 9.51441E-05-5.81597E-06-3.83578E-05-7.11489E-06-9.72394E-19-2.21025E-18
 -1      1274 1.00287E-04-5.95555E-06-4.02716E-05-1.05613E-05-1.12846E-18-1.10427E-18
 -1      1275 1.08732E-04-1.47757E-05-4.03114E-05-1.19412E-05-1.75632E-18 3.91541E-19
 -1      1276 8.47824E-05-3.61368E-06-3.48769E-05-2.57340E-06-7.12355E-19-3.58877E-18
 -1      1277 8.95123E-05-3.69073E-06-3.66484E-05-4.66441E-06-8.52750E-19-2.97039E-18
 -1      1278 9.55819E-05-9.49745E-06-3.69842E-05-6.61854E-06-1.44477E-18-1.79920E-18
 -1      1279 7.53403E-05-1.66645E-06-3.17187E-05-1.26997E-07-4.76456E-19-4.35215E-18
 -1      1280 7.96186E-05-1.75628E-06-3.32824E-05-1.10384E-06-5.55548E-19-4.00643E-18
 -1      1281 8.41179E-05-5.64370E-06-3.37389E-05-2.53583E-06-1.02274E-18-3.02327E-18
 -1      1282 6.75773E-05 1.07539E-07-2.91968E-05 1.83113E-07-2.56863E-19-4.78894E-18
 -1      1283 7.09245E-05 2.81733E-08-3.03927E-05 2.19205E-07-3.43154E-19-4.57138E-18
 -1      1284 7.38910E-05-2.14979E-06-3.08464E-05-4.55951E-07-6.47663E-19-3.71112E-18
 -1      1285 6.24422E-05 1.39380E-06-2.75484E-05-1.25385E-06-1.68268E-19-4.99820E-18
 -1      1286 6.44041E-05 1.34854E-06-2.82562E-05-4.72891E-07-2.06411E-19-4.94142E-18
 -1      1287 6.57544E-05 7.64706E-07-2.85900E-05-4.70905E-07-3.74508E-19-4.14273E-18
 -1      1288 6.10550E-05 1.73888E-06-2.70439E-05-3.48233E-06-5.09279E-20-5.00616E-18
 -1      1289 6.12335E-05 1.75456E-06-2.71512E-05-2.48792E-06-9.84940E-20-5.00628E-18
 -1      1290 6.10731E-05 2.36911E-06-2.72589E-05-2.08533E-06-2.30757E-19-4.28448E-18
 -1      1291 6.34501E-05 1.02782E-06-2.76720E-05-5.20271E-06 2.77403E-20-4.88090E-18
 -1      1292 6.19699E-05 1.09998E-06-2.72176E-05-4.59869E-06-8.86738E-21-4.96327E-18
 -1      1293 6.08310E-05 2.10167E-06-2.70402E-05-4.17169E-06-4.87573E-20-4.29337E-18
 -1      1294 6.86226E-05-4.10598E-07-2.91808E-05-5.36479E-06 1.52625E-19-4.58453E-18
 -1      1295 6.60269E-05-3.12194E-07-2.83197E-05-5.57362E-06 9.22737E-20-4.73609E-18
 -1      1296 6.46948E-05 1.42750E-07-2.78654E-05-5.38897E-06 8.03358E-20-4.08609E-18
 -1      1297 7.50603E-05-2.02299E-06-3.11901E-05-3.57279E-06 3.22508E-19-4.20229E-18
 -1      1298 7.20295E-05-1.93314E-06-3.01243E-05-4.70138E-06 2.61733E-19-4.41410E-18
 -1      1299 7.12205E-05-2.68598E-06-2.94563E-05-4.83296E-06 3.11920E-19-3.77851E-18
 -1      1300 8.13697E-05-3.34128E-06-3.33091E-05-1.33602E-07 5.81276E-19-3.72583E-18
 -1      1301 7.84696E-05-3.29088E-06-3.22258E-05-1.98935E-06 5.08114E-19-3.99203E-18
 -1      1302 7.85658E-05-5.42872E-06-3.14276E-05-2.37805E-06 6.59455E-19-3.38228E-18
 -1      1303 8.71502E-05-4.26114E-06-3.54020E-05 4.54960E-06 8.58574E-19-3.00668E-18
 -1      1304 8.44859E-05-4.25207E-06-3.43446E-05 2.12728E-06 7.47295E-19-3.41206E-18
 -1      1305 8.54934E-05-7.56624E-06-3.34792E-05 1.57919E-06 1.08096E-18-2.82941E-18
 -1      1306 9.24442E-05-4.92451E-06-3.74155E-05 9.99957E-06 1.14900E-18-1.81170E-18
 -1      1307 8.99310E-05-4.95572E-06-3.63773E-05 7.18174E-06 1.02470E-18-2.52919E-18
 -1      1308 9.16733E-05-9.14391E-06-3.54550E-05 6.51374E-06 1.50903E-18-1.99476E-18
 -1      1309 9.82841E-05-5.85554E-06-3.95403E-05 1.62376E-05 1.39464E-18 3.28278E-19
 -1      1310 9.53904E-05-5.89650E-06-3.83732E-05 1.28348E-05 1.22089E-18-9.32213E-19
 -1      1311 9.76494E-05-1.07697E-05-3.73233E-05 1.19827E-05 1.90095E-18-6.20505E-19
 -1      1312 1.07603E-04-8.94049E-06-4.22015E-05 2.43475E-05 1.22820E-18 4.26481E-18
 -1      1313 1.02788E-04-8.42055E-06-4.05731E-05 1.91790E-05 1.19093E-18 1.85601E-18
 -1      1314 1.05344E-04-1.40793E-05-3.91752E-05 1.77150E-05 2.11528E-18 1.77729E-18
 -1      1315 1.41849E-04-2.90819E-05-4.47966E-05 2.96075E-05 5.79582E-19 1.17098E-17
 -1      1316 1.15759E-04-1.75275E-05-4.27797E-05 2.38081E-05 5.96946E-19 6.53655E-18
 -1      1317 1.17790E-04-2.36225E-05-4.04362E-05 2.05303E-05 2.00715E-18 5.32064E-18
 -1      1318 1.20553E-04-3.31500E-05-4.03855E-05 6.44468E-06 1.05011E-18 1.13695E-17
 -1      1319 1.34085E-04-3.92051E-05-4.21682E-05-5.13657E-06-1.04100E-18 8.38605E-18
 -1      1320 1.29461E-04-3.74895E-05-3.99493E-05-2.54474E-06-1.01358E-18 7.06543E-18
 -1      1321 1.27691E-04-3.77569E-05-3.87699E-05-6.38167E-07-7.47348E-19 6.66546E-18
 -1      1322 1.27051E-04-3.80257E-05-3.81669E-05-4.35839E-07-7.20402E-19 5.50836E-18
 -1      1323 1.27622E-04-3.70574E-05-3.91816E-05-3.91157E-06-1.70592E-18 4.09035E-18
 -1      1324 1.26151E-04-3.79864E-05-3.77252E-05-3.22840E-07-5.83987E-19 5.18347E-18
 -1      1325 1.25612E-04-3.80230E-05-3.74485E-05-5.51743E-07-5.76118E-19 4.36890E-18
 -1      1326 1.24814E-04-3.75045E-05-3.74840E-05-1.08296E-06-1.25268E-18 3.54483E-18
 -1      1327 1.24787E-04-3.79487E-05-3.70928E-05-1.63231E-06-2.65320E-19 4.04033E-18
 -1      1328 1.22846E-04-3.74409E-05-3.64996E-05-2.07689E-06-2.10547E-19 3.52215E-18
 -1      1329 1.23529E-04-3.78326E-05-3.66560E-05-2.21463E-06-8.74734E-19 3.06381E-18
 -1      1330 1.21235E-04-3.70659E-05-3.59383E-05-3.80485E-06-5.21322E-20 3.42058E-18
 -1      1331 1.17151E-04-3.57252E-05-3.48058E-05-4.34810E-06-3.42777E-19 3.18786E-18
 -1      1332 1.21419E-04-3.75538E-05-3.58157E-05-5.57949E-06-3.99171E-19 2.53859E-18
 -1      1333 1.14393E-04-3.48183E-05-3.40081E-05-5.79399E-06-3.34681E-19 3.10861E-18
 -1      1334 1.08597E-04-3.27187E-05-3.24929E-05-6.10471E-06-4.00250E-19 2.53337E-18
 -1      1335 1.17271E-04-3.60825E-05-3.46800E-05-9.51279E-06-6.26976E-19 2.43424E-18
 -1      1336 1.05170E-04-3.13706E-05-3.16460E-05-5.99343E-06-4.21101E-19 2.19403E-18
 -1      1337 9.95933E-05-2.92218E-05-3.02545E-05-5.68358E-06-4.96454E-19 1.60444E-18
 -1      1338 1.11090E-04-3.32191E-05-3.33735E-05-1.13289E-05-7.35499E-19 1.95540E-18
 -1      1339 9.69226E-05-2.80633E-05-2.96664E-05-3.33960E-06-6.90914E-19 1.13947E-18
 -1      1340 9.42258E-05-2.69903E-05-2.90111E-05-2.38735E-06-7.73526E-19 2.39485E-19
 -1      1341 1.04805E-04-2.99532E-05-3.22695E-05-8.46163E-06-1.11475E-18 9.61779E-19
 -1      1342 9.38357E-05-2.68210E-05-2.89267E-05 1.23139E-06-8.52089E-19-4.37052E-19
 -1      1343 9.55092E-05-2.74923E-05-2.93320E-05 2.27304E-06-1.02658E-18-1.61947E-18
 -1      1344 1.01604E-04-2.82324E-05-3.17555E-05-1.09970E-06-1.48493E-18 3.23560E-20
 -1      1345 9.76017E-05-2.84256E-05-2.97786E-05 5.07825E-06-8.30701E-19-2.48186E-18
 -1      1346 1.02702E-04-3.04208E-05-3.10381E-05 5.56865E-06-3.17849E-19-3.08902E-18
 -1      1347 1.03386E-04-2.92469E-05-3.20073E-05 6.86074E-06-1.67040E-18-1.08793E-18
 -1      1348 1.05932E-04-3.17519E-05-3.18010E-05 6.17355E-06-1.40560E-19-3.60201E-18
 -1      1349 1.11859E-04-3.39553E-05-3.33275E-05 5.97473E-06-2.42948E-19-3.70069E-18
 -1      1350 1.08905E-04-3.22379E-05-3.28984E-05 1.09467E-05-5.69305E-19-2.31812E-18
 -1      1351 1.14577E-04-3.49183E-05-3.40754E-05 4.67458E-06-2.86337E-19-3.72260E-18
 -1      1352 1.19017E-04-3.64467E-05-3.52818E-05 4.12118E-06 1.94381E-19-3.93346E-18
 -1      1353 1.14903E-04-3.52395E-05-3.40346E-05 9.90325E-06-2.27210E-19-3.01528E-18
 -1      1354 1.20378E-04-3.67899E-05-3.57532E-05 2.11202E-06 4.48742E-19-3.64568E-18
 -1      1355 1.22400E-04-3.73893E-05-3.63501E-05 1.56856E-06 1.29861E-19-3.20926E-18
 -1      1356 1.18817E-04-3.68854E-05-3.49678E-05 5.76528E-06 4.24483E-19-3.34777E-18
 -1      1357 1.22389E-04-3.72380E-05-3.64522E-05-1.65752E-07 2.23981E-19-3.08889E-18
 -1      1358 1.22272E-04-3.71033E-05-3.64610E-05-5.25619E-07 8.69400E-20-3.01409E-18
 -1      1359 1.19891E-04-3.70492E-05-3.53915E-05 1.23816E-06 2.08026E-19-2.96012E-18
 -1      1360 1.21292E-04-3.66807E-05-3.62495E-05-1.60593E-06-5.73554E-19-2.64594E-18
 -1      1361 1.19815E-04-3.61295E-05-3.58582E-05-1.77652E-06-5.01854E-19-3.30229E-18
 -1      1362 1.18657E-04-3.62701E-05-3.52484E-05-2.09022E-06-2.18197E-19-3.10697E-18
 -1      1363 1.18318E-04-3.56039E-05-3.54525E-05-2.24950E-06-3.43280E-21-3.26190E-18
 -1      1364 1.16230E-04-3.48951E-05-3.48666E-05-2.28877E-06-1.11669E-20-3.43958E-18
 -1      1365 1.16037E-04-3.51034E-05-3.46665E-05-3.89026E-06-3.96368E-19-2.93912E-18
 -1      1366 1.14570E-04-3.43655E-05-3.43812E-05-2.35019E-06 4.53266E-20-3.04166E-18
 -1      1367 1.12384E-04-3.36573E-05-3.37528E-05-2.31768E-06 9.79643E-20-3.08647E-18
 -1      1368 1.12832E-04-3.38882E-05-3.38388E-05-4.48407E-06 2.75436E-19-3.16273E-18
 -1      1369 1.10785E-04-3.31738E-05-3.32681E-05-2.15550E-06-9.85999E-22-3.15713E-18
 -1      1370 1.08782E-04-3.25435E-05-3.26845E-05-2.09265E-06-2.27978E-19-3.35436E-18
 -1      1371 1.09589E-04-3.27808E-05-3.29352E-05-4.33588E-06-1.25631E-19-2.65669E-18
 -1      1372 1.07359E-04-3.21266E-05-3.22457E-05-1.83775E-06-2.46414E-19-3.66102E-18
 -1      1373 1.05657E-04-3.16011E-05-3.17455E-05-1.76814E-06-3.72819E-19-3.74304E-18
 -1      1374 1.06614E-04-3.18352E-05-3.20693E-05-3.82248E-06-6.31771E-19-2.00987E-18
 -1      1375 1.04455E-04-3.12551E-05-3.13715E-05-1.49642E-06 3.10122E-19-3.66941E-18
 -1      1376 1.03074E-04-3.08347E-05-3.09638E-05-1.43151E-06 2.10996E-19-3.12791E-18
 -1      1377 1.04046E-04-3.10571E-05-3.13016E-05-3.18558E-06 1.43374E-19-1.86705E-18
 -1      1378 1.02094E-04-3.05555E-05-3.06577E-05-1.18055E-06 2.60051E-19-2.59459E-18
 -1      1379 1.01009E-04-3.02288E-05-3.03363E-05-1.12480E-06 9.67482E-19-1.57306E-18
 -1      1380 1.01918E-04-3.04326E-05-3.06548E-05-2.55704E-06 6.58830E-19-1.93053E-18
 -1      1381 1.00231E-04-3.00084E-05-3.00930E-05-9.09474E-07 7.79325E-19-1.40683E-18
 -1      1382 9.93996E-05-2.97600E-05-2.98461E-05-8.63782E-07 2.15835E-19-5.84555E-19
 -1      1383 1.00205E-04-2.99407E-05-3.01289E-05-1.99747E-06 1.37228E-18-1.37785E-18
 -1      1384 9.87954E-05-2.95893E-05-2.96571E-05-6.86977E-07-1.60911E-19-4.31795E-19
 -1      1385 9.81706E-05-2.94040E-05-2.94711E-05-6.50633E-07-2.08919E-19-5.71586E-19
 -1      1386 9.88593E-05-2.95598E-05-2.97125E-05-1.52714E-06 3.43776E-20-7.81024E-19
 -1      1387 9.77099E-05-2.92740E-05-2.93271E-05-5.09628E-07-2.09707E-19-6.62035E-19
 -1      1388 9.72491E-05-2.91383E-05-2.91896E-05-4.81327E-07-5.54065E-19-1.20145E-18
 -1      1389 9.78219E-05-2.92693E-05-2.93899E-05-1.14588E-06-5.50911E-19-3.85166E-19
 -1      1390 9.69040E-05-2.90410E-05-2.90818E-05-3.71250E-07-1.02479E-18-1.42882E-18
 -1      1391 9.65704E-05-2.89434E-05-2.89821E-05-3.49584E-07-5.42743E-19-2.31751E-18
 -1      1392 9.70364E-05-2.90513E-05-2.91445E-05-8.44487E-07-1.20206E-18-6.28883E-19
 -1      1393 9.63164E-05-2.88719E-05-2.89028E-05-2.65129E-07 5.39178E-19-2.66960E-18
 -1      1394 9.60799E-05-2.88032E-05-2.88319E-05-2.48792E-07 3.25279E-19-2.28074E-18
 -1      1395 9.64518E-05-2.88902E-05-2.89612E-05-6.10800E-07-2.84806E-19-7.89856E-19
 -1      1396 9.58965E-05-2.87517E-05-2.87747E-05-1.85005E-07 1.21893E-20-2.73024E-18
 -1      1397 9.57328E-05-2.87046E-05-2.87255E-05-1.72870E-07-7.76747E-20-2.76934E-18
 -1      1398 9.60246E-05-2.87735E-05-2.88266E-05-4.32569E-07-6.78313E-20-1.64263E-18
 -1      1399 9.56033E-05-2.86682E-05-2.86851E-05-1.25434E-07 2.05574E-19-2.79715E-18
 -1      1400 9.54935E-05-2.86370E-05-2.86520E-05-1.16565E-07-1.08731E-19-2.51584E-18
 -1      1401 9.57186E-05-2.86907E-05-2.87298E-05-2.98724E-07-2.43253E-20-2.00278E-18
 -1      1402 9.54045E-05-2.86120E-05-2.86243E-05-8.18681E-08-4.11477E-20-1.83626E-18
 -1      1403 9.53338E-05-2.85923E-05-2.86028E-05-7.55032E-08 1.28310E-19-1.72593E-18
 -1      1404 9.55047E-05-2.86334E-05-2.86618E-05-1.99795E-07-1.98006E-20-2.02112E-18
 -1      1405 9.52747E-05-2.85758E-05-2.85844E-05-5.05951E-08-4.34163E-19-1.34574E-18
 -1      1406 9.52319E-05-2.85642E-05-2.85713E-05-4.61261E-08-3.67951E-19-2.19442E-18
 -1      1407 9.53593E-05-2.85950E-05-2.86152E-05-1.27930E-07 1.70764E-19-2.56814E-18
 -1      1408 9.51944E-05-2.85537E-05-2.85597E-05-2.86371E-08-7.08374E-20-1.71628E-18
 -1      1409 9.51711E-05-2.85477E-05-2.85524E-05-2.55837E-08-6.91359E-20-1.75593E-18
 -1      1410 9.52643E-05-2.85705E-05-2.85845E-05-7.67563E-08-4.45919E-19-1.13659E-18
 -1      1411 9.51490E-05-2.85416E-05-2.85456E-05-1.36378E-08 6.89861E-20-2.42813E-18
 -1      1412 9.51389E-05-2.85393E-05-2.85423E-05-1.16250E-08-2.28028E-19-2.97524E-18
 -1      1413 9.52056E-05-2.85558E-05-2.85652E-05-4.11838E-08-3.90548E-19-1.44918E-18
 -1      1414 9.51274E-05-2.85362E-05-2.85388E-05-3.75490E-09-3.33561E-19-2.65839E-18
 -1      1415 9.51258E-05-2.85363E-05-2.85381E-05-2.49341E-09-3.70286E-19-3.15184E-18
 -1      1416 9.51724E-05-2.85479E-05-2.85540E-05-1.71991E-08-1.58742E-19-2.59246E-18
 -1      1417 9.51215E-05-2.85352E-05-2.85367E-05 2.43428E-09 2.72543E-19-2.37492E-18
 -1      1418 9.51252E-05-2.85368E-05-2.85376E-05 3.16495E-09 6.39666E-19-1.68035E-18
 -1      1419 9.51566E-05-2.85447E-05-2.85484E-05-1.67722E-09 6.40394E-20-1.72706E-18
 -1      1420 9.51254E-05-2.85369E-05-2.85377E-05 6.01461E-09-3.38861E-19-2.02774E-18
 -1      1421 9.51320E-05-2.85393E-05-2.85396E-05 6.38022E-09-1.62879E-19-2.15467E-18
 -1      1422 9.51523E-05-2.85444E-05-2.85465E-05 7.78456E-09 2.80473E-19-1.18526E-18
 -1      1423 9.51350E-05-2.85402E-05-2.85405E-05 7.80185E-09 2.40059E-19-2.18883E-18
 -1      1424 9.51429E-05-2.85428E-05-2.85428E-05 7.92513E-09-1.19021E-19-1.95083E-18
 -1      1425 9.51552E-05-2.85460E-05-2.85469E-05 1.30092E-08-2.86647E-19-2.61680E-18
 -1      1426 9.51474E-05-2.85441E-05-2.85442E-05 8.39978E-09-5.40744E-20-2.43188E-18
 -1      1427 9.51557E-05-2.85468E-05-2.85466E-05 8.36997E-09-3.13319E-20-2.48190E-18
 -1      1428 9.51623E-05-2.85486E-05-2.85488E-05 1.53595E-08-1.41152E-19-2.75206E-18
 -1      1429 9.51608E-05-2.85483E-05-2.85481E-05 8.24718E-09-1.11910E-19-1.86152E-18
 -1      1430 9.51687E-05-2.85508E-05-2.85505E-05 8.12778E-09 4.74087E-19-1.90911E-18
 -1      1431 9.51715E-05-2.85517E-05-2.85514E-05 1.58369E-08-3.16465E-19-2.10285E-18
 -1      1432 9.51739E-05-2.85523E-05-2.85521E-05 7.65585E-09 6.05122E-19-1.83219E-18
 -1      1433 9.51812E-05-2.85546E-05-2.85542E-05 7.49078E-09 7.34934E-20-1.49183E-18
 -1      1434 9.51814E-05-2.85548E-05-2.85543E-05 1.51631E-08 4.56156E-19-1.28347E-18
 -1      1435 9.51861E-05-2.85560E-05-2.85557E-05 6.84099E-09-4.02168E-19-9.15244E-19
 -1      1436 9.51926E-05-2.85580E-05-2.85576E-05 6.65953E-09-7.67567E-19-1.93261E-18
 -1      1437 9.51911E-05-2.85578E-05-2.85571E-05 1.38452E-08 2.90786E-19-1.18890E-18
 -1      1438 9.51970E-05-2.85593E-05-2.85590E-05 5.94513E-09-7.56393E-19-1.57823E-18
 -1      1439 9.52026E-05-2.85610E-05-2.85606E-05 5.76560E-09-5.51334E-19-2.02763E-18
 -1      1440 9.52002E-05-2.85605E-05-2.85598E-05 1.22274E-08-1.16336E-18-1.60001E-18
 -1      1441 9.52065E-05-2.85621E-05-2.85619E-05 5.05637E-09 1.72141E-20-1.15950E-18
 -1      1442 9.52112E-05-2.85636E-05-2.85632E-05 4.88896E-09 3.26065E-19-1.92191E-18
 -1      1443 9.52083E-05-2.85629E-05-2.85623E-05 1.05318E-08-1.31745E-19-4.73009E-19
 -1      1444 9.52145E-05-2.85645E-05-2.85643E-05 4.22185E-09-1.89686E-19-4.54215E-19
 -1      1445 9.52184E-05-2.85657E-05-2.85654E-05 4.07054E-09 3.97141E-19-3.19913E-19
 -1      1446 9.52153E-05-2.85650E-05-2.85644E-05 8.88846E-09 8.98686E-19 5.45767E-19
 -1      1447 9.52212E-05-2.85665E-05-2.85663E-05 3.45702E-09 1.22481E-18 4.98862E-19
 -1      1448 9.52244E-05-2.85675E-05-2.85672E-05 3.32075E-09 1.19968E-18 1.68019E-18
 -1      1449 9.52213E-05-2.85667E-05-2.85662E-05 7.35730E-09 1.40144E-18 3.00931E-18
 -1      1450 9.52267E-05-2.85682E-05-2.85680E-05 2.75165E-09 1.27183E-18 1.08289E-18
 -1      1451 9.52292E-05-2.85689E-05-2.85687E-05 2.62477E-09 8.73510E-19 2.54770E-18
 -1      1452 9.52262E-05-2.85682E-05-2.85677E-05 5.94297E-09 1.52004E-18 2.67056E-18
 -1      1453 9.52310E-05-2.85695E-05-2.85692E-05 2.07338E-09-2.98348E-19 3.18340E-18
 -1      1454 9.52329E-05-2.85701E-05-2.85698E-05 1.94541E-09-1.04319E-18 2.31206E-18
 -1      1455 9.52302E-05-2.85694E-05-2.85689E-05 4.60490E-09 6.80857E-19 2.29201E-18
 -1      1456 9.52342E-05-2.85704E-05-2.85702E-05 1.37698E-09-7.36012E-19 2.57710E-18
 -1      1457 9.52354E-05-2.85708E-05-2.85705E-05 1.23288E-09-5.20135E-20 2.08491E-18
 -1      1458 9.52333E-05-2.85703E-05-2.85698E-05 3.26870E-09-1.32703E-18 1.27111E-18
 -1      1459 9.52363E-05-2.85711E-05-2.85708E-05 6.23331E-10 1.58847E-19 1.65209E-18
 -1      1460 9.52368E-05-2.85712E-05-2.85710E-05 4.60331E-10-5.37027E-19 1.54291E-18
 -1      1461 9.52355E-05-2.85710E-05-2.85704E-05 1.87873E-09-2.09642E-19 2.24017E-18
 -1      1462 9.52372E-05-2.85712E-05-2.85712E-05-9.56425E-11-1.31772E-18 1.51516E-18
 -1      1463 9.52369E-05-2.85713E-05-2.85709E-05 4.01544E-10-1.36137E-18 1.28702E-18
 -1      1464 1.15402E-04-3.41464E-05-3.53351E-05 2.70853E-06 9.47750E-19 9.27096E-18
 -1      1465 1.20939E-04-3.49649E-05-3.77068E-05 4.05312E-06 8.18181E-19 1.07512E-17
 -1      1466 1.19730E-04-3.19868E-05-3.79456E-05 1.22053E-05 1.63181E-18 7.18284E-18
 -1      1467 1.10387E-04-3.31128E-05-3.31322E-05 1.65012E-06 8.41951E-19 7.27358E-18
 -1      1468 1.12581E-04-3.33661E-05-3.41568E-05 1.74822E-06 7.21222E-19 8.46755E-18
 -1      1469 1.13931E-04-3.35820E-05-3.46051E-05 5.05239E-06 1.49544E-18 5.85725E-18
 -1      1470 1.06549E-04-3.20908E-05-3.18307E-05 1.76261E-06 3.57832E-19 6.00682E-18
 -1      1471 1.08391E-04-3.25606E-05-3.24689E-05 1.65427E-06 4.57322E-19 6.73247E-18
 -1      1472 1.09582E-04-3.29199E-05-3.28401E-05 3.54297E-06 1.10378E-18 4.71502E-18
 -1      1473 1.02336E-04-3.08229E-05-3.05802E-05 2.27415E-06 4.15781E-19 5.36415E-18
 -1      1474 1.04612E-04-3.15537E-05-3.12505E-05 2.08360E-06 2.56449E-19 5.73130E-18
 -1      1475 1.05884E-04-3.19950E-05-3.16092E-05 3.89842E-06 5.48330E-19 3.97804E-18
 -1      1476 9.74182E-05-2.92586E-05-2.91864E-05 2.67253E-06 2.46863E-19 4.56710E-18
 -1      1477 1.00202E-04-3.01912E-05-2.99658E-05 2.51437E-06 1.96239E-19 4.95104E-18
 -1      1478 1.01954E-04-3.07782E-05-3.04552E-05 4.66735E-06 5.29627E-19 3.43877E-18
 -1      1479 9.23887E-05-2.76054E-05-2.77978E-05 2.54722E-06 1.58250E-19 4.21372E-18
 -1      1480 9.52518E-05-2.85534E-05-2.85781E-05 2.53322E-06 1.83154E-19 4.36873E-18
 -1      1481 9.77469E-05-2.93080E-05-2.93148E-05 4.93838E-06 3.47532E-19 3.13875E-18
 -1      1482 8.84411E-05-2.62811E-05-2.67285E-05 1.68194E-06 3.92507E-19 3.44795E-18
 -1      1483 9.06385E-05-2.69636E-05-2.73143E-05 1.87696E-06 2.26489E-19 3.78918E-18
 -1      1484 9.38838E-05-2.78424E-05-2.83320E-05 4.08106E-06 4.90736E-19 2.39469E-18
 -1      1485 8.68121E-05-2.57330E-05-2.62888E-05 2.22269E-07 4.96083E-19 2.29909E-18
 -1      1486 8.76180E-05-2.58982E-05-2.64975E-05 5.91441E-07 4.52468E-19 2.94676E-18
 -1      1487 9.13436E-05-2.68160E-05-2.77200E-05 1.97332E-06 7.72216E-19 1.55904E-18
 -1      1488 8.80891E-05-2.61735E-05-2.66242E-05-1.34525E-06 4.75933E-19 9.63923E-19
 -1      1489 8.71897E-05-2.57430E-05-2.63795E-05-9.28564E-07 5.65997E-19 1.85705E-18
 -1      1490 9.09273E-05-2.66197E-05-2.76374E-05-8.35321E-07 9.09038E-19 7.32386E-19
 -1      1491 9.18469E-05-2.74445E-05-2.76320E-05-2.45729E-06 2.22624E-19 2.01620E-19
 -1      1492 8.95297E-05-2.65641E-05-2.70074E-05-2.14150E-06 3.07023E-19 7.48857E-19
 -1      1493 9.27649E-05-2.73410E-05-2.81000E-05-3.37749E-06 7.29825E-19 7.44860E-20
 -1      1494 9.68523E-05-2.90994E-05-2.90069E-05-2.79551E-06-1.14447E-19-2.14538E-19
 -1      1495 9.38590E-05-2.80593E-05-2.81901E-05-2.66540E-06 8.21581E-20 8.76150E-21
 -1      1496 9.62003E-05-2.86937E-05-2.89634E-05-4.80728E-06 4.39431E-19 3.39078E-20
 -1      1497 1.01696E-04-3.06532E-05-3.03787E-05-2.41912E-06 1.12250E-19-2.02997E-19
 -1      1498 9.88475E-05-2.97346E-05-2.95859E-05-2.46472E-06 7.31426E-20-2.97176E-19
 -1      1499 1.00132E-04-3.01855E-05-2.99818E-05-4.85126E-06 1.21278E-19-6.70572E-19
 -1      1500 1.05361E-04-3.17835E-05-3.14572E-05-1.63081E-06 2.40418E-19-7.16272E-19
 -1      1501 1.03233E-04-3.11536E-05-3.08492E-05-1.78264E-06 1.73443E-19-4.83921E-19
 -1      1502 1.03541E-04-3.13962E-05-3.09065E-05-3.82141E-06 2.55195E-19-1.03665E-18
 -1      1503 1.07440E-04-3.23857E-05-3.21036E-05-7.60974E-07 1.68679E-19-1.45884E-18
 -1      1504 1.06248E-04-3.20806E-05-3.17500E-05-9.42328E-07 3.16883E-19-8.04522E-19
 -1      1505 1.05824E-04-3.21245E-05-3.15664E-05-2.29781E-06 5.56626E-19-1.31887E-18
 -1      1506 1.08023E-04-3.25157E-05-3.23199E-05-3.04696E-08-3.83904E-19-1.15315E-18
 -1      1507 1.07696E-04-3.24837E-05-3.22104E-05-1.89387E-07-5.31844E-20-1.34468E-18
 -1      1508 1.06841E-04-3.23726E-05-3.18968E-05-7.98297E-07 9.19295E-20-1.02180E-18
 -1      1509 1.07470E-04-3.23031E-05-3.21946E-05 4.72479E-07 1.36134E-19-1.16435E-18
 -1      1510 1.07787E-04-3.24579E-05-3.22731E-05 3.58149E-07-2.96462E-21-1.19429E-18
 -1      1511 1.06770E-04-3.22525E-05-3.19217E-05 3.77256E-07 2.78330E-20-5.84942E-19
 -1      1512 1.06202E-04-3.18856E-05-3.18452E-05 7.52606E-07-2.10322E-19-1.01271E-18
 -1      1513 1.06913E-04-3.21434E-05-3.20429E-05 6.84113E-07-7.28266E-20-8.90357E-19
 -1      1514 1.05925E-04-3.19012E-05-3.17149E-05 1.13846E-06-5.89085E-20-7.26400E-19
 -1      1515 1.04588E-04-3.13765E-05-3.13808E-05 8.58322E-07-3.32256E-19-5.22990E-19
 -1      1516 1.05482E-04-3.16728E-05-3.16366E-05 8.26841E-07-2.89696E-19-9.40637E-19
 -1      1517 1.04630E-04-3.14362E-05-3.13634E-05 1.52588E-06-2.93226E-19-6.81266E-19
 -1      1518 1.02898E-04-3.08551E-05-3.08840E-05 8.47101E-07 6.62674E-20-4.24694E-19
 -1      1519 1.03823E-04-3.11472E-05-3.11529E-05 8.41310E-07 1.52119E-19-3.26465E-19
 -1      1520 1.03151E-04-3.09412E-05-3.09445E-05 1.63386E-06-7.39756E-20-1.07083E-18
 -1      1521 1.01302E-04-3.03696E-05-3.04092E-05 7.68352E-07-1.62996E-19-6.13520E-19
 -1      1522 1.02166E-04-3.06336E-05-3.06627E-05 7.78206E-07-7.29201E-21-4.34978E-19
 -1      1523 1.01674E-04-3.04687E-05-3.05158E-05 1.56126E-06 2.17094E-19-8.43890E-20
 -1      1524 9.98918E-05-2.99450E-05-2.99864E-05 6.58218E-07-2.61138E-19-6.45310E-19
 -1      1525 1.00647E-04-3.01700E-05-3.02093E-05 6.76173E-07-2.31953E-19-1.07066E-18
 -1      1526 1.00313E-04-3.00470E-05-3.01145E-05 1.38907E-06-3.89221E-19-6.90952E-19
 -1      1527 9.87047E-05-2.95900E-05-2.96284E-05 5.40286E-07 4.16368E-19-1.03079E-18
 -1      1528 9.93335E-05-2.97737E-05-2.98151E-05 5.61263E-07-2.04016E-20-9.07040E-19
 -1      1529 9.91267E-05-2.96881E-05-2.97607E-05 1.17498E-06 1.19273E-19-1.26268E-18
 -1      1530 9.77421E-05-2.93039E-05-2.93370E-05 4.28374E-07 1.77899E-19-2.13191E-18
 -1      1531 9.82465E-05-2.94487E-05-2.94873E-05 4.49259E-07 5.28707E-19-1.42776E-18
 -1      1532 9.81357E-05-2.93936E-05-2.94625E-05 9.55824E-07 7.46961E-19-1.22337E-18
 -1      1533 9.69859E-05-2.90801E-05-2.91074E-05 3.29494E-07-5.98115E-19-1.42139E-18
 -1      1534 9.73777E-05-2.91908E-05-2.92245E-05 3.48577E-07-9.26443E-19-2.50656E-18
 -1      1535 9.73351E-05-2.91592E-05-2.92200E-05 7.52654E-07-4.46740E-19-1.59886E-18
 -1      1536 9.64086E-05-2.89100E-05-2.89316E-05 2.46299E-07-6.18028E-20-5.91473E-19
 -1      1537 9.67042E-05-2.89921E-05-2.90202E-05 2.62796E-07 1.13741E-20-1.25161E-18
 -1      1538 9.67071E-05-2.89775E-05-2.90286E-05 5.75654E-07-4.25163E-19-1.76394E-18
 -1      1539 9.59799E-05-2.87842E-05-2.88007E-05 1.78850E-07 3.93809E-19-9.47341E-19
 -1      1540 9.61965E-05-2.88433E-05-2.88659E-05 1.92550E-07 3.59652E-19 4.36793E-21
 -1      1541 9.62274E-05-2.88404E-05-2.88816E-05 4.28123E-07 1.19428E-19-1.00565E-18
 -1      1542 9.56706E-05-2.86937E-05-2.87061E-05 1.25819E-07 3.25957E-20-1.57355E-18
 -1      1543 9.58245E-05-2.87349E-05-2.87526E-05 1.36841E-07 2.59614E-19-1.00716E-18
 -1      1544 9.58707E-05-2.87395E-05-2.87718E-05 3.09330E-07 5.21055E-19-4.47964E-19
 -1      1545 9.54545E-05-2.86309E-05-2.86398E-05 8.52498E-08-8.47980E-19-1.23018E-18
 -1      1546 9.55600E-05-2.86584E-05-2.86718E-05 9.38790E-08-5.84962E-19-1.71364E-18
 -1      1547 9.56125E-05-2.86673E-05-2.86919E-05 2.16434E-07-4.03726E-19-3.68470E-19
 -1      1548 9.53092E-05-2.85888E-05-2.85951E-05 5.50183E-08-6.90912E-19 7.93891E-19
 -1      1549 9.53784E-05-2.86063E-05-2.86162E-05 6.16081E-08-9.61303E-19-4.31111E-19
 -1      1550 9.54314E-05-2.86172E-05-2.86355E-05 1.45695E-07-1.48265E-18-2.45101E-19
 -1      1551 9.52165E-05-2.85622E-05-2.85665E-05 3.30901E-08-6.67611E-20 1.44225E-18
 -1      1552 9.52591E-05-2.85724E-05-2.85796E-05 3.80016E-08-2.09215E-21 1.31094E-18
 -1      1553 9.53090E-05-2.85840E-05-2.85972E-05 9.32085E-08-6.91076E-19 1.12285E-19
 -1      1554 9.51617E-05-2.85467E-05-2.85494E-05 1.76511E-08-6.65629E-19 1.97473E-18
 -1      1555 9.51853E-05-2.85518E-05-2.85568E-05 2.12204E-08-3.40415E-19 1.44617E-18
 -1      1556 9.52301E-05-2.85630E-05-2.85722E-05 5.53038E-08-1.37030E-19 1.28426E-18
 -1      1557 9.51333E-05-2.85389E-05-2.85405E-05 7.15745E-09-1.65569E-19 3.00468E-18
 -1      1558 9.51440E-05-2.85406E-05-2.85439E-05 9.67988E-09-4.87386E-19 1.99951E-18
 -1      1559 9.51828E-05-2.85508E-05-2.85570E-05 2.87446E-08-6.51140E-19 2.00693E-18
 -1      1560 9.51229E-05-2.85362E-05-2.85371E-05 3.41418E-10 6.93639E-20 3.63903E-18
 -1      1561 9.51251E-05-2.85358E-05-2.85379E-05 2.06623E-09-3.68458E-20 3.19944E-18
 -1      1562 9.51577E-05-2.85447E-05-2.85488E-05 1.07982E-08-3.96587E-19 2.49451E-18
 -1      1563 9.51240E-05-2.85369E-05-2.85372E-05-3.80915E-09-7.86158E-22 3.30004E-18
 -1      1564 9.51208E-05-2.85352E-05-2.85364E-05-2.67808E-09 4.69483E-19 3.87859E-18
 -1      1565 9.51477E-05-2.85428E-05-2.85452E-05-7.68253E-10 1.81599E-19 2.24701E-18
 -1      1566 9.51320E-05-2.85395E-05-2.85395E-05-6.08236E-09 1.98294E-18-3.90871E-20
 -1      1567 9.51258E-05-2.85371E-05-2.85378E-05-5.38253E-09 9.55078E-19 2.15015E-18
 -1      1568 9.51474E-05-2.85434E-05-2.85447E-05-7.72916E-09 1.75227E-18 1.57011E-18
 -1      1569 9.51437E-05-2.85431E-05-2.85430E-05-7.07778E-09 3.43524E-19-3.15459E-18
 -1      1570 9.51360E-05-2.85405E-05-2.85408E-05-6.68265E-09 9.36238E-19-1.49392E-18
 -1      1571 9.51531E-05-2.85456E-05-2.85462E-05-1.14612E-08 2.06430E-18-3.32250E-19
 -1      1572 9.51569E-05-2.85472E-05-2.85469E-05-7.24112E-09-4.35994E-19-1.05633E-18
 -1      1573 9.51488E-05-2.85445E-05-2.85445E-05-7.05424E-09-6.08809E-19-2.35018E-18
 -1      1574 9.51620E-05-2.85486E-05-2.85487E-05-1.30079E-08-5.88406E-19-6.28388E-19
 -1      1575 9.51702E-05-2.85512E-05-2.85509E-05-6.89558E-09 9.26837E-20-1.83016E-18
 -1      1576 9.51624E-05-2.85487E-05-2.85486E-05-6.84511E-09 3.14459E-19-1.08498E-18
 -1      1577 9.51723E-05-2.85519E-05-2.85517E-05-1.31423E-08 1.88093E-19-1.23393E-18
 -1      1578 9.51827E-05-2.85550E-05-2.85546E-05-6.26895E-09-4.62332E-19-1.58313E-18
 -1      1579 9.51756E-05-2.85528E-05-2.85525E-05-6.30264E-09-2.27969E-20-1.82634E-18
 -1      1580 9.51829E-05-2.85552E-05-2.85548E-05-1.24226E-08 3.50667E-19-7.78849E-19
 -1      1581 9.51940E-05-2.85584E-05-2.85581E-05-5.51600E-09-9.65010E-19 1.35062E-19
 -1      1582 9.51877E-05-2.85565E-05-2.85562E-05-5.59696E-09-5.85226E-19-1.06696E-18
 -1      1583 9.51930E-05-2.85583E-05-2.85578E-05-1.12400E-08-8.31426E-19-1.59680E-19
 -1      1584 9.52040E-05-2.85613E-05-2.85611E-05-4.73631E-09-8.64695E-20-3.96917E-19
 -1      1585 9.51985E-05-2.85597E-05-2.85594E-05-4.83958E-09-5.31473E-19-5.73618E-19
 -1      1586 9.52022E-05-2.85610E-05-2.85605E-05-9.85765E-09-3.62372E-19-1.07834E-18
 -1      1587 9.52125E-05-2.85639E-05-2.85636E-05-3.98798E-09 4.06784E-19-1.19631E-18
 -1      1588 9.52078E-05-2.85625E-05-2.85623E-05-4.09794E-09 2.18147E-19-5.83153E-19
 -1      1589 9.52103E-05-2.85634E-05-2.85629E-05-8.44230E-09 2.13340E-19-1.79766E-18
 -1      1590 9.52196E-05-2.85660E-05-2.85658E-05-3.29731E-09 2.60776E-19-2.47398E-18
 -1      1591 9.52158E-05-2.85649E-05-2.85646E-05-3.40592E-09 8.27407E-19-1.55015E-18
 -1      1592 9.52172E-05-2.85655E-05-2.85650E-05-7.08714E-09 1.02632E-18-2.19105E-18
 -1      1593 9.52255E-05-2.85677E-05-2.85676E-05-2.66524E-09-2.28197E-19-2.21398E-18
 -1      1594 9.52223E-05-2.85668E-05-2.85666E-05-2.77099E-09-3.46179E-19-3.36152E-18
 -1      1595 9.52230E-05-2.85672E-05-2.85668E-05-5.82839E-09 1.92876E-19-2.45212E-18
 -1      1596 9.52301E-05-2.85691E-05-2.85690E-05-2.07271E-09 1.63424E-18-4.31480E-18
 -1      1597 9.52277E-05-2.85684E-05-2.85682E-05-2.17991E-09 8.61800E-19-2.90457E-18
 -1      1598 9.52278E-05-2.85686E-05-2.85682E-05-4.65743E-09 5.84138E-19-3.66032E-18
 -1      1599 9.52336E-05-2.85702E-05-2.85700E-05-1.48068E-09-2.02580E-19-5.33026E-18
 -1      1600 9.52318E-05-2.85697E-05-2.85695E-05-1.60128E-09 5.28333E-19-4.50335E-18
 -1      1601 9.52316E-05-2.85697E-05-2.85693E-05-3.52895E-09 1.24006E-18-3.17594E-18
 -1      1602 9.52359E-05-2.85709E-05-2.85707E-05-8.36694E-10 5.74825E-19-5.24250E-18
 -1      1603 9.52348E-05-2.85706E-05-2.85704E-05-9.93082E-10-1.58233E-19-4.74485E-18
 -1      1604 9.52343E-05-2.85706E-05-2.85702E-05-2.37129E-09-1.49847E-19-1.94597E-18
 -1      1605 9.52370E-05-2.85712E-05-2.85711E-05-1.83929E-10-9.73586E-20-6.65361E-18
 -1      1606 9.52366E-05-2.85712E-05-2.85709E-05-3.52703E-10 3.11828E-19-6.02000E-18
 -1      1607 9.52361E-05-2.85711E-05-2.85707E-05-1.13500E-09 1.18660E-18-2.69631E-18
 -1      1608 9.52372E-05-2.85712E-05-2.85712E-05 6.35603E-11-3.96733E-18-4.35124E-18
 -1      1609 9.52372E-05-2.85720E-05-2.85708E-05-6.63620E-10-1.85500E-18 4.18337E-18
 -1      1610 9.52371E-05-2.85715E-05-2.85710E-05-4.93477E-10-5.63460E-18 2.39430E-18
 -1      1611 9.52379E-05-2.85740E-05-2.85702E-05-1.30615E-09 4.24381E-19-1.45615E-19
 -1      1612 9.52375E-05-2.85728E-05-2.85705E-05-1.19090E-09-1.23337E-18 1.45969E-18
 -1      1613 9.52373E-05-2.85728E-05-2.85705E-05-1.83463E-09 6.01066E-19 4.15653E-18
 -1      1614 9.52387E-05-2.85766E-05-2.85695E-05-1.69051E-09-1.38349E-18-3.00016E-19
 -1      1615 9.52382E-05-2.85751E-05-2.85699E-05-1.63752E-09-4.45215E-20 1.71217E-19
 -1      1616 9.52380E-05-2.85748E-05-2.85699E-05-2.86381E-09-1.59931E-19-9.26890E-21
 -1      1617 9.52397E-05-2.85794E-05-2.85687E-05-1.76966E-09-8.51362E-19 3.30883E-19
 -1      1618 9.52391E-05-2.85778E-05-2.85691E-05-1.77873E-09-1.53399E-18 1.27147E-18
 -1      1619 9.52389E-05-2.85771E-05-2.85693E-05-3.36038E-09-4.74298E-19-7.35727E-19
 -1      1620 9.52405E-05-2.85821E-05-2.85679E-05-1.57509E-09-1.50213E-18-4.74323E-19
 -1      1621 9.52400E-05-2.85806E-05-2.85683E-05-1.63352E-09-1.61243E-18-7.83910E-19
 -1      1622 9.52398E-05-2.85796E-05-2.85687E-05-3.29181E-09-1.33408E-18-6.20985E-19
 -1      1623 9.52412E-05-2.85842E-05-2.85673E-05-1.15428E-09-4.01388E-18-8.72602E-19
 -1      1624 9.52408E-05-2.85831E-05-2.85676E-05-1.25243E-09-2.15886E-18-9.10101E-19
 -1      1625 9.52405E-05-2.85818E-05-2.85681E-05-2.73464E-09-1.51784E-18-2.50815E-18
 -1      1626 9.52416E-05-2.85854E-05-2.85669E-05-5.79348E-10-2.28517E-18 1.39614E-18
 -1      1627 9.52414E-05-2.85848E-05-2.85671E-05-7.01040E-10-4.49886E-18 1.80113E-18
 -1      1628 9.52411E-05-2.85834E-05-2.85676E-05-1.79452E-09-1.68443E-18-4.92868E-19
 -1      1629 9.52417E-05-2.85856E-05-2.85669E-05 7.00254E-11 3.79140E-19 1.95962E-18
 -1      1630 9.52417E-05-2.85856E-05-2.85669E-05-5.95608E-11-2.35663E-18 2.82520E-18
 -1      1631 9.52414E-05-2.85843E-05-2.85674E-05-6.18057E-10-9.54870E-19 1.87094E-18
 -1      1632 9.52414E-05-2.85848E-05-2.85671E-05 7.10733E-10 3.47524E-19 9.35607E-19
 -1      1633 9.52416E-05-2.85854E-05-2.85669E-05 5.89335E-10-6.48481E-19 1.48653E-18
 -1      1634 9.52414E-05-2.85843E-05-2.85674E-05 6.37795E-10-5.34943E-19 1.37645E-18
 -1      1635 9.52408E-05-2.85830E-05-2.85676E-05 1.25998E-09-3.34442E-18-3.86747E-18
 -1      1636 9.52412E-05-2.85841E-05-2.85673E-05 1.16269E-09 4.57801E-19-1.61899E-18
 -1      1637 9.52411E-05-2.85834E-05-2.85676E-05 1.81209E-09-2.58901E-18-8.20698E-19
 -1      1638 9.52400E-05-2.85806E-05-2.85683E-05 1.63496E-09-5.50852E-18 5.75103E-19
 -1      1639 9.52405E-05-2.85820E-05-2.85679E-05 1.57728E-09-2.99999E-18-2.97286E-18
 -1      1640 9.52405E-05-2.85818E-05-2.85681E-05 2.74248E-09-1.38133E-18-4.86814E-18
 -1      1641 9.52391E-05-2.85778E-05-2.85691E-05 1.77956E-09-6.67994E-18-6.16130E-19
 -1      1642 9.52397E-05-2.85794E-05-2.85687E-05 1.77148E-09-6.08063E-18 1.16648E-18
 -1      1643 9.52397E-05-2.85796E-05-2.85687E-05 3.29562E-09-1.39568E-18 1.88584E-19
 -1      1644 9.52382E-05-2.85750E-05-2.85699E-05 1.63586E-09-6.24834E-18 8.00077E-19
 -1      1645 9.52387E-05-2.85765E-05-2.85695E-05 1.68688E-09-6.84521E-18 2.42681E-19
 -1      1646 9.52389E-05-2.85771E-05-2.85693E-05 3.35804E-09-2.15631E-18-1.84955E-19
 -1      1647 9.52375E-05-2.85728E-05-2.85706E-05 1.18888E-09-5.27220E-18 1.64309E-18
 -1      1648 9.52379E-05-2.85739E-05-2.85702E-05 1.30749E-09-6.30002E-18 1.07819E-18
 -1      1649 9.52380E-05-2.85747E-05-2.85700E-05 2.85022E-09-2.64011E-18 6.47159E-19
 -1      1650 9.52370E-05-2.85717E-05-2.85709E-05 7.82817E-10-2.17017E-18 1.50673E-18
 -1      1651 9.52372E-05-2.85722E-05-2.85707E-05 1.02695E-09-3.93685E-18 2.18444E-18
 -1      1652 9.52372E-05-2.85730E-05-2.85704E-05 2.21250E-09-2.00359E-18 3.16015E-18
 -1      1653 9.52365E-05-2.85718E-05-2.85706E-05 1.59004E-09-1.25977E-18 2.40533E-18
 -1      1654 1.90286E-05-5.88657E-05 1.18355E-05-2.84353E-06 6.60305E-18 4.06470E-18
 -1      1655 2.22099E-05-6.97583E-05 1.43278E-05 3.65466E-06 1.71863E-18 3.12640E-18
 -1      1656 1.98661E-05-3.39606E-05 2.09291E-06 6.01647E-06 1.05185E-17 5.56183E-18
 -1      1657 2.37232E-05-5.58212E-05 8.07876E-06 1.75884E-06 8.11288E-18 3.95781E-18
 -1      1658 3.37162E-05-8.27400E-06-1.27789E-05 2.98308E-05 1.17128E-17 9.08909E-18
 -1      1659 2.80477E-05-2.76289E-05-4.58836E-06 1.26533E-05 1.13621E-17 6.63735E-18
 -1      1660 7.87547E-05-2.74753E-06-3.16739E-05 6.10718E-05 1.01635E-17 9.98991E-18
 -1      1661 5.36265E-05-7.95140E-06-2.16568E-05 3.85600E-05 1.11486E-17 9.13610E-18
 -1      1662 1.36488E-04-1.32040E-05-4.93885E-05 7.91889E-05 7.41493E-18 8.45339E-18
 -1      1663 9.83545E-05-1.79719E-06-4.07419E-05 6.71769E-05 9.83913E-18 9.79763E-18
 -1      1664 1.99902E-04-3.91539E-05-6.36710E-05 6.98743E-05 3.96380E-18 5.78015E-18
 -1      1665 1.59224E-04-1.92723E-05-5.68418E-05 7.72015E-05 6.32268E-18 7.86809E-18
 -1      1666 2.41525E-04-5.89903E-05-7.24217E-05 2.84097E-05 2.23998E-18 1.72795E-19
 -1      1667 2.15448E-04-4.41742E-05-6.85584E-05 5.65702E-05 3.26738E-18 3.73965E-18
 -1      1668 2.41452E-04-5.79429E-05-7.32198E-05-2.04873E-05 3.28988E-18-5.31301E-18
 -1      1669 2.44612E-04-5.95307E-05-7.37343E-05 1.29566E-05 2.61119E-18-1.60883E-18
 -1      1670 2.07906E-04-4.12533E-05-6.70002E-05-6.01663E-05 5.52318E-18-1.05252E-17
 -1      1671 2.37429E-04-5.75743E-05-7.13320E-05-3.59033E-05 3.71445E-18-7.34420E-18
 -1      1672 1.42001E-04-1.47587E-05-5.25412E-05-7.16331E-05 9.44526E-18-1.34034E-17
 -1      1673 1.88102E-04-3.54717E-05-6.08784E-05-6.86880E-05 6.69664E-18-1.14604E-17
 -1      1674 7.83194E-05 1.12412E-06-3.46839E-05-5.83601E-05 1.29376E-17-1.35474E-17
 -1      1675 1.15123E-04-6.67809E-06-4.41063E-05-7.53010E-05 1.08522E-17-1.42954E-17
 -1      1676 4.09089E-05-1.12148E-05-1.57165E-05-2.89734E-05 1.22752E-17-9.89800E-18
 -1      1677 5.94225E-05-5.00748E-07-2.54520E-05-5.12354E-05 1.26928E-17-1.24700E-17
 -1      1678 2.36869E-05-3.40854E-05-3.02112E-07-7.86892E-06 9.50202E-18-6.15306E-18
 -1      1679 2.48569E-05-1.36139E-05-7.51279E-06-2.00444E-05 1.20262E-17-8.95737E-18
 -1      1680 2.08845E-05-5.62759E-05 9.61601E-06-2.58899E-06 3.71382E-18-3.50883E-18
 -1      1681 1.67166E-05-3.88174E-05 5.15394E-06-2.09429E-06 7.96973E-18-5.29210E-18
 -1      1682 1.94782E-05-6.35417E-05 1.30548E-05-5.20637E-06-2.88544E-18-3.00824E-18
 -1      1683 1.84227E-05-6.00067E-05 1.22670E-05 2.88189E-06 1.92509E-18-3.03788E-18
 -1      1684 1.63043E-05-4.86585E-05 8.87161E-06-4.51027E-06-8.98194E-18-4.86853E-18
 -1      1685 2.03290E-05-6.15567E-05 1.18501E-05-2.16169E-07-4.67287E-18-3.43599E-18
 -1      1686 2.39896E-05-2.52853E-05-2.79422E-06 1.26127E-05-1.20084E-17-8.08811E-18
 -1      1687 2.44663E-05-4.50378E-05 3.84673E-06 4.21417E-06-9.70192E-18-5.66517E-18
 -1      1688 4.34180E-05-4.27827E-06-1.84098E-05 3.70341E-05-1.42454E-17-1.24294E-17
 -1      1689 3.24614E-05-1.96216E-05-9.66071E-06 1.76350E-05-1.38109E-17-9.65025E-18
 -1      1690 9.96712E-05-8.45090E-06-3.78184E-05 6.53419E-05-1.16738E-17-1.43335E-17
 -1      1691 6.73489E-05-7.42553E-06-2.75906E-05 4.42981E-05-1.31417E-17-1.27690E-17
 -1      1692 1.64751E-04-2.59513E-05-5.54648E-05 7.56876E-05-8.55080E-18-1.38896E-17
 -1      1693 1.21713E-04-9.81352E-06-4.69248E-05 6.95240E-05-1.10470E-17-1.46452E-17
 -1      1694 2.26901E-04-5.24102E-05-6.88554E-05 5.10248E-05-5.03903E-18-8.80237E-18
 -1      1695 1.87033E-04-3.27766E-05-6.23968E-05 6.65497E-05-7.44478E-18-1.20999E-17
 -1      1696 2.58604E-04-6.59360E-05-7.56265E-05 7.01327E-06-3.16557E-18-2.43056E-18
 -1      1697 2.41833E-04-5.69615E-05-7.32682E-05 3.94917E-05-4.24427E-18-7.30651E-18
 -1      1698 2.41791E-04-5.62510E-05-7.34111E-05-4.28802E-05-3.56897E-18 4.27074E-18
 -1      1699 2.58986E-04-6.60030E-05-7.57323E-05-8.76356E-06-2.59150E-18-2.67239E-19
 -1      1700 1.82353E-04-2.96477E-05-6.17456E-05-7.01957E-05-6.31505E-18 9.05139E-18
 -1      1701 2.25671E-04-5.11155E-05-6.87424E-05-5.51466E-05-4.18688E-18 5.75305E-18
 -1      1702 1.12686E-04-7.56539E-06-4.42443E-05-6.76686E-05-9.06325E-18 1.14460E-17
 -1      1703 1.57908E-04-2.31495E-05-5.38430E-05-7.71312E-05-7.28110E-18 1.05574E-17
 -1      1704 5.77744E-05-5.12334E-06-2.47292E-05-4.20365E-05-1.15027E-17 1.00949E-17
 -1      1705 8.66385E-05-2.81351E-06-3.48042E-05-6.48679E-05-1.01703E-17 1.14875E-17
 -1      1706 3.09942E-05-2.88094E-05-5.60117E-06-1.26129E-05-1.06709E-17 6.92873E-18
 -1      1707 4.01376E-05-8.69517E-06-1.52228E-05-3.34634E-05-1.13960E-17 9.46136E-18
 -1      1708 2.35517E-05-5.89705E-05 8.79761E-06 2.27370E-06-7.83505E-18 3.88335E-18
 -1      1709 1.89265E-05-3.48402E-05 2.33608E-06-2.77290E-06-1.03880E-17 5.43922E-18
 -1      1710 2.27339E-05-7.28004E-05 1.50169E-05-1.42495E-06 2.09535E-19 2.95276E-18
 -1      1711 1.95645E-05-6.35155E-05 1.28307E-05 6.93914E-06-5.67978E-18 4.05263E-18
 -1      1712 1.14179E-04-2.96701E-05-3.53487E-05 4.68464E-05 6.18588E-18 4.43845E-18
 -1      1713 7.36262E-05-3.26617E-05-1.85131E-05 4.16053E-05 6.22061E-18 5.96015E-18
 -1      1714 9.52370E-05-2.85712E-05-2.85710E-05-1.58167E-10-4.82513E-18-2.59818E-18
 -1      1715 9.52369E-05-2.85717E-05-2.85708E-05-8.39840E-10-5.27311E-19 1.02708E-18
 -1      1716 1.94983E-05-4.30412E-05 6.32602E-06 1.75254E-05 2.92269E-18 5.04090E-18
 -1      1717 3.97659E-05-3.81311E-05-3.58751E-06 2.96523E-05 5.30581E-18 5.21709E-18
 -1      1718 1.10313E-05-4.53670E-05 1.04872E-05 2.41725E-06 2.97309E-19 5.84664E-18
 -1      1719 1.54851E-04-2.85041E-05-5.11663E-05 4.65669E-05 5.71938E-18 3.76167E-18
 -1      1720 1.88370E-04-3.10952E-05-6.29707E-05 3.18985E-05 4.61993E-18 1.60174E-18
 -1      1721 2.01619E-04-2.99535E-05-6.87759E-05 9.67867E-06 4.55619E-18-1.42471E-18
 -1      1722 2.01397E-04-3.09349E-05-6.82415E-05-1.18934E-05 5.29014E-18-3.50545E-18
 -1      1723 1.82014E-04-3.13017E-05-6.06553E-05-3.09558E-05 6.25163E-18-6.07407E-18
 -1      1724 1.43074E-04-2.81668E-05-4.69737E-05-4.49121E-05 7.32218E-18-7.83421E-18
 -1      1725 9.74363E-05-2.74050E-05-2.99806E-05-4.56330E-05 7.35098E-18-8.24925E-18
 -1      1726 5.78720E-05-3.02387E-05-1.35715E-05-3.79734E-05 6.33835E-18-7.69805E-18
 -1      1727 2.81247E-05-3.39848E-05-5.60228E-07-2.54498E-05 4.19620E-18-6.59447E-18
 -1      1728 1.25111E-05-3.79678E-05 7.07357E-06-1.18890E-05 1.19156E-18-5.82843E-18
 -1      1729 1.00342E-05-3.91833E-05 8.43942E-06 2.92384E-06-2.22431E-18-5.88857E-18
 -1      1730 2.33592E-05-3.63569E-05 2.47337E-06 2.03207E-05-4.71882E-18-6.32268E-18
 -1      1731 4.88006E-05-3.52187E-05-8.51326E-06 3.15648E-05-6.88977E-18-7.37130E-18
 -1      1732 8.70089E-05-3.29304E-05-2.39957E-05 4.08198E-05-8.24502E-18-8.60077E-18
 -1      1733 1.32433E-04-3.34661E-05-4.11290E-05 4.26798E-05-7.65210E-18-8.51099E-18
 -1      1734 1.74120E-04-3.39405E-05-5.65082E-05 3.55957E-05-7.05817E-18-6.83810E-18
 -1      1735 2.02681E-04-3.43805E-05-6.71353E-05 1.77223E-05-6.27355E-18-4.51342E-18
 -1      1736 2.15750E-04-3.54052E-05-7.14643E-05-1.42294E-06-5.33843E-18-1.58051E-18
 -1      1737 2.02409E-04-3.39752E-05-6.71143E-05-2.09585E-05-5.33694E-18 1.77708E-18
 -1      1738 1.70592E-04-3.35543E-05-5.52742E-05-3.73872E-05-5.75358E-18 4.37916E-18
 -1      1739 1.25241E-04-3.16278E-05-3.88081E-05-4.60517E-05-6.16979E-18 6.35783E-18
 -1      1740 7.97086E-05-3.39923E-05-2.06607E-05-4.07679E-05-6.51284E-18 6.38070E-18
 -1      1741 4.25440E-05-3.99104E-05-4.12024E-06-2.84457E-05-5.73102E-18 5.54034E-18
 -1      1742 1.90950E-05-4.65345E-05 7.38192E-06-1.29929E-05-2.52543E-18 5.36680E-18
 -1      1743 1.32074E-04-3.06436E-05-4.35263E-05-1.31768E-05-1.32116E-18 6.58907E-18
 -1      1744 9.52433E-05-1.30396E-05-3.53891E-05-4.32177E-06-1.37166E-18-1.57728E-18
 -1      1745 1.01334E-04-1.52802E-05-3.70041E-05-6.74344E-06-1.69428E-18-8.36842E-19
 -1      1746 1.07963E-04-1.89087E-05-3.83642E-05-8.61753E-06-1.76044E-18 1.01273E-19
 -1      1747 1.14008E-04-2.19949E-05-3.99199E-05-1.11725E-05-1.98140E-18 1.27780E-18
 -1      1748 1.07410E-04-2.17434E-05-3.67627E-05-6.00934E-06-1.74283E-18-1.75627E-19
 -1      1749 7.21402E-05-3.09149E-06-2.97137E-05 7.64238E-07-5.74156E-19-3.11412E-18
 -1      1750 7.72125E-05-4.78908E-06-3.10124E-05 1.49060E-07-7.73870E-19-2.90107E-18
 -1      1751 6.34667E-05 9.10044E-07-2.76779E-05 2.91342E-08-3.36100E-19-3.55482E-18
 -1      1752 6.71488E-05-3.25034E-07-2.86021E-05 4.22073E-07-4.28969E-19-3.38275E-18
 -1      1753 7.01194E-05-3.23878E-06-2.86920E-05 1.53573E-06-4.65948E-19-3.18402E-18
 -1      1754 5.92575E-05 2.82277E-06-2.66388E-05-2.48442E-06-1.86040E-19-3.70413E-18
 -1      1755 6.06069E-05 2.46388E-06-2.70282E-05-1.49135E-06-2.87396E-19-3.67635E-18
 -1      1756 6.17615E-05 1.11595E-06-2.69225E-05-2.51630E-07-2.82581E-19-3.60373E-18
 -1      1757 6.04630E-05 1.95064E-06-2.67256E-05-5.22319E-06-6.05165E-20-3.63459E-18
 -1      1758 5.92520E-05 2.57917E-06-2.65510E-05-4.34490E-06-1.28578E-19-3.69641E-18
 -1      1759 5.87640E-05 2.43601E-06-2.61884E-05-3.69429E-06-1.86523E-19-3.73366E-18
 -1      1760 6.62357E-05-1.23452E-06-2.78051E-05-6.47870E-06 9.79514E-20-3.35081E-18
 -1      1761 6.30791E-05 9.02841E-08-2.71639E-05-6.36305E-06-1.70333E-20-3.50363E-18
 -1      1762 6.17022E-05 2.85060E-07-2.65580E-05-6.72833E-06-1.04751E-19-3.57759E-18
 -1      1763 7.43916E-05-5.36454E-06-2.95410E-05-5.36151E-06 3.57938E-19-2.97285E-18
 -1      1764 7.03740E-05-3.84428E-06-2.86131E-05-6.25803E-06 2.24424E-19-3.14873E-18
 -1      1765 6.90690E-05-4.24055E-06-2.78320E-05-7.49927E-06 8.69863E-20-3.21291E-18
 -1      1766 8.26053E-05-9.06380E-06-3.15139E-05-2.12728E-06 8.40138E-19-2.55265E-18
 -1      1767 7.87411E-05-7.78369E-06-3.05018E-05-3.85532E-06 5.71575E-19-2.78004E-18
 -1      1768 7.81955E-05-9.27344E-06-2.96200E-05-5.49451E-06 4.56948E-19-2.76273E-18
 -1      1769 8.99114E-05-1.18633E-05-3.34971E-05 2.53488E-06 1.33670E-18-1.94706E-18
 -1      1770 8.65271E-05-1.09113E-05-3.24936E-05 2.21041E-07 1.07749E-18-2.27991E-18
 -1      1771 8.69104E-05-1.34796E-05-3.15606E-05-1.38435E-06 9.65743E-19-2.25386E-18
 -1      1772 9.60903E-05-1.39679E-05-3.53074E-05 7.73416E-06 1.84170E-18-1.08971E-18
 -1      1773 9.31738E-05-1.31925E-05-3.43794E-05 5.14253E-06 1.52191E-18-1.54896E-18
 -1      1774 9.43009E-05-1.65424E-05-3.34013E-05 3.71108E-06 1.47030E-18-1.59011E-18
 -1      1775 1.02114E-04-1.64517E-05-3.69214E-05 1.27687E-05 2.21160E-18 2.56625E-19
 -1      1776 9.90704E-05-1.53070E-05-3.60512E-05 1.01112E-05 2.00141E-18-5.13964E-19
 -1      1777 1.00548E-04-1.90346E-05-3.49806E-05 8.68346E-06 2.00100E-18-5.55680E-19
 -1      1778 1.10311E-04-2.16577E-05-3.82477E-05 1.65586E-05 2.30719E-18 2.73698E-18
 -1      1779 1.05798E-04-1.88067E-05-3.74787E-05 1.44292E-05 2.21003E-18 1.25430E-18
 -1      1780 1.07042E-04-2.24849E-05-3.62223E-05 1.23741E-05 2.23913E-18 8.95261E-19
 -1      1781 1.18530E-04-3.03423E-05-3.82898E-05 1.37277E-05 1.96538E-18 5.62906E-18
 -1      1782 1.13445E-04-2.42909E-05-3.82127E-05 1.60916E-05 2.16716E-18 3.71678E-18
 -1      1783 1.12462E-04-2.73120E-05-3.65989E-05 1.25100E-05 2.32750E-18 2.73041E-18
 -1      1784 1.15497E-04-3.16532E-05-3.61759E-05 8.94565E-06 2.02751E-18 4.98759E-18
 -1      1785 1.23994E-04-2.66233E-05-4.14339E-05-1.36840E-05-1.73910E-18 3.28649E-18
 -1      1786 1.11834E-04-3.30460E-05-3.38137E-05 5.18372E-06 1.69491E-18 4.10939E-18
 -1      1787 1.14491E-04-3.31434E-05-3.49311E-05 6.76137E-06 1.68930E-18 4.69663E-18
 -1      1788 1.13608E-04-3.13604E-05-3.52405E-05 9.06563E-06 1.99452E-18 3.34925E-18
 -1      1789 1.22625E-04-3.00086E-05-3.94083E-05-8.81195E-06-1.80635E-18 2.48414E-18
 -1      1790 1.23259E-04-3.63139E-05-3.71298E-05-2.02369E-06-1.36026E-18 2.43907E-18
 -1      1791 1.22216E-04-3.70074E-05-3.65748E-05-1.59853E-06-1.19923E-18 2.06301E-18
 -1      1792 1.22666E-04-3.80327E-05-3.61650E-05-1.99441E-06-9.42298E-19 2.23802E-18
 -1      1793 1.21913E-04-3.85604E-05-3.57968E-05-3.21101E-06-7.58756E-19 1.90077E-18
 -1      1794 1.20312E-04-3.71382E-05-3.56888E-05-2.30627E-06-1.16879E-18 1.13856E-18
 -1      1795 1.22565E-04-3.93706E-05-3.55948E-05-5.22944E-06-4.72294E-19 2.02547E-18
 -1      1796 1.21058E-04-3.91760E-05-3.51721E-05-7.38407E-06-3.26637E-19 1.96306E-18
 -1      1797 1.21721E-04-3.98968E-05-3.50935E-05-4.66155E-06-6.75026E-19 1.42409E-18
 -1      1798 1.21100E-04-3.90997E-05-3.51505E-05-1.01617E-05-4.23768E-19 2.15188E-18
 -1      1799 1.18435E-04-3.76057E-05-3.46646E-05-1.20804E-05-6.58873E-19 2.03578E-18
 -1      1800 1.22614E-04-4.08882E-05-3.50144E-05-9.87418E-06-4.75410E-19 1.71453E-18
 -1      1801 1.17078E-04-3.59679E-05-3.48477E-05-1.37435E-05-8.92799E-19 1.97467E-18
 -1      1802 1.13671E-04-3.32279E-05-3.44168E-05-1.37296E-05-1.22719E-18 1.36362E-18
 -1      1803 1.21241E-04-3.83836E-05-3.54901E-05-1.50298E-05-9.21267E-19 1.61458E-18
 -1      1804 1.11212E-04-3.04873E-05-3.47178E-05-1.20663E-05-1.45549E-18 1.01287E-18
 -1      1805 1.08517E-04-2.79458E-05-3.44614E-05-9.06592E-06-1.45803E-18 6.77084E-19
 -1      1806 1.17004E-04-3.21864E-05-3.63991E-05-1.54637E-05-1.70307E-18 1.12805E-18
 -1      1807 1.06893E-04-2.62352E-05-3.46305E-05-3.86070E-06-1.80008E-18 5.68703E-20
 -1      1808 1.06497E-04-2.58837E-05-3.45827E-05 9.27216E-07-1.95516E-18-5.65130E-19
 -1      1809 1.12438E-04-2.60079E-05-3.72174E-05-7.95528E-06-2.12960E-18 2.78403E-19
 -1      1810 1.07331E-04-2.69117E-05-3.44188E-05 6.60373E-06-2.20514E-18-1.04376E-18
 -1      1811 1.09432E-04-2.90371E-05-3.45772E-05 1.02496E-05-1.67633E-18-1.45776E-18
 -1      1812 1.11597E-04-2.51220E-05-3.72616E-05 4.53265E-06-2.43697E-18-1.58660E-18
 -1      1813 1.11688E-04-3.17449E-05-3.41953E-05 1.28317E-05-1.31335E-18-1.86806E-18
 -1      1814 1.14887E-04-3.46157E-05-3.45217E-05 1.34547E-05-8.93825E-19-2.39951E-18
 -1      1815 1.15132E-04-3.03428E-05-3.64217E-05 1.37482E-05-2.00847E-18-2.21491E-18
 -1      1816 1.16301E-04-3.66010E-05-3.41661E-05 1.22302E-05-5.65393E-19-2.46620E-18
 -1      1817 1.18910E-04-3.84439E-05-3.45385E-05 1.04276E-05 1.56807E-19-2.68838E-18
 -1      1818 1.19314E-04-3.70511E-05-3.52360E-05 1.48505E-05-9.31584E-19-2.52200E-18
 -1      1819 1.18708E-04-3.88375E-05-3.43190E-05 7.29081E-06 3.94334E-19-2.83663E-18
 -1      1820 1.19921E-04-3.92645E-05-3.45741E-05 4.65740E-06 2.34244E-19-2.88151E-18
 -1      1821 1.20721E-04-4.06065E-05-3.42940E-05 9.65973E-06 5.87000E-20-2.66886E-18
 -1      1822 1.18586E-04-3.85238E-05-3.44284E-05 1.57638E-06 2.29069E-19-2.86353E-18
 -1      1823 1.18455E-04-3.80237E-05-3.44616E-05-6.44839E-07 3.79345E-19-2.58748E-18
 -1      1824 1.19131E-04-4.04253E-05-3.37245E-05 2.74549E-06 3.20979E-19-2.46274E-18
 -1      1825 1.16748E-04-3.69378E-05-3.42994E-05-2.73908E-06-1.52559E-19-2.56341E-18
 -1      1826 1.15706E-04-3.60927E-05-3.41124E-05-4.11075E-06-5.07002E-19-2.36705E-18
 -1      1827 1.15939E-04-3.81521E-05-3.33538E-05-2.81999E-06 1.16983E-19-1.84952E-18
 -1      1828 1.14056E-04-3.51107E-05-3.38909E-05-5.15818E-06-4.39967E-19-2.09900E-18
 -1      1829 1.12552E-04-3.42578E-05-3.35510E-05-5.75292E-06 1.95072E-19-1.69787E-18
 -1      1830 1.12439E-04-3.55135E-05-3.29907E-05-6.12911E-06-2.71954E-19-1.45572E-18
 -1      1831 1.11104E-04-3.35102E-05-3.32767E-05-6.03236E-06 2.83781E-19-1.85710E-18
 -1      1832 1.09470E-04-3.27794E-05-3.28651E-05-6.09787E-06 2.52209E-19-1.78371E-18
 -1      1833 1.09236E-04-3.33293E-05-3.25517E-05-7.48906E-06 7.66333E-20-1.14438E-18
 -1      1834 1.08240E-04-3.22485E-05-3.25658E-05-5.92045E-06 1.96812E-19-1.87415E-18
 -1      1835 1.06680E-04-3.16638E-05-3.21466E-05-5.69450E-06-6.09053E-21-1.92269E-18
 -1      1836 1.06492E-04-3.17629E-05-3.20428E-05-7.54583E-06 1.51206E-19-1.19424E-18
 -1      1837 1.05646E-04-3.12924E-05-3.18502E-05-5.29627E-06-2.16093E-19-1.67732E-18
 -1      1838 1.04262E-04-3.08382E-05-3.14633E-05-4.94653E-06-4.76549E-19-1.56022E-18
 -1      1839 1.04194E-04-3.07107E-05-3.15060E-05-6.88382E-06 1.09189E-19-1.18538E-18
 -1      1840 1.03401E-04-3.05750E-05-3.11897E-05-4.47624E-06-1.25599E-19-1.44812E-18
 -1      1841 1.02231E-04-3.02269E-05-3.08542E-05-4.10198E-06 5.62079E-19-1.16583E-18
 -1      1842 1.02287E-04-3.00176E-05-3.09840E-05-5.91194E-06-6.79926E-20-1.61326E-18
 -1      1843 1.01521E-04-3.00361E-05-3.06142E-05-3.64152E-06 6.58548E-19-1.30984E-18
 -1      1844 1.00566E-04-2.97715E-05-3.03352E-05-3.29332E-06 1.17531E-18-1.00510E-18
 -1      1845 1.00718E-04-2.95573E-05-3.05073E-05-4.87611E-06 4.79185E-19-1.36846E-18
 -1      1846 9.99883E-05-2.96304E-05-3.01327E-05-2.88146E-06 1.28755E-18-1.46776E-18
 -1      1847 9.92279E-05-2.94308E-05-2.99078E-05-2.58028E-06 8.81123E-19-1.57528E-18
 -1      1848 9.94386E-05-2.92451E-05-3.00918E-05-3.90590E-06 1.13710E-18-1.32890E-18
 -1      1849 9.87643E-05-2.93252E-05-2.97418E-05-2.23080E-06 4.08667E-19-1.49334E-18
 -1      1850 9.81719E-05-2.91761E-05-2.95648E-05-1.98151E-06 6.99547E-21-1.09468E-18
 -1      1851 9.84089E-05-2.90284E-05-2.97423E-05-3.05822E-06 5.65924E-19-1.84379E-18
 -1      1852 9.78055E-05-2.90967E-05-2.94318E-05-1.69498E-06-3.00529E-19-8.46564E-19
 -1      1853 9.73523E-05-2.89866E-05-2.92953E-05-1.49464E-06-4.85632E-19-7.20419E-19
 -1      1854 9.75912E-05-2.88753E-05-2.94564E-05-2.34890E-06 1.85532E-19-1.35416E-18
 -1      1855 9.70673E-05-2.89273E-05-2.91910E-05-1.26543E-06-9.81317E-19-2.32212E-19
 -1      1856 9.67266E-05-2.88471E-05-2.90875E-05-1.10789E-06-8.43785E-19-3.14234E-19
 -1      1857 9.69515E-05-2.87665E-05-2.92278E-05-1.77263E-06-5.91498E-19-7.57149E-19
 -1      1858 9.65084E-05-2.88033E-05-2.90071E-05-9.28049E-07-5.96698E-19-1.64146E-19
 -1      1859 9.62568E-05-2.87460E-05-2.89301E-05-8.06325E-07-3.58338E-19-1.77961E-19
 -1      1860 9.64586E-05-2.86894E-05-2.90487E-05-1.31472E-06-6.39359E-19-3.49019E-19
 -1      1861 9.60926E-05-2.87142E-05-2.88693E-05-6.67549E-07-4.33240E-19-8.74615E-19
 -1      1862 9.59102E-05-2.86741E-05-2.88130E-05-5.74978E-07-4.24579E-19-1.71248E-18
 -1      1863 9.60849E-05-2.86355E-05-2.89107E-05-9.57372E-07-7.62369E-19-5.42653E-19
 -1      1864 9.57888E-05-2.86515E-05-2.87677E-05-4.69538E-07-1.15331E-19-1.48459E-18
 -1      1865 9.56594E-05-2.86243E-05-2.87274E-05-4.00217E-07 6.32793E-23-1.37120E-18
 -1      1866 9.58064E-05-2.85987E-05-2.88064E-05-6.82962E-07-1.62246E-19-1.48379E-18
 -1      1867 9.55714E-05-2.86086E-05-2.86943E-05-3.21347E-07 1.17987E-19-1.14323E-18
 -1      1868 9.54820E-05-2.85908E-05-2.86661E-05-2.70274E-07 2.06546E-19-1.18708E-18
 -1      1869 9.56027E-05-2.85746E-05-2.87288E-05-4.75486E-07 1.80385E-19-1.21107E-18
 -1      1870 9.54197E-05-2.85803E-05-2.86424E-05-2.12254E-07-7.13942E-20-1.17204E-18
 -1      1871 9.53599E-05-2.85694E-05-2.86233E-05-1.75298E-07-3.84584E-19-1.61185E-18
 -1      1872 9.54570E-05-2.85597E-05-2.86722E-05-3.21104E-07-3.22850E-19-3.63286E-19
 -1      1873 9.53170E-05-2.85627E-05-2.86068E-05-1.33405E-07-2.49891E-19-1.65466E-18
 -1      1874 9.52787E-05-2.85565E-05-2.85943E-05-1.07220E-07 3.40178E-23-1.39223E-18
 -1      1875 9.53554E-05-2.85512E-05-2.86318E-05-2.08204E-07-5.93355E-20-1.32522E-18
 -1      1876 9.52502E-05-2.85526E-05-2.85831E-05-7.76251E-08-7.71070E-19-1.35955E-18
 -1      1877 9.52273E-05-2.85497E-05-2.85754E-05-5.95408E-08-3.19585E-19-1.46082E-18
 -1      1878 9.52867E-05-2.85473E-05-2.86037E-05-1.27249E-07-4.37263E-19-1.22875E-18
 -1      1879 9.52092E-05-2.85477E-05-2.85682E-05-3.91865E-08-2.69780E-19-1.43971E-18
 -1      1880 9.51970E-05-2.85470E-05-2.85638E-05-2.71001E-08-1.30731E-19-1.10402E-18
 -1      1881 9.52423E-05-2.85464E-05-2.85847E-05-7.05443E-08-4.84022E-19-1.92322E-19
 -1      1882 9.51865E-05-2.85463E-05-2.85594E-05-1.35759E-08 1.61889E-19-1.84969E-18
 -1      1883 9.51814E-05-2.85469E-05-2.85573E-05-5.85231E-09 4.60670E-19-1.13066E-18
 -1      1884 9.52153E-05-2.85474E-05-2.85725E-05-3.19640E-08 2.39677E-19-5.92457E-19
 -1      1885 9.51760E-05-2.85470E-05-2.85549E-05 2.71552E-09-2.27315E-19-1.39827E-18
 -1      1886 9.51757E-05-2.85484E-05-2.85543E-05 7.33103E-09-2.28865E-19-1.57146E-18
 -1      1887 9.52004E-05-2.85495E-05-2.85651E-05-6.70200E-09-2.83451E-19-1.64872E-18
 -1      1888 9.51737E-05-2.85490E-05-2.85532E-05 1.23795E-08-5.28430E-19-1.88192E-18
 -1      1889 9.51762E-05-2.85507E-05-2.85536E-05 1.48364E-08-5.85940E-19-2.30896E-18
 -1      1890 9.51939E-05-2.85522E-05-2.85610E-05 8.96319E-09-7.65431E-19-1.88795E-18
 -1      1891 9.51765E-05-2.85516E-05-2.85534E-05 1.74515E-08-1.96252E-19-1.75100E-18
 -1      1892 9.51805E-05-2.85535E-05-2.85543E-05 1.84569E-08-3.01507E-19-1.68648E-18
 -1      1893 9.51928E-05-2.85550E-05-2.85592E-05 1.78720E-08 3.56694E-20-7.23679E-19
 -1      1894 9.51821E-05-2.85545E-05-2.85547E-05 1.94458E-08 2.26858E-19-1.25190E-18
 -1      1895 9.51869E-05-2.85563E-05-2.85559E-05 1.95175E-08 3.64064E-19-4.23073E-19
 -1      1896 9.51951E-05-2.85577E-05-2.85590E-05 2.21593E-08 5.15250E-19-3.56222E-19
 -1      1897 9.51892E-05-2.85573E-05-2.85565E-05 1.94690E-08 5.59720E-19-2.49317E-19
 -1      1898 9.51941E-05-2.85590E-05-2.85578E-05 1.89775E-08 1.07412E-18-1.34141E-19
 -1      1899 9.51992E-05-2.85603E-05-2.85596E-05 2.34023E-08 6.15457E-19-1.75968E-19
 -1      1900 9.51967E-05-2.85599E-05-2.85586E-05 1.83115E-08 1.12922E-18 8.58624E-19
 -1      1901 9.52013E-05-2.85614E-05-2.85599E-05 1.75152E-08 5.09477E-19 9.55464E-19
 -1      1902 9.52043E-05-2.85625E-05-2.85608E-05 2.27427E-08 1.51537E-18 1.95090E-18
 -1      1903 9.52039E-05-2.85623E-05-2.85608E-05 1.65221E-08-5.01280E-19 1.27102E-18
 -1      1904 9.52082E-05-2.85636E-05-2.85620E-05 1.55939E-08-6.37034E-19 1.72729E-18
 -1      1905 9.52096E-05-2.85645E-05-2.85622E-05 2.09864E-08 6.06236E-19 2.64593E-18
 -1      1906 9.52107E-05-2.85643E-05-2.85628E-05 1.44661E-08-4.69411E-19 2.13446E-18
 -1      1907 9.52144E-05-2.85655E-05-2.85639E-05 1.35152E-08 2.13185E-19 2.38662E-18
 -1      1908 9.52147E-05-2.85661E-05-2.85637E-05 1.86828E-08-2.72802E-20 4.27277E-18
 -1      1909 9.52167E-05-2.85661E-05-2.85646E-05 1.23712E-08 1.49918E-18 1.35698E-18
 -1      1910 9.52199E-05-2.85670E-05-2.85655E-05 1.14580E-08 1.95306E-18 2.56721E-18
 -1      1911 9.52194E-05-2.85675E-05-2.85651E-05 1.61874E-08 5.08821E-19 3.81944E-18
 -1      1912 9.52219E-05-2.85676E-05-2.85662E-05 1.03601E-08 1.62103E-18 3.50838E-18
 -1      1913 9.52246E-05-2.85684E-05-2.85670E-05 9.50805E-09 2.13000E-18 4.77918E-18
 -1      1914 9.52236E-05-2.85687E-05-2.85664E-05 1.37088E-08 2.11483E-18 2.87782E-18
 -1      1915 9.52263E-05-2.85688E-05-2.85675E-05 8.47620E-09 7.29310E-19 3.42358E-18
 -1      1916 9.52285E-05-2.85695E-05-2.85682E-05 7.67922E-09 4.88071E-19 2.86575E-18
 -1      1917 9.52273E-05-2.85697E-05-2.85675E-05 1.13448E-08 8.84751E-19 2.69622E-18
 -1      1918 9.52299E-05-2.85699E-05-2.85686E-05 6.70172E-09 3.36036E-19 2.04641E-18
 -1      1919 9.52317E-05-2.85704E-05-2.85691E-05 5.93148E-09 5.42164E-19 1.96669E-18
 -1      1920 9.52303E-05-2.85705E-05-2.85685E-05 9.11030E-09-3.17449E-19 1.74028E-18
 -1      1921 9.52328E-05-2.85707E-05-2.85695E-05 4.97710E-09 4.14372E-19 1.21583E-18
 -1      1922 9.52341E-05-2.85712E-05-2.85699E-05 4.19337E-09-8.71928E-19 2.35729E-18
 -1      1923 9.52329E-05-2.85712E-05-2.85692E-05 6.96394E-09-1.28612E-19 2.68027E-18
 -1      1924 9.52350E-05-2.85714E-05-2.85701E-05 3.28620E-09-2.53431E-19 2.87480E-18
 -1      1925 9.52358E-05-2.85717E-05-2.85704E-05 2.50039E-09 1.00331E-20 2.42438E-18
 -1      1926 9.52362E-05-2.85722E-05-2.85703E-05 2.96171E-09-6.45547E-19 4.32399E-18
 -1      1927 9.52348E-05-2.85718E-05-2.85698E-05 4.90112E-09-9.11367E-20 3.71108E-18
 -1      1928 1.08611E-04-3.28742E-05-3.24459E-05 4.82869E-06 1.02215E-18 3.42201E-18
 -1      1929 1.10578E-04-3.32188E-05-3.31145E-05 4.88742E-06 1.35910E-18 3.84368E-18
 -1      1930 1.10958E-04-3.30148E-05-3.33974E-05 6.48458E-06 1.61148E-18 2.88055E-18
 -1      1931 1.05338E-04-3.20654E-05-3.13871E-05 5.67656E-06 8.01045E-19 2.89432E-18
 -1      1932 1.07239E-04-3.26316E-05-3.19441E-05 5.19719E-06 7.10310E-19 3.12072E-18
 -1      1933 1.08218E-04-3.29830E-05-3.22250E-05 6.52995E-06 1.03274E-18 2.47455E-18
 -1      1934 1.01712E-04-3.07000E-05-3.04147E-05 6.46945E-06 4.72487E-19 2.41727E-18
 -1      1935 1.03767E-04-3.14932E-05-3.09592E-05 6.04081E-06 5.82835E-19 2.56886E-18
 -1      1936 1.05258E-04-3.20766E-05-3.13438E-05 7.43337E-06 8.16524E-19 1.82402E-18
 -1      1937 9.79413E-05-2.89530E-05-2.95447E-05 6.18329E-06 5.10943E-19 2.08819E-18
 -1      1938 1.00002E-04-2.98618E-05-3.00461E-05 6.28186E-06 4.77614E-19 2.39320E-18
 -1      1939 1.01946E-04-3.04649E-05-3.06239E-05 7.80161E-06 5.83899E-19 1.56088E-18
 -1      1940 9.47713E-05-2.73081E-05-2.88990E-05 4.22743E-06 8.67435E-19 1.52828E-18
 -1      1941 9.64230E-05-2.80739E-05-2.92692E-05 5.11808E-06 6.91437E-19 1.80420E-18
 -1      1942 9.86637E-05-2.85215E-05-3.00707E-05 6.57313E-06 9.10087E-19 1.23388E-18
 -1      1943 9.31767E-05-2.64413E-05-2.86022E-05 8.54793E-07 9.77066E-19 7.62821E-19
 -1      1944 9.39434E-05-2.67631E-05-2.87554E-05 2.39441E-06 9.02871E-19 1.17917E-18
 -1      1945 9.62607E-05-2.69731E-05-2.97289E-05 3.41872E-06 1.11780E-18 5.87894E-19
 -1      1946 9.37287E-05-2.67581E-05-2.87118E-05-2.84765E-06 1.06287E-18 1.65946E-19
 -1      1947 9.33556E-05-2.64954E-05-2.86104E-05-1.16800E-06 1.01672E-18 6.08613E-19
 -1      1948 9.55679E-05-2.65267E-05-2.96286E-05-9.01698E-07 1.23390E-18 3.97309E-19
 -1      1949 9.62001E-05-2.81218E-05-2.91822E-05-5.55483E-06 3.82545E-19-1.38159E-19
 -1      1950 9.48161E-05-2.73848E-05-2.88603E-05-4.33168E-06 8.29510E-19 1.93626E-20
 -1      1951 9.68040E-05-2.74038E-05-2.97640E-05-4.89997E-06 8.83138E-19 1.95347E-20
 -1      1952 9.96300E-05-2.99070E-05-2.98747E-05-6.47215E-06 3.06361E-19-2.75100E-19
 -1      1953 9.77075E-05-2.89975E-05-2.94272E-05-6.03767E-06 5.35861E-19-1.26625E-19
 -1      1954 9.93845E-05-2.91789E-05-3.00879E-05-7.20536E-06 6.01155E-19-2.87640E-19
 -1      1955 1.02904E-04-3.14538E-05-3.06037E-05-5.68750E-06 9.45203E-20-1.09991E-18
 -1      1956 1.01006E-04-3.06661E-05-3.01491E-05-5.98876E-06 2.25501E-19-7.78642E-19
 -1      1957 1.02271E-04-3.10491E-05-3.05119E-05-7.34902E-06 4.09987E-19-8.31323E-19
 -1      1958 1.05258E-04-3.23989E-05-3.12035E-05-3.88167E-06 7.68696E-19-1.51953E-18
 -1      1959 1.03805E-04-3.18927E-05-3.08406E-05-4.62150E-06 2.54050E-19-1.16460E-18
 -1      1960 1.04576E-04-3.23852E-05-3.09279E-05-5.80078E-06 4.93115E-19-1.49511E-18
 -1      1961 1.06430E-04-3.27148E-05-3.15742E-05-1.82903E-06 3.11437E-19-1.12420E-18
 -1      1962 1.05603E-04-3.25072E-05-3.13563E-05-2.67996E-06 4.85204E-19-1.15789E-18
 -1      1963 1.05875E-04-3.29676E-05-3.12409E-05-3.46215E-06 4.78693E-19-1.16631E-18
 -1      1964 1.06535E-04-3.25614E-05-3.16919E-05-6.57217E-08-3.47429E-19-7.82880E-19
 -1      1965 1.06313E-04-3.25877E-05-3.16253E-05-8.02878E-07-3.59857E-20-9.60173E-19
 -1      1966 1.06168E-04-3.29139E-05-3.13945E-05-1.13891E-06 3.84341E-20-1.10819E-18
 -1      1967 1.05856E-04-3.21356E-05-3.15900E-05 1.17757E-06 1.81632E-19-5.48778E-19
 -1      1968 1.06105E-04-3.23101E-05-3.16492E-05 6.52068E-07 1.41415E-20-4.50658E-19
 -1      1969 1.05679E-04-3.24698E-05-3.13780E-05 6.99715E-07-1.09360E-19-8.57680E-19
 -1      1970 1.04700E-04-3.15950E-05-3.13310E-05 1.89254E-06-3.22941E-19-9.10632E-19
 -1      1971 1.05253E-04-3.18437E-05-3.14765E-05 1.58446E-06-2.09139E-19-8.05292E-19
 -1      1972 1.04690E-04-3.18582E-05-3.12164E-05 1.90543E-06 2.81605E-20-6.54948E-19
 -1      1973 1.03324E-04-3.10409E-05-3.09814E-05 2.18184E-06-1.25605E-19-1.23664E-18
 -1      1974 1.04033E-04-3.13115E-05-3.11741E-05 2.05055E-06 3.11111E-20-1.05288E-18
 -1      1975 1.03444E-04-3.12261E-05-3.09530E-05 2.53163E-06 1.64595E-19-1.82332E-18
 -1      1976 1.01915E-04-3.05285E-05-3.05975E-05 2.17721E-06-1.47641E-20-1.82144E-18
 -1      1977 1.02664E-04-3.07889E-05-3.08058E-05 2.16933E-06-2.00540E-19-1.48848E-18
 -1      1978 1.02125E-04-3.06499E-05-3.06340E-05 2.71728E-06 6.70211E-20-1.67648E-18
 -1      1979 1.00589E-04-3.00828E-05-3.02201E-05 1.99657E-06 2.67597E-19-1.33153E-18
 -1      1980 1.01305E-04-3.03158E-05-3.04221E-05 2.06374E-06 1.44964E-19-1.28828E-18
 -1      1981 1.00853E-04-3.01593E-05-3.02987E-05 2.61212E-06-1.10913E-19-2.22825E-18
 -1      1982 9.94115E-05-2.97105E-05-2.98745E-05 1.72908E-06-2.50772E-19-1.16789E-18
 -1      1983 1.00052E-04-2.99090E-05-3.00571E-05 1.83438E-06-2.00045E-19-8.01106E-19
 -1      1984 9.96983E-05-2.97585E-05-2.99755E-05 2.34172E-06-3.05128E-19-1.49361E-18
 -1      1985 9.84101E-05-2.94091E-05-2.95737E-05 1.43483E-06 8.97378E-19-1.82830E-18
 -1      1986 9.89565E-05-2.95720E-05-2.97308E-05 1.55311E-06 1.32992E-19-1.44591E-18
 -1      1987 9.86959E-05-2.94401E-05-2.96824E-05 1.99762E-06 4.70466E-19-1.45307E-18
 -1      1988 9.75866E-05-2.91714E-05-2.93220E-05 1.15035E-06 3.75977E-19-9.87776E-19
 -1      1989 9.80355E-05-2.93010E-05-2.94520E-05 1.26611E-06 8.56517E-19-9.71013E-19
 -1      1990 9.78553E-05-2.91926E-05-2.94282E-05 1.63986E-06 5.16934E-19-1.12661E-18
 -1      1991 9.69289E-05-2.89881E-05-2.91182E-05 8.95194E-07-7.89626E-19-1.30160E-18
 -1      1992 9.72863E-05-2.90885E-05-2.92223E-05 9.99943E-07-3.71938E-19-5.31400E-19
 -1      1993 9.71706E-05-2.90039E-05-2.92157E-05 1.30390E-06-2.14825E-19-1.97989E-19
 -1      1994 9.64171E-05-2.88499E-05-2.89576E-05 6.77654E-07-8.36735E-20-8.58820E-19
 -1      1995 9.66939E-05-2.89258E-05-2.90387E-05 7.67620E-07-6.87119E-19-1.20514E-18
 -1      1996 9.66271E-05-2.88627E-05-2.90432E-05 1.00782E-06-6.51441E-19-4.29243E-19
 -1      1997 9.60286E-05-2.87482E-05-2.88344E-05 4.99111E-07-3.61259E-20-3.63219E-19
 -1      1998 9.62373E-05-2.88040E-05-2.88959E-05 5.73444E-07 6.37177E-20-5.84571E-19
 -1      1999 9.62059E-05-2.87590E-05-2.89071E-05 7.58331E-07 3.38553E-20-4.90079E-19
 -1      2000 9.57410E-05-2.86752E-05-2.87423E-05 3.57051E-07 1.69620E-19 9.14718E-19
 -1      2001 9.58942E-05-2.87152E-05-2.87877E-05 4.16576E-07 1.57773E-19 4.49034E-19
 -1      2002 9.58870E-05-2.86845E-05-2.88022E-05 5.55310E-07 1.04146E-19 9.41803E-19
 -1      2003 9.55337E-05-2.86244E-05-2.86751E-05 2.47054E-07-1.08986E-18 2.46336E-19
 -1      2004 9.56430E-05-2.86520E-05-2.87078E-05 2.93446E-07-3.39503E-19 3.62931E-19
 -1      2005 9.56513E-05-2.86324E-05-2.87234E-05 3.94851E-07-1.80930E-19 1.63399E-18
 -1      2006 9.53887E-05-2.85902E-05-2.86276E-05 1.64034E-07-1.53339E-18-1.02297E-19
 -1      2007 9.54642E-05-2.86086E-05-2.86503E-05 1.99292E-07-1.35894E-18 3.60350E-19
 -1      2008 9.54815E-05-2.85971E-05-2.86656E-05 2.71309E-07-1.44928E-18 7.00279E-19
 -1      2009 9.52911E-05-2.85683E-05-2.85952E-05 1.02960E-07-7.60178E-19 1.12161E-18
 -1      2010 9.53410E-05-2.85799E-05-2.86104E-05 1.29098E-07-1.22038E-18 2.87713E-19
 -1      2011 9.53628E-05-2.85742E-05-2.86244E-05 1.78546E-07-1.19205E-18 1.23676E-18
 -1      2012 9.52285E-05-2.85552E-05-2.85739E-05 5.92483E-08-5.38836E-19 1.93986E-18
 -1      2013 9.52597E-05-2.85620E-05-2.85836E-05 7.81230E-08-2.88265E-19 1.51354E-18
 -1      2014 9.52828E-05-2.85602E-05-2.85960E-05 1.10652E-07-6.74509E-19 1.74026E-18
 -1      2015 9.51911E-05-2.85484E-05-2.85609E-05 2.89299E-08-3.18415E-19 1.30358E-18
 -1      2016 9.52090E-05-2.85518E-05-2.85666E-05 4.21648E-08-3.47365E-19 1.54001E-18
 -1      2017 9.52314E-05-2.85524E-05-2.85772E-05 6.23226E-08-2.20364E-19 1.64692E-18
 -1      2018 9.51715E-05-2.85457E-05-2.85537E-05 8.69903E-09-4.03038E-19 1.61680E-18
 -1      2019 9.51801E-05-2.85468E-05-2.85566E-05 1.76568E-08-4.77001E-19 1.44696E-18
 -1      2020 9.52007E-05-2.85490E-05-2.85654E-05 2.90127E-08-1.43632E-19 9.34996E-19
 -1      2021 9.51639E-05-2.85457E-05-2.85505E-05-4.11768E-09 9.71663E-19 1.27064E-18
 -1      2022 9.51664E-05-2.85454E-05-2.85514E-05 1.67258E-09 4.77009E-19 1.78318E-18
 -1      2023 9.51845E-05-2.85483E-05-2.85587E-05 6.96266E-09 3.77181E-19 8.19296E-19
 -1      2024 9.51641E-05-2.85474E-05-2.85498E-05-1.16272E-08 2.79502E-18 7.98615E-19
 -1      2025 9.51626E-05-2.85462E-05-2.85496E-05-8.12399E-09 1.44981E-18 1.21734E-18
 -1      2026 9.51781E-05-2.85494E-05-2.85554E-05-6.85028E-09 1.89994E-18 3.46440E-19
 -1      2027 9.51690E-05-2.85500E-05-2.85509E-05-1.54519E-08 4.56533E-19 2.11242E-18
 -1      2028 9.51652E-05-2.85483E-05-2.85499E-05-1.35532E-08 1.92158E-18 2.04668E-18
 -1      2029 9.51781E-05-2.85515E-05-2.85544E-05-1.47973E-08 1.64339E-18 2.85268E-18
 -1      2030 9.51764E-05-2.85529E-05-2.85528E-05-1.68127E-08-5.86018E-19 2.41228E-19
 -1      2031 9.51715E-05-2.85511E-05-2.85515E-05-1.60013E-08-1.90516E-19 1.43448E-18
 -1      2032 9.51820E-05-2.85540E-05-2.85550E-05-1.86961E-08 2.33564E-19 3.12177E-18
 -1      2033 9.51849E-05-2.85559E-05-2.85552E-05-1.66073E-08 1.26730E-18-6.58904E-19
 -1      2034 9.51796E-05-2.85541E-05-2.85538E-05-1.65000E-08 8.76304E-20-6.02327E-19
 -1      2035 9.51880E-05-2.85567E-05-2.85564E-05-1.99090E-08 3.98596E-19 3.84508E-19
 -1      2036 9.51936E-05-2.85587E-05-2.85577E-05-1.54781E-08-5.80399E-19-4.84973E-19
 -1      2037 9.51884E-05-2.85570E-05-2.85563E-05-1.57982E-08 4.96049E-19-1.21787E-18
 -1      2038 9.51949E-05-2.85592E-05-2.85582E-05-1.94324E-08 6.05956E-19-8.43608E-19
 -1      2039 9.52018E-05-2.85613E-05-2.85602E-05-1.38703E-08-6.50090E-19-4.27711E-19
 -1      2040 9.51970E-05-2.85598E-05-2.85588E-05-1.44240E-08-5.02291E-19-4.28338E-19
 -1      2041 9.52019E-05-2.85616E-05-2.85602E-05-1.79753E-08-8.21333E-19-8.26917E-19
 -1      2042 9.52093E-05-2.85635E-05-2.85624E-05-1.20784E-08 6.15400E-19-2.38875E-18
 -1      2043 9.52050E-05-2.85622E-05-2.85612E-05-1.27360E-08-1.74984E-19-1.03183E-18
 -1      2044 9.52086E-05-2.85637E-05-2.85621E-05-1.60246E-08 3.52932E-19-1.90740E-18
 -1      2045 9.52159E-05-2.85655E-05-2.85644E-05-1.02828E-08 2.39470E-19-1.74331E-18
 -1      2046 9.52121E-05-2.85643E-05-2.85634E-05-1.09634E-08 3.33236E-19-2.09305E-18
 -1      2047 9.52147E-05-2.85655E-05-2.85640E-05-1.38976E-08 3.61480E-19-2.44100E-18
 -1      2048 9.52215E-05-2.85671E-05-2.85662E-05-8.57732E-09 2.18766E-19-1.63680E-18
 -1      2049 9.52183E-05-2.85662E-05-2.85652E-05-9.23805E-09 9.19320E-19-1.27551E-18
 -1      2050 9.52201E-05-2.85670E-05-2.85656E-05-1.17830E-08 6.64488E-19-1.61470E-18
 -1      2051 9.52262E-05-2.85685E-05-2.85676E-05-6.98700E-09 5.41361E-20-2.38498E-18
 -1      2052 9.52236E-05-2.85677E-05-2.85669E-05-7.61613E-09-4.59728E-20-1.79697E-18
 -1      2053 9.52247E-05-2.85683E-05-2.85670E-05-9.77098E-09 3.73654E-19-9.40011E-19
 -1      2054 9.52301E-05-2.85696E-05-2.85688E-05-5.48768E-09 6.09101E-19-1.75849E-18
 -1      2055 9.52280E-05-2.85690E-05-2.85682E-05-6.09572E-09-1.50730E-19-2.09063E-18
 -1      2056 9.52286E-05-2.85694E-05-2.85682E-05-7.87449E-09-1.85962E-19-2.64274E-19
 -1      2057 9.52331E-05-2.85705E-05-2.85697E-05-4.01526E-09-3.20827E-20 2.05824E-19
 -1      2058 9.52315E-05-2.85700E-05-2.85692E-05-4.63483E-09 5.98827E-19-4.96404E-19
 -1      2059 9.52317E-05-2.85704E-05-2.85691E-05-6.05690E-09-1.65019E-19 7.30149E-19
 -1      2060 9.52353E-05-2.85712E-05-2.85703E-05-2.50173E-09 3.06565E-19 3.05185E-19
 -1      2061 9.52341E-05-2.85709E-05-2.85700E-05-3.16687E-09 9.98587E-20 4.21329E-19
 -1      2062 9.52342E-05-2.85711E-05-2.85699E-05-4.25017E-09 1.08621E-19 2.52069E-18
 -1      2063 9.52365E-05-2.85716E-05-2.85707E-05-1.34918E-09 8.28496E-19 1.17597E-18
 -1      2064 9.52358E-05-2.85714E-05-2.85705E-05-2.02019E-09 1.06318E-18 7.75927E-19
 -1      2065 9.52357E-05-2.85717E-05-2.85703E-05-2.80155E-09 8.48045E-19 3.32529E-18
 -1      2066 9.52366E-05-2.85720E-05-2.85706E-05-1.73331E-09 8.94305E-19 4.60072E-18
 -1      2067 9.52391E-05-2.85777E-05-2.85692E-05-4.65259E-09-1.89682E-19-9.72284E-20
 -1      2068 9.52385E-05-2.85764E-05-2.85695E-05-4.54788E-09-5.87311E-19-9.18329E-20
 -1      2069 9.52380E-05-2.85753E-05-2.85697E-05-4.24245E-09-7.17595E-19-8.68330E-19
 -1      2070 9.52374E-05-2.85742E-05-2.85700E-05-3.79264E-09-1.67340E-19 1.28500E-19
 -1      2071 9.52380E-05-2.85758E-05-2.85695E-05-5.62067E-09-8.67883E-19-4.12183E-19
 -1      2072 9.52371E-05-2.85735E-05-2.85701E-05-3.16684E-09 1.83817E-19 2.16681E-18
 -1      2073 9.52368E-05-2.85726E-05-2.85704E-05-2.49378E-09 7.48254E-19 4.27900E-18
 -1      2074 9.52364E-05-2.85725E-05-2.85702E-05-3.06798E-09 9.42396E-19 3.48977E-18
 -1      2075 9.52371E-05-2.85740E-05-2.85699E-05-4.55629E-09-8.31267E-19 5.64076E-19
 -1      2076 9.52401E-05-2.85799E-05-2.85686E-05-4.36854E-09-1.79145E-18-1.78577E-18
 -1      2077 9.52396E-05-2.85787E-05-2.85689E-05-4.56587E-09-1.02415E-18-3.80464E-19
 -1      2078 9.52393E-05-2.85780E-05-2.85691E-05-5.83970E-09-1.02277E-18-1.75291E-18
 -1      2079 9.52409E-05-2.85817E-05-2.85682E-05-3.46589E-09-1.60798E-18-2.87267E-18
 -1      2080 9.52405E-05-2.85808E-05-2.85685E-05-3.92328E-09-2.02155E-18-1.35441E-18
 -1      2081 9.52404E-05-2.85800E-05-2.85688E-05-5.23334E-09-1.95072E-18-2.12018E-18
 -1      2082 9.52415E-05-2.85830E-05-2.85679E-05-2.10094E-09-5.51361E-19 2.62138E-19
 -1      2083 9.52412E-05-2.85824E-05-2.85681E-05-2.73970E-09-5.85052E-19-1.65119E-18
 -1      2084 9.52413E-05-2.85817E-05-2.85684E-05-3.90983E-09-7.37852E-19-1.07324E-18
 -1      2085 9.52418E-05-2.85836E-05-2.85678E-05-4.67366E-10-1.37657E-18 1.58697E-18
 -1      2086 9.52417E-05-2.85834E-05-2.85678E-05-1.19928E-09-1.10405E-18 1.36650E-18
 -1      2087 9.52419E-05-2.85827E-05-2.85682E-05-2.07802E-09-5.30460E-19 5.68011E-19
 -1      2088 9.52417E-05-2.85834E-05-2.85678E-05 1.22485E-09-2.02705E-18-4.57653E-19
 -1      2089 9.52418E-05-2.85836E-05-2.85678E-05 4.93602E-10-1.22374E-18 1.32754E-18
 -1      2090 9.52421E-05-2.85831E-05-2.85682E-05 1.62777E-11-2.53175E-18 1.64645E-18
 -1      2091 9.52412E-05-2.85824E-05-2.85681E-05 2.76160E-09-2.06449E-18-5.71376E-19
 -1      2092 9.52415E-05-2.85830E-05-2.85679E-05 2.12518E-09-2.10782E-18 3.82849E-19
 -1      2093 9.52419E-05-2.85827E-05-2.85682E-05 2.10903E-09-1.54536E-18-6.33547E-19
 -1      2094 9.52405E-05-2.85808E-05-2.85684E-05 3.92261E-09-9.32968E-19-3.65258E-18
 -1      2095 9.52409E-05-2.85817E-05-2.85682E-05 3.47435E-09-2.00180E-18-2.59709E-18
 -1      2096 9.52413E-05-2.85817E-05-2.85684E-05 3.92361E-09-1.94944E-18-1.13849E-18
 -1      2097 9.52396E-05-2.85787E-05-2.85689E-05 4.56978E-09-5.90389E-19 6.33679E-19
 -1      2098 9.52401E-05-2.85799E-05-2.85686E-05 4.37038E-09-3.79887E-19-5.13715E-19
 -1      2099 9.52404E-05-2.85800E-05-2.85688E-05 5.23380E-09-6.36781E-19-2.58007E-18
 -1      2100 9.52385E-05-2.85764E-05-2.85695E-05 4.54316E-09-3.89011E-19 2.08979E-19
 -1      2101 9.52390E-05-2.85776E-05-2.85692E-05 4.65570E-09-2.51327E-19-1.33898E-18
 -1      2102 9.52393E-05-2.85780E-05-2.85691E-05 5.84387E-09 1.45523E-19-8.70141E-20
 -1      2103 9.52374E-05-2.85742E-05-2.85700E-05 3.79392E-09-1.48233E-18 1.84428E-19
 -1      2104 9.52380E-05-2.85753E-05-2.85697E-05 4.22946E-09-8.31279E-19-2.64471E-19
 -1      2105 9.52380E-05-2.85758E-05-2.85695E-05 5.60416E-09-3.70410E-19 1.52304E-19
 -1      2106 5.72980E-05-3.70872E-05-9.22641E-06 4.08550E-05 3.29242E-18 4.46736E-18
 -1      2107 4.34491E-05-3.89207E-05-3.27453E-06 3.41535E-05 2.26412E-18 3.77374E-18
 -1      2108 1.26224E-05-2.73313E-05 5.53588E-06 6.97689E-06 2.25628E-19 4.81962E-18
 -1      2109 1.31649E-05-2.98953E-05 6.07679E-06-5.11849E-06-4.08164E-19 5.38162E-18
 -1      2110 2.83499E-05-3.37476E-05 1.28438E-06 2.88762E-05 2.02864E-18 4.32008E-18
 -1      2111 1.89951E-05-3.26941E-05 4.63095E-06 2.01679E-05 4.45539E-19 4.62607E-18
 -1      2112 9.50647E-05-4.12927E-05-2.30641E-05 4.41420E-05 3.22720E-18 2.90765E-18
 -1      2113 7.50976E-05-4.20481E-05-1.52350E-05 3.97478E-05 2.99511E-18 3.93553E-18
 -1      2114 1.32326E-04-3.90542E-05-3.92332E-05 3.83318E-05 4.48843E-18 1.24344E-18
 -1      2115 1.13358E-04-4.17250E-05-3.11657E-05 3.63609E-05 3.81588E-18 1.63986E-18
 -1      2116 8.31925E-05-7.93183E-06-3.23912E-05-8.37227E-07-9.61753E-19-2.54168E-18
 -1      2117 8.89576E-05-9.84938E-06-3.39335E-05-2.48745E-06-1.23167E-18-2.08034E-18
 -1      2118 9.45183E-05-1.53163E-05-3.40056E-05-2.39502E-06-1.25460E-18-1.63010E-18
 -1      2119 8.17192E-05-9.12897E-06-3.11847E-05 6.34941E-07-8.57336E-19-2.52586E-18
 -1      2120 1.74067E-04-2.82547E-05-6.16258E-05 1.25482E-05 4.43485E-18-1.01220E-18
 -1      2121 1.65152E-04-2.95960E-05-5.73116E-05 2.05567E-05 4.28715E-18 4.54857E-19
 -1      2122 1.74054E-04-2.06322E-05-6.50654E-05 1.23130E-06 4.66207E-18-2.14772E-18
 -1      2123 1.73355E-04-2.22892E-05-6.38981E-05 7.17260E-06 4.67901E-18-1.02766E-18
 -1      2124 1.73376E-04-2.42087E-05-6.30972E-05-7.42680E-06 5.62938E-18-2.90532E-18
 -1      2125 1.74197E-04-2.15600E-05-6.47623E-05-3.67486E-07 5.24059E-18-1.92276E-18
 -1      2126 1.59196E-04-2.96751E-05-5.51986E-05-1.72105E-05 5.42196E-18-3.54017E-18
 -1      2127 1.73027E-04-2.93968E-05-6.05432E-05-1.25272E-05 5.50931E-18-3.02094E-18
 -1      2128 1.56761E-04-1.97035E-05-5.77673E-05 1.29630E-06 5.35261E-18-9.16913E-19
 -1      2129 1.32192E-04-3.67384E-05-4.11215E-05-3.10256E-05 5.13027E-18-4.47953E-18
 -1      2130 1.51368E-04-3.68442E-05-4.85362E-05-2.64936E-05 5.00438E-18-3.69391E-18
 -1      2131 9.99163E-05-3.89597E-05-2.67649E-05-3.75490E-05 3.99037E-18-4.75736E-18
 -1      2132 1.20140E-04-3.78173E-05-3.49069E-05-3.98790E-05 4.92084E-18-4.99411E-18
 -1      2133 1.34369E-04-4.64517E-05-3.72594E-05-2.33448E-05 2.82856E-18-1.93124E-18
 -1      2134 5.82913E-05-3.46706E-05-1.12873E-05-3.77593E-05 3.18103E-18-5.70021E-18
 -1      2135 7.71756E-05-3.42512E-05-1.86524E-05-4.38794E-05 3.95310E-18-5.81954E-18
 -1      2136 3.00167E-05-2.87667E-05-1.57832E-06-2.95079E-05 1.07573E-18-5.68423E-18
 -1      2137 4.25308E-05-2.89552E-05-6.34609E-06-3.71580E-05 2.65121E-18-5.95094E-18
 -1      2138 1.15050E-05-2.54328E-05 4.64618E-06-1.08366E-05-4.68621E-19-5.85850E-18
 -1      2139 1.62413E-05-2.37003E-05 2.28386E-06-2.05185E-05 1.18839E-18-5.89450E-18
 -1      2140 1.22137E-05-2.34643E-05 3.83566E-06 9.51493E-06-1.96385E-18-5.94787E-18
 -1      2141 9.84651E-06-2.42875E-05 4.95903E-06-5.85231E-07-4.50661E-19-6.01648E-18
 -1      2142 3.44057E-05-2.78251E-05-3.45822E-06 3.03302E-05-2.42251E-18-5.57983E-18
 -1      2143 2.21672E-05-2.73061E-05 1.01958E-06 1.96910E-05-1.73070E-18-5.74394E-18
 -1      2144 7.00797E-05-3.73905E-05-1.45387E-05 3.94644E-05-5.02333E-18-6.05724E-18
 -1      2145 5.49617E-05-3.67608E-05-8.57357E-06 3.57797E-05-3.48851E-18-5.29438E-18
 -1      2146 1.09986E-04-4.32936E-05-2.86262E-05 3.88920E-05-4.94921E-18-5.58830E-18
 -1      2147 8.73198E-05-4.20365E-05-2.05016E-05 3.61254E-05-4.93736E-18-5.79582E-18
 -1      2148 9.28475E-05-4.76056E-05-1.95612E-05 3.78325E-05-1.89481E-18-4.10245E-18
 -1      2149 1.48284E-04-4.29045E-05-4.45015E-05 2.85533E-05-5.62176E-18-4.73068E-18
 -1      2150 1.28375E-04-4.42563E-05-3.65526E-05 2.83722E-05-5.28781E-18-4.71374E-18
 -1      2151 1.69934E-04-3.71004E-05-5.62148E-05 1.38209E-05-5.78248E-18-2.96589E-18
 -1      2152 1.55750E-04-3.85039E-05-5.00992E-05 2.04423E-05-5.79413E-18-4.36095E-18
 -1      2153 1.52704E-04-4.61025E-05-4.50510E-05 8.39312E-06-4.26063E-18-1.54753E-18
 -1      2154 1.81591E-04-2.76239E-05-6.47622E-05 2.66165E-06-5.90467E-18-1.96088E-18
 -1      2155 1.72044E-04-2.84975E-05-6.09644E-05 6.88225E-06-6.11897E-18-2.70458E-18
 -1      2156 1.84020E-04-2.49079E-05-6.70507E-05-4.33940E-06-5.41508E-18-6.97108E-19
 -1      2157 1.83909E-04-2.50295E-05-6.69808E-05 1.94732E-06-5.72679E-18-1.98057E-18
 -1      2158 1.71658E-04-2.84210E-05-6.08064E-05-9.71020E-06-5.16309E-18 2.62580E-19
 -1      2159 1.81655E-04-2.73950E-05-6.48467E-05-5.32846E-06-5.13937E-18-6.70003E-19
 -1      2160 1.53272E-04-3.84766E-05-4.90010E-05-2.22896E-05-4.63412E-18 2.01848E-18
 -1      2161 1.69521E-04-3.70339E-05-5.59276E-05-1.70933E-05-4.79124E-18 6.48827E-19
 -1      2162 1.20044E-04-4.32386E-05-3.35145E-05-3.43204E-05-4.13352E-18 3.44785E-18
 -1      2163 1.42092E-04-4.28554E-05-4.19417E-05-3.36874E-05-3.96898E-18 2.85450E-18
 -1      2164 8.45336E-05-4.54992E-05-1.77348E-05-3.76479E-05-3.13614E-18 3.86014E-18
 -1      2165 1.04954E-04-4.38972E-05-2.60786E-05-4.18965E-05-3.86035E-18 3.52112E-18
 -1      2166 4.35886E-05-4.07807E-05-2.88418E-06-3.11436E-05-2.59573E-18 4.25994E-18
 -1      2167 6.05690E-05-3.88662E-05-9.97461E-06-3.99633E-05-3.58126E-18 4.43250E-18
 -1      2168 1.80256E-05-3.52656E-05 5.78041E-06-1.59875E-05 1.26843E-19 5.47946E-18
 -1      2169 2.70056E-05-3.51434E-05 2.17558E-06-2.51947E-05-1.84992E-18 4.85858E-18
 -1      2170 1.59636E-04-3.49120E-05-5.23677E-05 2.80423E-05 4.32781E-18 8.97008E-19
 -1      2171 1.42273E-04-3.54478E-05-4.57294E-05 3.05703E-05 4.78552E-18 1.15196E-18
 -1      2172 1.15386E-04-5.12845E-05-2.73260E-05 3.58092E-05 1.56405E-18 2.06041E-19
 -1      2173 1.21108E-04-3.25518E-05-3.80741E-05-4.91277E-06-1.67630E-18 2.11083E-18
 -1      2174 1.42586E-04-4.53348E-05-4.11119E-05 2.11337E-05 3.13000E-18-8.94890E-19
 -1      2175 1.55999E-04-3.27584E-05-5.18471E-05 9.17270E-06 4.00329E-18-1.35864E-18
 -1      2176 1.17330E-04-3.11989E-05-3.70069E-05-4.76440E-06-1.72328E-18 9.99552E-19
 -1      2177 4.33450E-05-3.48251E-05-4.17972E-06 3.76800E-05 1.76183E-19 4.17757E-18
 -1      2178 1.93870E-05-2.32409E-05 1.20199E-06 1.54764E-05-4.85350E-19 5.20248E-18
 -1      2179 9.52370E-05-2.85735E-05-2.85701E-05 3.63106E-09-9.11744E-19 1.89099E-18
 -1      2180 7.85594E-05-4.58017E-05-1.41946E-05 4.38190E-05 6.11558E-19 2.76724E-18
 -1      2181 1.87466E-05-2.37319E-05 1.54077E-06-1.34286E-05 3.46754E-19 5.47988E-18
 -1      2182 4.28401E-05-3.59922E-05-3.60465E-06-3.49932E-05-4.56551E-19 5.09829E-18
 -1      2183 8.55295E-05-4.91897E-05-1.56886E-05-4.12360E-05-1.06769E-18 2.67504E-18
 -1      2184 1.25051E-04-5.53431E-05-2.98268E-05-3.06027E-05-1.64790E-18 1.24196E-18
 -1      2185 1.50590E-04-4.72562E-05-4.35512E-05-1.45367E-05-2.94794E-18-7.96211E-20
 -1      2186 1.60854E-04-3.09230E-05-5.47899E-05-4.43400E-08-4.55090E-18-1.49501E-18
 -1      2187 1.62194E-04-1.67684E-05-6.11900E-05 1.68302E-06-5.77211E-18-1.31968E-18
 -1      2188 1.60940E-04-3.09204E-05-5.49461E-05-2.26658E-06-5.52604E-18-7.36495E-19
 -1      2189 1.29416E-04-5.29718E-05-3.25852E-05 2.59486E-05-3.06118E-18-2.88499E-18
 -1      2190 5.04722E-05-3.24603E-05-8.01335E-06 3.46036E-05-1.60725E-18-5.10200E-18
 -1      2191 4.73997E-05-2.55189E-05-8.87647E-06 3.43528E-05 1.98629E-19-4.80331E-18
 -1      2192 6.71687E-05-3.69763E-05-1.33482E-05 3.89944E-05-1.54584E-19-3.93087E-18
 -1      2193 2.12592E-05-1.77561E-05-1.74397E-06 1.81380E-05-5.06314E-19-6.21510E-18
 -1      2194 1.25537E-05-1.52792E-05 6.33509E-07-6.68995E-06-5.03349E-19-6.64794E-18
 -1      2195 2.83802E-05-2.16761E-05-3.21757E-06-3.01265E-05-1.33196E-19-6.22421E-18
 -1      2196 1.00647E-04-4.50268E-05-2.38762E-05-3.87776E-05 1.60597E-18-3.68015E-18
 -1      2197 1.52321E-04-3.54954E-05-4.93882E-05-7.99135E-06 4.07465E-18-1.03762E-18
 -1      2198 1.57872E-04-1.86091E-05-5.87853E-05 1.46942E-06 4.88230E-18-1.53080E-18
 -1      2199 1.56061E-04-1.27075E-05-6.06863E-05 1.22419E-06 5.10973E-18-1.53363E-18
 -1      2200 6.03492E-05-3.45411E-05-1.14292E-05-4.16809E-05 4.29446E-19-5.30428E-18
 -1      2201 1.62149E-04-1.68829E-05-6.11685E-05-4.04428E-06-5.94236E-18-9.13207E-19
 -1      2202 1.10433E-04-3.31214E-05-3.31589E-05 7.44752E-06 1.49906E-18 1.92712E-18
 -1      2203 1.11742E-04-3.25738E-05-3.38553E-05 7.99674E-06 1.79249E-18 2.11472E-18
 -1      2204 5.87188E-05 1.25242E-06-2.57583E-05 1.05220E-07-1.46705E-19-3.70067E-18
 -1      2205 6.20972E-05-2.91540E-07-2.64191E-05 1.62515E-06-1.78607E-19-3.56176E-18
 -1      2206 6.73406E-05-3.68089E-06-2.73883E-05 3.39639E-06-1.79058E-19-3.21661E-18
 -1      2207 7.31705E-05-6.44361E-06-2.85176E-05 3.57442E-06-3.84502E-19-2.95537E-18
 -1      2208 6.46518E-05-3.58973E-06-2.61166E-05 4.22012E-06-1.40157E-20-3.32200E-18
 -1      2209 6.25019E-05-1.47814E-06-2.60628E-05-8.83466E-06-1.40710E-19-3.47365E-18
 -1      2210 5.91524E-05 3.72001E-07-2.55912E-05-7.74723E-06-2.24474E-19-3.63261E-18
 -1      2211 7.23498E-05-7.55412E-06-2.76779E-05-9.24456E-06 7.14436E-21-3.05707E-18
 -1      2212 6.73443E-05-4.96410E-06-2.68383E-05-9.69250E-06-1.03790E-19-3.22308E-18
 -1      2213 6.52453E-05-5.00863E-06-2.58004E-05-1.12239E-05-2.19640E-19-3.30751E-18
 -1      2214 8.28003E-05-1.35090E-05-2.96465E-05-6.23453E-06 4.30956E-19-2.54668E-18
 -1      2215 7.78179E-05-1.10913E-05-2.86739E-05-7.99085E-06 1.62009E-19-2.81386E-18
 -1      2216 7.65150E-05-1.21203E-05-2.76573E-05-1.05178E-05-3.88874E-20-2.80439E-18
 -1      2217 9.18556E-05-1.80699E-05-3.16367E-05-1.06480E-06 9.90895E-19-1.93913E-18
 -1      2218 8.76654E-05-1.62102E-05-3.06691E-05-3.57597E-06 6.82497E-19-2.18273E-18
 -1      2219 8.75630E-05-1.83579E-05-2.97332E-05-6.18183E-06 4.09825E-19-2.13026E-18
 -1      2220 9.87670E-05-2.11040E-05-3.33622E-05 4.51709E-06 1.51381E-18-1.22476E-18
 -1      2221 9.55537E-05-1.97569E-05-3.25179E-05 1.92324E-06 1.19608E-18-1.57929E-18
 -1      2222 9.63679E-05-2.26232E-05-3.16538E-05-2.19883E-07 9.34600E-19-1.45776E-18
 -1      2223 1.04280E-04-2.36212E-05-3.47231E-05 9.19525E-06 2.07783E-18-2.31121E-19
 -1      2224 1.01606E-04-2.22888E-05-3.40322E-05 7.00251E-06 1.77330E-18-7.80276E-19
 -1      2225 1.02707E-04-2.52996E-05-3.31814E-05 5.29551E-06 1.56801E-18-7.53654E-19
 -1      2226 1.08772E-04-3.35941E-05-3.22351E-05 7.92107E-06 1.20383E-18 1.49723E-18
 -1      2227 1.10180E-04-3.37379E-05-3.27001E-05 7.55826E-06 1.33104E-18 1.85789E-18
 -1      2228 1.10688E-04-3.34775E-05-3.30911E-05 8.65801E-06 1.64010E-18 1.22864E-18
 -1      2229 1.17138E-04-3.51674E-05-3.50137E-05-1.35127E-06-1.08065E-18 6.42593E-19
 -1      2230 1.17826E-04-3.73869E-05-3.45671E-05-1.29954E-06-8.41920E-19 6.95632E-19
 -1      2231 1.44640E-04-4.60674E-05-4.25092E-05 1.05104E-05 2.54583E-18-2.19720E-18
 -1      2232 1.37022E-04-5.10623E-05-3.69362E-05 1.61998E-05 1.72747E-18-2.08222E-18
 -1      2233 1.20533E-04-4.00308E-05-3.43671E-05-2.18802E-06-5.44851E-19 1.00928E-18
 -1      2234 1.21311E-04-4.17261E-05-3.42175E-05-4.03759E-06-3.82779E-19 1.04092E-18
 -1      2235 1.16775E-04-3.86082E-05-3.35870E-05-4.56609E-07-6.60706E-19 4.69150E-19
 -1      2236 1.24311E-04-4.36045E-05-3.45161E-05-6.99447E-06-3.63883E-19 1.39976E-18
 -1      2237 1.24308E-04-4.35699E-05-3.47048E-05-9.90161E-06-4.28140E-19 1.22555E-18
 -1      2238 1.22658E-04-4.42460E-05-3.37120E-05-3.85354E-06-2.84194E-19 7.67011E-19
 -1      2239 1.26049E-04-4.29516E-05-3.57054E-05-1.37703E-05-5.82865E-19 1.38006E-18
 -1      2240 1.24403E-04-3.98747E-05-3.62887E-05-1.58268E-05-1.20459E-18 1.24812E-18
 -1      2241 1.27722E-04-4.56966E-05-3.52172E-05-1.08366E-05-5.86306E-19 1.10707E-18
 -1      2242 1.23350E-04-3.56174E-05-3.78951E-05-1.74672E-05-1.76700E-18 1.06131E-18
 -1      2243 1.20417E-04-3.01934E-05-3.86848E-05-1.60496E-05-2.19329E-18 8.79961E-19
 -1      2244 1.28583E-04-3.94313E-05-3.83150E-05-1.72445E-05-1.67808E-18 8.25354E-19
 -1      2245 1.17640E-04-2.49675E-05-4.01275E-05-1.18038E-05-2.81289E-18 3.62550E-19
 -1      2246 1.15796E-04-2.14864E-05-4.05780E-05-6.34806E-06-3.14456E-18-4.20287E-19
 -1      2247 1.24223E-04-2.65785E-05-4.20655E-05-1.59394E-05-2.89971E-18 5.40831E-19
 -1      2248 1.15110E-04-2.06834E-05-4.07386E-05 1.97846E-06-3.10565E-18-1.43358E-18
 -1      2249 1.16147E-04-2.28349E-05-4.03947E-05 7.96777E-06-2.97700E-18-1.98262E-18
 -1      2250 1.20758E-04-1.83952E-05-4.40644E-05-2.87640E-06-3.83092E-18-1.04299E-18
 -1      2251 1.18491E-04-2.74194E-05-3.90768E-05 1.38491E-05-2.53273E-18-2.32656E-18
 -1      2252 1.21324E-04-3.30066E-05-3.81980E-05 1.62849E-05-1.84431E-18-2.35875E-18
 -1      2253 1.22359E-04-2.31675E-05-4.28089E-05 1.26228E-05-3.15890E-18-2.17698E-18
 -1      2254 1.22818E-04-3.79603E-05-3.63928E-05 1.53551E-05-1.07761E-18-2.56798E-18
 -1      2255 1.24451E-04-4.18394E-05-3.55893E-05 1.37532E-05-4.54704E-19-2.43692E-18
 -1      2256 1.27372E-04-3.78052E-05-3.85334E-05 1.64132E-05-1.45094E-18-2.61071E-18
 -1      2257 1.23259E-04-4.35965E-05-3.42104E-05 9.69886E-06-4.18074E-20-2.25265E-18
 -1      2258 1.23113E-04-4.44516E-05-3.37126E-05 6.18921E-06 5.86106E-19-2.28690E-18
 -1      2259 1.27069E-04-4.52665E-05-3.51053E-05 1.08585E-05-2.64565E-20-2.34001E-18
 -1      2260 1.19902E-04-4.32422E-05-3.29668E-05 1.94442E-06 5.19767E-19-1.89235E-18
 -1      2261 1.18523E-04-4.20345E-05-3.27119E-05-1.25349E-06 7.04996E-19-1.29693E-18
 -1      2262 1.22445E-04-4.63838E-05-3.26802E-05 1.80288E-06 6.67991E-19-1.58058E-18
 -1      2263 1.15228E-04-3.98432E-05-3.23950E-05-4.00957E-06 6.50230E-19-1.43552E-18
 -1      2264 1.13416E-04-3.80655E-05-3.22289E-05-6.11859E-06-6.68196E-20-1.23930E-18
 -1      2265 1.15734E-04-4.23410E-05-3.15494E-05-5.04972E-06 6.79517E-19-1.02792E-18
 -1      2266 1.10850E-04-3.60901E-05-3.20916E-05-7.42894E-06-5.29882E-19-1.09330E-18
 -1      2267 1.09105E-04-3.45325E-05-3.19178E-05-8.45712E-06-6.53721E-20-1.01359E-18
 -1      2268 1.09822E-04-3.73890E-05-3.11221E-05-8.82304E-06 5.01668E-20-1.23307E-18
 -1      2269 1.07340E-04-3.31407E-05-3.18208E-05-8.77797E-06-3.69105E-20-6.13158E-19
 -1      2270 1.05828E-04-3.20145E-05-3.16116E-05-9.01854E-06-8.12796E-20-6.95809E-19
 -1      2271 1.05504E-04-3.34153E-05-3.09475E-05-1.02219E-05 7.13402E-20-8.14278E-19
 -1      2272 1.04669E-04-3.11671E-05-3.15013E-05-8.76849E-06-1.21817E-19-6.10353E-19
 -1      2273 1.03404E-04-3.04284E-05-3.12654E-05-8.53638E-06 3.31045E-19-9.02733E-19
 -1      2274 1.02605E-04-3.07917E-05-3.08063E-05-1.01400E-05-6.99133E-20-4.31712E-19
 -1      2275 1.02634E-04-2.99648E-05-3.11327E-05-8.00899E-06 2.13765E-19-1.20771E-18
 -1      2276 1.01587E-04-2.95029E-05-3.08900E-05-7.54389E-06-9.30338E-20-9.24580E-19
 -1      2277 1.00693E-04-2.92741E-05-3.06233E-05-9.26437E-06 1.99540E-19-7.62930E-19
 -1      2278 1.01049E-04-2.92737E-05-3.07439E-05-6.91843E-06-4.50678E-19-9.06736E-19
 -1      2279 1.00186E-04-2.89900E-05-3.05125E-05-6.37503E-06-1.64172E-19-1.24018E-18
 -1      2280 9.93936E-05-2.84921E-05-3.03946E-05-8.04060E-06-2.39123E-19-7.45831E-19
 -1      2281 9.97869E-05-2.88908E-05-3.03653E-05-5.75228E-06 4.08665E-19-1.27661E-18
 -1      2282 9.90802E-05-2.87164E-05-3.01567E-05-5.21854E-06 7.33668E-19-1.39955E-18
 -1      2283 9.84612E-05-2.81448E-05-3.01407E-05-6.73360E-06-2.72515E-20-9.42596E-19
 -1      2284 9.87685E-05-2.86839E-05-3.00182E-05-4.64967E-06 7.23282E-19-1.44944E-18
 -1      2285 9.81957E-05-2.85757E-05-2.98381E-05-4.16898E-06 7.15982E-19-1.99350E-18
 -1      2286 9.77539E-05-2.80318E-05-2.98849E-05-5.48931E-06 5.53417E-19-1.51391E-18
 -1      2287 9.79452E-05-2.85746E-05-2.97140E-05-3.67544E-06 7.62125E-19-2.02227E-18
 -1      2288 9.74867E-05-2.85067E-05-2.95636E-05-3.26434E-06 3.27531E-19-1.69417E-18
 -1      2289 9.71959E-05-2.80344E-05-2.96443E-05-4.37886E-06 3.76717E-19-2.24790E-18
 -1      2290 9.72835E-05-2.85188E-05-2.94567E-05-2.85075E-06 5.96049E-19-1.25982E-18
 -1      2291 9.69216E-05-2.84761E-05-2.93342E-05-2.51105E-06 4.27376E-19-8.27373E-19
 -1      2292 9.67470E-05-2.80871E-05-2.94291E-05-3.42848E-06 9.25432E-19-1.26680E-18
 -1      2293 9.67573E-05-2.84926E-05-2.92448E-05-2.17317E-06-4.55188E-19-8.80254E-19
 -1      2294 9.64759E-05-2.84661E-05-2.91472E-05-1.89939E-06-6.75615E-19-5.50541E-19
 -1      2295 9.63847E-05-2.81566E-05-2.92439E-05-2.63898E-06 1.21570E-19-1.11959E-18
 -1      2296 9.63445E-05-2.84828E-05-2.90743E-05-1.62888E-06-7.97376E-19-8.23143E-19
 -1      2297 9.61292E-05-2.84671E-05-2.89980E-05-1.41254E-06-8.38083E-19-4.95613E-19
 -1      2298 9.60943E-05-2.82269E-05-2.90891E-05-1.99797E-06-8.77996E-19-4.24682E-19
 -1      2299 9.60257E-05-2.84824E-05-2.89397E-05-1.19968E-06-8.37197E-19-1.01345E-18
 -1      2300 9.58635E-05-2.84738E-05-2.88812E-05-1.03159E-06-5.75414E-19-1.01338E-18
 -1      2301 9.58644E-05-2.82910E-05-2.89627E-05-1.48727E-06-1.20915E-18-1.13993E-18
 -1      2302 9.57834E-05-2.84873E-05-2.88354E-05-8.66724E-07-4.67573E-19-1.08293E-18
 -1      2303 9.56635E-05-2.84835E-05-2.87912E-05-7.38162E-07-9.78292E-20-1.08468E-18
 -1      2304 9.56852E-05-2.83466E-05-2.88617E-05-1.08712E-06-4.97045E-19-1.09568E-18
 -1      2305 9.56026E-05-2.84950E-05-2.87560E-05-6.12420E-07-4.53152E-20-1.58548E-18
 -1      2306 9.55157E-05-2.84944E-05-2.87232E-05-5.15613E-07-9.42661E-20-1.61631E-18
 -1      2307 9.55482E-05-2.83935E-05-2.87825E-05-7.78480E-07-2.60014E-19-1.73564E-18
 -1      2308 9.54704E-05-2.85041E-05-2.86965E-05-4.21215E-07 2.18376E-19-1.69862E-18
 -1      2309 9.54088E-05-2.85054E-05-2.86727E-05-3.49506E-07 1.70677E-19-9.28839E-19
 -1      2310 9.54453E-05-2.84324E-05-2.87214E-05-5.44095E-07-5.04895E-20-2.34846E-18
 -1      2311 9.53758E-05-2.85135E-05-2.86528E-05-2.79832E-07 2.81862E-20-1.38007E-18
 -1      2312 9.53335E-05-2.85160E-05-2.86359E-05-2.27667E-07-7.07418E-20-1.46600E-18
 -1      2313 9.53698E-05-2.84641E-05-2.86752E-05-3.68966E-07-1.40224E-19-2.32576E-18
 -1      2314 9.53101E-05-2.85226E-05-2.86214E-05-1.77207E-07-3.72290E-19-9.61187E-19
 -1      2315 9.52819E-05-2.85257E-05-2.86096E-05-1.40043E-07-6.01355E-21-4.01916E-19
 -1      2316 9.53156E-05-2.84896E-05-2.86407E-05-2.40397E-07 3.15512E-19-9.51005E-19
 -1      2317 9.52658E-05-2.85311E-05-2.85993E-05-1.04296E-07-6.16126E-19 1.48088E-20
 -1      2318 9.52480E-05-2.85343E-05-2.85914E-05-7.84734E-08-4.84287E-19 3.37216E-19
 -1      2319 9.52779E-05-2.85100E-05-2.86156E-05-1.47870E-07-1.29214E-19 1.33595E-19
 -1      2320 9.52373E-05-2.85386E-05-2.85842E-05-5.38200E-08-1.05348E-19-4.21437E-19
 -1      2321 9.52269E-05-2.85418E-05-2.85792E-05-3.64366E-08 3.27238E-21-6.19721E-19
 -1      2322 9.52525E-05-2.85260E-05-2.85977E-05-8.28247E-08-8.45535E-19 1.85862E-19
 -1      2323 9.52202E-05-2.85452E-05-2.85744E-05-2.00073E-08-8.73706E-20-4.48808E-19
 -1      2324 9.52149E-05-2.85482E-05-2.85714E-05-8.79199E-09-7.03514E-19-1.13579E-18
 -1      2325 9.52362E-05-2.85384E-05-2.85852E-05-3.83991E-08-4.22303E-19-3.95861E-19
 -1      2326 9.52110E-05-2.85508E-05-2.85682E-05 1.65434E-09-1.09132E-18-1.11211E-18
 -1      2327 9.52091E-05-2.85534E-05-2.85666E-05 8.45404E-09-8.57596E-19-1.29103E-18
 -1      2328 9.52265E-05-2.85480E-05-2.85768E-05-9.17698E-09-8.29631E-19-7.25888E-19
 -1      2329 9.52072E-05-2.85555E-05-2.85647E-05 1.46425E-08-1.05519E-19-5.50436E-19
 -1      2330 9.52075E-05-2.85578E-05-2.85641E-05 1.83588E-08 6.60869E-19 2.19728E-19
 -1      2331 9.52214E-05-2.85552E-05-2.85715E-05 9.05546E-09-2.27230E-19-7.37805E-19
 -1      2332 9.52069E-05-2.85593E-05-2.85631E-05 2.15966E-08 7.42772E-19 4.41462E-19
 -1      2333 9.52084E-05-2.85612E-05-2.85631E-05 2.32261E-08 5.54568E-19 9.06218E-19
 -1      2334 9.52193E-05-2.85605E-05-2.85682E-05 1.95272E-08 7.02626E-19-1.07537E-19
 -1      2335 9.52087E-05-2.85624E-05-2.85626E-05 2.44871E-08 2.21510E-19 2.48538E-19
 -1      2336 9.52110E-05-2.85640E-05-2.85630E-05 2.47617E-08 7.51056E-19 5.23642E-19
 -1      2337 9.52193E-05-2.85644E-05-2.85665E-05 2.46730E-08 5.44013E-19 1.96649E-19
 -1      2338 9.52117E-05-2.85648E-05-2.85629E-05 2.47573E-08 1.89221E-18-2.37153E-19
 -1      2339 9.52143E-05-2.85661E-05-2.85635E-05 2.42029E-08 1.81882E-18 5.81156E-19
 -1      2340 9.52204E-05-2.85672E-05-2.85657E-05 2.62955E-08 6.73131E-19-2.57161E-19
 -1      2341 9.52152E-05-2.85667E-05-2.85637E-05 2.34404E-08 1.25055E-18 3.90980E-19
 -1      2342 9.52178E-05-2.85677E-05-2.85643E-05 2.24243E-08 8.25453E-19 1.61434E-18
 -1      2343 9.52223E-05-2.85691E-05-2.85657E-05 2.57022E-08 1.23717E-18-1.05688E-18
 -1      2344 9.52189E-05-2.85682E-05-2.85646E-05 2.12545E-08 2.65453E-19 1.65267E-18
 -1      2345 9.52214E-05-2.85690E-05-2.85653E-05 2.00231E-08 1.54264E-19 2.19601E-18
 -1      2346 9.52245E-05-2.85705E-05-2.85660E-05 2.38164E-08 7.24279E-19 4.92938E-19
 -1      2347 9.52224E-05-2.85693E-05-2.85657E-05 1.86780E-08-2.67074E-19 2.35936E-18
 -1      2348 9.52246E-05-2.85699E-05-2.85663E-05 1.73865E-08 1.88930E-19 1.14848E-18
 -1      2349 9.52267E-05-2.85714E-05-2.85666E-05 2.12677E-08-9.42176E-20 8.96307E-19
 -1      2350 9.52257E-05-2.85702E-05-2.85667E-05 1.60079E-08 1.56761E-18 6.20658E-19
 -1      2351 9.52276E-05-2.85707E-05-2.85672E-05 1.47424E-08 1.90405E-18 4.17902E-19
 -1      2352 9.52288E-05-2.85719E-05-2.85672E-05 1.84629E-08-9.03147E-20 3.26503E-19
 -1      2353 9.52285E-05-2.85709E-05-2.85676E-05 1.34049E-08 9.57800E-19 1.85640E-19
 -1      2354 9.52302E-05-2.85713E-05-2.85681E-05 1.21995E-08 6.93422E-20 5.04365E-19
 -1      2355 9.52307E-05-2.85724E-05-2.85679E-05 1.56411E-08 9.78265E-19 1.07071E-19
 -1      2356 9.52310E-05-2.85715E-05-2.85684E-05 1.09276E-08-3.88428E-20 7.38872E-20
 -1      2357 9.52324E-05-2.85719E-05-2.85688E-05 9.77997E-09-2.64349E-20 1.24025E-18
 -1      2358 9.52325E-05-2.85727E-05-2.85685E-05 1.29162E-08-1.44466E-19 8.49428E-20
 -1      2359 9.52332E-05-2.85721E-05-2.85691E-05 8.56431E-09-3.35826E-19 2.28038E-18
 -1      2360 9.52343E-05-2.85724E-05-2.85694E-05 7.44976E-09-4.13751E-19 2.29644E-18
 -1      2361 9.52341E-05-2.85731E-05-2.85690E-05 1.03148E-08 4.35883E-19 4.14900E-19
 -1      2362 1.03646E-04-3.05357E-05-3.12892E-05 9.21798E-06 7.21424E-19 9.53250E-19
 -1      2363 1.05378E-04-3.17918E-05-3.15470E-05 9.36849E-06 7.29543E-19 1.22519E-18
 -1      2364 1.00617E-04-2.78302E-05-3.11268E-05 7.32895E-06 1.12635E-18 5.58931E-19
 -1      2365 1.02157E-04-2.91783E-05-3.12945E-05 8.51631E-06 8.93923E-19 7.82920E-19
 -1      2366 1.05429E-04-3.01584E-05-3.22495E-05 1.03486E-05 9.83492E-19 4.91144E-19
 -1      2367 9.84605E-05-2.58205E-05-3.10777E-05 3.08269E-06 1.46918E-18 2.13100E-19
 -1      2368 9.93031E-05-2.65975E-05-3.11610E-05 5.22473E-06 1.30646E-18 3.99245E-19
 -1      2369 1.02443E-04-2.68694E-05-3.24115E-05 7.43672E-06 1.28388E-18 3.92011E-19
 -1      2370 9.81604E-05-2.56540E-05-3.10571E-05-2.25455E-06 1.34550E-18-1.40682E-19
 -1      2371 9.80232E-05-2.54592E-05-3.10632E-05 1.36618E-07 1.41306E-18 8.08941E-21
 -1      2372 1.00595E-04-2.49030E-05-3.24945E-05 1.99926E-06 1.66816E-18-1.49232E-19
 -1      2373 9.98439E-05-2.74810E-05-3.10283E-05-6.70440E-06 8.33868E-19-6.09625E-19
 -1      2374 9.88028E-05-2.63903E-05-3.09658E-05-4.95425E-06 1.29082E-18-2.73205E-19
 -1      2375 1.00819E-04-2.53996E-05-3.23633E-05-4.14334E-06 1.41558E-18-5.56190E-19
 -1      2376 1.02548E-04-3.02559E-05-3.10151E-05-8.71449E-06 6.41998E-19-8.54299E-19
 -1      2377 1.01076E-04-2.88499E-05-3.08949E-05-8.12082E-06 6.60500E-19-6.79989E-19
 -1      2378 1.02856E-04-2.81192E-05-3.20312E-05-8.51313E-06 9.98177E-19-1.15815E-18
 -1      2379 1.05010E-04-3.26614E-05-3.10349E-05-8.10088E-06 5.96462E-19-1.28874E-18
 -1      2380 1.03645E-04-3.15240E-05-3.08868E-05-8.59448E-06 8.06052E-19-9.06203E-19
 -1      2381 1.05378E-04-3.15193E-05-3.16242E-05-9.77885E-06 6.96762E-19-1.41253E-18
 -1      2382 1.06430E-04-3.39458E-05-3.10791E-05-5.75771E-06 3.86260E-19-1.44916E-18
 -1      2383 1.05513E-04-3.33536E-05-3.09424E-05-6.88978E-06 4.85851E-19-1.37087E-18
 -1      2384 1.07100E-04-3.40753E-05-3.12620E-05-8.24166E-06 5.53524E-19-1.33805E-18
 -1      2385 1.06685E-04-3.41029E-05-3.11097E-05-2.85733E-06 2.70753E-19-1.16758E-18
 -1      2386 1.06307E-04-3.40188E-05-3.10207E-05-4.13910E-06 4.07621E-19-1.20269E-18
 -1      2387 1.07509E-04-3.51139E-05-3.10044E-05-5.19703E-06 3.01891E-19-1.17174E-18
 -1      2388 1.06061E-04-3.35210E-05-3.10854E-05-2.56007E-07-7.18952E-20-1.07172E-18
 -1      2389 1.06142E-04-3.37644E-05-3.10642E-05-1.35814E-06 1.52532E-19-9.54129E-19
 -1      2390 1.06811E-04-3.48413E-05-3.08365E-05-1.93266E-06-4.02936E-20-1.22503E-18
 -1      2391 1.04928E-04-3.26202E-05-3.09838E-05 1.64711E-06-1.09310E-19-1.16490E-18
 -1      2392 1.05327E-04-3.30106E-05-3.10313E-05 8.65468E-07-1.25414E-19-9.64811E-19
 -1      2393 1.05477E-04-3.38272E-05-3.07094E-05 7.64152E-07-8.69780E-20-1.10481E-18
 -1      2394 1.03582E-04-3.16894E-05-3.08063E-05 2.79581E-06 1.96363E-19-1.45597E-18
 -1      2395 1.04162E-04-3.21041E-05-3.09093E-05 2.34137E-06 1.37481E-19-1.07523E-18
 -1      2396 1.03920E-04-3.25871E-05-3.05782E-05 2.60819E-06-7.01532E-21-1.37662E-18
 -1      2397 1.02217E-04-3.08736E-05-3.05715E-05 3.31267E-06 1.54723E-19-1.45300E-18
 -1      2398 1.02871E-04-3.12489E-05-3.07105E-05 3.12483E-06 3.10151E-19-1.21687E-18
 -1      2399 1.02398E-04-3.14357E-05-3.04199E-05 3.63271E-06 1.73217E-19-8.90266E-19
 -1      2400 1.00938E-04-3.02188E-05-3.03047E-05 3.37616E-06-2.00315E-19-9.99254E-19
 -1      2401 1.01592E-04-3.05312E-05-3.04603E-05 3.37554E-06-2.41840E-19-1.01244E-18
 -1      2402 1.01028E-04-3.05040E-05-3.02317E-05 4.01142E-06-4.11663E-19-1.46493E-19
 -1      2403 9.97969E-05-2.97200E-05-3.00299E-05 3.15455E-06-4.14591E-19-1.05458E-18
 -1      2404 1.00405E-04-2.99676E-05-3.01867E-05 3.26866E-06-1.78138E-19-8.79876E-19
 -1      2405 9.98497E-05-2.98110E-05-3.00229E-05 3.94567E-06-6.29323E-19 1.29299E-19
 -1      2406 9.88132E-05-2.93525E-05-2.97662E-05 2.78047E-06-4.73699E-19-5.72643E-19
 -1      2407 9.93518E-05-2.95425E-05-2.99132E-05 2.95330E-06-4.60374E-19-7.27196E-19
 -1      2408 9.88610E-05-2.93242E-05-2.98070E-05 3.61147E-06-4.51882E-19 1.57786E-19
 -1      2409 9.79877E-05-2.90880E-05-2.95261E-05 2.34720E-06 7.86016E-19-9.22082E-19
 -1      2410 9.84466E-05-2.92303E-05-2.96570E-05 2.54008E-06 2.61576E-19-8.12569E-19
 -1      2411 9.80453E-05-2.89969E-05-2.95971E-05 3.14244E-06 1.08197E-19 3.49616E-20
 -1      2412 9.73106E-05-2.89009E-05-2.93163E-05 1.91437E-06-2.94628E-19 1.18747E-19
 -1      2413 9.76897E-05-2.90055E-05-2.94283E-05 2.10312E-06 3.90038E-19-4.00604E-19
 -1      2414 9.73815E-05-2.87851E-05-2.94029E-05 2.63048E-06 3.26085E-19-3.98655E-20
 -1      2415 9.67669E-05-2.87710E-05-2.91393E-05 1.51623E-06-6.30686E-19 2.92105E-19
 -1      2416 9.70717E-05-2.88463E-05-2.92319E-05 1.68740E-06-6.34988E-19 1.72999E-19
 -1      2417 9.68483E-05-2.86533E-05-2.92303E-05 2.13320E-06-4.68835E-19 6.45408E-19
 -1      2418 9.63389E-05-2.86825E-05-2.89940E-05 1.16940E-06-4.37027E-19-2.78938E-19
 -1      2419 9.65782E-05-2.87356E-05-2.90685E-05 1.31686E-06-3.91656E-19 7.34947E-20
 -1      2420 9.64258E-05-2.85753E-05-2.90822E-05 1.68284E-06-4.67371E-19 4.67153E-19
 -1      2421 9.60087E-05-2.86236E-05-2.88779E-05 8.79127E-07 1.61918E-19 3.29237E-19
 -1      2422 9.61921E-05-2.86601E-05-2.89363E-05 1.00138E-06-3.27435E-19 1.06083E-19
 -1      2423 9.60958E-05-2.85325E-05-2.89587E-05 1.29420E-06-2.56710E-19 1.69817E-19
 -1      2424 9.57590E-05-2.85858E-05-2.87873E-05 6.43827E-07 1.65430E-19 1.37049E-18
 -1      2425 9.58964E-05-2.86101E-05-2.88320E-05 7.42080E-07 2.71630E-19 1.19739E-18
 -1      2426 9.58421E-05-2.85120E-05-2.88583E-05 9.70893E-07-1.73769E-19 6.70956E-19
 -1      2427 9.55742E-05-2.85628E-05-2.87182E-05 4.58237E-07-1.46700E-19 1.40132E-18
 -1      2428 9.56746E-05-2.85782E-05-2.87516E-05 5.35104E-07 1.48891E-19 1.23278E-18
 -1      2429 9.56504E-05-2.85052E-05-2.87786E-05 7.09864E-07 3.17597E-19 4.69110E-19
 -1      2430 9.54406E-05-2.85498E-05-2.86667E-05 3.15465E-07-1.33593E-18 1.04969E-18
 -1      2431 9.55120E-05-2.85590E-05-2.86911E-05 3.74118E-07-5.01076E-19 1.39822E-18
 -1      2432 9.55082E-05-2.85064E-05-2.87168E-05 5.04550E-07-1.16684E-20 7.47381E-19
 -1      2433 9.53467E-05-2.85435E-05-2.86293E-05 2.08255E-07-1.78144E-18 9.99072E-19
 -1      2434 9.53959E-05-2.85484E-05-2.86465E-05 2.51925E-07-1.98198E-18 6.18085E-19
 -1      2435 9.54050E-05-2.85119E-05-2.86698E-05 3.46915E-07-1.52945E-18 3.83164E-19
 -1      2436 9.52829E-05-2.85417E-05-2.86029E-05 1.29726E-07-6.65507E-19 8.78471E-19
 -1      2437 9.53154E-05-2.85436E-05-2.86147E-05 1.61415E-07-8.84780E-19 9.40099E-19
 -1      2438 9.53319E-05-2.85194E-05-2.86350E-05 2.28719E-07-1.24409E-18-6.70962E-21
 -1      2439 9.52413E-05-2.85425E-05-2.85848E-05 7.37431E-08 3.77358E-19 3.67404E-19
 -1      2440 9.52616E-05-2.85426E-05-2.85926E-05 9.60903E-08 3.27098E-21 8.55723E-19
 -1      2441 9.52817E-05-2.85275E-05-2.86098E-05 1.42242E-07-3.59450E-19 2.36352E-19
 -1      2442 9.52160E-05-2.85449E-05-2.85730E-05 3.50704E-08-4.90356E-19 6.05356E-19
 -1      2443 9.52276E-05-2.85439E-05-2.85778E-05 5.03029E-08 1.63873E-19 9.94432E-19
 -1      2444 9.52485E-05-2.85353E-05-2.85920E-05 8.06514E-08 1.10761E-19 3.05909E-19
 -1      2445 9.52020E-05-2.85481E-05-2.85658E-05 9.38399E-09 1.21376E-18 5.59712E-19
 -1      2446 9.52076E-05-2.85465E-05-2.85684E-05 1.93239E-08 1.80553E-19 4.35405E-19
 -1      2447 9.52277E-05-2.85424E-05-2.85799E-05 3.81420E-08 1.74428E-19 1.09458E-18
 -1      2448 9.51959E-05-2.85515E-05-2.85617E-05-6.79078E-09 1.58130E-18 9.39356E-19
 -1      2449 9.51974E-05-2.85496E-05-2.85630E-05-6.91504E-10 1.48367E-18 3.48900E-19
 -1      2450 9.52158E-05-2.85485E-05-2.85720E-05 9.93240E-09 1.37476E-18 1.68363E-18
 -1      2451 9.51949E-05-2.85548E-05-2.85599E-05-1.61800E-08 2.20533E-19 3.34241E-18
 -1      2452 9.51939E-05-2.85529E-05-2.85602E-05-1.27913E-08 1.02027E-18 2.45874E-18
 -1      2453 9.52100E-05-2.85537E-05-2.85672E-05-7.81223E-09 2.54206E-19 1.91757E-18
 -1      2454 9.51970E-05-2.85579E-05-2.85596E-05-2.08747E-08 4.61681E-19 2.36321E-18
 -1      2455 9.51946E-05-2.85561E-05-2.85592E-05-1.93367E-08 8.67883E-19 2.76165E-18
 -1      2456 9.52083E-05-2.85580E-05-2.85646E-05-1.80966E-08 8.14442E-19 2.50267E-18
 -1      2457 9.52010E-05-2.85606E-05-2.85601E-05-2.24435E-08 1.25616E-18 7.61198E-19
 -1      2458 9.51978E-05-2.85589E-05-2.85594E-05-2.21166E-08 9.48341E-19 1.62641E-18
 -1      2459 9.52091E-05-2.85614E-05-2.85634E-05-2.32233E-08 1.69539E-18 1.76213E-18
 -1      2460 9.52058E-05-2.85629E-05-2.85612E-05-2.20353E-08-3.14530E-19 5.96509E-19
 -1      2461 9.52024E-05-2.85615E-05-2.85604E-05-2.24553E-08 8.01379E-19 4.72841E-19
 -1      2462 9.52115E-05-2.85641E-05-2.85633E-05-2.49178E-08 1.37323E-18 1.49078E-18
 -1      2463 9.52109E-05-2.85649E-05-2.85625E-05-2.04684E-08-5.97970E-19-2.26891E-19
 -1      2464 9.52075E-05-2.85637E-05-2.85616E-05-2.13086E-08-7.47227E-19 1.71187E-20
 -1      2465 9.52147E-05-2.85662E-05-2.85637E-05-2.44425E-08-5.81563E-20 1.10511E-18
 -1      2466 9.52158E-05-2.85666E-05-2.85640E-05-1.83054E-08 8.70597E-19-9.49377E-19
 -1      2467 9.52126E-05-2.85655E-05-2.85631E-05-1.93448E-08 1.49533E-20-7.17345E-19
 -1      2468 9.52182E-05-2.85678E-05-2.85645E-05-2.26952E-08 3.09779E-19-1.14951E-18
 -1      2469 9.52203E-05-2.85679E-05-2.85653E-05-1.59132E-08 1.24704E-19-9.51062E-19
 -1      2470 9.52175E-05-2.85671E-05-2.85645E-05-1.70116E-08 6.49312E-19-8.88376E-19
 -1      2471 9.52216E-05-2.85690E-05-2.85654E-05-2.02916E-08 5.33987E-19-7.24774E-20
 -1      2472 9.52243E-05-2.85690E-05-2.85666E-05-1.35102E-08 5.43167E-19-6.58815E-19
 -1      2473 9.52219E-05-2.85683E-05-2.85659E-05-1.45888E-08 5.41450E-19-1.21903E-18
 -1      2474 9.52248E-05-2.85700E-05-2.85664E-05-1.76317E-08 5.44144E-19-4.84006E-19
 -1      2475 9.52278E-05-2.85700E-05-2.85677E-05-1.12026E-08 7.21699E-19-1.51858E-19
 -1      2476 9.52257E-05-2.85694E-05-2.85671E-05-1.22302E-08 1.04351E-19-3.24035E-19
 -1      2477 9.52277E-05-2.85707E-05-2.85673E-05-1.49523E-08 1.35621E-19 6.03276E-19
 -1      2478 9.52308E-05-2.85708E-05-2.85686E-05-9.00203E-09-8.18879E-19 6.80706E-19
 -1      2479 9.52290E-05-2.85703E-05-2.85681E-05-9.98971E-09 4.80404E-21 3.72684E-19
 -1      2480 9.52303E-05-2.85713E-05-2.85681E-05-1.23778E-08-1.03418E-19 8.03018E-19
 -1      2481 9.52332E-05-2.85715E-05-2.85693E-05-6.88261E-09-5.67663E-19 1.73429E-18
 -1      2482 9.52318E-05-2.85710E-05-2.85689E-05-7.85627E-09-1.11287E-18 7.56166E-19
 -1      2483 9.52325E-05-2.85719E-05-2.85688E-05-9.91863E-09-9.79347E-19 9.16474E-19
 -1      2484 9.52351E-05-2.85721E-05-2.85699E-05-4.80650E-09-5.09663E-19 2.50764E-18
 -1      2485 9.52340E-05-2.85717E-05-2.85696E-05-5.77902E-09-4.41687E-19 2.13193E-18
 -1      2486 9.52344E-05-2.85724E-05-2.85694E-05-7.52579E-09-8.58868E-19 1.30102E-18
 -1      2487 9.52359E-05-2.85723E-05-2.85701E-05-3.62921E-09 1.37197E-19 2.91578E-18
 -1      2488 9.52411E-05-2.85804E-05-2.85689E-05-5.86960E-09-1.10826E-18-7.71693E-19
 -1      2489 9.52405E-05-2.85795E-05-2.85690E-05-6.41189E-09-9.53209E-19-2.19251E-18
 -1      2490 9.52421E-05-2.85818E-05-2.85687E-05-4.13439E-09-1.94034E-20-8.44829E-19
 -1      2491 9.52417E-05-2.85812E-05-2.85688E-05-5.00528E-09-4.09690E-19-5.17267E-19
 -1      2492 9.52418E-05-2.85807E-05-2.85691E-05-6.23521E-09 2.13598E-19 4.24154E-19
 -1      2493 9.52382E-05-2.85763E-05-2.85694E-05-6.90334E-09-1.41070E-18-6.32131E-19
 -1      2494 9.52374E-05-2.85752E-05-2.85696E-05-6.59147E-09-1.05196E-18-7.73033E-19
 -1      2495 9.52397E-05-2.85784E-05-2.85691E-05-6.83800E-09-1.87883E-18-2.08500E-18
 -1      2496 9.52390E-05-2.85774E-05-2.85693E-05-6.94139E-09-1.77679E-18 4.88445E-20
 -1      2497 9.52386E-05-2.85768E-05-2.85693E-05-8.00784E-09-1.55932E-18-5.74013E-20
 -1      2498 9.52403E-05-2.85789E-05-2.85692E-05-7.63619E-09-1.18978E-18-6.60890E-19
 -1      2499 9.52427E-05-2.85827E-05-2.85686E-05-1.88564E-09-1.03603E-18 9.92649E-19
 -1      2500 9.52425E-05-2.85824E-05-2.85686E-05-2.96398E-09-2.01487E-19-4.30830E-19
 -1      2501 9.52429E-05-2.85821E-05-2.85690E-05-4.06247E-09-7.18236E-20-7.85120E-19
 -1      2502 9.52428E-05-2.85829E-05-2.85685E-05 5.92453E-10-1.62786E-18 6.55227E-19
 -1      2503 9.52428E-05-2.85829E-05-2.85685E-05-5.56079E-10-1.66510E-18 1.70272E-18
 -1      2504 9.52435E-05-2.85828E-05-2.85689E-05-1.39661E-09-5.26043E-19 7.15763E-19
 -1      2505 9.52425E-05-2.85823E-05-2.85686E-05 2.99768E-09-6.68696E-19 1.26488E-19
 -1      2506 9.52427E-05-2.85827E-05-2.85686E-05 1.92143E-09-1.29203E-18-3.30380E-19
 -1      2507 9.52435E-05-2.85828E-05-2.85689E-05 1.43674E-09-7.64539E-20 5.60024E-19
 -1      2508 9.52417E-05-2.85812E-05-2.85688E-05 5.00322E-09-1.29398E-18-2.59269E-18
 -1      2509 9.52421E-05-2.85818E-05-2.85687E-05 4.14792E-09-8.98100E-19-9.62037E-19
 -1      2510 9.52429E-05-2.85821E-05-2.85690E-05 4.07973E-09-4.98276E-20-8.59519E-19
 -1      2511 9.52405E-05-2.85795E-05-2.85690E-05 6.41054E-09-2.82453E-19-1.70393E-18
 -1      2512 9.52411E-05-2.85804E-05-2.85689E-05 5.86837E-09-2.01867E-19-3.06201E-18
 -1      2513 9.52418E-05-2.85808E-05-2.85691E-05 6.23492E-09-3.78419E-19-2.36526E-18
 -1      2514 9.52390E-05-2.85774E-05-2.85693E-05 6.96193E-09 1.34188E-19 3.14620E-19
 -1      2515 9.52397E-05-2.85784E-05-2.85691E-05 6.84693E-09 2.99030E-20-2.94115E-19
 -1      2516 9.52403E-05-2.85789E-05-2.85692E-05 7.63305E-09-1.63782E-19-1.31946E-18
 -1      2517 9.52374E-05-2.85751E-05-2.85696E-05 6.53374E-09-7.38049E-19-8.09029E-20
 -1      2518 9.52382E-05-2.85762E-05-2.85694E-05 6.89146E-09-2.18609E-19-5.91407E-20
 -1      2519 9.52385E-05-2.85767E-05-2.85693E-05 8.02025E-09 4.67929E-19-3.78933E-19
 -1      2520 2.88848E-05-2.10047E-05-3.06847E-06 2.60695E-05-5.51418E-19 4.99898E-18
 -1      2521 2.19829E-05-1.55100E-05-2.39096E-06 1.05265E-05-8.11299E-19 4.93100E-18
 -1      2522 9.15182E-05-4.91606E-05-1.83199E-05 4.33519E-05-6.84826E-19 8.27432E-19
 -1      2523 7.47611E-05-4.38154E-05-1.31069E-05 4.29945E-05-7.97905E-19 1.81069E-18
 -1      2524 1.06520E-04-3.26700E-05-3.16414E-05 9.01553E-06 8.73637E-19 1.23325E-18
 -1      2525 1.08112E-04-3.34292E-05-3.19882E-05 8.56559E-06 9.35250E-19 1.42438E-18
 -1      2526 1.08158E-04-3.29567E-05-3.22093E-05 1.06004E-05 8.91757E-19 8.91510E-19
 -1      2527 9.52364E-05-2.85734E-05-2.85699E-05 4.64371E-09-2.18193E-19 2.09248E-18
 -1      2528 2.18144E-05-1.62923E-05-2.05155E-06-1.03825E-05 1.11120E-19 4.65614E-18
 -1      2529 2.84034E-05-2.24990E-05-2.32816E-06-2.38727E-05 5.95888E-19 5.15610E-18
 -1      2530 5.66430E-05-3.57207E-05-8.91457E-06 4.26534E-05-5.55230E-19 2.82242E-18
 -1      2531 4.06202E-05-2.88822E-05-4.90707E-06 3.52735E-05-1.12401E-18 3.97301E-18
 -1      2532 1.11133E-04-2.67751E-05-3.61688E-05-4.38067E-06-1.57666E-18 3.67665E-20
 -1      2533 1.14021E-04-3.18791E-05-3.52930E-05-1.82486E-06-1.41936E-18 3.06421E-19
 -1      2534 1.11081E-04-3.15968E-05-3.41023E-05-5.57322E-07-1.09735E-18-5.72045E-20
 -1      2535 1.04479E-04-2.30897E-05-3.49016E-05-2.88573E-06-1.43453E-18-7.39539E-19
 -1      2536 4.00154E-05-2.93291E-05-4.50492E-06-3.21124E-05 1.29045E-18 5.06589E-18
 -1      2537 5.69642E-05-3.63653E-05-8.87094E-06-4.05527E-05 7.60847E-19 3.76464E-18
 -1      2538 4.23008E-05-2.40593E-05-7.34869E-06-2.88509E-05 1.56627E-18 4.80141E-18
 -1      2539 1.43831E-04-1.42504E-05-5.61274E-05-4.20985E-06 4.83232E-18-1.39040E-18
 -1      2540 1.47488E-04-2.13196E-05-5.42456E-05-3.60351E-06 4.55259E-18-1.67458E-18
 -1      2541 5.70384E-05 2.08014E-06-2.53143E-05-4.97355E-06-1.67601E-19-3.75713E-18
 -1      2542 5.68973E-05 2.32570E-06-2.53900E-05-3.05179E-06-2.16347E-19-3.75679E-18
 -1      2543 5.69974E-05 1.00097E-06-2.47394E-05-1.03062E-06-1.17355E-19-3.75662E-18
 -1      2544 5.74584E-05 3.36631E-07-2.46694E-05-7.40382E-06-2.42341E-19-3.68612E-18
 -1      2545 1.42556E-04-1.03690E-05-5.69989E-05 3.50165E-06 4.80141E-18-7.17755E-19
 -1      2546 1.41690E-04-9.51369E-06-5.71279E-05 4.49950E-07 4.69426E-18-1.07809E-18
 -1      2547 5.87016E-05-3.04643E-05-1.18059E-05-4.10651E-05-7.60212E-19-4.75238E-18
 -1      2548 7.53359E-05-3.78248E-05-1.60494E-05-4.34617E-05-8.51268E-20-4.13087E-18
 -1      2549 1.44394E-04-2.22437E-05-5.26971E-05 6.89374E-06 4.33321E-18 2.42675E-19
 -1      2550 1.42825E-04-1.62408E-05-5.48881E-05 6.63057E-06 4.75567E-18 6.03511E-21
 -1      2551 1.42886E-04-4.04346E-05-4.40703E-05-3.13036E-06 2.96954E-18 2.52628E-19
 -1      2552 1.47149E-04-3.22008E-05-4.97742E-05 2.70192E-06 3.75320E-18 3.53424E-19
 -1      2553 1.38522E-04-2.76913E-05-4.76644E-05 9.51194E-06 3.31497E-18 1.02967E-18
 -1      2554 1.29171E-04-5.02653E-05-3.37215E-05-2.05374E-05 1.40830E-18-7.95576E-19
 -1      2555 1.38296E-04-4.82714E-05-3.90482E-05-1.40156E-05 2.22621E-18-1.57125E-19
 -1      2556 1.48183E-04-1.42289E-05-5.79597E-05-3.13807E-06-5.62006E-18-8.87796E-19
 -1      2557 1.46888E-04-1.66372E-05-5.61954E-05-8.05930E-06-5.33504E-18-3.65601E-19
 -1      2558 9.39133E-05-4.50362E-05-2.08595E-05-3.84223E-05 1.79995E-20-3.09246E-18
 -1      2559 1.14310E-04-4.96201E-05-2.80030E-05-3.32040E-05 7.90917E-19-1.81074E-18
 -1      2560 2.58544E-05-1.38572E-05-4.88074E-06-2.46487E-05-8.42163E-19-5.93601E-18
 -1      2561 3.94432E-05-1.96610E-05-8.27354E-06-3.51595E-05-8.35810E-19-5.45172E-18
 -1      2562 1.57661E-05-8.46640E-06-2.88599E-06-8.46586E-07-4.59833E-19-6.25491E-18
 -1      2563 1.75172E-05-9.64397E-06-3.14971E-06-1.41424E-05-2.95403E-19-6.31527E-18
 -1      2564 3.02890E-05-1.41569E-05-6.56858E-06 2.29898E-05 3.13614E-19-5.47967E-18
 -1      2565 2.06502E-05-1.02175E-05-4.09721E-06 1.07294E-05 1.77295E-19-6.03702E-18
 -1      2566 1.06888E-04-5.20269E-05-2.37102E-05 3.42748E-05-7.00496E-19-2.45100E-18
 -1      2567 9.02935E-05-4.64768E-05-1.86031E-05 3.60154E-05-2.76133E-19-2.86365E-18
 -1      2568 1.38328E-04-5.57798E-05-3.57469E-05 1.61522E-05-2.11642E-18-9.23054E-19
 -1      2569 1.22754E-04-5.54672E-05-2.88381E-05 2.47284E-05-1.08039E-18-1.81180E-18
 -1      2570 1.20009E-04-5.56509E-05-2.72946E-05 2.41835E-05 3.13508E-19-1.16070E-18
 -1      2571 1.51263E-04-4.55638E-05-4.57474E-05-9.97246E-07-3.63065E-18 1.05879E-20
 -1      2572 1.46282E-04-5.09504E-05-4.09971E-05 3.81617E-06-2.92629E-18-2.72109E-19
 -1      2573 1.50627E-04-2.61851E-05-5.39650E-05-9.68856E-06-5.10507E-18 2.04347E-19
 -1      2574 1.51509E-04-3.57687E-05-4.98519E-05-7.33868E-06-4.58351E-18 2.74439E-19
 -1      2575 1.46934E-04-1.66057E-05-5.62186E-05 6.21563E-06-4.94477E-18-1.81604E-18
 -1      2576 1.48595E-04-1.41779E-05-5.80295E-05 1.23319E-06-5.35960E-18-1.27931E-18
 -1      2577 1.36956E-04-1.28073E-05-5.34388E-05-1.28267E-06-5.00533E-18-8.79776E-19
 -1      2578 1.51128E-04-3.65421E-05-4.93787E-05 6.03696E-06-3.55754E-18-2.40515E-18
 -1      2579 1.50135E-04-2.67848E-05-5.36132E-05 7.60988E-06-4.38128E-18-2.44242E-18
 -1      2580 1.43328E-04-5.43468E-05-3.84159E-05-1.05994E-05-1.41529E-18-1.11448E-18
 -1      2581 1.50033E-04-4.73172E-05-4.44103E-05-2.59775E-06-2.48423E-18-1.86157E-18
 -1      2582 1.22394E-04-5.81476E-05-2.75659E-05-2.76601E-05-4.02341E-19-5.39772E-19
 -1      2583 1.36322E-04-5.76177E-05-3.38583E-05-2.09567E-05-9.76417E-19-6.56027E-19
 -1      2584 1.41427E-04-5.86159E-05-3.54925E-05-7.70979E-06-2.16629E-19-1.96321E-18
 -1      2585 7.85644E-05-4.64592E-05-1.36838E-05-4.04249E-05 6.35698E-19 2.27058E-18
 -1      2586 1.00864E-04-5.35652E-05-2.04800E-05-3.86969E-05 2.63004E-19 1.19003E-18
 -1      2587 1.49053E-04-3.12683E-05-5.08936E-05-3.16613E-07 3.66003E-18-1.99243E-18
 -1      2588 1.46608E-04-3.86458E-05-4.65325E-05 3.64633E-06 3.20644E-18-1.87830E-18
 -1      2589 1.42577E-04-4.39476E-05-4.22125E-05 3.34224E-07 2.04701E-18-2.35179E-18
 -1      2590 1.11679E-04-3.14165E-05-3.44607E-05 8.48252E-06 2.01702E-18 2.16909E-18
 -1      2591 1.12768E-04-2.97858E-05-3.56070E-05 1.06769E-05 2.11102E-18 2.39390E-18
 -1      2592 1.10384E-04-2.73290E-05-3.56922E-05 1.16764E-05 2.25572E-18 1.57788E-18
 -1      2593 1.10880E-04-3.12983E-05-3.41726E-05 9.26728E-06 2.04122E-18 1.33098E-18
 -1      2594 1.27286E-04-5.49500E-05-3.12377E-05 2.83357E-05 1.01517E-18-1.65574E-18
 -1      2595 1.10853E-04-5.42484E-05-2.41491E-05 3.47338E-05 1.09691E-19-5.26643E-19
 -1      2596 1.26990E-04-8.23721E-06-5.13605E-05-1.46576E-06 4.41368E-18-6.39483E-19
 -1      2597 1.36819E-04-1.11693E-05-5.42435E-05-3.08755E-06 4.58944E-18-1.08314E-18
 -1      2598 1.29616E-04-1.31498E-05-5.03997E-05-6.53523E-06 4.31606E-18-1.06700E-18
 -1      2599 7.76593E-05-1.12618E-05-2.84880E-05 5.55552E-06-2.76662E-19-2.60019E-18
 -1      2600 8.00618E-05-1.06548E-05-2.98438E-05 3.29035E-06-5.15595E-19-2.60144E-18
 -1      2601 8.66997E-05-1.38087E-05-3.12040E-05 2.02571E-06-7.72656E-19-2.22223E-18
 -1      2602 1.09935E-04-3.41936E-05-3.24491E-05 9.47091E-06 1.27331E-18 9.37106E-19
 -1      2603 1.07634E-04-2.53666E-05-3.52956E-05 1.08486E-05 2.13680E-18 5.99382E-19
 -1      2604 1.33831E-04-5.59311E-05-3.32860E-05 1.70040E-05 5.60736E-19-2.33146E-18
 -1      2605 1.41015E-04-2.64997E-05-4.92279E-05-6.96737E-06 3.59565E-18-1.76564E-18
 -1      2606 1.16322E-04-5.79275E-05-2.48038E-05-3.07401E-05 4.84291E-19-2.08211E-19
 -1      2607 1.26638E-04-6.04559E-05-2.87784E-05-2.04205E-05 1.13217E-18-1.75590E-18
 -1      2608 1.08272E-04-5.46424E-05-2.25790E-05-3.25850E-05 1.47183E-18-2.40849E-19
 -1      2609 9.52359E-05-2.85730E-05-2.85699E-05-5.11154E-09-9.33795E-19 2.23303E-18
 -1      2610 1.07346E-04-5.41167E-05-2.25146E-05 3.60101E-05-1.01644E-18-5.95570E-19
 -1      2611 9.52364E-05-2.85737E-05-2.85697E-05-5.79834E-09-9.55905E-19 4.49310E-19
 -1      2612 1.41310E-04-2.14095E-05-5.14697E-05 1.07189E-05-4.16571E-18-2.55327E-18
 -1      2613 3.14442E-05-1.26836E-05-7.57028E-06 9.89695E-06-6.78579E-19 4.34443E-18
 -1      2614 2.50006E-05-1.37756E-05-4.15451E-06 5.96479E-07-2.07510E-19 4.43761E-18
 -1      2615 3.13349E-05-1.31865E-05-7.24541E-06-8.62632E-06 5.45807E-19 3.88746E-18
 -1      2616 4.18008E-05-2.32548E-05-7.49944E-06 3.06160E-05-1.32804E-18 3.84934E-18
 -1      2617 7.14320E-05-3.98369E-05-1.31752E-05 4.23611E-05-1.77093E-18 1.65150E-18
 -1      2618 1.41624E-04-2.12644E-05-5.16711E-05-1.21081E-05-4.69743E-18 3.15943E-19
 -1      2619 1.41642E-04-5.50762E-05-3.70545E-05 5.09354E-06-1.32847E-18 4.48716E-19
 -1      2620 1.08337E-04-2.79673E-05-3.43889E-05 9.36579E-06 1.98670E-18 4.82597E-19
 -1      2621 4.18642E-05-1.86048E-05-9.39895E-06 2.79221E-05 6.15899E-19-5.09109E-18
 -1      2622 3.90076E-05-1.16346E-05-1.11788E-05 2.17354E-05 7.34695E-19-5.07457E-18
 -1      2623 5.38116E-05-2.32622E-05-1.31271E-05 3.15902E-05 1.13915E-18-4.19366E-18
 -1      2624 2.44601E-05-6.07580E-06-7.31728E-06 4.41914E-06 4.43898E-20-6.00970E-18
 -1      2625 2.82560E-05-8.66184E-06-7.82604E-06-1.97978E-05-7.13519E-19-6.06031E-18
 -1      2626 9.15530E-05-4.33668E-05-2.04149E-05-3.83866E-05-1.07721E-18-2.87962E-18
 -1      2627 1.39372E-04-4.53033E-05-4.03198E-05-2.07969E-06 1.93151E-18 9.66676E-19
 -1      2628 8.35830E-05-4.14595E-05-1.76149E-05 3.62403E-05 6.44592E-19-2.93883E-18
 -1      2629 9.80839E-05-1.99962E-05-3.35070E-05-9.31622E-07-1.19113E-18-1.39125E-18
 -1      2630 5.24455E-05-2.41248E-05-1.17887E-05-3.76971E-05-1.21740E-18-5.01486E-18
 -1      2631 6.57625E-05-2.81879E-05-1.59101E-05-3.80240E-05-1.81053E-18-3.98285E-18
 -1      2632 4.82710E-05-1.69340E-05-1.28749E-05-3.37241E-05-1.35589E-18-4.77049E-18
 -1      2633 7.47141E-05-4.15984E-05-1.37389E-05-3.95416E-05 1.84230E-18 2.56990E-18
 -1      2634 1.33517E-04-1.23645E-05-5.22773E-05 7.46071E-06 4.20086E-18 5.77571E-20
 -1      2635 1.23023E-04-5.19385E-05-3.03620E-05-2.34278E-05 2.01806E-19-6.89908E-19
 -1      2636 1.46879E-04-4.09196E-05-4.54903E-05-1.02234E-05-3.44637E-18 1.20702E-18
 -1      2637 9.52355E-05-2.85728E-05-2.85698E-05 5.60520E-09-2.28162E-19 2.63247E-18
 -1      2638 9.52366E-05-2.85741E-05-2.85696E-05 6.27709E-09-2.49747E-19 5.11492E-19
 -1      2639 9.52366E-05-2.85745E-05-2.85695E-05 7.64283E-09-8.91749E-19 1.22210E-18
 -1      2640 9.52347E-05-2.85726E-05-2.85695E-05 6.62657E-09-3.66229E-19 2.84328E-18
 -1      2641 9.52363E-05-2.85741E-05-2.85695E-05-7.22595E-09-1.32124E-18 5.79839E-19
 -1      2642 1.46084E-04-4.33729E-05-4.39448E-05 7.14083E-06-2.39297E-18-2.73592E-18
 -1      2643 9.52353E-05-2.85734E-05-2.85694E-05 8.16520E-09 1.57637E-19 5.26025E-19
 -1      2644 8.20131E-05-1.72746E-05-2.76145E-05-1.22379E-05-2.16255E-19-2.48201E-18
 -1      2645 7.54288E-05-1.37843E-05-2.65380E-05-1.38509E-05-4.01990E-19-2.71484E-18
 -1      2646 6.81421E-05-8.62870E-06-2.52790E-05-1.42871E-05-4.26238E-19-3.15562E-18
 -1      2647 6.18509E-05-5.24815E-06-2.43883E-05-1.35905E-05-4.68131E-19-3.37514E-18
 -1      2648 7.27439E-05-1.41058E-05-2.51294E-05-1.70988E-05-5.75903E-19-2.92285E-18
 -1      2649 1.01492E-04-2.73246E-05-3.18268E-05 7.40475E-07 9.15183E-19-1.10120E-18
 -1      2650 9.79495E-05-2.56455E-05-3.09586E-05-2.31374E-06 6.29465E-19-1.36468E-18
 -1      2651 1.06515E-04-2.93129E-05-3.31481E-05 6.16733E-06 1.53721E-18-3.76218E-19
 -1      2652 1.04105E-04-2.81116E-05-3.25353E-05 3.94151E-06 1.16234E-18-7.24842E-19
 -1      2653 1.05545E-04-3.11240E-05-3.18991E-05 2.01350E-06 9.20635E-19-5.55819E-19
 -1      2654 1.10872E-04-3.43472E-05-3.28498E-05 8.50947E-06 1.51241E-18 7.01101E-19
 -1      2655 1.11108E-04-3.33577E-05-3.32777E-05 8.48343E-06 1.57878E-18 7.88262E-19
 -1      2656 4.23249E-05-1.88183E-05-9.60784E-06-2.35889E-05 1.59803E-18 4.17460E-18
 -1      2657 5.36026E-05-2.61081E-05-1.14128E-05-3.26948E-05 1.99942E-18 3.89423E-18
 -1      2658 1.32574E-04-2.20564E-05-4.80023E-05-1.01975E-05 3.64965E-18-1.28325E-18
 -1      2659 1.36309E-04-3.16518E-05-4.52303E-05-9.13681E-06 2.77456E-18-1.78449E-18
 -1      2660 1.19794E-04-4.38148E-05-3.23699E-05 1.60866E-06 5.36675E-21 3.52882E-19
 -1      2661 1.22972E-04-4.69071E-05-3.27205E-05-6.71533E-07 1.25070E-21 5.19681E-19
 -1      2662 1.28964E-04-4.96624E-05-3.38652E-05-4.70308E-06-1.28924E-19 1.03718E-18
 -1      2663 1.30844E-04-4.89517E-05-3.52087E-05-8.42538E-06-6.22424E-19 1.01469E-18
 -1      2664 1.24915E-04-5.01364E-05-3.22170E-05 2.34044E-06-1.38305E-20 6.30967E-19
 -1      2665 1.35113E-04-3.30616E-05-4.42752E-05-1.73088E-05-3.06774E-18 9.03996E-19
 -1      2666 1.31817E-04-2.37609E-05-4.67766E-05-1.38219E-05-3.98804E-18 2.71898E-19
 -1      2667 1.27432E-04-1.66866E-05-4.83647E-05-8.72384E-06-4.35830E-18-3.94029E-19
 -1      2668 1.26115E-04-1.40334E-05-4.86221E-05-3.00011E-07-4.47064E-18-1.08702E-18
 -1      2669 1.30916E-04-2.21342E-05-4.70534E-05 1.08403E-05-3.81821E-18-2.26547E-18
 -1      2670 1.33285E-04-3.06064E-05-4.44732E-05 1.57504E-05-2.95530E-18-2.64407E-18
 -1      2671 1.35396E-04-3.96882E-05-4.14153E-05 1.46951E-05-1.82499E-18-2.87674E-18
 -1      2672 1.31109E-04-4.89608E-05-3.52628E-05 8.90010E-06-1.52360E-19-2.60328E-18
 -1      2673 1.30263E-04-5.17223E-05-3.37377E-05 4.20234E-06 7.24081E-19-2.41685E-18
 -1      2674 1.24263E-04-4.98964E-05-3.19417E-05-1.19514E-06 9.91452E-19-1.70414E-18
 -1      2675 1.20841E-04-4.79419E-05-3.10813E-05-4.92802E-06 1.07932E-18-1.53893E-18
 -1      2676 1.27564E-04-5.34932E-05-3.19817E-05-3.37706E-06 1.07623E-18-2.06205E-18
 -1      2677 1.15486E-04-4.44897E-05-3.04623E-05-7.75250E-06 6.80770E-19-1.17442E-18
 -1      2678 1.12022E-04-4.13555E-05-3.01517E-05-9.98566E-06 5.13406E-19-1.02982E-18
 -1      2679 1.15915E-04-4.74721E-05-2.95111E-05-1.08308E-05 1.03748E-18-1.56278E-18
 -1      2680 1.08251E-04-3.81248E-05-3.00583E-05-1.08550E-05 2.45236E-19-1.08786E-18
 -1      2681 1.05578E-04-3.54632E-05-2.99706E-05-1.18005E-05 2.48161E-19-1.14528E-18
 -1      2682 1.06837E-04-3.97399E-05-2.88994E-05-1.35743E-05 3.53893E-19-8.44551E-19
 -1      2683 1.03359E-04-3.32231E-05-3.00473E-05-1.16544E-05 3.73985E-19-6.61735E-19
 -1      2684 1.01527E-04-3.14062E-05-3.00139E-05-1.17693E-05 4.80585E-19-4.33464E-19
 -1      2685 1.01020E-04-3.36005E-05-2.89808E-05-1.36778E-05 5.90233E-19-5.63737E-19
 -1      2686 1.00381E-04-3.00973E-05-3.01051E-05-1.11697E-05 1.83471E-19-4.81440E-19
 -1      2687 9.91861E-05-2.90228E-05-3.00569E-05-1.08175E-05 1.50049E-19-4.22887E-19
 -1      2688 9.78052E-05-2.96951E-05-2.92336E-05-1.25971E-05 4.17719E-19-4.81217E-19
 -1      2689 9.86646E-05-2.83741E-05-3.01079E-05-1.00607E-05 7.65755E-20-5.93317E-19
 -1      2690 9.78781E-05-2.78091E-05-3.00292E-05-9.48086E-06-1.28842E-19-8.09151E-19
 -1      2691 9.62338E-05-2.75768E-05-2.94427E-05-1.10920E-05-8.58769E-20-5.52569E-19
 -1      2692 9.76793E-05-2.75641E-05-3.00335E-05-8.70134E-06 1.01005E-19-7.94576E-19
 -1      2693 9.71360E-05-2.73085E-05-2.99314E-05-8.04254E-06 2.50087E-19-3.45517E-19
 -1      2694 9.55626E-05-2.66242E-05-2.95504E-05-9.49609E-06-1.44172E-20-4.09965E-19
 -1      2695 9.70842E-05-2.72838E-05-2.98996E-05-7.30477E-06-9.43408E-20-4.10762E-19
 -1      2696 9.66850E-05-2.71999E-05-2.97865E-05-6.65388E-06 6.22668E-20-4.00529E-19
 -1      2697 9.53333E-05-2.63510E-05-2.95637E-05-7.95621E-06 2.64435E-19 9.12070E-22
 -1      2698 9.66886E-05-2.72808E-05-2.97326E-05-5.98877E-06 2.81183E-19-1.57160E-19
 -1      2699 9.63796E-05-2.72841E-05-2.96195E-05-5.39229E-06 2.45519E-19-5.88090E-19
 -1      2700 9.52925E-05-2.64333E-05-2.95092E-05-6.54288E-06-4.53004E-20 3.34911E-19
 -1      2701 9.63961E-05-2.74053E-05-2.95552E-05-4.81260E-06 1.94729E-19-5.20051E-19
 -1      2702 9.61492E-05-2.74480E-05-2.94497E-05-4.29145E-06 4.89852E-19-7.35962E-19
 -1      2703 9.53141E-05-2.66761E-05-2.94145E-05-5.28948E-06 1.37952E-19 6.06454E-19
 -1      2704 9.61620E-05-2.75754E-05-2.93835E-05-3.79929E-06 7.64083E-19-1.15144E-18
 -1      2705 9.59624E-05-2.76320E-05-2.92898E-05-3.35896E-06 8.76420E-19-8.71346E-19
 -1      2706 9.53432E-05-2.69707E-05-2.93013E-05-4.20769E-06 5.80135E-19-5.47699E-19
 -1      2707 9.59673E-05-2.77496E-05-2.92269E-05-2.95006E-06 8.22337E-19-1.26254E-18
 -1      2708 9.58062E-05-2.78073E-05-2.91466E-05-2.58734E-06 1.53219E-20-8.92213E-19
 -1      2709 9.53607E-05-2.72616E-05-2.91849E-05-3.29515E-06 6.93238E-19-1.50227E-18
 -1      2710 9.58041E-05-2.79091E-05-2.90901E-05-2.25394E-06-1.16335E-18-4.47337E-19
 -1      2711 9.56754E-05-2.79622E-05-2.90232E-05-1.96121E-06-1.59555E-18-7.73171E-19
 -1      2712 9.53639E-05-2.75237E-05-2.90745E-05-2.54060E-06-4.35580E-19-4.01156E-19
 -1      2713 9.56686E-05-2.80470E-05-2.89743E-05-1.69394E-06-1.44377E-18-8.85009E-19
 -1      2714 9.55673E-05-2.80934E-05-2.89199E-05-1.46185E-06-1.21907E-18-6.98833E-19
 -1      2715 9.53561E-05-2.77480E-05-2.89754E-05-1.92781E-06-1.47695E-18-4.50071E-19
 -1      2716 9.55582E-05-2.81622E-05-2.88788E-05-1.25097E-06-9.46398E-19-7.46550E-19
 -1      2717 9.54797E-05-2.82015E-05-2.88354E-05-1.06990E-06-3.37063E-19-8.47279E-19
 -1      2718 9.53416E-05-2.79341E-05-2.88897E-05-1.43834E-06-1.17808E-18-2.69042E-19
 -1      2719 9.54700E-05-2.82564E-05-2.88017E-05-9.06070E-07-2.06543E-19-1.60145E-18
 -1      2720 9.54104E-05-2.82889E-05-2.87677E-05-7.67000E-07-3.62774E-19-1.68605E-18
 -1      2721 9.53244E-05-2.80851E-05-2.88176E-05-1.05353E-06-6.35333E-19-4.80961E-19
 -1      2722 9.54012E-05-2.83321E-05-2.87407E-05-6.41690E-07 8.70933E-20-1.48500E-18
 -1      2723 9.53568E-05-2.83587E-05-2.87145E-05-5.36555E-07 2.37025E-19-1.68445E-18
 -1      2724 9.53070E-05-2.82056E-05-2.87585E-05-7.55695E-07-1.94787E-19-3.99294E-19
 -1      2725 9.53486E-05-2.83922E-05-2.86931E-05-4.42252E-07-3.98099E-20-2.10463E-18
 -1      2726 9.53163E-05-2.84135E-05-2.86733E-05-3.64092E-07-8.68612E-20-1.66963E-18
 -1      2727 9.52911E-05-2.83004E-05-2.87110E-05-5.28807E-07 3.88068E-20-1.31929E-18
 -1      2728 9.53095E-05-2.84393E-05-2.86568E-05-2.94357E-07 6.18051E-19-7.84178E-19
 -1      2729 9.52866E-05-2.84562E-05-2.86421E-05-2.37311E-07 9.50866E-19-2.57996E-19
 -1      2730 9.52774E-05-2.83740E-05-2.86735E-05-3.58834E-07 5.67014E-19-6.94435E-19
 -1      2731 9.52811E-05-2.84757E-05-2.86295E-05-1.86741E-07 3.59283E-19-3.52710E-19
 -1      2732 9.52654E-05-2.84890E-05-2.86188E-05-1.45974E-07 1.12476E-19-2.10493E-19
 -1      2733 9.52662E-05-2.84305E-05-2.86444E-05-2.33791E-07 8.82053E-19-1.03530E-18
 -1      2734 9.52611E-05-2.85035E-05-2.86094E-05-1.10124E-07-5.31869E-19 5.62185E-19
 -1      2735 9.52507E-05-2.85138E-05-2.86017E-05-8.17130E-08-5.05426E-19 5.17658E-19
 -1      2736 9.52574E-05-2.84732E-05-2.86223E-05-1.43665E-07 4.39533E-19-3.93058E-19
 -1      2737 9.52474E-05-2.85245E-05-2.85948E-05-5.69855E-08-9.37632E-19 8.04143E-19
 -1      2738 9.52409E-05-2.85323E-05-2.85896E-05-3.77979E-08-7.12234E-19 1.77572E-19
 -1      2739 9.52507E-05-2.85049E-05-2.86057E-05-8.02432E-08-1.06302E-18 1.09656E-18
 -1      2740 9.52385E-05-2.85400E-05-2.85846E-05-2.13284E-08-7.90577E-19-2.01328E-19
 -1      2741 9.52348E-05-2.85459E-05-2.85810E-05-8.90126E-09-8.46388E-19-7.02101E-20
 -1      2742 9.52457E-05-2.85282E-05-2.85935E-05-3.69046E-08-1.16138E-18 7.48415E-19
 -1      2743 9.52331E-05-2.85513E-05-2.85776E-05 1.55582E-09-9.67770E-19 4.83120E-21
 -1      2744 9.52313E-05-2.85556E-05-2.85753E-05 9.13091E-09-3.11130E-19-5.15258E-19
 -1      2745 9.52421E-05-2.85449E-05-2.85848E-05-8.39746E-09-1.05177E-18 9.35536E-19
 -1      2746 9.52301E-05-2.85593E-05-2.85730E-05 1.53082E-08 3.64244E-19-1.33126E-18
 -1      2747 9.52295E-05-2.85625E-05-2.85716E-05 1.94868E-08 4.87852E-19-1.23349E-18
 -1      2748 9.52397E-05-2.85565E-05-2.85786E-05 9.37811E-09-7.62318E-19-9.34504E-19
 -1      2749 9.52288E-05-2.85649E-05-2.85701E-05 2.26994E-08 1.06265E-18-1.71533E-18
 -1      2750 9.52290E-05-2.85671E-05-2.85694E-05 2.45727E-08 5.92700E-19-1.59158E-18
 -1      2751 9.52380E-05-2.85645E-05-2.85745E-05 1.95715E-08 4.83466E-19-1.57404E-18
 -1      2752 9.52285E-05-2.85687E-05-2.85684E-05 2.58007E-08-1.48465E-19-1.59598E-18
 -1      2753 9.52293E-05-2.85702E-05-2.85682E-05 2.61716E-08 5.10443E-19-1.58993E-18
 -1      2754 9.52370E-05-2.85697E-05-2.85718E-05 2.45607E-08 5.42736E-19-1.98847E-18
 -1      2755 9.52290E-05-2.85711E-05-2.85676E-05 2.61308E-08 1.35340E-18-1.68459E-18
 -1      2756 9.52300E-05-2.85721E-05-2.85676E-05 2.55767E-08 1.34126E-18-1.61417E-18
 -1      2757 9.52364E-05-2.85729E-05-2.85701E-05 2.61076E-08 4.50154E-19-1.62335E-18
 -1      2758 9.52298E-05-2.85726E-05-2.85674E-05 2.47767E-08 1.47032E-18-1.10096E-18
 -1      2759 9.52309E-05-2.85732E-05-2.85676E-05 2.37007E-08 8.30537E-19-9.38189E-19
 -1      2760 9.52361E-05-2.85747E-05-2.85692E-05 2.54895E-08 1.55833E-18-2.07388E-18
 -1      2761 9.52309E-05-2.85734E-05-2.85675E-05 2.24929E-08 6.19057E-20-4.11405E-19
 -1      2762 9.52319E-05-2.85738E-05-2.85678E-05 2.11652E-08-2.75213E-19-5.77233E-19
 -1      2763 9.52360E-05-2.85756E-05-2.85688E-05 2.36072E-08 8.04935E-19-2.91374E-18
 -1      2764 9.52320E-05-2.85738E-05-2.85678E-05 1.97809E-08-6.58820E-19 1.88891E-19
 -1      2765 9.52330E-05-2.85741E-05-2.85681E-05 1.83714E-08 3.08521E-19 1.18380E-19
 -1      2766 9.52361E-05-2.85759E-05-2.85687E-05 2.10732E-08 5.23772E-19-1.23351E-18
 -1      2767 9.52331E-05-2.85740E-05-2.85682E-05 1.69515E-08 6.69740E-19 4.63343E-19
 -1      2768 9.52340E-05-2.85741E-05-2.85685E-05 1.55548E-08 3.23125E-19 2.57084E-19
 -1      2769 9.52362E-05-2.85758E-05-2.85687E-05 1.82826E-08 2.81306E-19-3.32293E-19
 -1      2770 9.52341E-05-2.85741E-05-2.85686E-05 1.41728E-08 5.27188E-19 2.31425E-19
 -1      2771 9.52349E-05-2.85742E-05-2.85689E-05 1.28261E-08-4.79319E-19 3.28212E-19
 -1      2772 9.52364E-05-2.85757E-05-2.85689E-05 1.54663E-08-2.35180E-19-9.38267E-19
 -1      2773 9.52351E-05-2.85742E-05-2.85690E-05 1.15127E-08-3.04743E-19 3.84040E-19
 -1      2774 9.52358E-05-2.85744E-05-2.85692E-05 1.02211E-08 1.00072E-18 7.18595E-19
 -1      2775 9.52368E-05-2.85755E-05-2.85691E-05 1.27322E-08 1.00397E-19-5.68384E-19
 -1      2776 1.04047E-04-2.49849E-05-3.38042E-05 7.51902E-06 1.60523E-18 2.70863E-19
 -1      2777 1.05450E-04-2.70999E-05-3.36526E-05 9.69719E-06 1.24657E-18 3.88796E-19
 -1      2778 9.52373E-05-2.85755E-05-2.85693E-05-9.22009E-09-1.48108E-18-3.39684E-19
 -1      2779 9.52359E-05-2.85740E-05-2.85694E-05-8.46837E-09-1.65603E-18 7.22694E-19
 -1      2780 9.52351E-05-2.85738E-05-2.85692E-05-9.70997E-09-1.01283E-18 3.70590E-20
 -1      2781 1.07184E-04-2.95081E-05-3.32334E-05 1.11047E-05 1.17506E-18 4.39153E-19
 -1      2782 1.08767E-04-3.16979E-05-3.30877E-05 1.17717E-05 1.10899E-18 5.72966E-19
 -1      2783 1.08854E-04-2.81884E-05-3.45652E-05 1.16358E-05 1.48622E-18-3.54960E-20
 -1      2784 1.03149E-04-2.45754E-05-3.37345E-05-6.05975E-06 1.44594E-18-5.16366E-19
 -1      2785 1.02441E-04-2.32387E-05-3.39088E-05-3.18281E-06 1.80405E-18-4.59198E-19
 -1      2786 1.05865E-04-2.90602E-05-3.30038E-05-1.01019E-05 1.00418E-18-1.24222E-18
 -1      2787 1.04555E-04-2.67105E-05-3.32812E-05-8.67909E-06 1.39207E-18-1.03251E-18
 -1      2788 1.06143E-04-2.49373E-05-3.48117E-05-8.17496E-06 1.75739E-18-1.02417E-18
 -1      2789 1.08486E-04-3.36736E-05-3.21313E-05-1.02168E-05 6.73907E-19-1.60163E-18
 -1      2790 1.07293E-04-3.15414E-05-3.24169E-05-1.04933E-05 6.63859E-19-1.52371E-18
 -1      2791 1.09154E-04-3.06664E-05-3.36033E-05-1.11415E-05 1.21027E-18-1.38825E-18
 -1      2792 1.09508E-04-3.63598E-05-3.13745E-05-7.46840E-06 2.75028E-19-1.22590E-18
 -1      2793 1.08941E-04-3.52234E-05-3.15948E-05-8.84274E-06 4.68713E-19-1.50649E-18
 -1      2794 1.11136E-04-3.56849E-05-3.22994E-05-9.79516E-06 5.97747E-19-1.88936E-18
 -1      2795 1.08813E-04-3.68135E-05-3.08465E-05-3.69057E-06 2.17107E-19-9.71687E-19
 -1      2796 1.08914E-04-3.66887E-05-3.09876E-05-5.40618E-06 3.57676E-19-9.84729E-19
 -1      2797 1.10970E-04-3.80321E-05-3.12388E-05-6.03273E-06 1.65380E-19-1.10962E-18
 -1      2798 1.07050E-04-3.57654E-05-3.05244E-05-2.35625E-07-4.75297E-19-7.83429E-19
 -1      2799 1.07605E-04-3.62794E-05-3.06112E-05-1.77011E-06-2.86499E-19-8.02532E-19
 -1      2800 1.09097E-04-3.78469E-05-3.05384E-05-1.89615E-06-7.90350E-20-2.88370E-19
 -1      2801 1.04928E-04-3.40953E-05-3.03293E-05 2.29656E-06 1.54557E-19-7.51057E-19
 -1      2802 1.05690E-04-3.48578E-05-3.03946E-05 1.17522E-06 3.19044E-20-5.91169E-19
 -1      2803 1.06469E-04-3.61861E-05-3.01406E-05 1.45063E-06-6.13615E-20-5.48269E-19
 -1      2804 1.02906E-04-3.24148E-05-3.01876E-05 3.83012E-06 1.11151E-19-7.70677E-19
 -1      2805 1.03700E-04-3.31686E-05-3.02547E-05 3.15077E-06 6.76733E-20-5.87213E-19
 -1      2806 1.03848E-04-3.40619E-05-2.99320E-05 3.66419E-06 6.46682E-20-2.95501E-19
 -1      2807 1.01183E-04-3.10183E-05-3.00545E-05 4.53578E-06-4.36600E-19 3.40475E-19
 -1      2808 1.01919E-04-3.16444E-05-3.01332E-05 4.22631E-06-8.53609E-20-3.46944E-19
 -1      2809 1.01622E-04-3.21035E-05-2.98142E-05 4.84693E-06-2.38119E-19 2.19528E-19
 -1      2810 9.97975E-05-2.99817E-05-2.99108E-05 4.64831E-06-4.59207E-19 7.47390E-19
 -1      2811 1.00439E-04-3.04514E-05-3.00014E-05 4.60685E-06-4.06411E-19 3.97646E-19
 -1      2812 9.98896E-05-3.05682E-05-2.97248E-05 5.25276E-06-5.55377E-19 7.90288E-19
 -1      2813 9.87128E-05-2.92725E-05-2.97543E-05 4.38265E-06-6.65799E-19 4.25534E-19
 -1      2814 9.92553E-05-2.96008E-05-2.98522E-05 4.51298E-06-3.36518E-19 1.77126E-19
 -1      2815 9.86053E-05-2.94874E-05-2.96332E-05 5.13788E-06-1.60209E-19 4.25285E-19
 -1      2816 9.78730E-05-2.88204E-05-2.95911E-05 3.90712E-06-8.22489E-20 1.59520E-20
 -1      2817 9.83228E-05-2.90371E-05-2.96902E-05 4.13237E-06-5.41905E-19 2.17269E-19
 -1      2818 9.76753E-05-2.87917E-05-2.95294E-05 4.71090E-06-1.07917E-19 6.89472E-20
 -1      2819 9.72247E-05-2.85530E-05-2.94297E-05 3.34162E-06 2.27671E-19 6.29489E-20
 -1      2820 9.75926E-05-2.86884E-05-2.95245E-05 3.60651E-06 1.59815E-20-1.15257E-19
 -1      2821 9.70070E-05-2.83847E-05-2.94152E-05 4.12534E-06 4.37440E-20-4.57395E-19
 -1      2822 9.67244E-05-2.84103E-05-2.92774E-05 2.76495E-06 2.67403E-19 4.13925E-19
 -1      2823 9.70216E-05-2.84896E-05-2.93640E-05 3.03313E-06 4.30850E-19 3.29210E-19
 -1      2824 9.65257E-05-2.81770E-05-2.92965E-05 3.48640E-06 1.11043E-19 3.92608E-20
 -1      2825 9.63386E-05-2.83473E-05-2.91396E-05 2.22449E-06-4.15358E-19 5.40088E-19
 -1      2826 9.65757E-05-2.83895E-05-2.92158E-05 2.47430E-06-6.33924E-20 3.89997E-19
 -1      2827 9.61763E-05-2.80975E-05-2.91799E-05 2.86116E-06-1.84933E-20 2.23953E-19
 -1      2828 9.60422E-05-2.83324E-05-2.90191E-05 1.74521E-06-2.28832E-19 3.49227E-19
 -1      2829 9.62288E-05-2.83510E-05-2.90840E-05 1.96545E-06-2.19467E-19 8.42689E-19
 -1      2830 9.59203E-05-2.80948E-05-2.90708E-05 2.28861E-06-3.34603E-19 5.26513E-19
 -1      2831 9.58157E-05-2.83445E-05-2.89169E-05 1.33703E-06-4.35577E-19 2.43191E-19
 -1      2832 9.59605E-05-2.83488E-05-2.89707E-05 1.52352E-06-5.67551E-20 1.53172E-19
 -1      2833 9.57314E-05-2.81339E-05-2.89726E-05 1.78802E-06-2.42422E-19 3.44817E-19
 -1      2834 9.56443E-05-2.83701E-05-2.88324E-05 1.00034E-06 1.34657E-19 8.34990E-20
 -1      2835 9.57548E-05-2.83663E-05-2.88759E-05 1.15327E-06-1.61143E-19 1.79563E-20
 -1      2836 9.55913E-05-2.81922E-05-2.88872E-05 1.36557E-06-2.38471E-19 2.09846E-19
 -1      2837 9.55160E-05-2.84007E-05-2.87642E-05 7.30056E-07 3.28683E-19 4.44094E-19
 -1      2838 9.55988E-05-2.83928E-05-2.87985E-05 8.52100E-07 2.83565E-19 6.17057E-19
 -1      2839 9.54873E-05-2.82561E-05-2.88149E-05 1.01926E-06 2.35213E-19 1.74903E-19
 -1      2840 9.54214E-05-2.84315E-05-2.87103E-05 5.18275E-07-4.71064E-19 1.02779E-18
 -1      2841 9.54823E-05-2.84219E-05-2.87368E-05 6.13309E-07 1.47786E-21 9.54016E-19
 -1      2842 9.54104E-05-2.83176E-05-2.87554E-05 7.42439E-07-1.82095E-19 2.62503E-19
 -1      2843 9.53528E-05-2.84600E-05-2.86687E-05 3.56095E-07-1.25318E-18 1.96498E-19
 -1      2844 9.53966E-05-2.84502E-05-2.86887E-05 4.28390E-07-7.37769E-19 1.10500E-18
 -1      2845 9.53540E-05-2.83726E-05-2.87074E-05 5.26197E-07-5.86135E-19 9.54603E-19
 -1      2846 9.53042E-05-2.84848E-05-2.86371E-05 2.34701E-07-1.43842E-18 1.20988E-20
 -1      2847 9.53348E-05-2.84757E-05-2.86519E-05 2.88421E-07-1.67737E-18-2.93085E-19
 -1      2848 9.53130E-05-2.84196E-05-2.86695E-05 3.60976E-07-1.29024E-18 2.73424E-19
 -1      2849 9.52707E-05-2.85056E-05-2.86138E-05 1.45982E-07-4.57062E-20 1.12905E-19
 -1      2850 9.52914E-05-2.84975E-05-2.86245E-05 1.84917E-07-7.77222E-19-1.20601E-19
 -1      2851 9.52837E-05-2.84582E-05-2.86402E-05 2.37521E-07-9.94384E-19-3.70161E-19
 -1      2852 9.52483E-05-2.85225E-05-2.85969E-05 8.28343E-08-3.07573E-19 9.67319E-19
 -1      2853 9.52617E-05-2.85156E-05-2.86044E-05 1.10275E-07 4.68094E-19 9.52684E-19
 -1      2854 9.52633E-05-2.84892E-05-2.86180E-05 1.47422E-07-1.18961E-19 1.32229E-19
 -1      2855 9.52341E-05-2.85359E-05-2.85850E-05 3.92609E-08 7.71196E-19 6.73477E-19
 -1      2856 9.52423E-05-2.85302E-05-2.85901E-05 5.79628E-08-2.17096E-19 6.63846E-19
 -1      2857 9.52493E-05-2.85133E-05-2.86016E-05 8.33712E-08 1.84521E-19-4.15581E-19
 -1      2858 9.52258E-05-2.85463E-05-2.85770E-05 1.03412E-08 9.54763E-19 2.30208E-18
 -1      2859 9.52302E-05-2.85417E-05-2.85802E-05 2.25497E-08 1.43781E-18 1.30539E-18
 -1      2860 9.52401E-05-2.85316E-05-2.85897E-05 3.92246E-08 4.54791E-19-2.31860E-19
 -1      2861 9.52215E-05-2.85542E-05-2.85717E-05-7.86126E-09 1.04449E-18 7.88481E-19
 -1      2862 9.52234E-05-2.85506E-05-2.85737E-05-3.62191E-10 1.15101E-18 1.28611E-18
 -1      2863 9.52344E-05-2.85453E-05-2.85813E-05 9.96018E-09 1.57434E-18 1.23178E-18
 -1      2864 9.52200E-05-2.85600E-05-2.85685E-05-1.84256E-08 1.24482E-18-1.31008E-19
 -1      2865 9.52202E-05-2.85572E-05-2.85696E-05-1.42500E-08 7.77364E-19 7.48241E-19
 -1      2866 9.52312E-05-2.85552E-05-2.85756E-05-8.43166E-09 1.22156E-18-8.81918E-19
 -1      2867 9.52202E-05-2.85643E-05-2.85668E-05-2.37088E-08 1.62049E-18 7.73186E-19
 -1      2868 9.52194E-05-2.85622E-05-2.85672E-05-2.18033E-08 1.75916E-18 1.12835E-18
 -1      2869 9.52296E-05-2.85622E-05-2.85719E-05-1.90820E-08 9.93826E-19-1.12584E-18
 -1      2870 9.52214E-05-2.85673E-05-2.85661E-05-2.54761E-08 1.75620E-18 2.04891E-19
 -1      2871 9.52201E-05-2.85657E-05-2.85661E-05-2.50577E-08 2.11871E-18 9.70181E-19
 -1      2872 9.52292E-05-2.85670E-05-2.85696E-05-2.43846E-08 1.85320E-18 3.91162E-20
 -1      2873 9.52233E-05-2.85693E-05-2.85660E-05-2.50178E-08 4.38686E-19-1.56342E-19
 -1      2874 9.52216E-05-2.85682E-05-2.85657E-05-2.55194E-08 1.15045E-18 6.21602E-19
 -1      2875 9.52295E-05-2.85701E-05-2.85683E-05-2.61297E-08 1.35410E-18 7.77369E-19
 -1      2876 9.52253E-05-2.85707E-05-2.85662E-05-2.32513E-08 1.16833E-18-1.63439E-18
 -1      2877 9.52236E-05-2.85699E-05-2.85659E-05-2.42743E-08 1.00469E-18-6.53280E-19
 -1      2878 9.52301E-05-2.85721E-05-2.85678E-05-2.56248E-08 1.35779E-18 2.17026E-19
 -1      2879 9.52274E-05-2.85716E-05-2.85668E-05-2.08048E-08-2.15229E-19-9.18868E-19
 -1      2880 9.52258E-05-2.85710E-05-2.85663E-05-2.20806E-08 2.57582E-19-2.07164E-18
 -1      2881 9.52311E-05-2.85732E-05-2.85677E-05-2.37976E-08 2.18252E-19-7.76234E-19
 -1      2882 9.52294E-05-2.85722E-05-2.85674E-05-1.80857E-08 7.90669E-19 1.18559E-20
 -1      2883 9.52279E-05-2.85718E-05-2.85670E-05-1.94447E-08 3.25988E-19-6.98504E-19
 -1      2884 9.52320E-05-2.85738E-05-2.85678E-05-2.12822E-08 1.35451E-19-9.63148E-19
 -1      2885 9.52313E-05-2.85726E-05-2.85680E-05-1.53358E-08 1.64912E-19 5.85700E-21
 -1      2886 9.52299E-05-2.85723E-05-2.85676E-05-1.66823E-08 6.98825E-19 2.69012E-19
 -1      2887 9.52331E-05-2.85741E-05-2.85681E-05-1.84894E-08 5.87290E-19 1.71133E-19
 -1      2888 9.52329E-05-2.85729E-05-2.85686E-05-1.26730E-08-8.16791E-19 8.85851E-19
 -1      2889 9.52317E-05-2.85726E-05-2.85682E-05-1.39551E-08-1.74527E-19 7.83580E-19
 -1      2890 9.52340E-05-2.85742E-05-2.85685E-05-1.56671E-08 1.51801E-19-1.20832E-19
 -1      2891 9.52345E-05-2.85735E-05-2.85690E-05-1.05643E-08-6.32167E-19 4.57304E-19
 -1      2892 9.52336E-05-2.85732E-05-2.85688E-05-1.18118E-08-8.40552E-19 4.49884E-19
 -1      2893 9.52353E-05-2.85745E-05-2.85689E-05-1.33238E-08-3.27818E-19 3.05242E-19
 -1      2894 9.52366E-05-2.85751E-05-2.85691E-05-1.14382E-08-9.02799E-19-1.26671E-18
 -1      2895 1.16072E-04-5.62953E-05-2.59366E-05 2.91907E-05-8.20987E-19-1.28406E-18
 -1      2896 1.00643E-04-5.05300E-05-2.09914E-05 3.57321E-05-1.95051E-18-3.67407E-19
 -1      2897 9.52446E-05-2.85830E-05-2.85692E-05-8.24872E-10 1.19062E-18 6.50108E-19
 -1      2898 9.52445E-05-2.85829E-05-2.85692E-05-2.28657E-09 1.27478E-18 1.08818E-18
 -1      2899 9.52429E-05-2.85813E-05-2.85693E-05-6.49352E-09-3.73800E-19-8.45114E-20
 -1      2900 9.52422E-05-2.85805E-05-2.85693E-05-7.45283E-09-3.82137E-19 5.33744E-19
 -1      2901 9.52445E-05-2.85829E-05-2.85692E-05 2.32833E-09-2.26243E-19 2.72300E-19
 -1      2902 9.52446E-05-2.85830E-05-2.85692E-05 8.67211E-10 1.65671E-19-6.07757E-20
 -1      2903 9.52457E-05-2.85833E-05-2.85696E-05 2.24817E-11 1.05204E-18-8.08916E-19
 -1      2904 9.52441E-05-2.85825E-05-2.85692E-05-3.88454E-09 4.59156E-19 1.61847E-19
 -1      2905 9.52436E-05-2.85820E-05-2.85693E-05-5.17402E-09 5.39071E-19-9.52662E-19
 -1      2906 9.52441E-05-2.85819E-05-2.85695E-05-6.44686E-09-5.20519E-19-5.70942E-19
 -1      2907 9.52452E-05-2.85830E-05-2.85696E-05-3.40402E-09 2.39310E-18 7.38373E-19
 -1      2908 9.52436E-05-2.85820E-05-2.85693E-05 5.16676E-09-1.46934E-19-4.47645E-19
 -1      2909 9.52441E-05-2.85825E-05-2.85692E-05 3.89908E-09-1.95621E-19 1.05647E-18
 -1      2910 9.52452E-05-2.85830E-05-2.85696E-05 3.42027E-09-5.04726E-19-1.00135E-20
 -1      2911 9.52422E-05-2.85805E-05-2.85693E-05 7.44720E-09-7.84033E-20-2.68272E-18
 -1      2912 9.52430E-05-2.85813E-05-2.85693E-05 6.48875E-09-3.53428E-19-2.07320E-18
 -1      2913 9.52441E-05-2.85819E-05-2.85695E-05 6.43864E-09-1.33925E-19-1.48960E-18
 -1      2914 9.52402E-05-2.85785E-05-2.85693E-05 8.80184E-09 7.83284E-19-2.52771E-19
 -1      2915 9.52412E-05-2.85795E-05-2.85693E-05 8.33199E-09 9.85356E-20-1.30220E-18
 -1      2916 9.52422E-05-2.85802E-05-2.85695E-05 8.74618E-09-9.66396E-20-1.55961E-18
 -1      2917 1.08662E-04-2.99096E-05-3.37726E-05 8.50438E-06 1.79012E-18 4.08938E-19
 -1      2918 5.33282E-05-2.66175E-05-1.10297E-05 3.57782E-05-1.70868E-18 1.94521E-18
 -1      2919 4.18707E-05-1.85978E-05-9.50362E-06 2.58652E-05-1.43636E-18 3.54949E-18
 -1      2920 8.17833E-05-4.27670E-05-1.67604E-05 4.12449E-05-2.04791E-18 8.33904E-19
 -1      2921 6.60776E-05-3.42173E-05-1.31607E-05 3.90762E-05-2.05109E-18 1.27775E-18
 -1      2922 6.53127E-05-3.00446E-05-1.46005E-05 3.49681E-05-1.91525E-18 1.16838E-18
 -1      2923 1.05052E-04-2.80209E-05-3.29831E-05 1.47612E-06-8.77903E-19-7.64646E-19
 -1      2924 1.08287E-04-3.21341E-05-3.27000E-05 2.23788E-06-7.61919E-19-4.50201E-19
 -1      2925 9.42171E-05-4.43892E-05-2.15936E-05 3.22680E-05 9.76629E-19-1.76728E-18
 -1      2926 7.50999E-05-3.37467E-05-1.70301E-05 3.37068E-05 1.23847E-18-2.93391E-18
 -1      2927 3.14823E-05-4.08874E-06-1.13116E-05 8.09466E-06 4.44904E-19-5.33546E-18
 -1      2928 2.77762E-05-2.41584E-06-1.02930E-05-3.72750E-06-1.24408E-20-5.68507E-18
 -1      2929 1.09844E-04-3.34491E-05-3.27251E-05 1.14464E-05 9.67427E-19 8.01780E-19
 -1      2930 1.11025E-04-3.47581E-05-3.26986E-05 1.10300E-05 9.90138E-19 9.54792E-19
 -1      2931 1.11717E-04-3.32016E-05-3.36133E-05 1.25206E-05 1.25863E-18 4.97380E-19
 -1      2932 1.02284E-04-2.28737E-05-3.40394E-05 8.18955E-07 1.81926E-18-1.21132E-19
 -1      2933 1.02639E-04-2.34429E-05-3.40295E-05 3.92150E-06 1.74948E-18 4.98451E-20
 -1      2934 1.05388E-04-2.29116E-05-3.53405E-05 6.77588E-06 1.82211E-18-3.72926E-20
 -1      2935 1.04484E-04-2.18690E-05-3.54219E-05-1.15769E-06 1.92256E-18-1.91138E-19
 -1      2936 1.12128E-04-3.60951E-05-3.24129E-05 2.70292E-06-3.81615E-19-5.96099E-20
 -1      2937 1.14890E-04-3.98164E-05-3.22129E-05 2.51965E-06-2.20169E-19 1.08728E-19
 -1      2938 1.13699E-04-4.13586E-05-3.10722E-05 5.53952E-06 3.63761E-20 2.15993E-20
 -1      2939 1.05666E-04-3.31598E-05-3.11798E-05 5.59359E-06-3.59195E-19-6.77527E-19
 -1      2940 1.35084E-04-5.46445E-05-3.49971E-05 8.23748E-06 7.23790E-19-2.49843E-18
 -1      2941 1.28072E-04-5.70073E-05-3.02178E-05 1.73947E-05-8.54444E-20-2.25999E-18
 -1      2942 1.11061E-04-3.51822E-05-3.25483E-05 9.94510E-06 1.12457E-18 8.50459E-19
 -1      2943 1.11649E-04-3.52516E-05-3.27164E-05 9.30328E-06 1.21482E-18 8.60071E-19
 -1      2944 1.11885E-04-3.52244E-05-3.28371E-05 8.89218E-06 1.27575E-18 6.37946E-19
 -1      2945 1.12792E-04-3.58743E-05-3.29486E-05 1.08426E-05 1.03610E-18 8.81907E-19
 -1      2946 9.36580E-05-2.37385E-05-2.99301E-05-6.18584E-06 3.48577E-19-1.62161E-18
 -1      2947 8.83347E-05-2.10020E-05-2.88676E-05-9.15020E-06 1.18105E-20-1.98146E-18
 -1      2948 9.88996E-05-2.86018E-05-3.01614E-05-5.18808E-06 2.91194E-19-1.17332E-18
 -1      2949 6.01635E-05-3.49389E-06-2.43867E-05 5.97765E-06 2.19251E-19-3.48562E-18
 -1      2950 6.67175E-05-6.89529E-06-2.54439E-05 7.75593E-06 1.75277E-19-3.09988E-18
 -1      2951 1.35160E-04-4.85161E-05-3.69150E-05-2.64099E-06 1.07176E-18 1.05741E-18
 -1      2952 1.36720E-04-4.23172E-05-4.11532E-05 4.96387E-06 2.11229E-18 1.20861E-18
 -1      2953 1.35206E-04-3.26590E-05-4.41028E-05 1.12058E-05 2.56460E-18 1.15429E-18
 -1      2954 1.30856E-04-2.36259E-05-4.65719E-05 1.28888E-05 3.27558E-18 8.69268E-19
 -1      2955 1.41574E-04-5.28611E-05-3.84422E-05-3.21070E-06-1.23606E-18 1.59274E-18
 -1      2956 1.36378E-04-5.68303E-05-3.39903E-05 6.26157E-06-1.73086E-19 8.72338E-19
 -1      2957 1.16464E-04-5.09622E-05-2.77096E-05-2.49449E-05-7.21990E-19-7.81441E-19
 -1      2958 1.27651E-04-5.27057E-05-3.26604E-05-1.52268E-05 1.74965E-19 3.70736E-19
 -1      2959 6.80229E-05-3.51763E-05-1.36435E-05-3.68300E-05 2.33093E-18 2.56418E-18
 -1      2960 8.67295E-05-4.48796E-05-1.78124E-05-3.79069E-05 1.87078E-18 1.33556E-18
 -1      2961 6.73566E-05-3.04942E-05-1.52702E-05-3.21899E-05 2.21986E-18 2.59467E-18
 -1      2962 8.55540E-05-3.87241E-05-1.97132E-05-3.73805E-05-1.50698E-18-2.80548E-18
 -1      2963 1.01776E-04-4.64507E-05-2.38306E-05-3.38560E-05-1.11935E-18-1.83597E-18
 -1      2964 2.95588E-05-3.77874E-06-1.05560E-05-1.29180E-05-6.08620E-19-5.61350E-18
 -1      2965 3.70740E-05-7.90727E-06-1.20715E-05-2.36531E-05-1.03640E-18-5.21815E-18
 -1      2966 3.64776E-05-2.19135E-06-1.40788E-05-8.31795E-06-3.21727E-19-5.25711E-18
 -1      2967 9.46049E-05-1.99885E-05-3.20235E-05 1.89403E-06-8.35770E-19-1.56652E-18
 -1      2968 1.26881E-04-5.72132E-05-3.02484E-05 1.71624E-05 4.11234E-19-2.18111E-19
 -1      2969 1.14375E-04-5.30718E-05-2.58329E-05 2.43515E-05 7.78635E-19-7.67756E-19
 -1      2970 9.52364E-05-2.85745E-05-2.85694E-05 8.49318E-09 2.96297E-19 6.42826E-19
 -1      2971 9.52374E-05-2.85755E-05-2.85694E-05 8.77398E-09 4.59799E-19-9.78395E-19
 -1      2972 9.52360E-05-2.85744E-05-2.85693E-05 9.36383E-09 1.43407E-18 2.17592E-19
 -1      2973 1.35192E-04-5.79168E-05-3.29085E-05-6.09055E-06 7.99076E-19-2.27142E-18
 -1      2974 1.39383E-04-5.62033E-05-3.62973E-05 1.40694E-06 3.15546E-19-2.32659E-18
 -1      2975 1.25714E-04-1.45468E-05-4.81214E-05 9.90437E-06 3.88365E-18 1.96829E-19
 -1      2976 1.24835E-04-9.87804E-06-4.98884E-05 4.91954E-06 3.97110E-18-2.64115E-19
 -1      2977 1.38687E-04-3.95618E-05-4.30831E-05-5.91788E-06 2.24570E-18-1.90074E-18
 -1      2978 1.38026E-04-4.58513E-05-3.96007E-05-1.44796E-06 1.71413E-18-2.23670E-18
 -1      2979 1.33047E-04-3.46330E-05-4.24546E-05-1.03015E-05 2.22420E-18-1.50539E-18
 -1      2980 1.32232E-04-4.06572E-05-3.94450E-05-1.59248E-05-1.85738E-18 1.13291E-18
 -1      2981 1.40129E-04-4.00719E-05-4.32439E-05-1.45334E-05-2.71908E-18 1.56341E-18
 -1      2982 1.41592E-04-4.91031E-05-3.99272E-05-1.01139E-05-1.58805E-18 1.67691E-18
 -1      2983 1.33419E-04-4.65908E-05-3.74610E-05-1.39069E-05-1.01649E-18 1.10821E-18
 -1      2984 7.49562E-05-1.24525E-05-2.69238E-05 8.70623E-06 1.00767E-19-2.63120E-18
 -1      2985 8.31336E-05-1.67786E-05-2.83550E-05 8.19987E-06-9.02603E-20-2.29713E-18
 -1      2986 7.14486E-05-1.25842E-05-2.51793E-05 1.14321E-05 3.04118E-19-2.81560E-18
 -1      2987 5.84744E-05-4.94769E-06-2.28271E-05-1.44632E-05-5.47951E-19-3.65950E-18
 -1      2988 5.63339E-05-1.08115E-06-2.35293E-05-1.03991E-05-3.70560E-19-3.72027E-18
 -1      2989 5.33935E-05 6.03532E-07-2.31881E-05-7.43365E-06-3.13501E-19-3.85219E-18
 -1      2990 1.37296E-04-5.10715E-05-3.70094E-05-7.03161E-06-8.74535E-19 1.63499E-18
 -1      2991 1.10455E-04-4.80108E-05-2.65063E-05-2.56432E-05-1.21142E-18-1.01142E-18
 -1      2992 4.49507E-05-9.87457E-06-1.49467E-05 1.88580E-05 9.30942E-19-4.59949E-18
 -1      2993 3.75526E-05-6.28389E-06-1.27269E-05 1.34754E-05 6.51368E-19-5.10771E-18
 -1      2994 3.94551E-05-2.76244E-06-1.52334E-05 6.60528E-06 3.31071E-19-4.97166E-18
 -1      2995 1.00870E-04-5.03458E-05-2.12389E-05-3.32748E-05 2.01096E-18 4.02632E-19
 -1      2996 1.11455E-04-5.36148E-05-2.49188E-05-2.59406E-05 2.16724E-18-1.02340E-18
 -1      2997 9.29385E-05-4.40561E-05-2.06264E-05-3.23248E-05 2.34729E-18 4.52527E-19
 -1      2998 1.28774E-04-5.71701E-05-3.05258E-05-1.14041E-05 1.26118E-18-2.07224E-18
 -1      2999 1.34446E-04-5.07757E-05-3.59605E-05-7.43500E-06-7.04242E-19 1.31743E-18
 -1      3000 1.26960E-04-1.58147E-05-4.87572E-05 5.96765E-06-4.23421E-18-1.67750E-18
 -1      3001 9.52371E-05-2.85755E-05-2.85692E-05 1.05106E-08 7.44924E-19-9.36383E-19
 -1      3002 1.39478E-04-4.63653E-05-4.02071E-05 9.15326E-06-1.13217E-18-2.94619E-18
 -1      3003 9.44478E-05-4.59229E-05-2.04925E-05 3.52716E-05-1.97877E-18 1.24196E-19
 -1      3004 1.21905E-04-5.57460E-05-2.81673E-05 1.95516E-05-3.82859E-19-1.69298E-18
 -1      3005 9.52422E-05-2.85802E-05-2.85695E-05-8.73204E-09-4.89471E-20 2.05272E-19
 -1      3006 9.52412E-05-2.85795E-05-2.85693E-05-8.31905E-09-1.26761E-19-1.28312E-20
 -1      3007 9.52402E-05-2.85785E-05-2.85693E-05-8.85748E-09-8.18493E-19-3.65720E-19
 -1      3008 9.52384E-05-2.85767E-05-2.85693E-05-9.27443E-09-1.73519E-18-2.83623E-19
 -1      3009 1.05647E-04-4.72534E-05-2.47038E-05 2.47117E-05 1.13185E-18-1.13087E-18
 -1      3010 3.88966E-05-1.44357E-05-9.74052E-06 1.83312E-05-1.10787E-18 4.24025E-18
 -1      3011 3.85941E-05-1.20745E-05-1.09378E-05 9.20716E-06-4.53930E-19 3.51392E-18
 -1      3012 4.88256E-05-1.79397E-05-1.28042E-05 2.32530E-05-1.64785E-18 2.91856E-18
 -1      3013 1.08479E-04-3.06137E-05-3.33688E-05 7.92384E-06 1.62270E-18 1.19729E-19
 -1      3014 9.52384E-05-2.85767E-05-2.85693E-05 8.86270E-09 1.22368E-18-8.22919E-19
 -1      3015 3.97809E-05-1.46106E-05-1.01414E-05-1.57315E-05 7.78635E-19 3.76739E-18
 -1      3016 5.02010E-05-1.71417E-05-1.37295E-05-1.91494E-05 1.41931E-18 3.17659E-18
 -1      3017 3.97444E-05-1.16891E-05-1.16467E-05-6.00131E-06 2.47294E-19 3.08691E-18
 -1      3018 1.25269E-04-1.99468E-05-4.56168E-05 1.26735E-05 3.20983E-18 6.25004E-19
 -1      3019 1.17532E-04-1.62194E-05-4.39163E-05 1.07431E-05 3.07325E-18 4.46413E-19
 -1      3020 1.23387E-04-2.42444E-05-4.25723E-05 1.40553E-05 2.46873E-18 1.00855E-18
 -1      3021 6.78330E-05-2.66465E-05-1.71645E-05 2.99631E-05 1.28791E-18-3.33900E-18
 -1      3022 8.78073E-05-2.30917E-05-2.77924E-05-1.27309E-05-2.90175E-19-1.94621E-18
 -1      3023 9.34698E-05-2.18594E-05-3.07019E-05 4.69856E-06-4.27072E-19-1.67997E-18
 -1      3024 1.32335E-04-3.79045E-05-4.07429E-05 9.76577E-06 1.97555E-18 1.08923E-18
 -1      3025 4.57809E-05-1.14723E-05-1.41444E-05-2.69469E-05-1.27674E-18-4.73100E-18
 -1      3026 5.51004E-05-1.55373E-05-1.68551E-05-2.97776E-05-1.57024E-18-4.10387E-18
 -1      3027 4.50656E-05-6.37371E-06-1.62122E-05-2.09352E-05-1.01784E-18-4.62512E-18
 -1      3028 5.28671E-05 1.17940E-06-2.31479E-05-1.90106E-06-4.54056E-20-3.85037E-18
 -1      3029 5.50741E-05 7.05566E-08-2.35329E-05 1.52948E-06 3.83787E-20-3.86338E-18
 -1      3030 5.66073E-05-3.14262E-06-2.27053E-05 5.69711E-06 2.37580E-19-3.78409E-18
 -1      3031 5.11162E-05 1.23037E-07-2.17572E-05-4.99959E-06-1.76722E-19-4.07553E-18
 -1      3032 1.29501E-04-5.00472E-05-3.40728E-05-6.49900E-06 2.93047E-19 7.98911E-19
 -1      3033 6.95011E-05-2.48832E-05-1.86033E-05-3.39280E-05-1.85977E-18-3.44509E-18
 -1      3034 7.78730E-05-3.30466E-05-1.88794E-05-3.66867E-05-1.76585E-18-3.27193E-18
 -1      3035 8.78716E-05-3.65283E-05-2.20844E-05-3.24509E-05-1.88719E-18-2.29482E-18
 -1      3036 1.31346E-04-5.56462E-05-3.22060E-05 7.34694E-06 3.90429E-19 7.72759E-19
 -1      3037 1.33915E-04-4.99474E-05-3.61492E-05 3.25734E-07 9.42956E-19-2.13516E-18
 -1      3038 1.27909E-04-1.82762E-05-4.74800E-05-9.93140E-06 3.79143E-18-1.28670E-18
 -1      3039 1.24882E-04-2.28691E-05-4.39636E-05-1.18991E-05 3.18633E-18-1.51434E-18
 -1      3040 1.21115E-04-1.43417E-05-4.61979E-05-8.42773E-06 3.83367E-18-9.10719E-19
 -1      3041 1.09424E-04-3.30068E-05-3.27778E-05 6.65463E-06 1.35052E-18 2.75468E-20
 -1      3042 1.20773E-04-1.04043E-05-4.77548E-05 2.01706E-06 3.99567E-18-3.30078E-19
 -1      3043 9.52382E-05-2.85765E-05-2.85693E-05 1.02114E-08-2.46443E-20-1.49005E-18
 -1      3044 9.52394E-05-2.85777E-05-2.85693E-05 9.41953E-09 1.00792E-18-6.06321E-19
 -1      3045 9.52402E-05-2.85783E-05-2.85694E-05 1.02161E-08 5.54196E-19 3.43036E-19
 -1      3046 9.52381E-05-2.85765E-05-2.85693E-05 1.11023E-08-6.89294E-20-5.05223E-19
 -1      3047 1.09585E-04-3.45201E-05-3.22155E-05 3.82369E-06 8.88954E-19-2.52901E-19
 -1      3048 1.07642E-04-3.38358E-05-3.15589E-05 9.16179E-07 6.41872E-19-5.09555E-19
 -1      3049 1.04118E-04-4.39430E-05-2.52955E-05-2.64720E-05-1.55251E-18-1.33247E-18
 -1      3050 1.14894E-04-4.90657E-05-2.86296E-05-1.96772E-05-9.45977E-19-2.88206E-19
 -1      3051 1.05153E-04-3.36368E-05-3.06870E-05-3.57710E-06 2.78227E-19-7.16772E-19
 -1      3052 1.01090E-04-3.17536E-05-2.96393E-05-7.48288E-06-1.40202E-19-9.06954E-19
 -1      3053 1.09821E-04-3.70417E-05-3.11686E-05-1.16938E-06 3.71136E-19-2.36091E-19
 -1      3054 1.25042E-04-5.00363E-05-3.17735E-05-8.90902E-06-3.25658E-19 6.45333E-19
 -1      3055 1.29403E-04-4.80445E-05-3.54135E-05 6.36447E-07 6.99533E-19 9.86740E-19
 -1      3056 1.00953E-04-4.75349E-05-2.32069E-05 3.01069E-05-1.27907E-18-2.18905E-19
 -1      3057 8.63482E-05-3.93546E-05-1.97119E-05 3.36521E-05-1.60386E-18 5.75188E-19
 -1      3058 1.14689E-04-4.92421E-05-2.80216E-05-1.54603E-05 1.67705E-18-1.27673E-18
 -1      3059 1.08838E-04-4.44535E-05-2.73959E-05-1.71572E-05 1.38393E-18-1.04304E-18
 -1      3060 1.04193E-04-3.98023E-05-2.74845E-05-1.67121E-05 6.84257E-19-3.74518E-19
 -1      3061 1.00236E-04-3.58354E-05-2.74874E-05-1.67349E-05 5.04416E-19-8.70426E-20
 -1      3062 1.00583E-04-4.07589E-05-2.58312E-05-2.14298E-05 1.56303E-18-1.56092E-19
 -1      3063 9.80222E-05-3.28819E-05-2.78438E-05-1.53689E-05 5.97155E-19-4.08123E-20
 -1      3064 9.57394E-05-3.03108E-05-2.80056E-05-1.48109E-05 8.93695E-19 2.82734E-19
 -1      3065 9.39255E-05-3.25250E-05-2.64137E-05-1.82046E-05 6.40206E-19 7.70059E-19
 -1      3066 9.49446E-05-2.86485E-05-2.83614E-05-1.34520E-05 3.60537E-19 6.15712E-20
 -1      3067 9.37825E-05-2.72234E-05-2.85224E-05-1.26858E-05 3.91983E-20-1.42871E-19
 -1      3068 9.12759E-05-2.77597E-05-2.72586E-05-1.49827E-05 2.66958E-19 1.04075E-18
 -1      3069 9.37084E-05-2.64474E-05-2.87947E-05-1.15273E-05-1.11883E-19-1.85312E-19
 -1      3070 9.31847E-05-2.57697E-05-2.89019E-05-1.07199E-05-3.82959E-19-2.47485E-19
 -1      3071 9.05896E-05-2.53538E-05-2.79680E-05-1.23144E-05-1.05669E-19 1.26759E-19
 -1      3072 9.34355E-05-2.55307E-05-2.90823E-05-9.74726E-06-1.13866E-19-4.32554E-19
 -1      3073 9.32386E-05-2.52970E-05-2.91313E-05-8.96598E-06 2.17006E-19 5.77432E-20
 -1      3074 9.08514E-05-2.43979E-05-2.84766E-05-1.01586E-05-8.00024E-20 2.52685E-19
 -1      3075 9.35996E-05-2.53526E-05-2.92353E-05-8.14176E-06 3.49541E-19 2.02257E-20
 -1      3076 9.35510E-05-2.53597E-05-2.92385E-05-7.41734E-06 4.09427E-19 1.72589E-19
 -1      3077 9.14978E-05-2.42731E-05-2.88018E-05-8.38733E-06 2.50018E-19-7.56622E-20
 -1      3078 9.39153E-05-2.55569E-05-2.92864E-05-6.71238E-06 5.36395E-19 6.04734E-19
 -1      3079 9.39226E-05-2.56800E-05-2.92593E-05-6.06082E-06 3.35859E-19 8.73761E-19
 -1      3080 9.22327E-05-2.45800E-05-2.89843E-05-6.89621E-06 5.90729E-19 2.75678E-19
 -1      3081 9.42438E-05-2.59292E-05-2.92694E-05-5.45730E-06-8.14446E-20 1.22850E-18
 -1      3082 9.42639E-05-2.60968E-05-2.92252E-05-4.88627E-06-2.78373E-20 1.06992E-18
 -1      3083 9.29169E-05-2.50773E-05-2.90655E-05-5.62269E-06 5.07889E-19 1.14071E-18
 -1      3084 9.45273E-05-2.63493E-05-2.92120E-05-4.37307E-06 8.83175E-20 8.00986E-19
 -1      3085 9.45435E-05-2.65232E-05-2.91606E-05-3.88405E-06 3.39509E-19 4.45960E-19
 -1      3086 9.34966E-05-2.56275E-05-2.90798E-05-4.53288E-06-1.29677E-19 1.87785E-18
 -1      3087 9.47501E-05-2.67549E-05-2.91345E-05-3.45268E-06 4.09953E-19-3.75135E-19
 -1      3088 9.47580E-05-2.69164E-05-2.90823E-05-3.04252E-06 5.64091E-19-1.06658E-18
 -1      3089 9.39614E-05-2.61576E-05-2.90536E-05-3.60679E-06-1.29682E-19 1.36265E-18
 -1      3090 9.49152E-05-2.71177E-05-2.90506E-05-2.68497E-06 2.01766E-19-8.76769E-19
 -1      3091 9.49156E-05-2.72591E-05-2.90015E-05-2.34740E-06-5.82914E-19-3.84949E-19
 -1      3092 9.43208E-05-2.66332E-05-2.90053E-05-2.82930E-06 4.76236E-19-6.77385E-19
 -1      3093 9.50325E-05-2.74280E-05-2.89686E-05-2.05548E-06-1.12271E-18-1.40366E-19
 -1      3094 9.50279E-05-2.75474E-05-2.89248E-05-1.78246E-06-1.44610E-18 2.30688E-19
 -1      3095 9.45917E-05-2.70419E-05-2.89474E-05-2.18602E-06-5.83426E-19-4.96175E-19
 -1      3096 9.51133E-05-2.76857E-05-2.88935E-05-1.54778E-06-1.48663E-18-5.26584E-20
 -1      3097 9.51059E-05-2.77840E-05-2.88558E-05-1.33057E-06-1.32743E-18 9.28993E-20
 -1      3098 9.47920E-05-2.73829E-05-2.88880E-05-1.66200E-06-1.47496E-18-2.55447E-19
 -1      3099 9.51673E-05-2.78952E-05-2.88275E-05-1.14483E-06-1.19724E-18 3.68644E-19
 -1      3100 9.51589E-05-2.79748E-05-2.87959E-05-9.74758E-07-1.06976E-18 4.22659E-19
 -1      3101 9.49376E-05-2.76614E-05-2.88317E-05-1.24186E-06-1.30508E-18 3.76410E-19
 -1      3102 9.52023E-05-2.80627E-05-2.87714E-05-8.30049E-07-4.02748E-19 1.12033E-18
 -1      3103 9.51941E-05-2.81261E-05-2.87455E-05-6.98984E-07-3.06170E-20 7.03268E-19
 -1      3104 9.50419E-05-2.78849E-05-2.87810E-05-9.10349E-07-5.72413E-19 9.82872E-19
 -1      3105 9.52244E-05-2.81947E-05-2.87248E-05-5.88062E-07-5.26367E-19 4.76291E-19
 -1      3106 9.52170E-05-2.82445E-05-2.87040E-05-4.88691E-07-5.63320E-19 5.50865E-20
 -1      3107 9.51154E-05-2.80617E-05-2.87370E-05-6.52973E-07-4.42560E-19 6.44685E-19
 -1      3108 9.52376E-05-2.82973E-05-2.86869E-05-4.05104E-07-2.55168E-19 1.19183E-19
 -1      3109 9.52313E-05-2.83359E-05-2.86706E-05-3.31058E-07 6.82118E-19 5.32162E-19
 -1      3110 9.51663E-05-2.81995E-05-2.87000E-05-4.56456E-07-5.41640E-19 1.15311E-18
 -1      3111 9.52450E-05-2.83760E-05-2.86568E-05-2.69216E-07 5.20492E-19-2.40417E-19
 -1      3112 9.52399E-05-2.84055E-05-2.86441E-05-2.15078E-07 2.59749E-19-1.04646E-18
 -1      3113 9.52008E-05-2.83055E-05-2.86694E-05-3.09018E-07 5.05109E-20 2.56612E-19
 -1      3114 9.52486E-05-2.84354E-05-2.86332E-05-1.70252E-07 5.27246E-19-1.38086E-18
 -1      3115 9.52446E-05-2.84577E-05-2.86236E-05-1.31517E-07 5.05739E-19-1.12962E-18
 -1      3116 9.52234E-05-2.83857E-05-2.86448E-05-2.00487E-07 7.12229E-20-9.99027E-19
 -1      3117 9.52499E-05-2.84797E-05-2.86150E-05-9.97838E-08 8.02255E-20-4.77556E-19
 -1      3118 9.52469E-05-2.84961E-05-2.86078E-05-7.27710E-08-1.05383E-18-2.71870E-19
 -1      3119 9.52376E-05-2.84456E-05-2.86253E-05-1.22283E-07 4.07961E-19-1.92146E-18
 -1      3120 9.52497E-05-2.85120E-05-2.86013E-05-5.09400E-08-1.60417E-18 8.93182E-19
 -1      3121 9.52475E-05-2.85240E-05-2.85960E-05-3.26945E-08-6.62500E-19 1.18743E-18
 -1      3122 9.52460E-05-2.84895E-05-2.86100E-05-6.73186E-08-3.24718E-19-2.13807E-19
 -1      3123 9.52488E-05-2.85352E-05-2.85911E-05-1.82150E-08-9.37144E-19 1.70787E-18
 -1      3124 9.52472E-05-2.85437E-05-2.85874E-05-6.40345E-09-1.75282E-18 9.57066E-19
 -1      3125 9.52504E-05-2.85211E-05-2.85984E-05-2.98484E-08-6.04202E-19 1.01913E-18
 -1      3126 9.52475E-05-2.85514E-05-2.85837E-05 2.72890E-09-1.65768E-18 3.10865E-19
 -1      3127 9.52464E-05-2.85573E-05-2.85811E-05 9.91973E-09-7.42877E-19 1.81099E-19
 -1      3128 9.52522E-05-2.85432E-05-2.85897E-05-5.29803E-09-2.16327E-18 5.76187E-19
 -1      3129 9.52460E-05-2.85624E-05-2.85785E-05 1.52533E-08-6.71770E-19-4.79633E-19
 -1      3130 9.52452E-05-2.85664E-05-2.85767E-05 1.92088E-08-1.81096E-19-1.34923E-18
 -1      3131 9.52523E-05-2.85583E-05-2.85832E-05 9.91179E-09-1.31491E-18 2.90961E-19
 -1      3132 9.52445E-05-2.85695E-05-2.85749E-05 2.19187E-08 4.03098E-19-1.56174E-18
 -1      3133 9.52440E-05-2.85721E-05-2.85737E-05 2.36787E-08 1.28899E-19-2.48000E-18
 -1      3134 9.52513E-05-2.85681E-05-2.85786E-05 1.85336E-08-4.71147E-19-1.19962E-18
 -1      3135 9.52431E-05-2.85739E-05-2.85725E-05 2.46401E-08 7.28707E-20-1.89612E-18
 -1      3136 9.52429E-05-2.85754E-05-2.85718E-05 2.49696E-08 6.89115E-19-1.90589E-18
 -1      3137 9.52498E-05-2.85742E-05-2.85753E-05 2.26458E-08 5.35011E-19-1.87593E-18
 -1      3138 9.52419E-05-2.85763E-05-2.85709E-05 2.48199E-08 1.64068E-18-9.80656E-19
 -1      3139 9.52418E-05-2.85772E-05-2.85705E-05 2.42684E-08 1.48520E-18-1.41570E-18
 -1      3140 9.52480E-05-2.85776E-05-2.85731E-05 2.37868E-08 1.12679E-18-6.57031E-19
 -1      3141 9.52409E-05-2.85775E-05-2.85700E-05 2.34600E-08 8.35431E-19-1.53824E-18
 -1      3142 9.52408E-05-2.85778E-05-2.85698E-05 2.24106E-08 1.16793E-18-1.23360E-18
 -1      3143 9.52462E-05-2.85793E-05-2.85716E-05 2.30691E-08 1.26421E-18-2.78809E-19
 -1      3144 9.52400E-05-2.85778E-05-2.85695E-05 2.12542E-08 1.17933E-18-8.72118E-19
 -1      3145 9.52400E-05-2.85779E-05-2.85695E-05 1.99630E-08 1.37653E-18 7.82725E-20
 -1      3146 9.52445E-05-2.85798E-05-2.85706E-05 2.12749E-08 1.89872E-18 3.17038E-19
 -1      3147 9.52393E-05-2.85776E-05-2.85693E-05 1.86611E-08 6.63732E-19-9.37737E-20
 -1      3148 9.52394E-05-2.85776E-05-2.85693E-05 1.72886E-08-4.18515E-19-3.49973E-19
 -1      3149 9.52430E-05-2.85796E-05-2.85701E-05 1.89339E-08 1.27770E-18 2.78864E-20
 -1      3150 9.52388E-05-2.85772E-05-2.85692E-05 1.59660E-08-1.54224E-18-5.50542E-20
 -1      3151 9.52389E-05-2.85771E-05-2.85693E-05 1.45986E-08-9.71986E-19-6.83624E-19
 -1      3152 9.52417E-05-2.85790E-05-2.85697E-05 1.63868E-08-7.01550E-19 5.89609E-19
 -1      3153 9.52383E-05-2.85768E-05-2.85692E-05 1.35019E-08 2.95924E-19-8.67381E-19
 -1      3154 9.52384E-05-2.85767E-05-2.85693E-05 1.21634E-08 7.91854E-19-4.45144E-19
 -1      3155 9.52396E-05-2.85777E-05-2.85694E-05 1.18623E-08-4.23031E-19 1.19303E-20
 -1      3156 9.52405E-05-2.85783E-05-2.85695E-05 1.40151E-08-1.00190E-19-4.83348E-19
 -1      3157 1.10668E-04-2.67014E-05-3.59685E-05 1.16867E-05 1.81732E-18 1.87366E-19
 -1      3158 1.12463E-04-3.00699E-05-3.54527E-05 1.32158E-05 1.56222E-18 4.54258E-19
 -1      3159 1.13027E-04-3.36866E-05-3.41280E-05-1.17500E-05 1.03085E-18-1.85047E-18
 -1      3160 1.11361E-04-2.97929E-05-3.49240E-05-1.16434E-05 1.58385E-18-1.70125E-18
 -1      3161 1.09327E-04-2.56187E-05-3.60716E-05-1.02996E-05 2.02381E-18-1.50870E-18
 -1      3162 1.07673E-04-2.21408E-05-3.66350E-05-7.73458E-06 2.18855E-18-1.15335E-18
 -1      3163 1.13435E-04-2.75046E-05-3.68347E-05-1.19897E-05 2.05672E-18-2.16338E-18
 -1      3164 1.12554E-04-4.03836E-05-3.09013E-05-3.50330E-06-5.33249E-19-7.29499E-19
 -1      3165 1.13115E-04-3.99915E-05-3.13871E-05-5.61445E-06-2.44248E-19-1.27603E-18
 -1      3166 1.09279E-04-3.89415E-05-3.00895E-05 8.08930E-07-1.14563E-19-5.59050E-19
 -1      3167 1.10496E-04-3.97328E-05-3.03717E-05-1.04976E-06-9.20569E-20-5.32666E-19
 -1      3168 1.12607E-04-4.16883E-05-3.04180E-05-5.79480E-07-6.08351E-19-1.29854E-18
 -1      3169 1.05687E-04-3.63061E-05-2.96834E-05 3.74003E-06-4.27628E-20-6.47944E-19
 -1      3170 1.07072E-04-3.75542E-05-2.98262E-05 2.44463E-06-1.09395E-20-4.90565E-19
 -1      3171 1.08234E-04-3.92876E-05-2.95962E-05 3.38787E-06 1.31249E-19-1.25054E-18
 -1      3172 1.02569E-04-3.36223E-05-2.95096E-05 5.34602E-06-1.69783E-19-2.23477E-19
 -1      3173 1.03823E-04-3.48514E-05-2.95780E-05 4.60478E-06-5.58405E-20-4.24996E-19
 -1      3174 1.04132E-04-3.60397E-05-2.92331E-05 5.66418E-06-1.14805E-19-5.07288E-19
 -1      3175 1.00180E-04-3.14189E-05-2.94431E-05 5.96235E-06-8.04417E-19 4.97311E-19
 -1      3176 1.01188E-04-3.24147E-05-2.94817E-05 5.65389E-06-4.71399E-19 8.10982E-20
 -1      3177 1.00902E-04-3.30520E-05-2.91192E-05 6.63232E-06-6.06305E-19-6.07275E-19
 -1      3178 9.84831E-05-2.98253E-05-2.94092E-05 5.92930E-06-3.46828E-19 7.82695E-20
 -1      3179 9.92419E-05-3.05429E-05-2.94429E-05 5.92019E-06-4.27316E-19 4.88202E-19
 -1      3180 9.86133E-05-3.07452E-05-2.91142E-05 6.74873E-06-5.27385E-19 2.82627E-19
 -1      3181 9.73343E-05-2.87816E-05-2.93718E-05 5.50849E-06-3.44421E-19 2.13739E-20
 -1      3182 9.78861E-05-2.92531E-05-2.94109E-05 5.68675E-06-3.12858E-19 1.86854E-19
 -1      3183 9.71060E-05-2.91586E-05-2.91383E-05 6.36502E-06-4.14611E-19-1.91369E-19
 -1      3184 9.65815E-05-2.81656E-05-2.93182E-05 4.88422E-06-2.15151E-19 5.70406E-19
 -1      3185 9.69771E-05-2.84475E-05-2.93647E-05 5.16524E-06-3.42344E-19 8.25521E-19
 -1      3186 9.61725E-05-2.81741E-05-2.91531E-05 5.71688E-06-6.54064E-19 7.05245E-19
 -1      3187 9.60987E-05-2.78521E-05-2.92487E-05 4.18044E-06 6.20390E-20 5.17303E-19
 -1      3188 9.63818E-05-2.80002E-05-2.93004E-05 4.50456E-06 1.25310E-19 9.78145E-19
 -1      3189 9.56293E-05-2.76381E-05-2.91454E-05 4.95526E-06-1.01051E-19 1.65247E-18
 -1      3190 9.57926E-05-2.77369E-05-2.91685E-05 3.47656E-06-1.32350E-19 7.25025E-19
 -1      3191 9.59966E-05-2.77972E-05-2.92221E-05 3.80434E-06 3.59727E-20 8.02823E-19
 -1      3192 9.53359E-05-2.74087E-05-2.91152E-05 4.17507E-06 4.37728E-20 1.62756E-18
 -1      3193 9.55993E-05-2.77423E-05-2.90841E-05 2.82009E-06-1.86963E-19 7.57080E-19
 -1      3194 9.57478E-05-2.77487E-05-2.91365E-05 3.12740E-06-2.01319E-19 5.55009E-19
 -1      3195 9.51939E-05-2.73735E-05-2.90678E-05 3.43354E-06-2.48451E-19 1.63224E-18
 -1      3196 9.54769E-05-2.78139E-05-2.90011E-05 2.23640E-06-3.87750E-19 5.15105E-19
 -1      3197 9.55859E-05-2.77901E-05-2.90498E-05 2.51016E-06-2.86980E-19 6.15471E-19
 -1      3198 9.51385E-05-2.74507E-05-2.90102E-05 2.76273E-06-2.33943E-19 1.13712E-18
 -1      3199 9.53985E-05-2.79161E-05-2.89235E-05 1.73580E-06-1.32954E-19-1.78112E-19
 -1      3200 9.54792E-05-2.78777E-05-2.89672E-05 1.97053E-06 1.55396E-19 1.36541E-19
 -1      3201 9.51293E-05-2.75845E-05-2.89485E-05 2.17778E-06 4.64183E-20 1.69854E-19
 -1      3202 9.53476E-05-2.80266E-05-2.88540E-05 1.31887E-06-1.41942E-19-1.79098E-19
 -1      3203 9.54075E-05-2.79833E-05-2.88918E-05 1.51405E-06-4.41502E-21-9.18023E-20
 -1      3204 9.51419E-05-2.77390E-05-2.88874E-05 1.68259E-06-4.98843E-20-3.59440E-19
 -1      3205 9.53138E-05-2.81327E-05-2.87937E-05 9.80259E-07-4.81234E-20 3.21938E-19
 -1      3206 9.53582E-05-2.80903E-05-2.88255E-05 1.13837E-06-1.54223E-19 1.44792E-19
 -1      3207 9.51626E-05-2.78927E-05-2.88304E-05 1.27387E-06-1.88678E-19-5.54706E-19
 -1      3208 9.52908E-05-2.82276E-05-2.87429E-05 7.11434E-07-6.79356E-19 8.27357E-19
 -1      3209 9.53237E-05-2.81891E-05-2.87690E-05 8.36545E-07-2.87758E-20 3.62363E-19
 -1      3210 9.51841E-05-2.80334E-05-2.87792E-05 9.44045E-07-3.79714E-19 8.69681E-19
 -1      3211 9.52749E-05-2.83087E-05-2.87010E-05 5.02528E-07-7.23026E-19 7.87635E-19
 -1      3212 9.52990E-05-2.82755E-05-2.87220E-05 5.99369E-07-8.19402E-19 7.41686E-19
 -1      3213 9.52031E-05-2.81558E-05-2.87349E-05 6.83428E-07-1.00213E-18 7.68524E-19
 -1      3214 9.52637E-05-2.83755E-05-2.86672E-05 3.43562E-07-6.54343E-19-8.84211E-21
 -1      3215 9.52811E-05-2.83479E-05-2.86838E-05 4.16914E-07 7.05789E-20 1.05598E-18
 -1      3216 9.52182E-05-2.82580E-05-2.86975E-05 4.81620E-07-5.29415E-19 1.17767E-18
 -1      3217 9.52556E-05-2.84290E-05-2.86406E-05 2.25180E-07-6.26486E-19-9.07512E-19
 -1      3218 9.52680E-05-2.84067E-05-2.86534E-05 2.79513E-07-1.34772E-18-8.78014E-19
 -1      3219 9.52293E-05-2.83409E-05-2.86668E-05 3.28484E-07 1.15479E-19-7.63714E-19
 -1      3220 9.52498E-05-2.84708E-05-2.86201E-05 1.39036E-07-5.61743E-19-5.07335E-19
 -1      3221 9.52584E-05-2.84532E-05-2.86297E-05 1.78322E-07-6.01881E-19-5.66000E-19
 -1      3222 9.52371E-05-2.84063E-05-2.86420E-05 2.14704E-07-9.75917E-19-1.80510E-18
 -1      3223 9.52456E-05-2.85026E-05-2.86045E-05 7.79656E-08 8.27642E-19-6.54798E-19
 -1      3224 9.52514E-05-2.84891E-05-2.86116E-05 1.05602E-07 4.70221E-19 1.78874E-19
 -1      3225 9.52420E-05-2.84568E-05-2.86225E-05 1.32074E-07-1.59593E-20-5.21903E-19
 -1      3226 9.52426E-05-2.85263E-05-2.85929E-05 3.59924E-08 5.06980E-19-6.47248E-19
 -1      3227 9.52463E-05-2.85161E-05-2.85980E-05 5.47991E-08 8.71912E-19-7.99210E-19
 -1      3228 9.52448E-05-2.84947E-05-2.86074E-05 7.36040E-08 1.07511E-18 2.21194E-19
 -1      3229 9.52404E-05-2.85435E-05-2.85845E-05 8.25890E-09 1.99492E-18-3.53558E-19
 -1      3230 9.52427E-05-2.85360E-05-2.85881E-05 2.05191E-08 1.43812E-18-4.32555E-19
 -1      3231 9.52460E-05-2.85226E-05-2.85959E-05 3.34947E-08 9.26383E-19-6.62770E-19
 -1      3232 9.52389E-05-2.85557E-05-2.85786E-05-9.09660E-09 1.05058E-18-6.71380E-19
 -1      3233 9.52402E-05-2.85503E-05-2.85811E-05-1.57657E-09 1.69196E-18-2.23353E-19
 -1      3234 9.52462E-05-2.85426E-05-2.85874E-05 7.05110E-09 1.55095E-18-1.20120E-18
 -1      3235 9.52379E-05-2.85640E-05-2.85746E-05-1.90801E-08 7.45548E-20 1.24679E-19
 -1      3236 9.52385E-05-2.85603E-05-2.85762E-05-1.49010E-08-1.59739E-19-5.93913E-19
 -1      3237 9.52457E-05-2.85565E-05-2.85812E-05-9.44906E-09 4.38343E-19-4.79588E-19
 -1      3238 9.52372E-05-2.85694E-05-2.85719E-05-2.39834E-08 8.65252E-19 5.72262E-19
 -1      3239 9.52373E-05-2.85670E-05-2.85729E-05-2.20842E-08 9.28799E-19 3.63293E-19
 -1      3240 9.52449E-05-2.85658E-05-2.85769E-05-1.88968E-08-1.95464E-19-2.69937E-21
 -1      3241 9.52368E-05-2.85728E-05-2.85703E-05-2.55166E-08 9.81364E-19 9.10584E-19
 -1      3242 9.52366E-05-2.85712E-05-2.85708E-05-2.51105E-08 1.08646E-18 7.76543E-19
 -1      3243 9.52439E-05-2.85717E-05-2.85739E-05-2.34924E-08 3.59445E-19 1.63417E-18
 -1      3244 9.52366E-05-2.85748E-05-2.85694E-05-2.49255E-08 1.25873E-18-6.84686E-21
 -1      3245 9.52363E-05-2.85738E-05-2.85696E-05-2.54435E-08 1.24345E-18-2.02286E-19
 -1      3246 9.52428E-05-2.85752E-05-2.85719E-05-2.48747E-08 1.22774E-18 1.38678E-18
 -1      3247 9.52365E-05-2.85757E-05-2.85689E-05-2.30915E-08-4.27196E-19-2.06265E-19
 -1      3248 9.52361E-05-2.85752E-05-2.85690E-05-2.41351E-08 8.28243E-19-6.43355E-19
 -1      3249 9.52418E-05-2.85771E-05-2.85706E-05-2.42358E-08 6.53422E-19 1.02468E-18
 -1      3250 9.52366E-05-2.85760E-05-2.85688E-05-2.06150E-08 1.30142E-19-8.79396E-19
 -1      3251 9.52361E-05-2.85758E-05-2.85687E-05-2.19166E-08-7.26800E-19-9.64423E-19
 -1      3252 9.52408E-05-2.85778E-05-2.85699E-05-2.24172E-08-1.01388E-19-9.61563E-19
 -1      3253 9.52366E-05-2.85760E-05-2.85688E-05-1.78838E-08-1.21636E-19-7.46319E-21
 -1      3254 9.52362E-05-2.85759E-05-2.85687E-05-1.92742E-08 5.02905E-19-1.33227E-19
 -1      3255 9.52400E-05-2.85779E-05-2.85695E-05-1.99915E-08-5.00712E-19-1.26871E-18
 -1      3256 9.52368E-05-2.85758E-05-2.85690E-05-1.51337E-08-4.08562E-19 7.46951E-19
 -1      3257 9.52363E-05-2.85758E-05-2.85688E-05-1.65025E-08-5.75177E-19 5.03501E-19
 -1      3258 9.52394E-05-2.85776E-05-2.85693E-05-1.73324E-08-8.43661E-19 4.15685E-19
 -1      3259 9.52463E-05-2.85832E-05-2.85699E-05 4.56015E-09-9.19712E-19 1.83173E-19
 -1      3260 9.52468E-05-2.85836E-05-2.85699E-05 2.89687E-09-5.22744E-19-2.65828E-19
 -1      3261 9.52470E-05-2.85838E-05-2.85699E-05 9.00889E-10 8.19332E-19-5.45719E-19
 -1      3262 9.52470E-05-2.85838E-05-2.85699E-05-8.89584E-10 1.40652E-18-3.21205E-19
 -1      3263 9.52481E-05-2.85842E-05-2.85703E-05 2.03868E-09 1.89474E-19-1.07272E-18
 -1      3264 1.27349E-04-3.18410E-05-4.15020E-05-1.19523E-05 2.14035E-18-1.43027E-18
 -1      3265 1.30436E-04-3.80569E-05-3.96525E-05-1.06480E-05 1.62419E-18-1.76474E-18
 -1      3266 3.94443E-05-3.85793E-07-1.63964E-05-3.63468E-06-2.10600E-20-4.78235E-18
 -1      3267 4.10634E-05-1.61892E-06-1.64946E-05-1.22045E-05-5.10351E-19-4.79442E-18
 -1      3268 1.13892E-04-3.34437E-05-3.44575E-05 1.29628E-05 1.33971E-18 5.32089E-19
 -1      3269 1.15026E-04-3.59906E-05-3.39196E-05 1.23938E-05 1.13776E-18 7.09266E-19
 -1      3270 1.16062E-04-3.23148E-05-3.58621E-05 1.39203E-05 1.48869E-18 1.08043E-18
 -1      3271 7.61761E-05-3.35642E-05-1.81301E-05 3.40230E-05-1.71810E-18 7.90229E-19
 -1      3272 6.52960E-05-2.63216E-05-1.63756E-05 3.03350E-05-1.42482E-18 1.22772E-18
 -1      3273 8.54239E-05-3.57964E-05-2.09692E-05 2.95495E-05-1.17033E-18 6.32522E-19
 -1      3274 9.56663E-05-2.96442E-05-2.82299E-05-1.29427E-05-4.71986E-19-1.44546E-18
 -1      3275 8.87847E-05-2.57892E-05-2.69367E-05-1.60255E-05-8.59586E-19-1.94573E-18
 -1      3276 1.02445E-04-3.50109E-05-2.88376E-05-1.12493E-05-5.32531E-19-8.89444E-19
 -1      3277 1.34537E-04-5.48257E-05-3.45057E-05-1.00493E-06-3.26836E-19 1.30401E-18
 -1      3278 9.52447E-05-2.85819E-05-2.85698E-05 7.75289E-09-1.12242E-20-1.36977E-18
 -1      3279 9.52456E-05-2.85826E-05-2.85698E-05 6.34588E-09-1.09596E-18 1.47847E-19
 -1      3280 9.52471E-05-2.85834E-05-2.85702E-05 5.92976E-09-9.13203E-19-9.31923E-19
 -1      3281 9.52423E-05-2.85800E-05-2.85696E-05 1.00575E-08-3.63082E-19-1.28046E-18
 -1      3282 9.52436E-05-2.85810E-05-2.85697E-05 9.12868E-09 5.65525E-20-2.83100E-18
 -1      3283 9.52450E-05-2.85818E-05-2.85699E-05 9.19600E-09-3.79410E-19-1.79695E-18
 -1      3284 1.14223E-04-3.90210E-05-3.22659E-05-8.43458E-06 1.49217E-19-1.74853E-18
 -1      3285 1.13608E-04-3.67555E-05-3.29668E-05-1.00046E-05 6.36075E-19-1.63275E-18
 -1      3286 1.16459E-04-3.67628E-05-3.41854E-05-1.08482E-05 7.17126E-19-1.83432E-18
 -1      3287 1.15958E-04-4.14741E-05-3.19363E-05-5.94656E-06-3.63854E-19-1.39107E-18
 -1      3288 1.14377E-04-5.03346E-05-2.77580E-05 1.85245E-05 8.67044E-19-2.65201E-19
 -1      3289 9.83005E-05-4.03742E-05-2.41022E-05 2.40640E-05 1.24225E-18-1.23006E-18
 -1      3290 1.30563E-04-4.12512E-05-3.80930E-05 9.35424E-06 1.45385E-18 1.43906E-18
 -1      3291 1.27417E-04-3.40202E-05-4.06248E-05 1.31077E-05 2.09413E-18 1.35160E-18
 -1      3292 1.22555E-04-5.53009E-05-2.85483E-05-1.52936E-05 1.59128E-18-1.69730E-18
 -1      3293 9.52391E-05-2.85774E-05-2.85693E-05-1.02139E-08-5.45074E-19-4.02993E-20
 -1      3294 6.41905E-05-2.56857E-05-1.61855E-05-2.81744E-05 1.88433E-18 2.43945E-18
 -1      3295 7.71018E-05-3.42677E-05-1.81053E-05-3.29111E-05 2.25009E-18 1.76786E-18
 -1      3296 7.68175E-05-2.92470E-05-2.06930E-05 2.78850E-05 1.31412E-18-2.35210E-18
 -1      3297 6.02348E-05-1.81082E-05-1.73067E-05 2.48247E-05 1.32285E-18-3.70995E-18
 -1      3298 1.14258E-04-4.56140E-05-2.92737E-05 1.13948E-05 4.19070E-19-2.51972E-19
 -1      3299 1.20929E-04-5.01783E-05-3.02733E-05 9.05487E-06 4.93847E-19 1.55695E-19
 -1      3300 1.28064E-04-5.40700E-05-3.13841E-05 7.14745E-06 3.67162E-19 6.84879E-19
 -1      3301 1.31514E-04-4.66906E-05-3.67974E-05-4.41795E-06 8.59553E-19-1.67353E-18
 -1      3302 1.29655E-04-5.24551E-05-3.28840E-05 3.11263E-06 5.70688E-20-2.05570E-18
 -1      3303 1.27550E-04-4.34060E-05-3.62760E-05-7.24553E-06 7.47857E-19-1.81993E-18
 -1      3304 9.17300E-05-2.33563E-05-2.91824E-05 8.47374E-06-5.55816E-20-1.64915E-18
 -1      3305 8.09317E-05-2.41327E-05-2.41555E-05-2.32550E-05-1.25412E-18-2.57266E-18
 -1      3306 7.06169E-05-1.82510E-05-2.24109E-05-2.43517E-05-1.35281E-18-3.01623E-18
 -1      3307 1.23940E-04-5.48760E-05-3.00287E-05 1.26490E-05-1.38199E-19-2.44417E-18
 -1      3308 1.15811E-04-5.28657E-05-2.65252E-05 2.13222E-05-7.41207E-19-1.61520E-18
 -1      3309 1.14889E-04-1.17980E-05-4.44131E-05 3.56691E-06 3.62477E-18-1.29781E-19
 -1      3310 1.17335E-04-1.21544E-05-4.56218E-05-3.47302E-06 3.85029E-18-6.74926E-19
 -1      3311 1.12119E-04-3.56858E-05-3.27575E-05 7.73809E-06 1.05333E-18 3.33327E-19
 -1      3312 1.10678E-04-3.46942E-05-3.25373E-05 6.10548E-06 1.00182E-18 4.23715E-20
 -1      3313 1.12558E-04-3.71837E-05-3.23076E-05 5.21433E-06 8.52018E-19 1.16171E-19
 -1      3314 1.12867E-04-3.67115E-05-3.26949E-05 8.41773E-06 9.30876E-19 5.30824E-19
 -1      3315 5.89085E-05-8.98861E-06-2.10311E-05-2.03269E-05-1.02017E-18-3.61964E-18
 -1      3316 5.13491E-05-4.55257E-06-1.99510E-05-1.70091E-05-8.41177E-19-4.06295E-18
 -1      3317 9.58824E-05-3.83057E-05-2.43621E-05-2.70610E-05-1.65516E-18-1.82912E-18
 -1      3318 1.18801E-04-4.76345E-05-3.03629E-05-1.13442E-05-6.67727E-19 5.08749E-20
 -1      3319 5.63735E-05-1.22491E-05-1.84533E-05 1.83690E-05 9.69059E-19-3.90487E-18
 -1      3320 8.90866E-05-3.96376E-05-2.10066E-05-2.94952E-05 2.37286E-18 3.98476E-19
 -1      3321 1.24295E-04-5.20028E-05-3.09816E-05 6.30873E-06-2.90016E-19-1.91977E-18
 -1      3322 1.08937E-04-4.06040E-05-2.90631E-05 1.20428E-05 3.69243E-19-5.55207E-19
 -1      3323 7.08389E-05-2.56505E-05-1.91022E-05 2.57212E-05-1.74037E-18 1.12962E-18
 -1      3324 5.98479E-05-2.17399E-05-1.59252E-05 2.67148E-05-1.63514E-18 1.64743E-18
 -1      3325 5.50744E-05-1.73149E-05-1.59443E-05 2.00364E-05-1.27899E-18 2.52262E-18
 -1      3326 9.51832E-05-2.82911E-05-2.86874E-05 1.02753E-05 7.48565E-20-1.45725E-18
 -1      3327 8.84669E-05-3.28183E-05-2.37491E-05 2.24778E-05 1.04026E-18-1.82578E-18
 -1      3328 1.11210E-04-1.77768E-05-4.02113E-05-6.71623E-06 2.80942E-18-1.28783E-18
 -1      3329 1.07801E-04-1.81980E-05-3.85661E-05-3.47368E-06 2.53570E-18-6.92721E-19
 -1      3330 9.52370E-05-2.85760E-05-2.85691E-05-1.40980E-08-2.83084E-19 8.48322E-19
 -1      3331 9.52394E-05-2.85776E-05-2.85694E-05-1.48790E-08-8.61592E-19 1.04631E-18
 -1      3332 9.52377E-05-2.85762E-05-2.85692E-05-1.31072E-08-7.03304E-19 5.10539E-19
 -1      3333 9.52436E-05-2.85810E-05-2.85697E-05-9.12251E-09-5.26893E-19 3.99644E-19
 -1      3334 9.52423E-05-2.85799E-05-2.85696E-05-1.00571E-08-2.15576E-19 1.36723E-18
 -1      3335 9.52456E-05-2.85826E-05-2.85698E-05-6.33864E-09 4.42312E-19 1.39924E-19
 -1      3336 9.52447E-05-2.85819E-05-2.85698E-05-7.74152E-09-4.02305E-19 2.88566E-19
 -1      3337 9.52450E-05-2.85818E-05-2.85700E-05-9.15801E-09-4.41128E-20 4.81836E-19
 -1      3338 1.09739E-04-1.96231E-05-3.87079E-05 7.97966E-06 2.21491E-18 3.28822E-19
 -1      3339 1.11585E-04-2.30070E-05-3.81321E-05 1.14012E-05 2.08003E-18 4.93354E-19
 -1      3340 1.22947E-04-2.68502E-05-4.13710E-05-1.26850E-05 2.54327E-18-1.68941E-18
 -1      3341 9.52468E-05-2.85836E-05-2.85699E-05-2.87278E-09 1.84359E-18 1.80688E-18
 -1      3342 9.52463E-05-2.85832E-05-2.85699E-05-4.56482E-09 1.46521E-18 1.01000E-18
 -1      3343 9.52471E-05-2.85834E-05-2.85702E-05-5.91225E-09 4.89154E-19 2.01180E-18
 -1      3344 9.52481E-05-2.85842E-05-2.85703E-05-2.05082E-09 5.62323E-19 7.43824E-19
 -1      3345 4.20059E-05-1.11571E-05-1.25833E-05 1.51794E-06-2.67940E-20 2.98579E-18
 -1      3346 4.77747E-05-1.22881E-05-1.49347E-05-4.49019E-06 3.77601E-19 2.90241E-18
 -1      3347 4.66262E-05-1.24482E-05-1.43867E-05 8.91219E-06-6.82434E-19 2.86954E-18
 -1      3348 1.22677E-04-2.94491E-05-4.01597E-05 1.39578E-05 1.86837E-18 1.46727E-18
 -1      3349 4.72798E-05-4.25283E-06-1.80833E-05-1.56597E-05-8.20884E-19-4.45947E-18
 -1      3350 1.27038E-04-4.40771E-05-3.56950E-05 5.61599E-06 8.21820E-19 1.12931E-18
 -1      3351 1.14873E-04-5.08760E-05-2.72351E-05-1.83786E-05 1.76625E-18-1.40006E-18
 -1      3352 1.07314E-04-1.72364E-05-3.88207E-05 7.65946E-07 2.59838E-18-4.18143E-19
 -1      3353 5.86088E-05-2.05282E-05-1.58711E-05-2.35343E-05 1.43993E-18 2.85789E-18
 -1      3354 6.85231E-05-2.43712E-05-1.85362E-05-2.40856E-05 1.70813E-18 2.00286E-18
 -1      3355 5.44200E-05-1.62779E-05-1.61591E-05-1.63226E-05 7.85358E-19 2.77117E-18
 -1      3356 1.14368E-04-3.68808E-05-3.32414E-05 1.08599E-05 1.09882E-18 5.73522E-19
 -1      3357 1.14421E-04-3.74736E-05-3.29750E-05 9.75330E-06 8.85091E-19 5.91530E-19
 -1      3358 1.14707E-04-3.80295E-05-3.29034E-05 8.54657E-06 9.11315E-19 4.72704E-19
 -1      3359 1.16771E-04-3.75701E-05-3.39705E-05 1.13841E-05 1.14258E-18 6.70853E-19
 -1      3360 1.15602E-04-1.56834E-05-4.31407E-05-6.14678E-06 3.32836E-18-8.53187E-19
 -1      3361 9.52407E-05-2.85786E-05-2.85694E-05-1.09735E-08-6.14029E-20 7.09471E-19
 -1      3362 9.52384E-05-2.85767E-05-2.85693E-05-1.14323E-08-1.96068E-19 3.18160E-19
 -1      3363 9.52379E-05-2.85765E-05-2.85692E-05-1.24327E-08 1.03117E-19 8.60392E-20
 -1      3364 9.52419E-05-2.85795E-05-2.85696E-05-1.15171E-08 6.15190E-20 7.55795E-19
 -1      3365 6.48630E-05-1.31235E-05-2.22168E-05 1.63657E-05 8.85242E-19-2.97494E-18
 -1      3366 7.57761E-05-1.90760E-05-2.38750E-05 1.72464E-05 8.21028E-19-2.56707E-18
 -1      3367 4.72007E-05-1.95443E-06-1.93375E-05 5.84935E-06 3.83124E-19-4.25862E-18
 -1      3368 5.35779E-05-5.57366E-06-2.02517E-05 1.10144E-05 6.31068E-19-3.92594E-18
 -1      3369 1.07362E-04-4.78289E-05-2.53724E-05 2.28554E-05-7.87794E-19-9.21744E-19
 -1      3370 9.52406E-05-2.85784E-05-2.85695E-05 1.13619E-08 1.16964E-19 6.67500E-19
 -1      3371 9.52416E-05-2.85793E-05-2.85695E-05 1.07466E-08-6.22470E-20 6.63548E-19
 -1      3372 9.52428E-05-2.85801E-05-2.85697E-05 1.12382E-08 5.39640E-19-8.16363E-19
 -1      3373 9.52410E-05-2.85787E-05-2.85695E-05 1.24212E-08 2.98481E-19 3.61564E-19
 -1      3374 8.92134E-05-3.14019E-05-2.46417E-05-2.40683E-05-1.45974E-18-1.99550E-18
 -1      3375 1.02329E-04-3.91063E-05-2.72970E-05-1.92007E-05-1.10800E-18-9.63315E-19
 -1      3376 1.07048E-04-3.90607E-05-2.90220E-05-1.15974E-05-7.57148E-19-5.88812E-19
 -1      3377 1.13446E-04-4.46222E-05-2.92733E-05-1.24945E-05-9.04969E-19-4.55909E-20
 -1      3378 1.20416E-04-4.66480E-05-3.19201E-05-4.13152E-06-2.09664E-19 5.43011E-19
 -1      3379 1.11424E-04-4.06728E-05-3.04765E-05-5.90550E-06-2.61028E-19-9.23729E-20
 -1      3380 6.54113E-05-1.96098E-05-1.93962E-05-2.91864E-05-1.70354E-18-3.66448E-18
 -1      3381 8.92928E-05-3.06246E-05-2.49932E-05-1.94141E-05 1.10828E-18 8.09520E-19
 -1      3382 8.68830E-05-2.75582E-05-2.54110E-05-1.76035E-05 8.75922E-19 1.31768E-18
 -1      3383 8.73086E-05-2.60303E-05-2.61821E-05-1.52920E-05 5.44880E-20 1.68890E-18
 -1      3384 8.65860E-05-2.45230E-05-2.66279E-05-1.37921E-05-1.34044E-19 1.58175E-18
 -1      3385 8.19986E-05-2.41356E-05-2.47568E-05-1.63723E-05 6.41680E-19 1.47904E-18
 -1      3386 8.74401E-05-2.38814E-05-2.71933E-05-1.21616E-05-3.46108E-19 1.25340E-18
 -1      3387 8.73986E-05-2.32445E-05-2.75273E-05-1.10027E-05-3.25274E-19 8.32111E-19
 -1      3388 8.34078E-05-2.22357E-05-2.61903E-05-1.23419E-05-3.82717E-19 1.81830E-18
 -1      3389 8.83394E-05-2.31434E-05-2.79187E-05-9.85889E-06-3.47575E-19 7.27533E-19
 -1      3390 8.86107E-05-2.30050E-05-2.81444E-05-8.93860E-06-1.82836E-19 6.60701E-19
 -1      3391 8.52868E-05-2.17516E-05-2.72039E-05-9.66842E-06-2.58446E-19 1.36620E-18
 -1      3392 8.94967E-05-2.31948E-05-2.84038E-05-8.08812E-06-8.09034E-20 4.41061E-19
 -1      3393 8.98699E-05-2.33229E-05-2.85422E-05-7.32860E-06 1.74682E-19 3.92253E-19
 -1      3394 8.71358E-05-2.19976E-05-2.78926E-05-7.78960E-06-2.79000E-19 1.07119E-18
 -1      3395 9.06457E-05-2.36522E-05-2.87055E-05-6.65696E-06 6.91834E-19 2.62987E-19
 -1      3396 9.10175E-05-2.39061E-05-2.87797E-05-6.01123E-06 7.74216E-19 5.95814E-19
 -1      3397 8.87960E-05-2.26147E-05-2.83429E-05-6.37325E-06 2.88408E-19 1.25201E-18
 -1      3398 9.16684E-05-2.42846E-05-2.88749E-05-5.45679E-06 7.99639E-19 7.06145E-19
 -1      3399 9.19945E-05-2.45826E-05-2.89051E-05-4.90097E-06 6.48114E-19 9.89631E-19
 -1      3400 9.02121E-05-2.33877E-05-2.86221E-05-5.23398E-06 8.98669E-19 8.43328E-19
 -1      3401 9.25246E-05-2.49583E-05-2.89539E-05-4.43300E-06 4.25098E-19 9.49208E-19
 -1      3402 9.27917E-05-2.52551E-05-2.89559E-05-3.95527E-06 1.37979E-19 1.45186E-18
 -1      3403 9.13807E-05-2.41913E-05-2.87820E-05-4.27911E-06 8.15152E-19 6.24766E-19
 -1      3404 9.32138E-05-2.56008E-05-2.89742E-05-3.55822E-06-7.50021E-19 1.27824E-18
 -1      3405 9.34232E-05-2.58733E-05-2.89594E-05-3.15165E-06-4.10424E-19 6.07534E-19
 -1      3406 9.23213E-05-2.49541E-05-2.88613E-05-3.46466E-06-1.70675E-19 6.35314E-19
 -1      3407 9.37535E-05-2.61768E-05-2.89587E-05-2.81672E-06-1.79881E-20-7.74631E-20
 -1      3408 9.39130E-05-2.64154E-05-2.89351E-05-2.47555E-06 1.66742E-19-5.14086E-19
 -1      3409 9.30641E-05-2.56402E-05-2.88881E-05-2.76943E-06-7.93930E-19 8.90705E-19
 -1      3410 9.41676E-05-2.66735E-05-2.89234E-05-2.19635E-06 4.72200E-20-1.28321E-18
 -1      3411 9.42864E-05-2.68758E-05-2.88963E-05-1.91459E-06-9.28752E-19-1.42062E-18
 -1      3412 9.36414E-05-2.62353E-05-2.88825E-05-2.18133E-06-4.35632E-19-8.50785E-19
 -1      3413 9.44800E-05-2.70901E-05-2.88790E-05-1.68528E-06-1.08124E-18-1.50642E-18
 -1      3414 9.45669E-05-2.72576E-05-2.88516E-05-1.45638E-06-1.23225E-18-8.14222E-19
 -1      3415 9.40840E-05-2.67378E-05-2.88584E-05-1.69083E-06-9.02124E-19-2.06420E-18
 -1      3416 9.47123E-05-2.74322E-05-2.88322E-05-1.27106E-06-1.59129E-18-3.08011E-19
 -1      3417 9.47749E-05-2.75684E-05-2.88065E-05-1.08814E-06-1.35952E-18 2.62776E-19
 -1      3418 9.44189E-05-2.71533E-05-2.88250E-05-1.28834E-06-1.26415E-18-1.14823E-18
 -1      3419 9.48826E-05-2.77083E-05-2.87871E-05-9.40859E-07-5.78263E-19-2.75220E-20
 -1      3420 9.49271E-05-2.78173E-05-2.87642E-05-7.97083E-07 8.81887E-20 1.62233E-19
 -1      3421 9.46691E-05-2.74910E-05-2.87885E-05-9.63684E-07-6.35355E-19-6.80297E-19
 -1      3422 9.50058E-05-2.79277E-05-2.87461E-05-6.82008E-07-3.34143E-19 2.63042E-20
 -1      3423 9.50368E-05-2.80137E-05-2.87264E-05-5.70868E-07-2.96144E-19 2.39907E-19
 -1      3424 9.48536E-05-2.77610E-05-2.87525E-05-7.06329E-07-6.90095E-20-7.60104E-19
 -1      3425 9.50933E-05-2.80996E-05-2.87102E-05-4.82517E-07 1.88204E-19 5.24092E-19
 -1      3426 9.51145E-05-2.81664E-05-2.86937E-05-3.98069E-07 2.44294E-19 1.10723E-18
 -1      3427 9.49875E-05-2.79738E-05-2.87191E-05-5.05882E-07-2.25386E-20-1.97791E-19
 -1      3428 9.51543E-05-2.82324E-05-2.86797E-05-3.31466E-07-1.55491E-19 9.95582E-19
 -1      3429 9.51684E-05-2.82836E-05-2.86661E-05-2.68456E-07-9.07009E-20 7.53332E-19
 -1      3430 9.50830E-05-2.81391E-05-2.86896E-05-3.52545E-07 2.97305E-19 7.76176E-19
 -1      3431 9.51959E-05-2.83334E-05-2.86545E-05-2.19224E-07-4.86140E-19 8.82682E-19
 -1      3432 9.52049E-05-2.83721E-05-2.86435E-05-1.73135E-07-4.33701E-20 5.59280E-19
 -1      3433 9.51498E-05-2.82656E-05-2.86642E-05-2.37433E-07-3.85289E-19 2.14258E-18
 -1      3434 9.52232E-05-2.84091E-05-2.86339E-05-1.37528E-07-3.60071E-19 6.46976E-20
 -1      3435 9.52287E-05-2.84378E-05-2.86253E-05-1.04566E-07-2.79461E-19-6.69784E-19
 -1      3436 9.51952E-05-2.83609E-05-2.86430E-05-1.52751E-07-1.13048E-18 1.61178E-18
 -1      3437 9.52403E-05-2.84649E-05-2.86175E-05-7.94508E-08 5.27451E-19-1.02905E-18
 -1      3438 9.52434E-05-2.84858E-05-2.86108E-05-5.64960E-08 7.09431E-19 2.43100E-19
 -1      3439 9.52250E-05-2.84315E-05-2.86257E-05-9.18485E-08 1.76557E-19 4.71025E-19
 -1      3440 9.52504E-05-2.85051E-05-2.86047E-05-3.93139E-08-4.34410E-19 4.48357E-19
 -1      3441 9.52518E-05-2.85200E-05-2.85996E-05-2.38491E-08-1.57407E-18-3.27439E-19
 -1      3442 9.52436E-05-2.84828E-05-2.86117E-05-4.91862E-08 1.54803E-19 4.88106E-20
 -1      3443 9.52555E-05-2.85335E-05-2.85949E-05-1.25466E-08-1.79759E-18 2.22638E-19
 -1      3444 9.52558E-05-2.85438E-05-2.85910E-05-2.57738E-09-1.68798E-18 4.07849E-19
 -1      3445 9.52543E-05-2.85192E-05-2.86008E-05-2.02525E-08-1.36826E-18-1.07910E-18
 -1      3446 9.52573E-05-2.85529E-05-2.85874E-05 4.46087E-09-1.82379E-18 9.49524E-19
 -1      3447 9.52570E-05-2.85599E-05-2.85846E-05 1.04870E-08-1.58423E-18 4.85672E-19
 -1      3448 9.52596E-05-2.85444E-05-2.85922E-05-1.44329E-09-1.56492E-18-1.34575E-19
 -1      3449 9.52571E-05-2.85657E-05-2.85819E-05 1.45087E-08-1.03518E-18 3.21192E-19
 -1      3450 9.52564E-05-2.85702E-05-2.85799E-05 1.77790E-08-2.58648E-19 9.18198E-20
 -1      3451 9.52612E-05-2.85612E-05-2.85858E-05 1.00651E-08-1.37424E-18 1.94603E-18
 -1      3452 9.52557E-05-2.85737E-05-2.85779E-05 1.97297E-08 3.88503E-19-2.11671E-19
 -1      3453 9.52548E-05-2.85764E-05-2.85764E-05 2.11351E-08 1.00306E-18 7.64153E-20
 -1      3454 9.52606E-05-2.85719E-05-2.85809E-05 1.64440E-08-1.03739E-19 1.76515E-18
 -1      3455 9.52535E-05-2.85784E-05-2.85750E-05 2.17170E-08 1.16009E-18-2.01322E-19
 -1      3456 9.52526E-05-2.85798E-05-2.85740E-05 2.19118E-08 1.86350E-18 4.35111E-19
 -1      3457 9.52587E-05-2.85783E-05-2.85774E-05 1.93310E-08 9.73750E-19 2.68968E-19
 -1      3458 9.52511E-05-2.85806E-05-2.85730E-05 2.16345E-08 1.18472E-18-1.19291E-18
 -1      3459 9.52502E-05-2.85813E-05-2.85724E-05 2.10876E-08 1.00177E-18-3.61562E-19
 -1      3460 9.52561E-05-2.85816E-05-2.85748E-05 1.99349E-08 8.07181E-19-9.71278E-19
 -1      3461 9.52487E-05-2.85814E-05-2.85717E-05 2.03106E-08 2.22173E-18-9.75153E-19
 -1      3462 9.52479E-05-2.85815E-05-2.85713E-05 1.93479E-08 2.20894E-18-1.13896E-18
 -1      3463 9.52532E-05-2.85829E-05-2.85730E-05 1.91262E-08 1.46367E-18-2.53746E-18
 -1      3464 9.52464E-05-2.85813E-05-2.85708E-05 1.83171E-08 1.45421E-18-1.01961E-18
 -1      3465 9.52457E-05-2.85811E-05-2.85705E-05 1.71563E-08 1.14797E-18-7.10132E-19
 -1      3466 9.52503E-05-2.85830E-05-2.85717E-05 1.75149E-08 1.82147E-18-2.92520E-18
 -1      3467 9.52444E-05-2.85806E-05-2.85702E-05 1.60253E-08 1.08874E-18-2.39013E-19
 -1      3468 9.52438E-05-2.85803E-05-2.85701E-05 1.48063E-08 4.21882E-19 9.05533E-19
 -1      3469 9.52476E-05-2.85823E-05-2.85709E-05 1.55107E-08 1.78505E-18-1.50677E-18
 -1      3470 1.15198E-04-2.11222E-05-4.07666E-05-1.08349E-05 2.93608E-18-1.50437E-18
 -1      3471 1.06653E-04-3.89280E-05-2.89393E-05 6.58982E-06-4.48802E-19-1.59140E-18
 -1      3472 1.08904E-04-4.08178E-05-2.92044E-05 5.28356E-06-2.13525E-19-1.96879E-18
 -1      3473 1.12296E-04-4.28751E-05-2.96467E-05 3.50427E-06 2.13925E-20-2.06729E-18
 -1      3474 1.14440E-04-4.39789E-05-3.02325E-05 1.20972E-06-5.13712E-19-1.50630E-18
 -1      3475 1.10106E-04-4.28963E-05-2.89396E-05 7.12097E-06-1.71157E-19-1.88216E-18
 -1      3476 9.89031E-05-3.18419E-05-2.87082E-05 7.92224E-06-9.85011E-19-1.69673E-19
 -1      3477 1.00313E-04-3.32949E-05-2.87145E-05 7.80767E-06-6.61178E-19-6.00642E-19
 -1      3478 9.68343E-05-2.96122E-05-2.87920E-05 7.41596E-06-6.30489E-19-2.74157E-19
 -1      3479 9.77875E-05-3.06310E-05-2.87699E-05 7.57856E-06-6.79012E-19-1.94935E-19
 -1      3480 9.68423E-05-3.07584E-05-2.83649E-05 8.71081E-06-8.94964E-19-4.81300E-19
 -1      3481 9.56012E-05-2.81855E-05-2.88850E-05 6.62953E-06-7.59743E-19-3.50217E-20
 -1      3482 9.62061E-05-2.88340E-05-2.88625E-05 6.94344E-06-5.83355E-19-1.85458E-19
 -1      3483 9.51627E-05-2.86572E-05-2.85268E-05 7.74722E-06-6.45113E-19-5.21782E-19
 -1      3484 9.49384E-05-2.73759E-05-2.89539E-05 5.73869E-06-1.03412E-18 4.02481E-19
 -1      3485 9.52997E-05-2.77435E-05-2.89428E-05 6.12182E-06-1.07694E-18 7.73838E-20
 -1      3486 9.42745E-05-2.73885E-05-2.86789E-05 6.68073E-06-1.07029E-18-2.39439E-19
 -1      3487 9.46380E-05-2.70001E-05-2.89896E-05 4.84505E-06-2.53810E-19 1.66985E-18
 -1      3488 9.48396E-05-2.71719E-05-2.89922E-05 5.24591E-06-5.39759E-19 9.81875E-19
 -1      3489 9.39010E-05-2.67308E-05-2.87938E-05 5.63597E-06-1.15861E-18 3.62537E-19
 -1      3490 9.45525E-05-2.69070E-05-2.89946E-05 4.00441E-06-2.07838E-19 1.99569E-18
 -1      3491 9.46551E-05-2.69518E-05-2.90088E-05 4.39157E-06-1.14141E-19 1.68136E-18
 -1      3492 9.38351E-05-2.64871E-05-2.88659E-05 4.66996E-06-2.80106E-19 1.04395E-18
 -1      3493 9.45839E-05-2.69836E-05-2.89759E-05 3.24596E-06 2.65310E-19 1.05502E-18
 -1      3494 9.46286E-05-2.69525E-05-2.89982E-05 3.60114E-06 3.60091E-19 1.58955E-18
 -1      3495 9.39367E-05-2.65039E-05-2.89001E-05 3.80645E-06 6.21088E-19 1.04523E-18
 -1      3496 9.46708E-05-2.71511E-05-2.89413E-05 2.58291E-06 6.14552E-20 2.93959E-19
 -1      3497 9.46835E-05-2.70793E-05-2.89682E-05 2.89666E-06-4.63643E-20 6.99718E-19
 -1      3498 9.41165E-05-2.66702E-05-2.89048E-05 3.05341E-06 7.00944E-19-5.84164E-20
 -1      3499 9.47764E-05-2.73570E-05-2.88981E-05 2.01820E-06-5.63520E-20 2.99059E-19
 -1      3500 9.47733E-05-2.72680E-05-2.89266E-05 2.28708E-06-4.74692E-20 3.66454E-19
 -1      3501 9.43203E-05-2.69100E-05-2.88889E-05 2.41033E-06-1.22802E-19 6.77069E-20
 -1      3502 9.48805E-05-2.75685E-05-2.88515E-05 1.54815E-06-2.49158E-19 5.16692E-19
 -1      3503 9.48706E-05-2.74768E-05-2.88794E-05 1.77271E-06-3.98560E-20 5.29443E-19
 -1      3504 9.45174E-05-2.71737E-05-2.88603E-05 1.87164E-06-4.97593E-19 5.96731E-19
 -1      3505 9.49730E-05-2.77668E-05-2.88056E-05 1.16497E-06-8.88809E-19 3.33710E-19
 -1      3506 9.49614E-05-2.76808E-05-2.88315E-05 1.34828E-06-8.55235E-19 5.37651E-19
 -1      3507 9.46924E-05-2.74311E-05-2.88252E-05 1.42857E-06-6.19093E-19 1.11415E-18
 -1      3508 9.50499E-05-2.79421E-05-2.87629E-05 8.58686E-07-6.26838E-19 1.15759E-18
 -1      3509 9.50392E-05-2.78660E-05-2.87860E-05 1.00520E-06-4.49280E-19 6.48688E-19
 -1      3510 9.48392E-05-2.76654E-05-2.87879E-05 1.07058E-06-1.39947E-18 7.30775E-19
 -1      3511 9.51108E-05-2.80909E-05-2.87247E-05 6.18465E-07-1.12459E-18 5.80988E-19
 -1      3512 9.51020E-05-2.80263E-05-2.87446E-05 7.33249E-07-6.98503E-19 1.13789E-18
 -1      3513 9.49572E-05-2.78687E-05-2.87515E-05 7.86320E-07-4.98768E-19 5.62282E-19
 -1      3514 9.51572E-05-2.82132E-05-2.86918E-05 4.33580E-07 2.19932E-19-4.31401E-19
 -1      3515 9.51505E-05-2.81601E-05-2.87085E-05 5.21746E-07-7.20970E-19-1.02334E-19
 -1      3516 9.50488E-05-2.80389E-05-2.87180E-05 5.64520E-07-4.55312E-19-5.04798E-19
 -1      3517 9.51912E-05-2.83109E-05-2.86641E-05 2.94011E-07 6.96665E-19-5.86352E-19
 -1      3518 9.51864E-05-2.82685E-05-2.86778E-05 3.60383E-07 1.05464E-18 1.66184E-19
 -1      3519 9.51175E-05-2.81773E-05-2.86883E-05 3.94511E-07 5.82023E-19-1.30386E-18
 -1      3520 9.52151E-05-2.83872E-05-2.86414E-05 1.90793E-07-1.20787E-18-1.00809E-18
 -1      3521 9.52120E-05-2.83540E-05-2.86524E-05 2.39702E-07-7.21435E-19-1.27776E-18
 -1      3522 9.51675E-05-2.82870E-05-2.86629E-05 2.66605E-07 2.65637E-19 3.45461E-19
 -1      3523 9.52312E-05-2.84453E-05-2.86231E-05 1.16166E-07 1.55325E-19-8.75344E-19
 -1      3524 9.52294E-05-2.84200E-05-2.86318E-05 1.51366E-07-8.92853E-19-1.05985E-18
 -1      3525 9.52026E-05-2.83720E-05-2.86416E-05 1.72287E-07-9.58142E-19-1.54399E-18
 -1      3526 9.52415E-05-2.84886E-05-2.86088E-05 6.35976E-08 1.09809E-18-3.66799E-19
 -1      3527 9.52406E-05-2.84698E-05-2.86154E-05 8.82493E-08 1.18839E-18-2.24102E-19
 -1      3528 9.52262E-05-2.84364E-05-2.86242E-05 1.04276E-07 3.77528E-19-1.77978E-18
 -1      3529 9.52474E-05-2.85201E-05-2.85977E-05 2.77204E-08 1.18671E-18-2.71828E-19
 -1      3530 9.52472E-05-2.85064E-05-2.86027E-05 4.44163E-08 1.09254E-18-1.25863E-19
 -1      3531 9.52413E-05-2.84840E-05-2.86103E-05 5.64948E-08 8.66774E-19-7.17043E-19
 -1      3532 9.52504E-05-2.85425E-05-2.85893E-05 4.21531E-09 1.33615E-18-6.36145E-19
 -1      3533 9.52505E-05-2.85327E-05-2.85930E-05 1.50372E-08 1.64513E-18-3.38162E-19
 -1      3534 9.52502E-05-2.85184E-05-2.85994E-05 2.39779E-08 1.20692E-18 1.01898E-19
 -1      3535 9.52513E-05-2.85577E-05-2.85830E-05-1.03230E-08-4.52190E-19 1.61644E-19
 -1      3536 9.52517E-05-2.85511E-05-2.85857E-05-3.73797E-09 2.28443E-19-4.05687E-21
 -1      3537 9.52547E-05-2.85425E-05-2.85910E-05 2.74816E-09 4.87509E-19 1.48513E-18
 -1      3538 9.52509E-05-2.85678E-05-2.85785E-05-1.85275E-08-9.14292E-19 1.40984E-18
 -1      3539 9.52514E-05-2.85634E-05-2.85804E-05-1.49176E-08-6.37333E-19 8.22178E-19
 -1      3540 9.52562E-05-2.85589E-05-2.85846E-05-1.03196E-08-7.98623E-19 1.86962E-18
 -1      3541 9.52497E-05-2.85740E-05-2.85753E-05-2.23943E-08 4.12476E-19 1.61722E-18
 -1      3542 9.52503E-05-2.85713E-05-2.85766E-05-2.08066E-08-4.98909E-20 1.36112E-18
 -1      3543 9.52559E-05-2.85696E-05-2.85799E-05-1.76353E-08-5.27353E-19 1.62795E-18
 -1      3544 9.52482E-05-2.85776E-05-2.85731E-05-2.34048E-08 1.09370E-18 1.54434E-18
 -1      3545 9.52487E-05-2.85760E-05-2.85740E-05-2.31354E-08 1.05303E-18 1.47047E-18
 -1      3546 9.52544E-05-2.85760E-05-2.85765E-05-2.10212E-08 8.42802E-19 1.85199E-19
 -1      3547 9.52465E-05-2.85793E-05-2.85716E-05-2.26322E-08 8.92575E-19 1.09459E-18
 -1      3548 9.52470E-05-2.85785E-05-2.85722E-05-2.31744E-08 1.35726E-18 1.34258E-18
 -1      3549 9.52524E-05-2.85796E-05-2.85741E-05-2.18273E-08 1.06157E-18 6.10233E-19
 -1      3550 9.52448E-05-2.85798E-05-2.85707E-05-2.08307E-08-2.02516E-19 6.19831E-20
 -1      3551 9.52453E-05-2.85795E-05-2.85710E-05-2.18313E-08 6.15938E-19 7.66115E-19
 -1      3552 9.52501E-05-2.85811E-05-2.85724E-05-2.10293E-08 1.08913E-18 1.78099E-18
 -1      3553 9.52433E-05-2.85796E-05-2.85701E-05-1.85103E-08-1.19908E-18 1.72650E-19
 -1      3554 9.52437E-05-2.85797E-05-2.85703E-05-1.97331E-08-8.93321E-19 9.22414E-21
 -1      3555 9.52478E-05-2.85815E-05-2.85713E-05-1.93112E-08-3.44423E-19 1.46285E-18
 -1      3556 9.52419E-05-2.85791E-05-2.85698E-05-1.60005E-08-1.17736E-18 4.18492E-19
 -1      3557 9.52422E-05-2.85793E-05-2.85699E-05-1.72875E-08-1.40657E-18-3.37555E-19
 -1      3558 9.52456E-05-2.85811E-05-2.85706E-05-1.71363E-08-1.13224E-18 7.32841E-19
 -1      3559 9.20154E-05-3.03226E-05-2.65643E-05 1.60482E-05 6.08206E-19-1.50118E-18
 -1      3560 1.15717E-04-2.47211E-05-3.92649E-05 1.38181E-05 2.11581E-18 1.06099E-18
 -1      3561 9.52454E-05-2.85818E-05-2.85701E-05 1.06447E-08-9.66548E-19-2.99219E-18
 -1      3562 9.52469E-05-2.85828E-05-2.85703E-05 9.22994E-09-5.50376E-19-2.43392E-18
 -1      3563 1.20092E-04-3.22984E-05-3.77067E-05 1.38924E-05 1.58599E-18 1.35666E-18
 -1      3564 9.00283E-05-3.70976E-05-2.28523E-05 2.64337E-05-1.06469E-18 8.20934E-19
 -1      3565 8.22598E-05-3.15683E-05-2.15500E-05 2.59912E-05-1.41177E-18 1.05829E-18
 -1      3566 1.21723E-04-3.74006E-05-3.62459E-05 1.28701E-05 1.25074E-18 1.42393E-18
 -1      3567 4.39925E-05-5.35476E-07-1.82791E-05 5.46446E-07 1.52549E-19-4.54528E-18
 -1      3568 4.74254E-05 1.63106E-07-2.02943E-05-2.96808E-06-1.35750E-19-4.21282E-18
 -1      3569 1.23921E-04-4.91805E-05-3.21824E-05 2.99603E-07-4.09160E-19-1.68044E-18
 -1      3570 1.19824E-04-5.01136E-05-2.98001E-05 7.49548E-06-3.34939E-19-1.95287E-18
 -1      3571 9.52496E-05-2.85847E-05-2.85707E-05 3.22687E-09 7.73997E-19-2.06387E-18
 -1      3572 9.52499E-05-2.85849E-05-2.85707E-05 1.16138E-09 1.00524E-18-7.63472E-19
 -1      3573 1.23720E-04-4.53154E-05-3.34286E-05 2.97034E-06 1.73271E-19 1.09505E-18
 -1      3574 1.23530E-04-4.09262E-05-3.55955E-05 9.52767E-06 9.87005E-19 1.53918E-18
 -1      3575 1.19280E-04-3.96739E-05-3.41918E-05 9.77856E-06 9.42511E-19 1.12500E-18
 -1      3576 1.19104E-04-4.38052E-05-3.22919E-05 6.21228E-07-4.74479E-20 6.96704E-19
 -1      3577 4.80438E-05-3.01208E-07-2.02675E-05-9.01443E-06-3.66011E-19-4.21028E-18
 -1      3578 1.02112E-04-3.49975E-05-2.87082E-05 7.82608E-06-4.30760E-19-1.11990E-18
 -1      3579 1.04018E-04-3.68352E-05-2.87981E-05 7.24028E-06-3.54823E-19-1.17827E-18
 -1      3580 1.04070E-04-3.81740E-05-2.83661E-05 9.06290E-06-7.82461E-19-1.78344E-18
 -1      3581 9.96911E-05-3.39320E-05-2.82626E-05 9.32007E-06-7.17628E-19-1.03889E-18
 -1      3582 1.20322E-04-3.40921E-05-3.71298E-05-1.27689E-05 1.26502E-18-1.96686E-18
 -1      3583 1.17946E-04-2.79353E-05-3.87328E-05-1.19337E-05 2.16496E-18-1.81482E-18
 -1      3584 1.19192E-04-3.88513E-05-3.45586E-05-9.76709E-06 4.46687E-19-1.97549E-18
 -1      3585 1.24007E-04-4.04090E-05-3.59816E-05-9.62412E-06 6.08845E-19-1.78503E-18
 -1      3586 1.25167E-04-4.66235E-05-3.35845E-05-4.46782E-06-4.17561E-20-1.90270E-18
 -1      3587 1.19704E-04-4.21807E-05-3.32585E-05-7.88529E-06-1.02240E-19-1.39524E-18
 -1      3588 1.05102E-04-4.70919E-05-2.46606E-05-2.54102E-05 2.18662E-18-5.99253E-19
 -1      3589 1.11599E-04-4.85350E-05-2.72490E-05 1.67526E-05-5.82454E-19-1.76352E-18
 -1      3590 1.00543E-04-4.27271E-05-2.44907E-05 2.37544E-05-7.25312E-19-5.95914E-19
 -1      3591 9.52481E-05-2.85837E-05-2.85705E-05 7.30808E-09-1.76518E-20-1.36838E-18
 -1      3592 9.52490E-05-2.85843E-05-2.85706E-05 5.46333E-09 9.54991E-19-2.60179E-18
 -1      3593 9.52507E-05-2.85851E-05-2.85710E-05 4.66205E-09 1.32948E-18-3.09147E-18
 -1      3594 9.52487E-05-2.85838E-05-2.85707E-05 8.90318E-09 5.80816E-19-2.94903E-18
 -1      3595 1.13208E-04-3.87255E-05-3.20333E-05 2.96825E-06 5.92169E-19 2.01468E-20
 -1      3596 1.11878E-04-3.89273E-05-3.12065E-05-1.38414E-06 1.35967E-19-1.48866E-19
 -1      3597 1.15942E-04-4.19774E-05-3.15418E-05-8.95894E-07-4.64611E-20 3.27163E-19
 -1      3598 1.14298E-04-3.86043E-05-3.23963E-05 5.42265E-06 6.92794E-19 3.03741E-19
 -1      3599 8.69159E-05-3.33195E-05-2.28251E-05-2.43455E-05 1.73317E-18 6.67038E-19
 -1      3600 7.84575E-05-2.76848E-05-2.16823E-05-2.36719E-05 1.75432E-18 1.33879E-18
 -1      3601 7.72497E-05-2.78960E-05-2.10624E-05 2.49012E-05-1.58432E-18 1.13783E-18
 -1      3602 7.20979E-05-2.33992E-05-2.06018E-05 2.16877E-05-1.78741E-18 1.43421E-18
 -1      3603 8.33208E-05-2.95602E-05-2.28975E-05 2.16681E-05-1.40482E-18 1.60818E-18
 -1      3604 5.44505E-05-1.48977E-05-1.65089E-05 1.45540E-05-1.00887E-18 2.75953E-18
 -1      3605 5.52565E-05-1.35485E-05-1.77320E-05 7.90453E-06-6.65318E-19 2.45735E-18
 -1      3606 6.28659E-05-1.83779E-05-1.90764E-05 1.75673E-05-1.38732E-18 1.82880E-18
 -1      3607 9.52426E-05-2.85797E-05-2.85698E-05 1.41501E-08-8.14477E-19 6.75492E-19
 -1      3608 9.52420E-05-2.85793E-05-2.85697E-05 1.31097E-08-3.63146E-19 2.77054E-19
 -1      3609 9.52429E-05-2.85800E-05-2.85698E-05 1.25583E-08 5.44701E-20 9.58401E-19
 -1      3610 9.52451E-05-2.85812E-05-2.85703E-05 1.38455E-08 5.09998E-19 2.57148E-19
 -1      3611 9.52399E-05-2.85778E-05-2.85694E-05-1.30281E-08 1.54327E-19 2.26688E-19
 -1      3612 9.52418E-05-2.85792E-05-2.85697E-05-1.38097E-08-1.90596E-19 5.90060E-19
 -1      3613 9.52417E-05-2.85790E-05-2.85697E-05-1.49168E-08-4.71332E-19 5.66334E-19
 -1      3614 9.52445E-05-2.85807E-05-2.85702E-05-1.48476E-08-1.06083E-18-4.53575E-19
 -1      3615 1.16494E-04-4.62898E-05-3.01491E-05 3.34473E-06-2.16622E-19-1.86388E-18
 -1      3616 1.17527E-04-4.50273E-05-3.10147E-05-1.12440E-06-6.48093E-19-1.56921E-18
 -1      3617 9.71959E-05-3.88526E-05-2.48199E-05 2.12763E-05-9.95012E-19-5.56964E-19
 -1      3618 1.18938E-04-4.42791E-05-3.20536E-05-4.01143E-06-1.34069E-19-1.35253E-18
 -1      3619 9.52469E-05-2.85828E-05-2.85703E-05-9.19570E-09 6.69305E-19 2.30746E-18
 -1      3620 9.52454E-05-2.85818E-05-2.85701E-05-1.06105E-08-1.93701E-19 1.56569E-18
 -1      3621 1.14272E-04-1.56978E-05-4.24707E-05 6.46527E-06 3.11168E-18 1.35353E-19
 -1      3622 5.25865E-05-1.25993E-05-1.70071E-05-3.70966E-06 7.25140E-20 2.53003E-18
 -1      3623 5.26041E-05-1.34994E-05-1.62822E-05-1.03744E-05 5.19099E-19 2.46884E-18
 -1      3624 5.98826E-05-1.67196E-05-1.82315E-05-1.41895E-05 7.52342E-19 2.45322E-18
 -1      3625 9.52499E-05-2.85849E-05-2.85707E-05-1.18239E-09 6.15737E-19 3.34955E-19
 -1      3626 9.52496E-05-2.85847E-05-2.85707E-05-3.22754E-09 7.88170E-19 6.19232E-19
 -1      3627 9.52514E-05-2.85856E-05-2.85711E-05-8.26915E-12 1.56612E-18-4.31124E-19
 -1      3628 1.16734E-04-4.87730E-05-2.89839E-05 9.30850E-06-3.26917E-19-1.95180E-18
 -1      3629 1.18691E-04-4.04595E-05-3.34547E-05 8.47032E-06 7.08252E-19 9.26164E-19
 -1      3630 9.52457E-05-2.85818E-05-2.85703E-05-1.22554E-08-2.39170E-19 7.19430E-19
 -1      3631 9.52440E-05-2.85807E-05-2.85700E-05-1.20974E-08-2.43333E-19-5.01632E-22
 -1      3632 9.10436E-05-3.84136E-05-2.22856E-05-2.70134E-05 2.13405E-18 3.92970E-19
 -1      3633 1.10234E-04-4.50063E-05-2.79577E-05 1.19709E-05-3.25995E-19-1.48080E-18
 -1      3634 9.52439E-05-2.85807E-05-2.85699E-05 1.18602E-08-6.37999E-19-7.63628E-19
 -1      3635 9.52457E-05-2.85817E-05-2.85703E-05 1.20538E-08-7.86282E-19-8.96929E-19
 -1      3636 9.28645E-05-2.63723E-05-2.85001E-05 6.46197E-06-1.29416E-18-1.85643E-19
 -1      3637 9.31668E-05-2.68088E-05-2.84221E-05 7.01625E-06-1.04568E-18-3.32840E-19
 -1      3638 9.52469E-05-2.85824E-05-2.85705E-05 1.25334E-08 1.30694E-18-1.75073E-18
 -1      3639 7.96007E-05-2.04730E-05-2.53082E-05-1.11060E-05 6.96833E-20 1.60195E-18
 -1      3640 8.05672E-05-2.01948E-05-2.59412E-05-9.64511E-06-1.67832E-19 1.82645E-18
 -1      3641 8.24906E-05-2.04305E-05-2.65849E-05-8.55590E-06-5.13562E-19 2.33829E-18
 -1      3642 8.34787E-05-2.05412E-05-2.70202E-05-7.57866E-06-4.02684E-19 1.61101E-18
 -1      3643 7.91866E-05-1.88492E-05-2.57928E-05-7.32757E-06-1.57494E-19 1.75850E-18
 -1      3644 8.50061E-05-2.09477E-05-2.74517E-05-6.86829E-06-8.34365E-20 1.35407E-18
 -1      3645 8.59167E-05-2.12581E-05-2.77428E-05-6.16059E-06 5.34044E-20 1.19643E-18
 -1      3646 8.26037E-05-1.97386E-05-2.68957E-05-5.79589E-06-5.27068E-19 1.71319E-18
 -1      3647 8.71382E-05-2.17399E-05-2.80296E-05-5.64603E-06 1.48186E-19 1.19977E-18
 -1      3648 8.79266E-05-2.21407E-05-2.82167E-05-5.09013E-06 3.02270E-19 1.40037E-18
 -1      3649 8.53127E-05-2.07529E-05-2.76340E-05-4.77336E-06 2.18472E-19 9.73319E-19
 -1      3650 8.89086E-05-2.26422E-05-2.84025E-05-4.68091E-06 9.19822E-19 1.49627E-18
 -1      3651 8.95664E-05-2.30686E-05-2.85160E-05-4.21737E-06 1.03079E-18 1.44345E-18
 -1      3652 8.74839E-05-2.18042E-05-2.81223E-05-3.99834E-06 6.79482E-19 1.17708E-18
 -1      3653 9.03541E-05-2.35530E-05-2.86314E-05-3.87216E-06 4.95410E-19 1.23139E-18
 -1      3654 9.08883E-05-2.39657E-05-2.86942E-05-3.47355E-06 7.67053E-19 1.07264E-18
 -1      3655 8.92283E-05-2.28317E-05-2.84357E-05-3.35549E-06 7.28677E-19 1.21997E-18
 -1      3656 9.15166E-05-2.44109E-05-2.87612E-05-3.17410E-06 1.88029E-19 4.49515E-19
 -1      3657 9.19414E-05-2.47887E-05-2.87902E-05-2.82874E-06-7.67794E-19 4.76259E-19
 -1      3658 9.06245E-05-2.37909E-05-2.86276E-05-2.79409E-06 1.29447E-19 5.38620E-19
 -1      3659 9.24388E-05-2.51835E-05-2.88245E-05-2.56800E-06-9.59269E-19 5.68374E-19
 -1      3660 9.27710E-05-2.55164E-05-2.88318E-05-2.27079E-06-5.90284E-19 4.11262E-19
 -1      3661 9.17348E-05-2.46558E-05-2.87364E-05-2.29573E-06-7.36361E-19-1.52542E-19
 -1      3662 9.31612E-05-2.58569E-05-2.88448E-05-2.04602E-06-1.05807E-18-6.49947E-20
 -1      3663 9.34173E-05-2.61421E-05-2.88390E-05-1.79380E-06-1.13811E-18-6.12953E-19
 -1      3664 9.26104E-05-2.54142E-05-2.87894E-05-1.85585E-06-1.44788E-18-2.40561E-19
 -1      3665 9.37201E-05-2.64293E-05-2.88386E-05-1.60322E-06-9.24053E-19-8.82831E-19
 -1      3666 9.39150E-05-2.66682E-05-2.88254E-05-1.39283E-06-9.81694E-19-1.33707E-18
 -1      3667 9.32943E-05-2.60637E-05-2.88064E-05-1.47391E-06-1.17519E-18-4.75162E-19
 -1      3668 9.41475E-05-2.69059E-05-2.88173E-05-1.23429E-06-7.11047E-19-1.17746E-18
 -1      3669 9.42939E-05-2.71024E-05-2.88007E-05-1.06193E-06-5.16663E-19-3.59946E-19
 -1      3670 9.38229E-05-2.66089E-05-2.88009E-05-1.14901E-06-5.38463E-19 5.01835E-20
 -1      3671 9.44702E-05-2.72957E-05-2.87884E-05-9.32629E-07-9.03968E-19 3.34327E-20
 -1      3672 9.45788E-05-2.74546E-05-2.87709E-05-7.94001E-07-6.45375E-19 2.01325E-20
 -1      3673 9.42267E-05-2.70584E-05-2.87827E-05-8.78516E-07-2.48505E-19 4.76783E-19
 -1      3674 9.47107E-05-2.76094E-05-2.87570E-05-6.90598E-07-4.10352E-20-6.81115E-19
 -1      3675 9.47901E-05-2.77360E-05-2.87401E-05-5.81105E-07-5.38257E-20-8.93305E-19
 -1      3676 9.45312E-05-2.74229E-05-2.87580E-05-6.58062E-07-5.72070E-19-7.24559E-19
 -1      3677 9.48874E-05-2.78581E-05-2.87261E-05-5.00017E-07-2.16825E-19-5.85990E-19
 -1      3678 9.49445E-05-2.79575E-05-2.87107E-05-4.15096E-07 1.36706E-19-2.05502E-19
 -1      3679 9.47578E-05-2.77139E-05-2.87311E-05-4.82069E-07 1.67978E-19-8.58301E-19
 -1      3680 9.50150E-05-2.80524E-05-2.86976E-05-3.52745E-07 7.81646E-19 1.23022E-20
 -1      3681 9.50552E-05-2.81292E-05-2.86841E-05-2.88093E-07 6.96559E-19 7.94095E-19
 -1      3682 9.49236E-05-2.79428E-05-2.87046E-05-3.44387E-07 6.68851E-19-4.65030E-19
 -1      3683 9.51053E-05-2.82019E-05-2.86724E-05-2.41109E-07 1.33053E-19 9.54974E-19
 -1      3684 9.51330E-05-2.82604E-05-2.86608E-05-1.92838E-07 5.26554E-20 1.71580E-18
 -1      3685 9.50428E-05-2.81201E-05-2.86802E-05-2.38830E-07 4.92832E-19 2.01032E-19
 -1      3686 9.51677E-05-2.83150E-05-2.86507E-05-1.58184E-07-8.52849E-19 1.61395E-18
 -1      3687 9.51862E-05-2.83589E-05-2.86411E-05-1.22894E-07-1.29716E-18 1.15048E-18
 -1      3688 9.51265E-05-2.82552E-05-2.86584E-05-1.59564E-07 1.81039E-20 1.01021E-18
 -1      3689 9.52095E-05-2.83993E-05-2.86325E-05-9.79329E-08-9.02976E-19 1.65311E-18
 -1      3690 9.52213E-05-2.84316E-05-2.86247E-05-7.27376E-08 3.91129E-19 1.85214E-18
 -1      3691 9.51838E-05-2.83566E-05-2.86398E-05-1.01337E-07-4.41795E-19 1.46943E-18
 -1      3692 9.52362E-05-2.84609E-05-2.86177E-05-5.52425E-08 1.65316E-19 2.75809E-19
 -1      3693 9.52434E-05-2.84842E-05-2.86115E-05-3.77510E-08-4.84737E-19-1.38721E-19
 -1      3694 9.52215E-05-2.84311E-05-2.86242E-05-5.95962E-08-5.52856E-19 1.37394E-18
 -1      3695 9.52523E-05-2.85050E-05-2.86058E-05-2.58908E-08-8.05530E-19-8.82420E-19
 -1      3696 9.52561E-05-2.85213E-05-2.86009E-05-1.41643E-08-1.15597E-18-2.03716E-19
 -1      3697 9.52451E-05-2.84849E-05-2.86114E-05-3.05113E-08-7.89235E-19-7.72547E-19
 -1      3698 9.52610E-05-2.85357E-05-2.85964E-05-6.46677E-09-1.12301E-18 1.40792E-19
 -1      3699 9.52626E-05-2.85468E-05-2.85926E-05 1.03512E-09-1.61812E-18 8.36471E-19
 -1      3700 9.52587E-05-2.85227E-05-2.86011E-05-1.09421E-08-1.11526E-18 7.94770E-20
 -1      3701 9.52646E-05-2.85563E-05-2.85891E-05 5.72878E-09-1.17332E-18 1.14408E-18
 -1      3702 9.52647E-05-2.85637E-05-2.85863E-05 1.02068E-08-3.12293E-19 1.35259E-18
 -1      3703 9.52655E-05-2.85485E-05-2.85930E-05 1.62760E-09-9.22507E-19 1.15951E-18
 -1      3704 9.52649E-05-2.85697E-05-2.85836E-05 1.27902E-08-1.16501E-19 1.65523E-18
 -1      3705 9.52642E-05-2.85742E-05-2.85814E-05 1.51623E-08 3.93773E-19 1.81782E-18
 -1      3706 9.52676E-05-2.85654E-05-2.85867E-05 9.17084E-09 7.49468E-20 5.38765E-19
 -1      3707 9.52632E-05-2.85777E-05-2.85794E-05 1.63109E-08-4.13809E-19 1.03819E-18
 -1      3708 9.52620E-05-2.85803E-05-2.85779E-05 1.72648E-08-6.80493E-20-9.83431E-20
 -1      3709 9.52669E-05-2.85759E-05-2.85819E-05 1.32034E-08-1.65324E-19 1.49896E-18
 -1      3710 9.52604E-05-2.85821E-05-2.85764E-05 1.74782E-08 4.46572E-19-6.71009E-19
 -1      3711 9.52590E-05-2.85834E-05-2.85753E-05 1.75182E-08 4.05169E-19-1.45551E-18
 -1      3712 9.52644E-05-2.85819E-05-2.85783E-05 1.48659E-08-4.95159E-19-1.86488E-19
 -1      3713 9.52571E-05-2.85840E-05-2.85742E-05 1.71557E-08 1.07026E-19-1.59179E-18
 -1      3714 9.52557E-05-2.85844E-05-2.85734E-05 1.66410E-08 8.70768E-19-1.42517E-18
 -1      3715 9.52610E-05-2.85847E-05-2.85756E-05 1.49975E-08 1.04346E-19-6.88216E-19
 -1      3716 9.52538E-05-2.85844E-05-2.85726E-05 1.59553E-08 2.02729E-18-2.53869E-18
 -1      3717 9.52523E-05-2.85842E-05-2.85720E-05 1.51361E-08 2.18391E-18-2.32282E-18
 -1      3718 9.52573E-05-2.85856E-05-2.85736E-05 1.41972E-08 9.68547E-19-1.62778E-18
 -1      3719 9.52505E-05-2.85837E-05-2.85715E-05 1.42989E-08 2.11602E-18-2.56313E-18
 -1      3720 9.52492E-05-2.85834E-05-2.85711E-05 1.33555E-08 2.02964E-18-2.20194E-18
 -1      3721 9.52536E-05-2.85852E-05-2.85722E-05 1.28873E-08 2.40069E-18-1.82727E-18
 -1      3722 1.06726E-04-4.21393E-05-2.75536E-05 1.29180E-05-3.34499E-19-1.40080E-18
 -1      3723 1.17849E-04-4.16671E-05-3.28003E-05 4.65308E-06 4.30213E-19 8.19560E-19
 -1      3724 1.15996E-04-3.97298E-05-3.27289E-05 6.46358E-06 6.15729E-19 4.41754E-19
 -1      3725 9.33188E-05-2.73189E-05-2.82835E-05 7.77330E-06-1.11754E-18-7.08465E-19
 -1      3726 9.39521E-05-2.81257E-05-2.81879E-05 8.34200E-06-8.55021E-19-8.21956E-19
 -1      3727 9.18055E-05-2.62709E-05-2.80989E-05 7.56154E-06-1.37567E-18-2.11110E-19
 -1      3728 9.44868E-05-2.90620E-05-2.80250E-05 9.19542E-06-4.96928E-19-1.16697E-18
 -1      3729 9.56444E-05-3.03755E-05-2.79362E-05 9.69925E-06-8.54725E-19-8.59993E-19
 -1      3730 9.24249E-05-2.76920E-05-2.77669E-05 9.27273E-06-8.13070E-19-1.25914E-18
 -1      3731 9.28319E-05-2.59741E-05-2.86592E-05 5.30501E-06-1.03887E-18-3.95147E-19
 -1      3732 9.29299E-05-2.61570E-05-2.86050E-05 5.81515E-06-1.18028E-18-1.00910E-19
 -1      3733 9.17580E-05-2.55866E-05-2.83637E-05 6.11884E-06-1.21673E-18-4.85190E-19
 -1      3734 9.30276E-05-2.59289E-05-2.87633E-05 4.30523E-06 2.07109E-19-4.10967E-19
 -1      3735 9.30094E-05-2.59493E-05-2.87315E-05 4.76071E-06-5.95618E-19-5.11540E-19
 -1      3736 9.20222E-05-2.53909E-05-2.85563E-05 4.92017E-06-4.93353E-19-1.38164E-18
 -1      3737 9.33292E-05-2.60945E-05-2.88215E-05 3.45235E-06 7.28180E-19-3.47363E-19
 -1      3738 9.32520E-05-2.60186E-05-2.88081E-05 3.85045E-06 5.80464E-19-6.28467E-20
 -1      3739 9.24347E-05-2.54980E-05-2.86849E-05 3.92846E-06 8.37845E-20-1.36816E-18
 -1      3740 9.36621E-05-2.63716E-05-2.88449E-05 2.73333E-06 3.65005E-19 4.75305E-19
 -1      3741 9.35613E-05-2.62453E-05-2.88451E-05 3.07495E-06 6.30762E-19 3.27853E-19
 -1      3742 9.28957E-05-2.57773E-05-2.87618E-05 3.10989E-06 2.45179E-19-3.08554E-19
 -1      3743 9.39831E-05-2.66936E-05-2.88438E-05 2.13462E-06-7.35387E-19 9.54946E-19
 -1      3744 9.38796E-05-2.65475E-05-2.88530E-05 2.42272E-06-9.94049E-20 8.20915E-19
 -1      3745 9.33464E-05-2.61391E-05-2.87997E-05 2.43700E-06-2.80414E-19 8.63244E-19
 -1      3746 9.42700E-05-2.70183E-05-2.88268E-05 1.64265E-06-6.55387E-19 1.07820E-18
 -1      3747 9.41748E-05-2.68715E-05-2.88414E-05 1.88150E-06-5.79531E-19 7.53950E-19
 -1      3748 9.37550E-05-2.65242E-05-2.88100E-05 1.88749E-06-7.36435E-19 1.24145E-18
 -1      3749 9.45134E-05-2.73208E-05-2.88008E-05 1.24403E-06-8.83735E-19 5.41136E-19
 -1      3750 9.44317E-05-2.71845E-05-2.88179E-05 1.43873E-06-7.21145E-19 4.45244E-19
 -1      3751 9.41070E-05-2.68959E-05-2.88020E-05 1.44266E-06-3.45491E-19 9.37513E-19
 -1      3752 9.47121E-05-2.75882E-05-2.87706E-05 9.25746E-07-1.05938E-18-1.89139E-19
 -1      3753 9.46451E-05-2.74681E-05-2.87883E-05 1.08182E-06-1.14964E-18 4.12251E-19
 -1      3754 9.43988E-05-2.72333E-05-2.87829E-05 1.08641E-06-7.95066E-19-2.38130E-19
 -1      3755 9.48690E-05-2.78158E-05-2.87396E-05 6.75450E-07-8.77074E-20-4.93146E-19
 -1      3756 9.48162E-05-2.77139E-05-2.87566E-05 7.98469E-07-4.12068E-19-3.08032E-19
 -1      3757 9.46331E-05-2.75267E-05-2.87580E-05 8.04531E-07-2.02229E-19-9.17192E-19
 -1      3758 9.49894E-05-2.80036E-05-2.87102E-05 4.81718E-07 1.92547E-19-1.89358E-18
 -1      3759 9.49492E-05-2.79197E-05-2.87257E-05 5.77038E-07 1.79006E-19-6.85178E-19
 -1      3760 9.48161E-05-2.77734E-05-2.87311E-05 5.84462E-07 1.53720E-19-1.68297E-18
 -1      3761 9.50791E-05-2.81547E-05-2.86834E-05 3.34254E-07 6.53570E-19-1.06456E-18
 -1      3762 9.50495E-05-2.80874E-05-2.86970E-05 4.06814E-07-2.84379E-20-1.73572E-18
 -1      3763 9.49552E-05-2.79752E-05-2.87047E-05 4.15117E-07 4.38034E-19-1.47762E-18
 -1      3764 9.51442E-05-2.82733E-05-2.86601E-05 2.24002E-07-4.43562E-19-5.05507E-19
 -1      3765 9.51230E-05-2.82205E-05-2.86717E-05 2.78209E-07 8.59490E-19-8.51941E-20
 -1      3766 9.50584E-05-2.81362E-05-2.86802E-05 2.86835E-07 1.06237E-20-6.42001E-19
 -1      3767 9.51898E-05-2.83644E-05-2.86403E-05 1.43182E-07-2.94072E-19-1.80475E-18
 -1      3768 9.51752E-05-2.83240E-05-2.86499E-05 1.82854E-07-3.32782E-19-8.77191E-19
 -1      3769 9.51327E-05-2.82620E-05-2.86583E-05 1.91318E-07 2.15624E-19-1.14778E-18
 -1      3770 9.52205E-05-2.84329E-05-2.86239E-05 8.52505E-08 5.80766E-20-1.44670E-18
 -1      3771 9.52110E-05-2.84026E-05-2.86317E-05 1.13617E-07-3.70483E-19-1.66692E-18
 -1      3772 9.51846E-05-2.83581E-05-2.86396E-05 1.21556E-07 1.09218E-19-5.77608E-19
 -1      3773 9.52403E-05-2.84832E-05-2.86106E-05 4.48105E-08 4.62235E-19-5.12524E-19
 -1      3774 9.52344E-05-2.84610E-05-2.86168E-05 6.45419E-08 4.10511E-19-6.11286E-19
 -1      3775 9.52194E-05-2.84299E-05-2.86239E-05 7.17254E-08-6.34687E-19 3.92204E-19
 -1      3776 9.52520E-05-2.85193E-05-2.86000E-05 1.74950E-08 8.52344E-19 9.38075E-19
 -1      3777 9.52488E-05-2.85034E-05-2.86049E-05 3.07561E-08 4.91414E-19 1.17779E-20
 -1      3778 9.52417E-05-2.84824E-05-2.86110E-05 3.70643E-08 1.21770E-19 5.47085E-19
 -1      3779 9.52581E-05-2.85443E-05-2.85918E-05-1.67335E-10-1.14710E-18 3.01465E-18
 -1      3780 9.52567E-05-2.85334E-05-2.85955E-05 8.34449E-09 5.13917E-19 2.47044E-18
 -1      3781 9.52548E-05-2.85198E-05-2.86006E-05 1.37459E-08-5.04448E-19 2.74070E-18
 -1      3782 9.52604E-05-2.85611E-05-2.85855E-05-1.08871E-08-4.60652E-19 2.78732E-18
 -1      3783 9.52602E-05-2.85538E-05-2.85883E-05-5.78144E-09-9.05258E-19 2.25538E-18
 -1      3784 9.52616E-05-2.85457E-05-2.85925E-05-1.25571E-09-3.97493E-19 3.55681E-18
 -1      3785 9.52602E-05-2.85719E-05-2.85808E-05-1.67427E-08 6.06070E-19 7.71425E-19
 -1      3786 9.52607E-05-2.85672E-05-2.85828E-05-1.40147E-08 4.73536E-19 1.88398E-18
 -1      3787 9.52640E-05-2.85628E-05-2.85862E-05-1.02939E-08 2.63855E-19 2.20927E-18
 -1      3788 9.52585E-05-2.85782E-05-2.85773E-05-1.92978E-08 1.27233E-18-2.23401E-19
 -1      3789 9.52595E-05-2.85755E-05-2.85788E-05-1.81753E-08 8.11924E-19 1.00089E-19
 -1      3790 9.52636E-05-2.85737E-05-2.85815E-05-1.51668E-08 1.51177E-18 9.48632E-19
 -1      3791 9.52560E-05-2.85816E-05-2.85748E-05-1.97054E-08 1.09843E-18 1.29235E-19
 -1      3792 9.52572E-05-2.85802E-05-2.85758E-05-1.96208E-08 1.36161E-18-3.09467E-19
 -1      3793 9.52616E-05-2.85800E-05-2.85779E-05-1.72233E-08 1.08008E-18 5.66837E-19
 -1      3794 9.52532E-05-2.85829E-05-2.85730E-05-1.87949E-08 3.71537E-19 9.72768E-19
 -1      3795 9.52544E-05-2.85824E-05-2.85737E-05-1.93418E-08 9.05731E-19 2.90088E-19
 -1      3796 9.52587E-05-2.85832E-05-2.85753E-05-1.74561E-08 9.06970E-19 2.65845E-19
 -1      3797 9.52504E-05-2.85830E-05-2.85717E-05-1.71412E-08-1.17398E-18 1.11734E-18
 -1      3798 9.52515E-05-2.85830E-05-2.85722E-05-1.80396E-08-6.43520E-19 1.21778E-18
 -1      3799 9.52555E-05-2.85843E-05-2.85734E-05-1.65766E-08-7.58826E-19 9.43388E-19
 -1      3800 9.52477E-05-2.85823E-05-2.85709E-05-1.51328E-08-7.97304E-19 1.24584E-18
 -1      3801 9.52488E-05-2.85826E-05-2.85712E-05-1.61951E-08-4.33937E-19 1.26741E-18
 -1      3802 9.52522E-05-2.85841E-05-2.85720E-05-1.50798E-08-8.24616E-19 2.12609E-18
 -1      3803 9.52481E-05-2.85837E-05-2.85705E-05-7.30132E-09 8.97838E-19 1.51090E-18
 -1      3804 9.52487E-05-2.85837E-05-2.85707E-05-8.86855E-09 1.32437E-18 2.14527E-18
 -1      3805 9.52490E-05-2.85843E-05-2.85706E-05-5.47214E-09 1.36977E-18 1.32235E-18
 -1      3806 1.21399E-04-4.63746E-05-3.21911E-05-2.73521E-06-3.38132E-19-1.46693E-18
 -1      3807 1.03136E-04-3.87240E-05-2.75478E-05 1.22298E-05-1.63133E-19-1.12131E-18
 -1      3808 1.01295E-04-4.00941E-05-2.63922E-05 1.69590E-05-3.96155E-19-1.07258E-18
 -1      3809 9.35257E-05-3.48954E-05-2.50312E-05 1.94018E-05-9.70648E-19 6.49221E-20
 -1      3810 1.00285E-04-3.60736E-05-2.74368E-05 1.23680E-05-5.48260E-19-1.27482E-18
 -1      3811 7.23041E-05-2.25933E-05-2.12743E-05-1.95477E-05 1.24264E-18 1.86739E-18
 -1      3812 9.52420E-05-2.85793E-05-2.85697E-05-1.30366E-08-8.26689E-20 2.31037E-19
 -1      3813 7.66272E-05-2.15693E-05-2.35066E-05-1.51169E-05 1.09830E-18 1.28037E-18
 -1      3814 7.71405E-05-2.05029E-05-2.43431E-05-1.28405E-05 5.98085E-19 1.18267E-18
 -1      3815 7.49370E-05-1.83119E-05-2.41384E-05-9.86361E-06 7.53092E-19 1.29282E-18
 -1      3816 9.52466E-05-2.85820E-05-2.85705E-05-1.31004E-08 8.60053E-20-5.65235E-20
 -1      3817 9.52469E-05-2.85821E-05-2.85706E-05-1.42324E-08-4.21896E-19 1.14445E-18
 -1      3818 9.52498E-05-2.85836E-05-2.85712E-05-1.33481E-08 2.49573E-19 2.29923E-18
 -1      3819 9.52481E-05-2.85831E-05-2.85707E-05-1.16160E-08 4.27376E-19 2.33604E-18
 -1      3820 9.52495E-05-2.85838E-05-2.85710E-05 1.14141E-08 1.32678E-18-3.23597E-18
 -1      3821 6.75954E-05-1.85979E-05-2.08816E-05-1.55609E-05 7.59911E-19 1.92922E-18
 -1      3822 6.96429E-05-2.07770E-05-2.09065E-05 1.74431E-05-1.41612E-18 1.58948E-18
 -1      3823 9.52511E-05-2.85850E-05-2.85712E-05-7.60858E-09 5.92135E-19 1.73574E-18
 -1      3824 9.52498E-05-2.85841E-05-2.85710E-05-9.55322E-09 1.06785E-19 2.15090E-18
 -1      3825 9.52507E-05-2.85844E-05-2.85713E-05-1.03835E-08 2.80036E-19 1.64979E-18
 -1      3826 9.52507E-05-2.85851E-05-2.85710E-05-4.66899E-09 1.07547E-18 2.94727E-19
 -1      3827 5.62438E-05-1.27484E-05-1.82552E-05 2.69761E-06-3.16473E-19 2.53758E-18
 -1      3828 5.88059E-05-1.36602E-05-1.93574E-05-2.98949E-06-2.21340E-19 2.10766E-18
 -1      3829 6.11410E-05-1.46393E-05-1.99706E-05 7.47315E-06-5.91451E-19 2.36840E-18
 -1      3830 9.52532E-05-2.85862E-05-2.85716E-05 1.17942E-09 1.26537E-18-7.54044E-19
 -1      3831 9.52532E-05-2.85862E-05-2.85716E-05-1.20565E-09 1.00911E-18 3.57116E-19
 -1      3832 9.52511E-05-2.85848E-05-2.85713E-05 9.45125E-09 1.60877E-18-2.87199E-18
 -1      3833 9.65215E-05-3.18198E-05-2.76922E-05 1.08258E-05-1.19294E-18-7.95835E-19
 -1      3834 9.84282E-05-3.37853E-05-2.76529E-05 1.11604E-05-1.00769E-18-1.31179E-18
 -1      3835 9.61403E-05-3.39116E-05-2.67706E-05 1.41467E-05-6.71644E-19-6.45168E-19
 -1      3836 9.37325E-05-3.00901E-05-2.73184E-05 1.14162E-05-1.14196E-18-1.22205E-18
 -1      3837 9.39031E-05-3.32997E-05-2.59048E-05 1.62026E-05-8.69958E-19 2.85910E-19
 -1      3838 8.85384E-05-3.17759E-05-2.43835E-05 2.01188E-05-1.33132E-18 1.10331E-18
 -1      3839 8.42906E-05-2.80888E-05-2.39021E-05 1.89680E-05-1.33609E-18 1.29531E-18
 -1      3840 9.20580E-05-3.08647E-05-2.62005E-05 1.46657E-05-1.26753E-18 6.55640E-19
 -1      3841 9.52521E-05-2.85856E-05-2.85714E-05 6.10182E-09 1.10853E-18-3.75710E-18
 -1      3842 9.52529E-05-2.85860E-05-2.85715E-05 3.84178E-09 1.71547E-18-3.35763E-18
 -1      3843 9.52547E-05-2.85867E-05-2.85720E-05 2.66647E-09 8.26245E-19-2.40018E-18
 -1      3844 6.50181E-05-1.59242E-05-2.08643E-05-1.03871E-05 2.98442E-19 1.77584E-18
 -1      3845 8.06217E-05-1.89495E-05-2.64539E-05-4.12076E-06-7.57474E-19 1.03884E-18
 -1      3846 8.21860E-05-1.94850E-05-2.69097E-05-3.66505E-06-7.55804E-19 8.66736E-19
 -1      3847 8.37998E-05-2.00962E-05-2.73179E-05-3.49876E-06-3.45754E-19 6.12341E-19
 -1      3848 8.50362E-05-2.06409E-05-2.76231E-05-3.16882E-06 4.21605E-19 5.99985E-19
 -1      3849 8.23204E-05-1.93695E-05-2.69309E-05-1.93646E-06-7.24975E-19 4.28877E-19
 -1      3850 8.62941E-05-2.12310E-05-2.78970E-05-3.03057E-06 8.62899E-19 5.14478E-19
 -1      3851 8.72840E-05-2.17655E-05-2.80970E-05-2.75900E-06 8.82124E-19 9.26020E-19
 -1      3852 8.51319E-05-2.06050E-05-2.76199E-05-1.84303E-06 5.92876E-19 7.92944E-19
 -1      3853 8.82792E-05-2.23216E-05-2.82773E-05-2.62583E-06 3.40520E-19 6.85589E-19
 -1      3854 8.90711E-05-2.28261E-05-2.84039E-05-2.38368E-06 2.47215E-19 1.60097E-19
 -1      3855 8.73435E-05-2.17640E-05-2.80801E-05-1.72570E-06 4.30002E-19 2.50608E-19
 -1      3856 8.98651E-05-2.33378E-05-2.85189E-05-2.24881E-06 1.61125E-19-1.64872E-19
 -1      3857 9.04959E-05-2.37991E-05-2.85946E-05-2.02664E-06-1.21203E-19-5.89815E-19
 -1      3858 8.91034E-05-2.28368E-05-2.83808E-05-1.57006E-06 2.12767E-20-2.45930E-19
 -1      3859 9.11301E-05-2.42588E-05-2.86643E-05-1.89256E-06-4.86625E-19-6.20666E-19
 -1      3860 9.16291E-05-2.46691E-05-2.87054E-05-1.68961E-06-1.45321E-18-9.45295E-19
 -1      3861 9.05105E-05-2.38126E-05-2.85701E-05-1.38451E-06-4.44963E-19-9.76088E-19
 -1      3862 9.21335E-05-2.50725E-05-2.87440E-05-1.56138E-06-1.43210E-18-3.97953E-19
 -1      3863 9.25248E-05-2.54289E-05-2.87621E-05-1.37955E-06-1.21259E-18-3.15100E-19
 -1      3864 9.16336E-05-2.46821E-05-2.86821E-05-1.18461E-06-1.05713E-18-6.01421E-19
 -1      3865 9.29229E-05-2.57755E-05-2.87798E-05-1.26177E-06-1.22564E-18-1.13848E-19
 -1      3866 9.32267E-05-2.60785E-05-2.87832E-05-1.10282E-06-1.07769E-18-2.35507E-20
 -1      3867 9.25245E-05-2.54407E-05-2.87415E-05-9.85388E-07-1.16229E-18-1.82705E-19
 -1      3868 9.35379E-05-2.63705E-05-2.87875E-05-9.98584E-07-8.04963E-19 5.50325E-19
 -1      3869 9.37712E-05-2.66234E-05-2.87820E-05-8.63081E-07 1.32776E-20 6.93630E-19
 -1      3870 9.32249E-05-2.60892E-05-2.87657E-05-7.98361E-07-4.80980E-19-1.73707E-19
 -1      3871 9.40115E-05-2.68650E-05-2.87780E-05-7.73837E-07-4.58899E-19-6.75497E-20
 -1      3872 9.41886E-05-2.70724E-05-2.87676E-05-6.61083E-07-6.73043E-19-2.14526E-19
 -1      3873 9.37697E-05-2.66333E-05-2.87676E-05-6.30876E-07-5.25319E-19-4.17835E-20
 -1      3874 9.43718E-05-2.72689E-05-2.87589E-05-5.86887E-07-3.33121E-19-5.39963E-19
 -1      3875 9.45044E-05-2.74363E-05-2.87462E-05-4.95181E-07-1.07295E-19-3.27040E-21
 -1      3876 9.41882E-05-2.70818E-05-2.87561E-05-4.86559E-07-6.30390E-19-7.17186E-19
 -1      3877 9.46420E-05-2.75936E-05-2.87353E-05-4.35115E-07-9.11148E-20-1.31193E-19
 -1      3878 9.47398E-05-2.77266E-05-2.87221E-05-3.62125E-07 3.10881E-19-1.81356E-20
 -1      3879 9.45053E-05-2.74452E-05-2.87372E-05-3.66189E-07-2.48053E-19 7.26739E-19
 -1      3880 9.48416E-05-2.78505E-05-2.87105E-05-3.14682E-07 1.13989E-18-7.30840E-19
 -1      3881 9.49125E-05-2.79545E-05-2.86979E-05-2.57791E-07 1.49958E-18-1.72538E-19
 -1      3882 9.47418E-05-2.77349E-05-2.87152E-05-2.68610E-07 5.22771E-19-3.74628E-19
 -1      3883 9.49863E-05-2.80505E-05-2.86867E-05-2.21195E-07 1.52009E-18 1.36336E-20
 -1      3884 9.50366E-05-2.81306E-05-2.86752E-05-1.77763E-07 7.29459E-19 5.58297E-19
 -1      3885 9.49153E-05-2.79622E-05-2.86927E-05-1.91526E-07 1.64825E-18-1.05762E-18
 -1      3886 9.50890E-05-2.82039E-05-2.86650E-05-1.50188E-07 3.27088E-19 6.14851E-19
 -1      3887 9.51239E-05-2.82646E-05-2.86549E-05-1.17729E-07 1.33823E-19 1.01117E-18
 -1      3888 9.50400E-05-2.81377E-05-2.86714E-05-1.32100E-07 1.15606E-18 7.61907E-19
 -1      3889 9.51601E-05-2.83195E-05-2.86459E-05-9.74538E-08-3.48933E-19 1.11083E-18
 -1      3890 9.51836E-05-2.83647E-05-2.86373E-05-7.37413E-08 8.59758E-20 1.49678E-18
 -1      3891 9.51275E-05-2.82709E-05-2.86521E-05-8.73787E-08 1.94542E-19 4.15170E-19
 -1      3892 9.52077E-05-2.84051E-05-2.86296E-05-5.92249E-08-9.84869E-19 7.11361E-19
 -1      3893 9.52228E-05-2.84381E-05-2.86225E-05-4.23356E-08-1.52286E-18-4.88951E-20
 -1      3894 9.51870E-05-2.83702E-05-2.86353E-05-5.45501E-08-1.25187E-18 7.71789E-19
 -1      3895 9.52382E-05-2.84672E-05-2.86160E-05-3.22574E-08-1.00665E-18-7.62806E-19
 -1      3896 9.52472E-05-2.84907E-05-2.86103E-05-2.05813E-08-6.70952E-19-5.37044E-19
 -1      3897 9.52260E-05-2.84427E-05-2.86211E-05-3.10970E-08-1.58896E-18-7.24917E-19
 -1      3898 9.52563E-05-2.85111E-05-2.86050E-05-1.38450E-08-3.91090E-19-4.88201E-19
 -1      3899 9.52612E-05-2.85275E-05-2.86004E-05-6.06871E-09-8.88553E-19 4.65460E-21
 -1      3900 9.52501E-05-2.84946E-05-2.86093E-05-1.48591E-08-4.66393E-19-7.09539E-19
 -1      3901 9.52660E-05-2.85414E-05-2.85962E-05-1.78904E-09-1.56352E-18-6.97702E-20
 -1      3902 9.52680E-05-2.85523E-05-2.85926E-05 3.13474E-09-9.35591E-19 5.03283E-19
 -1      3903 9.52637E-05-2.85307E-05-2.85998E-05-4.04459E-09-8.53433E-19-7.15448E-19
 -1      3904 9.52698E-05-2.85614E-05-2.85892E-05 5.65500E-09 2.22514E-19 5.11032E-19
 -1      3905 9.52701E-05-2.85685E-05-2.85865E-05 8.54350E-09 5.56496E-19 9.76351E-19
 -1      3906 9.52701E-05-2.85549E-05-2.85922E-05 2.79125E-09-2.40580E-19 4.51387E-19
 -1      3907 9.52699E-05-2.85741E-05-2.85839E-05 9.84081E-09 3.33397E-19 8.60953E-19
 -1      3908 9.52690E-05-2.85783E-05-2.85818E-05 1.13185E-08-2.98920E-19 7.73240E-19
 -1      3909 9.52718E-05-2.85705E-05-2.85863E-05 6.78415E-09 8.08614E-20 1.32844E-18
 -1      3910 9.52678E-05-2.85814E-05-2.85798E-05 1.17960E-08-1.41076E-18 1.10827E-18
 -1      3911 9.52662E-05-2.85837E-05-2.85783E-05 1.23298E-08-8.90781E-19 1.46219E-20
 -1      3912 9.52704E-05-2.85799E-05-2.85817E-05 8.80568E-09-7.54445E-19 7.79660E-19
 -1      3913 9.52644E-05-2.85851E-05-2.85768E-05 1.22856E-08-3.90923E-19-7.28019E-19
 -1      3914 9.52625E-05-2.85861E-05-2.85756E-05 1.22172E-08-9.07639E-20-1.15421E-18
 -1      3915 9.52673E-05-2.85849E-05-2.85782E-05 9.50962E-09-1.18661E-18 1.17876E-18
 -1      3916 9.52604E-05-2.85864E-05-2.85745E-05 1.18591E-08 6.79228E-19-1.15768E-18
 -1      3917 9.52585E-05-2.85865E-05-2.85737E-05 1.14346E-08 1.48355E-18-1.57453E-18
 -1      3918 9.52633E-05-2.85869E-05-2.85756E-05 9.37850E-09 3.58508E-20 3.85925E-19
 -1      3919 9.52563E-05-2.85863E-05-2.85729E-05 1.09074E-08 1.22351E-18-1.93464E-18
 -1      3920 9.52546E-05-2.85859E-05-2.85723E-05 1.02795E-08 1.64694E-18-2.93097E-18
 -1      3921 9.52590E-05-2.85872E-05-2.85737E-05 8.78431E-09 6.81877E-19-2.08193E-18
 -1      3922 9.02296E-05-2.50334E-05-2.79554E-05 6.94271E-06-1.53027E-18 1.84456E-19
 -1      3923 9.03723E-05-2.54675E-05-2.77931E-05 7.73557E-06-1.18805E-18 4.05837E-20
 -1      3924 7.05184E-05-1.66701E-05-2.31952E-05-6.95901E-06 7.05145E-19 7.14264E-19
 -1      3925 7.34152E-05-1.70497E-05-2.42511E-05-5.53023E-06 6.11477E-19 8.10275E-19
 -1      3926 9.06478E-05-2.47279E-05-2.82645E-05 5.47388E-06-8.44278E-19-3.23753E-19
 -1      3927 9.05773E-05-2.48755E-05-2.81425E-05 6.12267E-06-1.27909E-18-6.84523E-21
 -1      3928 8.91240E-05-2.41145E-05-2.78590E-05 6.24788E-06-1.18251E-18 5.56630E-19
 -1      3929 9.01876E-05-2.59463E-05-2.75460E-05 8.79479E-06-1.23684E-18-1.59124E-19
 -1      3930 9.07165E-05-2.68001E-05-2.73532E-05 9.73290E-06-1.31601E-18-5.28501E-19
 -1      3931 8.85560E-05-2.46281E-05-2.74006E-05 8.14649E-06-1.49339E-18 5.10124E-19
 -1      3932 9.18766E-05-2.50951E-05-2.86306E-05 3.38084E-06 2.47782E-20-4.23470E-19
 -1      3933 9.16498E-05-2.49575E-05-2.85762E-05 3.81541E-06-1.01301E-19-8.57559E-19
 -1      3934 9.24992E-05-2.55057E-05-2.87200E-05 2.63638E-06-1.64433E-19-1.63706E-20
 -1      3935 9.22654E-05-2.53144E-05-2.86893E-05 2.99236E-06-1.10804E-19-5.14924E-19
 -1      3936 9.15288E-05-2.47988E-05-2.85919E-05 2.87219E-06-3.10962E-19 1.97972E-19
 -1      3937 9.30652E-05-2.59586E-05-2.87671E-05 2.03936E-06-5.78383E-19 2.10404E-19
 -1      3938 9.28465E-05-2.57482E-05-2.87538E-05 2.33008E-06-3.06261E-20 1.46123E-19
 -1      3939 9.22630E-05-2.53059E-05-2.86897E-05 2.20892E-06-2.30020E-19 1.34870E-19
 -1      3940 9.35567E-05-2.64064E-05-2.87846E-05 1.56178E-06-7.94772E-19 5.04618E-19
 -1      3941 9.33641E-05-2.61991E-05-2.87831E-05 1.79777E-06-1.10154E-18 6.40256E-19
 -1      3942 9.29059E-05-2.58254E-05-2.87434E-05 1.68878E-06-7.08710E-19 2.56519E-19
 -1      3943 9.39684E-05-2.68209E-05-2.87823E-05 1.18182E-06-3.30197E-19 4.56850E-19
 -1      3944 9.38060E-05-2.66298E-05-2.87885E-05 1.37176E-06-3.17696E-19 1.02859E-18
 -1      3945 9.34504E-05-2.63191E-05-2.87659E-05 1.28052E-06-8.36601E-19 4.29805E-19
 -1      3946 9.43032E-05-2.71874E-05-2.87678E-05 8.81927E-07-8.08776E-19 3.02170E-19
 -1      3947 9.41709E-05-2.70190E-05-2.87784E-05 1.03321E-06-5.82449E-19 4.71117E-19
 -1      3948 9.38986E-05-2.67649E-05-2.87678E-05 9.60843E-07-3.04959E-19 1.30253E-18
 -1      3949 9.45685E-05-2.75001E-05-2.87467E-05 6.47556E-07 3.11248E-19-2.87057E-19
 -1      3950 9.44638E-05-2.73569E-05-2.87593E-05 7.66609E-07-1.63476E-19-2.11988E-19
 -1      3951 9.42585E-05-2.71526E-05-2.87566E-05 7.11831E-07-1.29265E-19 3.54743E-19
 -1      3952 9.47736E-05-2.77594E-05-2.87227E-05 4.66504E-07 3.45729E-19-7.30717E-19
 -1      3953 9.46930E-05-2.76411E-05-2.87359E-05 5.58958E-07 3.78876E-19-5.17139E-19
 -1      3954 9.45409E-05-2.74796E-05-2.87382E-05 5.19333E-07 3.35810E-19 3.22455E-19
 -1      3955 9.49284E-05-2.79693E-05-2.86986E-05 3.28469E-07 1.54859E-19-7.62755E-19
 -1      3956 9.48680E-05-2.78739E-05-2.87112E-05 3.99231E-07-7.47140E-20-4.75946E-19
 -1      3957 9.47576E-05-2.77483E-05-2.87165E-05 3.71961E-07-2.53066E-19 9.82391E-20
 -1      3958 9.50425E-05-2.81353E-05-2.86759E-05 2.24772E-07-7.55944E-19-6.38398E-19
 -1      3959 9.49984E-05-2.80601E-05-2.86874E-05 2.78080E-07-6.35116E-20-8.12178E-19
 -1      3960 9.49201E-05-2.79642E-05-2.86941E-05 2.60440E-07-3.17941E-19-1.90070E-19
 -1      3961 9.51243E-05-2.82640E-05-2.86554E-05 1.48159E-07 4.40272E-21-2.57025E-19
 -1      3962 9.50930E-05-2.82059E-05-2.86656E-05 1.87618E-07-6.46778E-19-6.48893E-19
 -1      3963 9.50391E-05-2.81340E-05-2.86727E-05 1.77189E-07-5.14593E-19 2.62724E-19
 -1      3964 9.51811E-05-2.83615E-05-2.86377E-05 9.26287E-08-3.58398E-19 2.95372E-19
 -1      3965 9.51597E-05-2.83177E-05-2.86463E-05 1.21260E-07 2.40987E-19 4.69081E-19
 -1      3966 9.51240E-05-2.82649E-05-2.86532E-05 1.16019E-07-6.70941E-19 7.39285E-19
 -1      3967 9.52191E-05-2.84340E-05-2.86227E-05 5.32745E-08-4.22682E-19 3.67744E-19
 -1      3968 9.52051E-05-2.84015E-05-2.86299E-05 7.35736E-08-4.02365E-19 3.69006E-19
 -1      3969 9.51827E-05-2.83637E-05-2.86363E-05 7.19004E-08-2.67071E-19 6.64257E-19
 -1      3970 9.52432E-05-2.84866E-05-2.86104E-05 2.61399E-08-4.92489E-19 1.17310E-18
 -1      3971 9.52346E-05-2.84631E-05-2.86162E-05 4.01319E-08-5.43176E-19 1.75602E-19
 -1      3972 9.52216E-05-2.84367E-05-2.86218E-05 4.07820E-08-5.02571E-19 8.78640E-19
 -1      3973 9.52574E-05-2.85237E-05-2.86004E-05 8.07802E-09-1.46545E-18 2.88031E-18
 -1      3974 9.52526E-05-2.85072E-05-2.86050E-05 1.73814E-08-8.16713E-19 1.43901E-18
 -1      3975 9.52461E-05-2.84894E-05-2.86099E-05 1.94313E-08-1.16233E-18 6.67097E-19
 -1      3976 9.52646E-05-2.85491E-05-2.85925E-05-3.37778E-09-4.85059E-19 2.77719E-18
 -1      3977 9.52624E-05-2.85379E-05-2.85961E-05 2.50985E-09-8.60296E-19 3.03730E-18
 -1      3978 9.52603E-05-2.85264E-05-2.86002E-05 5.29928E-09-1.27029E-18 1.40091E-18
 -1      3979 9.52671E-05-2.85658E-05-2.85863E-05-1.01310E-08 9.78852E-19 1.40111E-18
 -1      3980 9.52667E-05-2.85585E-05-2.85891E-05-6.67490E-09 4.07400E-19 2.59815E-18
 -1      3981 9.52673E-05-2.85515E-05-2.85924E-05-3.59859E-09 5.15137E-19 2.23811E-18
 -1      3982 9.52665E-05-2.85761E-05-2.85816E-05-1.36260E-08 1.33012E-18 1.56469E-18
 -1      3983 9.52672E-05-2.85717E-05-2.85837E-05-1.18538E-08 1.37125E-18 1.70370E-18
 -1      3984 9.52695E-05-2.85679E-05-2.85864E-05-8.78564E-09 1.24976E-18 1.83959E-18
 -1      3985 9.52642E-05-2.85820E-05-2.85781E-05-1.49383E-08 1.44627E-18 1.97913E-18
 -1      3986 9.52655E-05-2.85795E-05-2.85797E-05-1.42928E-08 1.23271E-18 2.21061E-18
 -1      3987 9.52686E-05-2.85779E-05-2.85818E-05-1.14121E-08 1.25857E-18 2.64526E-18
 -1      3988 9.52609E-05-2.85848E-05-2.85755E-05-1.48552E-08 8.08520E-20 1.76464E-18
 -1      3989 9.52625E-05-2.85836E-05-2.85766E-05-1.49285E-08 1.17950E-18 1.97692E-18
 -1      3990 9.52659E-05-2.85834E-05-2.85782E-05-1.23286E-08 8.27079E-19 3.17998E-18
 -1      3991 9.52573E-05-2.85855E-05-2.85736E-05-1.39437E-08-8.24182E-19 2.23924E-18
 -1      3992 9.52589E-05-2.85853E-05-2.85744E-05-1.44453E-08-4.39896E-19 2.12493E-18
 -1      3993 9.52623E-05-2.85859E-05-2.85756E-05-1.21700E-08-4.95075E-19 3.22872E-18
 -1      3994 9.52536E-05-2.85851E-05-2.85722E-05-1.25697E-08-7.35329E-19 1.43718E-18
 -1      3995 9.52552E-05-2.85854E-05-2.85728E-05-1.33035E-08-4.90599E-19 1.92145E-18
 -1      3996 9.52583E-05-2.85864E-05-2.85737E-05-1.13661E-08-4.53236E-19 2.88038E-18
 -1      3997 6.64191E-05-1.56415E-05-2.16939E-05-5.15450E-06 1.82271E-19 1.42153E-18
 -1      3998 9.52517E-05-2.85847E-05-2.85716E-05-1.10311E-08-4.38234E-19 1.19013E-18
 -1      3999 9.52526E-05-2.85849E-05-2.85718E-05-1.18755E-08-1.33565E-18 1.64301E-18
 -1      4000 9.52553E-05-2.85861E-05-2.85725E-05-1.01803E-08-9.83485E-19 1.71773E-18
 -1      4001 9.52533E-05-2.85857E-05-2.85718E-05-8.91246E-09-9.06971E-19 1.88606E-18
 -1      4002 9.52528E-05-2.85860E-05-2.85715E-05-3.34998E-09 6.19614E-19-6.97793E-19
 -1      4003 9.52521E-05-2.85856E-05-2.85714E-05-5.63584E-09 6.60370E-19 3.97827E-19
 -1      4004 9.52533E-05-2.85860E-05-2.85717E-05-6.28558E-09 5.92680E-19 9.45059E-19
 -1      4005 9.52546E-05-2.85867E-05-2.85720E-05-2.17529E-09-5.60855E-20 6.20945E-19
 -1      4006 9.12362E-05-2.47999E-05-2.84842E-05 4.30989E-06-1.27417E-19-1.07711E-18
 -1      4007 9.10552E-05-2.47678E-05-2.83992E-05 4.84043E-06-3.03495E-19-8.49180E-19
 -1      4008 8.98978E-05-2.40938E-05-2.81963E-05 4.81802E-06-5.94675E-19-1.90137E-19
 -1      4009 7.46487E-05-2.23005E-05-2.25870E-05 1.66564E-05-1.06162E-18 1.27476E-18
 -1      4010 6.78832E-05-1.74511E-05-2.12795E-05 1.24346E-05-7.74694E-19 1.69880E-18
 -1      4011 7.64605E-05-1.78096E-05-2.51682E-05-5.07880E-06 4.79861E-19 5.75044E-19
 -1      4012 7.84886E-05-1.83108E-05-2.58490E-05-4.34908E-06-2.18320E-19 8.79660E-19
 -1      4013 7.36821E-05-1.64974E-05-2.43761E-05-2.20392E-06 5.17785E-19 3.23858E-19
 -1      4014 7.87013E-05-1.80563E-05-2.59116E-05-2.04635E-06-3.57254E-19 2.16387E-19
 -1      4015 9.52556E-05-2.85867E-05-2.85724E-05 6.85385E-09 1.40839E-18-3.33645E-18
 -1      4016 9.52533E-05-2.85857E-05-2.85718E-05 8.74990E-09 2.00556E-18-3.47514E-18
 -1      4017 8.80646E-05-2.56930E-05-2.67242E-05 1.07356E-05-7.48231E-19 8.81657E-19
 -1      4018 9.04856E-05-2.76208E-05-2.69600E-05 1.12618E-05-5.61168E-19-3.08878E-19
 -1      4019 9.13182E-05-2.89808E-05-2.66594E-05 1.25109E-05-6.91913E-19 2.49162E-19
 -1      4020 6.61322E-05-1.44062E-05-2.19467E-05-9.35924E-08-8.43211E-20 1.56833E-18
 -1      4021 9.52568E-05-2.85874E-05-2.85726E-05-1.46620E-09-2.17108E-19-8.77796E-20
 -1      4022 9.52563E-05-2.85871E-05-2.85725E-05-3.57851E-09-1.15356E-20-1.99560E-19
 -1      4023 6.65151E-05-1.61832E-05-2.16536E-05 7.83715E-06-4.83484E-19 1.61362E-18
 -1      4024 8.04491E-05-2.45396E-05-2.39942E-05 1.54349E-05-8.17016E-19 1.19268E-18
 -1      4025 9.07254E-05-2.43647E-05-2.84337E-05 3.72167E-06-1.66761E-19-4.68307E-19
 -1      4026 9.52564E-05-2.85872E-05-2.85725E-05 4.04325E-09 5.58086E-19-2.28867E-18
 -1      4027 9.52569E-05-2.85874E-05-2.85726E-05 1.41718E-09-1.71092E-19 2.36286E-19
 -1      4028 9.52587E-05-2.85878E-05-2.85732E-05-2.52797E-11-9.38679E-19-1.04622E-19
 -1      4029 9.52578E-05-2.85874E-05-2.85731E-05 5.56706E-09 5.19522E-19-2.37620E-18
 -1      4030 8.42751E-05-2.03670E-05-2.74200E-05-4.88579E-07 3.08974E-19 1.77979E-18
 -1      4031 8.55532E-05-2.09460E-05-2.77015E-05-5.33948E-07 6.13825E-19 1.63941E-18
 -1      4032 8.66309E-05-2.14977E-05-2.79362E-05-6.98633E-07 4.20375E-19 1.44630E-18
 -1      4033 8.76382E-05-2.20407E-05-2.81230E-05-7.00332E-07 3.38864E-20 5.94777E-19
 -1      4034 8.61037E-05-2.12399E-05-2.77615E-05 5.89778E-07 8.45834E-20 9.51868E-19
 -1      4035 8.85082E-05-2.25598E-05-2.82795E-05-7.88250E-07-1.13019E-19 7.88485E-20
 -1      4036 8.93102E-05-2.30619E-05-2.84000E-05-7.54281E-07-2.41279E-19-3.54600E-19
 -1      4037 8.80322E-05-2.22725E-05-2.81533E-05 1.87581E-07-2.61367E-19-1.09565E-19
 -1      4038 9.00165E-05-2.35411E-05-2.85010E-05-7.90439E-07-1.64957E-19-5.53040E-19
 -1      4039 9.06565E-05-2.39962E-05-2.85752E-05-7.32521E-07-5.31181E-19-5.39968E-19
 -1      4040 8.95964E-05-2.32459E-05-2.84123E-05-4.76453E-08-3.19329E-19-6.03735E-19
 -1      4041 9.12286E-05-2.44284E-05-2.86371E-05-7.35717E-07-8.30751E-19-2.74755E-19
 -1      4042 9.17374E-05-2.48319E-05-2.86793E-05-6.65024E-07-1.10296E-18-2.99011E-19
 -1      4043 9.08665E-05-2.41427E-05-2.85770E-05-1.70789E-07-8.61860E-19-1.27623E-18
 -1      4044 9.21976E-05-2.52128E-05-2.87139E-05-6.49034E-07-1.56439E-18-4.60386E-19
 -1      4045 9.25992E-05-2.55628E-05-2.87345E-05-5.74534E-07-1.14554E-18-3.01920E-19
 -1      4046 9.18929E-05-2.49488E-05-2.86752E-05-2.21439E-07-1.34789E-18-6.36083E-19
 -1      4047 9.29656E-05-2.58911E-05-2.87506E-05-5.49021E-07-2.69314E-19-4.67061E-19
 -1      4048 9.32795E-05-2.61887E-05-2.87570E-05-4.77068E-07-1.14332E-19-4.18689E-19
 -1      4049 9.27149E-05-2.56562E-05-2.87275E-05-2.27860E-07-1.17037E-18-6.08249E-19
 -1      4050 9.35676E-05-2.64659E-05-2.87611E-05-4.48427E-07-3.49907E-19-3.84503E-19
 -1      4051 9.38102E-05-2.67141E-05-2.87585E-05-3.82973E-07-8.99213E-19-4.77195E-19
 -1      4052 9.33660E-05-2.62634E-05-2.87489E-05-2.09635E-07-3.15853E-19-8.64464E-19
 -1      4053 9.40337E-05-2.69438E-05-2.87551E-05-3.55120E-07-1.03057E-18 4.18445E-20
 -1      4054 9.42188E-05-2.71471E-05-2.87474E-05-2.98194E-07-2.01733E-19 2.65624E-19
 -1      4055 9.38750E-05-2.67739E-05-2.87504E-05-1.79766E-07-9.66053E-20-5.31184E-19
 -1      4056 9.43895E-05-2.73339E-05-2.87397E-05-2.73267E-07-1.57707E-19 2.05968E-22
 -1      4057 9.45287E-05-2.74977E-05-2.87294E-05-2.25507E-07-6.03556E-19 1.47984E-19
 -1      4058 9.42672E-05-2.71948E-05-2.87398E-05-1.46413E-07-1.79676E-19-4.64891E-19
 -1      4059 9.46569E-05-2.76471E-05-2.87196E-05-2.04439E-07-6.99813E-19 6.49159E-19
 -1      4060 9.47599E-05-2.77769E-05-2.87085E-05-1.65565E-07 4.38422E-19-2.48846E-19
 -1      4061 9.45648E-05-2.75357E-05-2.87227E-05-1.14323E-07-3.59121E-19 2.36070E-19
 -1      4062 9.48546E-05-2.78943E-05-2.86980E-05-1.48529E-07 1.20147E-18-3.58431E-19
 -1      4063 9.49293E-05-2.79954E-05-2.86870E-05-1.17725E-07 1.19322E-18 1.32776E-19
 -1      4064 9.47867E-05-2.78069E-05-2.87027E-05-8.59348E-08 5.26927E-19 1.07471E-18
 -1      4065 9.49977E-05-2.80863E-05-2.86768E-05-1.04457E-07 9.41124E-19-6.65415E-19
 -1      4066 9.50509E-05-2.81637E-05-2.86667E-05-8.06460E-08 8.91059E-19-6.51640E-20
 -1      4067 9.49490E-05-2.80191E-05-2.86822E-05-6.22134E-08 7.19894E-19 2.04447E-19
 -1      4068 9.50991E-05-2.82327E-05-2.86573E-05-7.06613E-08 7.12040E-19-8.59548E-19
 -1      4069 9.51359E-05-2.82911E-05-2.86483E-05-5.26948E-08-3.21966E-19-8.98450E-19
 -1      4070 9.50652E-05-2.81821E-05-2.86627E-05-4.32397E-08 1.11663E-19-1.60905E-18
 -1      4071 9.51689E-05-2.83425E-05-2.86401E-05-4.54338E-08-9.74831E-19-5.81131E-19
 -1      4072 9.51935E-05-2.83856E-05-2.86323E-05-3.22072E-08-1.62239E-18-1.26228E-18
 -1      4073 9.51461E-05-2.83052E-05-2.86451E-05-2.86138E-08-5.95562E-19-1.87193E-18
 -1      4074 9.52152E-05-2.84232E-05-2.86253E-05-2.71178E-08-1.72008E-18-6.27435E-19
 -1      4075 9.52309E-05-2.84544E-05-2.86188E-05-1.76359E-08-1.14498E-18-7.34951E-19
 -1      4076 9.52006E-05-2.83964E-05-2.86298E-05-1.77165E-08-1.34298E-18-6.45810E-19
 -1      4077 9.52445E-05-2.84813E-05-2.86129E-05-1.42202E-08-7.42402E-19-6.03651E-19
 -1      4078 9.52538E-05-2.85032E-05-2.86075E-05-7.62638E-09-2.61636E-19-9.35570E-19
 -1      4079 9.52358E-05-2.84624E-05-2.86168E-05-9.86905E-09-1.02527E-18 5.99203E-19
 -1      4080 9.52615E-05-2.85219E-05-2.86027E-05-5.46013E-09-5.93251E-19-4.14641E-19
 -1      4081 9.52665E-05-2.85370E-05-2.85984E-05-1.04211E-09-1.10190E-18-1.10281E-19
 -1      4082 9.52570E-05-2.85092E-05-2.86060E-05-4.42374E-09-2.60428E-19-4.74443E-20
 -1      4083 9.52702E-05-2.85495E-05-2.85946E-05 2.21001E-10-3.94452E-19-2.40203E-19
 -1      4084 9.52721E-05-2.85594E-05-2.85912E-05 3.03832E-09 1.53264E-19 2.29578E-19
 -1      4085 9.52684E-05-2.85412E-05-2.85973E-05-8.09132E-10-7.62045E-19 5.68378E-19
 -1      4086 9.52731E-05-2.85674E-05-2.85881E-05 3.67138E-09-1.70364E-19 9.60089E-20
 -1      4087 9.52731E-05-2.85736E-05-2.85855E-05 5.34064E-09-1.50871E-19-1.62804E-19
 -1      4088 9.52731E-05-2.85624E-05-2.85903E-05 1.45340E-09-2.60297E-19-9.82904E-19
 -1      4089 9.52725E-05-2.85784E-05-2.85832E-05 5.55248E-09-4.71979E-19-4.24938E-19
 -1      4090 9.52713E-05-2.85819E-05-2.85811E-05 6.42084E-09-1.07274E-18-1.03642E-19
 -1      4091 9.52735E-05-2.85756E-05-2.85849E-05 2.75002E-09-7.03940E-19-1.46217E-18
 -1      4092 9.52696E-05-2.85845E-05-2.85793E-05 6.36459E-09-1.02806E-18-1.61815E-19
 -1      4093 9.52678E-05-2.85862E-05-2.85778E-05 6.68948E-09-5.83542E-19 2.97939E-19
 -1      4094 9.52713E-05-2.85832E-05-2.85807E-05 3.38543E-09-8.64723E-19-1.85571E-18
 -1      4095 9.52657E-05-2.85872E-05-2.85765E-05 6.47241E-09-3.11843E-19 3.67968E-19
 -1      4096 9.52635E-05-2.85877E-05-2.85753E-05 6.40306E-09-7.90453E-20-8.28697E-21
 -1      4097 9.52676E-05-2.85869E-05-2.85775E-05 3.60814E-09-8.99173E-19-4.44419E-19
 -1      4098 9.52618E-05-2.85878E-05-2.85745E-05 6.14123E-09-8.71218E-19-5.07242E-19
 -1      4099 9.52597E-05-2.85877E-05-2.85737E-05 5.88771E-09-3.19755E-19-2.23111E-18
 -1      4100 9.52603E-05-2.85881E-05-2.85738E-05 3.01637E-09-8.57971E-19-9.22549E-20
 -1      4101 9.52637E-05-2.85881E-05-2.85753E-05 3.46563E-09-1.09690E-18 4.54604E-19
 -1      4102 7.72830E-05-1.78840E-05-2.55209E-05 3.46724E-07 3.01967E-19 6.80770E-20
 -1      4103 7.94895E-05-1.85475E-05-2.61485E-05 2.67154E-07-3.51893E-19 5.05781E-19
 -1      4104 8.80787E-05-2.32382E-05-2.78163E-05 5.17978E-06-7.51576E-19 4.34188E-19
 -1      4105 8.77382E-05-2.32701E-05-2.76114E-05 5.95890E-06-1.52631E-18 4.99364E-19
 -1      4106 9.52555E-05-2.85868E-05-2.85723E-05-5.33553E-09 4.56286E-19 1.67561E-18
 -1      4107 9.52545E-05-2.85862E-05-2.85721E-05-7.30710E-09-2.74315E-19 2.38827E-18
 -1      4108 9.52555E-05-2.85865E-05-2.85724E-05-7.95266E-09-6.18018E-19 2.91055E-18
 -1      4109 9.52576E-05-2.85874E-05-2.85729E-05-4.66668E-09-6.31511E-19 8.03926E-19
 -1      4110 8.69186E-05-2.32498E-05-2.73217E-05 6.89330E-06-1.42834E-18 1.22526E-18
 -1      4111 8.66741E-05-2.35607E-05-2.70430E-05 7.98538E-06-9.81011E-19 1.21992E-18
 -1      4112 8.60216E-05-2.22821E-05-2.72810E-05 5.80180E-06-7.32698E-19 2.85853E-19
 -1      4113 9.20840E-05-2.51937E-05-2.86775E-05 1.69024E-06-5.14757E-19 3.28063E-19
 -1      4114 9.17413E-05-2.49110E-05-2.86393E-05 1.96020E-06-4.01559E-19 4.25809E-20
 -1      4115 9.12462E-05-2.45940E-05-2.85781E-05 2.23760E-06-1.77085E-19-3.92349E-19
 -1      4116 9.08631E-05-2.43226E-05-2.85133E-05 2.58392E-06-3.88147E-19-5.06181E-19
 -1      4117 9.11466E-05-2.44440E-05-2.85679E-05 1.69937E-06-6.17039E-19-8.12252E-19
 -1      4118 9.33832E-05-2.63019E-05-2.87556E-05 9.49350E-07-1.08561E-18 4.86382E-19
 -1      4119 9.31370E-05-2.60534E-05-2.87495E-05 1.11509E-06-8.74458E-19 2.39271E-19
 -1      4120 9.38598E-05-2.67687E-05-2.87584E-05 7.02501E-07-4.10010E-19 1.26972E-18
 -1      4121 9.36597E-05-2.65506E-05-2.87607E-05 8.32140E-07-1.21809E-18 1.06258E-18
 -1      4122 9.33869E-05-2.62877E-05-2.87468E-05 6.80479E-07-1.10076E-18 4.85790E-19
 -1      4123 9.42377E-05-2.71675E-05-2.87483E-05 5.13715E-07 6.27595E-19 6.12344E-19
 -1      4124 9.40791E-05-2.69818E-05-2.87558E-05 6.14610E-07 4.23448E-19 1.09111E-18
 -1      4125 9.38721E-05-2.67696E-05-2.87503E-05 4.96171E-07 5.19661E-20 5.28681E-19
 -1      4126 9.45313E-05-2.74993E-05-2.87310E-05 3.70146E-07 2.53202E-19 6.83534E-19
 -1      4127 9.44083E-05-2.73454E-05-2.87411E-05 4.48089E-07 6.48245E-19 8.24415E-19
 -1      4128 9.42533E-05-2.71763E-05-2.87412E-05 3.58235E-07 4.48809E-19 9.51337E-19
 -1      4129 9.47547E-05-2.77691E-05-2.87104E-05 2.61825E-07-2.32268E-19 2.72704E-19
 -1      4130 9.46615E-05-2.76444E-05-2.87215E-05 3.21467E-07 1.44082E-20 3.60185E-19
 -1      4131 9.45472E-05-2.75117E-05-2.87249E-05 2.55277E-07 3.98041E-19 1.02420E-18
 -1      4132 9.49210E-05-2.79839E-05-2.86891E-05 1.80925E-07-1.63548E-19 4.45131E-20
 -1      4133 9.48521E-05-2.78850E-05-2.87001E-05 2.26042E-07-3.78744E-19-3.40486E-20
 -1      4134 9.47693E-05-2.77825E-05-2.87053E-05 1.78815E-07-1.09790E-19 3.38857E-19
 -1      4135 9.50421E-05-2.81515E-05-2.86687E-05 1.21256E-07-6.29961E-19 4.27967E-19
 -1      4136 9.49923E-05-2.80746E-05-2.86789E-05 1.54928E-07-2.16863E-20 4.98523E-19
 -1      4137 9.49337E-05-2.79967E-05-2.86849E-05 1.22462E-07-2.54991E-19-3.55990E-19
 -1      4138 9.51278E-05-2.82798E-05-2.86501E-05 7.79090E-08 3.56979E-20 7.41850E-21
 -1      4139 9.50930E-05-2.82212E-05-2.86592E-05 1.02647E-07-5.33346E-19 4.96823E-19
 -1      4140 9.50526E-05-2.81630E-05-2.86653E-05 8.13565E-08-5.54306E-19-3.18694E-19
 -1      4141 9.51867E-05-2.83759E-05-2.86338E-05 4.69970E-08-3.02218E-19-2.88932E-19
 -1      4142 9.51631E-05-2.83322E-05-2.86417E-05 6.48380E-08-3.83536E-20 2.99604E-20
 -1      4143 9.51362E-05-2.82896E-05-2.86474E-05 5.17738E-08 6.82125E-20-1.55269E-18
 -1      4144 9.52254E-05-2.84465E-05-2.86200E-05 2.54516E-08-8.22427E-19 2.18461E-19
 -1      4145 9.52103E-05-2.84146E-05-2.86266E-05 3.80351E-08-5.03168E-19 1.90302E-19
 -1      4146 9.51932E-05-2.83841E-05-2.86318E-05 3.08468E-08-3.79866E-19-8.66679E-19
 -1      4147 9.52496E-05-2.84971E-05-2.86085E-05 1.08675E-08-1.07484E-18-3.55583E-19
 -1      4148 9.52404E-05-2.84744E-05-2.86139E-05 1.95010E-08-5.67147E-19-9.51316E-20
 -1      4149 9.52304E-05-2.84531E-05-2.86184E-05 1.63665E-08-1.19690E-19-1.74558E-18
 -1      4150 9.52632E-05-2.85323E-05-2.85992E-05 1.37540E-09-6.80432E-19-5.14755E-19
 -1      4151 9.52584E-05-2.85166E-05-2.86035E-05 7.08956E-09-1.26470E-18-1.64896E-19
 -1      4152 9.52532E-05-2.85022E-05-2.86074E-05 6.63389E-09-1.21910E-18-8.72277E-19
 -1      4153 9.52697E-05-2.85559E-05-2.85917E-05-4.46209E-09 6.96023E-19-2.10784E-20
 -1      4154 9.52678E-05-2.85455E-05-2.85952E-05-8.65054E-10-3.73057E-19-3.61624E-19
 -1      4155 9.52659E-05-2.85362E-05-2.85983E-05 3.48034E-10-8.61308E-19-2.45168E-18
 -1      4156 9.52715E-05-2.85711E-05-2.85859E-05-7.73665E-09 8.72481E-19 1.15626E-18
 -1      4157 9.52714E-05-2.85645E-05-2.85886E-05-5.64120E-09 1.29527E-18 1.26469E-18
 -1      4158 9.52716E-05-2.85589E-05-2.85912E-05-3.47999E-09-3.13643E-19-5.39932E-19
 -1      4159 9.52702E-05-2.85802E-05-2.85814E-05-9.26474E-09 6.78503E-19 2.74840E-18
 -1      4160 9.52712E-05-2.85763E-05-2.85835E-05-8.20690E-09 3.59071E-19 1.83027E-18
 -1      4161 9.52727E-05-2.85733E-05-2.85855E-05-5.59531E-09-2.78310E-19 4.87175E-19
 -1      4162 9.52671E-05-2.85850E-05-2.85780E-05-9.64347E-09-2.14368E-20 3.61261E-18
 -1      4163 9.52688E-05-2.85830E-05-2.85796E-05-9.28156E-09 1.05948E-18 3.26653E-18
 -1      4164 9.52709E-05-2.85817E-05-2.85812E-05-6.55425E-09 8.08150E-20 1.70539E-18
 -1      4165 9.52631E-05-2.85870E-05-2.85755E-05-9.27968E-09-4.90097E-19 2.67762E-18
 -1      4166 9.52651E-05-2.85863E-05-2.85766E-05-9.36481E-09-2.63054E-19 3.07700E-18
 -1      4167 9.52675E-05-2.85861E-05-2.85778E-05-6.75739E-09 1.61445E-19 1.67912E-18
 -1      4168 7.04842E-05-1.66870E-05-2.30102E-05 4.76735E-06-1.24603E-19 1.37266E-18
 -1      4169 9.27947E-05-2.57721E-05-2.87321E-05 1.27109E-06-5.86142E-19-9.18889E-20
 -1      4170 9.24996E-05-2.55000E-05-2.87129E-05 1.48251E-06-2.32115E-19 3.31778E-19
 -1      4171 9.20385E-05-2.51110E-05-2.86677E-05 1.25627E-06-5.27045E-19-6.68190E-20
 -1      4172 9.27809E-05-2.57319E-05-2.87227E-05 9.26689E-07-8.26171E-19 2.30146E-19
 -1      4173 8.84368E-05-2.81509E-05-2.57768E-05 1.45872E-05-5.44596E-19 1.20030E-18
 -1      4174 9.02850E-05-2.40180E-05-2.84165E-05 2.95625E-06-4.69328E-19-2.38847E-19
 -1      4175 8.98785E-05-2.37917E-05-2.83159E-05 3.40426E-06-5.14137E-19-3.94129E-19
 -1      4176 9.00962E-05-2.37641E-05-2.84053E-05 2.29892E-06-3.93411E-19-5.07556E-19
 -1      4177 7.22771E-05-1.67297E-05-2.38950E-05 2.29169E-06-3.45662E-20 9.78197E-19
 -1      4178 7.53561E-05-1.74756E-05-2.48449E-05 2.02282E-06 1.21298E-19 4.91605E-19
 -1      4179 7.70940E-05-1.81797E-05-2.51864E-05 4.57471E-06-1.29930E-19-1.24444E-19
 -1      4180 7.36289E-05-1.81969E-05-2.37222E-05 9.03335E-06-5.57364E-19 1.06467E-18
 -1      4181 8.43605E-05-2.57768E-05-2.51759E-05 1.42425E-05-7.49955E-19 1.71960E-18
 -1      4182 7.69596E-05-2.03931E-05-2.41526E-05 1.15147E-05-6.98081E-19 1.42765E-18
 -1      4183 7.85061E-05-2.02387E-05-2.49203E-05 8.69688E-06-5.84883E-19 1.10260E-18
 -1      4184 8.40269E-05-2.41380E-05-2.57507E-05 1.16763E-05-3.37997E-19 1.92229E-18
 -1      4185 8.12698E-05-1.91695E-05-2.66562E-05-1.31451E-07-5.78847E-19 1.03016E-18
 -1      4186 8.29141E-05-1.97816E-05-2.70742E-05-2.15899E-07 4.34952E-20 1.35987E-18
 -1      4187 8.36993E-05-2.01609E-05-2.71828E-05 1.23659E-06 4.19489E-19 1.32796E-18
 -1      4188 8.92171E-05-2.35335E-05-2.81711E-05 3.90768E-06-2.21470E-19-2.00766E-19
 -1      4189 8.88186E-05-2.34014E-05-2.80241E-05 4.49382E-06-1.27765E-19 3.42886E-19
 -1      4190 8.75178E-05-2.25919E-05-2.77937E-05 4.24335E-06-4.15838E-19-6.34683E-19
 -1      4191 8.05927E-05-1.90120E-05-2.63352E-05 2.23177E-06 1.29285E-19 4.93243E-19
 -1      4192 8.88846E-05-2.31221E-05-2.81568E-05 3.11690E-06-2.47651E-19-7.92754E-19
 -1      4193 9.52589E-05-2.85871E-05-2.85736E-05-8.55471E-09-6.31507E-19 2.63976E-18
 -1      4194 9.52609E-05-2.85872E-05-2.85744E-05-8.93591E-09-1.96131E-19 2.81785E-18
 -1      4195 9.52566E-05-2.85867E-05-2.85728E-05-8.55294E-09-4.83557E-19 3.08552E-18
 -1      4196 9.52604E-05-2.85881E-05-2.85738E-05 8.03838E-11-1.03812E-18 5.11781E-19
 -1      4197 9.52633E-05-2.85876E-05-2.85753E-05-6.38527E-09-4.09310E-19 1.63619E-18
 -1      4198 9.52599E-05-2.85879E-05-2.85737E-05-4.48725E-09-7.25809E-19 1.14611E-18
 -1      4199 9.52589E-05-2.85875E-05-2.85735E-05-6.25636E-09-6.54691E-19 3.01880E-18
 -1      4200 8.57487E-05-2.35711E-05-2.66891E-05 8.90378E-06-8.92048E-19 1.76371E-18
 -1      4201 8.52920E-05-2.40929E-05-2.62419E-05 1.04528E-05-4.74857E-19 2.23486E-18
 -1      4202 8.23363E-05-2.19942E-05-2.57837E-05 9.46457E-06-7.25383E-19 2.36170E-18
 -1      4203 8.43238E-05-2.21642E-05-2.66362E-05 7.50720E-06-5.77127E-19 2.44743E-18
 -1      4204 9.52632E-05-2.85883E-05-2.85749E-05 9.61462E-10-6.72466E-19 3.75817E-19
 -1      4205 9.52612E-05-2.85881E-05-2.85742E-05-2.20395E-09-1.02274E-18-4.93925E-19
 -1      4206 9.52626E-05-2.85881E-05-2.85748E-05-3.89101E-09-6.70950E-19 2.95945E-19
 -1      4207 9.52650E-05-2.85881E-05-2.85758E-05 1.12196E-09-3.25420E-19-4.35788E-19
 -1      4208 9.52650E-05-2.85879E-05-2.85759E-05-4.03520E-09-7.93619E-19 1.78758E-19
 -1      4209 8.81673E-05-2.25893E-05-2.81322E-05 1.57250E-06-3.74713E-19-4.53783E-19
 -1      4210 8.90289E-05-2.30471E-05-2.82871E-05 1.35540E-06-2.55987E-19-6.42593E-19
 -1      4211 8.96315E-05-2.34309E-05-2.83932E-05 1.05481E-06-2.75447E-19-6.88314E-19
 -1      4212 9.03337E-05-2.38665E-05-2.84941E-05 9.19676E-07-5.32082E-19-8.55641E-19
 -1      4213 9.08470E-05-2.42429E-05-2.85617E-05 7.02083E-07-9.31907E-19-7.34030E-19
 -1      4214 9.14174E-05-2.46441E-05-2.86242E-05 6.22249E-07-1.06673E-18-1.06568E-18
 -1      4215 9.18470E-05-2.49959E-05-2.86640E-05 4.63562E-07-9.34732E-19-6.17343E-19
 -1      4216 9.23067E-05-2.53549E-05-2.86995E-05 4.20081E-07-1.19147E-18-8.81575E-20
 -1      4217 9.26600E-05-2.56716E-05-2.87199E-05 3.03594E-07-1.43922E-18 2.68548E-19
 -1      4218 9.30265E-05-2.59846E-05-2.87371E-05 2.83134E-07-1.12122E-18 5.40603E-20
 -1      4219 9.33117E-05-2.62611E-05-2.87443E-05 1.97173E-07-6.77527E-19-2.09419E-19
 -1      4220 9.36002E-05-2.65277E-05-2.87492E-05 1.90565E-07-3.42973E-20-1.51788E-19
 -1      4221 9.38264E-05-2.67627E-05-2.87480E-05 1.26897E-07 3.63245E-19-2.42958E-19
 -1      4222 9.40504E-05-2.69849E-05-2.87453E-05 1.28031E-07 3.53521E-19 1.91750E-19
 -1      4223 9.42264E-05-2.71802E-05-2.87390E-05 8.07933E-08 1.87802E-19 1.31892E-19
 -1      4224 9.43977E-05-2.73619E-05-2.87319E-05 8.57498E-08 3.89219E-19 2.59353E-19
 -1      4225 9.45322E-05-2.75207E-05-2.87229E-05 5.07213E-08 2.98908E-19 3.07760E-19
 -1      4226 9.46609E-05-2.76666E-05-2.87135E-05 5.71093E-08 2.56314E-19 1.02770E-18
 -1      4227 9.47616E-05-2.77933E-05-2.87035E-05 3.12118E-08-3.36901E-20 6.61518E-19
 -1      4228 9.48566E-05-2.79082E-05-2.86934E-05 3.76657E-08 4.33213E-19-1.33055E-20
 -1      4229 9.49305E-05-2.80074E-05-2.86833E-05 1.86268E-08 6.96873E-20 9.05086E-20
 -1      4230 9.49991E-05-2.80964E-05-2.86734E-05 2.44447E-08-2.73625E-19-1.14927E-18
 -1      4231 9.50519E-05-2.81726E-05-2.86640E-05 1.05671E-08-2.67063E-19-8.67478E-19
 -1      4232 9.51003E-05-2.82403E-05-2.86548E-05 1.54565E-08-4.44946E-19-1.45019E-18
 -1      4233 9.51370E-05-2.82978E-05-2.86464E-05 5.45938E-09-2.14680E-19-9.70436E-19
 -1      4234 9.51701E-05-2.83483E-05-2.86382E-05 9.36574E-09-5.80835E-19-8.94997E-19
 -1      4235 9.51948E-05-2.83907E-05-2.86309E-05 2.27531E-09-9.35334E-19-8.29089E-19
 -1      4236 9.52165E-05-2.84277E-05-2.86239E-05 5.27058E-09-7.31175E-19-7.59332E-19
 -1      4237 9.52322E-05-2.84583E-05-2.86178E-05 3.43112E-10-6.11708E-19-2.96601E-19
 -1      4238 9.52457E-05-2.84847E-05-2.86119E-05 2.55633E-09-4.25483E-19 1.90727E-19
 -1      4239 9.52551E-05-2.85062E-05-2.86069E-05-7.76943E-10-1.12347E-18 2.59558E-19
 -1      4240 9.52627E-05-2.85245E-05-2.86021E-05 7.99406E-10-1.21235E-18-7.81288E-19
 -1      4241 9.52676E-05-2.85392E-05-2.85980E-05-1.37381E-09-8.57962E-19-3.12050E-19
 -1      4242 9.52713E-05-2.85515E-05-2.85941E-05-2.95319E-10-8.80714E-19-7.64416E-19
 -1      4243 9.52731E-05-2.85611E-05-2.85909E-05-1.63831E-09-4.28206E-19-1.98265E-19
 -1      4244 9.52741E-05-2.85689E-05-2.85879E-05-9.35336E-10-4.49422E-19-5.96023E-19
 -1      4245 9.52740E-05-2.85748E-05-2.85853E-05-1.69742E-09-7.38256E-19-4.18390E-19
 -1      4246 9.52733E-05-2.85795E-05-2.85830E-05-1.26719E-09-3.56729E-19-9.14884E-19
 -1      4247 9.52719E-05-2.85828E-05-2.85810E-05-1.63873E-09-4.41686E-19-3.94359E-19
 -1      4248 9.52702E-05-2.85852E-05-2.85792E-05-1.39675E-09-2.64763E-19 4.94183E-19
 -1      4249 8.18518E-05-2.03731E-05-2.63863E-05 5.06075E-06 1.42416E-19 3.00134E-19
 -1      4250 8.34481E-05-2.07840E-05-2.68613E-05 4.26660E-06 1.74696E-19 4.79540E-19
 -1      4251 8.43034E-05-2.09846E-05-2.71807E-05 3.43438E-06-1.68546E-20-2.37012E-19
 -1      4252 8.56256E-05-2.14446E-05-2.75158E-05 2.91585E-06-1.83182E-19-4.86804E-19
 -1      4253 8.64119E-05-2.17580E-05-2.77439E-05 2.32841E-06 8.68242E-20-3.18121E-19
 -1      4254 9.52683E-05-2.85868E-05-2.85778E-05-1.54155E-09-1.35756E-19 7.37938E-19
 -1      4255 8.74723E-05-2.22231E-05-2.79739E-05 1.99105E-06-1.02324E-19-2.99256E-19
 -1      4256 9.52661E-05-2.85877E-05-2.85764E-05-1.41752E-09-3.72448E-19 5.20726E-19
 -1      4257 7.82716E-05-1.94535E-05-2.52206E-05 7.05097E-06-7.86142E-19 7.09195E-19
 -1      4258 7.98155E-05-1.95502E-05-2.58241E-05 5.22359E-06-1.79457E-19 7.40409E-20
 -1      4259 8.11085E-05-2.14859E-05-2.55790E-05 9.09082E-06-7.74828E-19 1.77285E-18
 -1      4260 8.23499E-05-2.15023E-05-2.60736E-05 8.05610E-06-8.05434E-19 2.25454E-18
 -1      4261 8.33422E-05-2.15313E-05-2.64481E-05 7.15933E-06-4.76050E-19 1.81781E-18
 -3
    1PSTEP                         4           1           1          
  100CL  101 1.000000000        4261                     0    1           1
 -4  ERROR       1    1
 -5  STR(%)      1    1    0    0
 -1         1 1.24197E+01
 -1         2 2.65906E+01
 -1         3 1.20122E-04
 -1         4 1.38031E-04
 -1         5 1.30444E+01
 -1         6 1.17662E+01
 -1         7 1.17662E+01
 -1         8 4.58828E+00
 -1         9 3.51288E+00
 -1        10 3.21550E+00
 -1        11 3.07172E+00
 -1        12 2.68551E+00
 -1        13 1.87239E+00
 -1        14 1.53683E+00
 -1        15 2.12121E+00
 -1        16 2.23564E+00
 -1        17 2.23564E+00
 -1        18 2.11167E+00
 -1        19 2.21181E+00
 -1        20 2.60459E+00
 -1        21 3.96998E+00
 -1        22 8.48608E+00
 -1        23 1.17662E+01
 -1        24 1.97903E+00
 -1        25 9.60113E-01
 -1        26 1.34687E+00
 -1        27 1.62681E+00
 -1        28 2.41807E+00
 -1        29 4.56906E+00
 -1        30 5.82597E+00
 -1        31 5.82597E+00
 -1        32 5.78746E+00
 -1        33 4.93352E+00
 -1        34 2.60013E+00
 -1        35 1.90928E+00
 -1        36 1.90928E+00
 -1        37 1.88838E+00
 -1        38 1.88838E+00
 -1        39 1.64873E+00
 -1        40 1.31587E+00
 -1        41 1.04615E+00
 -1        42 8.00879E-01
 -1        43 6.46093E-01
 -1        44 5.26994E-01
 -1        45 4.16744E-01
 -1        46 3.21310E-01
 -1        47 2.42263E-01
 -1        48 1.78827E-01
 -1        49 1.29156E-01
 -1        50 1.02940E-01
 -1        51 8.39060E-02
 -1        52 6.71341E-02
 -1        53 5.27926E-02
 -1        54 4.08203E-02
 -1        55 3.10283E-02
 -1        56 2.31648E-02
 -1        57 1.87459E-02
 -1        58 1.52930E-02
 -1        59 1.22403E-02
 -1        60 9.62125E-03
 -1        61 7.42801E-03
 -1        62 5.79426E-03
 -1        63 4.43938E-03
 -1        64 3.32538E-03
 -1        65 2.42103E-03
 -1        66 2.00478E-03
 -1        67 1.65631E-03
 -1        68 1.33650E-03
 -1        69 1.02629E-03
 -1        70 8.64933E-04
 -1        71 5.76669E-04
 -1        72 1.30444E+01
 -1        73 2.38994E+00
 -1        74 1.24582E+00
 -1        75 1.01385E+00
 -1        76 1.29181E+00
 -1        77 1.64633E+00
 -1        78 2.36845E+00
 -1        79 2.77228E+00
 -1        80 3.02877E+00
 -1        81 3.06553E+00
 -1        82 3.06553E+00
 -1        83 2.44958E+00
 -1        84 1.57136E+00
 -1        85 1.02469E+00
 -1        86 7.13071E-01
 -1        87 7.83822E-01
 -1        88 8.26820E-01
 -1        89 8.26820E-01
 -1        90 7.69485E-01
 -1        91 6.60876E-01
 -1        92 5.53968E-01
 -1        93 4.47904E-01
 -1        94 3.46320E-01
 -1        95 2.57781E-01
 -1        96 2.05814E-01
 -1        97 1.59165E-01
 -1        98 1.19432E-01
 -1        99 8.69277E-02
 -1       100 6.12092E-02
 -1       101 4.33216E-02
 -1       102 3.65613E-02
 -1       103 3.00686E-02
 -1       104 2.41765E-02
 -1       105 1.90410E-02
 -1       106 1.60663E-02
 -1       107 1.39815E-02
 -1       108 1.18249E-02
 -1       109 9.76546E-03
 -1       110 7.89797E-03
 -1       111 6.35277E-03
 -1       112 5.08464E-03
 -1       113 3.98824E-03
 -1       114 3.06001E-03
 -1       115 2.28403E-03
 -1       116 1.64298E-03
 -1       117 1.32745E-03
 -1       118 1.02081E-03
 -1       119 6.83869E-04
 -1       120 4.32415E-04
 -1       121 1.90978E-04
 -1       122 1.90978E-04
 -1       123 1.59244E-04
 -1       124 8.08707E-05
 -1       125 8.43760E-05
 -1       126 1.36706E-04
 -1       127 1.67816E-04
 -1       128 1.76812E-04
 -1       129 1.76812E-04
 -1       130 1.67497E-04
 -1       131 1.34970E-04
 -1       132 8.42441E-05
 -1       133 8.27402E-05
 -1       134 1.59409E-04
 -1       135 2.53748E-04
 -1       136 2.83945E-04
 -1       137 2.65906E+01
 -1       138 4.66596E+01
 -1       139 4.66596E+01
 -1       140 1.94964E+01
 -1       141 1.17894E+01
 -1       142 1.28055E+01
 -1       143 1.28055E+01
 -1       144 1.27114E+01
 -1       145 1.24566E+01
 -1       146 1.22828E+01
 -1       147 2.71662E+01
 -1       148 2.90309E+01
 -1       149 2.90309E+01
 -1       150 2.71199E+01
 -1       151 2.74904E+01
 -1       152 2.74904E+01
 -1       153 4.12578E+01
 -1       154 4.12578E+01
 -1       155 1.60026E+01
 -1       156 1.27103E+01
 -1       157 1.27103E+01
 -1       158 1.28245E+01
 -1       159 1.28245E+01
 -1       160 1.75189E+01
 -1       161 4.57930E+01
 -1       162 4.57930E+01
 -1       163 2.51371E+01
 -1       164 6.78157E+00
 -1       165 3.73343E+00
 -1       166 3.21550E+00
 -1       167 3.12188E+00
 -1       168 3.10114E+00
 -1       169 2.65138E+00
 -1       170 1.77001E+00
 -1       171 2.23258E+00
 -1       172 2.43940E+00
 -1       173 2.43940E+00
 -1       174 2.17650E+00
 -1       175 2.16887E+00
 -1       176 2.39322E+00
 -1       177 2.94858E+00
 -1       178 4.22873E+00
 -1       179 1.30444E+01
 -1       180 3.57996E+00
 -1       181 2.37335E+00
 -1       182 1.16227E+00
 -1       183 1.34687E+00
 -1       184 1.62681E+00
 -1       185 2.75533E+00
 -1       186 4.56906E+00
 -1       187 5.82597E+00
 -1       188 5.78746E+00
 -1       189 4.93352E+00
 -1       190 2.94232E+00
 -1       191 1.85166E+00
 -1       192 1.90928E+00
 -1       193 1.85259E+00
 -1       194 1.88838E+00
 -1       195 1.64873E+00
 -1       196 1.36073E+00
 -1       197 1.16993E+00
 -1       198 9.85404E-01
 -1       199 7.87575E-01
 -1       200 6.04103E-01
 -1       201 4.47517E-01
 -1       202 3.21310E-01
 -1       203 2.49323E-01
 -1       204 1.89861E-01
 -1       205 1.41803E-01
 -1       206 1.03842E-01
 -1       207 8.39060E-02
 -1       208 6.71341E-02
 -1       209 5.27926E-02
 -1       210 4.08203E-02
 -1       211 3.10283E-02
 -1       212 2.41279E-02
 -1       213 1.87459E-02
 -1       214 1.52930E-02
 -1       215 1.22403E-02
 -1       216 9.72065E-03
 -1       217 7.79219E-03
 -1       218 6.17494E-03
 -1       219 4.97724E-03
 -1       220 3.92352E-03
 -1       221 3.01954E-03
 -1       222 2.25907E-03
 -1       223 1.65631E-03
 -1       224 1.33650E-03
 -1       225 1.02629E-03
 -1       226 8.64933E-04
 -1       227 5.76669E-04
 -1       228 2.38994E+00
 -1       229 1.62507E+00
 -1       230 1.04200E+00
 -1       231 1.01385E+00
 -1       232 1.31172E+00
 -1       233 1.80869E+00
 -1       234 2.36845E+00
 -1       235 2.77228E+00
 -1       236 3.02877E+00
 -1       237 3.06553E+00
 -1       238 2.44958E+00
 -1       239 1.57136E+00
 -1       240 1.02469E+00
 -1       241 6.41118E-01
 -1       242 7.13071E-01
 -1       243 7.83822E-01
 -1       244 8.26820E-01
 -1       245 7.69485E-01
 -1       246 6.60876E-01
 -1       247 5.53968E-01
 -1       248 4.57908E-01
 -1       249 3.65490E-01
 -1       250 2.80061E-01
 -1       251 2.06313E-01
 -1       252 1.59165E-01
 -1       253 1.19432E-01
 -1       254 8.77555E-02
 -1       255 6.36777E-02
 -1       256 4.47632E-02
 -1       257 3.65613E-02
 -1       258 3.00686E-02
 -1       259 2.41765E-02
 -1       260 1.90410E-02
 -1       261 1.60663E-02
 -1       262 1.39815E-02
 -1       263 1.18249E-02
 -1       264 9.76546E-03
 -1       265 7.89797E-03
 -1       266 6.35277E-03
 -1       267 5.08464E-03
 -1       268 3.99069E-03
 -1       269 3.11673E-03
 -1       270 2.37219E-03
 -1       271 1.74569E-03
 -1       272 1.32745E-03
 -1       273 1.02081E-03
 -1       274 6.83869E-04
 -1       275 4.32415E-04
 -1       276 2.53873E-04
 -1       277 2.53873E-04
 -1       278 2.44999E-04
 -1       279 1.40931E-04
 -1       280 2.41248E-04
 -1       281 3.06220E-04
 -1       282 3.32784E-04
 -1       283 3.32784E-04
 -1       284 3.32716E-04
 -1       285 3.04650E-04
 -1       286 2.42079E-04
 -1       287 1.43809E-04
 -1       288 2.44921E-04
 -1       289 2.44921E-04
 -1       290 3.27555E-04
 -1       291 3.40032E+01
 -1       292 2.75307E+01
 -1       293 4.66596E+01
 -1       294 2.12778E+01
 -1       295 1.03796E+01
 -1       296 1.17894E+01
 -1       297 1.28055E+01
 -1       298 1.27114E+01
 -1       299 1.24566E+01
 -1       300 1.20284E+01
 -1       301 1.22828E+01
 -1       302 2.86275E+01
 -1       303 3.26956E+01
 -1       304 3.26956E+01
 -1       305 3.43345E+01
 -1       306 3.43345E+01
 -1       307 3.41914E+01
 -1       308 4.12578E+01
 -1       309 1.63829E+01
 -1       310 1.08328E+01
 -1       311 1.27103E+01
 -1       312 1.24197E+01
 -1       313 1.23752E+01
 -1       314 1.28245E+01
 -1       315 1.11351E+01
 -1       316 1.81524E+01
 -1       317 4.57930E+01
 -1       318 3.95820E+01
 -1       319 3.40032E+01
 -1       320 3.68190E+00
 -1       321 3.57996E+00
 -1       322 3.49671E+00
 -1       323 3.49671E+00
 -1       324 2.78149E+00
 -1       325 2.48292E+00
 -1       326 2.86913E+00
 -1       327 2.86913E+00
 -1       328 2.43107E+00
 -1       329 2.02566E+00
 -1       330 1.76372E+00
 -1       331 1.79872E+00
 -1       332 1.89143E+00
 -1       333 1.98687E+00
 -1       334 1.62507E+00
 -1       335 2.31765E+00
 -1       336 1.70837E+00
 -1       337 1.56950E+00
 -1       338 1.77699E+00
 -1       339 2.50679E+00
 -1       340 3.29526E+00
 -1       341 3.90912E+00
 -1       342 3.27805E+00
 -1       343 2.59917E+00
 -1       344 1.86584E+00
 -1       345 1.70382E+00
 -1       346 1.43522E+00
 -1       347 1.52692E+00
 -1       348 1.47282E+00
 -1       349 1.34409E+00
 -1       350 1.22016E+00
 -1       351 1.07532E+00
 -1       352 8.96658E-01
 -1       353 7.17269E-01
 -1       354 5.55185E-01
 -1       355 4.17912E-01
 -1       356 3.06656E-01
 -1       357 2.19369E-01
 -1       358 1.52646E-01
 -1       359 1.03842E-01
 -1       360 7.44344E-02
 -1       361 5.39059E-02
 -1       362 4.12436E-02
 -1       363 3.40445E-02
 -1       364 2.75478E-02
 -1       365 2.18843E-02
 -1       366 1.70796E-02
 -1       367 1.33790E-02
 -1       368 1.11127E-02
 -1       369 9.28068E-03
 -1       370 7.58069E-03
 -1       371 6.17494E-03
 -1       372 5.00295E-03
 -1       373 3.96720E-03
 -1       374 3.17362E-03
 -1       375 2.48633E-03
 -1       376 1.89181E-03
 -1       377 1.39135E-03
 -1       378 9.82751E-04
 -1       379 7.41799E-04
 -1       380 5.03957E-04
 -1       381 1.04200E+00
 -1       382 1.21449E+00
 -1       383 1.57553E+00
 -1       384 1.81372E+00
 -1       385 1.81372E+00
 -1       386 1.79598E+00
 -1       387 1.72822E+00
 -1       388 1.91542E+00
 -1       389 1.70699E+00
 -1       390 1.21844E+00
 -1       391 7.77507E-01
 -1       392 4.92699E-01
 -1       393 4.50331E-01
 -1       394 5.49123E-01
 -1       395 5.93567E-01
 -1       396 5.97824E-01
 -1       397 5.48026E-01
 -1       398 4.89450E-01
 -1       399 4.20504E-01
 -1       400 3.44468E-01
 -1       401 2.70947E-01
 -1       402 2.05333E-01
 -1       403 1.53032E-01
 -1       404 1.17512E-01
 -1       405 8.77555E-02
 -1       406 6.36777E-02
 -1       407 4.47632E-02
 -1       408 3.03003E-02
 -1       409 2.37728E-02
 -1       410 2.03450E-02
 -1       411 1.69640E-02
 -1       412 1.38259E-02
 -1       413 1.10352E-02
 -1       414 9.01477E-03
 -1       415 7.75813E-03
 -1       416 6.49502E-03
 -1       417 5.30979E-03
 -1       418 4.36089E-03
 -1       419 3.55488E-03
 -1       420 2.83126E-03
 -1       421 2.19935E-03
 -1       422 1.65859E-03
 -1       423 1.20186E-03
 -1       424 9.35177E-04
 -1       425 6.76328E-04
 -1       426 4.06886E-04
 -1       427 2.68484E-04
 -1       428 4.94044E-04
 -1       429 4.94044E-04
 -1       430 3.23723E-04
 -1       431 4.19726E-04
 -1       432 4.64462E-04
 -1       433 4.64462E-04
 -1       434 4.63279E-04
 -1       435 4.63279E-04
 -1       436 4.20114E-04
 -1       437 3.23022E-04
 -1       438 2.61739E-04
 -1       439 4.13750E-04
 -1       440 2.75307E+01
 -1       441 3.40032E+01
 -1       442 2.88547E+01
 -1       443 1.61628E+01
 -1       444 9.11169E+00
 -1       445 3.81746E+00
 -1       446 9.12325E+00
 -1       447 1.02415E+01
 -1       448 1.00430E+01
 -1       449 9.03121E+00
 -1       450 6.63027E+00
 -1       451 1.16140E+01
 -1       452 1.97273E+01
 -1       453 3.26956E+01
 -1       454 4.69260E+01
 -1       455 4.69260E+01
 -1       456 2.57064E+01
 -1       457 2.32591E+01
 -1       458 1.45495E+01
 -1       459 8.25441E+00
 -1       460 7.96978E+00
 -1       461 1.05899E+01
 -1       462 1.05970E+01
 -1       463 1.07146E+01
 -1       464 7.86208E+00
 -1       465 8.51528E+00
 -1       466 1.56328E+01
 -1       467 2.83540E+01
 -1       468 2.82889E+01
 -1       469 7.10623E+00
 -1       470 1.90667E+01
 -1       471 1.03048E+00
 -1       472 4.31003E+00
 -1       473 4.29784E+00
 -1       474 3.82686E+00
 -1       475 3.80895E+00
 -1       476 3.17122E+00
 -1       477 2.68450E+00
 -1       478 2.08952E+00
 -1       479 1.47276E+00
 -1       480 8.93471E-01
 -1       481 2.66718E+00
 -1       482 5.30891E+00
 -1       483 2.89441E+00
 -1       484 3.00338E+00
 -1       485 2.24198E+00
 -1       486 3.43303E+00
 -1       487 6.32887E+00
 -1       488 6.36268E+00
 -1       489 3.81595E+00
 -1       490 3.83720E+00
 -1       491 3.10100E+00
 -1       492 2.45868E+00
 -1       493 2.20164E+00
 -1       494 1.85028E+00
 -1       495 1.51424E+00
 -1       496 1.35114E+00
 -1       497 1.16877E+00
 -1       498 9.72073E-01
 -1       499 7.84232E-01
 -1       500 6.17156E-01
 -1       501 4.75363E-01
 -1       502 3.59009E-01
 -1       503 2.65968E-01
 -1       504 1.93138E-01
 -1       505 1.37187E-01
 -1       506 9.49542E-02
 -1       507 6.36340E-02
 -1       508 4.08377E-02
 -1       509 2.71223E-02
 -1       510 1.97874E-02
 -1       511 1.73882E-02
 -1       512 1.48291E-02
 -1       513 1.23366E-02
 -1       514 1.00421E-02
 -1       515 8.05668E-03
 -1       516 6.91701E-03
 -1       517 5.85566E-03
 -1       518 4.83153E-03
 -1       519 3.95987E-03
 -1       520 3.19494E-03
 -1       521 2.51000E-03
 -1       522 1.93575E-03
 -1       523 1.48694E-03
 -1       524 1.10339E-03
 -1       525 7.86432E-04
 -1       526 1.57639E+00
 -1       527 1.81372E+00
 -1       528 1.79676E+00
 -1       529 1.63062E+00
 -1       530 1.71862E+00
 -1       531 1.54316E+00
 -1       532 1.30208E+00
 -1       533 9.49266E-01
 -1       534 6.59500E-01
 -1       535 6.13449E-01
 -1       536 5.41492E-01
 -1       537 5.83097E-01
 -1       538 5.66798E-01
 -1       539 5.29479E-01
 -1       540 4.78429E-01
 -1       541 4.23650E-01
 -1       542 3.57728E-01
 -1       543 2.90219E-01
 -1       544 2.27340E-01
 -1       545 1.72354E-01
 -1       546 1.26472E-01
 -1       547 8.96057E-02
 -1       548 6.09393E-02
 -1       549 4.21003E-02
 -1       550 2.95195E-02
 -1       551 2.37728E-02
 -1       552 2.03450E-02
 -1       553 1.69640E-02
 -1       554 1.38259E-02
 -1       555 1.10352E-02
 -1       556 9.01477E-03
 -1       557 7.75813E-03
 -1       558 6.49502E-03
 -1       559 5.30979E-03
 -1       560 4.35856E-03
 -1       561 3.49909E-03
 -1       562 2.73676E-03
 -1       563 2.16058E-03
 -1       564 1.65507E-03
 -1       565 1.21509E-03
 -1       566 8.97882E-04
 -1       567 6.03172E-04
 -1       568 5.36420E-04
 -1       569 6.04935E-04
 -1       570 5.62550E-04
 -1       571 6.17963E-04
 -1       572 6.05918E-04
 -1       573 6.05918E-04
 -1       574 6.05340E-04
 -1       575 6.05233E-04
 -1       576 5.36445E-04
 -1       577 4.69833E-04
 -1       578 4.69833E-04
 -1       579 2.88547E+01
 -1       580 1.20661E+01
 -1       581 1.30699E+00
 -1       582 2.82889E+01
 -1       583 1.94431E+01
 -1       584 3.81746E+00
 -1       585 2.11719E+01
 -1       586 6.54484E+00
 -1       587 4.31003E+00
 -1       588 7.27400E+00
 -1       589 1.44956E+01
 -1       590 6.60018E+00
 -1       591 4.63263E+00
 -1       592 7.15886E+00
 -1       593 7.87984E+00
 -1       594 9.94504E+00
 -1       595 2.28893E+01
 -1       596 4.69260E+01
 -1       597 2.57064E+01
 -1       598 1.28288E+01
 -1       599 7.44977E+00
 -1       600 4.75717E+00
 -1       601 6.32887E+00
 -1       602 7.94739E+00
 -1       603 6.29037E+00
 -1       604 4.14923E+00
 -1       605 7.51955E+00
 -1       606 1.30750E+01
 -1       607 5.02609E+00
 -1       608 1.47276E+00
 -1       609 9.21216E+00
 -1       610 6.80224E+00
 -1       611 4.47903E+00
 -1       612 8.20958E+00
 -1       613 1.73123E+01
 -1       614 1.42795E+01
 -1       615 1.25535E+01
 -1       616 4.64220E-04
 -1       617 5.14031E+00
 -1       618 6.67195E+00
 -1       619 2.68156E+00
 -1       620 1.66166E+00
 -1       621 1.11058E+00
 -1       622 1.43286E+01
 -1       623 3.66914E+00
 -1       624 3.98296E+00
 -1       625 5.89867E+00
 -1       626 5.27023E+00
 -1       627 5.30689E+00
 -1       628 3.29318E+00
 -1       629 2.56017E+00
 -1       630 2.05498E+00
 -1       631 1.66363E+00
 -1       632 1.31914E+00
 -1       633 1.04296E+00
 -1       634 8.15739E-01
 -1       635 6.32039E-01
 -1       636 4.87960E-01
 -1       637 3.72942E-01
 -1       638 2.81611E-01
 -1       639 2.09688E-01
 -1       640 1.53636E-01
 -1       641 1.10476E-01
 -1       642 7.76849E-02
 -1       643 5.31379E-02
 -1       644 3.50630E-02
 -1       645 2.20018E-02
 -1       646 1.30494E-02
 -1       647 1.00484E-02
 -1       648 9.56015E-03
 -1       649 8.64729E-03
 -1       650 7.53705E-03
 -1       651 6.37772E-03
 -1       652 5.32470E-03
 -1       653 4.59421E-03
 -1       654 3.84702E-03
 -1       655 3.13495E-03
 -1       656 2.48684E-03
 -1       657 1.94203E-03
 -1       658 1.48694E-03
 -1       659 1.10339E-03
 -1       660 7.86432E-04
 -1       661 2.81545E+00
 -1       662 9.90384E-04
 -1       663 1.51865E+00
 -1       664 2.70776E+00
 -1       665 1.72248E+00
 -1       666 1.46517E+00
 -1       667 1.38753E+00
 -1       668 1.14116E+00
 -1       669 1.01212E+00
 -1       670 7.67711E-01
 -1       671 7.47700E-01
 -1       672 6.78284E-01
 -1       673 5.89464E-01
 -1       674 5.19400E-01
 -1       675 4.58382E-01
 -1       676 3.88630E-01
 -1       677 3.18728E-01
 -1       678 2.53935E-01
 -1       679 1.96999E-01
 -1       680 1.48936E-01
 -1       681 1.09661E-01
 -1       682 7.84565E-02
 -1       683 5.42905E-02
 -1       684 3.60341E-02
 -1       685 2.25876E-02
 -1       686 1.48966E-02
 -1       687 1.22585E-02
 -1       688 1.11670E-02
 -1       689 9.79094E-03
 -1       690 8.32683E-03
 -1       691 6.90042E-03
 -1       692 5.77244E-03
 -1       693 4.96246E-03
 -1       694 4.15942E-03
 -1       695 3.39866E-03
 -1       696 2.76027E-03
 -1       697 2.17838E-03
 -1       698 1.66657E-03
 -1       699 1.24362E-03
 -1       700 1.06161E-03
 -1       701 8.90749E+00
 -1       702 7.71380E-04
 -1       703 7.55239E-04
 -1       704 7.70523E-04
 -1       705 7.71380E-04
 -1       706 7.70523E-04
 -1       707 7.51194E-04
 -1       708 6.24188E-04
 -1       709 1.45317E+01
 -1       710 1.02435E+01
 -1       711 5.32868E+00
 -1       712 1.30643E+01
 -1       713 1.37435E+01
 -1       714 1.30897E+00
 -1       715 4.20087E+00
 -1       716 6.96521E+00
 -1       717 5.65273E+00
 -1       718 9.34530E-01
 -1       719 3.69876E+00
 -1       720 8.30807E+00
 -1       721 4.66965E+00
 -1       722 3.28585E+00
 -1       723 4.91762E+00
 -1       724 6.58964E+00
 -1       725 1.10781E+01
 -1       726 8.34132E+00
 -1       727 1.48533E+01
 -1       728 8.78510E+00
 -1       729 5.04063E-04
 -1       730 4.92123E+00
 -1       731 2.97674E+00
 -1       732 3.14948E+00
 -1       733 6.96521E+00
 -1       734 5.40195E+00
 -1       735 1.09181E+01
 -1       736 7.71603E+00
 -1       737 9.90384E-04
 -1       738 1.10870E+01
 -1       739 1.10927E+01
 -1       740 4.26494E+00
 -1       741 8.45724E+00
 -1       742 8.84564E+00
 -1       743 8.45724E+00
 -1       744 4.81418E+00
 -1       745 6.39331E-04
 -1       746 1.83963E+00
 -1       747 7.62708E+00
 -1       748 3.49870E+00
 -1       749 4.91440E+00
 -1       750 6.31092E+00
 -1       751 7.71603E+00
 -1       752 5.59553E+00
 -1       753 3.20305E+00
 -1       754 2.19222E+00
 -1       755 1.59433E+00
 -1       756 1.22379E+00
 -1       757 9.74563E-01
 -1       758 7.60811E-01
 -1       759 5.84289E-01
 -1       760 4.42076E-01
 -1       761 3.29541E-01
 -1       762 2.41799E-01
 -1       763 1.74307E-01
 -1       764 1.23083E-01
 -1       765 8.63070E-02
 -1       766 5.93617E-02
 -1       767 3.95708E-02
 -1       768 2.60328E-02
 -1       769 1.66890E-02
 -1       770 1.00116E-02
 -1       771 5.87137E-03
 -1       772 5.85599E-03
 -1       773 5.92521E-03
 -1       774 5.57968E-03
 -1       775 5.00567E-03
 -1       776 4.32920E-03
 -1       777 3.75183E-03
 -1       778 3.24513E-03
 -1       779 2.71762E-03
 -1       780 2.20863E-03
 -1       781 1.74075E-03
 -1       782 1.32391E-03
 -1       783 9.59595E-04
 -1       784 2.57766E+00
 -1       785 2.21265E+00
 -1       786 2.85589E+00
 -1       787 1.67332E+00
 -1       788 1.58714E+00
 -1       789 1.19575E+00
 -1       790 1.04608E+00
 -1       791 8.72587E-01
 -1       792 7.06420E-01
 -1       793 6.06935E-01
 -1       794 5.12690E-01
 -1       795 4.23189E-01
 -1       796 3.39675E-01
 -1       797 2.67056E-01
 -1       798 2.07139E-01
 -1       799 1.57786E-01
 -1       800 1.17925E-01
 -1       801 8.63162E-02
 -1       802 6.16969E-02
 -1       803 4.28673E-02
 -1       804 2.87383E-02
 -1       805 1.83541E-02
 -1       806 1.08991E-02
 -1       807 6.88614E-03
 -1       808 6.95756E-03
 -1       809 6.74739E-03
 -1       810 6.18405E-03
 -1       811 5.43998E-03
 -1       812 4.63168E-03
 -1       813 4.03039E-03
 -1       814 3.45245E-03
 -1       815 2.86701E-03
 -1       816 2.31198E-03
 -1       817 1.80883E-03
 -1       818 1.37163E-03
 -1       819 9.48336E-04
 -1       820 9.04333E-04
 -1       821 2.85251E+00
 -1       822 8.84564E+00
 -1       823 2.13463E+00
 -1       824 7.77845E+00
 -1       825 5.28502E+00
 -1       826 9.48336E-04
 -1       827 8.92956E-04
 -1       828 1.46517E+00
 -1       829 9.65343E+00
 -1       830 2.68810E+00
 -1       831 8.90088E+00
 -1       832 1.09181E+01
 -1       833 3.30070E+00
 -1       834 6.31092E+00
 -1       835 4.20087E+00
 -1       836 1.11058E+00
 -1       837 9.22131E+00
 -1       838 1.18735E-03
 -1       839 9.91744E-04
 -1       840 9.43536E-04
 -1       841 9.43536E-04
 -1       842 9.48076E+00
 -1       843 7.66200E+00
 -1       844 1.63887E+00
 -1       845 9.91744E-04
 -1       846 8.40567E-04
 -1       847 4.38281E+00
 -1       848 5.79937E+00
 -1       849 3.04538E+00
 -1       850 2.11817E+00
 -1       851 1.59433E+00
 -1       852 1.20041E+00
 -1       853 9.07941E-01
 -1       854 6.88822E-01
 -1       855 5.21920E-01
 -1       856 3.93516E-01
 -1       857 2.94285E-01
 -1       858 2.17635E-01
 -1       859 1.58692E-01
 -1       860 1.13714E-01
 -1       861 7.97467E-02
 -1       862 5.49772E-02
 -1       863 3.73473E-02
 -1       864 2.44118E-02
 -1       865 1.51005E-02
 -1       866 8.65879E-03
 -1       867 4.27784E-03
 -1       868 3.44937E-03
 -1       869 4.03408E-03
 -1       870 4.12069E-03
 -1       871 3.90104E-03
 -1       872 3.50962E-03
 -1       873 3.03798E-03
 -1       874 2.67804E-03
 -1       875 2.28126E-03
 -1       876 1.87981E-03
 -1       877 1.49827E-03
 -1       878 2.29806E+00
 -1       879 3.08652E+00
 -1       880 1.17711E+00
 -1       881 9.30455E-01
 -1       882 7.53473E-01
 -1       883 5.93378E-01
 -1       884 4.67715E-01
 -1       885 3.75008E-01
 -1       886 3.04745E-01
 -1       887 2.43238E-01
 -1       888 1.88948E-01
 -1       889 1.43005E-01
 -1       890 1.05390E-01
 -1       891 7.54495E-02
 -1       892 5.28874E-02
 -1       893 3.62062E-02
 -1       894 2.37123E-02
 -1       895 1.45833E-02
 -1       896 8.22918E-03
 -1       897 4.05434E-03
 -1       898 4.16241E-03
 -1       899 4.61072E-03
 -1       900 4.58226E-03
 -1       901 4.26462E-03
 -1       902 3.79021E-03
 -1       903 3.29227E-03
 -1       904 2.89212E-03
 -1       905 2.45166E-03
 -1       906 2.01238E-03
 -1       907 1.60506E-03
 -1       908 1.19055E-03
 -1       909 4.29381E+00
 -1       910 2.21612E+00
 -1       911 1.13235E-03
 -1       912 2.40561E+00
 -1       913 1.71888E+00
 -1       914 2.21265E+00
 -1       915 4.29381E+00
 -1       916 1.19055E-03
 -1       917 2.23479E+00
 -1       918 6.04149E+00
 -1       919 6.99420E+00
 -1       920 1.12901E-03
 -1       921 1.29719E-03
 -1       922 1.21207E-03
 -1       923 5.98052E+00
 -1       924 1.06700E-03
 -1       925 7.25704E-01
 -1       926 2.84795E+00
 -1       927 1.96556E+00
 -1       928 1.36114E+00
 -1       929 9.81292E-01
 -1       930 7.28054E-01
 -1       931 5.48366E-01
 -1       932 4.15673E-01
 -1       933 3.14894E-01
 -1       934 2.37144E-01
 -1       935 1.76815E-01
 -1       936 1.30070E-01
 -1       937 9.40789E-02
 -1       938 6.66404E-02
 -1       939 4.59861E-02
 -1       940 3.13495E-02
 -1       941 2.08483E-02
 -1       942 1.32053E-02
 -1       943 7.76490E-03
 -1       944 4.22738E-03
 -1       945 2.29594E-03
 -1       946 2.78648E-03
 -1       947 3.06072E-03
 -1       948 3.02346E-03
 -1       949 2.79970E-03
 -1       950 2.47630E-03
 -1       951 2.14472E-03
 -1       952 1.84130E-03
 -1       953 1.52497E-03
 -1       954 9.70776E-01
 -1       955 1.40443E+00
 -1       956 5.67367E-01
 -1       957 4.64228E-01
 -1       958 3.75008E-01
 -1       959 2.97019E-01
 -1       960 2.30929E-01
 -1       961 1.76242E-01
 -1       962 1.31910E-01
 -1       963 9.66464E-02
 -1       964 6.91113E-02
 -1       965 4.80104E-02
 -1       966 3.27691E-02
 -1       967 2.17699E-02
 -1       968 1.37229E-02
 -1       969 7.97624E-03
 -1       970 4.38780E-03
 -1       971 2.46739E-03
 -1       972 3.19434E-03
 -1       973 3.42495E-03
 -1       974 3.33885E-03
 -1       975 3.06506E-03
 -1       976 2.69346E-03
 -1       977 2.36524E-03
 -1       978 2.02622E-03
 -1       979 1.67903E-03
 -1       980 1.21207E-03
 -1       981 3.12860E+00
 -1       982 5.98052E+00
 -1       983 1.40719E-03
 -1       984 1.30316E-03
 -1       985 5.98052E+00
 -1       986 1.19296E-03
 -1       987 1.72216E+00
 -1       988 5.00745E+00
 -1       989 1.21948E-03
 -1       990 1.32482E+00
 -1       991 9.44843E-01
 -1       992 6.89106E-01
 -1       993 5.13059E-01
 -1       994 3.86363E-01
 -1       995 2.92027E-01
 -1       996 2.23708E-01
 -1       997 1.70726E-01
 -1       998 1.28674E-01
 -1       999 9.54794E-02
 -1      1000 6.95376E-02
 -1      1001 4.95249E-02
 -1      1002 3.43244E-02
 -1      1003 2.38542E-02
 -1      1004 1.65159E-02
 -1      1005 1.10609E-02
 -1      1006 7.07713E-03
 -1      1007 4.22738E-03
 -1      1008 2.23897E-03
 -1      1009 1.97697E-03
 -1      1010 2.27856E-03
 -1      1011 2.30994E-03
 -1      1012 2.17551E-03
 -1      1013 1.94836E-03
 -1      1014 1.67719E-03
 -1      1015 1.52597E-03
 -1      1016 9.13292E-01
 -1      1017 3.84494E+00
 -1      1018 7.25704E-01
 -1      1019 1.30591E+00
 -1      1020 4.41634E-01
 -1      1021 3.41357E-01
 -1      1022 2.61631E-01
 -1      1023 1.98466E-01
 -1      1024 1.48683E-01
 -1      1025 1.09740E-01
 -1      1026 7.95704E-02
 -1      1027 5.64696E-02
 -1      1028 3.90225E-02
 -1      1029 2.63070E-02
 -1      1030 1.75496E-02
 -1      1031 1.13464E-02
 -1      1032 7.30674E-03
 -1      1033 4.39634E-03
 -1      1034 2.41591E-03
 -1      1035 2.28791E-03
 -1      1036 2.58825E-03
 -1      1037 2.59928E-03
 -1      1038 2.43366E-03
 -1      1039 2.16997E-03
 -1      1040 1.86322E-03
 -1      1041 1.60344E-03
 -1      1042 1.37997E-03
 -1      1043 1.15754E-03
 -1      1044 5.67367E-01
 -1      1045 5.18758E+00
 -1      1046 2.01801E+00
 -1      1047 2.33824E+00
 -1      1048 1.63225E-03
 -1      1049 1.35038E-03
 -1      1050 1.00883E+00
 -1      1051 7.02905E-01
 -1      1052 5.16804E-01
 -1      1053 3.83102E-01
 -1      1054 2.84890E-01
 -1      1055 2.11571E-01
 -1      1056 1.56278E-01
 -1      1057 1.15901E-01
 -1      1058 8.58668E-02
 -1      1059 6.25654E-02
 -1      1060 4.46841E-02
 -1      1061 3.11396E-02
 -1      1062 2.16344E-02
 -1      1063 1.47792E-02
 -1      1064 9.71273E-03
 -1      1065 6.04138E-03
 -1      1066 3.44164E-03
 -1      1067 1.65153E-03
 -1      1068 1.51293E-03
 -1      1069 1.87882E-03
 -1      1070 1.97471E-03
 -1      1071 1.86608E-03
 -1      1072 1.55903E-03
 -1      1073 1.63225E-03
 -1      1074 2.01787E+00
 -1      1075 1.36228E+00
 -1      1076 1.28657E-03
 -1      1077 2.01787E+00
 -1      1078 3.83102E-01
 -1      1079 5.16804E-01
 -1      1080 2.11571E-01
 -1      1081 1.56278E-01
 -1      1082 1.14387E-01
 -1      1083 8.26576E-02
 -1      1084 5.87262E-02
 -1      1085 4.09259E-02
 -1      1086 2.84582E-02
 -1      1087 1.92085E-02
 -1      1088 1.24474E-02
 -1      1089 7.59532E-03
 -1      1090 4.39634E-03
 -1      1091 2.35355E-03
 -1      1092 1.70588E-03
 -1      1093 1.96150E-03
 -1      1094 1.98739E-03
 -1      1095 1.97471E-03
 -1      1096 1.86608E-03
 -1      1097 2.84890E-01
 -1      1098 7.02905E-01
 -1      1099 3.09239E+00
 -1      1100 3.41820E+00
 -1      1101 1.57343E+00
 -1      1102 9.69055E-01
 -1      1103 1.54187E-03
 -1      1104 1.42026E+00
 -1      1105 1.63225E-03
 -1      1106 2.01787E+00
 -1      1107 1.17662E+01
 -1      1108 8.17723E+00
 -1      1109 4.05058E+00
 -1      1110 3.36419E+00
 -1      1111 3.14361E+00
 -1      1112 2.87862E+00
 -1      1113 2.27895E+00
 -1      1114 1.70461E+00
 -1      1115 1.82902E+00
 -1      1116 2.17842E+00
 -1      1117 2.23564E+00
 -1      1118 2.17365E+00
 -1      1119 2.16174E+00
 -1      1120 2.40820E+00
 -1      1121 3.28729E+00
 -1      1122 6.22803E+00
 -1      1123 1.07652E+01
 -1      1124 1.17662E+01
 -1      1125 6.87261E+00
 -1      1126 1.46957E+00
 -1      1127 1.15349E+00
 -1      1128 1.48684E+00
 -1      1129 2.02244E+00
 -1      1130 3.49356E+00
 -1      1131 5.19752E+00
 -1      1132 5.82597E+00
 -1      1133 5.80671E+00
 -1      1134 5.36049E+00
 -1      1135 3.76682E+00
 -1      1136 2.25470E+00
 -1      1137 1.90928E+00
 -1      1138 1.89883E+00
 -1      1139 1.88838E+00
 -1      1140 1.76856E+00
 -1      1141 1.48230E+00
 -1      1142 1.18101E+00
 -1      1143 9.23516E-01
 -1      1144 7.23486E-01
 -1      1145 5.86543E-01
 -1      1146 4.71869E-01
 -1      1147 3.69027E-01
 -1      1148 2.81787E-01
 -1      1149 2.10545E-01
 -1      1150 1.53992E-01
 -1      1151 1.16048E-01
 -1      1152 9.34229E-02
 -1      1153 7.55201E-02
 -1      1154 5.99633E-02
 -1      1155 4.68064E-02
 -1      1156 3.59243E-02
 -1      1157 2.70966E-02
 -1      1158 2.09554E-02
 -1      1159 1.70194E-02
 -1      1160 1.37667E-02
 -1      1161 1.09308E-02
 -1      1162 8.52463E-03
 -1      1163 6.61114E-03
 -1      1164 5.11682E-03
 -1      1165 3.88238E-03
 -1      1166 2.87321E-03
 -1      1167 2.21291E-03
 -1      1168 1.83054E-03
 -1      1169 1.49640E-03
 -1      1170 1.18139E-03
 -1      1171 9.45612E-04
 -1      1172 7.20801E-04
 -1      1173 3.57350E-04
 -1      1174 1.30444E+01
 -1      1175 7.71715E+00
 -1      1176 1.81788E+00
 -1      1177 1.12983E+00
 -1      1178 1.15283E+00
 -1      1179 1.46907E+00
 -1      1180 2.00739E+00
 -1      1181 2.57036E+00
 -1      1182 2.90053E+00
 -1      1183 3.04715E+00
 -1      1184 3.06553E+00
 -1      1185 2.75756E+00
 -1      1186 2.01047E+00
 -1      1187 1.29803E+00
 -1      1188 8.68880E-01
 -1      1189 7.48447E-01
 -1      1190 8.05321E-01
 -1      1191 8.26820E-01
 -1      1192 7.98153E-01
 -1      1193 7.15180E-01
 -1      1194 6.07422E-01
 -1      1195 5.00936E-01
 -1      1196 3.97112E-01
 -1      1197 3.02050E-01
 -1      1198 2.31797E-01
 -1      1199 1.82489E-01
 -1      1200 1.39298E-01
 -1      1201 1.03180E-01
 -1      1202 7.40684E-02
 -1      1203 5.22654E-02
 -1      1204 3.99414E-02
 -1      1205 3.33149E-02
 -1      1206 2.71225E-02
 -1      1207 2.16087E-02
 -1      1208 1.75536E-02
 -1      1209 1.50239E-02
 -1      1210 1.29032E-02
 -1      1211 1.07952E-02
 -1      1212 8.83172E-03
 -1      1213 7.12537E-03
 -1      1214 5.71871E-03
 -1      1215 4.53644E-03
 -1      1216 3.52413E-03
 -1      1217 2.67202E-03
 -1      1218 1.96350E-03
 -1      1219 1.48521E-03
 -1      1220 1.17413E-03
 -1      1221 8.52339E-04
 -1      1222 5.58142E-04
 -1      1223 2.76268E-04
 -1      1224 1.55550E-04
 -1      1225 1.90978E-04
 -1      1226 1.75111E-04
 -1      1227 1.20058E-04
 -1      1228 8.26233E-05
 -1      1229 1.10541E-04
 -1      1230 1.52261E-04
 -1      1231 1.72314E-04
 -1      1232 1.76812E-04
 -1      1233 1.72154E-04
 -1      1234 1.51233E-04
 -1      1235 1.09607E-04
 -1      1236 8.34922E-05
 -1      1237 1.21074E-04
 -1      1238 2.06578E-04
 -1      1239 2.68846E-04
 -1      1240 2.10988E-04
 -1      1241 2.65906E+01
 -1      1242 3.66251E+01
 -1      1243 4.66596E+01
 -1      1244 3.30780E+01
 -1      1245 1.56429E+01
 -1      1246 1.22974E+01
 -1      1247 1.28055E+01
 -1      1248 1.27584E+01
 -1      1249 1.25840E+01
 -1      1250 1.23697E+01
 -1      1251 1.97245E+01
 -1      1252 2.80986E+01
 -1      1253 2.90309E+01
 -1      1254 2.80754E+01
 -1      1255 2.73052E+01
 -1      1256 2.74904E+01
 -1      1257 3.43741E+01
 -1      1258 4.12578E+01
 -1      1259 2.86302E+01
 -1      1260 1.43565E+01
 -1      1261 1.27103E+01
 -1      1262 1.25650E+01
 -1      1263 1.26221E+01
 -1      1264 1.28245E+01
 -1      1265 1.51717E+01
 -1      1266 3.16559E+01
 -1      1267 4.57930E+01
 -1      1268 3.54650E+01
 -1      1269 2.58639E+01
 -1      1270 1.17662E+01
 -1      1271 5.68492E+00
 -1      1272 9.27387E+00
 -1      1273 3.62316E+00
 -1      1274 4.16086E+00
 -1      1275 5.25750E+00
 -1      1276 3.21550E+00
 -1      1277 3.36419E+00
 -1      1278 3.47447E+00
 -1      1279 3.09680E+00
 -1      1280 3.16869E+00
 -1      1281 3.16869E+00
 -1      1282 2.89333E+00
 -1      1283 3.08643E+00
 -1      1284 3.11151E+00
 -1      1285 2.26189E+00
 -1      1286 2.66845E+00
 -1      1287 2.87626E+00
 -1      1288 1.65342E+00
 -1      1289 1.82120E+00
 -1      1290 2.21070E+00
 -1      1291 2.17689E+00
 -1      1292 1.88471E+00
 -1      1293 2.00130E+00
 -1      1294 2.33752E+00
 -1      1295 2.28030E+00
 -1      1296 2.33599E+00
 -1      1297 2.33752E+00
 -1      1298 2.33752E+00
 -1      1299 2.43940E+00
 -1      1300 2.14408E+00
 -1      1301 2.20607E+00
 -1      1302 2.30795E+00
 -1      1303 2.19034E+00
 -1      1304 2.14027E+00
 -1      1305 2.17268E+00
 -1      1306 2.49891E+00
 -1      1307 2.30252E+00
 -1      1308 2.28105E+00
 -1      1309 3.45928E+00
 -1      1310 2.77659E+00
 -1      1311 2.67090E+00
 -1      1312 6.35740E+00
 -1      1313 4.09935E+00
 -1      1314 3.58866E+00
 -1      1315 1.30444E+01
 -1      1316 1.07652E+01
 -1      1317 8.63654E+00
 -1      1318 1.30444E+01
 -1      1319 7.67307E+00
 -1      1320 2.77950E+00
 -1      1321 2.17619E+00
 -1      1322 1.66673E+00
 -1      1323 2.97666E+00
 -1      1324 1.06119E+00
 -1      1325 1.25457E+00
 -1      1326 1.76781E+00
 -1      1327 1.34687E+00
 -1      1328 1.48684E+00
 -1      1329 1.25457E+00
 -1      1330 1.62681E+00
 -1      1331 2.02244E+00
 -1      1332 1.48684E+00
 -1      1333 2.58670E+00
 -1      1334 3.66219E+00
 -1      1335 2.19107E+00
 -1      1336 4.56906E+00
 -1      1337 5.19752E+00
 -1      1338 3.66219E+00
 -1      1339 5.82597E+00
 -1      1340 5.82597E+00
 -1      1341 5.19752E+00
 -1      1342 5.80671E+00
 -1      1343 5.78746E+00
 -1      1344 5.80671E+00
 -1      1345 5.36049E+00
 -1      1346 4.93352E+00
 -1      1347 5.36049E+00
 -1      1348 3.93792E+00
 -1      1349 2.77123E+00
 -1      1350 3.93792E+00
 -1      1351 2.22589E+00
 -1      1352 1.88047E+00
 -1      1353 2.39699E+00
 -1      1354 1.90928E+00
 -1      1355 1.90928E+00
 -1      1356 1.88047E+00
 -1      1357 1.88093E+00
 -1      1358 1.87049E+00
 -1      1359 1.88093E+00
 -1      1360 1.88838E+00
 -1      1361 1.88838E+00
 -1      1362 1.87049E+00
 -1      1363 1.76856E+00
 -1      1364 1.64873E+00
 -1      1365 1.76856E+00
 -1      1366 1.50473E+00
 -1      1367 1.33830E+00
 -1      1368 1.50473E+00
 -1      1369 1.24290E+00
 -1      1370 1.10804E+00
 -1      1371 1.26533E+00
 -1      1372 1.01578E+00
 -1      1373 8.93142E-01
 -1      1374 1.07767E+00
 -1      1375 7.94227E-01
 -1      1376 7.16834E-01
 -1      1377 8.86490E-01
 -1      1378 6.25098E-01
 -1      1379 5.65549E-01
 -1      1380 6.95839E-01
 -1      1381 4.87255E-01
 -1      1382 4.32130E-01
 -1      1383 5.25810E-01
 -1      1384 3.69027E-01
 -1      1385 3.21310E-01
 -1      1386 3.84414E-01
 -1      1387 2.85317E-01
 -1      1388 2.45793E-01
 -1      1389 2.85317E-01
 -1      1390 2.16062E-01
 -1      1391 1.84344E-01
 -1      1392 2.19592E-01
 -1      1393 1.60315E-01
 -1      1394 1.35479E-01
 -1      1395 1.65832E-01
 -1      1396 1.16499E-01
 -1      1397 1.03391E-01
 -1      1398 1.22823E-01
 -1      1399 9.34229E-02
 -1      1400 8.39060E-02
 -1      1401 9.38741E-02
 -1      1402 7.55201E-02
 -1      1403 6.71341E-02
 -1      1404 7.55201E-02
 -1      1405 5.99633E-02
 -1      1406 5.27926E-02
 -1      1407 5.99633E-02
 -1      1408 4.68064E-02
 -1      1409 4.08203E-02
 -1      1410 4.68064E-02
 -1      1411 3.59243E-02
 -1      1412 3.10283E-02
 -1      1413 3.59243E-02
 -1      1414 2.75781E-02
 -1      1415 2.36464E-02
 -1      1416 2.75781E-02
 -1      1417 2.09554E-02
 -1      1418 1.87459E-02
 -1      1419 2.14369E-02
 -1      1420 1.70194E-02
 -1      1421 1.52930E-02
 -1      1422 1.70194E-02
 -1      1423 1.37667E-02
 -1      1424 1.22403E-02
 -1      1425 1.37667E-02
 -1      1426 1.09805E-02
 -1      1427 9.67095E-03
 -1      1428 1.09805E-02
 -1      1429 8.70672E-03
 -1      1430 7.61010E-03
 -1      1431 8.75642E-03
 -1      1432 6.80148E-03
 -1      1433 5.98460E-03
 -1      1434 6.98357E-03
 -1      1435 5.38575E-03
 -1      1436 4.70831E-03
 -1      1437 5.57609E-03
 -1      1438 4.18145E-03
 -1      1439 3.62445E-03
 -1      1440 4.45038E-03
 -1      1441 3.17246E-03
 -1      1442 2.72028E-03
 -1      1443 3.47153E-03
 -1      1444 2.34005E-03
 -1      1445 2.13193E-03
 -1      1446 2.63930E-03
 -1      1447 1.83054E-03
 -1      1448 1.65631E-03
 -1      1449 1.95769E-03
 -1      1450 1.49640E-03
 -1      1451 1.33650E-03
 -1      1452 1.49640E-03
 -1      1453 1.18139E-03
 -1      1454 1.02629E-03
 -1      1455 1.18139E-03
 -1      1456 9.45612E-04
 -1      1457 8.64933E-04
 -1      1458 9.45612E-04
 -1      1459 7.20801E-04
 -1      1460 5.76669E-04
 -1      1461 7.20801E-04
 -1      1462 4.30307E-04
 -1      1463 4.30307E-04
 -1      1464 2.38994E+00
 -1      1465 7.71715E+00
 -1      1466 7.71715E+00
 -1      1467 1.43544E+00
 -1      1468 2.00750E+00
 -1      1469 2.00750E+00
 -1      1470 1.02793E+00
 -1      1471 1.14391E+00
 -1      1472 1.33353E+00
 -1      1473 1.15283E+00
 -1      1474 1.01385E+00
 -1      1475 1.02793E+00
 -1      1476 1.47902E+00
 -1      1477 1.30176E+00
 -1      1478 1.16278E+00
 -1      1479 2.08857E+00
 -1      1480 1.72751E+00
 -1      1481 1.56021E+00
 -1      1482 2.57036E+00
 -1      1483 2.36845E+00
 -1      1484 2.08857E+00
 -1      1485 2.90053E+00
 -1      1486 2.77228E+00
 -1      1487 2.57036E+00
 -1      1488 3.04715E+00
 -1      1489 3.02877E+00
 -1      1490 2.90053E+00
 -1      1491 3.06553E+00
 -1      1492 3.06553E+00
 -1      1493 3.04715E+00
 -1      1494 2.44958E+00
 -1      1495 2.75756E+00
 -1      1496 2.75756E+00
 -1      1497 1.57136E+00
 -1      1498 2.01047E+00
 -1      1499 2.01047E+00
 -1      1500 1.02469E+00
 -1      1501 1.29803E+00
 -1      1502 1.29803E+00
 -1      1503 6.77095E-01
 -1      1504 8.32904E-01
 -1      1505 8.32904E-01
 -1      1506 7.48447E-01
 -1      1507 7.13071E-01
 -1      1508 6.77095E-01
 -1      1509 8.05321E-01
 -1      1510 7.83822E-01
 -1      1511 7.48447E-01
 -1      1512 8.26820E-01
 -1      1513 8.26820E-01
 -1      1514 8.05321E-01
 -1      1515 7.69485E-01
 -1      1516 7.98153E-01
 -1      1517 7.98153E-01
 -1      1518 6.60876E-01
 -1      1519 7.15180E-01
 -1      1520 7.15180E-01
 -1      1521 5.53968E-01
 -1      1522 6.07422E-01
 -1      1523 6.07422E-01
 -1      1524 4.52906E-01
 -1      1525 5.05938E-01
 -1      1526 5.05938E-01
 -1      1527 3.55905E-01
 -1      1528 4.06697E-01
 -1      1529 4.11699E-01
 -1      1530 2.68921E-01
 -1      1531 3.13191E-01
 -1      1532 3.22775E-01
 -1      1533 2.06063E-01
 -1      1534 2.32047E-01
 -1      1535 2.43187E-01
 -1      1536 1.59165E-01
 -1      1537 1.82489E-01
 -1      1538 1.82739E-01
 -1      1539 1.19432E-01
 -1      1540 1.39298E-01
 -1      1541 1.39298E-01
 -1      1542 8.73416E-02
 -1      1543 1.03594E-01
 -1      1544 1.03594E-01
 -1      1545 6.24434E-02
 -1      1546 7.53027E-02
 -1      1547 7.57166E-02
 -1      1548 4.40424E-02
 -1      1549 5.29862E-02
 -1      1550 5.42204E-02
 -1      1551 3.65613E-02
 -1      1552 3.99414E-02
 -1      1553 4.06622E-02
 -1      1554 3.00686E-02
 -1      1555 3.33149E-02
 -1      1556 3.33149E-02
 -1      1557 2.41765E-02
 -1      1558 2.71225E-02
 -1      1559 2.71225E-02
 -1      1560 1.90410E-02
 -1      1561 2.16087E-02
 -1      1562 2.16087E-02
 -1      1563 1.60663E-02
 -1      1564 1.75536E-02
 -1      1565 1.75536E-02
 -1      1566 1.39815E-02
 -1      1567 1.50239E-02
 -1      1568 1.50239E-02
 -1      1569 1.18249E-02
 -1      1570 1.29032E-02
 -1      1571 1.29032E-02
 -1      1572 9.76546E-03
 -1      1573 1.07952E-02
 -1      1574 1.07952E-02
 -1      1575 7.89797E-03
 -1      1576 8.83172E-03
 -1      1577 8.83172E-03
 -1      1578 6.35277E-03
 -1      1579 7.12537E-03
 -1      1580 7.12537E-03
 -1      1581 5.08464E-03
 -1      1582 5.71871E-03
 -1      1583 5.71871E-03
 -1      1584 3.98947E-03
 -1      1585 4.53766E-03
 -1      1586 4.53766E-03
 -1      1587 3.08837E-03
 -1      1588 3.55249E-03
 -1      1589 3.55371E-03
 -1      1590 2.32811E-03
 -1      1591 2.71610E-03
 -1      1592 2.74446E-03
 -1      1593 1.69433E-03
 -1      1594 2.01486E-03
 -1      1595 2.05894E-03
 -1      1596 1.32745E-03
 -1      1597 1.48521E-03
 -1      1598 1.53657E-03
 -1      1599 1.02081E-03
 -1      1600 1.17413E-03
 -1      1601 1.17413E-03
 -1      1602 6.83869E-04
 -1      1603 8.52339E-04
 -1      1604 8.52339E-04
 -1      1605 4.32415E-04
 -1      1606 5.58142E-04
 -1      1607 5.58142E-04
 -1      1608 3.11696E-04
 -1      1609 2.22426E-04
 -1      1610 2.22426E-04
 -1      1611 2.06559E-04
 -1      1612 2.22426E-04
 -1      1613 2.53873E-04
 -1      1614 1.62935E-04
 -1      1615 2.02122E-04
 -1      1616 2.49436E-04
 -1      1617 1.12654E-04
 -1      1618 1.10901E-04
 -1      1619 1.92965E-04
 -1      1620 1.88977E-04
 -1      1621 1.62812E-04
 -1      1622 1.91090E-04
 -1      1623 2.37018E-04
 -1      1624 2.21463E-04
 -1      1625 2.73734E-04
 -1      1626 2.54798E-04
 -1      1627 2.50300E-04
 -1      1628 3.19502E-04
 -1      1629 2.54798E-04
 -1      1630 2.54798E-04
 -1      1631 3.32784E-04
 -1      1632 2.50106E-04
 -1      1633 2.54764E-04
 -1      1634 3.32750E-04
 -1      1635 2.19810E-04
 -1      1636 2.36073E-04
 -1      1637 3.18683E-04
 -1      1638 1.63161E-04
 -1      1639 1.88524E-04
 -1      1640 2.73364E-04
 -1      1641 1.13275E-04
 -1      1642 1.14027E-04
 -1      1643 1.92944E-04
 -1      1644 2.02165E-04
 -1      1645 1.63831E-04
 -1      1646 1.94365E-04
 -1      1647 2.49334E-04
 -1      1648 2.02165E-04
 -1      1649 2.44921E-04
 -1      1650 3.05750E-04
 -1      1651 2.90651E-04
 -1      1652 2.86238E-04
 -1      1653 4.52112E-04
 -1      1654 3.02969E+01
 -1      1655 3.02969E+01
 -1      1656 3.70952E+01
 -1      1657 2.70607E+01
 -1      1658 4.66596E+01
 -1      1659 4.66596E+01
 -1      1660 2.03871E+01
 -1      1661 3.39687E+01
 -1      1662 1.10845E+01
 -1      1663 1.49380E+01
 -1      1664 1.22974E+01
 -1      1665 1.17894E+01
 -1      1666 1.28055E+01
 -1      1667 1.28055E+01
 -1      1668 1.27114E+01
 -1      1669 1.27584E+01
 -1      1670 1.24566E+01
 -1      1671 1.25840E+01
 -1      1672 1.21556E+01
 -1      1673 1.22425E+01
 -1      1674 1.97245E+01
 -1      1675 1.22828E+01
 -1      1676 2.88292E+01
 -1      1677 2.78969E+01
 -1      1678 3.08632E+01
 -1      1679 3.08632E+01
 -1      1680 2.99077E+01
 -1      1681 3.08632E+01
 -1      1682 3.09125E+01
 -1      1683 3.07272E+01
 -1      1684 3.09125E+01
 -1      1685 3.09125E+01
 -1      1686 3.77246E+01
 -1      1687 3.08409E+01
 -1      1688 4.12578E+01
 -1      1689 4.12578E+01
 -1      1690 1.61927E+01
 -1      1691 2.88203E+01
 -1      1692 1.17716E+01
 -1      1693 1.34177E+01
 -1      1694 1.27103E+01
 -1      1695 1.27103E+01
 -1      1696 1.24197E+01
 -1      1697 1.25650E+01
 -1      1698 1.25999E+01
 -1      1699 1.23975E+01
 -1      1700 1.28245E+01
 -1      1701 1.28245E+01
 -1      1702 1.43270E+01
 -1      1703 1.19798E+01
 -1      1704 3.19727E+01
 -1      1705 1.78356E+01
 -1      1706 4.57930E+01
 -1      1707 4.57930E+01
 -1      1708 3.23595E+01
 -1      1709 4.26875E+01
 -1      1710 3.02969E+01
 -1      1711 2.95702E+01
 -1      1712 1.58287E+01
 -1      1713 3.39687E+01
 -1      1714 3.11696E-04
 -1      1715 3.43144E-04
 -1      1716 3.07670E+01
 -1      1717 3.70952E+01
 -1      1718 3.40032E+01
 -1      1719 1.10845E+01
 -1      1720 1.22974E+01
 -1      1721 1.27584E+01
 -1      1722 1.25840E+01
 -1      1723 1.22425E+01
 -1      1724 1.21556E+01
 -1      1725 2.04552E+01
 -1      1726 3.06615E+01
 -1      1727 3.26956E+01
 -1      1728 3.35150E+01
 -1      1729 3.43345E+01
 -1      1730 3.42630E+01
 -1      1731 3.77246E+01
 -1      1732 2.88203E+01
 -1      1733 1.36079E+01
 -1      1734 1.17716E+01
 -1      1735 1.25650E+01
 -1      1736 1.23975E+01
 -1      1737 1.25999E+01
 -1      1738 1.19798E+01
 -1      1739 1.46437E+01
 -1      1740 3.19727E+01
 -1      1741 4.26875E+01
 -1      1742 3.67926E+01
 -1      1743 9.27387E+00
 -1      1744 3.44870E+00
 -1      1745 3.70767E+00
 -1      1746 3.65670E+00
 -1      1747 5.18076E+00
 -1      1748 3.63093E+00
 -1      1749 3.29892E+00
 -1      1750 3.30929E+00
 -1      1751 3.07404E+00
 -1      1752 3.29892E+00
 -1      1753 3.49671E+00
 -1      1754 2.27575E+00
 -1      1755 2.71644E+00
 -1      1756 3.13910E+00
 -1      1757 2.35775E+00
 -1      1758 2.12646E+00
 -1      1759 2.63220E+00
 -1      1760 2.65426E+00
 -1      1761 2.55085E+00
 -1      1762 2.67602E+00
 -1      1763 2.65426E+00
 -1      1764 2.65426E+00
 -1      1765 2.86913E+00
 -1      1766 2.30378E+00
 -1      1767 2.43523E+00
 -1      1768 2.65010E+00
 -1      1769 2.09726E+00
 -1      1770 2.10108E+00
 -1      1771 2.22836E+00
 -1      1772 2.07847E+00
 -1      1773 1.96629E+00
 -1      1774 1.89469E+00
 -1      1775 2.37365E+00
 -1      1776 2.09597E+00
 -1      1777 1.78122E+00
 -1      1778 3.06008E+00
 -1      1779 2.42001E+00
 -1      1780 1.84508E+00
 -1      1781 7.51561E+00
 -1      1782 3.10780E+00
 -1      1783 1.93915E+00
 -1      1784 2.18840E+00
 -1      1785 5.18076E+00
 -1      1786 1.62507E+00
 -1      1787 2.00750E+00
 -1      1788 1.80597E+00
 -1      1789 3.57996E+00
 -1      1790 2.34550E+00
 -1      1791 1.73996E+00
 -1      1792 1.43532E+00
 -1      1793 1.52762E+00
 -1      1794 2.01301E+00
 -1      1795 1.45819E+00
 -1      1796 1.59816E+00
 -1      1797 1.63894E+00
 -1      1798 1.70190E+00
 -1      1799 2.26616E+00
 -1      1800 1.67325E+00
 -1      1801 2.63106E+00
 -1      1802 3.53792E+00
 -1      1803 2.14189E+00
 -1      1804 3.93216E+00
 -1      1805 4.56062E+00
 -1      1806 2.90102E+00
 -1      1807 4.86755E+00
 -1      1808 4.84829E+00
 -1      1809 3.60219E+00
 -1      1810 4.53275E+00
 -1      1811 4.10578E+00
 -1      1812 3.59358E+00
 -1      1813 3.76634E+00
 -1      1814 2.77075E+00
 -1      1815 2.93861E+00
 -1      1816 2.40408E+00
 -1      1817 1.85875E+00
 -1      1818 2.23250E+00
 -1      1819 1.77774E+00
 -1      1820 1.80655E+00
 -1      1821 1.78483E+00
 -1      1822 1.67225E+00
 -1      1823 1.64390E+00
 -1      1824 1.56952E+00
 -1      1825 1.68976E+00
 -1      1826 1.70765E+00
 -1      1827 1.48107E+00
 -1      1828 1.68060E+00
 -1      1829 1.56078E+00
 -1      1830 1.49987E+00
 -1      1831 1.49641E+00
 -1      1832 1.35241E+00
 -1      1833 1.40845E+00
 -1      1834 1.29044E+00
 -1      1835 1.19505E+00
 -1      1836 1.28212E+00
 -1      1837 1.12263E+00
 -1      1838 1.03036E+00
 -1      1839 1.14774E+00
 -1      1840 9.41031E-01
 -1      1841 8.42117E-01
 -1      1842 9.85988E-01
 -1      1843 7.52422E-01
 -1      1844 6.60686E-01
 -1      1845 8.06964E-01
 -1      1846 5.79644E-01
 -1      1847 5.01351E-01
 -1      1848 6.36227E-01
 -1      1849 4.32714E-01
 -1      1850 3.69611E-01
 -1      1851 4.86548E-01
 -1      1852 3.13983E-01
 -1      1853 2.77990E-01
 -1      1854 3.62284E-01
 -1      1855 2.34346E-01
 -1      1856 2.04615E-01
 -1      1857 2.63012E-01
 -1      1858 1.71253E-01
 -1      1859 1.47224E-01
 -1      1860 1.86007E-01
 -1      1861 1.22823E-01
 -1      1862 1.03842E-01
 -1      1863 1.28244E-01
 -1      1864 8.91383E-02
 -1      1865 7.91702E-02
 -1      1866 8.91383E-02
 -1      1867 6.89060E-02
 -1      1868 6.05200E-02
 -1      1869 6.41702E-02
 -1      1870 5.41888E-02
 -1      1871 4.70181E-02
 -1      1872 4.75747E-02
 -1      1873 4.34185E-02
 -1      1874 3.74324E-02
 -1      1875 3.76440E-02
 -1      1876 3.41841E-02
 -1      1877 2.92881E-02
 -1      1878 3.07962E-02
 -1      1879 2.64563E-02
 -1      1880 2.30061E-02
 -1      1881 2.47161E-02
 -1      1882 2.06038E-02
 -1      1883 1.79127E-02
 -1      1884 1.94819E-02
 -1      1885 1.60624E-02
 -1      1886 1.43360E-02
 -1      1887 1.52293E-02
 -1      1888 1.32029E-02
 -1      1889 1.16765E-02
 -1      1890 1.22459E-02
 -1      1891 1.07605E-02
 -1      1892 9.50066E-03
 -1      1893 1.01967E-02
 -1      1894 8.65067E-03
 -1      1895 7.68644E-03
 -1      1896 8.43068E-03
 -1      1897 6.98357E-03
 -1      1898 6.17494E-03
 -1      1899 6.87782E-03
 -1      1900 5.58894E-03
 -1      1901 4.99009E-03
 -1      1902 5.58894E-03
 -1      1903 4.47222E-03
 -1      1904 3.94536E-03
 -1      1905 4.48507E-03
 -1      1906 3.54857E-03
 -1      1907 3.09658E-03
 -1      1908 3.57041E-03
 -1      1909 2.75293E-03
 -1      1910 2.37270E-03
 -1      1911 2.82998E-03
 -1      1912 2.07544E-03
 -1      1913 1.77406E-03
 -1      1914 2.18907E-03
 -1      1915 1.52383E-03
 -1      1916 1.36393E-03
 -1      1917 1.64158E-03
 -1      1918 1.15962E-03
 -1      1919 1.00452E-03
 -1      1920 1.18705E-03
 -1      1921 8.84045E-04
 -1      1922 8.03366E-04
 -1      1923 8.62275E-04
 -1      1924 6.84445E-04
 -1      1925 5.40313E-04
 -1      1926 4.15756E-04
 -1      1927 6.22878E-04
 -1      1928 1.04200E+00
 -1      1929 1.33353E+00
 -1      1930 1.33353E+00
 -1      1931 1.11417E+00
 -1      1932 1.12825E+00
 -1      1933 1.12825E+00
 -1      1934 1.44362E+00
 -1      1935 1.29469E+00
 -1      1936 1.39501E+00
 -1      1937 1.81121E+00
 -1      1938 1.56272E+00
 -1      1939 1.69463E+00
 -1      1940 2.09108E+00
 -1      1941 1.81121E+00
 -1      1942 1.81372E+00
 -1      1943 2.28413E+00
 -1      1944 2.08221E+00
 -1      1945 1.80485E+00
 -1      1946 2.37850E+00
 -1      1947 2.25025E+00
 -1      1948 1.76210E+00
 -1      1949 2.49047E+00
 -1      1950 2.47209E+00
 -1      1951 1.82182E+00
 -1      1952 2.07829E+00
 -1      1953 2.38626E+00
 -1      1954 1.81120E+00
 -1      1955 1.39490E+00
 -1      1956 1.83401E+00
 -1      1957 1.46271E+00
 -1      1958 9.01098E-01
 -1      1959 1.17443E+00
 -1      1960 9.97972E-01
 -1      1961 5.66909E-01
 -1      1962 7.58694E-01
 -1      1963 6.35103E-01
 -1      1964 5.81701E-01
 -1      1965 5.45725E-01
 -1      1966 4.71515E-01
 -1      1967 6.66473E-01
 -1      1968 6.31097E-01
 -1      1969 4.99727E-01
 -1      1970 7.10194E-01
 -1      1971 6.88694E-01
 -1      1972 5.71345E-01
 -1      1973 6.83654E-01
 -1      1974 7.12322E-01
 -1      1975 5.95695E-01
 -1      1976 6.04451E-01
 -1      1977 6.58756E-01
 -1      1978 5.72925E-01
 -1      1979 5.21709E-01
 -1      1980 5.75163E-01
 -1      1981 5.18738E-01
 -1      1982 4.39206E-01
 -1      1983 4.87236E-01
 -1      1984 4.54977E-01
 -1      1985 3.54979E-01
 -1      1986 4.01188E-01
 -1      1987 3.82486E-01
 -1      1988 2.75504E-01
 -1      1989 3.18218E-01
 -1      1990 3.07707E-01
 -1      1991 2.05823E-01
 -1      1992 2.42697E-01
 -1      1993 2.38140E-01
 -1      1994 1.56099E-01
 -1      1995 1.79673E-01
 -1      1996 1.79183E-01
 -1      1997 1.18472E-01
 -1      1998 1.38338E-01
 -1      1999 1.35272E-01
 -1      2000 8.77555E-02
 -1      2001 1.03594E-01
 -1      2002 1.02634E-01
 -1      2003 6.36777E-02
 -1      2004 7.57166E-02
 -1      2005 7.57166E-02
 -1      2006 4.47632E-02
 -1      2007 5.42204E-02
 -1      2008 5.42204E-02
 -1      2009 3.34308E-02
 -1      2010 3.75317E-02
 -1      2011 3.75317E-02
 -1      2012 2.69207E-02
 -1      2013 3.01670E-02
 -1      2014 2.70365E-02
 -1      2015 2.22608E-02
 -1      2016 2.52068E-02
 -1      2017 2.20589E-02
 -1      2018 1.80025E-02
 -1      2019 2.05702E-02
 -1      2020 1.86545E-02
 -1      2021 1.49461E-02
 -1      2022 1.64334E-02
 -1      2023 1.53949E-02
 -1      2024 1.25083E-02
 -1      2025 1.35507E-02
 -1      2026 1.24305E-02
 -1      2027 1.04198E-02
 -1      2028 1.14981E-02
 -1      2029 1.00250E-02
 -1      2030 8.76179E-03
 -1      2031 9.79149E-03
 -1      2032 8.38645E-03
 -1      2033 7.19649E-03
 -1      2034 8.13024E-03
 -1      2035 7.12657E-03
 -1      2036 5.83128E-03
 -1      2037 6.60388E-03
 -1      2038 5.90240E-03
 -1      2039 4.72276E-03
 -1      2040 5.35683E-03
 -1      2041 4.83534E-03
 -1      2042 3.77278E-03
 -1      2043 4.31976E-03
 -1      2044 3.95788E-03
 -1      2045 2.97399E-03
 -1      2046 3.41097E-03
 -1      2047 3.19307E-03
 -1      2048 2.28577E-03
 -1      2049 2.65804E-03
 -1      2050 2.51530E-03
 -1      2051 1.70214E-03
 -1      2052 2.01539E-03
 -1      2053 1.92897E-03
 -1      2054 1.26466E-03
 -1      2055 1.47377E-03
 -1      2056 1.43023E-03
 -1      2057 9.77993E-04
 -1      2058 1.13132E-03
 -1      2059 1.06852E-03
 -1      2060 6.80099E-04
 -1      2061 8.48569E-04
 -1      2062 8.05753E-04
 -1      2063 4.19650E-04
 -1      2064 5.45377E-04
 -1      2065 5.41607E-04
 -1      2066 3.30379E-04
 -1      2067 2.04708E-04
 -1      2068 2.56742E-04
 -1      2069 3.69521E-04
 -1      2070 3.73958E-04
 -1      2071 3.81264E-04
 -1      2072 3.73958E-04
 -1      2073 3.73958E-04
 -1      2074 4.50465E-04
 -1      2075 4.94044E-04
 -1      2076 2.82486E-04
 -1      2077 2.32327E-04
 -1      2078 2.96104E-04
 -1      2079 3.62973E-04
 -1      2080 3.30487E-04
 -1      2081 3.71725E-04
 -1      2082 3.98623E-04
 -1      2083 3.85341E-04
 -1      2084 4.42094E-04
 -1      2085 3.98623E-04
 -1      2086 3.98623E-04
 -1      2087 4.64462E-04
 -1      2088 3.97997E-04
 -1      2089 3.98031E-04
 -1      2090 4.63871E-04
 -1      2091 3.83964E-04
 -1      2092 3.97997E-04
 -1      2093 4.63279E-04
 -1      2094 3.31096E-04
 -1      2095 3.62382E-04
 -1      2096 4.41696E-04
 -1      2097 2.33415E-04
 -1      2098 2.82550E-04
 -1      2099 3.71568E-04
 -1      2100 2.53330E-04
 -1      2101 2.02774E-04
 -1      2102 2.92380E-04
 -1      2103 3.29336E-04
 -1      2104 3.29336E-04
 -1      2105 3.37744E-04
 -1      2106 3.70952E+01
 -1      2107 2.75307E+01
 -1      2108 3.40032E+01
 -1      2109 3.40032E+01
 -1      2110 2.81927E+01
 -1      2111 3.14289E+01
 -1      2112 1.87203E+01
 -1      2113 3.14112E+01
 -1      2114 9.74564E+00
 -1      2115 1.51947E+01
 -1      2116 3.46967E+00
 -1      2117 3.51648E+00
 -1      2118 3.74968E+00
 -1      2119 3.65708E+00
 -1      2120 1.09644E+01
 -1      2121 1.04563E+01
 -1      2122 1.14764E+01
 -1      2123 1.15235E+01
 -1      2124 1.12498E+01
 -1      2125 1.13772E+01
 -1      2126 1.05298E+01
 -1      2127 1.07439E+01
 -1      2128 9.53710E+00
 -1      2129 9.45655E+00
 -1      2130 9.32931E+00
 -1      2131 2.01208E+01
 -1      2132 1.19484E+01
 -1      2133 9.12214E+00
 -1      2134 2.62115E+01
 -1      2135 2.41774E+01
 -1      2136 3.26956E+01
 -1      2137 3.26956E+01
 -1      2138 4.06302E+01
 -1      2139 3.98108E+01
 -1      2140 4.06302E+01
 -1      2141 4.06302E+01
 -1      2142 2.99489E+01
 -1      2143 3.00204E+01
 -1      2144 3.22584E+01
 -1      2145 2.87253E+01
 -1      2146 1.54662E+01
 -1      2147 2.79036E+01
 -1      2148 1.89043E+01
 -1      2149 9.54363E+00
 -1      2150 1.23186E+01
 -1      2151 1.03401E+01
 -1      2152 9.40131E+00
 -1      2153 8.11210E+00
 -1      2154 1.15048E+01
 -1      2155 1.16501E+01
 -1      2156 1.14861E+01
 -1      2157 1.15083E+01
 -1      2158 1.17695E+01
 -1      2159 1.15449E+01
 -1      2160 9.49860E+00
 -1      2161 1.03433E+01
 -1      2162 1.33338E+01
 -1      2163 9.82520E+00
 -1      2164 3.07129E+01
 -1      2165 1.68926E+01
 -1      2166 3.39680E+01
 -1      2167 3.70735E+01
 -1      2168 3.11461E+01
 -1      2169 3.39354E+01
 -1      2170 9.44779E+00
 -1      2171 8.74291E+00
 -1      2172 1.26372E+01
 -1      2173 2.97666E+00
 -1      2174 8.10896E+00
 -1      2175 8.11474E+00
 -1      2176 2.94881E+00
 -1      2177 2.81927E+01
 -1      2178 3.14289E+01
 -1      2179 3.70653E-04
 -1      2180 2.18467E+01
 -1      2181 3.11461E+01
 -1      2182 2.83215E+01
 -1      2183 2.19934E+01
 -1      2184 1.20740E+01
 -1      2185 8.18868E+00
 -1      2186 9.28833E+00
 -1      2187 1.06558E+01
 -1      2188 9.27986E+00
 -1      2189 1.14020E+01
 -1      2190 2.66291E+01
 -1      2191 2.23865E+01
 -1      2192 2.11629E+01
 -1      2193 3.63162E+01
 -1      2194 4.69260E+01
 -1      2195 3.98108E+01
 -1      2196 1.56707E+01
 -1      2197 7.83074E+00
 -1      2198 9.68238E+00
 -1      2199 1.01423E+01
 -1      2200 2.62115E+01
 -1      2201 1.05935E+01
 -1      2202 1.03624E+00
 -1      2203 1.32777E+00
 -1      2204 3.54576E+00
 -1      2205 3.90337E+00
 -1      2206 3.89727E+00
 -1      2207 3.89727E+00
 -1      2208 4.30394E+00
 -1      2209 3.34800E+00
 -1      2210 3.15489E+00
 -1      2211 3.33904E+00
 -1      2212 3.33904E+00
 -1      2213 3.81791E+00
 -1      2214 2.80114E+00
 -1      2215 3.02017E+00
 -1      2216 3.49008E+00
 -1      2217 2.35508E+00
 -1      2218 2.55779E+00
 -1      2219 2.92786E+00
 -1      2220 1.92662E+00
 -1      2221 2.05759E+00
 -1      2222 2.38701E+00
 -1      2223 1.63574E+00
 -1      2224 1.61824E+00
 -1      2225 1.78114E+00
 -1      2226 1.05398E+00
 -1      2227 9.67737E-01
 -1      2228 9.61974E-01
 -1      2229 2.49242E+00
 -1      2230 2.18777E+00
 -1      2231 6.20757E+00
 -1      2232 7.21030E+00
 -1      2233 2.30139E+00
 -1      2234 2.23196E+00
 -1      2235 2.78079E+00
 -1      2236 2.28644E+00
 -1      2237 2.39018E+00
 -1      2238 2.94890E+00
 -1      2239 2.00948E+00
 -1      2240 2.37438E+00
 -1      2241 2.62268E+00
 -1      2242 2.96991E+00
 -1      2243 3.36415E+00
 -1      2244 2.83750E+00
 -1      2245 4.81207E+00
 -1      2246 5.11899E+00
 -1      2247 4.88095E+00
 -1      2248 5.13590E+00
 -1      2249 4.82036E+00
 -1      2250 6.34577E+00
 -1      2251 3.54700E+00
 -1      2252 3.20756E+00
 -1      2253 5.08931E+00
 -1      2254 3.21818E+00
 -1      2255 2.85152E+00
 -1      2256 3.82657E+00
 -1      2257 2.48342E+00
 -1      2258 2.40241E+00
 -1      2259 3.46910E+00
 -1      2260 2.08125E+00
 -1      2261 1.94695E+00
 -1      2262 2.77984E+00
 -1      2263 1.81843E+00
 -1      2264 1.86428E+00
 -1      2265 2.33016E+00
 -1      2266 1.68860E+00
 -1      2267 1.66155E+00
 -1      2268 2.02596E+00
 -1      2269 1.49353E+00
 -1      2270 1.42917E+00
 -1      2271 1.68226E+00
 -1      2272 1.34761E+00
 -1      2273 1.28565E+00
 -1      2274 1.43269E+00
 -1      2275 1.19446E+00
 -1      2276 1.12204E+00
 -1      2277 1.25995E+00
 -1      2278 1.02369E+00
 -1      2279 9.34366E-01
 -1      2280 1.07042E+00
 -1      2281 8.40445E-01
 -1      2282 7.50750E-01
 -1      2283 8.78152E-01
 -1      2284 6.67213E-01
 -1      2285 5.86171E-01
 -1      2286 7.00694E-01
 -1      2287 5.15274E-01
 -1      2288 4.46638E-01
 -1      2289 5.46260E-01
 -1      2290 3.88460E-01
 -1      2291 3.32832E-01
 -1      2292 4.17186E-01
 -1      2293 2.86312E-01
 -1      2294 2.42669E-01
 -1      2295 3.12488E-01
 -1      2296 2.06254E-01
 -1      2297 1.72892E-01
 -1      2298 2.29553E-01
 -1      2299 1.44916E-01
 -1      2300 1.20515E-01
 -1      2301 1.65163E-01
 -1      2302 9.93982E-02
 -1      2303 8.46943E-02
 -1      2304 1.16071E-01
 -1      2305 6.90342E-02
 -1      2306 5.87699E-02
 -1      2307 7.92941E-02
 -1      2308 4.73718E-02
 -1      2309 4.10406E-02
 -1      2310 5.22358E-02
 -1      2311 3.41829E-02
 -1      2312 3.05834E-02
 -1      2313 3.39800E-02
 -1      2314 2.69159E-02
 -1      2315 2.36676E-02
 -1      2316 2.34548E-02
 -1      2317 2.24680E-02
 -1      2318 1.96363E-02
 -1      2319 1.85878E-02
 -1      2320 1.83567E-02
 -1      2321 1.59543E-02
 -1      2322 1.61086E-02
 -1      2323 1.47081E-02
 -1      2324 1.28578E-02
 -1      2325 1.35828E-02
 -1      2326 1.17105E-02
 -1      2327 1.05774E-02
 -1      2328 1.11893E-02
 -1      2329 9.58470E-03
 -1      2330 8.66868E-03
 -1      2331 9.04939E-03
 -1      2332 8.09884E-03
 -1      2333 7.24885E-03
 -1      2334 7.48685E-03
 -1      2335 6.71817E-03
 -1      2336 6.01530E-03
 -1      2337 6.38633E-03
 -1      2338 5.50324E-03
 -1      2339 4.91724E-03
 -1      2340 5.34359E-03
 -1      2341 4.48141E-03
 -1      2342 3.96354E-03
 -1      2343 4.39570E-03
 -1      2344 3.58107E-03
 -1      2345 3.18428E-03
 -1      2346 3.57741E-03
 -1      2347 2.84181E-03
 -1      2348 2.49817E-03
 -1      2349 2.85247E-03
 -1      2350 2.21104E-03
 -1      2351 1.91378E-03
 -1      2352 2.22288E-03
 -1      2353 1.68938E-03
 -1      2354 1.43915E-03
 -1      2355 1.71135E-03
 -1      2356 1.24737E-03
 -1      2357 1.04307E-03
 -1      2358 1.29516E-03
 -1      2359 8.84592E-04
 -1      2360 7.64115E-04
 -1      2361 9.44911E-04
 -1      2362 1.69506E+00
 -1      2363 1.57596E+00
 -1      2364 1.81372E+00
 -1      2365 1.81372E+00
 -1      2366 1.69506E+00
 -1      2367 1.79637E+00
 -1      2368 1.80524E+00
 -1      2369 1.80524E+00
 -1      2370 1.67942E+00
 -1      2371 1.71330E+00
 -1      2372 1.71369E+00
 -1      2373 1.81702E+00
 -1      2374 1.72342E+00
 -1      2375 1.67462E+00
 -1      2376 1.62507E+00
 -1      2377 1.72929E+00
 -1      2378 1.63089E+00
 -1      2379 1.26026E+00
 -1      2380 1.50453E+00
 -1      2381 1.42262E+00
 -1      2382 8.63386E-01
 -1      2383 1.08385E+00
 -1      2384 1.12567E+00
 -1      2385 5.76099E-01
 -1      2386 7.18503E-01
 -1      2387 8.04383E-01
 -1      2388 5.31890E-01
 -1      2389 5.53074E-01
 -1      2390 6.36474E-01
 -1      2391 5.45308E-01
 -1      2392 4.95911E-01
 -1      2393 5.77470E-01
 -1      2394 5.88332E-01
 -1      2395 5.66110E-01
 -1      2396 5.62294E-01
 -1      2397 5.82311E-01
 -1      2398 5.80182E-01
 -1      2399 5.74947E-01
 -1      2400 5.38753E-01
 -1      2401 5.63652E-01
 -1      2402 5.48139E-01
 -1      2403 4.83940E-01
 -1      2404 5.13228E-01
 -1      2405 5.03954E-01
 -1      2406 4.22077E-01
 -1      2407 4.56550E-01
 -1      2408 4.51039E-01
 -1      2409 3.51098E-01
 -1      2410 3.89116E-01
 -1      2411 3.90689E-01
 -1      2412 2.80583E-01
 -1      2413 3.17344E-01
 -1      2414 3.23974E-01
 -1      2415 2.16336E-01
 -1      2416 2.49143E-01
 -1      2417 2.58780E-01
 -1      2418 1.62693E-01
 -1      2419 1.88844E-01
 -1      2420 1.99847E-01
 -1      2421 1.21992E-01
 -1      2422 1.39752E-01
 -1      2423 1.49413E-01
 -1      2424 8.86806E-02
 -1      2425 1.03559E-01
 -1      2426 1.08039E-01
 -1      2427 6.23085E-02
 -1      2428 7.43474E-02
 -1      2429 7.52725E-02
 -1      2430 4.34317E-02
 -1      2431 5.28890E-02
 -1      2432 5.15198E-02
 -1      2433 2.99099E-02
 -1      2434 3.71414E-02
 -1      2435 3.58099E-02
 -1      2436 2.37728E-02
 -1      2437 2.70365E-02
 -1      2438 2.66461E-02
 -1      2439 2.03450E-02
 -1      2440 2.20589E-02
 -1      2441 2.20589E-02
 -1      2442 1.69640E-02
 -1      2443 1.86545E-02
 -1      2444 1.86545E-02
 -1      2445 1.38259E-02
 -1      2446 1.53949E-02
 -1      2447 1.53949E-02
 -1      2448 1.10352E-02
 -1      2449 1.24305E-02
 -1      2450 1.24305E-02
 -1      2451 9.01477E-03
 -1      2452 1.00250E-02
 -1      2453 1.00250E-02
 -1      2454 7.75813E-03
 -1      2455 8.38645E-03
 -1      2456 8.38645E-03
 -1      2457 6.49502E-03
 -1      2458 7.12657E-03
 -1      2459 7.12657E-03
 -1      2460 5.30979E-03
 -1      2461 5.90240E-03
 -1      2462 5.90240E-03
 -1      2463 4.35972E-03
 -1      2464 4.83417E-03
 -1      2465 4.83417E-03
 -1      2466 3.52699E-03
 -1      2467 3.92999E-03
 -1      2468 3.92883E-03
 -1      2469 2.78401E-03
 -1      2470 3.14582E-03
 -1      2471 3.11793E-03
 -1      2472 2.17997E-03
 -1      2473 2.49592E-03
 -1      2474 2.44867E-03
 -1      2475 1.65683E-03
 -1      2476 1.92721E-03
 -1      2477 1.90782E-03
 -1      2478 1.20848E-03
 -1      2479 1.43684E-03
 -1      2480 1.43508E-03
 -1      2481 9.16529E-04
 -1      2482 1.04987E-03
 -1      2483 1.05649E-03
 -1      2484 6.39750E-04
 -1      2485 7.69174E-04
 -1      2486 7.50527E-04
 -1      2487 5.85186E-04
 -1      2488 4.78073E-04
 -1      2489 4.30071E-04
 -1      2490 5.34698E-04
 -1      2491 5.12331E-04
 -1      2492 5.70677E-04
 -1      2493 4.15517E-04
 -1      2494 5.28297E-04
 -1      2495 4.70843E-04
 -1      2496 4.43224E-04
 -1      2497 5.90257E-04
 -1      2498 5.77192E-04
 -1      2499 5.35190E-04
 -1      2500 5.35190E-04
 -1      2501 6.05426E-04
 -1      2502 5.34598E-04
 -1      2503 5.35190E-04
 -1      2504 6.05918E-04
 -1      2505 5.34309E-04
 -1      2506 5.34309E-04
 -1      2507 6.05629E-04
 -1      2508 5.12673E-04
 -1      2509 5.34256E-04
 -1      2510 6.05286E-04
 -1      2511 4.29734E-04
 -1      2512 4.78280E-04
 -1      2513 5.70839E-04
 -1      2514 3.65786E-04
 -1      2515 3.96427E-04
 -1      2516 5.03139E-04
 -1      2517 4.41791E-04
 -1      2518 3.65786E-04
 -1      2519 4.69833E-04
 -1      2520 2.88547E+01
 -1      2521 3.14289E+01
 -1      2522 1.41145E+01
 -1      2523 1.97984E+01
 -1      2524 1.44126E+00
 -1      2525 1.26074E+00
 -1      2526 1.44169E+00
 -1      2527 4.58853E-04
 -1      2528 3.11461E+01
 -1      2529 2.82889E+01
 -1      2530 2.34869E+01
 -1      2531 2.41489E+01
 -1      2532 3.69871E+00
 -1      2533 3.06756E+00
 -1      2534 3.24232E+00
 -1      2535 3.74968E+00
 -1      2536 2.47304E+01
 -1      2537 2.47630E+01
 -1      2538 2.47304E+01
 -1      2539 8.39318E+00
 -1      2540 7.83404E+00
 -1      2541 3.39647E+00
 -1      2542 3.54576E+00
 -1      2543 4.31003E+00
 -1      2544 4.06845E+00
 -1      2545 8.65850E+00
 -1      2546 8.75776E+00
 -1      2547 2.35956E+01
 -1      2548 1.71115E+01
 -1      2549 7.81570E+00
 -1      2550 8.32158E+00
 -1      2551 5.63145E+00
 -1      2552 6.83192E+00
 -1      2553 5.61640E+00
 -1      2554 9.38643E+00
 -1      2555 6.89456E+00
 -1      2556 9.23842E+00
 -1      2557 9.23488E+00
 -1      2558 1.48362E+01
 -1      2559 1.07795E+01
 -1      2560 3.49076E+01
 -1      2561 2.77924E+01
 -1      2562 4.69260E+01
 -1      2563 4.69260E+01
 -1      2564 2.57064E+01
 -1      2565 3.63162E+01
 -1      2566 1.36891E+01
 -1      2567 1.80439E+01
 -1      2568 7.85209E+00
 -1      2569 1.09996E+01
 -1      2570 1.01393E+01
 -1      2571 6.36348E+00
 -1      2572 6.50579E+00
 -1      2573 8.45940E+00
 -1      2574 7.14933E+00
 -1      2575 9.33099E+00
 -1      2576 9.27220E+00
 -1      2577 7.91362E+00
 -1      2578 7.07622E+00
 -1      2579 8.50247E+00
 -1      2580 6.33225E+00
 -1      2581 6.00565E+00
 -1      2582 1.15762E+01
 -1      2583 8.01741E+00
 -1      2584 5.83439E+00
 -1      2585 2.07145E+01
 -1      2586 1.43539E+01
 -1      2587 7.07467E+00
 -1      2588 6.06616E+00
 -1      2589 5.16750E+00
 -1      2590 1.54891E+00
 -1      2591 1.72981E+00
 -1      2592 1.68210E+00
 -1      2593 1.25162E+00
 -1      2594 9.16192E+00
 -1      2595 1.26875E+01
 -1      2596 7.03813E+00
 -1      2597 8.52188E+00
 -1      2598 6.67354E+00
 -1      2599 4.38844E+00
 -1      2600 3.98787E+00
 -1      2601 4.14825E+00
 -1      2602 1.10023E+00
 -1      2603 1.63574E+00
 -1      2604 7.26054E+00
 -1      2605 5.78546E+00
 -1      2606 1.19212E+01
 -1      2607 7.86456E+00
 -1      2608 1.06423E+01
 -1      2609 5.48608E-04
 -1      2610 1.06391E+01
 -1      2611 5.48608E-04
 -1      2612 7.11888E+00
 -1      2613 2.30835E+01
 -1      2614 2.56578E+01
 -1      2615 2.28006E+01
 -1      2616 2.41489E+01
 -1      2617 1.57546E+01
 -1      2618 7.10435E+00
 -1      2619 6.10347E+00
 -1      2620 1.47276E+00
 -1      2621 1.99930E+01
 -1      2622 1.99930E+01
 -1      2623 1.66731E+01
 -1      2624 3.63162E+01
 -1      2625 3.49076E+01
 -1      2626 1.22203E+01
 -1      2627 5.89574E+00
 -1      2628 1.59477E+01
 -1      2629 3.81746E+00
 -1      2630 2.26245E+01
 -1      2631 1.35245E+01
 -1      2632 1.77214E+01
 -1      2633 1.71235E+01
 -1      2634 6.93709E+00
 -1      2635 8.55195E+00
 -1      2636 5.54302E+00
 -1      2637 4.84088E-04
 -1      2638 4.38985E-04
 -1      2639 4.67026E-04
 -1      2640 6.03009E-04
 -1      2641 5.82861E-04
 -1      2642 5.21980E+00
 -1      2643 6.25326E-04
 -1      2644 4.15577E+00
 -1      2645 4.47463E+00
 -1      2646 5.24045E+00
 -1      2647 5.24941E+00
 -1      2648 5.90613E+00
 -1      2649 2.38554E+00
 -1      2650 2.68303E+00
 -1      2651 1.56721E+00
 -1      2652 1.87559E+00
 -1      2653 2.17161E+00
 -1      2654 1.00202E+00
 -1      2655 1.07053E+00
 -1      2656 2.13087E+01
 -1      2657 1.77503E+01
 -1      2658 5.10699E+00
 -1      2659 4.34761E+00
 -1      2660 3.43869E+00
 -1      2661 3.49317E+00
 -1      2662 4.45103E+00
 -1      2663 4.07033E+00
 -1      2664 4.94082E+00
 -1      2665 4.88095E+00
 -1      2666 6.32887E+00
 -1      2667 7.10435E+00
 -1      2668 7.12126E+00
 -1      2669 6.32652E+00
 -1      2670 5.05316E+00
 -1      2671 5.06378E+00
 -1      2672 4.55371E+00
 -1      2673 4.18561E+00
 -1      2674 4.20395E+00
 -1      2675 3.88279E+00
 -1      2676 5.28856E+00
 -1      2677 2.87593E+00
 -1      2678 2.74741E+00
 -1      2679 4.30004E+00
 -1      2680 2.38090E+00
 -1      2681 2.20522E+00
 -1      2682 2.92667E+00
 -1      2683 1.95263E+00
 -1      2684 1.78461E+00
 -1      2685 2.30757E+00
 -1      2686 1.58894E+00
 -1      2687 1.50738E+00
 -1      2688 1.85930E+00
 -1      2689 1.33514E+00
 -1      2690 1.24396E+00
 -1      2691 1.49138E+00
 -1      2692 1.10586E+00
 -1      2693 1.00752E+00
 -1      2694 1.18105E+00
 -1      2695 8.93906E-01
 -1      2696 7.99985E-01
 -1      2697 9.29349E-01
 -1      2698 7.08135E-01
 -1      2699 6.24598E-01
 -1      2700 7.23889E-01
 -1      2701 5.52558E-01
 -1      2702 4.81662E-01
 -1      2703 5.60000E-01
 -1      2704 4.24153E-01
 -1      2705 3.65976E-01
 -1      2706 4.30451E-01
 -1      2707 3.20310E-01
 -1      2708 2.73790E-01
 -1      2709 3.27277E-01
 -1      2710 2.37828E-01
 -1      2711 2.01413E-01
 -1      2712 2.45650E-01
 -1      2713 1.73387E-01
 -1      2714 1.45411E-01
 -1      2715 1.81662E-01
 -1      2716 1.23831E-01
 -1      2717 1.02715E-01
 -1      2718 1.32056E-01
 -1      2719 8.63195E-02
 -1      2720 7.06594E-02
 -1      2721 9.40802E-02
 -1      2722 5.83859E-02
 -1      2723 4.69878E-02
 -1      2724 6.54114E-02
 -1      2725 3.79504E-02
 -1      2726 3.10926E-02
 -1      2727 4.41005E-02
 -1      2728 2.45620E-02
 -1      2729 2.08946E-02
 -1      2730 2.85324E-02
 -1      2731 1.64184E-02
 -1      2732 1.52188E-02
 -1      2733 1.75256E-02
 -1      2734 1.37183E-02
 -1      2735 1.24387E-02
 -1      2736 1.15489E-02
 -1      2737 1.21946E-02
 -1      2738 1.09484E-02
 -1      2739 9.80425E-03
 -1      2740 1.04919E-02
 -1      2741 9.34470E-03
 -1      2742 9.10372E-03
 -1      2743 8.78958E-03
 -1      2744 7.79687E-03
 -1      2745 8.09217E-03
 -1      2746 7.21720E-03
 -1      2747 6.64737E-03
 -1      2748 6.95739E-03
 -1      2749 6.12086E-03
 -1      2750 5.59018E-03
 -1      2751 5.85121E-03
 -1      2752 5.22493E-03
 -1      2753 4.71287E-03
 -1      2754 4.95946E-03
 -1      2755 4.33927E-03
 -1      2756 3.90344E-03
 -1      2757 4.22061E-03
 -1      2758 3.54741E-03
 -1      2759 3.16495E-03
 -1      2760 3.49098E-03
 -1      2761 2.84089E-03
 -1      2762 2.49842E-03
 -1      2763 2.81090E-03
 -1      2764 2.22602E-03
 -1      2765 1.93889E-03
 -1      2766 2.21443E-03
 -1      2767 1.71135E-03
 -1      2768 1.48694E-03
 -1      2769 1.71448E-03
 -1      2770 1.29516E-03
 -1      2771 1.10339E-03
 -1      2772 1.29516E-03
 -1      2773 9.44911E-04
 -1      2774 7.86432E-04
 -1      2775 9.44911E-04
 -1      2776 2.30611E+00
 -1      2777 2.31459E+00
 -1      2778 7.76467E-04
 -1      2779 7.96778E-04
 -1      2780 9.44133E-04
 -1      2781 1.66618E+00
 -1      2782 1.54752E+00
 -1      2783 2.16705E+00
 -1      2784 2.21319E+00
 -1      2785 2.16919E+00
 -1      2786 1.63282E+00
 -1      2787 1.72055E+00
 -1      2788 2.21512E+00
 -1      2789 1.38362E+00
 -1      2790 1.50416E+00
 -1      2791 1.59382E+00
 -1      2792 1.16840E+00
 -1      2793 1.34480E+00
 -1      2794 1.42635E+00
 -1      2795 9.00329E-01
 -1      2796 1.04521E+00
 -1      2797 1.26435E+00
 -1      2798 8.12782E-01
 -1      2799 8.35808E-01
 -1      2800 1.07664E+00
 -1      2801 6.54602E-01
 -1      2802 6.90580E-01
 -1      2803 8.89913E-01
 -1      2804 6.65398E-01
 -1      2805 6.44596E-01
 -1      2806 7.57706E-01
 -1      2807 6.22541E-01
 -1      2808 6.30690E-01
 -1      2809 7.12992E-01
 -1      2810 5.59472E-01
 -1      2811 5.78131E-01
 -1      2812 6.33874E-01
 -1      2813 4.98914E-01
 -1      2814 5.24440E-01
 -1      2815 5.54432E-01
 -1      2816 4.41016E-01
 -1      2817 4.68405E-01
 -1      2818 4.88891E-01
 -1      2819 3.73179E-01
 -1      2820 4.06140E-01
 -1      2821 4.23506E-01
 -1      2822 3.04474E-01
 -1      2823 3.38228E-01
 -1      2824 3.53679E-01
 -1      2825 2.40638E-01
 -1      2826 2.72077E-01
 -1      2827 2.86332E-01
 -1      2828 1.84676E-01
 -1      2829 2.12169E-01
 -1      2830 2.25467E-01
 -1      2831 1.37704E-01
 -1      2832 1.60645E-01
 -1      2833 1.72967E-01
 -1      2834 9.96335E-02
 -1      2835 1.18067E-01
 -1      2836 1.29298E-01
 -1      2837 6.96979E-02
 -1      2838 8.40311E-02
 -1      2839 9.40589E-02
 -1      2840 4.81954E-02
 -1      2841 5.76149E-02
 -1      2842 6.63735E-02
 -1      2843 3.27768E-02
 -1      2844 3.90672E-02
 -1      2845 4.51623E-02
 -1      2846 2.31802E-02
 -1      2847 2.60536E-02
 -1      2848 2.93109E-02
 -1      2849 1.76208E-02
 -1      2850 1.93347E-02
 -1      2851 1.87421E-02
 -1      2852 1.46112E-02
 -1      2853 1.63017E-02
 -1      2854 1.35775E-02
 -1      2855 1.24964E-02
 -1      2856 1.40655E-02
 -1      2857 1.17127E-02
 -1      2858 1.04130E-02
 -1      2859 1.18084E-02
 -1      2860 1.04790E-02
 -1      2861 8.67080E-03
 -1      2862 9.68099E-03
 -1      2863 9.05888E-03
 -1      2864 7.32928E-03
 -1      2865 7.95759E-03
 -1      2866 7.61362E-03
 -1      2867 6.13373E-03
 -1      2868 6.76528E-03
 -1      2869 6.33643E-03
 -1      2870 5.13612E-03
 -1      2871 5.72874E-03
 -1      2872 5.36745E-03
 -1      2873 4.25899E-03
 -1      2874 4.73460E-03
 -1      2875 4.56094E-03
 -1      2876 3.44887E-03
 -1      2877 3.87861E-03
 -1      2878 3.77904E-03
 -1      2879 2.74851E-03
 -1      2880 3.12968E-03
 -1      2881 3.07946E-03
 -1      2882 2.16948E-03
 -1      2883 2.45757E-03
 -1      2884 2.46932E-03
 -1      2885 1.66082E-03
 -1      2886 1.91358E-03
 -1      2887 1.92247E-03
 -1      2888 1.22935E-03
 -1      2889 1.44934E-03
 -1      2890 1.45510E-03
 -1      2891 9.79748E-04
 -1      2892 1.13835E-03
 -1      2893 1.15262E-03
 -1      2894 1.02600E-03
 -1      2895 9.05983E+00
 -1      2896 1.04868E+01
 -1      2897 6.88649E-04
 -1      2898 6.88649E-04
 -1      2899 6.80087E-04
 -1      2900 6.45830E-04
 -1      2901 6.87931E-04
 -1      2902 6.88220E-04
 -1      2903 7.70951E-04
 -1      2904 6.88649E-04
 -1      2905 6.88157E-04
 -1      2906 7.63309E-04
 -1      2907 7.71380E-04
 -1      2908 6.87878E-04
 -1      2909 6.87931E-04
 -1      2910 7.70523E-04
 -1      2911 6.43820E-04
 -1      2912 6.78213E-04
 -1      2913 7.60858E-04
 -1      2914 5.47010E-04
 -1      2915 5.80317E-04
 -1      2916 6.87691E-04
 -1      2917 1.25162E+00
 -1      2918 1.69874E+01
 -1      2919 2.16932E+01
 -1      2920 1.11548E+01
 -1      2921 1.48433E+01
 -1      2922 1.23876E+01
 -1      2923 4.57307E+00
 -1      2924 3.99793E+00
 -1      2925 1.29465E+01
 -1      2926 1.60655E+01
 -1      2927 1.97249E+01
 -1      2928 3.03347E+01
 -1      2929 1.44268E+00
 -1      2930 1.30798E+00
 -1      2931 1.41381E+00
 -1      2932 2.91574E+00
 -1      2933 2.99882E+00
 -1      2934 3.50816E+00
 -1      2935 3.45432E+00
 -1      2936 4.81619E+00
 -1      2937 4.92981E+00
 -1      2938 5.47408E+00
 -1      2939 6.14694E+00
 -1      2940 5.48082E+00
 -1      2941 7.43245E+00
 -1      2942 1.12076E+00
 -1      2943 9.14000E-01
 -1      2944 1.02255E+00
 -1      2945 1.12175E+00
 -1      2946 3.19163E+00
 -1      2947 3.43499E+00
 -1      2948 3.19016E+00
 -1      2949 6.30905E+00
 -1      2950 6.30295E+00
 -1      2951 5.91425E+00
 -1      2952 4.65114E+00
 -1      2953 3.95924E+00
 -1      2954 4.94302E+00
 -1      2955 4.83739E+00
 -1      2956 6.18370E+00
 -1      2957 8.26734E+00
 -1      2958 6.87425E+00
 -1      2959 1.61250E+01
 -1      2960 1.20766E+01
 -1      2961 1.27034E+01
 -1      2962 1.14185E+01
 -1      2963 9.14318E+00
 -1      2964 3.08897E+01
 -1      2965 1.88713E+01
 -1      2966 1.42984E+01
 -1      2967 4.57307E+00
 -1      2968 8.11744E+00
 -1      2969 1.08070E+01
 -1      2970 4.84141E-04
 -1      2971 4.86948E-04
 -1      2972 6.45247E-04
 -1      2973 6.39489E+00
 -1      2974 4.70973E+00
 -1      2975 5.76071E+00
 -1      2976 6.09762E+00
 -1      2977 4.00141E+00
 -1      2978 4.14282E+00
 -1      2979 3.32294E+00
 -1      2980 3.29126E+00
 -1      2981 4.73918E+00
 -1      2982 3.95333E+00
 -1      2983 2.69573E+00
 -1      2984 5.63152E+00
 -1      2985 5.72212E+00
 -1      2986 7.63664E+00
 -1      2987 6.03695E+00
 -1      2988 4.61441E+00
 -1      2989 4.85599E+00
 -1      2990 4.03355E+00
 -1      2991 7.46548E+00
 -1      2992 1.25988E+01
 -1      2993 1.83122E+01
 -1      2994 1.23308E+01
 -1      2995 1.03955E+01
 -1      2996 7.96281E+00
 -1      2997 9.39708E+00
 -1      2998 6.73990E+00
 -1      2999 4.52408E+00
 -1      3000 7.15504E+00
 -1      3001 6.45247E-04
 -1      3002 5.78030E+00
 -1      3003 9.57550E+00
 -1      3004 7.28011E+00
 -1      3005 8.72811E-04
 -1      3006 7.63402E-04
 -1      3007 8.04173E-04
 -1      3008 8.04173E-04
 -1      3009 1.09247E+01
 -1      3010 1.99708E+01
 -1      3011 1.41997E+01
 -1      3012 1.28094E+01
 -1      3013 1.29167E+00
 -1      3014 4.86948E-04
 -1      3015 1.96908E+01
 -1      3016 1.27106E+01
 -1      3017 1.42025E+01
 -1      3018 5.43256E+00
 -1      3019 4.59308E+00
 -1      3020 3.77539E+00
 -1      3021 1.36719E+01
 -1      3022 4.41953E+00
 -1      3023 4.90386E+00
 -1      3024 3.97775E+00
 -1      3025 1.56733E+01
 -1      3026 1.05054E+01
 -1      3027 1.16553E+01
 -1      3028 6.57784E+00
 -1      3029 6.57784E+00
 -1      3030 8.57685E+00
 -1      3031 7.12380E+00
 -1      3032 5.62964E+00
 -1      3033 1.05054E+01
 -1      3034 1.14764E+01
 -1      3035 8.39928E+00
 -1      3036 6.85136E+00
 -1      3037 4.31473E+00
 -1      3038 5.67951E+00
 -1      3039 4.24166E+00
 -1      3040 5.80821E+00
 -1      3041 1.38612E+00
 -1      3042 5.86174E+00
 -1      3043 5.71697E-04
 -1      3044 5.54582E-04
 -1      3045 6.31760E-04
 -1      3046 7.12881E-04
 -1      3047 1.75064E+00
 -1      3048 2.26059E+00
 -1      3049 7.98420E+00
 -1      3050 7.10836E+00
 -1      3051 3.09013E+00
 -1      3052 3.59873E+00
 -1      3053 2.66916E+00
 -1      3054 5.75202E+00
 -1      3055 4.79202E+00
 -1      3056 7.60921E+00
 -1      3057 8.27721E+00
 -1      3058 6.51146E+00
 -1      3059 5.50461E+00
 -1      3060 4.44436E+00
 -1      3061 4.07785E+00
 -1      3062 6.65578E+00
 -1      3063 2.88161E+00
 -1      3064 2.62901E+00
 -1      3065 4.39929E+00
 -1      3066 2.12360E+00
 -1      3067 1.92793E+00
 -1      3068 2.69764E+00
 -1      3069 1.62898E+00
 -1      3070 1.45674E+00
 -1      3071 1.89328E+00
 -1      3072 1.27147E+00
 -1      3073 1.13337E+00
 -1      3074 1.40906E+00
 -1      3075 1.00876E+00
 -1      3076 8.95151E-01
 -1      3077 1.09918E+00
 -1      3078 7.88275E-01
 -1      3079 6.96425E-01
 -1      3080 8.67687E-01
 -1      3081 6.08164E-01
 -1      3082 5.36125E-01
 -1      3083 6.72550E-01
 -1      3084 4.65018E-01
 -1      3085 4.07509E-01
 -1      3086 5.13182E-01
 -1      3087 3.51242E-01
 -1      3088 3.05576E-01
 -1      3089 3.85808E-01
 -1      3090 2.61705E-01
 -1      3091 2.25743E-01
 -1      3092 2.85670E-01
 -1      3093 1.91997E-01
 -1      3094 1.63971E-01
 -1      3095 2.08053E-01
 -1      3096 1.38359E-01
 -1      3097 1.16779E-01
 -1      3098 1.48695E-01
 -1      3099 9.83913E-02
 -1      3100 8.19959E-02
 -1      3101 1.04695E-01
 -1      3102 6.85233E-02
 -1      3103 5.62498E-02
 -1      3104 7.28343E-02
 -1      3105 4.63544E-02
 -1      3106 3.73169E-02
 -1      3107 4.94662E-02
 -1      3108 3.05479E-02
 -1      3109 2.40173E-02
 -1      3110 3.28018E-02
 -1      3111 1.93454E-02
 -1      3112 1.48692E-02
 -1      3113 2.13609E-02
 -1      3114 1.15305E-02
 -1      3115 1.00300E-02
 -1      3116 1.33503E-02
 -1      3117 7.95986E-03
 -1      3118 7.71576E-03
 -1      3119 7.94147E-03
 -1      3120 7.70807E-03
 -1      3121 7.25164E-03
 -1      3122 5.86368E-03
 -1      3123 7.28625E-03
 -1      3124 6.73113E-03
 -1      3125 5.89060E-03
 -1      3126 6.55837E-03
 -1      3127 5.97870E-03
 -1      3128 5.75244E-03
 -1      3129 5.69170E-03
 -1      3130 5.16519E-03
 -1      3131 5.29267E-03
 -1      3132 4.82695E-03
 -1      3133 4.46171E-03
 -1      3134 4.66744E-03
 -1      3135 4.17302E-03
 -1      3136 3.79942E-03
 -1      3137 4.04051E-03
 -1      3138 3.54607E-03
 -1      3139 3.19004E-03
 -1      3140 3.49848E-03
 -1      3141 2.92629E-03
 -1      3142 2.60223E-03
 -1      3143 2.98138E-03
 -1      3144 2.34774E-03
 -1      3145 2.07533E-03
 -1      3146 2.46313E-03
 -1      3147 1.84139E-03
 -1      3148 1.61384E-03
 -1      3149 1.97469E-03
 -1      3150 1.40543E-03
 -1      3151 1.21365E-03
 -1      3152 1.53233E-03
 -1      3153 1.03149E-03
 -1      3154 8.73013E-04
 -1      3155 7.99463E-04
 -1      3156 1.14175E-03
 -1      3157 2.69656E+00
 -1      3158 2.04815E+00
 -1      3159 1.83891E+00
 -1      3160 1.96756E+00
 -1      3161 2.28918E+00
 -1      3162 2.78183E+00
 -1      3163 2.53427E+00
 -1      3164 1.40724E+00
 -1      3165 1.53042E+00
 -1      3166 1.29963E+00
 -1      3167 1.36415E+00
 -1      3168 1.63023E+00
 -1      3169 9.81732E-01
 -1      3170 1.10393E+00
 -1      3171 1.39144E+00
 -1      3172 8.96890E-01
 -1      3173 9.06896E-01
 -1      3174 1.12092E+00
 -1      3175 7.75436E-01
 -1      3176 8.10144E-01
 -1      3177 9.59334E-01
 -1      3178 6.47942E-01
 -1      3179 6.92352E-01
 -1      3180 7.89504E-01
 -1      3181 5.63167E-01
 -1      3182 5.98199E-01
 -1      3183 6.56678E-01
 -1      3184 4.85536E-01
 -1      3185 5.16045E-01
 -1      3186 5.59812E-01
 -1      3187 4.05909E-01
 -1      3188 4.40785E-01
 -1      3189 4.67940E-01
 -1      3190 3.29202E-01
 -1      3191 3.64153E-01
 -1      3192 3.81432E-01
 -1      3193 2.60496E-01
 -1      3194 2.92892E-01
 -1      3195 3.03366E-01
 -1      3196 2.02069E-01
 -1      3197 2.30537E-01
 -1      3198 2.37097E-01
 -1      3199 1.53361E-01
 -1      3200 1.77392E-01
 -1      3201 1.82462E-01
 -1      3202 1.13793E-01
 -1      3203 1.33430E-01
 -1      3204 1.37855E-01
 -1      3205 8.23863E-02
 -1      3206 9.79888E-02
 -1      3207 1.02121E-01
 -1      3208 5.79937E-02
 -1      3209 7.00767E-02
 -1      3210 7.40066E-02
 -1      3211 3.94507E-02
 -1      3212 4.85789E-02
 -1      3213 5.22821E-02
 -1      3214 2.56629E-02
 -1      3215 3.23862E-02
 -1      3216 3.58028E-02
 -1      3217 1.66253E-02
 -1      3218 2.04708E-02
 -1      3219 2.35462E-02
 -1      3220 1.15788E-02
 -1      3221 1.28979E-02
 -1      3222 1.46266E-02
 -1      3223 9.02655E-03
 -1      3224 9.57230E-03
 -1      3225 8.89262E-03
 -1      3226 8.37425E-03
 -1      3227 9.06226E-03
 -1      3228 6.92185E-03
 -1      3229 7.53711E-03
 -1      3230 8.26917E-03
 -1      3231 6.85248E-03
 -1      3232 6.54224E-03
 -1      3233 7.25544E-03
 -1      3234 6.46572E-03
 -1      3235 5.60621E-03
 -1      3236 6.17020E-03
 -1      3237 5.81201E-03
 -1      3238 4.79707E-03
 -1      3239 5.20206E-03
 -1      3240 5.03583E-03
 -1      3241 4.09491E-03
 -1      3242 4.49643E-03
 -1      3243 4.33104E-03
 -1      3244 3.42555E-03
 -1      3245 3.80593E-03
 -1      3246 3.74142E-03
 -1      3247 2.81364E-03
 -1      3248 3.13283E-03
 -1      3249 3.15973E-03
 -1      3250 2.24518E-03
 -1      3251 2.53612E-03
 -1      3252 2.58950E-03
 -1      3253 1.73770E-03
 -1      3254 1.99360E-03
 -1      3255 2.06040E-03
 -1      3256 1.30762E-03
 -1      3257 1.51910E-03
 -1      3258 1.59023E-03
 -1      3259 8.59429E-04
 -1      3260 8.59429E-04
 -1      3261 8.37428E-04
 -1      3262 8.37856E-04
 -1      3263 9.26335E-04
 -1      3264 3.26082E+00
 -1      3265 2.91462E+00
 -1      3266 1.12946E+01
 -1      3267 1.18495E+01
 -1      3268 1.82664E+00
 -1      3269 1.72180E+00
 -1      3270 2.35614E+00
 -1      3271 9.01097E+00
 -1      3272 1.11551E+01
 -1      3273 7.04468E+00
 -1      3274 4.49189E+00
 -1      3275 5.21266E+00
 -1      3276 4.39186E+00
 -1      3277 5.40815E+00
 -1      3278 8.49765E-04
 -1      3279 8.59429E-04
 -1      3280 9.48336E-04
 -1      3281 7.58572E-04
 -1      3282 8.22075E-04
 -1      3283 9.20646E-04
 -1      3284 1.42635E+00
 -1      3285 1.46517E+00
 -1      3286 1.83891E+00
 -1      3287 1.56924E+00
 -1      3288 9.21926E+00
 -1      3289 1.13588E+01
 -1      3290 3.67888E+00
 -1      3291 2.98698E+00
 -1      3292 6.75824E+00
 -1      3293 9.90384E-04
 -1      3294 1.16147E+01
 -1      3295 9.98950E+00
 -1      3296 1.19912E+01
 -1      3297 1.25988E+01
 -1      3298 6.81819E+00
 -1      3299 7.77605E+00
 -1      3300 7.34189E+00
 -1      3301 3.13872E+00
 -1      3302 4.47672E+00
 -1      3303 3.07660E+00
 -1      3304 6.14694E+00
 -1      3305 6.79878E+00
 -1      3306 7.56459E+00
 -1      3307 5.98183E+00
 -1      3308 7.60921E+00
 -1      3309 4.56105E+00
 -1      3310 5.50156E+00
 -1      3311 1.11058E+00
 -1      3312 1.38612E+00
 -1      3313 1.47510E+00
 -1      3314 1.02255E+00
 -1      3315 7.56459E+00
 -1      3316 6.92959E+00
 -1      3317 8.04216E+00
 -1      3318 6.27074E+00
 -1      3319 1.09181E+01
 -1      3320 8.30846E+00
 -1      3321 4.80581E+00
 -1      3322 8.30932E+00
 -1      3323 8.49988E+00
 -1      3324 1.18765E+01
 -1      3325 1.01542E+01
 -1      3326 6.96521E+00
 -1      3327 1.02858E+01
 -1      3328 3.52838E+00
 -1      3329 3.45432E+00
 -1      3330 1.21548E-03
 -1      3331 1.27949E-03
 -1      3332 1.12448E-03
 -1      3333 8.73492E-04
 -1      3334 9.91064E-04
 -1      3335 8.57458E-04
 -1      3336 8.49387E-04
 -1      3337 9.67640E-04
 -1      3338 4.23290E+00
 -1      3339 3.54019E+00
 -1      3340 3.83335E+00
 -1      3341 8.57458E-04
 -1      3342 8.57458E-04
 -1      3343 9.43536E-04
 -1      3344 9.23934E-04
 -1      3345 1.33965E+01
 -1      3346 1.02867E+01
 -1      3347 1.02839E+01
 -1      3348 3.47652E+00
 -1      3349 8.65144E+00
 -1      3350 3.80125E+00
 -1      3351 6.51146E+00
 -1      3352 4.20087E+00
 -1      3353 1.09953E+01
 -1      3354 8.28144E+00
 -1      3355 9.37735E+00
 -1      3356 1.47392E+00
 -1      3357 1.28670E+00
 -1      3358 1.37472E+00
 -1      3359 1.88675E+00
 -1      3360 4.50753E+00
 -1      3361 9.91064E-04
 -1      3362 9.91064E-04
 -1      3363 1.02668E-03
 -1      3364 9.91744E-04
 -1      3365 9.61307E+00
 -1      3366 8.94164E+00
 -1      3367 9.88186E+00
 -1      3368 9.61307E+00
 -1      3369 6.31092E+00
 -1      3370 7.39949E-04
 -1      3371 7.32378E-04
 -1      3372 8.66761E-04
 -1      3373 9.00081E-04
 -1      3374 6.87113E+00
 -1      3375 6.45605E+00
 -1      3376 4.83391E+00
 -1      3377 6.00494E+00
 -1      3378 4.64860E+00
 -1      3379 3.94075E+00
 -1      3380 8.45724E+00
 -1      3381 5.69745E+00
 -1      3382 4.50121E+00
 -1      3383 3.12422E+00
 -1      3384 2.61880E+00
 -1      3385 4.42238E+00
 -1      3386 2.15520E+00
 -1      3387 1.85625E+00
 -1      3388 2.58177E+00
 -1      3389 1.59433E+00
 -1      3390 1.40906E+00
 -1      3391 1.85625E+00
 -1      3392 1.21210E+00
 -1      3393 1.08749E+00
 -1      3394 1.39737E+00
 -1      3395 9.41252E-01
 -1      3396 8.34376E-01
 -1      3397 1.05418E+00
 -1      3398 7.24817E-01
 -1      3399 6.36555E-01
 -1      3400 7.98381E-01
 -1      3401 5.53105E-01
 -1      3402 4.81998E-01
 -1      3403 6.05371E-01
 -1      3404 4.17796E-01
 -1      3405 3.61528E-01
 -1      3406 4.57718E-01
 -1      3407 3.11913E-01
 -1      3408 2.68042E-01
 -1      3409 3.43900E-01
 -1      3410 2.29717E-01
 -1      3411 1.95971E-01
 -1      3412 2.55960E-01
 -1      3413 1.66499E-01
 -1      3414 1.40887E-01
 -1      3415 1.88163E-01
 -1      3416 1.18399E-01
 -1      3417 1.00011E-01
 -1      3418 1.36203E-01
 -1      3419 8.30269E-02
 -1      3420 6.95542E-02
 -1      3421 9.67306E-02
 -1      3422 5.71695E-02
 -1      3423 4.72740E-02
 -1      3424 6.73620E-02
 -1      3425 3.84591E-02
 -1      3426 3.16901E-02
 -1      3427 4.61623E-02
 -1      3428 2.52223E-02
 -1      3429 2.05504E-02
 -1      3430 3.08796E-02
 -1      3431 1.58947E-02
 -1      3432 1.25560E-02
 -1      3433 1.97561E-02
 -1      3434 9.33518E-03
 -1      3435 7.26508E-03
 -1      3436 1.18796E-02
 -1      3437 5.07460E-03
 -1      3438 5.06691E-03
 -1      3439 6.46832E-03
 -1      3440 4.65268E-03
 -1      3441 4.68729E-03
 -1      3442 3.86360E-03
 -1      3443 4.97965E-03
 -1      3444 4.80688E-03
 -1      3445 3.74172E-03
 -1      3446 4.85018E-03
 -1      3447 4.56318E-03
 -1      3448 4.07739E-03
 -1      3449 4.45336E-03
 -1      3450 4.11512E-03
 -1      3451 4.01087E-03
 -1      3452 3.91941E-03
 -1      3453 3.63072E-03
 -1      3454 3.70533E-03
 -1      3455 3.39490E-03
 -1      3456 3.14155E-03
 -1      3457 3.27380E-03
 -1      3458 2.96158E-03
 -1      3459 2.69783E-03
 -1      3460 2.85801E-03
 -1      3461 2.49944E-03
 -1      3462 2.24494E-03
 -1      3463 2.47965E-03
 -1      3464 2.04422E-03
 -1      3465 1.81028E-03
 -1      3466 2.08053E-03
 -1      3467 1.61951E-03
 -1      3468 1.41109E-03
 -1      3469 1.68904E-03
 -1      3470 3.83504E+00
 -1      3471 1.74691E+00
 -1      3472 1.94260E+00
 -1      3473 2.33683E+00
 -1      3474 2.37992E+00
 -1      3475 2.69229E+00
 -1      3476 1.02485E+00
 -1      3477 1.11160E+00
 -1      3478 8.18438E-01
 -1      3479 9.01521E-01
 -1      3480 1.05378E+00
 -1      3481 6.80204E-01
 -1      3482 7.29947E-01
 -1      3483 8.41964E-01
 -1      3484 5.53034E-01
 -1      3485 6.00156E-01
 -1      3486 6.73426E-01
 -1      3487 4.45452E-01
 -1      3488 4.90203E-01
 -1      3489 5.30546E-01
 -1      3490 3.57342E-01
 -1      3491 3.99098E-01
 -1      3492 4.21361E-01
 -1      3493 2.85901E-01
 -1      3494 3.22210E-01
 -1      3495 3.39877E-01
 -1      3496 2.25188E-01
 -1      3497 2.55147E-01
 -1      3498 2.73992E-01
 -1      3499 1.73367E-01
 -1      3500 1.98043E-01
 -1      3501 2.16093E-01
 -1      3502 1.30465E-01
 -1      3503 1.50396E-01
 -1      3504 1.65977E-01
 -1      3505 9.58532E-02
 -1      3506 1.11658E-01
 -1      3507 1.24198E-01
 -1      3508 6.85732E-02
 -1      3509 8.08828E-02
 -1      3510 9.04199E-02
 -1      3511 4.78773E-02
 -1      3512 5.72921E-02
 -1      3513 6.41684E-02
 -1      3514 3.24722E-02
 -1      3515 3.95368E-02
 -1      3516 4.45468E-02
 -1      3517 2.10332E-02
 -1      3518 2.62253E-02
 -1      3519 2.99593E-02
 -1      3520 1.27412E-02
 -1      3521 1.64687E-02
 -1      3522 1.91478E-02
 -1      3523 7.55766E-03
 -1      3524 9.56414E-03
 -1      3525 1.14062E-02
 -1      3526 5.50595E-03
 -1      3527 5.47024E-03
 -1      3528 6.14176E-03
 -1      3529 5.45490E-03
 -1      3530 5.55998E-03
 -1      3531 4.10837E-03
 -1      3532 5.39739E-03
 -1      3533 5.67906E-03
 -1      3534 4.38657E-03
 -1      3535 5.01112E-03
 -1      3536 5.38315E-03
 -1      3537 4.59649E-03
 -1      3538 4.44815E-03
 -1      3539 4.85230E-03
 -1      3540 4.42344E-03
 -1      3541 3.91030E-03
 -1      3542 4.21094E-03
 -1      3543 4.02741E-03
 -1      3544 3.37236E-03
 -1      3545 3.66133E-03
 -1      3546 3.54124E-03
 -1      3547 2.87957E-03
 -1      3548 3.17228E-03
 -1      3549 3.09219E-03
 -1      3550 2.38182E-03
 -1      3551 2.65934E-03
 -1      3552 2.67189E-03
 -1      3553 1.91060E-03
 -1      3554 2.16218E-03
 -1      3555 2.23202E-03
 -1      3556 1.48834E-03
 -1      3557 1.70694E-03
 -1      3558 1.80872E-03
 -1      3559 8.30932E+00
 -1      3560 3.42130E+00
 -1      3561 1.04175E-03
 -1      3562 1.06944E-03
 -1      3563 2.63288E+00
 -1      3564 5.30237E+00
 -1      3565 6.03613E+00
 -1      3566 2.41137E+00
 -1      3567 1.12946E+01
 -1      3568 8.84564E+00
 -1      3569 2.75841E+00
 -1      3570 4.26352E+00
 -1      3571 1.04034E-03
 -1      3572 1.01834E-03
 -1      3573 3.66000E+00
 -1      3574 2.54686E+00
 -1      3575 2.27012E+00
 -1      3576 3.39421E+00
 -1      3577 7.12380E+00
 -1      3578 1.38248E+00
 -1      3579 1.45731E+00
 -1      3580 2.00847E+00
 -1      3581 1.44800E+00
 -1      3582 2.53258E+00
 -1      3583 2.85420E+00
 -1      3584 2.21265E+00
 -1      3585 2.53258E+00
 -1      3586 2.75667E+00
 -1      3587 1.83891E+00
 -1      3588 7.71603E+00
 -1      3589 5.30237E+00
 -1      3590 5.30237E+00
 -1      3591 1.06944E-03
 -1      3592 1.06944E-03
 -1      3593 1.16145E-03
 -1      3594 1.19055E-03
 -1      3595 2.03721E+00
 -1      3596 2.86675E+00
 -1      3597 3.30880E+00
 -1      3598 1.67268E+00
 -1      3599 7.24821E+00
 -1      3600 7.35012E+00
 -1      3601 6.90997E+00
 -1      3602 7.63140E+00
 -1      3603 5.16765E+00
 -1      3604 9.04062E+00
 -1      3605 8.23748E+00
 -1      3606 8.10775E+00
 -1      3607 1.22646E-03
 -1      3608 1.04430E-03
 -1      3609 9.84788E-04
 -1      3610 1.31364E-03
 -1      3611 1.08955E-03
 -1      3612 1.24227E-03
 -1      3613 1.33441E-03
 -1      3614 1.45112E-03
 -1      3615 2.65132E+00
 -1      3616 1.94472E+00
 -1      3617 4.29381E+00
 -1      3618 1.84064E+00
 -1      3619 1.07780E-03
 -1      3620 1.10191E-03
 -1      3621 4.23290E+00
 -1      3622 7.73064E+00
 -1      3623 8.53661E+00
 -1      3624 6.82126E+00
 -1      3625 9.85665E-04
 -1      3626 1.00527E-03
 -1      3627 1.09967E-03
 -1      3628 4.69872E+00
 -1      3629 2.02224E+00
 -1      3630 1.25463E-03
 -1      3631 1.14446E-03
 -1      3632 8.30846E+00
 -1      3633 3.69017E+00
 -1      3634 1.01098E-03
 -1      3635 1.15978E-03
 -1      3636 6.59541E-01
 -1      3637 7.39588E-01
 -1      3638 1.34441E-03
 -1      3639 2.94666E+00
 -1      3640 2.48306E+00
 -1      3641 2.04187E+00
 -1      3642 1.77995E+00
 -1      3643 2.40675E+00
 -1      3644 1.47774E+00
 -1      3645 1.28078E+00
 -1      3646 1.66335E+00
 -1      3647 1.09085E+00
 -1      3648 9.44616E-01
 -1      3649 1.17122E+00
 -1      3650 8.17997E-01
 -1      3651 7.08438E-01
 -1      3652 8.54673E-01
 -1      3653 6.18594E-01
 -1      3654 5.35143E-01
 -1      3655 6.38210E-01
 -1      3656 4.68797E-01
 -1      3657 4.04594E-01
 -1      3658 4.82020E-01
 -1      3659 3.54205E-01
 -1      3660 3.04590E-01
 -1      3661 3.65284E-01
 -1      3662 2.65714E-01
 -1      3663 2.27389E-01
 -1      3664 2.76019E-01
 -1      3665 1.97225E-01
 -1      3666 1.67754E-01
 -1      3667 2.06979E-01
 -1      3668 1.44381E-01
 -1      3669 1.21892E-01
 -1      3670 1.53443E-01
 -1      3671 1.03897E-01
 -1      3672 8.69128E-02
 -1      3673 1.12075E-01
 -1      3674 7.31936E-02
 -1      3675 6.08088E-02
 -1      3676 8.03597E-02
 -1      3677 5.04817E-02
 -1      3678 4.16667E-02
 -1      3679 5.63133E-02
 -1      3680 3.43484E-02
 -1      3681 2.78806E-02
 -1      3682 3.86678E-02
 -1      3683 2.26301E-02
 -1      3684 1.79744E-02
 -1      3685 2.60989E-02
 -1      3686 1.41529E-02
 -1      3687 1.09321E-02
 -1      3688 1.70268E-02
 -1      3689 8.21185E-03
 -1      3690 6.02137E-03
 -1      3691 1.04851E-02
 -1      3692 4.25261E-03
 -1      3693 3.83837E-03
 -1      3694 5.99614E-03
 -1      3695 2.87265E-03
 -1      3696 3.16501E-03
 -1      3697 3.26166E-03
 -1      3698 3.41028E-03
 -1      3699 3.45358E-03
 -1      3700 2.54121E-03
 -1      3701 3.59070E-03
 -1      3702 3.48088E-03
 -1      3703 2.92360E-03
 -1      3704 3.46225E-03
 -1      3705 3.26654E-03
 -1      3706 3.04209E-03
 -1      3707 3.15466E-03
 -1      3708 2.91884E-03
 -1      3709 2.91158E-03
 -1      3710 2.75714E-03
 -1      3711 2.57717E-03
 -1      3712 2.63800E-03
 -1      3713 2.41138E-03
 -1      3714 2.21299E-03
 -1      3715 2.31051E-03
 -1      3716 2.06128E-03
 -1      3717 1.86056E-03
 -1      3718 1.99301E-03
 -1      3719 1.70239E-03
 -1      3720 1.51162E-03
 -1      3721 1.68313E-03
 -1      3722 3.29594E+00
 -1      3723 2.32020E+00
 -1      3724 1.93683E+00
 -1      3725 8.62125E-01
 -1      3726 9.50615E-01
 -1      3727 8.48240E-01
 -1      3728 1.16744E+00
 -1      3729 1.29077E+00
 -1      3730 1.18760E+00
 -1      3731 5.17541E-01
 -1      3732 5.80373E-01
 -1      3733 6.46536E-01
 -1      3734 4.19618E-01
 -1      3735 4.65971E-01
 -1      3736 5.15798E-01
 -1      3737 3.39877E-01
 -1      3738 3.75008E-01
 -1      3739 4.19618E-01
 -1      3740 2.70129E-01
 -1      3741 3.00882E-01
 -1      3742 3.36014E-01
 -1      3743 2.09939E-01
 -1      3744 2.37084E-01
 -1      3745 2.63974E-01
 -1      3746 1.59624E-01
 -1      3747 1.82595E-01
 -1      3748 2.03586E-01
 -1      3749 1.18650E-01
 -1      3750 1.37458E-01
 -1      3751 1.54076E-01
 -1      3752 8.60479E-02
 -1      3753 1.01018E-01
 -1      3754 1.14278E-01
 -1      3755 6.09993E-02
 -1      3756 7.22804E-02
 -1      3757 8.28788E-02
 -1      3758 4.21083E-02
 -1      3759 5.04489E-02
 -1      3760 5.85609E-02
 -1      3761 2.82407E-02
 -1      3762 3.44876E-02
 -1      3763 4.03898E-02
 -1      3764 1.81766E-02
 -1      3765 2.27411E-02
 -1      3766 2.72695E-02
 -1      3767 1.09760E-02
 -1      3768 1.41531E-02
 -1      3769 1.77464E-02
 -1      3770 6.01529E-03
 -1      3771 8.10271E-03
 -1      3772 1.08496E-02
 -1      3773 4.27510E-03
 -1      3774 4.22107E-03
 -1      3775 6.18202E-03
 -1      3776 3.53906E-03
 -1      3777 3.31490E-03
 -1      3778 3.42759E-03
 -1      3779 3.88830E-03
 -1      3780 3.90253E-03
 -1      3781 2.83087E-03
 -1      3782 3.84479E-03
 -1      3783 4.00361E-03
 -1      3784 3.30965E-03
 -1      3785 3.56453E-03
 -1      3786 3.80173E-03
 -1      3787 3.38190E-03
 -1      3788 3.17866E-03
 -1      3789 3.42763E-03
 -1      3790 3.20195E-03
 -1      3791 2.79279E-03
 -1      3792 2.99286E-03
 -1      3793 2.87926E-03
 -1      3794 2.40845E-03
 -1      3795 2.62868E-03
 -1      3796 2.52935E-03
 -1      3797 2.01930E-03
 -1      3798 2.23894E-03
 -1      3799 2.19573E-03
 -1      3800 1.64204E-03
 -1      3801 1.84570E-03
 -1      3802 1.85262E-03
 -1      3803 1.07780E-03
 -1      3804 1.21207E-03
 -1      3805 1.07780E-03
 -1      3806 2.21438E+00
 -1      3807 2.71333E+00
 -1      3808 3.71121E+00
 -1      3809 3.71121E+00
 -1      3810 2.42374E+00
 -1      3811 6.73069E+00
 -1      3812 1.14446E-03
 -1      3813 5.88995E+00
 -1      3814 4.51295E+00
 -1      3815 4.41424E+00
 -1      3816 1.35219E-03
 -1      3817 1.50612E-03
 -1      3818 1.54311E-03
 -1      3819 1.30963E-03
 -1      3820 1.35776E-03
 -1      3821 6.82126E+00
 -1      3822 6.51785E+00
 -1      3823 1.25761E-03
 -1      3824 1.25761E-03
 -1      3825 1.35517E-03
 -1      3826 1.13953E-03
 -1      3827 7.73064E+00
 -1      3828 5.98052E+00
 -1      3829 6.48736E+00
 -1      3830 1.16266E-03
 -1      3831 1.12998E-03
 -1      3832 1.35776E-03
 -1      3833 1.44964E+00
 -1      3834 1.72052E+00
 -1      3835 2.42538E+00
 -1      3836 1.56329E+00
 -1      3837 4.06802E+00
 -1      3838 4.65063E+00
 -1      3839 5.52447E+00
 -1      3840 3.36481E+00
 -1      3841 1.20501E-03
 -1      3842 1.17591E-03
 -1      3843 1.20622E-03
 -1      3844 5.98052E+00
 -1      3845 1.64519E+00
 -1      3846 1.34298E+00
 -1      3847 1.15299E+00
 -1      3848 9.63068E-01
 -1      3849 1.13483E+00
 -1      3850 8.35199E-01
 -1      3851 7.08580E-01
 -1      3852 8.16975E-01
 -1      3853 6.20556E-01
 -1      3854 5.30713E-01
 -1      3855 6.01083E-01
 -1      3856 4.67364E-01
 -1      3857 4.01018E-01
 -1      3858 4.49711E-01
 -1      3859 3.53850E-01
 -1      3860 3.03461E-01
 -1      3861 3.39195E-01
 -1      3862 2.69301E-01
 -1      3863 2.30426E-01
 -1      3864 2.57868E-01
 -1      3865 2.03935E-01
 -1      3866 1.73771E-01
 -1      3867 1.97217E-01
 -1      3868 1.52744E-01
 -1      3869 1.29372E-01
 -1      3870 1.49700E-01
 -1      3871 1.12775E-01
 -1      3872 9.47791E-02
 -1      3873 1.12076E-01
 -1      3874 8.18083E-02
 -1      3875 6.80890E-02
 -1      3876 8.25085E-02
 -1      3877 5.80827E-02
 -1      3878 4.77555E-02
 -1      3879 5.95313E-02
 -1      3880 4.01552E-02
 -1      3881 3.28369E-02
 -1      3882 4.19247E-02
 -1      3883 2.76018E-02
 -1      3884 2.23513E-02
 -1      3885 2.90893E-02
 -1      3886 1.86821E-02
 -1      3887 1.48606E-02
 -1      3888 2.01851E-02
 -1      3889 1.21331E-02
 -1      3890 9.41291E-03
 -1      3891 1.37884E-02
 -1      3892 7.42102E-03
 -1      3893 5.65225E-03
 -1      3894 9.06903E-03
 -1      3895 4.22738E-03
 -1      3896 3.26166E-03
 -1      3897 5.65225E-03
 -1      3898 2.26746E-03
 -1      3899 2.51273E-03
 -1      3900 3.23318E-03
 -1      3901 2.38172E-03
 -1      3902 2.51884E-03
 -1      3903 2.10797E-03
 -1      3904 2.66964E-03
 -1      3905 2.65101E-03
 -1      3906 2.12776E-03
 -1      3907 2.66670E-03
 -1      3908 2.55482E-03
 -1      3909 2.29425E-03
 -1      3910 2.48761E-03
 -1      3911 2.32591E-03
 -1      3912 2.24273E-03
 -1      3913 2.21233E-03
 -1      3914 2.04654E-03
 -1      3915 2.06194E-03
 -1      3916 1.91096E-03
 -1      3917 1.75925E-03
 -1      3918 1.81278E-03
 -1      3919 1.68363E-03
 -1      3920 1.52547E-03
 -1      3921 1.60158E-03
 -1      3922 8.19498E-01
 -1      3923 9.42034E-01
 -1      3924 4.91273E+00
 -1      3925 3.34644E+00
 -1      3926 6.46536E-01
 -1      3927 7.25704E-01
 -1      3928 8.19498E-01
 -1      3929 1.13834E+00
 -1      3930 1.35517E+00
 -1      3931 1.10960E+00
 -1      3932 4.08321E-01
 -1      3933 4.52931E-01
 -1      3934 3.19188E-01
 -1      3935 3.58182E-01
 -1      3936 3.91495E-01
 -1      3937 2.46280E-01
 -1      3938 2.79325E-01
 -1      3939 3.01494E-01
 -1      3940 1.87354E-01
 -1      3941 2.14697E-01
 -1      3942 2.30048E-01
 -1      3943 1.40296E-01
 -1      3944 1.62463E-01
 -1      3945 1.73574E-01
 -1      3946 1.03193E-01
 -1      3947 1.20825E-01
 -1      3948 1.29212E-01
 -1      3949 7.43409E-02
 -1      3950 8.81084E-02
 -1      3951 9.46554E-02
 -1      3952 5.22400E-02
 -1      3953 6.27904E-02
 -1      3954 6.80200E-02
 -1      3955 3.58958E-02
 -1      3956 4.35165E-02
 -1      3957 4.77460E-02
 -1      3958 2.40384E-02
 -1      3959 2.95380E-02
 -1      3960 3.26647E-02
 -1      3961 1.56363E-02
 -1      3962 1.96597E-02
 -1      3963 2.19283E-02
 -1      3964 9.66134E-03
 -1      3965 1.25347E-02
 -1      3966 1.44480E-02
 -1      3967 5.84727E-03
 -1      3968 7.64149E-03
 -1      3969 9.32659E-03
 -1      3970 3.43186E-03
 -1      3971 4.39207E-03
 -1      3972 5.85154E-03
 -1      3973 2.80513E-03
 -1      3974 2.44165E-03
 -1      3975 3.40612E-03
 -1      3976 2.85643E-03
 -1      3977 2.74113E-03
 -1      3978 2.35191E-03
 -1      3979 2.96355E-03
 -1      3980 3.00660E-03
 -1      3981 2.43808E-03
 -1      3982 2.83217E-03
 -1      3983 2.96907E-03
 -1      3984 2.59377E-03
 -1      3985 2.56356E-03
 -1      3986 2.74936E-03
 -1      3987 2.51647E-03
 -1      3988 2.26761E-03
 -1      3989 2.43171E-03
 -1      3990 2.30181E-03
 -1      3991 1.94472E-03
 -1      3992 2.11423E-03
 -1      3993 2.01660E-03
 -1      3994 1.64123E-03
 -1      3995 1.81483E-03
 -1      3996 1.73333E-03
 -1      3997 5.98052E+00
 -1      3998 1.39358E-03
 -1      3999 1.52950E-03
 -1      4000 1.49170E-03
 -1      4001 1.34156E-03
 -1      4002 1.11227E-03
 -1      4003 1.18480E-03
 -1      4004 1.23035E-03
 -1      4005 1.17525E-03
 -1      4006 5.15798E-01
 -1      4007 5.67367E-01
 -1      4008 6.46536E-01
 -1      4009 5.61454E+00
 -1      4010 6.09089E+00
 -1      4011 2.43298E+00
 -1      4012 1.99179E+00
 -1      4013 2.93148E+00
 -1      4014 1.67142E+00
 -1      4015 1.37272E-03
 -1      4016 1.37222E-03
 -1      4017 1.82208E+00
 -1      4018 1.87133E+00
 -1      4019 2.03020E+00
 -1      4020 4.91273E+00
 -1      4021 1.41261E-03
 -1      4022 1.39489E-03
 -1      4023 5.58405E+00
 -1      4024 5.09751E+00
 -1      4025 5.04501E-01
 -1      4026 1.28493E-03
 -1      4027 1.27167E-03
 -1      4028 1.49132E-03
 -1      4029 1.43818E-03
 -1      4030 9.76834E-01
 -1      4031 8.48966E-01
 -1      4032 6.96006E-01
 -1      4033 6.07982E-01
 -1      4034 8.55865E-01
 -1      4035 5.14931E-01
 -1      4036 4.51583E-01
 -1      4037 6.09854E-01
 -1      4038 3.84732E-01
 -1      4039 3.37565E-01
 -1      4040 4.49953E-01
 -1      4041 2.88459E-01
 -1      4042 2.54299E-01
 -1      4043 3.33996E-01
 -1      4044 2.17639E-01
 -1      4045 1.91148E-01
 -1      4046 2.48230E-01
 -1      4047 1.63502E-01
 -1      4048 1.42476E-01
 -1      4049 1.83924E-01
 -1      4050 1.22287E-01
 -1      4051 1.05690E-01
 -1      4052 1.36089E-01
 -1      4053 9.06731E-02
 -1      4054 7.77022E-02
 -1      4055 1.00884E-01
 -1      4056 6.60515E-02
 -1      4057 5.60452E-02
 -1      4058 7.42161E-02
 -1      4059 4.71045E-02
 -1      4060 3.95042E-02
 -1      4061 5.36248E-02
 -1      4062 3.27320E-02
 -1      4063 2.74969E-02
 -1      4064 3.79119E-02
 -1      4065 2.27443E-02
 -1      4066 1.90752E-02
 -1      4067 2.63870E-02
 -1      4068 1.56476E-02
 -1      4069 1.29201E-02
 -1      4070 1.82068E-02
 -1      4071 1.03868E-02
 -1      4072 8.39493E-03
 -1      4073 1.22460E-02
 -1      4074 6.55925E-03
 -1      4075 5.13438E-03
 -1      4076 7.87706E-03
 -1      4077 3.83451E-03
 -1      4078 2.84031E-03
 -1      4079 4.74151E-03
 -1      4080 1.94525E-03
 -1      4081 1.81425E-03
 -1      4082 2.54658E-03
 -1      4083 1.74495E-03
 -1      4084 1.89574E-03
 -1      4085 1.58223E-03
 -1      4086 2.07869E-03
 -1      4087 2.09438E-03
 -1      4088 1.69588E-03
 -1      4089 2.14233E-03
 -1      4090 2.07511E-03
 -1      4091 1.92677E-03
 -1      4092 2.02080E-03
 -1      4093 1.90722E-03
 -1      4094 1.92040E-03
 -1      4095 1.75369E-03
 -1      4096 1.61811E-03
 -1      4097 1.71255E-03
 -1      4098 1.65472E-03
 -1      4099 1.57911E-03
 -1      4100 1.49132E-03
 -1      4101 1.59564E-03
 -1      4102 2.01794E+00
 -1      4103 1.67135E+00
 -1      4104 1.04399E+00
 -1      4105 1.13779E+00
 -1      4106 1.22205E-03
 -1      4107 1.29486E-03
 -1      4108 1.33327E-03
 -1      4109 1.45941E-03
 -1      4110 1.46558E+00
 -1      4111 1.66189E+00
 -1      4112 1.69007E+00
 -1      4113 3.22366E-01
 -1      4114 3.62229E-01
 -1      4115 4.29080E-01
 -1      4116 4.79219E-01
 -1      4117 4.49953E-01
 -1      4118 1.80127E-01
 -1      4119 2.05018E-01
 -1      4120 1.33009E-01
 -1      4121 1.52480E-01
 -1      4122 1.83924E-01
 -1      4123 9.69789E-02
 -1      4124 1.12064E-01
 -1      4125 1.35332E-01
 -1      4126 6.95636E-02
 -1      4127 8.11140E-02
 -1      4128 9.85225E-02
 -1      4129 4.88743E-02
 -1      4130 5.75979E-02
 -1      4131 7.06919E-02
 -1      4132 3.36164E-02
 -1      4133 3.99742E-02
 -1      4134 4.98260E-02
 -1      4135 2.30039E-02
 -1      4136 2.73826E-02
 -1      4137 3.46920E-02
 -1      4138 1.52775E-02
 -1      4139 1.83791E-02
 -1      4140 2.38334E-02
 -1      4141 9.87708E-03
 -1      4142 1.18969E-02
 -1      4143 1.58280E-02
 -1      4144 5.99583E-03
 -1      4145 7.45103E-03
 -1      4146 1.00214E-02
 -1      4147 3.40612E-03
 -1      4148 4.39634E-03
 -1      4149 5.99583E-03
 -1      4150 2.32073E-03
 -1      4151 2.38473E-03
 -1      4152 3.37494E-03
 -1      4153 2.14707E-03
 -1      4154 1.99690E-03
 -1      4155 2.02971E-03
 -1      4156 2.28039E-03
 -1      4157 2.27488E-03
 -1      4158 1.83369E-03
 -1      4159 2.21052E-03
 -1      4160 2.29334E-03
 -1      4161 1.97445E-03
 -1      4162 2.07234E-03
 -1      4163 2.20419E-03
 -1      4164 1.98105E-03
 -1      4165 1.86465E-03
 -1      4166 2.01803E-03
 -1      4167 1.92040E-03
 -1      4168 4.51626E+00
 -1      4169 2.41678E-01
 -1      4170 2.73261E-01
 -1      4171 3.33996E-01
 -1      4172 2.48230E-01
 -1      4173 3.67285E+00
 -1      4174 5.72270E-01
 -1      4175 6.35136E-01
 -1      4176 6.09854E-01
 -1      4177 3.46866E+00
 -1      4178 2.55520E+00
 -1      4179 2.55513E+00
 -1      4180 4.13998E+00
 -1      4181 4.21283E+00
 -1      4182 4.30289E+00
 -1      4183 3.25529E+00
 -1      4184 2.87822E+00
 -1      4185 1.44913E+00
 -1      4186 1.25914E+00
 -1      4187 1.29113E+00
 -1      4188 7.68211E-01
 -1      4189 8.47379E-01
 -1      4190 1.16567E+00
 -1      4191 1.79565E+00
 -1      4192 8.35980E-01
 -1      4193 1.57266E-03
 -1      4194 1.70255E-03
 -1      4195 1.44500E-03
 -1      4196 1.63225E-03
 -1      4197 1.70398E-03
 -1      4198 1.58706E-03
 -1      4199 1.41422E-03
 -1      4200 1.36308E+00
 -1      4201 1.87925E+00
 -1      4202 2.41923E+00
 -1      4203 1.71906E+00
 -1      4204 1.63225E-03
 -1      4205 1.63225E-03
 -1      4206 1.58706E-03
 -1      4207 1.59564E-03
 -1      4208 1.74917E-03
 -1      4209 7.02905E-01
 -1      4210 6.09854E-01
 -1      4211 5.16804E-01
 -1      4212 4.49953E-01
 -1      4213 3.83102E-01
 -1      4214 3.33996E-01
 -1      4215 2.84890E-01
 -1      4216 2.48230E-01
 -1      4217 2.11571E-01
 -1      4218 1.83924E-01
 -1      4219 1.56278E-01
 -1      4220 1.36089E-01
 -1      4221 1.15144E-01
 -1      4222 1.00127E-01
 -1      4223 8.42622E-02
 -1      4224 7.26115E-02
 -1      4225 6.06458E-02
 -1      4226 5.17051E-02
 -1      4227 4.28050E-02
 -1      4228 3.60328E-02
 -1      4229 2.97989E-02
 -1      4230 2.50463E-02
 -1      4231 2.04215E-02
 -1      4232 1.69939E-02
 -1      4233 1.36133E-02
 -1      4234 1.10801E-02
 -1      4235 8.65403E-03
 -1      4236 6.81835E-03
 -1      4237 5.21886E-03
 -1      4238 3.91899E-03
 -1      4239 2.89759E-03
 -1      4240 2.00254E-03
 -1      4241 1.67870E-03
 -1      4242 1.60941E-03
 -1      4243 1.73721E-03
 -1      4244 1.92016E-03
 -1      4245 1.93311E-03
 -1      4246 1.98105E-03
 -1      4247 1.97471E-03
 -1      4248 1.92040E-03
 -1      4249 2.01787E+00
 -1      4250 1.79565E+00
 -1      4251 1.46786E+00
 -1      4252 1.18555E+00
 -1      4253 9.88940E-01
 -1      4254 1.86608E-03
 -1      4255 8.35980E-01
 -1      4256 1.71255E-03
 -1      4257 2.55513E+00
 -1      4258 2.01787E+00
 -1      4259 2.71803E+00
 -1      4260 1.71906E+00
 -1      4261 2.01787E+00
 -3
 9999
